c BC-S1.2
p cnf 359 2740
1 -2 -3 -4 0
-1 2 0
-1 3 0
-1 4 0
5 -6 -7 -4 0
-5 6 0
-5 7 0
-5 4 0
8 -9 -10 0
-8 9 0
-8 10 0
11 -12 -13 -4 0
-11 12 0
-11 13 0
-11 4 0
14 -15 -16 0
-14 15 0
-14 16 0
17 -18 -19 -4 0
-17 18 0
-17 19 0
-17 4 0
20 -21 -22 -2 -23 -24 -25 -3 0
-20 21 0
-20 22 0
-20 2 0
-20 23 0
-20 24 0
-20 25 0
-20 3 0
26 -21 -22 -27 -2 -28 -23 -25 -3 0
-26 21 0
-26 22 0
-26 27 0
-26 2 0
-26 28 0
-26 23 0
-26 25 0
-26 3 0
29 -21 -22 -2 -30 -31 -32 -25 -3 0
-29 21 0
-29 22 0
-29 2 0
-29 30 0
-29 31 0
-29 32 0
-29 25 0
-29 3 0
33 -21 -22 -34 -2 -23 -35 -25 -3 0
-33 21 0
-33 22 0
-33 34 0
-33 2 0
-33 23 0
-33 35 0
-33 25 0
-33 3 0
36 -21 -37 -22 -38 -2 -30 -25 -3 0
-36 21 0
-36 37 0
-36 22 0
-36 38 0
-36 2 0
-36 30 0
-36 25 0
-36 3 0
39 -40 -21 -41 -22 -2 -23 -25 -3 0
-39 40 0
-39 21 0
-39 41 0
-39 22 0
-39 2 0
-39 23 0
-39 25 0
-39 3 0
42 -21 -22 -7 -28 -23 -24 -25 -3 0
-42 21 0
-42 22 0
-42 7 0
-42 28 0
-42 23 0
-42 24 0
-42 25 0
-42 3 0
43 -21 -22 -7 -28 -23 -44 -25 -3 0
-43 21 0
-43 22 0
-43 7 0
-43 28 0
-43 23 0
-43 44 0
-43 25 0
-43 3 0
45 -21 -22 -46 -7 -30 -31 -25 -3 0
-45 21 0
-45 22 0
-45 46 0
-45 7 0
-45 30 0
-45 31 0
-45 25 0
-45 3 0
47 -21 -22 -34 -7 -23 -48 -25 -3 0
-47 21 0
-47 22 0
-47 34 0
-47 7 0
-47 23 0
-47 48 0
-47 25 0
-47 3 0
49 -21 -22 -37 -7 -50 -30 -25 -3 0
-49 21 0
-49 22 0
-49 37 0
-49 7 0
-49 50 0
-49 30 0
-49 25 0
-49 3 0
51 -21 -41 -22 -7 -23 -52 -25 -3 0
-51 21 0
-51 41 0
-51 22 0
-51 7 0
-51 23 0
-51 52 0
-51 25 0
-51 3 0
53 -22 -9 -31 -23 -24 -54 -25 -3 0
-53 22 0
-53 9 0
-53 31 0
-53 23 0
-53 24 0
-53 54 0
-53 25 0
-53 3 0
55 -22 -28 -9 -23 -56 -54 -25 -3 0
-55 22 0
-55 28 0
-55 9 0
-55 23 0
-55 56 0
-55 54 0
-55 25 0
-55 3 0
57 -22 -58 -30 -9 -31 -54 -25 -3 0
-57 22 0
-57 58 0
-57 30 0
-57 9 0
-57 31 0
-57 54 0
-57 25 0
-57 3 0
59 -22 -34 -9 -60 -23 -54 -25 -3 0
-59 22 0
-59 34 0
-59 9 0
-59 60 0
-59 23 0
-59 54 0
-59 25 0
-59 3 0
61 -37 -22 -30 -62 -9 -54 -25 -3 0
-61 37 0
-61 22 0
-61 30 0
-61 62 0
-61 9 0
-61 54 0
-61 25 0
-61 3 0
63 -41 -22 -9 -23 -64 -54 -25 -3 0
-63 41 0
-63 22 0
-63 9 0
-63 23 0
-63 64 0
-63 54 0
-63 25 0
-63 3 0
65 -21 -22 -34 -23 -24 -12 -25 -3 0
-65 21 0
-65 22 0
-65 34 0
-65 23 0
-65 24 0
-65 12 0
-65 25 0
-65 3 0
66 -21 -22 -67 -28 -23 -12 -25 -3 0
-66 21 0
-66 22 0
-66 67 0
-66 28 0
-66 23 0
-66 12 0
-66 25 0
-66 3 0
68 -21 -22 -30 -31 -12 -69 -25 -3 0
-68 21 0
-68 22 0
-68 30 0
-68 31 0
-68 12 0
-68 69 0
-68 25 0
-68 3 0
70 -21 -71 -22 -34 -23 -12 -25 -3 0
-70 21 0
-70 71 0
-70 22 0
-70 34 0
-70 23 0
-70 12 0
-70 25 0
-70 3 0
72 -73 -21 -22 -37 -30 -12 -25 -3 0
-72 73 0
-72 21 0
-72 22 0
-72 37 0
-72 30 0
-72 12 0
-72 25 0
-72 3 0
74 -21 -41 -22 -75 -23 -12 -25 -3 0
-74 21 0
-74 41 0
-74 22 0
-74 75 0
-74 23 0
-74 12 0
-74 25 0
-74 3 0
76 -37 -22 -16 -24 -23 -54 -25 -3 0
-76 37 0
-76 22 0
-76 16 0
-76 24 0
-76 23 0
-76 54 0
-76 25 0
-76 3 0
77 -22 -78 -16 -28 -23 -54 -25 -3 0
-77 22 0
-77 78 0
-77 16 0
-77 28 0
-77 23 0
-77 54 0
-77 25 0
-77 3 0
79 -3 -22 -16 -30 -31 -54 -25 -80 0
-79 3 0
-79 22 0
-79 16 0
-79 30 0
-79 31 0
-79 54 0
-79 25 0
-79 80 0
81 -22 -34 -16 -23 -54 -82 -25 -3 0
-81 22 0
-81 34 0
-81 16 0
-81 23 0
-81 54 0
-81 82 0
-81 25 0
-81 3 0
83 -84 -37 -22 -16 -30 -54 -25 -3 0
-83 84 0
-83 37 0
-83 22 0
-83 16 0
-83 30 0
-83 54 0
-83 25 0
-83 3 0
85 -41 -22 -16 -86 -23 -54 -25 -3 0
-85 41 0
-85 22 0
-85 16 0
-85 86 0
-85 23 0
-85 54 0
-85 25 0
-85 3 0
87 -21 -41 -22 -18 -23 -24 -25 -3 0
-87 21 0
-87 41 0
-87 22 0
-87 18 0
-87 23 0
-87 24 0
-87 25 0
-87 3 0
88 -89 -21 -22 -18 -28 -23 -25 -3 0
-88 89 0
-88 21 0
-88 22 0
-88 18 0
-88 28 0
-88 23 0
-88 25 0
-88 3 0
90 -21 -22 -18 -30 -91 -31 -25 -3 0
-90 21 0
-90 22 0
-90 18 0
-90 30 0
-90 91 0
-90 31 0
-90 25 0
-90 3 0
92 -93 -21 -22 -34 -18 -23 -25 -3 0
-92 93 0
-92 21 0
-92 22 0
-92 34 0
-92 18 0
-92 23 0
-92 25 0
-92 3 0
94 -21 -22 -37 -95 -18 -30 -25 -3 0
-94 21 0
-94 22 0
-94 37 0
-94 95 0
-94 18 0
-94 30 0
-94 25 0
-94 3 0
96 -21 -41 -22 -97 -18 -23 -25 -3 0
-96 21 0
-96 41 0
-96 22 0
-96 97 0
-96 18 0
-96 23 0
-96 25 0
-96 3 0
98 -6 -21 -22 -27 -2 -23 -24 -25 0
-98 6 0
-98 21 0
-98 22 0
-98 27 0
-98 2 0
-98 23 0
-98 24 0
-98 25 0
99 -6 -21 -22 -27 -2 -23 -44 -25 0
-99 6 0
-99 21 0
-99 22 0
-99 27 0
-99 2 0
-99 23 0
-99 44 0
-99 25 0
100 -6 -21 -22 -2 -30 -56 -32 -25 0
-100 6 0
-100 21 0
-100 22 0
-100 2 0
-100 30 0
-100 56 0
-100 32 0
-100 25 0
101 -6 -21 -22 -67 -2 -23 -35 -25 0
-101 6 0
-101 21 0
-101 22 0
-101 67 0
-101 2 0
-101 23 0
-101 35 0
-101 25 0
102 -6 -21 -22 -78 -38 -2 -30 -25 0
-102 6 0
-102 21 0
-102 22 0
-102 78 0
-102 38 0
-102 2 0
-102 30 0
-102 25 0
103 -40 -89 -6 -21 -22 -2 -23 -25 0
-103 40 0
-103 89 0
-103 6 0
-103 21 0
-103 22 0
-103 2 0
-103 23 0
-103 25 0
104 -6 -21 -22 -27 -7 -28 -23 -25 0
-104 6 0
-104 21 0
-104 22 0
-104 27 0
-104 7 0
-104 28 0
-104 23 0
-104 25 0
105 -6 -21 -22 -7 -23 -44 -25 0
-105 6 0
-105 21 0
-105 22 0
-105 7 0
-105 23 0
-105 44 0
-105 25 0
106 -6 -21 -22 -46 -7 -30 -56 -25 0
-106 6 0
-106 21 0
-106 22 0
-106 46 0
-106 7 0
-106 30 0
-106 56 0
-106 25 0
107 -6 -21 -22 -67 -7 -23 -48 -25 0
-107 6 0
-107 21 0
-107 22 0
-107 67 0
-107 7 0
-107 23 0
-107 48 0
-107 25 0
108 -6 -21 -22 -78 -7 -50 -30 -25 0
-108 6 0
-108 21 0
-108 22 0
-108 78 0
-108 7 0
-108 50 0
-108 30 0
-108 25 0
109 -89 -6 -21 -22 -7 -23 -52 -25 0
-109 89 0
-109 6 0
-109 21 0
-109 22 0
-109 7 0
-109 23 0
-109 52 0
-109 25 0
110 -6 -22 -27 -9 -31 -23 -54 -25 0
-110 6 0
-110 22 0
-110 27 0
-110 9 0
-110 31 0
-110 23 0
-110 54 0
-110 25 0
111 -6 -22 -9 -23 -56 -44 -54 -25 0
-111 6 0
-111 22 0
-111 9 0
-111 23 0
-111 56 0
-111 44 0
-111 54 0
-111 25 0
112 -6 -22 -58 -30 -9 -56 -54 -25 0
-112 6 0
-112 22 0
-112 58 0
-112 30 0
-112 9 0
-112 56 0
-112 54 0
-112 25 0
113 -6 -22 -67 -9 -60 -23 -54 -25 0
-113 6 0
-113 22 0
-113 67 0
-113 9 0
-113 60 0
-113 23 0
-113 54 0
-113 25 0
114 -6 -22 -78 -30 -62 -9 -54 -25 0
-114 6 0
-114 22 0
-114 78 0
-114 30 0
-114 62 0
-114 9 0
-114 54 0
-114 25 0
115 -89 -6 -22 -9 -23 -64 -54 -25 0
-115 89 0
-115 6 0
-115 22 0
-115 9 0
-115 23 0
-115 64 0
-115 54 0
-115 25 0
116 -6 -21 -22 -27 -34 -23 -12 -25 0
-116 6 0
-116 21 0
-116 22 0
-116 27 0
-116 34 0
-116 23 0
-116 12 0
-116 25 0
117 -6 -21 -22 -67 -23 -44 -12 -25 0
-117 6 0
-117 21 0
-117 22 0
-117 67 0
-117 23 0
-117 44 0
-117 12 0
-117 25 0
118 -6 -21 -22 -30 -56 -12 -69 -25 0
-118 6 0
-118 21 0
-118 22 0
-118 30 0
-118 56 0
-118 12 0
-118 69 0
-118 25 0
119 -6 -21 -71 -22 -67 -23 -12 -25 0
-119 6 0
-119 21 0
-119 71 0
-119 22 0
-119 67 0
-119 23 0
-119 12 0
-119 25 0
120 -6 -73 -21 -22 -78 -30 -12 -25 0
-120 6 0
-120 73 0
-120 21 0
-120 22 0
-120 78 0
-120 30 0
-120 12 0
-120 25 0
121 -89 -6 -21 -22 -75 -23 -12 -25 0
-121 89 0
-121 6 0
-121 21 0
-121 22 0
-121 75 0
-121 23 0
-121 12 0
-121 25 0
122 -6 -37 -27 -22 -16 -23 -54 -25 0
-122 6 0
-122 37 0
-122 27 0
-122 22 0
-122 16 0
-122 23 0
-122 54 0
-122 25 0
123 -6 -22 -78 -16 -23 -44 -54 -25 0
-123 6 0
-123 22 0
-123 78 0
-123 16 0
-123 23 0
-123 44 0
-123 54 0
-123 25 0
124 -6 -22 -16 -30 -56 -54 -25 -80 0
-124 6 0
-124 22 0
-124 16 0
-124 30 0
-124 56 0
-124 54 0
-124 25 0
-124 80 0
125 -6 -22 -67 -16 -23 -54 -82 -25 0
-125 6 0
-125 22 0
-125 67 0
-125 16 0
-125 23 0
-125 54 0
-125 82 0
-125 25 0
126 -6 -84 -22 -78 -16 -30 -54 -25 0
-126 6 0
-126 84 0
-126 22 0
-126 78 0
-126 16 0
-126 30 0
-126 54 0
-126 25 0
127 -89 -6 -22 -16 -86 -23 -54 -25 0
-127 89 0
-127 6 0
-127 22 0
-127 16 0
-127 86 0
-127 23 0
-127 54 0
-127 25 0
128 -6 -21 -41 -22 -27 -18 -23 -25 0
-128 6 0
-128 21 0
-128 41 0
-128 22 0
-128 27 0
-128 18 0
-128 23 0
-128 25 0
129 -89 -6 -21 -22 -18 -23 -44 -25 0
-129 89 0
-129 6 0
-129 21 0
-129 22 0
-129 18 0
-129 23 0
-129 44 0
-129 25 0
130 -6 -21 -22 -18 -30 -91 -56 -25 0
-130 6 0
-130 21 0
-130 22 0
-130 18 0
-130 30 0
-130 91 0
-130 56 0
-130 25 0
131 -93 -6 -21 -22 -67 -18 -23 -25 0
-131 93 0
-131 6 0
-131 21 0
-131 22 0
-131 67 0
-131 18 0
-131 23 0
-131 25 0
132 -6 -21 -22 -78 -95 -18 -30 -25 0
-132 6 0
-132 21 0
-132 22 0
-132 78 0
-132 95 0
-132 18 0
-132 30 0
-132 25 0
133 -89 -6 -21 -22 -97 -18 -23 -25 0
-133 89 0
-133 6 0
-133 21 0
-133 22 0
-133 97 0
-133 18 0
-133 23 0
-133 25 0
134 -10 -21 -2 -23 -24 -32 -25 -135 0
-134 10 0
-134 21 0
-134 2 0
-134 23 0
-134 24 0
-134 32 0
-134 25 0
-134 135 0
136 -10 -21 -27 -46 -2 -23 -25 -135 0
-136 10 0
-136 21 0
-136 27 0
-136 46 0
-136 2 0
-136 23 0
-136 25 0
-136 135 0
137 -10 -21 -58 -2 -30 -32 -25 -135 0
-137 10 0
-137 21 0
-137 58 0
-137 2 0
-137 30 0
-137 32 0
-137 25 0
-137 135 0
138 -10 -21 -2 -23 -35 -69 -25 -135 0
-138 10 0
-138 21 0
-138 2 0
-138 23 0
-138 35 0
-138 69 0
-138 25 0
-138 135 0
139 -10 -21 -38 -2 -30 -25 -80 -135 0
-139 10 0
-139 21 0
-139 38 0
-139 2 0
-139 30 0
-139 25 0
-139 80 0
-139 135 0
140 -40 -10 -21 -2 -91 -23 -25 -135 0
-140 40 0
-140 10 0
-140 21 0
-140 2 0
-140 91 0
-140 23 0
-140 25 0
-140 135 0
141 -10 -21 -7 -28 -23 -32 -25 -135 0
-141 10 0
-141 21 0
-141 7 0
-141 28 0
-141 23 0
-141 32 0
-141 25 0
-141 135 0
142 -10 -21 -46 -7 -23 -44 -25 -135 0
-142 10 0
-142 21 0
-142 46 0
-142 7 0
-142 23 0
-142 44 0
-142 25 0
-142 135 0
143 -10 -21 -58 -46 -7 -30 -25 -135 0
-143 10 0
-143 21 0
-143 58 0
-143 46 0
-143 7 0
-143 30 0
-143 25 0
-143 135 0
144 -10 -21 -48 -7 -23 -69 -25 -135 0
-144 10 0
-144 21 0
-144 48 0
-144 7 0
-144 23 0
-144 69 0
-144 25 0
-144 135 0
145 -10 -21 -7 -50 -30 -25 -80 -135 0
-145 10 0
-145 21 0
-145 7 0
-145 50 0
-145 30 0
-145 25 0
-145 80 0
-145 135 0
146 -10 -21 -7 -91 -23 -52 -25 -135 0
-146 10 0
-146 21 0
-146 7 0
-146 91 0
-146 23 0
-146 52 0
-146 25 0
-146 135 0
147 -10 -9 -31 -23 -54 -32 -25 -135 0
-147 10 0
-147 9 0
-147 31 0
-147 23 0
-147 54 0
-147 32 0
-147 25 0
-147 135 0
148 -10 -46 -9 -23 -56 -54 -25 -135 0
-148 10 0
-148 46 0
-148 9 0
-148 23 0
-148 56 0
-148 54 0
-148 25 0
-148 135 0
149 -10 -58 -30 -9 -54 -25 -135 0
-149 10 0
-149 58 0
-149 30 0
-149 9 0
-149 54 0
-149 25 0
-149 135 0
150 -10 -9 -60 -23 -54 -69 -25 -135 0
-150 10 0
-150 9 0
-150 60 0
-150 23 0
-150 54 0
-150 69 0
-150 25 0
-150 135 0
151 -10 -30 -62 -9 -54 -25 -80 -135 0
-151 10 0
-151 30 0
-151 62 0
-151 9 0
-151 54 0
-151 25 0
-151 80 0
-151 135 0
152 -10 -91 -9 -23 -64 -54 -25 -135 0
-152 10 0
-152 91 0
-152 9 0
-152 23 0
-152 64 0
-152 54 0
-152 25 0
-152 135 0
153 -10 -21 -34 -23 -12 -32 -25 -135 0
-153 10 0
-153 21 0
-153 34 0
-153 23 0
-153 12 0
-153 32 0
-153 25 0
-153 135 0
154 -10 -21 -46 -67 -23 -12 -25 -135 0
-154 10 0
-154 21 0
-154 46 0
-154 67 0
-154 23 0
-154 12 0
-154 25 0
-154 135 0
155 -10 -21 -58 -30 -12 -69 -25 -135 0
-155 10 0
-155 21 0
-155 58 0
-155 30 0
-155 12 0
-155 69 0
-155 25 0
-155 135 0
156 -10 -21 -71 -23 -12 -69 -25 -135 0
-156 10 0
-156 21 0
-156 71 0
-156 23 0
-156 12 0
-156 69 0
-156 25 0
-156 135 0
157 -73 -10 -21 -30 -12 -25 -80 -135 0
-157 73 0
-157 10 0
-157 21 0
-157 30 0
-157 12 0
-157 25 0
-157 80 0
-157 135 0
158 -10 -21 -91 -75 -23 -12 -25 -135 0
-158 10 0
-158 21 0
-158 91 0
-158 75 0
-158 23 0
-158 12 0
-158 25 0
-158 135 0
159 -10 -37 -16 -23 -54 -32 -25 -135 0
-159 10 0
-159 37 0
-159 16 0
-159 23 0
-159 54 0
-159 32 0
-159 25 0
-159 135 0
160 -10 -78 -46 -16 -23 -54 -25 -135 0
-160 10 0
-160 78 0
-160 46 0
-160 16 0
-160 23 0
-160 54 0
-160 25 0
-160 135 0
161 -10 -58 -16 -30 -54 -25 -80 -135 0
-161 10 0
-161 58 0
-161 16 0
-161 30 0
-161 54 0
-161 25 0
-161 80 0
-161 135 0
162 -10 -16 -23 -54 -82 -69 -25 -135 0
-162 10 0
-162 16 0
-162 23 0
-162 54 0
-162 82 0
-162 69 0
-162 25 0
-162 135 0
163 -84 -10 -16 -30 -54 -25 -80 -135 0
-163 84 0
-163 10 0
-163 16 0
-163 30 0
-163 54 0
-163 25 0
-163 80 0
-163 135 0
164 -10 -16 -86 -91 -23 -54 -25 -135 0
-164 10 0
-164 16 0
-164 86 0
-164 91 0
-164 23 0
-164 54 0
-164 25 0
-164 135 0
165 -10 -41 -21 -18 -23 -32 -25 -135 0
-165 10 0
-165 41 0
-165 21 0
-165 18 0
-165 23 0
-165 32 0
-165 25 0
-165 135 0
166 -89 -10 -21 -46 -18 -23 -25 -135 0
-166 89 0
-166 10 0
-166 21 0
-166 46 0
-166 18 0
-166 23 0
-166 25 0
-166 135 0
167 -10 -21 -58 -18 -30 -91 -25 -135 0
-167 10 0
-167 21 0
-167 58 0
-167 18 0
-167 30 0
-167 91 0
-167 25 0
-167 135 0
168 -93 -10 -21 -18 -23 -69 -25 -135 0
-168 93 0
-168 10 0
-168 21 0
-168 18 0
-168 23 0
-168 69 0
-168 25 0
-168 135 0
169 -10 -21 -95 -18 -30 -25 -80 -135 0
-169 10 0
-169 21 0
-169 95 0
-169 18 0
-169 30 0
-169 25 0
-169 80 0
-169 135 0
170 -10 -21 -97 -18 -91 -23 -25 -135 0
-170 10 0
-170 21 0
-170 97 0
-170 18 0
-170 91 0
-170 23 0
-170 25 0
-170 135 0
171 -21 -22 -2 -24 -13 -23 -35 -25 0
-171 21 0
-171 22 0
-171 2 0
-171 24 0
-171 13 0
-171 23 0
-171 35 0
-171 25 0
172 -21 -22 -27 -2 -23 -13 -48 -25 0
-172 21 0
-172 22 0
-172 27 0
-172 2 0
-172 23 0
-172 13 0
-172 48 0
-172 25 0
173 -21 -22 -2 -30 -60 -13 -32 -25 0
-173 21 0
-173 22 0
-173 2 0
-173 30 0
-173 60 0
-173 13 0
-173 32 0
-173 25 0
174 -21 -71 -22 -2 -23 -13 -35 -25 0
-174 21 0
-174 71 0
-174 22 0
-174 2 0
-174 23 0
-174 13 0
-174 35 0
-174 25 0
175 -21 -22 -38 -2 -30 -13 -82 -25 0
-175 21 0
-175 22 0
-175 38 0
-175 2 0
-175 30 0
-175 13 0
-175 82 0
-175 25 0
176 -40 -93 -21 -22 -2 -23 -13 -25 0
-176 40 0
-176 93 0
-176 21 0
-176 22 0
-176 2 0
-176 23 0
-176 13 0
-176 25 0
177 -21 -22 -7 -28 -23 -13 -35 -25 0
-177 21 0
-177 22 0
-177 7 0
-177 28 0
-177 23 0
-177 13 0
-177 35 0
-177 25 0
178 -21 -22 -7 -23 -13 -44 -48 -25 0
-178 21 0
-178 22 0
-178 7 0
-178 23 0
-178 13 0
-178 44 0
-178 48 0
-178 25 0
179 -21 -22 -46 -7 -30 -60 -13 -25 0
-179 21 0
-179 22 0
-179 46 0
-179 7 0
-179 30 0
-179 60 0
-179 13 0
-179 25 0
180 -21 -71 -22 -7 -23 -13 -48 -25 0
-180 21 0
-180 71 0
-180 22 0
-180 7 0
-180 23 0
-180 13 0
-180 48 0
-180 25 0
181 -21 -22 -7 -50 -30 -13 -82 -25 0
-181 21 0
-181 22 0
-181 7 0
-181 50 0
-181 30 0
-181 13 0
-181 82 0
-181 25 0
182 -93 -21 -22 -7 -23 -13 -52 -25 0
-182 93 0
-182 21 0
-182 22 0
-182 7 0
-182 23 0
-182 13 0
-182 52 0
-182 25 0
183 -22 -9 -31 -23 -13 -54 -35 -25 0
-183 22 0
-183 9 0
-183 31 0
-183 23 0
-183 13 0
-183 54 0
-183 35 0
-183 25 0
184 -22 -9 -23 -13 -56 -54 -48 -25 0
-184 22 0
-184 9 0
-184 23 0
-184 13 0
-184 56 0
-184 54 0
-184 48 0
-184 25 0
185 -22 -58 -30 -9 -60 -13 -54 -25 0
-185 22 0
-185 58 0
-185 30 0
-185 9 0
-185 60 0
-185 13 0
-185 54 0
-185 25 0
186 -71 -22 -9 -60 -23 -13 -54 -25 0
-186 71 0
-186 22 0
-186 9 0
-186 60 0
-186 23 0
-186 13 0
-186 54 0
-186 25 0
187 -22 -30 -62 -9 -13 -54 -82 -25 0
-187 22 0
-187 30 0
-187 62 0
-187 9 0
-187 13 0
-187 54 0
-187 82 0
-187 25 0
188 -93 -22 -9 -23 -13 -64 -54 -25 0
-188 93 0
-188 22 0
-188 9 0
-188 23 0
-188 13 0
-188 64 0
-188 54 0
-188 25 0
189 -21 -22 -34 -23 -13 -35 -12 -25 0
-189 21 0
-189 22 0
-189 34 0
-189 23 0
-189 13 0
-189 35 0
-189 12 0
-189 25 0
190 -21 -22 -67 -23 -13 -12 -48 -25 0
-190 21 0
-190 22 0
-190 67 0
-190 23 0
-190 13 0
-190 12 0
-190 48 0
-190 25 0
191 -21 -22 -30 -60 -13 -12 -69 -25 0
-191 21 0
-191 22 0
-191 30 0
-191 60 0
-191 13 0
-191 12 0
-191 69 0
-191 25 0
192 -21 -71 -22 -23 -13 -12 -25 0
-192 21 0
-192 71 0
-192 22 0
-192 23 0
-192 13 0
-192 12 0
-192 25 0
193 -73 -21 -22 -82 -30 -13 -12 -25 0
-193 73 0
-193 21 0
-193 22 0
-193 82 0
-193 30 0
-193 13 0
-193 12 0
-193 25 0
194 -93 -21 -22 -75 -23 -13 -12 -25 0
-194 93 0
-194 21 0
-194 22 0
-194 75 0
-194 23 0
-194 13 0
-194 12 0
-194 25 0
195 -37 -22 -16 -23 -13 -54 -35 -25 0
-195 37 0
-195 22 0
-195 16 0
-195 23 0
-195 13 0
-195 54 0
-195 35 0
-195 25 0
196 -22 -78 -16 -23 -13 -54 -48 -25 0
-196 22 0
-196 78 0
-196 16 0
-196 23 0
-196 13 0
-196 54 0
-196 48 0
-196 25 0
197 -22 -16 -30 -60 -13 -54 -25 -80 0
-197 22 0
-197 16 0
-197 30 0
-197 60 0
-197 13 0
-197 54 0
-197 25 0
-197 80 0
198 -71 -22 -16 -23 -13 -54 -82 -25 0
-198 71 0
-198 22 0
-198 16 0
-198 23 0
-198 13 0
-198 54 0
-198 82 0
-198 25 0
199 -84 -22 -16 -30 -13 -54 -82 -25 0
-199 84 0
-199 22 0
-199 16 0
-199 30 0
-199 13 0
-199 54 0
-199 82 0
-199 25 0
200 -93 -22 -16 -86 -23 -13 -54 -25 0
-200 93 0
-200 22 0
-200 16 0
-200 86 0
-200 23 0
-200 13 0
-200 54 0
-200 25 0
201 -21 -41 -22 -18 -23 -13 -35 -25 0
-201 21 0
-201 41 0
-201 22 0
-201 18 0
-201 23 0
-201 13 0
-201 35 0
-201 25 0
202 -89 -21 -22 -18 -23 -13 -48 -25 0
-202 89 0
-202 21 0
-202 22 0
-202 18 0
-202 23 0
-202 13 0
-202 48 0
-202 25 0
203 -21 -22 -18 -30 -91 -60 -13 -25 0
-203 21 0
-203 22 0
-203 18 0
-203 30 0
-203 91 0
-203 60 0
-203 13 0
-203 25 0
204 -93 -21 -71 -22 -18 -23 -13 -25 0
-204 93 0
-204 21 0
-204 71 0
-204 22 0
-204 18 0
-204 23 0
-204 13 0
-204 25 0
205 -21 -22 -95 -18 -30 -13 -82 -25 0
-205 21 0
-205 22 0
-205 95 0
-205 18 0
-205 30 0
-205 13 0
-205 82 0
-205 25 0
206 -93 -21 -22 -97 -18 -23 -13 -25 0
-206 93 0
-206 21 0
-206 22 0
-206 97 0
-206 18 0
-206 23 0
-206 13 0
-206 25 0
207 -21 -38 -2 -24 -23 -15 -25 -135 0
-207 21 0
-207 38 0
-207 2 0
-207 24 0
-207 23 0
-207 15 0
-207 25 0
-207 135 0
208 -21 -27 -50 -2 -23 -15 -25 -135 0
-208 21 0
-208 27 0
-208 50 0
-208 2 0
-208 23 0
-208 15 0
-208 25 0
-208 135 0
209 -21 -2 -30 -62 -32 -15 -25 -135 0
-209 21 0
-209 2 0
-209 30 0
-209 62 0
-209 32 0
-209 15 0
-209 25 0
-209 135 0
210 -73 -21 -2 -23 -35 -15 -25 -135 0
-210 73 0
-210 21 0
-210 2 0
-210 23 0
-210 35 0
-210 15 0
-210 25 0
-210 135 0
211 -84 -21 -38 -2 -30 -15 -25 -135 0
-211 84 0
-211 21 0
-211 38 0
-211 2 0
-211 30 0
-211 15 0
-211 25 0
-211 135 0
212 -40 -21 -95 -2 -23 -15 -25 -135 0
-212 40 0
-212 21 0
-212 95 0
-212 2 0
-212 23 0
-212 15 0
-212 25 0
-212 135 0
213 -21 -7 -38 -28 -23 -15 -25 -135 0
-213 21 0
-213 7 0
-213 38 0
-213 28 0
-213 23 0
-213 15 0
-213 25 0
-213 135 0
214 -21 -7 -50 -23 -44 -15 -25 -135 0
-214 21 0
-214 7 0
-214 50 0
-214 23 0
-214 44 0
-214 15 0
-214 25 0
-214 135 0
215 -21 -46 -7 -30 -62 -15 -25 -135 0
-215 21 0
-215 46 0
-215 7 0
-215 30 0
-215 62 0
-215 15 0
-215 25 0
-215 135 0
216 -73 -21 -7 -15 -23 -48 -25 -135 0
-216 73 0
-216 21 0
-216 7 0
-216 15 0
-216 23 0
-216 48 0
-216 25 0
-216 135 0
217 -84 -21 -7 -50 -30 -15 -25 -135 0
-217 84 0
-217 21 0
-217 7 0
-217 50 0
-217 30 0
-217 15 0
-217 25 0
-217 135 0
218 -21 -7 -95 -23 -52 -15 -25 -135 0
-218 21 0
-218 7 0
-218 95 0
-218 23 0
-218 52 0
-218 15 0
-218 25 0
-218 135 0
219 -38 -9 -31 -23 -54 -15 -25 -135 0
-219 38 0
-219 9 0
-219 31 0
-219 23 0
-219 54 0
-219 15 0
-219 25 0
-219 135 0
220 -50 -9 -23 -56 -54 -15 -25 -135 0
-220 50 0
-220 9 0
-220 23 0
-220 56 0
-220 54 0
-220 15 0
-220 25 0
-220 135 0
221 -58 -30 -62 -9 -54 -15 -25 -135 0
-221 58 0
-221 30 0
-221 62 0
-221 9 0
-221 54 0
-221 15 0
-221 25 0
-221 135 0
222 -73 -9 -60 -23 -54 -15 -25 -135 0
-222 73 0
-222 9 0
-222 60 0
-222 23 0
-222 54 0
-222 15 0
-222 25 0
-222 135 0
223 -84 -30 -62 -9 -54 -15 -25 -135 0
-223 84 0
-223 30 0
-223 62 0
-223 9 0
-223 54 0
-223 15 0
-223 25 0
-223 135 0
224 -95 -9 -23 -64 -54 -15 -25 -135 0
-224 95 0
-224 9 0
-224 23 0
-224 64 0
-224 54 0
-224 15 0
-224 25 0
-224 135 0
225 -21 -34 -38 -23 -12 -15 -25 -135 0
-225 21 0
-225 34 0
-225 38 0
-225 23 0
-225 12 0
-225 15 0
-225 25 0
-225 135 0
226 -21 -67 -50 -23 -12 -15 -25 -135 0
-226 21 0
-226 67 0
-226 50 0
-226 23 0
-226 12 0
-226 15 0
-226 25 0
-226 135 0
227 -21 -30 -62 -69 -12 -15 -25 -135 0
-227 21 0
-227 30 0
-227 62 0
-227 69 0
-227 12 0
-227 15 0
-227 25 0
-227 135 0
228 -73 -21 -71 -23 -12 -15 -25 -135 0
-228 73 0
-228 21 0
-228 71 0
-228 23 0
-228 12 0
-228 15 0
-228 25 0
-228 135 0
229 -73 -84 -21 -30 -12 -15 -25 -135 0
-229 73 0
-229 84 0
-229 21 0
-229 30 0
-229 12 0
-229 15 0
-229 25 0
-229 135 0
230 -21 -95 -75 -23 -12 -15 -25 -135 0
-230 21 0
-230 95 0
-230 75 0
-230 23 0
-230 12 0
-230 15 0
-230 25 0
-230 135 0
231 -37 -25 -16 -38 -23 -54 -15 -135 0
-231 37 0
-231 25 0
-231 16 0
-231 38 0
-231 23 0
-231 54 0
-231 15 0
-231 135 0
232 -78 -50 -16 -23 -54 -15 -25 -135 0
-232 78 0
-232 50 0
-232 16 0
-232 23 0
-232 54 0
-232 15 0
-232 25 0
-232 135 0
233 -16 -30 -62 -54 -15 -25 -80 -135 0
-233 16 0
-233 30 0
-233 62 0
-233 54 0
-233 15 0
-233 25 0
-233 80 0
-233 135 0
234 -73 -16 -23 -54 -82 -15 -25 -135 0
-234 73 0
-234 16 0
-234 23 0
-234 54 0
-234 82 0
-234 15 0
-234 25 0
-234 135 0
235 -84 -16 -30 -54 -15 -25 -135 0
-235 84 0
-235 16 0
-235 30 0
-235 54 0
-235 15 0
-235 25 0
-235 135 0
236 -95 -16 -86 -23 -54 -15 -25 -135 0
-236 95 0
-236 16 0
-236 86 0
-236 23 0
-236 54 0
-236 15 0
-236 25 0
-236 135 0
237 -21 -41 -38 -18 -23 -15 -25 -135 0
-237 21 0
-237 41 0
-237 38 0
-237 18 0
-237 23 0
-237 15 0
-237 25 0
-237 135 0
238 -89 -21 -50 -18 -23 -15 -25 -135 0
-238 89 0
-238 21 0
-238 50 0
-238 18 0
-238 23 0
-238 15 0
-238 25 0
-238 135 0
239 -21 -18 -30 -62 -91 -15 -25 -135 0
-239 21 0
-239 18 0
-239 30 0
-239 62 0
-239 91 0
-239 15 0
-239 25 0
-239 135 0
240 -93 -73 -21 -18 -23 -15 -25 -135 0
-240 93 0
-240 73 0
-240 21 0
-240 18 0
-240 23 0
-240 15 0
-240 25 0
-240 135 0
241 -84 -21 -95 -18 -30 -15 -25 -135 0
-241 84 0
-241 21 0
-241 95 0
-241 18 0
-241 30 0
-241 15 0
-241 25 0
-241 135 0
242 -21 -97 -95 -18 -23 -15 -25 -135 0
-242 21 0
-242 97 0
-242 95 0
-242 18 0
-242 23 0
-242 15 0
-242 25 0
-242 135 0
243 -40 -21 -22 -19 -2 -24 -23 -25 0
-243 40 0
-243 21 0
-243 22 0
-243 19 0
-243 2 0
-243 24 0
-243 23 0
-243 25 0
244 -21 -22 -27 -19 -2 -23 -52 -25 0
-244 21 0
-244 22 0
-244 27 0
-244 19 0
-244 2 0
-244 23 0
-244 52 0
-244 25 0
245 -21 -22 -19 -2 -30 -64 -32 -25 0
-245 21 0
-245 22 0
-245 19 0
-245 2 0
-245 30 0
-245 64 0
-245 32 0
-245 25 0
246 -21 -22 -19 -2 -75 -23 -35 -25 0
-246 21 0
-246 22 0
-246 19 0
-246 2 0
-246 75 0
-246 23 0
-246 35 0
-246 25 0
247 -21 -22 -19 -38 -86 -2 -30 -25 0
-247 21 0
-247 22 0
-247 19 0
-247 38 0
-247 86 0
-247 2 0
-247 30 0
-247 25 0
248 -40 -21 -22 -97 -19 -2 -23 -25 0
-248 40 0
-248 21 0
-248 22 0
-248 97 0
-248 19 0
-248 2 0
-248 23 0
-248 25 0
249 -40 -21 -22 -19 -7 -28 -23 -25 0
-249 40 0
-249 21 0
-249 22 0
-249 19 0
-249 7 0
-249 28 0
-249 23 0
-249 25 0
250 -21 -22 -19 -7 -23 -52 -44 -25 0
-250 21 0
-250 22 0
-250 19 0
-250 7 0
-250 23 0
-250 52 0
-250 44 0
-250 25 0
251 -21 -22 -46 -19 -7 -30 -64 -25 0
-251 21 0
-251 22 0
-251 46 0
-251 19 0
-251 7 0
-251 30 0
-251 64 0
-251 25 0
252 -21 -22 -19 -7 -75 -23 -48 -25 0
-252 21 0
-252 22 0
-252 19 0
-252 7 0
-252 75 0
-252 23 0
-252 48 0
-252 25 0
253 -21 -22 -19 -7 -50 -86 -30 -25 0
-253 21 0
-253 22 0
-253 19 0
-253 7 0
-253 50 0
-253 86 0
-253 30 0
-253 25 0
254 -21 -22 -97 -19 -7 -23 -52 -25 0
-254 21 0
-254 22 0
-254 97 0
-254 19 0
-254 7 0
-254 23 0
-254 52 0
-254 25 0
255 -40 -22 -19 -9 -31 -23 -54 -25 0
-255 40 0
-255 22 0
-255 19 0
-255 9 0
-255 31 0
-255 23 0
-255 54 0
-255 25 0
256 -22 -19 -9 -23 -56 -52 -54 -25 0
-256 22 0
-256 19 0
-256 9 0
-256 23 0
-256 56 0
-256 52 0
-256 54 0
-256 25 0
257 -22 -58 -19 -30 -9 -64 -54 -25 0
-257 22 0
-257 58 0
-257 19 0
-257 30 0
-257 9 0
-257 64 0
-257 54 0
-257 25 0
258 -22 -19 -75 -9 -60 -23 -54 -25 0
-258 22 0
-258 19 0
-258 75 0
-258 9 0
-258 60 0
-258 23 0
-258 54 0
-258 25 0
259 -22 -19 -86 -30 -62 -9 -54 -25 0
-259 22 0
-259 19 0
-259 86 0
-259 30 0
-259 62 0
-259 9 0
-259 54 0
-259 25 0
260 -22 -97 -19 -9 -23 -64 -54 -25 0
-260 22 0
-260 97 0
-260 19 0
-260 9 0
-260 23 0
-260 64 0
-260 54 0
-260 25 0
261 -40 -21 -22 -34 -19 -23 -12 -25 0
-261 40 0
-261 21 0
-261 22 0
-261 34 0
-261 19 0
-261 23 0
-261 12 0
-261 25 0
262 -21 -22 -19 -67 -23 -52 -12 -25 0
-262 21 0
-262 22 0
-262 19 0
-262 67 0
-262 23 0
-262 52 0
-262 12 0
-262 25 0
263 -21 -22 -19 -30 -64 -12 -69 -25 0
-263 21 0
-263 22 0
-263 19 0
-263 30 0
-263 64 0
-263 12 0
-263 69 0
-263 25 0
264 -21 -71 -22 -19 -75 -23 -12 -25 0
-264 21 0
-264 71 0
-264 22 0
-264 19 0
-264 75 0
-264 23 0
-264 12 0
-264 25 0
265 -73 -21 -22 -19 -86 -30 -12 -25 0
-265 73 0
-265 21 0
-265 22 0
-265 19 0
-265 86 0
-265 30 0
-265 12 0
-265 25 0
266 -21 -22 -97 -19 -75 -23 -12 -25 0
-266 21 0
-266 22 0
-266 97 0
-266 19 0
-266 75 0
-266 23 0
-266 12 0
-266 25 0
267 -40 -37 -22 -19 -16 -23 -54 -25 0
-267 40 0
-267 37 0
-267 22 0
-267 19 0
-267 16 0
-267 23 0
-267 54 0
-267 25 0
268 -22 -78 -19 -16 -23 -52 -54 -25 0
-268 22 0
-268 78 0
-268 19 0
-268 16 0
-268 23 0
-268 52 0
-268 54 0
-268 25 0
269 -22 -19 -16 -30 -64 -54 -25 -80 0
-269 22 0
-269 19 0
-269 16 0
-269 30 0
-269 64 0
-269 54 0
-269 25 0
-269 80 0
270 -22 -19 -16 -75 -23 -54 -82 -25 0
-270 22 0
-270 19 0
-270 16 0
-270 75 0
-270 23 0
-270 54 0
-270 82 0
-270 25 0
271 -84 -22 -19 -16 -86 -30 -54 -25 0
-271 84 0
-271 22 0
-271 19 0
-271 16 0
-271 86 0
-271 30 0
-271 54 0
-271 25 0
272 -22 -97 -19 -16 -86 -23 -54 -25 0
-272 22 0
-272 97 0
-272 19 0
-272 16 0
-272 86 0
-272 23 0
-272 54 0
-272 25 0
273 -40 -21 -41 -22 -19 -18 -23 -25 0
-273 40 0
-273 21 0
-273 41 0
-273 22 0
-273 19 0
-273 18 0
-273 23 0
-273 25 0
274 -89 -21 -22 -19 -18 -23 -52 -25 0
-274 89 0
-274 21 0
-274 22 0
-274 19 0
-274 18 0
-274 23 0
-274 52 0
-274 25 0
275 -21 -22 -19 -18 -30 -91 -64 -25 0
-275 21 0
-275 22 0
-275 19 0
-275 18 0
-275 30 0
-275 91 0
-275 64 0
-275 25 0
276 -93 -21 -22 -19 -18 -75 -23 -25 0
-276 93 0
-276 21 0
-276 22 0
-276 19 0
-276 18 0
-276 75 0
-276 23 0
-276 25 0
277 -21 -22 -19 -95 -86 -18 -30 -25 0
-277 21 0
-277 22 0
-277 19 0
-277 95 0
-277 86 0
-277 18 0
-277 30 0
-277 25 0
278 -21 -22 -97 -19 -18 -23 -25 0
-278 21 0
-278 22 0
-278 97 0
-278 19 0
-278 18 0
-278 23 0
-278 25 0
279 -280 -2 -281 -24 -3 0
-279 280 0
-279 2 0
-279 281 0
-279 24 0
-279 3 0
282 -280 -7 -281 -28 -3 0
-282 280 0
-282 7 0
-282 281 0
-282 28 0
-282 3 0
283 -280 -281 -9 -31 -284 -3 0
-283 280 0
-283 281 0
-283 9 0
-283 31 0
-283 284 0
-283 3 0
285 -280 -34 -281 -12 -3 0
-285 280 0
-285 34 0
-285 281 0
-285 12 0
-285 3 0
286 -280 -37 -16 -281 -284 -3 0
-286 280 0
-286 37 0
-286 16 0
-286 281 0
-286 284 0
-286 3 0
287 -280 -41 -281 -18 -3 0
-287 280 0
-287 41 0
-287 281 0
-287 18 0
-287 3 0
288 -6 -280 -27 -281 -2 0
-288 6 0
-288 280 0
-288 27 0
-288 281 0
-288 2 0
289 -6 -280 -7 -281 -44 0
-289 6 0
-289 280 0
-289 7 0
-289 281 0
-289 44 0
290 -6 -280 -281 -9 -56 -284 0
-290 6 0
-290 280 0
-290 281 0
-290 9 0
-290 56 0
-290 284 0
291 -6 -280 -67 -281 -12 0
-291 6 0
-291 280 0
-291 67 0
-291 281 0
-291 12 0
292 -6 -280 -78 -16 -281 -284 0
-292 6 0
-292 280 0
-292 78 0
-292 16 0
-292 281 0
-292 284 0
293 -89 -6 -280 -281 -18 0
-293 89 0
-293 6 0
-293 280 0
-293 281 0
-293 18 0
294 -280 -10 -2 -281 -284 -32 0
-294 280 0
-294 10 0
-294 2 0
-294 281 0
-294 284 0
-294 32 0
295 -280 -10 -46 -7 -281 -284 0
-295 280 0
-295 10 0
-295 46 0
-295 7 0
-295 281 0
-295 284 0
296 -10 -58 -281 -9 -284 0
-296 10 0
-296 58 0
-296 281 0
-296 9 0
-296 284 0
297 -280 -10 -12 -281 -284 -69 0
-297 280 0
-297 10 0
-297 12 0
-297 281 0
-297 284 0
-297 69 0
298 -10 -16 -281 -284 -80 0
-298 10 0
-298 16 0
-298 281 0
-298 284 0
-298 80 0
299 -280 -10 -281 -91 -18 -284 0
-299 280 0
-299 10 0
-299 281 0
-299 91 0
-299 18 0
-299 284 0
300 -280 -2 -281 -13 -35 0
-300 280 0
-300 2 0
-300 281 0
-300 13 0
-300 35 0
301 -280 -7 -281 -13 -48 0
-301 280 0
-301 7 0
-301 281 0
-301 13 0
-301 48 0
302 -280 -281 -9 -60 -13 -284 0
-302 280 0
-302 281 0
-302 9 0
-302 60 0
-302 13 0
-302 284 0
303 -280 -71 -281 -13 -12 0
-303 280 0
-303 71 0
-303 281 0
-303 13 0
-303 12 0
304 -280 -82 -16 -281 -13 -284 0
-304 280 0
-304 82 0
-304 16 0
-304 281 0
-304 13 0
-304 284 0
305 -93 -280 -281 -18 -13 0
-305 93 0
-305 280 0
-305 281 0
-305 18 0
-305 13 0
306 -280 -38 -2 -281 -284 -15 0
-306 280 0
-306 38 0
-306 2 0
-306 281 0
-306 284 0
-306 15 0
307 -280 -7 -50 -281 -284 -15 0
-307 280 0
-307 7 0
-307 50 0
-307 281 0
-307 284 0
-307 15 0
308 -281 -62 -9 -284 -15 0
-308 281 0
-308 62 0
-308 9 0
-308 284 0
-308 15 0
309 -73 -280 -12 -281 -284 -15 0
-309 73 0
-309 280 0
-309 12 0
-309 281 0
-309 284 0
-309 15 0
310 -84 -16 -281 -284 -15 0
-310 84 0
-310 16 0
-310 281 0
-310 284 0
-310 15 0
311 -280 -95 -281 -18 -284 -15 0
-311 280 0
-311 95 0
-311 281 0
-311 18 0
-311 284 0
-311 15 0
312 -40 -280 -19 -2 -281 0
-312 40 0
-312 280 0
-312 19 0
-312 2 0
-312 281 0
313 -280 -19 -7 -281 -52 0
-313 280 0
-313 19 0
-313 7 0
-313 281 0
-313 52 0
314 -280 -19 -281 -9 -64 -284 0
-314 280 0
-314 19 0
-314 281 0
-314 9 0
-314 64 0
-314 284 0
315 -280 -19 -281 -75 -12 0
-315 280 0
-315 19 0
-315 281 0
-315 75 0
-315 12 0
316 -280 -19 -16 -86 -281 -284 0
-316 280 0
-316 19 0
-316 16 0
-316 86 0
-316 281 0
-316 284 0
317 -280 -97 -19 -281 -18 0
-317 280 0
-317 97 0
-317 19 0
-317 281 0
-317 18 0
318 -319 -320 -321 -2 -24 -3 0
-318 319 0
-318 320 0
-318 321 0
-318 2 0
-318 24 0
-318 3 0
322 -319 -7 -320 -321 -28 -3 0
-322 319 0
-322 7 0
-322 320 0
-322 321 0
-322 28 0
-322 3 0
323 -319 -320 -9 -31 -324 -3 0
-323 319 0
-323 320 0
-323 9 0
-323 31 0
-323 324 0
-323 3 0
325 -319 -34 -320 -321 -12 -3 0
-325 319 0
-325 34 0
-325 320 0
-325 321 0
-325 12 0
-325 3 0
326 -319 -37 -16 -320 -324 -3 0
-326 319 0
-326 37 0
-326 16 0
-326 320 0
-326 324 0
-326 3 0
327 -319 -41 -320 -321 -18 -3 0
-327 319 0
-327 41 0
-327 320 0
-327 321 0
-327 18 0
-327 3 0
328 -6 -319 -27 -320 -321 -2 0
-328 6 0
-328 319 0
-328 27 0
-328 320 0
-328 321 0
-328 2 0
329 -6 -319 -7 -320 -321 -44 0
-329 6 0
-329 319 0
-329 7 0
-329 320 0
-329 321 0
-329 44 0
330 -6 -319 -320 -9 -56 -324 0
-330 6 0
-330 319 0
-330 320 0
-330 9 0
-330 56 0
-330 324 0
331 -6 -319 -67 -320 -321 -12 0
-331 6 0
-331 319 0
-331 67 0
-331 320 0
-331 321 0
-331 12 0
332 -6 -319 -78 -320 -16 -324 0
-332 6 0
-332 319 0
-332 78 0
-332 320 0
-332 16 0
-332 324 0
333 -89 -6 -319 -320 -321 -18 0
-333 89 0
-333 6 0
-333 319 0
-333 320 0
-333 321 0
-333 18 0
334 -10 -319 -335 -321 -2 -32 0
-334 10 0
-334 319 0
-334 335 0
-334 321 0
-334 2 0
-334 32 0
336 -10 -319 -335 -46 -7 -321 0
-336 10 0
-336 319 0
-336 335 0
-336 46 0
-336 7 0
-336 321 0
337 -10 -319 -335 -58 -9 -324 0
-337 10 0
-337 319 0
-337 335 0
-337 58 0
-337 9 0
-337 324 0
338 -10 -319 -335 -321 -12 -69 0
-338 10 0
-338 319 0
-338 335 0
-338 321 0
-338 12 0
-338 69 0
339 -10 -319 -335 -16 -324 -80 0
-339 10 0
-339 319 0
-339 335 0
-339 16 0
-339 324 0
-339 80 0
340 -10 -319 -335 -321 -91 -18 0
-340 10 0
-340 319 0
-340 335 0
-340 321 0
-340 91 0
-340 18 0
341 -319 -320 -321 -2 -13 -35 0
-341 319 0
-341 320 0
-341 321 0
-341 2 0
-341 13 0
-341 35 0
342 -319 -7 -320 -321 -13 -48 0
-342 319 0
-342 7 0
-342 320 0
-342 321 0
-342 13 0
-342 48 0
343 -319 -320 -9 -60 -13 -324 0
-343 319 0
-343 320 0
-343 9 0
-343 60 0
-343 13 0
-343 324 0
344 -319 -71 -320 -321 -13 -12 0
-344 319 0
-344 71 0
-344 320 0
-344 321 0
-344 13 0
-344 12 0
345 -319 -320 -16 -13 -324 -82 0
-345 319 0
-345 320 0
-345 16 0
-345 13 0
-345 324 0
-345 82 0
346 -93 -319 -320 -321 -18 -13 0
-346 93 0
-346 319 0
-346 320 0
-346 321 0
-346 18 0
-346 13 0
347 -319 -335 -38 -321 -2 -15 0
-347 319 0
-347 335 0
-347 38 0
-347 321 0
-347 2 0
-347 15 0
348 -319 -335 -7 -50 -321 -15 0
-348 319 0
-348 335 0
-348 7 0
-348 50 0
-348 321 0
-348 15 0
349 -319 -335 -62 -9 -324 -15 0
-349 319 0
-349 335 0
-349 62 0
-349 9 0
-349 324 0
-349 15 0
350 -73 -319 -335 -321 -12 -15 0
-350 73 0
-350 319 0
-350 335 0
-350 321 0
-350 12 0
-350 15 0
351 -84 -319 -335 -16 -324 -15 0
-351 84 0
-351 319 0
-351 335 0
-351 16 0
-351 324 0
-351 15 0
352 -319 -335 -95 -321 -18 -15 0
-352 319 0
-352 335 0
-352 95 0
-352 321 0
-352 18 0
-352 15 0
353 -40 -319 -19 -320 -321 -2 0
-353 40 0
-353 319 0
-353 19 0
-353 320 0
-353 321 0
-353 2 0
354 -319 -19 -7 -320 -321 -52 0
-354 319 0
-354 19 0
-354 7 0
-354 320 0
-354 321 0
-354 52 0
355 -319 -19 -320 -9 -64 -324 0
-355 319 0
-355 19 0
-355 320 0
-355 9 0
-355 64 0
-355 324 0
356 -319 -19 -320 -321 -75 -12 0
-356 319 0
-356 19 0
-356 320 0
-356 321 0
-356 75 0
-356 12 0
357 -319 -19 -16 -320 -86 -324 0
-357 319 0
-357 19 0
-357 16 0
-357 320 0
-357 86 0
-357 324 0
358 -319 -97 -19 -320 -321 -18 0
-358 319 0
-358 97 0
-358 19 0
-358 320 0
-358 321 0
-358 18 0
-359 1 5 8 11 14 17 20 26 29 33 36 39 42 43 45 47 49 51 53 55 57 59 61 63 65 66 68 70 72 74 76 77 79 81 83 85 87 88 90 92 94 96 98 99 100 101 102 103 104 105 106 107 108 109 110 111 112 113 114 115 116 117 118 119 120 121 122 123 124 125 126 127 128 129 130 131 132 133 134 136 137 138 139 140 141 142 143 144 145 146 147 148 149 150 151 152 153 154 155 156 157 158 159 160 161 162 163 164 165 166 167 168 169 170 171 172 173 174 175 176 177 178 179 180 181 182 183 184 185 186 187 188 189 190 191 192 193 194 195 196 197 198 199 200 201 202 203 204 205 206 207 208 209 210 211 212 213 214 215 216 217 218 219 220 221 222 223 224 225 226 227 228 229 230 231 232 233 234 235 236 237 238 239 240 241 242 243 244 245 246 247 248 249 250 251 252 253 254 255 256 257 258 259 260 261 262 263 264 265 266 267 268 269 270 271 272 273 274 275 276 277 278 279 282 283 285 286 287 288 289 290 291 292 293 294 295 296 297 298 299 300 301 302 303 304 305 306 307 308 309 310 311 312 313 314 315 316 317 318 322 323 325 326 327 328 329 330 331 332 333 334 336 337 338 339 340 341 342 343 344 345 346 347 348 349 350 351 352 353 354 355 356 357 358 0
359 -1 0
359 -5 0
359 -8 0
359 -11 0
359 -14 0
359 -17 0
359 -20 0
359 -26 0
359 -29 0
359 -33 0
359 -36 0
359 -39 0
359 -42 0
359 -43 0
359 -45 0
359 -47 0
359 -49 0
359 -51 0
359 -53 0
359 -55 0
359 -57 0
359 -59 0
359 -61 0
359 -63 0
359 -65 0
359 -66 0
359 -68 0
359 -70 0
359 -72 0
359 -74 0
359 -76 0
359 -77 0
359 -79 0
359 -81 0
359 -83 0
359 -85 0
359 -87 0
359 -88 0
359 -90 0
359 -92 0
359 -94 0
359 -96 0
359 -98 0
359 -99 0
359 -100 0
359 -101 0
359 -102 0
359 -103 0
359 -104 0
359 -105 0
359 -106 0
359 -107 0
359 -108 0
359 -109 0
359 -110 0
359 -111 0
359 -112 0
359 -113 0
359 -114 0
359 -115 0
359 -116 0
359 -117 0
359 -118 0
359 -119 0
359 -120 0
359 -121 0
359 -122 0
359 -123 0
359 -124 0
359 -125 0
359 -126 0
359 -127 0
359 -128 0
359 -129 0
359 -130 0
359 -131 0
359 -132 0
359 -133 0
359 -134 0
359 -136 0
359 -137 0
359 -138 0
359 -139 0
359 -140 0
359 -141 0
359 -142 0
359 -143 0
359 -144 0
359 -145 0
359 -146 0
359 -147 0
359 -148 0
359 -149 0
359 -150 0
359 -151 0
359 -152 0
359 -153 0
359 -154 0
359 -155 0
359 -156 0
359 -157 0
359 -158 0
359 -159 0
359 -160 0
359 -161 0
359 -162 0
359 -163 0
359 -164 0
359 -165 0
359 -166 0
359 -167 0
359 -168 0
359 -169 0
359 -170 0
359 -171 0
359 -172 0
359 -173 0
359 -174 0
359 -175 0
359 -176 0
359 -177 0
359 -178 0
359 -179 0
359 -180 0
359 -181 0
359 -182 0
359 -183 0
359 -184 0
359 -185 0
359 -186 0
359 -187 0
359 -188 0
359 -189 0
359 -190 0
359 -191 0
359 -192 0
359 -193 0
359 -194 0
359 -195 0
359 -196 0
359 -197 0
359 -198 0
359 -199 0
359 -200 0
359 -201 0
359 -202 0
359 -203 0
359 -204 0
359 -205 0
359 -206 0
359 -207 0
359 -208 0
359 -209 0
359 -210 0
359 -211 0
359 -212 0
359 -213 0
359 -214 0
359 -215 0
359 -216 0
359 -217 0
359 -218 0
359 -219 0
359 -220 0
359 -221 0
359 -222 0
359 -223 0
359 -224 0
359 -225 0
359 -226 0
359 -227 0
359 -228 0
359 -229 0
359 -230 0
359 -231 0
359 -232 0
359 -233 0
359 -234 0
359 -235 0
359 -236 0
359 -237 0
359 -238 0
359 -239 0
359 -240 0
359 -241 0
359 -242 0
359 -243 0
359 -244 0
359 -245 0
359 -246 0
359 -247 0
359 -248 0
359 -249 0
359 -250 0
359 -251 0
359 -252 0
359 -253 0
359 -254 0
359 -255 0
359 -256 0
359 -257 0
359 -258 0
359 -259 0
359 -260 0
359 -261 0
359 -262 0
359 -263 0
359 -264 0
359 -265 0
359 -266 0
359 -267 0
359 -268 0
359 -269 0
359 -270 0
359 -271 0
359 -272 0
359 -273 0
359 -274 0
359 -275 0
359 -276 0
359 -277 0
359 -278 0
359 -279 0
359 -282 0
359 -283 0
359 -285 0
359 -286 0
359 -287 0
359 -288 0
359 -289 0
359 -290 0
359 -291 0
359 -292 0
359 -293 0
359 -294 0
359 -295 0
359 -296 0
359 -297 0
359 -298 0
359 -299 0
359 -300 0
359 -301 0
359 -302 0
359 -303 0
359 -304 0
359 -305 0
359 -306 0
359 -307 0
359 -308 0
359 -309 0
359 -310 0
359 -311 0
359 -312 0
359 -313 0
359 -314 0
359 -315 0
359 -316 0
359 -317 0
359 -318 0
359 -322 0
359 -323 0
359 -325 0
359 -326 0
359 -327 0
359 -328 0
359 -329 0
359 -330 0
359 -331 0
359 -332 0
359 -333 0
359 -334 0
359 -336 0
359 -337 0
359 -338 0
359 -339 0
359 -340 0
359 -341 0
359 -342 0
359 -343 0
359 -344 0
359 -345 0
359 -346 0
359 -347 0
359 -348 0
359 -349 0
359 -350 0
359 -351 0
359 -352 0
359 -353 0
359 -354 0
359 -355 0
359 -356 0
359 -357 0
359 -358 0
359 0
