c BC-S1.2
p cnf 232 1654
1 -2 -3 -4 0
-1 2 0
-1 3 0
-1 4 0
5 -6 -7 -4 0
-5 6 0
-5 7 0
-5 4 0
8 -9 -10 -4 0
-8 9 0
-8 10 0
-8 4 0
11 -12 -13 0
-11 12 0
-11 13 0
14 -15 -16 -4 0
-14 15 0
-14 16 0
-14 4 0
17 -18 -19 -20 -3 -21 -2 0
-17 18 0
-17 19 0
-17 20 0
-17 3 0
-17 21 0
-17 2 0
22 -18 -7 -19 -20 -23 -2 0
-22 18 0
-22 7 0
-22 19 0
-22 20 0
-22 23 0
-22 2 0
24 -18 -19 -20 -25 -10 -2 0
-24 18 0
-24 19 0
-24 20 0
-24 25 0
-24 10 0
-24 2 0
26 -18 -27 -19 -12 -28 -2 0
-26 18 0
-26 27 0
-26 19 0
-26 12 0
-26 28 0
-26 2 0
29 -15 -18 -19 -20 -30 -2 0
-29 15 0
-29 18 0
-29 19 0
-29 20 0
-29 30 0
-29 2 0
31 -18 -32 -6 -19 -20 -3 0
-31 18 0
-31 32 0
-31 6 0
-31 19 0
-31 20 0
-31 3 0
33 -18 -6 -7 -19 -20 -34 0
-33 18 0
-33 6 0
-33 7 0
-33 19 0
-33 20 0
-33 34 0
35 -18 -36 -6 -19 -20 -10 0
-35 18 0
-35 36 0
-35 6 0
-35 19 0
-35 20 0
-35 10 0
37 -18 -38 -6 -19 -12 -28 0
-37 18 0
-37 38 0
-37 6 0
-37 19 0
-37 12 0
-37 28 0
39 -15 -18 -6 -19 -20 -40 0
-39 15 0
-39 18 0
-39 6 0
-39 19 0
-39 20 0
-39 40 0
41 -42 -18 -19 -20 -3 -9 0
-41 42 0
-41 18 0
-41 19 0
-41 20 0
-41 3 0
-41 9 0
43 -18 -44 -7 -19 -20 -9 0
-43 18 0
-43 44 0
-43 7 0
-43 19 0
-43 20 0
-43 9 0
45 -18 -19 -20 -46 -9 -10 0
-45 18 0
-45 19 0
-45 20 0
-45 46 0
-45 9 0
-45 10 0
47 -48 -18 -19 -12 -9 -28 0
-47 48 0
-47 18 0
-47 19 0
-47 12 0
-47 9 0
-47 28 0
49 -15 -18 -19 -50 -20 -9 0
-49 15 0
-49 18 0
-49 19 0
-49 50 0
-49 20 0
-49 9 0
51 -13 -18 -52 -20 -3 -53 0
-51 13 0
-51 18 0
-51 52 0
-51 20 0
-51 3 0
-51 53 0
54 -13 -18 -55 -52 -7 -20 0
-54 13 0
-54 18 0
-54 55 0
-54 52 0
-54 7 0
-54 20 0
56 -57 -13 -18 -52 -20 -10 0
-56 57 0
-56 13 0
-56 18 0
-56 52 0
-56 20 0
-56 10 0
58 -13 -18 -52 -59 -12 -28 0
-58 13 0
-58 18 0
-58 52 0
-58 59 0
-58 12 0
-58 28 0
60 -15 -13 -18 -52 -20 -61 0
-60 15 0
-60 13 0
-60 18 0
-60 52 0
-60 20 0
-60 61 0
62 -18 -63 -19 -20 -3 -16 0
-62 18 0
-62 63 0
-62 19 0
-62 20 0
-62 3 0
-62 16 0
64 -18 -65 -7 -19 -20 -16 0
-64 18 0
-64 65 0
-64 7 0
-64 19 0
-64 20 0
-64 16 0
66 -18 -67 -19 -20 -16 -10 0
-66 18 0
-66 67 0
-66 19 0
-66 20 0
-66 16 0
-66 10 0
68 -18 -19 -12 -16 -28 -69 0
-68 18 0
-68 19 0
-68 12 0
-68 16 0
-68 28 0
-68 69 0
70 -15 -18 -71 -19 -20 -16 0
-70 15 0
-70 18 0
-70 71 0
-70 19 0
-70 20 0
-70 16 0
72 -73 -74 -21 -3 -2 0
-72 73 0
-72 74 0
-72 21 0
-72 3 0
-72 2 0
75 -73 -7 -74 -23 -2 0
-75 73 0
-75 7 0
-75 74 0
-75 23 0
-75 2 0
76 -73 -74 -25 -10 -2 0
-76 73 0
-76 74 0
-76 25 0
-76 10 0
-76 2 0
77 -73 -27 -74 -12 -78 -2 0
-77 73 0
-77 27 0
-77 74 0
-77 12 0
-77 78 0
-77 2 0
79 -15 -73 -74 -30 -2 0
-79 15 0
-79 73 0
-79 74 0
-79 30 0
-79 2 0
80 -73 -32 -6 -74 -3 0
-80 73 0
-80 32 0
-80 6 0
-80 74 0
-80 3 0
81 -73 -6 -7 -74 -34 0
-81 73 0
-81 6 0
-81 7 0
-81 74 0
-81 34 0
82 -73 -36 -6 -74 -10 0
-82 73 0
-82 36 0
-82 6 0
-82 74 0
-82 10 0
83 -73 -38 -6 -74 -12 -78 0
-83 73 0
-83 38 0
-83 6 0
-83 74 0
-83 12 0
-83 78 0
84 -15 -73 -6 -74 -40 0
-84 15 0
-84 73 0
-84 6 0
-84 74 0
-84 40 0
85 -42 -73 -74 -9 -3 0
-85 42 0
-85 73 0
-85 74 0
-85 9 0
-85 3 0
86 -73 -44 -7 -74 -9 0
-86 73 0
-86 44 0
-86 7 0
-86 74 0
-86 9 0
87 -73 -74 -46 -9 -10 0
-87 73 0
-87 74 0
-87 46 0
-87 9 0
-87 10 0
88 -73 -48 -74 -12 -9 -78 0
-88 73 0
-88 48 0
-88 74 0
-88 12 0
-88 9 0
-88 78 0
89 -15 -73 -50 -74 -9 0
-89 15 0
-89 73 0
-89 50 0
-89 74 0
-89 9 0
90 -13 -73 -74 -3 -53 -78 0
-90 13 0
-90 73 0
-90 74 0
-90 3 0
-90 53 0
-90 78 0
91 -73 -13 -55 -7 -74 -78 0
-91 73 0
-91 13 0
-91 55 0
-91 7 0
-91 74 0
-91 78 0
92 -13 -73 -57 -74 -10 -78 0
-92 13 0
-92 73 0
-92 57 0
-92 74 0
-92 10 0
-92 78 0
93 -13 -59 -74 -12 -78 0
-93 13 0
-93 59 0
-93 74 0
-93 12 0
-93 78 0
94 -15 -73 -13 -74 -61 -78 0
-94 15 0
-94 73 0
-94 13 0
-94 74 0
-94 61 0
-94 78 0
95 -73 -63 -74 -3 -16 0
-95 73 0
-95 63 0
-95 74 0
-95 3 0
-95 16 0
96 -73 -65 -7 -74 -16 0
-96 73 0
-96 65 0
-96 7 0
-96 74 0
-96 16 0
97 -73 -67 -74 -16 -10 0
-97 73 0
-97 67 0
-97 74 0
-97 16 0
-97 10 0
98 -73 -74 -12 -16 -78 -69 0
-98 73 0
-98 74 0
-98 12 0
-98 16 0
-98 78 0
-98 69 0
99 -15 -73 -71 -74 -16 0
-99 15 0
-99 73 0
-99 71 0
-99 74 0
-99 16 0
100 -101 -102 -3 -103 -21 -2 -104 0
-100 101 0
-100 102 0
-100 3 0
-100 103 0
-100 21 0
-100 2 0
-100 104 0
105 -101 -102 -32 -3 -103 -23 -2 -104 0
-105 101 0
-105 102 0
-105 32 0
-105 3 0
-105 103 0
-105 23 0
-105 2 0
-105 104 0
106 -42 -101 -102 -25 -3 -103 -2 -104 0
-106 42 0
-106 101 0
-106 102 0
-106 25 0
-106 3 0
-106 103 0
-106 2 0
-106 104 0
107 -101 -102 -27 -108 -3 -53 -2 -104 0
-107 101 0
-107 102 0
-107 27 0
-107 108 0
-107 3 0
-107 53 0
-107 2 0
-107 104 0
109 -101 -102 -63 -30 -3 -103 -2 -104 0
-109 101 0
-109 102 0
-109 63 0
-109 30 0
-109 3 0
-109 103 0
-109 2 0
-109 104 0
110 -101 -102 -7 -21 -103 -23 -2 -104 0
-110 101 0
-110 102 0
-110 7 0
-110 21 0
-110 103 0
-110 23 0
-110 2 0
-110 104 0
111 -101 -102 -7 -103 -23 -34 -2 -104 0
-111 101 0
-111 102 0
-111 7 0
-111 103 0
-111 23 0
-111 34 0
-111 2 0
-111 104 0
112 -101 -102 -44 -7 -25 -103 -2 -104 0
-112 101 0
-112 102 0
-112 44 0
-112 7 0
-112 25 0
-112 103 0
-112 2 0
-112 104 0
113 -101 -102 -55 -27 -7 -108 -2 -104 0
-113 101 0
-113 102 0
-113 55 0
-113 27 0
-113 7 0
-113 108 0
-113 2 0
-113 104 0
114 -101 -102 -65 -7 -30 -103 -2 -104 0
-114 101 0
-114 102 0
-114 65 0
-114 7 0
-114 30 0
-114 103 0
-114 2 0
-114 104 0
115 -101 -102 -25 -21 -103 -10 -2 -104 0
-115 101 0
-115 102 0
-115 25 0
-115 21 0
-115 103 0
-115 10 0
-115 2 0
-115 104 0
116 -101 -102 -36 -103 -23 -10 -2 -104 0
-116 101 0
-116 102 0
-116 36 0
-116 103 0
-116 23 0
-116 10 0
-116 2 0
-116 104 0
117 -101 -102 -25 -46 -103 -10 -2 -104 0
-117 101 0
-117 102 0
-117 25 0
-117 46 0
-117 103 0
-117 10 0
-117 2 0
-117 104 0
118 -57 -101 -102 -27 -108 -10 -2 -104 0
-118 57 0
-118 101 0
-118 102 0
-118 27 0
-118 108 0
-118 10 0
-118 2 0
-118 104 0
119 -101 -102 -67 -30 -103 -10 -2 -104 0
-119 101 0
-119 102 0
-119 67 0
-119 30 0
-119 103 0
-119 10 0
-119 2 0
-119 104 0
120 -102 -27 -12 -21 -103 -121 -2 -104 0
-120 102 0
-120 27 0
-120 12 0
-120 21 0
-120 103 0
-120 121 0
-120 2 0
-120 104 0
122 -102 -38 -12 -103 -23 -121 -2 -104 0
-122 102 0
-122 38 0
-122 12 0
-122 103 0
-122 23 0
-122 121 0
-122 2 0
-122 104 0
123 -48 -102 -12 -25 -103 -121 -2 -104 0
-123 48 0
-123 102 0
-123 12 0
-123 25 0
-123 103 0
-123 121 0
-123 2 0
-123 104 0
124 -102 -27 -59 -108 -12 -121 -2 -104 0
-124 102 0
-124 27 0
-124 59 0
-124 108 0
-124 12 0
-124 121 0
-124 2 0
-124 104 0
125 -102 -30 -12 -103 -121 -2 -104 -69 0
-125 102 0
-125 30 0
-125 12 0
-125 103 0
-125 121 0
-125 2 0
-125 104 0
-125 69 0
126 -15 -101 -102 -30 -21 -103 -2 -104 0
-126 15 0
-126 101 0
-126 102 0
-126 30 0
-126 21 0
-126 103 0
-126 2 0
-126 104 0
127 -15 -101 -102 -40 -103 -23 -2 -104 0
-127 15 0
-127 101 0
-127 102 0
-127 40 0
-127 103 0
-127 23 0
-127 2 0
-127 104 0
128 -15 -101 -102 -50 -25 -103 -2 -104 0
-128 15 0
-128 101 0
-128 102 0
-128 50 0
-128 25 0
-128 103 0
-128 2 0
-128 104 0
129 -15 -101 -102 -27 -108 -61 -2 -104 0
-129 15 0
-129 101 0
-129 102 0
-129 27 0
-129 108 0
-129 61 0
-129 2 0
-129 104 0
130 -15 -101 -71 -102 -30 -103 -2 -104 0
-130 15 0
-130 101 0
-130 71 0
-130 102 0
-130 30 0
-130 103 0
-130 2 0
-130 104 0
131 -101 -102 -32 -6 -3 -103 -21 -104 0
-131 101 0
-131 102 0
-131 32 0
-131 6 0
-131 3 0
-131 103 0
-131 21 0
-131 104 0
132 -101 -102 -32 -6 -3 -103 -34 -104 0
-132 101 0
-132 102 0
-132 32 0
-132 6 0
-132 3 0
-132 103 0
-132 34 0
-132 104 0
133 -42 -101 -102 -36 -6 -3 -103 -104 0
-133 42 0
-133 101 0
-133 102 0
-133 36 0
-133 6 0
-133 3 0
-133 103 0
-133 104 0
134 -101 -102 -38 -6 -108 -3 -53 -104 0
-134 101 0
-134 102 0
-134 38 0
-134 6 0
-134 108 0
-134 3 0
-134 53 0
-134 104 0
135 -101 -102 -63 -6 -3 -40 -103 -104 0
-135 101 0
-135 102 0
-135 63 0
-135 6 0
-135 3 0
-135 40 0
-135 103 0
-135 104 0
136 -101 -102 -32 -6 -7 -103 -23 -104 0
-136 101 0
-136 102 0
-136 32 0
-136 6 0
-136 7 0
-136 103 0
-136 23 0
-136 104 0
137 -101 -102 -6 -7 -103 -34 -104 0
-137 101 0
-137 102 0
-137 6 0
-137 7 0
-137 103 0
-137 34 0
-137 104 0
138 -101 -102 -36 -6 -7 -44 -103 -104 0
-138 101 0
-138 102 0
-138 36 0
-138 6 0
-138 7 0
-138 44 0
-138 103 0
-138 104 0
139 -101 -102 -55 -38 -7 -6 -108 -104 0
-139 101 0
-139 102 0
-139 55 0
-139 38 0
-139 7 0
-139 6 0
-139 108 0
-139 104 0
140 -101 -102 -65 -6 -7 -40 -103 -104 0
-140 101 0
-140 102 0
-140 65 0
-140 6 0
-140 7 0
-140 40 0
-140 103 0
-140 104 0
141 -101 -102 -32 -6 -25 -103 -10 -104 0
-141 101 0
-141 102 0
-141 32 0
-141 6 0
-141 25 0
-141 103 0
-141 10 0
-141 104 0
142 -101 -102 -36 -34 -6 -103 -10 -104 0
-142 101 0
-142 102 0
-142 36 0
-142 34 0
-142 6 0
-142 103 0
-142 10 0
-142 104 0
143 -101 -102 -36 -6 -46 -103 -10 -104 0
-143 101 0
-143 102 0
-143 36 0
-143 6 0
-143 46 0
-143 103 0
-143 10 0
-143 104 0
144 -57 -101 -102 -38 -6 -108 -10 -104 0
-144 57 0
-144 101 0
-144 102 0
-144 38 0
-144 6 0
-144 108 0
-144 10 0
-144 104 0
145 -101 -102 -67 -6 -40 -103 -10 -104 0
-145 101 0
-145 102 0
-145 67 0
-145 6 0
-145 40 0
-145 103 0
-145 10 0
-145 104 0
146 -102 -32 -6 -27 -12 -103 -121 -104 0
-146 102 0
-146 32 0
-146 6 0
-146 27 0
-146 12 0
-146 103 0
-146 121 0
-146 104 0
147 -102 -38 -6 -12 -103 -34 -121 -104 0
-147 102 0
-147 38 0
-147 6 0
-147 12 0
-147 103 0
-147 34 0
-147 121 0
-147 104 0
148 -48 -102 -36 -6 -12 -103 -121 -104 0
-148 48 0
-148 102 0
-148 36 0
-148 6 0
-148 12 0
-148 103 0
-148 121 0
-148 104 0
149 -102 -38 -6 -59 -108 -12 -121 -104 0
-149 102 0
-149 38 0
-149 6 0
-149 59 0
-149 108 0
-149 12 0
-149 121 0
-149 104 0
150 -102 -6 -12 -40 -103 -121 -104 -69 0
-150 102 0
-150 6 0
-150 12 0
-150 40 0
-150 103 0
-150 121 0
-150 104 0
-150 69 0
151 -15 -101 -102 -32 -6 -30 -103 -104 0
-151 15 0
-151 101 0
-151 102 0
-151 32 0
-151 6 0
-151 30 0
-151 103 0
-151 104 0
152 -15 -101 -102 -6 -40 -103 -34 -104 0
-152 15 0
-152 101 0
-152 102 0
-152 6 0
-152 40 0
-152 103 0
-152 34 0
-152 104 0
153 -15 -101 -102 -36 -6 -50 -103 -104 0
-153 15 0
-153 101 0
-153 102 0
-153 36 0
-153 6 0
-153 50 0
-153 103 0
-153 104 0
154 -15 -101 -102 -38 -6 -108 -61 -104 0
-154 15 0
-154 101 0
-154 102 0
-154 38 0
-154 6 0
-154 108 0
-154 61 0
-154 104 0
155 -15 -101 -71 -102 -6 -40 -103 -104 0
-155 15 0
-155 101 0
-155 71 0
-155 102 0
-155 6 0
-155 40 0
-155 103 0
-155 104 0
156 -42 -101 -102 -3 -103 -9 -21 -104 0
-156 42 0
-156 101 0
-156 102 0
-156 3 0
-156 103 0
-156 9 0
-156 21 0
-156 104 0
157 -101 -102 -32 -44 -9 -3 -103 -104 0
-157 101 0
-157 102 0
-157 32 0
-157 44 0
-157 9 0
-157 3 0
-157 103 0
-157 104 0
158 -42 -101 -102 -46 -3 -103 -9 -104 0
-158 42 0
-158 101 0
-158 102 0
-158 46 0
-158 3 0
-158 103 0
-158 9 0
-158 104 0
159 -48 -101 -102 -108 -9 -3 -53 -104 0
-159 48 0
-159 101 0
-159 102 0
-159 108 0
-159 9 0
-159 3 0
-159 53 0
-159 104 0
160 -101 -102 -63 -50 -3 -103 -9 -104 0
-160 101 0
-160 102 0
-160 63 0
-160 50 0
-160 3 0
-160 103 0
-160 9 0
-160 104 0
161 -42 -101 -102 -7 -9 -103 -23 -104 0
-161 42 0
-161 101 0
-161 102 0
-161 7 0
-161 9 0
-161 103 0
-161 23 0
-161 104 0
162 -101 -102 -44 -7 -9 -103 -34 -104 0
-162 101 0
-162 102 0
-162 44 0
-162 7 0
-162 9 0
-162 103 0
-162 34 0
-162 104 0
163 -101 -102 -44 -7 -46 -9 -103 -104 0
-163 101 0
-163 102 0
-163 44 0
-163 7 0
-163 46 0
-163 9 0
-163 103 0
-163 104 0
164 -48 -101 -102 -55 -7 -108 -9 -104 0
-164 48 0
-164 101 0
-164 102 0
-164 55 0
-164 7 0
-164 108 0
-164 9 0
-164 104 0
165 -101 -102 -65 -7 -50 -9 -103 -104 0
-165 101 0
-165 102 0
-165 65 0
-165 7 0
-165 50 0
-165 9 0
-165 103 0
-165 104 0
166 -42 -101 -102 -25 -9 -103 -10 -104 0
-166 42 0
-166 101 0
-166 102 0
-166 25 0
-166 9 0
-166 103 0
-166 10 0
-166 104 0
167 -101 -102 -36 -44 -9 -103 -10 -104 0
-167 101 0
-167 102 0
-167 36 0
-167 44 0
-167 9 0
-167 103 0
-167 10 0
-167 104 0
168 -101 -102 -46 -9 -103 -10 -104 0
-168 101 0
-168 102 0
-168 46 0
-168 9 0
-168 103 0
-168 10 0
-168 104 0
169 -57 -101 -48 -102 -108 -9 -10 -104 0
-169 57 0
-169 101 0
-169 48 0
-169 102 0
-169 108 0
-169 9 0
-169 10 0
-169 104 0
170 -101 -102 -67 -50 -9 -103 -10 -104 0
-170 101 0
-170 102 0
-170 67 0
-170 50 0
-170 9 0
-170 103 0
-170 10 0
-170 104 0
171 -42 -102 -27 -12 -9 -103 -121 -104 0
-171 42 0
-171 102 0
-171 27 0
-171 12 0
-171 9 0
-171 103 0
-171 121 0
-171 104 0
172 -102 -38 -44 -12 -9 -103 -121 -104 0
-172 102 0
-172 38 0
-172 44 0
-172 12 0
-172 9 0
-172 103 0
-172 121 0
-172 104 0
173 -48 -102 -12 -46 -9 -103 -121 -104 0
-173 48 0
-173 102 0
-173 12 0
-173 46 0
-173 9 0
-173 103 0
-173 121 0
-173 104 0
174 -48 -102 -59 -108 -12 -9 -121 -104 0
-174 48 0
-174 102 0
-174 59 0
-174 108 0
-174 12 0
-174 9 0
-174 121 0
-174 104 0
175 -102 -50 -12 -9 -103 -121 -104 -69 0
-175 102 0
-175 50 0
-175 12 0
-175 9 0
-175 103 0
-175 121 0
-175 104 0
-175 69 0
176 -42 -15 -101 -102 -30 -9 -103 -104 0
-176 42 0
-176 15 0
-176 101 0
-176 102 0
-176 30 0
-176 9 0
-176 103 0
-176 104 0
177 -15 -101 -102 -44 -40 -103 -9 -104 0
-177 15 0
-177 101 0
-177 102 0
-177 44 0
-177 40 0
-177 103 0
-177 9 0
-177 104 0
178 -15 -101 -102 -50 -46 -9 -103 -104 0
-178 15 0
-178 101 0
-178 102 0
-178 50 0
-178 46 0
-178 9 0
-178 103 0
-178 104 0
179 -15 -48 -101 -102 -108 -9 -61 -104 0
-179 15 0
-179 48 0
-179 101 0
-179 102 0
-179 108 0
-179 9 0
-179 61 0
-179 104 0
180 -15 -101 -71 -102 -50 -9 -103 -104 0
-180 15 0
-180 101 0
-180 71 0
-180 102 0
-180 50 0
-180 9 0
-180 103 0
-180 104 0
181 -13 -101 -104 -3 -103 -21 -53 -182 0
-181 13 0
-181 101 0
-181 104 0
-181 3 0
-181 103 0
-181 21 0
-181 53 0
-181 182 0
183 -13 -101 -55 -104 -32 -3 -103 -182 0
-183 13 0
-183 101 0
-183 55 0
-183 104 0
-183 32 0
-183 3 0
-183 103 0
-183 182 0
184 -42 -13 -101 -57 -104 -3 -103 -182 0
-184 42 0
-184 13 0
-184 101 0
-184 57 0
-184 104 0
-184 3 0
-184 103 0
-184 182 0
185 -13 -101 -104 -59 -108 -3 -53 -182 0
-185 13 0
-185 101 0
-185 104 0
-185 59 0
-185 108 0
-185 3 0
-185 53 0
-185 182 0
186 -13 -101 -104 -63 -3 -103 -61 -182 0
-186 13 0
-186 101 0
-186 104 0
-186 63 0
-186 3 0
-186 103 0
-186 61 0
-186 182 0
187 -13 -101 -7 -103 -23 -53 -104 -182 0
-187 13 0
-187 101 0
-187 7 0
-187 103 0
-187 23 0
-187 53 0
-187 104 0
-187 182 0
188 -13 -101 -55 -104 -7 -103 -34 -182 0
-188 13 0
-188 101 0
-188 55 0
-188 104 0
-188 7 0
-188 103 0
-188 34 0
-188 182 0
189 -13 -101 -57 -104 -44 -7 -103 -182 0
-189 13 0
-189 101 0
-189 57 0
-189 104 0
-189 44 0
-189 7 0
-189 103 0
-189 182 0
190 -13 -101 -55 -104 -7 -59 -108 -182 0
-190 13 0
-190 101 0
-190 55 0
-190 104 0
-190 7 0
-190 59 0
-190 108 0
-190 182 0
191 -13 -101 -104 -65 -7 -103 -61 -182 0
-191 13 0
-191 101 0
-191 104 0
-191 65 0
-191 7 0
-191 103 0
-191 61 0
-191 182 0
192 -13 -101 -104 -25 -103 -10 -53 -182 0
-192 13 0
-192 101 0
-192 104 0
-192 25 0
-192 103 0
-192 10 0
-192 53 0
-192 182 0
193 -13 -101 -36 -55 -104 -103 -10 -182 0
-193 13 0
-193 101 0
-193 36 0
-193 55 0
-193 104 0
-193 103 0
-193 10 0
-193 182 0
194 -13 -101 -57 -104 -46 -103 -10 -182 0
-194 13 0
-194 101 0
-194 57 0
-194 104 0
-194 46 0
-194 103 0
-194 10 0
-194 182 0
195 -13 -101 -57 -104 -59 -108 -10 -182 0
-195 13 0
-195 101 0
-195 57 0
-195 104 0
-195 59 0
-195 108 0
-195 10 0
-195 182 0
196 -13 -101 -67 -61 -104 -103 -10 -182 0
-196 13 0
-196 101 0
-196 67 0
-196 61 0
-196 104 0
-196 103 0
-196 10 0
-196 182 0
197 -13 -104 -27 -12 -103 -121 -53 -182 0
-197 13 0
-197 104 0
-197 27 0
-197 12 0
-197 103 0
-197 121 0
-197 53 0
-197 182 0
198 -13 -55 -104 -38 -12 -103 -121 -182 0
-198 13 0
-198 55 0
-198 104 0
-198 38 0
-198 12 0
-198 103 0
-198 121 0
-198 182 0
199 -57 -13 -48 -104 -12 -103 -121 -182 0
-199 57 0
-199 13 0
-199 48 0
-199 104 0
-199 12 0
-199 103 0
-199 121 0
-199 182 0
200 -13 -104 -59 -108 -12 -121 -182 0
-200 13 0
-200 104 0
-200 59 0
-200 108 0
-200 12 0
-200 121 0
-200 182 0
201 -13 -104 -12 -103 -61 -121 -182 -69 0
-201 13 0
-201 104 0
-201 12 0
-201 103 0
-201 61 0
-201 121 0
-201 182 0
-201 69 0
202 -15 -13 -101 -104 -30 -103 -53 -182 0
-202 15 0
-202 13 0
-202 101 0
-202 104 0
-202 30 0
-202 103 0
-202 53 0
-202 182 0
203 -15 -13 -101 -55 -104 -40 -103 -182 0
-203 15 0
-203 13 0
-203 101 0
-203 55 0
-203 104 0
-203 40 0
-203 103 0
-203 182 0
204 -15 -13 -101 -57 -104 -50 -103 -182 0
-204 15 0
-204 13 0
-204 101 0
-204 57 0
-204 104 0
-204 50 0
-204 103 0
-204 182 0
205 -15 -13 -101 -104 -59 -108 -61 -182 0
-205 15 0
-205 13 0
-205 101 0
-205 104 0
-205 59 0
-205 108 0
-205 61 0
-205 182 0
206 -15 -13 -101 -71 -104 -103 -61 -182 0
-206 15 0
-206 13 0
-206 101 0
-206 71 0
-206 104 0
-206 103 0
-206 61 0
-206 182 0
207 -101 -102 -63 -3 -103 -16 -21 -104 0
-207 101 0
-207 102 0
-207 63 0
-207 3 0
-207 103 0
-207 16 0
-207 21 0
-207 104 0
208 -101 -102 -65 -32 -3 -103 -16 -104 0
-208 101 0
-208 102 0
-208 65 0
-208 32 0
-208 3 0
-208 103 0
-208 16 0
-208 104 0
209 -42 -101 -102 -67 -3 -103 -16 -104 0
-209 42 0
-209 101 0
-209 102 0
-209 67 0
-209 3 0
-209 103 0
-209 16 0
-209 104 0
210 -101 -102 -108 -3 -16 -53 -104 -69 0
-210 101 0
-210 102 0
-210 108 0
-210 3 0
-210 16 0
-210 53 0
-210 104 0
-210 69 0
211 -101 -71 -102 -63 -3 -103 -16 -104 0
-211 101 0
-211 71 0
-211 102 0
-211 63 0
-211 3 0
-211 103 0
-211 16 0
-211 104 0
212 -101 -102 -63 -7 -103 -16 -23 -104 0
-212 101 0
-212 102 0
-212 63 0
-212 7 0
-212 103 0
-212 16 0
-212 23 0
-212 104 0
213 -101 -102 -65 -7 -103 -16 -34 -104 0
-213 101 0
-213 102 0
-213 65 0
-213 7 0
-213 103 0
-213 16 0
-213 34 0
-213 104 0
214 -101 -102 -67 -44 -7 -103 -16 -104 0
-214 101 0
-214 102 0
-214 67 0
-214 44 0
-214 7 0
-214 103 0
-214 16 0
-214 104 0
215 -101 -102 -55 -7 -108 -16 -104 -69 0
-215 101 0
-215 102 0
-215 55 0
-215 7 0
-215 108 0
-215 16 0
-215 104 0
-215 69 0
216 -101 -71 -102 -65 -7 -103 -16 -104 0
-216 101 0
-216 71 0
-216 102 0
-216 65 0
-216 7 0
-216 103 0
-216 16 0
-216 104 0
217 -101 -102 -63 -25 -103 -16 -10 -104 0
-217 101 0
-217 102 0
-217 63 0
-217 25 0
-217 103 0
-217 16 0
-217 10 0
-217 104 0
218 -101 -102 -36 -65 -103 -16 -10 -104 0
-218 101 0
-218 102 0
-218 36 0
-218 65 0
-218 103 0
-218 16 0
-218 10 0
-218 104 0
219 -101 -102 -67 -46 -103 -16 -10 -104 0
-219 101 0
-219 102 0
-219 67 0
-219 46 0
-219 103 0
-219 16 0
-219 10 0
-219 104 0
220 -57 -101 -102 -108 -16 -10 -104 -69 0
-220 57 0
-220 101 0
-220 102 0
-220 108 0
-220 16 0
-220 10 0
-220 104 0
-220 69 0
221 -101 -71 -67 -102 -103 -16 -10 -104 0
-221 101 0
-221 71 0
-221 67 0
-221 102 0
-221 103 0
-221 16 0
-221 10 0
-221 104 0
222 -102 -63 -27 -12 -103 -16 -121 -104 0
-222 102 0
-222 63 0
-222 27 0
-222 12 0
-222 103 0
-222 16 0
-222 121 0
-222 104 0
223 -102 -65 -38 -12 -103 -16 -121 -104 0
-223 102 0
-223 65 0
-223 38 0
-223 12 0
-223 103 0
-223 16 0
-223 121 0
-223 104 0
224 -48 -102 -67 -12 -103 -16 -121 -104 0
-224 48 0
-224 102 0
-224 67 0
-224 12 0
-224 103 0
-224 16 0
-224 121 0
-224 104 0
225 -102 -59 -108 -12 -16 -121 -104 -69 0
-225 102 0
-225 59 0
-225 108 0
-225 12 0
-225 16 0
-225 121 0
-225 104 0
-225 69 0
226 -102 -71 -12 -103 -16 -121 -104 -69 0
-226 102 0
-226 71 0
-226 12 0
-226 103 0
-226 16 0
-226 121 0
-226 104 0
-226 69 0
227 -15 -101 -102 -63 -30 -103 -16 -104 0
-227 15 0
-227 101 0
-227 102 0
-227 63 0
-227 30 0
-227 103 0
-227 16 0
-227 104 0
228 -15 -101 -102 -65 -40 -103 -16 -104 0
-228 15 0
-228 101 0
-228 102 0
-228 65 0
-228 40 0
-228 103 0
-228 16 0
-228 104 0
229 -15 -101 -102 -67 -50 -103 -16 -104 0
-229 15 0
-229 101 0
-229 102 0
-229 67 0
-229 50 0
-229 103 0
-229 16 0
-229 104 0
230 -15 -101 -102 -108 -16 -61 -104 -69 0
-230 15 0
-230 101 0
-230 102 0
-230 108 0
-230 16 0
-230 61 0
-230 104 0
-230 69 0
231 -15 -101 -71 -102 -103 -16 -104 0
-231 15 0
-231 101 0
-231 71 0
-231 102 0
-231 103 0
-231 16 0
-231 104 0
-232 1 5 8 11 14 17 22 24 26 29 31 33 35 37 39 41 43 45 47 49 51 54 56 58 60 62 64 66 68 70 72 75 76 77 79 80 81 82 83 84 85 86 87 88 89 90 91 92 93 94 95 96 97 98 99 100 105 106 107 109 110 111 112 113 114 115 116 117 118 119 120 122 123 124 125 126 127 128 129 130 131 132 133 134 135 136 137 138 139 140 141 142 143 144 145 146 147 148 149 150 151 152 153 154 155 156 157 158 159 160 161 162 163 164 165 166 167 168 169 170 171 172 173 174 175 176 177 178 179 180 181 183 184 185 186 187 188 189 190 191 192 193 194 195 196 197 198 199 200 201 202 203 204 205 206 207 208 209 210 211 212 213 214 215 216 217 218 219 220 221 222 223 224 225 226 227 228 229 230 231 0
232 -1 0
232 -5 0
232 -8 0
232 -11 0
232 -14 0
232 -17 0
232 -22 0
232 -24 0
232 -26 0
232 -29 0
232 -31 0
232 -33 0
232 -35 0
232 -37 0
232 -39 0
232 -41 0
232 -43 0
232 -45 0
232 -47 0
232 -49 0
232 -51 0
232 -54 0
232 -56 0
232 -58 0
232 -60 0
232 -62 0
232 -64 0
232 -66 0
232 -68 0
232 -70 0
232 -72 0
232 -75 0
232 -76 0
232 -77 0
232 -79 0
232 -80 0
232 -81 0
232 -82 0
232 -83 0
232 -84 0
232 -85 0
232 -86 0
232 -87 0
232 -88 0
232 -89 0
232 -90 0
232 -91 0
232 -92 0
232 -93 0
232 -94 0
232 -95 0
232 -96 0
232 -97 0
232 -98 0
232 -99 0
232 -100 0
232 -105 0
232 -106 0
232 -107 0
232 -109 0
232 -110 0
232 -111 0
232 -112 0
232 -113 0
232 -114 0
232 -115 0
232 -116 0
232 -117 0
232 -118 0
232 -119 0
232 -120 0
232 -122 0
232 -123 0
232 -124 0
232 -125 0
232 -126 0
232 -127 0
232 -128 0
232 -129 0
232 -130 0
232 -131 0
232 -132 0
232 -133 0
232 -134 0
232 -135 0
232 -136 0
232 -137 0
232 -138 0
232 -139 0
232 -140 0
232 -141 0
232 -142 0
232 -143 0
232 -144 0
232 -145 0
232 -146 0
232 -147 0
232 -148 0
232 -149 0
232 -150 0
232 -151 0
232 -152 0
232 -153 0
232 -154 0
232 -155 0
232 -156 0
232 -157 0
232 -158 0
232 -159 0
232 -160 0
232 -161 0
232 -162 0
232 -163 0
232 -164 0
232 -165 0
232 -166 0
232 -167 0
232 -168 0
232 -169 0
232 -170 0
232 -171 0
232 -172 0
232 -173 0
232 -174 0
232 -175 0
232 -176 0
232 -177 0
232 -178 0
232 -179 0
232 -180 0
232 -181 0
232 -183 0
232 -184 0
232 -185 0
232 -186 0
232 -187 0
232 -188 0
232 -189 0
232 -190 0
232 -191 0
232 -192 0
232 -193 0
232 -194 0
232 -195 0
232 -196 0
232 -197 0
232 -198 0
232 -199 0
232 -200 0
232 -201 0
232 -202 0
232 -203 0
232 -204 0
232 -205 0
232 -206 0
232 -207 0
232 -208 0
232 -209 0
232 -210 0
232 -211 0
232 -212 0
232 -213 0
232 -214 0
232 -215 0
232 -216 0
232 -217 0
232 -218 0
232 -219 0
232 -220 0
232 -221 0
232 -222 0
232 -223 0
232 -224 0
232 -225 0
232 -226 0
232 -227 0
232 -228 0
232 -229 0
232 -230 0
232 -231 0
232 0
