c BC-S1.2
p cnf 222 1000
1 -2 -3 -4 0
-1 2 0
-1 3 0
-1 4 0
5 -6 -7 -4 0
-5 6 0
-5 7 0
-5 4 0
8 -9 -10 -4 0
-8 9 0
-8 10 0
-8 4 0
11 -12 -13 -4 0
-11 12 0
-11 13 0
-11 4 0
14 -15 -16 -4 0
-14 15 0
-14 16 0
-14 4 0
17 -18 -19 -4 0
-17 18 0
-17 19 0
-17 4 0
20 -21 -22 -4 0
-20 21 0
-20 22 0
-20 4 0
23 -24 -4 -25 0
-23 24 0
-23 4 0
-23 25 0
26 -27 -2 -28 -3 -29 -30 0
-26 27 0
-26 2 0
-26 28 0
-26 3 0
-26 29 0
-26 30 0
31 -32 -28 -3 -29 -30 -7 0
-31 32 0
-31 28 0
-31 3 0
-31 29 0
-31 30 0
-31 7 0
33 -9 -28 -3 -29 -30 -34 0
-33 9 0
-33 28 0
-33 3 0
-33 29 0
-33 30 0
-33 34 0
35 -28 -12 -3 -29 -30 -36 0
-35 28 0
-35 12 0
-35 3 0
-35 29 0
-35 30 0
-35 36 0
37 -28 -3 -16 -29 -30 -38 0
-37 28 0
-37 3 0
-37 16 0
-37 29 0
-37 30 0
-37 38 0
39 -28 -18 -3 -40 -29 -30 0
-39 28 0
-39 18 0
-39 3 0
-39 40 0
-39 29 0
-39 30 0
41 -28 -42 -3 -29 -30 -22 0
-41 28 0
-41 42 0
-41 3 0
-41 29 0
-41 30 0
-41 22 0
43 -28 -3 -29 -25 -30 -44 0
-43 28 0
-43 3 0
-43 29 0
-43 25 0
-43 30 0
-43 44 0
45 -2 -28 -46 -29 -30 -6 0
-45 2 0
-45 28 0
-45 46 0
-45 29 0
-45 30 0
-45 6 0
47 -48 -28 -29 -30 -6 -7 0
-47 48 0
-47 28 0
-47 29 0
-47 30 0
-47 6 0
-47 7 0
49 -9 -28 -29 -50 -30 -6 0
-49 9 0
-49 28 0
-49 29 0
-49 50 0
-49 30 0
-49 6 0
51 -28 -12 -29 -52 -30 -6 0
-51 28 0
-51 12 0
-51 29 0
-51 52 0
-51 30 0
-51 6 0
53 -28 -16 -29 -30 -54 -6 0
-53 28 0
-53 16 0
-53 29 0
-53 30 0
-53 54 0
-53 6 0
55 -28 -18 -29 -56 -30 -6 0
-55 28 0
-55 18 0
-55 29 0
-55 56 0
-55 30 0
-55 6 0
57 -28 -58 -29 -30 -22 -6 0
-57 28 0
-57 58 0
-57 29 0
-57 30 0
-57 22 0
-57 6 0
59 -60 -28 -29 -25 -30 -6 0
-59 60 0
-59 28 0
-59 29 0
-59 25 0
-59 30 0
-59 6 0
61 -2 -28 -29 -30 -10 -62 0
-61 2 0
-61 28 0
-61 29 0
-61 30 0
-61 10 0
-61 62 0
63 -28 -64 -29 -30 -10 -7 0
-63 28 0
-63 64 0
-63 29 0
-63 30 0
-63 10 0
-63 7 0
65 -9 -28 -66 -29 -30 -10 0
-65 9 0
-65 28 0
-65 66 0
-65 29 0
-65 30 0
-65 10 0
67 -28 -12 -29 -30 -10 -68 0
-67 28 0
-67 12 0
-67 29 0
-67 30 0
-67 10 0
-67 68 0
69 -28 -16 -29 -30 -10 -70 0
-69 28 0
-69 16 0
-69 29 0
-69 30 0
-69 10 0
-69 70 0
71 -28 -18 -29 -30 -10 -72 0
-71 28 0
-71 18 0
-71 29 0
-71 30 0
-71 10 0
-71 72 0
73 -28 -29 -30 -22 -10 -74 0
-73 28 0
-73 29 0
-73 30 0
-73 22 0
-73 10 0
-73 74 0
75 -28 -29 -25 -30 -10 -76 0
-75 28 0
-75 29 0
-75 25 0
-75 30 0
-75 10 0
-75 76 0
77 -2 -13 -28 -29 -30 -78 0
-77 2 0
-77 13 0
-77 28 0
-77 29 0
-77 30 0
-77 78 0
79 -7 -13 -28 -29 -30 -80 0
-79 7 0
-79 13 0
-79 28 0
-79 29 0
-79 30 0
-79 80 0
81 -9 -13 -28 -29 -30 -82 0
-81 9 0
-81 13 0
-81 28 0
-81 29 0
-81 30 0
-81 82 0
83 -84 -13 -28 -12 -29 -30 0
-83 84 0
-83 13 0
-83 28 0
-83 12 0
-83 29 0
-83 30 0
85 -86 -13 -28 -16 -29 -30 0
-85 86 0
-85 13 0
-85 28 0
-85 16 0
-85 29 0
-85 30 0
87 -13 -28 -18 -88 -29 -30 0
-87 13 0
-87 28 0
-87 18 0
-87 88 0
-87 29 0
-87 30 0
89 -90 -13 -28 -29 -30 -22 0
-89 90 0
-89 13 0
-89 28 0
-89 29 0
-89 30 0
-89 22 0
91 -13 -28 -29 -25 -30 -92 0
-91 13 0
-91 28 0
-91 29 0
-91 25 0
-91 30 0
-91 92 0
93 -94 -2 -28 -29 -30 -15 0
-93 94 0
-93 2 0
-93 28 0
-93 29 0
-93 30 0
-93 15 0
95 -28 -29 -30 -15 -96 -7 0
-95 28 0
-95 29 0
-95 30 0
-95 15 0
-95 96 0
-95 7 0
97 -9 -28 -29 -98 -30 -15 0
-97 9 0
-97 28 0
-97 29 0
-97 98 0
-97 30 0
-97 15 0
99 -100 -28 -12 -29 -30 -15 0
-99 100 0
-99 28 0
-99 12 0
-99 29 0
-99 30 0
-99 15 0
101 -28 -102 -16 -29 -30 -15 0
-101 28 0
-101 102 0
-101 16 0
-101 29 0
-101 30 0
-101 15 0
103 -28 -18 -29 -30 -15 -104 0
-103 28 0
-103 18 0
-103 29 0
-103 30 0
-103 15 0
-103 104 0
105 -106 -28 -29 -30 -15 -22 0
-105 106 0
-105 28 0
-105 29 0
-105 30 0
-105 15 0
-105 22 0
107 -28 -29 -25 -30 -15 -108 0
-107 28 0
-107 29 0
-107 25 0
-107 30 0
-107 15 0
-107 108 0
109 -2 -110 -28 -19 -29 -30 0
-109 2 0
-109 110 0
-109 28 0
-109 19 0
-109 29 0
-109 30 0
111 -112 -28 -19 -29 -30 -7 0
-111 112 0
-111 28 0
-111 19 0
-111 29 0
-111 30 0
-111 7 0
113 -9 -28 -114 -19 -29 -30 0
-113 9 0
-113 28 0
-113 114 0
-113 19 0
-113 29 0
-113 30 0
115 -28 -12 -19 -29 -30 -116 0
-115 28 0
-115 12 0
-115 19 0
-115 29 0
-115 30 0
-115 116 0
117 -118 -28 -19 -16 -29 -30 0
-117 118 0
-117 28 0
-117 19 0
-117 16 0
-117 29 0
-117 30 0
119 -120 -28 -18 -19 -29 -30 0
-119 120 0
-119 28 0
-119 18 0
-119 19 0
-119 29 0
-119 30 0
121 -28 -19 -29 -30 -22 -122 0
-121 28 0
-121 19 0
-121 29 0
-121 30 0
-121 22 0
-121 122 0
123 -28 -19 -29 -25 -30 -124 0
-123 28 0
-123 19 0
-123 29 0
-123 25 0
-123 30 0
-123 124 0
125 -2 -28 -21 -29 -30 0
-125 2 0
-125 28 0
-125 21 0
-125 29 0
-125 30 0
126 -127 -28 -21 -29 -30 -7 0
-126 127 0
-126 28 0
-126 21 0
-126 29 0
-126 30 0
-126 7 0
128 -9 -28 -21 -29 -30 -129 0
-128 9 0
-128 28 0
-128 21 0
-128 29 0
-128 30 0
-128 129 0
130 -28 -21 -12 -29 -30 -131 0
-130 28 0
-130 21 0
-130 12 0
-130 29 0
-130 30 0
-130 131 0
132 -28 -21 -16 -29 -30 -133 0
-132 28 0
-132 21 0
-132 16 0
-132 29 0
-132 30 0
-132 133 0
134 -28 -21 -18 -135 -29 -30 0
-134 28 0
-134 21 0
-134 18 0
-134 135 0
-134 29 0
-134 30 0
136 -28 -21 -137 -29 -30 -22 0
-136 28 0
-136 21 0
-136 137 0
-136 29 0
-136 30 0
-136 22 0
138 -28 -21 -29 -139 -30 -25 0
-138 28 0
-138 21 0
-138 29 0
-138 139 0
-138 30 0
-138 25 0
140 -2 -28 -141 -29 -30 -24 0
-140 2 0
-140 28 0
-140 141 0
-140 29 0
-140 30 0
-140 24 0
142 -28 -29 -30 -143 -24 -7 0
-142 28 0
-142 29 0
-142 30 0
-142 143 0
-142 24 0
-142 7 0
144 -9 -28 -29 -30 -24 -145 0
-144 9 0
-144 28 0
-144 29 0
-144 30 0
-144 24 0
-144 145 0
146 -147 -28 -12 -29 -30 -24 0
-146 147 0
-146 28 0
-146 12 0
-146 29 0
-146 30 0
-146 24 0
148 -28 -16 -29 -30 -149 -24 0
-148 28 0
-148 16 0
-148 29 0
-148 30 0
-148 149 0
-148 24 0
150 -28 -18 -151 -29 -30 -24 0
-150 28 0
-150 18 0
-150 151 0
-150 29 0
-150 30 0
-150 24 0
152 -153 -28 -29 -30 -22 -24 0
-152 153 0
-152 28 0
-152 29 0
-152 30 0
-152 22 0
-152 24 0
154 -155 -28 -29 -25 -30 -24 0
-154 155 0
-154 28 0
-154 29 0
-154 25 0
-154 30 0
-154 24 0
156 -27 -2 -157 -3 -158 0
-156 27 0
-156 2 0
-156 157 0
-156 3 0
-156 158 0
159 -157 -32 -3 -158 -7 0
-159 157 0
-159 32 0
-159 3 0
-159 158 0
-159 7 0
160 -9 -157 -3 -158 -34 0
-160 9 0
-160 157 0
-160 3 0
-160 158 0
-160 34 0
161 -157 -12 -3 -158 -36 0
-161 157 0
-161 12 0
-161 3 0
-161 158 0
-161 36 0
162 -157 -3 -16 -158 -38 0
-162 157 0
-162 3 0
-162 16 0
-162 158 0
-162 38 0
163 -157 -18 -3 -40 -158 0
-163 157 0
-163 18 0
-163 3 0
-163 40 0
-163 158 0
164 -157 -42 -3 -22 -158 0
-164 157 0
-164 42 0
-164 3 0
-164 22 0
-164 158 0
165 -157 -3 -25 -158 -44 0
-165 157 0
-165 3 0
-165 25 0
-165 158 0
-165 44 0
166 -2 -157 -46 -158 -6 0
-166 2 0
-166 157 0
-166 46 0
-166 158 0
-166 6 0
167 -157 -48 -158 -6 -7 0
-167 157 0
-167 48 0
-167 158 0
-167 6 0
-167 7 0
168 -9 -157 -50 -158 -6 0
-168 9 0
-168 157 0
-168 50 0
-168 158 0
-168 6 0
169 -157 -12 -52 -158 -6 0
-169 157 0
-169 12 0
-169 52 0
-169 158 0
-169 6 0
170 -157 -16 -158 -54 -6 0
-170 157 0
-170 16 0
-170 158 0
-170 54 0
-170 6 0
171 -157 -18 -56 -158 -6 0
-171 157 0
-171 18 0
-171 56 0
-171 158 0
-171 6 0
172 -157 -58 -22 -158 -6 0
-172 157 0
-172 58 0
-172 22 0
-172 158 0
-172 6 0
173 -60 -157 -25 -158 -6 0
-173 60 0
-173 157 0
-173 25 0
-173 158 0
-173 6 0
174 -2 -157 -158 -10 -62 0
-174 2 0
-174 157 0
-174 158 0
-174 10 0
-174 62 0
175 -157 -64 -158 -10 -7 0
-175 157 0
-175 64 0
-175 158 0
-175 10 0
-175 7 0
176 -9 -157 -66 -158 -10 0
-176 9 0
-176 157 0
-176 66 0
-176 158 0
-176 10 0
177 -157 -12 -158 -10 -68 0
-177 157 0
-177 12 0
-177 158 0
-177 10 0
-177 68 0
178 -157 -16 -158 -10 -70 0
-178 157 0
-178 16 0
-178 158 0
-178 10 0
-178 70 0
179 -157 -18 -158 -10 -72 0
-179 157 0
-179 18 0
-179 158 0
-179 10 0
-179 72 0
180 -157 -22 -158 -10 -74 0
-180 157 0
-180 22 0
-180 158 0
-180 10 0
-180 74 0
181 -157 -25 -158 -10 -76 0
-181 157 0
-181 25 0
-181 158 0
-181 10 0
-181 76 0
182 -2 -157 -13 -158 -78 0
-182 2 0
-182 157 0
-182 13 0
-182 158 0
-182 78 0
183 -7 -157 -13 -158 -80 0
-183 7 0
-183 157 0
-183 13 0
-183 158 0
-183 80 0
184 -9 -157 -13 -158 -82 0
-184 9 0
-184 157 0
-184 13 0
-184 158 0
-184 82 0
185 -84 -157 -13 -12 -158 0
-185 84 0
-185 157 0
-185 13 0
-185 12 0
-185 158 0
186 -157 -86 -13 -16 -158 0
-186 157 0
-186 86 0
-186 13 0
-186 16 0
-186 158 0
187 -157 -13 -18 -88 -158 0
-187 157 0
-187 13 0
-187 18 0
-187 88 0
-187 158 0
188 -90 -157 -13 -22 -158 0
-188 90 0
-188 157 0
-188 13 0
-188 22 0
-188 158 0
189 -157 -13 -25 -158 -92 0
-189 157 0
-189 13 0
-189 25 0
-189 158 0
-189 92 0
190 -94 -2 -157 -158 -15 0
-190 94 0
-190 2 0
-190 157 0
-190 158 0
-190 15 0
191 -157 -158 -15 -96 -7 0
-191 157 0
-191 158 0
-191 15 0
-191 96 0
-191 7 0
192 -9 -157 -98 -158 -15 0
-192 9 0
-192 157 0
-192 98 0
-192 158 0
-192 15 0
193 -100 -157 -12 -158 -15 0
-193 100 0
-193 157 0
-193 12 0
-193 158 0
-193 15 0
194 -157 -102 -16 -158 -15 0
-194 157 0
-194 102 0
-194 16 0
-194 158 0
-194 15 0
195 -157 -18 -158 -15 -104 0
-195 157 0
-195 18 0
-195 158 0
-195 15 0
-195 104 0
196 -157 -106 -22 -15 -158 0
-196 157 0
-196 106 0
-196 22 0
-196 15 0
-196 158 0
197 -157 -25 -158 -15 -108 0
-197 157 0
-197 25 0
-197 158 0
-197 15 0
-197 108 0
198 -2 -110 -157 -19 -158 0
-198 2 0
-198 110 0
-198 157 0
-198 19 0
-198 158 0
199 -112 -157 -19 -158 -7 0
-199 112 0
-199 157 0
-199 19 0
-199 158 0
-199 7 0
200 -9 -157 -114 -19 -158 0
-200 9 0
-200 157 0
-200 114 0
-200 19 0
-200 158 0
201 -157 -12 -19 -158 -116 0
-201 157 0
-201 12 0
-201 19 0
-201 158 0
-201 116 0
202 -118 -157 -19 -16 -158 0
-202 118 0
-202 157 0
-202 19 0
-202 16 0
-202 158 0
203 -120 -157 -18 -19 -158 0
-203 120 0
-203 157 0
-203 18 0
-203 19 0
-203 158 0
204 -157 -19 -22 -158 -122 0
-204 157 0
-204 19 0
-204 22 0
-204 158 0
-204 122 0
205 -157 -19 -25 -158 -124 0
-205 157 0
-205 19 0
-205 25 0
-205 158 0
-205 124 0
206 -21 -2 -157 -158 0
-206 21 0
-206 2 0
-206 157 0
-206 158 0
207 -157 -127 -21 -158 -7 0
-207 157 0
-207 127 0
-207 21 0
-207 158 0
-207 7 0
208 -9 -157 -21 -158 -129 0
-208 9 0
-208 157 0
-208 21 0
-208 158 0
-208 129 0
209 -157 -21 -12 -158 -131 0
-209 157 0
-209 21 0
-209 12 0
-209 158 0
-209 131 0
210 -157 -21 -16 -158 -133 0
-210 157 0
-210 21 0
-210 16 0
-210 158 0
-210 133 0
211 -157 -21 -18 -135 -158 0
-211 157 0
-211 21 0
-211 18 0
-211 135 0
-211 158 0
212 -157 -21 -137 -22 -158 0
-212 157 0
-212 21 0
-212 137 0
-212 22 0
-212 158 0
213 -157 -21 -139 -158 -25 0
-213 157 0
-213 21 0
-213 139 0
-213 158 0
-213 25 0
214 -2 -157 -141 -158 -24 0
-214 2 0
-214 157 0
-214 141 0
-214 158 0
-214 24 0
215 -157 -158 -143 -24 -7 0
-215 157 0
-215 158 0
-215 143 0
-215 24 0
-215 7 0
216 -9 -157 -158 -24 -145 0
-216 9 0
-216 157 0
-216 158 0
-216 24 0
-216 145 0
217 -147 -157 -12 -158 -24 0
-217 147 0
-217 157 0
-217 12 0
-217 158 0
-217 24 0
218 -157 -16 -158 -149 -24 0
-218 157 0
-218 16 0
-218 158 0
-218 149 0
-218 24 0
219 -157 -18 -151 -158 -24 0
-219 157 0
-219 18 0
-219 151 0
-219 158 0
-219 24 0
220 -153 -157 -22 -158 -24 0
-220 153 0
-220 157 0
-220 22 0
-220 158 0
-220 24 0
221 -155 -157 -25 -158 -24 0
-221 155 0
-221 157 0
-221 25 0
-221 158 0
-221 24 0
-222 1 5 8 11 14 17 20 23 26 31 33 35 37 39 41 43 45 47 49 51 53 55 57 59 61 63 65 67 69 71 73 75 77 79 81 83 85 87 89 91 93 95 97 99 101 103 105 107 109 111 113 115 117 119 121 123 125 126 128 130 132 134 136 138 140 142 144 146 148 150 152 154 156 159 160 161 162 163 164 165 166 167 168 169 170 171 172 173 174 175 176 177 178 179 180 181 182 183 184 185 186 187 188 189 190 191 192 193 194 195 196 197 198 199 200 201 202 203 204 205 206 207 208 209 210 211 212 213 214 215 216 217 218 219 220 221 0
222 -1 0
222 -5 0
222 -8 0
222 -11 0
222 -14 0
222 -17 0
222 -20 0
222 -23 0
222 -26 0
222 -31 0
222 -33 0
222 -35 0
222 -37 0
222 -39 0
222 -41 0
222 -43 0
222 -45 0
222 -47 0
222 -49 0
222 -51 0
222 -53 0
222 -55 0
222 -57 0
222 -59 0
222 -61 0
222 -63 0
222 -65 0
222 -67 0
222 -69 0
222 -71 0
222 -73 0
222 -75 0
222 -77 0
222 -79 0
222 -81 0
222 -83 0
222 -85 0
222 -87 0
222 -89 0
222 -91 0
222 -93 0
222 -95 0
222 -97 0
222 -99 0
222 -101 0
222 -103 0
222 -105 0
222 -107 0
222 -109 0
222 -111 0
222 -113 0
222 -115 0
222 -117 0
222 -119 0
222 -121 0
222 -123 0
222 -125 0
222 -126 0
222 -128 0
222 -130 0
222 -132 0
222 -134 0
222 -136 0
222 -138 0
222 -140 0
222 -142 0
222 -144 0
222 -146 0
222 -148 0
222 -150 0
222 -152 0
222 -154 0
222 -156 0
222 -159 0
222 -160 0
222 -161 0
222 -162 0
222 -163 0
222 -164 0
222 -165 0
222 -166 0
222 -167 0
222 -168 0
222 -169 0
222 -170 0
222 -171 0
222 -172 0
222 -173 0
222 -174 0
222 -175 0
222 -176 0
222 -177 0
222 -178 0
222 -179 0
222 -180 0
222 -181 0
222 -182 0
222 -183 0
222 -184 0
222 -185 0
222 -186 0
222 -187 0
222 -188 0
222 -189 0
222 -190 0
222 -191 0
222 -192 0
222 -193 0
222 -194 0
222 -195 0
222 -196 0
222 -197 0
222 -198 0
222 -199 0
222 -200 0
222 -201 0
222 -202 0
222 -203 0
222 -204 0
222 -205 0
222 -206 0
222 -207 0
222 -208 0
222 -209 0
222 -210 0
222 -211 0
222 -212 0
222 -213 0
222 -214 0
222 -215 0
222 -216 0
222 -217 0
222 -218 0
222 -219 0
222 -220 0
222 -221 0
222 0
