c BC-S1.2
p cnf 301 402
1 -2 -3 0
-1 2 0
-1 3 0
4 -5 -6 0
-4 5 0
-4 6 0
7 -8 -9 0
-7 8 0
-7 9 0
10 -11 -12 0
-10 11 0
-10 12 0
13 -14 -15 0
-13 14 0
-13 15 0
16 -17 -18 0
-16 17 0
-16 18 0
19 -20 -21 0
-19 20 0
-19 21 0
22 -23 -24 0
-22 23 0
-22 24 0
25 -26 -27 0
-25 26 0
-25 27 0
28 -29 -30 0
-28 29 0
-28 30 0
31 -32 -33 0
-31 32 0
-31 33 0
34 -35 -36 0
-34 35 0
-34 36 0
37 -38 -39 0
-37 38 0
-37 39 0
40 -41 -42 0
-40 41 0
-40 42 0
43 -44 -45 0
-43 44 0
-43 45 0
46 -47 -48 0
-46 47 0
-46 48 0
49 -50 -51 0
-49 50 0
-49 51 0
52 -53 -54 0
-52 53 0
-52 54 0
55 -56 -57 0
-55 56 0
-55 57 0
58 -59 -60 0
-58 59 0
-58 60 0
61 -62 -63 0
-61 62 0
-61 63 0
64 -65 -66 0
-64 65 0
-64 66 0
67 -68 -69 0
-67 68 0
-67 69 0
70 -71 -72 0
-70 71 0
-70 72 0
73 -74 -75 0
-73 74 0
-73 75 0
76 -77 -78 0
-76 77 0
-76 78 0
79 -80 -81 0
-79 80 0
-79 81 0
82 -83 -84 0
-82 83 0
-82 84 0
85 -86 -87 0
-85 86 0
-85 87 0
88 -89 -90 0
-88 89 0
-88 90 0
91 -92 -93 0
-91 92 0
-91 93 0
94 -95 -96 0
-94 95 0
-94 96 0
97 -98 -99 0
-97 98 0
-97 99 0
100 -101 -102 0
-100 101 0
-100 102 0
103 -104 -105 0
-103 104 0
-103 105 0
106 -107 -108 0
-106 107 0
-106 108 0
109 -110 -111 0
-109 110 0
-109 111 0
112 -113 -114 0
-112 113 0
-112 114 0
115 -116 -117 0
-115 116 0
-115 117 0
118 -119 -120 0
-118 119 0
-118 120 0
121 -122 -123 0
-121 122 0
-121 123 0
124 -125 -126 0
-124 125 0
-124 126 0
127 -128 -129 0
-127 128 0
-127 129 0
130 -131 -132 0
-130 131 0
-130 132 0
133 -134 -135 0
-133 134 0
-133 135 0
136 -137 -138 0
-136 137 0
-136 138 0
139 -140 -141 0
-139 140 0
-139 141 0
142 -143 -144 0
-142 143 0
-142 144 0
145 -146 -147 0
-145 146 0
-145 147 0
148 -149 -150 0
-148 149 0
-148 150 0
151 -152 -153 0
-151 152 0
-151 153 0
154 -155 -156 0
-154 155 0
-154 156 0
157 -158 -159 0
-157 158 0
-157 159 0
160 -161 -162 0
-160 161 0
-160 162 0
163 -164 -165 0
-163 164 0
-163 165 0
166 -167 -168 0
-166 167 0
-166 168 0
169 -170 -171 0
-169 170 0
-169 171 0
172 -173 -174 0
-172 173 0
-172 174 0
175 -176 -177 0
-175 176 0
-175 177 0
178 -179 -180 0
-178 179 0
-178 180 0
181 -182 -183 0
-181 182 0
-181 183 0
184 -185 -186 0
-184 185 0
-184 186 0
187 -188 -189 0
-187 188 0
-187 189 0
190 -191 -192 0
-190 191 0
-190 192 0
193 -194 -195 0
-193 194 0
-193 195 0
196 -197 -198 0
-196 197 0
-196 198 0
199 -200 -201 0
-199 200 0
-199 201 0
202 -203 -204 0
-202 203 0
-202 204 0
205 -206 -207 0
-205 206 0
-205 207 0
208 -209 -210 0
-208 209 0
-208 210 0
211 -212 -213 0
-211 212 0
-211 213 0
214 -215 -216 0
-214 215 0
-214 216 0
217 -218 -219 0
-217 218 0
-217 219 0
220 -221 -222 0
-220 221 0
-220 222 0
223 -224 -225 0
-223 224 0
-223 225 0
226 -227 -228 0
-226 227 0
-226 228 0
229 -230 -231 0
-229 230 0
-229 231 0
232 -233 -234 0
-232 233 0
-232 234 0
235 -236 -237 0
-235 236 0
-235 237 0
238 -239 -240 0
-238 239 0
-238 240 0
241 -242 -243 0
-241 242 0
-241 243 0
244 -245 -246 0
-244 245 0
-244 246 0
247 -248 -249 0
-247 248 0
-247 249 0
250 -251 -252 0
-250 251 0
-250 252 0
253 -254 -255 0
-253 254 0
-253 255 0
256 -257 -258 0
-256 257 0
-256 258 0
259 -260 -261 0
-259 260 0
-259 261 0
262 -263 -264 0
-262 263 0
-262 264 0
265 -266 -267 0
-265 266 0
-265 267 0
268 -269 -270 0
-268 269 0
-268 270 0
271 -272 -273 0
-271 272 0
-271 273 0
274 -275 -276 0
-274 275 0
-274 276 0
277 -278 -279 0
-277 278 0
-277 279 0
280 -281 -282 0
-280 281 0
-280 282 0
283 -284 -285 0
-283 284 0
-283 285 0
286 -287 -288 0
-286 287 0
-286 288 0
289 -290 -291 0
-289 290 0
-289 291 0
292 -293 -294 0
-292 293 0
-292 294 0
295 -296 -297 0
-295 296 0
-295 297 0
298 -299 -300 0
-298 299 0
-298 300 0
-301 1 4 7 10 13 16 19 22 25 28 31 34 37 40 43 46 49 52 55 58 61 64 67 70 73 76 79 82 85 88 91 94 97 100 103 106 109 112 115 118 121 124 127 130 133 136 139 142 145 148 151 154 157 160 163 166 169 172 175 178 181 184 187 190 193 196 199 202 205 208 211 214 217 220 223 226 229 232 235 238 241 244 247 250 253 256 259 262 265 268 271 274 277 280 283 286 289 292 295 298 0
301 -1 0
301 -4 0
301 -7 0
301 -10 0
301 -13 0
301 -16 0
301 -19 0
301 -22 0
301 -25 0
301 -28 0
301 -31 0
301 -34 0
301 -37 0
301 -40 0
301 -43 0
301 -46 0
301 -49 0
301 -52 0
301 -55 0
301 -58 0
301 -61 0
301 -64 0
301 -67 0
301 -70 0
301 -73 0
301 -76 0
301 -79 0
301 -82 0
301 -85 0
301 -88 0
301 -91 0
301 -94 0
301 -97 0
301 -100 0
301 -103 0
301 -106 0
301 -109 0
301 -112 0
301 -115 0
301 -118 0
301 -121 0
301 -124 0
301 -127 0
301 -130 0
301 -133 0
301 -136 0
301 -139 0
301 -142 0
301 -145 0
301 -148 0
301 -151 0
301 -154 0
301 -157 0
301 -160 0
301 -163 0
301 -166 0
301 -169 0
301 -172 0
301 -175 0
301 -178 0
301 -181 0
301 -184 0
301 -187 0
301 -190 0
301 -193 0
301 -196 0
301 -199 0
301 -202 0
301 -205 0
301 -208 0
301 -211 0
301 -214 0
301 -217 0
301 -220 0
301 -223 0
301 -226 0
301 -229 0
301 -232 0
301 -235 0
301 -238 0
301 -241 0
301 -244 0
301 -247 0
301 -250 0
301 -253 0
301 -256 0
301 -259 0
301 -262 0
301 -265 0
301 -268 0
301 -271 0
301 -274 0
301 -277 0
301 -280 0
301 -283 0
301 -286 0
301 -289 0
301 -292 0
301 -295 0
301 -298 0
301 0
