c BC-S1.2
p cnf 3001 4002
1 -2 -3 0
-1 2 0
-1 3 0
4 -5 -6 0
-4 5 0
-4 6 0
7 -8 -9 0
-7 8 0
-7 9 0
10 -11 -12 0
-10 11 0
-10 12 0
13 -14 -15 0
-13 14 0
-13 15 0
16 -17 -18 0
-16 17 0
-16 18 0
19 -20 -21 0
-19 20 0
-19 21 0
22 -23 -24 0
-22 23 0
-22 24 0
25 -26 -27 0
-25 26 0
-25 27 0
28 -29 -30 0
-28 29 0
-28 30 0
31 -32 -33 0
-31 32 0
-31 33 0
34 -35 -36 0
-34 35 0
-34 36 0
37 -38 -39 0
-37 38 0
-37 39 0
40 -41 -42 0
-40 41 0
-40 42 0
43 -44 -45 0
-43 44 0
-43 45 0
46 -47 -48 0
-46 47 0
-46 48 0
49 -50 -51 0
-49 50 0
-49 51 0
52 -53 -54 0
-52 53 0
-52 54 0
55 -56 -57 0
-55 56 0
-55 57 0
58 -59 -60 0
-58 59 0
-58 60 0
61 -62 -63 0
-61 62 0
-61 63 0
64 -65 -66 0
-64 65 0
-64 66 0
67 -68 -69 0
-67 68 0
-67 69 0
70 -71 -72 0
-70 71 0
-70 72 0
73 -74 -75 0
-73 74 0
-73 75 0
76 -77 -78 0
-76 77 0
-76 78 0
79 -80 -81 0
-79 80 0
-79 81 0
82 -83 -84 0
-82 83 0
-82 84 0
85 -86 -87 0
-85 86 0
-85 87 0
88 -89 -90 0
-88 89 0
-88 90 0
91 -92 -93 0
-91 92 0
-91 93 0
94 -95 -96 0
-94 95 0
-94 96 0
97 -98 -99 0
-97 98 0
-97 99 0
100 -101 -102 0
-100 101 0
-100 102 0
103 -104 -105 0
-103 104 0
-103 105 0
106 -107 -108 0
-106 107 0
-106 108 0
109 -110 -111 0
-109 110 0
-109 111 0
112 -113 -114 0
-112 113 0
-112 114 0
115 -116 -117 0
-115 116 0
-115 117 0
118 -119 -120 0
-118 119 0
-118 120 0
121 -122 -123 0
-121 122 0
-121 123 0
124 -125 -126 0
-124 125 0
-124 126 0
127 -128 -129 0
-127 128 0
-127 129 0
130 -131 -132 0
-130 131 0
-130 132 0
133 -134 -135 0
-133 134 0
-133 135 0
136 -137 -138 0
-136 137 0
-136 138 0
139 -140 -141 0
-139 140 0
-139 141 0
142 -143 -144 0
-142 143 0
-142 144 0
145 -146 -147 0
-145 146 0
-145 147 0
148 -149 -150 0
-148 149 0
-148 150 0
151 -152 -153 0
-151 152 0
-151 153 0
154 -155 -156 0
-154 155 0
-154 156 0
157 -158 -159 0
-157 158 0
-157 159 0
160 -161 -162 0
-160 161 0
-160 162 0
163 -164 -165 0
-163 164 0
-163 165 0
166 -167 -168 0
-166 167 0
-166 168 0
169 -170 -171 0
-169 170 0
-169 171 0
172 -173 -174 0
-172 173 0
-172 174 0
175 -176 -177 0
-175 176 0
-175 177 0
178 -179 -180 0
-178 179 0
-178 180 0
181 -182 -183 0
-181 182 0
-181 183 0
184 -185 -186 0
-184 185 0
-184 186 0
187 -188 -189 0
-187 188 0
-187 189 0
190 -191 -192 0
-190 191 0
-190 192 0
193 -194 -195 0
-193 194 0
-193 195 0
196 -197 -198 0
-196 197 0
-196 198 0
199 -200 -201 0
-199 200 0
-199 201 0
202 -203 -204 0
-202 203 0
-202 204 0
205 -206 -207 0
-205 206 0
-205 207 0
208 -209 -210 0
-208 209 0
-208 210 0
211 -212 -213 0
-211 212 0
-211 213 0
214 -215 -216 0
-214 215 0
-214 216 0
217 -218 -219 0
-217 218 0
-217 219 0
220 -221 -222 0
-220 221 0
-220 222 0
223 -224 -225 0
-223 224 0
-223 225 0
226 -227 -228 0
-226 227 0
-226 228 0
229 -230 -231 0
-229 230 0
-229 231 0
232 -233 -234 0
-232 233 0
-232 234 0
235 -236 -237 0
-235 236 0
-235 237 0
238 -239 -240 0
-238 239 0
-238 240 0
241 -242 -243 0
-241 242 0
-241 243 0
244 -245 -246 0
-244 245 0
-244 246 0
247 -248 -249 0
-247 248 0
-247 249 0
250 -251 -252 0
-250 251 0
-250 252 0
253 -254 -255 0
-253 254 0
-253 255 0
256 -257 -258 0
-256 257 0
-256 258 0
259 -260 -261 0
-259 260 0
-259 261 0
262 -263 -264 0
-262 263 0
-262 264 0
265 -266 -267 0
-265 266 0
-265 267 0
268 -269 -270 0
-268 269 0
-268 270 0
271 -272 -273 0
-271 272 0
-271 273 0
274 -275 -276 0
-274 275 0
-274 276 0
277 -278 -279 0
-277 278 0
-277 279 0
280 -281 -282 0
-280 281 0
-280 282 0
283 -284 -285 0
-283 284 0
-283 285 0
286 -287 -288 0
-286 287 0
-286 288 0
289 -290 -291 0
-289 290 0
-289 291 0
292 -293 -294 0
-292 293 0
-292 294 0
295 -296 -297 0
-295 296 0
-295 297 0
298 -299 -300 0
-298 299 0
-298 300 0
301 -302 -303 0
-301 302 0
-301 303 0
304 -305 -306 0
-304 305 0
-304 306 0
307 -308 -309 0
-307 308 0
-307 309 0
310 -311 -312 0
-310 311 0
-310 312 0
313 -314 -315 0
-313 314 0
-313 315 0
316 -317 -318 0
-316 317 0
-316 318 0
319 -320 -321 0
-319 320 0
-319 321 0
322 -323 -324 0
-322 323 0
-322 324 0
325 -326 -327 0
-325 326 0
-325 327 0
328 -329 -330 0
-328 329 0
-328 330 0
331 -332 -333 0
-331 332 0
-331 333 0
334 -335 -336 0
-334 335 0
-334 336 0
337 -338 -339 0
-337 338 0
-337 339 0
340 -341 -342 0
-340 341 0
-340 342 0
343 -344 -345 0
-343 344 0
-343 345 0
346 -347 -348 0
-346 347 0
-346 348 0
349 -350 -351 0
-349 350 0
-349 351 0
352 -353 -354 0
-352 353 0
-352 354 0
355 -356 -357 0
-355 356 0
-355 357 0
358 -359 -360 0
-358 359 0
-358 360 0
361 -362 -363 0
-361 362 0
-361 363 0
364 -365 -366 0
-364 365 0
-364 366 0
367 -368 -369 0
-367 368 0
-367 369 0
370 -371 -372 0
-370 371 0
-370 372 0
373 -374 -375 0
-373 374 0
-373 375 0
376 -377 -378 0
-376 377 0
-376 378 0
379 -380 -381 0
-379 380 0
-379 381 0
382 -383 -384 0
-382 383 0
-382 384 0
385 -386 -387 0
-385 386 0
-385 387 0
388 -389 -390 0
-388 389 0
-388 390 0
391 -392 -393 0
-391 392 0
-391 393 0
394 -395 -396 0
-394 395 0
-394 396 0
397 -398 -399 0
-397 398 0
-397 399 0
400 -401 -402 0
-400 401 0
-400 402 0
403 -404 -405 0
-403 404 0
-403 405 0
406 -407 -408 0
-406 407 0
-406 408 0
409 -410 -411 0
-409 410 0
-409 411 0
412 -413 -414 0
-412 413 0
-412 414 0
415 -416 -417 0
-415 416 0
-415 417 0
418 -419 -420 0
-418 419 0
-418 420 0
421 -422 -423 0
-421 422 0
-421 423 0
424 -425 -426 0
-424 425 0
-424 426 0
427 -428 -429 0
-427 428 0
-427 429 0
430 -431 -432 0
-430 431 0
-430 432 0
433 -434 -435 0
-433 434 0
-433 435 0
436 -437 -438 0
-436 437 0
-436 438 0
439 -440 -441 0
-439 440 0
-439 441 0
442 -443 -444 0
-442 443 0
-442 444 0
445 -446 -447 0
-445 446 0
-445 447 0
448 -449 -450 0
-448 449 0
-448 450 0
451 -452 -453 0
-451 452 0
-451 453 0
454 -455 -456 0
-454 455 0
-454 456 0
457 -458 -459 0
-457 458 0
-457 459 0
460 -461 -462 0
-460 461 0
-460 462 0
463 -464 -465 0
-463 464 0
-463 465 0
466 -467 -468 0
-466 467 0
-466 468 0
469 -470 -471 0
-469 470 0
-469 471 0
472 -473 -474 0
-472 473 0
-472 474 0
475 -476 -477 0
-475 476 0
-475 477 0
478 -479 -480 0
-478 479 0
-478 480 0
481 -482 -483 0
-481 482 0
-481 483 0
484 -485 -486 0
-484 485 0
-484 486 0
487 -488 -489 0
-487 488 0
-487 489 0
490 -491 -492 0
-490 491 0
-490 492 0
493 -494 -495 0
-493 494 0
-493 495 0
496 -497 -498 0
-496 497 0
-496 498 0
499 -500 -501 0
-499 500 0
-499 501 0
502 -503 -504 0
-502 503 0
-502 504 0
505 -506 -507 0
-505 506 0
-505 507 0
508 -509 -510 0
-508 509 0
-508 510 0
511 -512 -513 0
-511 512 0
-511 513 0
514 -515 -516 0
-514 515 0
-514 516 0
517 -518 -519 0
-517 518 0
-517 519 0
520 -521 -522 0
-520 521 0
-520 522 0
523 -524 -525 0
-523 524 0
-523 525 0
526 -527 -528 0
-526 527 0
-526 528 0
529 -530 -531 0
-529 530 0
-529 531 0
532 -533 -534 0
-532 533 0
-532 534 0
535 -536 -537 0
-535 536 0
-535 537 0
538 -539 -540 0
-538 539 0
-538 540 0
541 -542 -543 0
-541 542 0
-541 543 0
544 -545 -546 0
-544 545 0
-544 546 0
547 -548 -549 0
-547 548 0
-547 549 0
550 -551 -552 0
-550 551 0
-550 552 0
553 -554 -555 0
-553 554 0
-553 555 0
556 -557 -558 0
-556 557 0
-556 558 0
559 -560 -561 0
-559 560 0
-559 561 0
562 -563 -564 0
-562 563 0
-562 564 0
565 -566 -567 0
-565 566 0
-565 567 0
568 -569 -570 0
-568 569 0
-568 570 0
571 -572 -573 0
-571 572 0
-571 573 0
574 -575 -576 0
-574 575 0
-574 576 0
577 -578 -579 0
-577 578 0
-577 579 0
580 -581 -582 0
-580 581 0
-580 582 0
583 -584 -585 0
-583 584 0
-583 585 0
586 -587 -588 0
-586 587 0
-586 588 0
589 -590 -591 0
-589 590 0
-589 591 0
592 -593 -594 0
-592 593 0
-592 594 0
595 -596 -597 0
-595 596 0
-595 597 0
598 -599 -600 0
-598 599 0
-598 600 0
601 -602 -603 0
-601 602 0
-601 603 0
604 -605 -606 0
-604 605 0
-604 606 0
607 -608 -609 0
-607 608 0
-607 609 0
610 -611 -612 0
-610 611 0
-610 612 0
613 -614 -615 0
-613 614 0
-613 615 0
616 -617 -618 0
-616 617 0
-616 618 0
619 -620 -621 0
-619 620 0
-619 621 0
622 -623 -624 0
-622 623 0
-622 624 0
625 -626 -627 0
-625 626 0
-625 627 0
628 -629 -630 0
-628 629 0
-628 630 0
631 -632 -633 0
-631 632 0
-631 633 0
634 -635 -636 0
-634 635 0
-634 636 0
637 -638 -639 0
-637 638 0
-637 639 0
640 -641 -642 0
-640 641 0
-640 642 0
643 -644 -645 0
-643 644 0
-643 645 0
646 -647 -648 0
-646 647 0
-646 648 0
649 -650 -651 0
-649 650 0
-649 651 0
652 -653 -654 0
-652 653 0
-652 654 0
655 -656 -657 0
-655 656 0
-655 657 0
658 -659 -660 0
-658 659 0
-658 660 0
661 -662 -663 0
-661 662 0
-661 663 0
664 -665 -666 0
-664 665 0
-664 666 0
667 -668 -669 0
-667 668 0
-667 669 0
670 -671 -672 0
-670 671 0
-670 672 0
673 -674 -675 0
-673 674 0
-673 675 0
676 -677 -678 0
-676 677 0
-676 678 0
679 -680 -681 0
-679 680 0
-679 681 0
682 -683 -684 0
-682 683 0
-682 684 0
685 -686 -687 0
-685 686 0
-685 687 0
688 -689 -690 0
-688 689 0
-688 690 0
691 -692 -693 0
-691 692 0
-691 693 0
694 -695 -696 0
-694 695 0
-694 696 0
697 -698 -699 0
-697 698 0
-697 699 0
700 -701 -702 0
-700 701 0
-700 702 0
703 -704 -705 0
-703 704 0
-703 705 0
706 -707 -708 0
-706 707 0
-706 708 0
709 -710 -711 0
-709 710 0
-709 711 0
712 -713 -714 0
-712 713 0
-712 714 0
715 -716 -717 0
-715 716 0
-715 717 0
718 -719 -720 0
-718 719 0
-718 720 0
721 -722 -723 0
-721 722 0
-721 723 0
724 -725 -726 0
-724 725 0
-724 726 0
727 -728 -729 0
-727 728 0
-727 729 0
730 -731 -732 0
-730 731 0
-730 732 0
733 -734 -735 0
-733 734 0
-733 735 0
736 -737 -738 0
-736 737 0
-736 738 0
739 -740 -741 0
-739 740 0
-739 741 0
742 -743 -744 0
-742 743 0
-742 744 0
745 -746 -747 0
-745 746 0
-745 747 0
748 -749 -750 0
-748 749 0
-748 750 0
751 -752 -753 0
-751 752 0
-751 753 0
754 -755 -756 0
-754 755 0
-754 756 0
757 -758 -759 0
-757 758 0
-757 759 0
760 -761 -762 0
-760 761 0
-760 762 0
763 -764 -765 0
-763 764 0
-763 765 0
766 -767 -768 0
-766 767 0
-766 768 0
769 -770 -771 0
-769 770 0
-769 771 0
772 -773 -774 0
-772 773 0
-772 774 0
775 -776 -777 0
-775 776 0
-775 777 0
778 -779 -780 0
-778 779 0
-778 780 0
781 -782 -783 0
-781 782 0
-781 783 0
784 -785 -786 0
-784 785 0
-784 786 0
787 -788 -789 0
-787 788 0
-787 789 0
790 -791 -792 0
-790 791 0
-790 792 0
793 -794 -795 0
-793 794 0
-793 795 0
796 -797 -798 0
-796 797 0
-796 798 0
799 -800 -801 0
-799 800 0
-799 801 0
802 -803 -804 0
-802 803 0
-802 804 0
805 -806 -807 0
-805 806 0
-805 807 0
808 -809 -810 0
-808 809 0
-808 810 0
811 -812 -813 0
-811 812 0
-811 813 0
814 -815 -816 0
-814 815 0
-814 816 0
817 -818 -819 0
-817 818 0
-817 819 0
820 -821 -822 0
-820 821 0
-820 822 0
823 -824 -825 0
-823 824 0
-823 825 0
826 -827 -828 0
-826 827 0
-826 828 0
829 -830 -831 0
-829 830 0
-829 831 0
832 -833 -834 0
-832 833 0
-832 834 0
835 -836 -837 0
-835 836 0
-835 837 0
838 -839 -840 0
-838 839 0
-838 840 0
841 -842 -843 0
-841 842 0
-841 843 0
844 -845 -846 0
-844 845 0
-844 846 0
847 -848 -849 0
-847 848 0
-847 849 0
850 -851 -852 0
-850 851 0
-850 852 0
853 -854 -855 0
-853 854 0
-853 855 0
856 -857 -858 0
-856 857 0
-856 858 0
859 -860 -861 0
-859 860 0
-859 861 0
862 -863 -864 0
-862 863 0
-862 864 0
865 -866 -867 0
-865 866 0
-865 867 0
868 -869 -870 0
-868 869 0
-868 870 0
871 -872 -873 0
-871 872 0
-871 873 0
874 -875 -876 0
-874 875 0
-874 876 0
877 -878 -879 0
-877 878 0
-877 879 0
880 -881 -882 0
-880 881 0
-880 882 0
883 -884 -885 0
-883 884 0
-883 885 0
886 -887 -888 0
-886 887 0
-886 888 0
889 -890 -891 0
-889 890 0
-889 891 0
892 -893 -894 0
-892 893 0
-892 894 0
895 -896 -897 0
-895 896 0
-895 897 0
898 -899 -900 0
-898 899 0
-898 900 0
901 -902 -903 0
-901 902 0
-901 903 0
904 -905 -906 0
-904 905 0
-904 906 0
907 -908 -909 0
-907 908 0
-907 909 0
910 -911 -912 0
-910 911 0
-910 912 0
913 -914 -915 0
-913 914 0
-913 915 0
916 -917 -918 0
-916 917 0
-916 918 0
919 -920 -921 0
-919 920 0
-919 921 0
922 -923 -924 0
-922 923 0
-922 924 0
925 -926 -927 0
-925 926 0
-925 927 0
928 -929 -930 0
-928 929 0
-928 930 0
931 -932 -933 0
-931 932 0
-931 933 0
934 -935 -936 0
-934 935 0
-934 936 0
937 -938 -939 0
-937 938 0
-937 939 0
940 -941 -942 0
-940 941 0
-940 942 0
943 -944 -945 0
-943 944 0
-943 945 0
946 -947 -948 0
-946 947 0
-946 948 0
949 -950 -951 0
-949 950 0
-949 951 0
952 -953 -954 0
-952 953 0
-952 954 0
955 -956 -957 0
-955 956 0
-955 957 0
958 -959 -960 0
-958 959 0
-958 960 0
961 -962 -963 0
-961 962 0
-961 963 0
964 -965 -966 0
-964 965 0
-964 966 0
967 -968 -969 0
-967 968 0
-967 969 0
970 -971 -972 0
-970 971 0
-970 972 0
973 -974 -975 0
-973 974 0
-973 975 0
976 -977 -978 0
-976 977 0
-976 978 0
979 -980 -981 0
-979 980 0
-979 981 0
982 -983 -984 0
-982 983 0
-982 984 0
985 -986 -987 0
-985 986 0
-985 987 0
988 -989 -990 0
-988 989 0
-988 990 0
991 -992 -993 0
-991 992 0
-991 993 0
994 -995 -996 0
-994 995 0
-994 996 0
997 -998 -999 0
-997 998 0
-997 999 0
1000 -1001 -1002 0
-1000 1001 0
-1000 1002 0
1003 -1004 -1005 0
-1003 1004 0
-1003 1005 0
1006 -1007 -1008 0
-1006 1007 0
-1006 1008 0
1009 -1010 -1011 0
-1009 1010 0
-1009 1011 0
1012 -1013 -1014 0
-1012 1013 0
-1012 1014 0
1015 -1016 -1017 0
-1015 1016 0
-1015 1017 0
1018 -1019 -1020 0
-1018 1019 0
-1018 1020 0
1021 -1022 -1023 0
-1021 1022 0
-1021 1023 0
1024 -1025 -1026 0
-1024 1025 0
-1024 1026 0
1027 -1028 -1029 0
-1027 1028 0
-1027 1029 0
1030 -1031 -1032 0
-1030 1031 0
-1030 1032 0
1033 -1034 -1035 0
-1033 1034 0
-1033 1035 0
1036 -1037 -1038 0
-1036 1037 0
-1036 1038 0
1039 -1040 -1041 0
-1039 1040 0
-1039 1041 0
1042 -1043 -1044 0
-1042 1043 0
-1042 1044 0
1045 -1046 -1047 0
-1045 1046 0
-1045 1047 0
1048 -1049 -1050 0
-1048 1049 0
-1048 1050 0
1051 -1052 -1053 0
-1051 1052 0
-1051 1053 0
1054 -1055 -1056 0
-1054 1055 0
-1054 1056 0
1057 -1058 -1059 0
-1057 1058 0
-1057 1059 0
1060 -1061 -1062 0
-1060 1061 0
-1060 1062 0
1063 -1064 -1065 0
-1063 1064 0
-1063 1065 0
1066 -1067 -1068 0
-1066 1067 0
-1066 1068 0
1069 -1070 -1071 0
-1069 1070 0
-1069 1071 0
1072 -1073 -1074 0
-1072 1073 0
-1072 1074 0
1075 -1076 -1077 0
-1075 1076 0
-1075 1077 0
1078 -1079 -1080 0
-1078 1079 0
-1078 1080 0
1081 -1082 -1083 0
-1081 1082 0
-1081 1083 0
1084 -1085 -1086 0
-1084 1085 0
-1084 1086 0
1087 -1088 -1089 0
-1087 1088 0
-1087 1089 0
1090 -1091 -1092 0
-1090 1091 0
-1090 1092 0
1093 -1094 -1095 0
-1093 1094 0
-1093 1095 0
1096 -1097 -1098 0
-1096 1097 0
-1096 1098 0
1099 -1100 -1101 0
-1099 1100 0
-1099 1101 0
1102 -1103 -1104 0
-1102 1103 0
-1102 1104 0
1105 -1106 -1107 0
-1105 1106 0
-1105 1107 0
1108 -1109 -1110 0
-1108 1109 0
-1108 1110 0
1111 -1112 -1113 0
-1111 1112 0
-1111 1113 0
1114 -1115 -1116 0
-1114 1115 0
-1114 1116 0
1117 -1118 -1119 0
-1117 1118 0
-1117 1119 0
1120 -1121 -1122 0
-1120 1121 0
-1120 1122 0
1123 -1124 -1125 0
-1123 1124 0
-1123 1125 0
1126 -1127 -1128 0
-1126 1127 0
-1126 1128 0
1129 -1130 -1131 0
-1129 1130 0
-1129 1131 0
1132 -1133 -1134 0
-1132 1133 0
-1132 1134 0
1135 -1136 -1137 0
-1135 1136 0
-1135 1137 0
1138 -1139 -1140 0
-1138 1139 0
-1138 1140 0
1141 -1142 -1143 0
-1141 1142 0
-1141 1143 0
1144 -1145 -1146 0
-1144 1145 0
-1144 1146 0
1147 -1148 -1149 0
-1147 1148 0
-1147 1149 0
1150 -1151 -1152 0
-1150 1151 0
-1150 1152 0
1153 -1154 -1155 0
-1153 1154 0
-1153 1155 0
1156 -1157 -1158 0
-1156 1157 0
-1156 1158 0
1159 -1160 -1161 0
-1159 1160 0
-1159 1161 0
1162 -1163 -1164 0
-1162 1163 0
-1162 1164 0
1165 -1166 -1167 0
-1165 1166 0
-1165 1167 0
1168 -1169 -1170 0
-1168 1169 0
-1168 1170 0
1171 -1172 -1173 0
-1171 1172 0
-1171 1173 0
1174 -1175 -1176 0
-1174 1175 0
-1174 1176 0
1177 -1178 -1179 0
-1177 1178 0
-1177 1179 0
1180 -1181 -1182 0
-1180 1181 0
-1180 1182 0
1183 -1184 -1185 0
-1183 1184 0
-1183 1185 0
1186 -1187 -1188 0
-1186 1187 0
-1186 1188 0
1189 -1190 -1191 0
-1189 1190 0
-1189 1191 0
1192 -1193 -1194 0
-1192 1193 0
-1192 1194 0
1195 -1196 -1197 0
-1195 1196 0
-1195 1197 0
1198 -1199 -1200 0
-1198 1199 0
-1198 1200 0
1201 -1202 -1203 0
-1201 1202 0
-1201 1203 0
1204 -1205 -1206 0
-1204 1205 0
-1204 1206 0
1207 -1208 -1209 0
-1207 1208 0
-1207 1209 0
1210 -1211 -1212 0
-1210 1211 0
-1210 1212 0
1213 -1214 -1215 0
-1213 1214 0
-1213 1215 0
1216 -1217 -1218 0
-1216 1217 0
-1216 1218 0
1219 -1220 -1221 0
-1219 1220 0
-1219 1221 0
1222 -1223 -1224 0
-1222 1223 0
-1222 1224 0
1225 -1226 -1227 0
-1225 1226 0
-1225 1227 0
1228 -1229 -1230 0
-1228 1229 0
-1228 1230 0
1231 -1232 -1233 0
-1231 1232 0
-1231 1233 0
1234 -1235 -1236 0
-1234 1235 0
-1234 1236 0
1237 -1238 -1239 0
-1237 1238 0
-1237 1239 0
1240 -1241 -1242 0
-1240 1241 0
-1240 1242 0
1243 -1244 -1245 0
-1243 1244 0
-1243 1245 0
1246 -1247 -1248 0
-1246 1247 0
-1246 1248 0
1249 -1250 -1251 0
-1249 1250 0
-1249 1251 0
1252 -1253 -1254 0
-1252 1253 0
-1252 1254 0
1255 -1256 -1257 0
-1255 1256 0
-1255 1257 0
1258 -1259 -1260 0
-1258 1259 0
-1258 1260 0
1261 -1262 -1263 0
-1261 1262 0
-1261 1263 0
1264 -1265 -1266 0
-1264 1265 0
-1264 1266 0
1267 -1268 -1269 0
-1267 1268 0
-1267 1269 0
1270 -1271 -1272 0
-1270 1271 0
-1270 1272 0
1273 -1274 -1275 0
-1273 1274 0
-1273 1275 0
1276 -1277 -1278 0
-1276 1277 0
-1276 1278 0
1279 -1280 -1281 0
-1279 1280 0
-1279 1281 0
1282 -1283 -1284 0
-1282 1283 0
-1282 1284 0
1285 -1286 -1287 0
-1285 1286 0
-1285 1287 0
1288 -1289 -1290 0
-1288 1289 0
-1288 1290 0
1291 -1292 -1293 0
-1291 1292 0
-1291 1293 0
1294 -1295 -1296 0
-1294 1295 0
-1294 1296 0
1297 -1298 -1299 0
-1297 1298 0
-1297 1299 0
1300 -1301 -1302 0
-1300 1301 0
-1300 1302 0
1303 -1304 -1305 0
-1303 1304 0
-1303 1305 0
1306 -1307 -1308 0
-1306 1307 0
-1306 1308 0
1309 -1310 -1311 0
-1309 1310 0
-1309 1311 0
1312 -1313 -1314 0
-1312 1313 0
-1312 1314 0
1315 -1316 -1317 0
-1315 1316 0
-1315 1317 0
1318 -1319 -1320 0
-1318 1319 0
-1318 1320 0
1321 -1322 -1323 0
-1321 1322 0
-1321 1323 0
1324 -1325 -1326 0
-1324 1325 0
-1324 1326 0
1327 -1328 -1329 0
-1327 1328 0
-1327 1329 0
1330 -1331 -1332 0
-1330 1331 0
-1330 1332 0
1333 -1334 -1335 0
-1333 1334 0
-1333 1335 0
1336 -1337 -1338 0
-1336 1337 0
-1336 1338 0
1339 -1340 -1341 0
-1339 1340 0
-1339 1341 0
1342 -1343 -1344 0
-1342 1343 0
-1342 1344 0
1345 -1346 -1347 0
-1345 1346 0
-1345 1347 0
1348 -1349 -1350 0
-1348 1349 0
-1348 1350 0
1351 -1352 -1353 0
-1351 1352 0
-1351 1353 0
1354 -1355 -1356 0
-1354 1355 0
-1354 1356 0
1357 -1358 -1359 0
-1357 1358 0
-1357 1359 0
1360 -1361 -1362 0
-1360 1361 0
-1360 1362 0
1363 -1364 -1365 0
-1363 1364 0
-1363 1365 0
1366 -1367 -1368 0
-1366 1367 0
-1366 1368 0
1369 -1370 -1371 0
-1369 1370 0
-1369 1371 0
1372 -1373 -1374 0
-1372 1373 0
-1372 1374 0
1375 -1376 -1377 0
-1375 1376 0
-1375 1377 0
1378 -1379 -1380 0
-1378 1379 0
-1378 1380 0
1381 -1382 -1383 0
-1381 1382 0
-1381 1383 0
1384 -1385 -1386 0
-1384 1385 0
-1384 1386 0
1387 -1388 -1389 0
-1387 1388 0
-1387 1389 0
1390 -1391 -1392 0
-1390 1391 0
-1390 1392 0
1393 -1394 -1395 0
-1393 1394 0
-1393 1395 0
1396 -1397 -1398 0
-1396 1397 0
-1396 1398 0
1399 -1400 -1401 0
-1399 1400 0
-1399 1401 0
1402 -1403 -1404 0
-1402 1403 0
-1402 1404 0
1405 -1406 -1407 0
-1405 1406 0
-1405 1407 0
1408 -1409 -1410 0
-1408 1409 0
-1408 1410 0
1411 -1412 -1413 0
-1411 1412 0
-1411 1413 0
1414 -1415 -1416 0
-1414 1415 0
-1414 1416 0
1417 -1418 -1419 0
-1417 1418 0
-1417 1419 0
1420 -1421 -1422 0
-1420 1421 0
-1420 1422 0
1423 -1424 -1425 0
-1423 1424 0
-1423 1425 0
1426 -1427 -1428 0
-1426 1427 0
-1426 1428 0
1429 -1430 -1431 0
-1429 1430 0
-1429 1431 0
1432 -1433 -1434 0
-1432 1433 0
-1432 1434 0
1435 -1436 -1437 0
-1435 1436 0
-1435 1437 0
1438 -1439 -1440 0
-1438 1439 0
-1438 1440 0
1441 -1442 -1443 0
-1441 1442 0
-1441 1443 0
1444 -1445 -1446 0
-1444 1445 0
-1444 1446 0
1447 -1448 -1449 0
-1447 1448 0
-1447 1449 0
1450 -1451 -1452 0
-1450 1451 0
-1450 1452 0
1453 -1454 -1455 0
-1453 1454 0
-1453 1455 0
1456 -1457 -1458 0
-1456 1457 0
-1456 1458 0
1459 -1460 -1461 0
-1459 1460 0
-1459 1461 0
1462 -1463 -1464 0
-1462 1463 0
-1462 1464 0
1465 -1466 -1467 0
-1465 1466 0
-1465 1467 0
1468 -1469 -1470 0
-1468 1469 0
-1468 1470 0
1471 -1472 -1473 0
-1471 1472 0
-1471 1473 0
1474 -1475 -1476 0
-1474 1475 0
-1474 1476 0
1477 -1478 -1479 0
-1477 1478 0
-1477 1479 0
1480 -1481 -1482 0
-1480 1481 0
-1480 1482 0
1483 -1484 -1485 0
-1483 1484 0
-1483 1485 0
1486 -1487 -1488 0
-1486 1487 0
-1486 1488 0
1489 -1490 -1491 0
-1489 1490 0
-1489 1491 0
1492 -1493 -1494 0
-1492 1493 0
-1492 1494 0
1495 -1496 -1497 0
-1495 1496 0
-1495 1497 0
1498 -1499 -1500 0
-1498 1499 0
-1498 1500 0
1501 -1502 -1503 0
-1501 1502 0
-1501 1503 0
1504 -1505 -1506 0
-1504 1505 0
-1504 1506 0
1507 -1508 -1509 0
-1507 1508 0
-1507 1509 0
1510 -1511 -1512 0
-1510 1511 0
-1510 1512 0
1513 -1514 -1515 0
-1513 1514 0
-1513 1515 0
1516 -1517 -1518 0
-1516 1517 0
-1516 1518 0
1519 -1520 -1521 0
-1519 1520 0
-1519 1521 0
1522 -1523 -1524 0
-1522 1523 0
-1522 1524 0
1525 -1526 -1527 0
-1525 1526 0
-1525 1527 0
1528 -1529 -1530 0
-1528 1529 0
-1528 1530 0
1531 -1532 -1533 0
-1531 1532 0
-1531 1533 0
1534 -1535 -1536 0
-1534 1535 0
-1534 1536 0
1537 -1538 -1539 0
-1537 1538 0
-1537 1539 0
1540 -1541 -1542 0
-1540 1541 0
-1540 1542 0
1543 -1544 -1545 0
-1543 1544 0
-1543 1545 0
1546 -1547 -1548 0
-1546 1547 0
-1546 1548 0
1549 -1550 -1551 0
-1549 1550 0
-1549 1551 0
1552 -1553 -1554 0
-1552 1553 0
-1552 1554 0
1555 -1556 -1557 0
-1555 1556 0
-1555 1557 0
1558 -1559 -1560 0
-1558 1559 0
-1558 1560 0
1561 -1562 -1563 0
-1561 1562 0
-1561 1563 0
1564 -1565 -1566 0
-1564 1565 0
-1564 1566 0
1567 -1568 -1569 0
-1567 1568 0
-1567 1569 0
1570 -1571 -1572 0
-1570 1571 0
-1570 1572 0
1573 -1574 -1575 0
-1573 1574 0
-1573 1575 0
1576 -1577 -1578 0
-1576 1577 0
-1576 1578 0
1579 -1580 -1581 0
-1579 1580 0
-1579 1581 0
1582 -1583 -1584 0
-1582 1583 0
-1582 1584 0
1585 -1586 -1587 0
-1585 1586 0
-1585 1587 0
1588 -1589 -1590 0
-1588 1589 0
-1588 1590 0
1591 -1592 -1593 0
-1591 1592 0
-1591 1593 0
1594 -1595 -1596 0
-1594 1595 0
-1594 1596 0
1597 -1598 -1599 0
-1597 1598 0
-1597 1599 0
1600 -1601 -1602 0
-1600 1601 0
-1600 1602 0
1603 -1604 -1605 0
-1603 1604 0
-1603 1605 0
1606 -1607 -1608 0
-1606 1607 0
-1606 1608 0
1609 -1610 -1611 0
-1609 1610 0
-1609 1611 0
1612 -1613 -1614 0
-1612 1613 0
-1612 1614 0
1615 -1616 -1617 0
-1615 1616 0
-1615 1617 0
1618 -1619 -1620 0
-1618 1619 0
-1618 1620 0
1621 -1622 -1623 0
-1621 1622 0
-1621 1623 0
1624 -1625 -1626 0
-1624 1625 0
-1624 1626 0
1627 -1628 -1629 0
-1627 1628 0
-1627 1629 0
1630 -1631 -1632 0
-1630 1631 0
-1630 1632 0
1633 -1634 -1635 0
-1633 1634 0
-1633 1635 0
1636 -1637 -1638 0
-1636 1637 0
-1636 1638 0
1639 -1640 -1641 0
-1639 1640 0
-1639 1641 0
1642 -1643 -1644 0
-1642 1643 0
-1642 1644 0
1645 -1646 -1647 0
-1645 1646 0
-1645 1647 0
1648 -1649 -1650 0
-1648 1649 0
-1648 1650 0
1651 -1652 -1653 0
-1651 1652 0
-1651 1653 0
1654 -1655 -1656 0
-1654 1655 0
-1654 1656 0
1657 -1658 -1659 0
-1657 1658 0
-1657 1659 0
1660 -1661 -1662 0
-1660 1661 0
-1660 1662 0
1663 -1664 -1665 0
-1663 1664 0
-1663 1665 0
1666 -1667 -1668 0
-1666 1667 0
-1666 1668 0
1669 -1670 -1671 0
-1669 1670 0
-1669 1671 0
1672 -1673 -1674 0
-1672 1673 0
-1672 1674 0
1675 -1676 -1677 0
-1675 1676 0
-1675 1677 0
1678 -1679 -1680 0
-1678 1679 0
-1678 1680 0
1681 -1682 -1683 0
-1681 1682 0
-1681 1683 0
1684 -1685 -1686 0
-1684 1685 0
-1684 1686 0
1687 -1688 -1689 0
-1687 1688 0
-1687 1689 0
1690 -1691 -1692 0
-1690 1691 0
-1690 1692 0
1693 -1694 -1695 0
-1693 1694 0
-1693 1695 0
1696 -1697 -1698 0
-1696 1697 0
-1696 1698 0
1699 -1700 -1701 0
-1699 1700 0
-1699 1701 0
1702 -1703 -1704 0
-1702 1703 0
-1702 1704 0
1705 -1706 -1707 0
-1705 1706 0
-1705 1707 0
1708 -1709 -1710 0
-1708 1709 0
-1708 1710 0
1711 -1712 -1713 0
-1711 1712 0
-1711 1713 0
1714 -1715 -1716 0
-1714 1715 0
-1714 1716 0
1717 -1718 -1719 0
-1717 1718 0
-1717 1719 0
1720 -1721 -1722 0
-1720 1721 0
-1720 1722 0
1723 -1724 -1725 0
-1723 1724 0
-1723 1725 0
1726 -1727 -1728 0
-1726 1727 0
-1726 1728 0
1729 -1730 -1731 0
-1729 1730 0
-1729 1731 0
1732 -1733 -1734 0
-1732 1733 0
-1732 1734 0
1735 -1736 -1737 0
-1735 1736 0
-1735 1737 0
1738 -1739 -1740 0
-1738 1739 0
-1738 1740 0
1741 -1742 -1743 0
-1741 1742 0
-1741 1743 0
1744 -1745 -1746 0
-1744 1745 0
-1744 1746 0
1747 -1748 -1749 0
-1747 1748 0
-1747 1749 0
1750 -1751 -1752 0
-1750 1751 0
-1750 1752 0
1753 -1754 -1755 0
-1753 1754 0
-1753 1755 0
1756 -1757 -1758 0
-1756 1757 0
-1756 1758 0
1759 -1760 -1761 0
-1759 1760 0
-1759 1761 0
1762 -1763 -1764 0
-1762 1763 0
-1762 1764 0
1765 -1766 -1767 0
-1765 1766 0
-1765 1767 0
1768 -1769 -1770 0
-1768 1769 0
-1768 1770 0
1771 -1772 -1773 0
-1771 1772 0
-1771 1773 0
1774 -1775 -1776 0
-1774 1775 0
-1774 1776 0
1777 -1778 -1779 0
-1777 1778 0
-1777 1779 0
1780 -1781 -1782 0
-1780 1781 0
-1780 1782 0
1783 -1784 -1785 0
-1783 1784 0
-1783 1785 0
1786 -1787 -1788 0
-1786 1787 0
-1786 1788 0
1789 -1790 -1791 0
-1789 1790 0
-1789 1791 0
1792 -1793 -1794 0
-1792 1793 0
-1792 1794 0
1795 -1796 -1797 0
-1795 1796 0
-1795 1797 0
1798 -1799 -1800 0
-1798 1799 0
-1798 1800 0
1801 -1802 -1803 0
-1801 1802 0
-1801 1803 0
1804 -1805 -1806 0
-1804 1805 0
-1804 1806 0
1807 -1808 -1809 0
-1807 1808 0
-1807 1809 0
1810 -1811 -1812 0
-1810 1811 0
-1810 1812 0
1813 -1814 -1815 0
-1813 1814 0
-1813 1815 0
1816 -1817 -1818 0
-1816 1817 0
-1816 1818 0
1819 -1820 -1821 0
-1819 1820 0
-1819 1821 0
1822 -1823 -1824 0
-1822 1823 0
-1822 1824 0
1825 -1826 -1827 0
-1825 1826 0
-1825 1827 0
1828 -1829 -1830 0
-1828 1829 0
-1828 1830 0
1831 -1832 -1833 0
-1831 1832 0
-1831 1833 0
1834 -1835 -1836 0
-1834 1835 0
-1834 1836 0
1837 -1838 -1839 0
-1837 1838 0
-1837 1839 0
1840 -1841 -1842 0
-1840 1841 0
-1840 1842 0
1843 -1844 -1845 0
-1843 1844 0
-1843 1845 0
1846 -1847 -1848 0
-1846 1847 0
-1846 1848 0
1849 -1850 -1851 0
-1849 1850 0
-1849 1851 0
1852 -1853 -1854 0
-1852 1853 0
-1852 1854 0
1855 -1856 -1857 0
-1855 1856 0
-1855 1857 0
1858 -1859 -1860 0
-1858 1859 0
-1858 1860 0
1861 -1862 -1863 0
-1861 1862 0
-1861 1863 0
1864 -1865 -1866 0
-1864 1865 0
-1864 1866 0
1867 -1868 -1869 0
-1867 1868 0
-1867 1869 0
1870 -1871 -1872 0
-1870 1871 0
-1870 1872 0
1873 -1874 -1875 0
-1873 1874 0
-1873 1875 0
1876 -1877 -1878 0
-1876 1877 0
-1876 1878 0
1879 -1880 -1881 0
-1879 1880 0
-1879 1881 0
1882 -1883 -1884 0
-1882 1883 0
-1882 1884 0
1885 -1886 -1887 0
-1885 1886 0
-1885 1887 0
1888 -1889 -1890 0
-1888 1889 0
-1888 1890 0
1891 -1892 -1893 0
-1891 1892 0
-1891 1893 0
1894 -1895 -1896 0
-1894 1895 0
-1894 1896 0
1897 -1898 -1899 0
-1897 1898 0
-1897 1899 0
1900 -1901 -1902 0
-1900 1901 0
-1900 1902 0
1903 -1904 -1905 0
-1903 1904 0
-1903 1905 0
1906 -1907 -1908 0
-1906 1907 0
-1906 1908 0
1909 -1910 -1911 0
-1909 1910 0
-1909 1911 0
1912 -1913 -1914 0
-1912 1913 0
-1912 1914 0
1915 -1916 -1917 0
-1915 1916 0
-1915 1917 0
1918 -1919 -1920 0
-1918 1919 0
-1918 1920 0
1921 -1922 -1923 0
-1921 1922 0
-1921 1923 0
1924 -1925 -1926 0
-1924 1925 0
-1924 1926 0
1927 -1928 -1929 0
-1927 1928 0
-1927 1929 0
1930 -1931 -1932 0
-1930 1931 0
-1930 1932 0
1933 -1934 -1935 0
-1933 1934 0
-1933 1935 0
1936 -1937 -1938 0
-1936 1937 0
-1936 1938 0
1939 -1940 -1941 0
-1939 1940 0
-1939 1941 0
1942 -1943 -1944 0
-1942 1943 0
-1942 1944 0
1945 -1946 -1947 0
-1945 1946 0
-1945 1947 0
1948 -1949 -1950 0
-1948 1949 0
-1948 1950 0
1951 -1952 -1953 0
-1951 1952 0
-1951 1953 0
1954 -1955 -1956 0
-1954 1955 0
-1954 1956 0
1957 -1958 -1959 0
-1957 1958 0
-1957 1959 0
1960 -1961 -1962 0
-1960 1961 0
-1960 1962 0
1963 -1964 -1965 0
-1963 1964 0
-1963 1965 0
1966 -1967 -1968 0
-1966 1967 0
-1966 1968 0
1969 -1970 -1971 0
-1969 1970 0
-1969 1971 0
1972 -1973 -1974 0
-1972 1973 0
-1972 1974 0
1975 -1976 -1977 0
-1975 1976 0
-1975 1977 0
1978 -1979 -1980 0
-1978 1979 0
-1978 1980 0
1981 -1982 -1983 0
-1981 1982 0
-1981 1983 0
1984 -1985 -1986 0
-1984 1985 0
-1984 1986 0
1987 -1988 -1989 0
-1987 1988 0
-1987 1989 0
1990 -1991 -1992 0
-1990 1991 0
-1990 1992 0
1993 -1994 -1995 0
-1993 1994 0
-1993 1995 0
1996 -1997 -1998 0
-1996 1997 0
-1996 1998 0
1999 -2000 -2001 0
-1999 2000 0
-1999 2001 0
2002 -2003 -2004 0
-2002 2003 0
-2002 2004 0
2005 -2006 -2007 0
-2005 2006 0
-2005 2007 0
2008 -2009 -2010 0
-2008 2009 0
-2008 2010 0
2011 -2012 -2013 0
-2011 2012 0
-2011 2013 0
2014 -2015 -2016 0
-2014 2015 0
-2014 2016 0
2017 -2018 -2019 0
-2017 2018 0
-2017 2019 0
2020 -2021 -2022 0
-2020 2021 0
-2020 2022 0
2023 -2024 -2025 0
-2023 2024 0
-2023 2025 0
2026 -2027 -2028 0
-2026 2027 0
-2026 2028 0
2029 -2030 -2031 0
-2029 2030 0
-2029 2031 0
2032 -2033 -2034 0
-2032 2033 0
-2032 2034 0
2035 -2036 -2037 0
-2035 2036 0
-2035 2037 0
2038 -2039 -2040 0
-2038 2039 0
-2038 2040 0
2041 -2042 -2043 0
-2041 2042 0
-2041 2043 0
2044 -2045 -2046 0
-2044 2045 0
-2044 2046 0
2047 -2048 -2049 0
-2047 2048 0
-2047 2049 0
2050 -2051 -2052 0
-2050 2051 0
-2050 2052 0
2053 -2054 -2055 0
-2053 2054 0
-2053 2055 0
2056 -2057 -2058 0
-2056 2057 0
-2056 2058 0
2059 -2060 -2061 0
-2059 2060 0
-2059 2061 0
2062 -2063 -2064 0
-2062 2063 0
-2062 2064 0
2065 -2066 -2067 0
-2065 2066 0
-2065 2067 0
2068 -2069 -2070 0
-2068 2069 0
-2068 2070 0
2071 -2072 -2073 0
-2071 2072 0
-2071 2073 0
2074 -2075 -2076 0
-2074 2075 0
-2074 2076 0
2077 -2078 -2079 0
-2077 2078 0
-2077 2079 0
2080 -2081 -2082 0
-2080 2081 0
-2080 2082 0
2083 -2084 -2085 0
-2083 2084 0
-2083 2085 0
2086 -2087 -2088 0
-2086 2087 0
-2086 2088 0
2089 -2090 -2091 0
-2089 2090 0
-2089 2091 0
2092 -2093 -2094 0
-2092 2093 0
-2092 2094 0
2095 -2096 -2097 0
-2095 2096 0
-2095 2097 0
2098 -2099 -2100 0
-2098 2099 0
-2098 2100 0
2101 -2102 -2103 0
-2101 2102 0
-2101 2103 0
2104 -2105 -2106 0
-2104 2105 0
-2104 2106 0
2107 -2108 -2109 0
-2107 2108 0
-2107 2109 0
2110 -2111 -2112 0
-2110 2111 0
-2110 2112 0
2113 -2114 -2115 0
-2113 2114 0
-2113 2115 0
2116 -2117 -2118 0
-2116 2117 0
-2116 2118 0
2119 -2120 -2121 0
-2119 2120 0
-2119 2121 0
2122 -2123 -2124 0
-2122 2123 0
-2122 2124 0
2125 -2126 -2127 0
-2125 2126 0
-2125 2127 0
2128 -2129 -2130 0
-2128 2129 0
-2128 2130 0
2131 -2132 -2133 0
-2131 2132 0
-2131 2133 0
2134 -2135 -2136 0
-2134 2135 0
-2134 2136 0
2137 -2138 -2139 0
-2137 2138 0
-2137 2139 0
2140 -2141 -2142 0
-2140 2141 0
-2140 2142 0
2143 -2144 -2145 0
-2143 2144 0
-2143 2145 0
2146 -2147 -2148 0
-2146 2147 0
-2146 2148 0
2149 -2150 -2151 0
-2149 2150 0
-2149 2151 0
2152 -2153 -2154 0
-2152 2153 0
-2152 2154 0
2155 -2156 -2157 0
-2155 2156 0
-2155 2157 0
2158 -2159 -2160 0
-2158 2159 0
-2158 2160 0
2161 -2162 -2163 0
-2161 2162 0
-2161 2163 0
2164 -2165 -2166 0
-2164 2165 0
-2164 2166 0
2167 -2168 -2169 0
-2167 2168 0
-2167 2169 0
2170 -2171 -2172 0
-2170 2171 0
-2170 2172 0
2173 -2174 -2175 0
-2173 2174 0
-2173 2175 0
2176 -2177 -2178 0
-2176 2177 0
-2176 2178 0
2179 -2180 -2181 0
-2179 2180 0
-2179 2181 0
2182 -2183 -2184 0
-2182 2183 0
-2182 2184 0
2185 -2186 -2187 0
-2185 2186 0
-2185 2187 0
2188 -2189 -2190 0
-2188 2189 0
-2188 2190 0
2191 -2192 -2193 0
-2191 2192 0
-2191 2193 0
2194 -2195 -2196 0
-2194 2195 0
-2194 2196 0
2197 -2198 -2199 0
-2197 2198 0
-2197 2199 0
2200 -2201 -2202 0
-2200 2201 0
-2200 2202 0
2203 -2204 -2205 0
-2203 2204 0
-2203 2205 0
2206 -2207 -2208 0
-2206 2207 0
-2206 2208 0
2209 -2210 -2211 0
-2209 2210 0
-2209 2211 0
2212 -2213 -2214 0
-2212 2213 0
-2212 2214 0
2215 -2216 -2217 0
-2215 2216 0
-2215 2217 0
2218 -2219 -2220 0
-2218 2219 0
-2218 2220 0
2221 -2222 -2223 0
-2221 2222 0
-2221 2223 0
2224 -2225 -2226 0
-2224 2225 0
-2224 2226 0
2227 -2228 -2229 0
-2227 2228 0
-2227 2229 0
2230 -2231 -2232 0
-2230 2231 0
-2230 2232 0
2233 -2234 -2235 0
-2233 2234 0
-2233 2235 0
2236 -2237 -2238 0
-2236 2237 0
-2236 2238 0
2239 -2240 -2241 0
-2239 2240 0
-2239 2241 0
2242 -2243 -2244 0
-2242 2243 0
-2242 2244 0
2245 -2246 -2247 0
-2245 2246 0
-2245 2247 0
2248 -2249 -2250 0
-2248 2249 0
-2248 2250 0
2251 -2252 -2253 0
-2251 2252 0
-2251 2253 0
2254 -2255 -2256 0
-2254 2255 0
-2254 2256 0
2257 -2258 -2259 0
-2257 2258 0
-2257 2259 0
2260 -2261 -2262 0
-2260 2261 0
-2260 2262 0
2263 -2264 -2265 0
-2263 2264 0
-2263 2265 0
2266 -2267 -2268 0
-2266 2267 0
-2266 2268 0
2269 -2270 -2271 0
-2269 2270 0
-2269 2271 0
2272 -2273 -2274 0
-2272 2273 0
-2272 2274 0
2275 -2276 -2277 0
-2275 2276 0
-2275 2277 0
2278 -2279 -2280 0
-2278 2279 0
-2278 2280 0
2281 -2282 -2283 0
-2281 2282 0
-2281 2283 0
2284 -2285 -2286 0
-2284 2285 0
-2284 2286 0
2287 -2288 -2289 0
-2287 2288 0
-2287 2289 0
2290 -2291 -2292 0
-2290 2291 0
-2290 2292 0
2293 -2294 -2295 0
-2293 2294 0
-2293 2295 0
2296 -2297 -2298 0
-2296 2297 0
-2296 2298 0
2299 -2300 -2301 0
-2299 2300 0
-2299 2301 0
2302 -2303 -2304 0
-2302 2303 0
-2302 2304 0
2305 -2306 -2307 0
-2305 2306 0
-2305 2307 0
2308 -2309 -2310 0
-2308 2309 0
-2308 2310 0
2311 -2312 -2313 0
-2311 2312 0
-2311 2313 0
2314 -2315 -2316 0
-2314 2315 0
-2314 2316 0
2317 -2318 -2319 0
-2317 2318 0
-2317 2319 0
2320 -2321 -2322 0
-2320 2321 0
-2320 2322 0
2323 -2324 -2325 0
-2323 2324 0
-2323 2325 0
2326 -2327 -2328 0
-2326 2327 0
-2326 2328 0
2329 -2330 -2331 0
-2329 2330 0
-2329 2331 0
2332 -2333 -2334 0
-2332 2333 0
-2332 2334 0
2335 -2336 -2337 0
-2335 2336 0
-2335 2337 0
2338 -2339 -2340 0
-2338 2339 0
-2338 2340 0
2341 -2342 -2343 0
-2341 2342 0
-2341 2343 0
2344 -2345 -2346 0
-2344 2345 0
-2344 2346 0
2347 -2348 -2349 0
-2347 2348 0
-2347 2349 0
2350 -2351 -2352 0
-2350 2351 0
-2350 2352 0
2353 -2354 -2355 0
-2353 2354 0
-2353 2355 0
2356 -2357 -2358 0
-2356 2357 0
-2356 2358 0
2359 -2360 -2361 0
-2359 2360 0
-2359 2361 0
2362 -2363 -2364 0
-2362 2363 0
-2362 2364 0
2365 -2366 -2367 0
-2365 2366 0
-2365 2367 0
2368 -2369 -2370 0
-2368 2369 0
-2368 2370 0
2371 -2372 -2373 0
-2371 2372 0
-2371 2373 0
2374 -2375 -2376 0
-2374 2375 0
-2374 2376 0
2377 -2378 -2379 0
-2377 2378 0
-2377 2379 0
2380 -2381 -2382 0
-2380 2381 0
-2380 2382 0
2383 -2384 -2385 0
-2383 2384 0
-2383 2385 0
2386 -2387 -2388 0
-2386 2387 0
-2386 2388 0
2389 -2390 -2391 0
-2389 2390 0
-2389 2391 0
2392 -2393 -2394 0
-2392 2393 0
-2392 2394 0
2395 -2396 -2397 0
-2395 2396 0
-2395 2397 0
2398 -2399 -2400 0
-2398 2399 0
-2398 2400 0
2401 -2402 -2403 0
-2401 2402 0
-2401 2403 0
2404 -2405 -2406 0
-2404 2405 0
-2404 2406 0
2407 -2408 -2409 0
-2407 2408 0
-2407 2409 0
2410 -2411 -2412 0
-2410 2411 0
-2410 2412 0
2413 -2414 -2415 0
-2413 2414 0
-2413 2415 0
2416 -2417 -2418 0
-2416 2417 0
-2416 2418 0
2419 -2420 -2421 0
-2419 2420 0
-2419 2421 0
2422 -2423 -2424 0
-2422 2423 0
-2422 2424 0
2425 -2426 -2427 0
-2425 2426 0
-2425 2427 0
2428 -2429 -2430 0
-2428 2429 0
-2428 2430 0
2431 -2432 -2433 0
-2431 2432 0
-2431 2433 0
2434 -2435 -2436 0
-2434 2435 0
-2434 2436 0
2437 -2438 -2439 0
-2437 2438 0
-2437 2439 0
2440 -2441 -2442 0
-2440 2441 0
-2440 2442 0
2443 -2444 -2445 0
-2443 2444 0
-2443 2445 0
2446 -2447 -2448 0
-2446 2447 0
-2446 2448 0
2449 -2450 -2451 0
-2449 2450 0
-2449 2451 0
2452 -2453 -2454 0
-2452 2453 0
-2452 2454 0
2455 -2456 -2457 0
-2455 2456 0
-2455 2457 0
2458 -2459 -2460 0
-2458 2459 0
-2458 2460 0
2461 -2462 -2463 0
-2461 2462 0
-2461 2463 0
2464 -2465 -2466 0
-2464 2465 0
-2464 2466 0
2467 -2468 -2469 0
-2467 2468 0
-2467 2469 0
2470 -2471 -2472 0
-2470 2471 0
-2470 2472 0
2473 -2474 -2475 0
-2473 2474 0
-2473 2475 0
2476 -2477 -2478 0
-2476 2477 0
-2476 2478 0
2479 -2480 -2481 0
-2479 2480 0
-2479 2481 0
2482 -2483 -2484 0
-2482 2483 0
-2482 2484 0
2485 -2486 -2487 0
-2485 2486 0
-2485 2487 0
2488 -2489 -2490 0
-2488 2489 0
-2488 2490 0
2491 -2492 -2493 0
-2491 2492 0
-2491 2493 0
2494 -2495 -2496 0
-2494 2495 0
-2494 2496 0
2497 -2498 -2499 0
-2497 2498 0
-2497 2499 0
2500 -2501 -2502 0
-2500 2501 0
-2500 2502 0
2503 -2504 -2505 0
-2503 2504 0
-2503 2505 0
2506 -2507 -2508 0
-2506 2507 0
-2506 2508 0
2509 -2510 -2511 0
-2509 2510 0
-2509 2511 0
2512 -2513 -2514 0
-2512 2513 0
-2512 2514 0
2515 -2516 -2517 0
-2515 2516 0
-2515 2517 0
2518 -2519 -2520 0
-2518 2519 0
-2518 2520 0
2521 -2522 -2523 0
-2521 2522 0
-2521 2523 0
2524 -2525 -2526 0
-2524 2525 0
-2524 2526 0
2527 -2528 -2529 0
-2527 2528 0
-2527 2529 0
2530 -2531 -2532 0
-2530 2531 0
-2530 2532 0
2533 -2534 -2535 0
-2533 2534 0
-2533 2535 0
2536 -2537 -2538 0
-2536 2537 0
-2536 2538 0
2539 -2540 -2541 0
-2539 2540 0
-2539 2541 0
2542 -2543 -2544 0
-2542 2543 0
-2542 2544 0
2545 -2546 -2547 0
-2545 2546 0
-2545 2547 0
2548 -2549 -2550 0
-2548 2549 0
-2548 2550 0
2551 -2552 -2553 0
-2551 2552 0
-2551 2553 0
2554 -2555 -2556 0
-2554 2555 0
-2554 2556 0
2557 -2558 -2559 0
-2557 2558 0
-2557 2559 0
2560 -2561 -2562 0
-2560 2561 0
-2560 2562 0
2563 -2564 -2565 0
-2563 2564 0
-2563 2565 0
2566 -2567 -2568 0
-2566 2567 0
-2566 2568 0
2569 -2570 -2571 0
-2569 2570 0
-2569 2571 0
2572 -2573 -2574 0
-2572 2573 0
-2572 2574 0
2575 -2576 -2577 0
-2575 2576 0
-2575 2577 0
2578 -2579 -2580 0
-2578 2579 0
-2578 2580 0
2581 -2582 -2583 0
-2581 2582 0
-2581 2583 0
2584 -2585 -2586 0
-2584 2585 0
-2584 2586 0
2587 -2588 -2589 0
-2587 2588 0
-2587 2589 0
2590 -2591 -2592 0
-2590 2591 0
-2590 2592 0
2593 -2594 -2595 0
-2593 2594 0
-2593 2595 0
2596 -2597 -2598 0
-2596 2597 0
-2596 2598 0
2599 -2600 -2601 0
-2599 2600 0
-2599 2601 0
2602 -2603 -2604 0
-2602 2603 0
-2602 2604 0
2605 -2606 -2607 0
-2605 2606 0
-2605 2607 0
2608 -2609 -2610 0
-2608 2609 0
-2608 2610 0
2611 -2612 -2613 0
-2611 2612 0
-2611 2613 0
2614 -2615 -2616 0
-2614 2615 0
-2614 2616 0
2617 -2618 -2619 0
-2617 2618 0
-2617 2619 0
2620 -2621 -2622 0
-2620 2621 0
-2620 2622 0
2623 -2624 -2625 0
-2623 2624 0
-2623 2625 0
2626 -2627 -2628 0
-2626 2627 0
-2626 2628 0
2629 -2630 -2631 0
-2629 2630 0
-2629 2631 0
2632 -2633 -2634 0
-2632 2633 0
-2632 2634 0
2635 -2636 -2637 0
-2635 2636 0
-2635 2637 0
2638 -2639 -2640 0
-2638 2639 0
-2638 2640 0
2641 -2642 -2643 0
-2641 2642 0
-2641 2643 0
2644 -2645 -2646 0
-2644 2645 0
-2644 2646 0
2647 -2648 -2649 0
-2647 2648 0
-2647 2649 0
2650 -2651 -2652 0
-2650 2651 0
-2650 2652 0
2653 -2654 -2655 0
-2653 2654 0
-2653 2655 0
2656 -2657 -2658 0
-2656 2657 0
-2656 2658 0
2659 -2660 -2661 0
-2659 2660 0
-2659 2661 0
2662 -2663 -2664 0
-2662 2663 0
-2662 2664 0
2665 -2666 -2667 0
-2665 2666 0
-2665 2667 0
2668 -2669 -2670 0
-2668 2669 0
-2668 2670 0
2671 -2672 -2673 0
-2671 2672 0
-2671 2673 0
2674 -2675 -2676 0
-2674 2675 0
-2674 2676 0
2677 -2678 -2679 0
-2677 2678 0
-2677 2679 0
2680 -2681 -2682 0
-2680 2681 0
-2680 2682 0
2683 -2684 -2685 0
-2683 2684 0
-2683 2685 0
2686 -2687 -2688 0
-2686 2687 0
-2686 2688 0
2689 -2690 -2691 0
-2689 2690 0
-2689 2691 0
2692 -2693 -2694 0
-2692 2693 0
-2692 2694 0
2695 -2696 -2697 0
-2695 2696 0
-2695 2697 0
2698 -2699 -2700 0
-2698 2699 0
-2698 2700 0
2701 -2702 -2703 0
-2701 2702 0
-2701 2703 0
2704 -2705 -2706 0
-2704 2705 0
-2704 2706 0
2707 -2708 -2709 0
-2707 2708 0
-2707 2709 0
2710 -2711 -2712 0
-2710 2711 0
-2710 2712 0
2713 -2714 -2715 0
-2713 2714 0
-2713 2715 0
2716 -2717 -2718 0
-2716 2717 0
-2716 2718 0
2719 -2720 -2721 0
-2719 2720 0
-2719 2721 0
2722 -2723 -2724 0
-2722 2723 0
-2722 2724 0
2725 -2726 -2727 0
-2725 2726 0
-2725 2727 0
2728 -2729 -2730 0
-2728 2729 0
-2728 2730 0
2731 -2732 -2733 0
-2731 2732 0
-2731 2733 0
2734 -2735 -2736 0
-2734 2735 0
-2734 2736 0
2737 -2738 -2739 0
-2737 2738 0
-2737 2739 0
2740 -2741 -2742 0
-2740 2741 0
-2740 2742 0
2743 -2744 -2745 0
-2743 2744 0
-2743 2745 0
2746 -2747 -2748 0
-2746 2747 0
-2746 2748 0
2749 -2750 -2751 0
-2749 2750 0
-2749 2751 0
2752 -2753 -2754 0
-2752 2753 0
-2752 2754 0
2755 -2756 -2757 0
-2755 2756 0
-2755 2757 0
2758 -2759 -2760 0
-2758 2759 0
-2758 2760 0
2761 -2762 -2763 0
-2761 2762 0
-2761 2763 0
2764 -2765 -2766 0
-2764 2765 0
-2764 2766 0
2767 -2768 -2769 0
-2767 2768 0
-2767 2769 0
2770 -2771 -2772 0
-2770 2771 0
-2770 2772 0
2773 -2774 -2775 0
-2773 2774 0
-2773 2775 0
2776 -2777 -2778 0
-2776 2777 0
-2776 2778 0
2779 -2780 -2781 0
-2779 2780 0
-2779 2781 0
2782 -2783 -2784 0
-2782 2783 0
-2782 2784 0
2785 -2786 -2787 0
-2785 2786 0
-2785 2787 0
2788 -2789 -2790 0
-2788 2789 0
-2788 2790 0
2791 -2792 -2793 0
-2791 2792 0
-2791 2793 0
2794 -2795 -2796 0
-2794 2795 0
-2794 2796 0
2797 -2798 -2799 0
-2797 2798 0
-2797 2799 0
2800 -2801 -2802 0
-2800 2801 0
-2800 2802 0
2803 -2804 -2805 0
-2803 2804 0
-2803 2805 0
2806 -2807 -2808 0
-2806 2807 0
-2806 2808 0
2809 -2810 -2811 0
-2809 2810 0
-2809 2811 0
2812 -2813 -2814 0
-2812 2813 0
-2812 2814 0
2815 -2816 -2817 0
-2815 2816 0
-2815 2817 0
2818 -2819 -2820 0
-2818 2819 0
-2818 2820 0
2821 -2822 -2823 0
-2821 2822 0
-2821 2823 0
2824 -2825 -2826 0
-2824 2825 0
-2824 2826 0
2827 -2828 -2829 0
-2827 2828 0
-2827 2829 0
2830 -2831 -2832 0
-2830 2831 0
-2830 2832 0
2833 -2834 -2835 0
-2833 2834 0
-2833 2835 0
2836 -2837 -2838 0
-2836 2837 0
-2836 2838 0
2839 -2840 -2841 0
-2839 2840 0
-2839 2841 0
2842 -2843 -2844 0
-2842 2843 0
-2842 2844 0
2845 -2846 -2847 0
-2845 2846 0
-2845 2847 0
2848 -2849 -2850 0
-2848 2849 0
-2848 2850 0
2851 -2852 -2853 0
-2851 2852 0
-2851 2853 0
2854 -2855 -2856 0
-2854 2855 0
-2854 2856 0
2857 -2858 -2859 0
-2857 2858 0
-2857 2859 0
2860 -2861 -2862 0
-2860 2861 0
-2860 2862 0
2863 -2864 -2865 0
-2863 2864 0
-2863 2865 0
2866 -2867 -2868 0
-2866 2867 0
-2866 2868 0
2869 -2870 -2871 0
-2869 2870 0
-2869 2871 0
2872 -2873 -2874 0
-2872 2873 0
-2872 2874 0
2875 -2876 -2877 0
-2875 2876 0
-2875 2877 0
2878 -2879 -2880 0
-2878 2879 0
-2878 2880 0
2881 -2882 -2883 0
-2881 2882 0
-2881 2883 0
2884 -2885 -2886 0
-2884 2885 0
-2884 2886 0
2887 -2888 -2889 0
-2887 2888 0
-2887 2889 0
2890 -2891 -2892 0
-2890 2891 0
-2890 2892 0
2893 -2894 -2895 0
-2893 2894 0
-2893 2895 0
2896 -2897 -2898 0
-2896 2897 0
-2896 2898 0
2899 -2900 -2901 0
-2899 2900 0
-2899 2901 0
2902 -2903 -2904 0
-2902 2903 0
-2902 2904 0
2905 -2906 -2907 0
-2905 2906 0
-2905 2907 0
2908 -2909 -2910 0
-2908 2909 0
-2908 2910 0
2911 -2912 -2913 0
-2911 2912 0
-2911 2913 0
2914 -2915 -2916 0
-2914 2915 0
-2914 2916 0
2917 -2918 -2919 0
-2917 2918 0
-2917 2919 0
2920 -2921 -2922 0
-2920 2921 0
-2920 2922 0
2923 -2924 -2925 0
-2923 2924 0
-2923 2925 0
2926 -2927 -2928 0
-2926 2927 0
-2926 2928 0
2929 -2930 -2931 0
-2929 2930 0
-2929 2931 0
2932 -2933 -2934 0
-2932 2933 0
-2932 2934 0
2935 -2936 -2937 0
-2935 2936 0
-2935 2937 0
2938 -2939 -2940 0
-2938 2939 0
-2938 2940 0
2941 -2942 -2943 0
-2941 2942 0
-2941 2943 0
2944 -2945 -2946 0
-2944 2945 0
-2944 2946 0
2947 -2948 -2949 0
-2947 2948 0
-2947 2949 0
2950 -2951 -2952 0
-2950 2951 0
-2950 2952 0
2953 -2954 -2955 0
-2953 2954 0
-2953 2955 0
2956 -2957 -2958 0
-2956 2957 0
-2956 2958 0
2959 -2960 -2961 0
-2959 2960 0
-2959 2961 0
2962 -2963 -2964 0
-2962 2963 0
-2962 2964 0
2965 -2966 -2967 0
-2965 2966 0
-2965 2967 0
2968 -2969 -2970 0
-2968 2969 0
-2968 2970 0
2971 -2972 -2973 0
-2971 2972 0
-2971 2973 0
2974 -2975 -2976 0
-2974 2975 0
-2974 2976 0
2977 -2978 -2979 0
-2977 2978 0
-2977 2979 0
2980 -2981 -2982 0
-2980 2981 0
-2980 2982 0
2983 -2984 -2985 0
-2983 2984 0
-2983 2985 0
2986 -2987 -2988 0
-2986 2987 0
-2986 2988 0
2989 -2990 -2991 0
-2989 2990 0
-2989 2991 0
2992 -2993 -2994 0
-2992 2993 0
-2992 2994 0
2995 -2996 -2997 0
-2995 2996 0
-2995 2997 0
2998 -2999 -3000 0
-2998 2999 0
-2998 3000 0
-3001 1 4 7 10 13 16 19 22 25 28 31 34 37 40 43 46 49 52 55 58 61 64 67 70 73 76 79 82 85 88 91 94 97 100 103 106 109 112 115 118 121 124 127 130 133 136 139 142 145 148 151 154 157 160 163 166 169 172 175 178 181 184 187 190 193 196 199 202 205 208 211 214 217 220 223 226 229 232 235 238 241 244 247 250 253 256 259 262 265 268 271 274 277 280 283 286 289 292 295 298 301 304 307 310 313 316 319 322 325 328 331 334 337 340 343 346 349 352 355 358 361 364 367 370 373 376 379 382 385 388 391 394 397 400 403 406 409 412 415 418 421 424 427 430 433 436 439 442 445 448 451 454 457 460 463 466 469 472 475 478 481 484 487 490 493 496 499 502 505 508 511 514 517 520 523 526 529 532 535 538 541 544 547 550 553 556 559 562 565 568 571 574 577 580 583 586 589 592 595 598 601 604 607 610 613 616 619 622 625 628 631 634 637 640 643 646 649 652 655 658 661 664 667 670 673 676 679 682 685 688 691 694 697 700 703 706 709 712 715 718 721 724 727 730 733 736 739 742 745 748 751 754 757 760 763 766 769 772 775 778 781 784 787 790 793 796 799 802 805 808 811 814 817 820 823 826 829 832 835 838 841 844 847 850 853 856 859 862 865 868 871 874 877 880 883 886 889 892 895 898 901 904 907 910 913 916 919 922 925 928 931 934 937 940 943 946 949 952 955 958 961 964 967 970 973 976 979 982 985 988 991 994 997 1000 1003 1006 1009 1012 1015 1018 1021 1024 1027 1030 1033 1036 1039 1042 1045 1048 1051 1054 1057 1060 1063 1066 1069 1072 1075 1078 1081 1084 1087 1090 1093 1096 1099 1102 1105 1108 1111 1114 1117 1120 1123 1126 1129 1132 1135 1138 1141 1144 1147 1150 1153 1156 1159 1162 1165 1168 1171 1174 1177 1180 1183 1186 1189 1192 1195 1198 1201 1204 1207 1210 1213 1216 1219 1222 1225 1228 1231 1234 1237 1240 1243 1246 1249 1252 1255 1258 1261 1264 1267 1270 1273 1276 1279 1282 1285 1288 1291 1294 1297 1300 1303 1306 1309 1312 1315 1318 1321 1324 1327 1330 1333 1336 1339 1342 1345 1348 1351 1354 1357 1360 1363 1366 1369 1372 1375 1378 1381 1384 1387 1390 1393 1396 1399 1402 1405 1408 1411 1414 1417 1420 1423 1426 1429 1432 1435 1438 1441 1444 1447 1450 1453 1456 1459 1462 1465 1468 1471 1474 1477 1480 1483 1486 1489 1492 1495 1498 1501 1504 1507 1510 1513 1516 1519 1522 1525 1528 1531 1534 1537 1540 1543 1546 1549 1552 1555 1558 1561 1564 1567 1570 1573 1576 1579 1582 1585 1588 1591 1594 1597 1600 1603 1606 1609 1612 1615 1618 1621 1624 1627 1630 1633 1636 1639 1642 1645 1648 1651 1654 1657 1660 1663 1666 1669 1672 1675 1678 1681 1684 1687 1690 1693 1696 1699 1702 1705 1708 1711 1714 1717 1720 1723 1726 1729 1732 1735 1738 1741 1744 1747 1750 1753 1756 1759 1762 1765 1768 1771 1774 1777 1780 1783 1786 1789 1792 1795 1798 1801 1804 1807 1810 1813 1816 1819 1822 1825 1828 1831 1834 1837 1840 1843 1846 1849 1852 1855 1858 1861 1864 1867 1870 1873 1876 1879 1882 1885 1888 1891 1894 1897 1900 1903 1906 1909 1912 1915 1918 1921 1924 1927 1930 1933 1936 1939 1942 1945 1948 1951 1954 1957 1960 1963 1966 1969 1972 1975 1978 1981 1984 1987 1990 1993 1996 1999 2002 2005 2008 2011 2014 2017 2020 2023 2026 2029 2032 2035 2038 2041 2044 2047 2050 2053 2056 2059 2062 2065 2068 2071 2074 2077 2080 2083 2086 2089 2092 2095 2098 2101 2104 2107 2110 2113 2116 2119 2122 2125 2128 2131 2134 2137 2140 2143 2146 2149 2152 2155 2158 2161 2164 2167 2170 2173 2176 2179 2182 2185 2188 2191 2194 2197 2200 2203 2206 2209 2212 2215 2218 2221 2224 2227 2230 2233 2236 2239 2242 2245 2248 2251 2254 2257 2260 2263 2266 2269 2272 2275 2278 2281 2284 2287 2290 2293 2296 2299 2302 2305 2308 2311 2314 2317 2320 2323 2326 2329 2332 2335 2338 2341 2344 2347 2350 2353 2356 2359 2362 2365 2368 2371 2374 2377 2380 2383 2386 2389 2392 2395 2398 2401 2404 2407 2410 2413 2416 2419 2422 2425 2428 2431 2434 2437 2440 2443 2446 2449 2452 2455 2458 2461 2464 2467 2470 2473 2476 2479 2482 2485 2488 2491 2494 2497 2500 2503 2506 2509 2512 2515 2518 2521 2524 2527 2530 2533 2536 2539 2542 2545 2548 2551 2554 2557 2560 2563 2566 2569 2572 2575 2578 2581 2584 2587 2590 2593 2596 2599 2602 2605 2608 2611 2614 2617 2620 2623 2626 2629 2632 2635 2638 2641 2644 2647 2650 2653 2656 2659 2662 2665 2668 2671 2674 2677 2680 2683 2686 2689 2692 2695 2698 2701 2704 2707 2710 2713 2716 2719 2722 2725 2728 2731 2734 2737 2740 2743 2746 2749 2752 2755 2758 2761 2764 2767 2770 2773 2776 2779 2782 2785 2788 2791 2794 2797 2800 2803 2806 2809 2812 2815 2818 2821 2824 2827 2830 2833 2836 2839 2842 2845 2848 2851 2854 2857 2860 2863 2866 2869 2872 2875 2878 2881 2884 2887 2890 2893 2896 2899 2902 2905 2908 2911 2914 2917 2920 2923 2926 2929 2932 2935 2938 2941 2944 2947 2950 2953 2956 2959 2962 2965 2968 2971 2974 2977 2980 2983 2986 2989 2992 2995 2998 0
3001 -1 0
3001 -4 0
3001 -7 0
3001 -10 0
3001 -13 0
3001 -16 0
3001 -19 0
3001 -22 0
3001 -25 0
3001 -28 0
3001 -31 0
3001 -34 0
3001 -37 0
3001 -40 0
3001 -43 0
3001 -46 0
3001 -49 0
3001 -52 0
3001 -55 0
3001 -58 0
3001 -61 0
3001 -64 0
3001 -67 0
3001 -70 0
3001 -73 0
3001 -76 0
3001 -79 0
3001 -82 0
3001 -85 0
3001 -88 0
3001 -91 0
3001 -94 0
3001 -97 0
3001 -100 0
3001 -103 0
3001 -106 0
3001 -109 0
3001 -112 0
3001 -115 0
3001 -118 0
3001 -121 0
3001 -124 0
3001 -127 0
3001 -130 0
3001 -133 0
3001 -136 0
3001 -139 0
3001 -142 0
3001 -145 0
3001 -148 0
3001 -151 0
3001 -154 0
3001 -157 0
3001 -160 0
3001 -163 0
3001 -166 0
3001 -169 0
3001 -172 0
3001 -175 0
3001 -178 0
3001 -181 0
3001 -184 0
3001 -187 0
3001 -190 0
3001 -193 0
3001 -196 0
3001 -199 0
3001 -202 0
3001 -205 0
3001 -208 0
3001 -211 0
3001 -214 0
3001 -217 0
3001 -220 0
3001 -223 0
3001 -226 0
3001 -229 0
3001 -232 0
3001 -235 0
3001 -238 0
3001 -241 0
3001 -244 0
3001 -247 0
3001 -250 0
3001 -253 0
3001 -256 0
3001 -259 0
3001 -262 0
3001 -265 0
3001 -268 0
3001 -271 0
3001 -274 0
3001 -277 0
3001 -280 0
3001 -283 0
3001 -286 0
3001 -289 0
3001 -292 0
3001 -295 0
3001 -298 0
3001 -301 0
3001 -304 0
3001 -307 0
3001 -310 0
3001 -313 0
3001 -316 0
3001 -319 0
3001 -322 0
3001 -325 0
3001 -328 0
3001 -331 0
3001 -334 0
3001 -337 0
3001 -340 0
3001 -343 0
3001 -346 0
3001 -349 0
3001 -352 0
3001 -355 0
3001 -358 0
3001 -361 0
3001 -364 0
3001 -367 0
3001 -370 0
3001 -373 0
3001 -376 0
3001 -379 0
3001 -382 0
3001 -385 0
3001 -388 0
3001 -391 0
3001 -394 0
3001 -397 0
3001 -400 0
3001 -403 0
3001 -406 0
3001 -409 0
3001 -412 0
3001 -415 0
3001 -418 0
3001 -421 0
3001 -424 0
3001 -427 0
3001 -430 0
3001 -433 0
3001 -436 0
3001 -439 0
3001 -442 0
3001 -445 0
3001 -448 0
3001 -451 0
3001 -454 0
3001 -457 0
3001 -460 0
3001 -463 0
3001 -466 0
3001 -469 0
3001 -472 0
3001 -475 0
3001 -478 0
3001 -481 0
3001 -484 0
3001 -487 0
3001 -490 0
3001 -493 0
3001 -496 0
3001 -499 0
3001 -502 0
3001 -505 0
3001 -508 0
3001 -511 0
3001 -514 0
3001 -517 0
3001 -520 0
3001 -523 0
3001 -526 0
3001 -529 0
3001 -532 0
3001 -535 0
3001 -538 0
3001 -541 0
3001 -544 0
3001 -547 0
3001 -550 0
3001 -553 0
3001 -556 0
3001 -559 0
3001 -562 0
3001 -565 0
3001 -568 0
3001 -571 0
3001 -574 0
3001 -577 0
3001 -580 0
3001 -583 0
3001 -586 0
3001 -589 0
3001 -592 0
3001 -595 0
3001 -598 0
3001 -601 0
3001 -604 0
3001 -607 0
3001 -610 0
3001 -613 0
3001 -616 0
3001 -619 0
3001 -622 0
3001 -625 0
3001 -628 0
3001 -631 0
3001 -634 0
3001 -637 0
3001 -640 0
3001 -643 0
3001 -646 0
3001 -649 0
3001 -652 0
3001 -655 0
3001 -658 0
3001 -661 0
3001 -664 0
3001 -667 0
3001 -670 0
3001 -673 0
3001 -676 0
3001 -679 0
3001 -682 0
3001 -685 0
3001 -688 0
3001 -691 0
3001 -694 0
3001 -697 0
3001 -700 0
3001 -703 0
3001 -706 0
3001 -709 0
3001 -712 0
3001 -715 0
3001 -718 0
3001 -721 0
3001 -724 0
3001 -727 0
3001 -730 0
3001 -733 0
3001 -736 0
3001 -739 0
3001 -742 0
3001 -745 0
3001 -748 0
3001 -751 0
3001 -754 0
3001 -757 0
3001 -760 0
3001 -763 0
3001 -766 0
3001 -769 0
3001 -772 0
3001 -775 0
3001 -778 0
3001 -781 0
3001 -784 0
3001 -787 0
3001 -790 0
3001 -793 0
3001 -796 0
3001 -799 0
3001 -802 0
3001 -805 0
3001 -808 0
3001 -811 0
3001 -814 0
3001 -817 0
3001 -820 0
3001 -823 0
3001 -826 0
3001 -829 0
3001 -832 0
3001 -835 0
3001 -838 0
3001 -841 0
3001 -844 0
3001 -847 0
3001 -850 0
3001 -853 0
3001 -856 0
3001 -859 0
3001 -862 0
3001 -865 0
3001 -868 0
3001 -871 0
3001 -874 0
3001 -877 0
3001 -880 0
3001 -883 0
3001 -886 0
3001 -889 0
3001 -892 0
3001 -895 0
3001 -898 0
3001 -901 0
3001 -904 0
3001 -907 0
3001 -910 0
3001 -913 0
3001 -916 0
3001 -919 0
3001 -922 0
3001 -925 0
3001 -928 0
3001 -931 0
3001 -934 0
3001 -937 0
3001 -940 0
3001 -943 0
3001 -946 0
3001 -949 0
3001 -952 0
3001 -955 0
3001 -958 0
3001 -961 0
3001 -964 0
3001 -967 0
3001 -970 0
3001 -973 0
3001 -976 0
3001 -979 0
3001 -982 0
3001 -985 0
3001 -988 0
3001 -991 0
3001 -994 0
3001 -997 0
3001 -1000 0
3001 -1003 0
3001 -1006 0
3001 -1009 0
3001 -1012 0
3001 -1015 0
3001 -1018 0
3001 -1021 0
3001 -1024 0
3001 -1027 0
3001 -1030 0
3001 -1033 0
3001 -1036 0
3001 -1039 0
3001 -1042 0
3001 -1045 0
3001 -1048 0
3001 -1051 0
3001 -1054 0
3001 -1057 0
3001 -1060 0
3001 -1063 0
3001 -1066 0
3001 -1069 0
3001 -1072 0
3001 -1075 0
3001 -1078 0
3001 -1081 0
3001 -1084 0
3001 -1087 0
3001 -1090 0
3001 -1093 0
3001 -1096 0
3001 -1099 0
3001 -1102 0
3001 -1105 0
3001 -1108 0
3001 -1111 0
3001 -1114 0
3001 -1117 0
3001 -1120 0
3001 -1123 0
3001 -1126 0
3001 -1129 0
3001 -1132 0
3001 -1135 0
3001 -1138 0
3001 -1141 0
3001 -1144 0
3001 -1147 0
3001 -1150 0
3001 -1153 0
3001 -1156 0
3001 -1159 0
3001 -1162 0
3001 -1165 0
3001 -1168 0
3001 -1171 0
3001 -1174 0
3001 -1177 0
3001 -1180 0
3001 -1183 0
3001 -1186 0
3001 -1189 0
3001 -1192 0
3001 -1195 0
3001 -1198 0
3001 -1201 0
3001 -1204 0
3001 -1207 0
3001 -1210 0
3001 -1213 0
3001 -1216 0
3001 -1219 0
3001 -1222 0
3001 -1225 0
3001 -1228 0
3001 -1231 0
3001 -1234 0
3001 -1237 0
3001 -1240 0
3001 -1243 0
3001 -1246 0
3001 -1249 0
3001 -1252 0
3001 -1255 0
3001 -1258 0
3001 -1261 0
3001 -1264 0
3001 -1267 0
3001 -1270 0
3001 -1273 0
3001 -1276 0
3001 -1279 0
3001 -1282 0
3001 -1285 0
3001 -1288 0
3001 -1291 0
3001 -1294 0
3001 -1297 0
3001 -1300 0
3001 -1303 0
3001 -1306 0
3001 -1309 0
3001 -1312 0
3001 -1315 0
3001 -1318 0
3001 -1321 0
3001 -1324 0
3001 -1327 0
3001 -1330 0
3001 -1333 0
3001 -1336 0
3001 -1339 0
3001 -1342 0
3001 -1345 0
3001 -1348 0
3001 -1351 0
3001 -1354 0
3001 -1357 0
3001 -1360 0
3001 -1363 0
3001 -1366 0
3001 -1369 0
3001 -1372 0
3001 -1375 0
3001 -1378 0
3001 -1381 0
3001 -1384 0
3001 -1387 0
3001 -1390 0
3001 -1393 0
3001 -1396 0
3001 -1399 0
3001 -1402 0
3001 -1405 0
3001 -1408 0
3001 -1411 0
3001 -1414 0
3001 -1417 0
3001 -1420 0
3001 -1423 0
3001 -1426 0
3001 -1429 0
3001 -1432 0
3001 -1435 0
3001 -1438 0
3001 -1441 0
3001 -1444 0
3001 -1447 0
3001 -1450 0
3001 -1453 0
3001 -1456 0
3001 -1459 0
3001 -1462 0
3001 -1465 0
3001 -1468 0
3001 -1471 0
3001 -1474 0
3001 -1477 0
3001 -1480 0
3001 -1483 0
3001 -1486 0
3001 -1489 0
3001 -1492 0
3001 -1495 0
3001 -1498 0
3001 -1501 0
3001 -1504 0
3001 -1507 0
3001 -1510 0
3001 -1513 0
3001 -1516 0
3001 -1519 0
3001 -1522 0
3001 -1525 0
3001 -1528 0
3001 -1531 0
3001 -1534 0
3001 -1537 0
3001 -1540 0
3001 -1543 0
3001 -1546 0
3001 -1549 0
3001 -1552 0
3001 -1555 0
3001 -1558 0
3001 -1561 0
3001 -1564 0
3001 -1567 0
3001 -1570 0
3001 -1573 0
3001 -1576 0
3001 -1579 0
3001 -1582 0
3001 -1585 0
3001 -1588 0
3001 -1591 0
3001 -1594 0
3001 -1597 0
3001 -1600 0
3001 -1603 0
3001 -1606 0
3001 -1609 0
3001 -1612 0
3001 -1615 0
3001 -1618 0
3001 -1621 0
3001 -1624 0
3001 -1627 0
3001 -1630 0
3001 -1633 0
3001 -1636 0
3001 -1639 0
3001 -1642 0
3001 -1645 0
3001 -1648 0
3001 -1651 0
3001 -1654 0
3001 -1657 0
3001 -1660 0
3001 -1663 0
3001 -1666 0
3001 -1669 0
3001 -1672 0
3001 -1675 0
3001 -1678 0
3001 -1681 0
3001 -1684 0
3001 -1687 0
3001 -1690 0
3001 -1693 0
3001 -1696 0
3001 -1699 0
3001 -1702 0
3001 -1705 0
3001 -1708 0
3001 -1711 0
3001 -1714 0
3001 -1717 0
3001 -1720 0
3001 -1723 0
3001 -1726 0
3001 -1729 0
3001 -1732 0
3001 -1735 0
3001 -1738 0
3001 -1741 0
3001 -1744 0
3001 -1747 0
3001 -1750 0
3001 -1753 0
3001 -1756 0
3001 -1759 0
3001 -1762 0
3001 -1765 0
3001 -1768 0
3001 -1771 0
3001 -1774 0
3001 -1777 0
3001 -1780 0
3001 -1783 0
3001 -1786 0
3001 -1789 0
3001 -1792 0
3001 -1795 0
3001 -1798 0
3001 -1801 0
3001 -1804 0
3001 -1807 0
3001 -1810 0
3001 -1813 0
3001 -1816 0
3001 -1819 0
3001 -1822 0
3001 -1825 0
3001 -1828 0
3001 -1831 0
3001 -1834 0
3001 -1837 0
3001 -1840 0
3001 -1843 0
3001 -1846 0
3001 -1849 0
3001 -1852 0
3001 -1855 0
3001 -1858 0
3001 -1861 0
3001 -1864 0
3001 -1867 0
3001 -1870 0
3001 -1873 0
3001 -1876 0
3001 -1879 0
3001 -1882 0
3001 -1885 0
3001 -1888 0
3001 -1891 0
3001 -1894 0
3001 -1897 0
3001 -1900 0
3001 -1903 0
3001 -1906 0
3001 -1909 0
3001 -1912 0
3001 -1915 0
3001 -1918 0
3001 -1921 0
3001 -1924 0
3001 -1927 0
3001 -1930 0
3001 -1933 0
3001 -1936 0
3001 -1939 0
3001 -1942 0
3001 -1945 0
3001 -1948 0
3001 -1951 0
3001 -1954 0
3001 -1957 0
3001 -1960 0
3001 -1963 0
3001 -1966 0
3001 -1969 0
3001 -1972 0
3001 -1975 0
3001 -1978 0
3001 -1981 0
3001 -1984 0
3001 -1987 0
3001 -1990 0
3001 -1993 0
3001 -1996 0
3001 -1999 0
3001 -2002 0
3001 -2005 0
3001 -2008 0
3001 -2011 0
3001 -2014 0
3001 -2017 0
3001 -2020 0
3001 -2023 0
3001 -2026 0
3001 -2029 0
3001 -2032 0
3001 -2035 0
3001 -2038 0
3001 -2041 0
3001 -2044 0
3001 -2047 0
3001 -2050 0
3001 -2053 0
3001 -2056 0
3001 -2059 0
3001 -2062 0
3001 -2065 0
3001 -2068 0
3001 -2071 0
3001 -2074 0
3001 -2077 0
3001 -2080 0
3001 -2083 0
3001 -2086 0
3001 -2089 0
3001 -2092 0
3001 -2095 0
3001 -2098 0
3001 -2101 0
3001 -2104 0
3001 -2107 0
3001 -2110 0
3001 -2113 0
3001 -2116 0
3001 -2119 0
3001 -2122 0
3001 -2125 0
3001 -2128 0
3001 -2131 0
3001 -2134 0
3001 -2137 0
3001 -2140 0
3001 -2143 0
3001 -2146 0
3001 -2149 0
3001 -2152 0
3001 -2155 0
3001 -2158 0
3001 -2161 0
3001 -2164 0
3001 -2167 0
3001 -2170 0
3001 -2173 0
3001 -2176 0
3001 -2179 0
3001 -2182 0
3001 -2185 0
3001 -2188 0
3001 -2191 0
3001 -2194 0
3001 -2197 0
3001 -2200 0
3001 -2203 0
3001 -2206 0
3001 -2209 0
3001 -2212 0
3001 -2215 0
3001 -2218 0
3001 -2221 0
3001 -2224 0
3001 -2227 0
3001 -2230 0
3001 -2233 0
3001 -2236 0
3001 -2239 0
3001 -2242 0
3001 -2245 0
3001 -2248 0
3001 -2251 0
3001 -2254 0
3001 -2257 0
3001 -2260 0
3001 -2263 0
3001 -2266 0
3001 -2269 0
3001 -2272 0
3001 -2275 0
3001 -2278 0
3001 -2281 0
3001 -2284 0
3001 -2287 0
3001 -2290 0
3001 -2293 0
3001 -2296 0
3001 -2299 0
3001 -2302 0
3001 -2305 0
3001 -2308 0
3001 -2311 0
3001 -2314 0
3001 -2317 0
3001 -2320 0
3001 -2323 0
3001 -2326 0
3001 -2329 0
3001 -2332 0
3001 -2335 0
3001 -2338 0
3001 -2341 0
3001 -2344 0
3001 -2347 0
3001 -2350 0
3001 -2353 0
3001 -2356 0
3001 -2359 0
3001 -2362 0
3001 -2365 0
3001 -2368 0
3001 -2371 0
3001 -2374 0
3001 -2377 0
3001 -2380 0
3001 -2383 0
3001 -2386 0
3001 -2389 0
3001 -2392 0
3001 -2395 0
3001 -2398 0
3001 -2401 0
3001 -2404 0
3001 -2407 0
3001 -2410 0
3001 -2413 0
3001 -2416 0
3001 -2419 0
3001 -2422 0
3001 -2425 0
3001 -2428 0
3001 -2431 0
3001 -2434 0
3001 -2437 0
3001 -2440 0
3001 -2443 0
3001 -2446 0
3001 -2449 0
3001 -2452 0
3001 -2455 0
3001 -2458 0
3001 -2461 0
3001 -2464 0
3001 -2467 0
3001 -2470 0
3001 -2473 0
3001 -2476 0
3001 -2479 0
3001 -2482 0
3001 -2485 0
3001 -2488 0
3001 -2491 0
3001 -2494 0
3001 -2497 0
3001 -2500 0
3001 -2503 0
3001 -2506 0
3001 -2509 0
3001 -2512 0
3001 -2515 0
3001 -2518 0
3001 -2521 0
3001 -2524 0
3001 -2527 0
3001 -2530 0
3001 -2533 0
3001 -2536 0
3001 -2539 0
3001 -2542 0
3001 -2545 0
3001 -2548 0
3001 -2551 0
3001 -2554 0
3001 -2557 0
3001 -2560 0
3001 -2563 0
3001 -2566 0
3001 -2569 0
3001 -2572 0
3001 -2575 0
3001 -2578 0
3001 -2581 0
3001 -2584 0
3001 -2587 0
3001 -2590 0
3001 -2593 0
3001 -2596 0
3001 -2599 0
3001 -2602 0
3001 -2605 0
3001 -2608 0
3001 -2611 0
3001 -2614 0
3001 -2617 0
3001 -2620 0
3001 -2623 0
3001 -2626 0
3001 -2629 0
3001 -2632 0
3001 -2635 0
3001 -2638 0
3001 -2641 0
3001 -2644 0
3001 -2647 0
3001 -2650 0
3001 -2653 0
3001 -2656 0
3001 -2659 0
3001 -2662 0
3001 -2665 0
3001 -2668 0
3001 -2671 0
3001 -2674 0
3001 -2677 0
3001 -2680 0
3001 -2683 0
3001 -2686 0
3001 -2689 0
3001 -2692 0
3001 -2695 0
3001 -2698 0
3001 -2701 0
3001 -2704 0
3001 -2707 0
3001 -2710 0
3001 -2713 0
3001 -2716 0
3001 -2719 0
3001 -2722 0
3001 -2725 0
3001 -2728 0
3001 -2731 0
3001 -2734 0
3001 -2737 0
3001 -2740 0
3001 -2743 0
3001 -2746 0
3001 -2749 0
3001 -2752 0
3001 -2755 0
3001 -2758 0
3001 -2761 0
3001 -2764 0
3001 -2767 0
3001 -2770 0
3001 -2773 0
3001 -2776 0
3001 -2779 0
3001 -2782 0
3001 -2785 0
3001 -2788 0
3001 -2791 0
3001 -2794 0
3001 -2797 0
3001 -2800 0
3001 -2803 0
3001 -2806 0
3001 -2809 0
3001 -2812 0
3001 -2815 0
3001 -2818 0
3001 -2821 0
3001 -2824 0
3001 -2827 0
3001 -2830 0
3001 -2833 0
3001 -2836 0
3001 -2839 0
3001 -2842 0
3001 -2845 0
3001 -2848 0
3001 -2851 0
3001 -2854 0
3001 -2857 0
3001 -2860 0
3001 -2863 0
3001 -2866 0
3001 -2869 0
3001 -2872 0
3001 -2875 0
3001 -2878 0
3001 -2881 0
3001 -2884 0
3001 -2887 0
3001 -2890 0
3001 -2893 0
3001 -2896 0
3001 -2899 0
3001 -2902 0
3001 -2905 0
3001 -2908 0
3001 -2911 0
3001 -2914 0
3001 -2917 0
3001 -2920 0
3001 -2923 0
3001 -2926 0
3001 -2929 0
3001 -2932 0
3001 -2935 0
3001 -2938 0
3001 -2941 0
3001 -2944 0
3001 -2947 0
3001 -2950 0
3001 -2953 0
3001 -2956 0
3001 -2959 0
3001 -2962 0
3001 -2965 0
3001 -2968 0
3001 -2971 0
3001 -2974 0
3001 -2977 0
3001 -2980 0
3001 -2983 0
3001 -2986 0
3001 -2989 0
3001 -2992 0
3001 -2995 0
3001 -2998 0
3001 0
