c BC-S1.2
p cnf 492 998
1 -2 -3 0
-1 2 0
-1 3 0
-4 1 5 0
4 -1 0
4 -5 0
6 -7 -8 0
-6 7 0
-6 8 0
-9 6 10 0
9 -6 0
9 -10 0
11 -12 -13 0
-11 12 0
-11 13 0
-14 11 15 0
14 -11 0
14 -15 0
16 -12 -17 0
-16 12 0
-16 17 0
-18 16 19 0
18 -16 0
18 -19 0
20 -21 -22 0
-20 21 0
-20 22 0
-23 20 24 0
23 -20 0
23 -24 0
25 -21 -26 0
-25 21 0
-25 26 0
-27 25 28 0
27 -25 0
27 -28 0
29 -30 -31 0
-29 30 0
-29 31 0
-32 29 33 0
32 -29 0
32 -33 0
34 -30 -35 0
-34 30 0
-34 35 0
-36 34 37 0
36 -34 0
36 -37 0
38 -39 -40 0
-38 39 0
-38 40 0
-41 38 42 0
41 -38 0
41 -42 0
43 -44 -45 0
-43 44 0
-43 45 0
-46 43 47 0
46 -43 0
46 -47 0
48 -44 -49 0
-48 44 0
-48 49 0
-50 48 51 0
50 -48 0
50 -51 0
52 -39 -53 0
-52 39 0
-52 53 0
-54 52 55 0
54 -52 0
54 -55 0
56 -57 -58 0
-56 57 0
-56 58 0
-59 56 60 0
59 -56 0
59 -60 0
61 -62 -63 0
-61 62 0
-61 63 0
-64 61 65 0
64 -61 0
64 -65 0
66 -67 -68 0
-66 67 0
-66 68 0
-69 66 70 0
69 -66 0
69 -70 0
71 -67 -72 0
-71 67 0
-71 72 0
-73 71 74 0
73 -71 0
73 -74 0
75 -57 -76 0
-75 57 0
-75 76 0
-77 75 78 0
77 -75 0
77 -78 0
79 -62 -80 0
-79 62 0
-79 80 0
-81 79 82 0
81 -79 0
81 -82 0
83 -84 -85 0
-83 84 0
-83 85 0
-86 83 87 0
86 -83 0
86 -87 0
88 -84 -89 0
-88 84 0
-88 89 0
-90 88 91 0
90 -88 0
90 -91 0
92 -93 -94 0
-92 93 0
-92 94 0
-95 92 96 0
95 -92 0
95 -96 0
97 -98 -99 0
-97 98 0
-97 99 0
-100 97 101 0
100 -97 0
100 -101 0
102 -93 -103 0
-102 93 0
-102 103 0
-104 102 105 0
104 -102 0
104 -105 0
106 -107 -108 0
-106 107 0
-106 108 0
-109 106 110 0
109 -106 0
109 -110 0
111 -107 -112 0
-111 107 0
-111 112 0
-113 111 114 0
113 -111 0
113 -114 0
115 -98 -116 0
-115 98 0
-115 116 0
-117 115 118 0
117 -115 0
117 -118 0
119 -120 -121 0
-119 120 0
-119 121 0
-122 119 123 0
122 -119 0
122 -123 0
124 -125 -126 0
-124 125 0
-124 126 0
-127 124 128 0
127 -124 0
127 -128 0
129 -130 -131 0
-129 130 0
-129 131 0
-132 129 133 0
132 -129 0
132 -133 0
134 -130 -135 0
-134 130 0
-134 135 0
-136 134 137 0
136 -134 0
136 -137 0
138 -139 -140 0
-138 139 0
-138 140 0
-141 138 142 0
141 -138 0
141 -142 0
143 -139 -144 0
-143 139 0
-143 144 0
-145 143 146 0
145 -143 0
145 -146 0
147 -148 -149 0
-147 148 0
-147 149 0
-150 147 151 0
150 -147 0
150 -151 0
152 -125 -153 0
-152 125 0
-152 153 0
-154 152 155 0
154 -152 0
154 -155 0
156 -148 -157 0
-156 148 0
-156 157 0
-158 156 159 0
158 -156 0
158 -159 0
160 -161 -162 0
-160 161 0
-160 162 0
-163 160 164 0
163 -160 0
163 -164 0
165 -161 -166 0
-165 161 0
-165 166 0
-167 165 168 0
167 -165 0
167 -168 0
169 -170 -171 0
-169 170 0
-169 171 0
-172 169 173 0
172 -169 0
172 -173 0
174 -175 -176 0
-174 175 0
-174 176 0
-177 174 178 0
177 -174 0
177 -178 0
179 -175 -180 0
-179 175 0
-179 180 0
-181 179 182 0
181 -179 0
181 -182 0
183 -184 -185 0
-183 184 0
-183 185 0
-186 183 187 0
186 -183 0
186 -187 0
188 -189 -190 0
-188 189 0
-188 190 0
-191 188 192 0
191 -188 0
191 -192 0
193 -189 -194 0
-193 189 0
-193 194 0
-195 193 196 0
195 -193 0
195 -196 0
197 -2 -198 0
-197 2 0
-197 198 0
-199 197 200 0
199 -197 0
199 -200 0
201 -202 -203 0
-201 202 0
-201 203 0
-204 201 205 0
204 -201 0
204 -205 0
206 -202 -207 0
-206 202 0
-206 207 0
-208 206 209 0
208 -206 0
208 -209 0
210 -204 -208 0
-210 204 0
-210 208 0
211 -210 -4 0
-211 210 0
-211 4 0
-212 4 211 0
212 -4 0
212 -211 0
213 -184 -214 0
-213 184 0
-213 214 0
-215 213 216 0
215 -213 0
215 -216 0
217 -212 -215 0
-217 212 0
-217 215 0
218 -219 -220 0
-218 219 0
-218 220 0
-221 218 222 0
221 -218 0
221 -222 0
223 -224 -225 0
-223 224 0
-223 225 0
-226 223 227 0
226 -223 0
226 -227 0
228 -224 -229 0
-228 224 0
-228 229 0
-230 228 231 0
230 -228 0
230 -231 0
232 -219 -233 0
-232 219 0
-232 233 0
-234 232 235 0
234 -232 0
234 -235 0
236 -212 -177 0
-236 212 0
-236 177 0
237 -170 -238 0
-237 170 0
-237 238 0
-239 237 240 0
239 -237 0
239 -240 0
241 -236 -239 0
-241 236 0
-241 239 0
242 -243 -244 0
-242 243 0
-242 244 0
-245 242 246 0
245 -242 0
245 -246 0
247 -248 -249 0
-247 248 0
-247 249 0
-250 247 251 0
250 -247 0
250 -251 0
252 -248 -253 0
-252 248 0
-252 253 0
-254 252 255 0
254 -252 0
254 -255 0
256 -257 -258 0
-256 257 0
-256 258 0
-259 256 260 0
259 -256 0
259 -260 0
261 -257 -262 0
-261 257 0
-261 262 0
-263 261 264 0
263 -261 0
263 -264 0
-265 217 241 0
265 -217 0
265 -241 0
266 -243 -267 0
-266 243 0
-266 267 0
-268 266 269 0
268 -266 0
268 -269 0
270 -265 -268 0
-270 265 0
-270 268 0
271 -272 -273 0
-271 272 0
-271 273 0
-274 271 275 0
274 -271 0
274 -275 0
276 -217 -172 0
-276 217 0
-276 172 0
-277 276 236 0
277 -276 0
277 -236 0
278 -277 -163 0
-278 277 0
-278 163 0
279 -278 -150 0
-279 278 0
-279 150 0
280 -279 -127 0
-280 279 0
-280 127 0
281 -279 -141 0
-281 279 0
-281 141 0
282 -281 -132 0
-282 281 0
-282 132 0
-283 280 282 0
283 -280 0
283 -282 0
284 -120 -285 0
-284 120 0
-284 285 0
-286 284 287 0
286 -284 0
286 -287 0
288 -283 -286 0
-288 283 0
-288 286 0
-289 270 288 0
289 -270 0
289 -288 0
290 -272 -291 0
-290 272 0
-290 291 0
-292 290 293 0
292 -290 0
292 -293 0
294 -289 -292 0
-294 289 0
-294 292 0
295 -296 -297 0
-295 296 0
-295 297 0
-298 295 299 0
298 -295 0
298 -299 0
300 -212 -100 0
-300 212 0
-300 100 0
301 -300 -104 0
-301 300 0
-301 104 0
302 -212 -109 0
-302 212 0
-302 109 0
-303 301 302 0
303 -301 0
303 -302 0
304 -303 -86 0
-304 303 0
-304 86 0
305 -304 -59 0
-305 304 0
-305 59 0
306 -304 -64 0
-306 304 0
-306 64 0
307 -306 -73 0
-307 306 0
-307 73 0
-308 305 307 0
308 -305 0
308 -307 0
309 -308 -41 0
-309 308 0
-309 41 0
310 -309 -32 0
-310 309 0
-310 32 0
311 -310 -14 0
-311 310 0
-311 14 0
312 -7 -313 0
-312 7 0
-312 313 0
-314 312 315 0
314 -312 0
314 -315 0
316 -311 -314 0
-316 311 0
-316 314 0
-317 294 316 0
317 -294 0
317 -316 0
318 -296 -319 0
-318 296 0
-318 319 0
-320 318 321 0
320 -318 0
320 -321 0
322 -317 -320 0
-322 317 0
-322 320 0
323 -294 -9 0
-323 294 0
-323 9 0
324 -323 -18 0
-324 323 0
-324 18 0
325 -324 -36 0
-325 324 0
-325 36 0
326 -325 -54 0
-326 325 0
-326 54 0
327 -326 -77 0
-327 326 0
-327 77 0
-328 327 304 0
328 -327 0
328 -304 0
329 -328 -64 0
-329 328 0
-329 64 0
-330 326 305 0
330 -326 0
330 -305 0
331 -330 -69 0
-331 330 0
-331 69 0
-332 329 331 0
332 -329 0
332 -331 0
-333 323 311 0
333 -323 0
333 -311 0
-334 325 309 0
334 -325 0
334 -309 0
335 -334 -46 0
-335 334 0
-335 46 0
-336 322 332 333 335 0
336 -322 0
336 -332 0
336 -333 0
336 -335 0
337 -167 -163 0
-337 167 0
-337 163 0
338 -337 -150 0
-338 337 0
-338 150 0
-339 150 338 0
339 -150 0
339 -338 0
340 -339 -141 0
-340 339 0
-340 141 0
341 -340 -132 0
-341 340 0
-341 132 0
342 -339 -127 0
-342 339 0
-342 127 0
-343 341 342 0
343 -341 0
343 -342 0
344 -343 -286 0
-344 343 0
-344 286 0
345 -150 -158 0
-345 150 0
-345 158 0
346 -345 -167 0
-346 345 0
-346 167 0
-347 167 346 0
347 -167 0
347 -346 0
348 -347 -181 0
-348 347 0
-348 181 0
349 -348 -215 0
-349 348 0
-349 215 0
350 -347 -239 0
-350 347 0
-350 239 0
-351 349 350 0
351 -349 0
351 -350 0
352 -351 -268 0
-352 351 0
-352 268 0
-353 344 352 0
353 -344 0
353 -352 0
354 -353 -292 0
-354 353 0
-354 292 0
355 -347 -163 0
-355 347 0
-355 163 0
356 -355 -150 0
-356 355 0
-356 150 0
-357 150 356 0
357 -150 0
357 -356 0
358 -357 -141 0
-358 357 0
-358 141 0
359 -358 -132 0
-359 358 0
-359 132 0
-360 359 342 0
360 -359 0
360 -342 0
361 -360 -286 0
-361 360 0
-361 286 0
362 -361 -245 0
-362 361 0
-362 245 0
-363 362 350 0
363 -362 0
363 -350 0
364 -363 -186 0
-364 363 0
-364 186 0
365 -345 -150 0
-365 345 0
-365 150 0
-366 150 365 0
366 -150 0
366 -365 0
367 -366 -141 0
-367 366 0
-367 141 0
368 -367 -132 0
-368 367 0
-368 132 0
369 -150 -127 0
-369 150 0
-369 127 0
-370 368 369 0
370 -368 0
370 -369 0
371 -370 -286 0
-371 370 0
-371 286 0
372 -371 -245 0
-372 371 0
-372 245 0
373 -372 -172 0
-373 372 0
-373 172 0
-374 167 373 346 0
374 -167 0
374 -373 0
374 -346 0
375 -374 -181 0
-375 374 0
-375 181 0
-376 364 375 0
376 -364 0
376 -375 0
377 -376 -100 0
-377 376 0
-377 100 0
378 -377 -104 0
-378 377 0
-378 104 0
379 -344 -245 0
-379 344 0
-379 245 0
-380 379 350 0
380 -379 0
380 -350 0
381 -380 -186 0
-381 380 0
-381 186 0
382 -150 -141 0
-382 150 0
-382 141 0
383 -382 -132 0
-383 382 0
-383 132 0
-384 383 369 0
384 -383 0
384 -369 0
385 -384 -286 0
-385 384 0
-385 286 0
386 -385 -245 0
-386 385 0
-386 245 0
387 -386 -172 0
-387 386 0
-387 172 0
-388 167 387 346 0
388 -167 0
388 -387 0
388 -346 0
389 -388 -181 0
-389 388 0
-389 181 0
-390 381 389 0
390 -381 0
390 -389 0
391 -390 -109 0
-391 390 0
-391 109 0
-392 378 391 0
392 -378 0
392 -391 0
393 -392 -86 0
-393 392 0
-393 86 0
394 -393 -59 0
-394 393 0
-394 59 0
395 -390 -100 0
-395 390 0
-395 100 0
396 -395 -104 0
-396 395 0
-396 104 0
-397 396 391 0
397 -396 0
397 -391 0
398 -397 -86 0
-398 397 0
-398 86 0
399 -398 -64 0
-399 398 0
-399 64 0
400 -399 -73 0
-400 399 0
-400 73 0
-401 394 400 0
401 -394 0
401 -400 0
402 -401 -41 0
-402 401 0
-402 41 0
403 -402 -32 0
-403 402 0
-403 32 0
404 -403 -14 0
-404 403 0
-404 14 0
405 -404 -314 0
-405 404 0
-405 314 0
-406 354 405 0
406 -354 0
406 -405 0
407 -406 -320 0
-407 406 0
-407 320 0
408 -354 -9 0
-408 354 0
-408 9 0
409 -408 -18 0
-409 408 0
-409 18 0
410 -409 -36 0
-410 409 0
-410 36 0
411 -410 -54 0
-411 410 0
-411 54 0
412 -411 -77 0
-412 411 0
-412 77 0
-413 412 398 0
413 -412 0
413 -398 0
414 -413 -64 0
-414 413 0
-414 64 0
415 -398 -59 0
-415 398 0
-415 59 0
-416 411 415 0
416 -411 0
416 -415 0
417 -416 -69 0
-417 416 0
-417 69 0
-418 414 417 0
418 -414 0
418 -417 0
-419 415 400 0
419 -415 0
419 -400 0
420 -419 -41 0
-420 419 0
-420 41 0
421 -420 -32 0
-421 420 0
-421 32 0
422 -421 -14 0
-422 421 0
-422 14 0
-423 408 422 0
423 -408 0
423 -422 0
-424 410 420 0
424 -410 0
424 -420 0
425 -424 -46 0
-425 424 0
-425 46 0
-426 407 418 423 425 0
426 -407 0
426 -418 0
426 -423 0
426 -425 0
427 -230 -234 0
-427 230 0
-427 234 0
428 -427 -268 0
-428 427 0
-428 268 0
429 -427 -186 0
-429 427 0
-429 186 0
430 -429 -177 0
-430 429 0
-430 177 0
431 -427 -172 0
-431 427 0
-431 172 0
-432 430 431 0
432 -430 0
432 -431 0
433 -432 -163 0
-433 432 0
-433 163 0
434 -433 -150 0
-434 433 0
-434 150 0
435 -434 -141 0
-435 434 0
-435 141 0
436 -435 -132 0
-436 435 0
-436 132 0
437 -434 -127 0
-437 434 0
-437 127 0
-438 436 437 0
438 -436 0
438 -437 0
439 -438 -286 0
-439 438 0
-439 286 0
-440 428 439 0
440 -428 0
440 -439 0
441 -440 -292 0
-441 440 0
-441 292 0
442 -428 -122 0
-442 428 0
-442 122 0
443 -442 -136 0
-443 442 0
-443 136 0
444 -443 -145 0
-444 443 0
-444 145 0
445 -442 -154 0
-445 442 0
-445 154 0
-446 444 445 0
446 -444 0
446 -445 0
447 -446 -158 0
-447 446 0
-447 158 0
448 -447 -167 0
-448 447 0
-448 167 0
-449 448 431 0
449 -448 0
449 -431 0
450 -449 -181 0
-450 449 0
-450 181 0
-451 450 429 0
451 -450 0
451 -429 0
452 -451 -100 0
-452 451 0
-452 100 0
453 -452 -104 0
-453 452 0
-453 104 0
454 -451 -109 0
-454 451 0
-454 109 0
-455 453 454 0
455 -453 0
455 -454 0
456 -455 -86 0
-456 455 0
-456 86 0
457 -456 -59 0
-457 456 0
-457 59 0
458 -456 -64 0
-458 456 0
-458 64 0
459 -458 -73 0
-459 458 0
-459 73 0
-460 457 459 0
460 -457 0
460 -459 0
461 -460 -41 0
-461 460 0
-461 41 0
462 -461 -32 0
-462 461 0
-462 32 0
463 -462 -14 0
-463 462 0
-463 14 0
464 -463 -314 0
-464 463 0
-464 314 0
-465 441 464 0
465 -441 0
465 -464 0
466 -465 -320 0
-466 465 0
-466 320 0
467 -441 -9 0
-467 441 0
-467 9 0
468 -467 -18 0
-468 467 0
-468 18 0
469 -468 -36 0
-469 468 0
-469 36 0
470 -469 -54 0
-470 469 0
-470 54 0
471 -470 -77 0
-471 470 0
-471 77 0
-472 471 456 0
472 -471 0
472 -456 0
473 -472 -64 0
-473 472 0
-473 64 0
-474 470 457 0
474 -470 0
474 -457 0
475 -474 -69 0
-475 474 0
-475 69 0
-476 473 475 0
476 -473 0
476 -475 0
-477 467 463 0
477 -467 0
477 -463 0
-478 469 461 0
478 -469 0
478 -461 0
479 -478 -46 0
-479 478 0
-479 46 0
-480 466 476 477 479 0
480 -466 0
480 -476 0
480 -477 0
480 -479 0
481 -336 -482 0
-481 336 0
-481 482 0
483 336 482 0
-483 -336 0
-483 -482 0
-484 481 483 0
484 -481 0
484 -483 0
485 -426 -486 0
-485 426 0
-485 486 0
487 426 486 0
-487 -426 0
-487 -486 0
-488 485 487 0
488 -485 0
488 -487 0
489 -480 -490 0
-489 480 0
-489 490 0
491 480 490 0
-491 -480 0
-491 -490 0
-492 489 491 0
492 -489 0
492 -491 0
484 0
488 0
492 0
