c BC-S1.2
p cnf 432 776
1 -2 -3 0
-1 2 0
-1 3 0
-4 1 5 0
4 -1 0
4 -5 0
6 -7 -8 0
-6 7 0
-6 8 0
-9 6 10 0
9 -6 0
9 -10 0
11 -7 -12 0
-11 7 0
-11 12 0
-13 11 14 0
13 -11 0
13 -14 0
15 -9 -13 0
-15 9 0
-15 13 0
16 -2 -17 0
-16 2 0
-16 17 0
-18 16 19 0
18 -16 0
18 -19 0
20 -21 -22 0
-20 21 0
-20 22 0
-23 20 24 0
23 -20 0
23 -24 0
25 -26 -27 0
-25 26 0
-25 27 0
-28 25 29 0
28 -25 0
28 -29 0
30 -31 -32 0
-30 31 0
-30 32 0
-33 30 34 0
33 -30 0
33 -34 0
35 -36 -37 0
-35 36 0
-35 37 0
-38 35 39 0
38 -35 0
38 -39 0
40 -41 -42 0
-40 41 0
-40 42 0
-43 40 44 0
43 -40 0
43 -44 0
45 -46 -47 0
-45 46 0
-45 47 0
-48 45 49 0
48 -45 0
48 -49 0
50 -51 -52 0
-50 51 0
-50 52 0
-53 50 54 0
53 -50 0
53 -54 0
55 -56 -57 0
-55 56 0
-55 57 0
-58 55 59 0
58 -55 0
58 -59 0
60 -61 -62 0
-60 61 0
-60 62 0
-63 60 64 0
63 -60 0
63 -64 0
65 -66 -67 0
-65 66 0
-65 67 0
-68 65 69 0
68 -65 0
68 -69 0
70 -61 -71 0
-70 61 0
-70 71 0
-72 70 73 0
72 -70 0
72 -73 0
74 -75 -76 0
-74 75 0
-74 76 0
-77 74 78 0
77 -74 0
77 -78 0
79 -80 -81 0
-79 80 0
-79 81 0
-82 79 83 0
82 -79 0
82 -83 0
84 -85 -86 0
-84 85 0
-84 86 0
-87 84 88 0
87 -84 0
87 -88 0
89 -75 -90 0
-89 75 0
-89 90 0
-91 89 92 0
91 -89 0
91 -92 0
93 -94 -95 0
-93 94 0
-93 95 0
-96 93 97 0
96 -93 0
96 -97 0
98 -94 -99 0
-98 94 0
-98 99 0
-100 98 101 0
100 -98 0
100 -101 0
102 -103 -104 0
-102 103 0
-102 104 0
-105 102 106 0
105 -102 0
105 -106 0
107 -103 -108 0
-107 103 0
-107 108 0
-109 107 110 0
109 -107 0
109 -110 0
111 -112 -113 0
-111 112 0
-111 113 0
-114 111 115 0
114 -111 0
114 -115 0
116 -112 -117 0
-116 112 0
-116 117 0
-118 116 119 0
118 -116 0
118 -119 0
120 -56 -121 0
-120 56 0
-120 121 0
-122 120 123 0
122 -120 0
122 -123 0
124 -51 -125 0
-124 51 0
-124 125 0
-126 124 127 0
126 -124 0
126 -127 0
128 -66 -129 0
-128 66 0
-128 129 0
-130 128 131 0
130 -128 0
130 -131 0
132 -46 -133 0
-132 46 0
-132 133 0
-134 132 135 0
134 -132 0
134 -135 0
136 -80 -137 0
-136 80 0
-136 137 0
-138 136 139 0
138 -136 0
138 -139 0
140 -141 -142 0
-140 141 0
-140 142 0
-143 140 144 0
143 -140 0
143 -144 0
145 -41 -146 0
-145 41 0
-145 146 0
-147 145 148 0
147 -145 0
147 -148 0
149 -85 -150 0
-149 85 0
-149 150 0
-151 149 152 0
151 -149 0
151 -152 0
153 -36 -154 0
-153 36 0
-153 154 0
-155 153 156 0
155 -153 0
155 -156 0
157 -141 -158 0
-157 141 0
-157 158 0
-159 157 160 0
159 -157 0
159 -160 0
161 -31 -162 0
-161 31 0
-161 162 0
-163 161 164 0
163 -161 0
163 -164 0
165 -166 -167 0
-165 166 0
-165 167 0
-168 165 169 0
168 -165 0
168 -169 0
170 -166 -171 0
-170 166 0
-170 171 0
-172 170 173 0
172 -170 0
172 -173 0
174 -26 -175 0
-174 26 0
-174 175 0
-176 174 177 0
176 -174 0
176 -177 0
178 -21 -179 0
-178 21 0
-178 179 0
-180 178 181 0
180 -178 0
180 -181 0
182 -23 -180 0
-182 23 0
-182 180 0
-183 15 182 0
183 -15 0
183 -182 0
184 -183 -4 0
-184 183 0
-184 4 0
185 -186 -187 0
-185 186 0
-185 187 0
-188 185 189 0
188 -185 0
188 -189 0
190 -191 -192 0
-190 191 0
-190 192 0
-193 190 194 0
193 -190 0
193 -194 0
195 -196 -197 0
-195 196 0
-195 197 0
-198 195 199 0
198 -195 0
198 -199 0
200 -191 -201 0
-200 191 0
-200 201 0
-202 200 203 0
202 -200 0
202 -203 0
204 -205 -206 0
-204 205 0
-204 206 0
207 -208 -209 0
-207 208 0
-207 209 0
-210 204 207 211 212 0
210 -204 0
210 -207 0
210 -211 0
210 -212 0
213 -208 -214 0
-213 208 0
-213 214 0
215 -205 -216 0
-215 205 0
-215 216 0
-217 213 215 218 219 0
217 -213 0
217 -215 0
217 -218 0
217 -219 0
220 -221 -222 0
-220 221 0
-220 222 0
-223 220 224 0
223 -220 0
223 -224 0
225 -221 -226 0
-225 221 0
-225 226 0
-227 225 228 0
227 -225 0
227 -228 0
229 -230 -231 0
-229 230 0
-229 231 0
-232 229 233 0
232 -229 0
232 -233 0
234 -235 -236 0
-234 235 0
-234 236 0
-237 234 238 0
237 -234 0
237 -238 0
239 -235 -240 0
-239 235 0
-239 240 0
-241 239 242 0
241 -239 0
241 -242 0
243 -244 -245 0
-243 244 0
-243 245 0
-246 243 247 0
246 -243 0
246 -247 0
-248 4 184 0
248 -4 0
248 -184 0
249 -244 -250 0
-249 244 0
-249 250 0
-251 249 252 0
251 -249 0
251 -252 0
253 -248 -251 0
-253 248 0
-253 251 0
254 -248 -237 0
-254 248 0
-254 237 0
255 -230 -256 0
-255 230 0
-255 256 0
-257 255 258 0
257 -255 0
257 -258 0
259 -254 -257 0
-259 254 0
-259 257 0
260 -254 -223 0
-260 254 0
-260 223 0
261 -260 -210 0
-261 260 0
-261 210 0
262 -261 -193 0
-262 261 0
-262 193 0
263 -196 -264 0
-263 196 0
-263 264 0
-265 263 266 0
265 -263 0
265 -266 0
267 -262 -265 0
-267 262 0
-267 265 0
268 -269 -270 0
-268 269 0
-268 270 0
-271 268 272 0
271 -268 0
271 -272 0
-273 253 259 267 0
273 -253 0
273 -259 0
273 -267 0
274 -269 -275 0
-274 269 0
-274 275 0
-276 274 277 0
276 -274 0
276 -277 0
278 -273 -276 0
-278 273 0
-278 276 0
279 -280 -281 0
-279 280 0
-279 281 0
-282 279 283 0
282 -279 0
282 -283 0
284 -253 -232 0
-284 253 0
-284 232 0
-285 284 254 0
285 -284 0
285 -254 0
286 -285 -223 0
-286 285 0
-286 223 0
287 -286 -210 0
-287 286 0
-287 210 0
288 -287 -193 0
-288 287 0
-288 193 0
-289 253 259 0
289 -253 0
289 -259 0
290 -289 -198 0
-290 289 0
-290 198 0
-291 288 290 0
291 -288 0
291 -290 0
292 -186 -293 0
-292 186 0
-292 293 0
-294 292 295 0
294 -292 0
294 -295 0
296 -291 -294 0
-296 291 0
-296 294 0
-297 278 296 0
297 -278 0
297 -296 0
298 -280 -299 0
-298 280 0
-298 299 0
-300 298 301 0
300 -298 0
300 -301 0
302 -297 -300 0
-302 297 0
-302 300 0
303 -304 -305 0
-303 304 0
-303 305 0
-306 303 307 0
306 -303 0
306 -307 0
308 -304 -309 0
-308 304 0
-308 309 0
-310 308 311 0
310 -308 0
310 -311 0
312 -302 -310 0
-312 302 0
-312 310 0
313 -314 -315 0
-313 314 0
-313 315 0
316 -317 -318 0
-316 317 0
-316 318 0
-319 313 316 320 321 0
319 -313 0
319 -316 0
319 -320 0
319 -321 0
322 -317 -323 0
-322 317 0
-322 323 0
324 -314 -325 0
-324 314 0
-324 325 0
-326 322 324 327 328 0
326 -322 0
326 -324 0
326 -327 0
326 -328 0
329 -312 -326 0
-329 312 0
-329 326 0
330 -331 -332 0
-330 331 0
-330 332 0
-333 330 334 0
333 -330 0
333 -334 0
335 -331 -336 0
-335 331 0
-335 336 0
-337 335 338 0
337 -335 0
337 -338 0
339 -329 -337 0
-339 329 0
-339 337 0
340 -28 -176 0
-340 28 0
-340 176 0
341 -340 -180 0
-341 340 0
-341 180 0
-342 180 341 0
342 -180 0
342 -341 0
343 -342 -4 0
-343 342 0
-343 4 0
344 -343 -251 0
-344 343 0
-344 251 0
345 -343 -237 0
-345 343 0
-345 237 0
346 -345 -257 0
-346 345 0
-346 257 0
347 -345 -223 0
-347 345 0
-347 223 0
348 -347 -210 0
-348 347 0
-348 210 0
349 -348 -193 0
-349 348 0
-349 193 0
350 -349 -265 0
-350 349 0
-350 265 0
-351 344 346 350 0
351 -344 0
351 -346 0
351 -350 0
352 -351 -276 0
-352 351 0
-352 276 0
353 -344 -232 0
-353 344 0
-353 232 0
-354 353 345 0
354 -353 0
354 -345 0
355 -354 -223 0
-355 354 0
-355 223 0
356 -355 -210 0
-356 355 0
-356 210 0
357 -356 -193 0
-357 356 0
-357 193 0
-358 344 346 0
358 -344 0
358 -346 0
359 -358 -198 0
-359 358 0
-359 198 0
-360 357 359 0
360 -357 0
360 -359 0
361 -360 -294 0
-361 360 0
-361 294 0
-362 352 361 0
362 -352 0
362 -361 0
363 -362 -300 0
-363 362 0
-363 300 0
364 -363 -310 0
-364 363 0
-364 310 0
365 -364 -326 0
-365 364 0
-365 326 0
366 -365 -337 0
-366 365 0
-366 337 0
367 -193 -202 0
-367 193 0
-367 202 0
368 -367 -217 0
-368 367 0
-368 217 0
-369 217 368 0
369 -217 0
369 -368 0
370 -369 -227 0
-370 369 0
-370 227 0
371 -370 -241 0
-371 370 0
-371 241 0
372 -371 -251 0
-372 371 0
-372 251 0
373 -370 -257 0
-373 370 0
-373 257 0
374 -217 -210 0
-374 217 0
-374 210 0
375 -374 -193 0
-375 374 0
-375 193 0
-376 193 375 0
376 -193 0
376 -375 0
377 -376 -265 0
-377 376 0
-377 265 0
-378 372 373 377 0
378 -372 0
378 -373 0
378 -377 0
379 -378 -276 0
-379 378 0
-379 276 0
380 -217 -227 0
-380 217 0
-380 227 0
381 -380 -241 0
-381 380 0
-381 241 0
382 -381 -251 0
-382 381 0
-382 251 0
383 -380 -257 0
-383 380 0
-383 257 0
-384 382 383 0
384 -382 0
384 -383 0
385 -384 -198 0
-385 384 0
-385 198 0
-386 193 385 375 0
386 -193 0
386 -385 0
386 -375 0
387 -386 -294 0
-387 386 0
-387 294 0
-388 379 387 0
388 -379 0
388 -387 0
389 -388 -300 0
-389 388 0
-389 300 0
390 -389 -310 0
-390 389 0
-390 310 0
391 -390 -326 0
-391 390 0
-391 326 0
392 -391 -337 0
-392 391 0
-392 337 0
393 -13 -4 0
-393 13 0
-393 4 0
394 -393 -251 0
-394 393 0
-394 251 0
395 -393 -237 0
-395 393 0
-395 237 0
396 -395 -257 0
-396 395 0
-396 257 0
397 -395 -223 0
-397 395 0
-397 223 0
398 -397 -210 0
-398 397 0
-398 210 0
399 -398 -193 0
-399 398 0
-399 193 0
400 -399 -265 0
-400 399 0
-400 265 0
-401 394 396 400 0
401 -394 0
401 -396 0
401 -400 0
402 -401 -276 0
-402 401 0
-402 276 0
403 -394 -232 0
-403 394 0
-403 232 0
-404 403 395 0
404 -403 0
404 -395 0
405 -404 -223 0
-405 404 0
-405 223 0
406 -405 -210 0
-406 405 0
-406 210 0
407 -406 -193 0
-407 406 0
-407 193 0
-408 394 396 0
408 -394 0
408 -396 0
409 -408 -198 0
-409 408 0
-409 198 0
-410 407 409 0
410 -407 0
410 -409 0
411 -410 -294 0
-411 410 0
-411 294 0
-412 402 411 0
412 -402 0
412 -411 0
413 -412 -300 0
-413 412 0
-413 300 0
414 -413 -310 0
-414 413 0
-414 310 0
415 -414 -326 0
-415 414 0
-415 326 0
416 -415 -337 0
-416 415 0
-416 337 0
417 -339 -418 0
-417 339 0
-417 418 0
419 339 418 0
-419 -339 0
-419 -418 0
-420 417 419 0
420 -417 0
420 -419 0
421 -366 -422 0
-421 366 0
-421 422 0
423 366 422 0
-423 -366 0
-423 -422 0
-424 421 423 0
424 -421 0
424 -423 0
425 -392 -426 0
-425 392 0
-425 426 0
427 392 426 0
-427 -392 0
-427 -426 0
-428 425 427 0
428 -425 0
428 -427 0
429 -416 -430 0
-429 416 0
-429 430 0
431 416 430 0
-431 -416 0
-431 -430 0
-432 429 431 0
432 -429 0
432 -431 0
420 0
424 0
428 0
432 0
