c BC-S1.2
p cnf 885 1915
1 -2 -3 0
-1 2 0
-1 3 0
-4 1 5 0
4 -1 0
4 -5 0
6 -2 -7 0
-6 2 0
-6 7 0
-8 6 9 0
8 -6 0
8 -9 0
10 -11 -12 0
-10 11 0
-10 12 0
-13 10 14 0
13 -10 0
13 -14 0
15 -16 -17 0
-15 16 0
-15 17 0
-18 15 19 0
18 -15 0
18 -19 0
20 -21 -22 0
-20 21 0
-20 22 0
-23 20 24 0
23 -20 0
23 -24 0
25 -21 -26 0
-25 21 0
-25 26 0
-27 25 28 0
27 -25 0
27 -28 0
29 -11 -30 0
-29 11 0
-29 30 0
-31 29 32 0
31 -29 0
31 -32 0
33 -13 -31 0
-33 13 0
-33 31 0
34 -35 -36 0
-34 35 0
-34 36 0
-37 34 38 0
37 -34 0
37 -38 0
39 -40 -41 0
-39 40 0
-39 41 0
-42 39 43 0
42 -39 0
42 -43 0
44 -45 -46 0
-44 45 0
-44 46 0
-47 44 48 0
47 -44 0
47 -48 0
49 -50 -51 0
-49 50 0
-49 51 0
-52 49 53 0
52 -49 0
52 -53 0
54 -55 -56 0
-54 55 0
-54 56 0
-57 54 58 0
57 -54 0
57 -58 0
59 -55 -60 0
-59 55 0
-59 60 0
-61 59 62 0
61 -59 0
61 -62 0
63 -50 -64 0
-63 50 0
-63 64 0
-65 63 66 0
65 -63 0
65 -66 0
67 -45 -68 0
-67 45 0
-67 68 0
-69 67 70 0
69 -67 0
69 -70 0
71 -72 -73 0
-71 72 0
-71 73 0
-74 71 75 0
74 -71 0
74 -75 0
76 -77 -78 0
-76 77 0
-76 78 0
-79 76 80 0
79 -76 0
79 -80 0
81 -82 -83 0
-81 82 0
-81 83 0
-84 81 85 0
84 -81 0
84 -85 0
86 -87 -88 0
-86 87 0
-86 88 0
-89 86 90 0
89 -86 0
89 -90 0
91 -92 -93 0
-91 92 0
-91 93 0
-94 91 95 0
94 -91 0
94 -95 0
96 -97 -98 0
-96 97 0
-96 98 0
-99 96 100 0
99 -96 0
99 -100 0
101 -102 -103 0
-101 102 0
-101 103 0
-104 101 105 0
104 -101 0
104 -105 0
106 -97 -107 0
-106 97 0
-106 107 0
-108 106 109 0
108 -106 0
108 -109 0
110 -94 -108 0
-110 94 0
-110 108 0
111 -87 -112 0
-111 87 0
-111 112 0
-113 111 114 0
113 -111 0
113 -114 0
115 -110 -113 0
-115 110 0
-115 113 0
-116 74 115 0
116 -74 0
116 -115 0
117 -77 -118 0
-117 77 0
-117 118 0
-119 117 120 0
119 -117 0
119 -120 0
121 -116 -119 0
-121 116 0
-121 119 0
122 -40 -123 0
-122 40 0
-122 123 0
-124 122 125 0
124 -122 0
124 -125 0
126 -121 -124 0
-126 121 0
-126 124 0
127 -121 -79 0
-127 121 0
-127 79 0
-128 74 127 115 0
128 -74 0
128 -127 0
128 -115 0
129 -128 -89 0
-129 128 0
-129 89 0
-130 129 110 0
130 -129 0
130 -110 0
131 -82 -132 0
-131 82 0
-131 132 0
-133 131 134 0
133 -131 0
133 -134 0
135 -130 -133 0
-135 130 0
-135 133 0
136 -74 -89 0
-136 74 0
-136 89 0
137 -136 -99 0
-137 136 0
-137 99 0
-138 94 137 0
138 -94 0
138 -137 0
139 -102 -140 0
-139 102 0
-139 140 0
-141 139 142 0
141 -139 0
141 -142 0
143 -138 -141 0
-143 138 0
-143 141 0
-144 37 126 135 143 0
144 -37 0
144 -126 0
144 -135 0
144 -143 0
145 -35 -146 0
-145 35 0
-145 146 0
-147 145 148 0
147 -145 0
147 -148 0
149 -144 -147 0
-149 144 0
-149 147 0
150 -110 -133 0
-150 110 0
-150 133 0
151 -94 -141 0
-151 94 0
-151 141 0
-152 37 150 151 0
152 -37 0
152 -150 0
152 -151 0
153 -152 -42 0
-153 152 0
-153 42 0
154 -153 -79 0
-154 153 0
-154 79 0
155 -152 -84 0
-155 152 0
-155 84 0
-156 37 151 0
156 -37 0
156 -151 0
157 -156 -104 0
-157 156 0
-157 104 0
-158 94 157 0
158 -94 0
158 -157 0
159 -158 -108 0
-159 158 0
-159 108 0
-160 155 159 0
160 -155 0
160 -159 0
161 -160 -113 0
-161 160 0
-161 113 0
-162 74 154 161 0
162 -74 0
162 -154 0
162 -161 0
163 -72 -164 0
-163 72 0
-163 164 0
-165 163 166 0
165 -163 0
165 -166 0
167 -162 -165 0
-167 162 0
-167 165 0
168 -74 -119 0
-168 74 0
-168 119 0
169 -168 -124 0
-169 168 0
-169 124 0
-170 37 169 151 0
170 -37 0
170 -169 0
170 -151 0
171 -170 -84 0
-171 170 0
-171 84 0
-172 74 154 0
172 -74 0
172 -154 0
173 -172 -89 0
-173 172 0
-173 89 0
-174 171 173 0
174 -171 0
174 -173 0
175 -174 -99 0
-175 174 0
-175 99 0
176 -136 -133 0
-176 136 0
-176 133 0
-177 37 169 176 0
177 -37 0
177 -169 0
177 -176 0
178 -177 -104 0
-178 177 0
-178 104 0
-179 94 175 178 0
179 -94 0
179 -175 0
179 -178 0
180 -92 -181 0
-180 92 0
-180 181 0
-182 180 183 0
182 -180 0
182 -183 0
184 -179 -182 0
-184 179 0
-184 182 0
-185 33 149 167 184 0
185 -33 0
185 -149 0
185 -167 0
185 -184 0
186 -185 -4 0
-186 185 0
-186 4 0
187 -188 -189 0
-187 188 0
-187 189 0
-190 187 191 0
190 -187 0
190 -191 0
-192 4 186 0
192 -4 0
192 -186 0
193 -188 -194 0
-193 188 0
-193 194 0
-195 193 196 0
195 -193 0
195 -196 0
197 -192 -195 0
-197 192 0
-197 195 0
198 -199 -200 0
-198 199 0
-198 200 0
-201 198 202 0
201 -198 0
201 -202 0
203 -199 -204 0
-203 199 0
-203 204 0
-205 203 206 0
205 -203 0
205 -206 0
207 -197 -205 0
-207 197 0
-207 205 0
208 -209 -210 0
-208 209 0
-208 210 0
-211 208 212 0
211 -208 0
211 -212 0
213 -209 -214 0
-213 209 0
-213 214 0
-215 213 216 0
215 -213 0
215 -216 0
217 -207 -215 0
-217 207 0
-217 215 0
218 -219 -220 0
-218 219 0
-218 220 0
-221 218 222 0
221 -218 0
221 -222 0
223 -224 -225 0
-223 224 0
-223 225 0
-226 223 227 0
226 -223 0
226 -227 0
228 -4 -8 0
-228 4 0
-228 8 0
-229 228 33 149 167 184 0
229 -228 0
229 -33 0
229 -149 0
229 -167 0
229 -184 0
230 -229 -13 0
-230 229 0
-230 13 0
-231 13 230 0
231 -13 0
231 -230 0
232 -16 -233 0
-232 16 0
-232 233 0
-234 232 235 0
234 -232 0
234 -235 0
236 -231 -234 0
-236 231 0
-236 234 0
-237 217 236 0
237 -217 0
237 -236 0
238 -224 -239 0
-238 224 0
-238 239 0
-240 238 241 0
240 -238 0
240 -241 0
242 -237 -240 0
-242 237 0
-242 240 0
243 -244 -245 0
-243 244 0
-243 245 0
-246 243 247 0
246 -243 0
246 -247 0
248 -249 -250 0
-248 249 0
-248 250 0
-251 248 252 0
251 -248 0
251 -252 0
253 -254 -255 0
-253 254 0
-253 255 0
-256 253 257 0
256 -253 0
256 -257 0
258 -259 -260 0
-258 259 0
-258 260 0
-261 258 262 0
261 -258 0
261 -262 0
263 -264 -265 0
-263 264 0
-263 265 0
-266 263 267 0
266 -263 0
266 -267 0
268 -269 -270 0
-268 269 0
-268 270 0
-271 268 272 0
271 -268 0
271 -272 0
273 -269 -274 0
-273 269 0
-273 274 0
-275 273 276 0
275 -273 0
275 -276 0
277 -264 -278 0
-277 264 0
-277 278 0
-279 277 280 0
279 -277 0
279 -280 0
281 -282 -283 0
-281 282 0
-281 283 0
-284 281 285 0
284 -281 0
284 -285 0
286 -282 -287 0
-286 282 0
-286 287 0
-288 286 289 0
288 -286 0
288 -289 0
290 -291 -292 0
-290 291 0
-290 292 0
-293 290 294 0
293 -290 0
293 -294 0
295 -291 -296 0
-295 291 0
-295 296 0
-297 295 298 0
297 -295 0
297 -298 0
299 -259 -300 0
-299 259 0
-299 300 0
-301 299 302 0
301 -299 0
301 -302 0
303 -254 -304 0
-303 254 0
-303 304 0
-305 303 306 0
305 -303 0
305 -306 0
307 -249 -308 0
-307 249 0
-307 308 0
-309 307 310 0
309 -307 0
309 -310 0
311 -244 -312 0
-311 244 0
-311 312 0
-313 311 314 0
313 -311 0
313 -314 0
315 -242 -313 0
-315 242 0
-315 313 0
316 -317 -318 0
-316 317 0
-316 318 0
-319 316 320 0
319 -316 0
319 -320 0
321 -317 -322 0
-321 317 0
-321 322 0
-323 321 324 0
323 -321 0
323 -324 0
325 -326 -327 0
-325 326 0
-325 327 0
-328 325 329 0
328 -325 0
328 -329 0
330 -331 -332 0
-330 331 0
-330 332 0
-333 330 334 0
333 -330 0
333 -334 0
335 -336 -337 0
-335 336 0
-335 337 0
-338 335 339 0
338 -335 0
338 -339 0
340 -341 -342 0
-340 341 0
-340 342 0
-343 340 344 0
343 -340 0
343 -344 0
345 -346 -347 0
-345 346 0
-345 347 0
-348 345 349 0
348 -345 0
348 -349 0
350 -346 -351 0
-350 346 0
-350 351 0
-352 350 353 0
352 -350 0
352 -353 0
354 -355 -356 0
-354 355 0
-354 356 0
-357 354 358 0
357 -354 0
357 -358 0
359 -355 -360 0
-359 355 0
-359 360 0
-361 359 362 0
361 -359 0
361 -362 0
363 -364 -365 0
-363 364 0
-363 365 0
-366 363 367 0
366 -363 0
366 -367 0
368 -364 -369 0
-368 364 0
-368 369 0
-370 368 371 0
370 -368 0
370 -371 0
372 -341 -373 0
-372 341 0
-372 373 0
-374 372 375 0
374 -372 0
374 -375 0
376 -336 -377 0
-376 336 0
-376 377 0
-378 376 379 0
378 -376 0
378 -379 0
380 -331 -381 0
-380 331 0
-380 381 0
-382 380 383 0
382 -380 0
382 -383 0
384 -326 -385 0
-384 326 0
-384 385 0
-386 384 387 0
386 -384 0
386 -387 0
388 -315 -386 0
-388 315 0
-388 386 0
389 -390 -391 0
-389 390 0
-389 391 0
-392 389 393 0
392 -389 0
392 -393 0
394 -390 -395 0
-394 390 0
-394 395 0
-396 394 397 0
396 -394 0
396 -397 0
398 -388 -396 0
-398 388 0
-398 396 0
399 -400 -401 0
-399 400 0
-399 401 0
-402 399 403 0
402 -399 0
402 -403 0
404 -405 -406 0
-404 405 0
-404 406 0
-407 404 408 0
407 -404 0
407 -408 0
409 -410 -411 0
-409 410 0
-409 411 0
-412 409 413 0
412 -409 0
412 -413 0
414 -415 -416 0
-414 415 0
-414 416 0
-417 414 418 0
417 -414 0
417 -418 0
419 -410 -420 0
-419 410 0
-419 420 0
-421 419 422 0
421 -419 0
421 -422 0
423 -424 -425 0
-423 424 0
-423 425 0
-426 423 427 0
426 -423 0
426 -427 0
428 -429 -430 0
-428 429 0
-428 430 0
-431 428 432 0
431 -428 0
431 -432 0
433 -434 -435 0
-433 434 0
-433 435 0
-436 433 437 0
436 -433 0
436 -437 0
438 -439 -440 0
-438 439 0
-438 440 0
-441 438 442 0
441 -438 0
441 -442 0
443 -444 -445 0
-443 444 0
-443 445 0
-446 443 447 0
446 -443 0
446 -447 0
448 -449 -450 0
-448 449 0
-448 450 0
-451 448 452 0
451 -448 0
451 -452 0
453 -449 -454 0
-453 449 0
-453 454 0
-455 453 456 0
455 -453 0
455 -456 0
457 -444 -458 0
-457 444 0
-457 458 0
-459 457 460 0
459 -457 0
459 -460 0
461 -439 -462 0
-461 439 0
-461 462 0
-463 461 464 0
463 -461 0
463 -464 0
465 -434 -466 0
-465 434 0
-465 466 0
-467 465 468 0
467 -465 0
467 -468 0
469 -470 -471 0
-469 470 0
-469 471 0
-472 469 473 0
472 -469 0
472 -473 0
474 -475 -476 0
-474 475 0
-474 476 0
-477 474 478 0
477 -474 0
477 -478 0
479 -480 -481 0
-479 480 0
-479 481 0
-482 479 483 0
482 -479 0
482 -483 0
484 -480 -485 0
-484 480 0
-484 485 0
-486 484 487 0
486 -484 0
486 -487 0
488 -475 -489 0
-488 475 0
-488 489 0
-490 488 491 0
490 -488 0
490 -491 0
492 -470 -493 0
-492 470 0
-492 493 0
-494 492 495 0
494 -492 0
494 -495 0
496 -429 -497 0
-496 429 0
-496 497 0
-498 496 499 0
498 -496 0
498 -499 0
500 -424 -501 0
-500 424 0
-500 501 0
-502 500 503 0
502 -500 0
502 -503 0
504 -505 -506 0
-504 505 0
-504 506 0
-507 504 508 0
507 -504 0
507 -508 0
509 -505 -510 0
-509 505 0
-509 510 0
-511 509 512 0
511 -509 0
511 -512 0
513 -514 -515 0
-513 514 0
-513 515 0
-516 513 517 0
516 -513 0
516 -517 0
518 -514 -519 0
-518 514 0
-518 519 0
-520 518 521 0
520 -518 0
520 -521 0
522 -415 -523 0
-522 415 0
-522 523 0
-524 522 525 0
524 -522 0
524 -525 0
526 -219 -527 0
-526 219 0
-526 527 0
-528 526 529 0
528 -526 0
528 -529 0
530 -237 -528 0
-530 237 0
-530 528 0
-531 398 530 0
531 -398 0
531 -530 0
532 -400 -533 0
-532 400 0
-532 533 0
-534 532 535 0
534 -532 0
534 -535 0
536 -531 -534 0
-536 531 0
-536 534 0
537 -538 -539 0
-537 538 0
-537 539 0
-540 537 541 0
540 -537 0
540 -541 0
542 -538 -543 0
-542 538 0
-542 543 0
-544 542 545 0
544 -542 0
544 -545 0
546 -536 -544 0
-546 536 0
-546 544 0
547 -531 -516 0
-547 531 0
-547 516 0
548 -547 -507 0
-548 547 0
-548 507 0
549 -548 -426 0
-549 548 0
-549 426 0
550 -549 -412 0
-550 549 0
-550 412 0
551 -531 -417 0
-551 531 0
-551 417 0
-552 550 551 0
552 -550 0
552 -551 0
553 -405 -554 0
-553 405 0
-553 554 0
-555 553 556 0
555 -553 0
555 -556 0
557 -552 -555 0
-557 552 0
-557 555 0
558 -559 -560 0
-558 559 0
-558 560 0
-561 558 562 0
561 -558 0
561 -562 0
-563 546 557 0
563 -546 0
563 -557 0
564 -559 -565 0
-564 559 0
-564 565 0
-566 564 567 0
566 -564 0
566 -567 0
568 -563 -566 0
-568 563 0
-568 566 0
569 -546 -407 0
-569 546 0
-569 407 0
-570 569 551 0
570 -569 0
570 -551 0
571 -570 -421 0
-571 570 0
-571 421 0
-572 571 549 0
572 -571 0
572 -549 0
573 -572 -431 0
-573 572 0
-573 431 0
574 -573 -436 0
-574 573 0
-574 436 0
575 -530 -392 0
-575 530 0
-575 392 0
576 -575 -328 0
-576 575 0
-576 328 0
577 -576 -246 0
-577 576 0
-577 246 0
-578 242 577 0
578 -242 0
578 -577 0
579 -578 -251 0
-579 578 0
-579 251 0
580 -579 -256 0
-580 579 0
-580 256 0
581 -580 -261 0
-581 580 0
-581 261 0
582 -571 -502 0
-582 571 0
-582 502 0
-583 582 548 0
583 -582 0
583 -548 0
584 -581 -266 0
-584 581 0
-584 266 0
585 -584 -271 0
-585 584 0
-585 271 0
586 -574 -441 0
-586 574 0
-586 441 0
587 -586 -446 0
-587 586 0
-587 446 0
588 -573 -472 0
-588 573 0
-588 472 0
589 -588 -477 0
-589 588 0
-589 477 0
590 -589 -482 0
-590 589 0
-590 482 0
-591 315 576 0
591 -315 0
591 -576 0
592 -591 -333 0
-592 591 0
-592 333 0
593 -592 -338 0
-593 592 0
-593 338 0
594 -593 -343 0
-594 593 0
-594 343 0
595 -593 -366 0
-595 593 0
-595 366 0
596 -595 -357 0
-596 595 0
-596 357 0
-597 594 596 0
597 -594 0
597 -596 0
598 -597 -348 0
-598 597 0
-598 348 0
599 -581 -293 0
-599 581 0
-599 293 0
600 -587 -451 0
-600 587 0
-600 451 0
-601 388 575 0
601 -388 0
601 -575 0
602 -591 -319 0
-602 591 0
-602 319 0
-603 568 574 581 583 584 585 587 531 590 598 599 600 601 586 602 580 563 589 0
603 -568 0
603 -574 0
603 -581 0
603 -583 0
603 -584 0
603 -585 0
603 -587 0
603 -531 0
603 -590 0
603 -598 0
603 -599 0
603 -600 0
603 -601 0
603 -586 0
603 -602 0
603 -580 0
603 -563 0
603 -589 0
604 -18 -31 0
-604 18 0
-604 31 0
605 -604 -4 0
-605 604 0
-605 4 0
606 -605 -195 0
-606 605 0
-606 195 0
607 -606 -205 0
-607 606 0
-607 205 0
-608 211 607 0
608 -211 0
608 -607 0
609 -608 -215 0
-609 608 0
-609 215 0
610 -240 -226 0
-610 240 0
-610 226 0
611 -211 -201 0
-611 211 0
-611 201 0
612 -611 -190 0
-612 611 0
-612 190 0
613 -612 -8 0
-613 612 0
-613 8 0
-614 613 604 0
614 -613 0
614 -604 0
615 -614 -13 0
-615 614 0
-615 13 0
-616 18 615 0
616 -18 0
616 -615 0
617 -616 -234 0
-617 616 0
-617 234 0
-618 609 610 617 0
618 -609 0
618 -610 0
618 -617 0
619 -618 -528 0
-619 618 0
-619 528 0
-620 609 617 0
620 -609 0
620 -617 0
621 -620 -240 0
-621 620 0
-621 240 0
-622 240 621 0
622 -240 0
622 -621 0
623 -622 -313 0
-623 622 0
-623 313 0
624 -623 -386 0
-624 623 0
-624 386 0
625 -624 -396 0
-625 624 0
-625 396 0
-626 528 619 625 0
626 -528 0
626 -619 0
626 -625 0
627 -626 -534 0
-627 626 0
-627 534 0
628 -627 -544 0
-628 627 0
-628 544 0
629 -626 -516 0
-629 626 0
-629 516 0
630 -629 -507 0
-630 629 0
-630 507 0
631 -630 -426 0
-631 630 0
-631 426 0
632 -631 -412 0
-632 631 0
-632 412 0
633 -626 -417 0
-633 626 0
-633 417 0
-634 632 633 0
634 -632 0
634 -633 0
635 -634 -555 0
-635 634 0
-635 555 0
-636 628 635 0
636 -628 0
636 -635 0
637 -636 -566 0
-637 636 0
-637 566 0
638 -628 -407 0
-638 628 0
-638 407 0
-639 638 633 0
639 -638 0
639 -633 0
640 -639 -421 0
-640 639 0
-640 421 0
-641 640 631 0
641 -640 0
641 -631 0
642 -641 -431 0
-642 641 0
-642 431 0
643 -642 -436 0
-643 642 0
-643 436 0
644 -528 -221 0
-644 528 0
-644 221 0
-645 609 617 644 0
645 -609 0
645 -617 0
645 -644 0
646 -645 -240 0
-646 645 0
-646 240 0
647 -620 -528 0
-647 620 0
-647 528 0
-648 528 647 0
648 -528 0
648 -647 0
649 -648 -392 0
-649 648 0
-649 392 0
650 -649 -328 0
-650 649 0
-650 328 0
651 -650 -246 0
-651 650 0
-651 246 0
-652 240 646 651 0
652 -240 0
652 -646 0
652 -651 0
653 -652 -251 0
-653 652 0
-653 251 0
654 -653 -256 0
-654 653 0
-654 256 0
655 -654 -261 0
-655 654 0
-655 261 0
656 -640 -502 0
-656 640 0
-656 502 0
-657 656 630 0
657 -656 0
657 -630 0
658 -655 -266 0
-658 655 0
-658 266 0
659 -658 -271 0
-659 658 0
-659 271 0
660 -643 -441 0
-660 643 0
-660 441 0
661 -660 -446 0
-661 660 0
-661 446 0
662 -642 -472 0
-662 642 0
-662 472 0
663 -662 -477 0
-663 662 0
-663 477 0
664 -663 -482 0
-664 663 0
-664 482 0
-665 240 646 0
665 -240 0
665 -646 0
666 -665 -313 0
-666 665 0
-666 313 0
-667 528 619 0
667 -528 0
667 -619 0
668 -667 -392 0
-668 667 0
-668 392 0
669 -668 -328 0
-669 668 0
-669 328 0
-670 666 669 0
670 -666 0
670 -669 0
671 -670 -333 0
-671 670 0
-671 333 0
672 -671 -338 0
-672 671 0
-672 338 0
673 -672 -343 0
-673 672 0
-673 343 0
674 -672 -366 0
-674 672 0
-674 366 0
675 -674 -357 0
-675 674 0
-675 357 0
-676 673 675 0
676 -673 0
676 -675 0
677 -676 -348 0
-677 676 0
-677 348 0
678 -655 -293 0
-678 655 0
-678 293 0
679 -661 -451 0
-679 661 0
-679 451 0
680 -666 -386 0
-680 666 0
-680 386 0
-681 680 668 0
681 -680 0
681 -668 0
682 -670 -319 0
-682 670 0
-682 319 0
-683 637 643 655 657 658 659 661 626 664 677 678 679 681 660 682 654 636 663 0
683 -637 0
683 -643 0
683 -655 0
683 -657 0
683 -658 0
683 -659 0
683 -661 0
683 -626 0
683 -664 0
683 -677 0
683 -678 0
683 -679 0
683 -681 0
683 -660 0
683 -682 0
683 -654 0
683 -636 0
683 -663 0
684 -319 -323 0
-684 319 0
-684 323 0
685 -386 -328 0
-685 386 0
-685 328 0
686 -333 -382 0
-686 333 0
-686 382 0
-687 684 685 686 0
687 -684 0
687 -685 0
687 -686 0
688 -687 -246 0
-688 687 0
-688 246 0
-689 246 688 0
689 -246 0
689 -688 0
690 -689 -226 0
-690 689 0
-690 226 0
691 -690 -528 0
-691 690 0
-691 528 0
692 -246 -313 0
-692 246 0
-692 313 0
-693 692 684 686 0
693 -692 0
693 -684 0
693 -686 0
694 -693 -386 0
-694 693 0
-694 386 0
-695 386 694 0
695 -386 0
695 -694 0
696 -695 -396 0
-696 695 0
-696 396 0
-697 691 696 0
697 -691 0
697 -696 0
698 -697 -534 0
-698 697 0
-698 534 0
699 -698 -544 0
-699 698 0
-699 544 0
700 -697 -516 0
-700 697 0
-700 516 0
701 -700 -507 0
-701 700 0
-701 507 0
702 -701 -426 0
-702 701 0
-702 426 0
703 -702 -412 0
-703 702 0
-703 412 0
704 -697 -417 0
-704 697 0
-704 417 0
-705 703 704 0
705 -703 0
705 -704 0
706 -705 -555 0
-706 705 0
-706 555 0
-707 699 706 0
707 -699 0
707 -706 0
708 -707 -566 0
-708 707 0
-708 566 0
709 -699 -407 0
-709 699 0
-709 407 0
-710 709 704 0
710 -709 0
710 -704 0
711 -710 -421 0
-711 710 0
-711 421 0
-712 711 702 0
712 -711 0
712 -702 0
713 -712 -431 0
-713 712 0
-713 431 0
714 -713 -436 0
-714 713 0
-714 436 0
-715 684 686 0
715 -684 0
715 -686 0
716 -715 -386 0
-716 715 0
-716 386 0
-717 386 716 0
717 -386 0
717 -716 0
718 -717 -396 0
-718 717 0
-718 396 0
719 -718 -221 0
-719 718 0
-719 221 0
720 -719 -240 0
-720 719 0
-720 240 0
-721 246 688 720 0
721 -246 0
721 -688 0
721 -720 0
722 -721 -251 0
-722 721 0
-722 251 0
723 -722 -256 0
-723 722 0
-723 256 0
724 -723 -261 0
-724 723 0
-724 261 0
725 -711 -502 0
-725 711 0
-725 502 0
-726 725 701 0
726 -725 0
726 -701 0
727 -724 -266 0
-727 724 0
-727 266 0
728 -727 -271 0
-728 727 0
-728 271 0
729 -714 -441 0
-729 714 0
-729 441 0
730 -729 -446 0
-730 729 0
-730 446 0
731 -713 -472 0
-731 713 0
-731 472 0
732 -731 -477 0
-732 731 0
-732 477 0
733 -732 -482 0
-733 732 0
-733 482 0
734 -386 -396 0
-734 386 0
-734 396 0
735 -734 -221 0
-735 734 0
-735 221 0
736 -735 -240 0
-736 735 0
-736 240 0
-737 246 736 0
737 -246 0
737 -736 0
738 -737 -313 0
-738 737 0
-738 313 0
739 -246 -226 0
-739 246 0
-739 226 0
740 -739 -528 0
-740 739 0
-740 528 0
741 -740 -392 0
-741 740 0
-741 392 0
-742 386 741 0
742 -386 0
742 -741 0
743 -742 -328 0
-743 742 0
-743 328 0
-744 738 684 743 0
744 -738 0
744 -684 0
744 -743 0
745 -744 -333 0
-745 744 0
-745 333 0
-746 333 745 0
746 -333 0
746 -745 0
747 -746 -338 0
-747 746 0
-747 338 0
748 -747 -343 0
-748 747 0
-748 343 0
-749 738 684 743 686 0
749 -738 0
749 -684 0
749 -743 0
749 -686 0
750 -749 -333 0
-750 749 0
-750 333 0
-751 333 750 0
751 -333 0
751 -750 0
752 -751 -338 0
-752 751 0
-752 338 0
753 -752 -366 0
-753 752 0
-753 366 0
754 -753 -357 0
-754 753 0
-754 357 0
-755 748 754 0
755 -748 0
755 -754 0
756 -755 -348 0
-756 755 0
-756 348 0
757 -724 -293 0
-757 724 0
-757 293 0
758 -730 -451 0
-758 730 0
-758 451 0
759 -715 -246 0
-759 715 0
-759 246 0
-760 246 759 0
760 -246 0
760 -759 0
761 -760 -226 0
-761 760 0
-761 226 0
762 -761 -528 0
-762 761 0
-762 528 0
763 -762 -392 0
-763 762 0
-763 392 0
-764 386 694 763 0
764 -386 0
764 -694 0
764 -763 0
-765 738 743 686 0
765 -738 0
765 -743 0
765 -686 0
766 -765 -319 0
-766 765 0
-766 319 0
-767 319 766 0
767 -319 0
767 -766 0
-768 708 714 724 726 727 728 730 697 733 756 757 758 764 729 767 723 707 732 0
768 -708 0
768 -714 0
768 -724 0
768 -726 0
768 -727 0
768 -728 0
768 -730 0
768 -697 0
768 -733 0
768 -756 0
768 -757 0
768 -758 0
768 -764 0
768 -729 0
768 -767 0
768 -723 0
768 -707 0
768 -732 0
769 -412 -421 0
-769 412 0
-769 421 0
770 -431 -498 0
-770 431 0
-770 498 0
-771 769 770 0
771 -769 0
771 -770 0
772 -771 -502 0
-772 771 0
-772 502 0
-773 502 772 0
773 -502 0
773 -772 0
774 -773 -511 0
-774 773 0
-774 511 0
775 -774 -520 0
-775 774 0
-775 520 0
776 -502 -426 0
-776 502 0
-776 426 0
-777 776 770 0
777 -776 0
777 -770 0
778 -777 -412 0
-778 777 0
-778 412 0
-779 412 778 0
779 -412 0
779 -778 0
780 -779 -524 0
-780 779 0
-780 524 0
-781 775 780 0
781 -775 0
781 -780 0
782 -781 -534 0
-782 781 0
-782 534 0
783 -782 -544 0
-783 782 0
-783 544 0
784 -770 -502 0
-784 770 0
-784 502 0
-785 502 784 0
785 -502 0
785 -784 0
786 -785 -511 0
-786 785 0
-786 511 0
787 -786 -520 0
-787 786 0
-787 520 0
788 -787 -417 0
-788 787 0
-788 417 0
-789 412 778 788 0
789 -412 0
789 -778 0
789 -788 0
790 -789 -555 0
-790 789 0
-790 555 0
-791 783 790 0
791 -783 0
791 -790 0
792 -791 -566 0
-792 791 0
-792 566 0
793 -412 -555 0
-793 412 0
-793 555 0
794 -793 -540 0
-794 793 0
-794 540 0
795 -794 -402 0
-795 794 0
-795 402 0
796 -793 -407 0
-796 793 0
-796 407 0
-797 412 796 0
797 -412 0
797 -796 0
798 -797 -524 0
-798 797 0
-798 524 0
-799 795 798 0
799 -795 0
799 -798 0
800 -799 -516 0
-800 799 0
-800 516 0
801 -800 -507 0
-801 800 0
-801 507 0
-802 502 801 0
802 -502 0
802 -801 0
803 -802 -426 0
-803 802 0
-803 426 0
804 -502 -511 0
-804 502 0
-804 511 0
805 -804 -520 0
-805 804 0
-805 520 0
806 -805 -534 0
-806 805 0
-806 534 0
807 -806 -544 0
-807 806 0
-807 544 0
808 -807 -407 0
-808 807 0
-808 407 0
-809 805 795 0
809 -805 0
809 -795 0
810 -809 -417 0
-810 809 0
-810 417 0
-811 412 808 810 0
811 -412 0
811 -808 0
811 -810 0
812 -811 -421 0
-812 811 0
-812 421 0
-813 803 812 0
813 -803 0
813 -812 0
814 -813 -431 0
-814 813 0
-814 431 0
-815 431 814 0
815 -431 0
815 -814 0
816 -815 -436 0
-816 815 0
-816 436 0
817 -797 -421 0
-817 797 0
-817 421 0
-818 817 770 0
818 -817 0
818 -770 0
819 -818 -502 0
-819 818 0
-819 502 0
-820 502 819 0
820 -502 0
820 -819 0
821 -820 -511 0
-821 820 0
-821 511 0
822 -821 -520 0
-822 821 0
-822 520 0
823 -779 -555 0
-823 779 0
-823 555 0
824 -823 -540 0
-824 823 0
-824 540 0
825 -824 -402 0
-825 824 0
-825 402 0
-826 822 825 780 0
826 -822 0
826 -825 0
826 -780 0
827 -826 -221 0
-827 826 0
-827 221 0
828 -827 -240 0
-828 827 0
-828 240 0
829 -826 -392 0
-829 826 0
-829 392 0
830 -829 -328 0
-830 829 0
-830 328 0
831 -830 -246 0
-831 830 0
-831 246 0
-832 828 831 0
832 -828 0
832 -831 0
833 -832 -251 0
-833 832 0
-833 251 0
834 -833 -256 0
-834 833 0
-834 256 0
835 -834 -261 0
-835 834 0
-835 261 0
-836 812 770 0
836 -812 0
836 -770 0
837 -836 -502 0
-837 836 0
-837 502 0
838 -770 -412 0
-838 770 0
-838 412 0
-839 412 838 0
839 -412 0
839 -838 0
840 -839 -555 0
-840 839 0
-840 555 0
841 -840 -540 0
-841 840 0
-841 540 0
842 -841 -402 0
-842 841 0
-842 402 0
843 -839 -524 0
-843 839 0
-843 524 0
-844 842 843 0
844 -842 0
844 -843 0
845 -844 -516 0
-845 844 0
-845 516 0
846 -845 -507 0
-846 845 0
-846 507 0
-847 502 837 846 0
847 -502 0
847 -837 0
847 -846 0
848 -835 -266 0
-848 835 0
-848 266 0
849 -848 -271 0
-849 848 0
-849 271 0
850 -816 -441 0
-850 816 0
-850 441 0
851 -850 -446 0
-851 850 0
-851 446 0
852 -815 -472 0
-852 815 0
-852 472 0
853 -852 -477 0
-853 852 0
-853 477 0
854 -853 -482 0
-854 853 0
-854 482 0
855 -828 -313 0
-855 828 0
-855 313 0
-856 855 830 0
856 -855 0
856 -830 0
857 -856 -333 0
-857 856 0
-857 333 0
858 -857 -338 0
-858 857 0
-858 338 0
859 -858 -343 0
-859 858 0
-859 343 0
860 -858 -366 0
-860 858 0
-860 366 0
861 -860 -357 0
-861 860 0
-861 357 0
-862 859 861 0
862 -859 0
862 -861 0
863 -862 -348 0
-863 862 0
-863 348 0
864 -835 -293 0
-864 835 0
-864 293 0
865 -851 -451 0
-865 851 0
-865 451 0
866 -855 -386 0
-866 855 0
-866 386 0
-867 866 829 0
867 -866 0
867 -829 0
868 -856 -319 0
-868 856 0
-868 319 0
-869 792 816 835 847 848 849 851 826 854 863 864 865 867 850 868 834 791 853 0
869 -792 0
869 -816 0
869 -835 0
869 -847 0
869 -848 0
869 -849 0
869 -851 0
869 -826 0
869 -854 0
869 -863 0
869 -864 0
869 -865 0
869 -867 0
869 -850 0
869 -868 0
869 -834 0
869 -791 0
869 -853 0
870 -603 -871 0
-870 603 0
-870 871 0
872 603 871 0
-872 -603 0
-872 -871 0
-873 870 872 0
873 -870 0
873 -872 0
874 -683 -875 0
-874 683 0
-874 875 0
876 683 875 0
-876 -683 0
-876 -875 0
-877 874 876 0
877 -874 0
877 -876 0
878 -768 -879 0
-878 768 0
-878 879 0
880 768 879 0
-880 -768 0
-880 -879 0
-881 878 880 0
881 -878 0
881 -880 0
882 -869 -883 0
-882 869 0
-882 883 0
884 869 883 0
-884 -869 0
-884 -883 0
-885 882 884 0
885 -882 0
885 -884 0
873 0
877 0
881 0
885 0
