c BC-S1.2
p cnf 550 1175
1 -2 -3 0
-1 2 0
-1 3 0
-4 1 5 0
4 -1 0
4 -5 0
6 -7 -8 0
-6 7 0
-6 8 0
-9 6 10 0
9 -6 0
9 -10 0
11 -12 -13 0
-11 12 0
-11 13 0
-14 11 15 0
14 -11 0
14 -15 0
16 -12 -17 0
-16 12 0
-16 17 0
-18 16 19 0
18 -16 0
18 -19 0
20 -21 -22 0
-20 21 0
-20 22 0
-23 20 24 0
23 -20 0
23 -24 0
25 -7 -26 0
-25 7 0
-25 26 0
-27 25 28 0
27 -25 0
27 -28 0
29 -30 -31 0
-29 30 0
-29 31 0
-32 29 33 0
32 -29 0
32 -33 0
34 -35 -36 0
-34 35 0
-34 36 0
-37 34 38 0
37 -34 0
37 -38 0
39 -30 -40 0
-39 30 0
-39 40 0
-41 39 42 0
41 -39 0
41 -42 0
43 -32 -41 0
-43 32 0
-43 41 0
44 -2 -45 0
-44 2 0
-44 45 0
-46 44 47 0
46 -44 0
46 -47 0
48 -49 -50 0
-48 49 0
-48 50 0
-51 48 52 0
51 -48 0
51 -52 0
53 -54 -55 0
-53 54 0
-53 55 0
-56 53 57 0
56 -53 0
56 -57 0
58 -49 -59 0
-58 49 0
-58 59 0
-60 58 61 0
60 -58 0
60 -61 0
62 -51 -60 0
-62 51 0
-62 60 0
-63 43 62 0
63 -43 0
63 -62 0
64 -63 -9 0
-64 63 0
-64 9 0
-65 9 64 0
65 -9 0
65 -64 0
66 -21 -67 0
-66 21 0
-66 67 0
-68 66 69 0
68 -66 0
68 -69 0
70 -65 -68 0
-70 65 0
-70 68 0
71 -72 -73 0
-71 72 0
-71 73 0
-74 71 75 0
74 -71 0
74 -75 0
76 -77 -78 0
-76 77 0
-76 78 0
-79 76 80 0
79 -76 0
79 -80 0
81 -72 -82 0
-81 72 0
-81 82 0
-83 81 84 0
83 -81 0
83 -84 0
85 -70 -83 0
-85 70 0
-85 83 0
86 -87 -88 0
-86 87 0
-86 88 0
-89 86 90 0
89 -86 0
89 -90 0
91 -87 -92 0
-91 87 0
-91 92 0
-93 91 94 0
93 -91 0
93 -94 0
95 -85 -93 0
-95 85 0
-95 93 0
96 -97 -98 0
-96 97 0
-96 98 0
-99 96 100 0
99 -96 0
99 -100 0
101 -97 -102 0
-101 97 0
-101 102 0
-103 101 104 0
103 -101 0
103 -104 0
105 -95 -103 0
-105 95 0
-105 103 0
106 -107 -108 0
-106 107 0
-106 108 0
-109 106 110 0
109 -106 0
109 -110 0
111 -77 -112 0
-111 77 0
-111 112 0
-113 111 114 0
113 -111 0
113 -114 0
115 -70 -113 0
-115 70 0
-115 113 0
-116 105 115 0
116 -105 0
116 -115 0
117 -107 -118 0
-117 107 0
-117 118 0
-119 117 120 0
119 -117 0
119 -120 0
121 -116 -119 0
-121 116 0
-121 119 0
122 -123 -124 0
-122 123 0
-122 124 0
-125 122 126 0
125 -122 0
125 -126 0
127 -123 -128 0
-127 123 0
-127 128 0
-129 127 130 0
129 -127 0
129 -130 0
131 -121 -129 0
-131 121 0
-131 129 0
132 -133 -134 0
-132 133 0
-132 134 0
-135 132 136 0
135 -132 0
135 -136 0
137 -133 -138 0
-137 133 0
-137 138 0
-139 137 140 0
139 -137 0
139 -140 0
141 -142 -143 0
-141 142 0
-141 143 0
-144 141 145 0
144 -141 0
144 -145 0
146 -142 -147 0
-146 142 0
-146 147 0
-148 146 149 0
148 -146 0
148 -149 0
150 -131 -148 0
-150 131 0
-150 148 0
151 -152 -153 0
-151 152 0
-151 153 0
-154 151 155 0
154 -151 0
154 -155 0
156 -152 -157 0
-156 152 0
-156 157 0
-158 156 159 0
158 -156 0
158 -159 0
160 -150 -158 0
-160 150 0
-160 158 0
161 -162 -163 0
-161 162 0
-161 163 0
-164 161 165 0
164 -161 0
164 -165 0
166 -167 -168 0
-166 167 0
-166 168 0
-169 166 170 0
169 -166 0
169 -170 0
171 -172 -173 0
-171 172 0
-171 173 0
-174 171 175 0
174 -171 0
174 -175 0
176 -172 -177 0
-176 172 0
-176 177 0
-178 176 179 0
178 -176 0
178 -179 0
180 -167 -181 0
-180 167 0
-180 181 0
-182 180 183 0
182 -180 0
182 -183 0
184 -162 -185 0
-184 162 0
-184 185 0
-186 184 187 0
186 -184 0
186 -187 0
188 -160 -186 0
-188 160 0
-188 186 0
189 -190 -191 0
-189 190 0
-189 191 0
-192 189 193 0
192 -189 0
192 -193 0
194 -195 -196 0
-194 195 0
-194 196 0
-197 194 198 0
197 -194 0
197 -198 0
199 -200 -201 0
-199 200 0
-199 201 0
-202 199 203 0
202 -199 0
202 -203 0
204 -205 -206 0
-204 205 0
-204 206 0
-207 204 208 0
207 -204 0
207 -208 0
209 -205 -210 0
-209 205 0
-209 210 0
-211 209 212 0
211 -209 0
211 -212 0
213 -200 -214 0
-213 200 0
-213 214 0
-215 213 216 0
215 -213 0
215 -216 0
217 -218 -219 0
-217 218 0
-217 219 0
-220 217 221 0
220 -217 0
220 -221 0
222 -223 -224 0
-222 223 0
-222 224 0
-225 222 226 0
225 -222 0
225 -226 0
227 -228 -229 0
-227 228 0
-227 229 0
-230 227 231 0
230 -227 0
230 -231 0
232 -233 -234 0
-232 233 0
-232 234 0
-235 232 236 0
235 -232 0
235 -236 0
237 -233 -238 0
-237 233 0
-237 238 0
-239 237 240 0
239 -237 0
239 -240 0
241 -242 -243 0
-241 242 0
-241 243 0
-244 241 245 0
244 -241 0
244 -245 0
246 -242 -247 0
-246 242 0
-246 247 0
-248 246 249 0
248 -246 0
248 -249 0
250 -228 -251 0
-250 228 0
-250 251 0
-252 250 253 0
252 -250 0
252 -253 0
254 -223 -255 0
-254 223 0
-254 255 0
-256 254 257 0
256 -254 0
256 -257 0
258 -218 -259 0
-258 218 0
-258 259 0
-260 258 261 0
260 -258 0
260 -261 0
262 -195 -263 0
-262 195 0
-262 263 0
-264 262 265 0
264 -262 0
264 -265 0
266 -190 -267 0
-266 190 0
-266 267 0
-268 266 269 0
268 -266 0
268 -269 0
270 -188 -268 0
-270 188 0
-270 268 0
271 -272 -273 0
-271 272 0
-271 273 0
-274 271 275 0
274 -271 0
274 -275 0
276 -277 -278 0
-276 277 0
-276 278 0
-279 276 280 0
279 -276 0
279 -280 0
281 -277 -282 0
-281 277 0
-281 282 0
-283 281 284 0
283 -281 0
283 -284 0
285 -272 -286 0
-285 272 0
-285 286 0
-287 285 288 0
287 -285 0
287 -288 0
289 -270 -287 0
-289 270 0
-289 287 0
290 -9 -27 0
-290 9 0
-290 27 0
-291 290 62 0
291 -290 0
291 -62 0
292 -291 -32 0
-292 291 0
-292 32 0
-293 32 292 0
293 -32 0
293 -292 0
294 -35 -295 0
-294 35 0
-294 295 0
-296 294 297 0
296 -294 0
296 -297 0
298 -293 -296 0
-298 293 0
-298 296 0
299 -300 -301 0
-299 300 0
-299 301 0
-302 299 303 0
302 -299 0
302 -303 0
-304 289 298 0
304 -289 0
304 -298 0
305 -300 -306 0
-305 300 0
-305 306 0
-307 305 308 0
307 -305 0
307 -308 0
309 -304 -307 0
-309 304 0
-309 307 0
310 -32 -296 0
-310 32 0
-310 296 0
311 -310 -274 0
-311 310 0
-311 274 0
312 -311 -192 0
-312 311 0
-312 192 0
313 -312 -164 0
-313 312 0
-313 164 0
314 -313 -154 0
-314 313 0
-314 154 0
315 -314 -144 0
-315 314 0
-315 144 0
316 -315 -125 0
-316 315 0
-316 125 0
317 -316 -109 0
-317 316 0
-317 109 0
318 -317 -99 0
-318 317 0
-318 99 0
319 -318 -89 0
-319 318 0
-319 89 0
320 -319 -74 0
-320 319 0
-320 74 0
321 -317 -79 0
-321 317 0
-321 79 0
-322 320 321 0
322 -320 0
322 -321 0
323 -322 -23 0
-323 322 0
-323 23 0
-324 9 323 0
324 -9 0
324 -323 0
325 -324 -27 0
-325 324 0
-325 27 0
326 -9 -68 0
-326 9 0
-326 68 0
327 -326 -83 0
-327 326 0
-327 83 0
328 -327 -93 0
-328 327 0
-328 93 0
329 -328 -103 0
-329 328 0
-329 103 0
330 -326 -113 0
-330 326 0
-330 113 0
-331 329 330 0
331 -329 0
331 -330 0
332 -331 -119 0
-332 331 0
-332 119 0
333 -332 -129 0
-333 332 0
-333 129 0
334 -333 -148 0
-334 333 0
-334 148 0
335 -334 -158 0
-335 334 0
-335 158 0
336 -335 -186 0
-336 335 0
-336 186 0
337 -336 -268 0
-337 336 0
-337 268 0
338 -337 -287 0
-338 337 0
-338 287 0
-339 338 310 0
339 -338 0
339 -310 0
340 -339 -37 0
-340 339 0
-340 37 0
-341 32 340 0
341 -32 0
341 -340 0
342 -341 -41 0
-342 341 0
-342 41 0
-343 325 342 62 0
343 -325 0
343 -342 0
343 -62 0
344 -343 -4 0
-344 343 0
-344 4 0
-345 325 342 0
345 -325 0
345 -342 0
346 -345 -51 0
-346 345 0
-346 51 0
-347 51 346 0
347 -51 0
347 -346 0
348 -54 -349 0
-348 54 0
-348 349 0
-350 348 351 0
350 -348 0
350 -351 0
352 -347 -350 0
-352 347 0
-352 350 0
-353 4 309 344 352 0
353 -4 0
353 -309 0
353 -344 0
353 -352 0
354 -14 -18 0
-354 14 0
-354 18 0
355 -27 -9 0
-355 27 0
-355 9 0
-356 354 355 0
356 -354 0
356 -355 0
357 -356 -68 0
-357 356 0
-357 68 0
-358 68 357 0
358 -68 0
358 -357 0
359 -358 -83 0
-359 358 0
-359 83 0
360 -359 -93 0
-360 359 0
-360 93 0
361 -360 -103 0
-361 360 0
-361 103 0
362 -358 -113 0
-362 358 0
-362 113 0
-363 361 362 0
363 -361 0
363 -362 0
364 -363 -119 0
-364 363 0
-364 119 0
365 -364 -129 0
-365 364 0
-365 129 0
366 -365 -148 0
-366 365 0
-366 148 0
367 -366 -158 0
-367 366 0
-367 158 0
368 -367 -186 0
-368 367 0
-368 186 0
369 -368 -268 0
-369 368 0
-369 268 0
370 -369 -287 0
-370 369 0
-370 287 0
371 -367 -154 0
-371 367 0
-371 154 0
-372 366 371 0
372 -366 0
372 -371 0
373 -372 -144 0
-373 372 0
-373 144 0
-374 365 373 0
374 -365 0
374 -373 0
375 -374 -125 0
-375 374 0
-375 125 0
-376 364 375 0
376 -364 0
376 -375 0
377 -376 -109 0
-377 376 0
-377 109 0
-378 361 377 362 0
378 -361 0
378 -377 0
378 -362 0
379 -378 -99 0
-379 378 0
-379 99 0
380 -379 -89 0
-380 379 0
-380 89 0
381 -380 -74 0
-381 380 0
-381 74 0
382 -361 -79 0
-382 361 0
-382 79 0
-383 68 357 381 382 0
383 -68 0
383 -357 0
383 -381 0
383 -382 0
384 -383 -23 0
-384 383 0
-384 23 0
-385 354 384 355 0
385 -354 0
385 -384 0
385 -355 0
386 -385 -27 0
-386 385 0
-386 27 0
-387 27 386 0
387 -27 0
387 -386 0
388 -387 -32 0
-388 387 0
-388 32 0
389 -388 -296 0
-389 388 0
-389 296 0
-390 370 389 0
390 -370 0
390 -389 0
391 -390 -307 0
-391 390 0
-391 307 0
392 -68 -23 0
-392 68 0
-392 23 0
-393 354 392 0
393 -354 0
393 -392 0
394 -393 -27 0
-394 393 0
-394 27 0
395 -370 -37 0
-395 370 0
-395 37 0
396 -395 -41 0
-396 395 0
-396 41 0
-397 27 394 396 0
397 -27 0
397 -394 0
397 -396 0
398 -397 -51 0
-398 397 0
-398 51 0
399 -398 -350 0
-399 398 0
-399 350 0
400 -397 -4 0
-400 397 0
-400 4 0
-401 391 399 400 0
401 -391 0
401 -399 0
401 -400 0
402 -37 -296 0
-402 37 0
-402 296 0
403 -402 -274 0
-403 402 0
-403 274 0
-404 274 403 0
404 -274 0
404 -403 0
405 -404 -192 0
-405 404 0
-405 192 0
406 -405 -164 0
-406 405 0
-406 164 0
407 -406 -154 0
-407 406 0
-407 154 0
408 -407 -144 0
-408 407 0
-408 144 0
409 -408 -125 0
-409 408 0
-409 125 0
410 -409 -109 0
-410 409 0
-410 109 0
411 -410 -99 0
-411 410 0
-411 99 0
412 -411 -89 0
-412 411 0
-412 89 0
413 -412 -74 0
-413 412 0
-413 74 0
414 -410 -79 0
-414 410 0
-414 79 0
-415 413 414 0
415 -413 0
415 -414 0
416 -415 -23 0
-416 415 0
-416 23 0
417 -416 -27 0
-417 416 0
-417 27 0
418 -274 -287 0
-418 274 0
-418 287 0
419 -418 -37 0
-419 418 0
-419 37 0
-420 37 419 0
420 -37 0
420 -419 0
421 -420 -41 0
-421 420 0
-421 41 0
-422 417 421 0
422 -417 0
422 -421 0
423 -422 -4 0
-423 422 0
-423 4 0
424 -422 -51 0
-424 422 0
-424 51 0
425 -424 -350 0
-425 424 0
-425 350 0
426 -274 -192 0
-426 274 0
-426 192 0
427 -426 -164 0
-427 426 0
-427 164 0
428 -427 -154 0
-428 427 0
-428 154 0
429 -428 -144 0
-429 428 0
-429 144 0
430 -429 -125 0
-430 429 0
-430 125 0
431 -430 -109 0
-431 430 0
-431 109 0
432 -431 -99 0
-432 431 0
-432 99 0
433 -432 -89 0
-433 432 0
-433 89 0
434 -433 -74 0
-434 433 0
-434 74 0
435 -431 -79 0
-435 431 0
-435 79 0
-436 434 435 0
436 -434 0
436 -435 0
437 -436 -23 0
-437 436 0
-437 23 0
438 -437 -27 0
-438 437 0
-438 27 0
439 -438 -32 0
-439 438 0
-439 32 0
-440 37 439 0
440 -37 0
440 -439 0
441 -440 -296 0
-441 440 0
-441 296 0
442 -37 -41 0
-442 37 0
-442 41 0
443 -442 -9 0
-443 442 0
-443 9 0
444 -443 -68 0
-444 443 0
-444 68 0
445 -444 -83 0
-445 444 0
-445 83 0
446 -445 -93 0
-446 445 0
-446 93 0
447 -446 -103 0
-447 446 0
-447 103 0
448 -444 -113 0
-448 444 0
-448 113 0
-449 447 448 0
449 -447 0
449 -448 0
450 -449 -119 0
-450 449 0
-450 119 0
451 -450 -129 0
-451 450 0
-451 129 0
452 -451 -148 0
-452 451 0
-452 148 0
453 -452 -158 0
-453 452 0
-453 158 0
454 -453 -186 0
-454 453 0
-454 186 0
455 -454 -268 0
-455 454 0
-455 268 0
-456 274 455 0
456 -274 0
456 -455 0
457 -456 -287 0
-457 456 0
-457 287 0
-458 441 457 0
458 -441 0
458 -457 0
459 -458 -307 0
-459 458 0
-459 307 0
-460 307 423 425 459 0
460 -307 0
460 -423 0
460 -425 0
460 -459 0
461 -202 -215 0
-461 202 0
-461 215 0
462 -220 -260 0
-462 220 0
-462 260 0
-463 461 462 0
463 -461 0
463 -462 0
464 -463 -264 0
-464 463 0
-464 264 0
-465 264 464 0
465 -264 0
465 -464 0
466 -465 -164 0
-466 465 0
-466 164 0
467 -466 -154 0
-467 466 0
-467 154 0
468 -467 -144 0
-468 467 0
-468 144 0
469 -468 -125 0
-469 468 0
-469 125 0
470 -469 -109 0
-470 469 0
-470 109 0
471 -470 -79 0
-471 470 0
-471 79 0
472 -470 -99 0
-472 470 0
-472 99 0
473 -472 -89 0
-473 472 0
-473 89 0
474 -473 -74 0
-474 473 0
-474 74 0
-475 471 474 0
475 -471 0
475 -474 0
476 -475 -23 0
-476 475 0
-476 23 0
477 -476 -27 0
-477 476 0
-477 27 0
478 -477 -32 0
-478 477 0
-478 32 0
479 -478 -296 0
-479 478 0
-479 296 0
480 -465 -268 0
-480 465 0
-480 268 0
481 -480 -287 0
-481 480 0
-481 287 0
-482 479 481 0
482 -479 0
482 -481 0
483 -482 -307 0
-483 482 0
-483 307 0
484 -481 -37 0
-484 481 0
-484 37 0
485 -484 -41 0
-485 484 0
-485 41 0
-486 477 485 0
486 -477 0
486 -485 0
487 -486 -51 0
-487 486 0
-487 51 0
488 -487 -350 0
-488 487 0
-488 350 0
489 -486 -4 0
-489 486 0
-489 4 0
-490 483 488 489 0
490 -483 0
490 -488 0
490 -489 0
491 -93 -89 0
-491 93 0
-491 89 0
492 -491 -74 0
-492 491 0
-492 74 0
-493 74 492 0
493 -74 0
493 -492 0
494 -493 -113 0
-494 493 0
-494 113 0
495 -74 -83 0
-495 74 0
-495 83 0
496 -495 -93 0
-496 495 0
-496 93 0
-497 93 496 0
497 -93 0
497 -496 0
498 -497 -103 0
-498 497 0
-498 103 0
-499 494 498 0
499 -494 0
499 -498 0
500 -499 -119 0
-500 499 0
-500 119 0
501 -500 -129 0
-501 500 0
-501 129 0
502 -501 -148 0
-502 501 0
-502 148 0
503 -502 -158 0
-503 502 0
-503 158 0
504 -503 -186 0
-504 503 0
-504 186 0
505 -504 -268 0
-505 504 0
-505 268 0
506 -505 -287 0
-506 505 0
-506 287 0
507 -498 -99 0
-507 498 0
-507 99 0
-508 93 507 0
508 -93 0
508 -507 0
509 -508 -89 0
-509 508 0
-509 89 0
510 -509 -74 0
-510 509 0
-510 74 0
511 -498 -79 0
-511 498 0
-511 79 0
-512 74 510 511 0
512 -74 0
512 -510 0
512 -511 0
513 -512 -23 0
-513 512 0
-513 23 0
514 -513 -27 0
-514 513 0
-514 27 0
515 -514 -32 0
-515 514 0
-515 32 0
516 -515 -296 0
-516 515 0
-516 296 0
-517 506 516 0
517 -506 0
517 -516 0
518 -517 -307 0
-518 517 0
-518 307 0
519 -93 -103 0
-519 93 0
-519 103 0
520 -519 -79 0
-520 519 0
-520 79 0
-521 74 492 520 0
521 -74 0
521 -492 0
521 -520 0
522 -521 -23 0
-522 521 0
-522 23 0
523 -522 -27 0
-523 522 0
-523 27 0
524 -506 -37 0
-524 506 0
-524 37 0
525 -524 -41 0
-525 524 0
-525 41 0
-526 523 525 0
526 -523 0
526 -525 0
527 -526 -4 0
-527 526 0
-527 4 0
528 -526 -51 0
-528 526 0
-528 51 0
529 -528 -350 0
-529 528 0
-529 350 0
-530 518 527 529 0
530 -518 0
530 -527 0
530 -529 0
531 -353 -532 0
-531 353 0
-531 532 0
533 353 532 0
-533 -353 0
-533 -532 0
-534 531 533 0
534 -531 0
534 -533 0
535 -401 -536 0
-535 401 0
-535 536 0
537 401 536 0
-537 -401 0
-537 -536 0
-538 535 537 0
538 -535 0
538 -537 0
539 -460 -540 0
-539 460 0
-539 540 0
541 460 540 0
-541 -460 0
-541 -540 0
-542 539 541 0
542 -539 0
542 -541 0
543 -490 -544 0
-543 490 0
-543 544 0
545 490 544 0
-545 -490 0
-545 -544 0
-546 543 545 0
546 -543 0
546 -545 0
547 -530 -548 0
-547 530 0
-547 548 0
549 530 548 0
-549 -530 0
-549 -548 0
-550 547 549 0
550 -547 0
550 -549 0
534 0
538 0
542 0
546 0
550 0
