c BC-S1.2
p cnf 1780 5234
1 -2 -3 0
-1 2 0
-1 3 0
4 -5 -6 0
-4 5 0
-4 6 0
7 -8 -9 0
-7 8 0
-7 9 0
-10 1 4 7 0
10 -1 0
10 -4 0
10 -7 0
11 -12 -10 0
-11 12 0
-11 10 0
13 -11 -14 0
-13 11 0
-13 14 0
15 -2 -16 0
-15 2 0
-15 16 0
17 -5 -18 0
-17 5 0
-17 18 0
19 -8 -20 0
-19 8 0
-19 20 0
-21 15 17 19 0
21 -15 0
21 -17 0
21 -19 0
22 -12 -21 0
-22 12 0
-22 21 0
23 -22 -24 0
-23 22 0
-23 24 0
25 -2 -26 0
-25 2 0
-25 26 0
27 -5 -28 0
-27 5 0
-27 28 0
29 -8 -30 0
-29 8 0
-29 30 0
-31 25 27 29 0
31 -25 0
31 -27 0
31 -29 0
32 -12 -31 0
-32 12 0
-32 31 0
33 -32 -34 0
-33 32 0
-33 34 0
35 -2 -36 0
-35 2 0
-35 36 0
37 -5 -38 0
-37 5 0
-37 38 0
39 -8 -40 0
-39 8 0
-39 40 0
-41 35 37 39 0
41 -35 0
41 -37 0
41 -39 0
42 -12 -41 0
-42 12 0
-42 41 0
43 -42 -44 0
-43 42 0
-43 44 0
45 12 -10 0
-45 -12 0
-45 10 0
46 -45 -47 0
-46 45 0
-46 47 0
48 12 -21 0
-48 -12 0
-48 21 0
49 -48 -50 0
-49 48 0
-49 50 0
51 12 -31 0
-51 -12 0
-51 31 0
52 -51 -53 0
-52 51 0
-52 53 0
54 12 -41 0
-54 -12 0
-54 41 0
55 -54 -56 0
-55 54 0
-55 56 0
-57 13 23 33 43 46 49 52 55 0
57 -13 0
57 -23 0
57 -33 0
57 -43 0
57 -46 0
57 -49 0
57 -52 0
57 -55 0
58 -59 -57 0
-58 59 0
-58 57 0
60 -61 -58 0
-60 61 0
-60 58 0
62 -60 -63 0
-62 60 0
-62 63 0
64 -11 -65 0
-64 11 0
-64 65 0
66 -22 -67 0
-66 22 0
-66 67 0
68 -32 -69 0
-68 32 0
-68 69 0
70 -42 -71 0
-70 42 0
-70 71 0
72 -45 -73 0
-72 45 0
-72 73 0
74 -48 -75 0
-74 48 0
-74 75 0
76 -51 -77 0
-76 51 0
-76 77 0
78 -54 -79 0
-78 54 0
-78 79 0
-80 64 66 68 70 72 74 76 78 0
80 -64 0
80 -66 0
80 -68 0
80 -70 0
80 -72 0
80 -74 0
80 -76 0
80 -78 0
81 -59 -80 0
-81 59 0
-81 80 0
82 -61 -81 0
-82 61 0
-82 81 0
83 -82 -84 0
-83 82 0
-83 84 0
85 -11 -86 0
-85 11 0
-85 86 0
87 -22 -88 0
-87 22 0
-87 88 0
89 -32 -90 0
-89 32 0
-89 90 0
91 -42 -92 0
-91 42 0
-91 92 0
93 -45 -94 0
-93 45 0
-93 94 0
95 -48 -96 0
-95 48 0
-95 96 0
97 -51 -98 0
-97 51 0
-97 98 0
99 -54 -100 0
-99 54 0
-99 100 0
-101 85 87 89 91 93 95 97 99 0
101 -85 0
101 -87 0
101 -89 0
101 -91 0
101 -93 0
101 -95 0
101 -97 0
101 -99 0
102 -59 -101 0
-102 59 0
-102 101 0
103 -61 -102 0
-103 61 0
-103 102 0
104 -103 -105 0
-104 103 0
-104 105 0
106 -11 -107 0
-106 11 0
-106 107 0
108 -22 -109 0
-108 22 0
-108 109 0
110 -32 -111 0
-110 32 0
-110 111 0
112 -42 -113 0
-112 42 0
-112 113 0
114 -45 -115 0
-114 45 0
-114 115 0
116 -48 -117 0
-116 48 0
-116 117 0
118 -51 -119 0
-118 51 0
-118 119 0
120 -54 -121 0
-120 54 0
-120 121 0
-122 106 108 110 112 114 116 118 120 0
122 -106 0
122 -108 0
122 -110 0
122 -112 0
122 -114 0
122 -116 0
122 -118 0
122 -120 0
123 -59 -122 0
-123 59 0
-123 122 0
124 -61 -123 0
-124 61 0
-124 123 0
125 -124 -126 0
-125 124 0
-125 126 0
127 59 -57 0
-127 -59 0
-127 57 0
128 -61 -127 0
-128 61 0
-128 127 0
129 -128 -130 0
-129 128 0
-129 130 0
131 59 -80 0
-131 -59 0
-131 80 0
132 -61 -131 0
-132 61 0
-132 131 0
133 -132 -134 0
-133 132 0
-133 134 0
135 59 -101 0
-135 -59 0
-135 101 0
136 -61 -135 0
-136 61 0
-136 135 0
137 -136 -138 0
-137 136 0
-137 138 0
139 59 -122 0
-139 -59 0
-139 122 0
140 -61 -139 0
-140 61 0
-140 139 0
141 -140 -142 0
-141 140 0
-141 142 0
143 -144 -58 0
-143 144 0
-143 58 0
145 -143 -146 0
-145 143 0
-145 146 0
147 -144 -81 0
-147 144 0
-147 81 0
148 -147 -149 0
-148 147 0
-148 149 0
150 -144 -102 0
-150 144 0
-150 102 0
151 -150 -152 0
-151 150 0
-151 152 0
153 -144 -123 0
-153 144 0
-153 123 0
154 -153 -155 0
-154 153 0
-154 155 0
156 -144 -127 0
-156 144 0
-156 127 0
157 -156 -158 0
-157 156 0
-157 158 0
159 -144 -131 0
-159 144 0
-159 131 0
160 -159 -161 0
-160 159 0
-160 161 0
162 -144 -135 0
-162 144 0
-162 135 0
163 -162 -164 0
-163 162 0
-163 164 0
165 -144 -139 0
-165 144 0
-165 139 0
166 -165 -167 0
-166 165 0
-166 167 0
168 -169 -58 0
-168 169 0
-168 58 0
170 -168 -171 0
-170 168 0
-170 171 0
172 -169 -81 0
-172 169 0
-172 81 0
173 -172 -174 0
-173 172 0
-173 174 0
175 -169 -102 0
-175 169 0
-175 102 0
176 -175 -177 0
-176 175 0
-176 177 0
178 -169 -123 0
-178 169 0
-178 123 0
179 -178 -180 0
-179 178 0
-179 180 0
181 -169 -127 0
-181 169 0
-181 127 0
182 -181 -183 0
-182 181 0
-182 183 0
184 -169 -131 0
-184 169 0
-184 131 0
185 -184 -186 0
-185 184 0
-185 186 0
187 -169 -135 0
-187 169 0
-187 135 0
188 -187 -189 0
-188 187 0
-188 189 0
190 -169 -139 0
-190 169 0
-190 139 0
191 -190 -192 0
-191 190 0
-191 192 0
-193 62 83 104 125 129 133 137 141 145 148 151 154 157 160 163 166 170 173 176 179 182 185 188 191 0
193 -62 0
193 -83 0
193 -104 0
193 -125 0
193 -129 0
193 -133 0
193 -137 0
193 -141 0
193 -145 0
193 -148 0
193 -151 0
193 -154 0
193 -157 0
193 -160 0
193 -163 0
193 -166 0
193 -170 0
193 -173 0
193 -176 0
193 -179 0
193 -182 0
193 -185 0
193 -188 0
193 -191 0
194 -61 -193 0
-194 61 0
-194 193 0
195 -194 -196 0
-195 194 0
-195 196 0
197 -60 -198 0
-197 60 0
-197 198 0
199 -82 -200 0
-199 82 0
-199 200 0
201 -103 -202 0
-201 103 0
-201 202 0
203 -124 -204 0
-203 124 0
-203 204 0
205 -128 -206 0
-205 128 0
-205 206 0
207 -132 -208 0
-207 132 0
-207 208 0
209 -136 -210 0
-209 136 0
-209 210 0
211 -140 -212 0
-211 140 0
-211 212 0
213 -143 -214 0
-213 143 0
-213 214 0
215 -147 -216 0
-215 147 0
-215 216 0
217 -150 -218 0
-217 150 0
-217 218 0
219 -153 -220 0
-219 153 0
-219 220 0
221 -156 -222 0
-221 156 0
-221 222 0
223 -159 -224 0
-223 159 0
-223 224 0
225 -162 -226 0
-225 162 0
-225 226 0
227 -165 -228 0
-227 165 0
-227 228 0
229 -168 -230 0
-229 168 0
-229 230 0
231 -172 -232 0
-231 172 0
-231 232 0
233 -175 -234 0
-233 175 0
-233 234 0
235 -178 -236 0
-235 178 0
-235 236 0
237 -181 -238 0
-237 181 0
-237 238 0
239 -184 -240 0
-239 184 0
-239 240 0
241 -187 -242 0
-241 187 0
-241 242 0
243 -190 -244 0
-243 190 0
-243 244 0
-245 197 199 201 203 205 207 209 211 213 215 217 219 221 223 225 227 229 231 233 235 237 239 241 243 0
245 -197 0
245 -199 0
245 -201 0
245 -203 0
245 -205 0
245 -207 0
245 -209 0
245 -211 0
245 -213 0
245 -215 0
245 -217 0
245 -219 0
245 -221 0
245 -223 0
245 -225 0
245 -227 0
245 -229 0
245 -231 0
245 -233 0
245 -235 0
245 -237 0
245 -239 0
245 -241 0
245 -243 0
246 -61 -245 0
-246 61 0
-246 245 0
247 -246 -248 0
-247 246 0
-247 248 0
249 -60 -250 0
-249 60 0
-249 250 0
251 -82 -252 0
-251 82 0
-251 252 0
253 -103 -254 0
-253 103 0
-253 254 0
255 -124 -256 0
-255 124 0
-255 256 0
257 -128 -258 0
-257 128 0
-257 258 0
259 -132 -260 0
-259 132 0
-259 260 0
261 -136 -262 0
-261 136 0
-261 262 0
263 -140 -264 0
-263 140 0
-263 264 0
265 -143 -266 0
-265 143 0
-265 266 0
267 -147 -268 0
-267 147 0
-267 268 0
269 -150 -270 0
-269 150 0
-269 270 0
271 -153 -272 0
-271 153 0
-271 272 0
273 -156 -274 0
-273 156 0
-273 274 0
275 -159 -276 0
-275 159 0
-275 276 0
277 -162 -278 0
-277 162 0
-277 278 0
279 -165 -280 0
-279 165 0
-279 280 0
281 -168 -282 0
-281 168 0
-281 282 0
283 -172 -284 0
-283 172 0
-283 284 0
285 -175 -286 0
-285 175 0
-285 286 0
287 -178 -288 0
-287 178 0
-287 288 0
289 -181 -290 0
-289 181 0
-289 290 0
291 -184 -292 0
-291 184 0
-291 292 0
293 -187 -294 0
-293 187 0
-293 294 0
295 -190 -296 0
-295 190 0
-295 296 0
-297 249 251 253 255 257 259 261 263 265 267 269 271 273 275 277 279 281 283 285 287 289 291 293 295 0
297 -249 0
297 -251 0
297 -253 0
297 -255 0
297 -257 0
297 -259 0
297 -261 0
297 -263 0
297 -265 0
297 -267 0
297 -269 0
297 -271 0
297 -273 0
297 -275 0
297 -277 0
297 -279 0
297 -281 0
297 -283 0
297 -285 0
297 -287 0
297 -289 0
297 -291 0
297 -293 0
297 -295 0
298 -61 -297 0
-298 61 0
-298 297 0
299 -298 -300 0
-299 298 0
-299 300 0
301 -60 -302 0
-301 60 0
-301 302 0
303 -82 -304 0
-303 82 0
-303 304 0
305 -103 -306 0
-305 103 0
-305 306 0
307 -124 -308 0
-307 124 0
-307 308 0
309 -128 -310 0
-309 128 0
-309 310 0
311 -132 -312 0
-311 132 0
-311 312 0
313 -136 -314 0
-313 136 0
-313 314 0
315 -140 -316 0
-315 140 0
-315 316 0
317 -143 -318 0
-317 143 0
-317 318 0
319 -147 -320 0
-319 147 0
-319 320 0
321 -150 -322 0
-321 150 0
-321 322 0
323 -153 -324 0
-323 153 0
-323 324 0
325 -156 -326 0
-325 156 0
-325 326 0
327 -159 -328 0
-327 159 0
-327 328 0
329 -162 -330 0
-329 162 0
-329 330 0
331 -165 -332 0
-331 165 0
-331 332 0
333 -168 -334 0
-333 168 0
-333 334 0
335 -172 -336 0
-335 172 0
-335 336 0
337 -175 -338 0
-337 175 0
-337 338 0
339 -178 -340 0
-339 178 0
-339 340 0
341 -181 -342 0
-341 181 0
-341 342 0
343 -184 -344 0
-343 184 0
-343 344 0
345 -187 -346 0
-345 187 0
-345 346 0
347 -190 -348 0
-347 190 0
-347 348 0
-349 301 303 305 307 309 311 313 315 317 319 321 323 325 327 329 331 333 335 337 339 341 343 345 347 0
349 -301 0
349 -303 0
349 -305 0
349 -307 0
349 -309 0
349 -311 0
349 -313 0
349 -315 0
349 -317 0
349 -319 0
349 -321 0
349 -323 0
349 -325 0
349 -327 0
349 -329 0
349 -331 0
349 -333 0
349 -335 0
349 -337 0
349 -339 0
349 -341 0
349 -343 0
349 -345 0
349 -347 0
350 -61 -349 0
-350 61 0
-350 349 0
351 -350 -352 0
-351 350 0
-351 352 0
353 -144 -193 0
-353 144 0
-353 193 0
354 -353 -355 0
-354 353 0
-354 355 0
356 -144 -245 0
-356 144 0
-356 245 0
357 -356 -358 0
-357 356 0
-357 358 0
359 -144 -297 0
-359 144 0
-359 297 0
360 -359 -361 0
-360 359 0
-360 361 0
362 -144 -349 0
-362 144 0
-362 349 0
363 -362 -364 0
-363 362 0
-363 364 0
365 -169 -193 0
-365 169 0
-365 193 0
366 -365 -367 0
-366 365 0
-366 367 0
368 -169 -245 0
-368 169 0
-368 245 0
369 -368 -370 0
-369 368 0
-369 370 0
371 -169 -297 0
-371 169 0
-371 297 0
372 -371 -373 0
-372 371 0
-372 373 0
374 -169 -349 0
-374 169 0
-374 349 0
375 -374 -376 0
-375 374 0
-375 376 0
-377 195 247 299 351 354 357 360 363 366 369 372 375 0
377 -195 0
377 -247 0
377 -299 0
377 -351 0
377 -354 0
377 -357 0
377 -360 0
377 -363 0
377 -366 0
377 -369 0
377 -372 0
377 -375 0
378 -377 -379 0
-378 377 0
-378 379 0
380 -194 -381 0
-380 194 0
-380 381 0
382 -246 -383 0
-382 246 0
-382 383 0
384 -298 -385 0
-384 298 0
-384 385 0
386 -350 -387 0
-386 350 0
-386 387 0
388 -353 -389 0
-388 353 0
-388 389 0
390 -356 -391 0
-390 356 0
-390 391 0
392 -359 -393 0
-392 359 0
-392 393 0
394 -362 -395 0
-394 362 0
-394 395 0
396 -365 -397 0
-396 365 0
-396 397 0
398 -368 -399 0
-398 368 0
-398 399 0
400 -371 -401 0
-400 371 0
-400 401 0
402 -374 -403 0
-402 374 0
-402 403 0
-404 380 382 384 386 388 390 392 394 396 398 400 402 0
404 -380 0
404 -382 0
404 -384 0
404 -386 0
404 -388 0
404 -390 0
404 -392 0
404 -394 0
404 -396 0
404 -398 0
404 -400 0
404 -402 0
405 -404 -406 0
-405 404 0
-405 406 0
407 -194 -408 0
-407 194 0
-407 408 0
409 -246 -410 0
-409 246 0
-409 410 0
411 -298 -412 0
-411 298 0
-411 412 0
413 -350 -414 0
-413 350 0
-413 414 0
415 -353 -416 0
-415 353 0
-415 416 0
417 -356 -418 0
-417 356 0
-417 418 0
419 -359 -420 0
-419 359 0
-419 420 0
421 -362 -422 0
-421 362 0
-421 422 0
423 -365 -424 0
-423 365 0
-423 424 0
425 -368 -426 0
-425 368 0
-425 426 0
427 -371 -428 0
-427 371 0
-427 428 0
429 -374 -430 0
-429 374 0
-429 430 0
-431 407 409 411 413 415 417 419 421 423 425 427 429 0
431 -407 0
431 -409 0
431 -411 0
431 -413 0
431 -415 0
431 -417 0
431 -419 0
431 -421 0
431 -423 0
431 -425 0
431 -427 0
431 -429 0
432 -431 -433 0
-432 431 0
-432 433 0
434 -194 -435 0
-434 194 0
-434 435 0
436 -246 -437 0
-436 246 0
-436 437 0
438 -298 -439 0
-438 298 0
-438 439 0
440 -350 -441 0
-440 350 0
-440 441 0
442 -353 -443 0
-442 353 0
-442 443 0
444 -356 -445 0
-444 356 0
-444 445 0
446 -359 -447 0
-446 359 0
-446 447 0
448 -362 -449 0
-448 362 0
-448 449 0
450 -365 -451 0
-450 365 0
-450 451 0
452 -368 -453 0
-452 368 0
-452 453 0
454 -371 -455 0
-454 371 0
-454 455 0
456 -374 -457 0
-456 374 0
-456 457 0
-458 434 436 438 440 442 444 446 448 450 452 454 456 0
458 -434 0
458 -436 0
458 -438 0
458 -440 0
458 -442 0
458 -444 0
458 -446 0
458 -448 0
458 -450 0
458 -452 0
458 -454 0
458 -456 0
459 -458 -460 0
-459 458 0
-459 460 0
-461 378 405 432 459 0
461 -378 0
461 -405 0
461 -432 0
461 -459 0
462 463 -377 0
-462 -463 0
-462 377 0
464 463 -404 0
-464 -463 0
-464 404 0
465 -464 -466 0
-465 464 0
-465 466 0
467 463 -431 0
-467 -463 0
-467 431 0
468 463 -458 0
-468 -463 0
-468 458 0
469 -468 -470 0
-469 468 0
-469 470 0
471 -463 -377 0
-471 463 0
-471 377 0
472 -471 -473 0
-472 471 0
-472 473 0
474 -463 -404 0
-474 463 0
-474 404 0
475 -474 -476 0
-475 474 0
-475 476 0
477 -463 -431 0
-477 463 0
-477 431 0
478 -477 -479 0
-478 477 0
-478 479 0
480 -463 -458 0
-480 463 0
-480 458 0
481 -480 -482 0
-481 480 0
-481 482 0
-483 462 465 467 469 472 475 478 481 0
483 -462 0
483 -465 0
483 -467 0
483 -469 0
483 -472 0
483 -475 0
483 -478 0
483 -481 0
484 -61 -485 0
-484 61 0
-484 485 0
486 -484 -487 0
-486 484 0
-486 487 0
488 -61 485 0
-488 61 0
-488 -485 0
489 -488 -490 0
-489 488 0
-489 490 0
491 -144 -485 0
-491 144 0
-491 485 0
492 -491 -493 0
-492 491 0
-492 493 0
494 -144 485 0
-494 144 0
-494 -485 0
495 -494 -496 0
-495 494 0
-495 496 0
497 -169 -485 0
-497 169 0
-497 485 0
498 -497 -499 0
-498 497 0
-498 499 0
500 -169 485 0
-500 169 0
-500 -485 0
501 -500 -502 0
-501 500 0
-501 502 0
-503 486 489 492 495 498 501 0
503 -486 0
503 -489 0
503 -492 0
503 -495 0
503 -498 0
503 -501 0
504 -483 503 0
-504 483 0
-504 -503 0
505 -504 -506 0
-505 504 0
-505 506 0
507 -483 -503 0
-507 483 0
-507 503 0
508 -507 -509 0
-508 507 0
-508 509 0
510 -464 -511 0
-510 464 0
-510 511 0
512 -468 -513 0
-512 468 0
-512 513 0
514 -471 -515 0
-514 471 0
-514 515 0
516 -474 -517 0
-516 474 0
-516 517 0
518 -477 -519 0
-518 477 0
-518 519 0
520 -480 -521 0
-520 480 0
-520 521 0
-522 510 512 514 516 518 520 0
522 -510 0
522 -512 0
522 -514 0
522 -516 0
522 -518 0
522 -520 0
523 -522 503 0
-523 522 0
-523 -503 0
524 -523 -525 0
-524 523 0
-524 525 0
526 -522 -503 0
-526 522 0
-526 503 0
527 -526 -528 0
-527 526 0
-527 528 0
529 -464 -530 0
-529 464 0
-529 530 0
531 -468 -532 0
-531 468 0
-531 532 0
533 -474 -534 0
-533 474 0
-533 534 0
535 -477 -536 0
-535 477 0
-535 536 0
537 -480 -538 0
-537 480 0
-537 538 0
-539 529 531 533 535 537 0
539 -529 0
539 -531 0
539 -533 0
539 -535 0
539 -537 0
540 -539 503 0
-540 539 0
-540 -503 0
541 -540 -542 0
-541 540 0
-541 542 0
543 -539 -503 0
-543 539 0
-543 503 0
544 -543 -545 0
-544 543 0
-544 545 0
-546 505 508 524 527 541 544 0
546 -505 0
546 -508 0
546 -524 0
546 -527 0
546 -541 0
546 -544 0
547 -548 -549 0
-547 548 0
-547 549 0
550 548 -551 0
-550 -548 0
-550 551 0
-552 547 550 0
552 -547 0
552 -550 0
553 -546 -552 0
-553 546 0
-553 552 0
554 -555 -553 0
-554 555 0
-554 553 0
556 -461 -554 0
-556 461 0
-556 554 0
557 -556 -558 0
-557 556 0
-557 558 0
559 -548 -560 0
-559 548 0
-559 560 0
561 548 -562 0
-561 -548 0
-561 562 0
-563 559 561 0
563 -559 0
563 -561 0
564 -546 -563 0
-564 546 0
-564 563 0
565 -555 -564 0
-565 555 0
-565 564 0
566 -461 -565 0
-566 461 0
-566 565 0
567 -566 -568 0
-567 566 0
-567 568 0
569 -548 -570 0
-569 548 0
-569 570 0
571 548 -572 0
-571 -548 0
-571 572 0
-573 569 571 0
573 -569 0
573 -571 0
574 -546 -573 0
-574 546 0
-574 573 0
575 -555 -574 0
-575 555 0
-575 574 0
576 -461 -575 0
-576 461 0
-576 575 0
577 -576 -578 0
-577 576 0
-577 578 0
579 -504 -580 0
-579 504 0
-579 580 0
581 -507 -582 0
-581 507 0
-581 582 0
583 -523 -584 0
-583 523 0
-583 584 0
585 -526 -586 0
-585 526 0
-585 586 0
587 -540 -588 0
-587 540 0
-587 588 0
589 -543 -590 0
-589 543 0
-589 590 0
-591 579 581 583 585 587 589 0
591 -579 0
591 -581 0
591 -583 0
591 -585 0
591 -587 0
591 -589 0
592 -591 -552 0
-592 591 0
-592 552 0
593 -555 -592 0
-593 555 0
-593 592 0
594 -461 -593 0
-594 461 0
-594 593 0
595 -594 -596 0
-595 594 0
-595 596 0
597 -591 -563 0
-597 591 0
-597 563 0
598 -555 -597 0
-598 555 0
-598 597 0
599 -461 -598 0
-599 461 0
-599 598 0
600 -599 -601 0
-600 599 0
-600 601 0
602 -591 -573 0
-602 591 0
-602 573 0
603 -555 -602 0
-603 555 0
-603 602 0
604 -461 -603 0
-604 461 0
-604 603 0
605 -604 -606 0
-605 604 0
-605 606 0
607 -504 -608 0
-607 504 0
-607 608 0
609 -507 -610 0
-609 507 0
-609 610 0
611 -523 -612 0
-611 523 0
-611 612 0
613 -526 -614 0
-613 526 0
-613 614 0
615 -540 -616 0
-615 540 0
-615 616 0
617 -543 -618 0
-617 543 0
-617 618 0
-619 607 609 611 613 615 617 0
619 -607 0
619 -609 0
619 -611 0
619 -613 0
619 -615 0
619 -617 0
620 -619 -552 0
-620 619 0
-620 552 0
621 -555 -620 0
-621 555 0
-621 620 0
622 -461 -621 0
-622 461 0
-622 621 0
623 -622 -624 0
-623 622 0
-623 624 0
625 -619 -563 0
-625 619 0
-625 563 0
626 -555 -625 0
-626 555 0
-626 625 0
627 -461 -626 0
-627 461 0
-627 626 0
628 -627 -629 0
-628 627 0
-628 629 0
630 -619 -573 0
-630 619 0
-630 573 0
631 -555 -630 0
-631 555 0
-631 630 0
632 -461 -631 0
-632 461 0
-632 631 0
633 -632 -634 0
-633 632 0
-633 634 0
635 555 -553 0
-635 -555 0
-635 553 0
636 -461 -635 0
-636 461 0
-636 635 0
637 -636 -638 0
-637 636 0
-637 638 0
639 555 -564 0
-639 -555 0
-639 564 0
640 -461 -639 0
-640 461 0
-640 639 0
641 -640 -642 0
-641 640 0
-641 642 0
643 555 -574 0
-643 -555 0
-643 574 0
644 -461 -643 0
-644 461 0
-644 643 0
645 -644 -646 0
-645 644 0
-645 646 0
647 555 -592 0
-647 -555 0
-647 592 0
648 -461 -647 0
-648 461 0
-648 647 0
649 -648 -650 0
-649 648 0
-649 650 0
651 555 -597 0
-651 -555 0
-651 597 0
652 -461 -651 0
-652 461 0
-652 651 0
653 -652 -654 0
-653 652 0
-653 654 0
655 555 -602 0
-655 -555 0
-655 602 0
656 -461 -655 0
-656 461 0
-656 655 0
657 -656 -658 0
-657 656 0
-657 658 0
659 555 -620 0
-659 -555 0
-659 620 0
660 -461 -659 0
-660 461 0
-660 659 0
661 -660 -662 0
-661 660 0
-661 662 0
663 555 -625 0
-663 -555 0
-663 625 0
664 -461 -663 0
-664 461 0
-664 663 0
665 -664 -666 0
-665 664 0
-665 666 0
667 555 -630 0
-667 -555 0
-667 630 0
668 -461 -667 0
-668 461 0
-668 667 0
669 -668 -670 0
-669 668 0
-669 670 0
671 -377 -672 0
-671 377 0
-671 672 0
673 -404 -674 0
-673 404 0
-673 674 0
675 -431 -676 0
-675 431 0
-675 676 0
677 -458 -678 0
-677 458 0
-677 678 0
-679 671 673 675 677 0
679 -671 0
679 -673 0
679 -675 0
679 -677 0
680 -679 -554 0
-680 679 0
-680 554 0
681 -680 -682 0
-681 680 0
-681 682 0
683 -679 -565 0
-683 679 0
-683 565 0
684 -683 -685 0
-684 683 0
-684 685 0
686 -679 -575 0
-686 679 0
-686 575 0
687 -686 -688 0
-687 686 0
-687 688 0
689 -679 -593 0
-689 679 0
-689 593 0
690 -689 -691 0
-690 689 0
-690 691 0
692 -679 -598 0
-692 679 0
-692 598 0
693 -692 -694 0
-693 692 0
-693 694 0
695 -679 -603 0
-695 679 0
-695 603 0
696 -695 -697 0
-696 695 0
-696 697 0
698 -679 -621 0
-698 679 0
-698 621 0
699 -698 -700 0
-699 698 0
-699 700 0
701 -679 -626 0
-701 679 0
-701 626 0
702 -701 -703 0
-702 701 0
-702 703 0
704 -679 -631 0
-704 679 0
-704 631 0
705 -704 -706 0
-705 704 0
-705 706 0
707 -679 -635 0
-707 679 0
-707 635 0
708 -707 -709 0
-708 707 0
-708 709 0
710 -679 -639 0
-710 679 0
-710 639 0
711 -710 -712 0
-711 710 0
-711 712 0
713 -679 -643 0
-713 679 0
-713 643 0
714 -713 -715 0
-714 713 0
-714 715 0
716 -679 -647 0
-716 679 0
-716 647 0
717 -716 -718 0
-717 716 0
-717 718 0
719 -679 -651 0
-719 679 0
-719 651 0
720 -719 -721 0
-720 719 0
-720 721 0
722 -679 -655 0
-722 679 0
-722 655 0
723 -722 -724 0
-723 722 0
-723 724 0
725 -679 -659 0
-725 679 0
-725 659 0
726 -725 -727 0
-726 725 0
-726 727 0
728 -679 -663 0
-728 679 0
-728 663 0
729 -728 -730 0
-729 728 0
-729 730 0
731 -679 -667 0
-731 679 0
-731 667 0
732 -731 -733 0
-732 731 0
-732 733 0
734 -377 -735 0
-734 377 0
-734 735 0
736 -404 -737 0
-736 404 0
-736 737 0
738 -431 -739 0
-738 431 0
-738 739 0
740 -458 -741 0
-740 458 0
-740 741 0
-742 734 736 738 740 0
742 -734 0
742 -736 0
742 -738 0
742 -740 0
743 -742 -554 0
-743 742 0
-743 554 0
744 -743 -745 0
-744 743 0
-744 745 0
746 -742 -565 0
-746 742 0
-746 565 0
747 -746 -748 0
-747 746 0
-747 748 0
749 -742 -575 0
-749 742 0
-749 575 0
750 -749 -751 0
-750 749 0
-750 751 0
752 -742 -593 0
-752 742 0
-752 593 0
753 -752 -754 0
-753 752 0
-753 754 0
755 -742 -598 0
-755 742 0
-755 598 0
756 -755 -757 0
-756 755 0
-756 757 0
758 -742 -603 0
-758 742 0
-758 603 0
759 -758 -760 0
-759 758 0
-759 760 0
761 -742 -621 0
-761 742 0
-761 621 0
762 -761 -763 0
-762 761 0
-762 763 0
764 -742 -626 0
-764 742 0
-764 626 0
765 -764 -766 0
-765 764 0
-765 766 0
767 -742 -631 0
-767 742 0
-767 631 0
768 -767 -769 0
-768 767 0
-768 769 0
770 -742 -635 0
-770 742 0
-770 635 0
771 -770 -772 0
-771 770 0
-771 772 0
773 -742 -639 0
-773 742 0
-773 639 0
774 -773 -775 0
-774 773 0
-774 775 0
776 -742 -643 0
-776 742 0
-776 643 0
777 -776 -778 0
-777 776 0
-777 778 0
779 -742 -647 0
-779 742 0
-779 647 0
780 -779 -781 0
-780 779 0
-780 781 0
782 -742 -651 0
-782 742 0
-782 651 0
783 -782 -784 0
-783 782 0
-783 784 0
785 -742 -655 0
-785 742 0
-785 655 0
786 -785 -787 0
-786 785 0
-786 787 0
788 -742 -659 0
-788 742 0
-788 659 0
789 -788 -790 0
-789 788 0
-789 790 0
791 -742 -663 0
-791 742 0
-791 663 0
792 -791 -793 0
-792 791 0
-792 793 0
794 -742 -667 0
-794 742 0
-794 667 0
795 -794 -796 0
-795 794 0
-795 796 0
-797 557 567 577 595 600 605 623 628 633 637 641 645 649 653 657 661 665 669 681 684 687 690 693 696 699 702 705 708 711 714 717 720 723 726 729 732 744 747 750 753 756 759 762 765 768 771 774 777 780 783 786 789 792 795 0
797 -557 0
797 -567 0
797 -577 0
797 -595 0
797 -600 0
797 -605 0
797 -623 0
797 -628 0
797 -633 0
797 -637 0
797 -641 0
797 -645 0
797 -649 0
797 -653 0
797 -657 0
797 -661 0
797 -665 0
797 -669 0
797 -681 0
797 -684 0
797 -687 0
797 -690 0
797 -693 0
797 -696 0
797 -699 0
797 -702 0
797 -705 0
797 -708 0
797 -711 0
797 -714 0
797 -717 0
797 -720 0
797 -723 0
797 -726 0
797 -729 0
797 -732 0
797 -744 0
797 -747 0
797 -750 0
797 -753 0
797 -756 0
797 -759 0
797 -762 0
797 -765 0
797 -768 0
797 -771 0
797 -774 0
797 -777 0
797 -780 0
797 -783 0
797 -786 0
797 -789 0
797 -792 0
797 -795 0
798 797 -799 0
-798 -797 0
-798 799 0
800 -797 -801 0
-800 797 0
-800 801 0
-802 798 800 0
802 -798 0
802 -800 0
803 -804 -805 0
-803 804 0
-803 805 0
806 -803 -807 0
-806 803 0
-806 807 0
808 -804 805 0
-808 804 0
-808 -805 0
809 -808 -810 0
-809 808 0
-809 810 0
811 804 -805 0
-811 -804 0
-811 805 0
812 -811 -813 0
-812 811 0
-812 813 0
814 804 805 0
-814 -804 0
-814 -805 0
815 -814 -816 0
-815 814 0
-815 816 0
-817 806 809 812 815 0
817 -806 0
817 -809 0
817 -812 0
817 -815 0
818 -802 -817 0
-818 802 0
-818 817 0
819 -818 -820 0
-819 818 0
-819 820 0
821 -803 -822 0
-821 803 0
-821 822 0
823 -808 -824 0
-823 808 0
-823 824 0
825 -811 -826 0
-825 811 0
-825 826 0
827 -814 -828 0
-827 814 0
-827 828 0
-829 821 823 825 827 0
829 -821 0
829 -823 0
829 -825 0
829 -827 0
830 -802 -829 0
-830 802 0
-830 829 0
831 -830 -832 0
-831 830 0
-831 832 0
833 -803 -834 0
-833 803 0
-833 834 0
835 -808 -836 0
-835 808 0
-835 836 0
837 -811 -838 0
-837 811 0
-837 838 0
839 -814 -840 0
-839 814 0
-839 840 0
-841 833 835 837 839 0
841 -833 0
841 -835 0
841 -837 0
841 -839 0
842 -802 -841 0
-842 802 0
-842 841 0
843 -842 -844 0
-843 842 0
-843 844 0
845 797 -846 0
-845 -797 0
-845 846 0
847 -797 -848 0
-847 797 0
-847 848 0
-849 845 847 0
849 -845 0
849 -847 0
850 -849 -817 0
-850 849 0
-850 817 0
851 -850 -852 0
-851 850 0
-851 852 0
853 -849 -829 0
-853 849 0
-853 829 0
854 -853 -855 0
-854 853 0
-854 855 0
856 -849 -841 0
-856 849 0
-856 841 0
857 -856 -858 0
-857 856 0
-857 858 0
859 797 -860 0
-859 -797 0
-859 860 0
861 -797 -862 0
-861 797 0
-861 862 0
-863 859 861 0
863 -859 0
863 -861 0
864 -863 -817 0
-864 863 0
-864 817 0
865 -864 -866 0
-865 864 0
-865 866 0
867 -863 -829 0
-867 863 0
-867 829 0
868 -867 -869 0
-868 867 0
-868 869 0
870 -863 -841 0
-870 863 0
-870 841 0
871 -870 -872 0
-871 870 0
-871 872 0
-873 819 831 843 851 854 857 865 868 871 0
873 -819 0
873 -831 0
873 -843 0
873 -851 0
873 -854 0
873 -857 0
873 -865 0
873 -868 0
873 -871 0
874 -873 -552 0
-874 873 0
-874 552 0
875 -874 -876 0
-875 874 0
-875 876 0
877 -873 -563 0
-877 873 0
-877 563 0
878 -877 -879 0
-878 877 0
-878 879 0
880 -873 -573 0
-880 873 0
-880 573 0
881 -880 -882 0
-881 880 0
-881 882 0
883 -818 -884 0
-883 818 0
-883 884 0
885 -830 -886 0
-885 830 0
-885 886 0
887 -842 -888 0
-887 842 0
-887 888 0
889 -850 -890 0
-889 850 0
-889 890 0
891 -853 -892 0
-891 853 0
-891 892 0
893 -856 -894 0
-893 856 0
-893 894 0
895 -864 -896 0
-895 864 0
-895 896 0
897 -867 -898 0
-897 867 0
-897 898 0
899 -870 -900 0
-899 870 0
-899 900 0
-901 883 885 887 889 891 893 895 897 899 0
901 -883 0
901 -885 0
901 -887 0
901 -889 0
901 -891 0
901 -893 0
901 -895 0
901 -897 0
901 -899 0
902 -901 -552 0
-902 901 0
-902 552 0
903 -902 -904 0
-903 902 0
-903 904 0
905 -901 -563 0
-905 901 0
-905 563 0
906 -905 -907 0
-906 905 0
-906 907 0
908 -901 -573 0
-908 901 0
-908 573 0
909 -908 -910 0
-909 908 0
-909 910 0
911 -818 -912 0
-911 818 0
-911 912 0
913 -830 -914 0
-913 830 0
-913 914 0
915 -842 -916 0
-915 842 0
-915 916 0
917 -850 -918 0
-917 850 0
-917 918 0
919 -853 -920 0
-919 853 0
-919 920 0
921 -856 -922 0
-921 856 0
-921 922 0
923 -864 -924 0
-923 864 0
-923 924 0
925 -867 -926 0
-925 867 0
-925 926 0
927 -870 -928 0
-927 870 0
-927 928 0
-929 911 913 915 917 919 921 923 925 927 0
929 -911 0
929 -913 0
929 -915 0
929 -917 0
929 -919 0
929 -921 0
929 -923 0
929 -925 0
929 -927 0
930 -929 -552 0
-930 929 0
-930 552 0
931 -930 -932 0
-931 930 0
-931 932 0
933 -929 -563 0
-933 929 0
-933 563 0
934 -933 -935 0
-934 933 0
-934 935 0
936 -929 -573 0
-936 929 0
-936 573 0
937 -936 -938 0
-937 936 0
-937 938 0
-939 875 878 881 903 906 909 931 934 937 0
939 -875 0
939 -878 0
939 -881 0
939 -903 0
939 -906 0
939 -909 0
939 -931 0
939 -934 0
939 -937 0
-940 -61 -144 0
940 61 0
940 144 0
-941 -61 -169 0
941 61 0
941 169 0
-942 -61 -943 0
942 61 0
942 943 0
-944 -144 -169 0
944 144 0
944 169 0
-945 -144 -943 0
945 144 0
945 943 0
-946 -169 -943 0
946 169 0
946 943 0
-947 61 144 169 943 0
947 -61 0
947 -144 0
947 -169 0
947 -943 0
-948 -8 -2 0
948 8 0
948 2 0
-949 -8 -5 0
949 8 0
949 5 0
-950 -8 -951 0
950 8 0
950 951 0
-952 -2 -5 0
952 2 0
952 5 0
-953 -2 -951 0
953 2 0
953 951 0
-954 -5 -951 0
954 5 0
954 951 0
-955 8 2 5 951 0
955 -8 0
955 -2 0
955 -5 0
955 -951 0
-956 -36 -16 0
956 36 0
956 16 0
-957 -36 -3 0
957 36 0
957 3 0
-958 -36 -26 0
958 36 0
958 26 0
-959 -36 -960 0
959 36 0
959 960 0
-961 -16 -3 0
961 16 0
961 3 0
-962 -16 -26 0
962 16 0
962 26 0
-963 -16 -960 0
963 16 0
963 960 0
-964 -3 -26 0
964 3 0
964 26 0
-965 -3 -960 0
965 3 0
965 960 0
-966 -26 -960 0
966 26 0
966 960 0
-967 36 16 3 26 960 0
967 -36 0
967 -16 0
967 -3 0
967 -26 0
967 -960 0
-968 -6 -38 0
968 6 0
968 38 0
-969 -6 -18 0
969 6 0
969 18 0
-970 -6 -28 0
970 6 0
970 28 0
-971 -6 -972 0
971 6 0
971 972 0
-973 -38 -18 0
973 38 0
973 18 0
-974 -38 -28 0
974 38 0
974 28 0
-975 -38 -972 0
975 38 0
975 972 0
-976 -18 -28 0
976 18 0
976 28 0
-977 -18 -972 0
977 18 0
977 972 0
-978 -28 -972 0
978 28 0
978 972 0
-979 6 38 18 28 972 0
979 -6 0
979 -38 0
979 -18 0
979 -28 0
979 -972 0
-980 -20 -30 0
980 20 0
980 30 0
-981 -20 -9 0
981 20 0
981 9 0
-982 -20 -40 0
982 20 0
982 40 0
-983 -20 -984 0
983 20 0
983 984 0
-985 -30 -9 0
985 30 0
985 9 0
-986 -30 -40 0
986 30 0
986 40 0
-987 -30 -984 0
987 30 0
987 984 0
-988 -9 -40 0
988 9 0
988 40 0
-989 -9 -984 0
989 9 0
989 984 0
-990 -40 -984 0
990 40 0
990 984 0
-991 20 30 9 40 984 0
991 -20 0
991 -30 0
991 -9 0
991 -40 0
991 -984 0
-992 -14 -86 0
992 14 0
992 86 0
-993 -14 -65 0
993 14 0
993 65 0
-994 -14 -107 0
994 14 0
994 107 0
-995 -14 -996 0
995 14 0
995 996 0
-997 -86 -65 0
997 86 0
997 65 0
-998 -86 -107 0
998 86 0
998 107 0
-999 -86 -996 0
999 86 0
999 996 0
-1000 -65 -107 0
1000 65 0
1000 107 0
-1001 -65 -996 0
1001 65 0
1001 996 0
-1002 -107 -996 0
1002 107 0
1002 996 0
-1003 14 86 65 107 996 0
1003 -14 0
1003 -86 0
1003 -65 0
1003 -107 0
1003 -996 0
-1004 -109 -88 0
1004 109 0
1004 88 0
-1005 -109 -24 0
1005 109 0
1005 24 0
-1006 -109 -67 0
1006 109 0
1006 67 0
-1007 -109 -1008 0
1007 109 0
1007 1008 0
-1009 -88 -24 0
1009 88 0
1009 24 0
-1010 -88 -67 0
1010 88 0
1010 67 0
-1011 -88 -1008 0
1011 88 0
1011 1008 0
-1012 -24 -67 0
1012 24 0
1012 67 0
-1013 -24 -1008 0
1013 24 0
1013 1008 0
-1014 -67 -1008 0
1014 67 0
1014 1008 0
-1015 109 88 24 67 1008 0
1015 -109 0
1015 -88 0
1015 -24 0
1015 -67 0
1015 -1008 0
-1016 -69 -90 0
1016 69 0
1016 90 0
-1017 -69 -111 0
1017 69 0
1017 111 0
-1018 -69 -34 0
1018 69 0
1018 34 0
-1019 -69 -1020 0
1019 69 0
1019 1020 0
-1021 -90 -111 0
1021 90 0
1021 111 0
-1022 -90 -34 0
1022 90 0
1022 34 0
-1023 -90 -1020 0
1023 90 0
1023 1020 0
-1024 -111 -34 0
1024 111 0
1024 34 0
-1025 -111 -1020 0
1025 111 0
1025 1020 0
-1026 -34 -1020 0
1026 34 0
1026 1020 0
-1027 69 90 111 34 1020 0
1027 -69 0
1027 -90 0
1027 -111 0
1027 -34 0
1027 -1020 0
-1028 -44 -113 0
1028 44 0
1028 113 0
-1029 -44 -71 0
1029 44 0
1029 71 0
-1030 -44 -92 0
1030 44 0
1030 92 0
-1031 -44 -1032 0
1031 44 0
1031 1032 0
-1033 -113 -71 0
1033 113 0
1033 71 0
-1034 -113 -92 0
1034 113 0
1034 92 0
-1035 -113 -1032 0
1035 113 0
1035 1032 0
-1036 -71 -92 0
1036 71 0
1036 92 0
-1037 -71 -1032 0
1037 71 0
1037 1032 0
-1038 -92 -1032 0
1038 92 0
1038 1032 0
-1039 44 113 71 92 1032 0
1039 -44 0
1039 -113 0
1039 -71 0
1039 -92 0
1039 -1032 0
-1040 -73 -94 0
1040 73 0
1040 94 0
-1041 -73 -47 0
1041 73 0
1041 47 0
-1042 -73 -115 0
1042 73 0
1042 115 0
-1043 -73 -1044 0
1043 73 0
1043 1044 0
-1045 -94 -47 0
1045 94 0
1045 47 0
-1046 -94 -115 0
1046 94 0
1046 115 0
-1047 -94 -1044 0
1047 94 0
1047 1044 0
-1048 -47 -115 0
1048 47 0
1048 115 0
-1049 -47 -1044 0
1049 47 0
1049 1044 0
-1050 -115 -1044 0
1050 115 0
1050 1044 0
-1051 73 94 47 115 1044 0
1051 -73 0
1051 -94 0
1051 -47 0
1051 -115 0
1051 -1044 0
-1052 -96 -75 0
1052 96 0
1052 75 0
-1053 -96 -117 0
1053 96 0
1053 117 0
-1054 -96 -50 0
1054 96 0
1054 50 0
-1055 -96 -1056 0
1055 96 0
1055 1056 0
-1057 -75 -117 0
1057 75 0
1057 117 0
-1058 -75 -50 0
1058 75 0
1058 50 0
-1059 -75 -1056 0
1059 75 0
1059 1056 0
-1060 -117 -50 0
1060 117 0
1060 50 0
-1061 -117 -1056 0
1061 117 0
1061 1056 0
-1062 -50 -1056 0
1062 50 0
1062 1056 0
-1063 96 75 117 50 1056 0
1063 -96 0
1063 -75 0
1063 -117 0
1063 -50 0
1063 -1056 0
-1064 -53 -98 0
1064 53 0
1064 98 0
-1065 -53 -77 0
1065 53 0
1065 77 0
-1066 -53 -119 0
1066 53 0
1066 119 0
-1067 -53 -1068 0
1067 53 0
1067 1068 0
-1069 -98 -77 0
1069 98 0
1069 77 0
-1070 -98 -119 0
1070 98 0
1070 119 0
-1071 -98 -1068 0
1071 98 0
1071 1068 0
-1072 -77 -119 0
1072 77 0
1072 119 0
-1073 -77 -1068 0
1073 77 0
1073 1068 0
-1074 -119 -1068 0
1074 119 0
1074 1068 0
-1075 53 98 77 119 1068 0
1075 -53 0
1075 -98 0
1075 -77 0
1075 -119 0
1075 -1068 0
-1076 -79 -121 0
1076 79 0
1076 121 0
-1077 -79 -56 0
1077 79 0
1077 56 0
-1078 -79 -100 0
1078 79 0
1078 100 0
-1079 -79 -1080 0
1079 79 0
1079 1080 0
-1081 -121 -56 0
1081 121 0
1081 56 0
-1082 -121 -100 0
1082 121 0
1082 100 0
-1083 -121 -1080 0
1083 121 0
1083 1080 0
-1084 -56 -100 0
1084 56 0
1084 100 0
-1085 -56 -1080 0
1085 56 0
1085 1080 0
-1086 -100 -1080 0
1086 100 0
1086 1080 0
-1087 79 121 56 100 1080 0
1087 -79 0
1087 -121 0
1087 -56 0
1087 -100 0
1087 -1080 0
-1088 -198 -63 0
1088 198 0
1088 63 0
-1089 -198 -302 0
1089 198 0
1089 302 0
-1090 -198 -250 0
1090 198 0
1090 250 0
-1091 -198 -1092 0
1091 198 0
1091 1092 0
-1093 -63 -302 0
1093 63 0
1093 302 0
-1094 -63 -250 0
1094 63 0
1094 250 0
-1095 -63 -1092 0
1095 63 0
1095 1092 0
-1096 -302 -250 0
1096 302 0
1096 250 0
-1097 -302 -1092 0
1097 302 0
1097 1092 0
-1098 -250 -1092 0
1098 250 0
1098 1092 0
-1099 198 63 302 250 1092 0
1099 -198 0
1099 -63 0
1099 -302 0
1099 -250 0
1099 -1092 0
-1100 -252 -304 0
1100 252 0
1100 304 0
-1101 -252 -200 0
1101 252 0
1101 200 0
-1102 -252 -84 0
1102 252 0
1102 84 0
-1103 -252 -1104 0
1103 252 0
1103 1104 0
-1105 -304 -200 0
1105 304 0
1105 200 0
-1106 -304 -84 0
1106 304 0
1106 84 0
-1107 -304 -1104 0
1107 304 0
1107 1104 0
-1108 -200 -84 0
1108 200 0
1108 84 0
-1109 -200 -1104 0
1109 200 0
1109 1104 0
-1110 -84 -1104 0
1110 84 0
1110 1104 0
-1111 252 304 200 84 1104 0
1111 -252 0
1111 -304 0
1111 -200 0
1111 -84 0
1111 -1104 0
-1112 -202 -254 0
1112 202 0
1112 254 0
-1113 -202 -105 0
1113 202 0
1113 105 0
-1114 -202 -306 0
1114 202 0
1114 306 0
-1115 -202 -1116 0
1115 202 0
1115 1116 0
-1117 -254 -105 0
1117 254 0
1117 105 0
-1118 -254 -306 0
1118 254 0
1118 306 0
-1119 -254 -1116 0
1119 254 0
1119 1116 0
-1120 -105 -306 0
1120 105 0
1120 306 0
-1121 -105 -1116 0
1121 105 0
1121 1116 0
-1122 -306 -1116 0
1122 306 0
1122 1116 0
-1123 202 254 105 306 1116 0
1123 -202 0
1123 -254 0
1123 -105 0
1123 -306 0
1123 -1116 0
-1124 -308 -126 0
1124 308 0
1124 126 0
-1125 -308 -204 0
1125 308 0
1125 204 0
-1126 -308 -256 0
1126 308 0
1126 256 0
-1127 -308 -1128 0
1127 308 0
1127 1128 0
-1129 -126 -204 0
1129 126 0
1129 204 0
-1130 -126 -256 0
1130 126 0
1130 256 0
-1131 -126 -1128 0
1131 126 0
1131 1128 0
-1132 -204 -256 0
1132 204 0
1132 256 0
-1133 -204 -1128 0
1133 204 0
1133 1128 0
-1134 -256 -1128 0
1134 256 0
1134 1128 0
-1135 308 126 204 256 1128 0
1135 -308 0
1135 -126 0
1135 -204 0
1135 -256 0
1135 -1128 0
-1136 -258 -310 0
1136 258 0
1136 310 0
-1137 -258 -130 0
1137 258 0
1137 130 0
-1138 -258 -206 0
1138 258 0
1138 206 0
-1139 -258 -1140 0
1139 258 0
1139 1140 0
-1141 -310 -130 0
1141 310 0
1141 130 0
-1142 -310 -206 0
1142 310 0
1142 206 0
-1143 -310 -1140 0
1143 310 0
1143 1140 0
-1144 -130 -206 0
1144 130 0
1144 206 0
-1145 -130 -1140 0
1145 130 0
1145 1140 0
-1146 -206 -1140 0
1146 206 0
1146 1140 0
-1147 258 310 130 206 1140 0
1147 -258 0
1147 -310 0
1147 -130 0
1147 -206 0
1147 -1140 0
-1148 -260 -134 0
1148 260 0
1148 134 0
-1149 -260 -312 0
1149 260 0
1149 312 0
-1150 -260 -208 0
1150 260 0
1150 208 0
-1151 -260 -1152 0
1151 260 0
1151 1152 0
-1153 -134 -312 0
1153 134 0
1153 312 0
-1154 -134 -208 0
1154 134 0
1154 208 0
-1155 -134 -1152 0
1155 134 0
1155 1152 0
-1156 -312 -208 0
1156 312 0
1156 208 0
-1157 -312 -1152 0
1157 312 0
1157 1152 0
-1158 -208 -1152 0
1158 208 0
1158 1152 0
-1159 260 134 312 208 1152 0
1159 -260 0
1159 -134 0
1159 -312 0
1159 -208 0
1159 -1152 0
-1160 -262 -210 0
1160 262 0
1160 210 0
-1161 -262 -138 0
1161 262 0
1161 138 0
-1162 -262 -314 0
1162 262 0
1162 314 0
-1163 -262 -1164 0
1163 262 0
1163 1164 0
-1165 -210 -138 0
1165 210 0
1165 138 0
-1166 -210 -314 0
1166 210 0
1166 314 0
-1167 -210 -1164 0
1167 210 0
1167 1164 0
-1168 -138 -314 0
1168 138 0
1168 314 0
-1169 -138 -1164 0
1169 138 0
1169 1164 0
-1170 -314 -1164 0
1170 314 0
1170 1164 0
-1171 262 210 138 314 1164 0
1171 -262 0
1171 -210 0
1171 -138 0
1171 -314 0
1171 -1164 0
-1172 -316 -142 0
1172 316 0
1172 142 0
-1173 -316 -264 0
1173 316 0
1173 264 0
-1174 -316 -212 0
1174 316 0
1174 212 0
-1175 -316 -1176 0
1175 316 0
1175 1176 0
-1177 -142 -264 0
1177 142 0
1177 264 0
-1178 -142 -212 0
1178 142 0
1178 212 0
-1179 -142 -1176 0
1179 142 0
1179 1176 0
-1180 -264 -212 0
1180 264 0
1180 212 0
-1181 -264 -1176 0
1181 264 0
1181 1176 0
-1182 -212 -1176 0
1182 212 0
1182 1176 0
-1183 316 142 264 212 1176 0
1183 -316 0
1183 -142 0
1183 -264 0
1183 -212 0
1183 -1176 0
-1184 -266 -214 0
1184 266 0
1184 214 0
-1185 -266 -146 0
1185 266 0
1185 146 0
-1186 -266 -318 0
1186 266 0
1186 318 0
-1187 -266 -1188 0
1187 266 0
1187 1188 0
-1189 -214 -146 0
1189 214 0
1189 146 0
-1190 -214 -318 0
1190 214 0
1190 318 0
-1191 -214 -1188 0
1191 214 0
1191 1188 0
-1192 -146 -318 0
1192 146 0
1192 318 0
-1193 -146 -1188 0
1193 146 0
1193 1188 0
-1194 -318 -1188 0
1194 318 0
1194 1188 0
-1195 266 214 146 318 1188 0
1195 -266 0
1195 -214 0
1195 -146 0
1195 -318 0
1195 -1188 0
-1196 -268 -149 0
1196 268 0
1196 149 0
-1197 -268 -320 0
1197 268 0
1197 320 0
-1198 -268 -216 0
1198 268 0
1198 216 0
-1199 -268 -1200 0
1199 268 0
1199 1200 0
-1201 -149 -320 0
1201 149 0
1201 320 0
-1202 -149 -216 0
1202 149 0
1202 216 0
-1203 -149 -1200 0
1203 149 0
1203 1200 0
-1204 -320 -216 0
1204 320 0
1204 216 0
-1205 -320 -1200 0
1205 320 0
1205 1200 0
-1206 -216 -1200 0
1206 216 0
1206 1200 0
-1207 268 149 320 216 1200 0
1207 -268 0
1207 -149 0
1207 -320 0
1207 -216 0
1207 -1200 0
-1208 -218 -270 0
1208 218 0
1208 270 0
-1209 -218 -152 0
1209 218 0
1209 152 0
-1210 -218 -322 0
1210 218 0
1210 322 0
-1211 -218 -1212 0
1211 218 0
1211 1212 0
-1213 -270 -152 0
1213 270 0
1213 152 0
-1214 -270 -322 0
1214 270 0
1214 322 0
-1215 -270 -1212 0
1215 270 0
1215 1212 0
-1216 -152 -322 0
1216 152 0
1216 322 0
-1217 -152 -1212 0
1217 152 0
1217 1212 0
-1218 -322 -1212 0
1218 322 0
1218 1212 0
-1219 218 270 152 322 1212 0
1219 -218 0
1219 -270 0
1219 -152 0
1219 -322 0
1219 -1212 0
-1220 -324 -220 0
1220 324 0
1220 220 0
-1221 -324 -272 0
1221 324 0
1221 272 0
-1222 -324 -155 0
1222 324 0
1222 155 0
-1223 -324 -1224 0
1223 324 0
1223 1224 0
-1225 -220 -272 0
1225 220 0
1225 272 0
-1226 -220 -155 0
1226 220 0
1226 155 0
-1227 -220 -1224 0
1227 220 0
1227 1224 0
-1228 -272 -155 0
1228 272 0
1228 155 0
-1229 -272 -1224 0
1229 272 0
1229 1224 0
-1230 -155 -1224 0
1230 155 0
1230 1224 0
-1231 324 220 272 155 1224 0
1231 -324 0
1231 -220 0
1231 -272 0
1231 -155 0
1231 -1224 0
-1232 -274 -158 0
1232 274 0
1232 158 0
-1233 -274 -222 0
1233 274 0
1233 222 0
-1234 -274 -326 0
1234 274 0
1234 326 0
-1235 -274 -1236 0
1235 274 0
1235 1236 0
-1237 -158 -222 0
1237 158 0
1237 222 0
-1238 -158 -326 0
1238 158 0
1238 326 0
-1239 -158 -1236 0
1239 158 0
1239 1236 0
-1240 -222 -326 0
1240 222 0
1240 326 0
-1241 -222 -1236 0
1241 222 0
1241 1236 0
-1242 -326 -1236 0
1242 326 0
1242 1236 0
-1243 274 158 222 326 1236 0
1243 -274 0
1243 -158 0
1243 -222 0
1243 -326 0
1243 -1236 0
-1244 -276 -224 0
1244 276 0
1244 224 0
-1245 -276 -328 0
1245 276 0
1245 328 0
-1246 -276 -161 0
1246 276 0
1246 161 0
-1247 -276 -1248 0
1247 276 0
1247 1248 0
-1249 -224 -328 0
1249 224 0
1249 328 0
-1250 -224 -161 0
1250 224 0
1250 161 0
-1251 -224 -1248 0
1251 224 0
1251 1248 0
-1252 -328 -161 0
1252 328 0
1252 161 0
-1253 -328 -1248 0
1253 328 0
1253 1248 0
-1254 -161 -1248 0
1254 161 0
1254 1248 0
-1255 276 224 328 161 1248 0
1255 -276 0
1255 -224 0
1255 -328 0
1255 -161 0
1255 -1248 0
-1256 -164 -278 0
1256 164 0
1256 278 0
-1257 -164 -226 0
1257 164 0
1257 226 0
-1258 -164 -330 0
1258 164 0
1258 330 0
-1259 -164 -1260 0
1259 164 0
1259 1260 0
-1261 -278 -226 0
1261 278 0
1261 226 0
-1262 -278 -330 0
1262 278 0
1262 330 0
-1263 -278 -1260 0
1263 278 0
1263 1260 0
-1264 -226 -330 0
1264 226 0
1264 330 0
-1265 -226 -1260 0
1265 226 0
1265 1260 0
-1266 -330 -1260 0
1266 330 0
1266 1260 0
-1267 164 278 226 330 1260 0
1267 -164 0
1267 -278 0
1267 -226 0
1267 -330 0
1267 -1260 0
-1268 -332 -167 0
1268 332 0
1268 167 0
-1269 -332 -280 0
1269 332 0
1269 280 0
-1270 -332 -228 0
1270 332 0
1270 228 0
-1271 -332 -1272 0
1271 332 0
1271 1272 0
-1273 -167 -280 0
1273 167 0
1273 280 0
-1274 -167 -228 0
1274 167 0
1274 228 0
-1275 -167 -1272 0
1275 167 0
1275 1272 0
-1276 -280 -228 0
1276 280 0
1276 228 0
-1277 -280 -1272 0
1277 280 0
1277 1272 0
-1278 -228 -1272 0
1278 228 0
1278 1272 0
-1279 332 167 280 228 1272 0
1279 -332 0
1279 -167 0
1279 -280 0
1279 -228 0
1279 -1272 0
-1280 -230 -334 0
1280 230 0
1280 334 0
-1281 -230 -282 0
1281 230 0
1281 282 0
-1282 -230 -171 0
1282 230 0
1282 171 0
-1283 -230 -1284 0
1283 230 0
1283 1284 0
-1285 -334 -282 0
1285 334 0
1285 282 0
-1286 -334 -171 0
1286 334 0
1286 171 0
-1287 -334 -1284 0
1287 334 0
1287 1284 0
-1288 -282 -171 0
1288 282 0
1288 171 0
-1289 -282 -1284 0
1289 282 0
1289 1284 0
-1290 -171 -1284 0
1290 171 0
1290 1284 0
-1291 230 334 282 171 1284 0
1291 -230 0
1291 -334 0
1291 -282 0
1291 -171 0
1291 -1284 0
-1292 -284 -174 0
1292 284 0
1292 174 0
-1293 -284 -336 0
1293 284 0
1293 336 0
-1294 -284 -232 0
1294 284 0
1294 232 0
-1295 -284 -1296 0
1295 284 0
1295 1296 0
-1297 -174 -336 0
1297 174 0
1297 336 0
-1298 -174 -232 0
1298 174 0
1298 232 0
-1299 -174 -1296 0
1299 174 0
1299 1296 0
-1300 -336 -232 0
1300 336 0
1300 232 0
-1301 -336 -1296 0
1301 336 0
1301 1296 0
-1302 -232 -1296 0
1302 232 0
1302 1296 0
-1303 284 174 336 232 1296 0
1303 -284 0
1303 -174 0
1303 -336 0
1303 -232 0
1303 -1296 0
-1304 -234 -286 0
1304 234 0
1304 286 0
-1305 -234 -177 0
1305 234 0
1305 177 0
-1306 -234 -338 0
1306 234 0
1306 338 0
-1307 -234 -1308 0
1307 234 0
1307 1308 0
-1309 -286 -177 0
1309 286 0
1309 177 0
-1310 -286 -338 0
1310 286 0
1310 338 0
-1311 -286 -1308 0
1311 286 0
1311 1308 0
-1312 -177 -338 0
1312 177 0
1312 338 0
-1313 -177 -1308 0
1313 177 0
1313 1308 0
-1314 -338 -1308 0
1314 338 0
1314 1308 0
-1315 234 286 177 338 1308 0
1315 -234 0
1315 -286 0
1315 -177 0
1315 -338 0
1315 -1308 0
-1316 -180 -236 0
1316 180 0
1316 236 0
-1317 -180 -288 0
1317 180 0
1317 288 0
-1318 -180 -340 0
1318 180 0
1318 340 0
-1319 -180 -1320 0
1319 180 0
1319 1320 0
-1321 -236 -288 0
1321 236 0
1321 288 0
-1322 -236 -340 0
1322 236 0
1322 340 0
-1323 -236 -1320 0
1323 236 0
1323 1320 0
-1324 -288 -340 0
1324 288 0
1324 340 0
-1325 -288 -1320 0
1325 288 0
1325 1320 0
-1326 -340 -1320 0
1326 340 0
1326 1320 0
-1327 180 236 288 340 1320 0
1327 -180 0
1327 -236 0
1327 -288 0
1327 -340 0
1327 -1320 0
-1328 -290 -342 0
1328 290 0
1328 342 0
-1329 -290 -183 0
1329 290 0
1329 183 0
-1330 -290 -238 0
1330 290 0
1330 238 0
-1331 -290 -1332 0
1331 290 0
1331 1332 0
-1333 -342 -183 0
1333 342 0
1333 183 0
-1334 -342 -238 0
1334 342 0
1334 238 0
-1335 -342 -1332 0
1335 342 0
1335 1332 0
-1336 -183 -238 0
1336 183 0
1336 238 0
-1337 -183 -1332 0
1337 183 0
1337 1332 0
-1338 -238 -1332 0
1338 238 0
1338 1332 0
-1339 290 342 183 238 1332 0
1339 -290 0
1339 -342 0
1339 -183 0
1339 -238 0
1339 -1332 0
-1340 -292 -240 0
1340 292 0
1340 240 0
-1341 -292 -344 0
1341 292 0
1341 344 0
-1342 -292 -186 0
1342 292 0
1342 186 0
-1343 -292 -1344 0
1343 292 0
1343 1344 0
-1345 -240 -344 0
1345 240 0
1345 344 0
-1346 -240 -186 0
1346 240 0
1346 186 0
-1347 -240 -1344 0
1347 240 0
1347 1344 0
-1348 -344 -186 0
1348 344 0
1348 186 0
-1349 -344 -1344 0
1349 344 0
1349 1344 0
-1350 -186 -1344 0
1350 186 0
1350 1344 0
-1351 292 240 344 186 1344 0
1351 -292 0
1351 -240 0
1351 -344 0
1351 -186 0
1351 -1344 0
-1352 -189 -294 0
1352 189 0
1352 294 0
-1353 -189 -242 0
1353 189 0
1353 242 0
-1354 -189 -346 0
1354 189 0
1354 346 0
-1355 -189 -1356 0
1355 189 0
1355 1356 0
-1357 -294 -242 0
1357 294 0
1357 242 0
-1358 -294 -346 0
1358 294 0
1358 346 0
-1359 -294 -1356 0
1359 294 0
1359 1356 0
-1360 -242 -346 0
1360 242 0
1360 346 0
-1361 -242 -1356 0
1361 242 0
1361 1356 0
-1362 -346 -1356 0
1362 346 0
1362 1356 0
-1363 189 294 242 346 1356 0
1363 -189 0
1363 -294 0
1363 -242 0
1363 -346 0
1363 -1356 0
-1364 -348 -192 0
1364 348 0
1364 192 0
-1365 -348 -296 0
1365 348 0
1365 296 0
-1366 -348 -244 0
1366 348 0
1366 244 0
-1367 -348 -1368 0
1367 348 0
1367 1368 0
-1369 -192 -296 0
1369 192 0
1369 296 0
-1370 -192 -244 0
1370 192 0
1370 244 0
-1371 -192 -1368 0
1371 192 0
1371 1368 0
-1372 -296 -244 0
1372 296 0
1372 244 0
-1373 -296 -1368 0
1373 296 0
1373 1368 0
-1374 -244 -1368 0
1374 244 0
1374 1368 0
-1375 348 192 296 244 1368 0
1375 -348 0
1375 -192 0
1375 -296 0
1375 -244 0
1375 -1368 0
-1376 -196 -381 0
1376 196 0
1376 381 0
-1377 -196 -435 0
1377 196 0
1377 435 0
-1378 -196 -408 0
1378 196 0
1378 408 0
-1379 -196 -1380 0
1379 196 0
1379 1380 0
-1381 -381 -435 0
1381 381 0
1381 435 0
-1382 -381 -408 0
1382 381 0
1382 408 0
-1383 -381 -1380 0
1383 381 0
1383 1380 0
-1384 -435 -408 0
1384 435 0
1384 408 0
-1385 -435 -1380 0
1385 435 0
1385 1380 0
-1386 -408 -1380 0
1386 408 0
1386 1380 0
-1387 196 381 435 408 1380 0
1387 -196 0
1387 -381 0
1387 -435 0
1387 -408 0
1387 -1380 0
-1388 -410 -383 0
1388 410 0
1388 383 0
-1389 -410 -248 0
1389 410 0
1389 248 0
-1390 -410 -437 0
1390 410 0
1390 437 0
-1391 -410 -1392 0
1391 410 0
1391 1392 0
-1393 -383 -248 0
1393 383 0
1393 248 0
-1394 -383 -437 0
1394 383 0
1394 437 0
-1395 -383 -1392 0
1395 383 0
1395 1392 0
-1396 -248 -437 0
1396 248 0
1396 437 0
-1397 -248 -1392 0
1397 248 0
1397 1392 0
-1398 -437 -1392 0
1398 437 0
1398 1392 0
-1399 410 383 248 437 1392 0
1399 -410 0
1399 -383 0
1399 -248 0
1399 -437 0
1399 -1392 0
-1400 -300 -439 0
1400 300 0
1400 439 0
-1401 -300 -412 0
1401 300 0
1401 412 0
-1402 -300 -385 0
1402 300 0
1402 385 0
-1403 -300 -1404 0
1403 300 0
1403 1404 0
-1405 -439 -412 0
1405 439 0
1405 412 0
-1406 -439 -385 0
1406 439 0
1406 385 0
-1407 -439 -1404 0
1407 439 0
1407 1404 0
-1408 -412 -385 0
1408 412 0
1408 385 0
-1409 -412 -1404 0
1409 412 0
1409 1404 0
-1410 -385 -1404 0
1410 385 0
1410 1404 0
-1411 300 439 412 385 1404 0
1411 -300 0
1411 -439 0
1411 -412 0
1411 -385 0
1411 -1404 0
-1412 -441 -387 0
1412 441 0
1412 387 0
-1413 -441 -352 0
1413 441 0
1413 352 0
-1414 -441 -414 0
1414 441 0
1414 414 0
-1415 -441 -1416 0
1415 441 0
1415 1416 0
-1417 -387 -352 0
1417 387 0
1417 352 0
-1418 -387 -414 0
1418 387 0
1418 414 0
-1419 -387 -1416 0
1419 387 0
1419 1416 0
-1420 -352 -414 0
1420 352 0
1420 414 0
-1421 -352 -1416 0
1421 352 0
1421 1416 0
-1422 -414 -1416 0
1422 414 0
1422 1416 0
-1423 441 387 352 414 1416 0
1423 -441 0
1423 -387 0
1423 -352 0
1423 -414 0
1423 -1416 0
-1424 -416 -443 0
1424 416 0
1424 443 0
-1425 -416 -389 0
1425 416 0
1425 389 0
-1426 -416 -355 0
1426 416 0
1426 355 0
-1427 -416 -1428 0
1427 416 0
1427 1428 0
-1429 -443 -389 0
1429 443 0
1429 389 0
-1430 -443 -355 0
1430 443 0
1430 355 0
-1431 -443 -1428 0
1431 443 0
1431 1428 0
-1432 -389 -355 0
1432 389 0
1432 355 0
-1433 -389 -1428 0
1433 389 0
1433 1428 0
-1434 -355 -1428 0
1434 355 0
1434 1428 0
-1435 416 443 389 355 1428 0
1435 -416 0
1435 -443 0
1435 -389 0
1435 -355 0
1435 -1428 0
-1436 -391 -418 0
1436 391 0
1436 418 0
-1437 -391 -358 0
1437 391 0
1437 358 0
-1438 -391 -445 0
1438 391 0
1438 445 0
-1439 -391 -1440 0
1439 391 0
1439 1440 0
-1441 -418 -358 0
1441 418 0
1441 358 0
-1442 -418 -445 0
1442 418 0
1442 445 0
-1443 -418 -1440 0
1443 418 0
1443 1440 0
-1444 -358 -445 0
1444 358 0
1444 445 0
-1445 -358 -1440 0
1445 358 0
1445 1440 0
-1446 -445 -1440 0
1446 445 0
1446 1440 0
-1447 391 418 358 445 1440 0
1447 -391 0
1447 -418 0
1447 -358 0
1447 -445 0
1447 -1440 0
-1448 -393 -420 0
1448 393 0
1448 420 0
-1449 -393 -361 0
1449 393 0
1449 361 0
-1450 -393 -447 0
1450 393 0
1450 447 0
-1451 -393 -1452 0
1451 393 0
1451 1452 0
-1453 -420 -361 0
1453 420 0
1453 361 0
-1454 -420 -447 0
1454 420 0
1454 447 0
-1455 -420 -1452 0
1455 420 0
1455 1452 0
-1456 -361 -447 0
1456 361 0
1456 447 0
-1457 -361 -1452 0
1457 361 0
1457 1452 0
-1458 -447 -1452 0
1458 447 0
1458 1452 0
-1459 393 420 361 447 1452 0
1459 -393 0
1459 -420 0
1459 -361 0
1459 -447 0
1459 -1452 0
-1460 -364 -449 0
1460 364 0
1460 449 0
-1461 -364 -422 0
1461 364 0
1461 422 0
-1462 -364 -395 0
1462 364 0
1462 395 0
-1463 -364 -1464 0
1463 364 0
1463 1464 0
-1465 -449 -422 0
1465 449 0
1465 422 0
-1466 -449 -395 0
1466 449 0
1466 395 0
-1467 -449 -1464 0
1467 449 0
1467 1464 0
-1468 -422 -395 0
1468 422 0
1468 395 0
-1469 -422 -1464 0
1469 422 0
1469 1464 0
-1470 -395 -1464 0
1470 395 0
1470 1464 0
-1471 364 449 422 395 1464 0
1471 -364 0
1471 -449 0
1471 -422 0
1471 -395 0
1471 -1464 0
-1472 -424 -397 0
1472 424 0
1472 397 0
-1473 -424 -367 0
1473 424 0
1473 367 0
-1474 -424 -451 0
1474 424 0
1474 451 0
-1475 -424 -1476 0
1475 424 0
1475 1476 0
-1477 -397 -367 0
1477 397 0
1477 367 0
-1478 -397 -451 0
1478 397 0
1478 451 0
-1479 -397 -1476 0
1479 397 0
1479 1476 0
-1480 -367 -451 0
1480 367 0
1480 451 0
-1481 -367 -1476 0
1481 367 0
1481 1476 0
-1482 -451 -1476 0
1482 451 0
1482 1476 0
-1483 424 397 367 451 1476 0
1483 -424 0
1483 -397 0
1483 -367 0
1483 -451 0
1483 -1476 0
-1484 -426 -399 0
1484 426 0
1484 399 0
-1485 -426 -453 0
1485 426 0
1485 453 0
-1486 -426 -370 0
1486 426 0
1486 370 0
-1487 -426 -1488 0
1487 426 0
1487 1488 0
-1489 -399 -453 0
1489 399 0
1489 453 0
-1490 -399 -370 0
1490 399 0
1490 370 0
-1491 -399 -1488 0
1491 399 0
1491 1488 0
-1492 -453 -370 0
1492 453 0
1492 370 0
-1493 -453 -1488 0
1493 453 0
1493 1488 0
-1494 -370 -1488 0
1494 370 0
1494 1488 0
-1495 426 399 453 370 1488 0
1495 -426 0
1495 -399 0
1495 -453 0
1495 -370 0
1495 -1488 0
-1496 -373 -455 0
1496 373 0
1496 455 0
-1497 -373 -428 0
1497 373 0
1497 428 0
-1498 -373 -401 0
1498 373 0
1498 401 0
-1499 -373 -1500 0
1499 373 0
1499 1500 0
-1501 -455 -428 0
1501 455 0
1501 428 0
-1502 -455 -401 0
1502 455 0
1502 401 0
-1503 -455 -1500 0
1503 455 0
1503 1500 0
-1504 -428 -401 0
1504 428 0
1504 401 0
-1505 -428 -1500 0
1505 428 0
1505 1500 0
-1506 -401 -1500 0
1506 401 0
1506 1500 0
-1507 373 455 428 401 1500 0
1507 -373 0
1507 -455 0
1507 -428 0
1507 -401 0
1507 -1500 0
-1508 -457 -403 0
1508 457 0
1508 403 0
-1509 -457 -376 0
1509 457 0
1509 376 0
-1510 -457 -430 0
1510 457 0
1510 430 0
-1511 -457 -1512 0
1511 457 0
1511 1512 0
-1513 -403 -376 0
1513 403 0
1513 376 0
-1514 -403 -430 0
1514 403 0
1514 430 0
-1515 -403 -1512 0
1515 403 0
1515 1512 0
-1516 -376 -430 0
1516 376 0
1516 430 0
-1517 -376 -1512 0
1517 376 0
1517 1512 0
-1518 -430 -1512 0
1518 430 0
1518 1512 0
-1519 457 403 376 430 1512 0
1519 -457 0
1519 -403 0
1519 -376 0
1519 -430 0
1519 -1512 0
-1520 -735 -672 0
1520 735 0
1520 672 0
-1521 -735 -379 0
1521 735 0
1521 379 0
-1522 -735 -1523 0
1522 735 0
1522 1523 0
-1524 -672 -379 0
1524 672 0
1524 379 0
-1525 -672 -1523 0
1525 672 0
1525 1523 0
-1526 -379 -1523 0
1526 379 0
1526 1523 0
-1527 735 672 379 1523 0
1527 -735 0
1527 -672 0
1527 -379 0
1527 -1523 0
-1528 -674 -737 0
1528 674 0
1528 737 0
-1529 -674 -406 0
1529 674 0
1529 406 0
-1530 -674 -1531 0
1530 674 0
1530 1531 0
-1532 -737 -406 0
1532 737 0
1532 406 0
-1533 -737 -1531 0
1533 737 0
1533 1531 0
-1534 -406 -1531 0
1534 406 0
1534 1531 0
-1535 674 737 406 1531 0
1535 -674 0
1535 -737 0
1535 -406 0
1535 -1531 0
-1536 -433 -676 0
1536 433 0
1536 676 0
-1537 -433 -739 0
1537 433 0
1537 739 0
-1538 -433 -1539 0
1538 433 0
1538 1539 0
-1540 -676 -739 0
1540 676 0
1540 739 0
-1541 -676 -1539 0
1541 676 0
1541 1539 0
-1542 -739 -1539 0
1542 739 0
1542 1539 0
-1543 433 676 739 1539 0
1543 -433 0
1543 -676 0
1543 -739 0
1543 -1539 0
-1544 -460 -741 0
1544 460 0
1544 741 0
-1545 -460 -678 0
1545 460 0
1545 678 0
-1546 -460 -1547 0
1546 460 0
1546 1547 0
-1548 -741 -678 0
1548 741 0
1548 678 0
-1549 -741 -1547 0
1549 741 0
1549 1547 0
-1550 -678 -1547 0
1550 678 0
1550 1547 0
-1551 460 741 678 1547 0
1551 -460 0
1551 -741 0
1551 -678 0
1551 -1547 0
-1552 -511 -530 0
1552 511 0
1552 530 0
-1553 -511 -466 0
1553 511 0
1553 466 0
-1554 -511 -1555 0
1554 511 0
1554 1555 0
-1556 -530 -466 0
1556 530 0
1556 466 0
-1557 -530 -1555 0
1557 530 0
1557 1555 0
-1558 -466 -1555 0
1558 466 0
1558 1555 0
-1559 511 530 466 1555 0
1559 -511 0
1559 -530 0
1559 -466 0
1559 -1555 0
-1560 -532 -513 0
1560 532 0
1560 513 0
-1561 -532 -470 0
1561 532 0
1561 470 0
-1562 -532 -1563 0
1562 532 0
1562 1563 0
-1564 -513 -470 0
1564 513 0
1564 470 0
-1565 -513 -1563 0
1565 513 0
1565 1563 0
-1566 -470 -1563 0
1566 470 0
1566 1563 0
-1567 532 513 470 1563 0
1567 -532 0
1567 -513 0
1567 -470 0
1567 -1563 0
-1568 -473 -515 0
1568 473 0
1568 515 0
-1569 -473 -1570 0
1569 473 0
1569 1570 0
-1571 -515 -1570 0
1571 515 0
1571 1570 0
-1572 473 515 1570 0
1572 -473 0
1572 -515 0
1572 -1570 0
-1573 -517 -534 0
1573 517 0
1573 534 0
-1574 -517 -476 0
1574 517 0
1574 476 0
-1575 -517 -1576 0
1575 517 0
1575 1576 0
-1577 -534 -476 0
1577 534 0
1577 476 0
-1578 -534 -1576 0
1578 534 0
1578 1576 0
-1579 -476 -1576 0
1579 476 0
1579 1576 0
-1580 517 534 476 1576 0
1580 -517 0
1580 -534 0
1580 -476 0
1580 -1576 0
-1581 -479 -519 0
1581 479 0
1581 519 0
-1582 -479 -536 0
1582 479 0
1582 536 0
-1583 -479 -1584 0
1583 479 0
1583 1584 0
-1585 -519 -536 0
1585 519 0
1585 536 0
-1586 -519 -1584 0
1586 519 0
1586 1584 0
-1587 -536 -1584 0
1587 536 0
1587 1584 0
-1588 479 519 536 1584 0
1588 -479 0
1588 -519 0
1588 -536 0
1588 -1584 0
-1589 -538 -482 0
1589 538 0
1589 482 0
-1590 -538 -521 0
1590 538 0
1590 521 0
-1591 -538 -1592 0
1591 538 0
1591 1592 0
-1593 -482 -521 0
1593 482 0
1593 521 0
-1594 -482 -1592 0
1594 482 0
1594 1592 0
-1595 -521 -1592 0
1595 521 0
1595 1592 0
-1596 538 482 521 1592 0
1596 -538 0
1596 -482 0
1596 -521 0
1596 -1592 0
-1597 -506 -580 0
1597 506 0
1597 580 0
-1598 -506 -608 0
1598 506 0
1598 608 0
-1599 -506 -1600 0
1599 506 0
1599 1600 0
-1601 -580 -608 0
1601 580 0
1601 608 0
-1602 -580 -1600 0
1602 580 0
1602 1600 0
-1603 -608 -1600 0
1603 608 0
1603 1600 0
-1604 506 580 608 1600 0
1604 -506 0
1604 -580 0
1604 -608 0
1604 -1600 0
-1605 -610 -509 0
1605 610 0
1605 509 0
-1606 -610 -582 0
1606 610 0
1606 582 0
-1607 -610 -1608 0
1607 610 0
1607 1608 0
-1609 -509 -582 0
1609 509 0
1609 582 0
-1610 -509 -1608 0
1610 509 0
1610 1608 0
-1611 -582 -1608 0
1611 582 0
1611 1608 0
-1612 610 509 582 1608 0
1612 -610 0
1612 -509 0
1612 -582 0
1612 -1608 0
-1613 -612 -584 0
1613 612 0
1613 584 0
-1614 -612 -525 0
1614 612 0
1614 525 0
-1615 -612 -1616 0
1615 612 0
1615 1616 0
-1617 -584 -525 0
1617 584 0
1617 525 0
-1618 -584 -1616 0
1618 584 0
1618 1616 0
-1619 -525 -1616 0
1619 525 0
1619 1616 0
-1620 612 584 525 1616 0
1620 -612 0
1620 -584 0
1620 -525 0
1620 -1616 0
-1621 -614 -586 0
1621 614 0
1621 586 0
-1622 -614 -528 0
1622 614 0
1622 528 0
-1623 -614 -1624 0
1623 614 0
1623 1624 0
-1625 -586 -528 0
1625 586 0
1625 528 0
-1626 -586 -1624 0
1626 586 0
1626 1624 0
-1627 -528 -1624 0
1627 528 0
1627 1624 0
-1628 614 586 528 1624 0
1628 -614 0
1628 -586 0
1628 -528 0
1628 -1624 0
-1629 -588 -542 0
1629 588 0
1629 542 0
-1630 -588 -616 0
1630 588 0
1630 616 0
-1631 -588 -1632 0
1631 588 0
1631 1632 0
-1633 -542 -616 0
1633 542 0
1633 616 0
-1634 -542 -1632 0
1634 542 0
1634 1632 0
-1635 -616 -1632 0
1635 616 0
1635 1632 0
-1636 588 542 616 1632 0
1636 -588 0
1636 -542 0
1636 -616 0
1636 -1632 0
-1637 -545 -590 0
1637 545 0
1637 590 0
-1638 -545 -618 0
1638 545 0
1638 618 0
-1639 -545 -1640 0
1639 545 0
1639 1640 0
-1641 -590 -618 0
1641 590 0
1641 618 0
-1642 -590 -1640 0
1642 590 0
1642 1640 0
-1643 -618 -1640 0
1643 618 0
1643 1640 0
-1644 545 590 618 1640 0
1644 -545 0
1644 -590 0
1644 -618 0
1644 -1640 0
-1645 -570 -549 0
1645 570 0
1645 549 0
-1646 -570 -560 0
1646 570 0
1646 560 0
-1647 -570 -1648 0
1647 570 0
1647 1648 0
-1649 -549 -560 0
1649 549 0
1649 560 0
-1650 -549 -1648 0
1650 549 0
1650 1648 0
-1651 -560 -1648 0
1651 560 0
1651 1648 0
-1652 570 549 560 1648 0
1652 -570 0
1652 -549 0
1652 -560 0
1652 -1648 0
-1653 -562 -572 0
1653 562 0
1653 572 0
-1654 -562 -551 0
1654 562 0
1654 551 0
-1655 -562 -1656 0
1655 562 0
1655 1656 0
-1657 -572 -551 0
1657 572 0
1657 551 0
-1658 -572 -1656 0
1658 572 0
1658 1656 0
-1659 -551 -1656 0
1659 551 0
1659 1656 0
-1660 562 572 551 1656 0
1660 -562 0
1660 -572 0
1660 -551 0
1660 -1656 0
-1661 -799 -860 0
1661 799 0
1661 860 0
-1662 -799 -846 0
1662 799 0
1662 846 0
-1663 -799 -1664 0
1663 799 0
1663 1664 0
-1665 -860 -846 0
1665 860 0
1665 846 0
-1666 -860 -1664 0
1666 860 0
1666 1664 0
-1667 -846 -1664 0
1667 846 0
1667 1664 0
-1668 799 860 846 1664 0
1668 -799 0
1668 -860 0
1668 -846 0
1668 -1664 0
-1669 -801 -862 0
1669 801 0
1669 862 0
-1670 -801 -848 0
1670 801 0
1670 848 0
-1671 -801 -1672 0
1671 801 0
1671 1672 0
-1673 -862 -848 0
1673 862 0
1673 848 0
-1674 -862 -1672 0
1674 862 0
1674 1672 0
-1675 -848 -1672 0
1675 848 0
1675 1672 0
-1676 801 862 848 1672 0
1676 -801 0
1676 -862 0
1676 -848 0
1676 -1672 0
-1677 -822 -807 0
1677 822 0
1677 807 0
-1678 -822 -834 0
1678 822 0
1678 834 0
-1679 -822 -1680 0
1679 822 0
1679 1680 0
-1681 -807 -834 0
1681 807 0
1681 834 0
-1682 -807 -1680 0
1682 807 0
1682 1680 0
-1683 -834 -1680 0
1683 834 0
1683 1680 0
-1684 822 807 834 1680 0
1684 -822 0
1684 -807 0
1684 -834 0
1684 -1680 0
-1685 -836 -824 0
1685 836 0
1685 824 0
-1686 -836 -810 0
1686 836 0
1686 810 0
-1687 -836 -1688 0
1687 836 0
1687 1688 0
-1689 -824 -810 0
1689 824 0
1689 810 0
-1690 -824 -1688 0
1690 824 0
1690 1688 0
-1691 -810 -1688 0
1691 810 0
1691 1688 0
-1692 836 824 810 1688 0
1692 -836 0
1692 -824 0
1692 -810 0
1692 -1688 0
-1693 -838 -826 0
1693 838 0
1693 826 0
-1694 -838 -813 0
1694 838 0
1694 813 0
-1695 -838 -1696 0
1695 838 0
1695 1696 0
-1697 -826 -813 0
1697 826 0
1697 813 0
-1698 -826 -1696 0
1698 826 0
1698 1696 0
-1699 -813 -1696 0
1699 813 0
1699 1696 0
-1700 838 826 813 1696 0
1700 -838 0
1700 -826 0
1700 -813 0
1700 -1696 0
-1701 -828 -816 0
1701 828 0
1701 816 0
-1702 -828 -840 0
1702 828 0
1702 840 0
-1703 -828 -1704 0
1703 828 0
1703 1704 0
-1705 -816 -840 0
1705 816 0
1705 840 0
-1706 -816 -1704 0
1706 816 0
1706 1704 0
-1707 -840 -1704 0
1707 840 0
1707 1704 0
-1708 828 816 840 1704 0
1708 -828 0
1708 -816 0
1708 -840 0
1708 -1704 0
-1709 -912 -884 0
1709 912 0
1709 884 0
-1710 -912 -820 0
1710 912 0
1710 820 0
-1711 -912 -1712 0
1711 912 0
1711 1712 0
-1713 -884 -820 0
1713 884 0
1713 820 0
-1714 -884 -1712 0
1714 884 0
1714 1712 0
-1715 -820 -1712 0
1715 820 0
1715 1712 0
-1716 912 884 820 1712 0
1716 -912 0
1716 -884 0
1716 -820 0
1716 -1712 0
-1717 -914 -832 0
1717 914 0
1717 832 0
-1718 -914 -886 0
1718 914 0
1718 886 0
-1719 -914 -1720 0
1719 914 0
1719 1720 0
-1721 -832 -886 0
1721 832 0
1721 886 0
-1722 -832 -1720 0
1722 832 0
1722 1720 0
-1723 -886 -1720 0
1723 886 0
1723 1720 0
-1724 914 832 886 1720 0
1724 -914 0
1724 -832 0
1724 -886 0
1724 -1720 0
-1725 -888 -844 0
1725 888 0
1725 844 0
-1726 -888 -916 0
1726 888 0
1726 916 0
-1727 -888 -1728 0
1727 888 0
1727 1728 0
-1729 -844 -916 0
1729 844 0
1729 916 0
-1730 -844 -1728 0
1730 844 0
1730 1728 0
-1731 -916 -1728 0
1731 916 0
1731 1728 0
-1732 888 844 916 1728 0
1732 -888 0
1732 -844 0
1732 -916 0
1732 -1728 0
-1733 -852 -890 0
1733 852 0
1733 890 0
-1734 -852 -918 0
1734 852 0
1734 918 0
-1735 -852 -1736 0
1735 852 0
1735 1736 0
-1737 -890 -918 0
1737 890 0
1737 918 0
-1738 -890 -1736 0
1738 890 0
1738 1736 0
-1739 -918 -1736 0
1739 918 0
1739 1736 0
-1740 852 890 918 1736 0
1740 -852 0
1740 -890 0
1740 -918 0
1740 -1736 0
-1741 -892 -920 0
1741 892 0
1741 920 0
-1742 -892 -855 0
1742 892 0
1742 855 0
-1743 -892 -1744 0
1743 892 0
1743 1744 0
-1745 -920 -855 0
1745 920 0
1745 855 0
-1746 -920 -1744 0
1746 920 0
1746 1744 0
-1747 -855 -1744 0
1747 855 0
1747 1744 0
-1748 892 920 855 1744 0
1748 -892 0
1748 -920 0
1748 -855 0
1748 -1744 0
-1749 -858 -894 0
1749 858 0
1749 894 0
-1750 -858 -922 0
1750 858 0
1750 922 0
-1751 -858 -1752 0
1751 858 0
1751 1752 0
-1753 -894 -922 0
1753 894 0
1753 922 0
-1754 -894 -1752 0
1754 894 0
1754 1752 0
-1755 -922 -1752 0
1755 922 0
1755 1752 0
-1756 858 894 922 1752 0
1756 -858 0
1756 -894 0
1756 -922 0
1756 -1752 0
-1757 -866 -924 0
1757 866 0
1757 924 0
-1758 -866 -896 0
1758 866 0
1758 896 0
-1759 -866 -1760 0
1759 866 0
1759 1760 0
-1761 -924 -896 0
1761 924 0
1761 896 0
-1762 -924 -1760 0
1762 924 0
1762 1760 0
-1763 -896 -1760 0
1763 896 0
1763 1760 0
-1764 866 924 896 1760 0
1764 -866 0
1764 -924 0
1764 -896 0
1764 -1760 0
-1765 -898 -869 0
1765 898 0
1765 869 0
-1766 -898 -926 0
1766 898 0
1766 926 0
-1767 -898 -1768 0
1767 898 0
1767 1768 0
-1769 -869 -926 0
1769 869 0
1769 926 0
-1770 -869 -1768 0
1770 869 0
1770 1768 0
-1771 -926 -1768 0
1771 926 0
1771 1768 0
-1772 898 869 926 1768 0
1772 -898 0
1772 -869 0
1772 -926 0
1772 -1768 0
-1773 -872 -928 0
1773 872 0
1773 928 0
-1774 -872 -900 0
1774 872 0
1774 900 0
-1775 -872 -1776 0
1775 872 0
1775 1776 0
-1777 -928 -900 0
1777 928 0
1777 900 0
-1778 -928 -1776 0
1778 928 0
1778 1776 0
-1779 -900 -1776 0
1779 900 0
1779 1776 0
-1780 872 928 900 1776 0
1780 -872 0
1780 -928 0
1780 -900 0
1780 -1776 0
939 0
940 0
941 0
942 0
944 0
945 0
946 0
947 0
948 0
949 0
950 0
952 0
953 0
954 0
955 0
956 0
957 0
958 0
959 0
961 0
962 0
963 0
964 0
965 0
966 0
967 0
968 0
969 0
970 0
971 0
973 0
974 0
975 0
976 0
977 0
978 0
979 0
980 0
981 0
982 0
983 0
985 0
986 0
987 0
988 0
989 0
990 0
991 0
992 0
993 0
994 0
995 0
997 0
998 0
999 0
1000 0
1001 0
1002 0
1003 0
1004 0
1005 0
1006 0
1007 0
1009 0
1010 0
1011 0
1012 0
1013 0
1014 0
1015 0
1016 0
1017 0
1018 0
1019 0
1021 0
1022 0
1023 0
1024 0
1025 0
1026 0
1027 0
1028 0
1029 0
1030 0
1031 0
1033 0
1034 0
1035 0
1036 0
1037 0
1038 0
1039 0
1040 0
1041 0
1042 0
1043 0
1045 0
1046 0
1047 0
1048 0
1049 0
1050 0
1051 0
1052 0
1053 0
1054 0
1055 0
1057 0
1058 0
1059 0
1060 0
1061 0
1062 0
1063 0
1064 0
1065 0
1066 0
1067 0
1069 0
1070 0
1071 0
1072 0
1073 0
1074 0
1075 0
1076 0
1077 0
1078 0
1079 0
1081 0
1082 0
1083 0
1084 0
1085 0
1086 0
1087 0
1088 0
1089 0
1090 0
1091 0
1093 0
1094 0
1095 0
1096 0
1097 0
1098 0
1099 0
1100 0
1101 0
1102 0
1103 0
1105 0
1106 0
1107 0
1108 0
1109 0
1110 0
1111 0
1112 0
1113 0
1114 0
1115 0
1117 0
1118 0
1119 0
1120 0
1121 0
1122 0
1123 0
1124 0
1125 0
1126 0
1127 0
1129 0
1130 0
1131 0
1132 0
1133 0
1134 0
1135 0
1136 0
1137 0
1138 0
1139 0
1141 0
1142 0
1143 0
1144 0
1145 0
1146 0
1147 0
1148 0
1149 0
1150 0
1151 0
1153 0
1154 0
1155 0
1156 0
1157 0
1158 0
1159 0
1160 0
1161 0
1162 0
1163 0
1165 0
1166 0
1167 0
1168 0
1169 0
1170 0
1171 0
1172 0
1173 0
1174 0
1175 0
1177 0
1178 0
1179 0
1180 0
1181 0
1182 0
1183 0
1184 0
1185 0
1186 0
1187 0
1189 0
1190 0
1191 0
1192 0
1193 0
1194 0
1195 0
1196 0
1197 0
1198 0
1199 0
1201 0
1202 0
1203 0
1204 0
1205 0
1206 0
1207 0
1208 0
1209 0
1210 0
1211 0
1213 0
1214 0
1215 0
1216 0
1217 0
1218 0
1219 0
1220 0
1221 0
1222 0
1223 0
1225 0
1226 0
1227 0
1228 0
1229 0
1230 0
1231 0
1232 0
1233 0
1234 0
1235 0
1237 0
1238 0
1239 0
1240 0
1241 0
1242 0
1243 0
1244 0
1245 0
1246 0
1247 0
1249 0
1250 0
1251 0
1252 0
1253 0
1254 0
1255 0
1256 0
1257 0
1258 0
1259 0
1261 0
1262 0
1263 0
1264 0
1265 0
1266 0
1267 0
1268 0
1269 0
1270 0
1271 0
1273 0
1274 0
1275 0
1276 0
1277 0
1278 0
1279 0
1280 0
1281 0
1282 0
1283 0
1285 0
1286 0
1287 0
1288 0
1289 0
1290 0
1291 0
1292 0
1293 0
1294 0
1295 0
1297 0
1298 0
1299 0
1300 0
1301 0
1302 0
1303 0
1304 0
1305 0
1306 0
1307 0
1309 0
1310 0
1311 0
1312 0
1313 0
1314 0
1315 0
1316 0
1317 0
1318 0
1319 0
1321 0
1322 0
1323 0
1324 0
1325 0
1326 0
1327 0
1328 0
1329 0
1330 0
1331 0
1333 0
1334 0
1335 0
1336 0
1337 0
1338 0
1339 0
1340 0
1341 0
1342 0
1343 0
1345 0
1346 0
1347 0
1348 0
1349 0
1350 0
1351 0
1352 0
1353 0
1354 0
1355 0
1357 0
1358 0
1359 0
1360 0
1361 0
1362 0
1363 0
1364 0
1365 0
1366 0
1367 0
1369 0
1370 0
1371 0
1372 0
1373 0
1374 0
1375 0
1376 0
1377 0
1378 0
1379 0
1381 0
1382 0
1383 0
1384 0
1385 0
1386 0
1387 0
1388 0
1389 0
1390 0
1391 0
1393 0
1394 0
1395 0
1396 0
1397 0
1398 0
1399 0
1400 0
1401 0
1402 0
1403 0
1405 0
1406 0
1407 0
1408 0
1409 0
1410 0
1411 0
1412 0
1413 0
1414 0
1415 0
1417 0
1418 0
1419 0
1420 0
1421 0
1422 0
1423 0
1424 0
1425 0
1426 0
1427 0
1429 0
1430 0
1431 0
1432 0
1433 0
1434 0
1435 0
1436 0
1437 0
1438 0
1439 0
1441 0
1442 0
1443 0
1444 0
1445 0
1446 0
1447 0
1448 0
1449 0
1450 0
1451 0
1453 0
1454 0
1455 0
1456 0
1457 0
1458 0
1459 0
1460 0
1461 0
1462 0
1463 0
1465 0
1466 0
1467 0
1468 0
1469 0
1470 0
1471 0
1472 0
1473 0
1474 0
1475 0
1477 0
1478 0
1479 0
1480 0
1481 0
1482 0
1483 0
1484 0
1485 0
1486 0
1487 0
1489 0
1490 0
1491 0
1492 0
1493 0
1494 0
1495 0
1496 0
1497 0
1498 0
1499 0
1501 0
1502 0
1503 0
1504 0
1505 0
1506 0
1507 0
1508 0
1509 0
1510 0
1511 0
1513 0
1514 0
1515 0
1516 0
1517 0
1518 0
1519 0
1520 0
1521 0
1522 0
1524 0
1525 0
1526 0
1527 0
1528 0
1529 0
1530 0
1532 0
1533 0
1534 0
1535 0
1536 0
1537 0
1538 0
1540 0
1541 0
1542 0
1543 0
1544 0
1545 0
1546 0
1548 0
1549 0
1550 0
1551 0
1552 0
1553 0
1554 0
1556 0
1557 0
1558 0
1559 0
1560 0
1561 0
1562 0
1564 0
1565 0
1566 0
1567 0
1568 0
1569 0
1571 0
1572 0
1573 0
1574 0
1575 0
1577 0
1578 0
1579 0
1580 0
1581 0
1582 0
1583 0
1585 0
1586 0
1587 0
1588 0
1589 0
1590 0
1591 0
1593 0
1594 0
1595 0
1596 0
1597 0
1598 0
1599 0
1601 0
1602 0
1603 0
1604 0
1605 0
1606 0
1607 0
1609 0
1610 0
1611 0
1612 0
1613 0
1614 0
1615 0
1617 0
1618 0
1619 0
1620 0
1621 0
1622 0
1623 0
1625 0
1626 0
1627 0
1628 0
1629 0
1630 0
1631 0
1633 0
1634 0
1635 0
1636 0
1637 0
1638 0
1639 0
1641 0
1642 0
1643 0
1644 0
1645 0
1646 0
1647 0
1649 0
1650 0
1651 0
1652 0
1653 0
1654 0
1655 0
1657 0
1658 0
1659 0
1660 0
1661 0
1662 0
1663 0
1665 0
1666 0
1667 0
1668 0
1669 0
1670 0
1671 0
1673 0
1674 0
1675 0
1676 0
1677 0
1678 0
1679 0
1681 0
1682 0
1683 0
1684 0
1685 0
1686 0
1687 0
1689 0
1690 0
1691 0
1692 0
1693 0
1694 0
1695 0
1697 0
1698 0
1699 0
1700 0
1701 0
1702 0
1703 0
1705 0
1706 0
1707 0
1708 0
1709 0
1710 0
1711 0
1713 0
1714 0
1715 0
1716 0
1717 0
1718 0
1719 0
1721 0
1722 0
1723 0
1724 0
1725 0
1726 0
1727 0
1729 0
1730 0
1731 0
1732 0
1733 0
1734 0
1735 0
1737 0
1738 0
1739 0
1740 0
1741 0
1742 0
1743 0
1745 0
1746 0
1747 0
1748 0
1749 0
1750 0
1751 0
1753 0
1754 0
1755 0
1756 0
1757 0
1758 0
1759 0
1761 0
1762 0
1763 0
1764 0
1765 0
1766 0
1767 0
1769 0
1770 0
1771 0
1772 0
1773 0
1774 0
1775 0
1777 0
1778 0
1779 0
1780 0
