c BC-S1.2
p cnf 593 1148
1 -2 -3 0
-1 2 0
-1 3 0
-4 1 5 0
4 -1 0
4 -5 0
6 -7 -8 0
-6 7 0
-6 8 0
-9 6 10 0
9 -6 0
9 -10 0
11 -7 -12 0
-11 7 0
-11 12 0
-13 11 14 0
13 -11 0
13 -14 0
15 -16 -17 0
-15 16 0
-15 17 0
-18 15 19 0
18 -15 0
18 -19 0
20 -2 -21 0
-20 2 0
-20 21 0
-22 20 23 0
22 -20 0
22 -23 0
24 -16 -25 0
-24 16 0
-24 25 0
-26 24 27 0
26 -24 0
26 -27 0
28 -4 -26 0
-28 4 0
-28 26 0
29 -30 -31 0
-29 30 0
-29 31 0
-32 29 33 0
32 -29 0
32 -33 0
34 -30 -35 0
-34 30 0
-34 35 0
-36 34 37 0
36 -34 0
36 -37 0
38 -28 -36 0
-38 28 0
-38 36 0
39 -40 -41 0
-39 40 0
-39 41 0
-42 39 43 0
42 -39 0
42 -43 0
44 -45 -46 0
-44 45 0
-44 46 0
-47 44 48 0
47 -44 0
47 -48 0
49 -50 -51 0
-49 50 0
-49 51 0
-52 49 53 0
52 -49 0
52 -53 0
54 -55 -56 0
-54 55 0
-54 56 0
-57 54 58 0
57 -54 0
57 -58 0
59 -50 -60 0
-59 50 0
-59 60 0
-61 59 62 0
61 -59 0
61 -62 0
63 -64 -65 0
-63 64 0
-63 65 0
-66 63 67 0
66 -63 0
66 -67 0
68 -69 -70 0
-68 69 0
-68 70 0
-71 68 72 0
71 -68 0
71 -72 0
73 -64 -74 0
-73 64 0
-73 74 0
-75 73 76 0
75 -73 0
75 -76 0
77 -78 -79 0
-77 78 0
-77 79 0
-80 77 81 0
80 -77 0
80 -81 0
82 -78 -83 0
-82 78 0
-82 83 0
-84 82 85 0
84 -82 0
84 -85 0
86 -69 -87 0
-86 69 0
-86 87 0
-88 86 89 0
88 -86 0
88 -89 0
90 -40 -91 0
-90 40 0
-90 91 0
-92 90 93 0
92 -90 0
92 -93 0
94 -38 -92 0
-94 38 0
-94 92 0
95 -96 -97 0
-95 96 0
-95 97 0
-98 95 99 0
98 -95 0
98 -99 0
100 -38 -71 0
-100 38 0
-100 71 0
101 -100 -75 0
-101 100 0
-101 75 0
102 -38 -80 0
-102 38 0
-102 80 0
-103 101 102 0
103 -101 0
103 -102 0
104 -103 -52 0
-104 103 0
-104 52 0
105 -55 -106 0
-105 55 0
-105 106 0
-107 105 108 0
107 -105 0
107 -108 0
109 -104 -107 0
-109 104 0
-109 107 0
110 -111 -112 0
-110 111 0
-110 112 0
-113 110 114 0
113 -110 0
113 -114 0
115 -116 -117 0
-115 116 0
-115 117 0
-118 115 119 0
118 -115 0
118 -119 0
120 -121 -122 0
-120 121 0
-120 122 0
-123 120 124 0
123 -120 0
123 -124 0
125 -121 -126 0
-125 121 0
-125 126 0
-127 125 128 0
127 -125 0
127 -128 0
129 -130 -131 0
-129 130 0
-129 131 0
-132 129 133 0
132 -129 0
132 -133 0
134 -135 -136 0
-134 135 0
-134 136 0
-137 134 138 0
137 -134 0
137 -138 0
139 -135 -140 0
-139 135 0
-139 140 0
-141 139 142 0
141 -139 0
141 -142 0
143 -144 -145 0
-143 144 0
-143 145 0
-146 143 147 0
146 -143 0
146 -147 0
148 -149 -150 0
-148 149 0
-148 150 0
-151 148 152 0
151 -148 0
151 -152 0
153 -144 -154 0
-153 144 0
-153 154 0
-155 153 156 0
155 -153 0
155 -156 0
157 -158 -159 0
-157 158 0
-157 159 0
-160 157 161 0
160 -157 0
160 -161 0
162 -158 -163 0
-162 158 0
-162 163 0
-164 162 165 0
164 -162 0
164 -165 0
166 -149 -167 0
-166 149 0
-166 167 0
-168 166 169 0
168 -166 0
168 -169 0
170 -171 -172 0
-170 171 0
-170 172 0
-173 170 174 0
173 -170 0
173 -174 0
175 -176 -177 0
-175 176 0
-175 177 0
-178 175 179 0
178 -175 0
178 -179 0
180 -181 -182 0
-180 181 0
-180 182 0
-183 180 184 0
183 -180 0
183 -184 0
185 -186 -187 0
-185 186 0
-185 187 0
-188 185 189 0
188 -185 0
188 -189 0
190 -191 -192 0
-190 191 0
-190 192 0
-193 190 194 0
193 -190 0
193 -194 0
195 -186 -196 0
-195 186 0
-195 196 0
-197 195 198 0
197 -195 0
197 -198 0
199 -181 -200 0
-199 181 0
-199 200 0
-201 199 202 0
201 -199 0
201 -202 0
203 -176 -204 0
-203 176 0
-203 204 0
-205 203 206 0
205 -203 0
205 -206 0
207 -191 -208 0
-207 191 0
-207 208 0
-209 207 210 0
209 -207 0
209 -210 0
-211 94 109 0
211 -94 0
211 -109 0
212 -96 -213 0
-212 96 0
-212 213 0
-214 212 215 0
214 -212 0
214 -215 0
216 -211 -214 0
-216 211 0
-216 214 0
217 -94 -57 0
-217 94 0
-217 57 0
-218 104 217 0
218 -104 0
218 -217 0
219 -45 -220 0
-219 45 0
-219 220 0
-221 219 222 0
221 -219 0
221 -222 0
223 -218 -221 0
-223 218 0
-223 221 0
224 -225 -226 0
-224 225 0
-224 226 0
-227 224 228 0
227 -224 0
227 -228 0
-229 216 223 0
229 -216 0
229 -223 0
230 -225 -231 0
-230 225 0
-230 231 0
-232 230 233 0
232 -230 0
232 -233 0
234 -229 -232 0
-234 229 0
-234 232 0
235 -104 -221 0
-235 104 0
-235 221 0
236 -235 -98 0
-236 235 0
-236 98 0
-237 94 236 109 0
237 -94 0
237 -236 0
237 -109 0
238 -237 -123 0
-238 237 0
-238 123 0
239 -116 -240 0
-239 116 0
-239 240 0
-241 239 242 0
241 -239 0
241 -242 0
243 -238 -241 0
-243 238 0
-243 241 0
244 -245 -246 0
-244 245 0
-244 246 0
-247 244 248 0
247 -244 0
247 -248 0
249 -250 -251 0
-249 250 0
-249 251 0
-252 249 253 0
252 -249 0
252 -253 0
254 -250 -255 0
-254 250 0
-254 255 0
-256 254 257 0
256 -254 0
256 -257 0
258 -259 -260 0
-258 259 0
-258 260 0
-261 258 262 0
261 -258 0
261 -262 0
263 -171 -264 0
-263 171 0
-263 264 0
-265 263 266 0
265 -263 0
265 -266 0
267 -237 -265 0
-267 237 0
-267 265 0
-268 234 243 267 0
268 -234 0
268 -243 0
268 -267 0
269 -259 -270 0
-269 259 0
-269 270 0
-271 269 272 0
271 -269 0
271 -272 0
273 -268 -271 0
-273 268 0
-273 271 0
274 -275 -276 0
-274 275 0
-274 276 0
-277 274 278 0
277 -274 0
277 -278 0
279 -280 -281 0
-279 280 0
-279 281 0
-282 279 283 0
282 -279 0
282 -283 0
284 -280 -285 0
-284 280 0
-284 285 0
-286 284 287 0
286 -284 0
286 -287 0
288 -289 -290 0
-288 289 0
-288 290 0
-291 288 292 0
291 -288 0
291 -292 0
293 -289 -294 0
-293 289 0
-293 294 0
-295 293 296 0
295 -293 0
295 -296 0
297 -298 -299 0
-297 298 0
-297 299 0
-300 297 301 0
300 -297 0
300 -301 0
302 -268 -252 0
-302 268 0
-302 252 0
303 -245 -304 0
-303 245 0
-303 304 0
-305 303 306 0
305 -303 0
305 -306 0
307 -302 -305 0
-307 302 0
-307 305 0
-308 273 307 0
308 -273 0
308 -307 0
309 -298 -310 0
-309 298 0
-309 310 0
-311 309 312 0
311 -309 0
311 -312 0
313 -308 -311 0
-313 308 0
-313 311 0
314 -308 -291 0
-314 308 0
-314 291 0
315 -275 -316 0
-315 275 0
-315 316 0
-317 315 318 0
317 -315 0
317 -318 0
319 -314 -317 0
-319 314 0
-319 317 0
320 -321 -322 0
-320 321 0
-320 322 0
-323 320 324 0
323 -320 0
323 -324 0
-325 313 319 0
325 -313 0
325 -319 0
326 -321 -327 0
-326 321 0
-326 327 0
-328 326 329 0
328 -326 0
328 -329 0
330 -325 -328 0
-330 325 0
-330 328 0
-331 234 267 0
331 -234 0
331 -267 0
332 -331 -118 0
-332 331 0
-332 118 0
333 -235 -232 0
-333 235 0
-333 232 0
334 -333 -173 0
-334 333 0
-334 173 0
-335 94 236 109 334 0
335 -94 0
335 -236 0
335 -109 0
335 -334 0
336 -335 -123 0
-336 335 0
-336 123 0
-337 332 336 0
337 -332 0
337 -336 0
338 -111 -339 0
-338 111 0
-338 339 0
-340 338 341 0
340 -338 0
340 -341 0
342 -337 -340 0
-342 337 0
-342 340 0
343 -344 -345 0
-343 344 0
-343 345 0
-346 343 347 0
346 -343 0
346 -347 0
-348 330 342 0
348 -330 0
348 -342 0
349 -344 -350 0
-349 344 0
-349 350 0
-351 349 352 0
351 -349 0
351 -352 0
353 -348 -351 0
-353 348 0
-353 351 0
354 -355 -356 0
-354 355 0
-354 356 0
-357 354 358 0
357 -354 0
357 -358 0
359 -360 -361 0
-359 360 0
-359 361 0
-362 359 363 0
362 -359 0
362 -363 0
364 -365 -366 0
-364 365 0
-364 366 0
-367 364 368 0
367 -364 0
367 -368 0
369 -370 -371 0
-369 370 0
-369 371 0
-372 369 373 0
372 -369 0
372 -373 0
374 -375 -376 0
-374 375 0
-374 376 0
-377 374 378 0
377 -374 0
377 -378 0
379 -380 -381 0
-379 380 0
-379 381 0
-382 379 383 0
382 -379 0
382 -383 0
384 -375 -385 0
-384 375 0
-384 385 0
-386 384 387 0
386 -384 0
386 -387 0
388 -370 -389 0
-388 370 0
-388 389 0
-390 388 391 0
390 -388 0
390 -391 0
392 -365 -393 0
-392 365 0
-392 393 0
-394 392 395 0
394 -392 0
394 -395 0
396 -397 -398 0
-396 397 0
-396 398 0
-399 396 400 0
399 -396 0
399 -400 0
401 -397 -402 0
-401 397 0
-401 402 0
-403 401 404 0
403 -401 0
403 -404 0
405 -360 -406 0
-405 360 0
-405 406 0
-407 405 408 0
407 -405 0
407 -408 0
409 -355 -410 0
-409 355 0
-409 410 0
-411 409 412 0
411 -409 0
411 -412 0
413 -380 -414 0
-413 380 0
-413 414 0
-415 413 416 0
415 -413 0
415 -416 0
417 -418 -419 0
-417 418 0
-417 419 0
-420 417 421 0
420 -417 0
420 -421 0
422 -418 -423 0
-422 418 0
-422 423 0
-424 422 425 0
424 -422 0
424 -425 0
426 -353 -424 0
-426 353 0
-426 424 0
427 -333 -271 0
-427 333 0
-427 271 0
428 -333 -252 0
-428 333 0
-428 252 0
429 -428 -305 0
-429 428 0
-429 305 0
-430 427 429 0
430 -427 0
430 -429 0
431 -430 -311 0
-431 430 0
-431 311 0
432 -430 -291 0
-432 430 0
-432 291 0
433 -432 -317 0
-433 432 0
-433 317 0
-434 431 433 0
434 -431 0
434 -433 0
435 -434 -328 0
-435 434 0
-435 328 0
436 -435 -113 0
-436 435 0
-436 113 0
437 -333 -118 0
-437 333 0
-437 118 0
-438 436 437 0
438 -436 0
438 -437 0
439 -438 -127 0
-439 438 0
-439 127 0
-440 94 236 109 439 334 0
440 -94 0
440 -236 0
440 -109 0
440 -439 0
440 -334 0
441 -440 -151 0
-441 440 0
-441 151 0
442 -441 -155 0
-442 441 0
-442 155 0
443 -440 -160 0
-443 440 0
-443 160 0
-444 442 443 0
444 -442 0
444 -443 0
445 -444 -137 0
-445 444 0
-445 137 0
446 -130 -447 0
-446 130 0
-446 447 0
-448 446 449 0
448 -446 0
448 -449 0
450 -445 -448 0
-450 445 0
-450 448 0
-451 426 450 0
451 -426 0
451 -450 0
452 -426 -132 0
-452 426 0
-452 132 0
-453 452 445 0
453 -452 0
453 -445 0
-454 451 453 0
454 -451 0
454 -453 0
455 -286 -317 0
-455 286 0
-455 317 0
456 -286 -295 0
-456 286 0
-456 295 0
457 -456 -311 0
-457 456 0
-457 311 0
-458 455 457 0
458 -455 0
458 -457 0
459 -458 -328 0
-459 458 0
-459 328 0
460 -459 -113 0
-460 459 0
-460 113 0
461 -455 -300 0
-461 455 0
-461 300 0
462 -455 -277 0
-462 455 0
-462 277 0
-463 286 462 0
463 -286 0
463 -462 0
464 -463 -295 0
-464 463 0
-464 295 0
-465 461 464 0
465 -461 0
465 -464 0
466 -465 -247 0
-466 465 0
-466 247 0
467 -466 -256 0
-467 466 0
-467 256 0
468 -465 -261 0
-468 465 0
-468 261 0
-469 467 468 0
469 -467 0
469 -468 0
470 -469 -118 0
-470 469 0
-470 118 0
-471 460 470 0
471 -460 0
471 -470 0
472 -471 -127 0
-472 471 0
-472 127 0
473 -460 -241 0
-473 460 0
-473 241 0
-474 467 468 473 0
474 -467 0
474 -468 0
474 -473 0
475 -474 -227 0
-475 474 0
-475 227 0
476 -475 -47 0
-476 475 0
-476 47 0
477 -476 -61 0
-477 476 0
-477 61 0
478 -477 -66 0
-478 477 0
-478 66 0
479 -478 -88 0
-479 478 0
-479 88 0
480 -477 -84 0
-480 477 0
-480 84 0
-481 479 480 0
481 -479 0
481 -480 0
482 -481 -92 0
-482 481 0
-482 92 0
483 -475 -98 0
-483 475 0
-483 98 0
484 -474 -173 0
-484 474 0
-484 173 0
485 -476 -107 0
-485 476 0
-485 107 0
-486 472 482 483 484 485 0
486 -472 0
486 -482 0
486 -483 0
486 -484 0
486 -485 0
487 -486 -151 0
-487 486 0
-487 151 0
488 -487 -155 0
-488 487 0
-488 155 0
489 -486 -160 0
-489 486 0
-489 160 0
-490 488 489 0
490 -488 0
490 -489 0
491 -490 -137 0
-491 490 0
-491 137 0
492 -491 -448 0
-492 491 0
-492 448 0
493 -469 -227 0
-493 469 0
-493 227 0
494 -493 -47 0
-494 493 0
-494 47 0
495 -494 -61 0
-495 494 0
-495 61 0
496 -495 -66 0
-496 495 0
-496 66 0
497 -496 -88 0
-497 496 0
-497 88 0
498 -495 -84 0
-498 495 0
-498 84 0
-499 497 498 0
499 -497 0
499 -498 0
500 -499 -92 0
-500 499 0
-500 92 0
501 -493 -98 0
-501 493 0
-501 98 0
502 -469 -173 0
-502 469 0
-502 173 0
503 -494 -107 0
-503 494 0
-503 107 0
-504 500 501 502 503 0
504 -500 0
504 -501 0
504 -502 0
504 -503 0
505 -504 -123 0
-505 504 0
-505 123 0
-506 470 505 0
506 -470 0
506 -505 0
507 -506 -340 0
-507 506 0
-507 340 0
-508 459 507 0
508 -459 0
508 -507 0
509 -508 -351 0
-509 508 0
-509 351 0
510 -509 -424 0
-510 509 0
-510 424 0
-511 492 510 0
511 -492 0
511 -510 0
512 -510 -132 0
-512 510 0
-512 132 0
-513 491 512 0
513 -491 0
513 -512 0
-514 511 513 0
514 -511 0
514 -513 0
515 -13 -26 0
-515 13 0
-515 26 0
516 -515 -36 0
-516 515 0
-516 36 0
517 -516 -92 0
-517 516 0
-517 92 0
518 -516 -71 0
-518 516 0
-518 71 0
519 -518 -75 0
-519 518 0
-519 75 0
520 -516 -80 0
-520 516 0
-520 80 0
-521 519 520 0
521 -519 0
521 -520 0
522 -521 -52 0
-522 521 0
-522 52 0
523 -522 -107 0
-523 522 0
-523 107 0
-524 517 523 0
524 -517 0
524 -523 0
525 -524 -214 0
-525 524 0
-525 214 0
526 -517 -57 0
-526 517 0
-526 57 0
-527 522 526 0
527 -522 0
527 -526 0
528 -527 -221 0
-528 527 0
-528 221 0
-529 525 528 0
529 -525 0
529 -528 0
530 -529 -232 0
-530 529 0
-530 232 0
531 -522 -221 0
-531 522 0
-531 221 0
532 -531 -98 0
-532 531 0
-532 98 0
-533 517 532 523 0
533 -517 0
533 -532 0
533 -523 0
534 -533 -123 0
-534 533 0
-534 123 0
535 -534 -241 0
-535 534 0
-535 241 0
536 -533 -265 0
-536 533 0
-536 265 0
-537 530 535 536 0
537 -530 0
537 -535 0
537 -536 0
538 -537 -271 0
-538 537 0
-538 271 0
539 -537 -252 0
-539 537 0
-539 252 0
540 -539 -305 0
-540 539 0
-540 305 0
-541 538 540 0
541 -538 0
541 -540 0
542 -541 -311 0
-542 541 0
-542 311 0
543 -541 -291 0
-543 541 0
-543 291 0
544 -543 -317 0
-544 543 0
-544 317 0
-545 542 544 0
545 -542 0
545 -544 0
546 -545 -328 0
-546 545 0
-546 328 0
-547 530 536 0
547 -530 0
547 -536 0
548 -547 -118 0
-548 547 0
-548 118 0
549 -531 -232 0
-549 531 0
-549 232 0
550 -549 -173 0
-550 549 0
-550 173 0
-551 517 532 523 550 0
551 -517 0
551 -532 0
551 -523 0
551 -550 0
552 -551 -123 0
-552 551 0
-552 123 0
-553 548 552 0
553 -548 0
553 -552 0
554 -553 -340 0
-554 553 0
-554 340 0
-555 546 554 0
555 -546 0
555 -554 0
556 -555 -351 0
-556 555 0
-556 351 0
557 -556 -424 0
-557 556 0
-557 424 0
558 -549 -271 0
-558 549 0
-558 271 0
559 -549 -252 0
-559 549 0
-559 252 0
560 -559 -305 0
-560 559 0
-560 305 0
-561 558 560 0
561 -558 0
561 -560 0
562 -561 -311 0
-562 561 0
-562 311 0
563 -561 -291 0
-563 561 0
-563 291 0
564 -563 -317 0
-564 563 0
-564 317 0
-565 562 564 0
565 -562 0
565 -564 0
566 -565 -328 0
-566 565 0
-566 328 0
567 -566 -113 0
-567 566 0
-567 113 0
568 -549 -118 0
-568 549 0
-568 118 0
-569 567 568 0
569 -567 0
569 -568 0
570 -569 -127 0
-570 569 0
-570 127 0
-571 517 532 523 570 550 0
571 -517 0
571 -532 0
571 -523 0
571 -570 0
571 -550 0
572 -571 -151 0
-572 571 0
-572 151 0
573 -572 -155 0
-573 572 0
-573 155 0
574 -571 -160 0
-574 571 0
-574 160 0
-575 573 574 0
575 -573 0
575 -574 0
576 -575 -137 0
-576 575 0
-576 137 0
577 -576 -448 0
-577 576 0
-577 448 0
-578 557 577 0
578 -557 0
578 -577 0
579 -557 -132 0
-579 557 0
-579 132 0
-580 579 576 0
580 -579 0
580 -576 0
-581 578 580 0
581 -578 0
581 -580 0
582 -454 -583 0
-582 454 0
-582 583 0
584 454 583 0
-584 -454 0
-584 -583 0
-585 582 584 0
585 -582 0
585 -584 0
586 -514 -587 0
-586 514 0
-586 587 0
588 514 587 0
-588 -514 0
-588 -587 0
-589 586 588 0
589 -586 0
589 -588 0
590 -581 -591 0
-590 581 0
-590 591 0
592 581 591 0
-592 -581 0
-592 -591 0
-593 590 592 0
593 -590 0
593 -592 0
585 0
589 0
593 0
