c BC-S1.2
p cnf 564 1287
1 -2 -3 0
-1 2 0
-1 3 0
-4 1 5 0
4 -1 0
4 -5 0
6 -7 -8 0
-6 7 0
-6 8 0
-9 6 10 0
9 -6 0
9 -10 0
11 -7 -12 0
-11 7 0
-11 12 0
-13 11 14 0
13 -11 0
13 -14 0
15 -2 -16 0
-15 2 0
-15 16 0
-17 15 18 0
17 -15 0
17 -18 0
19 -20 -21 0
-19 20 0
-19 21 0
-22 19 23 0
22 -19 0
22 -23 0
24 -25 -26 0
-24 25 0
-24 26 0
-27 24 28 0
27 -24 0
27 -28 0
29 -30 -31 0
-29 30 0
-29 31 0
-32 29 33 0
32 -29 0
32 -33 0
34 -35 -36 0
-34 35 0
-34 36 0
-37 34 38 0
37 -34 0
37 -38 0
39 -30 -40 0
-39 30 0
-39 40 0
-41 39 42 0
41 -39 0
41 -42 0
43 -44 -45 0
-43 44 0
-43 45 0
-46 43 47 0
46 -43 0
46 -47 0
48 -44 -49 0
-48 44 0
-48 49 0
-50 48 51 0
50 -48 0
50 -51 0
52 -53 -54 0
-52 53 0
-52 54 0
-55 52 56 0
55 -52 0
55 -56 0
57 -53 -58 0
-57 53 0
-57 58 0
-59 57 60 0
59 -57 0
59 -60 0
61 -62 -63 0
-61 62 0
-61 63 0
-64 61 65 0
64 -61 0
64 -65 0
66 -67 -68 0
-66 67 0
-66 68 0
-69 66 70 0
69 -66 0
69 -70 0
71 -67 -72 0
-71 67 0
-71 72 0
-73 71 74 0
73 -71 0
73 -74 0
75 -76 -77 0
-75 76 0
-75 77 0
-78 75 79 0
78 -75 0
78 -79 0
80 -76 -81 0
-80 76 0
-80 81 0
-82 80 83 0
82 -80 0
82 -83 0
84 -62 -85 0
-84 62 0
-84 85 0
-86 84 87 0
86 -84 0
86 -87 0
88 -20 -89 0
-88 20 0
-88 89 0
-90 88 91 0
90 -88 0
90 -91 0
92 -22 -90 0
-92 22 0
-92 90 0
93 -92 -4 0
-93 92 0
-93 4 0
94 -95 -96 0
-94 95 0
-94 96 0
-97 94 98 0
97 -94 0
97 -98 0
-99 4 93 0
99 -4 0
99 -93 0
100 -95 -101 0
-100 95 0
-100 101 0
-102 100 103 0
102 -100 0
102 -103 0
104 -99 -102 0
-104 99 0
-104 102 0
105 -106 -107 0
-105 106 0
-105 107 0
-108 105 109 0
108 -105 0
108 -109 0
110 -106 -111 0
-110 106 0
-110 111 0
-112 110 113 0
112 -110 0
112 -113 0
114 -104 -112 0
-114 104 0
-114 112 0
115 -4 -17 0
-115 4 0
-115 17 0
116 -115 -22 0
-116 115 0
-116 22 0
-117 22 116 0
117 -22 0
117 -116 0
118 -117 -55 0
-118 117 0
-118 55 0
119 -118 -46 0
-119 118 0
-119 46 0
120 -119 -32 0
-120 119 0
-120 32 0
121 -35 -122 0
-121 35 0
-121 122 0
-123 121 124 0
123 -121 0
123 -124 0
125 -120 -123 0
-125 120 0
-125 123 0
126 -127 -128 0
-126 127 0
-126 128 0
-129 126 130 0
129 -126 0
129 -130 0
-131 114 125 0
131 -114 0
131 -125 0
132 -127 -133 0
-132 127 0
-132 133 0
-134 132 135 0
134 -132 0
134 -135 0
136 -131 -134 0
-136 131 0
-136 134 0
137 -138 -139 0
-137 138 0
-137 139 0
-140 137 141 0
140 -137 0
140 -141 0
142 -138 -143 0
-142 138 0
-142 143 0
-144 142 145 0
144 -142 0
144 -145 0
146 -136 -144 0
-146 136 0
-146 144 0
147 -148 -149 0
-147 148 0
-147 149 0
-150 147 151 0
150 -147 0
150 -151 0
152 -148 -153 0
-152 148 0
-152 153 0
-154 152 155 0
154 -152 0
154 -155 0
156 -146 -154 0
-156 146 0
-156 154 0
157 -158 -159 0
-157 158 0
-157 159 0
-160 157 161 0
160 -157 0
160 -161 0
162 -158 -163 0
-162 158 0
-162 163 0
-164 162 165 0
164 -162 0
164 -165 0
166 -156 -164 0
-166 156 0
-166 164 0
167 -168 -169 0
-167 168 0
-167 169 0
-170 167 171 0
170 -167 0
170 -171 0
172 -168 -173 0
-172 168 0
-172 173 0
-174 172 175 0
174 -172 0
174 -175 0
176 -166 -174 0
-176 166 0
-176 174 0
177 -178 -179 0
-177 178 0
-177 179 0
-180 177 181 0
180 -177 0
180 -181 0
182 -183 -184 0
-182 183 0
-182 184 0
-185 182 186 0
185 -182 0
185 -186 0
187 -183 -188 0
-187 183 0
-187 188 0
-189 187 190 0
189 -187 0
189 -190 0
191 -192 -193 0
-191 192 0
-191 193 0
-194 191 195 0
194 -191 0
194 -195 0
196 -192 -197 0
-196 192 0
-196 197 0
-198 196 199 0
198 -196 0
198 -199 0
200 -176 -198 0
-200 176 0
-200 198 0
201 -114 -37 0
-201 114 0
-201 37 0
-202 120 201 0
202 -120 0
202 -201 0
203 -25 -204 0
-203 25 0
-203 204 0
-205 203 206 0
205 -203 0
205 -206 0
207 -202 -205 0
-207 202 0
-207 205 0
208 -209 -210 0
-208 209 0
-208 210 0
-211 208 212 0
211 -208 0
211 -212 0
-213 200 207 0
213 -200 0
213 -207 0
214 -209 -215 0
-214 209 0
-214 215 0
-216 214 217 0
216 -214 0
216 -217 0
218 -213 -216 0
-218 213 0
-218 216 0
219 -220 -221 0
-219 220 0
-219 221 0
-222 219 223 0
222 -219 0
222 -223 0
224 -225 -226 0
-224 225 0
-224 226 0
-227 224 228 0
227 -224 0
227 -228 0
229 -225 -230 0
-229 225 0
-229 230 0
-231 229 232 0
231 -229 0
231 -232 0
233 -220 -234 0
-233 220 0
-233 234 0
-235 233 236 0
235 -233 0
235 -236 0
237 -218 -235 0
-237 218 0
-237 235 0
238 -239 -240 0
-238 239 0
-238 240 0
-241 238 242 0
241 -238 0
241 -242 0
243 -239 -244 0
-243 239 0
-243 244 0
-245 243 246 0
245 -243 0
245 -246 0
247 -237 -245 0
-247 237 0
-247 245 0
248 -207 -194 0
-248 207 0
-248 194 0
-249 176 248 0
249 -176 0
249 -248 0
250 -249 -185 0
-250 249 0
-250 185 0
251 -178 -252 0
-251 178 0
-251 252 0
-253 251 254 0
253 -251 0
253 -254 0
255 -250 -253 0
-255 250 0
-255 253 0
256 -257 -258 0
-256 257 0
-256 258 0
-259 256 260 0
259 -256 0
259 -260 0
-261 247 255 0
261 -247 0
261 -255 0
262 -257 -263 0
-262 257 0
-262 263 0
-264 262 265 0
264 -262 0
264 -265 0
266 -261 -264 0
-266 261 0
-266 264 0
267 -268 -269 0
-267 268 0
-267 269 0
-270 267 271 0
270 -267 0
270 -271 0
272 -273 -274 0
-272 273 0
-272 274 0
-275 272 276 0
275 -272 0
275 -276 0
277 -273 -278 0
-277 273 0
-277 278 0
-279 277 280 0
279 -277 0
279 -280 0
281 -268 -282 0
-281 268 0
-281 282 0
-283 281 284 0
283 -281 0
283 -284 0
285 -207 -216 0
-285 207 0
-285 216 0
286 -285 -235 0
-286 285 0
-286 235 0
287 -286 -245 0
-287 286 0
-287 245 0
288 -287 -180 0
-288 287 0
-288 180 0
289 -288 -189 0
-289 288 0
-289 189 0
-290 289 248 0
290 -289 0
290 -248 0
291 -290 -170 0
-291 290 0
-291 170 0
292 -291 -160 0
-292 291 0
-292 160 0
-293 156 292 0
293 -156 0
293 -292 0
294 -255 -241 0
-294 255 0
-294 241 0
-295 237 294 0
295 -237 0
295 -294 0
296 -294 -222 0
-296 294 0
-296 222 0
-297 218 296 0
297 -218 0
297 -296 0
298 -297 -227 0
-298 297 0
-298 227 0
299 -247 -180 0
-299 247 0
-299 180 0
-300 299 250 0
300 -299 0
300 -250 0
301 -266 -270 0
-301 266 0
-301 270 0
302 -301 -275 0
-302 301 0
-302 275 0
-303 266 293 295 298 300 302 0
303 -266 0
303 -293 0
303 -295 0
303 -298 0
303 -300 0
303 -302 0
304 -174 -170 0
-304 174 0
-304 170 0
305 -304 -160 0
-305 304 0
-305 160 0
-306 160 305 0
306 -160 0
306 -305 0
307 -306 -150 0
-307 306 0
-307 150 0
308 -307 -140 0
-308 307 0
-308 140 0
309 -308 -129 0
-309 308 0
-309 129 0
310 -309 -37 0
-310 309 0
-310 37 0
311 -309 -108 0
-311 309 0
-311 108 0
312 -311 -97 0
-312 311 0
-312 97 0
313 -312 -17 0
-313 312 0
-313 17 0
314 -313 -22 0
-314 313 0
-314 22 0
315 -314 -55 0
-315 314 0
-315 55 0
316 -315 -46 0
-316 315 0
-316 46 0
317 -316 -32 0
-317 316 0
-317 32 0
-318 310 317 0
318 -310 0
318 -317 0
319 -318 -205 0
-319 318 0
-319 205 0
320 -317 -123 0
-320 317 0
-320 123 0
-321 309 320 0
321 -309 0
321 -320 0
322 -321 -134 0
-322 321 0
-322 134 0
-323 308 322 0
323 -308 0
323 -322 0
324 -323 -144 0
-324 323 0
-324 144 0
-325 307 324 0
325 -307 0
325 -324 0
326 -325 -154 0
-326 325 0
-326 154 0
-327 160 326 305 0
327 -160 0
327 -326 0
327 -305 0
328 -327 -164 0
-328 327 0
-328 164 0
-329 328 304 0
329 -328 0
329 -304 0
330 -329 -174 0
-330 329 0
-330 174 0
-331 174 330 0
331 -174 0
331 -330 0
332 -331 -198 0
-332 331 0
-332 198 0
-333 319 332 0
333 -319 0
333 -332 0
334 -333 -216 0
-334 333 0
-334 216 0
335 -334 -235 0
-335 334 0
-335 235 0
336 -335 -245 0
-336 335 0
-336 245 0
337 -319 -194 0
-337 319 0
-337 194 0
338 -160 -164 0
-338 160 0
-338 164 0
339 -338 -174 0
-339 338 0
-339 174 0
-340 174 337 339 0
340 -174 0
340 -337 0
340 -339 0
341 -340 -185 0
-341 340 0
-341 185 0
342 -341 -253 0
-342 341 0
-342 253 0
-343 336 342 0
343 -336 0
343 -342 0
344 -343 -264 0
-344 343 0
-344 264 0
345 -304 -174 0
-345 304 0
-345 174 0
-346 174 345 0
346 -174 0
346 -345 0
347 -346 -185 0
-347 346 0
-347 185 0
348 -347 -253 0
-348 347 0
-348 253 0
349 -348 -241 0
-349 348 0
-349 241 0
350 -349 -222 0
-350 349 0
-350 222 0
351 -350 -211 0
-351 350 0
-351 211 0
352 -174 -198 0
-352 174 0
-352 198 0
-353 351 352 0
353 -351 0
353 -352 0
354 -353 -27 0
-354 353 0
-354 27 0
355 -354 -123 0
-355 354 0
-355 123 0
356 -174 -185 0
-356 174 0
-356 185 0
357 -356 -253 0
-357 356 0
-357 253 0
358 -357 -241 0
-358 357 0
-358 241 0
359 -358 -222 0
-359 358 0
-359 222 0
360 -359 -211 0
-360 359 0
-360 211 0
-361 360 352 0
361 -360 0
361 -352 0
362 -361 -27 0
-362 361 0
-362 27 0
363 -362 -41 0
-363 362 0
-363 41 0
364 -363 -50 0
-364 363 0
-364 50 0
365 -364 -59 0
-365 364 0
-365 59 0
366 -365 -90 0
-366 365 0
-366 90 0
367 -366 -4 0
-367 366 0
-367 4 0
368 -367 -102 0
-368 367 0
-368 102 0
369 -368 -112 0
-369 368 0
-369 112 0
-370 355 369 0
370 -355 0
370 -369 0
371 -370 -134 0
-371 370 0
-371 134 0
372 -371 -144 0
-372 371 0
-372 144 0
373 -372 -154 0
-373 372 0
-373 154 0
374 -360 -194 0
-374 360 0
-374 194 0
-375 174 374 0
375 -174 0
375 -374 0
376 -375 -170 0
-376 375 0
-376 170 0
377 -376 -160 0
-377 376 0
-377 160 0
-378 160 373 377 0
378 -160 0
378 -373 0
378 -377 0
-379 174 339 0
379 -174 0
379 -339 0
380 -379 -198 0
-380 379 0
-380 198 0
-381 319 380 0
381 -319 0
381 -380 0
382 -381 -216 0
-382 381 0
-382 216 0
383 -382 -235 0
-383 382 0
-383 235 0
384 -342 -241 0
-384 342 0
-384 241 0
-385 383 384 0
385 -383 0
385 -384 0
386 -384 -222 0
-386 384 0
-386 222 0
-387 382 386 0
387 -382 0
387 -386 0
388 -387 -227 0
-388 387 0
-388 227 0
389 -309 -134 0
-389 309 0
-389 134 0
-390 308 389 0
390 -308 0
390 -389 0
391 -390 -144 0
-391 390 0
-391 144 0
-392 307 391 0
392 -307 0
392 -391 0
393 -392 -154 0
-393 392 0
-393 154 0
-394 160 393 305 0
394 -160 0
394 -393 0
394 -305 0
395 -394 -164 0
-395 394 0
-395 164 0
-396 395 304 0
396 -395 0
396 -304 0
397 -396 -174 0
-397 396 0
-397 174 0
-398 174 397 0
398 -174 0
398 -397 0
399 -398 -198 0
-399 398 0
-399 198 0
-400 319 399 0
400 -319 0
400 -399 0
401 -400 -216 0
-401 400 0
-401 216 0
402 -401 -235 0
-402 401 0
-402 235 0
403 -402 -245 0
-403 402 0
-403 245 0
404 -403 -180 0
-404 403 0
-404 180 0
405 -160 -150 0
-405 160 0
-405 150 0
406 -405 -140 0
-406 405 0
-406 140 0
407 -406 -129 0
-407 406 0
-407 129 0
408 -407 -37 0
-408 407 0
-408 37 0
409 -407 -108 0
-409 407 0
-409 108 0
410 -409 -97 0
-410 409 0
-410 97 0
411 -410 -17 0
-411 410 0
-411 17 0
412 -411 -22 0
-412 411 0
-412 22 0
413 -412 -55 0
-413 412 0
-413 55 0
414 -413 -46 0
-414 413 0
-414 46 0
415 -414 -32 0
-415 414 0
-415 32 0
-416 408 415 0
416 -408 0
416 -415 0
417 -416 -205 0
-417 416 0
-417 205 0
418 -417 -194 0
-418 417 0
-418 194 0
-419 174 418 339 0
419 -174 0
419 -418 0
419 -339 0
420 -419 -185 0
-420 419 0
-420 185 0
-421 404 420 0
421 -404 0
421 -420 0
422 -420 -253 0
-422 420 0
-422 253 0
-423 403 422 0
423 -403 0
423 -422 0
424 -423 -264 0
-424 423 0
-424 264 0
425 -424 -270 0
-425 424 0
-425 270 0
426 -425 -275 0
-426 425 0
-426 275 0
-427 344 378 385 388 421 426 0
427 -344 0
427 -378 0
427 -385 0
427 -388 0
427 -421 0
427 -426 0
428 -112 -108 0
-428 112 0
-428 108 0
429 -428 -97 0
-429 428 0
-429 97 0
-430 97 429 0
430 -97 0
430 -429 0
431 -430 -17 0
-431 430 0
-431 17 0
432 -431 -22 0
-432 431 0
-432 22 0
433 -432 -55 0
-433 432 0
-433 55 0
434 -433 -46 0
-434 433 0
-434 46 0
435 -434 -32 0
-435 434 0
-435 32 0
436 -97 -102 0
-436 97 0
-436 102 0
437 -436 -112 0
-437 436 0
-437 112 0
-438 112 437 0
438 -112 0
438 -437 0
439 -438 -37 0
-439 438 0
-439 37 0
-440 435 439 0
440 -435 0
440 -439 0
441 -440 -205 0
-441 440 0
-441 205 0
442 -435 -123 0
-442 435 0
-442 123 0
-443 112 442 437 0
443 -112 0
443 -442 0
443 -437 0
444 -443 -134 0
-444 443 0
-444 134 0
445 -444 -144 0
-445 444 0
-445 144 0
446 -445 -154 0
-446 445 0
-446 154 0
447 -446 -164 0
-447 446 0
-447 164 0
448 -447 -174 0
-448 447 0
-448 174 0
449 -448 -198 0
-449 448 0
-449 198 0
-450 441 449 0
450 -441 0
450 -449 0
451 -450 -216 0
-451 450 0
-451 216 0
452 -451 -235 0
-452 451 0
-452 235 0
453 -452 -245 0
-453 452 0
-453 245 0
454 -97 -17 0
-454 97 0
-454 17 0
455 -454 -22 0
-455 454 0
-455 22 0
456 -455 -55 0
-456 455 0
-456 55 0
457 -456 -46 0
-457 456 0
-457 46 0
458 -457 -32 0
-458 457 0
-458 32 0
459 -458 -123 0
-459 458 0
-459 123 0
-460 112 459 437 0
460 -112 0
460 -459 0
460 -437 0
461 -460 -134 0
-461 460 0
-461 134 0
462 -461 -144 0
-462 461 0
-462 144 0
463 -462 -154 0
-463 462 0
-463 154 0
464 -463 -164 0
-464 463 0
-464 164 0
465 -464 -174 0
-465 464 0
-465 174 0
466 -441 -194 0
-466 441 0
-466 194 0
-467 465 466 0
467 -465 0
467 -466 0
468 -467 -185 0
-468 467 0
-468 185 0
469 -468 -253 0
-469 468 0
-469 253 0
-470 453 469 0
470 -453 0
470 -469 0
471 -470 -264 0
-471 470 0
-471 264 0
472 -441 -216 0
-472 441 0
-472 216 0
473 -472 -235 0
-473 472 0
-473 235 0
474 -473 -245 0
-474 473 0
-474 245 0
475 -474 -180 0
-475 474 0
-475 180 0
476 -475 -189 0
-476 475 0
-476 189 0
-477 476 466 0
477 -476 0
477 -466 0
478 -477 -170 0
-478 477 0
-478 170 0
479 -478 -160 0
-479 478 0
-479 160 0
-480 479 463 0
480 -479 0
480 -463 0
481 -465 -198 0
-481 465 0
-481 198 0
-482 441 481 0
482 -441 0
482 -481 0
483 -482 -216 0
-483 482 0
-483 216 0
484 -483 -235 0
-484 483 0
-484 235 0
485 -469 -241 0
-485 469 0
-485 241 0
-486 484 485 0
486 -484 0
486 -485 0
487 -485 -222 0
-487 485 0
-487 222 0
-488 483 487 0
488 -483 0
488 -487 0
489 -488 -227 0
-489 488 0
-489 227 0
490 -484 -245 0
-490 484 0
-490 245 0
491 -490 -180 0
-491 490 0
-491 180 0
-492 491 468 0
492 -491 0
492 -468 0
-493 490 469 0
493 -490 0
493 -469 0
494 -493 -264 0
-494 493 0
-494 264 0
495 -494 -270 0
-495 494 0
-495 270 0
496 -495 -275 0
-496 495 0
-496 275 0
-497 471 480 486 489 492 496 0
497 -471 0
497 -480 0
497 -486 0
497 -489 0
497 -492 0
497 -496 0
498 -13 -17 0
-498 13 0
-498 17 0
499 -498 -22 0
-499 498 0
-499 22 0
500 -499 -55 0
-500 499 0
-500 55 0
501 -500 -46 0
-501 500 0
-501 46 0
502 -501 -32 0
-502 501 0
-502 32 0
503 -502 -123 0
-503 502 0
-503 123 0
504 -499 -90 0
-504 499 0
-504 90 0
-505 498 504 0
505 -498 0
505 -504 0
506 -505 -4 0
-506 505 0
-506 4 0
-507 13 506 0
507 -13 0
507 -506 0
508 -507 -102 0
-508 507 0
-508 102 0
509 -508 -112 0
-509 508 0
-509 112 0
-510 503 509 0
510 -503 0
510 -509 0
511 -510 -134 0
-511 510 0
-511 134 0
512 -511 -144 0
-512 511 0
-512 144 0
513 -512 -154 0
-513 512 0
-513 154 0
514 -513 -164 0
-514 513 0
-514 164 0
515 -514 -174 0
-515 514 0
-515 174 0
516 -515 -198 0
-516 515 0
-516 198 0
517 -509 -37 0
-517 509 0
-517 37 0
-518 502 517 0
518 -502 0
518 -517 0
519 -518 -205 0
-519 518 0
-519 205 0
-520 516 519 0
520 -516 0
520 -519 0
521 -520 -216 0
-521 520 0
-521 216 0
522 -521 -235 0
-522 521 0
-522 235 0
523 -522 -245 0
-523 522 0
-523 245 0
524 -519 -194 0
-524 519 0
-524 194 0
-525 515 524 0
525 -515 0
525 -524 0
526 -525 -185 0
-526 525 0
-526 185 0
527 -526 -253 0
-527 526 0
-527 253 0
-528 523 527 0
528 -523 0
528 -527 0
529 -528 -264 0
-529 528 0
-529 264 0
530 -519 -216 0
-530 519 0
-530 216 0
531 -530 -235 0
-531 530 0
-531 235 0
532 -531 -245 0
-532 531 0
-532 245 0
533 -532 -180 0
-533 532 0
-533 180 0
534 -533 -189 0
-534 533 0
-534 189 0
-535 534 524 0
535 -534 0
535 -524 0
536 -535 -170 0
-536 535 0
-536 170 0
537 -536 -160 0
-537 536 0
-537 160 0
-538 513 537 0
538 -513 0
538 -537 0
539 -527 -241 0
-539 527 0
-539 241 0
-540 522 539 0
540 -522 0
540 -539 0
541 -539 -222 0
-541 539 0
-541 222 0
-542 521 541 0
542 -521 0
542 -541 0
543 -542 -227 0
-543 542 0
-543 227 0
544 -523 -180 0
-544 523 0
-544 180 0
-545 544 526 0
545 -544 0
545 -526 0
546 -529 -270 0
-546 529 0
-546 270 0
547 -546 -275 0
-547 546 0
-547 275 0
-548 529 538 540 543 545 547 0
548 -529 0
548 -538 0
548 -540 0
548 -543 0
548 -545 0
548 -547 0
549 -303 -550 0
-549 303 0
-549 550 0
551 303 550 0
-551 -303 0
-551 -550 0
-552 549 551 0
552 -549 0
552 -551 0
553 -427 -554 0
-553 427 0
-553 554 0
555 427 554 0
-555 -427 0
-555 -554 0
-556 553 555 0
556 -553 0
556 -555 0
557 -497 -558 0
-557 497 0
-557 558 0
559 497 558 0
-559 -497 0
-559 -558 0
-560 557 559 0
560 -557 0
560 -559 0
561 -548 -562 0
-561 548 0
-561 562 0
563 548 562 0
-563 -548 0
-563 -562 0
-564 561 563 0
564 -561 0
564 -563 0
552 0
556 0
560 0
564 0
