c BC-S1.2
p cnf 552 1282
1 -2 -3 0
-1 2 0
-1 3 0
-4 1 5 0
4 -1 0
4 -5 0
6 -7 -8 0
-6 7 0
-6 8 0
-9 6 10 0
9 -6 0
9 -10 0
11 -2 -12 0
-11 2 0
-11 12 0
-13 11 14 0
13 -11 0
13 -14 0
15 -16 -17 0
-15 16 0
-15 17 0
-18 15 19 0
18 -15 0
18 -19 0
20 -21 -22 0
-20 21 0
-20 22 0
-23 20 24 0
23 -20 0
23 -24 0
25 -26 -27 0
-25 26 0
-25 27 0
-28 25 29 0
28 -25 0
28 -29 0
30 -26 -31 0
-30 26 0
-30 31 0
-32 30 33 0
32 -30 0
32 -33 0
34 -16 -35 0
-34 16 0
-34 35 0
-36 34 37 0
36 -34 0
36 -37 0
38 -18 -36 0
-38 18 0
-38 36 0
39 -38 -4 0
-39 38 0
-39 4 0
-40 4 39 0
40 -4 0
40 -39 0
41 -7 -42 0
-41 7 0
-41 42 0
-43 41 44 0
43 -41 0
43 -44 0
45 -40 -43 0
-45 40 0
-45 43 0
46 -47 -48 0
-46 47 0
-46 48 0
-49 46 50 0
49 -46 0
49 -50 0
51 -52 -53 0
-51 52 0
-51 53 0
-54 51 55 0
54 -51 0
54 -55 0
56 -57 -58 0
-56 57 0
-56 58 0
-59 56 60 0
59 -56 0
59 -60 0
61 -57 -62 0
-61 57 0
-61 62 0
-63 61 64 0
63 -61 0
63 -64 0
65 -52 -66 0
-65 52 0
-65 66 0
-67 65 68 0
67 -65 0
67 -68 0
69 -70 -71 0
-69 70 0
-69 71 0
-72 69 73 0
72 -69 0
72 -73 0
74 -70 -75 0
-74 70 0
-74 75 0
-76 74 77 0
76 -74 0
76 -77 0
78 -79 -80 0
-78 79 0
-78 80 0
-81 78 82 0
81 -78 0
81 -82 0
83 -79 -84 0
-83 79 0
-83 84 0
-85 83 86 0
85 -83 0
85 -86 0
87 -88 -89 0
-87 88 0
-87 89 0
-90 87 91 0
90 -87 0
90 -91 0
92 -88 -93 0
-92 88 0
-92 93 0
-94 92 95 0
94 -92 0
94 -95 0
96 -97 -98 0
-96 97 0
-96 98 0
-99 96 100 0
99 -96 0
99 -100 0
101 -102 -103 0
-101 102 0
-101 103 0
-104 101 105 0
104 -101 0
104 -105 0
106 -102 -107 0
-106 102 0
-106 107 0
-108 106 109 0
108 -106 0
108 -109 0
110 -97 -111 0
-110 97 0
-110 111 0
-112 110 113 0
112 -110 0
112 -113 0
114 -115 -116 0
-114 115 0
-114 116 0
-117 114 118 0
117 -114 0
117 -118 0
119 -115 -120 0
-119 115 0
-119 120 0
-121 119 122 0
121 -119 0
121 -122 0
123 -124 -125 0
-123 124 0
-123 125 0
-126 123 127 0
126 -123 0
126 -127 0
128 -129 -130 0
-128 129 0
-128 130 0
-131 128 132 0
131 -128 0
131 -132 0
133 -129 -134 0
-133 129 0
-133 134 0
-135 133 136 0
135 -133 0
135 -136 0
137 -138 -139 0
-137 138 0
-137 139 0
-140 137 141 0
140 -137 0
140 -141 0
142 -124 -143 0
-142 124 0
-142 143 0
-144 142 145 0
144 -142 0
144 -145 0
146 -147 -148 0
-146 147 0
-146 148 0
-149 146 150 0
149 -146 0
149 -150 0
151 -147 -152 0
-151 147 0
-151 152 0
-153 151 154 0
153 -151 0
153 -154 0
155 -138 -156 0
-155 138 0
-155 156 0
-157 155 158 0
157 -155 0
157 -158 0
159 -160 -161 0
-159 160 0
-159 161 0
-162 159 163 0
162 -159 0
162 -163 0
164 -40 -13 0
-164 40 0
-164 13 0
-165 164 38 0
165 -164 0
165 -38 0
166 -165 -18 0
-166 165 0
-166 18 0
-167 18 166 0
167 -18 0
167 -166 0
168 -21 -169 0
-168 21 0
-168 169 0
-170 168 171 0
170 -168 0
170 -171 0
172 -167 -170 0
-172 167 0
-172 170 0
-173 45 172 0
173 -45 0
173 -172 0
174 -160 -175 0
-174 160 0
-174 175 0
-176 174 177 0
176 -174 0
176 -177 0
178 -173 -176 0
-178 173 0
-178 176 0
179 -180 -181 0
-179 180 0
-179 181 0
-182 179 183 0
182 -179 0
182 -183 0
184 -180 -185 0
-184 180 0
-184 185 0
-186 184 187 0
186 -184 0
186 -187 0
188 -178 -186 0
-188 178 0
-188 186 0
189 -190 -191 0
-189 190 0
-189 191 0
-192 189 193 0
192 -189 0
192 -193 0
194 -190 -195 0
-194 190 0
-194 195 0
-196 194 197 0
196 -194 0
196 -197 0
198 -188 -196 0
-198 188 0
-198 196 0
199 -200 -201 0
-199 200 0
-199 201 0
-202 199 203 0
202 -199 0
202 -203 0
204 -173 -140 0
-204 173 0
-204 140 0
205 -204 -144 0
-205 204 0
-205 144 0
206 -173 -149 0
-206 173 0
-206 149 0
-207 205 206 0
207 -205 0
207 -206 0
208 -207 -117 0
-208 207 0
-208 117 0
209 -208 -99 0
-209 208 0
-209 99 0
210 -209 -90 0
-210 209 0
-210 90 0
211 -210 -72 0
-211 210 0
-211 72 0
212 -211 -54 0
-212 211 0
-212 54 0
213 -47 -214 0
-213 47 0
-213 214 0
-215 213 216 0
215 -213 0
215 -216 0
217 -212 -215 0
-217 212 0
-217 215 0
-218 198 217 0
218 -198 0
218 -217 0
219 -200 -220 0
-219 200 0
-219 220 0
-221 219 222 0
221 -219 0
221 -222 0
223 -218 -221 0
-223 218 0
-223 221 0
224 -225 -226 0
-224 225 0
-224 226 0
-227 224 228 0
227 -224 0
227 -228 0
229 -230 -231 0
-229 230 0
-229 231 0
-232 229 233 0
232 -229 0
232 -233 0
234 -235 -236 0
-234 235 0
-234 236 0
-237 234 238 0
237 -234 0
237 -238 0
239 -235 -240 0
-239 235 0
-239 240 0
-241 239 242 0
241 -239 0
241 -242 0
243 -244 -245 0
-243 244 0
-243 245 0
-246 243 247 0
246 -243 0
246 -247 0
248 -244 -249 0
-248 244 0
-248 249 0
-250 248 251 0
250 -248 0
250 -251 0
252 -253 -254 0
-252 253 0
-252 254 0
-255 252 256 0
255 -252 0
255 -256 0
257 -253 -258 0
-257 253 0
-257 258 0
-259 257 260 0
259 -257 0
259 -260 0
261 -230 -262 0
-261 230 0
-261 262 0
-263 261 264 0
263 -261 0
263 -264 0
265 -225 -266 0
-265 225 0
-265 266 0
-267 265 268 0
267 -265 0
267 -268 0
269 -223 -267 0
-269 223 0
-269 267 0
270 -223 -232 0
-270 223 0
-270 232 0
271 -198 -49 0
-271 198 0
-271 49 0
272 -271 -67 0
-272 271 0
-272 67 0
273 -272 -76 0
-273 272 0
-273 76 0
274 -273 -94 0
-274 273 0
-274 94 0
275 -274 -112 0
-275 274 0
-275 112 0
276 -275 -121 0
-276 275 0
-276 121 0
-277 276 206 0
277 -276 0
277 -206 0
278 -277 -126 0
-278 277 0
-278 126 0
-279 278 204 0
279 -278 0
279 -204 0
280 -279 -131 0
-280 279 0
-280 131 0
281 -270 -255 0
-281 270 0
-281 255 0
-282 274 209 0
282 -274 0
282 -209 0
283 -282 -104 0
-283 282 0
-283 104 0
-284 273 210 0
284 -273 0
284 -210 0
285 -284 -81 0
-285 284 0
-285 81 0
286 -270 -237 0
-286 270 0
-286 237 0
287 -38 -18 0
-287 38 0
-287 18 0
-288 18 287 0
288 -18 0
288 -287 0
289 -288 -170 0
-289 288 0
-289 170 0
290 -289 -9 0
-290 289 0
-290 9 0
-291 4 290 39 0
291 -4 0
291 -290 0
291 -39 0
-292 269 270 218 280 281 283 285 286 291 0
292 -269 0
292 -270 0
292 -218 0
292 -280 0
292 -281 0
292 -283 0
292 -285 0
292 -286 0
292 -291 0
293 -121 -117 0
-293 121 0
-293 117 0
294 -293 -99 0
-294 293 0
-294 99 0
-295 99 294 0
295 -99 0
295 -294 0
296 -295 -90 0
-296 295 0
-296 90 0
297 -296 -72 0
-297 296 0
-297 72 0
298 -297 -54 0
-298 297 0
-298 54 0
299 -298 -215 0
-299 298 0
-299 215 0
300 -99 -112 0
-300 99 0
-300 112 0
301 -300 -121 0
-301 300 0
-301 121 0
-302 121 301 0
302 -121 0
302 -301 0
303 -302 -126 0
-303 302 0
-303 126 0
304 -303 -157 0
-304 303 0
-304 157 0
305 -302 -153 0
-305 302 0
-305 153 0
-306 304 305 0
306 -304 0
306 -305 0
307 -306 -176 0
-307 306 0
-307 176 0
308 -307 -186 0
-308 307 0
-308 186 0
309 -308 -196 0
-309 308 0
-309 196 0
-310 299 309 0
310 -299 0
310 -309 0
311 -310 -221 0
-311 310 0
-311 221 0
312 -311 -267 0
-312 311 0
-312 267 0
313 -311 -232 0
-313 311 0
-313 232 0
314 -302 -117 0
-314 302 0
-314 117 0
315 -314 -99 0
-315 314 0
-315 99 0
-316 99 315 0
316 -99 0
316 -315 0
317 -316 -90 0
-317 316 0
-317 90 0
318 -317 -72 0
-318 317 0
-318 72 0
319 -318 -54 0
-319 318 0
-319 54 0
320 -319 -215 0
-320 319 0
-320 215 0
321 -320 -192 0
-321 320 0
-321 192 0
322 -321 -182 0
-322 321 0
-322 182 0
323 -322 -162 0
-323 322 0
-323 162 0
-324 323 305 0
324 -323 0
324 -305 0
325 -324 -140 0
-325 324 0
-325 140 0
326 -300 -99 0
-326 300 0
-326 99 0
-327 99 326 0
327 -99 0
327 -326 0
328 -327 -90 0
-328 327 0
-328 90 0
329 -328 -72 0
-329 328 0
-329 72 0
330 -329 -54 0
-330 329 0
-330 54 0
331 -330 -215 0
-331 330 0
-331 215 0
332 -331 -192 0
-332 331 0
-332 192 0
333 -332 -182 0
-333 332 0
-333 182 0
334 -333 -162 0
-334 333 0
-334 162 0
335 -334 -149 0
-335 334 0
-335 149 0
-336 121 335 301 0
336 -121 0
336 -335 0
336 -301 0
337 -336 -126 0
-337 336 0
-337 126 0
-338 325 337 0
338 -325 0
338 -337 0
339 -338 -131 0
-339 338 0
-339 131 0
340 -313 -255 0
-340 313 0
-340 255 0
341 -309 -49 0
-341 309 0
-341 49 0
342 -341 -67 0
-342 341 0
-342 67 0
343 -342 -76 0
-343 342 0
-343 76 0
344 -343 -94 0
-344 343 0
-344 94 0
-345 99 344 294 0
345 -99 0
345 -344 0
345 -294 0
346 -345 -104 0
-346 345 0
-346 104 0
-347 296 343 0
347 -296 0
347 -343 0
348 -347 -81 0
-348 347 0
-348 81 0
349 -313 -237 0
-349 313 0
-349 237 0
350 -299 -192 0
-350 299 0
-350 192 0
351 -350 -182 0
-351 350 0
-351 182 0
352 -351 -162 0
-352 351 0
-352 162 0
-353 352 304 305 0
353 -352 0
353 -304 0
353 -305 0
354 -353 -9 0
-354 353 0
-354 9 0
355 -353 -23 0
-355 353 0
-355 23 0
356 -355 -36 0
-356 355 0
-356 36 0
357 -356 -4 0
-357 356 0
-357 4 0
-358 354 357 0
358 -354 0
358 -357 0
-359 312 313 310 339 340 346 348 349 358 0
359 -312 0
359 -313 0
359 -310 0
359 -339 0
359 -340 0
359 -346 0
359 -348 0
359 -349 0
359 -358 0
360 -32 -170 0
-360 32 0
-360 170 0
361 -32 -36 0
-361 32 0
-361 36 0
362 -361 -4 0
-362 361 0
-362 4 0
363 -362 -43 0
-363 362 0
-363 43 0
-364 360 363 0
364 -360 0
364 -363 0
365 -364 -176 0
-365 364 0
-365 176 0
366 -365 -186 0
-366 365 0
-366 186 0
367 -366 -196 0
-367 366 0
-367 196 0
368 -364 -140 0
-368 364 0
-368 140 0
369 -368 -144 0
-369 368 0
-369 144 0
370 -364 -149 0
-370 364 0
-370 149 0
-371 369 370 0
371 -369 0
371 -370 0
372 -371 -117 0
-372 371 0
-372 117 0
373 -372 -99 0
-373 372 0
-373 99 0
374 -373 -90 0
-374 373 0
-374 90 0
375 -374 -72 0
-375 374 0
-375 72 0
376 -375 -54 0
-376 375 0
-376 54 0
377 -376 -215 0
-377 376 0
-377 215 0
-378 367 377 0
378 -367 0
378 -377 0
379 -378 -221 0
-379 378 0
-379 221 0
380 -379 -267 0
-380 379 0
-380 267 0
381 -379 -232 0
-381 379 0
-381 232 0
382 -367 -49 0
-382 367 0
-382 49 0
383 -382 -67 0
-383 382 0
-383 67 0
384 -383 -76 0
-384 383 0
-384 76 0
385 -384 -94 0
-385 384 0
-385 94 0
386 -385 -112 0
-386 385 0
-386 112 0
387 -386 -121 0
-387 386 0
-387 121 0
-388 387 370 0
388 -387 0
388 -370 0
389 -388 -126 0
-389 388 0
-389 126 0
-390 389 368 0
390 -389 0
390 -368 0
391 -390 -131 0
-391 390 0
-391 131 0
392 -381 -255 0
-392 381 0
-392 255 0
-393 385 373 0
393 -385 0
393 -373 0
394 -393 -104 0
-394 393 0
-394 104 0
-395 384 374 0
395 -384 0
395 -374 0
396 -395 -81 0
-396 395 0
-396 81 0
397 -381 -237 0
-397 381 0
-397 237 0
398 -360 -9 0
-398 360 0
-398 9 0
399 -360 -23 0
-399 360 0
-399 23 0
-400 32 399 0
400 -32 0
400 -399 0
401 -400 -36 0
-401 400 0
-401 36 0
402 -401 -4 0
-402 401 0
-402 4 0
-403 398 402 0
403 -398 0
403 -402 0
-404 380 381 378 391 392 394 396 397 403 0
404 -380 0
404 -381 0
404 -378 0
404 -391 0
404 -392 0
404 -394 0
404 -396 0
404 -397 0
404 -403 0
405 -63 -215 0
-405 63 0
-405 215 0
406 -63 -67 0
-406 63 0
-406 67 0
407 -406 -76 0
-407 406 0
-407 76 0
408 -407 -94 0
-408 407 0
-408 94 0
409 -408 -112 0
-409 408 0
-409 112 0
410 -409 -121 0
-410 409 0
-410 121 0
411 -410 -153 0
-411 410 0
-411 153 0
412 -410 -126 0
-412 410 0
-412 126 0
413 -412 -157 0
-413 412 0
-413 157 0
-414 411 413 0
414 -411 0
414 -413 0
415 -414 -176 0
-415 414 0
-415 176 0
416 -415 -186 0
-416 415 0
-416 186 0
417 -416 -196 0
-417 416 0
-417 196 0
-418 405 417 0
418 -405 0
418 -417 0
419 -418 -221 0
-419 418 0
-419 221 0
420 -419 -267 0
-420 419 0
-420 267 0
421 -419 -232 0
-421 419 0
-421 232 0
422 -409 -99 0
-422 409 0
-422 99 0
423 -422 -90 0
-423 422 0
-423 90 0
424 -423 -72 0
-424 423 0
-424 72 0
425 -424 -54 0
-425 424 0
-425 54 0
-426 63 425 0
426 -63 0
426 -425 0
427 -426 -215 0
-427 426 0
-427 215 0
428 -427 -192 0
-428 427 0
-428 192 0
429 -428 -182 0
-429 428 0
-429 182 0
430 -429 -162 0
-430 429 0
-430 162 0
431 -430 -149 0
-431 430 0
-431 149 0
-432 431 410 0
432 -431 0
432 -410 0
433 -432 -126 0
-433 432 0
-433 126 0
434 -410 -117 0
-434 410 0
-434 117 0
435 -434 -99 0
-435 434 0
-435 99 0
436 -435 -90 0
-436 435 0
-436 90 0
437 -436 -72 0
-437 436 0
-437 72 0
438 -437 -54 0
-438 437 0
-438 54 0
-439 63 438 0
439 -63 0
439 -438 0
440 -439 -215 0
-440 439 0
-440 215 0
441 -440 -192 0
-441 440 0
-441 192 0
442 -441 -182 0
-442 441 0
-442 182 0
443 -442 -162 0
-443 442 0
-443 162 0
-444 443 411 0
444 -443 0
444 -411 0
445 -444 -140 0
-445 444 0
-445 140 0
-446 433 445 0
446 -433 0
446 -445 0
447 -446 -131 0
-447 446 0
-447 131 0
448 -421 -255 0
-448 421 0
-448 255 0
449 -407 -72 0
-449 407 0
-449 72 0
450 -449 -54 0
-450 449 0
-450 54 0
-451 63 450 0
451 -63 0
451 -450 0
452 -451 -215 0
-452 451 0
-452 215 0
453 -452 -192 0
-453 452 0
-453 192 0
454 -453 -182 0
-454 453 0
-454 182 0
455 -454 -162 0
-455 454 0
-455 162 0
456 -455 -149 0
-456 455 0
-456 149 0
457 -455 -140 0
-457 455 0
-457 140 0
458 -457 -144 0
-458 457 0
-458 144 0
-459 456 458 0
459 -456 0
459 -458 0
460 -459 -117 0
-460 459 0
-460 117 0
461 -460 -99 0
-461 460 0
-461 99 0
-462 461 408 0
462 -461 0
462 -408 0
463 -462 -104 0
-463 462 0
-463 104 0
464 -406 -54 0
-464 406 0
-464 54 0
-465 63 464 0
465 -63 0
465 -464 0
466 -465 -215 0
-466 465 0
-466 215 0
467 -466 -192 0
-467 466 0
-467 192 0
468 -467 -182 0
-468 467 0
-468 182 0
469 -468 -162 0
-469 468 0
-469 162 0
470 -469 -149 0
-470 469 0
-470 149 0
471 -469 -140 0
-471 469 0
-471 140 0
472 -471 -144 0
-472 471 0
-472 144 0
-473 470 472 0
473 -470 0
473 -472 0
474 -473 -117 0
-474 473 0
-474 117 0
475 -474 -99 0
-475 474 0
-475 99 0
476 -475 -90 0
-476 475 0
-476 90 0
-477 476 407 0
477 -476 0
477 -407 0
478 -477 -81 0
-478 477 0
-478 81 0
479 -421 -237 0
-479 421 0
-479 237 0
480 -405 -192 0
-480 405 0
-480 192 0
481 -480 -182 0
-481 480 0
-481 182 0
482 -481 -162 0
-482 481 0
-482 162 0
-483 482 411 413 0
483 -482 0
483 -411 0
483 -413 0
484 -483 -9 0
-484 483 0
-484 9 0
485 -483 -23 0
-485 483 0
-485 23 0
486 -485 -36 0
-486 485 0
-486 36 0
487 -486 -4 0
-487 486 0
-487 4 0
-488 484 487 0
488 -484 0
488 -487 0
-489 420 421 418 447 448 463 478 479 488 0
489 -420 0
489 -421 0
489 -418 0
489 -447 0
489 -448 0
489 -463 0
489 -478 0
489 -479 0
489 -488 0
490 -250 -263 0
-490 250 0
-490 263 0
491 -490 -267 0
-491 490 0
-491 267 0
492 -490 -232 0
-492 490 0
-492 232 0
-493 250 492 0
493 -250 0
493 -492 0
494 -490 -202 0
-494 490 0
-494 202 0
495 -494 -49 0
-495 494 0
-495 49 0
496 -495 -67 0
-496 495 0
-496 67 0
497 -496 -76 0
-497 496 0
-497 76 0
498 -497 -94 0
-498 497 0
-498 94 0
499 -498 -112 0
-499 498 0
-499 112 0
500 -499 -121 0
-500 499 0
-500 121 0
501 -500 -153 0
-501 500 0
-501 153 0
502 -494 -192 0
-502 494 0
-502 192 0
503 -502 -182 0
-503 502 0
-503 182 0
504 -503 -162 0
-504 503 0
-504 162 0
-505 501 504 0
505 -501 0
505 -504 0
506 -505 -140 0
-506 505 0
-506 140 0
507 -504 -149 0
-507 504 0
-507 149 0
-508 500 507 0
508 -500 0
508 -507 0
509 -508 -126 0
-509 508 0
-509 126 0
-510 506 509 0
510 -506 0
510 -509 0
511 -510 -131 0
-511 510 0
-511 131 0
512 -493 -255 0
-512 493 0
-512 255 0
513 -504 -140 0
-513 504 0
-513 140 0
514 -513 -144 0
-514 513 0
-514 144 0
-515 507 514 0
515 -507 0
515 -514 0
516 -515 -117 0
-516 515 0
-516 117 0
517 -516 -99 0
-517 516 0
-517 99 0
-518 498 517 0
518 -498 0
518 -517 0
519 -518 -104 0
-519 518 0
-519 104 0
520 -517 -90 0
-520 517 0
-520 90 0
-521 497 520 0
521 -497 0
521 -520 0
522 -521 -81 0
-522 521 0
-522 81 0
523 -493 -237 0
-523 493 0
-523 237 0
524 -500 -126 0
-524 500 0
-524 126 0
525 -524 -157 0
-525 524 0
-525 157 0
-526 501 504 525 0
526 -501 0
526 -504 0
526 -525 0
527 -526 -9 0
-527 526 0
-527 9 0
528 -526 -23 0
-528 526 0
-528 23 0
529 -528 -36 0
-529 528 0
-529 36 0
530 -529 -4 0
-530 529 0
-530 4 0
-531 527 530 0
531 -527 0
531 -530 0
-532 491 493 494 511 512 519 522 523 531 0
532 -491 0
532 -493 0
532 -494 0
532 -511 0
532 -512 0
532 -519 0
532 -522 0
532 -523 0
532 -531 0
533 -292 -534 0
-533 292 0
-533 534 0
535 292 534 0
-535 -292 0
-535 -534 0
-536 533 535 0
536 -533 0
536 -535 0
537 -359 -538 0
-537 359 0
-537 538 0
539 359 538 0
-539 -359 0
-539 -538 0
-540 537 539 0
540 -537 0
540 -539 0
541 -404 -542 0
-541 404 0
-541 542 0
543 404 542 0
-543 -404 0
-543 -542 0
-544 541 543 0
544 -541 0
544 -543 0
545 -489 -546 0
-545 489 0
-545 546 0
547 489 546 0
-547 -489 0
-547 -546 0
-548 545 547 0
548 -545 0
548 -547 0
549 -532 -550 0
-549 532 0
-549 550 0
551 532 550 0
-551 -532 0
-551 -550 0
-552 549 551 0
552 -549 0
552 -551 0
536 0
540 0
544 0
548 0
552 0
