c BC-S1.2
p cnf 577 1409
1 -2 -3 0
-1 2 0
-1 3 0
-4 1 5 0
4 -1 0
4 -5 0
6 -7 -8 0
-6 7 0
-6 8 0
-9 6 10 0
9 -6 0
9 -10 0
11 -12 -13 0
-11 12 0
-11 13 0
-14 11 15 0
14 -11 0
14 -15 0
16 -12 -17 0
-16 12 0
-16 17 0
-18 16 19 0
18 -16 0
18 -19 0
20 -7 -21 0
-20 7 0
-20 21 0
-22 20 23 0
22 -20 0
22 -23 0
24 -9 -22 0
-24 9 0
-24 22 0
25 -26 -27 0
-25 26 0
-25 27 0
-28 25 29 0
28 -25 0
28 -29 0
30 -31 -32 0
-30 31 0
-30 32 0
-33 30 34 0
33 -30 0
33 -34 0
35 -31 -36 0
-35 31 0
-35 36 0
-37 35 38 0
37 -35 0
37 -38 0
39 -40 -41 0
-39 40 0
-39 41 0
-42 39 43 0
42 -39 0
42 -43 0
44 -40 -45 0
-44 40 0
-44 45 0
-46 44 47 0
46 -44 0
46 -47 0
48 -26 -49 0
-48 26 0
-48 49 0
-50 48 51 0
50 -48 0
50 -51 0
52 -28 -50 0
-52 28 0
-52 50 0
53 -54 -55 0
-53 54 0
-53 55 0
-56 53 57 0
56 -53 0
56 -57 0
58 -54 -59 0
-58 54 0
-58 59 0
-60 58 61 0
60 -58 0
60 -61 0
62 -56 -60 0
-62 56 0
-62 60 0
63 -2 -64 0
-63 2 0
-63 64 0
-65 63 66 0
65 -63 0
65 -66 0
67 -68 -69 0
-67 68 0
-67 69 0
-70 67 71 0
70 -67 0
70 -71 0
72 -73 -74 0
-72 73 0
-72 74 0
-75 72 76 0
75 -72 0
75 -76 0
77 -73 -78 0
-77 73 0
-77 78 0
-79 77 80 0
79 -77 0
79 -80 0
81 -82 -83 0
-81 82 0
-81 83 0
-84 81 85 0
84 -81 0
84 -85 0
86 -87 -88 0
-86 87 0
-86 88 0
-89 86 90 0
89 -86 0
89 -90 0
91 -87 -92 0
-91 87 0
-91 92 0
-93 91 94 0
93 -91 0
93 -94 0
95 -82 -96 0
-95 82 0
-95 96 0
-97 95 98 0
97 -95 0
97 -98 0
99 -68 -100 0
-99 68 0
-99 100 0
-101 99 102 0
101 -99 0
101 -102 0
103 -70 -101 0
-103 70 0
-103 101 0
104 -105 -106 0
-104 105 0
-104 106 0
-107 104 108 0
107 -104 0
107 -108 0
109 -105 -110 0
-109 105 0
-109 110 0
-111 109 112 0
111 -109 0
111 -112 0
113 -107 -111 0
-113 107 0
-113 111 0
-114 24 52 62 103 113 0
114 -24 0
114 -52 0
114 -62 0
114 -103 0
114 -113 0
115 -114 -4 0
-115 114 0
-115 4 0
116 -117 -118 0
-116 117 0
-116 118 0
-119 116 120 0
119 -116 0
119 -120 0
121 -122 -123 0
-121 122 0
-121 123 0
-124 121 125 0
124 -121 0
124 -125 0
126 -127 -128 0
-126 127 0
-126 128 0
-129 126 130 0
129 -126 0
129 -130 0
131 -132 -133 0
-131 132 0
-131 133 0
-134 131 135 0
134 -131 0
134 -135 0
136 -127 -137 0
-136 127 0
-136 137 0
-138 136 139 0
138 -136 0
138 -139 0
140 -141 -142 0
-140 141 0
-140 142 0
-143 140 144 0
143 -140 0
143 -144 0
145 -141 -146 0
-145 141 0
-145 146 0
-147 145 148 0
147 -145 0
147 -148 0
149 -150 -151 0
-149 150 0
-149 151 0
-152 149 153 0
152 -149 0
152 -153 0
154 -150 -155 0
-154 150 0
-154 155 0
-156 154 157 0
156 -154 0
156 -157 0
-158 4 115 0
158 -4 0
158 -115 0
159 -117 -160 0
-159 117 0
-159 160 0
-161 159 162 0
161 -159 0
161 -162 0
163 -158 -161 0
-163 158 0
-163 161 0
164 -165 -166 0
-164 165 0
-164 166 0
-167 164 168 0
167 -164 0
167 -168 0
169 -165 -170 0
-169 165 0
-169 170 0
-171 169 172 0
171 -169 0
171 -172 0
173 -174 -175 0
-173 174 0
-173 175 0
-176 173 177 0
176 -173 0
176 -177 0
178 -179 -180 0
-178 179 0
-178 180 0
-181 178 182 0
181 -178 0
181 -182 0
183 -179 -184 0
-183 179 0
-183 184 0
-185 183 186 0
185 -183 0
185 -186 0
187 -174 -188 0
-187 174 0
-187 188 0
-189 187 190 0
189 -187 0
189 -190 0
191 -192 -193 0
-191 192 0
-191 193 0
-194 191 195 0
194 -191 0
194 -195 0
196 -158 -152 0
-196 158 0
-196 152 0
197 -196 -143 0
-197 196 0
-197 143 0
198 -197 -129 0
-198 197 0
-198 129 0
199 -132 -200 0
-199 132 0
-199 200 0
-201 199 202 0
201 -199 0
201 -202 0
203 -198 -201 0
-203 198 0
-203 201 0
-204 163 203 0
204 -163 0
204 -203 0
205 -192 -206 0
-205 192 0
-205 206 0
-207 205 208 0
207 -205 0
207 -208 0
209 -204 -207 0
-209 204 0
-209 207 0
210 -211 -212 0
-210 211 0
-210 212 0
-213 210 214 0
213 -210 0
213 -214 0
215 -163 -134 0
-215 163 0
-215 134 0
216 -215 -138 0
-216 215 0
-216 138 0
-217 216 197 0
217 -216 0
217 -197 0
218 -122 -219 0
-218 122 0
-218 219 0
-220 218 221 0
220 -218 0
220 -221 0
222 -217 -220 0
-222 217 0
-222 220 0
-223 209 222 0
223 -209 0
223 -222 0
224 -211 -225 0
-224 211 0
-224 225 0
-226 224 227 0
226 -224 0
226 -227 0
228 -223 -226 0
-228 223 0
-228 226 0
229 -163 -207 0
-229 163 0
-229 207 0
230 -229 -124 0
-230 229 0
-230 124 0
-231 230 197 0
231 -230 0
231 -197 0
232 -231 -129 0
-232 231 0
-232 129 0
233 -197 -220 0
-233 197 0
-233 220 0
234 -233 -194 0
-234 233 0
-234 194 0
-235 163 234 0
235 -163 0
235 -234 0
236 -235 -134 0
-236 235 0
-236 134 0
-237 232 236 0
237 -232 0
237 -236 0
-238 163 234 203 0
238 -163 0
238 -234 0
238 -203 0
239 -238 -167 0
-239 238 0
-239 167 0
-240 230 216 0
240 -230 0
240 -216 0
241 -240 -147 0
-241 240 0
-241 147 0
-242 241 196 0
242 -241 0
242 -196 0
243 -238 -176 0
-243 238 0
-243 176 0
244 -243 -181 0
-244 243 0
-244 181 0
-245 228 237 239 242 244 0
245 -228 0
245 -237 0
245 -239 0
245 -242 0
245 -244 0
246 -14 -18 0
-246 14 0
-246 18 0
247 -246 -22 0
-247 246 0
-247 22 0
-248 22 247 0
248 -22 0
248 -247 0
249 -248 -4 0
-249 248 0
-249 4 0
250 -249 -161 0
-250 249 0
-250 161 0
251 -249 -152 0
-251 249 0
-251 152 0
252 -251 -143 0
-252 251 0
-252 143 0
253 -252 -129 0
-253 252 0
-253 129 0
254 -253 -201 0
-254 253 0
-254 201 0
-255 250 254 0
255 -250 0
255 -254 0
256 -255 -207 0
-256 255 0
-256 207 0
257 -250 -134 0
-257 250 0
-257 134 0
258 -257 -138 0
-258 257 0
-258 138 0
-259 258 252 0
259 -258 0
259 -252 0
260 -259 -220 0
-260 259 0
-260 220 0
-261 256 260 0
261 -256 0
261 -260 0
262 -261 -226 0
-262 261 0
-262 226 0
263 -250 -207 0
-263 250 0
-263 207 0
264 -263 -124 0
-264 263 0
-264 124 0
-265 264 252 0
265 -264 0
265 -252 0
266 -265 -129 0
-266 265 0
-266 129 0
267 -252 -220 0
-267 252 0
-267 220 0
268 -267 -194 0
-268 267 0
-268 194 0
-269 250 268 0
269 -250 0
269 -268 0
270 -269 -134 0
-270 269 0
-270 134 0
-271 266 270 0
271 -266 0
271 -270 0
-272 250 268 254 0
272 -250 0
272 -268 0
272 -254 0
273 -272 -167 0
-273 272 0
-273 167 0
-274 264 258 0
274 -264 0
274 -258 0
275 -274 -147 0
-275 274 0
-275 147 0
-276 275 251 0
276 -275 0
276 -251 0
277 -272 -176 0
-277 272 0
-277 176 0
278 -277 -181 0
-278 277 0
-278 181 0
-279 262 271 273 276 278 0
279 -262 0
279 -271 0
279 -273 0
279 -276 0
279 -278 0
280 -89 -93 0
-280 89 0
-280 93 0
281 -280 -97 0
-281 280 0
-281 97 0
-282 97 281 0
282 -97 0
282 -281 0
283 -282 -101 0
-283 282 0
-283 101 0
284 -283 -4 0
-284 283 0
-284 4 0
285 -284 -161 0
-285 284 0
-285 161 0
286 -284 -152 0
-286 284 0
-286 152 0
287 -286 -143 0
-287 286 0
-287 143 0
288 -287 -129 0
-288 287 0
-288 129 0
289 -288 -201 0
-289 288 0
-289 201 0
-290 285 289 0
290 -285 0
290 -289 0
291 -290 -207 0
-291 290 0
-291 207 0
292 -285 -134 0
-292 285 0
-292 134 0
293 -292 -138 0
-293 292 0
-293 138 0
-294 293 287 0
294 -293 0
294 -287 0
295 -294 -220 0
-295 294 0
-295 220 0
-296 291 295 0
296 -291 0
296 -295 0
297 -296 -226 0
-297 296 0
-297 226 0
298 -285 -207 0
-298 285 0
-298 207 0
299 -298 -124 0
-299 298 0
-299 124 0
-300 299 287 0
300 -299 0
300 -287 0
301 -300 -129 0
-301 300 0
-301 129 0
302 -287 -220 0
-302 287 0
-302 220 0
303 -302 -194 0
-303 302 0
-303 194 0
-304 285 303 0
304 -285 0
304 -303 0
305 -304 -134 0
-305 304 0
-305 134 0
-306 301 305 0
306 -301 0
306 -305 0
-307 285 303 289 0
307 -285 0
307 -303 0
307 -289 0
308 -307 -167 0
-308 307 0
-308 167 0
-309 299 293 0
309 -299 0
309 -293 0
310 -309 -147 0
-310 309 0
-310 147 0
-311 310 286 0
311 -310 0
311 -286 0
312 -307 -176 0
-312 307 0
-312 176 0
313 -312 -181 0
-313 312 0
-313 181 0
-314 297 306 308 311 313 0
314 -297 0
314 -306 0
314 -308 0
314 -311 0
314 -313 0
315 -46 -50 0
-315 46 0
-315 50 0
316 -315 -4 0
-316 315 0
-316 4 0
317 -316 -161 0
-317 316 0
-317 161 0
318 -316 -152 0
-318 316 0
-318 152 0
319 -318 -143 0
-319 318 0
-319 143 0
320 -319 -129 0
-320 319 0
-320 129 0
321 -320 -201 0
-321 320 0
-321 201 0
-322 317 321 0
322 -317 0
322 -321 0
323 -322 -207 0
-323 322 0
-323 207 0
324 -317 -134 0
-324 317 0
-324 134 0
325 -324 -138 0
-325 324 0
-325 138 0
-326 325 319 0
326 -325 0
326 -319 0
327 -326 -220 0
-327 326 0
-327 220 0
-328 323 327 0
328 -323 0
328 -327 0
329 -328 -226 0
-329 328 0
-329 226 0
330 -317 -207 0
-330 317 0
-330 207 0
331 -330 -124 0
-331 330 0
-331 124 0
-332 331 319 0
332 -331 0
332 -319 0
333 -332 -129 0
-333 332 0
-333 129 0
334 -319 -220 0
-334 319 0
-334 220 0
335 -334 -194 0
-335 334 0
-335 194 0
-336 317 335 0
336 -317 0
336 -335 0
337 -336 -134 0
-337 336 0
-337 134 0
-338 333 337 0
338 -333 0
338 -337 0
-339 317 335 321 0
339 -317 0
339 -335 0
339 -321 0
340 -339 -167 0
-340 339 0
-340 167 0
-341 331 325 0
341 -331 0
341 -325 0
342 -341 -147 0
-342 341 0
-342 147 0
-343 342 318 0
343 -342 0
343 -318 0
344 -339 -176 0
-344 339 0
-344 176 0
345 -344 -181 0
-345 344 0
-345 181 0
-346 329 338 340 343 345 0
346 -329 0
346 -338 0
346 -340 0
346 -343 0
346 -345 0
347 -60 -4 0
-347 60 0
-347 4 0
348 -347 -161 0
-348 347 0
-348 161 0
349 -347 -152 0
-349 347 0
-349 152 0
350 -349 -143 0
-350 349 0
-350 143 0
351 -350 -129 0
-351 350 0
-351 129 0
352 -351 -201 0
-352 351 0
-352 201 0
-353 348 352 0
353 -348 0
353 -352 0
354 -353 -207 0
-354 353 0
-354 207 0
355 -348 -134 0
-355 348 0
-355 134 0
356 -355 -138 0
-356 355 0
-356 138 0
-357 356 350 0
357 -356 0
357 -350 0
358 -357 -220 0
-358 357 0
-358 220 0
-359 354 358 0
359 -354 0
359 -358 0
360 -359 -226 0
-360 359 0
-360 226 0
361 -348 -207 0
-361 348 0
-361 207 0
362 -361 -124 0
-362 361 0
-362 124 0
-363 362 350 0
363 -362 0
363 -350 0
364 -363 -129 0
-364 363 0
-364 129 0
365 -350 -220 0
-365 350 0
-365 220 0
366 -365 -194 0
-366 365 0
-366 194 0
-367 348 366 0
367 -348 0
367 -366 0
368 -367 -134 0
-368 367 0
-368 134 0
-369 364 368 0
369 -364 0
369 -368 0
-370 348 366 352 0
370 -348 0
370 -366 0
370 -352 0
371 -370 -167 0
-371 370 0
-371 167 0
-372 362 356 0
372 -362 0
372 -356 0
373 -372 -147 0
-373 372 0
-373 147 0
-374 373 349 0
374 -373 0
374 -349 0
375 -370 -176 0
-375 370 0
-375 176 0
376 -375 -181 0
-376 375 0
-376 181 0
-377 360 369 371 374 376 0
377 -360 0
377 -369 0
377 -371 0
377 -374 0
377 -376 0
378 -93 -97 0
-378 93 0
-378 97 0
379 -378 -101 0
-379 378 0
-379 101 0
380 -379 -4 0
-380 379 0
-380 4 0
381 -380 -161 0
-381 380 0
-381 161 0
382 -380 -152 0
-382 380 0
-382 152 0
383 -382 -143 0
-383 382 0
-383 143 0
384 -383 -129 0
-384 383 0
-384 129 0
385 -384 -201 0
-385 384 0
-385 201 0
-386 381 385 0
386 -381 0
386 -385 0
387 -386 -207 0
-387 386 0
-387 207 0
388 -381 -134 0
-388 381 0
-388 134 0
389 -388 -138 0
-389 388 0
-389 138 0
-390 389 383 0
390 -389 0
390 -383 0
391 -390 -220 0
-391 390 0
-391 220 0
-392 387 391 0
392 -387 0
392 -391 0
393 -392 -226 0
-393 392 0
-393 226 0
394 -381 -207 0
-394 381 0
-394 207 0
395 -394 -124 0
-395 394 0
-395 124 0
-396 395 383 0
396 -395 0
396 -383 0
397 -396 -129 0
-397 396 0
-397 129 0
398 -383 -220 0
-398 383 0
-398 220 0
399 -398 -194 0
-399 398 0
-399 194 0
-400 381 399 0
400 -381 0
400 -399 0
401 -400 -134 0
-401 400 0
-401 134 0
-402 397 401 0
402 -397 0
402 -401 0
-403 381 399 385 0
403 -381 0
403 -399 0
403 -385 0
404 -403 -167 0
-404 403 0
-404 167 0
-405 395 389 0
405 -395 0
405 -389 0
406 -405 -147 0
-406 405 0
-406 147 0
-407 406 382 0
407 -406 0
407 -382 0
408 -403 -176 0
-408 403 0
-408 176 0
409 -408 -181 0
-409 408 0
-409 181 0
-410 393 402 404 407 409 0
410 -393 0
410 -402 0
410 -404 0
410 -407 0
410 -409 0
411 -37 -50 0
-411 37 0
-411 50 0
412 -411 -4 0
-412 411 0
-412 4 0
413 -412 -161 0
-413 412 0
-413 161 0
414 -412 -152 0
-414 412 0
-414 152 0
415 -414 -143 0
-415 414 0
-415 143 0
416 -415 -129 0
-416 415 0
-416 129 0
417 -416 -201 0
-417 416 0
-417 201 0
-418 413 417 0
418 -413 0
418 -417 0
419 -418 -207 0
-419 418 0
-419 207 0
420 -413 -134 0
-420 413 0
-420 134 0
421 -420 -138 0
-421 420 0
-421 138 0
-422 421 415 0
422 -421 0
422 -415 0
423 -422 -220 0
-423 422 0
-423 220 0
-424 419 423 0
424 -419 0
424 -423 0
425 -424 -226 0
-425 424 0
-425 226 0
426 -413 -207 0
-426 413 0
-426 207 0
427 -426 -124 0
-427 426 0
-427 124 0
-428 427 415 0
428 -427 0
428 -415 0
429 -428 -129 0
-429 428 0
-429 129 0
430 -415 -220 0
-430 415 0
-430 220 0
431 -430 -194 0
-431 430 0
-431 194 0
-432 413 431 0
432 -413 0
432 -431 0
433 -432 -134 0
-433 432 0
-433 134 0
-434 429 433 0
434 -429 0
434 -433 0
-435 413 431 417 0
435 -413 0
435 -431 0
435 -417 0
436 -435 -167 0
-436 435 0
-436 167 0
-437 427 421 0
437 -427 0
437 -421 0
438 -437 -147 0
-438 437 0
-438 147 0
-439 438 414 0
439 -438 0
439 -414 0
440 -435 -176 0
-440 435 0
-440 176 0
441 -440 -181 0
-441 440 0
-441 181 0
-442 425 434 436 439 441 0
442 -425 0
442 -434 0
442 -436 0
442 -439 0
442 -441 0
443 -79 -101 0
-443 79 0
-443 101 0
444 -443 -4 0
-444 443 0
-444 4 0
445 -444 -161 0
-445 444 0
-445 161 0
446 -444 -152 0
-446 444 0
-446 152 0
447 -446 -143 0
-447 446 0
-447 143 0
448 -447 -129 0
-448 447 0
-448 129 0
449 -448 -201 0
-449 448 0
-449 201 0
-450 445 449 0
450 -445 0
450 -449 0
451 -450 -207 0
-451 450 0
-451 207 0
452 -445 -134 0
-452 445 0
-452 134 0
453 -452 -138 0
-453 452 0
-453 138 0
-454 453 447 0
454 -453 0
454 -447 0
455 -454 -220 0
-455 454 0
-455 220 0
-456 451 455 0
456 -451 0
456 -455 0
457 -456 -226 0
-457 456 0
-457 226 0
458 -445 -207 0
-458 445 0
-458 207 0
459 -458 -124 0
-459 458 0
-459 124 0
-460 459 447 0
460 -459 0
460 -447 0
461 -460 -129 0
-461 460 0
-461 129 0
462 -447 -220 0
-462 447 0
-462 220 0
463 -462 -194 0
-463 462 0
-463 194 0
-464 445 463 0
464 -445 0
464 -463 0
465 -464 -134 0
-465 464 0
-465 134 0
-466 461 465 0
466 -461 0
466 -465 0
-467 445 463 449 0
467 -445 0
467 -463 0
467 -449 0
468 -467 -167 0
-468 467 0
-468 167 0
-469 459 453 0
469 -459 0
469 -453 0
470 -469 -147 0
-470 469 0
-470 147 0
-471 470 446 0
471 -470 0
471 -446 0
472 -467 -176 0
-472 467 0
-472 176 0
473 -472 -181 0
-473 472 0
-473 181 0
-474 457 466 468 471 473 0
474 -457 0
474 -466 0
474 -468 0
474 -471 0
474 -473 0
475 -18 -22 0
-475 18 0
-475 22 0
476 -475 -4 0
-476 475 0
-476 4 0
477 -476 -161 0
-477 476 0
-477 161 0
478 -476 -152 0
-478 476 0
-478 152 0
479 -478 -143 0
-479 478 0
-479 143 0
480 -479 -129 0
-480 479 0
-480 129 0
481 -480 -201 0
-481 480 0
-481 201 0
-482 477 481 0
482 -477 0
482 -481 0
483 -482 -207 0
-483 482 0
-483 207 0
484 -477 -134 0
-484 477 0
-484 134 0
485 -484 -138 0
-485 484 0
-485 138 0
-486 485 479 0
486 -485 0
486 -479 0
487 -486 -220 0
-487 486 0
-487 220 0
-488 483 487 0
488 -483 0
488 -487 0
489 -488 -226 0
-489 488 0
-489 226 0
490 -477 -207 0
-490 477 0
-490 207 0
491 -490 -124 0
-491 490 0
-491 124 0
-492 491 479 0
492 -491 0
492 -479 0
493 -492 -129 0
-493 492 0
-493 129 0
494 -479 -220 0
-494 479 0
-494 220 0
495 -494 -194 0
-495 494 0
-495 194 0
-496 477 495 0
496 -477 0
496 -495 0
497 -496 -134 0
-497 496 0
-497 134 0
-498 493 497 0
498 -493 0
498 -497 0
-499 477 495 481 0
499 -477 0
499 -495 0
499 -481 0
500 -499 -167 0
-500 499 0
-500 167 0
-501 491 485 0
501 -491 0
501 -485 0
502 -501 -147 0
-502 501 0
-502 147 0
-503 502 478 0
503 -502 0
503 -478 0
504 -499 -176 0
-504 499 0
-504 176 0
505 -504 -181 0
-505 504 0
-505 181 0
-506 489 498 500 503 505 0
506 -489 0
506 -498 0
506 -500 0
506 -503 0
506 -505 0
507 -111 -4 0
-507 111 0
-507 4 0
508 -507 -161 0
-508 507 0
-508 161 0
509 -507 -152 0
-509 507 0
-509 152 0
510 -509 -143 0
-510 509 0
-510 143 0
511 -510 -129 0
-511 510 0
-511 129 0
512 -511 -201 0
-512 511 0
-512 201 0
-513 508 512 0
513 -508 0
513 -512 0
514 -513 -207 0
-514 513 0
-514 207 0
515 -508 -134 0
-515 508 0
-515 134 0
516 -515 -138 0
-516 515 0
-516 138 0
-517 516 510 0
517 -516 0
517 -510 0
518 -517 -220 0
-518 517 0
-518 220 0
-519 514 518 0
519 -514 0
519 -518 0
520 -519 -226 0
-520 519 0
-520 226 0
521 -508 -207 0
-521 508 0
-521 207 0
522 -521 -124 0
-522 521 0
-522 124 0
-523 522 510 0
523 -522 0
523 -510 0
524 -523 -129 0
-524 523 0
-524 129 0
525 -510 -220 0
-525 510 0
-525 220 0
526 -525 -194 0
-526 525 0
-526 194 0
-527 508 526 0
527 -508 0
527 -526 0
528 -527 -134 0
-528 527 0
-528 134 0
-529 524 528 0
529 -524 0
529 -528 0
-530 508 526 512 0
530 -508 0
530 -526 0
530 -512 0
531 -530 -167 0
-531 530 0
-531 167 0
-532 522 516 0
532 -522 0
532 -516 0
533 -532 -147 0
-533 532 0
-533 147 0
-534 533 509 0
534 -533 0
534 -509 0
535 -530 -176 0
-535 530 0
-535 176 0
536 -535 -181 0
-536 535 0
-536 181 0
-537 520 529 531 534 536 0
537 -520 0
537 -529 0
537 -531 0
537 -534 0
537 -536 0
538 -245 -539 0
-538 245 0
-538 539 0
540 245 539 0
-540 -245 0
-540 -539 0
-541 538 540 0
541 -538 0
541 -540 0
542 -279 -543 0
-542 279 0
-542 543 0
544 279 543 0
-544 -279 0
-544 -543 0
-545 542 544 0
545 -542 0
545 -544 0
546 -314 -547 0
-546 314 0
-546 547 0
548 314 547 0
-548 -314 0
-548 -547 0
-549 546 548 0
549 -546 0
549 -548 0
550 -346 -551 0
-550 346 0
-550 551 0
552 346 551 0
-552 -346 0
-552 -551 0
-553 550 552 0
553 -550 0
553 -552 0
554 -377 -555 0
-554 377 0
-554 555 0
556 377 555 0
-556 -377 0
-556 -555 0
-557 554 556 0
557 -554 0
557 -556 0
558 -410 -559 0
-558 410 0
-558 559 0
560 410 559 0
-560 -410 0
-560 -559 0
-561 558 560 0
561 -558 0
561 -560 0
562 -442 -563 0
-562 442 0
-562 563 0
564 442 563 0
-564 -442 0
-564 -563 0
-565 562 564 0
565 -562 0
565 -564 0
566 -474 -567 0
-566 474 0
-566 567 0
568 474 567 0
-568 -474 0
-568 -567 0
-569 566 568 0
569 -566 0
569 -568 0
570 -506 -571 0
-570 506 0
-570 571 0
572 506 571 0
-572 -506 0
-572 -571 0
-573 570 572 0
573 -570 0
573 -572 0
574 -537 -575 0
-574 537 0
-574 575 0
576 537 575 0
-576 -537 0
-576 -575 0
-577 574 576 0
577 -574 0
577 -576 0
541 0
545 0
549 0
553 0
557 0
561 0
565 0
569 0
573 0
577 0
