c BC-S1.2
p cnf 389 799
1 -2 -3 0
-1 2 0
-1 3 0
-4 1 5 0
4 -1 0
4 -5 0
6 -7 -8 0
-6 7 0
-6 8 0
-9 6 10 0
9 -6 0
9 -10 0
11 -7 -12 0
-11 7 0
-11 12 0
-13 11 14 0
13 -11 0
13 -14 0
15 -9 -13 0
-15 9 0
-15 13 0
16 -2 -17 0
-16 2 0
-16 17 0
-18 16 19 0
18 -16 0
18 -19 0
20 -21 -22 0
-20 21 0
-20 22 0
-23 20 24 0
23 -20 0
23 -24 0
25 -26 -27 0
-25 26 0
-25 27 0
-28 25 29 0
28 -25 0
28 -29 0
30 -26 -31 0
-30 26 0
-30 31 0
-32 30 33 0
32 -30 0
32 -33 0
34 -21 -35 0
-34 21 0
-34 35 0
-36 34 37 0
36 -34 0
36 -37 0
38 -23 -36 0
-38 23 0
-38 36 0
-39 15 38 0
39 -15 0
39 -38 0
40 -39 -4 0
-40 39 0
-40 4 0
41 -42 -43 0
-41 42 0
-41 43 0
-44 41 45 0
44 -41 0
44 -45 0
46 -47 -48 0
-46 47 0
-46 48 0
-49 46 50 0
49 -46 0
49 -50 0
-51 4 40 0
51 -4 0
51 -40 0
52 -42 -53 0
-52 42 0
-52 53 0
-54 52 55 0
54 -52 0
54 -55 0
56 -51 -54 0
-56 51 0
-56 54 0
57 -58 -59 0
-57 58 0
-57 59 0
-60 57 61 0
60 -57 0
60 -61 0
62 -63 -64 0
-62 63 0
-62 64 0
-65 62 66 0
65 -62 0
65 -66 0
67 -63 -68 0
-67 63 0
-67 68 0
-69 67 70 0
69 -67 0
69 -70 0
71 -58 -72 0
-71 58 0
-71 72 0
-73 71 74 0
73 -71 0
73 -74 0
75 -76 -77 0
-75 76 0
-75 77 0
-78 75 79 0
78 -75 0
78 -79 0
80 -76 -81 0
-80 76 0
-80 81 0
-82 80 83 0
82 -80 0
82 -83 0
84 -56 -82 0
-84 56 0
-84 82 0
85 -86 -87 0
-85 86 0
-85 87 0
-88 85 89 0
88 -85 0
88 -89 0
90 -91 -92 0
-90 91 0
-90 92 0
-93 90 94 0
93 -90 0
93 -94 0
95 -91 -96 0
-95 91 0
-95 96 0
-97 95 98 0
97 -95 0
97 -98 0
99 -47 -100 0
-99 47 0
-99 100 0
-101 99 102 0
101 -99 0
101 -102 0
103 -51 -101 0
-103 51 0
-103 101 0
-104 84 103 0
104 -84 0
104 -103 0
105 -86 -106 0
-105 86 0
-105 106 0
-107 105 108 0
107 -105 0
107 -108 0
109 -104 -107 0
-109 104 0
-109 107 0
110 -111 -112 0
-110 111 0
-110 112 0
-113 110 114 0
113 -110 0
113 -114 0
115 -111 -116 0
-115 111 0
-115 116 0
-117 115 118 0
117 -115 0
117 -118 0
119 -109 -117 0
-119 109 0
-119 117 0
120 -121 -122 0
-120 121 0
-120 122 0
-123 120 124 0
123 -120 0
123 -124 0
125 -121 -126 0
-125 121 0
-125 126 0
-127 125 128 0
127 -125 0
127 -128 0
129 -119 -127 0
-129 119 0
-129 127 0
130 -131 -132 0
-130 131 0
-130 132 0
-133 130 134 0
133 -130 0
133 -134 0
135 -136 -137 0
-135 136 0
-135 137 0
-138 135 139 0
138 -135 0
138 -139 0
140 -141 -142 0
-140 141 0
-140 142 0
-143 140 144 0
143 -140 0
143 -144 0
145 -146 -147 0
-145 146 0
-145 147 0
-148 145 149 0
148 -145 0
148 -149 0
150 -146 -151 0
-150 146 0
-150 151 0
-152 150 153 0
152 -150 0
152 -153 0
154 -155 -156 0
-154 155 0
-154 156 0
157 -158 -159 0
-157 158 0
-157 159 0
-160 154 157 161 162 0
160 -154 0
160 -157 0
160 -161 0
160 -162 0
163 -164 -165 0
-163 164 0
-163 165 0
-166 163 167 0
166 -163 0
166 -167 0
168 -169 -170 0
-168 169 0
-168 170 0
-171 168 172 0
171 -168 0
171 -172 0
173 -169 -174 0
-173 169 0
-173 174 0
-175 173 176 0
175 -173 0
175 -176 0
177 -164 -178 0
-177 164 0
-177 178 0
-179 177 180 0
179 -177 0
179 -180 0
181 -158 -182 0
-181 158 0
-181 182 0
183 -155 -184 0
-183 155 0
-183 184 0
-185 181 183 186 187 0
185 -181 0
185 -183 0
185 -186 0
185 -187 0
188 -141 -189 0
-188 141 0
-188 189 0
-190 188 191 0
190 -188 0
190 -191 0
192 -193 -194 0
-192 193 0
-192 194 0
-195 192 196 0
195 -192 0
195 -196 0
197 -193 -198 0
-197 193 0
-197 198 0
-199 197 200 0
199 -197 0
199 -200 0
201 -131 -202 0
-201 131 0
-201 202 0
-203 201 204 0
203 -201 0
203 -204 0
205 -129 -203 0
-205 129 0
-205 203 0
206 -207 -208 0
-206 207 0
-206 208 0
-209 206 210 0
209 -206 0
209 -210 0
211 -207 -212 0
-211 207 0
-211 212 0
-213 211 214 0
213 -211 0
213 -214 0
215 -129 -195 0
-215 129 0
-215 195 0
216 -136 -217 0
-216 136 0
-216 217 0
-218 216 219 0
218 -216 0
218 -219 0
220 -215 -218 0
-220 215 0
-220 218 0
-221 205 220 0
221 -205 0
221 -220 0
222 -143 -190 0
-222 143 0
-222 190 0
223 -199 -195 0
-223 199 0
-223 195 0
-224 222 223 0
224 -222 0
224 -223 0
225 -224 -218 0
-225 224 0
-225 218 0
226 -222 -199 0
-226 222 0
-226 199 0
-227 199 226 0
227 -199 0
227 -226 0
228 -227 -203 0
-228 227 0
-228 203 0
-229 218 225 228 0
229 -218 0
229 -225 0
229 -228 0
230 -148 -152 0
-230 148 0
-230 152 0
231 -160 -185 0
-231 160 0
-231 185 0
-232 230 231 0
232 -230 0
232 -231 0
233 -232 -190 0
-233 232 0
-233 190 0
-234 190 233 0
234 -190 0
234 -233 0
235 -234 -199 0
-235 234 0
-235 199 0
236 -235 -203 0
-236 235 0
-236 203 0
237 -234 -218 0
-237 234 0
-237 218 0
-238 236 237 0
238 -236 0
238 -237 0
239 -88 -107 0
-239 88 0
-239 107 0
240 -239 -117 0
-240 239 0
-240 117 0
-241 117 240 0
241 -117 0
241 -240 0
242 -241 -127 0
-242 241 0
-242 127 0
243 -242 -203 0
-243 242 0
-243 203 0
244 -242 -195 0
-244 242 0
-244 195 0
245 -244 -218 0
-245 244 0
-245 218 0
-246 243 245 0
246 -243 0
246 -245 0
247 -171 -175 0
-247 171 0
-247 175 0
248 -247 -179 0
-248 247 0
-248 179 0
-249 179 248 0
249 -179 0
249 -248 0
250 -249 -185 0
-250 249 0
-250 185 0
251 -250 -190 0
-251 250 0
-251 190 0
252 -251 -199 0
-252 251 0
-252 199 0
253 -252 -203 0
-253 252 0
-253 203 0
254 -251 -218 0
-254 251 0
-254 218 0
-255 253 254 0
255 -253 0
255 -254 0
256 -113 -117 0
-256 113 0
-256 117 0
257 -256 -127 0
-257 256 0
-257 127 0
-258 127 257 0
258 -127 0
258 -257 0
259 -258 -203 0
-259 258 0
-259 203 0
260 -258 -195 0
-260 258 0
-260 195 0
261 -260 -218 0
-261 260 0
-261 218 0
-262 259 261 0
262 -259 0
262 -261 0
263 -28 -32 0
-263 28 0
-263 32 0
264 -263 -36 0
-264 263 0
-264 36 0
-265 36 264 0
265 -36 0
265 -264 0
266 -265 -4 0
-266 265 0
-266 4 0
267 -266 -54 0
-267 266 0
-267 54 0
268 -267 -82 0
-268 267 0
-268 82 0
269 -266 -101 0
-269 266 0
-269 101 0
-270 268 269 0
270 -268 0
270 -269 0
271 -270 -107 0
-271 270 0
-271 107 0
272 -271 -117 0
-272 271 0
-272 117 0
273 -272 -127 0
-273 272 0
-273 127 0
274 -273 -203 0
-274 273 0
-274 203 0
275 -273 -195 0
-275 273 0
-275 195 0
276 -275 -218 0
-276 275 0
-276 218 0
-277 274 276 0
277 -274 0
277 -276 0
278 -152 -190 0
-278 152 0
-278 190 0
279 -278 -199 0
-279 278 0
-279 199 0
280 -279 -203 0
-280 279 0
-280 203 0
281 -278 -218 0
-281 278 0
-281 218 0
-282 280 281 0
282 -280 0
282 -281 0
283 -13 -4 0
-283 13 0
-283 4 0
284 -283 -54 0
-284 283 0
-284 54 0
285 -284 -82 0
-285 284 0
-285 82 0
286 -283 -101 0
-286 283 0
-286 101 0
-287 285 286 0
287 -285 0
287 -286 0
288 -287 -107 0
-288 287 0
-288 107 0
289 -288 -117 0
-289 288 0
-289 117 0
290 -289 -127 0
-290 289 0
-290 127 0
291 -290 -203 0
-291 290 0
-291 203 0
292 -290 -195 0
-292 290 0
-292 195 0
293 -292 -218 0
-293 292 0
-293 218 0
-294 291 293 0
294 -291 0
294 -293 0
295 -97 -107 0
-295 97 0
-295 107 0
296 -295 -117 0
-296 295 0
-296 117 0
297 -296 -127 0
-297 296 0
-297 127 0
298 -297 -203 0
-298 297 0
-298 203 0
299 -297 -195 0
-299 297 0
-299 195 0
300 -299 -218 0
-300 299 0
-300 218 0
-301 298 300 0
301 -298 0
301 -300 0
302 -69 -73 0
-302 69 0
-302 73 0
303 -302 -44 0
-303 302 0
-303 44 0
304 -303 -101 0
-304 303 0
-304 101 0
305 -302 -82 0
-305 302 0
-305 82 0
-306 304 305 0
306 -304 0
306 -305 0
307 -306 -107 0
-307 306 0
-307 107 0
308 -307 -117 0
-308 307 0
-308 117 0
309 -308 -127 0
-309 308 0
-309 127 0
310 -309 -203 0
-310 309 0
-310 203 0
311 -309 -195 0
-311 309 0
-311 195 0
312 -311 -218 0
-312 311 0
-312 218 0
-313 310 312 0
313 -310 0
313 -312 0
314 -175 -179 0
-314 175 0
-314 179 0
315 -314 -185 0
-315 314 0
-315 185 0
316 -315 -190 0
-316 315 0
-316 190 0
317 -316 -199 0
-317 316 0
-317 199 0
318 -317 -203 0
-318 317 0
-318 203 0
319 -316 -218 0
-319 316 0
-319 218 0
-320 318 319 0
320 -318 0
320 -319 0
321 -32 -36 0
-321 32 0
-321 36 0
322 -321 -4 0
-322 321 0
-322 4 0
323 -322 -54 0
-323 322 0
-323 54 0
324 -323 -82 0
-324 323 0
-324 82 0
325 -322 -101 0
-325 322 0
-325 101 0
-326 324 325 0
326 -324 0
326 -325 0
327 -326 -107 0
-327 326 0
-327 107 0
328 -327 -117 0
-328 327 0
-328 117 0
329 -328 -127 0
-329 328 0
-329 127 0
330 -329 -203 0
-330 329 0
-330 203 0
331 -329 -195 0
-331 329 0
-331 195 0
332 -331 -218 0
-332 331 0
-332 218 0
-333 330 332 0
333 -330 0
333 -332 0
334 -221 -335 0
-334 221 0
-334 335 0
336 221 335 0
-336 -221 0
-336 -335 0
-337 334 336 0
337 -334 0
337 -336 0
338 -229 -339 0
-338 229 0
-338 339 0
340 229 339 0
-340 -229 0
-340 -339 0
-341 338 340 0
341 -338 0
341 -340 0
342 -238 -343 0
-342 238 0
-342 343 0
344 238 343 0
-344 -238 0
-344 -343 0
-345 342 344 0
345 -342 0
345 -344 0
346 -246 -347 0
-346 246 0
-346 347 0
348 246 347 0
-348 -246 0
-348 -347 0
-349 346 348 0
349 -346 0
349 -348 0
350 -255 -351 0
-350 255 0
-350 351 0
352 255 351 0
-352 -255 0
-352 -351 0
-353 350 352 0
353 -350 0
353 -352 0
354 -262 -355 0
-354 262 0
-354 355 0
356 262 355 0
-356 -262 0
-356 -355 0
-357 354 356 0
357 -354 0
357 -356 0
358 -277 -359 0
-358 277 0
-358 359 0
360 277 359 0
-360 -277 0
-360 -359 0
-361 358 360 0
361 -358 0
361 -360 0
362 -282 -363 0
-362 282 0
-362 363 0
364 282 363 0
-364 -282 0
-364 -363 0
-365 362 364 0
365 -362 0
365 -364 0
366 -294 -367 0
-366 294 0
-366 367 0
368 294 367 0
-368 -294 0
-368 -367 0
-369 366 368 0
369 -366 0
369 -368 0
370 -213 -371 0
-370 213 0
-370 371 0
372 213 371 0
-372 -213 0
-372 -371 0
-373 370 372 0
373 -370 0
373 -372 0
374 -301 -375 0
-374 301 0
-374 375 0
376 301 375 0
-376 -301 0
-376 -375 0
-377 374 376 0
377 -374 0
377 -376 0
378 -313 -379 0
-378 313 0
-378 379 0
380 313 379 0
-380 -313 0
-380 -379 0
-381 378 380 0
381 -378 0
381 -380 0
382 -320 -383 0
-382 320 0
-382 383 0
384 320 383 0
-384 -320 0
-384 -383 0
-385 382 384 0
385 -382 0
385 -384 0
386 -333 -387 0
-386 333 0
-386 387 0
388 333 387 0
-388 -333 0
-388 -387 0
-389 386 388 0
389 -386 0
389 -388 0
337 0
341 0
345 0
349 0
353 0
357 0
361 0
365 0
369 0
373 0
377 0
381 0
385 0
389 0
