c BC-S1.2
p cnf 956 2275
1 -2 -3 0
-1 2 0
-1 3 0
-4 1 5 0
4 -1 0
4 -5 0
6 -7 -8 0
-6 7 0
-6 8 0
-9 6 10 0
9 -6 0
9 -10 0
11 -12 -13 0
-11 12 0
-11 13 0
-14 11 15 0
14 -11 0
14 -15 0
16 -17 -18 0
-16 17 0
-16 18 0
-19 16 20 0
19 -16 0
19 -20 0
21 -22 -23 0
-21 22 0
-21 23 0
-24 21 25 0
24 -21 0
24 -25 0
26 -22 -27 0
-26 22 0
-26 27 0
-28 26 29 0
28 -26 0
28 -29 0
30 -17 -31 0
-30 17 0
-30 31 0
-32 30 33 0
32 -30 0
32 -33 0
34 -35 -36 0
-34 35 0
-34 36 0
-37 34 38 0
37 -34 0
37 -38 0
39 -40 -41 0
-39 40 0
-39 41 0
-42 39 43 0
42 -39 0
42 -43 0
44 -45 -46 0
-44 45 0
-44 46 0
-47 44 48 0
47 -44 0
47 -48 0
49 -50 -51 0
-49 50 0
-49 51 0
-52 49 53 0
52 -49 0
52 -53 0
54 -55 -56 0
-54 55 0
-54 56 0
-57 54 58 0
57 -54 0
57 -58 0
59 -60 -61 0
-59 60 0
-59 61 0
-62 59 63 0
62 -59 0
62 -63 0
64 -65 -66 0
-64 65 0
-64 66 0
-67 64 68 0
67 -64 0
67 -68 0
69 -70 -71 0
-69 70 0
-69 71 0
-72 69 73 0
72 -69 0
72 -73 0
74 -75 -76 0
-74 75 0
-74 76 0
-77 74 78 0
77 -74 0
77 -78 0
79 -75 -80 0
-79 75 0
-79 80 0
-81 79 82 0
81 -79 0
81 -82 0
83 -70 -84 0
-83 70 0
-83 84 0
-85 83 86 0
85 -83 0
85 -86 0
87 -88 -89 0
-87 88 0
-87 89 0
-90 87 91 0
90 -87 0
90 -91 0
92 -93 -94 0
-92 93 0
-92 94 0
95 -96 -97 0
-95 96 0
-95 97 0
-98 92 95 99 100 0
98 -92 0
98 -95 0
98 -99 0
98 -100 0
101 -96 -102 0
-101 96 0
-101 102 0
103 -93 -104 0
-103 93 0
-103 104 0
-105 101 103 106 107 0
105 -101 0
105 -103 0
105 -106 0
105 -107 0
108 -109 -110 0
-108 109 0
-108 110 0
-111 108 112 0
111 -108 0
111 -112 0
113 -88 -114 0
-113 88 0
-113 114 0
-115 113 116 0
115 -113 0
115 -116 0
117 -65 -118 0
-117 65 0
-117 118 0
-119 117 120 0
119 -117 0
119 -120 0
121 -109 -122 0
-121 109 0
-121 122 0
-123 121 124 0
123 -121 0
123 -124 0
125 -60 -126 0
-125 60 0
-125 126 0
-127 125 128 0
127 -125 0
127 -128 0
129 -55 -130 0
-129 55 0
-129 130 0
-131 129 132 0
131 -129 0
131 -132 0
133 -50 -134 0
-133 50 0
-133 134 0
-135 133 136 0
135 -133 0
135 -136 0
137 -45 -138 0
-137 45 0
-137 138 0
-139 137 140 0
139 -137 0
139 -140 0
141 -40 -142 0
-141 40 0
-141 142 0
-143 141 144 0
143 -141 0
143 -144 0
145 -146 -147 0
-145 146 0
-145 147 0
-148 145 149 0
148 -145 0
148 -149 0
150 -151 -152 0
-150 151 0
-150 152 0
-153 150 154 0
153 -150 0
153 -154 0
155 -156 -157 0
-155 156 0
-155 157 0
-158 155 159 0
158 -155 0
158 -159 0
160 -156 -161 0
-160 156 0
-160 161 0
-162 160 163 0
162 -160 0
162 -163 0
164 -151 -165 0
-164 151 0
-164 165 0
-166 164 167 0
166 -164 0
166 -167 0
168 -146 -169 0
-168 146 0
-168 169 0
-170 168 171 0
170 -168 0
170 -171 0
172 -35 -173 0
-172 35 0
-172 173 0
-174 172 175 0
174 -172 0
174 -175 0
176 -12 -177 0
-176 12 0
-176 177 0
-178 176 179 0
178 -176 0
178 -179 0
180 -7 -181 0
-180 7 0
-180 181 0
-182 180 183 0
182 -180 0
182 -183 0
184 -9 -182 0
-184 9 0
-184 182 0
185 -186 -187 0
-185 186 0
-185 187 0
-188 185 189 0
188 -185 0
188 -189 0
190 -191 -192 0
-190 191 0
-190 192 0
-193 190 194 0
193 -190 0
193 -194 0
195 -196 -197 0
-195 196 0
-195 197 0
-198 195 199 0
198 -195 0
198 -199 0
200 -196 -201 0
-200 196 0
-200 201 0
-202 200 203 0
202 -200 0
202 -203 0
204 -205 -206 0
-204 205 0
-204 206 0
-207 204 208 0
207 -204 0
207 -208 0
209 -210 -211 0
-209 210 0
-209 211 0
-212 209 213 0
212 -209 0
212 -213 0
214 -215 -216 0
-214 215 0
-214 216 0
-217 214 218 0
217 -214 0
217 -218 0
219 -220 -221 0
-219 220 0
-219 221 0
-222 219 223 0
222 -219 0
222 -223 0
224 -225 -226 0
-224 225 0
-224 226 0
-227 224 228 0
227 -224 0
227 -228 0
229 -230 -231 0
-229 230 0
-229 231 0
-232 229 233 0
232 -229 0
232 -233 0
234 -235 -236 0
-234 235 0
-234 236 0
-237 234 238 0
237 -234 0
237 -238 0
239 -235 -240 0
-239 235 0
-239 240 0
-241 239 242 0
241 -239 0
241 -242 0
243 -244 -245 0
-243 244 0
-243 245 0
-246 243 247 0
246 -243 0
246 -247 0
248 -244 -249 0
-248 244 0
-248 249 0
-250 248 251 0
250 -248 0
250 -251 0
252 -230 -253 0
-252 230 0
-252 253 0
-254 252 255 0
254 -252 0
254 -255 0
256 -225 -257 0
-256 225 0
-256 257 0
-258 256 259 0
258 -256 0
258 -259 0
260 -220 -261 0
-260 220 0
-260 261 0
-262 260 263 0
262 -260 0
262 -263 0
264 -215 -265 0
-264 215 0
-264 265 0
-266 264 267 0
266 -264 0
266 -267 0
268 -210 -269 0
-268 210 0
-268 269 0
-270 268 271 0
270 -268 0
270 -271 0
272 -205 -273 0
-272 205 0
-272 273 0
-274 272 275 0
274 -272 0
274 -275 0
276 -191 -277 0
-276 191 0
-276 277 0
-278 276 279 0
278 -276 0
278 -279 0
280 -186 -281 0
-280 186 0
-280 281 0
-282 280 283 0
282 -280 0
282 -283 0
284 -188 -282 0
-284 188 0
-284 282 0
285 -2 -286 0
-285 2 0
-285 286 0
-287 285 288 0
287 -285 0
287 -288 0
289 -290 -291 0
-289 290 0
-289 291 0
-292 289 293 0
292 -289 0
292 -293 0
294 -295 -296 0
-294 295 0
-294 296 0
-297 294 298 0
297 -294 0
297 -298 0
299 -300 -301 0
-299 300 0
-299 301 0
-302 299 303 0
302 -299 0
302 -303 0
304 -305 -306 0
-304 305 0
-304 306 0
-307 304 308 0
307 -304 0
307 -308 0
309 -310 -311 0
-309 310 0
-309 311 0
-312 309 313 0
312 -309 0
312 -313 0
314 -310 -315 0
-314 310 0
-314 315 0
-316 314 317 0
316 -314 0
316 -317 0
318 -305 -319 0
-318 305 0
-318 319 0
-320 318 321 0
320 -318 0
320 -321 0
322 -290 -323 0
-322 290 0
-322 323 0
-324 322 325 0
324 -322 0
324 -325 0
326 -292 -324 0
-326 292 0
-326 324 0
-327 184 284 326 0
327 -184 0
327 -284 0
327 -326 0
328 -327 -4 0
-328 327 0
-328 4 0
329 -330 -331 0
-329 330 0
-329 331 0
-332 329 333 0
332 -329 0
332 -333 0
-334 184 284 0
334 -184 0
334 -284 0
335 -334 -292 0
-335 334 0
-335 292 0
-336 292 335 0
336 -292 0
336 -335 0
337 -300 -338 0
-337 300 0
-337 338 0
-339 337 340 0
339 -337 0
339 -340 0
341 -336 -339 0
-341 336 0
-341 339 0
-342 4 328 341 0
342 -4 0
342 -328 0
342 -341 0
343 -330 -344 0
-343 330 0
-343 344 0
-345 343 346 0
345 -343 0
345 -346 0
347 -342 -345 0
-347 342 0
-347 345 0
348 -349 -350 0
-348 349 0
-348 350 0
-351 348 352 0
351 -348 0
351 -352 0
353 -4 -287 0
-353 4 0
-353 287 0
-354 184 284 353 0
354 -184 0
354 -284 0
354 -353 0
355 -354 -292 0
-355 354 0
-355 292 0
356 -334 -4 0
-356 334 0
-356 4 0
-357 4 356 0
357 -4 0
357 -356 0
358 -357 -302 0
-358 357 0
-358 302 0
-359 292 355 358 0
359 -292 0
359 -355 0
359 -358 0
360 -295 -361 0
-360 295 0
-360 361 0
-362 360 363 0
362 -360 0
362 -363 0
364 -359 -362 0
-364 359 0
-364 362 0
-365 347 364 0
365 -347 0
365 -364 0
366 -349 -367 0
-366 349 0
-366 367 0
-368 366 369 0
368 -366 0
368 -369 0
370 -365 -368 0
-370 365 0
-370 368 0
371 -372 -373 0
-371 372 0
-371 373 0
-374 371 375 0
374 -371 0
374 -375 0
376 -372 -377 0
-376 372 0
-376 377 0
-378 376 379 0
378 -376 0
378 -379 0
380 -370 -378 0
-380 370 0
-380 378 0
381 -292 -362 0
-381 292 0
-381 362 0
382 -381 -332 0
-382 381 0
-382 332 0
383 -292 -339 0
-383 292 0
-383 339 0
-384 4 382 383 0
384 -4 0
384 -382 0
384 -383 0
385 -384 -287 0
-385 384 0
-385 287 0
386 -4 -345 0
-386 4 0
-386 345 0
387 -386 -297 0
-387 386 0
-387 297 0
388 -4 -302 0
-388 4 0
-388 302 0
-389 292 387 388 0
389 -292 0
389 -387 0
389 -388 0
390 -389 -324 0
-390 389 0
-390 324 0
-391 284 385 390 0
391 -284 0
391 -385 0
391 -390 0
392 -391 -9 0
-392 391 0
-392 9 0
-393 9 392 0
393 -9 0
393 -392 0
394 -393 -14 0
-394 393 0
-394 14 0
395 -394 -37 0
-395 394 0
-395 37 0
396 -395 -42 0
-396 395 0
-396 42 0
397 -396 -47 0
-397 396 0
-397 47 0
398 -397 -52 0
-398 397 0
-398 52 0
399 -398 -57 0
-399 398 0
-399 57 0
400 -399 -62 0
-400 399 0
-400 62 0
401 -400 -67 0
-401 400 0
-401 67 0
402 -400 -111 0
-402 400 0
-402 111 0
403 -402 -115 0
-403 402 0
-403 115 0
-404 401 403 0
404 -401 0
404 -403 0
405 -404 -72 0
-405 404 0
-405 72 0
-406 380 405 397 0
406 -380 0
406 -405 0
406 -397 0
407 -307 -320 0
-407 307 0
-407 320 0
408 -339 -287 0
-408 339 0
-408 287 0
-409 324 408 0
409 -324 0
409 -408 0
410 -409 -292 0
-410 409 0
-410 292 0
411 -324 -4 0
-411 324 0
-411 4 0
-412 339 411 0
412 -339 0
412 -411 0
413 -412 -302 0
-413 412 0
-413 302 0
-414 407 410 413 0
414 -407 0
414 -410 0
414 -413 0
415 -414 -362 0
-415 414 0
-415 362 0
416 -324 -292 0
-416 324 0
-416 292 0
-417 407 416 0
417 -407 0
417 -416 0
418 -417 -339 0
-418 417 0
-418 339 0
419 -407 -324 0
-419 407 0
-419 324 0
-420 324 419 0
420 -324 0
420 -419 0
421 -420 -4 0
-421 420 0
-421 4 0
-422 339 418 421 0
422 -339 0
422 -418 0
422 -421 0
423 -422 -345 0
-423 422 0
-423 345 0
-424 362 415 423 0
424 -362 0
424 -415 0
424 -423 0
425 -424 -368 0
-425 424 0
-425 368 0
426 -425 -378 0
-426 425 0
-426 378 0
427 -362 -332 0
-427 362 0
-427 332 0
-428 339 427 0
428 -339 0
428 -427 0
429 -428 -302 0
-429 428 0
-429 302 0
430 -339 -345 0
-430 339 0
-430 345 0
-431 362 430 0
431 -362 0
431 -430 0
432 -431 -297 0
-432 431 0
-432 297 0
-433 407 429 432 0
433 -407 0
433 -429 0
433 -432 0
434 -433 -324 0
-434 433 0
-434 324 0
435 -362 -297 0
-435 362 0
-435 297 0
-436 407 435 0
436 -407 0
436 -435 0
437 -436 -339 0
-437 436 0
-437 339 0
438 -407 -362 0
-438 407 0
-438 362 0
-439 362 438 0
439 -362 0
439 -438 0
440 -439 -332 0
-440 439 0
-440 332 0
-441 339 437 440 0
441 -339 0
441 -437 0
441 -440 0
442 -441 -287 0
-442 441 0
-442 287 0
-443 324 434 442 0
443 -324 0
443 -434 0
443 -442 0
444 -443 -9 0
-444 443 0
-444 9 0
445 -444 -14 0
-445 444 0
-445 14 0
446 -445 -37 0
-446 445 0
-446 37 0
447 -446 -42 0
-447 446 0
-447 42 0
448 -447 -47 0
-448 447 0
-448 47 0
449 -448 -52 0
-449 448 0
-449 52 0
450 -449 -57 0
-450 449 0
-450 57 0
451 -450 -62 0
-451 450 0
-451 62 0
452 -451 -67 0
-452 451 0
-452 67 0
453 -451 -111 0
-453 451 0
-453 111 0
454 -453 -115 0
-454 453 0
-454 115 0
-455 452 454 0
455 -452 0
455 -454 0
456 -455 -72 0
-456 455 0
-456 72 0
-457 426 456 448 0
457 -426 0
457 -456 0
457 -448 0
458 -302 -324 0
-458 302 0
-458 324 0
-459 287 458 0
459 -287 0
459 -458 0
460 -459 -4 0
-460 459 0
-460 4 0
461 -287 -292 0
-461 287 0
-461 292 0
-462 302 461 0
462 -302 0
462 -461 0
463 -462 -339 0
-463 462 0
-463 339 0
-464 460 463 0
464 -460 0
464 -463 0
465 -464 -345 0
-465 464 0
-465 345 0
466 -287 -4 0
-466 287 0
-466 4 0
467 -466 -302 0
-467 466 0
-467 302 0
-468 302 467 461 0
468 -302 0
468 -467 0
468 -461 0
469 -468 -362 0
-469 468 0
-469 362 0
-470 345 465 469 0
470 -345 0
470 -465 0
470 -469 0
471 -470 -368 0
-471 470 0
-471 368 0
472 -471 -378 0
-472 471 0
-472 378 0
473 -302 -362 0
-473 302 0
-473 362 0
-474 345 473 0
474 -345 0
474 -473 0
475 -474 -332 0
-475 474 0
-475 332 0
476 -345 -297 0
-476 345 0
-476 297 0
-477 302 476 0
477 -302 0
477 -476 0
478 -477 -339 0
-478 477 0
-478 339 0
-479 475 478 0
479 -475 0
479 -478 0
480 -479 -287 0
-480 479 0
-480 287 0
481 -345 -332 0
-481 345 0
-481 332 0
482 -481 -302 0
-482 481 0
-482 302 0
-483 302 482 476 0
483 -302 0
483 -482 0
483 -476 0
484 -483 -324 0
-484 483 0
-484 324 0
-485 287 480 484 0
485 -287 0
485 -480 0
485 -484 0
486 -485 -9 0
-486 485 0
-486 9 0
487 -486 -14 0
-487 486 0
-487 14 0
488 -487 -37 0
-488 487 0
-488 37 0
489 -488 -42 0
-489 488 0
-489 42 0
490 -489 -47 0
-490 489 0
-490 47 0
491 -490 -52 0
-491 490 0
-491 52 0
492 -491 -57 0
-492 491 0
-492 57 0
493 -492 -62 0
-493 492 0
-493 62 0
494 -493 -67 0
-494 493 0
-494 67 0
495 -493 -111 0
-495 493 0
-495 111 0
496 -495 -115 0
-496 495 0
-496 115 0
-497 494 496 0
497 -494 0
497 -496 0
498 -497 -72 0
-498 497 0
-498 72 0
-499 472 498 490 0
499 -472 0
499 -498 0
499 -490 0
500 -19 -32 0
-500 19 0
-500 32 0
501 -37 -174 0
-501 37 0
-501 174 0
-502 500 501 0
502 -500 0
502 -501 0
503 -502 -178 0
-503 502 0
-503 178 0
-504 178 503 0
504 -178 0
504 -503 0
505 -504 -182 0
-505 504 0
-505 182 0
506 -505 -4 0
-506 505 0
-506 4 0
507 -505 -292 0
-507 505 0
-507 292 0
508 -507 -339 0
-508 507 0
-508 339 0
-509 506 508 0
509 -506 0
509 -508 0
510 -509 -345 0
-510 509 0
-510 345 0
511 -506 -302 0
-511 506 0
-511 302 0
-512 511 507 0
512 -511 0
512 -507 0
513 -512 -362 0
-513 512 0
-513 362 0
-514 510 513 0
514 -510 0
514 -513 0
515 -514 -368 0
-515 514 0
-515 368 0
516 -515 -378 0
-516 515 0
-516 378 0
517 -178 -14 0
-517 178 0
-517 14 0
-518 517 500 0
518 -517 0
518 -500 0
519 -518 -37 0
-519 518 0
-519 37 0
-520 37 519 0
520 -37 0
520 -519 0
521 -520 -42 0
-521 520 0
-521 42 0
522 -521 -47 0
-522 521 0
-522 47 0
523 -522 -52 0
-523 522 0
-523 52 0
524 -523 -57 0
-524 523 0
-524 57 0
525 -524 -62 0
-525 524 0
-525 62 0
526 -525 -67 0
-526 525 0
-526 67 0
527 -525 -111 0
-527 525 0
-527 111 0
528 -527 -115 0
-528 527 0
-528 115 0
-529 526 528 0
529 -526 0
529 -528 0
530 -529 -72 0
-530 529 0
-530 72 0
-531 516 530 522 0
531 -516 0
531 -530 0
531 -522 0
532 -98 -105 0
-532 98 0
-532 105 0
533 -115 -90 0
-533 115 0
-533 90 0
-534 532 533 0
534 -532 0
534 -533 0
535 -534 -123 0
-535 534 0
-535 123 0
536 -532 -115 0
-536 532 0
-536 115 0
-537 115 536 0
537 -115 0
537 -536 0
538 -537 -119 0
-538 537 0
-538 119 0
-539 123 535 538 0
539 -123 0
539 -535 0
539 -538 0
540 -539 -127 0
-540 539 0
-540 127 0
541 -540 -131 0
-541 540 0
-541 131 0
542 -541 -135 0
-542 541 0
-542 135 0
543 -542 -139 0
-543 542 0
-543 139 0
544 -543 -143 0
-544 543 0
-544 143 0
545 -544 -174 0
-545 544 0
-545 174 0
546 -545 -178 0
-546 545 0
-546 178 0
547 -546 -182 0
-547 546 0
-547 182 0
548 -547 -4 0
-548 547 0
-548 4 0
549 -547 -292 0
-549 547 0
-549 292 0
550 -549 -339 0
-550 549 0
-550 339 0
-551 548 550 0
551 -548 0
551 -550 0
552 -551 -345 0
-552 551 0
-552 345 0
553 -548 -302 0
-553 548 0
-553 302 0
-554 553 549 0
554 -553 0
554 -549 0
555 -554 -362 0
-555 554 0
-555 362 0
-556 552 555 0
556 -552 0
556 -555 0
557 -556 -368 0
-557 556 0
-557 368 0
558 -557 -378 0
-558 557 0
-558 378 0
-559 123 535 0
559 -123 0
559 -535 0
560 -559 -111 0
-560 559 0
-560 111 0
-561 532 560 0
561 -532 0
561 -560 0
562 -561 -115 0
-562 561 0
-562 115 0
563 -559 -67 0
-563 559 0
-563 67 0
-564 115 562 563 0
564 -115 0
564 -562 0
564 -563 0
565 -564 -72 0
-565 564 0
-565 72 0
-566 558 565 542 0
566 -558 0
566 -565 0
566 -542 0
567 -217 -266 0
-567 217 0
-567 266 0
568 -567 -270 0
-568 567 0
-568 270 0
-569 270 568 0
569 -270 0
569 -568 0
570 -569 -274 0
-570 569 0
-570 274 0
571 -570 -278 0
-571 570 0
-571 278 0
572 -571 -282 0
-572 571 0
-572 282 0
573 -572 -4 0
-573 572 0
-573 4 0
574 -572 -292 0
-574 572 0
-574 292 0
575 -574 -339 0
-575 574 0
-575 339 0
-576 573 575 0
576 -573 0
576 -575 0
577 -576 -345 0
-577 576 0
-577 345 0
578 -573 -302 0
-578 573 0
-578 302 0
-579 578 574 0
579 -578 0
579 -574 0
580 -579 -362 0
-580 579 0
-580 362 0
-581 577 580 0
581 -577 0
581 -580 0
582 -581 -368 0
-582 581 0
-582 368 0
583 -582 -378 0
-583 582 0
-583 378 0
584 -572 -9 0
-584 572 0
-584 9 0
585 -584 -14 0
-585 584 0
-585 14 0
586 -585 -37 0
-586 585 0
-586 37 0
587 -586 -42 0
-587 586 0
-587 42 0
588 -587 -47 0
-588 587 0
-588 47 0
589 -588 -52 0
-589 588 0
-589 52 0
590 -589 -57 0
-590 589 0
-590 57 0
591 -590 -62 0
-591 590 0
-591 62 0
592 -591 -67 0
-592 591 0
-592 67 0
593 -591 -111 0
-593 591 0
-593 111 0
594 -593 -115 0
-594 593 0
-594 115 0
-595 592 594 0
595 -592 0
595 -594 0
596 -595 -72 0
-596 595 0
-596 72 0
-597 583 596 588 0
597 -583 0
597 -596 0
597 -588 0
598 -351 -368 0
-598 351 0
-598 368 0
599 -598 -378 0
-599 598 0
-599 378 0
-600 378 599 0
600 -378 0
600 -599 0
601 -378 -374 0
-601 378 0
-601 374 0
602 -601 -351 0
-602 601 0
-602 351 0
-603 351 602 0
603 -351 0
603 -602 0
604 -603 -332 0
-604 603 0
-604 332 0
605 -603 -297 0
-605 603 0
-605 297 0
606 -605 -339 0
-606 605 0
-606 339 0
-607 604 606 0
607 -604 0
607 -606 0
608 -607 -287 0
-608 607 0
-608 287 0
609 -604 -302 0
-609 604 0
-609 302 0
-610 609 605 0
610 -609 0
610 -605 0
611 -610 -324 0
-611 610 0
-611 324 0
-612 608 611 0
612 -608 0
612 -611 0
613 -612 -9 0
-613 612 0
-613 9 0
614 -613 -14 0
-614 613 0
-614 14 0
615 -614 -37 0
-615 614 0
-615 37 0
616 -615 -42 0
-616 615 0
-616 42 0
617 -616 -47 0
-617 616 0
-617 47 0
618 -617 -52 0
-618 617 0
-618 52 0
619 -618 -57 0
-619 618 0
-619 57 0
620 -619 -62 0
-620 619 0
-620 62 0
621 -620 -67 0
-621 620 0
-621 67 0
622 -620 -111 0
-622 620 0
-622 111 0
623 -622 -115 0
-623 622 0
-623 115 0
-624 621 623 0
624 -621 0
624 -623 0
625 -624 -72 0
-625 624 0
-625 72 0
-626 600 625 617 0
626 -600 0
626 -625 0
626 -617 0
627 -232 -254 0
-627 232 0
-627 254 0
628 -627 -258 0
-628 627 0
-628 258 0
-629 258 628 0
629 -258 0
629 -628 0
630 -629 -262 0
-630 629 0
-630 262 0
631 -630 -266 0
-631 630 0
-631 266 0
632 -631 -270 0
-632 631 0
-632 270 0
633 -632 -274 0
-633 632 0
-633 274 0
634 -633 -278 0
-634 633 0
-634 278 0
635 -634 -282 0
-635 634 0
-635 282 0
636 -635 -4 0
-636 635 0
-636 4 0
637 -635 -292 0
-637 635 0
-637 292 0
638 -637 -339 0
-638 637 0
-638 339 0
-639 636 638 0
639 -636 0
639 -638 0
640 -639 -345 0
-640 639 0
-640 345 0
641 -636 -302 0
-641 636 0
-641 302 0
-642 641 637 0
642 -641 0
642 -637 0
643 -642 -362 0
-643 642 0
-643 362 0
-644 640 643 0
644 -640 0
644 -643 0
645 -644 -368 0
-645 644 0
-645 368 0
646 -645 -378 0
-646 645 0
-646 378 0
647 -635 -9 0
-647 635 0
-647 9 0
648 -647 -14 0
-648 647 0
-648 14 0
649 -648 -37 0
-649 648 0
-649 37 0
650 -649 -42 0
-650 649 0
-650 42 0
651 -650 -47 0
-651 650 0
-651 47 0
652 -651 -52 0
-652 651 0
-652 52 0
653 -652 -57 0
-653 652 0
-653 57 0
654 -653 -62 0
-654 653 0
-654 62 0
655 -654 -67 0
-655 654 0
-655 67 0
656 -654 -111 0
-656 654 0
-656 111 0
657 -656 -115 0
-657 656 0
-657 115 0
-658 655 657 0
658 -655 0
658 -657 0
659 -658 -72 0
-659 658 0
-659 72 0
-660 646 659 651 0
660 -646 0
660 -659 0
660 -651 0
661 -312 -316 0
-661 312 0
-661 316 0
662 -661 -320 0
-662 661 0
-662 320 0
-663 320 662 0
663 -320 0
663 -662 0
664 -663 -324 0
-664 663 0
-664 324 0
665 -664 -4 0
-665 664 0
-665 4 0
666 -663 -339 0
-666 663 0
-666 339 0
-667 665 666 0
667 -665 0
667 -666 0
668 -667 -345 0
-668 667 0
-668 345 0
669 -663 -362 0
-669 663 0
-669 362 0
-670 668 669 0
670 -668 0
670 -669 0
671 -670 -368 0
-671 670 0
-671 368 0
672 -671 -378 0
-672 671 0
-672 378 0
673 -669 -332 0
-673 669 0
-673 332 0
-674 673 666 0
674 -673 0
674 -666 0
675 -674 -287 0
-675 674 0
-675 287 0
-676 664 675 0
676 -664 0
676 -675 0
677 -676 -9 0
-677 676 0
-677 9 0
678 -677 -14 0
-678 677 0
-678 14 0
679 -678 -37 0
-679 678 0
-679 37 0
680 -679 -42 0
-680 679 0
-680 42 0
681 -680 -47 0
-681 680 0
-681 47 0
682 -681 -52 0
-682 681 0
-682 52 0
683 -682 -57 0
-683 682 0
-683 57 0
684 -683 -62 0
-684 683 0
-684 62 0
685 -684 -67 0
-685 684 0
-685 67 0
686 -684 -111 0
-686 684 0
-686 111 0
687 -686 -115 0
-687 686 0
-687 115 0
-688 685 687 0
688 -685 0
688 -687 0
689 -688 -72 0
-689 688 0
-689 72 0
-690 672 689 681 0
690 -672 0
690 -689 0
690 -681 0
691 -24 -28 0
-691 24 0
-691 28 0
692 -691 -32 0
-692 691 0
-692 32 0
-693 32 692 0
693 -32 0
693 -692 0
694 -693 -178 0
-694 693 0
-694 178 0
695 -694 -182 0
-695 694 0
-695 182 0
696 -695 -4 0
-696 695 0
-696 4 0
697 -695 -292 0
-697 695 0
-697 292 0
698 -697 -339 0
-698 697 0
-698 339 0
-699 696 698 0
699 -696 0
699 -698 0
700 -699 -345 0
-700 699 0
-700 345 0
701 -696 -302 0
-701 696 0
-701 302 0
-702 701 697 0
702 -701 0
702 -697 0
703 -702 -362 0
-703 702 0
-703 362 0
-704 700 703 0
704 -700 0
704 -703 0
705 -704 -368 0
-705 704 0
-705 368 0
706 -705 -378 0
-706 705 0
-706 378 0
707 -693 -37 0
-707 693 0
-707 37 0
708 -707 -42 0
-708 707 0
-708 42 0
709 -708 -47 0
-709 708 0
-709 47 0
710 -709 -52 0
-710 709 0
-710 52 0
711 -710 -57 0
-711 710 0
-711 57 0
712 -711 -62 0
-712 711 0
-712 62 0
713 -712 -67 0
-713 712 0
-713 67 0
714 -712 -111 0
-714 712 0
-714 111 0
715 -714 -115 0
-715 714 0
-715 115 0
-716 713 715 0
716 -713 0
716 -715 0
717 -716 -72 0
-717 716 0
-717 72 0
-718 706 717 709 0
718 -706 0
718 -717 0
718 -709 0
719 -162 -166 0
-719 162 0
-719 166 0
720 -719 -170 0
-720 719 0
-720 170 0
721 -720 -174 0
-721 720 0
-721 174 0
722 -721 -178 0
-722 721 0
-722 178 0
723 -722 -182 0
-723 722 0
-723 182 0
724 -723 -4 0
-724 723 0
-724 4 0
725 -723 -292 0
-725 723 0
-725 292 0
726 -725 -339 0
-726 725 0
-726 339 0
-727 724 726 0
727 -724 0
727 -726 0
728 -727 -345 0
-728 727 0
-728 345 0
729 -724 -302 0
-729 724 0
-729 302 0
-730 729 725 0
730 -729 0
730 -725 0
731 -730 -362 0
-731 730 0
-731 362 0
-732 728 731 0
732 -728 0
732 -731 0
733 -732 -368 0
-733 732 0
-733 368 0
734 -733 -378 0
-734 733 0
-734 378 0
735 -720 -42 0
-735 720 0
-735 42 0
736 -735 -47 0
-736 735 0
-736 47 0
737 -736 -52 0
-737 736 0
-737 52 0
738 -737 -57 0
-738 737 0
-738 57 0
739 -738 -62 0
-739 738 0
-739 62 0
740 -739 -67 0
-740 739 0
-740 67 0
741 -739 -111 0
-741 739 0
-741 111 0
742 -741 -115 0
-742 741 0
-742 115 0
-743 740 742 0
743 -740 0
743 -742 0
744 -743 -72 0
-744 743 0
-744 72 0
-745 734 744 736 0
745 -734 0
745 -744 0
745 -736 0
746 -28 -32 0
-746 28 0
-746 32 0
747 -746 -178 0
-747 746 0
-747 178 0
748 -747 -182 0
-748 747 0
-748 182 0
749 -748 -4 0
-749 748 0
-749 4 0
750 -748 -292 0
-750 748 0
-750 292 0
751 -750 -339 0
-751 750 0
-751 339 0
-752 749 751 0
752 -749 0
752 -751 0
753 -752 -345 0
-753 752 0
-753 345 0
754 -749 -302 0
-754 749 0
-754 302 0
-755 754 750 0
755 -754 0
755 -750 0
756 -755 -362 0
-756 755 0
-756 362 0
-757 753 756 0
757 -753 0
757 -756 0
758 -757 -368 0
-758 757 0
-758 368 0
759 -758 -378 0
-759 758 0
-759 378 0
760 -746 -37 0
-760 746 0
-760 37 0
761 -760 -42 0
-761 760 0
-761 42 0
762 -761 -47 0
-762 761 0
-762 47 0
763 -762 -52 0
-763 762 0
-763 52 0
764 -763 -57 0
-764 763 0
-764 57 0
765 -764 -62 0
-765 764 0
-765 62 0
766 -765 -67 0
-766 765 0
-766 67 0
767 -765 -111 0
-767 765 0
-767 111 0
768 -767 -115 0
-768 767 0
-768 115 0
-769 766 768 0
769 -766 0
769 -768 0
770 -769 -72 0
-770 769 0
-770 72 0
-771 759 770 762 0
771 -759 0
771 -770 0
771 -762 0
772 -316 -320 0
-772 316 0
-772 320 0
773 -772 -324 0
-773 772 0
-773 324 0
774 -773 -4 0
-774 773 0
-774 4 0
775 -772 -339 0
-775 772 0
-775 339 0
-776 774 775 0
776 -774 0
776 -775 0
777 -776 -345 0
-777 776 0
-777 345 0
778 -772 -362 0
-778 772 0
-778 362 0
-779 777 778 0
779 -777 0
779 -778 0
780 -779 -368 0
-780 779 0
-780 368 0
781 -780 -378 0
-781 780 0
-781 378 0
782 -778 -332 0
-782 778 0
-782 332 0
-783 782 775 0
783 -782 0
783 -775 0
784 -783 -287 0
-784 783 0
-784 287 0
-785 773 784 0
785 -773 0
785 -784 0
786 -785 -9 0
-786 785 0
-786 9 0
787 -786 -14 0
-787 786 0
-787 14 0
788 -787 -37 0
-788 787 0
-788 37 0
789 -788 -42 0
-789 788 0
-789 42 0
790 -789 -47 0
-790 789 0
-790 47 0
791 -790 -52 0
-791 790 0
-791 52 0
792 -791 -57 0
-792 791 0
-792 57 0
793 -792 -62 0
-793 792 0
-793 62 0
794 -793 -67 0
-794 793 0
-794 67 0
795 -793 -111 0
-795 793 0
-795 111 0
796 -795 -115 0
-796 795 0
-796 115 0
-797 794 796 0
797 -794 0
797 -796 0
798 -797 -72 0
-798 797 0
-798 72 0
-799 781 798 790 0
799 -781 0
799 -798 0
799 -790 0
800 -241 -254 0
-800 241 0
-800 254 0
801 -800 -258 0
-801 800 0
-801 258 0
802 -801 -262 0
-802 801 0
-802 262 0
803 -802 -266 0
-803 802 0
-803 266 0
804 -803 -270 0
-804 803 0
-804 270 0
805 -804 -274 0
-805 804 0
-805 274 0
806 -805 -278 0
-806 805 0
-806 278 0
807 -806 -282 0
-807 806 0
-807 282 0
808 -807 -4 0
-808 807 0
-808 4 0
809 -807 -292 0
-809 807 0
-809 292 0
810 -809 -339 0
-810 809 0
-810 339 0
-811 808 810 0
811 -808 0
811 -810 0
812 -811 -345 0
-812 811 0
-812 345 0
813 -808 -302 0
-813 808 0
-813 302 0
-814 813 809 0
814 -813 0
814 -809 0
815 -814 -362 0
-815 814 0
-815 362 0
-816 812 815 0
816 -812 0
816 -815 0
817 -816 -368 0
-817 816 0
-817 368 0
818 -817 -378 0
-818 817 0
-818 378 0
819 -807 -9 0
-819 807 0
-819 9 0
820 -819 -14 0
-820 819 0
-820 14 0
821 -820 -37 0
-821 820 0
-821 37 0
822 -821 -42 0
-822 821 0
-822 42 0
823 -822 -47 0
-823 822 0
-823 47 0
824 -823 -52 0
-824 823 0
-824 52 0
825 -824 -57 0
-825 824 0
-825 57 0
826 -825 -62 0
-826 825 0
-826 62 0
827 -826 -67 0
-827 826 0
-827 67 0
828 -826 -111 0
-828 826 0
-828 111 0
829 -828 -115 0
-829 828 0
-829 115 0
-830 827 829 0
830 -827 0
830 -829 0
831 -830 -72 0
-831 830 0
-831 72 0
-832 818 831 823 0
832 -818 0
832 -831 0
832 -823 0
833 -250 -254 0
-833 250 0
-833 254 0
834 -833 -258 0
-834 833 0
-834 258 0
835 -834 -262 0
-835 834 0
-835 262 0
836 -835 -266 0
-836 835 0
-836 266 0
837 -836 -270 0
-837 836 0
-837 270 0
838 -837 -274 0
-838 837 0
-838 274 0
839 -838 -278 0
-839 838 0
-839 278 0
840 -839 -282 0
-840 839 0
-840 282 0
841 -840 -4 0
-841 840 0
-841 4 0
842 -840 -292 0
-842 840 0
-842 292 0
843 -842 -339 0
-843 842 0
-843 339 0
-844 841 843 0
844 -841 0
844 -843 0
845 -844 -345 0
-845 844 0
-845 345 0
846 -841 -302 0
-846 841 0
-846 302 0
-847 846 842 0
847 -846 0
847 -842 0
848 -847 -362 0
-848 847 0
-848 362 0
-849 845 848 0
849 -845 0
849 -848 0
850 -849 -368 0
-850 849 0
-850 368 0
851 -850 -378 0
-851 850 0
-851 378 0
852 -840 -9 0
-852 840 0
-852 9 0
853 -852 -14 0
-853 852 0
-853 14 0
854 -853 -37 0
-854 853 0
-854 37 0
855 -854 -42 0
-855 854 0
-855 42 0
856 -855 -47 0
-856 855 0
-856 47 0
857 -856 -52 0
-857 856 0
-857 52 0
858 -857 -57 0
-858 857 0
-858 57 0
859 -858 -62 0
-859 858 0
-859 62 0
860 -859 -67 0
-860 859 0
-860 67 0
861 -859 -111 0
-861 859 0
-861 111 0
862 -861 -115 0
-862 861 0
-862 115 0
-863 860 862 0
863 -860 0
863 -862 0
864 -863 -72 0
-864 863 0
-864 72 0
-865 851 864 856 0
865 -851 0
865 -864 0
865 -856 0
866 -202 -278 0
-866 202 0
-866 278 0
867 -866 -282 0
-867 866 0
-867 282 0
868 -867 -4 0
-868 867 0
-868 4 0
869 -867 -292 0
-869 867 0
-869 292 0
870 -869 -339 0
-870 869 0
-870 339 0
-871 868 870 0
871 -868 0
871 -870 0
872 -871 -345 0
-872 871 0
-872 345 0
873 -868 -302 0
-873 868 0
-873 302 0
-874 873 869 0
874 -873 0
874 -869 0
875 -874 -362 0
-875 874 0
-875 362 0
-876 872 875 0
876 -872 0
876 -875 0
877 -876 -368 0
-877 876 0
-877 368 0
878 -877 -378 0
-878 877 0
-878 378 0
879 -867 -9 0
-879 867 0
-879 9 0
880 -879 -14 0
-880 879 0
-880 14 0
881 -880 -37 0
-881 880 0
-881 37 0
882 -881 -42 0
-882 881 0
-882 42 0
883 -882 -47 0
-883 882 0
-883 47 0
884 -883 -52 0
-884 883 0
-884 52 0
885 -884 -57 0
-885 884 0
-885 57 0
886 -885 -62 0
-886 885 0
-886 62 0
887 -886 -67 0
-887 886 0
-887 67 0
888 -886 -111 0
-888 886 0
-888 111 0
889 -888 -115 0
-889 888 0
-889 115 0
-890 887 889 0
890 -887 0
890 -889 0
891 -890 -72 0
-891 890 0
-891 72 0
-892 878 891 883 0
892 -878 0
892 -891 0
892 -883 0
893 -406 -894 0
-893 406 0
-893 894 0
895 406 894 0
-895 -406 0
-895 -894 0
-896 893 895 0
896 -893 0
896 -895 0
897 -457 -898 0
-897 457 0
-897 898 0
899 457 898 0
-899 -457 0
-899 -898 0
-900 897 899 0
900 -897 0
900 -899 0
901 -499 -902 0
-901 499 0
-901 902 0
903 499 902 0
-903 -499 0
-903 -902 0
-904 901 903 0
904 -901 0
904 -903 0
905 -531 -906 0
-905 531 0
-905 906 0
907 531 906 0
-907 -531 0
-907 -906 0
-908 905 907 0
908 -905 0
908 -907 0
909 -566 -910 0
-909 566 0
-909 910 0
911 566 910 0
-911 -566 0
-911 -910 0
-912 909 911 0
912 -909 0
912 -911 0
913 -597 -914 0
-913 597 0
-913 914 0
915 597 914 0
-915 -597 0
-915 -914 0
-916 913 915 0
916 -913 0
916 -915 0
917 -626 -918 0
-917 626 0
-917 918 0
919 626 918 0
-919 -626 0
-919 -918 0
-920 917 919 0
920 -917 0
920 -919 0
921 -660 -922 0
-921 660 0
-921 922 0
923 660 922 0
-923 -660 0
-923 -922 0
-924 921 923 0
924 -921 0
924 -923 0
925 -690 -926 0
-925 690 0
-925 926 0
927 690 926 0
-927 -690 0
-927 -926 0
-928 925 927 0
928 -925 0
928 -927 0
929 -718 -930 0
-929 718 0
-929 930 0
931 718 930 0
-931 -718 0
-931 -930 0
-932 929 931 0
932 -929 0
932 -931 0
933 -745 -934 0
-933 745 0
-933 934 0
935 745 934 0
-935 -745 0
-935 -934 0
-936 933 935 0
936 -933 0
936 -935 0
937 -771 -938 0
-937 771 0
-937 938 0
939 771 938 0
-939 -771 0
-939 -938 0
-940 937 939 0
940 -937 0
940 -939 0
941 -799 -942 0
-941 799 0
-941 942 0
943 799 942 0
-943 -799 0
-943 -942 0
-944 941 943 0
944 -941 0
944 -943 0
945 -832 -946 0
-945 832 0
-945 946 0
947 832 946 0
-947 -832 0
-947 -946 0
-948 945 947 0
948 -945 0
948 -947 0
949 -865 -950 0
-949 865 0
-949 950 0
951 865 950 0
-951 -865 0
-951 -950 0
-952 949 951 0
952 -949 0
952 -951 0
953 -892 -954 0
-953 892 0
-953 954 0
955 892 954 0
-955 -892 0
-955 -954 0
-956 953 955 0
956 -953 0
956 -955 0
896 0
900 0
904 0
908 0
912 0
916 0
920 0
924 0
928 0
932 0
936 0
940 0
944 0
948 0
952 0
956 0
