c BC-S1.2
p cnf 491 1371
1 -2 -3 0
-1 2 0
-1 3 0
4 -2 -5 0
-4 2 0
-4 5 0
6 -4 -7 0
-6 4 0
-6 7 0
8 -9 -3 0
-8 9 0
-8 3 0
10 -8 -11 0
-10 8 0
-10 11 0
12 -9 -5 0
-12 9 0
-12 5 0
13 -12 -14 0
-13 12 0
-13 14 0
-15 1 6 10 13 0
15 -1 0
15 -6 0
15 -10 0
15 -13 0
16 -17 -15 0
-16 17 0
-16 15 0
18 -4 -19 0
-18 4 0
-18 19 0
20 -2 -21 0
-20 2 0
-20 21 0
22 -8 -23 0
-22 8 0
-22 23 0
24 -12 -25 0
-24 12 0
-24 25 0
26 -9 -21 0
-26 9 0
-26 21 0
27 -26 -28 0
-27 26 0
-27 28 0
29 -30 -3 0
-29 30 0
-29 3 0
31 -30 -5 0
-31 30 0
-31 5 0
32 -31 -33 0
-32 31 0
-32 33 0
-34 18 20 22 24 27 29 32 0
34 -18 0
34 -20 0
34 -22 0
34 -24 0
34 -27 0
34 -29 0
34 -32 0
35 -17 -34 0
-35 17 0
-35 34 0
36 -35 -37 0
-36 35 0
-36 37 0
38 -39 -15 0
-38 39 0
-38 15 0
40 -38 -41 0
-40 38 0
-40 41 0
42 -39 -34 0
-42 39 0
-42 34 0
43 -42 -44 0
-43 42 0
-43 44 0
-45 16 36 40 43 0
45 -16 0
45 -36 0
45 -40 0
45 -43 0
46 -47 -48 0
-46 47 0
-46 48 0
49 -47 -50 0
-49 47 0
-49 50 0
51 -49 -52 0
-51 49 0
-51 52 0
53 -54 -48 0
-53 54 0
-53 48 0
55 -53 -56 0
-55 53 0
-55 56 0
57 -54 -50 0
-57 54 0
-57 50 0
58 -57 -59 0
-58 57 0
-58 59 0
-60 46 51 55 58 0
60 -46 0
60 -51 0
60 -55 0
60 -58 0
61 -45 -60 0
-61 45 0
-61 60 0
62 -49 -63 0
-62 49 0
-62 63 0
64 -47 -65 0
-64 47 0
-64 65 0
66 -53 -67 0
-66 53 0
-66 67 0
68 -57 -69 0
-68 57 0
-68 69 0
70 -54 -65 0
-70 54 0
-70 65 0
71 -70 -72 0
-71 70 0
-71 72 0
73 -74 -48 0
-73 74 0
-73 48 0
75 -74 -50 0
-75 74 0
-75 50 0
76 -75 -77 0
-76 75 0
-76 77 0
-78 62 64 66 68 71 73 76 0
78 -62 0
78 -64 0
78 -66 0
78 -68 0
78 -71 0
78 -73 0
78 -76 0
79 -45 -78 0
-79 45 0
-79 78 0
80 -79 -81 0
-80 79 0
-80 81 0
82 -35 -83 0
-82 35 0
-82 83 0
84 -12 -85 0
-84 12 0
-84 85 0
86 -26 -87 0
-86 26 0
-86 87 0
88 -31 -89 0
-88 31 0
-88 89 0
90 -30 -21 0
-90 30 0
-90 21 0
-91 84 86 88 90 0
91 -84 0
91 -86 0
91 -88 0
91 -90 0
92 -17 -91 0
-92 17 0
-92 91 0
93 -38 -94 0
-93 38 0
-93 94 0
95 -42 -96 0
-95 42 0
-95 96 0
97 -39 -91 0
-97 39 0
-97 91 0
98 -97 -99 0
-98 97 0
-98 99 0
100 -101 -15 0
-100 101 0
-100 15 0
102 -101 -34 0
-102 101 0
-102 34 0
103 -102 -104 0
-103 102 0
-103 104 0
-105 82 92 93 95 98 100 103 0
105 -82 0
105 -92 0
105 -93 0
105 -95 0
105 -98 0
105 -100 0
105 -103 0
106 -105 -60 0
-106 105 0
-106 60 0
107 -106 -108 0
-107 106 0
-107 108 0
109 -105 -78 0
-109 105 0
-109 78 0
110 -109 -111 0
-110 109 0
-110 111 0
-112 61 80 107 110 0
112 -61 0
112 -80 0
112 -107 0
112 -110 0
113 -114 -115 0
-113 114 0
-113 115 0
116 -113 -117 0
-116 113 0
-116 117 0
118 -114 -119 0
-118 114 0
-118 119 0
120 -121 -122 0
-120 121 0
-120 122 0
123 -120 -124 0
-123 120 0
-123 124 0
125 -121 -115 0
-125 121 0
-125 115 0
126 -125 -127 0
-126 125 0
-126 127 0
128 -121 -119 0
-128 121 0
-128 119 0
129 -128 -130 0
-129 128 0
-129 130 0
131 -132 -122 0
-131 132 0
-131 122 0
133 -132 -115 0
-133 132 0
-133 115 0
134 -133 -135 0
-134 133 0
-134 135 0
-136 116 118 123 126 129 131 134 0
136 -116 0
136 -118 0
136 -123 0
136 -126 0
136 -129 0
136 -131 0
136 -134 0
137 -112 -136 0
-137 112 0
-137 136 0
138 -137 -139 0
-138 137 0
-138 139 0
140 -125 -141 0
-140 125 0
-140 141 0
142 -128 -143 0
-142 128 0
-142 143 0
144 -133 -145 0
-144 133 0
-144 145 0
146 -132 -119 0
-146 132 0
-146 119 0
-147 140 142 144 146 0
147 -140 0
147 -142 0
147 -144 0
147 -146 0
148 -112 -147 0
-148 112 0
-148 147 0
149 -79 -150 0
-149 79 0
-149 150 0
151 -57 -152 0
-151 57 0
-151 152 0
153 -70 -154 0
-153 70 0
-153 154 0
155 -75 -156 0
-155 75 0
-155 156 0
157 -74 -65 0
-157 74 0
-157 65 0
-158 151 153 155 157 0
158 -151 0
158 -153 0
158 -155 0
158 -157 0
159 -45 -158 0
-159 45 0
-159 158 0
160 -106 -161 0
-160 106 0
-160 161 0
162 -109 -163 0
-162 109 0
-162 163 0
164 -105 -158 0
-164 105 0
-164 158 0
165 -164 -166 0
-165 164 0
-165 166 0
167 -42 -168 0
-167 42 0
-167 168 0
169 -97 -170 0
-169 97 0
-169 170 0
171 -102 -172 0
-171 102 0
-171 172 0
173 -101 -91 0
-173 101 0
-173 91 0
-174 167 169 171 173 0
174 -167 0
174 -169 0
174 -171 0
174 -173 0
175 -174 -60 0
-175 174 0
-175 60 0
176 -174 -78 0
-176 174 0
-176 78 0
177 -176 -178 0
-177 176 0
-177 178 0
-179 149 159 160 162 165 175 177 0
179 -149 0
179 -159 0
179 -160 0
179 -162 0
179 -165 0
179 -175 0
179 -177 0
180 -114 -122 0
-180 114 0
-180 122 0
181 -113 -182 0
-181 113 0
-181 182 0
183 -120 -184 0
-183 120 0
-183 184 0
185 -125 -186 0
-185 125 0
-185 186 0
-187 180 181 183 185 0
187 -180 0
187 -181 0
187 -183 0
187 -185 0
188 -179 -187 0
-188 179 0
-188 187 0
189 -188 -190 0
-189 188 0
-189 190 0
191 -179 -136 0
-191 179 0
-191 136 0
192 -191 -193 0
-192 191 0
-192 193 0
194 -179 -147 0
-194 179 0
-194 147 0
195 -194 -196 0
-195 194 0
-195 196 0
197 -109 -198 0
-197 109 0
-197 198 0
199 -164 -200 0
-199 164 0
-199 200 0
201 -176 -202 0
-201 176 0
-201 202 0
203 -174 -158 0
-203 174 0
-203 158 0
-204 197 199 201 203 0
204 -197 0
204 -199 0
204 -201 0
204 -203 0
205 -204 -187 0
-205 204 0
-205 187 0
206 -204 -136 0
-206 204 0
-206 136 0
207 -206 -208 0
-207 206 0
-207 208 0
-209 138 148 189 192 195 205 207 0
209 -138 0
209 -148 0
209 -189 0
209 -192 0
209 -195 0
209 -205 0
209 -207 0
210 -114 -211 0
-210 114 0
-210 211 0
212 -210 -213 0
-212 210 0
-212 213 0
214 -114 -215 0
-214 114 0
-214 215 0
216 -121 -217 0
-216 121 0
-216 217 0
218 -216 -219 0
-218 216 0
-218 219 0
220 -121 -211 0
-220 121 0
-220 211 0
221 -220 -222 0
-221 220 0
-221 222 0
223 -121 -215 0
-223 121 0
-223 215 0
224 -223 -225 0
-224 223 0
-224 225 0
226 -132 -217 0
-226 132 0
-226 217 0
227 -132 -211 0
-227 132 0
-227 211 0
228 -227 -229 0
-228 227 0
-228 229 0
-230 212 214 218 221 224 226 228 0
230 -212 0
230 -214 0
230 -218 0
230 -221 0
230 -224 0
230 -226 0
230 -228 0
231 -209 -230 0
-231 209 0
-231 230 0
232 -231 -233 0
-232 231 0
-232 233 0
234 -220 -235 0
-234 220 0
-234 235 0
236 -223 -237 0
-236 223 0
-236 237 0
238 -227 -239 0
-238 227 0
-238 239 0
240 -132 -215 0
-240 132 0
-240 215 0
-241 234 236 238 240 0
241 -234 0
241 -236 0
241 -238 0
241 -240 0
242 -209 -241 0
-242 209 0
-242 241 0
243 -242 -244 0
-243 242 0
-243 244 0
245 -191 -246 0
-245 191 0
-245 246 0
247 -194 -248 0
-247 194 0
-247 248 0
249 -206 -250 0
-249 206 0
-249 250 0
251 -204 -147 0
-251 204 0
-251 147 0
-252 245 247 249 251 0
252 -245 0
252 -247 0
252 -249 0
252 -251 0
253 -252 -230 0
-253 252 0
-253 230 0
254 -253 -255 0
-254 253 0
-254 255 0
256 -252 -241 0
-256 252 0
-256 241 0
-257 232 243 254 256 0
257 -232 0
257 -243 0
257 -254 0
257 -256 0
-258 -17 -39 0
258 17 0
258 39 0
-259 -17 -101 0
259 17 0
259 101 0
-260 -17 -261 0
260 17 0
260 261 0
-262 -39 -101 0
262 39 0
262 101 0
-263 -39 -261 0
263 39 0
263 261 0
-264 -101 -261 0
264 101 0
264 261 0
-265 17 39 101 261 0
265 -17 0
265 -39 0
265 -101 0
265 -261 0
-266 -2 -9 0
266 2 0
266 9 0
-267 -2 -30 0
267 2 0
267 30 0
-268 -2 -269 0
268 2 0
268 269 0
-270 -9 -30 0
270 9 0
270 30 0
-271 -9 -269 0
271 9 0
271 269 0
-272 -30 -269 0
272 30 0
272 269 0
-273 2 9 30 269 0
273 -2 0
273 -9 0
273 -30 0
273 -269 0
-274 -3 -5 0
274 3 0
274 5 0
-275 -3 -21 0
275 3 0
275 21 0
-276 -3 -277 0
276 3 0
276 277 0
-278 -5 -21 0
278 5 0
278 21 0
-279 -5 -277 0
279 5 0
279 277 0
-280 -21 -277 0
280 21 0
280 277 0
-281 3 5 21 277 0
281 -3 0
281 -5 0
281 -21 0
281 -277 0
-282 -7 -19 0
282 7 0
282 19 0
-283 -7 -284 0
283 7 0
283 284 0
-285 -19 -284 0
285 19 0
285 284 0
-286 7 19 284 0
286 -7 0
286 -19 0
286 -284 0
-287 -23 -11 0
287 23 0
287 11 0
-288 -23 -289 0
288 23 0
288 289 0
-290 -11 -289 0
290 11 0
290 289 0
-291 23 11 289 0
291 -23 0
291 -11 0
291 -289 0
-292 -14 -25 0
292 14 0
292 25 0
-293 -14 -85 0
293 14 0
293 85 0
-294 -14 -295 0
294 14 0
294 295 0
-296 -25 -85 0
296 25 0
296 85 0
-297 -25 -295 0
297 25 0
297 295 0
-298 -85 -295 0
298 85 0
298 295 0
-299 14 25 85 295 0
299 -14 0
299 -25 0
299 -85 0
299 -295 0
-300 -28 -87 0
300 28 0
300 87 0
-301 -28 -302 0
301 28 0
301 302 0
-303 -87 -302 0
303 87 0
303 302 0
-304 28 87 302 0
304 -28 0
304 -87 0
304 -302 0
-305 -89 -33 0
305 89 0
305 33 0
-306 -89 -307 0
306 89 0
306 307 0
-308 -33 -307 0
308 33 0
308 307 0
-309 89 33 307 0
309 -89 0
309 -33 0
309 -307 0
-310 -37 -83 0
310 37 0
310 83 0
-311 -37 -312 0
311 37 0
311 312 0
-313 -83 -312 0
313 83 0
313 312 0
-314 37 83 312 0
314 -37 0
314 -83 0
314 -312 0
-315 -94 -41 0
315 94 0
315 41 0
-316 -94 -317 0
316 94 0
316 317 0
-318 -41 -317 0
318 41 0
318 317 0
-319 94 41 317 0
319 -94 0
319 -41 0
319 -317 0
-320 -44 -168 0
320 44 0
320 168 0
-321 -44 -96 0
321 44 0
321 96 0
-322 -44 -323 0
322 44 0
322 323 0
-324 -168 -96 0
324 168 0
324 96 0
-325 -168 -323 0
325 168 0
325 323 0
-326 -96 -323 0
326 96 0
326 323 0
-327 44 168 96 323 0
327 -44 0
327 -168 0
327 -96 0
327 -323 0
-328 -47 -54 0
328 47 0
328 54 0
-329 -47 -74 0
329 47 0
329 74 0
-330 -47 -331 0
330 47 0
330 331 0
-332 -54 -74 0
332 54 0
332 74 0
-333 -54 -331 0
333 54 0
333 331 0
-334 -74 -331 0
334 74 0
334 331 0
-335 47 54 74 331 0
335 -47 0
335 -54 0
335 -74 0
335 -331 0
-336 -65 -48 0
336 65 0
336 48 0
-337 -65 -50 0
337 65 0
337 50 0
-338 -65 -339 0
338 65 0
338 339 0
-340 -48 -50 0
340 48 0
340 50 0
-341 -48 -339 0
341 48 0
341 339 0
-342 -50 -339 0
342 50 0
342 339 0
-343 65 48 50 339 0
343 -65 0
343 -48 0
343 -50 0
343 -339 0
-344 -52 -63 0
344 52 0
344 63 0
-345 -52 -346 0
345 52 0
345 346 0
-347 -63 -346 0
347 63 0
347 346 0
-348 52 63 346 0
348 -52 0
348 -63 0
348 -346 0
-349 -67 -56 0
349 67 0
349 56 0
-350 -67 -351 0
350 67 0
350 351 0
-352 -56 -351 0
352 56 0
352 351 0
-353 67 56 351 0
353 -67 0
353 -56 0
353 -351 0
-354 -59 -152 0
354 59 0
354 152 0
-355 -59 -69 0
355 59 0
355 69 0
-356 -59 -357 0
356 59 0
356 357 0
-358 -152 -69 0
358 152 0
358 69 0
-359 -152 -357 0
359 152 0
359 357 0
-360 -69 -357 0
360 69 0
360 357 0
-361 59 152 69 357 0
361 -59 0
361 -152 0
361 -69 0
361 -357 0
-362 -72 -154 0
362 72 0
362 154 0
-363 -72 -364 0
363 72 0
363 364 0
-365 -154 -364 0
365 154 0
365 364 0
-366 72 154 364 0
366 -72 0
366 -154 0
366 -364 0
-367 -156 -77 0
367 156 0
367 77 0
-368 -156 -369 0
368 156 0
368 369 0
-370 -77 -369 0
370 77 0
370 369 0
-371 156 77 369 0
371 -156 0
371 -77 0
371 -369 0
-372 -150 -81 0
372 150 0
372 81 0
-373 -150 -374 0
373 150 0
373 374 0
-375 -81 -374 0
375 81 0
375 374 0
-376 150 81 374 0
376 -150 0
376 -81 0
376 -374 0
-377 -99 -170 0
377 99 0
377 170 0
-378 -99 -379 0
378 99 0
378 379 0
-380 -170 -379 0
380 170 0
380 379 0
-381 99 170 379 0
381 -99 0
381 -170 0
381 -379 0
-382 -172 -104 0
382 172 0
382 104 0
-383 -172 -384 0
383 172 0
383 384 0
-385 -104 -384 0
385 104 0
385 384 0
-386 172 104 384 0
386 -172 0
386 -104 0
386 -384 0
-387 -161 -108 0
387 161 0
387 108 0
-388 -161 -389 0
388 161 0
388 389 0
-390 -108 -389 0
390 108 0
390 389 0
-391 161 108 389 0
391 -161 0
391 -108 0
391 -389 0
-392 -163 -111 0
392 163 0
392 111 0
-393 -163 -198 0
393 163 0
393 198 0
-394 -163 -395 0
394 163 0
394 395 0
-396 -111 -198 0
396 111 0
396 198 0
-397 -111 -395 0
397 111 0
397 395 0
-398 -198 -395 0
398 198 0
398 395 0
-399 163 111 198 395 0
399 -163 0
399 -111 0
399 -198 0
399 -395 0
-400 -114 -121 0
400 114 0
400 121 0
-401 -114 -132 0
401 114 0
401 132 0
-402 -114 -403 0
402 114 0
402 403 0
-404 -121 -132 0
404 121 0
404 132 0
-405 -121 -403 0
405 121 0
405 403 0
-406 -132 -403 0
406 132 0
406 403 0
-407 114 121 132 403 0
407 -114 0
407 -121 0
407 -132 0
407 -403 0
-408 -115 -122 0
408 115 0
408 122 0
-409 -115 -119 0
409 115 0
409 119 0
-410 -115 -411 0
410 115 0
410 411 0
-412 -122 -119 0
412 122 0
412 119 0
-413 -122 -411 0
413 122 0
413 411 0
-414 -119 -411 0
414 119 0
414 411 0
-415 115 122 119 411 0
415 -115 0
415 -122 0
415 -119 0
415 -411 0
-416 -182 -117 0
416 182 0
416 117 0
-417 -182 -418 0
417 182 0
417 418 0
-419 -117 -418 0
419 117 0
419 418 0
-420 182 117 418 0
420 -182 0
420 -117 0
420 -418 0
-421 -184 -124 0
421 184 0
421 124 0
-422 -184 -423 0
422 184 0
422 423 0
-424 -124 -423 0
424 124 0
424 423 0
-425 184 124 423 0
425 -184 0
425 -124 0
425 -423 0
-426 -127 -141 0
426 127 0
426 141 0
-427 -127 -186 0
427 127 0
427 186 0
-428 -127 -429 0
428 127 0
428 429 0
-430 -141 -186 0
430 141 0
430 186 0
-431 -141 -429 0
431 141 0
431 429 0
-432 -186 -429 0
432 186 0
432 429 0
-433 127 141 186 429 0
433 -127 0
433 -141 0
433 -186 0
433 -429 0
-434 -143 -130 0
434 143 0
434 130 0
-435 -143 -436 0
435 143 0
435 436 0
-437 -130 -436 0
437 130 0
437 436 0
-438 143 130 436 0
438 -143 0
438 -130 0
438 -436 0
-439 -135 -145 0
439 135 0
439 145 0
-440 -135 -441 0
440 135 0
440 441 0
-442 -145 -441 0
442 145 0
442 441 0
-443 135 145 441 0
443 -135 0
443 -145 0
443 -441 0
-444 -200 -166 0
444 200 0
444 166 0
-445 -200 -446 0
445 200 0
445 446 0
-447 -166 -446 0
447 166 0
447 446 0
-448 200 166 446 0
448 -200 0
448 -166 0
448 -446 0
-449 -202 -178 0
449 202 0
449 178 0
-450 -202 -451 0
450 202 0
450 451 0
-452 -178 -451 0
452 178 0
452 451 0
-453 202 178 451 0
453 -202 0
453 -178 0
453 -451 0
-454 -246 -193 0
454 246 0
454 193 0
-455 -246 -456 0
455 246 0
455 456 0
-457 -193 -456 0
457 193 0
457 456 0
-458 246 193 456 0
458 -246 0
458 -193 0
458 -456 0
-459 -196 -248 0
459 196 0
459 248 0
-460 -196 -461 0
460 196 0
460 461 0
-462 -248 -461 0
462 248 0
462 461 0
-463 196 248 461 0
463 -196 0
463 -248 0
463 -461 0
-464 -250 -208 0
464 250 0
464 208 0
-465 -250 -466 0
465 250 0
465 466 0
-467 -208 -466 0
467 208 0
467 466 0
-468 250 208 466 0
468 -250 0
468 -208 0
468 -466 0
-469 -217 -211 0
469 217 0
469 211 0
-470 -217 -215 0
470 217 0
470 215 0
-471 -217 -472 0
471 217 0
471 472 0
-473 -211 -215 0
473 211 0
473 215 0
-474 -211 -472 0
474 211 0
474 472 0
-475 -215 -472 0
475 215 0
475 472 0
-476 217 211 215 472 0
476 -217 0
476 -211 0
476 -215 0
476 -472 0
-477 -235 -222 0
477 235 0
477 222 0
-478 -235 -479 0
478 235 0
478 479 0
-480 -222 -479 0
480 222 0
480 479 0
-481 235 222 479 0
481 -235 0
481 -222 0
481 -479 0
-482 -225 -237 0
482 225 0
482 237 0
-483 -225 -484 0
483 225 0
483 484 0
-485 -237 -484 0
485 237 0
485 484 0
-486 225 237 484 0
486 -225 0
486 -237 0
486 -484 0
-487 -239 -229 0
487 239 0
487 229 0
-488 -239 -489 0
488 239 0
488 489 0
-490 -229 -489 0
490 229 0
490 489 0
-491 239 229 489 0
491 -239 0
491 -229 0
491 -489 0
257 0
258 0
259 0
260 0
262 0
263 0
264 0
265 0
266 0
267 0
268 0
270 0
271 0
272 0
273 0
274 0
275 0
276 0
278 0
279 0
280 0
281 0
282 0
283 0
285 0
286 0
287 0
288 0
290 0
291 0
292 0
293 0
294 0
296 0
297 0
298 0
299 0
300 0
301 0
303 0
304 0
305 0
306 0
308 0
309 0
310 0
311 0
313 0
314 0
315 0
316 0
318 0
319 0
320 0
321 0
322 0
324 0
325 0
326 0
327 0
328 0
329 0
330 0
332 0
333 0
334 0
335 0
336 0
337 0
338 0
340 0
341 0
342 0
343 0
344 0
345 0
347 0
348 0
349 0
350 0
352 0
353 0
354 0
355 0
356 0
358 0
359 0
360 0
361 0
362 0
363 0
365 0
366 0
367 0
368 0
370 0
371 0
372 0
373 0
375 0
376 0
377 0
378 0
380 0
381 0
382 0
383 0
385 0
386 0
387 0
388 0
390 0
391 0
392 0
393 0
394 0
396 0
397 0
398 0
399 0
400 0
401 0
402 0
404 0
405 0
406 0
407 0
408 0
409 0
410 0
412 0
413 0
414 0
415 0
416 0
417 0
419 0
420 0
421 0
422 0
424 0
425 0
426 0
427 0
428 0
430 0
431 0
432 0
433 0
434 0
435 0
437 0
438 0
439 0
440 0
442 0
443 0
444 0
445 0
447 0
448 0
449 0
450 0
452 0
453 0
454 0
455 0
457 0
458 0
459 0
460 0
462 0
463 0
464 0
465 0
467 0
468 0
469 0
470 0
471 0
473 0
474 0
475 0
476 0
477 0
478 0
480 0
481 0
482 0
483 0
485 0
486 0
487 0
488 0
490 0
491 0
