c BC-S1.2
p cnf 49 135
-1 2 3 4 0
1 -2 0
1 -3 0
1 -4 0
-5 6 7 0
5 -6 0
5 -7 0
-8 9 10 0
8 -9 0
8 -10 0
-11 12 13 0
11 -12 0
11 -13 0
-14 15 16 0
14 -15 0
14 -16 0
2 -17 0
-2 17 0
3 -18 19 -20 0
-3 18 0
-3 -19 0
-3 20 0
4 -21 22 -5 0
-4 21 0
-4 -22 0
-4 5 0
23 -19 -20 0
-23 19 0
-23 20 0
24 -25 -1 0
-24 25 0
-24 1 0
26 -22 -5 0
-26 22 0
-26 5 0
6 -27 11 -20 0
-6 27 0
-6 -11 0
-6 20 0
7 -28 0
-7 28 0
9 -21 0
-9 21 0
10 -22 0
-10 22 0
12 -19 0
-12 19 0
13 -18 0
-13 18 0
15 -11 0
-15 11 0
16 -27 0
-16 27 0
-29 2 -17 0
29 -2 0
29 17 0
-30 -2 17 0
30 2 0
30 -17 0
-31 -32 23 24 26 0
31 32 0
31 -23 0
31 -24 0
31 -26 0
-33 32 -23 0
33 -32 0
33 23 0
-34 32 -24 0
34 -32 0
34 24 0
-35 32 -26 0
35 -32 0
35 26 0
-36 7 -28 0
36 -7 0
36 28 0
-37 -7 28 0
37 7 0
37 -28 0
-38 9 -21 0
38 -9 0
38 21 0
-39 -9 21 0
39 9 0
39 -21 0
-40 10 -22 0
40 -10 0
40 22 0
-41 -10 22 0
41 10 0
41 -22 0
-42 12 -19 0
42 -12 0
42 19 0
-43 -12 19 0
43 12 0
43 -19 0
-44 13 -18 0
44 -13 0
44 18 0
-45 -13 18 0
45 13 0
45 -18 0
-46 15 -11 0
46 -15 0
46 11 0
-47 -15 11 0
47 15 0
47 -11 0
-48 16 -27 0
48 -16 0
48 27 0
-49 -16 27 0
49 16 0
49 -27 0
29 0
30 0
31 0
33 0
34 0
35 0
36 0
37 0
38 0
39 0
40 0
41 0
42 0
43 0
44 0
45 0
46 0
47 0
48 0
49 0
