c BC-S1.2
p cnf 478 1450
1 -2 0
-1 2 0
3 -4 0
-3 4 0
5 -6 0
-5 6 0
7 -8 0
-7 8 0
9 -10 0
-9 10 0
11 -12 0
-11 12 0
13 -14 0
-13 14 0
15 -16 0
-15 16 0
17 -18 0
-17 18 0
19 -20 0
-19 20 0
21 -22 0
-21 22 0
23 -24 0
-23 24 0
25 -26 0
-25 26 0
27 -28 0
-27 28 0
29 -30 0
-29 30 0
31 -32 0
-31 32 0
33 -34 0
-33 34 0
35 -36 0
-35 36 0
37 -38 0
-37 38 0
39 -40 0
-39 40 0
41 -42 0
-41 42 0
43 -44 0
-43 44 0
45 -46 0
-45 46 0
47 -48 0
-47 48 0
49 -50 0
-49 50 0
51 -52 0
-51 52 0
53 -54 0
-53 54 0
55 -56 0
-55 56 0
57 -58 0
-57 58 0
59 -60 0
-59 60 0
61 -62 0
-61 62 0
63 -64 0
-63 64 0
65 -66 0
-65 66 0
67 -68 0
-67 68 0
69 -70 0
-69 70 0
71 -72 0
-71 72 0
73 -74 0
-73 74 0
75 -76 0
-75 76 0
-77 78 79 80 81 82 83 0
77 -78 0
77 -79 0
77 -80 0
77 -81 0
77 -82 0
77 -83 0
-84 85 86 0
84 -85 0
84 -86 0
-87 88 89 0
87 -88 0
87 -89 0
-90 91 92 0
90 -91 0
90 -92 0
-93 94 95 0
93 -94 0
93 -95 0
-96 97 98 0
96 -97 0
96 -98 0
-99 100 101 0
99 -100 0
99 -101 0
-102 103 104 0
102 -103 0
102 -104 0
-105 106 107 0
105 -106 0
105 -107 0
-108 109 110 0
108 -109 0
108 -110 0
-111 112 113 0
111 -112 0
111 -113 0
-114 115 116 117 118 0
114 -115 0
114 -116 0
114 -117 0
114 -118 0
-119 120 121 0
119 -120 0
119 -121 0
-122 123 124 125 126 0
122 -123 0
122 -124 0
122 -125 0
122 -126 0
-127 128 129 0
127 -128 0
127 -129 0
-130 131 132 133 134 135 0
130 -131 0
130 -132 0
130 -133 0
130 -134 0
130 -135 0
-136 137 138 0
136 -137 0
136 -138 0
139 -121 0
-139 121 0
-140 141 142 0
140 -141 0
140 -142 0
-143 144 145 0
143 -144 0
143 -145 0
-146 147 148 0
146 -147 0
146 -148 0
-149 150 151 152 0
149 -150 0
149 -151 0
149 -152 0
-153 154 155 156 0
153 -154 0
153 -155 0
153 -156 0
-157 158 159 0
157 -158 0
157 -159 0
160 -91 0
-160 91 0
-161 162 163 0
161 -162 0
161 -163 0
164 -98 0
-164 98 0
-165 166 167 168 0
165 -166 0
165 -167 0
165 -168 0
-169 170 171 172 173 0
169 -170 0
169 -171 0
169 -172 0
169 -173 0
-174 175 176 0
174 -175 0
174 -176 0
-177 178 179 180 0
177 -178 0
177 -179 0
177 -180 0
-181 182 183 184 185 0
181 -182 0
181 -183 0
181 -184 0
181 -185 0
-186 187 188 0
186 -187 0
186 -188 0
-189 190 191 0
189 -190 0
189 -191 0
2 -1 0
-2 1 0
4 -3 0
-4 3 0
6 -5 0
-6 5 0
8 -7 0
-8 7 0
10 -9 0
-10 9 0
12 -11 0
-12 11 0
14 -13 0
-14 13 0
16 -15 0
-16 15 0
18 -17 0
-18 17 0
20 -19 0
-20 19 0
22 -21 0
-22 21 0
24 -23 0
-24 23 0
26 -25 0
-26 25 0
28 -27 0
-28 27 0
30 -29 0
-30 29 0
32 -31 0
-32 31 0
34 -33 0
-34 33 0
36 -35 0
-36 35 0
38 -37 0
-38 37 0
40 -39 0
-40 39 0
42 -41 0
-42 41 0
44 -43 0
-44 43 0
46 -45 0
-46 45 0
48 -47 0
-48 47 0
50 -49 0
-50 49 0
52 -51 0
-52 51 0
54 -53 0
-54 53 0
56 -55 0
-56 55 0
58 -57 0
-58 57 0
60 -59 0
-60 59 0
62 -61 0
-62 61 0
64 -63 0
-64 63 0
66 -65 0
-66 65 0
68 -67 0
-68 67 0
70 -69 0
-70 69 0
72 -71 0
-72 71 0
74 -73 0
-74 73 0
76 -75 0
-76 75 0
192 -193 -194 0
-192 193 0
-192 194 0
195 -181 0
-195 181 0
196 -143 0
-196 143 0
197 -198 -199 0
-197 198 0
-197 199 0
200 -146 0
-200 146 0
201 -202 -203 0
-201 202 0
-201 203 0
204 -205 -130 0
-204 205 0
-204 130 0
206 -207 -102 0
-206 207 0
-206 102 0
208 -209 -127 0
-208 209 0
-208 127 0
210 -114 0
-210 114 0
211 -149 0
-211 149 0
212 -213 -214 0
-212 213 0
-212 214 0
215 -216 -111 0
-215 216 0
-215 111 0
217 -77 0
-217 77 0
218 -219 -105 0
-218 219 0
-218 105 0
220 -221 -108 0
-220 221 0
-220 108 0
222 -223 -102 0
-222 223 0
-222 102 0
224 -225 -99 0
-224 225 0
-224 99 0
226 -227 -228 0
-226 227 0
-226 228 0
229 -102 0
-229 102 0
230 -231 -232 0
-230 231 0
-230 232 0
233 -234 -181 0
-233 234 0
-233 181 0
235 -236 -157 0
-235 236 0
-235 157 0
237 -238 -214 0
-237 238 0
-237 214 0
239 -153 0
-239 153 0
240 -241 -194 0
-240 241 0
-240 194 0
242 -157 0
-242 157 0
243 -244 0
-243 244 0
78 -225 -84 0
-78 225 0
-78 84 0
79 -219 -90 0
-79 219 0
-79 90 0
80 -216 -96 0
-80 216 0
-80 96 0
81 -245 0
-81 245 0
82 -221 -93 0
-82 221 0
-82 93 0
83 -223 -87 0
-83 223 0
-83 87 0
85 -213 -122 0
-85 213 0
-85 122 0
86 -161 0
-86 161 0
88 -234 -122 0
-88 234 0
-88 122 0
89 -186 0
-89 186 0
91 -160 0
-91 160 0
92 -202 -93 0
-92 202 0
-92 93 0
94 -189 0
-94 189 0
95 -238 -122 0
-95 238 0
-95 122 0
97 -241 -87 0
-97 241 0
-97 87 0
98 -164 0
-98 164 0
100 -213 -130 0
-100 213 0
-100 130 0
101 -165 0
-101 165 0
103 -169 0
-103 169 0
104 -234 -130 0
-104 234 0
-104 130 0
106 -174 0
-106 174 0
107 -202 -108 0
-107 202 0
-107 108 0
109 -238 -130 0
-109 238 0
-109 130 0
110 -177 0
-110 177 0
112 -241 -102 0
-112 241 0
-112 102 0
113 -136 0
-113 136 0
115 -246 0
-115 246 0
116 -205 -122 0
-116 205 0
-116 122 0
117 -207 -87 0
-117 207 0
-117 87 0
118 -209 -119 0
-118 209 0
-118 119 0
120 -198 -84 0
-120 198 0
-120 84 0
121 -139 0
-121 139 0
123 -247 0
-123 247 0
124 -248 -161 0
-124 248 0
-124 161 0
125 -249 -189 0
-125 249 0
-125 189 0
126 -193 -186 0
-126 193 0
-126 186 0
128 -198 -99 0
-128 198 0
-128 99 0
129 -140 0
-129 140 0
131 -249 -177 0
-131 249 0
-131 177 0
132 -248 -165 0
-132 248 0
-132 165 0
133 -193 -169 0
-133 193 0
-133 169 0
134 -122 0
-134 122 0
135 -250 -114 0
-135 250 0
-135 114 0
137 -96 0
-137 96 0
138 -251 -77 0
-138 251 0
-138 77 0
252 -253 0
-252 253 0
141 -119 0
-141 119 0
142 -254 -114 0
-142 254 0
-142 114 0
144 -254 -228 0
-144 254 0
-144 228 0
145 -127 0
-145 127 0
147 -255 -232 0
-147 255 0
-147 232 0
148 -105 0
-148 105 0
150 -256 -232 0
-150 256 0
-150 232 0
151 -99 0
-151 99 0
152 -257 -143 0
-152 257 0
-152 143 0
154 -258 -146 0
-154 258 0
-154 146 0
155 -108 0
-155 108 0
156 -259 -232 0
-156 259 0
-156 232 0
158 -111 0
-158 111 0
159 -251 -232 0
-159 251 0
-159 232 0
260 -261 0
-260 261 0
162 -262 0
-162 262 0
163 -257 -139 0
-163 257 0
-163 139 0
263 -264 0
-263 264 0
166 -257 -140 0
-166 257 0
-166 140 0
167 -84 0
-167 84 0
168 -256 -77 0
-168 256 0
-168 77 0
170 -236 -136 0
-170 236 0
-170 136 0
171 -231 -77 0
-171 231 0
-171 77 0
172 -87 0
-172 87 0
173 -227 -114 0
-173 227 0
-173 114 0
175 -255 -77 0
-175 255 0
-175 77 0
176 -90 0
-176 90 0
178 -258 -174 0
-178 258 0
-178 174 0
179 -259 -77 0
-179 259 0
-179 77 0
180 -93 0
-180 93 0
182 -250 -228 0
-182 250 0
-182 228 0
183 -249 -153 0
-183 249 0
-183 153 0
184 -248 -149 0
-184 248 0
-184 149 0
185 -130 0
-185 130 0
187 -265 0
-187 265 0
188 -236 -164 0
-188 236 0
-188 164 0
190 -258 -160 0
-190 258 0
-190 160 0
191 -266 0
-191 266 0
-267 -1 2 0
267 1 0
267 -2 0
-268 1 -2 0
268 -1 0
268 2 0
-269 -3 4 0
269 3 0
269 -4 0
-270 3 -4 0
270 -3 0
270 4 0
-271 -5 6 0
271 5 0
271 -6 0
-272 5 -6 0
272 -5 0
272 6 0
-273 -7 8 0
273 7 0
273 -8 0
-274 7 -8 0
274 -7 0
274 8 0
-275 -9 10 0
275 9 0
275 -10 0
-276 9 -10 0
276 -9 0
276 10 0
-277 -11 12 0
277 11 0
277 -12 0
-278 11 -12 0
278 -11 0
278 12 0
-279 -13 14 0
279 13 0
279 -14 0
-280 13 -14 0
280 -13 0
280 14 0
-281 -15 16 0
281 15 0
281 -16 0
-282 15 -16 0
282 -15 0
282 16 0
-283 -17 18 0
283 17 0
283 -18 0
-284 17 -18 0
284 -17 0
284 18 0
-285 -19 20 0
285 19 0
285 -20 0
-286 19 -20 0
286 -19 0
286 20 0
-287 -21 22 0
287 21 0
287 -22 0
-288 21 -22 0
288 -21 0
288 22 0
-289 -23 24 0
289 23 0
289 -24 0
-290 23 -24 0
290 -23 0
290 24 0
-291 -25 26 0
291 25 0
291 -26 0
-292 25 -26 0
292 -25 0
292 26 0
-293 -27 28 0
293 27 0
293 -28 0
-294 27 -28 0
294 -27 0
294 28 0
-295 -29 30 0
295 29 0
295 -30 0
-296 29 -30 0
296 -29 0
296 30 0
-297 -31 32 0
297 31 0
297 -32 0
-298 31 -32 0
298 -31 0
298 32 0
-299 -33 34 0
299 33 0
299 -34 0
-300 33 -34 0
300 -33 0
300 34 0
-301 -35 36 0
301 35 0
301 -36 0
-302 35 -36 0
302 -35 0
302 36 0
-303 -37 38 0
303 37 0
303 -38 0
-304 37 -38 0
304 -37 0
304 38 0
-305 -39 40 0
305 39 0
305 -40 0
-306 39 -40 0
306 -39 0
306 40 0
-307 -41 42 0
307 41 0
307 -42 0
-308 41 -42 0
308 -41 0
308 42 0
-309 -43 44 0
309 43 0
309 -44 0
-310 43 -44 0
310 -43 0
310 44 0
-311 -45 46 0
311 45 0
311 -46 0
-312 45 -46 0
312 -45 0
312 46 0
-313 -47 48 0
313 47 0
313 -48 0
-314 47 -48 0
314 -47 0
314 48 0
-315 -49 50 0
315 49 0
315 -50 0
-316 49 -50 0
316 -49 0
316 50 0
-317 -51 52 0
317 51 0
317 -52 0
-318 51 -52 0
318 -51 0
318 52 0
-319 -53 54 0
319 53 0
319 -54 0
-320 53 -54 0
320 -53 0
320 54 0
-321 -55 56 0
321 55 0
321 -56 0
-322 55 -56 0
322 -55 0
322 56 0
-323 -57 58 0
323 57 0
323 -58 0
-324 57 -58 0
324 -57 0
324 58 0
-325 -59 60 0
325 59 0
325 -60 0
-326 59 -60 0
326 -59 0
326 60 0
-327 -61 62 0
327 61 0
327 -62 0
-328 61 -62 0
328 -61 0
328 62 0
-329 -63 64 0
329 63 0
329 -64 0
-330 63 -64 0
330 -63 0
330 64 0
-331 -65 66 0
331 65 0
331 -66 0
-332 65 -66 0
332 -65 0
332 66 0
-333 -67 68 0
333 67 0
333 -68 0
-334 67 -68 0
334 -67 0
334 68 0
-335 -69 70 0
335 69 0
335 -70 0
-336 69 -70 0
336 -69 0
336 70 0
-337 -71 72 0
337 71 0
337 -72 0
-338 71 -72 0
338 -71 0
338 72 0
-339 -73 74 0
339 73 0
339 -74 0
-340 73 -74 0
340 -73 0
340 74 0
-341 -75 76 0
341 75 0
341 -76 0
-342 75 -76 0
342 -75 0
342 76 0
-343 195 -181 0
343 -195 0
343 181 0
-344 -195 181 0
344 195 0
344 -181 0
-345 -214 192 195 0
345 214 0
345 -192 0
345 -195 0
-346 214 -192 0
346 -214 0
346 192 0
-347 214 -195 0
347 -214 0
347 195 0
-348 196 -143 0
348 -196 0
348 143 0
-349 -196 143 0
349 196 0
349 -143 0
-350 -351 196 197 0
350 351 0
350 -196 0
350 -197 0
-352 351 -196 0
352 -351 0
352 196 0
-353 351 -197 0
353 -351 0
353 197 0
-354 200 -146 0
354 -200 0
354 146 0
-355 -200 146 0
355 200 0
355 -146 0
-356 -357 200 201 0
356 357 0
356 -200 0
356 -201 0
-358 357 -200 0
358 -357 0
358 200 0
-359 357 -201 0
359 -357 0
359 201 0
-360 210 -114 0
360 -210 0
360 114 0
-361 -210 114 0
361 210 0
361 -114 0
-362 -228 204 206 208 210 0
362 228 0
362 -204 0
362 -206 0
362 -208 0
362 -210 0
-363 228 -204 0
363 -228 0
363 204 0
-364 228 -206 0
364 -228 0
364 206 0
-365 228 -208 0
365 -228 0
365 208 0
-366 228 -210 0
366 -228 0
366 210 0
-367 211 -149 0
367 -211 0
367 149 0
-368 -211 149 0
368 211 0
368 -149 0
-369 -199 211 212 0
369 199 0
369 -211 0
369 -212 0
-370 199 -211 0
370 -199 0
370 211 0
-371 199 -212 0
371 -199 0
371 212 0
-372 217 -77 0
372 -217 0
372 77 0
-373 -217 77 0
373 217 0
373 -77 0
-374 -232 215 217 218 220 222 224 0
374 232 0
374 -215 0
374 -217 0
374 -218 0
374 -220 0
374 -222 0
374 -224 0
-375 232 -215 0
375 -232 0
375 215 0
-376 232 -217 0
376 -232 0
376 217 0
-377 232 -218 0
377 -232 0
377 218 0
-378 232 -220 0
378 -232 0
378 220 0
-379 232 -222 0
379 -232 0
379 222 0
-380 232 -224 0
380 -232 0
380 224 0
-381 229 -102 0
381 -229 0
381 102 0
-382 -229 102 0
382 229 0
382 -102 0
-383 -194 226 229 230 233 235 0
383 194 0
383 -226 0
383 -229 0
383 -230 0
383 -233 0
383 -235 0
-384 194 -226 0
384 -194 0
384 226 0
-385 194 -229 0
385 -194 0
385 229 0
-386 194 -230 0
386 -194 0
386 230 0
-387 194 -233 0
387 -194 0
387 233 0
-388 194 -235 0
388 -194 0
388 235 0
-389 239 -153 0
389 -239 0
389 153 0
-390 -239 153 0
390 239 0
390 -153 0
-391 -203 237 239 0
391 203 0
391 -237 0
391 -239 0
-392 203 -237 0
392 -203 0
392 237 0
-393 203 -239 0
393 -203 0
393 239 0
-394 242 -157 0
394 -242 0
394 157 0
-395 -242 157 0
395 242 0
395 -157 0
-396 -397 240 242 0
396 397 0
396 -240 0
396 -242 0
-398 397 -240 0
398 -397 0
398 240 0
-399 397 -242 0
399 -397 0
399 242 0
-400 243 -244 0
400 -243 0
400 244 0
-401 -243 244 0
401 243 0
401 -244 0
-402 -403 243 0
402 403 0
402 -243 0
-404 403 -243 0
404 -403 0
404 243 0
-405 81 -245 0
405 -81 0
405 245 0
-406 -81 245 0
406 81 0
406 -245 0
-407 86 -161 0
407 -86 0
407 161 0
-408 -86 161 0
408 86 0
408 -161 0
-409 89 -186 0
409 -89 0
409 186 0
-410 -89 186 0
410 89 0
410 -186 0
-411 91 -160 0
411 -91 0
411 160 0
-412 -91 160 0
412 91 0
412 -160 0
-413 94 -189 0
413 -94 0
413 189 0
-414 -94 189 0
414 94 0
414 -189 0
-415 98 -164 0
415 -98 0
415 164 0
-416 -98 164 0
416 98 0
416 -164 0
-417 101 -165 0
417 -101 0
417 165 0
-418 -101 165 0
418 101 0
418 -165 0
-419 103 -169 0
419 -103 0
419 169 0
-420 -103 169 0
420 103 0
420 -169 0
-421 106 -174 0
421 -106 0
421 174 0
-422 -106 174 0
422 106 0
422 -174 0
-423 110 -177 0
423 -110 0
423 177 0
-424 -110 177 0
424 110 0
424 -177 0
-425 113 -136 0
425 -113 0
425 136 0
-426 -113 136 0
426 113 0
426 -136 0
-427 115 -246 0
427 -115 0
427 246 0
-428 -115 246 0
428 115 0
428 -246 0
-429 121 -139 0
429 -121 0
429 139 0
-430 -121 139 0
430 121 0
430 -139 0
-431 123 -247 0
431 -123 0
431 247 0
-432 -123 247 0
432 123 0
432 -247 0
-433 129 -140 0
433 -129 0
433 140 0
-434 -129 140 0
434 129 0
434 -140 0
-435 134 -122 0
435 -134 0
435 122 0
-436 -134 122 0
436 134 0
436 -122 0
-437 137 -96 0
437 -137 0
437 96 0
-438 -137 96 0
438 137 0
438 -96 0
-439 252 -253 0
439 -252 0
439 253 0
-440 -252 253 0
440 252 0
440 -253 0
-441 -139 252 0
441 139 0
441 -252 0
-442 139 -252 0
442 -139 0
442 252 0
-443 141 -119 0
443 -141 0
443 119 0
-444 -141 119 0
444 141 0
444 -119 0
-445 145 -127 0
445 -145 0
445 127 0
-446 -145 127 0
446 145 0
446 -127 0
-447 148 -105 0
447 -148 0
447 105 0
-448 -148 105 0
448 148 0
448 -105 0
-449 151 -99 0
449 -151 0
449 99 0
-450 -151 99 0
450 151 0
450 -99 0
-451 155 -108 0
451 -155 0
451 108 0
-452 -155 108 0
452 155 0
452 -108 0
-453 158 -111 0
453 -158 0
453 111 0
-454 -158 111 0
454 158 0
454 -111 0
-455 260 -261 0
455 -260 0
455 261 0
-456 -260 261 0
456 260 0
456 -261 0
-457 -160 260 0
457 160 0
457 -260 0
-458 160 -260 0
458 -160 0
458 260 0
-459 162 -262 0
459 -162 0
459 262 0
-460 -162 262 0
460 162 0
460 -262 0
-461 263 -264 0
461 -263 0
461 264 0
-462 -263 264 0
462 263 0
462 -264 0
-463 -164 263 0
463 164 0
463 -263 0
-464 164 -263 0
464 -164 0
464 263 0
-465 167 -84 0
465 -167 0
465 84 0
-466 -167 84 0
466 167 0
466 -84 0
-467 172 -87 0
467 -172 0
467 87 0
-468 -172 87 0
468 172 0
468 -87 0
-469 176 -90 0
469 -176 0
469 90 0
-470 -176 90 0
470 176 0
470 -90 0
-471 180 -93 0
471 -180 0
471 93 0
-472 -180 93 0
472 180 0
472 -93 0
-473 185 -130 0
473 -185 0
473 130 0
-474 -185 130 0
474 185 0
474 -130 0
-475 187 -265 0
475 -187 0
475 265 0
-476 -187 265 0
476 187 0
476 -265 0
-477 191 -266 0
477 -191 0
477 266 0
-478 -191 266 0
478 191 0
478 -266 0
267 0
268 0
269 0
270 0
271 0
272 0
273 0
274 0
275 0
276 0
277 0
278 0
279 0
280 0
281 0
282 0
283 0
284 0
285 0
286 0
287 0
288 0
289 0
290 0
291 0
292 0
293 0
294 0
295 0
296 0
297 0
298 0
299 0
300 0
301 0
302 0
303 0
304 0
305 0
306 0
307 0
308 0
309 0
310 0
311 0
312 0
313 0
314 0
315 0
316 0
317 0
318 0
319 0
320 0
321 0
322 0
323 0
324 0
325 0
326 0
327 0
328 0
329 0
330 0
331 0
332 0
333 0
334 0
335 0
336 0
337 0
338 0
339 0
340 0
341 0
342 0
343 0
344 0
345 0
346 0
347 0
348 0
349 0
350 0
352 0
353 0
354 0
355 0
356 0
358 0
359 0
360 0
361 0
362 0
363 0
364 0
365 0
366 0
367 0
368 0
369 0
370 0
371 0
372 0
373 0
374 0
375 0
376 0
377 0
378 0
379 0
380 0
381 0
382 0
383 0
384 0
385 0
386 0
387 0
388 0
389 0
390 0
391 0
392 0
393 0
394 0
395 0
396 0
398 0
399 0
400 0
401 0
402 0
404 0
405 0
406 0
407 0
408 0
409 0
410 0
411 0
412 0
413 0
414 0
415 0
416 0
417 0
418 0
419 0
420 0
421 0
422 0
423 0
424 0
425 0
426 0
427 0
428 0
429 0
430 0
431 0
432 0
433 0
434 0
435 0
436 0
437 0
438 0
439 0
440 0
441 0
442 0
443 0
444 0
445 0
446 0
447 0
448 0
449 0
450 0
451 0
452 0
453 0
454 0
455 0
456 0
457 0
458 0
459 0
460 0
461 0
462 0
463 0
464 0
465 0
466 0
467 0
468 0
469 0
470 0
471 0
472 0
473 0
474 0
475 0
476 0
477 0
478 0
2 0
4 0
6 0
8 0
10 0
12 0
14 0
16 0
18 0
20 0
22 0
24 0
26 0
28 0
30 0
32 0
34 0
36 0
38 0
40 0
42 0
44 0
46 0
48 0
50 0
52 0
54 0
56 0
58 0
60 0
62 0
64 0
66 0
68 0
70 0
72 0
74 0
76 0
