c BC-S1.2
p cnf 84 239
-1 2 3 4 5 0
1 -2 0
1 -3 0
1 -4 0
1 -5 0
-6 7 8 9 0
6 -7 0
6 -8 0
6 -9 0
-10 11 12 0
10 -11 0
10 -12 0
-13 14 15 0
13 -14 0
13 -15 0
-16 17 18 0
16 -17 0
16 -18 0
-19 20 21 0
19 -20 0
19 -21 0
-22 23 24 0
22 -23 0
22 -24 0
-25 26 27 0
25 -26 0
25 -27 0
-28 29 30 0
28 -29 0
28 -30 0
2 -31 32 -13 0
-2 31 0
-2 -32 0
-2 13 0
3 -33 34 -35 0
-3 33 0
-3 -34 0
-3 35 0
4 -36 37 -6 0
-4 36 0
-4 -37 0
-4 6 0
5 -38 0
-5 38 0
39 -32 -13 0
-39 32 0
-39 13 0
40 -41 -1 0
-40 41 0
-40 1 0
42 -34 -35 0
-42 34 0
-42 35 0
43 -37 -6 0
-43 37 0
-43 6 0
7 -44 16 -13 0
-7 44 0
-7 -16 0
-7 13 0
8 -45 22 -35 0
-8 45 0
-8 -22 0
-8 35 0
9 -46 0
-9 46 0
11 -36 0
-11 36 0
12 -37 0
-12 37 0
14 -47 25 -35 0
-14 47 0
-14 -25 0
-14 35 0
15 -48 0
-15 48 0
17 -32 0
-17 32 0
18 -31 0
-18 31 0
20 -44 0
-20 44 0
21 -16 0
-21 16 0
23 -34 0
-23 34 0
24 -33 0
-24 33 0
26 -45 0
-26 45 0
27 -22 0
-27 22 0
29 -47 0
-29 47 0
30 -25 0
-30 25 0
-49 5 -38 0
49 -5 0
49 38 0
-50 -5 38 0
50 5 0
50 -38 0
-51 -52 39 40 42 43 0
51 52 0
51 -39 0
51 -40 0
51 -42 0
51 -43 0
-53 52 -39 0
53 -52 0
53 39 0
-54 52 -40 0
54 -52 0
54 40 0
-55 52 -42 0
55 -52 0
55 42 0
-56 52 -43 0
56 -52 0
56 43 0
-57 9 -46 0
57 -9 0
57 46 0
-58 -9 46 0
58 9 0
58 -46 0
-59 11 -36 0
59 -11 0
59 36 0
-60 -11 36 0
60 11 0
60 -36 0
-61 12 -37 0
61 -12 0
61 37 0
-62 -12 37 0
62 12 0
62 -37 0
-63 15 -48 0
63 -15 0
63 48 0
-64 -15 48 0
64 15 0
64 -48 0
-65 17 -32 0
65 -17 0
65 32 0
-66 -17 32 0
66 17 0
66 -32 0
-67 18 -31 0
67 -18 0
67 31 0
-68 -18 31 0
68 18 0
68 -31 0
-69 20 -44 0
69 -20 0
69 44 0
-70 -20 44 0
70 20 0
70 -44 0
-71 21 -16 0
71 -21 0
71 16 0
-72 -21 16 0
72 21 0
72 -16 0
-73 23 -34 0
73 -23 0
73 34 0
-74 -23 34 0
74 23 0
74 -34 0
-75 24 -33 0
75 -24 0
75 33 0
-76 -24 33 0
76 24 0
76 -33 0
-77 26 -45 0
77 -26 0
77 45 0
-78 -26 45 0
78 26 0
78 -45 0
-79 27 -22 0
79 -27 0
79 22 0
-80 -27 22 0
80 27 0
80 -22 0
-81 29 -47 0
81 -29 0
81 47 0
-82 -29 47 0
82 29 0
82 -47 0
-83 30 -25 0
83 -30 0
83 25 0
-84 -30 25 0
84 30 0
84 -25 0
49 0
50 0
51 0
53 0
54 0
55 0
56 0
57 0
58 0
59 0
60 0
61 0
62 0
63 0
64 0
65 0
66 0
67 0
68 0
69 0
70 0
71 0
72 0
73 0
74 0
75 0
76 0
77 0
78 0
79 0
80 0
81 0
82 0
83 0
84 0
