c BC-S1.2
p cnf 581 1751
-1 2 3 4 5 6 7 8 9 10 11 12 0
1 -2 0
1 -3 0
1 -4 0
1 -5 0
1 -6 0
1 -7 0
1 -8 0
1 -9 0
1 -10 0
1 -11 0
1 -12 0
-13 14 15 16 17 18 19 20 21 22 23 0
13 -14 0
13 -15 0
13 -16 0
13 -17 0
13 -18 0
13 -19 0
13 -20 0
13 -21 0
13 -22 0
13 -23 0
-24 25 26 0
24 -25 0
24 -26 0
-27 28 29 30 31 32 33 34 35 36 0
27 -28 0
27 -29 0
27 -30 0
27 -31 0
27 -32 0
27 -33 0
27 -34 0
27 -35 0
27 -36 0
-37 38 39 0
37 -38 0
37 -39 0
-40 41 42 0
40 -41 0
40 -42 0
-43 44 45 46 47 48 49 50 51 0
43 -44 0
43 -45 0
43 -46 0
43 -47 0
43 -48 0
43 -49 0
43 -50 0
43 -51 0
-52 53 54 0
52 -53 0
52 -54 0
-55 56 57 0
55 -56 0
55 -57 0
-58 59 60 0
58 -59 0
58 -60 0
-61 62 63 64 65 66 67 68 0
61 -62 0
61 -63 0
61 -64 0
61 -65 0
61 -66 0
61 -67 0
61 -68 0
-69 70 71 0
69 -70 0
69 -71 0
-72 73 74 0
72 -73 0
72 -74 0
-75 76 77 0
75 -76 0
75 -77 0
-78 79 80 0
78 -79 0
78 -80 0
-81 82 83 84 85 86 87 0
81 -82 0
81 -83 0
81 -84 0
81 -85 0
81 -86 0
81 -87 0
-88 89 90 0
88 -89 0
88 -90 0
-91 92 93 0
91 -92 0
91 -93 0
-94 95 96 0
94 -95 0
94 -96 0
-97 98 99 0
97 -98 0
97 -99 0
-100 101 102 0
100 -101 0
100 -102 0
-103 104 105 106 107 108 0
103 -104 0
103 -105 0
103 -106 0
103 -107 0
103 -108 0
-109 110 111 0
109 -110 0
109 -111 0
-112 113 114 0
112 -113 0
112 -114 0
-115 116 117 0
115 -116 0
115 -117 0
-118 119 120 0
118 -119 0
118 -120 0
-121 122 123 0
121 -122 0
121 -123 0
-124 125 126 0
124 -125 0
124 -126 0
-127 128 129 130 131 0
127 -128 0
127 -129 0
127 -130 0
127 -131 0
-132 133 134 0
132 -133 0
132 -134 0
-135 136 137 0
135 -136 0
135 -137 0
-138 139 140 0
138 -139 0
138 -140 0
-141 142 143 0
141 -142 0
141 -143 0
-144 145 146 0
144 -145 0
144 -146 0
-147 148 149 0
147 -148 0
147 -149 0
-150 151 152 0
150 -151 0
150 -152 0
-153 154 155 156 0
153 -154 0
153 -155 0
153 -156 0
-157 158 159 0
157 -158 0
157 -159 0
-160 161 162 0
160 -161 0
160 -162 0
-163 164 165 0
163 -164 0
163 -165 0
-166 167 168 0
166 -167 0
166 -168 0
-169 170 171 0
169 -170 0
169 -171 0
-172 173 174 0
172 -173 0
172 -174 0
-175 176 177 0
175 -176 0
175 -177 0
-178 179 180 0
178 -179 0
178 -180 0
-181 182 183 0
181 -182 0
181 -183 0
-184 185 186 0
184 -185 0
184 -186 0
-187 188 189 0
187 -188 0
187 -189 0
-190 191 192 0
190 -191 0
190 -192 0
-193 194 195 0
193 -194 0
193 -195 0
-196 197 198 0
196 -197 0
196 -198 0
-199 200 201 0
199 -200 0
199 -201 0
-202 203 204 0
202 -203 0
202 -204 0
-205 206 207 0
205 -206 0
205 -207 0
-208 209 210 0
208 -209 0
208 -210 0
-211 212 213 0
211 -212 0
211 -213 0
-214 215 216 0
214 -215 0
214 -216 0
-217 218 219 0
217 -218 0
217 -219 0
-220 221 222 0
220 -221 0
220 -222 0
-223 224 225 0
223 -224 0
223 -225 0
-226 227 228 0
226 -227 0
226 -228 0
-229 230 231 0
229 -230 0
229 -231 0
-232 233 234 0
232 -233 0
232 -234 0
-235 236 237 0
235 -236 0
235 -237 0
-238 239 240 0
238 -239 0
238 -240 0
2 -241 242 -27 0
-2 241 0
-2 -242 0
-2 27 0
3 -243 244 -127 0
-3 243 0
-3 -244 0
-3 127 0
4 -245 246 -81 0
-4 245 0
-4 -246 0
-4 81 0
5 -247 248 -103 0
-5 247 0
-5 -248 0
-5 103 0
6 -249 0
-6 249 0
7 -250 251 -181 0
-7 250 0
-7 -251 0
-7 181 0
8 -252 253 -43 0
-8 252 0
-8 -253 0
-8 43 0
9 -254 255 -256 0
-9 254 0
-9 -255 0
-9 256 0
10 -257 258 -13 0
-10 257 0
-10 -258 0
-10 13 0
11 -259 260 -61 0
-11 259 0
-11 -260 0
-11 61 0
12 -261 262 -153 0
-12 261 0
-12 -262 0
-12 153 0
263 -253 -43 0
-263 253 0
-263 43 0
264 -246 -81 0
-264 246 0
-264 81 0
265 -262 -153 0
-265 262 0
-265 153 0
266 -267 -1 0
-266 267 0
-266 1 0
268 -255 -256 0
-268 255 0
-268 256 0
269 -258 -13 0
-269 258 0
-269 13 0
270 -248 -103 0
-270 248 0
-270 103 0
271 -251 -181 0
-271 251 0
-271 181 0
272 -260 -61 0
-272 260 0
-272 61 0
273 -242 -27 0
-273 242 0
-273 27 0
274 -244 -127 0
-274 244 0
-274 127 0
14 -275 184 -181 0
-14 275 0
-14 -184 0
-14 181 0
15 -276 37 -27 0
-15 276 0
-15 -37 0
-15 27 0
16 -277 0
-16 277 0
17 -278 88 -81 0
-17 278 0
-17 -88 0
-17 81 0
18 -279 157 -153 0
-18 279 0
-18 -157 0
-18 153 0
19 -280 52 -43 0
-19 280 0
-19 -52 0
-19 43 0
20 -281 69 -61 0
-20 281 0
-20 -69 0
-20 61 0
21 -282 132 -127 0
-21 282 0
-21 -132 0
-21 127 0
22 -283 109 -103 0
-22 283 0
-22 -109 0
-22 103 0
23 -284 211 -256 0
-23 284 0
-23 -211 0
-23 256 0
25 -257 0
-25 257 0
26 -258 0
-26 258 0
28 -285 135 -127 0
-28 285 0
-28 -135 0
-28 127 0
29 -286 160 -153 0
-29 286 0
-29 -160 0
-29 153 0
30 -287 214 -256 0
-30 287 0
-30 -214 0
-30 256 0
31 -288 72 -61 0
-31 288 0
-31 -72 0
-31 61 0
32 -289 112 -103 0
-32 289 0
-32 -112 0
-32 103 0
33 -290 187 -181 0
-33 290 0
-33 -187 0
-33 181 0
34 -291 0
-34 291 0
35 -292 91 -81 0
-35 292 0
-35 -91 0
-35 81 0
36 -293 55 -43 0
-36 293 0
-36 -55 0
-36 43 0
38 -242 0
-38 242 0
39 -241 0
-39 241 0
41 -276 0
-41 276 0
42 -37 0
-42 37 0
44 -294 115 -103 0
-44 294 0
-44 -115 0
-44 103 0
45 -295 163 -153 0
-45 295 0
-45 -163 0
-45 153 0
46 -296 0
-46 296 0
47 -297 217 -256 0
-47 297 0
-47 -217 0
-47 256 0
48 -298 75 -61 0
-48 298 0
-48 -75 0
-48 61 0
49 -299 190 -181 0
-49 299 0
-49 -190 0
-49 181 0
50 -300 94 -81 0
-50 300 0
-50 -94 0
-50 81 0
51 -301 138 -127 0
-51 301 0
-51 -138 0
-51 127 0
53 -253 0
-53 253 0
54 -252 0
-54 252 0
56 -280 0
-56 280 0
57 -52 0
-57 52 0
59 -55 0
-59 55 0
60 -293 0
-60 293 0
62 -302 193 -181 0
-62 302 0
-62 -193 0
-62 181 0
63 -303 220 -256 0
-63 303 0
-63 -220 0
-63 256 0
64 -304 118 -103 0
-64 304 0
-64 -118 0
-64 103 0
65 -305 97 -81 0
-65 305 0
-65 -97 0
-65 81 0
66 -306 166 -153 0
-66 306 0
-66 -166 0
-66 153 0
67 -307 141 -127 0
-67 307 0
-67 -141 0
-67 127 0
68 -308 0
-68 308 0
70 -260 0
-70 260 0
71 -259 0
-71 259 0
73 -281 0
-73 281 0
74 -69 0
-74 69 0
76 -72 0
-76 72 0
77 -288 0
-77 288 0
79 -298 0
-79 298 0
80 -75 0
-80 75 0
82 -309 223 -256 0
-82 309 0
-82 -223 0
-82 256 0
83 -310 196 -181 0
-83 310 0
-83 -196 0
-83 181 0
84 -311 169 -153 0
-84 311 0
-84 -169 0
-84 153 0
85 -312 0
-85 312 0
86 -313 121 -103 0
-86 313 0
-86 -121 0
-86 103 0
87 -314 144 -127 0
-87 314 0
-87 -144 0
-87 127 0
89 -246 0
-89 246 0
90 -245 0
-90 245 0
92 -88 0
-92 88 0
93 -278 0
-93 278 0
95 -292 0
-95 292 0
96 -91 0
-96 91 0
98 -300 0
-98 300 0
99 -94 0
-99 94 0
101 -97 0
-101 97 0
102 -305 0
-102 305 0
104 -315 0
-104 315 0
105 -316 172 -153 0
-105 316 0
-105 -172 0
-105 153 0
106 -317 147 -127 0
-106 317 0
-106 -147 0
-106 127 0
107 -318 199 -181 0
-107 318 0
-107 -199 0
-107 181 0
108 -319 226 -256 0
-108 319 0
-108 -226 0
-108 256 0
110 -247 0
-110 247 0
111 -248 0
-111 248 0
113 -109 0
-113 109 0
114 -283 0
-114 283 0
116 -112 0
-116 112 0
117 -289 0
-117 289 0
119 -294 0
-119 294 0
120 -115 0
-120 115 0
122 -304 0
-122 304 0
123 -118 0
-123 118 0
125 -121 0
-125 121 0
126 -313 0
-126 313 0
128 -320 229 -256 0
-128 320 0
-128 -229 0
-128 256 0
129 -321 175 -153 0
-129 321 0
-129 -175 0
-129 153 0
130 -322 202 -181 0
-130 322 0
-130 -202 0
-130 181 0
131 -323 0
-131 323 0
133 -244 0
-133 244 0
134 -243 0
-134 243 0
136 -132 0
-136 132 0
137 -282 0
-137 282 0
139 -135 0
-139 135 0
140 -285 0
-140 285 0
142 -138 0
-142 138 0
143 -301 0
-143 301 0
145 -307 0
-145 307 0
146 -141 0
-146 141 0
148 -144 0
-148 144 0
149 -314 0
-149 314 0
151 -317 0
-151 317 0
152 -147 0
-152 147 0
154 -324 0
-154 324 0
155 -325 232 -256 0
-155 325 0
-155 -232 0
-155 256 0
156 -326 205 -181 0
-156 326 0
-156 -205 0
-156 181 0
158 -262 0
-158 262 0
159 -261 0
-159 261 0
161 -157 0
-161 157 0
162 -279 0
-162 279 0
164 -286 0
-164 286 0
165 -160 0
-165 160 0
167 -163 0
-167 163 0
168 -295 0
-168 295 0
170 -306 0
-170 306 0
171 -166 0
-171 166 0
173 -169 0
-173 169 0
174 -311 0
-174 311 0
176 -316 0
-176 316 0
177 -172 0
-177 172 0
179 -321 0
-179 321 0
180 -175 0
-180 175 0
182 -327 235 -256 0
-182 327 0
-182 -235 0
-182 256 0
183 -328 0
-183 328 0
185 -250 0
-185 250 0
186 -251 0
-186 251 0
188 -275 0
-188 275 0
189 -184 0
-189 184 0
191 -187 0
-191 187 0
192 -290 0
-192 290 0
194 -299 0
-194 299 0
195 -190 0
-195 190 0
197 -193 0
-197 193 0
198 -302 0
-198 302 0
200 -196 0
-200 196 0
201 -310 0
-201 310 0
203 -318 0
-203 318 0
204 -199 0
-204 199 0
206 -322 0
-206 322 0
207 -202 0
-207 202 0
209 -205 0
-209 205 0
210 -326 0
-210 326 0
212 -254 0
-212 254 0
213 -255 0
-213 255 0
215 -284 0
-215 284 0
216 -211 0
-216 211 0
218 -214 0
-218 214 0
219 -287 0
-219 287 0
221 -297 0
-221 297 0
222 -217 0
-222 217 0
224 -303 0
-224 303 0
225 -220 0
-225 220 0
227 -309 0
-227 309 0
228 -223 0
-228 223 0
230 -319 0
-230 319 0
231 -226 0
-231 226 0
233 -320 0
-233 320 0
234 -229 0
-234 229 0
236 -325 0
-236 325 0
237 -232 0
-237 232 0
239 -235 0
-239 235 0
240 -327 0
-240 327 0
-329 6 -249 0
329 -6 0
329 249 0
-330 -6 249 0
330 6 0
330 -249 0
-331 -332 263 264 265 266 268 269 270 271 272 273 274 0
331 332 0
331 -263 0
331 -264 0
331 -265 0
331 -266 0
331 -268 0
331 -269 0
331 -270 0
331 -271 0
331 -272 0
331 -273 0
331 -274 0
-333 332 -263 0
333 -332 0
333 263 0
-334 332 -264 0
334 -332 0
334 264 0
-335 332 -265 0
335 -332 0
335 265 0
-336 332 -266 0
336 -332 0
336 266 0
-337 332 -268 0
337 -332 0
337 268 0
-338 332 -269 0
338 -332 0
338 269 0
-339 332 -270 0
339 -332 0
339 270 0
-340 332 -271 0
340 -332 0
340 271 0
-341 332 -272 0
341 -332 0
341 272 0
-342 332 -273 0
342 -332 0
342 273 0
-343 332 -274 0
343 -332 0
343 274 0
-344 16 -277 0
344 -16 0
344 277 0
-345 -16 277 0
345 16 0
345 -277 0
-346 25 -257 0
346 -25 0
346 257 0
-347 -25 257 0
347 25 0
347 -257 0
-348 26 -258 0
348 -26 0
348 258 0
-349 -26 258 0
349 26 0
349 -258 0
-350 34 -291 0
350 -34 0
350 291 0
-351 -34 291 0
351 34 0
351 -291 0
-352 38 -242 0
352 -38 0
352 242 0
-353 -38 242 0
353 38 0
353 -242 0
-354 39 -241 0
354 -39 0
354 241 0
-355 -39 241 0
355 39 0
355 -241 0
-356 41 -276 0
356 -41 0
356 276 0
-357 -41 276 0
357 41 0
357 -276 0
-358 42 -37 0
358 -42 0
358 37 0
-359 -42 37 0
359 42 0
359 -37 0
-360 46 -296 0
360 -46 0
360 296 0
-361 -46 296 0
361 46 0
361 -296 0
-362 53 -253 0
362 -53 0
362 253 0
-363 -53 253 0
363 53 0
363 -253 0
-364 54 -252 0
364 -54 0
364 252 0
-365 -54 252 0
365 54 0
365 -252 0
-366 56 -280 0
366 -56 0
366 280 0
-367 -56 280 0
367 56 0
367 -280 0
-368 57 -52 0
368 -57 0
368 52 0
-369 -57 52 0
369 57 0
369 -52 0
-370 59 -55 0
370 -59 0
370 55 0
-371 -59 55 0
371 59 0
371 -55 0
-372 60 -293 0
372 -60 0
372 293 0
-373 -60 293 0
373 60 0
373 -293 0
-374 68 -308 0
374 -68 0
374 308 0
-375 -68 308 0
375 68 0
375 -308 0
-376 70 -260 0
376 -70 0
376 260 0
-377 -70 260 0
377 70 0
377 -260 0
-378 71 -259 0
378 -71 0
378 259 0
-379 -71 259 0
379 71 0
379 -259 0
-380 73 -281 0
380 -73 0
380 281 0
-381 -73 281 0
381 73 0
381 -281 0
-382 74 -69 0
382 -74 0
382 69 0
-383 -74 69 0
383 74 0
383 -69 0
-384 76 -72 0
384 -76 0
384 72 0
-385 -76 72 0
385 76 0
385 -72 0
-386 77 -288 0
386 -77 0
386 288 0
-387 -77 288 0
387 77 0
387 -288 0
-388 79 -298 0
388 -79 0
388 298 0
-389 -79 298 0
389 79 0
389 -298 0
-390 80 -75 0
390 -80 0
390 75 0
-391 -80 75 0
391 80 0
391 -75 0
-392 85 -312 0
392 -85 0
392 312 0
-393 -85 312 0
393 85 0
393 -312 0
-394 89 -246 0
394 -89 0
394 246 0
-395 -89 246 0
395 89 0
395 -246 0
-396 90 -245 0
396 -90 0
396 245 0
-397 -90 245 0
397 90 0
397 -245 0
-398 92 -88 0
398 -92 0
398 88 0
-399 -92 88 0
399 92 0
399 -88 0
-400 93 -278 0
400 -93 0
400 278 0
-401 -93 278 0
401 93 0
401 -278 0
-402 95 -292 0
402 -95 0
402 292 0
-403 -95 292 0
403 95 0
403 -292 0
-404 96 -91 0
404 -96 0
404 91 0
-405 -96 91 0
405 96 0
405 -91 0
-406 98 -300 0
406 -98 0
406 300 0
-407 -98 300 0
407 98 0
407 -300 0
-408 99 -94 0
408 -99 0
408 94 0
-409 -99 94 0
409 99 0
409 -94 0
-410 101 -97 0
410 -101 0
410 97 0
-411 -101 97 0
411 101 0
411 -97 0
-412 102 -305 0
412 -102 0
412 305 0
-413 -102 305 0
413 102 0
413 -305 0
-414 104 -315 0
414 -104 0
414 315 0
-415 -104 315 0
415 104 0
415 -315 0
-416 110 -247 0
416 -110 0
416 247 0
-417 -110 247 0
417 110 0
417 -247 0
-418 111 -248 0
418 -111 0
418 248 0
-419 -111 248 0
419 111 0
419 -248 0
-420 113 -109 0
420 -113 0
420 109 0
-421 -113 109 0
421 113 0
421 -109 0
-422 114 -283 0
422 -114 0
422 283 0
-423 -114 283 0
423 114 0
423 -283 0
-424 116 -112 0
424 -116 0
424 112 0
-425 -116 112 0
425 116 0
425 -112 0
-426 117 -289 0
426 -117 0
426 289 0
-427 -117 289 0
427 117 0
427 -289 0
-428 119 -294 0
428 -119 0
428 294 0
-429 -119 294 0
429 119 0
429 -294 0
-430 120 -115 0
430 -120 0
430 115 0
-431 -120 115 0
431 120 0
431 -115 0
-432 122 -304 0
432 -122 0
432 304 0
-433 -122 304 0
433 122 0
433 -304 0
-434 123 -118 0
434 -123 0
434 118 0
-435 -123 118 0
435 123 0
435 -118 0
-436 125 -121 0
436 -125 0
436 121 0
-437 -125 121 0
437 125 0
437 -121 0
-438 126 -313 0
438 -126 0
438 313 0
-439 -126 313 0
439 126 0
439 -313 0
-440 131 -323 0
440 -131 0
440 323 0
-441 -131 323 0
441 131 0
441 -323 0
-442 133 -244 0
442 -133 0
442 244 0
-443 -133 244 0
443 133 0
443 -244 0
-444 134 -243 0
444 -134 0
444 243 0
-445 -134 243 0
445 134 0
445 -243 0
-446 136 -132 0
446 -136 0
446 132 0
-447 -136 132 0
447 136 0
447 -132 0
-448 137 -282 0
448 -137 0
448 282 0
-449 -137 282 0
449 137 0
449 -282 0
-450 139 -135 0
450 -139 0
450 135 0
-451 -139 135 0
451 139 0
451 -135 0
-452 140 -285 0
452 -140 0
452 285 0
-453 -140 285 0
453 140 0
453 -285 0
-454 142 -138 0
454 -142 0
454 138 0
-455 -142 138 0
455 142 0
455 -138 0
-456 143 -301 0
456 -143 0
456 301 0
-457 -143 301 0
457 143 0
457 -301 0
-458 145 -307 0
458 -145 0
458 307 0
-459 -145 307 0
459 145 0
459 -307 0
-460 146 -141 0
460 -146 0
460 141 0
-461 -146 141 0
461 146 0
461 -141 0
-462 148 -144 0
462 -148 0
462 144 0
-463 -148 144 0
463 148 0
463 -144 0
-464 149 -314 0
464 -149 0
464 314 0
-465 -149 314 0
465 149 0
465 -314 0
-466 151 -317 0
466 -151 0
466 317 0
-467 -151 317 0
467 151 0
467 -317 0
-468 152 -147 0
468 -152 0
468 147 0
-469 -152 147 0
469 152 0
469 -147 0
-470 154 -324 0
470 -154 0
470 324 0
-471 -154 324 0
471 154 0
471 -324 0
-472 158 -262 0
472 -158 0
472 262 0
-473 -158 262 0
473 158 0
473 -262 0
-474 159 -261 0
474 -159 0
474 261 0
-475 -159 261 0
475 159 0
475 -261 0
-476 161 -157 0
476 -161 0
476 157 0
-477 -161 157 0
477 161 0
477 -157 0
-478 162 -279 0
478 -162 0
478 279 0
-479 -162 279 0
479 162 0
479 -279 0
-480 164 -286 0
480 -164 0
480 286 0
-481 -164 286 0
481 164 0
481 -286 0
-482 165 -160 0
482 -165 0
482 160 0
-483 -165 160 0
483 165 0
483 -160 0
-484 167 -163 0
484 -167 0
484 163 0
-485 -167 163 0
485 167 0
485 -163 0
-486 168 -295 0
486 -168 0
486 295 0
-487 -168 295 0
487 168 0
487 -295 0
-488 170 -306 0
488 -170 0
488 306 0
-489 -170 306 0
489 170 0
489 -306 0
-490 171 -166 0
490 -171 0
490 166 0
-491 -171 166 0
491 171 0
491 -166 0
-492 173 -169 0
492 -173 0
492 169 0
-493 -173 169 0
493 173 0
493 -169 0
-494 174 -311 0
494 -174 0
494 311 0
-495 -174 311 0
495 174 0
495 -311 0
-496 176 -316 0
496 -176 0
496 316 0
-497 -176 316 0
497 176 0
497 -316 0
-498 177 -172 0
498 -177 0
498 172 0
-499 -177 172 0
499 177 0
499 -172 0
-500 179 -321 0
500 -179 0
500 321 0
-501 -179 321 0
501 179 0
501 -321 0
-502 180 -175 0
502 -180 0
502 175 0
-503 -180 175 0
503 180 0
503 -175 0
-504 183 -328 0
504 -183 0
504 328 0
-505 -183 328 0
505 183 0
505 -328 0
-506 185 -250 0
506 -185 0
506 250 0
-507 -185 250 0
507 185 0
507 -250 0
-508 186 -251 0
508 -186 0
508 251 0
-509 -186 251 0
509 186 0
509 -251 0
-510 188 -275 0
510 -188 0
510 275 0
-511 -188 275 0
511 188 0
511 -275 0
-512 189 -184 0
512 -189 0
512 184 0
-513 -189 184 0
513 189 0
513 -184 0
-514 191 -187 0
514 -191 0
514 187 0
-515 -191 187 0
515 191 0
515 -187 0
-516 192 -290 0
516 -192 0
516 290 0
-517 -192 290 0
517 192 0
517 -290 0
-518 194 -299 0
518 -194 0
518 299 0
-519 -194 299 0
519 194 0
519 -299 0
-520 195 -190 0
520 -195 0
520 190 0
-521 -195 190 0
521 195 0
521 -190 0
-522 197 -193 0
522 -197 0
522 193 0
-523 -197 193 0
523 197 0
523 -193 0
-524 198 -302 0
524 -198 0
524 302 0
-525 -198 302 0
525 198 0
525 -302 0
-526 200 -196 0
526 -200 0
526 196 0
-527 -200 196 0
527 200 0
527 -196 0
-528 201 -310 0
528 -201 0
528 310 0
-529 -201 310 0
529 201 0
529 -310 0
-530 203 -318 0
530 -203 0
530 318 0
-531 -203 318 0
531 203 0
531 -318 0
-532 204 -199 0
532 -204 0
532 199 0
-533 -204 199 0
533 204 0
533 -199 0
-534 206 -322 0
534 -206 0
534 322 0
-535 -206 322 0
535 206 0
535 -322 0
-536 207 -202 0
536 -207 0
536 202 0
-537 -207 202 0
537 207 0
537 -202 0
-538 209 -205 0
538 -209 0
538 205 0
-539 -209 205 0
539 209 0
539 -205 0
-540 210 -326 0
540 -210 0
540 326 0
-541 -210 326 0
541 210 0
541 -326 0
-542 212 -254 0
542 -212 0
542 254 0
-543 -212 254 0
543 212 0
543 -254 0
-544 213 -255 0
544 -213 0
544 255 0
-545 -213 255 0
545 213 0
545 -255 0
-546 215 -284 0
546 -215 0
546 284 0
-547 -215 284 0
547 215 0
547 -284 0
-548 216 -211 0
548 -216 0
548 211 0
-549 -216 211 0
549 216 0
549 -211 0
-550 218 -214 0
550 -218 0
550 214 0
-551 -218 214 0
551 218 0
551 -214 0
-552 219 -287 0
552 -219 0
552 287 0
-553 -219 287 0
553 219 0
553 -287 0
-554 221 -297 0
554 -221 0
554 297 0
-555 -221 297 0
555 221 0
555 -297 0
-556 222 -217 0
556 -222 0
556 217 0
-557 -222 217 0
557 222 0
557 -217 0
-558 224 -303 0
558 -224 0
558 303 0
-559 -224 303 0
559 224 0
559 -303 0
-560 225 -220 0
560 -225 0
560 220 0
-561 -225 220 0
561 225 0
561 -220 0
-562 227 -309 0
562 -227 0
562 309 0
-563 -227 309 0
563 227 0
563 -309 0
-564 228 -223 0
564 -228 0
564 223 0
-565 -228 223 0
565 228 0
565 -223 0
-566 230 -319 0
566 -230 0
566 319 0
-567 -230 319 0
567 230 0
567 -319 0
-568 231 -226 0
568 -231 0
568 226 0
-569 -231 226 0
569 231 0
569 -226 0
-570 233 -320 0
570 -233 0
570 320 0
-571 -233 320 0
571 233 0
571 -320 0
-572 234 -229 0
572 -234 0
572 229 0
-573 -234 229 0
573 234 0
573 -229 0
-574 236 -325 0
574 -236 0
574 325 0
-575 -236 325 0
575 236 0
575 -325 0
-576 237 -232 0
576 -237 0
576 232 0
-577 -237 232 0
577 237 0
577 -232 0
-578 239 -235 0
578 -239 0
578 235 0
-579 -239 235 0
579 239 0
579 -235 0
-580 240 -327 0
580 -240 0
580 327 0
-581 -240 327 0
581 240 0
581 -327 0
329 0
330 0
331 0
333 0
334 0
335 0
336 0
337 0
338 0
339 0
340 0
341 0
342 0
343 0
344 0
345 0
346 0
347 0
348 0
349 0
350 0
351 0
352 0
353 0
354 0
355 0
356 0
357 0
358 0
359 0
360 0
361 0
362 0
363 0
364 0
365 0
366 0
367 0
368 0
369 0
370 0
371 0
372 0
373 0
374 0
375 0
376 0
377 0
378 0
379 0
380 0
381 0
382 0
383 0
384 0
385 0
386 0
387 0
388 0
389 0
390 0
391 0
392 0
393 0
394 0
395 0
396 0
397 0
398 0
399 0
400 0
401 0
402 0
403 0
404 0
405 0
406 0
407 0
408 0
409 0
410 0
411 0
412 0
413 0
414 0
415 0
416 0
417 0
418 0
419 0
420 0
421 0
422 0
423 0
424 0
425 0
426 0
427 0
428 0
429 0
430 0
431 0
432 0
433 0
434 0
435 0
436 0
437 0
438 0
439 0
440 0
441 0
442 0
443 0
444 0
445 0
446 0
447 0
448 0
449 0
450 0
451 0
452 0
453 0
454 0
455 0
456 0
457 0
458 0
459 0
460 0
461 0
462 0
463 0
464 0
465 0
466 0
467 0
468 0
469 0
470 0
471 0
472 0
473 0
474 0
475 0
476 0
477 0
478 0
479 0
480 0
481 0
482 0
483 0
484 0
485 0
486 0
487 0
488 0
489 0
490 0
491 0
492 0
493 0
494 0
495 0
496 0
497 0
498 0
499 0
500 0
501 0
502 0
503 0
504 0
505 0
506 0
507 0
508 0
509 0
510 0
511 0
512 0
513 0
514 0
515 0
516 0
517 0
518 0
519 0
520 0
521 0
522 0
523 0
524 0
525 0
526 0
527 0
528 0
529 0
530 0
531 0
532 0
533 0
534 0
535 0
536 0
537 0
538 0
539 0
540 0
541 0
542 0
543 0
544 0
545 0
546 0
547 0
548 0
549 0
550 0
551 0
552 0
553 0
554 0
555 0
556 0
557 0
558 0
559 0
560 0
561 0
562 0
563 0
564 0
565 0
566 0
567 0
568 0
569 0
570 0
571 0
572 0
573 0
574 0
575 0
576 0
577 0
578 0
579 0
580 0
581 0
