c BC-S1.2
p cnf 12930 44639
1 -2 0
-1 2 0
3 -4 0
-3 4 0
-5 6 7 0
5 -6 0
5 -7 0
8 -9 0
-8 9 0
-10 11 12 0
10 -11 0
10 -12 0
13 -14 0
-13 14 0
-15 16 17 0
15 -16 0
15 -17 0
18 -19 0
-18 19 0
-20 21 22 0
20 -21 0
20 -22 0
23 -24 0
-23 24 0
-25 26 27 0
25 -26 0
25 -27 0
28 -29 0
-28 29 0
30 -31 0
-30 31 0
-32 33 34 0
32 -33 0
32 -34 0
-35 31 36 0
35 -31 0
35 -36 0
-37 38 39 0
37 -38 0
37 -39 0
40 -41 0
-40 41 0
-42 43 44 0
42 -43 0
42 -44 0
-45 46 41 0
45 -46 0
45 -41 0
-47 48 49 0
47 -48 0
47 -49 0
50 -51 0
-50 51 0
-52 53 54 0
52 -53 0
52 -54 0
55 -56 0
-55 56 0
-57 58 59 0
57 -58 0
57 -59 0
-60 56 61 0
60 -56 0
60 -61 0
-62 63 64 0
62 -63 0
62 -64 0
-65 66 67 0
65 -66 0
65 -67 0
-68 69 70 0
68 -69 0
68 -70 0
71 -72 0
-71 72 0
-73 74 75 0
73 -74 0
73 -75 0
-76 72 77 0
76 -72 0
76 -77 0
-78 79 80 0
78 -79 0
78 -80 0
81 -82 0
-81 82 0
-83 84 85 0
83 -84 0
83 -85 0
-86 82 87 0
86 -82 0
86 -87 0
-88 89 90 0
88 -89 0
88 -90 0
91 -92 0
-91 92 0
93 -94 0
-93 94 0
95 -96 0
-95 96 0
-97 98 99 0
97 -98 0
97 -99 0
100 -101 0
-100 101 0
-102 103 104 0
102 -103 0
102 -104 0
105 -106 0
-105 106 0
-107 108 109 0
107 -108 0
107 -109 0
110 -111 0
-110 111 0
-112 113 114 0
112 -113 0
112 -114 0
115 -116 0
-115 116 0
-117 118 119 0
117 -118 0
117 -119 0
120 -121 0
-120 121 0
-122 123 124 125 126 127 128 129 130 131 0
122 -123 0
122 -124 0
122 -125 0
122 -126 0
122 -127 0
122 -128 0
122 -129 0
122 -130 0
122 -131 0
132 -133 0
-132 133 0
-134 135 136 0
134 -135 0
134 -136 0
137 -138 0
-137 138 0
-139 140 141 0
139 -140 0
139 -141 0
-142 143 138 0
142 -143 0
142 -138 0
-144 145 146 0
144 -145 0
144 -146 0
147 -148 0
-147 148 0
-149 150 151 0
149 -150 0
149 -151 0
-152 148 153 0
152 -148 0
152 -153 0
154 -155 0
-154 155 0
156 -157 0
-156 157 0
-158 159 160 0
158 -159 0
158 -160 0
161 -162 0
-161 162 0
-163 164 165 0
163 -164 0
163 -165 0
-166 167 162 0
166 -167 0
166 -162 0
-168 169 170 0
168 -169 0
168 -170 0
-171 172 173 0
171 -172 0
171 -173 0
-174 175 176 0
174 -175 0
174 -176 0
-177 178 179 0
177 -178 0
177 -179 0
-180 181 182 0
180 -181 0
180 -182 0
183 -184 0
-183 184 0
-185 186 187 0
185 -186 0
185 -187 0
188 -189 0
-188 189 0
-190 191 192 0
190 -191 0
190 -192 0
-193 194 189 0
193 -194 0
193 -189 0
-195 196 197 0
195 -196 0
195 -197 0
198 -199 0
-198 199 0
-200 201 202 0
200 -201 0
200 -202 0
203 -204 0
-203 204 0
205 -206 0
-205 206 0
-207 208 204 0
207 -208 0
207 -204 0
-209 210 211 0
209 -210 0
209 -211 0
212 -213 0
-212 213 0
-214 213 215 0
214 -213 0
214 -215 0
-216 217 218 0
216 -217 0
216 -218 0
219 -220 0
-219 220 0
-221 222 223 0
221 -222 0
221 -223 0
224 -225 0
-224 225 0
-226 227 228 0
226 -227 0
226 -228 0
229 -230 0
-229 230 0
-231 232 233 0
231 -232 0
231 -233 0
234 -235 0
-234 235 0
-236 237 238 0
236 -237 0
236 -238 0
-239 235 240 0
239 -235 0
239 -240 0
-241 242 243 0
241 -242 0
241 -243 0
244 -245 0
-244 245 0
246 -247 0
-246 247 0
248 -249 0
-248 249 0
-250 251 252 0
250 -251 0
250 -252 0
253 -254 0
-253 254 0
-255 256 257 0
255 -256 0
255 -257 0
258 -259 0
-258 259 0
260 -261 0
-260 261 0
262 -263 0
-262 263 0
-264 265 266 0
264 -265 0
264 -266 0
267 -268 0
-267 268 0
-269 270 271 0
269 -270 0
269 -271 0
-272 268 273 0
272 -268 0
272 -273 0
-274 275 276 0
274 -275 0
274 -276 0
277 -278 0
-277 278 0
279 -280 0
-279 280 0
281 -282 0
-281 282 0
283 -284 0
-283 284 0
-285 282 286 0
285 -282 0
285 -286 0
-287 288 289 0
287 -288 0
287 -289 0
290 -291 0
-290 291 0
-292 293 294 0
292 -293 0
292 -294 0
-295 296 291 0
295 -296 0
295 -291 0
-297 298 299 0
297 -298 0
297 -299 0
300 -301 0
-300 301 0
-302 301 303 0
302 -301 0
302 -303 0
-304 305 306 0
304 -305 0
304 -306 0
307 -308 0
-307 308 0
-309 310 311 0
309 -310 0
309 -311 0
312 -313 0
-312 313 0
-314 315 316 0
314 -315 0
314 -316 0
-317 313 318 0
317 -313 0
317 -318 0
-319 320 321 0
319 -320 0
319 -321 0
-322 323 324 0
322 -323 0
322 -324 0
325 -326 0
-325 326 0
-327 326 328 0
327 -326 0
327 -328 0
329 -330 0
-329 330 0
-331 330 332 0
331 -330 0
331 -332 0
333 -334 0
-333 334 0
335 -336 0
-335 336 0
-337 336 338 0
337 -336 0
337 -338 0
-339 340 341 0
339 -340 0
339 -341 0
-342 343 344 0
342 -343 0
342 -344 0
345 -346 0
-345 346 0
347 -348 0
-347 348 0
-349 350 348 0
349 -350 0
349 -348 0
351 -352 0
-351 352 0
353 -354 0
-353 354 0
-355 354 356 0
355 -354 0
355 -356 0
357 -358 0
-357 358 0
359 -360 0
-359 360 0
361 -362 0
-361 362 0
363 -364 0
-363 364 0
365 -366 0
-365 366 0
367 -368 0
-367 368 0
-369 370 368 0
369 -370 0
369 -368 0
371 -372 0
-371 372 0
-373 374 372 0
373 -374 0
373 -372 0
375 -376 0
-375 376 0
377 -378 0
-377 378 0
-379 378 380 0
379 -378 0
379 -380 0
-381 382 383 0
381 -382 0
381 -383 0
-384 385 386 0
384 -385 0
384 -386 0
387 -388 0
-387 388 0
389 -390 0
-389 390 0
-391 390 392 0
391 -390 0
391 -392 0
393 -394 0
-393 394 0
395 -396 0
-395 396 0
-397 398 396 0
397 -398 0
397 -396 0
399 -400 0
-399 400 0
-401 402 400 0
401 -402 0
401 -400 0
403 -404 0
-403 404 0
405 -406 0
-405 406 0
407 -408 0
-407 408 0
409 -410 0
-409 410 0
-411 412 410 0
411 -412 0
411 -410 0
413 -414 0
-413 414 0
415 -416 0
-415 416 0
-417 418 416 0
417 -418 0
417 -416 0
419 -420 0
-419 420 0
421 -422 0
-421 422 0
423 -424 0
-423 424 0
425 -426 0
-425 426 0
427 -428 0
-427 428 0
429 -430 0
-429 430 0
-431 430 432 0
431 -430 0
431 -432 0
433 -434 0
-433 434 0
-435 436 434 0
435 -436 0
435 -434 0
437 -438 0
-437 438 0
-439 438 440 0
439 -438 0
439 -440 0
441 -442 0
-441 442 0
443 -444 0
-443 444 0
-445 446 444 0
445 -446 0
445 -444 0
-447 448 449 0
447 -448 0
447 -449 0
450 -451 0
-450 451 0
-452 453 451 0
452 -453 0
452 -451 0
454 -455 0
-454 455 0
-456 457 455 0
456 -457 0
456 -455 0
458 -459 0
-458 459 0
460 -461 0
-460 461 0
-462 461 463 0
462 -461 0
462 -463 0
-464 465 466 0
464 -465 0
464 -466 0
-467 468 469 0
467 -468 0
467 -469 0
470 -471 0
-470 471 0
-472 471 473 0
472 -471 0
472 -473 0
-474 475 476 0
474 -475 0
474 -476 0
477 -478 0
-477 478 0
479 -480 0
-479 480 0
-481 482 480 0
481 -482 0
481 -480 0
483 -484 0
-483 484 0
485 -486 0
-485 486 0
487 -488 0
-487 488 0
489 -490 0
-489 490 0
491 -492 0
-491 492 0
493 -494 0
-493 494 0
-495 494 496 0
495 -494 0
495 -496 0
-497 498 499 0
497 -498 0
497 -499 0
500 -501 0
-500 501 0
502 -503 0
-502 503 0
504 -505 0
-504 505 0
-506 505 507 0
506 -505 0
506 -507 0
-508 509 510 0
508 -509 0
508 -510 0
-511 512 513 0
511 -512 0
511 -513 0
514 -515 0
-514 515 0
516 -517 0
-516 517 0
-518 519 517 0
518 -519 0
518 -517 0
520 -521 0
-520 521 0
522 -523 0
-522 523 0
-524 525 523 0
524 -525 0
524 -523 0
526 -527 0
-526 527 0
-528 527 529 0
528 -527 0
528 -529 0
530 -531 0
-530 531 0
532 -533 0
-532 533 0
534 -535 0
-534 535 0
536 -537 0
-536 537 0
-538 539 537 0
538 -539 0
538 -537 0
540 -541 0
-540 541 0
542 -543 0
-542 543 0
-544 543 545 0
544 -543 0
544 -545 0
546 -547 0
-546 547 0
548 -549 0
-548 549 0
550 -551 0
-550 551 0
-552 553 551 0
552 -553 0
552 -551 0
554 -555 0
-554 555 0
556 -557 0
-556 557 0
-558 559 557 0
558 -559 0
558 -557 0
560 -561 0
-560 561 0
-562 563 561 0
562 -563 0
562 -561 0
564 -565 0
-564 565 0
-566 567 565 0
566 -567 0
566 -565 0
568 -569 0
-568 569 0
570 -571 0
-570 571 0
-572 571 573 0
572 -571 0
572 -573 0
-574 575 576 0
574 -575 0
574 -576 0
577 -578 0
-577 578 0
-579 580 578 0
579 -580 0
579 -578 0
581 -582 0
-581 582 0
-583 584 582 0
583 -584 0
583 -582 0
585 -586 0
-585 586 0
587 -588 0
-587 588 0
-589 588 590 0
589 -588 0
589 -590 0
-591 592 593 0
591 -592 0
591 -593 0
-594 595 596 0
594 -595 0
594 -596 0
597 -598 0
-597 598 0
-599 598 600 0
599 -598 0
599 -600 0
-601 602 603 0
601 -602 0
601 -603 0
604 -605 0
-604 605 0
606 -607 0
-606 607 0
-608 607 609 0
608 -607 0
608 -609 0
610 -611 0
-610 611 0
612 -613 0
-612 613 0
614 -615 0
-614 615 0
616 -617 0
-616 617 0
618 -619 0
-618 619 0
620 -621 0
-620 621 0
-622 621 623 0
622 -621 0
622 -623 0
624 -625 0
-624 625 0
-626 625 627 0
626 -625 0
626 -627 0
628 -629 0
-628 629 0
630 -631 0
-630 631 0
-632 631 633 0
632 -631 0
632 -633 0
-634 635 636 0
634 -635 0
634 -636 0
-637 638 639 0
637 -638 0
637 -639 0
640 -641 0
-640 641 0
642 -643 0
-642 643 0
-644 643 645 0
644 -643 0
644 -645 0
646 -647 0
-646 647 0
648 -649 0
-648 649 0
-650 649 651 0
650 -649 0
650 -651 0
652 -653 0
-652 653 0
-654 655 653 0
654 -655 0
654 -653 0
656 -657 0
-656 657 0
658 -659 0
-658 659 0
660 -661 0
-660 661 0
-662 663 661 0
662 -663 0
662 -661 0
664 -665 0
-664 665 0
666 -667 0
-666 667 0
668 -669 0
-668 669 0
-670 669 671 0
670 -669 0
670 -671 0
672 -673 0
-672 673 0
674 -675 0
-674 675 0
676 -677 0
-676 677 0
678 -679 0
-678 679 0
-680 681 679 0
680 -681 0
680 -679 0
682 -683 0
-682 683 0
-684 685 683 0
684 -685 0
684 -683 0
686 -687 0
-686 687 0
-688 689 687 0
688 -689 0
688 -687 0
690 -691 0
-690 691 0
-692 693 691 0
692 -693 0
692 -691 0
694 -695 0
-694 695 0
696 -697 0
-696 697 0
-698 697 699 0
698 -697 0
698 -699 0
-700 701 702 0
700 -701 0
700 -702 0
-703 704 705 0
703 -704 0
703 -705 0
-706 707 708 0
706 -707 0
706 -708 0
-709 710 711 0
709 -710 0
709 -711 0
-712 713 714 0
712 -713 0
712 -714 0
-715 716 717 0
715 -716 0
715 -717 0
-718 719 720 0
718 -719 0
718 -720 0
-721 722 723 0
721 -722 0
721 -723 0
-724 725 726 0
724 -725 0
724 -726 0
727 -728 0
-727 728 0
-729 730 728 0
729 -730 0
729 -728 0
731 -732 0
-731 732 0
-733 732 734 0
733 -732 0
733 -734 0
-735 736 737 0
735 -736 0
735 -737 0
-738 739 740 0
738 -739 0
738 -740 0
741 -742 0
-741 742 0
743 -744 0
-743 744 0
-745 746 744 0
745 -746 0
745 -744 0
-747 748 749 0
747 -748 0
747 -749 0
-750 751 752 0
750 -751 0
750 -752 0
-753 754 755 0
753 -754 0
753 -755 0
-756 757 758 0
756 -757 0
756 -758 0
-759 760 761 0
759 -760 0
759 -761 0
-762 763 764 0
762 -763 0
762 -764 0
-765 766 767 0
765 -766 0
765 -767 0
768 -769 0
-768 769 0
770 -771 0
-770 771 0
772 -773 0
-772 773 0
-774 773 775 0
774 -773 0
774 -775 0
-776 777 778 0
776 -777 0
776 -778 0
-779 780 781 0
779 -780 0
779 -781 0
-782 783 784 0
782 -783 0
782 -784 0
-785 786 787 0
785 -786 0
785 -787 0
-788 789 790 0
788 -789 0
788 -790 0
-791 792 793 0
791 -792 0
791 -793 0
-794 795 796 0
794 -795 0
794 -796 0
-797 798 799 0
797 -798 0
797 -799 0
-800 801 802 0
800 -801 0
800 -802 0
803 -804 0
-803 804 0
-805 804 806 0
805 -804 0
805 -806 0
-807 808 809 0
807 -808 0
807 -809 0
-810 811 812 0
810 -811 0
810 -812 0
-813 814 815 0
813 -814 0
813 -815 0
816 -817 0
-816 817 0
-818 819 817 0
818 -819 0
818 -817 0
-820 821 822 0
820 -821 0
820 -822 0
-823 824 825 0
823 -824 0
823 -825 0
-826 827 828 0
826 -827 0
826 -828 0
-829 830 831 0
829 -830 0
829 -831 0
-832 833 834 0
832 -833 0
832 -834 0
-835 836 837 0
835 -836 0
835 -837 0
-838 839 840 0
838 -839 0
838 -840 0
-841 842 843 0
841 -842 0
841 -843 0
844 -845 0
-844 845 0
-846 845 847 0
846 -845 0
846 -847 0
-848 849 850 0
848 -849 0
848 -850 0
-851 852 853 0
851 -852 0
851 -853 0
-854 855 856 0
854 -855 0
854 -856 0
-857 858 859 0
857 -858 0
857 -859 0
-860 861 862 0
860 -861 0
860 -862 0
863 -864 0
-863 864 0
-865 866 864 0
865 -866 0
865 -864 0
-867 868 869 0
867 -868 0
867 -869 0
-870 871 872 0
870 -871 0
870 -872 0
-873 874 875 0
873 -874 0
873 -875 0
-876 877 878 0
876 -877 0
876 -878 0
-879 880 881 0
879 -880 0
879 -881 0
-882 883 884 0
882 -883 0
882 -884 0
-885 886 887 0
885 -886 0
885 -887 0
-888 889 890 0
888 -889 0
888 -890 0
-891 892 893 0
891 -892 0
891 -893 0
-894 895 896 0
894 -895 0
894 -896 0
-897 898 899 0
897 -898 0
897 -899 0
-900 901 902 0
900 -901 0
900 -902 0
-903 904 905 0
903 -904 0
903 -905 0
-906 907 908 0
906 -907 0
906 -908 0
-909 910 911 0
909 -910 0
909 -911 0
-912 913 914 0
912 -913 0
912 -914 0
-915 916 917 0
915 -916 0
915 -917 0
-918 919 920 0
918 -919 0
918 -920 0
-921 922 923 0
921 -922 0
921 -923 0
-924 925 926 0
924 -925 0
924 -926 0
-927 928 929 0
927 -928 0
927 -929 0
-930 931 932 0
930 -931 0
930 -932 0
-933 934 935 0
933 -934 0
933 -935 0
936 -937 0
-936 937 0
-938 937 939 0
938 -937 0
938 -939 0
-940 941 942 0
940 -941 0
940 -942 0
-943 944 945 0
943 -944 0
943 -945 0
-946 947 948 0
946 -947 0
946 -948 0
-949 950 951 0
949 -950 0
949 -951 0
-952 953 954 0
952 -953 0
952 -954 0
-955 956 957 0
955 -956 0
955 -957 0
-958 959 960 0
958 -959 0
958 -960 0
-961 962 963 0
961 -962 0
961 -963 0
-964 965 966 0
964 -965 0
964 -966 0
-967 968 969 0
967 -968 0
967 -969 0
-970 971 972 0
970 -971 0
970 -972 0
-973 974 975 0
973 -974 0
973 -975 0
976 -977 0
-976 977 0
978 -979 0
-978 979 0
980 -981 0
-980 981 0
982 -983 0
-982 983 0
-984 985 983 0
984 -985 0
984 -983 0
-986 987 988 0
986 -987 0
986 -988 0
-989 990 991 0
989 -990 0
989 -991 0
-992 993 994 0
992 -993 0
992 -994 0
-995 996 997 0
995 -996 0
995 -997 0
-998 999 1000 0
998 -999 0
998 -1000 0
1001 -1002 0
-1001 1002 0
-1003 1002 1004 0
1003 -1002 0
1003 -1004 0
-1005 1006 1007 0
1005 -1006 0
1005 -1007 0
-1008 1009 1010 0
1008 -1009 0
1008 -1010 0
-1011 1012 1013 0
1011 -1012 0
1011 -1013 0
-1014 1015 1016 0
1014 -1015 0
1014 -1016 0
-1017 1018 1019 0
1017 -1018 0
1017 -1019 0
-1020 1021 1022 0
1020 -1021 0
1020 -1022 0
-1023 1024 1025 0
1023 -1024 0
1023 -1025 0
-1026 1027 1028 0
1026 -1027 0
1026 -1028 0
-1029 1030 1031 0
1029 -1030 0
1029 -1031 0
1032 -1033 0
-1032 1033 0
-1034 1035 1033 0
1034 -1035 0
1034 -1033 0
-1036 1037 1038 0
1036 -1037 0
1036 -1038 0
-1039 1040 1041 0
1039 -1040 0
1039 -1041 0
-1042 1043 1044 0
1042 -1043 0
1042 -1044 0
-1045 1046 1047 0
1045 -1046 0
1045 -1047 0
-1048 1049 1050 0
1048 -1049 0
1048 -1050 0
-1051 1052 1053 0
1051 -1052 0
1051 -1053 0
-1054 1055 1056 0
1054 -1055 0
1054 -1056 0
-1057 1058 1059 0
1057 -1058 0
1057 -1059 0
-1060 1061 1062 0
1060 -1061 0
1060 -1062 0
-1063 1064 1065 0
1063 -1064 0
1063 -1065 0
-1066 1067 1068 0
1066 -1067 0
1066 -1068 0
-1069 1070 1071 0
1069 -1070 0
1069 -1071 0
-1072 1073 1074 0
1072 -1073 0
1072 -1074 0
1075 -1076 0
-1075 1076 0
-1077 1078 1076 0
1077 -1078 0
1077 -1076 0
-1079 1080 1081 0
1079 -1080 0
1079 -1081 0
-1082 1083 1084 0
1082 -1083 0
1082 -1084 0
-1085 1086 1087 0
1085 -1086 0
1085 -1087 0
-1088 1089 1090 0
1088 -1089 0
1088 -1090 0
-1091 1092 1093 0
1091 -1092 0
1091 -1093 0
-1094 1095 1096 0
1094 -1095 0
1094 -1096 0
-1097 1098 1099 0
1097 -1098 0
1097 -1099 0
-1100 1101 1102 0
1100 -1101 0
1100 -1102 0
-1103 1104 1105 0
1103 -1104 0
1103 -1105 0
-1106 1107 1108 0
1106 -1107 0
1106 -1108 0
-1109 1110 1111 0
1109 -1110 0
1109 -1111 0
-1112 1113 1114 0
1112 -1113 0
1112 -1114 0
1115 -1116 0
-1115 1116 0
-1117 1118 1116 0
1117 -1118 0
1117 -1116 0
-1119 1120 1121 0
1119 -1120 0
1119 -1121 0
-1122 1123 1124 0
1122 -1123 0
1122 -1124 0
-1125 1126 1127 0
1125 -1126 0
1125 -1127 0
-1128 1129 1130 0
1128 -1129 0
1128 -1130 0
-1131 1132 1133 0
1131 -1132 0
1131 -1133 0
-1134 1135 1136 0
1134 -1135 0
1134 -1136 0
-1137 1138 1139 0
1137 -1138 0
1137 -1139 0
-1140 1141 1142 0
1140 -1141 0
1140 -1142 0
-1143 1144 1145 0
1143 -1144 0
1143 -1145 0
-1146 1147 1148 0
1146 -1147 0
1146 -1148 0
-1149 1150 1151 0
1149 -1150 0
1149 -1151 0
-1152 1153 1154 0
1152 -1153 0
1152 -1154 0
1155 -1156 0
-1155 1156 0
-1157 1158 1156 0
1157 -1158 0
1157 -1156 0
-1159 1160 1161 0
1159 -1160 0
1159 -1161 0
-1162 1163 1164 0
1162 -1163 0
1162 -1164 0
-1165 1166 1167 0
1165 -1166 0
1165 -1167 0
-1168 1169 1170 0
1168 -1169 0
1168 -1170 0
-1171 1172 1173 0
1171 -1172 0
1171 -1173 0
-1174 1175 1176 0
1174 -1175 0
1174 -1176 0
-1177 1178 1179 0
1177 -1178 0
1177 -1179 0
-1180 1181 1182 0
1180 -1181 0
1180 -1182 0
1183 -1184 0
-1183 1184 0
-1185 1186 1184 0
1185 -1186 0
1185 -1184 0
-1187 1188 1189 0
1187 -1188 0
1187 -1189 0
-1190 1191 1192 0
1190 -1191 0
1190 -1192 0
-1193 1194 1195 0
1193 -1194 0
1193 -1195 0
-1196 1197 1198 0
1196 -1197 0
1196 -1198 0
-1199 1200 1201 0
1199 -1200 0
1199 -1201 0
-1202 1203 1204 0
1202 -1203 0
1202 -1204 0
-1205 1206 1207 0
1205 -1206 0
1205 -1207 0
-1208 1209 1210 0
1208 -1209 0
1208 -1210 0
-1211 1212 1213 0
1211 -1212 0
1211 -1213 0
-1214 1215 1216 0
1214 -1215 0
1214 -1216 0
-1217 1218 1219 0
1217 -1218 0
1217 -1219 0
-1220 1221 1222 0
1220 -1221 0
1220 -1222 0
-1223 1224 1225 0
1223 -1224 0
1223 -1225 0
1226 -1227 0
-1226 1227 0
-1228 1229 1227 0
1228 -1229 0
1228 -1227 0
-1230 1231 1232 0
1230 -1231 0
1230 -1232 0
-1233 1234 1235 0
1233 -1234 0
1233 -1235 0
-1236 1237 1238 0
1236 -1237 0
1236 -1238 0
-1239 1240 1241 0
1239 -1240 0
1239 -1241 0
-1242 1243 1244 0
1242 -1243 0
1242 -1244 0
-1245 1246 1247 0
1245 -1246 0
1245 -1247 0
1248 -1249 0
-1248 1249 0
-1250 1251 1249 0
1250 -1251 0
1250 -1249 0
-1252 1253 1254 0
1252 -1253 0
1252 -1254 0
-1255 1256 1257 0
1255 -1256 0
1255 -1257 0
-1258 1259 1260 0
1258 -1259 0
1258 -1260 0
-1261 1262 1263 0
1261 -1262 0
1261 -1263 0
-1264 1265 1266 0
1264 -1265 0
1264 -1266 0
-1267 1268 1269 0
1267 -1268 0
1267 -1269 0
-1270 1271 1272 0
1270 -1271 0
1270 -1272 0
1273 -1274 0
-1273 1274 0
-1275 1276 1274 0
1275 -1276 0
1275 -1274 0
1277 -1278 0
-1277 1278 0
-1279 1280 1278 0
1279 -1280 0
1279 -1278 0
-1281 1282 1283 0
1281 -1282 0
1281 -1283 0
-1284 1285 1286 0
1284 -1285 0
1284 -1286 0
-1287 1288 1289 0
1287 -1288 0
1287 -1289 0
-1290 1291 1292 0
1290 -1291 0
1290 -1292 0
1293 -1294 0
-1293 1294 0
-1295 1294 1296 0
1295 -1294 0
1295 -1296 0
-1297 1298 1299 0
1297 -1298 0
1297 -1299 0
-1300 1301 1302 0
1300 -1301 0
1300 -1302 0
-1303 1304 1305 0
1303 -1304 0
1303 -1305 0
-1306 1307 1308 0
1306 -1307 0
1306 -1308 0
1309 -1310 0
-1309 1310 0
1311 -1312 0
-1311 1312 0
1313 -1314 0
-1313 1314 0
-1315 1316 1314 0
1315 -1316 0
1315 -1314 0
-1317 1318 1319 0
1317 -1318 0
1317 -1319 0
1320 -1321 0
-1320 1321 0
-1322 1323 1321 0
1322 -1323 0
1322 -1321 0
-1324 1325 1326 0
1324 -1325 0
1324 -1326 0
-1327 1328 1329 0
1327 -1328 0
1327 -1329 0
-1330 1331 1332 0
1330 -1331 0
1330 -1332 0
-1333 1334 1335 0
1333 -1334 0
1333 -1335 0
-1336 1337 1338 0
1336 -1337 0
1336 -1338 0
-1339 1340 1341 0
1339 -1340 0
1339 -1341 0
-1342 1343 1344 0
1342 -1343 0
1342 -1344 0
1345 -1346 0
-1345 1346 0
1347 -1348 0
-1347 1348 0
1349 -1350 0
-1349 1350 0
-1351 1352 1350 0
1351 -1352 0
1351 -1350 0
-1353 1354 1355 0
1353 -1354 0
1353 -1355 0
-1356 1357 1358 0
1356 -1357 0
1356 -1358 0
-1359 1360 1361 0
1359 -1360 0
1359 -1361 0
-1362 1363 1364 0
1362 -1363 0
1362 -1364 0
-1365 1366 1367 0
1365 -1366 0
1365 -1367 0
-1368 1369 1370 0
1368 -1369 0
1368 -1370 0
-1371 1372 1373 0
1371 -1372 0
1371 -1373 0
1374 -1375 0
-1374 1375 0
-1376 1375 1377 0
1376 -1375 0
1376 -1377 0
-1378 1379 1380 0
1378 -1379 0
1378 -1380 0
-1381 1382 1383 0
1381 -1382 0
1381 -1383 0
-1384 1385 1386 0
1384 -1385 0
1384 -1386 0
-1387 1388 1389 0
1387 -1388 0
1387 -1389 0
-1390 1391 1392 0
1390 -1391 0
1390 -1392 0
-1393 1394 1395 0
1393 -1394 0
1393 -1395 0
-1396 1397 1398 0
1396 -1397 0
1396 -1398 0
-1399 1400 1401 0
1399 -1400 0
1399 -1401 0
-1402 1403 1404 0
1402 -1403 0
1402 -1404 0
1405 -1406 0
-1405 1406 0
-1407 1408 1406 0
1407 -1408 0
1407 -1406 0
-1409 1410 1411 0
1409 -1410 0
1409 -1411 0
1412 -1413 0
-1412 1413 0
-1414 1413 1415 0
1414 -1413 0
1414 -1415 0
-1416 1417 1418 0
1416 -1417 0
1416 -1418 0
-1419 1420 1421 0
1419 -1420 0
1419 -1421 0
-1422 1423 1424 0
1422 -1423 0
1422 -1424 0
1425 -1426 0
-1425 1426 0
-1427 1426 1428 0
1427 -1426 0
1427 -1428 0
-1429 1430 1431 0
1429 -1430 0
1429 -1431 0
-1432 1433 1434 0
1432 -1433 0
1432 -1434 0
1435 -1436 0
-1435 1436 0
-1437 1438 1436 0
1437 -1438 0
1437 -1436 0
-1439 1440 1441 0
1439 -1440 0
1439 -1441 0
-1442 1443 1444 0
1442 -1443 0
1442 -1444 0
-1445 1446 1447 0
1445 -1446 0
1445 -1447 0
-1448 1449 1450 0
1448 -1449 0
1448 -1450 0
-1451 1452 1453 0
1451 -1452 0
1451 -1453 0
-1454 1455 1456 0
1454 -1455 0
1454 -1456 0
1457 -1458 0
-1457 1458 0
1459 -1460 0
-1459 1460 0
1461 -1462 0
-1461 1462 0
1463 -1464 0
-1463 1464 0
-1465 1464 1466 0
1465 -1464 0
1465 -1466 0
-1467 1468 1469 0
1467 -1468 0
1467 -1469 0
-1470 1471 1472 0
1470 -1471 0
1470 -1472 0
-1473 1474 1475 0
1473 -1474 0
1473 -1475 0
-1476 1477 1478 0
1476 -1477 0
1476 -1478 0
-1479 1480 1481 0
1479 -1480 0
1479 -1481 0
-1482 1483 1484 0
1482 -1483 0
1482 -1484 0
-1485 1486 1487 0
1485 -1486 0
1485 -1487 0
1488 -1489 0
-1488 1489 0
1490 -1491 0
-1490 1491 0
-1492 1493 1491 0
1492 -1493 0
1492 -1491 0
1494 -1495 0
-1494 1495 0
-1496 1497 1495 0
1496 -1497 0
1496 -1495 0
-1498 1499 1500 0
1498 -1499 0
1498 -1500 0
-1501 1502 1503 0
1501 -1502 0
1501 -1503 0
1504 -1505 0
-1504 1505 0
1506 -1507 0
-1506 1507 0
-1508 1509 1510 0
1508 -1509 0
1508 -1510 0
1511 -1512 0
-1511 1512 0
-1513 1514 1515 0
1513 -1514 0
1513 -1515 0
1516 -1517 0
-1516 1517 0
1518 -1519 0
-1518 1519 0
1520 -1521 0
-1520 1521 0
1522 -1523 0
-1522 1523 0
-1524 1525 1526 0
1524 -1525 0
1524 -1526 0
1527 -1528 0
-1527 1528 0
-1529 1530 1531 0
1529 -1530 0
1529 -1531 0
-1532 1533 1534 0
1532 -1533 0
1532 -1534 0
1535 -1536 0
-1535 1536 0
-1537 1538 1539 0
1537 -1538 0
1537 -1539 0
1540 -1541 0
-1540 1541 0
1542 -1543 0
-1542 1543 0
-1544 1545 1546 0
1544 -1545 0
1544 -1546 0
-1547 1548 1549 0
1547 -1548 0
1547 -1549 0
1550 -1551 0
-1550 1551 0
1552 -1553 0
-1552 1553 0
-1554 1555 1556 0
1554 -1555 0
1554 -1556 0
-1557 1558 1559 0
1557 -1558 0
1557 -1559 0
-1560 1561 1562 0
1560 -1561 0
1560 -1562 0
-1563 1564 1565 0
1563 -1564 0
1563 -1565 0
1566 -1567 0
-1566 1567 0
1568 -1569 0
-1568 1569 0
-1570 1571 1572 0
1570 -1571 0
1570 -1572 0
-1573 1574 1575 0
1573 -1574 0
1573 -1575 0
-1576 1577 1578 0
1576 -1577 0
1576 -1578 0
1579 -1580 0
-1579 1580 0
-1581 1582 1583 0
1581 -1582 0
1581 -1583 0
1584 -1585 0
-1584 1585 0
1586 -1587 0
-1586 1587 0
1588 -1589 0
-1588 1589 0
1590 -1591 0
-1590 1591 0
-1592 1593 1594 0
1592 -1593 0
1592 -1594 0
1595 -1596 0
-1595 1596 0
1597 -1598 0
-1597 1598 0
1599 -1600 0
-1599 1600 0
-1601 1602 1603 0
1601 -1602 0
1601 -1603 0
1604 -1605 0
-1604 1605 0
-1606 1607 1608 0
1606 -1607 0
1606 -1608 0
-1609 1610 1611 0
1609 -1610 0
1609 -1611 0
-1612 1613 1614 0
1612 -1613 0
1612 -1614 0
1615 -1616 0
-1615 1616 0
-1617 1618 1619 0
1617 -1618 0
1617 -1619 0
-1620 1621 1622 0
1620 -1621 0
1620 -1622 0
-1623 1624 1625 0
1623 -1624 0
1623 -1625 0
-1626 1627 1628 0
1626 -1627 0
1626 -1628 0
1629 -1630 0
-1629 1630 0
-1631 1632 1633 0
1631 -1632 0
1631 -1633 0
-1634 1635 1636 0
1634 -1635 0
1634 -1636 0
1637 -1638 0
-1637 1638 0
-1639 1640 1641 0
1639 -1640 0
1639 -1641 0
-1642 1643 1644 0
1642 -1643 0
1642 -1644 0
1645 -1646 0
-1645 1646 0
1647 -1648 0
-1647 1648 0
-1649 1650 1651 0
1649 -1650 0
1649 -1651 0
1652 -1653 0
-1652 1653 0
1654 -1655 0
-1654 1655 0
-1656 1657 1658 0
1656 -1657 0
1656 -1658 0
1659 -1660 0
-1659 1660 0
1661 -1662 0
-1661 1662 0
-1663 1664 1665 0
1663 -1664 0
1663 -1665 0
-1666 1667 1668 0
1666 -1667 0
1666 -1668 0
1669 -1670 0
-1669 1670 0
-1671 1672 1673 0
1671 -1672 0
1671 -1673 0
1674 -1675 0
-1674 1675 0
1676 -1677 0
-1676 1677 0
1678 -1679 0
-1678 1679 0
1680 -1681 0
-1680 1681 0
-1682 1683 1684 0
1682 -1683 0
1682 -1684 0
1685 -1686 0
-1685 1686 0
-1687 1688 1689 0
1687 -1688 0
1687 -1689 0
1690 -1691 0
-1690 1691 0
1692 -1693 0
-1692 1693 0
-1694 1695 1696 0
1694 -1695 0
1694 -1696 0
-1697 1698 1699 1700 1701 1702 1703 1704 0
1697 -1698 0
1697 -1699 0
1697 -1700 0
1697 -1701 0
1697 -1702 0
1697 -1703 0
1697 -1704 0
1705 -1706 0
-1705 1706 0
1707 -1708 0
-1707 1708 0
-1709 1710 1711 0
1709 -1710 0
1709 -1711 0
-1712 1713 1714 0
1712 -1713 0
1712 -1714 0
-1715 1716 1717 0
1715 -1716 0
1715 -1717 0
-1718 1719 1720 0
1718 -1719 0
1718 -1720 0
1721 -1722 0
-1721 1722 0
1723 -1724 0
-1723 1724 0
-1725 1726 1727 0
1725 -1726 0
1725 -1727 0
-1728 1729 1730 0
1728 -1729 0
1728 -1730 0
-1731 1732 1733 0
1731 -1732 0
1731 -1733 0
-1734 1735 1736 0
1734 -1735 0
1734 -1736 0
-1737 1738 1739 0
1737 -1738 0
1737 -1739 0
1740 -1741 0
-1740 1741 0
-1742 1743 1744 0
1742 -1743 0
1742 -1744 0
1745 -1746 0
-1745 1746 0
1747 -1748 0
-1747 1748 0
-1749 1750 1751 0
1749 -1750 0
1749 -1751 0
1752 -1753 0
-1752 1753 0
1754 -1755 0
-1754 1755 0
1756 -1757 0
-1756 1757 0
1758 -1759 0
-1758 1759 0
1760 -1761 0
-1760 1761 0
1762 -1763 0
-1762 1763 0
-1764 1765 1766 0
1764 -1765 0
1764 -1766 0
-1767 1768 1769 0
1767 -1768 0
1767 -1769 0
1770 -1771 0
-1770 1771 0
1772 -1773 0
-1772 1773 0
1774 -1775 0
-1774 1775 0
-1776 1777 1778 0
1776 -1777 0
1776 -1778 0
-1779 1780 1781 0
1779 -1780 0
1779 -1781 0
1782 -1783 0
-1782 1783 0
-1784 1785 1786 0
1784 -1785 0
1784 -1786 0
-1787 1788 1789 0
1787 -1788 0
1787 -1789 0
1790 -1791 0
-1790 1791 0
1792 -1793 0
-1792 1793 0
-1794 1795 1796 0
1794 -1795 0
1794 -1796 0
1797 -1798 0
-1797 1798 0
-1799 1800 1801 0
1799 -1800 0
1799 -1801 0
-1802 1803 1804 0
1802 -1803 0
1802 -1804 0
1805 -1806 0
-1805 1806 0
1807 -1808 0
-1807 1808 0
1809 -1810 0
-1809 1810 0
1811 -1812 0
-1811 1812 0
1813 -1814 0
-1813 1814 0
-1815 1816 1817 0
1815 -1816 0
1815 -1817 0
1818 -1819 0
-1818 1819 0
1820 -1821 0
-1820 1821 0
-1822 1823 1824 0
1822 -1823 0
1822 -1824 0
1825 -1826 0
-1825 1826 0
-1827 1828 1829 0
1827 -1828 0
1827 -1829 0
1830 -1831 0
-1830 1831 0
1832 -1833 0
-1832 1833 0
-1834 1835 1836 0
1834 -1835 0
1834 -1836 0
1837 -1838 0
-1837 1838 0
-1839 1840 1841 0
1839 -1840 0
1839 -1841 0
1842 -1843 0
-1842 1843 0
1844 -1845 0
-1844 1845 0
-1846 1847 1848 0
1846 -1847 0
1846 -1848 0
-1849 1850 1851 1852 1853 1854 1855 1856 0
1849 -1850 0
1849 -1851 0
1849 -1852 0
1849 -1853 0
1849 -1854 0
1849 -1855 0
1849 -1856 0
1857 -1858 0
-1857 1858 0
1859 -1860 0
-1859 1860 0
-1861 1862 1863 0
1861 -1862 0
1861 -1863 0
-1864 1865 1866 0
1864 -1865 0
1864 -1866 0
-1867 1868 1869 0
1867 -1868 0
1867 -1869 0
-1870 1871 1872 0
1870 -1871 0
1870 -1872 0
1873 -1874 0
-1873 1874 0
1875 -1876 0
-1875 1876 0
-1877 1878 1879 0
1877 -1878 0
1877 -1879 0
-1880 1881 1882 0
1880 -1881 0
1880 -1882 0
-1883 1884 1885 0
1883 -1884 0
1883 -1885 0
1886 -1887 0
-1886 1887 0
-1888 1889 1890 0
1888 -1889 0
1888 -1890 0
1891 -1892 0
-1891 1892 0
-1893 1894 1895 0
1893 -1894 0
1893 -1895 0
1896 -1897 0
-1896 1897 0
1898 -1899 0
-1898 1899 0
-1900 1901 1902 0
1900 -1901 0
1900 -1902 0
1903 -1904 0
-1903 1904 0
1905 -1906 0
-1905 1906 0
-1907 1908 1909 0
1907 -1908 0
1907 -1909 0
1910 -1911 0
-1910 1911 0
1912 -1913 0
-1912 1913 0
1914 -1915 0
-1914 1915 0
-1916 1917 1918 0
1916 -1917 0
1916 -1918 0
1919 -1920 0
-1919 1920 0
1921 -1922 0
-1921 1922 0
1923 -1924 0
-1923 1924 0
1925 -1926 0
-1925 1926 0
-1927 1928 1929 0
1927 -1928 0
1927 -1929 0
-1930 1931 1932 0
1930 -1931 0
1930 -1932 0
1933 -1934 0
-1933 1934 0
-1935 1936 1937 0
1935 -1936 0
1935 -1937 0
1938 -1939 0
-1938 1939 0
1940 -1941 0
-1940 1941 0
1942 -1943 0
-1942 1943 0
-1944 1945 1946 0
1944 -1945 0
1944 -1946 0
1947 -1948 0
-1947 1948 0
1949 -1950 0
-1949 1950 0
-1951 1952 1953 0
1951 -1952 0
1951 -1953 0
1954 -1955 0
-1954 1955 0
1956 -1957 0
-1956 1957 0
1958 -1959 0
-1958 1959 0
1960 -1961 0
-1960 1961 0
1962 -1963 0
-1962 1963 0
1964 -1965 0
-1964 1965 0
1966 -1967 0
-1966 1967 0
1968 -1969 0
-1968 1969 0
1970 -1971 0
-1970 1971 0
-1972 1973 1974 0
1972 -1973 0
1972 -1974 0
1975 -1976 0
-1975 1976 0
1977 -1978 0
-1977 1978 0
-1979 1980 1981 0
1979 -1980 0
1979 -1981 0
1982 -1983 0
-1982 1983 0
-1984 1985 1986 0
1984 -1985 0
1984 -1986 0
1987 -131 0
-1987 131 0
1988 -1989 0
-1988 1989 0
-1990 1991 1992 0
1990 -1991 0
1990 -1992 0
-1993 1994 1995 1996 1997 1998 1999 2000 0
1993 -1994 0
1993 -1995 0
1993 -1996 0
1993 -1997 0
1993 -1998 0
1993 -1999 0
1993 -2000 0
2001 -2002 0
-2001 2002 0
-2003 2004 2005 1860 2006 2007 0
2003 -2004 0
2003 -2005 0
2003 -1860 0
2003 -2006 0
2003 -2007 0
-2008 2009 2010 0
2008 -2009 0
2008 -2010 0
-2011 2012 2013 0
2011 -2012 0
2011 -2013 0
-2014 2015 2016 0
2014 -2015 0
2014 -2016 0
-2017 2018 2019 0
2017 -2018 0
2017 -2019 0
2020 -2021 0
-2020 2021 0
2022 -2023 0
-2022 2023 0
2024 -2025 0
-2024 2025 0
-2026 2027 2028 0
2026 -2027 0
2026 -2028 0
-2029 2030 2031 0
2029 -2030 0
2029 -2031 0
2032 -2033 0
-2032 2033 0
-2034 2035 2036 0
2034 -2035 0
2034 -2036 0
2037 -2038 0
-2037 2038 0
-2039 2040 2041 0
2039 -2040 0
2039 -2041 0
-2042 2043 2044 0
2042 -2043 0
2042 -2044 0
2045 -2046 0
-2045 2046 0
-2047 2048 2049 0
2047 -2048 0
2047 -2049 0
2050 -2051 0
-2050 2051 0
2052 -2053 0
-2052 2053 0
2054 -2055 0
-2054 2055 0
2056 -2057 0
-2056 2057 0
2058 -2059 0
-2058 2059 0
2060 -2061 0
-2060 2061 0
-2062 2063 2064 0
2062 -2063 0
2062 -2064 0
2065 -2066 0
-2065 2066 0
2067 -2068 0
-2067 2068 0
2069 -2070 0
-2069 2070 0
2071 -2072 0
-2071 2072 0
-2073 2074 2075 0
2073 -2074 0
2073 -2075 0
2076 -2077 0
-2076 2077 0
2078 -2079 0
-2078 2079 0
-2080 2081 2082 0
2080 -2081 0
2080 -2082 0
2083 -2084 0
-2083 2084 0
-2085 2086 2087 0
2085 -2086 0
2085 -2087 0
2088 -2089 0
-2088 2089 0
2090 -2091 0
-2090 2091 0
2092 -2093 0
-2092 2093 0
-2094 2095 2096 0
2094 -2095 0
2094 -2096 0
-2097 2098 2099 0
2097 -2098 0
2097 -2099 0
2100 -2101 0
-2100 2101 0
2102 -2103 0
-2102 2103 0
2104 -2105 0
-2104 2105 0
2106 -2107 0
-2106 2107 0
2108 -2109 0
-2108 2109 0
2110 -2111 0
-2110 2111 0
2112 -2113 0
-2112 2113 0
2114 -2115 0
-2114 2115 0
2116 -2117 0
-2116 2117 0
2118 -2119 0
-2118 2119 0
2120 -44 0
-2120 44 0
2121 -53 0
-2121 53 0
2122 -80 0
-2122 80 0
2123 -84 0
-2123 84 0
2124 -90 0
-2124 90 0
2125 -98 0
-2125 98 0
-2126 2127 2128 2129 2130 2131 0
2126 -2127 0
2126 -2128 0
2126 -2129 0
2126 -2130 0
2126 -2131 0
-2132 2133 2134 2135 2136 2137 0
2132 -2133 0
2132 -2134 0
2132 -2135 0
2132 -2136 0
2132 -2137 0
-2138 2139 2140 2141 2101 2142 2143 0
2138 -2139 0
2138 -2140 0
2138 -2141 0
2138 -2101 0
2138 -2142 0
2138 -2143 0
2144 -159 0
-2144 159 0
-2145 2146 2147 2148 2149 2150 0
2145 -2146 0
2145 -2147 0
2145 -2148 0
2145 -2149 0
2145 -2150 0
-2151 2152 2153 2154 2155 2156 0
2151 -2152 0
2151 -2153 0
2151 -2154 0
2151 -2155 0
2151 -2156 0
2157 -181 0
-2157 181 0
2158 -191 0
-2158 191 0
-2159 2160 2161 2077 2162 2163 0
2159 -2160 0
2159 -2161 0
2159 -2077 0
2159 -2162 0
2159 -2163 0
2164 -2165 0
-2164 2165 0
-2166 2089 2167 2168 2169 2170 2171 0
2166 -2089 0
2166 -2167 0
2166 -2168 0
2166 -2169 0
2166 -2170 0
2166 -2171 0
2172 -217 0
-2172 217 0
-2173 2174 2072 2175 2176 2177 0
2173 -2174 0
2173 -2072 0
2173 -2175 0
2173 -2176 0
2173 -2177 0
2178 -2179 0
-2178 2179 0
-2180 2181 1983 2182 2183 2184 0
2180 -2181 0
2180 -1983 0
2180 -2182 0
2180 -2183 0
2180 -2184 0
2185 -2186 0
-2185 2186 0
2187 -265 0
-2187 265 0
-2188 2189 2190 2191 2192 2193 0
2188 -2189 0
2188 -2190 0
2188 -2191 0
2188 -2192 0
2188 -2193 0
-2194 2195 2196 2197 2198 2199 0
2194 -2195 0
2194 -2196 0
2194 -2197 0
2194 -2198 0
2194 -2199 0
2200 -2201 0
-2200 2201 0
2202 -288 0
-2202 288 0
2203 -299 0
-2203 299 0
-2204 2205 2066 2206 2207 2208 0
2204 -2205 0
2204 -2066 0
2204 -2206 0
2204 -2207 0
2204 -2208 0
-2209 2210 2211 2212 2213 2070 0
2209 -2210 0
2209 -2211 0
2209 -2212 0
2209 -2213 0
2209 -2070 0
2214 -320 0
-2214 320 0
2215 -2216 0
-2215 2216 0
2217 -2218 0
-2217 2218 0
2219 -1534 0
-2219 1534 0
2220 -2221 0
-2220 2221 0
2222 -1538 0
-2222 1538 0
2223 -1546 0
-2223 1546 0
2224 -1556 0
-2224 1556 0
2225 -2226 0
-2225 2226 0
2227 -1572 0
-2227 1572 0
2228 -1574 0
-2228 1574 0
2229 -2230 0
-2229 2230 0
2231 -2232 0
-2231 2232 0
2233 -2234 0
-2233 2234 0
2235 -2236 0
-2235 2236 0
2237 -2238 0
-2237 2238 0
2239 -2240 0
-2239 2240 0
2241 -1608 0
-2241 1608 0
2242 -1610 0
-2242 1610 0
2243 -1614 0
-2243 1614 0
2244 -2245 0
-2244 2245 0
2246 -1619 0
-2246 1619 0
2247 -1622 0
-2247 1622 0
2248 -1624 0
-2248 1624 0
2249 -1627 0
-2249 1627 0
-2250 2251 2252 2253 0
2250 -2251 0
2250 -2252 0
2250 -2253 0
2254 -2255 0
-2254 2255 0
2256 -2257 0
-2256 2257 0
2258 -2259 0
-2258 2259 0
2260 -2261 0
-2260 2261 0
2262 -2263 0
-2262 2263 0
2264 -1667 0
-2264 1667 0
2265 -2266 0
-2265 2266 0
-2267 2268 2269 2270 2271 2272 0
2267 -2268 0
2267 -2269 0
2267 -2270 0
2267 -2271 0
2267 -2272 0
-2273 1536 2274 2275 2276 2277 0
2273 -1536 0
2273 -2274 0
2273 -2275 0
2273 -2276 0
2273 -2277 0
-2278 2279 2280 2281 2282 2283 0
2278 -2279 0
2278 -2280 0
2278 -2281 0
2278 -2282 0
2278 -2283 0
-2284 2285 2286 2287 2288 2289 0
2284 -2285 0
2284 -2286 0
2284 -2287 0
2284 -2288 0
2284 -2289 0
2290 -1710 0
-2290 1710 0
2291 -2292 0
-2291 2292 0
2293 -1727 0
-2293 1727 0
-2294 2295 2296 2297 2298 2299 0
2294 -2295 0
2294 -2296 0
2294 -2297 0
2294 -2298 0
2294 -2299 0
-2300 2301 2302 1585 2303 2304 0
2300 -2301 0
2300 -2302 0
2300 -1585 0
2300 -2303 0
2300 -2304 0
2305 -1744 0
-2305 1744 0
-2306 1589 2307 2308 2309 2310 0
2306 -1589 0
2306 -2307 0
2306 -2308 0
2306 -2309 0
2306 -2310 0
-2311 2312 2313 1596 2314 2315 2316 0
2311 -2312 0
2311 -2313 0
2311 -1596 0
2311 -2314 0
2311 -2315 0
2311 -2316 0
2317 -2318 0
-2317 2318 0
2319 -2320 0
-2319 2320 0
2321 -2322 0
-2321 2322 0
-2323 2324 2325 2326 2327 2328 0
2323 -2324 0
2323 -2325 0
2323 -2326 0
2323 -2327 0
2323 -2328 0
2329 -1768 0
-2329 1768 0
2330 -2331 0
-2330 2331 0
-2332 2333 2334 2335 2336 2337 0
2332 -2333 0
2332 -2334 0
2332 -2335 0
2332 -2336 0
2332 -2337 0
-2338 2339 2340 2341 2342 2343 0
2338 -2339 0
2338 -2340 0
2338 -2341 0
2338 -2342 0
2338 -2343 0
-2344 2345 2346 2347 2348 2349 0
2344 -2345 0
2344 -2346 0
2344 -2347 0
2344 -2348 0
2344 -2349 0
-2350 2351 2352 2353 2354 2355 0
2350 -2351 0
2350 -2352 0
2350 -2353 0
2350 -2354 0
2350 -2355 0
2356 -2357 0
-2356 2357 0
-2358 2359 2360 2361 2362 2363 2364 0
2358 -2359 0
2358 -2360 0
2358 -2361 0
2358 -2362 0
2358 -2363 0
2358 -2364 0
-2365 2366 2367 2368 2369 1638 0
2365 -2366 0
2365 -2367 0
2365 -2368 0
2365 -2369 0
2365 -1638 0
-2370 2371 2372 2373 2374 2375 2376 0
2370 -2371 0
2370 -2372 0
2370 -2373 0
2370 -2374 0
2370 -2375 0
2370 -2376 0
2377 -2378 0
-2377 2378 0
-2379 2380 2381 2382 2383 2384 1653 0
2379 -2380 0
2379 -2381 0
2379 -2382 0
2379 -2383 0
2379 -2384 0
2379 -1653 0
2385 -2386 0
-2385 2386 0
2387 -2388 0
-2387 2388 0
-2389 2390 2391 2392 2393 2394 0
2389 -2390 0
2389 -2391 0
2389 -2392 0
2389 -2393 0
2389 -2394 0
-2395 2396 2397 2398 2399 1686 0
2395 -2396 0
2395 -2397 0
2395 -2398 0
2395 -2399 0
2395 -1686 0
-2400 2401 2402 2403 2404 2405 0
2400 -2401 0
2400 -2402 0
2400 -2403 0
2400 -2404 0
2400 -2405 0
-2406 2407 2408 2409 2410 2411 0
2406 -2407 0
2406 -2408 0
2406 -2409 0
2406 -2410 0
2406 -2411 0
2412 -1863 0
-2412 1863 0
2413 -2414 0
-2413 2414 0
2415 -1878 0
-2415 1878 0
-2416 2417 2418 2419 2420 2421 0
2416 -2417 0
2416 -2418 0
2416 -2419 0
2416 -2420 0
2416 -2421 0
-2422 1741 2423 2424 2425 2426 0
2422 -1741 0
2422 -2423 0
2422 -2424 0
2422 -2425 0
2422 -2426 0
2427 -1894 0
-2427 1894 0
2428 -2429 0
-2428 2429 0
-2430 2431 1753 2432 2433 2434 2435 0
2430 -2431 0
2430 -1753 0
2430 -2432 0
2430 -2433 0
2430 -2434 0
2430 -2435 0
2436 -2437 0
-2436 2437 0
2438 -2439 0
-2438 2439 0
2440 -2441 0
-2440 2441 0
-2442 2443 2444 2445 2446 2447 0
2442 -2443 0
2442 -2444 0
2442 -2445 0
2442 -2446 0
2442 -2447 0
-2448 2449 2450 2451 2452 2453 0
2448 -2449 0
2448 -2450 0
2448 -2451 0
2448 -2452 0
2448 -2453 0
2454 -2455 0
-2454 2455 0
-2456 2457 1773 2458 2459 2460 0
2456 -2457 0
2456 -1773 0
2456 -2458 0
2456 -2459 0
2456 -2460 0
-2461 2462 2463 2464 2465 1775 0
2461 -2462 0
2461 -2463 0
2461 -2464 0
2461 -2465 0
2461 -1775 0
-2466 2467 2468 2469 2470 2471 0
2466 -2467 0
2466 -2468 0
2466 -2469 0
2466 -2470 0
2466 -2471 0
-2472 2473 2474 2475 2476 2477 0
2472 -2473 0
2472 -2474 0
2472 -2475 0
2472 -2476 0
2472 -2477 0
2478 -2479 0
-2478 2479 0
-2480 2481 2482 2483 2484 2485 2486 0
2480 -2481 0
2480 -2482 0
2480 -2483 0
2480 -2484 0
2480 -2485 0
2480 -2486 0
-2487 2488 1791 2489 2490 2491 0
2487 -2488 0
2487 -1791 0
2487 -2489 0
2487 -2490 0
2487 -2491 0
-2492 2493 2494 2495 2496 2497 1793 0
2492 -2493 0
2492 -2494 0
2492 -2495 0
2492 -2496 0
2492 -2497 0
2492 -1793 0
2498 -2499 0
-2498 2499 0
-2500 1806 2501 2502 2503 2504 2505 0
2500 -1806 0
2500 -2501 0
2500 -2502 0
2500 -2503 0
2500 -2504 0
2500 -2505 0
2506 -2507 0
-2506 2507 0
2508 -2509 0
-2508 2509 0
-2510 2511 2512 2513 2514 2515 0
2510 -2511 0
2510 -2512 0
2510 -2513 0
2510 -2514 0
2510 -2515 0
-2516 2517 2518 1838 2519 2520 0
2516 -2517 0
2516 -2518 0
2516 -1838 0
2516 -2519 0
2516 -2520 0
-2521 2522 2523 2524 2525 2526 0
2521 -2522 0
2521 -2523 0
2521 -2524 0
2521 -2525 0
2521 -2526 0
-2527 2528 2529 2530 2531 2532 0
2527 -2528 0
2527 -2529 0
2527 -2530 0
2527 -2531 0
2527 -2532 0
2533 -2009 0
-2533 2009 0
2534 -2535 0
-2534 2535 0
2536 -2537 0
-2536 2537 0
-2538 2539 2540 2541 2542 2543 0
2538 -2539 0
2538 -2540 0
2538 -2541 0
2538 -2542 0
2538 -2543 0
-2544 2545 2546 1892 2547 2548 0
2544 -2545 0
2544 -2546 0
2544 -1892 0
2544 -2547 0
2544 -2548 0
2549 -2041 0
-2549 2041 0
-2550 2551 2552 1897 2553 2554 0
2550 -2551 0
2550 -2552 0
2550 -1897 0
2550 -2553 0
2550 -2554 0
-2555 2556 2557 2558 1904 2559 2560 0
2555 -2556 0
2555 -2557 0
2555 -2558 0
2555 -1904 0
2555 -2559 0
2555 -2560 0
2561 -2562 0
-2561 2562 0
2563 -2564 0
-2563 2564 0
2565 -2566 0
-2565 2566 0
-2567 2568 2569 2570 2571 2572 0
2567 -2568 0
2567 -2569 0
2567 -2570 0
2567 -2571 0
2567 -2572 0
-2573 2574 2575 2576 1920 2577 0
2573 -2574 0
2573 -2575 0
2573 -2576 0
2573 -1920 0
2573 -2577 0
2578 -2579 0
-2578 2579 0
-2580 1924 2581 2582 2583 2584 0
2580 -1924 0
2580 -2581 0
2580 -2582 0
2580 -2583 0
2580 -2584 0
-2585 2586 2587 2588 1926 2589 0
2585 -2586 0
2585 -2587 0
2585 -2588 0
2585 -1926 0
2585 -2589 0
-2590 2591 2592 2593 2594 2595 0
2590 -2591 0
2590 -2592 0
2590 -2593 0
2590 -2594 0
2590 -2595 0
2596 -2597 0
-2596 2597 0
2598 -2599 0
-2598 2599 0
2600 -2601 0
-2600 2601 0
-2602 2603 2604 1941 2605 2606 0
2602 -2603 0
2602 -2604 0
2602 -1941 0
2602 -2605 0
2602 -2606 0
-2607 2608 2609 1943 2610 2611 2612 0
2607 -2608 0
2607 -2609 0
2607 -1943 0
2607 -2610 0
2607 -2611 0
2607 -2612 0
2613 -2614 0
-2613 2614 0
-2615 2616 2617 1955 2618 2619 2620 0
2615 -2616 0
2615 -2617 0
2615 -1955 0
2615 -2618 0
2615 -2619 0
2615 -2620 0
2621 -34 0
-2621 34 0
2622 -48 0
-2622 48 0
2623 -58 0
-2623 58 0
-2624 2625 2626 2627 2628 2629 2630 2631 0
2624 -2625 0
2624 -2626 0
2624 -2627 0
2624 -2628 0
2624 -2629 0
2624 -2630 0
2624 -2631 0
2632 -2633 0
-2632 2633 0
-2634 2635 2051 2636 2637 2638 2639 0
2634 -2635 0
2634 -2051 0
2634 -2636 0
2634 -2637 0
2634 -2638 0
2634 -2639 0
2640 -150 0
-2640 150 0
-2641 2642 2643 2644 2645 2646 2647 0
2641 -2642 0
2641 -2643 0
2641 -2644 0
2641 -2645 0
2641 -2646 0
2641 -2647 0
2648 -186 0
-2648 186 0
-2649 2650 2651 2652 2653 2654 0
2649 -2650 0
2649 -2651 0
2649 -2652 0
2649 -2653 0
2649 -2654 0
-2655 2656 2657 2658 2659 2055 2660 0
2655 -2656 0
2655 -2657 0
2655 -2658 0
2655 -2659 0
2655 -2055 0
2655 -2660 0
-2661 2046 2662 2663 2664 2665 2666 0
2661 -2046 0
2661 -2662 0
2661 -2663 0
2661 -2664 0
2661 -2665 0
2661 -2666 0
-2667 2668 2669 2670 2671 2672 2673 0
2667 -2668 0
2667 -2669 0
2667 -2670 0
2667 -2671 0
2667 -2672 0
2667 -2673 0
-2674 2675 2676 0
2674 -2675 0
2674 -2676 0
2677 -2678 0
-2677 2678 0
2679 -2680 0
-2679 2680 0
-2681 2682 2683 0
2681 -2682 0
2681 -2683 0
2684 -2685 0
-2684 2685 0
2686 -1565 0
-2686 1565 0
2687 -1582 0
-2687 1582 0
2688 -2689 0
-2688 2689 0
2690 -2691 0
-2690 2691 0
2692 -1602 0
-2692 1602 0
-2693 2694 2695 2696 0
2693 -2694 0
2693 -2695 0
2693 -2696 0
-2697 2698 2699 0
2697 -2698 0
2697 -2699 0
2700 -1650 0
-2700 1650 0
2701 -1657 0
-2701 1657 0
-2702 2703 2704 2705 2706 2707 2708 0
2702 -2703 0
2702 -2704 0
2702 -2705 0
2702 -2706 0
2702 -2707 0
2702 -2708 0
-2709 2710 2711 2712 2713 2714 2715 0
2709 -2710 0
2709 -2711 0
2709 -2712 0
2709 -2713 0
2709 -2714 0
2709 -2715 0
2716 -2717 0
-2716 2717 0
2718 -1714 0
-2718 1714 0
-2719 2720 2721 2722 2723 2724 2725 2726 0
2719 -2720 0
2719 -2721 0
2719 -2722 0
2719 -2723 0
2719 -2724 0
2719 -2725 0
2719 -2726 0
2727 -1738 0
-2727 1738 0
-2728 2729 2730 2731 1591 2732 2733 0
2728 -2729 0
2728 -2730 0
2728 -2731 0
2728 -1591 0
2728 -2732 0
2728 -2733 0
-2734 2735 2736 2737 2738 2739 1600 0
2734 -2735 0
2734 -2736 0
2734 -2737 0
2734 -2738 0
2734 -2739 0
2734 -1600 0
-2740 2741 2742 2743 2744 2745 2746 2747 0
2740 -2741 0
2740 -2742 0
2740 -2743 0
2740 -2744 0
2740 -2745 0
2740 -2746 0
2740 -2747 0
2748 -1785 0
-2748 1785 0
2749 -1801 0
-2749 1801 0
2750 -1804 0
-2750 1804 0
-2751 2752 2753 2754 2755 2756 2757 2758 0
2751 -2752 0
2751 -2753 0
2751 -2754 0
2751 -2755 0
2751 -2756 0
2751 -2757 0
2751 -2758 0
-2759 2760 2761 2762 2763 1660 2764 0
2759 -2760 0
2759 -2761 0
2759 -2762 0
2759 -2763 0
2759 -1660 0
2759 -2764 0
2765 -1816 0
-2765 1816 0
2766 -2767 0
-2766 2767 0
2768 -1865 0
-2768 1865 0
-2769 2770 2771 2772 2773 2774 2775 2776 0
2769 -2770 0
2769 -2771 0
2769 -2772 0
2769 -2773 0
2769 -2774 0
2769 -2775 0
2769 -2776 0
2777 -1889 0
-2777 1889 0
-2778 2779 2780 2781 1748 2782 2783 0
2778 -2779 0
2778 -2780 0
2778 -2781 0
2778 -1748 0
2778 -2782 0
2778 -2783 0
-2784 2785 2786 2787 1757 2788 2789 0
2784 -2785 0
2784 -2786 0
2784 -2787 0
2784 -1757 0
2784 -2788 0
2784 -2789 0
2790 -2791 0
-2790 2791 0
2792 -1936 0
-2792 1936 0
2793 -2794 0
-2793 2794 0
2795 -1953 0
-2795 1953 0
2796 -2797 0
-2796 2797 0
-2798 2799 2800 2801 1812 2802 2803 0
2798 -2799 0
2798 -2800 0
2798 -2801 0
2798 -1812 0
2798 -2802 0
2798 -2803 0
2804 -2805 0
-2804 2805 0
2806 -2807 0
-2806 2807 0
2808 -2012 0
-2808 2012 0
-2809 2810 2811 2812 2813 2814 2815 2816 0
2809 -2810 0
2809 -2811 0
2809 -2812 0
2809 -2813 0
2809 -2814 0
2809 -2815 0
2809 -2816 0
2817 -2036 0
-2817 2036 0
-2818 2819 2820 1899 2821 2822 2823 0
2818 -2819 0
2818 -2820 0
2818 -1899 0
2818 -2821 0
2818 -2822 0
2818 -2823 0
2824 -2825 0
-2824 2825 0
2826 -2827 0
-2826 2827 0
2828 -2082 0
-2828 2082 0
2829 -2095 0
-2829 2095 0
2830 -2098 0
-2830 2098 0
-2831 2832 2833 0
2831 -2832 0
2831 -2833 0
-2834 2835 2836 2837 1959 2838 2839 0
2834 -2835 0
2834 -2836 0
2834 -2837 0
2834 -1959 0
2834 -2838 0
2834 -2839 0
2840 -222 0
-2840 222 0
2841 -228 0
-2841 228 0
-2842 2843 2844 2845 2846 2847 1969 0
2842 -2843 0
2842 -2844 0
2842 -2845 0
2842 -2846 0
2842 -2847 0
2842 -1969 0
2848 -1531 0
-2848 1531 0
2849 -2850 0
-2849 2850 0
2851 -2852 0
-2851 2852 0
2853 -2854 0
-2853 2854 0
2855 -2856 0
-2855 2856 0
-2857 2858 2859 1551 2860 2861 2862 0
2857 -2858 0
2857 -2859 0
2857 -1551 0
2857 -2860 0
2857 -2861 0
2857 -2862 0
-2863 2864 2865 2866 2867 1567 2868 2869 0
2863 -2864 0
2863 -2865 0
2863 -2866 0
2863 -2867 0
2863 -1567 0
2863 -2868 0
2863 -2869 0
-2870 2871 2872 0
2870 -2871 0
2870 -2872 0
-2873 2874 2875 1681 2876 2877 2878 0
2873 -2874 0
2873 -2875 0
2873 -1681 0
2873 -2876 0
2873 -2877 0
2873 -2878 0
-2879 2880 2881 2882 1706 2883 2884 0
2879 -2880 0
2879 -2881 0
2879 -2882 0
2879 -1706 0
2879 -2883 0
2879 -2884 0
-2885 2886 2887 0
2885 -2886 0
2885 -2887 0
-2888 2889 2890 2891 2892 2893 2894 0
2888 -2889 0
2888 -2890 0
2888 -2891 0
2888 -2892 0
2888 -2893 0
2888 -2894 0
-2895 2896 1833 2897 2898 2899 2900 0
2895 -2896 0
2895 -1833 0
2895 -2897 0
2895 -2898 0
2895 -2899 0
2895 -2900 0
-2901 2902 2903 2904 1858 2905 2906 0
2901 -2902 0
2901 -2903 0
2901 -2904 0
2901 -1858 0
2901 -2905 0
2901 -2906 0
-2907 2908 2909 0
2907 -2908 0
2907 -2909 0
-2910 2911 2912 0
2910 -2911 0
2910 -2912 0
-2913 2914 2915 0
2913 -2914 0
2913 -2915 0
2916 -74 0
-2916 74 0
-2917 2918 2919 2920 2921 2922 2923 0
2917 -2918 0
2917 -2919 0
2917 -2920 0
2917 -2921 0
2917 -2922 0
2917 -2923 0
2924 -2925 0
-2924 2925 0
-2926 2927 2928 2929 2930 2931 0
2926 -2927 0
2926 -2928 0
2926 -2929 0
2926 -2930 0
2926 -2931 0
2932 -2933 0
-2932 2933 0
-2934 2935 2936 0
2934 -2935 0
2934 -2936 0
2937 -2938 0
-2937 2938 0
2939 -1673 0
-2939 1673 0
-2940 2941 2942 2943 2944 1523 2945 2946 2947 2948 0
2940 -2941 0
2940 -2942 0
2940 -2943 0
2940 -2944 0
2940 -1523 0
2940 -2945 0
2940 -2946 0
2940 -2947 0
2940 -2948 0
2949 -2950 0
-2949 2950 0
-2951 1543 2952 2953 2954 2955 2956 2957 0
2951 -1543 0
2951 -2952 0
2951 -2953 0
2951 -2954 0
2951 -2955 0
2951 -2956 0
2951 -2957 0
-2958 2959 2960 2961 2962 2963 2964 0
2958 -2959 0
2958 -2960 0
2958 -2961 0
2958 -2962 0
2958 -2963 0
2958 -2964 0
2965 -1824 0
-2965 1824 0
-2966 2967 2968 2969 0
2966 -2967 0
2966 -2968 0
2966 -2969 0
2970 -1828 0
-2970 1828 0
-2971 2972 2973 2974 2975 1693 2976 2977 0
2971 -2972 0
2971 -2973 0
2971 -2974 0
2971 -2975 0
2971 -1693 0
2971 -2976 0
2971 -2977 0
2978 -1946 0
-2978 1946 0
-2979 2980 2981 2982 2983 2984 2985 0
2979 -2980 0
2979 -2981 0
2979 -2982 0
2979 -2983 0
2979 -2984 0
2979 -2985 0
-2986 2987 2988 2989 0
2986 -2987 0
2986 -2988 0
2986 -2989 0
2990 -1974 0
-2990 1974 0
-2991 2992 2993 2994 1845 2995 2996 2997 0
2991 -2992 0
2991 -2993 0
2991 -2994 0
2991 -1845 0
2991 -2995 0
2991 -2996 0
2991 -2997 0
2998 -2999 0
-2998 2999 0
-3000 3001 3002 3003 0
3000 -3001 0
3000 -3002 0
3000 -3003 0
-3004 1961 3005 3006 3007 3008 3009 0
3004 -1961 0
3004 -3005 0
3004 -3006 0
3004 -3007 0
3004 -3008 0
3004 -3009 0
-3010 3011 1989 3012 3013 3014 3015 3016 0
3010 -3011 0
3010 -1989 0
3010 -3012 0
3010 -3013 0
3010 -3014 0
3010 -3015 0
3010 -3016 0
-3017 3018 3019 3020 3021 3022 3023 0
3017 -3018 0
3017 -3019 0
3017 -3020 0
3017 -3021 0
3017 -3022 0
3017 -3023 0
3024 -3025 0
-3024 3025 0
3026 -1561 0
-3026 1561 0
3027 -3028 0
-3027 3028 0
3029 -3030 0
-3029 3030 0
-3031 3032 3033 3034 3035 1541 3036 3037 3038 0
3031 -3032 0
3031 -3033 0
3031 -3034 0
3031 -3035 0
3031 -1541 0
3031 -3036 0
3031 -3037 0
3031 -3038 0
-3039 3040 3041 0
3039 -3040 0
3039 -3041 0
-3042 3043 3044 3045 3046 3047 3048 0
3042 -3043 0
3042 -3044 0
3042 -3045 0
3042 -3046 0
3042 -3047 0
3042 -3048 0
-3049 3050 3051 0
3049 -3050 0
3049 -3051 0
-3052 3053 3054 3055 3056 1691 3057 3058 3059 0
3052 -3053 0
3052 -3054 0
3052 -3055 0
3052 -3056 0
3052 -1691 0
3052 -3057 0
3052 -3058 0
3052 -3059 0
-3060 3061 3062 0
3060 -3061 0
3060 -3062 0
-3063 3064 3065 3066 3067 3068 3069 0
3063 -3064 0
3063 -3065 0
3063 -3066 0
3063 -3067 0
3063 -3068 0
3063 -3069 0
3070 -3071 0
-3070 3071 0
-3072 1843 3073 3074 3075 3076 3077 3078 3079 0
3072 -1843 0
3072 -3073 0
3072 -3074 0
3072 -3075 0
3072 -3076 0
3072 -3077 0
3072 -3078 0
3072 -3079 0
-3080 3081 3082 0
3080 -3081 0
3080 -3082 0
-3083 3084 3085 3086 3087 3088 3089 0
3083 -3084 0
3083 -3085 0
3083 -3086 0
3083 -3087 0
3083 -3088 0
3083 -3089 0
-3090 3091 1887 3092 3093 3094 3095 0
3090 -3091 0
3090 -1887 0
3090 -3092 0
3090 -3093 0
3090 -3094 0
3090 -3095 0
-3096 3097 3098 3099 2033 3100 3101 0
3096 -3097 0
3096 -3098 0
3096 -3099 0
3096 -2033 0
3096 -3100 0
3096 -3101 0
3102 -3103 0
-3102 3103 0
-3104 3105 3106 3107 3108 3109 1512 0
3104 -3105 0
3104 -3106 0
3104 -3107 0
3104 -3108 0
3104 -3109 0
3104 -1512 0
-3110 1662 3111 3112 3113 3114 3115 0
3110 -1662 0
3110 -3111 0
3110 -3112 0
3110 -3113 0
3110 -3114 0
3110 -3115 0
-3116 1814 3117 3118 3119 3120 3121 0
3116 -1814 0
3116 -3117 0
3116 -3118 0
3116 -3119 0
3116 -3120 0
3116 -3121 0
2 -1 0
-2 1 0
3122 -2056 3123 -3124 0
-3122 2056 0
-3122 -3123 0
-3122 3124 0
3125 -1968 3126 3127 -3128 0
-3125 1968 0
-3125 -3126 0
-3125 -3127 0
-3125 3128 0
3129 -2017 3130 -3131 0
-3129 2017 0
-3129 -3130 0
-3129 3131 0
3132 3133 -2090 -3134 3135 0
-3132 -3133 0
-3132 2090 0
-3132 3134 0
-3132 -3135 0
3136 3137 -2060 -3138 0
-3136 -3137 0
-3136 2060 0
-3136 3138 0
3139 -1988 -3140 3141 0
-3139 1988 0
-3139 3140 0
-3139 -3141 0
3142 -3143 3144 3145 -2050 0
-3142 3143 0
-3142 -3144 0
-3142 -3145 0
-3142 2050 0
3146 -2076 -3147 3148 0
-3146 2076 0
-3146 3147 0
-3146 -3148 0
3149 3150 -3151 -2062 3152 0
-3149 -3150 0
-3149 3151 0
-3149 2062 0
-3149 -3152 0
3153 -1956 -3154 3155 3156 0
-3153 1956 0
-3153 3154 0
-3153 -3155 0
-3153 -3156 0
3157 3158 -3159 -1972 3160 0
-3157 -3158 0
-3157 3159 0
-3157 1972 0
-3157 -3160 0
3161 3162 -2054 -3163 3164 0
-3161 -3162 0
-3161 2054 0
-3161 3163 0
-3161 -3164 0
3165 -2085 3166 3167 -3168 0
-3165 2085 0
-3165 -3166 0
-3165 -3167 0
-3165 3168 0
3169 -2073 3170 -3171 0
-3169 2073 0
-3169 -3170 0
-3169 3171 0
3172 -2014 -3173 3174 0
-3172 2014 0
-3172 3173 0
-3172 -3174 0
3175 3176 -3177 -2039 0
-3175 -3176 0
-3175 3177 0
-3175 2039 0
3178 -1984 3179 -3180 3181 0
-3178 1984 0
-3178 -3179 0
-3178 3180 0
-3178 -3181 0
3182 3183 -3184 -1993 3185 0
-3182 -3183 0
-3182 3184 0
-3182 1993 0
-3182 -3185 0
3186 3187 -2034 -3188 3189 0
-3186 -3187 0
-3186 2034 0
-3186 3188 0
-3186 -3189 0
2107 -2106 0
-2107 2106 0
3190 3191 3192 -1977 -3193 0
-3190 -3191 0
-3190 -3192 0
-3190 1977 0
-3190 3193 0
3194 3195 -3196 -1962 0
-3194 -3195 0
-3194 3196 0
-3194 1962 0
3197 3198 -3199 -2078 0
-3197 -3198 0
-3197 3199 0
-3197 2078 0
3200 3201 -2058 -3202 0
-3200 -3201 0
-3200 2058 0
-3200 3202 0
3203 -3204 3205 3206 -2067 0
-3203 3204 0
-3203 -3205 0
-3203 -3206 0
-3203 2067 0
3207 -2008 3208 -3209 0
-3207 2008 0
-3207 -3208 0
-3207 3209 0
3210 3211 3212 -2065 -3213 0
-3210 -3211 0
-3210 -3212 0
-3210 2065 0
-3210 3213 0
3214 -2088 -3215 3216 3217 0
-3214 2088 0
-3214 3215 0
-3214 -3216 0
-3214 -3217 0
3218 3219 -3220 -1966 0
-3218 -3219 0
-3218 3220 0
-3218 1966 0
3221 -2032 3222 -3223 0
-3221 2032 0
-3221 -3222 0
-3221 3223 0
3224 3225 -2097 -3226 0
-3224 -3225 0
-3224 2097 0
-3224 3226 0
3227 -2020 -3228 3229 0
-3227 2020 0
-3227 3228 0
-3227 -3229 0
3230 -3231 0
-3230 3231 0
3232 3233 -3234 -2047 0
-3232 -3233 0
-3232 3234 0
-3232 2047 0
3235 3236 3237 -2024 -3238 0
-3235 -3236 0
-3235 -3237 0
-3235 2024 0
-3235 3238 0
3239 -3240 3241 -2080 3242 0
-3239 3240 0
-3239 -3241 0
-3239 2080 0
-3239 -3242 0
3243 3244 -2037 -3245 3246 0
-3243 -3244 0
-3243 2037 0
-3243 3245 0
-3243 -3246 0
3247 -3248 3249 3250 -1958 0
-3247 3248 0
-3247 -3249 0
-3247 -3250 0
-3247 1958 0
3251 -2011 -3252 3253 0
-3251 2011 0
-3251 3252 0
-3251 -3253 0
3254 3255 -3256 -1975 3257 0
-3254 -3255 0
-3254 3256 0
-3254 1975 0
-3254 -3257 0
3258 3259 -1960 -3260 0
-3258 -3259 0
-3258 1960 0
-3258 3260 0
3261 3262 -1982 -3263 3264 0
-3261 -3262 0
-3261 1982 0
-3261 3263 0
-3261 -3264 0
3265 -2052 3266 -3267 0
-3265 2052 0
-3265 -3266 0
-3265 3267 0
3268 3269 -3270 3271 -2029 0
-3268 -3269 0
-3268 3270 0
-3268 -3271 0
-3268 2029 0
3272 3273 3274 -1979 -3275 0
-3272 -3273 0
-3272 -3274 0
-3272 1979 0
-3272 3275 0
3276 -2100 3277 -3278 0
-3276 2100 0
-3276 -3277 0
-3276 3278 0
3279 -3280 3281 -2092 3282 0
-3279 3280 0
-3279 -3281 0
-3279 2092 0
-3279 -3282 0
3283 -3284 -2026 3285 0
-3283 3284 0
-3283 2026 0
-3283 -3285 0
3286 -1987 3287 -3288 0
-3286 1987 0
-3286 -3287 0
-3286 3288 0
3289 3290 3291 -2045 -3292 0
-3289 -3290 0
-3289 -3291 0
-3289 2045 0
-3289 3292 0
3293 3294 -2071 -3295 3296 0
-3293 -3294 0
-3293 2071 0
-3293 3295 0
-3293 -3296 0
3297 3298 -3299 -2001 0
-3297 -3298 0
-3297 3299 0
-3297 2001 0
3300 -3301 3302 3303 -2003 0
-3300 3301 0
-3300 -3302 0
-3300 -3303 0
-3300 2003 0
3304 3305 -3306 -2083 0
-3304 -3305 0
-3304 3306 0
-3304 2083 0
3307 3308 -3309 -2069 3310 0
-3307 -3308 0
-3307 3309 0
-3307 2069 0
-3307 -3310 0
3311 -1964 3312 3313 -3314 0
-3311 1964 0
-3311 -3312 0
-3311 -3313 0
-3311 3314 0
3315 -2042 3316 -3317 0
-3315 2042 0
-3315 -3316 0
-3315 3317 0
3318 3319 -1970 -3320 3321 0
-3318 -3319 0
-3318 1970 0
-3318 3320 0
-3318 -3321 0
3322 3323 -3324 -2022 0
-3322 -3323 0
-3322 3324 0
-3322 2022 0
3325 3326 -1990 -3327 0
-3325 -3326 0
-3325 1990 0
-3325 3327 0
6 -3328 0
-6 3328 0
7 -3329 0
-7 3329 0
3330 -3331 3225 3226 -2097 0
-3330 3331 0
-3330 -3225 0
-3330 -3226 0
-3330 2097 0
3332 -3333 826 3167 -2085 0
-3332 3333 0
-3332 -826 0
-3332 -3167 0
-3332 2085 0
3334 1005 3249 -3335 -1958 0
-3334 -1005 0
-3334 -3249 0
-3334 3335 0
-3334 1958 0
3336 1217 3144 -3337 -2050 0
-3336 -1217 0
-3336 -3144 0
-3336 3337 0
-3336 2050 0
3338 -2054 788 3164 -3339 0
-3338 2054 0
-3338 -788 0
-3338 -3164 0
-3338 3339 0
3340 -3341 3137 -2060 3138 0
-3340 3341 0
-3340 -3137 0
-3340 2060 0
-3340 -3138 0
3342 -2032 3223 3222 -3343 0
-3342 2032 0
-3342 -3223 0
-3342 -3222 0
-3342 3343 0
3344 3195 -3345 -1962 3196 0
-3344 -3195 0
-3344 3345 0
-3344 1962 0
-3344 -3196 0
3346 -3347 940 3237 -2024 0
-3346 3347 0
-3346 -940 0
-3346 -3237 0
-3346 2024 0
3348 -2073 3171 3170 -3349 0
-3348 2073 0
-3348 -3171 0
-3348 -3170 0
-3348 3349 0
3350 3158 -1972 -3351 1457 0
-3350 -3158 0
-3350 1972 0
-3350 3351 0
-3350 -1457 0
3352 3198 -3353 -2078 3199 0
-3352 -3198 0
-3352 3353 0
-3352 2078 0
-3352 -3199 0
3354 -3355 3123 -2056 3124 0
-3354 3355 0
-3354 -3123 0
-3354 2056 0
-3354 -3124 0
3356 3255 -1975 -3357 1281 0
-3356 -3255 0
-3356 1975 0
-3356 3357 0
-3356 -1281 0
3358 -3359 3287 -1987 3288 0
-3358 3359 0
-3358 -3287 0
-3358 1987 0
-3358 -3288 0
3360 3278 3277 -2100 -3361 0
-3360 -3278 0
-3360 -3277 0
-3360 2100 0
-3360 3361 0
3362 -2042 3317 3316 -3363 0
-3362 2042 0
-3362 -3317 0
-3362 -3316 0
-3362 3363 0
3364 3147 -2076 -3365 3148 0
-3364 -3147 0
-3364 2076 0
-3364 3365 0
-3364 -3148 0
3366 3209 -3367 3208 -2008 0
-3366 -3209 0
-3366 3367 0
-3366 -3208 0
-3366 2008 0
3368 -3369 863 3313 -1964 0
-3368 3369 0
-3368 -863 0
-3368 -3313 0
-3368 1964 0
3370 3140 -1988 -3371 3141 0
-3370 -3140 0
-3370 1988 0
-3370 3371 0
-3370 -3141 0
3372 3284 -2026 -3373 3285 0
-3372 -3284 0
-3372 2026 0
-3372 3373 0
-3372 -3285 0
3374 -2020 3229 -3375 3228 0
-3374 2020 0
-3374 -3229 0
-3374 3375 0
-3374 -3228 0
3376 3262 -3377 964 -1982 0
-3376 -3262 0
-3376 3377 0
-3376 -964 0
-3376 1982 0
3378 952 3205 -3379 -2067 0
-3378 -952 0
-3378 -3205 0
-3378 3379 0
-3378 2067 0
3380 3294 -2071 -3381 776 0
-3380 -3294 0
-3380 2071 0
-3380 3381 0
-3380 -776 0
3382 3319 -1970 -3383 715 0
-3382 -3319 0
-3382 1970 0
-3382 3383 0
-3382 -715 0
3384 -2029 1162 3271 -3385 0
-3384 2029 0
-3384 -1162 0
-3384 -3271 0
-3384 3385 0
3386 3176 -3387 -2039 3177 0
-3386 -3176 0
-3386 3387 0
-3386 2039 0
-3386 -3177 0
3388 -3389 891 3274 -1979 0
-3388 3389 0
-3388 -891 0
-3388 -3274 0
-3388 1979 0
3390 -3391 0
-3390 3391 0
3392 3183 -1993 -3393 1122 0
-3392 -3183 0
-3392 1993 0
-3392 3393 0
-3392 -1122 0
3394 3298 -3395 -2001 3299 0
-3394 -3298 0
-3394 3395 0
-3394 2001 0
-3394 -3299 0
3396 -2090 976 3135 -3397 0
-3396 2090 0
-3396 -976 0
-3396 -3135 0
-3396 3397 0
3398 -3399 1467 3212 -2065 0
-3398 3399 0
-3398 -1467 0
-3398 -3212 0
-3398 2065 0
3400 -2052 3267 3266 -3401 0
-3400 2052 0
-3400 -3267 0
-3400 -3266 0
-3400 3401 0
3402 3323 -3403 -2022 3324 0
-3402 -3323 0
-3402 3403 0
-3402 2022 0
-3402 -3324 0
3404 -3405 1416 -1968 3127 0
-3404 3405 0
-3404 -1416 0
-3404 1968 0
-3404 -3127 0
3406 703 3302 -3407 -2003 0
-3406 -703 0
-3406 -3302 0
-3406 3407 0
-3406 2003 0
3408 3233 -3409 -2047 3234 0
-3408 -3233 0
-3408 3409 0
-3408 2047 0
-3408 -3234 0
3410 3306 3305 -2083 -3411 0
-3410 -3306 0
-3410 -3305 0
-3410 2083 0
-3410 3411 0
3412 -2011 3253 -3413 3252 0
-3412 2011 0
-3412 -3253 0
-3412 3413 0
-3412 -3252 0
3414 3260 -3415 3259 -1960 0
-3414 -3260 0
-3414 3415 0
-3414 -3259 0
-3414 1960 0
3416 3150 -2062 -3417 1085 0
-3416 -3150 0
-3416 2062 0
-3416 3417 0
-3416 -1085 0
3418 -3419 3327 -1990 3326 0
-3418 3419 0
-3418 -3327 0
-3418 1990 0
-3418 -3326 0
3420 -3421 0
-3420 3421 0
3422 -1956 1020 3155 -3423 0
-3422 1956 0
-3422 -1020 0
-3422 -3155 0
-3422 3423 0
3424 3219 -3425 -1966 3220 0
-3424 -3219 0
-3424 3425 0
-3424 1966 0
-3424 -3220 0
3426 903 -2088 3216 -3427 0
-3426 -903 0
-3426 2088 0
-3426 -3216 0
-3426 3427 0
3428 -3429 1442 3291 -2045 0
-3428 3429 0
-3428 -1442 0
-3428 -3291 0
-3428 2045 0
3430 3244 -2037 -3431 750 0
-3430 -3244 0
-3430 2037 0
-3430 3431 0
-3430 -750 0
3432 -2014 3173 -3433 3174 0
-3432 2014 0
-3432 -3173 0
-3432 3433 0
-3432 -3174 0
3434 -3435 1320 3192 -1977 0
-3434 3435 0
-3434 -1320 0
-3434 -3192 0
-3434 1977 0
3436 1356 3282 -3437 -2092 0
-3436 -1356 0
-3436 -3282 0
-3436 3437 0
-3436 2092 0
2119 -2118 0
-2119 2118 0
3438 -3439 3130 -2017 3131 0
-3438 3439 0
-3438 -3130 0
-3438 2017 0
-3438 -3131 0
3440 3187 -2034 -3441 1036 0
-3440 -3187 0
-3440 2034 0
-3440 3441 0
-3440 -1036 0
3442 1196 3241 -3443 -2080 0
-3442 -1196 0
-3442 -3241 0
-3442 3443 0
-3442 2080 0
3444 -3445 3201 -2058 3202 0
-3444 3445 0
-3444 -3201 0
-3444 2058 0
-3444 -3202 0
3446 3308 -3447 1255 -2069 0
-3446 -3308 0
-3446 3447 0
-3446 -1255 0
-3446 2069 0
12 -3448 0
-12 3448 0
11 -5 0
-11 5 0
3449 -3450 791 -2054 3164 0
-3449 3450 0
-3449 -791 0
-3449 2054 0
-3449 -3164 0
3451 3176 -2039 -3452 1368 0
-3451 -3176 0
-3451 2039 0
-3451 3452 0
-3451 -1368 0
3453 943 -3454 3237 -2024 0
-3453 -943 0
-3453 3454 0
-3453 -3237 0
-3453 2024 0
3455 1322 -3456 3192 -1977 0
-3455 -1322 0
-3455 3456 0
-3455 -3192 0
-3455 1977 0
3457 -3458 1023 -1956 3155 0
-3457 3458 0
-3457 -1023 0
-3457 1956 0
-3457 -3155 0
3459 3158 -1972 1459 -3460 0
-3459 -3158 0
-3459 1972 0
-3459 -1459 0
-3459 3460 0
3461 1097 -2026 3285 -3462 0
-3461 -1097 0
-3461 2026 0
-3461 -3285 0
-3461 3462 0
3463 3294 -2071 779 -3464 0
-3463 -3294 0
-3463 2071 0
-3463 -779 0
-3463 3464 0
3465 3255 -1975 1284 -3466 0
-3465 -3255 0
-3465 1975 0
-3465 -1284 0
-3465 3466 0
3467 3298 -3468 1429 -2001 0
-3467 -3298 0
-3467 3468 0
-3467 -1429 0
-3467 2001 0
3469 1177 -1987 3287 -3470 0
-3469 -1177 0
-3469 1987 0
-3469 -3287 0
-3469 3470 0
3471 894 -3472 3274 -1979 0
-3471 -894 0
-3471 3472 0
-3471 -3274 0
-3471 1979 0
3473 3474 -2094 -3475 1405 0
-3473 -3474 0
-3473 2094 0
-3473 3475 0
-3473 -1405 0
3476 3187 -2034 1039 -3477 0
-3476 -3187 0
-3476 2034 0
-3476 -1039 0
-3476 3477 0
3478 1149 3259 -3479 -1960 0
-3478 -1149 0
-3478 -3259 0
-3478 3479 0
-3478 1960 0
3480 1297 3201 -3481 -2058 0
-3480 -1297 0
-3480 -3201 0
-3480 3481 0
-3480 2058 0
3482 -2011 1345 3253 -3483 0
-3482 2011 0
-3482 -1345 0
-3482 -3253 0
-3482 3483 0
3484 3262 -1982 967 -3485 0
-3484 -3262 0
-3484 1982 0
-3484 -967 0
-3484 3485 0
3486 1054 3326 -3487 -1990 0
-3486 -1054 0
-3486 -3326 0
-3486 3487 0
-3486 1990 0
3488 3198 -2078 -3489 1066 0
-3488 -3198 0
-3488 2078 0
-3488 3489 0
-3488 -1066 0
3490 -2032 -3491 1109 3222 0
-3490 2032 0
-3490 3491 0
-3490 -1109 0
-3490 -3222 0
3492 3183 -1993 1125 -3493 0
-3492 -3183 0
-3492 1993 0
-3492 -1125 0
-3492 3493 0
3494 873 -2017 3130 -3495 0
-3494 -873 0
-3494 2017 0
-3494 -3130 0
-3494 3495 0
3496 803 3137 -3497 -2060 0
-3496 -803 0
-3496 -3137 0
-3496 3497 0
-3496 2060 0
3498 -2014 918 3174 -3499 0
-3498 2014 0
-3498 -918 0
-3498 -3174 0
-3498 3499 0
3500 3150 1088 -2062 -3501 0
-3500 -3150 0
-3500 -1088 0
-3500 2062 0
-3500 3501 0
3502 986 3225 -3503 -2097 0
-3502 -986 0
-3502 -3225 0
-3502 3503 0
-3502 2097 0
3504 3319 -1970 718 -3505 0
-3504 -3319 0
-3504 1970 0
-3504 -718 0
-3504 3505 0
3506 3233 -2047 -3507 1309 0
-3506 -3233 0
-3506 2047 0
-3506 3507 0
-3506 -1309 0
3508 -2020 762 3229 -3509 0
-3508 2020 0
-3508 -762 0
-3508 -3229 0
-3508 3509 0
3510 -1988 1267 3141 -3511 0
-3510 1988 0
-3510 -1267 0
-3510 -3141 0
-3510 3511 0
3512 -3513 0
-3512 3513 0
3514 3282 -2092 -3515 1359 0
-3514 -3282 0
-3514 2092 0
-3514 3515 0
-3514 -1359 0
3516 3308 1258 -2069 -3517 0
-3516 -3308 0
-3516 -1258 0
-3516 2069 0
-3516 3517 0
3518 3244 -2037 753 -3519 0
-3518 -3244 0
-3518 2037 0
-3518 -753 0
-3518 3519 0
3520 865 -3521 3313 -1964 0
-3520 -865 0
-3520 3521 0
-3520 -3313 0
-3520 1964 0
3522 -2080 3241 -3523 1199 0
-3522 2080 0
-3522 -3241 0
-3522 3523 0
-3522 -1199 0
3524 -3525 1137 3170 -2073 0
-3524 3525 0
-3524 -1137 0
-3524 -3170 0
-3524 2073 0
3526 838 3208 -3527 -2008 0
-3526 -838 0
-3526 -3208 0
-3526 3527 0
-3526 2008 0
3528 3195 -1962 -3529 813 0
-3528 -3195 0
-3528 1962 0
-3528 3529 0
-3528 -813 0
3530 1445 -3531 3291 -2045 0
-3530 -1445 0
-3530 3531 0
-3530 -3291 0
-3530 2045 0
3532 -3533 1242 3277 -2100 0
-3532 3533 0
-3532 -1242 0
-3532 -3277 0
-3532 2100 0
3534 3205 -3535 955 -2067 0
-3534 -3205 0
-3534 3535 0
-3534 -955 0
-3534 2067 0
3536 829 -3537 3167 -2085 0
-3536 -829 0
-3536 3537 0
-3536 -3167 0
-3536 2085 0
3538 -2088 3216 -3539 906 0
-3538 2088 0
-3538 -3216 0
-3538 3539 0
-3538 -906 0
3540 -2052 -3541 1390 3266 0
-3540 2052 0
-3540 3541 0
-3540 -1390 0
-3540 -3266 0
3542 3249 -1958 -3543 1008 0
-3542 -3249 0
-3542 1958 0
-3542 3543 0
-3542 -1008 0
3544 1479 -2056 3123 -3545 0
-3544 -1479 0
-3544 2056 0
-3544 -3123 0
-3544 3545 0
3546 -2076 1378 3148 -3547 0
-3546 2076 0
-3546 -1378 0
-3546 -3148 0
-3546 3547 0
3548 3144 -3549 1220 -2050 0
-3548 -3144 0
-3548 3549 0
-3548 -1220 0
-3548 2050 0
3550 3302 -2003 -3551 706 0
-3550 -3302 0
-3550 2003 0
-3550 3551 0
-3550 -706 0
3552 -3553 738 3305 -2083 0
-3552 3553 0
-3552 -738 0
-3552 -3305 0
-3552 2083 0
3554 3323 -2022 -3555 1333 0
-3554 -3323 0
-3554 2022 0
-3554 3555 0
-3554 -1333 0
3556 -3557 1165 3271 -2029 0
-3556 3557 0
-3556 -1165 0
-3556 -3271 0
-3556 2029 0
3558 -3559 0
-3558 3559 0
3560 1419 -1968 -3561 3127 0
-3560 -1419 0
-3560 1968 0
-3560 3561 0
-3560 -3127 0
3562 3219 -1966 -3563 848 0
-3562 -3219 0
-3562 1966 0
-3562 3563 0
-3562 -848 0
3564 -3565 978 -2090 3135 0
-3564 3565 0
-3564 -978 0
-3564 2090 0
-3564 -3135 0
3566 1470 -3567 3212 -2065 0
-3566 -1470 0
-3566 3567 0
-3566 -3212 0
-3566 2065 0
1808 -1807 0
-1808 1807 0
16 -3568 0
-16 3568 0
17 -10 0
-17 10 0
3569 1393 -3570 3266 -2052 0
-3569 -1393 0
-3569 3570 0
-3569 -3266 0
-3569 2052 0
3571 -3572 1261 -2069 3308 0
-3571 3572 0
-3571 -1261 0
-3571 2069 0
-3571 -3308 0
3573 -2045 3291 -3574 1448 0
-3573 2045 0
-3573 -3291 0
-3573 3574 0
-3573 -1448 0
3575 3319 -3576 721 -1970 0
-3575 -3319 0
-3575 3576 0
-3575 -721 0
-3575 1970 0
3577 -2024 3237 -3578 946 0
-3577 2024 0
-3577 -3237 0
-3577 3578 0
-3577 -946 0
3579 3323 -2022 1336 -3580 0
-3579 -3323 0
-3579 2022 0
-3579 -1336 0
-3579 3580 0
3581 -2017 3130 -3582 876 0
-3581 2017 0
-3581 -3130 0
-3581 3582 0
-3581 -876 0
3583 3158 -3584 1461 -1972 0
-3583 -3158 0
-3583 3584 0
-3583 -1461 0
-3583 1972 0
3585 3474 -2094 1407 -3586 0
-3585 -3474 0
-3585 2094 0
-3585 -1407 0
-3585 3586 0
3587 -3588 1100 -2026 3285 0
-3587 3588 0
-3587 -1100 0
-3587 2026 0
-3587 -3285 0
3589 3255 -3590 1287 -1975 0
-3589 -3255 0
-3589 3590 0
-3589 -1287 0
-3589 1975 0
3591 3201 -2058 -3592 1300 0
-3591 -3201 0
-3591 2058 0
-3591 3592 0
-3591 -1300 0
3593 3313 -3594 867 -1964 0
-3593 -3313 0
-3593 3594 0
-3593 -867 0
-3593 1964 0
3595 3259 -3596 1152 -1960 0
-3595 -3259 0
-3595 3596 0
-3595 -1152 0
-3595 1960 0
3597 -3598 0
-3597 3598 0
3599 1140 -2073 -3600 3170 0
-3599 -1140 0
-3599 2073 0
-3599 3600 0
-3599 -3170 0
3601 3208 -3602 841 -2008 0
-3601 -3208 0
-3601 3602 0
-3601 -841 0
-3601 2008 0
3603 -1987 3287 -3604 1180 0
-3603 1987 0
-3603 -3287 0
-3603 3604 0
-3603 -1180 0
2113 -2112 0
-2113 2112 0
3605 1245 -3606 3277 -2100 0
-3605 -1245 0
-3605 3606 0
-3605 -3277 0
-3605 2100 0
3607 3198 -2078 1069 -3608 0
-3607 -3198 0
-3607 2078 0
-3607 -1069 0
-3607 3608 0
3609 3183 -3610 1128 -1993 0
-3609 -3183 0
-3609 3610 0
-3609 -1128 0
-3609 1993 0
3611 -3612 1381 -2076 3148 0
-3611 3612 0
-3611 -1381 0
-3611 2076 0
-3611 -3148 0
3613 -3614 -1979 897 3274 0
-3613 3614 0
-3613 1979 0
-3613 -897 0
-3613 -3274 0
3615 -1968 3127 -3616 1422 0
-3615 1968 0
-3615 -3127 0
-3615 3616 0
-3615 -1422 0
3617 3302 709 -2003 -3618 0
-3617 -3302 0
-3617 -709 0
-3617 2003 0
-3617 3618 0
3619 3195 816 -1962 -3620 0
-3619 -3195 0
-3619 -816 0
-3619 1962 0
-3619 3620 0
3621 -2011 -3622 1347 3253 0
-3621 2011 0
-3621 3622 0
-3621 -1347 0
-3621 -3253 0
3623 -2088 3216 909 -3624 0
-3623 2088 0
-3623 -3216 0
-3623 -909 0
-3623 3624 0
3625 -3626 921 -2014 3174 0
-3625 3626 0
-3625 -921 0
-3625 2014 0
-3625 -3174 0
3627 3137 -2060 -3628 805 0
-3627 -3137 0
-3627 2060 0
-3627 3628 0
-3627 -805 0
3629 3241 1202 -2080 -3630 0
-3629 -3241 0
-3629 -1202 0
-3629 2080 0
-3629 3630 0
3631 980 -2090 -3632 3135 0
-3631 -980 0
-3631 2090 0
-3631 3632 0
-3631 -3135 0
3633 3192 -3634 1324 -1977 0
-3633 -3192 0
-3633 3634 0
-3633 -1324 0
-3633 1977 0
3635 -3636 765 -2020 3229 0
-3635 3636 0
-3635 -765 0
-3635 2020 0
-3635 -3229 0
3637 -1988 -3638 1270 3141 0
-3637 1988 0
-3637 3638 0
-3637 -1270 0
-3637 -3141 0
3639 -3640 3262 970 -1982 0
-3639 3640 0
-3639 -3262 0
-3639 -970 0
-3639 1982 0
3641 3167 -3642 832 -2085 0
-3641 -3167 0
-3641 3642 0
-3641 -832 0
-3641 2085 0
3643 3249 1011 -1958 -3644 0
-3643 -3249 0
-3643 -1011 0
-3643 1958 0
-3643 3644 0
3645 1168 -3646 3271 -2029 0
-3645 -1168 0
-3645 3646 0
-3645 -3271 0
-3645 2029 0
3647 3144 1223 -2050 -3648 0
-3647 -3144 0
-3647 -1223 0
-3647 2050 0
-3647 3648 0
3649 -3650 0
-3649 3650 0
3651 3298 1432 -2001 -3652 0
-3651 -3298 0
-3651 -1432 0
-3651 2001 0
-3651 3652 0
3653 -2056 3123 -3654 1482 0
-3653 2056 0
-3653 -3123 0
-3653 3654 0
-3653 -1482 0
3655 3282 1362 -2092 -3656 0
-3655 -3282 0
-3655 -1362 0
-3655 2092 0
-3655 3656 0
3657 1026 -3658 -1956 3155 0
-3657 -1026 0
-3657 3658 0
-3657 1956 0
-3657 -3155 0
3659 3176 -2039 1371 -3660 0
-3659 -3176 0
-3659 2039 0
-3659 -1371 0
-3659 3660 0
3661 3187 -3662 1042 -2034 0
-3661 -3187 0
-3661 3662 0
-3661 -1042 0
-3661 2034 0
3663 3233 1311 -2047 -3664 0
-3663 -3233 0
-3663 -1311 0
-3663 2047 0
-3663 3664 0
3665 3294 -3666 782 -2071 0
-3665 -3294 0
-3665 3666 0
-3665 -782 0
-3665 2071 0
3667 3225 -2097 -3668 989 0
-3667 -3225 0
-3667 2097 0
-3667 3668 0
-3667 -989 0
3669 3326 -1990 -3670 1057 0
-3669 -3326 0
-3669 1990 0
-3669 3670 0
-3669 -1057 0
3671 741 -3672 3305 -2083 0
-3671 -741 0
-3671 3672 0
-3671 -3305 0
-3671 2083 0
3673 3205 958 -3674 -2067 0
-3673 -3205 0
-3673 -958 0
-3673 3674 0
-3673 2067 0
3675 -2065 3212 -3676 1473 0
-3675 2065 0
-3675 -3212 0
-3675 3676 0
-3675 -1473 0
3677 1112 -3678 3222 -2032 0
-3677 -1112 0
-3677 3678 0
-3677 -3222 0
-3677 2032 0
3679 3219 851 -1966 -3680 0
-3679 -3219 0
-3679 -851 0
-3679 1966 0
-3679 3680 0
3681 794 -2054 -3682 3164 0
-3681 -794 0
-3681 2054 0
-3681 3682 0
-3681 -3164 0
3683 -3684 1091 -2062 3150 0
-3683 3684 0
-3683 -1091 0
-3683 2062 0
-3683 -3150 0
3685 -3686 -2037 756 3244 0
-3685 3686 0
-3685 2037 0
-3685 -756 0
-3685 -3244 0
21 -3687 0
-21 3687 0
22 -15 0
-22 15 0
3688 -2003 0
-3688 2003 0
3689 688 -3690 3691 -18 0
-3689 -688 0
-3689 3690 0
-3689 -3691 0
-3689 18 0
3692 -3693 562 -13 3694 0
-3692 3693 0
-3692 -562 0
-3692 13 0
-3692 -3694 0
3695 -3696 -3 295 3697 0
-3695 3696 0
-3695 3 0
-3695 -295 0
-3695 -3697 0
3698 3699 435 -8 -3700 0
-3698 -3699 0
-3698 -435 0
-3698 8 0
-3698 3700 0
26 -20 0
-26 20 0
27 -3701 0
-27 3701 0
3702 1277 -154 3141 -3703 0
-3702 -1277 0
-3702 154 0
-3702 -3141 0
-3702 3703 0
3704 -3000 0
-3704 3000 0
3705 -3706 0
-3705 3706 0
3707 -3708 0
-3707 3708 0
33 -3709 0
-33 3709 0
34 -2621 0
-34 2621 0
31 -30 0
-31 30 0
36 -3710 0
-36 3710 0
38 -2831 0
-38 2831 0
39 -3711 0
-39 3711 0
3712 -3713 0
-3712 3713 0
3714 -35 0
-3714 35 0
43 1290 -3715 -246 3255 0
-43 -1290 0
-43 3715 0
-43 246 0
-43 -3255 0
44 -2120 0
-44 2120 0
46 -3716 0
-46 3716 0
41 -40 0
-41 40 0
48 -2622 0
-48 2622 0
49 -3717 0
-49 3717 0
3718 -45 0
-3718 45 0
3719 -3720 0
-3719 3720 0
53 -2121 0
-53 2121 0
54 -279 3155 -3721 1029 0
-54 279 0
-54 -3155 0
-54 3721 0
-54 -1029 0
3722 -3723 0
-3722 3723 0
51 -50 0
-51 50 0
58 -2623 0
-58 2623 0
59 -3724 0
-59 3724 0
56 -55 0
-56 55 0
61 -3725 0
-61 3725 0
63 -3726 0
-63 3726 0
64 -2624 0
-64 2624 0
66 -3727 0
-66 3727 0
67 -60 0
-67 60 0
69 -3728 0
-69 3728 0
70 -2913 0
-70 2913 0
3729 -3730 0
-3729 3730 0
3731 -65 0
-3731 65 0
74 -2916 0
-74 2916 0
75 3319 -28 -3732 727 0
-75 -3319 0
-75 28 0
-75 3732 0
-75 -727 0
72 -71 0
-72 71 0
77 -3733 0
-77 3733 0
79 924 -3734 -68 3174 0
-79 -924 0
-79 3734 0
-79 68 0
-79 -3174 0
80 -2122 0
-80 2122 0
3735 -76 0
-3735 76 0
3736 -3737 0
-3736 3737 0
84 -2123 0
-84 2123 0
85 3198 -3738 1072 -93 0
-85 -3198 0
-85 3738 0
-85 -1072 0
-85 93 0
82 -81 0
-82 81 0
87 -3739 0
-87 3739 0
89 -68 -3740 927 3174 0
-89 68 0
-89 3740 0
-89 -927 0
-89 -3174 0
90 -2124 0
-90 2124 0
3741 -3742 0
-3741 3742 0
3743 -86 0
-3743 86 0
3744 3291 1451 -283 -3745 0
-3744 -3291 0
-3744 -1451 0
-3744 283 0
-3744 3745 0
2633 -2632 0
-2633 2632 0
92 -91 0
-92 91 0
3746 -3747 0
-3746 3747 0
98 -2125 0
-98 2125 0
99 -3748 1205 3241 -149 0
-99 3748 0
-99 -1205 0
-99 -3241 0
-99 149 0
96 -95 0
-96 95 0
3749 -3750 0
-3749 3750 0
103 -3751 0
-103 3751 0
104 -2126 0
-104 2126 0
101 -100 0
-101 100 0
3752 -3753 0
-3752 3753 0
108 -3754 0
-108 3754 0
109 -3096 0
-109 3096 0
3755 -3756 0
-3755 3756 0
106 -105 0
-106 105 0
113 -2132 0
-113 2132 0
114 -3757 0
-114 3757 0
3758 -3759 0
-3758 3759 0
111 -110 0
-111 110 0
118 -3004 0
-118 3004 0
119 -3760 0
-119 3760 0
3761 -3762 0
-3761 3762 0
116 -115 0
-116 115 0
124 3699 361 -8 -3763 0
-124 -3699 0
-124 -361 0
-124 8 0
-124 3763 0
125 -3764 0
-125 3764 0
126 -3765 487 -13 3694 0
-126 3765 0
-126 -487 0
-126 13 0
-126 -3694 0
127 -3766 0
-127 3766 0
128 -3767 0
-128 3767 0
129 3241 -2640 -3242 0
-129 -3241 0
-129 2640 0
-129 3242 0
130 614 -3768 3691 -18 0
-130 -614 0
-130 3768 0
-130 -3691 0
-130 18 0
131 -1987 0
-131 1987 0
123 -3 3697 -3762 115 0
-123 3 0
-123 -3697 0
-123 3762 0
-123 -115 0
121 -120 0
-121 120 0
3769 -3770 0
-3769 3770 0
135 -3771 0
-135 3771 0
136 -2834 0
-136 2834 0
3772 -3773 0
-3772 3773 0
133 -132 0
-133 132 0
141 -3774 0
-141 3774 0
140 -2634 0
-140 2634 0
143 -3775 0
-143 3775 0
138 -137 0
-138 137 0
145 -2138 0
-145 2138 0
146 -3776 0
-146 3776 0
3777 -3778 0
-3777 3778 0
3779 -142 0
-3779 142 0
151 -3780 0
-151 3780 0
150 -2640 0
-150 2640 0
148 -147 0
-148 147 0
153 -3781 0
-153 3781 0
3782 -3783 0
-3782 3783 0
3784 -3010 0
-3784 3010 0
3785 -3786 0
-3785 3786 0
3787 -152 0
-3787 152 0
160 3255 -3788 1293 -246 0
-160 -3255 0
-160 3788 0
-160 -1293 0
-160 246 0
159 -2144 0
-159 2144 0
3789 -3790 0
-3789 3790 0
157 -156 0
-157 156 0
164 -2145 0
-164 2145 0
165 -3791 1226 3144 -139 0
-165 3791 0
-165 -1226 0
-165 -3144 0
-165 139 0
167 -3792 0
-167 3792 0
162 -161 0
-162 161 0
170 -3793 0
-170 3793 0
169 -2151 0
-169 2151 0
172 -166 0
-172 166 0
173 -3794 0
-173 3794 0
175 1463 3158 -3795 -292 0
-175 -1463 0
-175 -3158 0
-175 3795 0
-175 292 0
176 -2641 0
-176 2641 0
178 -171 0
-178 171 0
179 -3796 0
-179 3796 0
182 -205 -3797 912 3216 0
-182 205 0
-182 3797 0
-182 -912 0
-182 -3216 0
181 -2157 0
-181 2157 0
3798 -3799 0
-3798 3799 0
3800 -177 0
-3800 177 0
186 -2648 0
-186 2648 0
187 -3801 0
-187 3801 0
3802 -3803 0
-3802 3803 0
184 -183 0
-184 183 0
192 -3804 1488 3123 -260 0
-192 3804 0
-192 -1488 0
-192 -3123 0
-192 260 0
191 -2158 0
-191 2158 0
194 -3805 0
-194 3805 0
189 -188 0
-189 188 0
196 -2159 0
-196 2159 0
197 -3806 0
-197 3806 0
3807 -193 0
-3807 193 0
3808 -3809 0
-3808 3809 0
202 3187 -297 -3810 1048 0
-202 -3187 0
-202 297 0
-202 3810 0
-202 -1048 0
201 -2164 0
-201 2164 0
199 -198 0
-199 198 0
3811 -3812 0
-3811 3812 0
3813 -3814 0
-3813 3814 0
3815 -2166 0
-3815 2166 0
208 -3816 0
-208 3816 0
204 -203 0
-204 203 0
211 -2917 0
-211 2917 0
210 -3817 0
-210 3817 0
3818 -3819 0
-3818 3819 0
3820 -207 0
-3820 207 0
213 -212 0
-213 212 0
215 -3821 0
-215 3821 0
217 -2172 0
-217 2172 0
218 3219 -3822 854 -57 0
-218 -3219 0
-218 3822 0
-218 -854 0
-218 57 0
3823 -3824 0
-3823 3824 0
3825 -214 0
-3825 214 0
222 -2840 0
-222 2840 0
223 -314 3127 1425 -3826 0
-223 314 0
-223 -3127 0
-223 -1425 0
-223 3826 0
3827 -3828 0
-3827 3828 0
220 -219 0
-220 219 0
227 -3829 0
-227 3829 0
228 -2841 0
-228 2841 0
225 -224 0
-225 224 0
3830 -3831 0
-3830 3831 0
232 -2649 0
-232 2649 0
233 -3832 0
-233 3832 0
3833 -3834 0
-3833 3834 0
230 -229 0
-230 229 0
237 -3835 0
-237 3835 0
238 -2173 0
-238 2173 0
240 -3836 0
-240 3836 0
235 -234 0
-235 234 0
242 -3837 0
-242 3837 0
243 -3017 0
-243 3017 0
3838 -3839 0
-3838 3839 0
3840 -239 0
-3840 239 0
2179 -2178 0
-2179 2178 0
3841 1273 -3842 -154 3141 0
-3841 -1273 0
-3841 3842 0
-3841 154 0
-3841 -3141 0
245 -244 0
-245 244 0
3843 -3844 0
-3843 3844 0
251 -3845 0
-251 3845 0
252 -2180 0
-252 2180 0
3846 -3847 0
-3846 3847 0
249 -248 0
-249 248 0
256 -37 3229 -3848 770 0
-256 37 0
-256 -3229 0
-256 3848 0
-256 -770 0
257 -2655 0
-257 2655 0
3849 -3850 0
-3849 3850 0
254 -253 0
-254 253 0
2186 -2185 0
-2186 2185 0
3851 -287 3192 1327 -3852 0
-3851 287 0
-3851 -3192 0
-3851 -1327 0
-3851 3852 0
3853 -3854 0
-3853 3854 0
259 -258 0
-259 258 0
265 -2187 0
-265 2187 0
266 1349 -3855 3253 -185 0
-266 -1349 0
-266 3855 0
-266 -3253 0
-266 185 0
263 -262 0
-263 262 0
3856 -3857 0
-3856 3857 0
270 -3858 0
-270 3858 0
271 -2188 0
-271 2188 0
268 -267 0
-268 267 0
273 -3859 0
-273 3859 0
275 -2194 0
-275 2194 0
276 -279 1032 3155 -3860 0
-276 279 0
-276 -1032 0
-276 -3155 0
-276 3860 0
3861 -272 0
-3861 272 0
3862 -3863 0
-3862 3863 0
2201 -2200 0
-2201 2200 0
3864 -3865 0
-3864 3865 0
3866 -3867 0
-3866 3867 0
278 -277 0
-278 277 0
3868 -3869 0
-3868 3869 0
3870 -2661 0
-3870 2661 0
286 -3871 0
-286 3871 0
282 -281 0
-282 281 0
288 -2202 0
-288 2202 0
289 -3872 0
-289 3872 0
3873 -285 0
-3873 285 0
3874 -3875 0
-3874 3875 0
293 3135 -226 -3876 982 0
-293 -3135 0
-293 226 0
-293 3876 0
-293 -982 0
294 -2667 0
-294 2667 0
291 -290 0
-291 290 0
296 -3877 0
-296 3877 0
298 -3878 0
-298 3878 0
299 -2203 0
-299 2203 0
3879 -3696 0
-3879 3696 0
3880 -295 0
-3880 295 0
301 -300 0
-301 300 0
303 -3881 0
-303 3881 0
306 1412 -3882 -231 3474 0
-306 -1412 0
-306 3882 0
-306 231 0
-306 -3474 0
305 -2204 0
-305 2204 0
3883 -3884 0
-3883 3884 0
3885 -302 0
-3885 302 0
310 -3886 0
-310 3886 0
311 -2209 0
-311 2209 0
308 -307 0
-308 307 0
3887 -3888 0
-3887 3888 0
316 -2842 0
-316 2842 0
315 -3889 0
-315 3889 0
313 -312 0
-313 312 0
318 -3890 0
-318 3890 0
320 -2214 0
-320 2214 0
321 -32 3305 -3891 743 0
-321 32 0
-321 -3305 0
-321 3891 0
-321 -743 0
323 -317 0
-323 317 0
324 -3892 0
-324 3892 0
3893 -3894 -18 698 3691 0
-3893 3894 0
-3893 18 0
-3893 -698 0
-3893 -3691 0
3895 -3896 0
-3895 3896 0
3897 -3898 445 3699 -8 0
-3897 3898 0
-3897 -445 0
-3897 -3699 0
-3897 8 0
3899 572 -3900 -13 3694 0
-3899 -572 0
-3899 3900 0
-3899 13 0
-3899 -3694 0
3901 -3902 0
-3901 3902 0
3903 -3904 0
-3903 3904 0
326 -325 0
-326 325 0
328 -3905 0
-328 3905 0
3906 -3907 0
-3906 3907 0
3908 -327 0
-3908 327 0
330 -329 0
-330 329 0
332 -3909 0
-332 3909 0
3910 -3911 0
-3910 3911 0
3912 -331 0
-3912 331 0
334 -333 0
-334 333 0
3913 -3914 0
-3913 3914 0
338 -3915 0
-338 3915 0
336 -335 0
-336 335 0
340 -337 0
-340 337 0
341 -3916 0
-341 3916 0
343 -3917 0
-343 3917 0
344 -339 0
-344 339 0
3918 -342 0
-3918 342 0
3919 -3920 0
-3919 3920 0
3921 -3922 0
-3921 3922 0
346 -345 0
-346 345 0
350 -3923 0
-350 3923 0
348 -347 0
-348 347 0
3924 -3925 0
-3924 3925 0
3926 -349 0
-3926 349 0
3927 -3928 0
-3927 3928 0
352 -351 0
-352 351 0
356 -3929 0
-356 3929 0
354 -353 0
-354 353 0
3930 -3931 0
-3930 3931 0
3932 -355 0
-3932 355 0
358 -357 0
-358 357 0
3933 -3934 0
-3933 3934 0
3935 -3936 0
-3935 3936 0
360 -359 0
-360 359 0
3937 -3763 0
-3937 3763 0
362 -361 0
-362 361 0
3938 -3939 0
-3938 3939 0
364 -363 0
-364 363 0
3940 -3941 0
-3940 3941 0
366 -365 0
-366 365 0
370 -3942 0
-370 3942 0
368 -367 0
-368 367 0
3943 -3944 0
-3943 3944 0
3945 -369 0
-3945 369 0
374 -3946 0
-374 3946 0
372 -371 0
-372 371 0
3947 -373 0
-3947 373 0
3948 -3949 0
-3948 3949 0
3950 -3951 0
-3950 3951 0
376 -375 0
-376 375 0
380 -3952 0
-380 3952 0
378 -377 0
-378 377 0
382 -3953 0
-382 3953 0
383 -379 0
-383 379 0
385 -381 0
-385 381 0
386 -3954 0
-386 3954 0
3955 -3956 0
-3955 3956 0
3957 -384 0
-3957 384 0
388 -387 0
-388 387 0
3958 -3959 0
-3958 3959 0
390 -389 0
-390 389 0
392 -3960 0
-392 3960 0
3961 -391 0
-3961 391 0
3962 -3963 0
-3962 3963 0
3964 -3965 0
-3964 3965 0
394 -393 0
-394 393 0
396 -395 0
-396 395 0
398 -3966 0
-398 3966 0
3967 -3968 0
-3967 3968 0
3969 -397 0
-3969 397 0
402 -3970 0
-402 3970 0
400 -399 0
-400 399 0
3971 -401 0
-3971 401 0
3972 -3973 0
-3972 3973 0
3974 -3975 0
-3974 3975 0
404 -403 0
-404 403 0
3976 -3977 0
-3976 3977 0
406 -405 0
-406 405 0
3978 -3979 0
-3978 3979 0
408 -407 0
-408 407 0
412 -3980 0
-412 3980 0
410 -409 0
-410 409 0
3981 -3982 0
-3981 3982 0
3983 -411 0
-3983 411 0
3984 -3985 0
-3984 3985 0
414 -413 0
-414 413 0
418 -3986 0
-418 3986 0
416 -415 0
-416 415 0
3987 -3988 0
-3987 3988 0
3989 -417 0
-3989 417 0
3990 -3991 0
-3990 3991 0
420 -419 0
-420 419 0
422 -421 0
-422 421 0
3992 -3993 0
-3992 3993 0
424 -423 0
-424 423 0
3994 -3995 0
-3994 3995 0
426 -425 0
-426 425 0
3996 -3997 0
-3996 3997 0
3998 -3999 0
-3998 3999 0
428 -427 0
-428 427 0
430 -429 0
-430 429 0
432 -4000 0
-432 4000 0
4001 -4002 0
-4001 4002 0
4003 -431 0
-4003 431 0
436 -4004 0
-436 4004 0
434 -433 0
-434 433 0
4005 -3700 0
-4005 3700 0
4006 -435 0
-4006 435 0
438 -437 0
-438 437 0
440 -4007 0
-440 4007 0
4008 -4009 0
-4008 4009 0
4010 -439 0
-4010 439 0
442 -441 0
-442 441 0
4011 -4012 0
-4011 4012 0
444 -443 0
-444 443 0
446 -4013 0
-446 4013 0
448 -3898 0
-448 3898 0
449 -445 0
-449 445 0
4014 -4015 0
-4014 4015 0
4016 -4017 0
-4016 4017 0
453 -4018 0
-453 4018 0
451 -450 0
-451 450 0
4019 -4020 0
-4019 4020 0
4021 -452 0
-4021 452 0
457 -4022 0
-457 4022 0
455 -454 0
-455 454 0
4023 -4024 0
-4023 4024 0
4025 -456 0
-4025 456 0
4026 -4027 0
-4026 4027 0
459 -458 0
-459 458 0
463 -4028 0
-463 4028 0
461 -460 0
-461 460 0
465 -4029 0
-465 4029 0
466 -462 0
-466 462 0
468 -4030 0
-468 4030 0
469 -464 0
-469 464 0
4031 -4032 0
-4031 4032 0
4033 -467 0
-4033 467 0
473 -4034 0
-473 4034 0
471 -470 0
-471 470 0
475 -472 0
-475 472 0
476 -4035 0
-476 4035 0
4036 -4037 0
-4036 4037 0
4038 -474 0
-4038 474 0
478 -477 0
-478 477 0
4039 -4040 0
-4039 4040 0
480 -479 0
-480 479 0
482 -4041 0
-482 4041 0
4042 -481 0
-4042 481 0
4043 -4044 0
-4043 4044 0
4045 -4046 0
-4045 4046 0
484 -483 0
-484 483 0
486 -485 0
-486 485 0
4047 -4048 0
-4047 4048 0
488 -487 0
-488 487 0
4049 -3765 0
-4049 3765 0
490 -489 0
-490 489 0
4050 -4051 0
-4050 4051 0
4052 -4053 0
-4052 4053 0
492 -491 0
-492 491 0
494 -493 0
-494 493 0
496 -4054 0
-496 4054 0
499 -495 0
-499 495 0
498 -4055 0
-498 4055 0
4056 -4057 0
-4056 4057 0
4058 -497 0
-4058 497 0
4059 -4060 0
-4059 4060 0
501 -500 0
-501 500 0
4061 -4062 0
-4061 4062 0
503 -502 0
-503 502 0
507 -4063 0
-507 4063 0
505 -504 0
-505 504 0
509 -4064 0
-509 4064 0
510 -506 0
-510 506 0
512 -4065 0
-512 4065 0
513 -508 0
-513 508 0
4066 -511 0
-4066 511 0
4067 -4068 0
-4067 4068 0
515 -514 0
-515 514 0
4069 -4070 0
-4069 4070 0
519 -4071 0
-519 4071 0
517 -516 0
-517 516 0
4072 -518 0
-4072 518 0
4073 -4074 0
-4073 4074 0
4075 -4076 0
-4075 4076 0
521 -520 0
-521 520 0
523 -522 0
-523 522 0
525 -4077 0
-525 4077 0
4078 -4079 0
-4078 4079 0
4080 -524 0
-4080 524 0
527 -526 0
-527 526 0
529 -4081 0
-529 4081 0
4082 -4083 0
-4082 4083 0
4084 -528 0
-4084 528 0
531 -530 0
-531 530 0
4085 -4086 0
-4085 4086 0
4087 -4088 0
-4087 4088 0
533 -532 0
-533 532 0
535 -534 0
-535 534 0
4089 -4090 0
-4089 4090 0
539 -4091 0
-539 4091 0
537 -536 0
-537 536 0
4092 -538 0
-4092 538 0
4093 -4094 0
-4093 4094 0
4095 -4096 0
-4095 4096 0
541 -540 0
-541 540 0
543 -542 0
-543 542 0
545 -4097 0
-545 4097 0
4098 -4099 0
-4098 4099 0
4100 -544 0
-4100 544 0
4101 -4102 0
-4101 4102 0
547 -546 0
-547 546 0
4103 -4104 0
-4103 4104 0
549 -548 0
-549 548 0
553 -4105 0
-553 4105 0
551 -550 0
-551 550 0
4106 -4107 0
-4106 4107 0
4108 -552 0
-4108 552 0
4109 -4110 0
-4109 4110 0
555 -554 0
-555 554 0
559 -4111 0
-559 4111 0
557 -556 0
-557 556 0
4112 -558 0
-4112 558 0
4113 -4114 0
-4113 4114 0
563 -4115 0
-563 4115 0
561 -560 0
-561 560 0
4116 -3693 0
-4116 3693 0
4117 -562 0
-4117 562 0
567 -4118 0
-567 4118 0
565 -564 0
-565 564 0
4119 -4120 0
-4119 4120 0
4121 -566 0
-4121 566 0
4122 -4123 0
-4122 4123 0
569 -568 0
-569 568 0
573 -4124 0
-573 4124 0
571 -570 0
-571 570 0
575 -572 0
-575 572 0
576 -3900 0
-576 3900 0
4125 -4126 0
-4125 4126 0
4127 -4128 0
-4127 4128 0
580 -4129 0
-580 4129 0
578 -577 0
-578 577 0
4130 -579 0
-4130 579 0
4131 -4132 0
-4131 4132 0
584 -4133 0
-584 4133 0
582 -581 0
-582 581 0
4134 -583 0
-4134 583 0
4135 -4136 0
-4135 4136 0
586 -585 0
-586 585 0
4137 -4138 0
-4137 4138 0
590 -4139 0
-590 4139 0
588 -587 0
-588 587 0
592 -4140 0
-592 4140 0
593 -589 0
-593 589 0
595 -4141 0
-595 4141 0
596 -591 0
-596 591 0
4142 -4143 0
-4142 4143 0
4144 -594 0
-4144 594 0
600 -4145 0
-600 4145 0
598 -597 0
-598 597 0
602 -4146 0
-602 4146 0
603 -599 0
-603 599 0
4147 -4148 0
-4147 4148 0
4149 -601 0
-4149 601 0
4150 -4151 0
-4150 4151 0
605 -604 0
-605 604 0
609 -4152 0
-609 4152 0
607 -606 0
-607 606 0
4153 -4154 0
-4153 4154 0
4155 -608 0
-4155 608 0
4156 -4157 0
-4156 4157 0
611 -610 0
-611 610 0
613 -612 0
-613 612 0
4158 -4159 0
-4158 4159 0
4160 -3768 0
-4160 3768 0
615 -614 0
-615 614 0
617 -616 0
-617 616 0
4161 -4162 0
-4161 4162 0
4163 -4164 0
-4163 4164 0
619 -618 0
-619 618 0
621 -620 0
-621 620 0
623 -4165 0
-623 4165 0
4166 -622 0
-4166 622 0
4167 -4168 0
-4167 4168 0
625 -624 0
-625 624 0
627 -4169 0
-627 4169 0
4170 -4171 0
-4170 4171 0
4172 -626 0
-4172 626 0
629 -628 0
-629 628 0
4173 -4174 0
-4173 4174 0
633 -4175 0
-633 4175 0
631 -630 0
-631 630 0
635 -632 0
-635 632 0
636 -4176 0
-636 4176 0
638 -4177 0
-638 4177 0
639 -634 0
-639 634 0
4178 -637 0
-4178 637 0
4179 -4180 0
-4179 4180 0
4181 -4182 0
-4181 4182 0
641 -640 0
-641 640 0
643 -642 0
-643 642 0
645 -4183 0
-645 4183 0
4184 -4185 0
-4184 4185 0
4186 -644 0
-4186 644 0
647 -646 0
-647 646 0
4187 -4188 0
-4187 4188 0
651 -4189 0
-651 4189 0
649 -648 0
-649 648 0
4190 -4191 0
-4190 4191 0
4192 -650 0
-4192 650 0
655 -4193 0
-655 4193 0
653 -652 0
-653 652 0
4194 -4195 0
-4194 4195 0
4196 -654 0
-4196 654 0
4197 -4198 0
-4197 4198 0
657 -656 0
-657 656 0
659 -658 0
-659 658 0
4199 -4200 0
-4199 4200 0
663 -4201 0
-663 4201 0
661 -660 0
-661 660 0
4202 -4203 0
-4202 4203 0
4204 -662 0
-4204 662 0
665 -664 0
-665 664 0
4205 -4206 0
-4205 4206 0
4207 -4208 0
-4207 4208 0
667 -666 0
-667 666 0
669 -668 0
-669 668 0
671 -4209 0
-671 4209 0
4210 -4211 0
-4210 4211 0
4212 -670 0
-4212 670 0
673 -672 0
-673 672 0
4213 -4214 0
-4213 4214 0
4215 -4216 0
-4215 4216 0
675 -674 0
-675 674 0
677 -676 0
-677 676 0
4217 -4218 0
-4217 4218 0
681 -4219 0
-681 4219 0
679 -678 0
-679 678 0
4220 -680 0
-4220 680 0
4221 -4222 0
-4221 4222 0
685 -4223 0
-685 4223 0
683 -682 0
-683 682 0
4224 -684 0
-4224 684 0
4225 -4226 0
-4225 4226 0
689 -4227 0
-689 4227 0
687 -686 0
-687 686 0
4228 -688 0
-4228 688 0
4229 -3690 0
-4229 3690 0
693 -4230 0
-693 4230 0
691 -690 0
-691 690 0
4231 -692 0
-4231 692 0
4232 -4233 0
-4232 4233 0
4234 -4235 0
-4234 4235 0
695 -694 0
-695 694 0
699 -4236 0
-699 4236 0
697 -696 0
-697 696 0
701 -698 0
-701 698 0
702 -3894 0
-702 3894 0
704 -3303 0
-704 3303 0
705 -3301 0
-705 3301 0
707 -3407 0
-707 3407 0
708 -703 0
-708 703 0
711 -3551 0
-711 3551 0
710 -706 0
-710 706 0
713 -709 0
-713 709 0
714 -3618 0
-714 3618 0
716 -3321 0
-716 3321 0
717 -3320 0
-717 3320 0
719 -715 0
-719 715 0
720 -3383 0
-720 3383 0
723 -3505 0
-723 3505 0
722 -718 0
-722 718 0
725 -721 0
-725 721 0
726 -3576 0
-726 3576 0
4237 -724 0
-4237 724 0
4238 -4239 0
-4238 4239 0
730 -3732 0
-730 3732 0
728 -727 0
-728 727 0
4240 -4241 0
-4240 4241 0
4242 -729 0
-4242 729 0
732 -731 0
-732 731 0
734 -4243 0
-734 4243 0
736 -4244 0
-736 4244 0
737 -733 0
-737 733 0
739 -3306 0
-739 3306 0
740 -3411 0
-740 3411 0
4245 -738 0
-4245 738 0
4246 -3553 0
-4246 3553 0
4247 -3672 0
-4247 3672 0
742 -741 0
-742 741 0
746 -3891 0
-746 3891 0
744 -743 0
-744 743 0
748 -4248 0
-748 4248 0
749 -745 0
-749 745 0
752 -3245 0
-752 3245 0
751 -3246 0
-751 3246 0
754 -3431 0
-754 3431 0
755 -750 0
-755 750 0
757 -3519 0
-757 3519 0
758 -753 0
-758 753 0
760 -756 0
-760 756 0
761 -3686 0
-761 3686 0
764 -3228 0
-764 3228 0
763 -3375 0
-763 3375 0
766 -762 0
-766 762 0
767 -3509 0
-767 3509 0
4249 -3636 0
-4249 3636 0
4250 -765 0
-4250 765 0
769 -768 0
-769 768 0
4251 -4252 0
-4251 4252 0
771 -770 0
-771 770 0
4253 -3848 0
-4253 3848 0
773 -772 0
-773 772 0
775 -4254 0
-775 4254 0
777 -3296 0
-777 3296 0
778 -3295 0
-778 3295 0
780 -3381 0
-780 3381 0
781 -776 0
-781 776 0
784 -779 0
-784 779 0
783 -3464 0
-783 3464 0
786 -782 0
-786 782 0
787 -3666 0
-787 3666 0
789 -3162 0
-789 3162 0
790 -3163 0
-790 3163 0
792 -788 0
-792 788 0
793 -3339 0
-793 3339 0
796 -3450 0
-796 3450 0
795 -791 0
-795 791 0
798 -3682 0
-798 3682 0
799 -794 0
-799 794 0
801 -797 0
-801 797 0
802 -4255 0
-802 4255 0
4256 -3138 0
-4256 3138 0
4257 -3341 0
-4257 3341 0
806 -3497 0
-806 3497 0
804 -803 0
-804 803 0
808 -3628 0
-808 3628 0
809 -805 0
-809 805 0
811 -807 0
-811 807 0
812 -4258 0
-812 4258 0
814 -3196 0
-814 3196 0
815 -3345 0
-815 3345 0
4259 -3529 0
-4259 3529 0
4260 -813 0
-4260 813 0
819 -3620 0
-819 3620 0
817 -816 0
-817 816 0
821 -818 0
-821 818 0
822 -4261 0
-822 4261 0
824 -820 0
-824 820 0
825 -4262 0
-825 4262 0
828 -3166 0
-828 3166 0
827 -3168 0
-827 3168 0
830 -826 0
-830 826 0
831 -3333 0
-831 3333 0
833 -829 0
-833 829 0
834 -3537 0
-834 3537 0
836 -832 0
-836 832 0
837 -3642 0
-837 3642 0
840 -3209 0
-840 3209 0
839 -3367 0
-839 3367 0
842 -3527 0
-842 3527 0
843 -838 0
-843 838 0
4263 -841 0
-4263 841 0
4264 -3602 0
-4264 3602 0
845 -844 0
-845 844 0
847 -4265 0
-847 4265 0
850 -3220 0
-850 3220 0
849 -3425 0
-849 3425 0
852 -3563 0
-852 3563 0
853 -848 0
-853 848 0
855 -3680 0
-855 3680 0
856 -851 0
-856 851 0
858 -3822 0
-858 3822 0
859 -854 0
-859 854 0
862 -857 0
-862 857 0
861 -4266 0
-861 4266 0
4267 -3312 0
-4267 3312 0
4268 -3314 0
-4268 3314 0
866 -3369 0
-866 3369 0
864 -863 0
-864 863 0
868 -3521 0
-868 3521 0
869 -865 0
-869 865 0
872 -3594 0
-872 3594 0
871 -867 0
-871 867 0
874 -3131 0
-874 3131 0
875 -3439 0
-875 3439 0
877 -873 0
-877 873 0
878 -3495 0
-878 3495 0
880 -3582 0
-880 3582 0
881 -876 0
-881 876 0
884 -879 0
-884 879 0
883 -4269 0
-883 4269 0
886 -4270 0
-886 4270 0
887 -882 0
-887 882 0
889 -4271 0
-889 4271 0
890 -885 0
-890 885 0
892 -3273 0
-892 3273 0
893 -3275 0
-893 3275 0
896 -3389 0
-896 3389 0
895 -891 0
-895 891 0
898 -3472 0
-898 3472 0
899 -894 0
-899 894 0
901 -897 0
-901 897 0
902 -3614 0
-902 3614 0
904 -3217 0
-904 3217 0
905 -3215 0
-905 3215 0
908 -903 0
-908 903 0
907 -3427 0
-907 3427 0
910 -3539 0
-910 3539 0
911 -906 0
-911 906 0
913 -909 0
-913 909 0
914 -3624 0
-914 3624 0
916 -3797 0
-916 3797 0
917 -912 0
-917 912 0
920 -3173 0
-920 3173 0
919 -3433 0
-919 3433 0
922 -3499 0
-922 3499 0
923 -918 0
-923 918 0
925 -3626 0
-925 3626 0
926 -921 0
-926 921 0
928 -3734 0
-928 3734 0
929 -924 0
-929 924 0
932 -3740 0
-932 3740 0
931 -927 0
-931 927 0
934 -4272 0
-934 4272 0
935 -930 0
-935 930 0
4273 -4274 0
-4273 4274 0
4275 -933 0
-4275 933 0
937 -936 0
-937 936 0
939 -4276 0
-939 4276 0
942 -3236 0
-942 3236 0
941 -3238 0
-941 3238 0
944 -940 0
-944 940 0
945 -3347 0
-945 3347 0
947 -3454 0
-947 3454 0
948 -943 0
-948 943 0
950 -3578 0
-950 3578 0
951 -946 0
-951 946 0
954 -3206 0
-954 3206 0
953 -3204 0
-953 3204 0
956 -3379 0
-956 3379 0
957 -952 0
-957 952 0
959 -955 0
-959 955 0
960 -3535 0
-960 3535 0
962 -3674 0
-962 3674 0
963 -958 0
-963 958 0
966 -3264 0
-966 3264 0
965 -3263 0
-965 3263 0
968 -3377 0
-968 3377 0
969 -964 0
-969 964 0
971 -3485 0
-971 3485 0
972 -967 0
-972 967 0
974 -3640 0
-974 3640 0
975 -970 0
-975 970 0
4277 -3133 0
-4277 3133 0
4278 -3134 0
-4278 3134 0
4279 -3397 0
-4279 3397 0
977 -976 0
-977 976 0
4280 -3565 0
-4280 3565 0
979 -978 0
-979 978 0
4281 -3632 0
-4281 3632 0
981 -980 0
-981 980 0
983 -982 0
-983 982 0
985 -3876 0
-985 3876 0
987 -3226 0
-987 3226 0
988 -3331 0
-988 3331 0
990 -986 0
-990 986 0
991 -3503 0
-991 3503 0
993 -3668 0
-993 3668 0
994 -989 0
-994 989 0
997 -992 0
-997 992 0
996 -4282 0
-996 4282 0
999 -4283 0
-999 4283 0
1000 -995 0
-1000 995 0
4284 -998 0
-4284 998 0
4285 -4286 0
-4285 4286 0
1002 -1001 0
-1002 1001 0
1004 -4287 0
-1004 4287 0
1007 -3250 0
-1007 3250 0
1006 -3248 0
-1006 3248 0
1009 -1005 0
-1009 1005 0
1010 -3335 0
-1010 3335 0
1012 -3543 0
-1012 3543 0
1013 -1008 0
-1013 1008 0
1015 -1011 0
-1015 1011 0
1016 -3644 0
-1016 3644 0
1019 -4288 0
-1019 4288 0
1018 -1014 0
-1018 1014 0
1021 -3154 0
-1021 3154 0
1022 -3156 0
-1022 3156 0
1024 -1020 0
-1024 1020 0
1025 -3423 0
-1025 3423 0
1027 -3458 0
-1027 3458 0
1028 -1023 0
-1028 1023 0
1031 -3658 0
-1031 3658 0
1030 -1026 0
-1030 1026 0
4289 -3721 0
-4289 3721 0
4290 -1029 0
-4290 1029 0
1035 -3860 0
-1035 3860 0
1033 -1032 0
-1033 1032 0
1037 -3189 0
-1037 3189 0
1038 -3188 0
-1038 3188 0
1041 -3441 0
-1041 3441 0
1040 -1036 0
-1040 1036 0
1043 -3477 0
-1043 3477 0
1044 -1039 0
-1044 1039 0
1046 -1042 0
-1046 1042 0
1047 -3662 0
-1047 3662 0
1049 -4291 0
-1049 4291 0
1050 -1045 0
-1050 1045 0
1053 -1048 0
-1053 1048 0
1052 -3810 0
-1052 3810 0
1055 -3327 0
-1055 3327 0
1056 -3419 0
-1056 3419 0
1058 -3487 0
-1058 3487 0
1059 -1054 0
-1059 1054 0
1061 -1057 0
-1061 1057 0
1062 -3670 0
-1062 3670 0
1065 -4292 0
-1065 4292 0
1064 -1060 0
-1064 1060 0
1067 -3199 0
-1067 3199 0
1068 -3353 0
-1068 3353 0
1070 -1066 0
-1070 1066 0
1071 -3489 0
-1071 3489 0
1073 -3608 0
-1073 3608 0
1074 -1069 0
-1074 1069 0
4293 -3738 0
-4293 3738 0
4294 -1072 0
-4294 1072 0
1078 -4295 0
-1078 4295 0
1076 -1075 0
-1076 1075 0
1080 -4296 0
-1080 4296 0
1081 -1077 0
-1081 1077 0
1083 -4297 0
-1083 4297 0
1084 -1079 0
-1084 1079 0
1087 -3152 0
-1087 3152 0
1086 -3151 0
-1086 3151 0
1089 -3417 0
-1089 3417 0
1090 -1085 0
-1090 1085 0
1092 -3501 0
-1092 3501 0
1093 -1088 0
-1093 1088 0
1095 -1091 0
-1095 1091 0
1096 -3684 0
-1096 3684 0
1099 -3284 0
-1099 3284 0
1098 -3373 0
-1098 3373 0
1101 -3462 0
-1101 3462 0
1102 -1097 0
-1102 1097 0
1104 -3588 0
-1104 3588 0
1105 -1100 0
-1105 1100 0
1107 -1103 0
-1107 1103 0
1108 -4298 0
-1108 4298 0
1111 -3343 0
-1111 3343 0
1110 -3223 0
-1110 3223 0
1113 -3491 0
-1113 3491 0
1114 -1109 0
-1114 1109 0
4299 -1112 0
-4299 1112 0
4300 -3678 0
-4300 3678 0
1118 -4301 0
-1118 4301 0
1116 -1115 0
-1116 1115 0
1121 -1117 0
-1121 1117 0
1120 -4302 0
-1120 4302 0
1123 -3184 0
-1123 3184 0
1124 -3185 0
-1124 3185 0
1126 -3393 0
-1126 3393 0
1127 -1122 0
-1127 1122 0
1129 -1125 0
-1129 1125 0
1130 -3493 0
-1130 3493 0
1133 -3610 0
-1133 3610 0
1132 -1128 0
-1132 1128 0
1135 -4303 0
-1135 4303 0
1136 -1131 0
-1136 1131 0
1138 -3171 0
-1138 3171 0
1139 -3349 0
-1139 3349 0
1141 -1137 0
-1141 1137 0
1142 -3525 0
-1142 3525 0
1145 -3600 0
-1145 3600 0
1144 -1140 0
-1144 1140 0
1147 -1143 0
-1147 1143 0
1148 -4304 0
-1148 4304 0
1150 -3260 0
-1150 3260 0
1151 -3415 0
-1151 3415 0
1153 -3479 0
-1153 3479 0
1154 -1149 0
-1154 1149 0
4305 -3596 0
-4305 3596 0
4306 -1152 0
-4306 1152 0
1158 -4307 0
-1158 4307 0
1156 -1155 0
-1156 1155 0
1160 -1157 0
-1160 1157 0
1161 -4308 0
-1161 4308 0
1163 -3269 0
-1163 3269 0
1164 -3270 0
-1164 3270 0
1167 -3385 0
-1167 3385 0
1166 -1162 0
-1166 1162 0
1169 -1165 0
-1169 1165 0
1170 -3557 0
-1170 3557 0
1172 -3646 0
-1172 3646 0
1173 -1168 0
-1173 1168 0
1175 -4309 0
-1175 4309 0
1176 -1171 0
-1176 1171 0
1179 -3288 0
-1179 3288 0
1178 -3359 0
-1178 3359 0
1181 -3470 0
-1181 3470 0
1182 -1177 0
-1182 1177 0
4310 -1180 0
-4310 1180 0
4311 -3604 0
-4311 3604 0
1186 -4312 0
-1186 4312 0
1184 -1183 0
-1184 1183 0
1189 -1185 0
-1189 1185 0
1188 -4313 0
-1188 4313 0
1191 -1187 0
-1191 1187 0
1192 -4314 0
-1192 4314 0
1194 -1190 0
-1194 1190 0
1195 -4315 0
-1195 4315 0
1197 -3240 0
-1197 3240 0
1198 -3242 0
-1198 3242 0
1201 -3443 0
-1201 3443 0
1200 -1196 0
-1200 1196 0
1203 -1199 0
-1203 1199 0
1204 -3523 0
-1204 3523 0
1206 -1202 0
-1206 1202 0
1207 -3630 0
-1207 3630 0
1209 -3748 0
-1209 3748 0
1210 -1205 0
-1210 1205 0
1213 -4316 0
-1213 4316 0
1212 -1208 0
-1212 1208 0
1215 -4317 0
-1215 4317 0
1216 -1211 0
-1216 1211 0
1218 -3145 0
-1218 3145 0
1219 -3143 0
-1219 3143 0
1221 -1217 0
-1221 1217 0
1222 -3337 0
-1222 3337 0
1225 -3549 0
-1225 3549 0
1224 -1220 0
-1224 1220 0
4318 -1223 0
-4318 1223 0
4319 -3648 0
-4319 3648 0
1229 -3791 0
-1229 3791 0
1227 -1226 0
-1227 1226 0
1231 -3179 0
-1231 3179 0
1232 -3180 0
-1232 3180 0
1235 -1230 0
-1235 1230 0
1234 -4320 0
-1234 4320 0
1237 -1233 0
-1237 1233 0
1238 -4321 0
-1238 4321 0
1240 -1236 0
-1240 1236 0
1241 -4322 0
-1241 4322 0
1243 -3278 0
-1243 3278 0
1244 -3361 0
-1244 3361 0
1247 -3533 0
-1247 3533 0
1246 -1242 0
-1246 1242 0
4323 -3606 0
-4323 3606 0
4324 -1245 0
-4324 1245 0
1251 -4325 0
-1251 4325 0
1249 -1248 0
-1249 1248 0
1253 -4326 0
-1253 4326 0
1254 -1250 0
-1254 1250 0
1257 -3310 0
-1257 3310 0
1256 -3309 0
-1256 3309 0
1259 -3447 0
-1259 3447 0
1260 -1255 0
-1260 1255 0
1262 -3517 0
-1262 3517 0
1263 -1258 0
-1263 1258 0
1265 -3572 0
-1265 3572 0
1266 -1261 0
-1266 1261 0
1269 -3140 0
-1269 3140 0
1268 -3371 0
-1268 3371 0
1271 -3511 0
-1271 3511 0
1272 -1267 0
-1272 1267 0
4327 -1270 0
-4327 1270 0
4328 -3638 0
-4328 3638 0
1276 -3842 0
-1276 3842 0
1274 -1273 0
-1274 1273 0
4329 -1275 0
-4329 1275 0
4330 -4331 0
-4330 4331 0
1280 -3703 0
-1280 3703 0
1278 -1277 0
-1278 1277 0
1282 -3256 0
-1282 3256 0
1283 -3257 0
-1283 3257 0
1285 -1281 0
-1285 1281 0
1286 -3357 0
-1286 3357 0
1289 -1284 0
-1289 1284 0
1288 -3466 0
-1288 3466 0
1291 -1287 0
-1291 1287 0
1292 -3590 0
-1292 3590 0
4332 -3715 0
-4332 3715 0
4333 -1290 0
-4333 1290 0
1294 -1293 0
-1294 1293 0
1296 -3788 0
-1296 3788 0
1299 -3445 0
-1299 3445 0
1298 -3202 0
-1298 3202 0
1301 -3481 0
-1301 3481 0
1302 -1297 0
-1302 1297 0
1304 -3592 0
-1304 3592 0
1305 -1300 0
-1305 1300 0
1307 -1303 0
-1307 1303 0
1308 -4334 0
-1308 4334 0
4335 -3409 0
-4335 3409 0
4336 -3234 0
-4336 3234 0
1310 -1309 0
-1310 1309 0
4337 -3507 0
-4337 3507 0
4338 -3664 0
-4338 3664 0
1312 -1311 0
-1312 1311 0
1316 -4339 0
-1316 4339 0
1314 -1313 0
-1314 1313 0
1319 -4340 0
-1319 4340 0
1318 -1315 0
-1318 1315 0
4341 -3193 0
-4341 3193 0
4342 -3191 0
-4342 3191 0
1323 -3435 0
-1323 3435 0
1321 -1320 0
-1321 1320 0
1325 -1322 0
-1325 1322 0
1326 -3456 0
-1326 3456 0
1329 -3634 0
-1329 3634 0
1328 -1324 0
-1328 1324 0
1331 -1327 0
-1331 1327 0
1332 -3852 0
-1332 3852 0
1334 -3324 0
-1334 3324 0
1335 -3403 0
-1335 3403 0
1337 -3555 0
-1337 3555 0
1338 -1333 0
-1338 1333 0
1341 -1336 0
-1341 1336 0
1340 -3580 0
-1340 3580 0
1343 -4343 0
-1343 4343 0
1344 -1339 0
-1344 1339 0
4344 -3252 0
-4344 3252 0
4345 -3413 0
-4345 3413 0
4346 -3483 0
-4346 3483 0
1346 -1345 0
-1346 1345 0
4347 -3622 0
-4347 3622 0
1348 -1347 0
-1348 1347 0
1352 -3855 0
-1352 3855 0
1350 -1349 0
-1350 1349 0
1354 -4348 0
-1354 4348 0
1355 -1351 0
-1355 1351 0
1357 -3281 0
-1357 3281 0
1358 -3280 0
-1358 3280 0
1361 -3437 0
-1361 3437 0
1360 -1356 0
-1360 1356 0
1363 -3515 0
-1363 3515 0
1364 -1359 0
-1364 1359 0
1366 -1362 0
-1366 1362 0
1367 -3656 0
-1367 3656 0
1369 -3177 0
-1369 3177 0
1370 -3387 0
-1370 3387 0
1373 -3452 0
-1373 3452 0
1372 -1368 0
-1372 1368 0
4349 -3660 0
-4349 3660 0
4350 -1371 0
-4350 1371 0
1375 -1374 0
-1375 1374 0
1377 -4351 0
-1377 4351 0
1379 -3365 0
-1379 3365 0
1380 -3147 0
-1380 3147 0
1383 -3547 0
-1383 3547 0
1382 -1378 0
-1382 1378 0
1385 -1381 0
-1385 1381 0
1386 -3612 0
-1386 3612 0
1388 -4352 0
-1388 4352 0
1389 -1384 0
-1389 1384 0
1391 -3267 0
-1391 3267 0
1392 -3401 0
-1392 3401 0
1395 -1390 0
-1395 1390 0
1394 -3541 0
-1394 3541 0
1397 -3570 0
-1397 3570 0
1398 -1393 0
-1398 1393 0
1400 -1396 0
-1400 1396 0
1401 -4353 0
-1401 4353 0
1403 -4354 0
-1403 4354 0
1404 -4355 0
-1404 4355 0
4356 -1402 0
-4356 1402 0
4357 -4358 0
-4357 4358 0
1408 -3475 0
-1408 3475 0
1406 -1405 0
-1406 1405 0
1410 -3586 0
-1410 3586 0
1411 -1407 0
-1411 1407 0
4359 -4360 0
-4359 4360 0
4361 -1409 0
-4361 1409 0
1415 -3882 0
-1415 3882 0
1413 -1412 0
-1413 1412 0
1417 -3126 0
-1417 3126 0
1418 -3128 0
-1418 3128 0
1420 -3405 0
-1420 3405 0
1421 -1416 0
-1421 1416 0
1423 -3561 0
-1423 3561 0
1424 -1419 0
-1424 1419 0
4362 -3616 0
-4362 3616 0
4363 -1422 0
-4363 1422 0
1426 -1425 0
-1426 1425 0
1428 -3826 0
-1428 3826 0
1430 -3299 0
-1430 3299 0
1431 -3395 0
-1431 3395 0
1433 -1429 0
-1433 1429 0
1434 -3468 0
-1434 3468 0
4364 -1432 0
-4364 1432 0
4365 -3652 0
-4365 3652 0
1438 -4366 0
-1438 4366 0
1436 -1435 0
-1436 1435 0
1440 -4367 0
-1440 4367 0
1441 -1437 0
-1441 1437 0
1443 -3290 0
-1443 3290 0
1444 -3292 0
-1444 3292 0
1447 -3429 0
-1447 3429 0
1446 -1442 0
-1446 1442 0
1449 -3531 0
-1449 3531 0
1450 -1445 0
-1450 1445 0
1452 -3574 0
-1452 3574 0
1453 -1448 0
-1453 1448 0
1455 -1451 0
-1455 1451 0
1456 -3745 0
-1456 3745 0
4368 -3160 0
-4368 3160 0
4369 -3159 0
-4369 3159 0
4370 -3351 0
-4370 3351 0
1458 -1457 0
-1458 1457 0
4371 -3460 0
-4371 3460 0
1460 -1459 0
-1460 1459 0
4372 -3584 0
-4372 3584 0
1462 -1461 0
-1462 1461 0
1466 -3795 0
-1466 3795 0
1464 -1463 0
-1464 1463 0
1468 -3213 0
-1468 3213 0
1469 -3211 0
-1469 3211 0
1471 -1467 0
-1471 1467 0
1472 -3399 0
-1472 3399 0
1474 -3567 0
-1474 3567 0
1475 -1470 0
-1475 1470 0
1478 -1473 0
-1478 1473 0
1477 -3676 0
-1477 3676 0
1480 -3124 0
-1480 3124 0
1481 -3355 0
-1481 3355 0
1483 -3545 0
-1483 3545 0
1484 -1479 0
-1484 1479 0
1486 -1482 0
-1486 1482 0
1487 -3654 0
-1487 3654 0
4373 -4374 0
-4373 4374 0
4375 -1485 0
-4375 1485 0
1489 -1488 0
-1489 1488 0
4376 -3804 0
-4376 3804 0
1493 -4377 0
-1493 4377 0
1491 -1490 0
-1491 1490 0
4378 -3317 0
-4378 3317 0
4379 -3363 0
-4379 3363 0
1495 -1494 0
-1495 1494 0
1497 -4380 0
-1497 4380 0
1499 -4381 0
-1499 4381 0
1500 -1496 0
-1500 1496 0
1502 -1498 0
-1502 1498 0
1503 -4382 0
-1503 4382 0
4383 1297 3201 -3481 -1604 0
-4383 -1297 0
-4383 -3201 0
-4383 3481 0
-4383 1604 0
4384 -3448 5 4385 0
-4384 3448 0
-4384 -5 0
-4384 -4385 0
4386 -1566 762 3229 -3509 0
-4386 1566 0
-4386 -762 0
-4386 -3229 0
-4386 3509 0
4387 1267 -1542 3141 -3511 0
-4387 -1267 0
-4387 1542 0
-4387 -3141 0
-4387 3511 0
4388 3241 -1631 -3523 1199 0
-4388 -3241 0
-4388 1631 0
-4388 3523 0
-4388 -1199 0
4389 -3525 1137 3170 -1623 0
-4389 3525 0
-4389 -1137 0
-4389 -3170 0
-4389 1623 0
4390 3244 753 -1584 -3519 0
-4390 -3244 0
-4390 -753 0
-4390 1584 0
-4390 3519 0
4391 865 -3521 3313 -1516 0
-4391 -865 0
-4391 3521 0
-4391 -3313 0
-4391 1516 0
4392 3195 -1513 -3529 813 0
-4392 -3195 0
-4392 1513 0
-4392 3529 0
-4392 -813 0
4393 838 3208 -3527 -1554 0
-4393 -838 0
-4393 -3208 0
-4393 3527 0
-4393 1554 0
4394 1445 -1590 -3531 3291 0
-4394 -1445 0
-4394 1590 0
-4394 3531 0
-4394 -3291 0
4395 3205 -1615 -3535 955 0
-4395 -3205 0
-4395 1615 0
-4395 3535 0
-4395 -955 0
4396 -3541 1390 3266 -1597 0
-4396 3541 0
-4396 -1390 0
-4396 -3266 0
-4396 1597 0
4397 829 -3537 3167 -1637 0
-4397 -829 0
-4397 3537 0
-4397 -3167 0
-4397 1637 0
4398 -1508 3249 -3543 1008 0
-4398 1508 0
-4398 -3249 0
-4398 3543 0
-4398 -1008 0
4399 -1626 1378 3148 -3547 0
-4399 1626 0
-4399 -1378 0
-4399 -3148 0
-4399 3547 0
4400 3144 -1595 -3549 1220 0
-4400 -3144 0
-4400 1595 0
-4400 3549 0
-4400 -1220 0
4401 3216 -1639 -3539 906 0
-4401 -3216 0
-4401 1639 0
-4401 3539 0
-4401 -906 0
4402 803 -1606 3137 -3497 0
-4402 -803 0
-4402 1606 0
-4402 -3137 0
-4402 3497 0
4403 3302 -1552 -3551 706 0
-4403 -3302 0
-4403 1552 0
-4403 3551 0
-4403 -706 0
4404 3323 -1568 -3555 1333 0
-4404 -3323 0
-4404 1568 0
-4404 3555 0
-4404 -1333 0
4405 -3553 738 -1634 3305 0
-4405 3553 0
-4405 -738 0
-4405 1634 0
-4405 -3305 0
4406 -3557 1165 -1576 3271 0
-4406 3557 0
-4406 -1165 0
-4406 1576 0
-4406 -3271 0
4407 3308 1258 -1617 -3517 0
-4407 -3308 0
-4407 -1258 0
-4407 1617 0
-4407 3517 0
4408 -4321 1233 -1537 3181 0
-4408 4321 0
-4408 -1233 0
-4408 1537 0
-4408 -3181 0
4409 1419 -3561 3127 -1520 0
-4409 -1419 0
-4409 3561 0
-4409 -3127 0
-4409 1520 0
4410 -4380 1494 3316 -1588 0
-4410 4380 0
-4410 -1494 0
-4410 -3316 0
-4410 1588 0
4411 3219 -1518 -3563 848 0
-4411 -3219 0
-4411 1518 0
-4411 3563 0
-4411 -848 0
4412 -3450 791 3164 -1599 0
-4412 3450 0
-4412 -791 0
-4412 -3164 0
-4412 1599 0
4413 -3533 1242 3277 -1652 0
-4413 3533 0
-4413 -1242 0
-4413 -3277 0
-4413 1652 0
4414 943 -1570 -3454 3237 0
-4414 -943 0
-4414 1570 0
-4414 3454 0
-4414 -3237 0
4415 3176 -1586 -3452 1368 0
-4415 -3176 0
-4415 1586 0
-4415 3452 0
-4415 -1368 0
4416 -1506 -3458 1023 3155 0
-4416 1506 0
-4416 3458 0
-4416 -1023 0
-4416 -3155 0
4417 3158 -1524 1459 -3460 0
-4417 -3158 0
-4417 1524 0
-4417 -1459 0
-4417 3460 0
4418 -4419 0
-4418 4419 0
4420 3294 779 -1620 -3464 0
-4420 -3294 0
-4420 -779 0
-4420 1620 0
-4420 3464 0
4421 3298 -1550 -3468 1429 0
-4421 -3298 0
-4421 1550 0
-4421 3468 0
-4421 -1429 0
4422 1322 -1529 -3456 3192 0
-4422 -1322 0
-4422 1529 0
-4422 3456 0
-4422 -3192 0
4423 1177 3287 -3470 -1540 0
-4423 -1177 0
-4423 -3287 0
-4423 3470 0
-4423 1540 0
4424 894 -1532 -3472 3274 0
-4424 -894 0
-4424 1532 0
-4424 3472 0
-4424 -3274 0
4425 3255 -1527 1284 -3466 0
-4425 -3255 0
-4425 1527 0
-4425 -1284 0
-4425 3466 0
4426 -1647 3474 -3475 1405 0
-4426 1647 0
-4426 -3474 0
-4426 3475 0
-4426 -1405 0
4427 3187 1039 -1581 -3477 0
-4427 -3187 0
-4427 -1039 0
-4427 1581 0
-4427 3477 0
4428 1149 3259 -3479 -1511 0
-4428 -1149 0
-4428 -3259 0
-4428 3479 0
-4428 1511 0
4429 -1573 1097 3285 -3462 0
-4429 1573 0
-4429 -1097 0
-4429 -3285 0
-4429 3462 0
4430 3262 967 -1535 -3485 0
-4430 -3262 0
-4430 -967 0
-4430 1535 0
-4430 3485 0
4431 1345 -1557 3253 -3483 0
-4431 -1345 0
-4431 1557 0
-4431 -3253 0
-4431 3483 0
4432 -1642 -3565 978 3135 0
-4432 1642 0
-4432 3565 0
-4432 -978 0
-4432 -3135 0
4433 1470 -1612 -3567 3212 0
-4433 -1470 0
-4433 1612 0
-4433 3567 0
-4433 -3212 0
4434 1054 -1544 3326 -3487 0
-4434 -1054 0
-4434 1544 0
-4434 -3326 0
-4434 3487 0
4435 3183 -1547 1125 -3493 0
-4435 -3183 0
-4435 1547 0
-4435 -1125 0
-4435 3493 0
4436 873 3130 -3495 -1563 0
-4436 -873 0
-4436 -3130 0
-4436 3495 0
-4436 1563 0
4437 3198 -1629 -3489 1066 0
-4437 -3198 0
-4437 1629 0
-4437 3489 0
-4437 -1066 0
4438 -3491 1109 3222 -1579 0
-4438 3491 0
-4438 -1109 0
-4438 -3222 0
-4438 1579 0
4439 918 -1560 3174 -3499 0
-4439 -918 0
-4439 1560 0
-4439 -3174 0
-4439 3499 0
4440 3150 -1609 1088 -3501 0
-4440 -3150 0
-4440 1609 0
-4440 -1088 0
-4440 3501 0
4441 986 -1649 3225 -3503 0
-4441 -986 0
-4441 1649 0
-4441 -3225 0
-4441 3503 0
4442 3319 -1522 718 -3505 0
-4442 -3319 0
-4442 1522 0
-4442 -718 0
-4442 3505 0
4443 3233 -1592 -3507 1309 0
-4443 -3233 0
-4443 1592 0
-4443 3507 0
-4443 -1309 0
4444 3282 -3515 1359 -1645 0
-4444 -3282 0
-4444 3515 0
-4444 -1359 0
-4444 1645 0
4445 -2674 0
-4445 2674 0
4446 -4447 0
-4446 4447 0
1509 -2677 0
-1509 2677 0
1510 -4448 0
-1510 4448 0
3103 -3102 0
-3103 3102 0
4449 -4450 0
-4449 4450 0
1515 -4451 0
-1515 4451 0
1514 -2679 0
-1514 2679 0
4452 -4453 0
-4452 4453 0
2216 -2215 0
-2216 2215 0
4454 1075 -1629 -4295 3198 0
-4454 -1075 0
-4454 1629 0
-4454 4295 0
-4454 -3198 0
4455 -2217 0
-4455 2217 0
4456 -2924 0
-4456 2924 0
4457 -4458 0
-4457 4458 0
4459 1277 -1542 3141 -3703 0
-4459 -1277 0
-4459 1542 0
-4459 -3141 0
-4459 3703 0
4460 -2926 0
-4460 2926 0
1525 -1642 3135 -3876 982 0
-1525 1642 0
-1525 -3135 0
-1525 3876 0
-1525 -982 0
1526 -2932 0
-1526 2932 0
4461 1273 -3842 3141 -1542 0
-4461 -1273 0
-4461 3842 0
-4461 -3141 0
-4461 1542 0
4462 -2681 0
-4462 2681 0
1530 -4463 0
-1530 4463 0
1531 -2848 0
-1531 2848 0
1534 -2219 0
-1534 2219 0
1533 -4464 0
-1533 4464 0
2221 -2220 0
-2221 2220 0
4465 -4466 0
-4465 4466 0
1538 -2222 0
-1538 2222 0
1539 -3791 1226 3144 -1595 0
-1539 3791 0
-1539 -1226 0
-1539 -3144 0
-1539 1595 0
3025 -3024 0
-3025 3024 0
4467 -4468 0
-4467 4468 0
4469 -4470 0
-4469 4470 0
4471 -2934 0
-4471 2934 0
1545 -4472 0
-1545 4472 0
1546 -2223 0
-1546 2223 0
1548 -4473 0
-1548 4473 0
1549 -4474 0
-1549 4474 0
4475 3127 1425 -1520 -3826 0
-4475 -3127 0
-4475 -1425 0
-4475 1520 0
-4475 3826 0
4476 -2849 0
-4476 2849 0
4477 15 4385 -3687 0
-4477 -15 0
-4477 -4385 0
-4477 3687 0
1555 -1506 3155 -3721 1029 0
-1555 1506 0
-1555 -3155 0
-1555 3721 0
-1555 -1029 0
1556 -2224 0
-1556 2224 0
1558 -4478 0
-1558 4478 0
1559 -2684 0
-1559 2684 0
1561 -3026 0
-1561 3026 0
1562 -4479 0
-1562 4479 0
1564 -4480 0
-1564 4480 0
1565 -2686 0
-1565 2686 0
2852 -2851 0
-2852 2851 0
4481 724 -1522 -4239 3319 0
-4481 -724 0
-4481 1522 0
-4481 4239 0
-4481 -3319 0
2226 -2225 0
-2226 2225 0
4482 -3797 912 3216 -1639 0
-4482 3797 0
-4482 -912 0
-4482 -3216 0
-4482 1639 0
1571 -4483 0
-1571 4483 0
1572 -2227 0
-1572 2227 0
1574 -2228 0
-1574 2228 0
1575 -4484 0
-1575 4484 0
1577 -4485 0
-1577 4485 0
1578 -3027 0
-1578 3027 0
3030 -3029 0
-3030 3029 0
4486 3183 -3185 -1547 0
-4486 -3183 0
-4486 3185 0
-4486 1547 0
1582 -2687 0
-1582 2687 0
1583 -4487 0
-1583 4487 0
2230 -2229 0
-2230 2229 0
4488 -1634 3305 -3891 743 0
-4488 1634 0
-4488 -3305 0
-4488 3891 0
-4488 -743 0
2232 -2231 0
-2232 2231 0
4489 -4490 0
-4489 4490 0
2234 -2233 0
-2234 2233 0
4491 -1506 1032 3155 -3860 0
-4491 1506 0
-4491 -1032 0
-4491 -3155 0
-4491 3860 0
4492 -2688 0
-4492 2688 0
4493 -4494 0
-4493 4494 0
1593 1463 -1524 3158 -3795 0
-1593 -1463 0
-1593 1524 0
-1593 -3158 0
-1593 3795 0
1594 -2853 0
-1594 2853 0
4495 -4496 0
-4495 4496 0
4497 -2235 0
-4497 2235 0
2238 -2237 0
-2238 2237 0
4498 -4499 0
-4498 4499 0
4500 -1566 3229 -3848 770 0
-4500 1566 0
-4500 -3229 0
-4500 3848 0
-4500 -770 0
2691 -2690 0
-2691 2690 0
1602 -2692 0
-1602 2692 0
1603 3192 -1529 1327 -3852 0
-1603 -3192 0
-1603 1529 0
-1603 -1327 0
-1603 3852 0
4501 3255 -1527 -3788 1293 0
-4501 -3255 0
-4501 1527 0
-4501 3788 0
-4501 -1293 0
2240 -2239 0
-2240 2239 0
1607 1290 -1527 -3715 3255 0
-1607 -1290 0
-1607 1527 0
-1607 3715 0
-1607 -3255 0
1608 -2241 0
-1608 2241 0
1610 -2242 0
-1610 2242 0
1611 -4502 0
-1611 4502 0
1613 1412 -3882 -1647 3474 0
-1613 -1412 0
-1613 3882 0
-1613 1647 0
-1613 -3474 0
1614 -2243 0
-1614 2243 0
4503 -4504 0
-4503 4504 0
2245 -2244 0
-2245 2244 0
1618 -4505 0
-1618 4505 0
1619 -2246 0
-1619 2246 0
1621 -4506 0
-1621 4506 0
1622 -2247 0
-1622 2247 0
1624 -2248 0
-1624 2248 0
1625 -4507 0
-1625 4507 0
1627 -2249 0
-1627 2249 0
1628 -4508 0
-1628 4508 0
4509 -2250 0
-4509 2250 0
4510 -4511 0
-4510 4511 0
1632 -2693 0
-1632 2693 0
1633 -4512 0
-1633 4512 0
1635 -4513 0
-1635 4513 0
1636 -2254 0
-1636 2254 0
4514 -4515 0
-4514 4515 0
2257 -2256 0
-2257 2256 0
1640 -2258 0
-1640 2258 0
1641 -4516 0
-1641 4516 0
1643 -4517 0
-1643 4517 0
1644 -2937 0
-1644 2937 0
4518 1349 -3855 -1557 3253 0
-4518 -1349 0
-4518 3855 0
-4518 1557 0
-4518 -3253 0
2261 -2260 0
-2261 2260 0
4519 -2697 0
-4519 2697 0
4520 -4521 0
-4520 4521 0
1650 -2700 0
-1650 2700 0
1651 3319 -3732 727 -1522 0
-1651 -3319 0
-1651 3732 0
-1651 -727 0
-1651 1522 0
2263 -2262 0
-2263 2262 0
4522 -4523 0
-4522 4523 0
4524 3150 1088 -1764 -3501 0
-4524 -3150 0
-4524 -1088 0
-4524 1764 0
-4524 3501 0
4525 3319 -1674 718 -3505 0
-4525 -3319 0
-4525 1674 0
-4525 -718 0
-4525 3505 0
4526 3255 1284 -1678 -3466 0
-4526 -3255 0
-4526 -1284 0
-4526 1678 0
-4526 3466 0
4527 3233 -3507 1309 -1749 0
-4527 -3233 0
-4527 3507 0
-4527 -1309 0
-4527 1749 0
4528 3262 -1685 967 -3485 0
-4528 -3262 0
-4528 1685 0
-4528 -967 0
-4528 3485 0
4529 -1692 1267 3141 -3511 0
-4529 1692 0
-4529 -1267 0
-4529 -3141 0
-4529 3511 0
4530 3241 -1784 -3523 1199 0
-4530 -3241 0
-4530 1784 0
-4530 3523 0
-4530 -1199 0
4531 1297 3201 -3481 -1760 0
-4531 -1297 0
-4531 -3201 0
-4531 3481 0
-4531 1760 0
4532 3198 -1782 -3489 1066 0
-4532 -3198 0
-4532 1782 0
-4532 3489 0
-4532 -1066 0
4533 865 -1666 -3521 3313 0
-4533 -865 0
-4533 1666 0
-4533 3521 0
-4533 -3313 0
4534 1054 3326 -3487 -1694 0
-4534 -1054 0
-4534 -3326 0
-4534 3487 0
-4534 1694 0
4535 3183 1125 -1697 -3493 0
-4535 -3183 0
-4535 -1125 0
-4535 1697 0
-4535 3493 0
4536 762 -1721 3229 -3509 0
-4536 -762 0
-4536 1721 0
-4536 -3229 0
-4536 3509 0
4537 -3525 1137 -1776 3170 0
-4537 3525 0
-4537 -1137 0
-4537 1776 0
-4537 -3170 0
4538 3244 -1740 753 -3519 0
-4538 -3244 0
-4538 1740 0
-4538 -753 0
-4538 3519 0
4539 1445 -3531 3291 -1747 0
-4539 -1445 0
-4539 3531 0
-4539 -3291 0
-4539 1747 0
4540 -4541 0
-4540 4541 0
4542 -1770 3205 -3535 955 0
-4542 1770 0
-4542 -3205 0
-4542 3535 0
-4542 -955 0
4543 829 -3537 3167 -1790 0
-4543 -829 0
-4543 3537 0
-4543 -3167 0
-4543 1790 0
4544 3249 -1659 -3543 1008 0
-4544 -3249 0
-4544 1659 0
-4544 3543 0
-4544 -1008 0
4545 -1752 3144 -3549 1220 0
-4545 1752 0
-4545 -3144 0
-4545 3549 0
-4545 -1220 0
4546 803 3137 -3497 -1762 0
-4546 -803 0
-4546 -3137 0
-4546 3497 0
-4546 1762 0
4547 -1715 918 3174 -3499 0
-4547 1715 0
-4547 -918 0
-4547 -3174 0
-4547 3499 0
4548 3323 -1723 -3555 1333 0
-4548 -3323 0
-4548 1723 0
-4548 3555 0
-4548 -1333 0
4549 -1779 1378 3148 -3547 0
-4549 1779 0
-4549 -1378 0
-4549 -3148 0
-4549 3547 0
4550 3302 -3551 706 -1707 0
-4550 -3302 0
-4550 3551 0
-4550 -706 0
-4550 1707 0
4551 3282 -1797 -3515 1359 0
-4551 -3282 0
-4551 1797 0
-4551 3515 0
-4551 -1359 0
4552 1419 -1671 -3561 3127 0
-4552 -1419 0
-4552 1671 0
-4552 3561 0
-4552 -3127 0
4553 3308 -1772 1258 -3517 0
-4553 -3308 0
-4553 1772 0
-4553 -1258 0
-4553 3517 0
4554 -1687 -4321 1233 3181 0
-4554 1687 0
-4554 4321 0
-4554 -1233 0
-4554 -3181 0
4555 -4380 1494 3316 -1745 0
-4555 4380 0
-4555 -1494 0
-4555 -3316 0
-4555 1745 0
4556 838 -1709 3208 -3527 0
-4556 -838 0
-4556 1709 0
-4556 -3208 0
-4556 3527 0
4557 3219 -1669 -3563 848 0
-4557 -3219 0
-4557 1669 0
-4557 3563 0
-4557 -848 0
4558 -3533 1242 3277 -1805 0
-4558 3533 0
-4558 -1242 0
-4558 -3277 0
-4558 1805 0
4559 -1754 -3541 1390 3266 0
-4559 1754 0
-4559 3541 0
-4559 -1390 0
-4559 -3266 0
4560 3176 -1742 -3452 1368 0
-4560 -3176 0
-4560 1742 0
-4560 3452 0
-4560 -1368 0
4561 -3458 1023 -1656 3155 0
-4561 3458 0
-4561 -1023 0
-4561 1656 0
-4561 -3155 0
4562 3158 1459 -1676 -3460 0
-4562 -3158 0
-4562 -1459 0
-4562 1676 0
-4562 3460 0
4563 1479 3123 -3545 -1758 0
-4563 -1479 0
-4563 -3123 0
-4563 3545 0
-4563 1758 0
4564 -1792 3216 -3539 906 0
-4564 1792 0
-4564 -3216 0
-4564 3539 0
-4564 -906 0
4565 -3553 738 3305 -1787 0
-4565 3553 0
-4565 -738 0
-4565 -3305 0
-4565 1787 0
4566 1322 -3456 3192 -1680 0
-4566 -1322 0
-4566 3456 0
-4566 -3192 0
-4566 1680 0
4567 3298 -1705 -3468 1429 0
-4567 -3298 0
-4567 1705 0
-4567 3468 0
-4567 -1429 0
4568 3187 -1737 1039 -3477 0
-4568 -3187 0
-4568 1737 0
-4568 -1039 0
-4568 3477 0
4569 3474 -1799 -3475 1405 0
-4569 -3474 0
-4569 1799 0
-4569 3475 0
-4569 -1405 0
4570 -1728 1097 3285 -3462 0
-4570 1728 0
-4570 -1097 0
-4570 -3285 0
-4570 3462 0
4571 -1731 -3557 1165 3271 0
-4571 1731 0
-4571 3557 0
-4571 -1165 0
-4571 -3271 0
4572 894 -3472 3274 -1682 0
-4572 -894 0
-4572 3472 0
-4572 -3274 0
-4572 1682 0
1505 -1504 0
-1505 1504 0
4573 -1712 1345 3253 -3483 0
-4573 1712 0
-4573 -1345 0
-4573 -3253 0
-4573 3483 0
4574 1149 3259 -3479 -1661 0
-4574 -1149 0
-4574 -3259 0
-4574 3479 0
-4574 1661 0
4575 -1794 -3565 978 3135 0
-4575 1794 0
-4575 3565 0
-4575 -978 0
-4575 -3135 0
4576 1470 -3567 3212 -1767 0
-4576 -1470 0
-4576 3567 0
-4576 -3212 0
-4576 1767 0
4577 -1734 -3491 1109 3222 0
-4577 1734 0
-4577 3491 0
-4577 -1109 0
-4577 -3222 0
4578 873 3130 -3495 -1718 0
-4578 -873 0
-4578 -3130 0
-4578 3495 0
-4578 1718 0
4579 -3450 791 -1756 3164 0
-4579 3450 0
-4579 -791 0
-4579 1756 0
-4579 -3164 0
4580 943 -3454 3237 -1725 0
-4580 -943 0
-4580 3454 0
-4580 -3237 0
-4580 1725 0
4581 986 3225 -3503 -1802 0
-4581 -986 0
-4581 -3225 0
-4581 3503 0
-4581 1802 0
4582 3294 -1774 779 -3464 0
-4582 -3294 0
-4582 1774 0
-4582 -779 0
-4582 3464 0
4583 1177 3287 -3470 -1690 0
-4583 -1177 0
-4583 -3287 0
-4583 3470 0
-4583 1690 0
1657 -2701 0
-1657 2701 0
1658 -4584 0
-1658 4584 0
4585 -2702 0
-4585 2702 0
4586 -4587 0
-4586 4587 0
4588 -4589 0
-4588 4589 0
4590 -3104 0
-4590 3104 0
1664 -4591 0
-1664 4591 0
1665 -2709 0
-1665 2709 0
1667 -2264 0
-1667 2264 0
1668 3219 -3822 854 -1669 0
-1668 -3219 0
-1668 3822 0
-1668 -854 0
-1668 1669 0
2266 -2265 0
-2266 2265 0
4592 1075 -1782 -4295 3198 0
-4592 -1075 0
-4592 1782 0
-4592 4295 0
-4592 -3198 0
1672 -4593 0
-1672 4593 0
1673 -2939 0
-1673 2939 0
4594 -2940 0
-4594 2940 0
4595 -1692 1277 3141 -3703 0
-4595 1692 0
-4595 -1277 0
-4595 -3141 0
-4595 3703 0
4596 3135 -1794 -3876 982 0
-4596 -3135 0
-4596 1794 0
-4596 3876 0
-4596 -982 0
2950 -2949 0
-2950 2949 0
2717 -2716 0
-2717 2716 0
4597 1273 -1692 -3842 3141 0
-4597 -1273 0
-4597 1692 0
-4597 3842 0
-4597 -3141 0
4598 3233 -4339 1313 -1749 0
-4598 -3233 0
-4598 4339 0
-4598 -1313 0
-4598 1749 0
2856 -2855 0
-2856 2855 0
1683 -4599 0
-1683 4599 0
1684 -2267 0
-1684 2267 0
4600 -2273 0
-4600 2273 0
4601 -4602 0
-4601 4602 0
1688 -1752 -3791 1226 3144 0
-1688 1752 0
-1688 3791 0
-1688 -1226 0
-1688 -3144 0
1689 -2278 0
-1689 2278 0
4603 -4604 0
-4603 4604 0
4605 -3031 0
-4605 3031 0
4606 -2951 0
-4606 2951 0
4607 -4608 0
-4607 4608 0
1695 -4609 0
-1695 4609 0
1696 -2284 0
-1696 2284 0
1698 -4610 0
-1698 4610 0
1699 -1504 536 3694 -4091 0
-1699 1504 0
-1699 -536 0
-1699 -3694 0
-1699 4091 0
1700 3699 -2114 -3980 409 0
-1700 -3699 0
-1700 2114 0
-1700 3980 0
-1700 -409 0
1701 -1547 0
-1701 1547 0
1702 -4203 662 3691 -2108 0
-1702 4203 0
-1702 -662 0
-1702 -3691 0
-1702 2108 0
1703 -4611 0
-1703 4611 0
1704 -3836 234 3697 -2102 0
-1704 3836 0
-1704 -234 0
-1704 -3697 0
-1704 2102 0
4612 -2857 0
-4612 2857 0
4613 3127 1425 -1671 -3826 0
-4613 -3127 0
-4613 -1425 0
-4613 1671 0
-4613 3826 0
4614 -4615 0
-4614 4615 0
4616 -3696 295 3697 -2102 0
-4616 3696 0
-4616 -295 0
-4616 -3697 0
-4616 2102 0
4617 -3693 562 3694 -1504 0
-4617 3693 0
-4617 -562 0
-4617 -3694 0
-4617 1504 0
1553 -1552 0
-1553 1552 0
4618 688 -2108 -3690 3691 0
-4618 -688 0
-4618 2108 0
-4618 3690 0
-4618 -3691 0
1710 -2290 0
-1710 2290 0
1711 -1656 3155 -3721 1029 0
-1711 1656 0
-1711 -3155 0
-1711 3721 0
-1711 -1029 0
1713 -4619 0
-1713 4619 0
1714 -2718 0
-1714 2718 0
1716 -4620 0
-1716 4620 0
1717 -3039 0
-1717 3039 0
1719 -2719 0
-1719 2719 0
1720 -4621 0
-1720 4621 0
4622 -4623 0
-4622 4623 0
4624 -2863 0
-4624 2863 0
4625 -3797 912 3216 -1792 0
-4625 3797 0
-4625 -912 0
-4625 -3216 0
-4625 1792 0
2292 -2291 0
-2292 2291 0
1726 -4626 0
-1726 4626 0
1727 -2293 0
-1727 2293 0
1729 -2294 0
-1729 2294 0
1730 -4627 0
-1730 4627 0
1732 -3042 0
-1732 3042 0
1733 -4628 0
-1733 4628 0
1735 -3049 0
-1735 3049 0
1736 -4629 0
-1736 4629 0
1738 -2727 0
-1738 2727 0
1739 -4630 0
-1739 4630 0
4631 -2300 0
-4631 2300 0
4632 -4633 0
-4632 4633 0
1743 -3804 1488 -1758 3123 0
-1743 3804 0
-1743 -1488 0
-1743 1758 0
-1743 -3123 0
1744 -2305 0
-1744 2305 0
4634 -2306 0
-4634 2306 0
4635 -4636 0
-4635 4636 0
4637 -2728 0
-4637 2728 0
4638 -4639 0
-4638 4639 0
1750 -2870 0
-1750 2870 0
1751 1463 3158 -3795 -1676 0
-1751 -1463 0
-1751 -3158 0
-1751 3795 0
-1751 1676 0
4640 -2311 0
-4640 2311 0
4641 -4642 0
-4641 4642 0
4643 3187 -1737 -3810 1048 0
-4643 -3187 0
-4643 1737 0
-4643 3810 0
-4643 -1048 0
2318 -2317 0
-2318 2317 0
4644 3229 -1721 -3848 770 0
-4644 -3229 0
-4644 1721 0
-4644 3848 0
-4644 -770 0
4645 -2734 0
-4645 2734 0
4646 -2740 0
-4646 2740 0
4647 3192 1327 -1680 -3852 0
-4647 -3192 0
-4647 -1327 0
-4647 1680 0
-4647 3852 0
2320 -2319 0
-2320 2319 0
4648 3255 -1678 -3788 1293 0
-4648 -3255 0
-4648 1678 0
-4648 3788 0
-4648 -1293 0
4649 -4650 0
-4649 4650 0
2322 -2321 0
-2322 2321 0
1765 -2323 0
-1765 2323 0
1766 -4651 0
-1766 4651 0
1768 -2329 0
-1768 2329 0
1769 -4652 0
-1769 4652 0
4653 -1715 -3740 927 3174 0
-4653 1715 0
-4653 3740 0
-4653 -927 0
-4653 -3174 0
2331 -2330 0
-2331 2330 0
4654 -2332 0
-4654 2332 0
4655 -4656 0
-4655 4656 0
4657 -2338 0
-4657 2338 0
4658 768 -4252 -1721 3229 0
-4658 -768 0
-4658 4252 0
-4658 1721 0
-4658 -3229 0
1777 -2344 0
-1777 2344 0
1778 -4659 0
-1778 4659 0
1780 -4660 0
-1780 4660 0
1781 -2350 0
-1781 2350 0
2357 -2356 0
-2357 2356 0
4661 3291 1451 -1747 -3745 0
-4661 -3291 0
-4661 -1451 0
-4661 1747 0
-4661 3745 0
1785 -2748 0
-1785 2748 0
1786 -4662 0
-1786 4662 0
1788 -4663 0
-1788 4663 0
1789 -2358 0
-1789 2358 0
4664 -2365 0
-4664 2365 0
4665 -4666 0
-4665 4666 0
4667 -4668 0
-4667 4668 0
4669 -2370 0
-4669 2370 0
1795 -4670 0
-1795 4670 0
1796 -2958 0
-1796 2958 0
2378 -2377 0
-2378 2377 0
4671 1349 -1712 -3855 3253 0
-4671 -1349 0
-4671 1712 0
-4671 3855 0
-4671 -3253 0
1800 -4672 0
-1800 4672 0
1801 -2749 0
-1801 2749 0
1803 3319 -1674 -3732 727 0
-1803 -3319 0
-1803 1674 0
-1803 3732 0
-1803 -727 0
1804 -2750 0
-1804 2750 0
4673 -2379 0
-4673 2379 0
4674 -4675 0
-4674 4675 0
4676 1470 -3567 3212 -1919 0
-4676 -1470 0
-4676 3567 0
-4676 -3212 0
-4676 1919 0
4677 873 3130 -3495 -1870 0
-4677 -873 0
-4677 -3130 0
-4677 3495 0
-4677 1870 0
4678 -3450 791 -1907 3164 0
-4678 3450 0
-4678 -791 0
-4678 1907 0
-4678 -3164 0
4679 943 -1877 -3454 3237 0
-4679 -943 0
-4679 1877 0
-4679 3454 0
-4679 -3237 0
4680 1322 -1832 -3456 3192 0
-4680 -1322 0
-4680 1832 0
-4680 3456 0
-4680 -3192 0
4681 -1809 -3458 1023 3155 0
-4681 1809 0
-4681 3458 0
-4681 -1023 0
-4681 -3155 0
4682 3158 1459 -1827 -3460 0
-4682 -3158 0
-4682 -1459 0
-4682 1827 0
-4682 3460 0
4683 1177 3287 -3470 -1842 0
-4683 -1177 0
-4683 -3287 0
-4683 3470 0
-4683 1842 0
4684 3294 779 -1925 -3464 0
-4684 -3294 0
-4684 -779 0
-4684 1925 0
-4684 3464 0
4685 3255 -1830 1284 -3466 0
-4685 -3255 0
-4685 1830 0
-4685 -1284 0
-4685 3466 0
4686 3298 -1857 -3468 1429 0
-4686 -3298 0
-4686 1857 0
-4686 3468 0
-4686 -1429 0
4687 3187 1039 -1888 -3477 0
-4687 -3187 0
-4687 -1039 0
-4687 1888 0
-4687 3477 0
4688 3150 -1916 1088 -3501 0
-4688 -3150 0
-4688 1916 0
-4688 -1088 0
-4688 3501 0
4689 894 -1834 -3472 3274 0
-4689 -894 0
-4689 1834 0
-4689 3472 0
-4689 -3274 0
4690 1149 3259 -3479 -1813 0
-4690 -1149 0
-4690 -3259 0
-4690 3479 0
-4690 1813 0
4691 3262 -1837 967 -3485 0
-4691 -3262 0
-4691 1837 0
-4691 -967 0
-4691 3485 0
4692 1054 3326 -3487 -1846 0
-4692 -1054 0
-4692 -3326 0
-4692 3487 0
-4692 1846 0
4693 -1935 3241 -3523 1199 0
-4693 1935 0
-4693 -3241 0
-4693 3523 0
-4693 -1199 0
4694 1297 3201 -3481 -1912 0
-4694 -1297 0
-4694 -3201 0
-4694 3481 0
-4694 1912 0
4695 3244 -1891 753 -3519 0
-4695 -3244 0
-4695 1891 0
-4695 -753 0
-4695 3519 0
4696 3198 -1933 -3489 1066 0
-4696 -3198 0
-4696 1933 0
-4696 3489 0
-4696 -1066 0
4697 865 -1818 -3521 3313 0
-4697 -865 0
-4697 1818 0
-4697 3521 0
-4697 -3313 0
4698 -3491 1109 3222 -1886 0
-4698 3491 0
-4698 -1109 0
-4698 -3222 0
-4698 1886 0
4699 3183 -1849 1125 -3493 0
-4699 -3183 0
-4699 1849 0
-4699 -1125 0
-4699 3493 0
4700 -3525 1137 3170 -1927 0
-4700 3525 0
-4700 -1137 0
-4700 -3170 0
-4700 1927 0
4701 803 -1914 3137 -3497 0
-4701 -803 0
-4701 1914 0
-4701 -3137 0
-4701 3497 0
4702 -1867 918 3174 -3499 0
-4702 1867 0
-4702 -918 0
-4702 -3174 0
-4702 3499 0
4703 986 -1951 3225 -3503 0
-4703 -986 0
-4703 1951 0
-4703 -3225 0
-4703 3503 0
4704 -1930 1378 3148 -3547 0
-4704 1930 0
-4704 -1378 0
-4704 -3148 0
-4704 3547 0
4705 3319 718 -1825 -3505 0
-4705 -3319 0
-4705 -718 0
-4705 1825 0
-4705 3505 0
4706 3302 -1859 -3551 706 0
-4706 -3302 0
-4706 1859 0
-4706 3551 0
-4706 -706 0
4707 3233 -1900 -3507 1309 0
-4707 -3233 0
-4707 1900 0
-4707 3507 0
-4707 -1309 0
4708 -1873 762 3229 -3509 0
-4708 1873 0
-4708 -762 0
-4708 -3229 0
-4708 3509 0
4709 1267 -1844 3141 -3511 0
-4709 -1267 0
-4709 1844 0
-4709 -3141 0
-4709 3511 0
4710 -4321 1233 -1839 3181 0
-4710 4321 0
-4710 -1233 0
-4710 1839 0
-4710 -3181 0
4711 3282 -3515 1359 -1947 0
-4711 -3282 0
-4711 3515 0
-4711 -1359 0
-4711 1947 0
4712 3308 1258 -1923 -3517 0
-4712 -3308 0
-4712 -1258 0
-4712 1923 0
-4712 3517 0
4713 -4380 1494 3316 -1896 0
-4713 4380 0
-4713 -1494 0
-4713 -3316 0
-4713 1896 0
4714 838 3208 -3527 -1861 0
-4714 -838 0
-4714 -3208 0
-4714 3527 0
-4714 1861 0
4715 3195 -1815 -3529 813 0
-4715 -3195 0
-4715 1815 0
-4715 3529 0
-4715 -813 0
4716 1445 -1898 -3531 3291 0
-4716 -1445 0
-4716 1898 0
-4716 3531 0
-4716 -3291 0
4717 3205 -1921 -3535 955 0
-4717 -3205 0
-4717 1921 0
-4717 3535 0
-4717 -955 0
4718 -1954 -3533 1242 3277 0
-4718 1954 0
-4718 3533 0
-4718 -1242 0
-4718 -3277 0
4719 -3541 1390 3266 -1905 0
-4719 3541 0
-4719 -1390 0
-4719 -3266 0
-4719 1905 0
4720 -1811 3249 -3543 1008 0
-4720 1811 0
-4720 -3249 0
-4720 3543 0
-4720 -1008 0
4721 3216 -3539 906 -1942 0
-4721 -3216 0
-4721 3539 0
-4721 -906 0
-4721 1942 0
4722 3176 -1893 -3452 1368 0
-4722 -3176 0
-4722 1893 0
-4722 3452 0
-4722 -1368 0
4723 1479 3123 -3545 -1910 0
-4723 -1479 0
-4723 -3123 0
-4723 3545 0
-4723 1910 0
4724 829 -1940 -3537 3167 0
-4724 -829 0
-4724 1940 0
-4724 3537 0
-4724 -3167 0
4725 -3553 738 -1938 3305 0
-4725 3553 0
-4725 -738 0
-4725 1938 0
-4725 -3305 0
4726 3144 -1903 -3549 1220 0
-4726 -3144 0
-4726 1903 0
-4726 3549 0
-4726 -1220 0
4727 -1880 1097 3285 -3462 0
-4727 1880 0
-4727 -1097 0
-4727 -3285 0
-4727 3462 0
4728 -1949 3474 -3475 1405 0
-4728 1949 0
-4728 -3474 0
-4728 3475 0
-4728 -1405 0
4729 3323 -1875 -3555 1333 0
-4729 -3323 0
-4729 1875 0
-4729 3555 0
-4729 -1333 0
4730 -3557 1165 -1883 3271 0
-4730 3557 0
-4730 -1165 0
-4730 1883 0
-4730 -3271 0
4731 1419 -3561 3127 -1822 0
-4731 -1419 0
-4731 3561 0
-4731 -3127 0
-4731 1822 0
1655 -1654 0
-1655 1654 0
4732 1345 -1864 3253 -3483 0
-4732 -1345 0
-4732 1864 0
-4732 -3253 0
-4732 3483 0
4733 -3565 978 -1944 3135 0
-4733 3565 0
-4733 -978 0
-4733 1944 0
-4733 -3135 0
4734 3219 -1820 -3563 848 0
-4734 -3219 0
-4734 1820 0
-4734 3563 0
-4734 -848 0
4735 -4736 0
-4735 4736 0
4737 -2751 0
-4737 2751 0
4738 -2759 0
-4738 2759 0
4739 -4740 0
-4739 4740 0
4741 -4742 0
-4741 4742 0
4743 -3110 0
-4743 3110 0
1816 -2765 0
-1816 2765 0
1817 -4744 0
-1817 4744 0
4745 3219 -3822 854 -1820 0
-4745 -3219 0
-4745 3822 0
-4745 -854 0
-4745 1820 0
2386 -2385 0
-2386 2385 0
4746 1075 -1933 -4295 3198 0
-4746 -1075 0
-4746 1933 0
-4746 4295 0
-4746 -3198 0
2388 -2387 0
-2388 2387 0
1823 -4747 0
-1823 4747 0
1824 -2965 0
-1824 2965 0
4748 -2966 0
-4748 2966 0
4749 1277 -1844 3141 -3703 0
-4749 -1277 0
-4749 1844 0
-4749 -3141 0
-4749 3703 0
1828 -2970 0
-1828 2970 0
1829 3135 -1944 -3876 982 0
-1829 -3135 0
-1829 1944 0
-1829 3876 0
-1829 -982 0
2767 -2766 0
-2767 2766 0
4750 1273 -3842 3141 -1844 0
-4750 -1273 0
-4750 3842 0
-4750 -3141 0
-4750 1844 0
4751 -4752 0
-4751 4752 0
4753 -2873 0
-4753 2873 0
1835 -4754 0
-1835 4754 0
1836 -2389 0
-1836 2389 0
4755 -4756 0
-4755 4756 0
4757 -2395 0
-4757 2395 0
1840 -2400 0
-1840 2400 0
1841 -3791 1226 3144 -1903 0
-1841 3791 0
-1841 -1226 0
-1841 -3144 0
-1841 1903 0
4758 -4759 0
-4758 4759 0
4760 -3052 0
-4760 3052 0
4761 -2971 0
-4761 2971 0
4762 -4763 0
-4762 4763 0
1847 -2406 0
-1847 2406 0
1848 -4764 0
-1848 4764 0
1855 -1654 536 3694 -4091 0
-1855 1654 0
-1855 -536 0
-1855 -3694 0
-1855 4091 0
1856 -1697 0
-1856 1697 0
1850 -3836 234 3697 -2104 0
-1850 3836 0
-1850 -234 0
-1850 -3697 0
-1850 2104 0
1851 -4765 0
-1851 4765 0
1852 -4766 0
-1852 4766 0
1853 -4203 662 3691 -2110 0
-1853 4203 0
-1853 -662 0
-1853 -3691 0
-1853 2110 0
1854 3699 -2116 -3980 409 0
-1854 -3699 0
-1854 2116 0
-1854 3980 0
-1854 -409 0
4767 -2879 0
-4767 2879 0
4768 -4769 0
-4768 4769 0
4770 688 -2110 -3690 3691 0
-4770 -688 0
-4770 2110 0
-4770 3690 0
-4770 -3691 0
4771 -3693 562 -1654 3694 0
-4771 3693 0
-4771 -562 0
-4771 1654 0
-4771 -3694 0
1708 -1707 0
-1708 1707 0
4772 3699 435 -2116 -3700 0
-4772 -3699 0
-4772 -435 0
-4772 2116 0
-4772 3700 0
4773 -3696 295 3697 -2104 0
-4773 3696 0
-4773 -295 0
-4773 -3697 0
-4773 2104 0
1862 -1809 3155 -3721 1029 0
-1862 1809 0
-1862 -3155 0
-1862 3721 0
-1862 -1029 0
1863 -2412 0
-1863 2412 0
1865 -2768 0
-1865 2768 0
1866 -4774 0
-1866 4774 0
1868 -3060 0
-1868 3060 0
1869 -4775 0
-1869 4775 0
1871 -4776 0
-1871 4776 0
1872 -2769 0
-1872 2769 0
4777 -2885 0
-4777 2885 0
4778 724 -4239 -1825 3319 0
-4778 -724 0
-4778 4239 0
-4778 1825 0
-4778 -3319 0
4779 -3797 912 3216 -1942 0
-4779 3797 0
-4779 -912 0
-4779 -3216 0
-4779 1942 0
2414 -2413 0
-2414 2413 0
1878 -2415 0
-1878 2415 0
1879 -4780 0
-1879 4780 0
1881 -4781 0
-1881 4781 0
1882 -2416 0
-1882 2416 0
1884 -4782 0
-1884 4782 0
1885 -3063 0
-1885 3063 0
4783 3183 -3185 -1849 0
-4783 -3183 0
-4783 3185 0
-4783 1849 0
3071 -3070 0
-3071 3070 0
1889 -2777 0
-1889 2777 0
1890 -4784 0
-1890 4784 0
4785 -4786 0
-4785 4786 0
4787 -2422 0
-4787 2422 0
1894 -2427 0
-1894 2427 0
1895 -3804 1488 3123 -1910 0
-1895 3804 0
-1895 -1488 0
-1895 -3123 0
-1895 1910 0
4788 -1809 1032 3155 -3860 0
-4788 1809 0
-4788 -1032 0
-4788 -3155 0
-4788 3860 0
2429 -2428 0
-2429 2428 0
4789 -2778 0
-4789 2778 0
4790 -4791 0
-4790 4791 0
1901 -2888 0
-1901 2888 0
1902 1463 3158 -3795 -1827 0
-1902 -1463 0
-1902 -3158 0
-1902 3795 0
-1902 1827 0
4792 -2430 0
-4792 2430 0
4793 -4794 0
-4793 4794 0
2437 -2436 0
-2437 2436 0
4795 -4796 0
-4795 4796 0
1908 -2784 0
-1908 2784 0
1909 -4797 0
-1909 4797 0
2791 -2790 0
-2791 2790 0
4798 3192 1327 -1832 -3852 0
-4798 -3192 0
-4798 -1327 0
-4798 1832 0
-4798 3852 0
4799 3255 -1830 -3788 1293 0
-4799 -3255 0
-4799 1830 0
-4799 3788 0
-4799 -1293 0
2439 -2438 0
-2439 2438 0
2441 -2440 0
-2441 2440 0
4800 1290 -1830 -3715 3255 0
-4800 -1290 0
-4800 1830 0
-4800 3715 0
-4800 -3255 0
1917 -2442 0
-1917 2442 0
1918 -4801 0
-1918 4801 0
4802 -2448 0
-4802 2448 0
4803 -4804 0
-4803 4804 0
4805 -1867 -3740 927 3174 0
-4805 1867 0
-4805 3740 0
-4805 -927 0
-4805 -3174 0
2455 -2454 0
-2455 2454 0
4806 -4807 0
-4806 4807 0
4808 -2456 0
-4808 2456 0
4809 -2461 0
-4809 2461 0
4810 768 -4252 -1873 3229 0
-4810 -768 0
-4810 4252 0
-4810 1873 0
-4810 -3229 0
1928 -2466 0
-1928 2466 0
1929 -4811 0
-1929 4811 0
1931 -4812 0
-1931 4812 0
1932 -2472 0
-1932 2472 0
4813 -4814 0
-4813 4814 0
2479 -2478 0
-2479 2478 0
1936 -2792 0
-1936 2792 0
1937 -4815 0
-1937 4815 0
4816 -4817 0
-4816 4817 0
4818 -2480 0
-4818 2480 0
4819 -4820 0
-4819 4820 0
4821 -2487 0
-4821 2487 0
4822 -2492 0
-4822 2492 0
4823 -4824 0
-4823 4824 0
1945 -4825 0
-1945 4825 0
1946 -2978 0
-1946 2978 0
2499 -2498 0
-2499 2498 0
4826 1349 -3855 -1864 3253 0
-4826 -1349 0
-4826 3855 0
-4826 1864 0
-4826 -3253 0
2794 -2793 0
-2794 2793 0
4827 -4828 0
-4827 4828 0
1952 3319 -3732 727 -1825 0
-1952 -3319 0
-1952 3732 0
-1952 -727 0
-1952 1825 0
1953 -2795 0
-1953 2795 0
4829 -4830 0
-4829 4830 0
4831 -2500 0
-4831 2500 0
4832 -4833 0
-4832 4833 0
2797 -2796 0
-2797 2796 0
4834 -2798 0
-4834 2798 0
4835 -4836 0
-4835 4836 0
4837 -4838 0
-4837 4838 0
4839 -3116 0
-4839 3116 0
4840 -4841 0
-4840 4841 0
2805 -2804 0
-2805 2804 0
2507 -2506 0
-2507 2506 0
4842 3219 -3822 854 -1966 0
-4842 -3219 0
-4842 3822 0
-4842 -854 0
-4842 1966 0
2509 -2508 0
-2509 2508 0
4843 1075 -4295 -2078 3198 0
-4843 -1075 0
-4843 4295 0
-4843 2078 0
-4843 -3198 0
4844 -4845 0
-4844 4845 0
4846 -2979 0
-4846 2979 0
4847 -1988 1277 3141 -3703 0
-4847 1988 0
-4847 -1277 0
-4847 -3141 0
-4847 3703 0
4848 -2986 0
-4848 2986 0
1973 3135 -2090 -3876 982 0
-1973 -3135 0
-1973 2090 0
-1973 3876 0
-1973 -982 0
1974 -2990 0
-1974 2990 0
2807 -2806 0
-2807 2806 0
4849 1273 -1988 -3842 3141 0
-4849 -1273 0
-4849 1988 0
-4849 3842 0
-4849 -3141 0
4850 -4851 0
-4850 4851 0
4852 -2895 0
-4852 2895 0
1980 -4853 0
-1980 4853 0
1981 -2510 0
-1981 2510 0
4854 -2516 0
-4854 2516 0
4855 -4856 0
-4855 4856 0
1985 -3791 1226 3144 -2050 0
-1985 3791 0
-1985 -1226 0
-1985 -3144 0
-1985 2050 0
1986 -2521 0
-1986 2521 0
4857 -4858 0
-4857 4858 0
4859 -3072 0
-4859 3072 0
4860 -4861 0
-4860 4861 0
4862 -2991 0
-4862 2991 0
1991 -2527 0
-1991 2527 0
1992 -4863 0
-1992 4863 0
1997 -4203 662 -2112 3691 0
-1997 4203 0
-1997 -662 0
-1997 2112 0
-1997 -3691 0
1998 -2106 -3836 234 3697 0
-1998 2106 0
-1998 3836 0
-1998 -234 0
-1998 -3697 0
1999 -4864 0
-1999 4864 0
2000 536 -1807 3694 -4091 0
-2000 -536 0
-2000 1807 0
-2000 -3694 0
-2000 4091 0
1994 -4865 0
-1994 4865 0
1995 -1849 0
-1995 1849 0
1996 3699 -2118 -3980 409 0
-1996 -3699 0
-1996 2118 0
-1996 3980 0
-1996 -409 0
4866 -4867 0
-4866 4867 0
4868 -2901 0
-4868 2901 0
2004 -4869 0
-2004 4869 0
2005 3699 435 -2118 -3700 0
-2005 -3699 0
-2005 -435 0
-2005 2118 0
-2005 3700 0
1860 -1859 0
-1860 1859 0
2006 -4870 0
-2006 4870 0
2007 -4871 0
-2007 4871 0
2009 -2533 0
-2009 2533 0
2010 -1956 3155 -3721 1029 0
-2010 1956 0
-2010 -3155 0
-2010 3721 0
-2010 -1029 0
2012 -2808 0
-2012 2808 0
2013 -4872 0
-2013 4872 0
2015 -4873 0
-2015 4873 0
2016 -3080 0
-2016 3080 0
2018 -4874 0
-2018 4874 0
2019 -2809 0
-2019 2809 0
4875 724 -1970 -4239 3319 0
-4875 -724 0
-4875 1970 0
-4875 4239 0
-4875 -3319 0
4876 -2907 0
-4876 2907 0
4877 -2088 -3797 912 3216 0
-4877 2088 0
-4877 3797 0
-4877 -912 0
-4877 -3216 0
2535 -2534 0
-2535 2534 0
2537 -2536 0
-2537 2536 0
4878 924 -2014 -3734 3174 0
-4878 -924 0
-4878 2014 0
-4878 3734 0
-4878 -3174 0
2027 -4879 0
-2027 4879 0
2028 -2538 0
-2028 2538 0
2030 -4880 0
-2030 4880 0
2031 -3083 0
-2031 3083 0
4881 -3090 0
-4881 3090 0
4882 -4883 0
-4882 4883 0
2035 -4884 0
-2035 4884 0
2036 -2817 0
-2036 2817 0
4885 -4886 0
-4885 4886 0
4887 -2544 0
-4887 2544 0
2040 -3804 1488 3123 -2056 0
-2040 3804 0
-2040 -1488 0
-2040 -3123 0
-2040 2056 0
2041 -2549 0
-2041 2549 0
2043 -2550 0
-2043 2550 0
2044 -1956 1032 3155 -3860 0
-2044 1956 0
-2044 -1032 0
-2044 -3155 0
-2044 3860 0
4888 -2818 0
-4888 2818 0
4889 -4890 0
-4889 4890 0
2048 1463 3158 -3795 -1972 0
-2048 -1463 0
-2048 -3158 0
-2048 3795 0
-2048 1972 0
2049 -2910 0
-2049 2910 0
4891 -2555 0
-4891 2555 0
4892 -4893 0
-4892 4893 0
4894 -4895 0
-4894 4895 0
2562 -2561 0
-2562 2561 0
2825 -2824 0
-2825 2824 0
4896 -2020 3229 -3848 770 0
-4896 2020 0
-4896 -3229 0
-4896 3848 0
-4896 -770 0
2827 -2826 0
-2827 2826 0
4897 3192 1327 -1977 -3852 0
-4897 -3192 0
-4897 -1327 0
-4897 1977 0
-4897 3852 0
4898 3255 -1975 -3788 1293 0
-4898 -3255 0
-4898 1975 0
-4898 3788 0
-4898 -1293 0
2564 -2563 0
-2564 2563 0
2566 -2565 0
-2566 2565 0
4899 1290 -3715 -1975 3255 0
-4899 -1290 0
-4899 3715 0
-4899 1975 0
-4899 -3255 0
2063 -2567 0
-2063 2567 0
2064 -4900 0
-2064 4900 0
4901 -2573 0
-4901 2573 0
4902 -4903 0
-4902 4903 0
4904 -2014 -3740 927 3174 0
-4904 2014 0
-4904 3740 0
-4904 -927 0
-4904 -3174 0
2579 -2578 0
-2579 2578 0
4905 -2580 0
-4905 2580 0
4906 -4907 0
-4906 4907 0
4908 768 -2020 -4252 3229 0
-4908 -768 0
-4908 2020 0
-4908 4252 0
-4908 -3229 0
4909 -2585 0
-4909 2585 0
2074 -4910 0
-2074 4910 0
2075 -2590 0
-2075 2590 0
2597 -2596 0
-2597 2596 0
4911 1045 -2034 -4291 3187 0
-4911 -1045 0
-4911 2034 0
-4911 4291 0
-4911 -3187 0
4912 3291 1451 -2045 -3745 0
-4912 -3291 0
-4912 -1451 0
-4912 2045 0
-4912 3745 0
2599 -2598 0
-2599 2598 0
2081 -4913 0
-2081 4913 0
2082 -2828 0
-2082 2828 0
2601 -2600 0
-2601 2600 0
4914 -4915 0
-4914 4915 0
2086 -4916 0
-2086 4916 0
2087 -2602 0
-2087 2602 0
4917 -2607 0
-4917 2607 0
4918 -4919 0
-4918 4919 0
2999 -2998 0
-2999 2998 0
4920 -4921 0
-4920 4921 0
4922 1349 -3855 3253 -2011 0
-4922 -1349 0
-4922 3855 0
-4922 -3253 0
-4922 2011 0
2614 -2613 0
-2614 2613 0
2095 -2829 0
-2095 2829 0
2096 -4923 0
-2096 4923 0
2098 -2830 0
-2098 2830 0
2099 3319 -1970 -3732 727 0
-2099 -3319 0
-2099 1970 0
-2099 3732 0
-2099 -727 0
4924 -2615 0
-4924 2615 0
4925 -4926 0
-4925 4926 0
4927 -4928 0
-4927 4928 0
4929 3126 3127 -1520 -3128 0
-4929 -3126 0
-4929 -3127 0
-4929 1520 0
-4929 3128 0
4930 -1597 3266 -3267 0
-4930 1597 0
-4930 -3266 0
-4930 3267 0
4931 3294 -3295 -1620 3296 0
-4931 -3294 0
-4931 3295 0
-4931 1620 0
-4931 -3296 0
4932 3133 -1642 -3134 3135 0
-4932 -3133 0
-4932 1642 0
-4932 3134 0
-4932 -3135 0
4933 -4934 0
-4933 4934 0
4935 -3140 3141 -1542 0
-4935 3140 0
-4935 -3141 0
-4935 1542 0
4936 3150 -1609 -3151 3152 0
-4936 -3150 0
-4936 1609 0
-4936 3151 0
-4936 -3152 0
4937 3158 -1524 -3159 3160 0
-4937 -3158 0
-4937 1524 0
-4937 3159 0
-4937 -3160 0
4938 3162 -3163 3164 -1599 0
-4938 -3162 0
-4938 3163 0
-4938 -3164 0
-4938 1599 0
4939 3166 3167 -1637 -3168 0
-4939 -3166 0
-4939 -3167 0
-4939 1637 0
-4939 3168 0
4940 3170 -3171 -1623 0
-4940 -3170 0
-4940 3171 0
-4940 1623 0
4941 3298 -3299 -1550 0
-4941 -3298 0
-4941 3299 0
-4941 1550 0
4942 -1626 -3147 3148 0
-4942 1626 0
-4942 3147 0
-4942 -3148 0
4943 3179 -1537 -3180 3181 0
-4943 -3179 0
-4943 1537 0
-4943 3180 0
-4943 -3181 0
4944 3176 -3177 -1586 0
-4944 -3176 0
-4944 3177 0
-4944 1586 0
4945 3187 -3188 -1581 3189 0
-4945 -3187 0
-4945 3188 0
-4945 1581 0
-4945 -3189 0
4946 3130 -1563 -3131 0
-4946 -3130 0
-4946 1563 0
-4946 3131 0
4947 -4948 0
-4947 4948 0
4949 3195 -3196 -1513 0
-4949 -3195 0
-4949 3196 0
-4949 1513 0
4950 3198 -3199 -1629 0
-4950 -3198 0
-4950 3199 0
-4950 1629 0
4951 -3204 3205 -1615 3206 0
-4951 3204 0
-4951 -3205 0
-4951 1615 0
-4951 -3206 0
4952 3208 -1554 -3209 0
-4952 -3208 0
-4952 1554 0
-4952 3209 0
4953 -1579 3222 -3223 0
-4953 1579 0
-4953 -3222 0
-4953 3223 0
4954 -1604 3201 -3202 0
-4954 1604 0
-4954 -3201 0
-4954 3202 0
4955 -3143 3144 -1595 3145 0
-4955 3143 0
-4955 -3144 0
-4955 1595 0
-4955 -3145 0
4956 -3215 3216 -1639 3217 0
-4956 3215 0
-4956 -3216 0
-4956 1639 0
-4956 -3217 0
4957 -1649 3225 -3226 0
-4957 1649 0
-4957 -3225 0
-4957 3226 0
4958 -1506 -3154 3155 3156 0
-4958 1506 0
-4958 3154 0
-4958 -3155 0
-4958 -3156 0
4959 -1647 -4355 3474 4354 0
-4959 1647 0
-4959 4355 0
-4959 -3474 0
-4959 -4354 0
4960 -1612 3211 3212 -3213 0
-4960 1612 0
-4960 -3211 0
-4960 -3212 0
-4960 3213 0
4961 3219 -3220 -1518 0
-4961 -3219 0
-4961 3220 0
-4961 1518 0
4962 -1566 -3228 3229 0
-4962 1566 0
-4962 3228 0
-4962 -3229 0
4963 3233 -3234 -1592 0
-4963 -3233 0
-4963 3234 0
-4963 1592 0
4964 -3240 3241 -1631 3242 0
-4964 3240 0
-4964 -3241 0
-4964 1631 0
-4964 -3242 0
4965 -3252 -1557 3253 0
-4965 3252 0
-4965 1557 0
-4965 -3253 0
4966 -3248 3249 3250 -1508 0
-4966 3248 0
-4966 -3249 0
-4966 -3250 0
-4966 1508 0
4967 -3173 3174 -1560 0
-4967 3173 0
-4967 -3174 0
-4967 1560 0
4968 -1570 3236 3237 -3238 0
-4968 1570 0
-4968 -3236 0
-4968 -3237 0
-4968 3238 0
4969 3259 -1511 -3260 0
-4969 -3259 0
-4969 1511 0
-4969 3260 0
4970 3262 -3263 -1535 3264 0
-4970 -3262 0
-4970 3263 0
-4970 1535 0
-4970 -3264 0
4971 3255 -1527 -3256 3257 0
-4971 -3255 0
-4971 1527 0
-4971 3256 0
-4971 -3257 0
4972 3183 -1547 -3184 3185 0
-4972 -3183 0
-4972 1547 0
-4972 3184 0
-4972 -3185 0
4973 -1532 3273 3274 -3275 0
-4973 1532 0
-4973 -3273 0
-4973 -3274 0
-4973 3275 0
4974 -1652 3277 -3278 0
-4974 1652 0
-4974 -3277 0
-4974 3278 0
4975 -1573 -3284 3285 0
-4975 1573 0
-4975 3284 0
-4975 -3285 0
4976 -3280 3281 -1645 3282 0
-4976 3280 0
-4976 -3281 0
-4976 1645 0
-4976 -3282 0
4977 -1590 3290 3291 -3292 0
-4977 1590 0
-4977 -3290 0
-4977 -3291 0
-4977 3292 0
4978 -3301 3302 -1552 3303 0
-4978 3301 0
-4978 -3302 0
-4978 1552 0
-4978 -3303 0
4979 -1634 3305 -3306 0
-4979 1634 0
-4979 -3305 0
-4979 3306 0
4980 3244 -3245 -1584 3246 0
-4980 -3244 0
-4980 3245 0
-4980 1584 0
-4980 -3246 0
4981 3308 -3309 -1617 3310 0
-4981 -3308 0
-4981 3309 0
-4981 1617 0
-4981 -3310 0
4982 -1588 3316 -3317 0
-4982 1588 0
-4982 -3316 0
-4982 3317 0
4983 3269 -1576 -3270 3271 0
-4983 -3269 0
-4983 1576 0
-4983 3270 0
-4983 -3271 0
4984 3319 -1522 -3320 3321 0
-4984 -3319 0
-4984 1522 0
-4984 3320 0
-4984 -3321 0
4985 3312 3313 -1516 -3314 0
-4985 -3312 0
-4985 -3313 0
-4985 1516 0
-4985 3314 0
4986 -3329 4385 0
-4986 3329 0
-4986 -4385 0
4987 3323 -3324 -1568 0
-4987 -3323 0
-4987 3324 0
-4987 1568 0
4988 -1544 3326 -3327 0
-4988 1544 0
-4988 -3326 0
-4988 3327 0
4989 3287 -1540 -3288 0
-4989 -3287 0
-4989 1540 0
-4989 3288 0
2103 -2102 0
-2103 2102 0
4990 3233 -3234 -1749 0
-4990 -3233 0
-4990 3234 0
-4990 1749 0
4991 -3240 3241 -1784 3242 0
-4991 3240 0
-4991 -3241 0
-4991 1784 0
-4991 -3242 0
4992 3244 -1740 -3245 3246 0
-4992 -3244 0
-4992 1740 0
-4992 3245 0
-4992 -3246 0
4993 -3301 3302 3303 -1707 0
-4993 3301 0
-4993 -3302 0
-4993 -3303 0
-4993 1707 0
4994 3308 -1772 -3309 3310 0
-4994 -3308 0
-4994 1772 0
-4994 3309 0
-4994 -3310 0
4995 3316 -3317 -1745 0
-4995 -3316 0
-4995 3317 0
-4995 1745 0
4996 -1731 3269 -3270 3271 0
-4996 1731 0
-4996 -3269 0
-4996 3270 0
-4996 -3271 0
4997 3319 -1674 -3320 3321 0
-4997 -3319 0
-4997 1674 0
-4997 3320 0
-4997 -3321 0
4998 3277 -3278 -1805 0
-4998 -3277 0
-4998 3278 0
-4998 1805 0
4999 -1754 3266 -3267 0
-4999 1754 0
-4999 -3266 0
-4999 3267 0
5000 -3284 3285 -1728 0
-5000 3284 0
-5000 -3285 0
-5000 1728 0
5001 3287 -1690 -3288 0
-5001 -3287 0
-5001 1690 0
-5001 3288 0
5002 3326 -1694 -3327 0
-5002 -3326 0
-5002 1694 0
-5002 3327 0
5003 3123 -1758 -3124 0
-5003 -3123 0
-5003 1758 0
-5003 3124 0
5004 3290 3291 -1747 -3292 0
-5004 -3290 0
-5004 -3291 0
-5004 1747 0
-5004 3292 0
5005 -5006 0
-5005 5006 0
5007 3294 -1774 -3295 3296 0
-5007 -3294 0
-5007 1774 0
-5007 3295 0
-5007 -3296 0
5008 -1671 3126 3127 -3128 0
-5008 1671 0
-5008 -3126 0
-5008 -3127 0
-5008 3128 0
5009 3137 -1762 -3138 0
-5009 -3137 0
-5009 1762 0
-5009 3138 0
5010 -1692 -3140 3141 0
-5010 1692 0
-5010 3140 0
-5010 -3141 0
5011 3150 -3151 -1764 3152 0
-5011 -3150 0
-5011 3151 0
-5011 1764 0
-5011 -3152 0
5012 3298 -3299 -1705 0
-5012 -3298 0
-5012 3299 0
-5012 1705 0
5013 3158 -3159 -1676 3160 0
-5013 -3158 0
-5013 3159 0
-5013 1676 0
-5013 -3160 0
5014 3162 -1756 -3163 3164 0
-5014 -3162 0
-5014 1756 0
-5014 3163 0
-5014 -3164 0
5015 -3147 -1779 3148 0
-5015 3147 0
-5015 1779 0
-5015 -3148 0
5016 3305 -3306 -1787 0
-5016 -3305 0
-5016 3306 0
-5016 1787 0
5017 -1687 3179 -3180 3181 0
-5017 1687 0
-5017 -3179 0
-5017 3180 0
-5017 -3181 0
5018 -5019 0
-5018 5019 0
5020 3323 -3324 -1723 0
-5020 -3323 0
-5020 3324 0
-5020 1723 0
5021 3187 -1737 -3188 3189 0
-5021 -3187 0
-5021 1737 0
-5021 3188 0
-5021 -3189 0
5022 -1770 -3204 3205 3206 0
-5022 1770 0
-5022 3204 0
-5022 -3205 0
-5022 -3206 0
5023 3130 -1718 -3131 0
-5023 -3130 0
-5023 1718 0
-5023 3131 0
5024 -1734 3222 -3223 0
-5024 1734 0
-5024 -3222 0
-5024 3223 0
5025 -1709 3208 -3209 0
-5025 1709 0
-5025 -3208 0
-5025 3209 0
5026 -3215 3216 3217 -1792 0
-5026 3215 0
-5026 -3216 0
-5026 -3217 0
-5026 1792 0
5027 -1752 -3143 3144 3145 0
-5027 1752 0
-5027 3143 0
-5027 -3144 0
-5027 -3145 0
5028 3219 -3220 -1669 0
-5028 -3219 0
-5028 3220 0
-5028 1669 0
5029 -3228 -1721 3229 0
-5029 3228 0
-5029 1721 0
-5029 -3229 0
5030 -1656 -3154 3155 3156 0
-5030 1656 0
-5030 3154 0
-5030 -3155 0
-5030 -3156 0
5031 -5032 0
-5031 5032 0
5033 -1790 3166 3167 -3168 0
-5033 1790 0
-5033 -3166 0
-5033 -3167 0
-5033 3168 0
5034 -1712 -3252 3253 0
-5034 1712 0
-5034 3252 0
-5034 -3253 0
5035 3236 3237 -1725 -3238 0
-5035 -3236 0
-5035 -3237 0
-5035 1725 0
-5035 3238 0
5036 -3248 3249 3250 -1659 0
-5036 3248 0
-5036 -3249 0
-5036 -3250 0
-5036 1659 0
5037 -1715 -3173 3174 0
-5037 1715 0
-5037 3173 0
-5037 -3174 0
5038 -1776 3170 -3171 0
-5038 1776 0
-5038 -3170 0
-5038 3171 0
5039 3255 -3256 -1678 3257 0
-5039 -3255 0
-5039 3256 0
-5039 1678 0
-5039 -3257 0
5040 3176 -3177 -1742 0
-5040 -3176 0
-5040 3177 0
-5040 1742 0
5041 3262 -1685 -3263 3264 0
-5041 -3262 0
-5041 1685 0
-5041 3263 0
-5041 -3264 0
5042 3259 -1661 -3260 0
-5042 -3259 0
-5042 1661 0
-5042 3260 0
5043 3191 3192 -1680 -3193 0
-5043 -3191 0
-5043 -3192 0
-5043 1680 0
-5043 3193 0
5044 -5045 0
-5044 5045 0
5046 3273 3274 -1682 -3275 0
-5046 -3273 0
-5046 -3274 0
-5046 1682 0
-5046 3275 0
5047 3198 -3199 -1782 0
-5047 -3198 0
-5047 3199 0
-5047 1782 0
5048 3183 -3184 -1697 3185 0
-5048 -3183 0
-5048 3184 0
-5048 1697 0
-5048 -3185 0
5049 -3280 3281 -1797 3282 0
-5049 3280 0
-5049 -3281 0
-5049 1797 0
-5049 -3282 0
5050 3225 -1802 -3226 0
-5050 -3225 0
-5050 1802 0
-5050 3226 0
5051 3201 -1760 -3202 0
-5051 -3201 0
-5051 1760 0
-5051 3202 0
5052 3211 3212 -1767 -3213 0
-5052 -3211 0
-5052 -3212 0
-5052 1767 0
-5052 3213 0
5053 3233 -3234 -1900 0
-5053 -3233 0
-5053 3234 0
-5053 1900 0
5054 -1877 3236 3237 -3238 0
-5054 1877 0
-5054 -3236 0
-5054 -3237 0
-5054 3238 0
5055 -1912 3201 -3202 0
-5055 1912 0
-5055 -3201 0
-5055 3202 0
5056 -1935 -3240 3241 3242 0
-5056 1935 0
-5056 3240 0
-5056 -3241 0
-5056 -3242 0
5057 3244 -1891 -3245 3246 0
-5057 -3244 0
-5057 1891 0
-5057 3245 0
-5057 -3246 0
5058 3255 -1830 -3256 3257 0
-5058 -3255 0
-5058 1830 0
-5058 3256 0
-5058 -3257 0
5059 3259 -1813 -3260 0
-5059 -3259 0
-5059 1813 0
-5059 3260 0
5060 3262 -3263 -1837 3264 0
-5060 -3262 0
-5060 3263 0
-5060 1837 0
-5060 -3264 0
5061 -1896 3316 -3317 0
-5061 1896 0
-5061 -3316 0
-5061 3317 0
5062 3269 -1883 -3270 3271 0
-5062 -3269 0
-5062 1883 0
-5062 3270 0
-5062 -3271 0
5063 -1834 3273 3274 -3275 0
-5063 1834 0
-5063 -3273 0
-5063 -3274 0
-5063 3275 0
5064 -1954 3277 -3278 0
-5064 1954 0
-5064 -3277 0
-5064 3278 0
5065 -3280 3281 -1947 3282 0
-5065 3280 0
-5065 -3281 0
-5065 1947 0
-5065 -3282 0
5066 -3284 -1880 3285 0
-5066 3284 0
-5066 1880 0
-5066 -3285 0
5067 3287 -1842 -3288 0
-5067 -3287 0
-5067 1842 0
-5067 3288 0
5068 -1898 3290 3291 -3292 0
-5068 1898 0
-5068 -3290 0
-5068 -3291 0
-5068 3292 0
5069 3294 -3295 -1925 3296 0
-5069 -3294 0
-5069 3295 0
-5069 1925 0
-5069 -3296 0
2105 -2104 0
-2105 2104 0
5070 -3301 3302 -1859 3303 0
-5070 3301 0
-5070 -3302 0
-5070 1859 0
-5070 -3303 0
5071 3298 -3299 -1857 0
-5071 -3298 0
-5071 3299 0
-5071 1857 0
5072 -1938 3305 -3306 0
-5072 1938 0
-5072 -3305 0
-5072 3306 0
5073 -3215 3216 -1942 3217 0
-5073 3215 0
-5073 -3216 0
-5073 1942 0
-5073 -3217 0
5074 3308 -3309 -1923 3310 0
-5074 -3308 0
-5074 3309 0
-5074 1923 0
-5074 -3310 0
5075 3319 -3320 -1825 3321 0
-5075 -3319 0
-5075 3320 0
-5075 1825 0
-5075 -3321 0
5076 -1818 3312 3313 -3314 0
-5076 1818 0
-5076 -3312 0
-5076 -3313 0
-5076 3314 0
5077 3323 -3324 -1875 0
-5077 -3323 0
-5077 3324 0
-5077 1875 0
5078 -1846 3326 -3327 0
-5078 1846 0
-5078 -3326 0
-5078 3327 0
5079 3266 -3267 -1905 0
-5079 -3266 0
-5079 3267 0
-5079 1905 0
5080 -1910 3123 -3124 0
-5080 1910 0
-5080 -3123 0
-5080 3124 0
5081 -3204 3205 -1921 3206 0
-5081 3204 0
-5081 -3205 0
-5081 1921 0
-5081 -3206 0
5082 3126 3127 -1822 -3128 0
-5082 -3126 0
-5082 -3127 0
-5082 1822 0
-5082 3128 0
5083 3222 -3223 -1886 0
-5083 -3222 0
-5083 3223 0
-5083 1886 0
5084 3133 -1944 -3134 3135 0
-5084 -3133 0
-5084 1944 0
-5084 3134 0
-5084 -3135 0
5085 -1870 3130 -3131 0
-5085 1870 0
-5085 -3130 0
-5085 3131 0
5086 -1914 3137 -3138 0
-5086 1914 0
-5086 -3137 0
-5086 3138 0
5087 3211 3212 -1919 -3213 0
-5087 -3211 0
-5087 -3212 0
-5087 1919 0
-5087 3213 0
5088 3208 -1861 -3209 0
-5088 -3208 0
-5088 1861 0
-5088 3209 0
5089 -3140 3141 -1844 0
-5089 3140 0
-5089 -3141 0
-5089 1844 0
5090 -3143 3144 -1903 3145 0
-5090 3143 0
-5090 -3144 0
-5090 1903 0
-5090 -3145 0
5091 -1930 -3147 3148 0
-5091 1930 0
-5091 3147 0
-5091 -3148 0
5092 -1873 -3228 3229 0
-5092 1873 0
-5092 3228 0
-5092 -3229 0
5093 3150 -1916 -3151 3152 0
-5093 -3150 0
-5093 1916 0
-5093 3151 0
-5093 -3152 0
5094 -1809 -3154 3155 3156 0
-5094 1809 0
-5094 3154 0
-5094 -3155 0
-5094 -3156 0
5095 3158 -3159 -1827 3160 0
-5095 -3158 0
-5095 3159 0
-5095 1827 0
-5095 -3160 0
5096 3162 -1907 -3163 3164 0
-5096 -3162 0
-5096 1907 0
-5096 3163 0
-5096 -3164 0
5097 -3252 -1864 3253 0
-5097 3252 0
-5097 1864 0
-5097 -3253 0
5098 -3248 3249 3250 -1811 0
-5098 3248 0
-5098 -3249 0
-5098 -3250 0
-5098 1811 0
5099 -1867 -3173 3174 0
-5099 1867 0
-5099 3173 0
-5099 -3174 0
5100 -1940 3166 3167 -3168 0
-5100 1940 0
-5100 -3166 0
-5100 -3167 0
-5100 3168 0
5101 3170 -3171 -1927 0
-5101 -3170 0
-5101 3171 0
-5101 1927 0
5102 3179 -1839 -3180 3181 0
-5102 -3179 0
-5102 1839 0
-5102 3180 0
-5102 -3181 0
5103 3176 -3177 -1893 0
-5103 -3176 0
-5103 3177 0
-5103 1893 0
5104 3183 -1849 -3184 3185 0
-5104 -3183 0
-5104 1849 0
-5104 3184 0
-5104 -3185 0
5105 3187 -3188 -1888 3189 0
-5105 -3187 0
-5105 3188 0
-5105 1888 0
-5105 -3189 0
5106 -1832 3191 3192 -3193 0
-5106 1832 0
-5106 -3191 0
-5106 -3192 0
-5106 3193 0
5107 3195 -3196 -1815 0
-5107 -3195 0
-5107 3196 0
-5107 1815 0
5108 3198 -3199 -1933 0
-5108 -3198 0
-5108 3199 0
-5108 1933 0
5109 -1951 3225 -3226 0
-5109 1951 0
-5109 -3225 0
-5109 3226 0
5110 3219 -3220 -1820 0
-5110 -3219 0
-5110 3220 0
-5110 1820 0
5111 -5112 0
-5111 5112 0
5113 -5114 0
-5113 5114 0
5115 1496 -1588 -4381 3316 0
-5115 -1496 0
-5115 1588 0
-5115 4381 0
-5115 -3316 0
5116 3298 -1550 1432 -3652 0
-5116 -3298 0
-5116 1550 0
-5116 -1432 0
-5116 3652 0
5117 1026 -1506 -3658 3155 0
-5117 -1026 0
-5117 1506 0
-5117 3658 0
-5117 -3155 0
5118 3187 -3662 1042 -1581 0
-5118 -3187 0
-5118 3662 0
-5118 -1042 0
-5118 1581 0
5119 3282 1362 -3656 -1645 0
-5119 -3282 0
-5119 -1362 0
-5119 3656 0
-5119 1645 0
5120 -1649 3225 -3668 989 0
-5120 1649 0
-5120 -3225 0
-5120 3668 0
-5120 -989 0
5121 3233 -1592 1311 -3664 0
-5121 -3233 0
-5121 1592 0
-5121 -1311 0
-5121 3664 0
5122 3294 -3666 782 -1620 0
-5122 -3294 0
-5122 3666 0
-5122 -782 0
-5122 1620 0
5123 980 -1642 -3632 3135 0
-5123 -980 0
-5123 1642 0
-5123 3632 0
-5123 -3135 0
5124 -1612 3212 -3676 1473 0
-5124 1612 0
-5124 -3212 0
-5124 3676 0
-5124 -1473 0
5125 -1508 3249 1011 -3644 0
-5125 1508 0
-5125 -3249 0
-5125 -1011 0
-5125 3644 0
5126 -5127 0
-5126 5127 0
5128 1112 -3678 3222 -1579 0
-5128 -1112 0
-5128 3678 0
-5128 -3222 0
-5128 1579 0
5129 794 -3682 3164 -1599 0
-5129 -794 0
-5129 3682 0
-5129 -3164 0
-5129 1599 0
5130 -1615 3205 958 -3674 0
-5130 1615 0
-5130 -3205 0
-5130 -958 0
-5130 3674 0
5131 -3684 1091 -1609 3150 0
-5131 3684 0
-5131 -1091 0
-5131 1609 0
-5131 -3150 0
5132 3216 909 -1639 -3624 0
-5132 -3216 0
-5132 -909 0
-5132 1639 0
-5132 3624 0
5133 -3686 756 3244 -1584 0
-5133 3686 0
-5133 -756 0
-5133 -3244 0
-5133 1584 0
5134 3219 851 -1518 -3680 0
-5134 -3219 0
-5134 -851 0
-5134 1518 0
-5134 3680 0
5135 -3626 921 3174 -1560 0
-5135 3626 0
-5135 -921 0
-5135 -3174 0
-5135 1560 0
5136 -1590 3291 -3574 1448 0
-5136 1590 0
-5136 -3291 0
-5136 3574 0
-5136 -1448 0
5137 1393 -3570 3266 -1597 0
-5137 -1393 0
-5137 3570 0
-5137 -3266 0
-5137 1597 0
5138 3323 -1568 1336 -3580 0
-5138 -3323 0
-5138 1568 0
-5138 -1336 0
-5138 3580 0
5139 -3572 1261 -1617 3308 0
-5139 3572 0
-5139 -1261 0
-5139 1617 0
-5139 -3308 0
5140 -1570 3237 -3578 946 0
-5140 1570 0
-5140 -3237 0
-5140 3578 0
-5140 -946 0
5141 3176 -1586 1371 -3660 0
-5141 -3176 0
-5141 1586 0
-5141 -1371 0
-5141 3660 0
5142 3158 -3584 1461 -1524 0
-5142 -3158 0
-5142 3584 0
-5142 -1461 0
-5142 1524 0
5143 3130 -3582 876 -1563 0
-5143 -3130 0
-5143 3582 0
-5143 -876 0
-5143 1563 0
5144 -1647 3474 1407 -3586 0
-5144 1647 0
-5144 -3474 0
-5144 -1407 0
-5144 3586 0
5145 3255 -3590 1287 -1527 0
-5145 -3255 0
-5145 3590 0
-5145 -1287 0
-5145 1527 0
5146 3319 -3576 721 -1522 0
-5146 -3319 0
-5146 3576 0
-5146 -721 0
-5146 1522 0
5147 -1604 3201 -3592 1300 0
-5147 1604 0
-5147 -3201 0
-5147 3592 0
-5147 -1300 0
5148 -3588 1100 -1573 3285 0
-5148 3588 0
-5148 -1100 0
-5148 1573 0
-5148 -3285 0
5149 3259 -1511 -3596 1152 0
-5149 -3259 0
-5149 1511 0
-5149 3596 0
-5149 -1152 0
5150 1140 -3600 3170 -1623 0
-5150 -1140 0
-5150 3600 0
-5150 -3170 0
-5150 1623 0
5151 3313 -3594 867 -1516 0
-5151 -3313 0
-5151 3594 0
-5151 -867 0
-5151 1516 0
5152 -1544 3326 -3670 1057 0
-5152 1544 0
-5152 -3326 0
-5152 3670 0
-5152 -1057 0
5153 3208 -1554 -3602 841 0
-5153 -3208 0
-5153 1554 0
-5153 3602 0
-5153 -841 0
5154 1236 -4322 -1537 3181 0
-5154 -1236 0
-5154 4322 0
-5154 1537 0
-5154 -3181 0
5155 3198 -1629 1069 -3608 0
-5155 -3198 0
-5155 1629 0
-5155 -1069 0
-5155 3608 0
5156 3183 -3610 1128 -1547 0
-5156 -3183 0
-5156 3610 0
-5156 -1128 0
-5156 1547 0
5157 3287 -3604 1180 -1540 0
-5157 -3287 0
-5157 3604 0
-5157 -1180 0
-5157 1540 0
5158 10 -3568 4385 0
-5158 -10 0
-5158 3568 0
-5158 -4385 0
5159 -1626 -3612 1381 3148 0
-5159 1626 0
-5159 3612 0
-5159 -1381 0
-5159 -3148 0
5160 3302 -1552 709 -3618 0
-5160 -3302 0
-5160 1552 0
-5160 -709 0
-5160 3618 0
5161 -1532 -3614 897 3274 0
-5161 1532 0
-5161 3614 0
-5161 -897 0
-5161 -3274 0
5162 -1520 3127 -3616 1422 0
-5162 1520 0
-5162 -3127 0
-5162 3616 0
-5162 -1422 0
5163 3195 -1513 816 -3620 0
-5163 -3195 0
-5163 1513 0
-5163 -816 0
-5163 3620 0
5164 3241 1202 -1631 -3630 0
-5164 -3241 0
-5164 -1202 0
-5164 1631 0
-5164 3630 0
5165 -1529 3192 -3634 1324 0
-5165 1529 0
-5165 -3192 0
-5165 3634 0
-5165 -1324 0
5166 -3622 1347 -1557 3253 0
-5166 3622 0
-5166 -1347 0
-5166 1557 0
-5166 -3253 0
5167 -3638 1270 3141 -1542 0
-5167 3638 0
-5167 -1270 0
-5167 -3141 0
-5167 1542 0
5168 -1606 3137 -3628 805 0
-5168 1606 0
-5168 -3137 0
-5168 3628 0
-5168 -805 0
5169 -1566 -3636 765 3229 0
-5169 1566 0
-5169 3636 0
-5169 -765 0
-5169 -3229 0
5170 -3640 3262 970 -1535 0
-5170 3640 0
-5170 -3262 0
-5170 -970 0
-5170 1535 0
5171 -1637 3167 -3642 832 0
-5171 1637 0
-5171 -3167 0
-5171 3642 0
-5171 -832 0
5172 1245 -1652 -3606 3277 0
-5172 -1245 0
-5172 1652 0
-5172 3606 0
-5172 -3277 0
5173 1168 -3646 -1576 3271 0
-5173 -1168 0
-5173 3646 0
-5173 1576 0
-5173 -3271 0
5174 3144 1223 -1595 -3648 0
-5174 -3144 0
-5174 -1223 0
-5174 1595 0
-5174 3648 0
5175 3123 -1758 -3654 1482 0
-5175 -3123 0
-5175 1758 0
-5175 3654 0
-5175 -1482 0
2109 -2108 0
-2109 2108 0
5176 1496 -4381 3316 -1745 0
-5176 -1496 0
-5176 4381 0
-5176 -3316 0
-5176 1745 0
5177 1026 -3658 -1656 3155 0
-5177 -1026 0
-5177 3658 0
-5177 1656 0
-5177 -3155 0
5178 3187 -3662 1042 -1737 0
-5178 -3187 0
-5178 3662 0
-5178 -1042 0
-5178 1737 0
5179 3282 -1797 1362 -3656 0
-5179 -3282 0
-5179 1797 0
-5179 -1362 0
-5179 3656 0
5180 3195 816 -1663 -3620 0
-5180 -3195 0
-5180 -816 0
-5180 1663 0
-5180 3620 0
5181 3294 -3666 782 -1774 0
-5181 -3294 0
-5181 3666 0
-5181 -782 0
-5181 1774 0
5182 3241 1202 -1784 -3630 0
-5182 -3241 0
-5182 -1202 0
-5182 1784 0
-5182 3630 0
5183 -1712 -3622 1347 3253 0
-5183 1712 0
-5183 3622 0
-5183 -1347 0
-5183 -3253 0
5184 741 -3672 3305 -1787 0
-5184 -741 0
-5184 3672 0
-5184 -3305 0
-5184 1787 0
5185 -3640 3262 970 -1685 0
-5185 3640 0
-5185 -3262 0
-5185 -970 0
-5185 1685 0
5186 980 -1794 -3632 3135 0
-5186 -980 0
-5186 1794 0
-5186 3632 0
-5186 -3135 0
5187 -3626 921 -1715 3174 0
-5187 3626 0
-5187 -921 0
-5187 1715 0
-5187 -3174 0
5188 1168 -1731 -3646 3271 0
-5188 -1168 0
-5188 1731 0
-5188 3646 0
-5188 -3271 0
5189 3219 -1669 851 -3680 0
-5189 -3219 0
-5189 1669 0
-5189 -851 0
-5189 3680 0
5190 794 -1756 -3682 3164 0
-5190 -794 0
-5190 1756 0
-5190 3682 0
-5190 -3164 0
5191 -1790 3167 -3642 832 0
-5191 1790 0
-5191 -3167 0
-5191 3642 0
-5191 -832 0
5192 3249 1011 -1659 -3644 0
-5192 -3249 0
-5192 -1011 0
-5192 1659 0
-5192 3644 0
5193 -1792 3216 909 -3624 0
-5193 1792 0
-5193 -3216 0
-5193 -909 0
-5193 3624 0
5194 1393 -1754 -3570 3266 0
-5194 -1393 0
-5194 1754 0
-5194 3570 0
-5194 -3266 0
5195 3298 1432 -1705 -3652 0
-5195 -3298 0
-5195 -1432 0
-5195 1705 0
-5195 3652 0
5196 -1747 3291 -3574 1448 0
-5196 1747 0
-5196 -3291 0
-5196 3574 0
-5196 -1448 0
5197 3176 1371 -1742 -3660 0
-5197 -3176 0
-5197 -1371 0
-5197 1742 0
-5197 3660 0
5198 3225 -1802 -3668 989 0
-5198 -3225 0
-5198 1802 0
-5198 3668 0
-5198 -989 0
5199 3158 -3584 1461 -1676 0
-5199 -3158 0
-5199 3584 0
-5199 -1461 0
-5199 1676 0
5200 3130 -1718 -3582 876 0
-5200 -3130 0
-5200 1718 0
-5200 3582 0
-5200 -876 0
5201 3255 -3590 1287 -1678 0
-5201 -3255 0
-5201 3590 0
-5201 -1287 0
-5201 1678 0
5202 3201 -1760 -3592 1300 0
-5202 -3201 0
-5202 1760 0
-5202 3592 0
-5202 -1300 0
5203 3233 1311 -1749 -3664 0
-5203 -3233 0
-5203 -1311 0
-5203 1749 0
-5203 3664 0
5204 -1666 3313 -3594 867 0
-5204 1666 0
-5204 -3313 0
-5204 3594 0
-5204 -867 0
5205 -1799 3474 1407 -3586 0
-5205 1799 0
-5205 -3474 0
-5205 -1407 0
-5205 3586 0
5206 1140 -1776 -3600 3170 0
-5206 -1140 0
-5206 1776 0
-5206 3600 0
-5206 -3170 0
5207 -1661 3259 -3596 1152 0
-5207 1661 0
-5207 -3259 0
-5207 3596 0
-5207 -1152 0
5208 3326 -1694 -3670 1057 0
-5208 -3326 0
-5208 1694 0
-5208 3670 0
-5208 -1057 0
5209 1236 -1687 -4322 3181 0
-5209 -1236 0
-5209 1687 0
-5209 4322 0
-5209 -3181 0
5210 -1770 3205 958 -3674 0
-5210 1770 0
-5210 -3205 0
-5210 -958 0
-5210 3674 0
5211 3212 -3676 1473 -1767 0
-5211 -3212 0
-5211 3676 0
-5211 -1473 0
-5211 1767 0
5212 1112 -1734 -3678 3222 0
-5212 -1112 0
-5212 1734 0
-5212 3678 0
-5212 -3222 0
5213 3198 1069 -1782 -3608 0
-5213 -3198 0
-5213 -1069 0
-5213 1782 0
-5213 3608 0
5214 3287 -1690 -3604 1180 0
-5214 -3287 0
-5214 1690 0
-5214 3604 0
-5214 -1180 0
5215 -3684 1091 3150 -1764 0
-5215 3684 0
-5215 -1091 0
-5215 -3150 0
-5215 1764 0
5216 -3686 756 -1740 3244 0
-5216 3686 0
-5216 -756 0
-5216 1740 0
-5216 -3244 0
5217 3323 1336 -1723 -3580 0
-5217 -3323 0
-5217 -1336 0
-5217 1723 0
-5217 3580 0
5218 -3572 -1772 1261 3308 0
-5218 3572 0
-5218 1772 0
-5218 -1261 0
-5218 -3308 0
5219 -1725 3237 -3578 946 0
-5219 1725 0
-5219 -3237 0
-5219 3578 0
-5219 -946 0
5220 -1752 3144 1223 -3648 0
-5220 1752 0
-5220 -3144 0
-5220 -1223 0
-5220 3648 0
5221 3319 -3576 721 -1674 0
-5221 -3319 0
-5221 3576 0
-5221 -721 0
-5221 1674 0
5222 -3612 1381 -1779 3148 0
-5222 3612 0
-5222 -1381 0
-5222 1779 0
-5222 -3148 0
5223 3302 709 -1707 -3618 0
-5223 -3302 0
-5223 -709 0
-5223 1707 0
-5223 3618 0
5224 -3614 -1682 897 3274 0
-5224 3614 0
-5224 1682 0
-5224 -897 0
-5224 -3274 0
5225 -3588 1100 3285 -1728 0
-5225 3588 0
-5225 -1100 0
-5225 -3285 0
-5225 1728 0
5226 -1671 3127 -3616 1422 0
-5226 1671 0
-5226 -3127 0
-5226 3616 0
-5226 -1422 0
5227 -1709 3208 -3602 841 0
-5227 1709 0
-5227 -3208 0
-5227 3602 0
-5227 -841 0
5228 -3636 765 -1721 3229 0
-5228 3636 0
-5228 -765 0
-5228 1721 0
-5228 -3229 0
5229 -3638 1270 -1692 3141 0
-5229 3638 0
-5229 -1270 0
-5229 1692 0
-5229 -3141 0
5230 3137 -1762 -3628 805 0
-5230 -3137 0
-5230 1762 0
-5230 3628 0
-5230 -805 0
5231 -1680 3192 -3634 1324 0
-5231 1680 0
-5231 -3192 0
-5231 3634 0
-5231 -1324 0
5232 1245 -3606 3277 -1805 0
-5232 -1245 0
-5232 3606 0
-5232 -3277 0
-5232 1805 0
5233 3183 -3610 1128 -1697 0
-5233 -3183 0
-5233 3610 0
-5233 -1128 0
-5233 1697 0
5234 -1813 3259 -3596 1152 0
-5234 1813 0
-5234 -3259 0
-5234 3596 0
-5234 -1152 0
5235 -3588 1100 -1880 3285 0
-5235 3588 0
-5235 -1100 0
-5235 1880 0
-5235 -3285 0
5236 -1949 3474 1407 -3586 0
-5236 1949 0
-5236 -3474 0
-5236 -1407 0
-5236 3586 0
5237 -1818 3313 -3594 867 0
-5237 1818 0
-5237 -3313 0
-5237 3594 0
-5237 -867 0
5238 1140 -3600 3170 -1927 0
-5238 -1140 0
-5238 3600 0
-5238 -3170 0
-5238 1927 0
5239 3208 -1861 -3602 841 0
-5239 -3208 0
-5239 1861 0
-5239 3602 0
-5239 -841 0
5240 -1914 3137 -3628 805 0
-5240 1914 0
-5240 -3137 0
-5240 3628 0
-5240 -805 0
5241 1236 -4322 -1839 3181 0
-5241 -1236 0
-5241 4322 0
-5241 1839 0
-5241 -3181 0
5242 -1832 3192 -3634 1324 0
-5242 1832 0
-5242 -3192 0
-5242 3634 0
-5242 -1324 0
5243 1245 -1954 -3606 3277 0
-5243 -1245 0
-5243 1954 0
-5243 3606 0
-5243 -3277 0
5244 3183 -3610 1128 -1849 0
-5244 -3183 0
-5244 3610 0
-5244 -1128 0
-5244 1849 0
5245 3123 -3654 1482 -1910 0
-5245 -3123 0
-5245 3654 0
-5245 -1482 0
-5245 1910 0
5246 -1822 3127 -3616 1422 0
-5246 1822 0
-5246 -3127 0
-5246 3616 0
-5246 -1422 0
5247 3302 -1859 709 -3618 0
-5247 -3302 0
-5247 1859 0
-5247 -709 0
-5247 3618 0
5248 -1834 -3614 897 3274 0
-5248 1834 0
-5248 3614 0
-5248 -897 0
-5248 -3274 0
5249 -3572 1261 -1923 3308 0
-5249 3572 0
-5249 -1261 0
-5249 1923 0
-5249 -3308 0
5250 3195 -1815 816 -3620 0
-5250 -3195 0
-5250 1815 0
-5250 -816 0
-5250 3620 0
5251 3294 -3666 782 -1925 0
-5251 -3294 0
-5251 3666 0
-5251 -782 0
-5251 1925 0
5252 -1935 3241 1202 -3630 0
-5252 1935 0
-5252 -3241 0
-5252 -1202 0
-5252 3630 0
5253 -3622 1347 -1864 3253 0
-5253 3622 0
-5253 -1347 0
-5253 1864 0
-5253 -3253 0
5254 -1873 -3636 765 3229 0
-5254 1873 0
-5254 3636 0
-5254 -765 0
-5254 -3229 0
5255 -3638 1270 3141 -1844 0
-5255 3638 0
-5255 -1270 0
-5255 -3141 0
-5255 1844 0
5256 741 -3672 3305 -1938 0
-5256 -741 0
-5256 3672 0
-5256 -3305 0
-5256 1938 0
5257 -3640 3262 970 -1837 0
-5257 3640 0
-5257 -3262 0
-5257 -970 0
-5257 1837 0
5258 980 -3632 -1944 3135 0
-5258 -980 0
-5258 3632 0
-5258 1944 0
-5258 -3135 0
5259 -1811 3249 1011 -3644 0
-5259 1811 0
-5259 -3249 0
-5259 -1011 0
-5259 3644 0
5260 1168 -3646 -1883 3271 0
-5260 -1168 0
-5260 3646 0
-5260 1883 0
-5260 -3271 0
5261 -1903 3144 1223 -3648 0
-5261 1903 0
-5261 -3144 0
-5261 -1223 0
-5261 3648 0
5262 794 -1907 -3682 3164 0
-5262 -794 0
-5262 1907 0
-5262 3682 0
-5262 -3164 0
5263 3298 -1857 1432 -3652 0
-5263 -3298 0
-5263 1857 0
-5263 -1432 0
-5263 3652 0
5264 -1940 3167 -3642 832 0
-5264 1940 0
-5264 -3167 0
-5264 3642 0
-5264 -832 0
5265 -1877 3237 -3578 946 0
-5265 1877 0
-5265 -3237 0
-5265 3578 0
-5265 -946 0
5266 3282 1362 -3656 -1947 0
-5266 -3282 0
-5266 -1362 0
-5266 3656 0
-5266 1947 0
5267 1496 -1896 -4381 3316 0
-5267 -1496 0
-5267 1896 0
-5267 4381 0
-5267 -3316 0
5268 -1898 3291 -3574 1448 0
-5268 1898 0
-5268 -3291 0
-5268 3574 0
-5268 -1448 0
5269 1026 -3658 -1809 3155 0
-5269 -1026 0
-5269 3658 0
-5269 1809 0
-5269 -3155 0
5270 3187 -3662 1042 -1888 0
-5270 -3187 0
-5270 3662 0
-5270 -1042 0
-5270 1888 0
2111 -2110 0
-2111 2110 0
5271 3176 1371 -1893 -3660 0
-5271 -3176 0
-5271 -1371 0
-5271 1893 0
-5271 3660 0
5272 -1951 3225 -3668 989 0
-5272 1951 0
-5272 -3225 0
-5272 3668 0
-5272 -989 0
5273 3158 -3584 1461 -1827 0
-5273 -3158 0
-5273 3584 0
-5273 -1461 0
-5273 1827 0
5274 -1912 3201 -3592 1300 0
-5274 1912 0
-5274 -3201 0
-5274 3592 0
-5274 -1300 0
5275 3233 -1900 1311 -3664 0
-5275 -3233 0
-5275 1900 0
-5275 -1311 0
-5275 3664 0
5276 -1919 3212 -3676 1473 0
-5276 1919 0
-5276 -3212 0
-5276 3676 0
-5276 -1473 0
5277 -3626 921 -1867 3174 0
-5277 3626 0
-5277 -921 0
-5277 1867 0
-5277 -3174 0
5278 -1846 3326 -3670 1057 0
-5278 1846 0
-5278 -3326 0
-5278 3670 0
-5278 -1057 0
5279 3219 851 -1820 -3680 0
-5279 -3219 0
-5279 -851 0
-5279 1820 0
-5279 3680 0
5280 -1921 3205 958 -3674 0
-5280 1921 0
-5280 -3205 0
-5280 -958 0
-5280 3674 0
5281 1112 -3678 3222 -1886 0
-5281 -1112 0
-5281 3678 0
-5281 -3222 0
-5281 1886 0
5282 3216 909 -1942 -3624 0
-5282 -3216 0
-5282 -909 0
-5282 1942 0
-5282 3624 0
5283 -3686 756 3244 -1891 0
-5283 3686 0
-5283 -756 0
-5283 -3244 0
-5283 1891 0
5284 1393 -3570 3266 -1905 0
-5284 -1393 0
-5284 3570 0
-5284 -3266 0
-5284 1905 0
5285 -3684 1091 3150 -1916 0
-5285 3684 0
-5285 -1091 0
-5285 -3150 0
-5285 1916 0
5286 3198 -1933 1069 -3608 0
-5286 -3198 0
-5286 1933 0
-5286 -1069 0
-5286 3608 0
5287 3287 -1842 -3604 1180 0
-5287 -3287 0
-5287 1842 0
-5287 3604 0
-5287 -1180 0
5288 3323 -1875 1336 -3580 0
-5288 -3323 0
-5288 1875 0
-5288 -1336 0
-5288 3580 0
5289 3130 -3582 876 -1870 0
-5289 -3130 0
-5289 3582 0
-5289 -876 0
-5289 1870 0
5290 -1930 -3612 1381 3148 0
-5290 1930 0
-5290 3612 0
-5290 -1381 0
-5290 -3148 0
5291 3319 -3576 721 -1825 0
-5291 -3319 0
-5291 3576 0
-5291 -721 0
-5291 1825 0
5292 3255 -3590 1287 -1830 0
-5292 -3255 0
-5292 3590 0
-5292 -1287 0
-5292 1830 0
5293 -3435 1320 -1529 3192 0
-5293 3435 0
-5293 -1320 0
-5293 1529 0
-5293 -3192 0
5294 3187 -3441 1036 -1581 0
-5294 -3187 0
-5294 3441 0
-5294 -1036 0
-5294 1581 0
5295 -3389 891 -1532 3274 0
-5295 3389 0
-5295 -891 0
-5295 1532 0
-5295 -3274 0
5296 1196 3241 -3443 -1631 0
-5296 -1196 0
-5296 -3241 0
-5296 3443 0
-5296 1631 0
5297 -1604 -3445 3201 3202 0
-5297 1604 0
-5297 3445 0
-5297 -3201 0
-5297 -3202 0
5298 3308 -1617 -3447 1255 0
-5298 -3308 0
-5298 1617 0
-5298 3447 0
-5298 -1255 0
5299 -3405 1416 3127 -1520 0
-5299 3405 0
-5299 -1416 0
-5299 -3127 0
-5299 1520 0
5300 3323 -1568 -3403 3324 0
-5300 -3323 0
-5300 1568 0
-5300 3403 0
-5300 -3324 0
5301 -3333 826 3167 -1637 0
-5301 3333 0
-5301 -826 0
-5301 -3167 0
-5301 1637 0
5302 1005 -1508 3249 -3335 0
-5302 -1005 0
-5302 1508 0
-5302 -3249 0
-5302 3335 0
5303 3329 -3328 4385 0
-5303 -3329 0
-5303 3328 0
-5303 -4385 0
5304 788 -1599 3164 -3339 0
-5304 -788 0
-5304 1599 0
-5304 -3164 0
-5304 3339 0
5305 3223 3222 -1579 -3343 0
-5305 -3223 0
-5305 -3222 0
-5305 1579 0
-5305 3343 0
5306 1217 3144 -3337 -1595 0
-5306 -1217 0
-5306 -3144 0
-5306 3337 0
-5306 1595 0
5307 -5308 0
-5307 5308 0
5309 3171 3170 -1623 -3349 0
-5309 -3171 0
-5309 -3170 0
-5309 1623 0
-5309 3349 0
5310 -3429 1442 -1590 3291 0
-5310 3429 0
-5310 -1442 0
-5310 1590 0
-5310 -3291 0
5311 3158 -1524 -3351 1457 0
-5311 -3158 0
-5311 1524 0
-5311 3351 0
-5311 -1457 0
5312 -5313 0
-5312 5313 0
5314 -3439 3130 -1563 3131 0
-5314 3439 0
-5314 -3130 0
-5314 1563 0
-5314 -3131 0
5315 3255 -1527 -3357 1281 0
-5315 -3255 0
-5315 1527 0
-5315 3357 0
-5315 -1281 0
5316 -1588 3317 3316 -3363 0
-5316 1588 0
-5316 -3317 0
-5316 -3316 0
-5316 3363 0
5317 -3359 3287 -1540 3288 0
-5317 3359 0
-5317 -3287 0
-5317 1540 0
-5317 -3288 0
5318 3198 -1629 -3353 3199 0
-5318 -3198 0
-5318 1629 0
-5318 3353 0
-5318 -3199 0
5319 3209 -3367 3208 -1554 0
-5319 -3209 0
-5319 3367 0
-5319 -3208 0
-5319 1554 0
5320 -3369 863 3313 -1516 0
-5320 3369 0
-5320 -863 0
-5320 -3313 0
-5320 1516 0
5321 -3331 3225 3226 -1649 0
-5321 3331 0
-5321 -3225 0
-5321 -3226 0
-5321 1649 0
5322 3147 -1626 -3365 3148 0
-5322 -3147 0
-5322 1626 0
-5322 3365 0
-5322 -3148 0
5323 3140 -3371 3141 -1542 0
-5323 -3140 0
-5323 3371 0
-5323 -3141 0
-5323 1542 0
5324 3284 -1573 -3373 3285 0
-5324 -3284 0
-5324 1573 0
-5324 3373 0
-5324 -3285 0
5325 3262 -1535 -3377 964 0
-5325 -3262 0
-5325 1535 0
-5325 3377 0
-5325 -964 0
5326 952 3205 -3379 -1615 0
-5326 -952 0
-5326 -3205 0
-5326 3379 0
-5326 1615 0
5327 3294 -1620 -3381 776 0
-5327 -3294 0
-5327 1620 0
-5327 3381 0
-5327 -776 0
5328 3195 -3345 -1513 3196 0
-5328 -3195 0
-5328 3345 0
-5328 1513 0
-5328 -3196 0
5329 -3347 940 -1570 3237 0
-5329 3347 0
-5329 -940 0
-5329 1570 0
-5329 -3237 0
5330 3319 -3383 715 -1522 0
-5330 -3319 0
-5330 3383 0
-5330 -715 0
-5330 1522 0
5331 1162 -1576 3271 -3385 0
-5331 -1162 0
-5331 1576 0
-5331 -3271 0
-5331 3385 0
5332 1402 3474 -4358 -1647 0
-5332 -1402 0
-5332 -3474 0
-5332 4358 0
-5332 1647 0
5333 -1652 3278 3277 -3361 0
-5333 1652 0
-5333 -3278 0
-5333 -3277 0
-5333 3361 0
5334 3176 -1586 -3387 3177 0
-5334 -3176 0
-5334 1586 0
-5334 3387 0
-5334 -3177 0
5335 3183 -1547 -3393 1122 0
-5335 -3183 0
-5335 1547 0
-5335 3393 0
-5335 -1122 0
5336 -1642 976 3135 -3397 0
-5336 1642 0
-5336 -976 0
-5336 -3135 0
-5336 3397 0
5337 -3399 1467 -1612 3212 0
-5337 3399 0
-5337 -1467 0
-5337 1612 0
-5337 -3212 0
5338 3298 -1550 -3395 3299 0
-5338 -3298 0
-5338 1550 0
-5338 3395 0
-5338 -3299 0
5339 703 -1552 3302 -3407 0
-5339 -703 0
-5339 1552 0
-5339 -3302 0
-5339 3407 0
5340 3233 -1592 -3409 3234 0
-5340 -3233 0
-5340 1592 0
-5340 3409 0
-5340 -3234 0
5341 3267 3266 -1597 -3401 0
-5341 -3267 0
-5341 -3266 0
-5341 1597 0
-5341 3401 0
5342 1356 3282 -3437 -1645 0
-5342 -1356 0
-5342 -3282 0
-5342 3437 0
-5342 1645 0
5343 -1634 3306 3305 -3411 0
-5343 1634 0
-5343 -3306 0
-5343 -3305 0
-5343 3411 0
5344 903 3216 -3427 -1639 0
-5344 -903 0
-5344 -3216 0
-5344 3427 0
-5344 1639 0
5345 3260 -3415 3259 -1511 0
-5345 -3260 0
-5345 3415 0
-5345 -3259 0
-5345 1511 0
5346 -1506 1020 3155 -3423 0
-5346 1506 0
-5346 -1020 0
-5346 -3155 0
-5346 3423 0
5347 -1557 3253 -3413 3252 0
-5347 1557 0
-5347 -3253 0
-5347 3413 0
-5347 -3252 0
5348 -1566 3229 -3375 3228 0
-5348 1566 0
-5348 -3229 0
-5348 3375 0
-5348 -3228 0
5349 1230 -1537 3181 -4320 0
-5349 -1230 0
-5349 1537 0
-5349 -3181 0
-5349 4320 0
5350 3150 -1609 -3417 1085 0
-5350 -3150 0
-5350 1609 0
-5350 3417 0
-5350 -1085 0
5351 3173 -3433 3174 -1560 0
-5351 -3173 0
-5351 3433 0
-5351 -3174 0
-5351 1560 0
5352 3219 -3425 -1518 3220 0
-5352 -3219 0
-5352 3425 0
-5352 1518 0
-5352 -3220 0
5353 -1544 -3419 3327 3326 0
-5353 1544 0
-5353 3419 0
-5353 -3327 0
-5353 -3326 0
5354 3244 -3431 750 -1584 0
-5354 -3244 0
-5354 3431 0
-5354 -750 0
-5354 1584 0
5355 3262 -1685 -3377 964 0
-5355 -3262 0
-5355 1685 0
-5355 3377 0
-5355 -964 0
5356 952 3205 -3379 -1770 0
-5356 -952 0
-5356 -3205 0
-5356 3379 0
-5356 1770 0
5357 -5358 0
-5357 5358 0
5359 3319 -1674 -3383 715 0
-5359 -3319 0
-5359 1674 0
-5359 3383 0
-5359 -715 0
5360 -3347 940 3237 -1725 0
-5360 3347 0
-5360 -940 0
-5360 -3237 0
-5360 1725 0
5361 3158 -1676 -3351 1457 0
-5361 -3158 0
-5361 1676 0
-5361 3351 0
-5361 -1457 0
5362 -3359 3287 -1690 3288 0
-5362 3359 0
-5362 -3287 0
-5362 1690 0
-5362 -3288 0
5363 3198 -3353 -1782 3199 0
-5363 -3198 0
-5363 3353 0
-5363 1782 0
-5363 -3199 0
5364 3255 -1678 -3357 1281 0
-5364 -3255 0
-5364 1678 0
-5364 3357 0
-5364 -1281 0
5365 3317 3316 -1745 -3363 0
-5365 -3317 0
-5365 -3316 0
-5365 1745 0
-5365 3363 0
5366 -1731 1162 3271 -3385 0
-5366 1731 0
-5366 -1162 0
-5366 -3271 0
-5366 3385 0
5367 3278 3277 -1805 -3361 0
-5367 -3278 0
-5367 -3277 0
-5367 1805 0
-5367 3361 0
5368 3176 -3387 -1742 3177 0
-5368 -3176 0
-5368 3387 0
-5368 1742 0
-5368 -3177 0
5369 -1666 -3369 863 3313 0
-5369 1666 0
-5369 3369 0
-5369 -863 0
-5369 -3313 0
5370 3298 -3395 -1705 3299 0
-5370 -3298 0
-5370 3395 0
-5370 1705 0
-5370 -3299 0
5371 703 3302 -3407 -1707 0
-5371 -703 0
-5371 -3302 0
-5371 3407 0
-5371 1707 0
5372 -1712 3253 -3413 3252 0
-5372 1712 0
-5372 -3253 0
-5372 3413 0
-5372 -3252 0
5373 3260 -3415 3259 -1661 0
-5373 -3260 0
-5373 3415 0
-5373 -3259 0
-5373 1661 0
5374 903 -1792 3216 -3427 0
-5374 -903 0
-5374 1792 0
-5374 -3216 0
-5374 3427 0
5375 3284 -3373 3285 -1728 0
-5375 -3284 0
-5375 3373 0
-5375 -3285 0
-5375 1728 0
5376 -1656 1020 3155 -3423 0
-5376 1656 0
-5376 -1020 0
-5376 -3155 0
-5376 3423 0
5377 3229 -1721 -3375 3228 0
-5377 -3229 0
-5377 1721 0
-5377 3375 0
-5377 -3228 0
5378 -1687 1230 3181 -4320 0
-5378 1687 0
-5378 -1230 0
-5378 -3181 0
-5378 4320 0
5379 3150 -1764 -3417 1085 0
-5379 -3150 0
-5379 1764 0
-5379 3417 0
-5379 -1085 0
5380 3173 -1715 -3433 3174 0
-5380 -3173 0
-5380 1715 0
-5380 3433 0
-5380 -3174 0
5381 3294 -1774 -3381 776 0
-5381 -3294 0
-5381 1774 0
-5381 3381 0
-5381 -776 0
5382 -5383 0
-5382 5383 0
5384 -3435 1320 3192 -1680 0
-5384 3435 0
-5384 -1320 0
-5384 -3192 0
-5384 1680 0
5385 3187 -1737 -3441 1036 0
-5385 -3187 0
-5385 1737 0
-5385 3441 0
-5385 -1036 0
5386 -3389 891 3274 -1682 0
-5386 3389 0
-5386 -891 0
-5386 -3274 0
-5386 1682 0
5387 3183 -1697 -3393 1122 0
-5387 -3183 0
-5387 1697 0
-5387 3393 0
-5387 -1122 0
5388 1196 3241 -3443 -1784 0
-5388 -1196 0
-5388 -3241 0
-5388 3443 0
-5388 1784 0
5389 -1794 976 3135 -3397 0
-5389 1794 0
-5389 -976 0
-5389 -3135 0
-5389 3397 0
5390 -3399 1467 3212 -1767 0
-5390 3399 0
-5390 -1467 0
-5390 -3212 0
-5390 1767 0
5391 3308 -1772 -3447 1255 0
-5391 -3308 0
-5391 1772 0
-5391 3447 0
-5391 -1255 0
5392 -3405 1416 3127 -1671 0
-5392 3405 0
-5392 -1416 0
-5392 -3127 0
-5392 1671 0
2115 -2114 0
-2115 2114 0
5393 3233 -3409 -1749 3234 0
-5393 -3233 0
-5393 3409 0
-5393 1749 0
-5393 -3234 0
5394 -1754 3267 3266 -3401 0
-5394 1754 0
-5394 -3267 0
-5394 -3266 0
-5394 3401 0
5395 3323 -3403 -1723 3324 0
-5395 -3323 0
-5395 3403 0
-5395 1723 0
-5395 -3324 0
5396 -1790 -3333 826 3167 0
-5396 1790 0
-5396 3333 0
-5396 -826 0
-5396 -3167 0
5397 1005 3249 -3335 -1659 0
-5397 -1005 0
-5397 -3249 0
-5397 3335 0
-5397 1659 0
5398 -3419 3327 -1694 3326 0
-5398 3419 0
-5398 -3327 0
-5398 1694 0
-5398 -3326 0
5399 3306 3305 -1787 -3411 0
-5399 -3306 0
-5399 -3305 0
-5399 1787 0
-5399 3411 0
5400 -1734 3223 3222 -3343 0
-5400 1734 0
-5400 -3223 0
-5400 -3222 0
-5400 3343 0
5401 3219 -1669 -3425 3220 0
-5401 -3219 0
-5401 1669 0
-5401 3425 0
-5401 -3220 0
5402 1217 -1752 3144 -3337 0
-5402 -1217 0
-5402 1752 0
-5402 -3144 0
-5402 3337 0
5403 -1756 788 3164 -3339 0
-5403 1756 0
-5403 -788 0
-5403 -3164 0
-5403 3339 0
5404 -3341 3137 -1762 3138 0
-5404 3341 0
-5404 -3137 0
-5404 1762 0
-5404 -3138 0
5405 3244 -1740 -3431 750 0
-5405 -3244 0
-5405 1740 0
-5405 3431 0
-5405 -750 0
5406 -3429 1442 3291 -1747 0
-5406 3429 0
-5406 -1442 0
-5406 -3291 0
-5406 1747 0
5407 1356 -1797 3282 -3437 0
-5407 -1356 0
-5407 1797 0
-5407 -3282 0
-5407 3437 0
5408 -1776 3171 3170 -3349 0
-5408 1776 0
-5408 -3171 0
-5408 -3170 0
-5408 3349 0
5409 -3439 3130 -1718 3131 0
-5409 3439 0
-5409 -3130 0
-5409 1718 0
-5409 -3131 0
5410 -3355 3123 -1758 3124 0
-5410 3355 0
-5410 -3123 0
-5410 1758 0
-5410 -3124 0
5411 -3445 3201 3202 -1760 0
-5411 3445 0
-5411 -3201 0
-5411 -3202 0
-5411 1760 0
5412 3147 -1779 -3365 3148 0
-5412 -3147 0
-5412 1779 0
-5412 3365 0
-5412 -3148 0
5413 3209 -3367 3208 -1709 0
-5413 -3209 0
-5413 3367 0
-5413 -3208 0
-5413 1709 0
5414 -3331 3225 3226 -1802 0
-5414 3331 0
-5414 -3225 0
-5414 -3226 0
-5414 1802 0
5415 3140 -1692 -3371 3141 0
-5415 -3140 0
-5415 1692 0
-5415 3371 0
-5415 -3141 0
5416 -3429 1442 3291 -1898 0
-5416 3429 0
-5416 -1442 0
-5416 -3291 0
-5416 1898 0
5417 1356 3282 -3437 -1947 0
-5417 -1356 0
-5417 -3282 0
-5417 3437 0
-5417 1947 0
5418 -1927 3171 3170 -3349 0
-5418 1927 0
-5418 -3171 0
-5418 -3170 0
-5418 3349 0
5419 -1870 -3439 3130 3131 0
-5419 1870 0
-5419 3439 0
-5419 -3130 0
-5419 -3131 0
5420 -1912 -3445 3201 3202 0
-5420 1912 0
-5420 3445 0
-5420 -3201 0
-5420 -3202 0
5421 3244 -3431 750 -1891 0
-5421 -3244 0
-5421 3431 0
-5421 -750 0
-5421 1891 0
5422 3308 -1923 -3447 1255 0
-5422 -3308 0
-5422 1923 0
-5422 3447 0
-5422 -1255 0
5423 3147 -1930 -3365 3148 0
-5423 -3147 0
-5423 1930 0
-5423 3365 0
-5423 -3148 0
5424 -3333 826 3167 -1940 0
-5424 3333 0
-5424 -826 0
-5424 -3167 0
-5424 1940 0
5425 1005 -1811 3249 -3335 0
-5425 -1005 0
-5425 1811 0
-5425 -3249 0
-5425 3335 0
5426 -1907 788 3164 -3339 0
-5426 1907 0
-5426 -788 0
-5426 -3164 0
-5426 3339 0
5427 3262 -1837 -3377 964 0
-5427 -3262 0
-5427 1837 0
-5427 3377 0
-5427 -964 0
5428 -3331 3225 -1951 3226 0
-5428 3331 0
-5428 -3225 0
-5428 1951 0
-5428 -3226 0
5429 3223 3222 -1886 -3343 0
-5429 -3223 0
-5429 -3222 0
-5429 1886 0
-5429 3343 0
5430 1217 3144 -3337 -1903 0
-5430 -1217 0
-5430 -3144 0
-5430 3337 0
-5430 1903 0
5431 -3347 940 3237 -1877 0
-5431 3347 0
-5431 -940 0
-5431 -3237 0
-5431 1877 0
5432 -3341 3137 -1914 3138 0
-5432 3341 0
-5432 -3137 0
-5432 1914 0
-5432 -3138 0
5433 3195 -1815 -3345 3196 0
-5433 -3195 0
-5433 1815 0
-5433 3345 0
-5433 -3196 0
5434 -1910 -3355 3123 3124 0
-5434 1910 0
-5434 3355 0
-5434 -3123 0
-5434 -3124 0
5435 3158 -1827 -3351 1457 0
-5435 -3158 0
-5435 1827 0
-5435 3351 0
-5435 -1457 0
5436 3198 -1933 -3353 3199 0
-5436 -3198 0
-5436 1933 0
-5436 3353 0
-5436 -3199 0
5437 -1954 3278 3277 -3361 0
-5437 1954 0
-5437 -3278 0
-5437 -3277 0
-5437 3361 0
5438 3255 -1830 -3357 1281 0
-5438 -3255 0
-5438 1830 0
-5438 3357 0
-5438 -1281 0
5439 -1896 3317 3316 -3363 0
-5439 1896 0
-5439 -3317 0
-5439 -3316 0
-5439 3363 0
5440 -3359 3287 -1842 3288 0
-5440 3359 0
-5440 -3287 0
-5440 1842 0
-5440 -3288 0
5441 3176 -3387 -1893 3177 0
-5441 -3176 0
-5441 3387 0
-5441 1893 0
-5441 -3177 0
5442 3209 -3367 3208 -1861 0
-5442 -3209 0
-5442 3367 0
-5442 -3208 0
-5442 1861 0
5443 -1818 -3369 863 3313 0
-5443 1818 0
-5443 3369 0
-5443 -863 0
-5443 -3313 0
2117 -2116 0
-2117 2116 0
5444 3140 -3371 3141 -1844 0
-5444 -3140 0
-5444 3371 0
-5444 -3141 0
-5444 1844 0
5445 -1873 3229 -3375 3228 0
-5445 1873 0
-5445 -3229 0
-5445 3375 0
-5445 -3228 0
5446 3150 -1916 -3417 1085 0
-5446 -3150 0
-5446 1916 0
-5446 3417 0
-5446 -1085 0
5447 3294 -1925 -3381 776 0
-5447 -3294 0
-5447 1925 0
-5447 3381 0
-5447 -776 0
5448 3284 -1880 -3373 3285 0
-5448 -3284 0
-5448 1880 0
-5448 3373 0
-5448 -3285 0
5449 -1809 1020 3155 -3423 0
-5449 1809 0
-5449 -1020 0
-5449 -3155 0
-5449 3423 0
5450 3319 -3383 715 -1825 0
-5450 -3319 0
-5450 3383 0
-5450 -715 0
-5450 1825 0
5451 952 3205 -3379 -1921 0
-5451 -952 0
-5451 -3205 0
-5451 3379 0
-5451 1921 0
5452 -5453 0
-5452 5453 0
5454 -3435 1320 3192 -1832 0
-5454 3435 0
-5454 -1320 0
-5454 -3192 0
-5454 1832 0
5455 -1883 1162 3271 -3385 0
-5455 1883 0
-5455 -1162 0
-5455 -3271 0
-5455 3385 0
5456 -3389 891 -1834 3274 0
-5456 3389 0
-5456 -891 0
-5456 1834 0
-5456 -3274 0
5457 3187 -1888 -3441 1036 0
-5457 -3187 0
-5457 1888 0
-5457 3441 0
-5457 -1036 0
5458 3183 -1849 -3393 1122 0
-5458 -3183 0
-5458 1849 0
-5458 3393 0
-5458 -1122 0
5459 1196 -1935 3241 -3443 0
-5459 -1196 0
-5459 1935 0
-5459 -3241 0
-5459 3443 0
5460 3298 -1857 -3395 3299 0
-5460 -3298 0
-5460 1857 0
-5460 3395 0
-5460 -3299 0
5461 976 -1944 3135 -3397 0
-5461 -976 0
-5461 1944 0
-5461 -3135 0
-5461 3397 0
5462 -3399 1467 -1919 3212 0
-5462 3399 0
-5462 -1467 0
-5462 1919 0
-5462 -3212 0
5463 3233 -3409 -1900 3234 0
-5463 -3233 0
-5463 3409 0
-5463 1900 0
-5463 -3234 0
5464 3323 -1875 -3403 3324 0
-5464 -3323 0
-5464 1875 0
-5464 3403 0
-5464 -3324 0
5465 -3405 1416 3127 -1822 0
-5465 3405 0
-5465 -1416 0
-5465 -3127 0
-5465 1822 0
5466 703 3302 -3407 -1859 0
-5466 -703 0
-5466 -3302 0
-5466 3407 0
-5466 1859 0
5467 3267 3266 -1905 -3401 0
-5467 -3267 0
-5467 -3266 0
-5467 1905 0
-5467 3401 0
5468 3260 -3415 3259 -1813 0
-5468 -3260 0
-5468 3415 0
-5468 -3259 0
-5468 1813 0
5469 3306 3305 -1938 -3411 0
-5469 -3306 0
-5469 -3305 0
-5469 1938 0
-5469 3411 0
5470 -1846 -3419 3327 3326 0
-5470 1846 0
-5470 3419 0
-5470 -3327 0
-5470 -3326 0
5471 3219 -3425 -1820 3220 0
-5471 -3219 0
-5471 3425 0
-5471 1820 0
-5471 -3220 0
5472 903 3216 -3427 -1942 0
-5472 -903 0
-5472 -3216 0
-5472 3427 0
-5472 1942 0
5473 -1864 3253 -3413 3252 0
-5473 1864 0
-5473 -3253 0
-5473 3413 0
-5473 -3252 0
5474 1230 -1839 3181 -4320 0
-5474 -1230 0
-5474 1839 0
-5474 -3181 0
-5474 4320 0
5475 3173 -1867 -3433 3174 0
-5475 -3173 0
-5475 1867 0
-5475 3433 0
-5475 -3174 0
5476 -3 3697 -3713 35 0
-5476 3 0
-5476 -3697 0
-5476 3713 0
-5476 -35 0
5477 -4020 452 -13 3694 0
-5477 4020 0
-5477 -452 0
-5477 13 0
-5477 -3694 0
2061 -2060 0
-2061 2060 0
5478 579 -4132 3691 -18 0
-5478 -579 0
-5478 4132 0
-5478 -3691 0
-5478 18 0
5479 3699 327 -8 -3907 0
-5479 -3699 0
-5479 -327 0
-5479 8 0
-5479 3907 0
5480 -2008 0
-5480 2008 0
5481 331 3699 -3911 -8 0
-5481 -331 0
-5481 -3699 0
-5481 3911 0
-5481 8 0
5482 45 -3720 3697 -3 0
-5482 -45 0
-5482 3720 0
-5482 -3697 0
-5482 3 0
5483 3691 583 -18 -4136 0
-5483 -3691 0
-5483 -583 0
-5483 18 0
-5483 4136 0
5484 -13 3694 -4024 456 0
-5484 13 0
-5484 -3694 0
-5484 4024 0
-5484 -456 0
5485 -13 467 3694 -4032 0
-5485 13 0
-5485 -467 0
-5485 -3694 0
-5485 4032 0
2025 -2024 0
-2025 2024 0
5486 -4143 594 3691 -18 0
-5486 4143 0
-5486 -594 0
-5486 -3691 0
-5486 18 0
5487 3699 -3920 342 -8 0
-5487 -3699 0
-5487 3920 0
-5487 -342 0
-5487 8 0
5488 71 -3733 3697 -3 0
-5488 -71 0
-5488 3733 0
-5488 -3697 0
-5488 3 0
5489 -1990 0
-5489 1990 0
5490 597 -4145 3691 -18 0
-5490 -597 0
-5490 4145 0
-5490 -3691 0
-5490 18 0
5491 -4034 470 -13 3694 0
-5491 4034 0
-5491 -470 0
-5491 13 0
-5491 -3694 0
5492 3699 345 -8 -3922 0
-5492 -3699 0
-5492 -345 0
-5492 8 0
-5492 3922 0
5493 -3 3697 -3737 76 0
-5493 3 0
-5493 -3697 0
-5493 3737 0
-5493 -76 0
5494 -18 3691 -4146 599 0
-5494 18 0
-5494 -3691 0
-5494 4146 0
-5494 -599 0
5495 -3739 -3 81 3697 0
-5495 3739 0
-5495 3 0
-5495 -81 0
-5495 -3697 0
5496 3699 -3923 347 -8 0
-5496 -3699 0
-5496 3923 0
-5496 -347 0
-5496 8 0
5497 472 -13 -4035 3694 0
-5497 -472 0
-5497 13 0
-5497 4035 0
-5497 -3694 0
2068 -2067 0
-2068 2067 0
5498 3699 -3928 351 -8 0
-5498 -3699 0
-5498 3928 0
-5498 -351 0
-5498 8 0
5499 -3 3697 91 -3747 0
-5499 3 0
-5499 -3697 0
-5499 -91 0
-5499 3747 0
5500 -4151 604 3691 -18 0
-5500 4151 0
-5500 -604 0
-5500 -3691 0
-5500 18 0
5501 -13 477 3694 -4040 0
-5501 13 0
-5501 -477 0
-5501 -3694 0
-5501 4040 0
5502 -2026 0
-5502 2026 0
2127 606 -4152 3691 -18 0
-2127 -606 0
-2127 4152 0
-2127 -3691 0
-2127 18 0
2128 -4041 479 -13 3694 0
-2128 4041 0
-2128 -479 0
-2128 13 0
-2128 -3694 0
2129 -1979 0
-2129 1979 0
2130 -3750 95 3697 -3 0
-2130 3750 0
-2130 -95 0
-2130 -3697 0
-2130 3 0
2131 3699 353 -8 -3929 0
-2131 -3699 0
-2131 -353 0
-2131 8 0
-2131 3929 0
2133 -13 3694 -4046 483 0
-2133 13 0
-2133 -3694 0
-2133 4046 0
-2133 -483 0
2134 -2073 0
-2134 2073 0
2135 3691 610 -18 -4157 0
-2135 -3691 0
-2135 -610 0
-2135 18 0
-2135 4157 0
2136 357 3699 -3934 -8 0
-2136 -357 0
-2136 -3699 0
-2136 3934 0
-2136 8 0
2137 -3 3697 105 -3756 0
-2137 3 0
-2137 -3697 0
-2137 -105 0
-2137 3756 0
2141 -4165 620 3691 -18 0
-2141 4165 0
-2141 -620 0
-2141 -3691 0
-2141 18 0
2101 -2100 0
-2101 2100 0
2142 -13 493 3694 -4054 0
-2142 13 0
-2142 -493 0
-2142 -3694 0
-2142 4054 0
2143 -5503 0
-2143 5503 0
2139 -5504 0
-2139 5504 0
2140 -3 137 3697 -3775 0
-2140 3 0
-2140 -137 0
-2140 -3697 0
-2140 3775 0
5505 373 3699 -3949 -8 0
-5505 -373 0
-5505 -3699 0
-5505 3949 0
-5505 8 0
5506 3691 626 -18 -4171 0
-5506 -3691 0
-5506 -626 0
-5506 18 0
-5506 4171 0
2059 -2058 0
-2059 2058 0
5507 -13 3694 -4060 500 0
-5507 13 0
-5507 -3694 0
-5507 4060 0
-5507 -500 0
5508 -3 3697 152 -3786 0
-5508 3 0
-5508 -3697 0
-5508 -152 0
-5508 3786 0
2146 -4174 628 3691 -18 0
-2146 4174 0
-2146 -628 0
-2146 -3691 0
-2146 18 0
2147 -13 502 3694 -4062 0
-2147 13 0
-2147 -502 0
-2147 -3694 0
-2147 4062 0
2148 156 -3790 3697 -3 0
-2148 -156 0
-2148 3790 0
-2148 -3697 0
-2148 3 0
2149 -1984 0
-2149 1984 0
2150 3699 -3951 375 -8 0
-2150 -3699 0
-2150 3951 0
-2150 -375 0
-2150 8 0
2152 -3 3697 -3792 161 0
-2152 3 0
-2152 -3697 0
-2152 3792 0
-2152 -161 0
2153 -2085 0
-2153 2085 0
2154 3699 377 -8 -3952 0
-2154 -3699 0
-2154 -377 0
-2154 8 0
-2154 3952 0
2155 630 -4175 3691 -18 0
-2155 -630 0
-2155 4175 0
-2155 -3691 0
-2155 18 0
2156 -4063 504 -13 3694 0
-2156 4063 0
-2156 -504 0
-2156 13 0
-2156 -3694 0
5509 171 -3796 3697 -3 0
-5509 -171 0
-5509 3796 0
-5509 -3697 0
-5509 3 0
5510 3691 634 -18 -4177 0
-5510 -3691 0
-5510 -634 0
-5510 18 0
-5510 4177 0
5511 -13 3694 -4065 508 0
-5511 13 0
-5511 -3694 0
-5511 4065 0
-5511 -508 0
5512 381 3699 -3954 -8 0
-5512 -381 0
-5512 -3699 0
-5512 3954 0
-5512 8 0
2023 -2022 0
-2023 2022 0
5513 640 -4182 3691 -18 0
-5513 -640 0
-5513 4182 0
-5513 -3691 0
-5513 18 0
5514 -4070 514 -13 3694 0
-5514 4070 0
-5514 -514 0
-5514 13 0
-5514 -3694 0
5515 -2039 0
-5515 2039 0
5516 3699 387 -8 -3959 0
-5516 -3699 0
-5516 -387 0
-5516 8 0
-5516 3959 0
5517 -3803 183 3697 -3 0
-5517 3803 0
-5517 -183 0
-5517 -3697 0
-5517 3 0
2160 3699 -3960 389 -8 0
-2160 -3699 0
-2160 3960 0
-2160 -389 0
-2160 8 0
2161 -18 3691 -4183 642 0
-2161 18 0
-2161 -3691 0
-2161 4183 0
-2161 -642 0
2077 -2076 0
-2077 2076 0
2162 188 -3 -3805 3697 0
-2162 -188 0
-2162 3 0
-2162 3805 0
-2162 -3697 0
2163 516 -13 -4071 3694 0
-2163 -516 0
-2163 13 0
-2163 4071 0
-2163 -3694 0
5518 3691 644 -18 -4185 0
-5518 -3691 0
-5518 -644 0
-5518 18 0
-5518 4185 0
5519 -13 3694 -4074 518 0
-5519 13 0
-5519 -3694 0
-5519 4074 0
-5519 -518 0
5520 391 3699 -3963 -8 0
-5520 -391 0
-5520 -3699 0
-5520 3963 0
-5520 8 0
5521 -3 3697 193 -3809 0
-5521 3 0
-5521 -3697 0
-5521 -193 0
-5521 3809 0
2053 -2052 0
-2053 2052 0
2089 -2088 0
-2089 2088 0
2167 -4188 646 3691 -18 0
-2167 4188 0
-2167 -646 0
-2167 -3691 0
-2167 18 0
2168 -13 520 3694 -4076 0
-2168 13 0
-2168 -520 0
-2168 -3694 0
-2168 4076 0
2169 -3812 3697 -3 198 0
-2169 3812 0
-2169 -3697 0
-2169 3 0
-2169 -198 0
2170 -4343 1339 -2157 3323 0
-2170 4343 0
-2170 -1339 0
-2170 2157 0
-2170 -3323 0
2171 3699 -3965 393 -8 0
-2171 -3699 0
-2171 3965 0
-2171 -393 0
-2171 8 0
5522 -13 3694 -4081 526 0
-5522 13 0
-5522 -3694 0
-5522 4081 0
-5522 -526 0
5523 3691 652 -18 -4193 0
-5523 -3691 0
-5523 -652 0
-5523 18 0
-5523 4193 0
1965 -1964 0
-1965 1964 0
5524 212 -3821 3697 -3 0
-5524 -212 0
-5524 3821 0
-5524 -3697 0
-5524 3 0
5525 399 3699 -3970 -8 0
-5525 -399 0
-5525 -3699 0
-5525 3970 0
-5525 8 0
2174 407 3699 -3979 -8 0
-2174 -407 0
-2174 -3699 0
-2174 3979 0
-2174 8 0
2072 -2071 0
-2072 2071 0
2175 229 3697 -3 -3834 0
-2175 -229 0
-2175 -3697 0
-2175 3 0
-2175 3834 0
2176 3691 660 -18 -4201 0
-2176 -3691 0
-2176 -660 0
-2176 18 0
-2176 4201 0
2177 -13 3694 -4090 534 0
-2177 13 0
-2177 -3694 0
-2177 4090 0
-2177 -534 0
5526 -5527 0
-5526 5527 0
5528 -2144 3201 1303 -4334 0
-5528 2144 0
-5528 -3201 0
-5528 -1303 0
-5528 4334 0
5529 3699 411 -8 -3982 0
-5529 -3699 0
-5529 -411 0
-5529 8 0
-5529 3982 0
1976 -1975 0
-1976 1975 0
5530 239 -3 -3839 3697 0
-5530 -239 0
-5530 3 0
-5530 3839 0
-5530 -3697 0
5531 664 -4206 3691 -18 0
-5531 -664 0
-5531 4206 0
-5531 -3691 0
-5531 18 0
5532 -4094 538 -13 3694 0
-5532 4094 0
-5532 -538 0
-5532 13 0
-5532 -3694 0
1983 -1982 0
-1983 1982 0
2182 3699 -3985 413 -8 0
-2182 -3699 0
-2182 3985 0
-2182 -413 0
-2182 8 0
2183 540 -13 -4096 3694 0
-2183 -540 0
-2183 13 0
-2183 4096 0
-2183 -3694 0
2184 -3 3697 244 -3844 0
-2184 3 0
-2184 -3697 0
-2184 -244 0
-2184 3844 0
2181 -18 3691 -4208 666 0
-2181 18 0
-2181 -3691 0
-2181 4208 0
-2181 -666 0
2057 -2056 0
-2057 2056 0
5533 -13 544 3694 -4099 0
-5533 13 0
-5533 -544 0
-5533 -3694 0
-5533 4099 0
5534 3176 -4351 1374 -2158 0
-5534 -3176 0
-5534 4351 0
-5534 -1374 0
-5534 2158 0
5535 -4211 670 3691 -18 0
-5535 4211 0
-5535 -670 0
-5535 -3691 0
-5535 18 0
5536 -5537 0
-5536 5537 0
5538 -3 3697 -3850 253 0
-5538 3 0
-5538 -3697 0
-5538 3850 0
-5538 -253 0
5539 3699 -3988 417 -8 0
-5539 -3699 0
-5539 3988 0
-5539 -417 0
-5539 8 0
2093 -2092 0
-2093 2092 0
5540 3699 419 -8 -3991 0
-5540 -3699 0
-5540 -419 0
-5540 8 0
-5540 3991 0
5541 672 -4214 3691 -18 0
-5541 -672 0
-5541 4214 0
-5541 -3691 0
-5541 18 0
5542 -4102 546 -13 3694 0
-5542 4102 0
-5542 -546 0
-5542 13 0
-5542 -3694 0
5543 -3854 -3 258 3697 0
-5543 3854 0
-5543 3 0
-5543 -258 0
-5543 -3697 0
2189 262 -3857 3697 -3 0
-2189 -262 0
-2189 3857 0
-2189 -3697 0
-2189 3 0
2190 -2062 0
-2190 2062 0
2191 -18 3691 -4216 674 0
-2191 18 0
-2191 -3691 0
-2191 4216 0
-2191 -674 0
2192 548 -13 -4104 3694 0
-2192 -548 0
-2192 13 0
-2192 4104 0
-2192 -3694 0
2193 3699 -3993 421 -8 0
-2193 -3699 0
-2193 3993 0
-2193 -421 0
-2193 8 0
2195 423 3699 -3995 -8 0
-2195 -423 0
-2195 -3699 0
-2195 3995 0
-2195 8 0
2196 3691 676 -18 -4218 0
-2196 -3691 0
-2196 -676 0
-2196 18 0
-2196 4218 0
2197 -2042 0
-2197 2042 0
2198 267 3697 -3 -3859 0
-2198 -267 0
-2198 -3697 0
-2198 3 0
-2198 3859 0
2199 -13 3694 -4105 550 0
-2199 13 0
-2199 -3694 0
-2199 4105 0
-2199 -550 0
1957 -1956 0
-1957 1956 0
5544 -5545 0
-5544 5545 0
5546 -3863 272 3697 -3 0
-5546 3863 0
-5546 -272 0
-5546 -3697 0
-5546 3 0
5547 -4219 678 3691 -18 0
-5547 4219 0
-5547 -678 0
-5547 -3691 0
-5547 18 0
5548 -13 552 3694 -4107 0
-5548 13 0
-5548 -552 0
-5548 -3694 0
-5548 4107 0
5549 -2121 3208 844 -4265 0
-5549 2121 0
-5549 -3208 0
-5549 -844 0
-5549 4265 0
5550 3699 -3997 425 -8 0
-5550 -3699 0
-5550 3997 0
-5550 -425 0
-5550 8 0
5551 556 -13 -4111 3694 0
-5551 -556 0
-5551 13 0
-5551 4111 0
-5551 -3694 0
1978 -1977 0
-1978 1977 0
5552 -3 3697 281 -3871 0
-5552 3 0
-5552 -3697 0
-5552 -281 0
-5552 3871 0
5553 1490 3123 -4377 -2185 0
-5553 -1490 0
-5553 -3123 0
-5553 4377 0
-5553 2185 0
5554 -18 3691 -4223 682 0
-5554 18 0
-5554 -3691 0
-5554 4223 0
-5554 -682 0
5555 3699 -4000 429 -8 0
-5555 -3699 0
-5555 4000 0
-5555 -429 0
-5555 8 0
5556 1384 -4352 -2159 3148 0
-5556 -1384 0
-5556 4352 0
-5556 2159 0
-5556 -3148 0
5557 -2034 0
-5557 2034 0
5558 3266 -2164 -4353 1396 0
-5558 -3266 0
-5558 2164 0
-5558 4353 0
-5558 -1396 0
5559 -3 3697 -3877 290 0
-5559 3 0
-5559 -3697 0
-5559 3877 0
-5559 -290 0
5560 -4227 686 3691 -18 0
-5560 4227 0
-5560 -686 0
-5560 -3691 0
-5560 18 0
5561 -13 560 3694 -4115 0
-5561 13 0
-5561 -560 0
-5561 -3694 0
-5561 4115 0
5562 3699 -4004 433 -8 0
-5562 -3699 0
-5562 4004 0
-5562 -433 0
-5562 8 0
2205 3699 -4007 437 -8 0
-2205 -3699 0
-2205 4007 0
-2205 -437 0
-2205 8 0
2066 -2065 0
-2066 2065 0
2206 300 -3881 3697 -3 0
-2206 -300 0
-2206 3881 0
-2206 -3697 0
-2206 3 0
2207 564 -13 -4118 3694 0
-2207 -564 0
-2207 13 0
-2207 4118 0
-2207 -3694 0
2208 -18 3691 -4230 690 0
-2208 18 0
-2208 -3691 0
-2208 4230 0
-2208 -690 0
2210 439 3699 -4009 -8 0
-2210 -439 0
-2210 -3699 0
-2210 4009 0
-2210 8 0
2211 -13 3694 -4120 566 0
-2211 13 0
-2211 -3694 0
-2211 4120 0
-2211 -566 0
2212 -3 3697 -3884 302 0
-2212 3 0
-2212 -3697 0
-2212 3884 0
-2212 -302 0
2213 3691 692 -18 -4233 0
-2213 -3691 0
-2213 -692 0
-2213 18 0
-2213 4233 0
2070 -2069 0
-2070 2069 0
5563 696 -4236 3691 -18 0
-5563 -696 0
-5563 4236 0
-5563 -3691 0
-5563 18 0
5564 3699 443 -8 -4013 0
-5564 -3699 0
-5564 -443 0
-5564 8 0
-5564 4013 0
5565 -4124 570 -13 3694 0
-5565 4124 0
-5565 -570 0
-5565 13 0
-5565 -3694 0
2038 -2037 0
-2038 2037 0
5566 312 -3890 3697 -3 0
-5566 -312 0
-5566 3890 0
-5566 -3697 0
-5566 3 0
2218 3313 -3312 -2215 0
-2218 -3313 0
-2218 3312 0
-2218 2215 0
2236 -2222 -3179 3181 0
-2236 2222 0
-2236 3179 0
-2236 -3181 0
2251 -5567 0
-2251 5567 0
2252 -5568 0
-2252 5568 0
2253 -5569 0
-2253 5569 0
2255 3244 -3246 -2229 0
-2255 -3244 0
-2255 3246 0
-2255 2229 0
2259 -2258 0
-2259 2258 0
5570 -2248 -4304 1143 3170 0
-5570 2248 0
-5570 4304 0
-5570 -1143 0
-5570 -3170 0
5571 399 3699 -3970 -2114 0
-5571 -399 0
-5571 -3699 0
-5571 3970 0
-5571 2114 0
5572 212 -3821 3697 -2102 0
-5572 -212 0
-5572 3821 0
-5572 -3697 0
-5572 2102 0
5573 -2108 3691 652 -4193 0
-5573 2108 0
-5573 -3691 0
-5573 -652 0
-5573 4193 0
1517 -1516 0
-1517 1516 0
5574 3694 -4081 526 -1504 0
-5574 -3694 0
-5574 4081 0
-5574 -526 0
-5574 1504 0
5575 -2102 3697 50 -3723 0
-5575 2102 0
-5575 -3697 0
-5575 -50 0
-5575 3723 0
5576 3313 -3312 -2264 0
-5576 -3313 0
-5576 3312 0
-5576 2264 0
1519 -1518 0
-1519 1518 0
5577 -4138 585 3691 -2108 0
-5577 4138 0
-5577 -585 0
-5577 -3691 0
-5577 2108 0
5578 -1504 458 3694 -4027 0
-5578 1504 0
-5578 -458 0
-5578 -3694 0
-5578 4027 0
5579 3699 -2114 -3914 333 0
-5579 -3699 0
-5579 2114 0
-5579 3914 0
-5579 -333 0
2268 606 -2108 -4152 3691 0
-2268 -606 0
-2268 2108 0
-2268 4152 0
-2268 -3691 0
2269 3699 353 -2114 -3929 0
-2269 -3699 0
-2269 -353 0
-2269 2114 0
-2269 3929 0
2270 -4041 479 3694 -1504 0
-2270 4041 0
-2270 -479 0
-2270 -3694 0
-2270 1504 0
2271 -3750 95 3697 -2102 0
-2271 3750 0
-2271 -95 0
-2271 -3697 0
-2271 2102 0
2272 -1532 0
-2272 1532 0
1536 -1535 0
-1536 1535 0
2274 -2108 3691 -4208 666 0
-2274 2108 0
-2274 -3691 0
-2274 4208 0
-2274 -666 0
2275 540 -4096 3694 -1504 0
-2275 -540 0
-2275 4096 0
-2275 -3694 0
-2275 1504 0
2276 3699 -3985 413 -2114 0
-2276 -3699 0
-2276 3985 0
-2276 -413 0
-2276 2114 0
2277 3697 244 -2102 -3844 0
-2277 -3697 0
-2277 -244 0
-2277 2102 0
-2277 3844 0
2279 3699 -2114 -3951 375 0
-2279 -3699 0
-2279 2114 0
-2279 3951 0
-2279 -375 0
2280 -4174 628 3691 -2108 0
-2280 4174 0
-2280 -628 0
-2280 -3691 0
-2280 2108 0
2281 -1537 0
-2281 1537 0
2282 -1504 502 3694 -4062 0
-2282 1504 0
-2282 -502 0
-2282 -3694 0
-2282 4062 0
2283 156 -3790 3697 -2102 0
-2283 -156 0
-2283 3790 0
-2283 -3697 0
-2283 2102 0
2286 -1544 0
-2286 1544 0
2287 -4034 470 3694 -1504 0
-2287 4034 0
-2287 -470 0
-2287 -3694 0
-2287 1504 0
2288 3697 -3737 -2102 76 0
-2288 -3697 0
-2288 3737 0
-2288 2102 0
-2288 -76 0
2289 3699 345 -2114 -3922 0
-2289 -3699 0
-2289 -345 0
-2289 2114 0
-2289 3922 0
2285 -5580 0
-2285 5580 0
5581 45 -3720 3697 -2102 0
-5581 -45 0
-5581 3720 0
-5581 -3697 0
-5581 2102 0
5582 -1554 0
-5582 1554 0
5583 331 3699 -3911 -2114 0
-5583 -331 0
-5583 -3699 0
-5583 3911 0
-5583 2114 0
5584 3694 -4024 456 -1504 0
-5584 -3694 0
-5584 4024 0
-5584 -456 0
-5584 1504 0
5585 -2108 3691 583 -4136 0
-5585 2108 0
-5585 -3691 0
-5585 -583 0
-5585 4136 0
5586 -2108 3691 634 -4177 0
-5586 2108 0
-5586 -3691 0
-5586 -634 0
-5586 4177 0
5587 381 3699 -3954 -2114 0
-5587 -381 0
-5587 -3699 0
-5587 3954 0
-5587 2114 0
5588 171 -3796 3697 -2102 0
-5588 -171 0
-5588 3796 0
-5588 -3697 0
-5588 2102 0
5589 3694 -4065 508 -1504 0
-5589 -3694 0
-5589 4065 0
-5589 -508 0
-5589 1504 0
1569 -1568 0
-1569 1568 0
5590 -4143 594 3691 -2108 0
-5590 4143 0
-5590 -594 0
-5590 -3691 0
-5590 2108 0
5591 71 -3733 3697 -2102 0
-5591 -71 0
-5591 3733 0
-5591 -3697 0
-5591 2102 0
5592 3699 -2114 -3920 342 0
-5592 -3699 0
-5592 2114 0
-5592 3920 0
-5592 -342 0
5593 -1504 467 3694 -4032 0
-5593 1504 0
-5593 -467 0
-5593 -3694 0
-5593 4032 0
5594 -1570 0
-5594 1570 0
2295 -4151 604 3691 -2108 0
-2295 4151 0
-2295 -604 0
-2295 -3691 0
-2295 2108 0
2296 3699 -2114 -3928 351 0
-2296 -3699 0
-2296 2114 0
-2296 3928 0
-2296 -351 0
2297 -1504 477 3694 -4040 0
-2297 1504 0
-2297 -477 0
-2297 -3694 0
-2297 4040 0
2298 -2102 3697 91 -3747 0
-2298 2102 0
-2298 -3697 0
-2298 -91 0
-2298 3747 0
2299 -1573 0
-2299 1573 0
2301 -4124 570 3694 -1504 0
-2301 4124 0
-2301 -570 0
-2301 -3694 0
-2301 1504 0
2302 312 -3890 3697 -2102 0
-2302 -312 0
-2302 3890 0
-2302 -3697 0
-2302 2102 0
1585 -1584 0
-1585 1584 0
2303 -5595 0
-2303 5595 0
2304 -5596 0
-2304 5596 0
5597 -3803 183 3697 -2102 0
-5597 3803 0
-5597 -183 0
-5597 -3697 0
-5597 2102 0
1587 -1586 0
-1587 1586 0
5598 3699 387 -2114 -3959 0
-5598 -3699 0
-5598 -387 0
-5598 2114 0
-5598 3959 0
5599 -4070 514 3694 -1504 0
-5599 4070 0
-5599 -514 0
-5599 -3694 0
-5599 1504 0
5600 640 -2108 -4182 3691 0
-5600 -640 0
-5600 2108 0
-5600 4182 0
-5600 -3691 0
2310 -5601 0
-2310 5601 0
1589 -1588 0
-1589 1588 0
2307 -5602 0
-2307 5602 0
2308 -5603 0
-2308 5603 0
2309 -5604 0
-2309 5604 0
2312 365 3699 -3941 -2114 0
-2312 -365 0
-2312 -3699 0
-2312 3941 0
-2312 2114 0
2313 -2108 3691 618 -4164 0
-2313 2108 0
-2313 -3691 0
-2313 -618 0
-2313 4164 0
1596 -1595 0
-1596 1595 0
2314 132 -3773 3697 -2102 0
-2314 -132 0
-2314 3773 0
-2314 -3697 0
-2314 2102 0
2315 3694 -4053 491 -1504 0
-2315 -3694 0
-2315 4053 0
-2315 -491 0
-2315 1504 0
2316 -5605 0
-2316 5605 0
1598 -1597 0
-1598 1597 0
5606 3694 -4074 518 -1504 0
-5606 -3694 0
-5606 4074 0
-5606 -518 0
-5606 1504 0
5607 3697 193 -2102 -3809 0
-5607 -3697 0
-5607 -193 0
-5607 2102 0
-5607 3809 0
5608 391 3699 -3963 -2114 0
-5608 -391 0
-5608 -3699 0
-5608 3963 0
-5608 2114 0
5609 -2108 3691 644 -4185 0
-5609 2108 0
-5609 -3691 0
-5609 -644 0
-5609 4185 0
5610 -2108 3691 626 -4171 0
-5610 2108 0
-5610 -3691 0
-5610 -626 0
-5610 4171 0
5611 3694 -4060 500 -1504 0
-5611 -3694 0
-5611 4060 0
-5611 -500 0
-5611 1504 0
1605 -1604 0
-1605 1604 0
5612 373 3699 -3949 -2114 0
-5612 -373 0
-5612 -3699 0
-5612 3949 0
-5612 2114 0
5613 3697 152 -2102 -3786 0
-5613 -3697 0
-5613 -152 0
-5613 2102 0
-5613 3786 0
5614 579 -2108 -4132 3691 0
-5614 -579 0
-5614 2108 0
-5614 4132 0
-5614 -3691 0
5615 3699 327 -2114 -3907 0
-5615 -3699 0
-5615 -327 0
-5615 2114 0
-5615 3907 0
5616 -4020 452 3694 -1504 0
-5616 4020 0
-5616 -452 0
-5616 -3694 0
-5616 1504 0
5617 3697 -3713 -2102 35 0
-5617 -3697 0
-5617 3713 0
-5617 2102 0
-5617 -35 0
5618 -1606 0
-5618 1606 0
2324 3699 -3993 421 -2114 0
-2324 -3699 0
-2324 3993 0
-2324 -421 0
-2324 2114 0
2325 548 -4104 3694 -1504 0
-2325 -548 0
-2325 4104 0
-2325 -3694 0
-2325 1504 0
2326 -1609 0
-2326 1609 0
2327 -2108 3691 -4216 674 0
-2327 2108 0
-2327 -3691 0
-2327 4216 0
-2327 -674 0
2328 262 -3857 3697 -2102 0
-2328 -262 0
-2328 3857 0
-2328 -3697 0
-2328 2102 0
5619 300 -3881 3697 -2102 0
-5619 -300 0
-5619 3881 0
-5619 -3697 0
-5619 2102 0
5620 -2108 3691 -4230 690 0
-5620 2108 0
-5620 -3691 0
-5620 4230 0
-5620 -690 0
5621 3699 -4007 437 -2114 0
-5621 -3699 0
-5621 4007 0
-5621 -437 0
-5621 2114 0
5622 -1612 0
-5622 1612 0
5623 564 -4118 3694 -1504 0
-5623 -564 0
-5623 4118 0
-5623 -3694 0
-5623 1504 0
5624 -3739 81 3697 -2102 0
-5624 3739 0
-5624 -81 0
-5624 -3697 0
-5624 2102 0
5625 472 -4035 3694 -1504 0
-5625 -472 0
-5625 4035 0
-5625 -3694 0
-5625 1504 0
5626 -2108 3691 -4146 599 0
-5626 2108 0
-5626 -3691 0
-5626 4146 0
-5626 -599 0
5627 3699 -3923 347 -2114 0
-5627 -3699 0
-5627 3923 0
-5627 -347 0
-5627 2114 0
1616 -1615 0
-1616 1615 0
2333 3697 -3884 -2102 302 0
-2333 -3697 0
-2333 3884 0
-2333 2102 0
-2333 -302 0
2334 -1617 0
-2334 1617 0
2335 439 3699 -4009 -2114 0
-2335 -439 0
-2335 -3699 0
-2335 4009 0
-2335 2114 0
2336 -2108 3691 692 -4233 0
-2336 2108 0
-2336 -3691 0
-2336 -692 0
-2336 4233 0
2337 3694 -4120 566 -1504 0
-2337 -3694 0
-2337 4120 0
-2337 -566 0
-2337 1504 0
2339 -2108 3691 660 -4201 0
-2339 2108 0
-2339 -3691 0
-2339 -660 0
-2339 4201 0
2340 407 3699 -3979 -2114 0
-2340 -407 0
-2340 -3699 0
-2340 3979 0
-2340 2114 0
2341 -2102 229 3697 -3834 0
-2341 2102 0
-2341 -229 0
-2341 -3697 0
-2341 3834 0
2342 -1620 0
-2342 1620 0
2343 3694 -4090 534 -1504 0
-2343 -3694 0
-2343 4090 0
-2343 -534 0
-2343 1504 0
2345 3694 -4046 483 -1504 0
-2345 -3694 0
-2345 4046 0
-2345 -483 0
-2345 1504 0
2346 357 3699 -3934 -2114 0
-2346 -357 0
-2346 -3699 0
-2346 3934 0
-2346 2114 0
2347 -2108 3691 610 -4157 0
-2347 2108 0
-2347 -3691 0
-2347 -610 0
-2347 4157 0
2348 -1623 0
-2348 1623 0
2349 3697 105 -2102 -3756 0
-2349 -3697 0
-2349 -105 0
-2349 2102 0
-2349 3756 0
2351 -1626 0
-2351 1626 0
2352 3699 -3960 389 -2114 0
-2352 -3699 0
-2352 3960 0
-2352 -389 0
-2352 2114 0
2353 -2108 3691 -4183 642 0
-2353 2108 0
-2353 -3691 0
-2353 4183 0
-2353 -642 0
2354 188 -3805 3697 -2102 0
-2354 -188 0
-2354 3805 0
-2354 -3697 0
-2354 2102 0
2355 516 -4071 3694 -1504 0
-2355 -516 0
-2355 4071 0
-2355 -3694 0
-2355 1504 0
5628 -2284 3326 1060 -4292 0
-5628 2284 0
-5628 -3326 0
-5628 -1060 0
-5628 4292 0
1630 -1629 0
-1630 1629 0
5629 3694 -4037 474 -1504 0
-5629 -3694 0
-5629 4037 0
-5629 -474 0
-5629 1504 0
5630 349 3699 -3925 -2114 0
-5630 -349 0
-5630 -3699 0
-5630 3925 0
-5630 2114 0
5631 -2108 3691 601 -4148 0
-5631 2108 0
-5631 -3691 0
-5631 -601 0
-5631 4148 0
5632 857 -4266 3219 -2265 0
-5632 -857 0
-5632 4266 0
-5632 -3219 0
-5632 2265 0
5633 86 -3742 3697 -2102 0
-5633 -86 0
-5633 3742 0
-5633 -3697 0
-5633 2102 0
5634 3150 -3152 -2323 0
-5634 -3150 0
-5634 3152 0
-5634 2323 0
2359 -5635 0
-2359 5635 0
2360 -5636 0
-2360 5636 0
2361 -5637 0
-2361 5637 0
2362 -5638 0
-2362 5638 0
2363 -5639 0
-2363 5639 0
2364 -1634 0
-2364 1634 0
2366 -4063 504 3694 -1504 0
-2366 4063 0
-2366 -504 0
-2366 -3694 0
-2366 1504 0
2367 3697 -3792 -2102 161 0
-2367 -3697 0
-2367 3792 0
-2367 2102 0
-2367 -161 0
2368 3699 377 -2114 -3952 0
-2368 -3699 0
-2368 -377 0
-2368 2114 0
-2368 3952 0
2369 630 -2108 -4175 3691 0
-2369 -630 0
-2369 2108 0
-2369 4175 0
-2369 -3691 0
1638 -1637 0
-1638 1637 0
2371 -4343 1339 -2291 3323 0
-2371 4343 0
-2371 -1339 0
-2371 2291 0
-2371 -3323 0
2372 -1504 520 3694 -4076 0
-2372 1504 0
-2372 -520 0
-2372 -3694 0
-2372 4076 0
2373 -1639 0
-2373 1639 0
2374 -3812 3697 -2102 198 0
-2374 3812 0
-2374 -3697 0
-2374 2102 0
-2374 -198 0
2375 -4188 646 3691 -2108 0
-2375 4188 0
-2375 -646 0
-2375 -3691 0
-2375 2108 0
2376 3699 -2114 -3965 393 0
-2376 -3699 0
-2376 2114 0
-2376 3965 0
-2376 -393 0
5640 -4102 546 3694 -1504 0
-5640 4102 0
-5640 -546 0
-5640 -3694 0
-5640 1504 0
5641 3699 419 -2114 -3991 0
-5641 -3699 0
-5641 -419 0
-5641 2114 0
-5641 3991 0
1646 -1645 0
-1646 1645 0
5642 672 -2108 -4214 3691 0
-5642 -672 0
-5642 2108 0
-5642 4214 0
-5642 -3691 0
5643 -3854 258 3697 -2102 0
-5643 3854 0
-5643 -258 0
-5643 -3697 0
-5643 2102 0
2380 -5644 0
-2380 5644 0
2381 -5645 0
-2381 5645 0
2382 -2102 137 3697 -3775 0
-2382 2102 0
-2382 -137 0
-2382 -3697 0
-2382 3775 0
2383 -1504 493 3694 -4054 0
-2383 1504 0
-2383 -493 0
-2383 -3694 0
-2383 4054 0
2384 -4165 620 3691 -2108 0
-2384 4165 0
-2384 -620 0
-2384 -3691 0
-2384 2108 0
1653 -1652 0
-1653 1652 0
5646 399 3699 -3970 -2116 0
-5646 -399 0
-5646 -3699 0
-5646 3970 0
-5646 2116 0
5647 -1654 3694 -4081 526 0
-5647 1654 0
-5647 -3694 0
-5647 4081 0
-5647 -526 0
5648 212 -3821 3697 -2104 0
-5648 -212 0
-5648 3821 0
-5648 -3697 0
-5648 2104 0
5649 -2110 3691 652 -4193 0
-5649 2110 0
-5649 -3691 0
-5649 -652 0
-5649 4193 0
5650 -1666 0
-5650 1666 0
5651 -1654 458 3694 -4027 0
-5651 1654 0
-5651 -458 0
-5651 -3694 0
-5651 4027 0
5652 -2385 3313 -3312 0
-5652 2385 0
-5652 -3313 0
-5652 3312 0
5653 -4138 585 3691 -2110 0
-5653 4138 0
-5653 -585 0
-5653 -3691 0
-5653 2110 0
5654 3697 50 -3723 -2104 0
-5654 -3697 0
-5654 -50 0
-5654 3723 0
-5654 2104 0
5655 3699 -2116 -3914 333 0
-5655 -3699 0
-5655 2116 0
-5655 3914 0
-5655 -333 0
1670 -1669 0
-1670 1669 0
2390 3699 353 -2116 -3929 0
-2390 -3699 0
-2390 -353 0
-2390 2116 0
-2390 3929 0
2391 606 -2110 -4152 3691 0
-2391 -606 0
-2391 2110 0
-2391 4152 0
-2391 -3691 0
2392 -1682 0
-2392 1682 0
2393 -3750 95 3697 -2104 0
-2393 3750 0
-2393 -95 0
-2393 -3697 0
-2393 2104 0
2394 -4041 479 -1654 3694 0
-2394 4041 0
-2394 -479 0
-2394 1654 0
-2394 -3694 0
2396 540 -1654 -4096 3694 0
-2396 -540 0
-2396 1654 0
-2396 4096 0
-2396 -3694 0
2397 3699 -3985 413 -2116 0
-2397 -3699 0
-2397 3985 0
-2397 -413 0
-2397 2116 0
2398 -2104 3697 244 -3844 0
-2398 2104 0
-2398 -3697 0
-2398 -244 0
-2398 3844 0
2399 -2110 3691 -4208 666 0
-2399 2110 0
-2399 -3691 0
-2399 4208 0
-2399 -666 0
1686 -1685 0
-1686 1685 0
2401 -4174 628 3691 -2110 0
-2401 4174 0
-2401 -628 0
-2401 -3691 0
-2401 2110 0
2402 156 -3790 3697 -2104 0
-2402 -156 0
-2402 3790 0
-2402 -3697 0
-2402 2104 0
2403 -1687 0
-2403 1687 0
2404 -1654 502 3694 -4062 0
-2404 1654 0
-2404 -502 0
-2404 -3694 0
-2404 4062 0
2405 3699 -2116 -3951 375 0
-2405 -3699 0
-2405 2116 0
-2405 3951 0
-2405 -375 0
2407 -2104 3697 -3737 76 0
-2407 2104 0
-2407 -3697 0
-2407 3737 0
-2407 -76 0
2408 3699 345 -2116 -3922 0
-2408 -3699 0
-2408 -345 0
-2408 2116 0
-2408 3922 0
2409 -1694 0
-2409 1694 0
2410 -4034 470 -1654 3694 0
-2410 4034 0
-2410 -470 0
-2410 1654 0
-2410 -3694 0
2411 -5656 0
-2411 5656 0
5657 -1709 0
-5657 1709 0
5658 331 3699 -3911 -2116 0
-5658 -331 0
-5658 -3699 0
-5658 3911 0
-5658 2116 0
5659 -2110 3691 583 -4136 0
-5659 2110 0
-5659 -3691 0
-5659 -583 0
-5659 4136 0
5660 45 -3720 3697 -2104 0
-5660 -45 0
-5660 3720 0
-5660 -3697 0
-5660 2104 0
5661 -1654 3694 -4024 456 0
-5661 1654 0
-5661 -3694 0
-5661 4024 0
-5661 -456 0
5662 381 3699 -3954 -2116 0
-5662 -381 0
-5662 -3699 0
-5662 3954 0
-5662 2116 0
5663 171 -3796 3697 -2104 0
-5663 -171 0
-5663 3796 0
-5663 -3697 0
-5663 2104 0
1724 -1723 0
-1724 1723 0
5664 -1654 3694 -4065 508 0
-5664 1654 0
-5664 -3694 0
-5664 4065 0
-5664 -508 0
5665 -2110 3691 634 -4177 0
-5665 2110 0
-5665 -3691 0
-5665 -634 0
-5665 4177 0
5666 71 -3733 3697 -2104 0
-5666 -71 0
-5666 3733 0
-5666 -3697 0
-5666 2104 0
5667 -1654 467 3694 -4032 0
-5667 1654 0
-5667 -467 0
-5667 -3694 0
-5667 4032 0
5668 3699 -2116 -3920 342 0
-5668 -3699 0
-5668 2116 0
-5668 3920 0
-5668 -342 0
5669 -4143 594 3691 -2110 0
-5669 4143 0
-5669 -594 0
-5669 -3691 0
-5669 2110 0
5670 -1725 0
-5670 1725 0
2417 -4151 604 3691 -2110 0
-2417 4151 0
-2417 -604 0
-2417 -3691 0
-2417 2110 0
2418 3697 91 -3747 -2104 0
-2418 -3697 0
-2418 -91 0
-2418 3747 0
-2418 2104 0
2419 -1654 477 3694 -4040 0
-2419 1654 0
-2419 -477 0
-2419 -3694 0
-2419 4040 0
2420 -1728 0
-2420 1728 0
2421 3699 -2116 -3928 351 0
-2421 -3699 0
-2421 2116 0
-2421 3928 0
-2421 -351 0
1741 -1740 0
-1741 1740 0
2423 312 -3890 3697 -2104 0
-2423 -312 0
-2423 3890 0
-2423 -3697 0
-2423 2104 0
2424 696 -2110 -4236 3691 0
-2424 -696 0
-2424 2110 0
-2424 4236 0
-2424 -3691 0
2425 -4124 570 -1654 3694 0
-2425 4124 0
-2425 -570 0
-2425 1654 0
-2425 -3694 0
2426 3699 443 -2116 -4013 0
-2426 -3699 0
-2426 -443 0
-2426 2116 0
-2426 4013 0
5671 -3803 183 3697 -2104 0
-5671 3803 0
-5671 -183 0
-5671 -3697 0
-5671 2104 0
5672 640 -2110 -4182 3691 0
-5672 -640 0
-5672 2110 0
-5672 4182 0
-5672 -3691 0
5673 3699 387 -2116 -3959 0
-5673 -3699 0
-5673 -387 0
-5673 2116 0
-5673 3959 0
5674 -1742 0
-5674 1742 0
5675 -4070 514 -1654 3694 0
-5675 4070 0
-5675 -514 0
-5675 1654 0
-5675 -3694 0
5676 423 3699 -3995 -2116 0
-5676 -423 0
-5676 -3699 0
-5676 3995 0
-5676 2116 0
1746 -1745 0
-1746 1745 0
5677 -2110 3691 676 -4218 0
-5677 2110 0
-5677 -3691 0
-5677 -676 0
-5677 4218 0
5678 267 3697 -3859 -2104 0
-5678 -267 0
-5678 -3697 0
-5678 3859 0
-5678 2104 0
5679 -1654 3694 -4105 550 0
-5679 1654 0
-5679 -3694 0
-5679 4105 0
-5679 -550 0
2431 132 -3773 3697 -2104 0
-2431 -132 0
-2431 3773 0
-2431 -3697 0
-2431 2104 0
1753 -1752 0
-1753 1752 0
2432 -1654 3694 -4053 491 0
-2432 1654 0
-2432 -3694 0
-2432 4053 0
-2432 -491 0
2433 -2110 3691 618 -4164 0
-2433 2110 0
-2433 -3691 0
-2433 -618 0
-2433 4164 0
2434 365 3699 -3941 -2116 0
-2434 -365 0
-2434 -3699 0
-2434 3941 0
-2434 2116 0
2435 -5680 0
-2435 5680 0
5681 391 3699 -3963 -2116 0
-5681 -391 0
-5681 -3699 0
-5681 3963 0
-5681 2116 0
1755 -1754 0
-1755 1754 0
5682 -1654 3694 -4074 518 0
-5682 1654 0
-5682 -3694 0
-5682 4074 0
-5682 -518 0
5683 -2104 3697 193 -3809 0
-5683 2104 0
-5683 -3697 0
-5683 -193 0
-5683 3809 0
5684 -2110 3691 644 -4185 0
-5684 2110 0
-5684 -3691 0
-5684 -644 0
-5684 4185 0
5685 373 3699 -3949 -2116 0
-5685 -373 0
-5685 -3699 0
-5685 3949 0
-5685 2116 0
5686 -2110 3691 626 -4171 0
-5686 2110 0
-5686 -3691 0
-5686 -626 0
-5686 4171 0
5687 -2104 3697 152 -3786 0
-5687 2104 0
-5687 -3697 0
-5687 -152 0
-5687 3786 0
5688 -1654 3694 -4060 500 0
-5688 1654 0
-5688 -3694 0
-5688 4060 0
-5688 -500 0
1761 -1760 0
-1761 1760 0
1763 -1762 0
-1763 1762 0
5689 -4020 452 -1654 3694 0
-5689 4020 0
-5689 -452 0
-5689 1654 0
-5689 -3694 0
5690 579 -2110 -4132 3691 0
-5690 -579 0
-5690 2110 0
-5690 4132 0
-5690 -3691 0
5691 -2104 3697 -3713 35 0
-5691 2104 0
-5691 -3697 0
-5691 3713 0
-5691 -35 0
5692 3699 327 -2116 -3907 0
-5692 -3699 0
-5692 -327 0
-5692 2116 0
-5692 3907 0
2443 262 -3857 3697 -2104 0
-2443 -262 0
-2443 3857 0
-2443 -3697 0
-2443 2104 0
2444 3699 -3993 421 -2116 0
-2444 -3699 0
-2444 3993 0
-2444 -421 0
-2444 2116 0
2445 548 -1654 -4104 3694 0
-2445 -548 0
-2445 1654 0
-2445 4104 0
-2445 -3694 0
2446 -2110 3691 -4216 674 0
-2446 2110 0
-2446 -3691 0
-2446 4216 0
-2446 -674 0
2447 -1764 0
-2447 1764 0
2450 564 -1654 -4118 3694 0
-2450 -564 0
-2450 1654 0
-2450 4118 0
-2450 -3694 0
2451 300 -3881 3697 -2104 0
-2451 -300 0
-2451 3881 0
-2451 -3697 0
-2451 2104 0
2452 -1767 0
-2452 1767 0
2453 3699 -4007 437 -2116 0
-2453 -3699 0
-2453 4007 0
-2453 -437 0
-2453 2116 0
2449 -2110 3691 -4230 690 0
-2449 2110 0
-2449 -3691 0
-2449 4230 0
-2449 -690 0
5693 3699 -3923 347 -2116 0
-5693 -3699 0
-5693 3923 0
-5693 -347 0
-5693 2116 0
5694 472 -1654 -4035 3694 0
-5694 -472 0
-5694 1654 0
-5694 4035 0
-5694 -3694 0
5695 -3739 81 3697 -2104 0
-5695 3739 0
-5695 -81 0
-5695 -3697 0
-5695 2104 0
5696 -2110 3691 -4146 599 0
-5696 2110 0
-5696 -3691 0
-5696 4146 0
-5696 -599 0
1771 -1770 0
-1771 1770 0
2457 439 3699 -4009 -2116 0
-2457 -439 0
-2457 -3699 0
-2457 4009 0
-2457 2116 0
1773 -1772 0
-1773 1772 0
2458 -2104 3697 -3884 302 0
-2458 2104 0
-2458 -3697 0
-2458 3884 0
-2458 -302 0
2459 -2110 3691 692 -4233 0
-2459 2110 0
-2459 -3691 0
-2459 -692 0
-2459 4233 0
2460 -1654 3694 -4120 566 0
-2460 1654 0
-2460 -3694 0
-2460 4120 0
-2460 -566 0
2462 -1654 3694 -4090 534 0
-2462 1654 0
-2462 -3694 0
-2462 4090 0
-2462 -534 0
2463 407 3699 -3979 -2116 0
-2463 -407 0
-2463 -3699 0
-2463 3979 0
-2463 2116 0
2464 229 3697 -3834 -2104 0
-2464 -229 0
-2464 -3697 0
-2464 3834 0
-2464 2104 0
2465 -2110 3691 660 -4201 0
-2465 2110 0
-2465 -3691 0
-2465 -660 0
-2465 4201 0
1775 -1774 0
-1775 1774 0
2467 -1776 0
-2467 1776 0
2468 -2110 3691 610 -4157 0
-2468 2110 0
-2468 -3691 0
-2468 -610 0
-2468 4157 0
2469 -1654 3694 -4046 483 0
-2469 1654 0
-2469 -3694 0
-2469 4046 0
-2469 -483 0
2470 -2104 3697 105 -3756 0
-2470 2104 0
-2470 -3697 0
-2470 -105 0
-2470 3756 0
2471 357 3699 -3934 -2116 0
-2471 -357 0
-2471 -3699 0
-2471 3934 0
-2471 2116 0
2473 516 -1654 -4071 3694 0
-2473 -516 0
-2473 1654 0
-2473 4071 0
-2473 -3694 0
2474 -1779 0
-2474 1779 0
2475 188 -3805 3697 -2104 0
-2475 -188 0
-2475 3805 0
-2475 -3697 0
-2475 2104 0
2476 3699 -3960 389 -2116 0
-2476 -3699 0
-2476 3960 0
-2476 -389 0
-2476 2116 0
2477 -2110 3691 -4183 642 0
-2477 2110 0
-2477 -3691 0
-2477 4183 0
-2477 -642 0
1783 -1782 0
-1783 1782 0
5697 3150 -3152 -2442 0
-5697 -3150 0
-5697 3152 0
-5697 2442 0
5698 349 3699 -3925 -2116 0
-5698 -349 0
-5698 -3699 0
-5698 3925 0
-5698 2116 0
5699 -2110 3691 601 -4148 0
-5699 2110 0
-5699 -3691 0
-5699 -601 0
-5699 4148 0
5700 86 -3742 3697 -2104 0
-5700 -86 0
-5700 3742 0
-5700 -3697 0
-5700 2104 0
5701 3326 1060 -2406 -4292 0
-5701 -3326 0
-5701 -1060 0
-5701 2406 0
-5701 4292 0
5702 857 -4266 3219 -2387 0
-5702 -857 0
-5702 4266 0
-5702 -3219 0
-5702 2387 0
5703 -1654 3694 -4037 474 0
-5703 1654 0
-5703 -3694 0
-5703 4037 0
-5703 -474 0
2481 -2104 3706 3697 -3708 0
-2481 2104 0
-2481 -3706 0
-2481 -3697 0
-2481 3708 0
2482 3699 -3904 -2116 3902 0
-2482 -3699 0
-2482 3904 0
-2482 2116 0
-2482 -3902 0
2483 -1654 -4017 3694 4015 0
-2483 1654 0
-2483 4017 0
-2483 -3694 0
-2483 -4015 0
2484 -2110 4128 3691 -4126 0
-2484 2110 0
-2484 -4128 0
-2484 -3691 0
-2484 4126 0
2485 -1787 0
-2485 1787 0
2486 -5704 0
-2486 5704 0
2488 630 -2110 -4175 3691 0
-2488 -630 0
-2488 2110 0
-2488 4175 0
-2488 -3691 0
1791 -1790 0
-1791 1790 0
2489 3699 377 -2116 -3952 0
-2489 -3699 0
-2489 -377 0
-2489 2116 0
-2489 3952 0
2490 -4063 504 -1654 3694 0
-2490 4063 0
-2490 -504 0
-2490 1654 0
-2490 -3694 0
2491 -2104 3697 -3792 161 0
-2491 2104 0
-2491 -3697 0
-2491 3792 0
-2491 -161 0
2493 -4188 646 3691 -2110 0
-2493 4188 0
-2493 -646 0
-2493 -3691 0
-2493 2110 0
2494 -4343 -2413 1339 3323 0
-2494 4343 0
-2494 2413 0
-2494 -1339 0
-2494 -3323 0
2495 -3812 -2104 3697 198 0
-2495 3812 0
-2495 2104 0
-2495 -3697 0
-2495 -198 0
2496 -1654 520 3694 -4076 0
-2496 1654 0
-2496 -520 0
-2496 -3694 0
-2496 4076 0
2497 3699 -2116 -3965 393 0
-2497 -3699 0
-2497 2116 0
-2497 3965 0
-2497 -393 0
1793 -1792 0
-1793 1792 0
5705 -4102 546 -1654 3694 0
-5705 4102 0
-5705 -546 0
-5705 1654 0
-5705 -3694 0
5706 672 -2110 -4214 3691 0
-5706 -672 0
-5706 2110 0
-5706 4214 0
-5706 -3691 0
1798 -1797 0
-1798 1797 0
5707 -3854 258 3697 -2104 0
-5707 3854 0
-5707 -258 0
-5707 -3697 0
-5707 2104 0
5708 3699 419 -2116 -3991 0
-5708 -3699 0
-5708 -419 0
-5708 2116 0
-5708 3991 0
1806 -1805 0
-1806 1805 0
2501 -5709 0
-2501 5709 0
2502 -1654 493 3694 -4054 0
-2502 1654 0
-2502 -493 0
-2502 -3694 0
-2502 4054 0
2503 137 3697 -3775 -2104 0
-2503 -137 0
-2503 -3697 0
-2503 3775 0
-2503 2104 0
2504 -5710 0
-2504 5710 0
2505 -4165 620 3691 -2110 0
-2505 4165 0
-2505 -620 0
-2505 -3691 0
-2505 2110 0
5711 399 3699 -3970 -2118 0
-5711 -399 0
-5711 -3699 0
-5711 3970 0
-5711 2118 0
5712 3691 652 -2112 -4193 0
-5712 -3691 0
-5712 -652 0
-5712 2112 0
-5712 4193 0
5713 -2106 212 -3821 3697 0
-5713 2106 0
-5713 -212 0
-5713 3821 0
-5713 -3697 0
1819 -1818 0
-1819 1818 0
5714 3694 -4081 526 -1807 0
-5714 -3694 0
-5714 4081 0
-5714 -526 0
-5714 1807 0
1821 -1820 0
-1821 1820 0
5715 458 -1807 3694 -4027 0
-5715 -458 0
-5715 1807 0
-5715 -3694 0
-5715 4027 0
5716 -4138 585 -2112 3691 0
-5716 4138 0
-5716 -585 0
-5716 2112 0
-5716 -3691 0
5717 -2106 3697 50 -3723 0
-5717 2106 0
-5717 -3697 0
-5717 -50 0
-5717 3723 0
5718 3699 -2118 -3914 333 0
-5718 -3699 0
-5718 2118 0
-5718 3914 0
-5718 -333 0
5719 -2506 3313 -3312 0
-5719 2506 0
-5719 -3313 0
-5719 3312 0
2511 -4041 479 3694 -1807 0
-2511 4041 0
-2511 -479 0
-2511 -3694 0
-2511 1807 0
2512 606 -4152 3691 -2112 0
-2512 -606 0
-2512 4152 0
-2512 -3691 0
-2512 2112 0
2513 -2106 -3750 95 3697 0
-2513 2106 0
-2513 3750 0
-2513 -95 0
-2513 -3697 0
2514 -1834 0
-2514 1834 0
2515 3699 353 -2118 -3929 0
-2515 -3699 0
-2515 -353 0
-2515 2118 0
-2515 3929 0
2517 3699 -3985 413 -2118 0
-2517 -3699 0
-2517 3985 0
-2517 -413 0
-2517 2118 0
2518 -2112 3691 -4208 666 0
-2518 2112 0
-2518 -3691 0
-2518 4208 0
-2518 -666 0
1838 -1837 0
-1838 1837 0
2519 -2106 3697 244 -3844 0
-2519 2106 0
-2519 -3697 0
-2519 -244 0
-2519 3844 0
2520 540 -4096 3694 -1807 0
-2520 -540 0
-2520 4096 0
-2520 -3694 0
-2520 1807 0
2522 3699 -2118 -3951 375 0
-2522 -3699 0
-2522 2118 0
-2522 3951 0
-2522 -375 0
2523 -1839 0
-2523 1839 0
2524 502 -1807 3694 -4062 0
-2524 -502 0
-2524 1807 0
-2524 -3694 0
-2524 4062 0
2525 156 -3790 -2106 3697 0
-2525 -156 0
-2525 3790 0
-2525 2106 0
-2525 -3697 0
2526 -4174 628 -2112 3691 0
-2526 4174 0
-2526 -628 0
-2526 2112 0
-2526 -3691 0
2528 -5720 0
-2528 5720 0
2529 -2106 3697 -3737 76 0
-2529 2106 0
-2529 -3697 0
-2529 3737 0
-2529 -76 0
2530 -1846 0
-2530 1846 0
2531 -4034 470 3694 -1807 0
-2531 4034 0
-2531 -470 0
-2531 -3694 0
-2531 1807 0
2532 3699 345 -2118 -3922 0
-2532 -3699 0
-2532 -345 0
-2532 2118 0
-2532 3922 0
5721 3694 -4024 456 -1807 0
-5721 -3694 0
-5721 4024 0
-5721 -456 0
-5721 1807 0
5722 331 3699 -3911 -2118 0
-5722 -331 0
-5722 -3699 0
-5722 3911 0
-5722 2118 0
5723 3691 583 -2112 -4136 0
-5723 -3691 0
-5723 -583 0
-5723 2112 0
-5723 4136 0
5724 -1861 0
-5724 1861 0
5725 -2106 45 -3720 3697 0
-5725 2106 0
-5725 -45 0
-5725 3720 0
-5725 -3697 0
5726 3691 634 -2112 -4177 0
-5726 -3691 0
-5726 -634 0
-5726 2112 0
-5726 4177 0
5727 381 3699 -3954 -2118 0
-5727 -381 0
-5727 -3699 0
-5727 3954 0
-5727 2118 0
1876 -1875 0
-1876 1875 0
5728 -2106 171 -3796 3697 0
-5728 2106 0
-5728 -171 0
-5728 3796 0
-5728 -3697 0
5729 -5730 0
-5729 5730 0
5731 467 -1807 3694 -4032 0
-5731 -467 0
-5731 1807 0
-5731 -3694 0
-5731 4032 0
5732 -1877 0
-5732 1877 0
5733 -2106 71 -3733 3697 0
-5733 2106 0
-5733 -71 0
-5733 3733 0
-5733 -3697 0
5734 -4143 594 -2112 3691 0
-5734 4143 0
-5734 -594 0
-5734 2112 0
-5734 -3691 0
5735 3699 -2118 -3920 342 0
-5735 -3699 0
-5735 2118 0
-5735 3920 0
-5735 -342 0
2539 3699 -2118 -3928 351 0
-2539 -3699 0
-2539 2118 0
-2539 3928 0
-2539 -351 0
2540 477 -1807 3694 -4040 0
-2540 -477 0
-2540 1807 0
-2540 -3694 0
-2540 4040 0
2541 -4151 604 -2112 3691 0
-2541 4151 0
-2541 -604 0
-2541 2112 0
-2541 -3691 0
2542 -2106 3697 91 -3747 0
-2542 2106 0
-2542 -3697 0
-2542 -91 0
-2542 3747 0
2543 -1880 0
-2543 1880 0
2545 696 -4236 3691 -2112 0
-2545 -696 0
-2545 4236 0
-2545 -3691 0
-2545 2112 0
2546 3699 443 -2118 -4013 0
-2546 -3699 0
-2546 -443 0
-2546 2118 0
-2546 4013 0
1892 -1891 0
-1892 1891 0
2547 -4124 570 3694 -1807 0
-2547 4124 0
-2547 -570 0
-2547 -3694 0
-2547 1807 0
2548 -2106 312 -3890 3697 0
-2548 2106 0
-2548 -312 0
-2548 3890 0
-2548 -3697 0
5736 -2106 -3803 183 3697 0
-5736 2106 0
-5736 3803 0
-5736 -183 0
-5736 -3697 0
5737 3699 387 -2118 -3959 0
-5737 -3699 0
-5737 -387 0
-5737 2118 0
-5737 3959 0
5738 -4070 514 3694 -1807 0
-5738 4070 0
-5738 -514 0
-5738 -3694 0
-5738 1807 0
5739 640 -4182 3691 -2112 0
-5739 -640 0
-5739 4182 0
-5739 -3691 0
-5739 2112 0
5740 -1893 0
-5740 1893 0
2551 3691 676 -2112 -4218 0
-2551 -3691 0
-2551 -676 0
-2551 2112 0
-2551 4218 0
2552 -2106 267 3697 -3859 0
-2552 2106 0
-2552 -267 0
-2552 -3697 0
-2552 3859 0
1897 -1896 0
-1897 1896 0
2553 423 3699 -3995 -2118 0
-2553 -423 0
-2553 -3699 0
-2553 3995 0
-2553 2118 0
2554 3694 -4105 550 -1807 0
-2554 -3694 0
-2554 4105 0
-2554 -550 0
-2554 1807 0
2556 3694 -4053 491 -1807 0
-2556 -3694 0
-2556 4053 0
-2556 -491 0
-2556 1807 0
2557 -2106 132 -3773 3697 0
-2557 2106 0
-2557 -132 0
-2557 3773 0
-2557 -3697 0
2558 -3179 -2521 3181 0
-2558 3179 0
-2558 2521 0
-2558 -3181 0
1904 -1903 0
-1904 1903 0
2559 365 3699 -3941 -2118 0
-2559 -365 0
-2559 -3699 0
-2559 3941 0
-2559 2118 0
2560 3691 618 -2112 -4164 0
-2560 -3691 0
-2560 -618 0
-2560 2112 0
-2560 4164 0
5741 -2106 3697 193 -3809 0
-5741 2106 0
-5741 -3697 0
-5741 -193 0
-5741 3809 0
5742 391 3699 -3963 -2118 0
-5742 -391 0
-5742 -3699 0
-5742 3963 0
-5742 2118 0
5743 3691 644 -2112 -4185 0
-5743 -3691 0
-5743 -644 0
-5743 2112 0
-5743 4185 0
5744 3694 -4074 518 -1807 0
-5744 -3694 0
-5744 4074 0
-5744 -518 0
-5744 1807 0
1906 -1905 0
-1906 1905 0
1913 -1912 0
-1913 1912 0
5745 3694 -4060 500 -1807 0
-5745 -3694 0
-5745 4060 0
-5745 -500 0
-5745 1807 0
5746 -2106 3697 152 -3786 0
-5746 2106 0
-5746 -3697 0
-5746 -152 0
-5746 3786 0
5747 373 3699 -3949 -2118 0
-5747 -373 0
-5747 -3699 0
-5747 3949 0
-5747 2118 0
5748 3691 626 -2112 -4171 0
-5748 -3691 0
-5748 -626 0
-5748 2112 0
-5748 4171 0
5749 579 -4132 3691 -2112 0
-5749 -579 0
-5749 4132 0
-5749 -3691 0
-5749 2112 0
5750 3699 327 -2118 -3907 0
-5750 -3699 0
-5750 -327 0
-5750 2118 0
-5750 3907 0
5751 -4020 452 3694 -1807 0
-5751 4020 0
-5751 -452 0
-5751 -3694 0
-5751 1807 0
1915 -1914 0
-1915 1914 0
5752 -2106 3697 -3713 35 0
-5752 2106 0
-5752 -3697 0
-5752 3713 0
-5752 -35 0
2568 3699 -3993 421 -2118 0
-2568 -3699 0
-2568 3993 0
-2568 -421 0
-2568 2118 0
2569 548 -4104 3694 -1807 0
-2569 -548 0
-2569 4104 0
-2569 -3694 0
-2569 1807 0
2570 -1916 0
-2570 1916 0
2571 -2112 3691 -4216 674 0
-2571 2112 0
-2571 -3691 0
-2571 4216 0
-2571 -674 0
2572 -2106 262 -3857 3697 0
-2572 2106 0
-2572 -262 0
-2572 3857 0
-2572 -3697 0
2574 -2112 3691 -4230 690 0
-2574 2112 0
-2574 -3691 0
-2574 4230 0
-2574 -690 0
2575 3699 -4007 437 -2118 0
-2575 -3699 0
-2575 4007 0
-2575 -437 0
-2575 2118 0
2576 -2106 300 -3881 3697 0
-2576 2106 0
-2576 -300 0
-2576 3881 0
-2576 -3697 0
1920 -1919 0
-1920 1919 0
2577 564 -4118 3694 -1807 0
-2577 -564 0
-2577 4118 0
-2577 -3694 0
-2577 1807 0
5753 472 -4035 3694 -1807 0
-5753 -472 0
-5753 4035 0
-5753 -3694 0
-5753 1807 0
5754 -2112 3691 -4146 599 0
-5754 2112 0
-5754 -3691 0
-5754 4146 0
-5754 -599 0
5755 3699 -3923 347 -2118 0
-5755 -3699 0
-5755 3923 0
-5755 -347 0
-5755 2118 0
1922 -1921 0
-1922 1921 0
5756 -3739 -2106 81 3697 0
-5756 3739 0
-5756 2106 0
-5756 -81 0
-5756 -3697 0
1924 -1923 0
-1924 1923 0
2581 3694 -4120 566 -1807 0
-2581 -3694 0
-2581 4120 0
-2581 -566 0
-2581 1807 0
2582 3691 692 -2112 -4233 0
-2582 -3691 0
-2582 -692 0
-2582 2112 0
-2582 4233 0
2583 -2106 3697 -3884 302 0
-2583 2106 0
-2583 -3697 0
-2583 3884 0
-2583 -302 0
2584 439 3699 -4009 -2118 0
-2584 -439 0
-2584 -3699 0
-2584 4009 0
-2584 2118 0
2586 3694 -4090 534 -1807 0
-2586 -3694 0
-2586 4090 0
-2586 -534 0
-2586 1807 0
2587 -2106 229 3697 -3834 0
-2587 2106 0
-2587 -229 0
-2587 -3697 0
-2587 3834 0
2588 3691 660 -2112 -4201 0
-2588 -3691 0
-2588 -660 0
-2588 2112 0
-2588 4201 0
1926 -1925 0
-1926 1925 0
2589 407 3699 -3979 -2118 0
-2589 -407 0
-2589 -3699 0
-2589 3979 0
-2589 2118 0
2591 357 3699 -3934 -2118 0
-2591 -357 0
-2591 -3699 0
-2591 3934 0
-2591 2118 0
2592 3694 -4046 483 -1807 0
-2592 -3694 0
-2592 4046 0
-2592 -483 0
-2592 1807 0
2593 3691 610 -2112 -4157 0
-2593 -3691 0
-2593 -610 0
-2593 2112 0
-2593 4157 0
2594 -1927 0
-2594 1927 0
2595 -2106 3697 105 -3756 0
-2595 2106 0
-2595 -3697 0
-2595 -105 0
-2595 3756 0
5757 -1930 0
-5757 1930 0
5758 516 -4071 3694 -1807 0
-5758 -516 0
-5758 4071 0
-5758 -3694 0
-5758 1807 0
5759 3699 -3960 389 -2118 0
-5759 -3699 0
-5759 3960 0
-5759 -389 0
-5759 2118 0
5760 188 -2106 -3805 3697 0
-5760 -188 0
-5760 2106 0
-5760 3805 0
-5760 -3697 0
5761 -2112 3691 -4183 642 0
-5761 2112 0
-5761 -3691 0
-5761 4183 0
-5761 -642 0
5762 -2106 86 -3742 3697 0
-5762 2106 0
-5762 -86 0
-5762 3742 0
-5762 -3697 0
5763 3150 -3152 -2567 0
-5763 -3150 0
-5763 3152 0
-5763 2567 0
5764 3326 1060 -2527 -4292 0
-5764 -3326 0
-5764 -1060 0
-5764 2527 0
-5764 4292 0
5765 857 -2508 -4266 3219 0
-5765 -857 0
-5765 2508 0
-5765 4266 0
-5765 -3219 0
1934 -1933 0
-1934 1933 0
5766 349 3699 -3925 -2118 0
-5766 -349 0
-5766 -3699 0
-5766 3925 0
-5766 2118 0
5767 3694 -4037 474 -1807 0
-5767 -3694 0
-5767 4037 0
-5767 -474 0
-5767 1807 0
5768 3691 601 -2112 -4148 0
-5768 -3691 0
-5768 -601 0
-5768 2112 0
-5768 4148 0
5769 -2106 3706 3697 -3708 0
-5769 2106 0
-5769 -3706 0
-5769 -3697 0
-5769 3708 0
5770 -1807 -4017 3694 4015 0
-5770 1807 0
-5770 4017 0
-5770 -3694 0
-5770 -4015 0
5771 -5772 0
-5771 5772 0
5773 4128 3691 -2112 -4126 0
-5773 -4128 0
-5773 -3691 0
-5773 2112 0
-5773 4126 0
5774 3699 -3904 -2118 3902 0
-5774 -3699 0
-5774 3904 0
-5774 2118 0
-5774 -3902 0
1939 -1938 0
-1939 1938 0
2603 3699 377 -2118 -3952 0
-2603 -3699 0
-2603 -377 0
-2603 2118 0
-2603 3952 0
2604 630 -4175 3691 -2112 0
-2604 -630 0
-2604 4175 0
-2604 -3691 0
-2604 2112 0
1941 -1940 0
-1941 1940 0
2605 -2106 3697 -3792 161 0
-2605 2106 0
-2605 -3697 0
-2605 3792 0
-2605 -161 0
2606 -4063 504 3694 -1807 0
-2606 4063 0
-2606 -504 0
-2606 -3694 0
-2606 1807 0
2608 520 -1807 3694 -4076 0
-2608 -520 0
-2608 1807 0
-2608 -3694 0
-2608 4076 0
2609 -2106 -3812 3697 198 0
-2609 2106 0
-2609 3812 0
-2609 -3697 0
-2609 -198 0
1943 -1942 0
-1943 1942 0
2610 -4343 1339 3323 -2534 0
-2610 4343 0
-2610 -1339 0
-2610 -3323 0
-2610 2534 0
2611 3699 -2118 -3965 393 0
-2611 -3699 0
-2611 2118 0
-2611 3965 0
-2611 -393 0
2612 -4188 646 -2112 3691 0
-2612 4188 0
-2612 -646 0
-2612 2112 0
-2612 -3691 0
5775 3699 419 -2118 -3991 0
-5775 -3699 0
-5775 -419 0
-5775 2118 0
-5775 3991 0
5776 -4102 546 3694 -1807 0
-5776 4102 0
-5776 -546 0
-5776 -3694 0
-5776 1807 0
1948 -1947 0
-1948 1947 0
5777 672 -4214 3691 -2112 0
-5777 -672 0
-5777 4214 0
-5777 -3691 0
-5777 2112 0
5778 -3854 -2106 258 3697 0
-5778 3854 0
-5778 2106 0
-5778 -258 0
-5778 -3697 0
2616 -2106 137 3697 -3775 0
-2616 2106 0
-2616 -137 0
-2616 -3697 0
-2616 3775 0
2617 493 -1807 3694 -4054 0
-2617 -493 0
-2617 1807 0
-2617 -3694 0
-2617 4054 0
1955 -1954 0
-1955 1954 0
2618 -4165 620 -2112 3691 0
-2618 4165 0
-2618 -620 0
-2618 2112 0
-2618 -3691 0
2619 -5779 0
-2619 5779 0
2620 -5780 0
-2620 5780 0
5781 4128 3691 -18 -4126 0
-5781 -4128 0
-5781 -3691 0
-5781 18 0
-5781 4126 0
5782 3706 3697 -3 -3708 0
-5782 -3706 0
-5782 -3697 0
-5782 3 0
-5782 3708 0
5783 3244 -3246 -2214 0
-5783 -3244 0
-5783 3246 0
-5783 2214 0
5784 -13 -4017 3694 4015 0
-5784 13 0
-5784 4017 0
-5784 -3694 0
-5784 -4015 0
5785 3699 -3904 -8 3902 0
-5785 -3699 0
-5785 3904 0
-5785 8 0
-5785 -3902 0
2084 -2083 0
-2084 2083 0
5786 -3716 -3 40 3697 0
-5786 3716 0
-5786 3 0
-5786 -40 0
-5786 -3697 0
5787 454 -13 -4022 3694 0
-5787 -454 0
-5787 13 0
-5787 4022 0
-5787 -3694 0
5788 -2151 3167 -3166 0
-5788 2151 0
-5788 -3167 0
-5788 3166 0
1963 -1962 0
-1963 1962 0
5789 -18 3691 -4133 581 0
-5789 18 0
-5789 -3691 0
-5789 4133 0
-5789 -581 0
5790 3699 -3909 329 -8 0
-5790 -3699 0
-5790 3909 0
-5790 -329 0
-5790 8 0
5791 -4138 585 3691 -18 0
-5791 4138 0
-5791 -585 0
-5791 -3691 0
-5791 18 0
5792 -2172 3313 -3312 0
-5792 2172 0
-5792 -3313 0
-5792 3312 0
5793 3699 -3914 333 -8 0
-5793 -3699 0
-5793 3914 0
-5793 -333 0
-5793 8 0
1967 -1966 0
-1967 1966 0
5794 -3 3697 50 -3723 0
-5794 3 0
-5794 -3697 0
-5794 -50 0
-5794 3723 0
5795 -13 458 3694 -4027 0
-5795 13 0
-5795 -458 0
-5795 -3694 0
-5795 4027 0
2625 -5796 0
-2625 5796 0
2626 587 -4139 3691 -18 0
-2626 -587 0
-2626 4139 0
-2626 -3691 0
-2626 18 0
2627 -5797 0
-2627 5797 0
2628 -4028 460 -13 3694 0
-2628 4028 0
-2628 -460 0
-2628 13 0
-2628 -3694 0
2629 -3725 55 3697 -3 0
-2629 3725 0
-2629 -55 0
-2629 -3697 0
-2629 3 0
2630 -2017 0
-2630 2017 0
2631 3699 335 -8 -3915 0
-2631 -3699 0
-2631 -335 0
-2631 8 0
-2631 3915 0
5798 3691 601 -18 -4148 0
-5798 -3691 0
-5798 -601 0
-5798 18 0
-5798 4148 0
5799 857 -4266 3219 -2623 0
-5799 -857 0
-5799 4266 0
-5799 -3219 0
-5799 2623 0
2079 -2078 0
-2079 2078 0
5800 -13 3694 -4037 474 0
-5800 13 0
-5800 -3694 0
-5800 4037 0
-5800 -474 0
5801 349 3699 -3925 -8 0
-5801 -349 0
-5801 -3699 0
-5801 3925 0
-5801 8 0
5802 86 -3742 3697 -3 0
-5802 -86 0
-5802 3742 0
-5802 -3697 0
-5802 3 0
5803 3150 -3152 -2188 0
-5803 -3150 0
-5803 3152 0
-5803 2188 0
5804 3326 1060 -2123 -4292 0
-5804 -3326 0
-5804 -1060 0
-5804 2123 0
-5804 4292 0
2637 -2145 -3179 3181 0
-2637 2145 0
-2637 3179 0
-2637 -3181 0
2638 -13 3694 -4053 491 0
-2638 13 0
-2638 -3694 0
-2638 4053 0
-2638 -491 0
2639 365 3699 -3941 -8 0
-2639 -365 0
-2639 -3699 0
-2639 3941 0
-2639 8 0
2635 132 -3773 3697 -3 0
-2635 -132 0
-2635 3773 0
-2635 -3697 0
-2635 3 0
2051 -2050 0
-2051 2050 0
2636 3691 618 -18 -4164 0
-2636 -3691 0
-2636 -618 0
-2636 18 0
-2636 4164 0
5805 -4055 495 -13 3694 0
-5805 4055 0
-5805 -495 0
-5805 13 0
-5805 -3694 0
5806 622 -4168 3691 -18 0
-5806 -622 0
-5806 4168 0
-5806 -3691 0
-5806 18 0
5807 3699 369 -8 -3944 0
-5807 -3699 0
-5807 -369 0
-5807 8 0
-5807 3944 0
5808 -2080 0
-5808 2080 0
5809 1103 -4298 -2125 3285 0
-5809 -1103 0
-5809 4298 0
-5809 2125 0
-5809 -3285 0
5810 -3778 142 3697 -3 0
-5810 3778 0
-5810 -142 0
-5810 -3697 0
-5810 3 0
5811 3308 -3310 -2209 0
-5811 -3308 0
-5811 3310 0
-5811 2209 0
5812 3305 -2621 745 -4248 0
-5812 -3305 0
-5812 2621 0
-5812 -745 0
-5812 4248 0
2642 506 -13 -4064 3694 0
-2642 -506 0
-2642 13 0
-2642 4064 0
-2642 -3694 0
2643 -5813 0
-2643 5813 0
2644 -5814 0
-2644 5814 0
2645 -5815 0
-2645 5815 0
2646 -2047 0
-2646 2047 0
2647 -5816 0
-2647 5816 0
5817 3699 -3956 384 -8 0
-5817 -3699 0
-5817 3956 0
-5817 -384 0
-5817 8 0
5818 -4180 637 3691 -18 0
-5818 4180 0
-5818 -637 0
-5818 -3691 0
-5818 18 0
5819 3282 -2187 -3281 0
-5819 -3282 0
-5819 2187 0
-5819 3281 0
5820 177 3697 -3 -3799 0
-5820 -177 0
-5820 -3697 0
-5820 3 0
-5820 3799 0
5821 -2011 0
-5821 2011 0
5822 -13 511 3694 -4068 0
-5822 13 0
-5822 -511 0
-5822 -3694 0
-5822 4068 0
5823 -18 3691 -4200 658 0
-5823 18 0
-5823 -3691 0
-5823 4200 0
-5823 -658 0
2651 -5824 0
-2651 5824 0
5825 3699 -3977 405 -8 0
-5825 -3699 0
-5825 3977 0
-5825 -405 0
-5825 8 0
2652 -5826 0
-2652 5826 0
2653 -5827 0
-2653 5827 0
5828 -2094 0
-5828 2094 0
2654 -5829 0
-2654 5829 0
2055 -2054 0
-2055 2054 0
2660 3691 668 -18 -4209 0
-2660 -3691 0
-2660 -668 0
-2660 18 0
-2660 4209 0
2656 -13 3694 -4097 542 0
-2656 13 0
-2656 -3694 0
-2656 4097 0
-2656 -542 0
2657 -5830 0
-2657 5830 0
2658 -3847 3697 -3 248 0
-2658 3847 0
-2658 -3697 0
-2658 3 0
-2658 -248 0
2659 415 3699 -3986 -8 0
-2659 -415 0
-2659 -3699 0
-2659 3986 0
-2659 8 0
2046 -2045 0
-2046 2045 0
2662 277 -3 -3867 3697 0
-2662 -277 0
-2662 3 0
-2662 3867 0
-2662 -3697 0
2663 -4110 554 -13 3694 0
-2663 4110 0
-2663 -554 0
-2663 13 0
-2663 -3694 0
2664 -5831 0
-2664 5831 0
2665 -5832 0
-2665 5832 0
2666 3699 427 -8 -3999 0
-2666 -3699 0
-2666 -427 0
-2666 8 0
-2666 3999 0
2668 -5833 0
-2668 5833 0
2669 -5834 0
-2669 5834 0
2670 -5835 0
-2670 5835 0
2671 -5836 0
-2671 5836 0
2672 -5837 0
-2672 5837 0
2673 -1972 0
-2673 1972 0
2675 3208 844 -2224 -4265 0
-2675 -3208 0
-2675 -844 0
-2675 2224 0
-2675 4265 0
2676 -2233 3316 -4382 1498 0
-2676 2233 0
-2676 -3316 0
-2676 4382 0
-2676 -1498 0
2678 -2677 0
-2678 2677 0
2680 -2256 3167 -3166 0
-2680 2256 0
-2680 -3167 0
-2680 3166 0
2682 -5838 0
-2682 5838 0
2683 -5839 0
-2683 5839 0
2685 3282 -2260 -3281 0
-2685 -3282 0
-2685 2260 0
-2685 3281 0
5840 -2219 3274 -3273 0
-5840 2219 0
-5840 -3274 0
-5840 3273 0
5841 -5842 0
-5841 5842 0
5843 -5844 0
-5843 5844 0
5845 3266 -4353 -2237 1396 0
-5845 -3266 0
-5845 4353 0
-5845 2237 0
-5845 -1396 0
2689 -2688 0
-2689 2688 0
5846 -2690 0
-5846 2690 0
5847 3176 -4351 1374 -2231 0
-5847 -3176 0
-5847 4351 0
-5847 -1374 0
-5847 2231 0
5848 -5849 0
-5848 5849 0
2696 -5850 0
-2696 5850 0
2694 -5851 0
-2694 5851 0
2695 -5852 0
-2695 5852 0
2698 -2243 3212 -3211 0
-2698 2243 0
-2698 -3212 0
-2698 3211 0
2699 -5853 0
-2699 5853 0
5854 -5855 0
-5854 5855 0
5856 -5857 0
-5856 5857 0
5858 3187 -3189 -2687 0
-5858 -3187 0
-5858 3189 0
-5858 2687 0
5859 3208 844 -4265 -2290 0
-5859 -3208 0
-5859 -844 0
-5859 4265 0
-5859 2290 0
5860 -2306 3316 -4382 1498 0
-5860 2306 0
-5860 -3316 0
-5860 4382 0
-5860 -1498 0
5861 -4219 678 3691 -2108 0
-5861 4219 0
-5861 -678 0
-5861 -3691 0
-5861 2108 0
5862 3699 -2114 -3997 425 0
-5862 -3699 0
-5862 2114 0
-5862 3997 0
-5862 -425 0
1507 -1506 0
-1507 1506 0
5863 -5864 0
-5863 5864 0
5865 -1504 552 3694 -4107 0
-5865 1504 0
-5865 -552 0
-5865 -3694 0
-5865 4107 0
2703 -1508 0
-2703 1508 0
2704 3699 -3939 363 -2114 0
-2704 -3699 0
-2704 3939 0
-2704 -363 0
-2704 2114 0
2705 -5866 0
-2705 5866 0
2706 -2108 3691 -4162 616 0
-2706 2108 0
-2706 -3691 0
-2706 4162 0
-2706 -616 0
2707 489 -4051 3694 -1504 0
-2707 -489 0
-2707 4051 0
-2707 -3694 0
-2707 1504 0
2708 -3770 120 3697 -2102 0
-2708 3770 0
-2708 -120 0
-2708 -3697 0
-2708 2102 0
2710 454 -4022 3694 -1504 0
-2710 -454 0
-2710 4022 0
-2710 -3694 0
-2710 1504 0
2711 -3716 40 3697 -2102 0
-2711 3716 0
-2711 -40 0
-2711 -3697 0
-2711 2102 0
2712 -1513 0
-2712 1513 0
2713 -2365 3167 -3166 0
-2713 2365 0
-2713 -3167 0
-2713 3166 0
2714 3699 -3909 329 -2114 0
-2714 -3699 0
-2714 3909 0
-2714 -329 0
-2714 2114 0
2715 -2108 3691 -4133 581 0
-2715 2108 0
-2715 -3691 0
-2715 4133 0
-2715 -581 0
1528 -1527 0
-1528 1527 0
5867 -5868 0
-5867 5868 0
5869 -4094 538 3694 -1504 0
-5869 4094 0
-5869 -538 0
-5869 -3694 0
-5869 1504 0
5870 3201 -2319 1303 -4334 0
-5870 -3201 0
-5870 2319 0
-5870 -1303 0
-5870 4334 0
5871 3699 411 -2114 -3982 0
-5871 -3699 0
-5871 -411 0
-5871 2114 0
-5871 3982 0
5872 239 -3839 3697 -2102 0
-5872 -239 0
-5872 3839 0
-5872 -3697 0
-5872 2102 0
5873 664 -2108 -4206 3691 0
-5873 -664 0
-5873 2108 0
-5873 4206 0
-5873 -3691 0
5874 -4180 637 3691 -2108 0
-5874 4180 0
-5874 -637 0
-5874 -3691 0
-5874 2108 0
5875 -2102 177 3697 -3799 0
-5875 2102 0
-5875 -177 0
-5875 -3697 0
-5875 3799 0
5876 -1504 511 3694 -4068 0
-5876 1504 0
-5876 -511 0
-5876 -3694 0
-5876 4068 0
5877 -1557 0
-5877 1557 0
5878 3699 -2114 -3956 384 0
-5878 -3699 0
-5878 2114 0
-5878 3956 0
-5878 -384 0
5879 -2377 3282 -3281 0
-5879 2377 0
-5879 -3282 0
-5879 3281 0
2720 -5880 0
-2720 5880 0
2721 587 -2108 -4139 3691 0
-2721 -587 0
-2721 2108 0
-2721 4139 0
-2721 -3691 0
2722 -4028 460 3694 -1504 0
-2722 4028 0
-2722 -460 0
-2722 -3694 0
-2722 1504 0
2723 -5881 0
-2723 5881 0
2724 3699 335 -2114 -3915 0
-2724 -3699 0
-2724 -335 0
-2724 2114 0
-2724 3915 0
2725 -3725 55 3697 -2102 0
-2725 3725 0
-2725 -55 0
-2725 -3697 0
-2725 2102 0
2726 -1563 0
-2726 1563 0
5882 -4227 686 3691 -2108 0
-5882 4227 0
-5882 -686 0
-5882 -3691 0
-5882 2108 0
5883 3699 -2114 -4004 433 0
-5883 -3699 0
-5883 2114 0
-5883 4004 0
-5883 -433 0
5884 1384 -2350 -4352 3148 0
-5884 -1384 0
-5884 2350 0
-5884 4352 0
-5884 -3148 0
5885 3266 -2317 -4353 1396 0
-5885 -3266 0
-5885 2317 0
-5885 4353 0
-5885 -1396 0
5886 -1581 0
-5886 1581 0
5887 3697 -3877 -2102 290 0
-5887 -3697 0
-5887 3877 0
-5887 2102 0
-5887 -290 0
5888 -1504 560 3694 -4115 0
-5888 1504 0
-5888 -560 0
-5888 -3694 0
-5888 4115 0
2729 -4110 554 3694 -1504 0
-2729 4110 0
-2729 -554 0
-2729 -3694 0
-2729 1504 0
2730 277 -3867 3697 -2102 0
-2730 -277 0
-2730 3867 0
-2730 -3697 0
-2730 2102 0
2731 3699 427 -2114 -3999 0
-2731 -3699 0
-2731 -427 0
-2731 2114 0
-2731 3999 0
1591 -1590 0
-1591 1590 0
2732 -5889 0
-2732 5889 0
2733 -5890 0
-2733 5890 0
2736 -2102 -3847 3697 248 0
-2736 2102 0
-2736 3847 0
-2736 -3697 0
-2736 -248 0
2737 -5891 0
-2737 5891 0
2738 -2108 3691 668 -4209 0
-2738 2108 0
-2738 -3691 0
-2738 -668 0
-2738 4209 0
2739 3694 -4097 542 -1504 0
-2739 -3694 0
-2739 4097 0
-2739 -542 0
-2739 1504 0
1600 -1599 0
-1600 1599 0
2735 415 3699 -3986 -2114 0
-2735 -415 0
-2735 -3699 0
-2735 3986 0
-2735 2114 0
2741 3697 -3850 -2102 253 0
-2741 -3697 0
-2741 3850 0
-2741 2102 0
-2741 -253 0
2742 -5892 0
-2742 5892 0
2743 -5893 0
-2743 5893 0
2744 -5894 0
-2744 5894 0
2745 -5895 0
-2745 5895 0
2746 -1601 0
-2746 1601 0
2747 -5896 0
-2747 5896 0
5897 3305 745 -2358 -4248 0
-5897 -3305 0
-5897 -745 0
-5897 2358 0
-5897 4248 0
5898 -4055 495 3694 -1504 0
-5898 4055 0
-5898 -495 0
-5898 -3694 0
-5898 1504 0
5899 1103 -4298 -2294 3285 0
-5899 -1103 0
-5899 4298 0
-5899 2294 0
-5899 -3285 0
5900 3308 -3310 -2332 0
-5900 -3308 0
-5900 3310 0
-5900 2332 0
5901 -3778 142 3697 -2102 0
-5901 3778 0
-5901 -142 0
-5901 -3697 0
-5901 2102 0
5902 622 -2108 -4168 3691 0
-5902 -622 0
-5902 2108 0
-5902 4168 0
-5902 -3691 0
5903 3699 369 -2114 -3944 0
-5903 -3699 0
-5903 -369 0
-5903 2114 0
-5903 3944 0
5904 -1631 0
-5904 1631 0
5905 3212 -3211 -2329 0
-5905 -3212 0
-5905 3211 0
-5905 2329 0
5906 -5907 0
-5906 5907 0
5908 224 -3831 3697 -2102 0
-5908 -224 0
-5908 3831 0
-5908 -3697 0
-5908 2102 0
5909 532 -4088 3694 -1504 0
-5909 -532 0
-5909 4088 0
-5909 -3694 0
-5909 1504 0
5910 -2108 3691 -4200 658 0
-5910 2108 0
-5910 -3691 0
-5910 4200 0
-5910 -658 0
5911 3699 -3977 405 -2114 0
-5911 -3699 0
-5911 3977 0
-5911 -405 0
-5911 2114 0
1648 -1647 0
-1648 1647 0
5912 -1649 0
-5912 1649 0
5913 -2108 3691 591 -4141 0
-5913 2108 0
-5913 -3691 0
-5913 -591 0
-5913 4141 0
5914 -2701 -3156 3155 0
-5914 2701 0
-5914 3156 0
-5914 -3155 0
5915 3694 -4030 464 -1504 0
-5915 -3694 0
-5915 4030 0
-5915 -464 0
-5915 1504 0
5916 -2702 3249 -3250 0
-5916 2702 0
-5916 -3249 0
-5916 3250 0
5917 339 3699 -3917 -2114 0
-5917 -339 0
-5917 -3699 0
-5917 3917 0
-5917 2114 0
5918 3697 65 -2102 -3730 0
-5918 -3697 0
-5918 -65 0
-5918 2102 0
-5918 3730 0
5919 3187 -3189 -2727 0
-5919 -3187 0
-5919 3189 0
-5919 2727 0
2758 3699 -2116 -3997 425 0
-2758 -3699 0
-2758 2116 0
-2758 3997 0
-2758 -425 0
2752 -5920 0
-2752 5920 0
2753 -4219 678 3691 -2110 0
-2753 4219 0
-2753 -678 0
-2753 -3691 0
-2753 2110 0
2754 -5921 0
-2754 5921 0
2755 -2412 3208 844 -4265 0
-2755 2412 0
-2755 -3208 0
-2755 -844 0
-2755 4265 0
2756 -1656 0
-2756 1656 0
2757 -2428 3316 -4382 1498 0
-2757 2428 0
-2757 -3316 0
-2757 4382 0
-2757 -1498 0
2760 489 -1654 -4051 3694 0
-2760 -489 0
-2760 1654 0
-2760 4051 0
-2760 -3694 0
2761 3699 -3939 363 -2116 0
-2761 -3699 0
-2761 3939 0
-2761 -363 0
-2761 2116 0
2762 -5922 0
-2762 5922 0
2763 -2110 3691 -4162 616 0
-2763 2110 0
-2763 -3691 0
-2763 4162 0
-2763 -616 0
1660 -1659 0
-1660 1659 0
2764 -3770 120 3697 -2104 0
-2764 3770 0
-2764 -120 0
-2764 -3697 0
-2764 2104 0
5923 3699 -3909 329 -2116 0
-5923 -3699 0
-5923 3909 0
-5923 -329 0
-5923 2116 0
5924 -3716 40 3697 -2104 0
-5924 3716 0
-5924 -40 0
-5924 -3697 0
-5924 2104 0
5925 -1663 0
-5925 1663 0
5926 -2110 3691 -4133 581 0
-5926 2110 0
-5926 -3691 0
-5926 4133 0
-5926 -581 0
5927 -2487 3167 -3166 0
-5927 2487 0
-5927 -3167 0
-5927 3166 0
5928 454 -1654 -4022 3694 0
-5928 -454 0
-5928 1654 0
-5928 4022 0
-5928 -3694 0
1679 -1678 0
-1679 1678 0
5929 -5930 0
-5929 5930 0
5931 3699 411 -2116 -3982 0
-5931 -3699 0
-5931 -411 0
-5931 2116 0
-5931 3982 0
5932 -2438 3201 1303 -4334 0
-5932 2438 0
-5932 -3201 0
-5932 -1303 0
-5932 4334 0
5933 664 -2110 -4206 3691 0
-5933 -664 0
-5933 2110 0
-5933 4206 0
-5933 -3691 0
5934 239 -3839 3697 -2104 0
-5934 -239 0
-5934 3839 0
-5934 -3697 0
-5934 2104 0
5935 -4094 538 -1654 3694 0
-5935 4094 0
-5935 -538 0
-5935 1654 0
-5935 -3694 0
5936 -1712 0
-5936 1712 0
5937 177 3697 -3799 -2104 0
-5937 -177 0
-5937 -3697 0
-5937 3799 0
-5937 2104 0
5938 3699 -2116 -3956 384 0
-5938 -3699 0
-5938 2116 0
-5938 3956 0
-5938 -384 0
5939 -1654 511 3694 -4068 0
-5939 1654 0
-5939 -511 0
-5939 -3694 0
-5939 4068 0
5940 -4180 637 3691 -2110 0
-5940 4180 0
-5940 -637 0
-5940 -3691 0
-5940 2110 0
5941 3282 -2498 -3281 0
-5941 -3282 0
-5941 2498 0
-5941 3281 0
2776 3699 335 -2116 -3915 0
-2776 -3699 0
-2776 -335 0
-2776 2116 0
-2776 3915 0
2770 -3725 55 3697 -2104 0
-2770 3725 0
-2770 -55 0
-2770 -3697 0
-2770 2104 0
2771 -5942 0
-2771 5942 0
2772 -1718 0
-2772 1718 0
2773 -5943 0
-2773 5943 0
2774 587 -2110 -4139 3691 0
-2774 -587 0
-2774 2110 0
-2774 4139 0
-2774 -3691 0
2775 -4028 460 -1654 3694 0
-2775 4028 0
-2775 -460 0
-2775 1654 0
-2775 -3694 0
5944 -4227 686 3691 -2110 0
-5944 4227 0
-5944 -686 0
-5944 -3691 0
-5944 2110 0
5945 3699 -2116 -4004 433 0
-5945 -3699 0
-5945 2116 0
-5945 4004 0
-5945 -433 0
5946 -2104 3697 -3877 290 0
-5946 2104 0
-5946 -3697 0
-5946 3877 0
-5946 -290 0
5947 -1737 0
-5947 1737 0
5948 1384 -2472 -4352 3148 0
-5948 -1384 0
-5948 2472 0
-5948 4352 0
-5948 -3148 0
5949 3266 -2436 -4353 1396 0
-5949 -3266 0
-5949 2436 0
-5949 4353 0
-5949 -1396 0
5950 -1654 560 3694 -4115 0
-5950 1654 0
-5950 -560 0
-5950 -3694 0
-5950 4115 0
2779 277 -3867 3697 -2104 0
-2779 -277 0
-2779 3867 0
-2779 -3697 0
-2779 2104 0
2780 -4110 554 -1654 3694 0
-2780 4110 0
-2780 -554 0
-2780 1654 0
-2780 -3694 0
2781 3699 427 -2116 -3999 0
-2781 -3699 0
-2781 -427 0
-2781 2116 0
-2781 3999 0
1748 -1747 0
-1748 1747 0
2782 -5951 0
-2782 5951 0
2783 -5952 0
-2783 5952 0
2785 415 3699 -3986 -2116 0
-2785 -415 0
-2785 -3699 0
-2785 3986 0
-2785 2116 0
2786 -3847 3697 248 -2104 0
-2786 3847 0
-2786 -3697 0
-2786 -248 0
-2786 2104 0
2787 -2110 3691 668 -4209 0
-2787 2110 0
-2787 -3691 0
-2787 -668 0
-2787 4209 0
1757 -1756 0
-1757 1756 0
2788 -5953 0
-2788 5953 0
2789 -1654 3694 -4097 542 0
-2789 1654 0
-2789 -3694 0
-2789 4097 0
-2789 -542 0
5954 3176 -4351 1374 -2427 0
-5954 -3176 0
-5954 4351 0
-5954 -1374 0
-5954 2427 0
5955 -4211 670 3691 -2110 0
-5955 4211 0
-5955 -670 0
-5955 -3691 0
-5955 2110 0
5956 3699 -2116 -3988 417 0
-5956 -3699 0
-5956 2116 0
-5956 3988 0
-5956 -417 0
5957 -2104 3697 -3850 253 0
-5957 2104 0
-5957 -3697 0
-5957 3850 0
-5957 -253 0
5958 -5959 0
-5958 5959 0
5960 -1654 544 3694 -4099 0
-5960 1654 0
-5960 -544 0
-5960 -3694 0
-5960 4099 0
1759 -1758 0
-1759 1758 0
5961 3699 369 -2116 -3944 0
-5961 -3699 0
-5961 -369 0
-5961 2116 0
-5961 3944 0
5962 -5963 0
-5962 5963 0
5964 1103 -4298 -2416 3285 0
-5964 -1103 0
-5964 4298 0
-5964 2416 0
-5964 -3285 0
5965 -1784 0
-5965 1784 0
5966 3308 -3310 -2456 0
-5966 -3308 0
-5966 3310 0
-5966 2456 0
5967 -3778 142 3697 -2104 0
-5967 3778 0
-5967 -142 0
-5967 -3697 0
-5967 2104 0
5968 622 -2110 -4168 3691 0
-5968 -622 0
-5968 2110 0
-5968 4168 0
-5968 -3691 0
5969 -4055 495 -1654 3694 0
-5969 4055 0
-5969 -495 0
-5969 1654 0
-5969 -3694 0
5970 -5971 0
-5970 5971 0
5972 3212 -3211 -2448 0
-5972 -3212 0
-5972 3211 0
-5972 2448 0
5973 3699 -3977 405 -2116 0
-5973 -3699 0
-5973 3977 0
-5973 -405 0
-5973 2116 0
5974 -5975 0
-5974 5975 0
5976 -5977 0
-5976 5977 0
5978 -1799 0
-5978 1799 0
5979 -2110 3691 -4200 658 0
-5979 2110 0
-5979 -3691 0
-5979 4200 0
-5979 -658 0
5980 3249 -2759 -3250 0
-5980 -3249 0
-5980 2759 0
-5980 3250 0
5981 3187 -3189 -2777 0
-5981 -3187 0
-5981 3189 0
-5981 2777 0
5982 -2110 3691 591 -4141 0
-5982 2110 0
-5982 -3691 0
-5982 -591 0
-5982 4141 0
5983 -1802 0
-5983 1802 0
5984 339 3699 -3917 -2116 0
-5984 -339 0
-5984 -3699 0
-5984 3917 0
-5984 2116 0
5985 -3156 -2751 3155 0
-5985 3156 0
-5985 2751 0
-5985 -3155 0
5986 -2104 3697 65 -3730 0
-5986 2104 0
-5986 -3697 0
-5986 -65 0
-5986 3730 0
5987 -1654 3694 -4030 464 0
-5987 1654 0
-5987 -3694 0
-5987 4030 0
-5987 -464 0
5988 3699 -2118 -3997 425 0
-5988 -3699 0
-5988 2118 0
-5988 3997 0
-5988 -425 0
5989 -4219 678 -2112 3691 0
-5989 4219 0
-5989 -678 0
-5989 2112 0
-5989 -3691 0
1810 -1809 0
-1810 1809 0
5990 -2106 -3863 272 3697 0
-5990 2106 0
-5990 3863 0
-5990 -272 0
-5990 -3697 0
5991 552 -1807 3694 -4107 0
-5991 -552 0
-5991 1807 0
-5991 -3694 0
-5991 4107 0
5992 3208 844 -2533 -4265 0
-5992 -3208 0
-5992 -844 0
-5992 2533 0
-5992 4265 0
5993 -5994 0
-5993 5994 0
2802 -5995 0
-2802 5995 0
2803 3699 -3939 363 -2118 0
-2803 -3699 0
-2803 3939 0
-2803 -363 0
-2803 2118 0
2799 489 -4051 3694 -1807 0
-2799 -489 0
-2799 4051 0
-2799 -3694 0
-2799 1807 0
2800 -2112 3691 -4162 616 0
-2800 2112 0
-2800 -3691 0
-2800 4162 0
-2800 -616 0
2801 -3770 -2106 120 3697 0
-2801 3770 0
-2801 2106 0
-2801 -120 0
-2801 -3697 0
1812 -1811 0
-1812 1811 0
5996 -2602 3167 -3166 0
-5996 2602 0
-5996 -3167 0
-5996 3166 0
5997 3699 -3909 329 -2118 0
-5997 -3699 0
-5997 3909 0
-5997 -329 0
-5997 2118 0
5998 -3716 -2106 40 3697 0
-5998 3716 0
-5998 2106 0
-5998 -40 0
-5998 -3697 0
5999 454 -4022 3694 -1807 0
-5999 -454 0
-5999 4022 0
-5999 -3694 0
-5999 1807 0
6000 -2112 3691 -4133 581 0
-6000 2112 0
-6000 -3691 0
-6000 4133 0
-6000 -581 0
6001 -1815 0
-6001 1815 0
6002 239 -2106 -3839 3697 0
-6002 -239 0
-6002 2106 0
-6002 3839 0
-6002 -3697 0
1831 -1830 0
-1831 1830 0
6003 -6004 0
-6003 6004 0
6005 -4094 538 3694 -1807 0
-6005 4094 0
-6005 -538 0
-6005 -3694 0
-6005 1807 0
6006 3699 411 -2118 -3982 0
-6006 -3699 0
-6006 -411 0
-6006 2118 0
-6006 3982 0
6007 3201 1303 -4334 -2563 0
-6007 -3201 0
-6007 -1303 0
-6007 4334 0
-6007 2563 0
6008 664 -4206 3691 -2112 0
-6008 -664 0
-6008 4206 0
-6008 -3691 0
-6008 2112 0
6009 511 -1807 3694 -4068 0
-6009 -511 0
-6009 1807 0
-6009 -3694 0
-6009 4068 0
6010 -2106 177 3697 -3799 0
-6010 2106 0
-6010 -177 0
-6010 -3697 0
-6010 3799 0
6011 -1864 0
-6011 1864 0
6012 3699 -2118 -3956 384 0
-6012 -3699 0
-6012 2118 0
-6012 3956 0
-6012 -384 0
6013 -4180 637 -2112 3691 0
-6013 4180 0
-6013 -637 0
-6013 2112 0
-6013 -3691 0
6014 3282 -2613 -3281 0
-6014 -3282 0
-6014 2613 0
-6014 3281 0
2810 -6015 0
-2810 6015 0
2811 -4028 460 3694 -1807 0
-2811 4028 0
-2811 -460 0
-2811 -3694 0
-2811 1807 0
2812 3699 335 -2118 -3915 0
-2812 -3699 0
-2812 -335 0
-2812 2118 0
-2812 3915 0
2813 -2106 -3725 55 3697 0
-2813 2106 0
-2813 3725 0
-2813 -55 0
-2813 -3697 0
2814 -6016 0
-2814 6016 0
2815 587 -4139 3691 -2112 0
-2815 -587 0
-2815 4139 0
-2815 -3691 0
-2815 2112 0
2816 -1870 0
-2816 1870 0
6017 560 -1807 3694 -4115 0
-6017 -560 0
-6017 1807 0
-6017 -3694 0
-6017 4115 0
6018 3266 -2561 -4353 1396 0
-6018 -3266 0
-6018 2561 0
-6018 4353 0
-6018 -1396 0
6019 1384 -4352 3148 -2596 0
-6019 -1384 0
-6019 4352 0
-6019 -3148 0
-6019 2596 0
6020 -2106 3697 -3877 290 0
-6020 2106 0
-6020 -3697 0
-6020 3877 0
-6020 -290 0
6021 3699 -2118 -4004 433 0
-6021 -3699 0
-6021 2118 0
-6021 4004 0
-6021 -433 0
6022 -4227 686 -2112 3691 0
-6022 4227 0
-6022 -686 0
-6022 2112 0
-6022 -3691 0
6023 -1888 0
-6023 1888 0
2819 277 -2106 -3867 3697 0
-2819 -277 0
-2819 2106 0
-2819 3867 0
-2819 -3697 0
2820 -4110 554 3694 -1807 0
-2820 4110 0
-2820 -554 0
-2820 -3694 0
-2820 1807 0
1899 -1898 0
-1899 1898 0
2821 -6024 0
-2821 6024 0
2822 -6025 0
-2822 6025 0
2823 3699 427 -2118 -3999 0
-2823 -3699 0
-2823 -427 0
-2823 2118 0
-2823 3999 0
6026 -1907 0
-6026 1907 0
6027 3691 668 -2112 -4209 0
-6027 -3691 0
-6027 -668 0
-6027 2112 0
-6027 4209 0
6028 -6029 0
-6028 6029 0
6030 3694 -4097 542 -1807 0
-6030 -3694 0
-6030 4097 0
-6030 -542 0
-6030 1807 0
6031 415 3699 -3986 -2118 0
-6031 -415 0
-6031 -3699 0
-6031 3986 0
-6031 2118 0
6032 -2106 -3847 3697 248 0
-6032 2106 0
-6032 3847 0
-6032 -3697 0
-6032 -248 0
6033 3176 -4351 1374 -2549 0
-6033 -3176 0
-6033 4351 0
-6033 -1374 0
-6033 2549 0
6034 -4211 670 -2112 3691 0
-6034 4211 0
-6034 -670 0
-6034 2112 0
-6034 -3691 0
6035 3699 -2118 -3988 417 0
-6035 -3699 0
-6035 2118 0
-6035 3988 0
-6035 -417 0
1911 -1910 0
-1911 1910 0
6036 -6037 0
-6036 6037 0
6038 544 -1807 3694 -4099 0
-6038 -544 0
-6038 1807 0
-6038 -3694 0
-6038 4099 0
6039 -2106 3697 -3850 253 0
-6039 2106 0
-6039 -3697 0
-6039 3850 0
-6039 -253 0
6040 -2106 -3778 142 3697 0
-6040 2106 0
-6040 3778 0
-6040 -142 0
-6040 -3697 0
6041 622 -4168 3691 -2112 0
-6041 -622 0
-6041 4168 0
-6041 -3691 0
-6041 2112 0
6042 -1935 0
-6042 1935 0
6043 3699 369 -2118 -3944 0
-6043 -3699 0
-6043 -369 0
-6043 2118 0
-6043 3944 0
6044 -2600 3305 745 -4248 0
-6044 2600 0
-6044 -3305 0
-6044 -745 0
-6044 4248 0
6045 3308 -3310 -2580 0
-6045 -3308 0
-6045 3310 0
-6045 2580 0
6046 -4055 495 3694 -1807 0
-6046 4055 0
-6046 -495 0
-6046 -3694 0
-6046 1807 0
6047 1103 -2538 -4298 3285 0
-6047 -1103 0
-6047 2538 0
-6047 4298 0
-6047 -3285 0
6048 532 -4088 3694 -1807 0
-6048 -532 0
-6048 4088 0
-6048 -3694 0
-6048 1807 0
6049 -2112 3691 -4200 658 0
-6049 2112 0
-6049 -3691 0
-6049 4200 0
-6049 -658 0
6050 -2106 224 -3831 3697 0
-6050 2106 0
-6050 -224 0
-6050 3831 0
-6050 -3697 0
6051 -6052 0
-6051 6052 0
6053 -2573 3212 -3211 0
-6053 2573 0
-6053 -3212 0
-6053 3211 0
6054 3699 -3977 405 -2118 0
-6054 -3699 0
-6054 3977 0
-6054 -405 0
-6054 2118 0
1950 -1949 0
-1950 1949 0
6055 3691 591 -2112 -4141 0
-6055 -3691 0
-6055 -591 0
-6055 2112 0
-6055 4141 0
6056 3694 -4030 464 -1807 0
-6056 -3694 0
-6056 4030 0
-6056 -464 0
-6056 1807 0
6057 -2796 -3156 3155 0
-6057 2796 0
-6057 3156 0
-6057 -3155 0
6058 3249 -2798 -3250 0
-6058 -3249 0
-6058 2798 0
-6058 3250 0
6059 339 3699 -3917 -2118 0
-6059 -339 0
-6059 -3699 0
-6059 3917 0
-6059 2118 0
6060 -2106 3697 65 -3730 0
-6060 2106 0
-6060 -3697 0
-6060 -65 0
-6060 3730 0
6061 -1951 0
-6061 1951 0
6062 3187 -3189 -2817 0
-6062 -3187 0
-6062 3189 0
-6062 2817 0
2832 -6063 0
-2832 6063 0
6064 3294 -3296 -2173 0
-6064 -3294 0
-6064 3296 0
-6064 2173 0
6065 -4129 577 3691 -18 0
-6065 4129 0
-6065 -577 0
-6065 -3691 0
-6065 18 0
6066 3699 -3905 325 -8 0
-6066 -3699 0
-6066 3905 0
-6066 -325 0
-6066 8 0
2021 -2020 0
-2021 2020 0
6067 -3710 30 3697 -3 0
-6067 3710 0
-6067 -30 0
-6067 -3697 0
-6067 3 0
6068 -13 450 3694 -4018 0
-6068 13 0
-6068 -450 0
-6068 -3694 0
-6068 4018 0
2835 -18 3691 -4162 616 0
-2835 18 0
-2835 -3691 0
-2835 4162 0
-2835 -616 0
2836 -3770 -3 120 3697 0
-2836 3770 0
-2836 3 0
-2836 -120 0
-2836 -3697 0
2837 -6069 0
-2837 6069 0
1959 -1958 0
-1959 1958 0
2838 3699 -3939 363 -8 0
-2838 -3699 0
-2838 3939 0
-2838 -363 0
-2838 8 0
2839 489 -13 -4051 3694 0
-2839 -489 0
-2839 13 0
-2839 4051 0
-2839 -3694 0
6070 -13 528 3694 -4083 0
-6070 13 0
-6070 -528 0
-6070 -3694 0
-6070 4083 0
6071 -6072 0
-6071 6072 0
6073 3699 -3973 401 -8 0
-6073 -3699 0
-6073 3973 0
-6073 -401 0
-6073 8 0
6074 -4195 654 3691 -18 0
-6074 4195 0
-6074 -654 0
-6074 -3691 0
-6074 18 0
6075 -3 3697 -3824 214 0
-6075 3 0
-6075 -3697 0
-6075 3824 0
-6075 -214 0
2002 -2001 0
-2002 2001 0
6076 3699 403 -8 -3975 0
-6076 -3699 0
-6076 -403 0
-6076 8 0
-6076 3975 0
6077 -4086 530 -13 3694 0
-6077 4086 0
-6077 -530 0
-6077 13 0
-6077 -3694 0
2091 -2090 0
-2091 2090 0
6078 -3828 -3 219 3697 0
-6078 3828 0
-6078 3 0
-6078 -219 0
-6078 -3697 0
6079 3158 -3160 -2667 0
-6079 -3158 0
-6079 3160 0
-6079 2667 0
6080 656 -4198 3691 -18 0
-6080 -656 0
-6080 4198 0
-6080 -3691 0
-6080 18 0
2843 -13 568 3694 -4123 0
-2843 13 0
-2843 -568 0
-2843 -3694 0
-2843 4123 0
2844 1437 -2840 -4367 3298 0
-2844 -1437 0
-2844 2840 0
-2844 4367 0
-2844 -3298 0
2845 -3888 -3 307 3697 0
-2845 3888 0
-2845 3 0
-2845 -307 0
-2845 -3697 0
2846 -4235 694 3691 -18 0
-2846 4235 0
-2846 -694 0
-2846 -3691 0
-2846 18 0
2847 3699 -4012 441 -8 0
-2847 -3699 0
-2847 4012 0
-2847 -441 0
-2847 8 0
1969 -1968 0
-1969 1968 0
6081 1490 3123 -4377 -2692 0
-6081 -1490 0
-6081 -3123 0
-6081 4377 0
-6081 2692 0
2850 -2849 0
-2850 2849 0
6082 -6083 0
-6082 6083 0
6084 -3162 -2690 3164 0
-6084 3162 0
-6084 2690 0
-6084 -3164 0
2854 -2853 0
-2854 2853 0
6085 3699 -4000 429 -2114 0
-6085 -3699 0
-6085 4000 0
-6085 -429 0
-6085 2114 0
6086 556 -4111 3694 -1504 0
-6086 -556 0
-6086 4111 0
-6086 -3694 0
-6086 1504 0
6087 1490 -2740 3123 -4377 0
-6087 -1490 0
-6087 2740 0
-6087 -3123 0
-6087 4377 0
6088 3697 281 -2102 -3871 0
-6088 -3697 0
-6088 -281 0
-6088 2102 0
-6088 3871 0
6089 -1529 0
-6089 1529 0
6090 -2108 3691 -4223 682 0
-6090 2108 0
-6090 -3691 0
-6090 4223 0
-6090 -682 0
2858 -4195 654 3691 -2108 0
-2858 4195 0
-2858 -654 0
-2858 -3691 0
-2858 2108 0
2859 3699 -2114 -3973 401 0
-2859 -3699 0
-2859 2114 0
-2859 3973 0
-2859 -401 0
1551 -1550 0
-1551 1550 0
2860 -6091 0
-2860 6091 0
2861 -1504 528 3694 -4083 0
-2861 1504 0
-2861 -528 0
-2861 -3694 0
-2861 4083 0
2862 3697 -3824 -2102 214 0
-2862 -3697 0
-2862 3824 0
-2862 2102 0
-2862 -214 0
2869 3699 -2114 -3905 325 0
-2869 -3699 0
-2869 2114 0
-2869 3905 0
-2869 -325 0
2864 -4129 577 3691 -2108 0
-2864 4129 0
-2864 -577 0
-2864 -3691 0
-2864 2108 0
2865 -6092 0
-2865 6092 0
2866 -3710 30 3697 -2102 0
-2866 3710 0
-2866 -30 0
-2866 -3697 0
-2866 2102 0
2867 -1504 450 3694 -4018 0
-2867 1504 0
-2867 -450 0
-2867 -3694 0
-2867 4018 0
1567 -1566 0
-1567 1566 0
2868 -6093 0
-2868 6093 0
6094 -3794 166 3697 -2102 0
-6094 3794 0
-6094 -166 0
-6094 -3697 0
-6094 2102 0
6095 -2108 3691 -4176 632 0
-6095 2108 0
-6095 -3691 0
-6095 4176 0
-6095 -632 0
2871 -6096 0
-2871 6096 0
6097 -1592 0
-6097 1592 0
6098 3699 -3953 379 -2114 0
-6098 -3699 0
-6098 3953 0
-6098 -379 0
-6098 2114 0
6099 506 -4064 3694 -1504 0
-6099 -506 0
-6099 4064 0
-6099 -3694 0
-6099 1504 0
2874 556 -1654 -4111 3694 0
-2874 -556 0
-2874 1654 0
-2874 4111 0
-2874 -3694 0
2875 1490 3123 -4377 -2790 0
-2875 -1490 0
-2875 -3123 0
-2875 4377 0
-2875 2790 0
1681 -1680 0
-1681 1680 0
2876 -2104 3697 281 -3871 0
-2876 2104 0
-2876 -3697 0
-2876 -281 0
-2876 3871 0
2877 -2110 3691 -4223 682 0
-2877 2110 0
-2877 -3691 0
-2877 4223 0
-2877 -682 0
2878 3699 -4000 429 -2116 0
-2878 -3699 0
-2878 4000 0
-2878 -429 0
-2878 2116 0
2880 -6100 0
-2880 6100 0
2881 -6101 0
-2881 6101 0
2882 -6102 0
-2882 6102 0
1706 -1705 0
-1706 1705 0
2883 -6103 0
-2883 6103 0
2884 -6104 0
-2884 6104 0
6105 -4129 577 3691 -2110 0
-6105 4129 0
-6105 -577 0
-6105 -3691 0
-6105 2110 0
6106 3294 -3296 -2461 0
-6106 -3294 0
-6106 3296 0
-6106 2461 0
6107 3699 -2116 -3905 325 0
-6107 -3699 0
-6107 2116 0
-6107 3905 0
-6107 -325 0
1722 -1721 0
-1722 1721 0
6108 -1654 450 3694 -4018 0
-6108 1654 0
-6108 -450 0
-6108 -3694 0
-6108 4018 0
2887 -6109 0
-2887 6109 0
6110 -3710 30 3697 -2104 0
-6110 3710 0
-6110 -30 0
-6110 -3697 0
-6110 2104 0
2894 -1749 0
-2894 1749 0
2889 -6111 0
-2889 6111 0
2890 -6112 0
-2890 6112 0
2891 -2873 3192 -3191 0
-2891 2873 0
-2891 -3192 0
-2891 3191 0
2892 -6113 0
-2892 6113 0
2893 -6114 0
-2893 6114 0
2896 3699 -4000 429 -2118 0
-2896 -3699 0
-2896 4000 0
-2896 -429 0
-2896 2118 0
1833 -1832 0
-1833 1832 0
2897 1490 3123 -4377 -2826 0
-2897 -1490 0
-2897 -3123 0
-2897 4377 0
-2897 2826 0
2898 -2112 3691 -4223 682 0
-2898 2112 0
-2898 -3691 0
-2898 4223 0
-2898 -682 0
2899 -2106 3697 281 -3871 0
-2899 2106 0
-2899 -3697 0
-2899 -281 0
-2899 3871 0
2900 556 -4111 3694 -1807 0
-2900 -556 0
-2900 4111 0
-2900 -3694 0
-2900 1807 0
2902 -6115 0
-2902 6115 0
2903 3699 -2118 -3973 401 0
-2903 -3699 0
-2903 2118 0
-2903 3973 0
-2903 -401 0
2904 -2106 3697 -3824 214 0
-2904 2106 0
-2904 -3697 0
-2904 3824 0
-2904 -214 0
1858 -1857 0
-1858 1857 0
2905 -4195 654 -2112 3691 0
-2905 4195 0
-2905 -654 0
-2905 2112 0
-2905 -3691 0
2906 528 -1807 3694 -4083 0
-2906 -528 0
-2906 1807 0
-2906 -3694 0
-2906 4083 0
6116 -2106 -3710 30 3697 0
-6116 2106 0
-6116 3710 0
-6116 -30 0
-6116 -3697 0
6117 450 -1807 3694 -4018 0
-6117 -450 0
-6117 1807 0
-6117 -3694 0
-6117 4018 0
6118 3294 -3296 -2585 0
-6118 -3294 0
-6118 3296 0
-6118 2585 0
6119 3699 -2118 -3905 325 0
-6119 -3699 0
-6119 2118 0
-6119 3905 0
-6119 -325 0
6120 -4129 577 -2112 3691 0
-6120 4129 0
-6120 -577 0
-6120 2112 0
-6120 -3691 0
2908 -6121 0
-2908 6121 0
1874 -1873 0
-1874 1873 0
6122 3699 -3953 379 -2118 0
-6122 -3699 0
-6122 3953 0
-6122 -379 0
-6122 2118 0
6123 -3794 -2106 166 3697 0
-6123 3794 0
-6123 2106 0
-6123 -166 0
-6123 -3697 0
6124 506 -4064 3694 -1807 0
-6124 -506 0
-6124 4064 0
-6124 -3694 0
-6124 1807 0
6125 -1900 0
-6125 1900 0
2912 -6126 0
-2912 6126 0
6127 -2112 3691 -4176 632 0
-6127 2112 0
-6127 -3691 0
-6127 4176 0
-6127 -632 0
2915 -6128 0
-2915 6128 0
6129 3205 -2124 -3206 0
-6129 -3205 0
-6129 2124 0
-6129 3206 0
6130 60 -3 -3727 3697 0
-6130 -60 0
-6130 3 0
-6130 3727 0
-6130 -3697 0
6131 -2014 0
-6131 2014 0
6132 -2122 3237 -3236 0
-6132 2122 0
-6132 -3237 0
-6132 3236 0
6133 -18 3691 -4140 589 0
-6133 18 0
-6133 -3691 0
-6133 4140 0
-6133 -589 0
6134 462 -13 -4029 3694 0
-6134 -462 0
-6134 13 0
-6134 4029 0
-6134 -3694 0
6135 3699 -3916 337 -8 0
-6135 -3699 0
-6135 3916 0
-6135 -337 0
-6135 8 0
6136 3262 -3264 -2180 0
-6136 -3262 0
-6136 3264 0
-6136 2180 0
6137 -6138 0
-6137 6138 0
6139 -6140 0
-6139 6140 0
6141 -6142 0
-6141 6142 0
6143 -6144 0
-6143 6144 0
6145 -6146 0
-6145 6146 0
6147 -2097 0
-6147 2097 0
6148 -6149 0
-6148 6149 0
6150 -6151 0
-6150 6151 0
2918 -2029 0
-2918 2029 0
2919 -3 3697 -3816 203 0
-2919 3 0
-2919 -3697 0
-2919 3816 0
-2919 -203 0
2920 648 -4189 3691 -18 0
-2920 -648 0
-2920 4189 0
-2920 -3691 0
-2920 18 0
2921 936 -4276 -2913 3174 0
-2921 -936 0
-2921 4276 0
-2921 2913 0
-2921 -3174 0
2922 -4077 522 -13 3694 0
-2922 4077 0
-2922 -522 0
-2922 13 0
-2922 -3694 0
2923 3699 395 -8 -3966 0
-2923 -3699 0
-2923 -395 0
-2923 8 0
-2923 3966 0
2925 1437 -4367 3298 -2849 0
-2925 -1437 0
-2925 4367 0
-2925 -3298 0
-2925 2849 0
2927 -6152 0
-2927 6152 0
2928 -6153 0
-2928 6153 0
2929 3225 -4287 1001 -2700 0
-2929 -3225 0
-2929 4287 0
-2929 -1001 0
-2929 2700 0
2930 -6154 0
-2930 6154 0
2931 772 -2851 3229 -4254 0
-2931 -772 0
-2931 2851 0
-2931 -3229 0
-2931 4254 0
2933 1315 -2853 -4340 3233 0
-2933 -1315 0
-2933 2853 0
-2933 4340 0
-2933 -3233 0
2935 3255 -3257 -2681 0
-2935 -3255 0
-2935 3257 0
-2935 2681 0
2936 -6155 0
-2936 6155 0
2938 3158 -3160 -2932 0
-2938 -3158 0
-2938 3160 0
-2938 2932 0
6156 -1504 568 3694 -4123 0
-6156 1504 0
-6156 -568 0
-6156 -3694 0
-6156 4123 0
1521 -1520 0
-1521 1520 0
6157 3699 -2114 -4012 441 0
-6157 -3699 0
-6157 2114 0
-6157 4012 0
-6157 -441 0
6158 -3888 307 3697 -2102 0
-6158 3888 0
-6158 -307 0
-6158 -3697 0
-6158 2102 0
6159 -6160 0
-6159 6160 0
6161 -4235 694 3691 -2108 0
-6161 4235 0
-6161 -694 0
-6161 -3691 0
-6161 2108 0
2941 524 -4079 3694 -1504 0
-2941 -524 0
-2941 4079 0
-2941 -3694 0
-2941 1504 0
2942 3699 -3968 397 -2114 0
-2942 -3699 0
-2942 3968 0
-2942 -397 0
-2942 2114 0
2943 -2108 3691 -4191 650 0
-2943 2108 0
-2943 -3691 0
-2943 4191 0
-2943 -650 0
2944 -6162 0
-2944 6162 0
1523 -1522 0
-1523 1522 0
2945 3225 -4287 -2750 1001 0
-2945 -3225 0
-2945 4287 0
-2945 2750 0
-2945 -1001 0
2946 -6163 0
-2946 6163 0
2947 -6164 0
-2947 6164 0
2948 -6165 0
-2948 6165 0
6166 -2108 3691 684 -4226 0
-6166 2108 0
-6166 -3691 0
-6166 -684 0
-6166 4226 0
6167 -6168 0
-6167 6168 0
6169 -1524 0
-6169 1524 0
6170 431 3699 -4002 -2114 0
-6170 -431 0
-6170 -3699 0
-6170 4002 0
-6170 2114 0
6171 -3875 3697 285 -2102 0
-6171 3875 0
-6171 -3697 0
-6171 -285 0
-6171 2102 0
6172 3694 -4114 558 -1504 0
-6172 -3694 0
-6172 4114 0
-6172 -558 0
-6172 1504 0
1543 -1542 0
-1543 1542 0
2952 3255 -3257 -2716 0
-2952 -3255 0
-2952 3257 0
-2952 2716 0
2953 497 -4057 3694 -1504 0
-2953 -497 0
-2953 4057 0
-2953 -3694 0
-2953 1504 0
2954 3699 -3946 371 -2114 0
-2954 -3699 0
-2954 3946 0
-2954 -371 0
-2954 2114 0
2955 -2108 3691 -4169 624 0
-2955 2108 0
-2955 -3691 0
-2955 4169 0
-2955 -624 0
2956 147 -3781 3697 -2102 0
-2956 -147 0
-2956 3781 0
-2956 -3697 0
-2956 2102 0
2957 -6173 0
-2957 6173 0
2960 656 -2108 -4198 3691 0
-2960 -656 0
-2960 2108 0
-2960 4198 0
-2960 -3691 0
2961 3158 -3160 -2949 0
-2961 -3158 0
-2961 3160 0
-2961 2949 0
2962 -1642 0
-2962 1642 0
2963 3699 403 -2114 -3975 0
-2963 -3699 0
-2963 -403 0
-2963 2114 0
-2963 3975 0
2964 -3828 219 3697 -2102 0
-2964 3828 0
-2964 -219 0
-2964 -3697 0
-2964 2102 0
2959 -4086 530 3694 -1504 0
-2959 4086 0
-2959 -530 0
-2959 -3694 0
-2959 1504 0
6174 3699 -2116 -4012 441 0
-6174 -3699 0
-6174 2116 0
-6174 4012 0
-6174 -441 0
6175 -4235 694 3691 -2110 0
-6175 4235 0
-6175 -694 0
-6175 -3691 0
-6175 2110 0
6176 1437 -4367 3298 -2879 0
-6176 -1437 0
-6176 4367 0
-6176 -3298 0
-6176 2879 0
6177 -3888 307 3697 -2104 0
-6177 3888 0
-6177 -307 0
-6177 -3697 0
-6177 2104 0
6178 -1654 568 3694 -4123 0
-6178 1654 0
-6178 -568 0
-6178 -3694 0
-6178 4123 0
6179 -1671 0
-6179 1671 0
6180 772 -2885 3229 -4254 0
-6180 -772 0
-6180 2885 0
-6180 -3229 0
-6180 4254 0
1675 -1674 0
-1675 1674 0
6181 3699 -3968 397 -2116 0
-6181 -3699 0
-6181 3968 0
-6181 -397 0
-6181 2116 0
2967 -6182 0
-2967 6182 0
6183 524 -1654 -4079 3694 0
-6183 -524 0
-6183 1654 0
-6183 4079 0
-6183 -3694 0
6184 -2110 3691 -4191 650 0
-6184 2110 0
-6184 -3691 0
-6184 4191 0
-6184 -650 0
6185 -3819 207 3697 -2104 0
-6185 3819 0
-6185 -207 0
-6185 -3697 0
-6185 2104 0
6186 -2795 3225 -4287 1001 0
-6186 2795 0
-6186 -3225 0
-6186 4287 0
-6186 -1001 0
2968 -6187 0
-2968 6187 0
6188 -1654 3694 -4114 558 0
-6188 1654 0
-6188 -3694 0
-6188 4114 0
-6188 -558 0
1677 -1676 0
-1677 1676 0
6189 431 3699 -4002 -2116 0
-6189 -431 0
-6189 -3699 0
-6189 4002 0
-6189 2116 0
6190 -3875 3697 285 -2104 0
-6190 3875 0
-6190 -3697 0
-6190 -285 0
-6190 2104 0
6191 -2110 3691 684 -4226 0
-6191 2110 0
-6191 -3691 0
-6191 -684 0
-6191 4226 0
6192 -6193 0
-6192 6193 0
2972 147 -3781 3697 -2104 0
-2972 -147 0
-2972 3781 0
-2972 -3697 0
-2972 2104 0
2973 -6194 0
-2973 6194 0
2974 3699 -3946 371 -2116 0
-2974 -3699 0
-2974 3946 0
-2974 -371 0
-2974 2116 0
2975 -2110 3691 -4169 624 0
-2975 2110 0
-2975 -3691 0
-2975 4169 0
-2975 -624 0
1693 -1692 0
-1693 1692 0
2976 3255 -3257 -2766 0
-2976 -3255 0
-2976 3257 0
-2976 2766 0
2977 497 -1654 -4057 3694 0
-2977 -497 0
-2977 1654 0
-2977 4057 0
-2977 -3694 0
6195 -3828 219 3697 -2104 0
-6195 3828 0
-6195 -219 0
-6195 -3697 0
-6195 2104 0
6196 656 -2110 -4198 3691 0
-6196 -656 0
-6196 2110 0
-6196 4198 0
-6196 -3691 0
6197 3699 403 -2116 -3975 0
-6197 -3699 0
-6197 -403 0
-6197 2116 0
-6197 3975 0
6198 -4086 530 -1654 3694 0
-6198 4086 0
-6198 -530 0
-6198 1654 0
-6198 -3694 0
6199 3158 -3160 -2970 0
-6199 -3158 0
-6199 3160 0
-6199 2970 0
6200 -1794 0
-6200 1794 0
2980 -3888 -2106 307 3697 0
-2980 3888 0
-2980 2106 0
-2980 -307 0
-2980 -3697 0
2981 -6201 0
-2981 6201 0
2982 -4235 694 -2112 3691 0
-2982 4235 0
-2982 -694 0
-2982 2112 0
-2982 -3691 0
2983 3699 -2118 -4012 441 0
-2983 -3699 0
-2983 2118 0
-2983 4012 0
-2983 -441 0
2984 568 -1807 3694 -4123 0
-2984 -568 0
-2984 1807 0
-2984 -3694 0
-2984 4123 0
2985 -1822 0
-2985 1822 0
6202 -3819 -2106 207 3697 0
-6202 3819 0
-6202 2106 0
-6202 -207 0
-6202 -3697 0
6203 524 -4079 3694 -1807 0
-6203 -524 0
-6203 4079 0
-6203 -3694 0
-6203 1807 0
6204 -2907 772 3229 -4254 0
-6204 2907 0
-6204 -772 0
-6204 -3229 0
-6204 4254 0
2987 -6205 0
-2987 6205 0
6206 3699 -3968 397 -2118 0
-6206 -3699 0
-6206 3968 0
-6206 -397 0
-6206 2118 0
2988 -6207 0
-2988 6207 0
6208 -2112 3691 -4191 650 0
-6208 2112 0
-6208 -3691 0
-6208 4191 0
-6208 -650 0
1826 -1825 0
-1826 1825 0
6209 3225 -4287 -2830 1001 0
-6209 -3225 0
-6209 4287 0
-6209 2830 0
-6209 -1001 0
6210 -1827 0
-6210 1827 0
6211 1315 -4340 -2910 3233 0
-6211 -1315 0
-6211 4340 0
-6211 2910 0
-6211 -3233 0
6212 431 3699 -4002 -2118 0
-6212 -431 0
-6212 -3699 0
-6212 4002 0
-6212 2118 0
6213 3694 -4114 558 -1807 0
-6213 -3694 0
-6213 4114 0
-6213 -558 0
-6213 1807 0
6214 -2106 -3875 3697 285 0
-6214 2106 0
-6214 3875 0
-6214 -3697 0
-6214 -285 0
6215 3691 684 -2112 -4226 0
-6215 -3691 0
-6215 -684 0
-6215 2112 0
-6215 4226 0
2992 -2112 3691 -4169 624 0
-2992 2112 0
-2992 -3691 0
-2992 4169 0
-2992 -624 0
2993 3699 -3946 371 -2118 0
-2993 -3699 0
-2993 3946 0
-2993 -371 0
-2993 2118 0
2994 3255 -3257 -2806 0
-2994 -3255 0
-2994 3257 0
-2994 2806 0
1845 -1844 0
-1845 1844 0
2995 147 -2106 -3781 3697 0
-2995 -147 0
-2995 2106 0
-2995 3781 0
-2995 -3697 0
2996 497 -4057 3694 -1807 0
-2996 -497 0
-2996 4057 0
-2996 -3694 0
-2996 1807 0
2997 -6216 0
-2997 6216 0
6217 3699 403 -2118 -3975 0
-6217 -3699 0
-6217 -403 0
-6217 2118 0
-6217 3975 0
6218 -1944 0
-6218 1944 0
6219 3158 -3160 -2990 0
-6219 -3158 0
-6219 3160 0
-6219 2990 0
6220 -4086 530 3694 -1807 0
-6220 4086 0
-6220 -530 0
-6220 -3694 0
-6220 1807 0
6221 -3828 -2106 219 3697 0
-6221 3828 0
-6221 2106 0
-6221 -219 0
-6221 -3697 0
6222 656 -4198 3691 -2112 0
-6222 -656 0
-6222 4198 0
-6222 -3691 0
-6222 2112 0
6223 -18 3691 -4191 650 0
-6223 18 0
-6223 -3691 0
-6223 4191 0
-6223 -650 0
3001 -6224 0
-3001 6224 0
6225 -3819 -3 207 3697 0
-6225 3819 0
-6225 3 0
-6225 -207 0
-6225 -3697 0
6226 3699 -3968 397 -8 0
-6226 -3699 0
-6226 3968 0
-6226 -397 0
-6226 8 0
6227 -2831 772 3229 -4254 0
-6227 2831 0
-6227 -772 0
-6227 -3229 0
-6227 4254 0
6228 524 -13 -4079 3694 0
-6228 -524 0
-6228 13 0
-6228 4079 0
-6228 -3694 0
1971 -1970 0
-1971 1970 0
3002 -6229 0
-3002 6229 0
6230 3225 -4287 -2916 1001 0
-6230 -3225 0
-6230 4287 0
-6230 2916 0
-6230 -1001 0
1961 -1960 0
-1961 1960 0
3005 110 -3759 3697 -3 0
-3005 -110 0
-3005 3759 0
-3005 -3697 0
-3005 3 0
3006 -4159 612 3691 -18 0
-3006 4159 0
-3006 -612 0
-3006 -3691 0
-3006 18 0
3007 -6231 0
-3007 6231 0
3008 -6232 0
-3008 6232 0
3009 -13 485 3694 -4048 0
-3009 13 0
-3009 -485 0
-3009 -3694 0
-3009 4048 0
3011 3255 -3257 -2178 0
-3011 -3255 0
-3011 3257 0
-3011 2178 0
1989 -1988 0
-1989 1988 0
3012 -6233 0
-3012 6233 0
3013 -18 3691 -4169 624 0
-3013 18 0
-3013 -3691 0
-3013 4169 0
-3013 -624 0
3014 3699 -3946 371 -8 0
-3014 -3699 0
-3014 3946 0
-3014 -371 0
-3014 8 0
3015 147 -3 -3781 3697 0
-3015 -147 0
-3015 3 0
-3015 3781 0
-3015 -3697 0
3016 497 -13 -4057 3694 0
-3016 -497 0
-3016 13 0
-3016 4057 0
-3016 -3694 0
3019 -1993 0
-3019 1993 0
3020 -13 536 3694 -4091 0
-3020 13 0
-3020 -536 0
-3020 -3694 0
-3020 4091 0
3021 -6234 0
-3021 6234 0
3022 -3836 234 3697 -3 0
-3022 3836 0
-3022 -234 0
-3022 -3697 0
-3022 3 0
3023 3699 -3980 409 -8 0
-3023 -3699 0
-3023 3980 0
-3023 -409 0
-3023 8 0
3018 -4203 662 3691 -18 0
-3018 4203 0
-3018 -662 0
-3018 -3691 0
-3018 18 0
6235 -6236 0
-6235 6236 0
6237 -6238 0
-6237 6238 0
6239 885 -4271 3130 -2686 0
-6239 -885 0
-6239 4271 0
-6239 -3130 0
-6239 2686 0
6240 -2244 3205 -3206 0
-6240 2244 0
-6240 -3205 0
-6240 3206 0
6241 3262 -3264 -2220 0
-6241 -3262 0
-6241 3264 0
-6241 2220 0
6242 -6243 0
-6242 6243 0
6244 -6245 0
-6244 6245 0
3028 936 -3026 -4276 3174 0
-3028 -936 0
-3028 3026 0
-3028 4276 0
-3028 -3174 0
6246 -4313 1185 3287 -3024 0
-6246 4313 0
-6246 -1185 0
-6246 -3287 0
-6246 3024 0
3032 3699 361 -2114 -3763 0
-3032 -3699 0
-3032 -361 0
-3032 2114 0
-3032 3763 0
3033 -6247 0
-3033 6247 0
3034 3697 -3762 -2102 115 0
-3034 -3697 0
-3034 3762 0
-3034 2102 0
-3034 -115 0
3035 -2748 3241 -3242 0
-3035 2748 0
-3035 -3241 0
-3035 3242 0
1541 -1540 0
-1541 1540 0
3036 614 -2108 -3768 3691 0
-3036 -614 0
-3036 2108 0
-3036 3768 0
-3036 -3691 0
3037 -3765 487 3694 -1504 0
-3037 3765 0
-3037 -487 0
-3037 -3694 0
-3037 1504 0
3038 -6248 0
-3038 6248 0
6249 462 -4029 3694 -1504 0
-6249 -462 0
-6249 4029 0
-6249 -3694 0
-6249 1504 0
3041 -6250 0
-3041 6250 0
6251 3205 -2330 -3206 0
-6251 -3205 0
-6251 2330 0
-6251 3206 0
6252 3262 -3264 -2273 0
-6252 -3262 0
-6252 3264 0
-6252 2273 0
6253 3237 -3236 -2293 0
-6253 -3237 0
-6253 3236 0
-6253 2293 0
6254 60 -3727 3697 -2102 0
-6254 -60 0
-6254 3727 0
-6254 -3697 0
-6254 2102 0
6255 3699 -3916 337 -2114 0
-6255 -3699 0
-6255 3916 0
-6255 -337 0
-6255 2114 0
6256 -2108 3691 -4140 589 0
-6256 2108 0
-6256 -3691 0
-6256 4140 0
-6256 -589 0
6257 -1560 0
-6257 1560 0
3044 3699 395 -2114 -3966 0
-3044 -3699 0
-3044 -395 0
-3044 2114 0
-3044 3966 0
3045 -4077 522 3694 -1504 0
-3045 4077 0
-3045 -522 0
-3045 -3694 0
-3045 1504 0
3046 648 -2108 -4189 3691 0
-3046 -648 0
-3046 2108 0
-3046 4189 0
-3046 -3691 0
3047 936 -4276 -3039 3174 0
-3047 -936 0
-3047 4276 0
-3047 3039 0
-3047 -3174 0
3048 -1576 0
-3048 1576 0
3043 3697 -3816 -2102 203 0
-3043 -3697 0
-3043 3816 0
-3043 2102 0
-3043 -203 0
6258 481 -4044 3694 -1504 0
-6258 -481 0
-6258 4044 0
-6258 -3694 0
-6258 1504 0
6259 100 -3753 3697 -2102 0
-6259 -100 0
-6259 3753 0
-6259 -3697 0
-6259 2102 0
1580 -1579 0
-1580 1579 0
3050 -6260 0
-3050 6260 0
6261 3699 -3931 355 -2114 0
-6261 -3699 0
-6261 3931 0
-6261 -355 0
-6261 2114 0
6262 -2108 3691 -4154 608 0
-6262 2108 0
-6262 -3691 0
-6262 4154 0
-6262 -608 0
3053 614 -2110 -3768 3691 0
-3053 -614 0
-3053 2110 0
-3053 3768 0
-3053 -3691 0
3054 -6263 0
-3054 6263 0
3055 -6264 0
-3055 6264 0
3056 3699 361 -2116 -3763 0
-3056 -3699 0
-3056 -361 0
-3056 2116 0
-3056 3763 0
1691 -1690 0
-1691 1690 0
3057 -2792 3241 -3242 0
-3057 2792 0
-3057 -3241 0
-3057 3242 0
3058 -3765 487 -1654 3694 0
-3058 3765 0
-3058 -487 0
-3058 1654 0
-3058 -3694 0
3059 -2104 3697 -3762 115 0
-3059 2104 0
-3059 -3697 0
-3059 3762 0
-3059 -115 0
6265 60 -3727 3697 -2104 0
-6265 -60 0
-6265 3727 0
-6265 -3697 0
-6265 2104 0
6266 -1715 0
-6266 1715 0
6267 -2110 3691 -4140 589 0
-6267 2110 0
-6267 -3691 0
-6267 4140 0
-6267 -589 0
6268 3262 -3264 -2395 0
-6268 -3262 0
-6268 3264 0
-6268 2395 0
6269 3699 -3916 337 -2116 0
-6269 -3699 0
-6269 3916 0
-6269 -337 0
-6269 2116 0
6270 3205 -2454 -3206 0
-6270 -3205 0
-6270 2454 0
-6270 3206 0
3062 -6271 0
-3062 6271 0
6272 462 -1654 -4029 3694 0
-6272 -462 0
-6272 1654 0
-6272 4029 0
-6272 -3694 0
6273 -2415 3237 -3236 0
-6273 2415 0
-6273 -3237 0
-6273 3236 0
3064 648 -2110 -4189 3691 0
-3064 -648 0
-3064 2110 0
-3064 4189 0
-3064 -3691 0
3065 -4077 522 -1654 3694 0
-3065 4077 0
-3065 -522 0
-3065 1654 0
-3065 -3694 0
3066 -2104 3697 -3816 203 0
-3066 2104 0
-3066 -3697 0
-3066 3816 0
-3066 -203 0
3067 936 -3060 -4276 3174 0
-3067 -936 0
-3067 3060 0
-3067 4276 0
-3067 -3174 0
3068 3699 395 -2116 -3966 0
-3068 -3699 0
-3068 -395 0
-3068 2116 0
-3068 3966 0
3069 -1731 0
-3069 1731 0
6274 -6275 0
-6274 6275 0
6276 -1734 0
-6276 1734 0
6277 -6278 0
-6277 6278 0
6279 100 -3753 3697 -2104 0
-6279 -100 0
-6279 3753 0
-6279 -3697 0
-6279 2104 0
6280 -6281 0
-6280 6281 0
6282 -6283 0
-6282 6283 0
1843 -1842 0
-1843 1842 0
3073 -6284 0
-3073 6284 0
3074 -3765 487 3694 -1807 0
-3074 3765 0
-3074 -487 0
-3074 -3694 0
-3074 1807 0
3075 3241 -2828 -3242 0
-3075 -3241 0
-3075 2828 0
-3075 3242 0
3076 614 -3768 3691 -2112 0
-3076 -614 0
-3076 3768 0
-3076 -3691 0
-3076 2112 0
3077 3699 361 -2118 -3763 0
-3077 -3699 0
-3077 -361 0
-3077 2118 0
-3077 3763 0
3078 -6285 0
-3078 6285 0
3079 -2106 3697 -3762 115 0
-3079 2106 0
-3079 -3697 0
-3079 3762 0
-3079 -115 0
6286 3205 -2578 -3206 0
-6286 -3205 0
-6286 2578 0
-6286 3206 0
6287 462 -4029 3694 -1807 0
-6287 -462 0
-6287 4029 0
-6287 -3694 0
-6287 1807 0
6288 -2536 3237 -3236 0
-6288 2536 0
-6288 -3237 0
-6288 3236 0
6289 3262 -3264 -2516 0
-6289 -3262 0
-6289 3264 0
-6289 2516 0
3081 -6290 0
-3081 6290 0
6291 60 -2106 -3727 3697 0
-6291 -60 0
-6291 2106 0
-6291 3727 0
-6291 -3697 0
6292 -2112 3691 -4140 589 0
-6292 2112 0
-6292 -3691 0
-6292 4140 0
-6292 -589 0
6293 3699 -3916 337 -2118 0
-6293 -3699 0
-6293 3916 0
-6293 -337 0
-6293 2118 0
6294 -1867 0
-6294 1867 0
3084 936 -4276 -3080 3174 0
-3084 -936 0
-3084 4276 0
-3084 3080 0
-3084 -3174 0
3085 -2106 3697 -3816 203 0
-3085 2106 0
-3085 -3697 0
-3085 3816 0
-3085 -203 0
3086 -1883 0
-3086 1883 0
3087 3699 395 -2118 -3966 0
-3087 -3699 0
-3087 -395 0
-3087 2118 0
-3087 3966 0
3088 -4077 522 3694 -1807 0
-3088 4077 0
-3088 -522 0
-3088 -3694 0
-3088 1807 0
3089 648 -4189 3691 -2112 0
-3089 -648 0
-3089 4189 0
-3089 -3691 0
-3089 2112 0
1887 -1886 0
-1887 1886 0
3092 -6295 0
-3092 6295 0
3093 3699 -3931 355 -2118 0
-3093 -3699 0
-3093 3931 0
-3093 -355 0
-3093 2118 0
3094 -2112 3691 -4154 608 0
-3094 2112 0
-3094 -3691 0
-3094 4154 0
-3094 -608 0
3095 481 -4044 3694 -1807 0
-3095 -481 0
-3095 4044 0
-3095 -3694 0
-3095 1807 0
3091 -6296 0
-3091 6296 0
3097 -18 3691 -4154 608 0
-3097 18 0
-3097 -3691 0
-3097 4154 0
-3097 -608 0
3098 3699 -3931 355 -8 0
-3098 -3699 0
-3098 3931 0
-3098 -355 0
-3098 8 0
3099 481 -13 -4044 3694 0
-3099 -481 0
-3099 13 0
-3099 4044 0
-3099 -3694 0
2033 -2032 0
-2033 2032 0
3100 -6297 0
-3100 6297 0
3101 -6298 0
-3101 6298 0
6299 -3027 -3269 3271 0
-6299 3027 0
-6299 3269 0
-6299 -3271 0
3105 110 -3759 3697 -2102 0
-3105 -110 0
-3105 3759 0
-3105 -3697 0
-3105 2102 0
3106 -4159 612 3691 -2108 0
-3106 4159 0
-3106 -612 0
-3106 -3691 0
-3106 2108 0
3107 -6300 0
-3107 6300 0
3108 -6301 0
-3108 6301 0
3109 3699 -2114 -3936 359 0
-3109 -3699 0
-3109 2114 0
-3109 3936 0
-3109 -359 0
1512 -1511 0
-1512 1511 0
1662 -1661 0
-1662 1661 0
3111 -4159 612 3691 -2110 0
-3111 4159 0
-3111 -612 0
-3111 -3691 0
-3111 2110 0
3112 -6302 0
-3112 6302 0
3113 -1654 485 3694 -4048 0
-3113 1654 0
-3113 -485 0
-3113 -3694 0
-3113 4048 0
3114 -6303 0
-3114 6303 0
3115 110 -3759 3697 -2104 0
-3115 -110 0
-3115 3759 0
-3115 -3697 0
-3115 2104 0
1814 -1813 0
-1814 1813 0
3117 485 -1807 3694 -4048 0
-3117 -485 0
-3117 1807 0
-3117 -3694 0
-3117 4048 0
3118 110 -3759 -2106 3697 0
-3118 -110 0
-3118 3759 0
-3118 2106 0
-3118 -3697 0
3119 -4159 612 -2112 3691 0
-3119 4159 0
-3119 -612 0
-3119 2112 0
-3119 -3691 0
3120 -6304 0
-3120 6304 0
3121 -6305 0
-3121 6305 0
-6306 4509 4510 0
6306 -4509 0
6306 -4510 0
-6307 4294 4293 0
6307 -4294 0
6307 -4293 0
-6308 4813 2479 0
6308 -4813 0
6308 -2479 0
-6309 3197 3311 0
6309 -3197 0
6309 -3311 0
-6310 3424 3368 0
6310 -3424 0
6310 -3368 0
-6311 3562 3520 0
6311 -3562 0
6311 -3520 0
-6312 3593 3679 0
6312 -3593 0
6312 -3679 0
6313 857 -4266 3219 0
-6313 -857 0
-6313 4266 0
-6313 -3219 0
-6314 4411 4391 0
6314 -4411 0
6314 -4391 0
-6315 4557 4533 0
6315 -4557 0
6315 -4533 0
-6316 4734 4697 0
6316 -4734 0
6316 -4697 0
6317 3312 3313 -3314 0
-6317 -3312 0
-6317 -3313 0
-6317 3314 0
-6318 4950 4985 0
6318 -4950 0
6318 -4985 0
-6319 5018 5028 0
6319 -5018 0
6319 -5028 0
-6320 5108 5076 0
6320 -5108 0
6320 -5076 0
-6321 5151 5134 0
6321 -5151 0
6321 -5134 0
-6322 5204 5189 0
6322 -5204 0
6322 -5189 0
-6323 5279 5237 0
6323 -5279 0
6323 -5237 0
-6324 5320 5352 0
6324 -5320 0
6324 -5352 0
-6325 5369 5401 0
6325 -5369 0
6325 -5401 0
-6326 5443 5471 0
6326 -5443 0
6326 -5471 0
5568 -6313 -2217 0
-5568 6313 0
-5568 2217 0
3724 1075 -4295 -93 3198 0
-3724 -1075 0
-3724 4295 0
-3724 93 0
-3724 -3198 0
-6327 5575 5576 1519 5577 5578 5579 0
6327 -5575 0
6327 -5576 0
6327 -1519 0
6327 -5577 0
6327 -5578 0
6327 -5579 0
-6328 5651 5652 5653 5654 5655 1670 0
6328 -5651 0
6328 -5652 0
6328 -5653 0
6328 -5654 0
6328 -5655 0
6328 -1670 0
-6329 1821 5715 5716 5717 5718 5719 0
6329 -1821 0
6329 -5715 0
6329 -5716 0
6329 -5717 0
6329 -5718 0
6329 -5719 0
-6330 5791 5792 5793 1967 5794 5795 0
6330 -5791 0
6330 -5792 0
6330 -5793 0
6330 -1967 0
6330 -5794 0
6330 -5795 0
-6331 4267 4268 0
6331 -4267 0
6331 -4268 0
4453 3219 -3822 854 -1518 0
-4453 -3219 0
-4453 3822 0
-4453 -854 0
-4453 1518 0
-6332 4452 2216 0
6332 -4452 0
6332 -2216 0
-6333 4454 4455 0
6333 -4454 0
6333 -4455 0
-6334 2266 4592 0
6334 -2266 0
6334 -4592 0
-6335 4745 2386 0
6335 -4745 0
6335 -2386 0
-6336 4746 2388 0
6336 -4746 0
6336 -2388 0
-6337 2507 4842 0
6337 -2507 0
6337 -4842 0
-6338 2509 4843 0
6338 -2509 0
6338 -4843 0
5019 -1666 -6317 0
-5019 1666 0
-5019 6317 0
-6339 5581 5584 5585 0
6339 -5581 0
6339 -5584 0
6339 -5585 0
-6340 5659 5660 5661 0
6340 -5659 0
6340 -5660 0
6340 -5661 0
-6341 5725 5721 5723 0
6341 -5725 0
6341 -5721 0
6341 -5723 0
-6342 5482 5483 5484 0
6342 -5482 0
6342 -5483 0
6342 -5484 0
-6343 5786 5787 5789 0
6343 -5786 0
6343 -5787 0
6343 -5789 0
-6344 6000 5998 5999 0
6344 -6000 0
6344 -5998 0
6344 -5999 0
-6345 6343 5790 0
6345 -6343 0
6345 -5790 0
-6346 6344 5997 0
6346 -6344 0
6346 -5997 0
6347 3195 -4261 818 0
-6347 -3195 0
-6347 4261 0
-6347 -818 0
6348 820 3195 0
-6348 -820 0
-6348 -3195 0
-6349 5996 6346 0
6349 -5996 0
6349 -6346 0
6350 3195 -4261 818 0
-6350 -3195 0
-6350 4261 0
-6350 -818 0
6351 -3345 3196 0
-6351 3345 0
-6351 -3196 0
6352 3195 -1663 0
-6352 -3195 0
-6352 1663 0
6353 3195 -4261 818 0
-6353 -3195 0
-6353 4261 0
-6353 -818 0
6354 -3529 813 0
-6354 3529 0
-6354 -813 0
6355 3195 -1663 0
-6355 -3195 0
-6355 1663 0
6356 3195 -1663 0
-6356 -3195 0
-6356 1663 0
6357 -6348 -2679 0
-6357 6348 0
-6357 2679 0
6358 820 -2804 3195 0
-6358 -820 0
-6358 2804 0
-6358 -3195 0
6359 820 3195 -2765 0
-6359 -820 0
-6359 -3195 0
-6359 2765 0
6360 820 -2709 3195 0
-6360 -820 0
-6360 2709 0
-6360 -3195 0
6361 820 3195 -2622 0
-6361 -820 0
-6361 -3195 0
-6361 2622 0
-6362 5788 6345 0
6362 -5788 0
6362 -6345 0
4666 3195 -4261 818 -1663 0
-4666 -3195 0
-4666 4261 0
-4666 -818 0
-4666 1663 0
3793 -47 -6347 0
-3793 47 0
-3793 6347 0
-6363 1963 6362 0
6363 -1963 0
6363 -6362 0
-6364 4260 4259 0
6364 -4260 0
6364 -4259 0
-6365 5923 5924 5925 5926 5927 5928 0
6365 -5923 0
6365 -5924 0
6365 -5925 0
6365 -5926 0
6365 -5927 0
6365 -5928 0
-6366 6001 6349 0
6366 -6001 0
6366 -6349 0
4820 -6350 -1815 0
-4820 6350 0
-4820 1815 0
5358 -6351 -6352 0
-5358 6351 0
-5358 6352 0
-6367 4514 2257 0
6367 -4514 0
6367 -2257 0
4916 3195 -4261 818 -1962 0
-4916 -3195 0
-4916 4261 0
-4916 -818 0
-4916 1962 0
4515 -1513 -6353 0
-4515 1513 0
-4515 6353 0
-6368 4664 4665 0
6368 -4664 0
6368 -4665 0
4541 -6354 -6355 0
-4541 6354 0
-4541 6355 0
-6369 4819 4821 0
6369 -4819 0
6369 -4821 0
-6370 4840 2805 0
6370 -4840 0
6370 -2805 0
5045 -6356 -3196 0
-5045 6356 0
-5045 3196 0
-6371 5191 5180 0
6371 -5191 0
6371 -5180 0
-6372 6322 5213 0
6372 -6322 0
6372 -5213 0
-6373 3165 3194 0
6373 -3165 0
6373 -3194 0
-6374 3218 6309 0
6374 -3218 0
6374 -6309 0
-6375 3344 3332 0
6375 -3344 0
6375 -3332 0
-6376 3352 6310 0
6376 -3352 0
6376 -6310 0
-6377 3528 3536 0
6377 -3528 0
6377 -3536 0
-6378 3488 6311 0
6378 -3488 0
6378 -6311 0
-6379 3619 3641 0
6379 -3619 0
6379 -3641 0
-6380 6312 3607 0
6380 -6312 0
6380 -3607 0
-6381 4397 4392 0
6381 -4397 0
6381 -4392 0
-6382 4437 6314 0
6382 -4437 0
6382 -6314 0
-6383 4543 4540 0
6383 -4543 0
6383 -4540 0
-6384 6315 4532 0
6384 -6315 0
6384 -4532 0
-6385 4724 4715 0
6385 -4724 0
6385 -4715 0
-6386 6316 4696 0
6386 -6316 0
6386 -4696 0
-6387 4939 4949 0
6387 -4939 0
6387 -4949 0
-6388 6318 4961 0
6388 -6318 0
6388 -4961 0
-6389 5044 5033 0
6389 -5044 0
6389 -5033 0
-6390 5047 6319 0
6390 -5047 0
6390 -6319 0
-6391 5100 5107 0
6391 -5100 0
6391 -5107 0
-6392 6320 5110 0
6392 -6320 0
6392 -5110 0
-6393 5163 5171 0
6393 -5163 0
6393 -5171 0
-6394 6321 5155 0
6394 -6321 0
6394 -5155 0
-6395 5264 5250 0
6395 -5264 0
6395 -5250 0
-6396 5286 6323 0
6396 -5286 0
6396 -6323 0
-6397 5301 5328 0
6397 -5301 0
6397 -5328 0
-6398 6324 5318 0
6398 -6324 0
6398 -5318 0
-6399 5396 5357 0
6399 -5396 0
6399 -5357 0
-6400 5363 6325 0
6400 -5363 0
6400 -6325 0
-6401 5424 5433 0
6401 -5424 0
6401 -5433 0
-6402 5436 6326 0
6402 -5436 0
6402 -6326 0
-6403 3718 3719 0
6403 -3718 0
6403 -3719 0
-6404 3910 3912 0
6404 -3910 0
6404 -3912 0
-6405 4023 4025 0
6405 -4023 0
6405 -4025 0
-6406 4134 4135 0
6406 -4134 0
6406 -4135 0
-6407 5828 5823 0
6407 -5828 0
6407 -5823 0
5975 532 -1654 -4088 3694 0
-5975 -532 0
-5975 1654 0
-5975 4088 0
-5975 -3694 0
5977 224 -3831 3697 -2104 0
-5977 -224 0
-5977 3831 0
-5977 -3697 0
-5977 2104 0
-6408 2794 4827 0
6408 -2794 0
6408 -4827 0
6409 1412 3474 -1799 0
-6409 -1412 0
-6409 -3474 0
-6409 1799 0
6410 -4355 4354 0
-6410 4355 0
-6410 -4354 0
6411 -1949 3474 0
-6411 1949 0
-6411 -3474 0
6412 -4360 1409 3474 0
-6412 4360 0
-6412 -1409 0
-6412 -3474 0
6413 1412 3474 -1949 0
-6413 -1412 0
-6413 -3474 0
-6413 1949 0
6414 1402 -4358 0
-6414 -1402 0
-6414 4358 0
6415 3474 -1799 0
-6415 -3474 0
-6415 1799 0
6416 -4355 4354 0
-6416 4355 0
-6416 -4354 0
6417 3474 -2094 0
-6417 -3474 0
-6417 2094 0
6418 1412 3474 -2094 0
-6418 -1412 0
-6418 -3474 0
-6418 2094 0
6419 1402 -4358 0
-6419 -1402 0
-6419 4358 0
6420 -1949 3474 0
-6420 1949 0
-6420 -3474 0
6421 1402 -4358 0
-6421 -1402 0
-6421 4358 0
6422 3474 -2094 0
-6422 -3474 0
-6422 2094 0
6423 -4355 4354 0
-6423 4355 0
-6423 -4354 0
6424 3474 -1799 0
-6424 -3474 0
-6424 1799 0
4652 -3882 -6409 0
-4652 3882 0
-4652 6409 0
5112 -6410 -6411 0
-5112 6410 0
-5112 6411 0
5824 -2204 3212 -3211 0
-5824 2204 0
-5824 -3212 0
-5824 3211 0
5826 224 -3831 3697 -3 0
-5826 -224 0
-5826 3831 0
-5826 -3697 0
-5826 3 0
5827 532 -13 -4088 3694 0
-5827 -532 0
-5827 13 0
-5827 4088 0
-5827 -3694 0
-6425 5621 5622 5623 5619 5620 0
6425 -5621 0
6425 -5622 0
6425 -5623 0
6425 -5619 0
6425 -5620 0
-2650 5825 6407 0
2650 -5825 0
2650 -6407 0
-6426 4357 4356 0
6426 -4357 0
6426 -4356 0
-6427 4359 4361 0
6427 -4359 0
6427 -4361 0
-6428 5905 5906 5908 5909 5910 5911 1648 0
6428 -5905 0
6428 -5906 0
6428 -5908 0
6428 -5909 0
6428 -5910 0
6428 -5911 0
6428 -1648 0
-6429 5970 5972 5973 5974 5976 5978 5979 0
6429 -5970 0
6429 -5972 0
6429 -5973 0
6429 -5974 0
6429 -5976 0
6429 -5978 0
6429 -5979 0
4804 -3882 -6413 0
-4804 3882 0
-4804 6413 0
-6430 6048 6049 6050 6051 6053 6054 1950 0
6430 -6048 0
6430 -6049 0
6430 -6050 0
6430 -6051 0
6430 -6053 0
6430 -6054 0
6430 -1950 0
5383 -6414 -6415 0
-5383 6414 0
-5383 6415 0
3231 -6416 -6417 0
-3231 6416 0
-3231 6417 0
-6431 4519 4520 0
6431 -4519 0
6431 -4520 0
4903 -6418 -3882 0
-4903 6418 0
-4903 3882 0
5453 -6419 -6420 0
-5453 6419 0
-5453 6420 0
3391 -6421 -6422 0
-3391 6421 0
-3391 6422 0
-6432 4802 4803 0
6432 -4802 0
6432 -4803 0
5032 -6423 -6424 0
-5032 6423 0
-5032 6424 0
-6433 4901 4902 0
6433 -4901 0
6433 -4902 0
-6434 3566 3473 0
6434 -3566 0
6434 -3473 0
-6435 6377 6378 0
6435 -6377 0
6435 -6378 0
-6436 3675 3585 0
6436 -3675 0
6436 -3585 0
-6437 6380 6379 0
6437 -6380 0
6437 -6379 0
-6438 4576 4569 0
6438 -4576 0
6438 -4569 0
-6439 6383 6384 0
6439 -6383 0
6439 -6384 0
-6440 5144 5124 0
6440 -5144 0
6440 -5124 0
-6441 6393 6394 0
6441 -6393 0
6441 -6394 0
-6442 5211 5205 0
6442 -5211 0
6442 -5205 0
-6443 6372 6371 0
6443 -6372 0
6443 -6371 0
-6444 5236 5276 0
6444 -5236 0
6444 -5276 0
-6445 6396 6395 0
6445 -6396 0
6445 -6395 0
-6446 4676 4728 0
6446 -4676 0
6446 -4728 0
-6447 6385 6386 0
6447 -6385 0
6447 -6386 0
-6448 3230 3210 0
6448 -3230 0
6448 -3210 0
-6449 6373 6374 0
6449 -6373 0
6449 -6374 0
-6450 3390 3398 0
6450 -3390 0
6450 -3398 0
-6451 6375 6376 0
6451 -6375 0
6451 -6376 0
-6452 4433 4426 0
6452 -4433 0
6452 -4426 0
-6453 6381 6382 0
6453 -6381 0
6453 -6382 0
-6454 4959 4960 0
6454 -4959 0
6454 -4960 0
-6455 6388 6387 0
6455 -6388 0
6455 -6387 0
-6456 5031 5052 0
6456 -5031 0
6456 -5052 0
-6457 6389 6390 0
6457 -6389 0
6457 -6390 0
-6458 5111 5087 0
6458 -5111 0
6458 -5087 0
-6459 6391 6392 0
6459 -6391 0
6459 -6392 0
-6460 5337 5332 0
6460 -5337 0
6460 -5332 0
-6461 6397 6398 0
6461 -6397 0
6461 -6398 0
-6462 5390 5382 0
6462 -5390 0
6462 -5382 0
-6463 6399 6400 0
6463 -6399 0
6463 -6400 0
-6464 5452 5462 0
6464 -5452 0
6464 -5462 0
-6465 6401 6402 0
6465 -6401 0
6465 -6402 0
3717 -6412 -231 0
-3717 6412 0
-3717 231 0
5829 -4262 -6361 0
-5829 4262 0
-5829 6361 0
4744 -1949 -4360 1409 3474 0
-4744 1949 0
-4744 4360 0
-4744 -1409 0
-4744 -3474 0
5853 -6357 -4262 0
-5853 6357 0
-5853 4262 0
5907 -4262 -6360 0
-5907 4262 0
-5907 6360 0
4841 -4360 1409 -2094 3474 0
-4841 4360 0
-4841 -1409 0
-4841 2094 0
-4841 -3474 0
4451 -1647 -4360 1409 3474 0
-4451 1647 0
-4451 4360 0
-4451 -1409 0
-4451 -3474 0
5971 -6359 -4262 0
-5971 6359 0
-5971 4262 0
6052 -6358 -4262 0
-6052 6358 0
-6052 4262 0
4591 -4360 1409 -1799 3474 0
-4591 4360 0
-4591 -1409 0
-4591 1799 0
-4591 -3474 0
-6466 5546 5548 0
6466 -5546 0
6466 -5548 0
-6467 5544 5547 5549 5550 0
6467 -5544 0
6467 -5547 0
6467 -5549 0
6467 -5550 0
6468 3316 -4382 1498 0
-6468 -3316 0
-6468 4382 0
-6468 -1498 0
-6469 5863 5865 0
6469 -5863 0
6469 -5865 0
-6470 5860 5861 5862 5859 0
6470 -5860 0
6470 -5861 0
6470 -5862 0
6470 -5859 0
-6471 5990 5991 0
6471 -5990 0
6471 -5991 0
-6472 5989 5992 5993 5988 0
6472 -5989 0
6472 -5992 0
6472 -5993 0
6472 -5988 0
6473 3316 -4382 1498 0
-6473 -3316 0
-6473 4382 0
-6473 -1498 0
6474 -4380 1494 3316 0
-6474 4380 0
-6474 -1494 0
-6474 -3316 0
6475 1496 -4381 3316 0
-6475 -1496 0
-6475 4381 0
-6475 -3316 0
-6476 6467 6466 0
6476 -6467 0
6476 -6466 0
-6477 6471 6472 0
6477 -6471 0
6477 -6472 0
-6478 6469 6470 0
6478 -6469 0
6478 -6470 0
-6479 6476 1957 0
6479 -6476 0
6479 -1957 0
-6480 677 4217 0
6480 -677 0
6480 -4217 0
-6481 5678 5679 5676 1746 5677 0
6481 -5678 0
6481 -5679 0
6481 -5676 0
6481 -1746 0
6481 -5677 0
5601 267 3697 -3859 -2102 0
-5601 -267 0
-5601 -3697 0
-5601 3859 0
-5601 2102 0
5602 423 3699 -3995 -2114 0
-5602 -423 0
-5602 -3699 0
-5602 3995 0
-5602 2114 0
5603 550 -4105 3694 -1504 0
-5603 -550 0
-5603 4105 0
-5603 -3694 0
-5603 1504 0
5604 -2108 3691 676 -4218 0
-5604 2108 0
-5604 -3691 0
-5604 -676 0
-5604 4218 0
5864 -3863 272 3697 -2102 0
-5864 3863 0
-5864 -272 0
-5864 -3697 0
-5864 2102 0
-6482 1810 6477 0
6482 -1810 0
6482 -6477 0
5920 -1654 552 3694 -4107 0
-5920 1654 0
-5920 -552 0
-5920 -3694 0
-5920 4107 0
5921 -3863 272 3697 -2104 0
-5921 3863 0
-5921 -272 0
-5921 -3697 0
-5921 2104 0
-6483 4378 4379 0
6483 -4378 0
6483 -4379 0
-6484 2234 4491 0
6484 -2234 0
6484 -4491 0
5994 -2550 -6473 0
-5994 2550 0
-5994 6473 0
-6485 424 3994 0
6485 -424 0
6485 -3994 0
-6486 4634 4635 0
6486 -4634 0
6486 -4635 0
-6487 4788 2429 0
6487 -4788 0
6487 -2429 0
3559 -2042 -6474 0
-3559 2042 0
-3559 6474 0
3650 -6475 -2042 0
-3650 6475 0
-3650 2042 0
5545 -6468 -2194 0
-5545 6468 0
-5545 2194 0
-6488 3207 3153 0
6488 -3207 0
6488 -3153 0
-6489 3422 3366 0
6489 -3422 0
6489 -3366 0
-6490 3457 3526 0
6490 -3457 0
6490 -3526 0
-6491 3657 3601 0
6491 -3657 0
6491 -3601 0
-6492 4416 4393 0
6492 -4416 0
6492 -4393 0
-6493 4561 4556 0
6493 -4561 0
6493 -4556 0
-6494 4681 4714 0
6494 -4681 0
6494 -4714 0
-6495 4958 4952 0
6495 -4958 0
6495 -4952 0
-6496 5030 5025 0
6496 -5030 0
6496 -5025 0
-6497 5094 5088 0
6497 -5094 0
6497 -5088 0
-6498 5153 5117 0
6498 -5153 0
6498 -5117 0
-6499 5177 5227 0
6499 -5177 0
6499 -5227 0
-6500 5239 5269 0
6500 -5239 0
6500 -5269 0
-6501 5319 5346 0
6501 -5319 0
6501 -5346 0
-6502 5376 5413 0
6502 -5376 0
6502 -5413 0
-6503 5442 5449 0
6503 -5442 0
6503 -5449 0
-6504 1507 6478 0
6504 -1507 0
6504 -6478 0
-280 2201 3864 0
280 -2201 0
280 -3864 0
-6505 4263 4264 0
6505 -4263 0
6505 -4264 0
-6506 4445 4446 0
6506 -4445 0
6506 -4446 0
-6507 4289 4290 0
6507 -4289 0
6507 -4290 0
-6508 4735 4737 0
6508 -4735 0
6508 -4737 0
-6509 4832 2797 0
6509 -4832 0
6509 -2797 0
4636 1032 -1656 3155 -3860 0
-4636 -1032 0
-4636 1656 0
-4636 -3155 0
-4636 3860 0
6510 3291 -3290 0
-6510 -3291 0
-6510 3290 0
6511 3291 -3290 0
-6511 -3291 0
-6511 3290 0
6512 3291 -3290 0
-6512 -3291 0
-6512 3290 0
6513 3291 -3290 0
-6513 -3291 0
-6513 3290 0
-284 3868 3870 0
284 -3868 0
284 -3870 0
-6514 4492 4493 0
6514 -4492 0
6514 -4493 0
-6515 4637 4638 0
6515 -4637 0
6515 -4638 0
-6516 4789 4790 0
6516 -4789 0
6516 -4790 0
-6517 4888 4889 0
6517 -4888 0
6517 -4889 0
-6518 6488 3315 0
6518 -6488 0
6518 -3315 0
-6519 6489 3362 0
6519 -6489 0
6519 -3362 0
-6520 6490 3558 0
6520 -6490 0
6520 -3558 0
-6521 3649 6491 0
6521 -3649 0
6521 -6491 0
-6522 6492 4410 0
6522 -6492 0
6522 -4410 0
-6523 4555 6493 0
6523 -4555 0
6523 -6493 0
-6524 4713 6494 0
6524 -4713 0
6524 -6494 0
-6525 4982 6495 0
6525 -4982 0
6525 -6495 0
-6526 6496 4995 0
6526 -6496 0
6526 -4995 0
-6527 5061 6497 0
6527 -5061 0
6527 -6497 0
-6528 6498 5115 0
6528 -6498 0
6528 -5115 0
-6529 5176 6499 0
6529 -5176 0
6529 -6499 0
-6530 6500 5267 0
6530 -6500 0
6530 -5267 0
-6531 5316 6501 0
6531 -5316 0
6531 -6501 0
-6532 5365 6502 0
6532 -5365 0
6532 -6502 0
-6533 5439 6503 0
6533 -5439 0
6533 -6503 0
5832 680 -4222 3691 -18 0
-5832 -680 0
-5832 4222 0
-5832 -3691 0
-5832 18 0
5890 680 -2108 -4222 3691 0
-5890 -680 0
-5890 2108 0
-5890 4222 0
-5890 -3691 0
-6534 3862 3861 0
6534 -3862 0
6534 -3861 0
5952 680 -2110 -4222 3691 0
-5952 -680 0
-5952 2110 0
-5952 4222 0
-5952 -3691 0
-6535 426 3996 0
6535 -426 0
6535 -3996 0
6025 680 -4222 3691 -2112 0
-6025 -680 0
-6025 4222 0
-6025 -3691 0
-6025 2112 0
-6536 4106 4108 0
6536 -4106 0
6536 -4108 0
-6537 6522 4394 0
6537 -6522 0
6537 -4394 0
-6538 6453 6452 0
6538 -6453 0
6538 -6452 0
-6539 4539 6523 0
6539 -4539 0
6539 -6523 0
-6540 6438 6439 0
6540 -6438 0
6540 -6439 0
-6541 4716 6524 0
6541 -4716 0
6541 -6524 0
-6542 6446 6447 0
6542 -6446 0
6542 -6447 0
-6543 5136 6528 0
6543 -5136 0
6543 -6528 0
-6544 6440 6441 0
6544 -6440 0
6544 -6441 0
-6545 6529 5196 0
6545 -6529 0
6545 -5196 0
-6546 6442 6443 0
6546 -6442 0
6546 -6443 0
-6547 6530 5268 0
6547 -6530 0
6547 -5268 0
-6548 6445 6444 0
6548 -6445 0
6548 -6444 0
-6549 6518 3289 0
6549 -6518 0
6549 -3289 0
-6550 6448 6449 0
6550 -6448 0
6550 -6449 0
-6551 6519 3428 0
6551 -6519 0
6551 -3428 0
-6552 6450 6451 0
6552 -6450 0
6552 -6451 0
-6553 6525 4977 0
6553 -6525 0
6553 -4977 0
-6554 6454 6455 0
6554 -6454 0
6554 -6455 0
-6555 6526 5004 0
6555 -6526 0
6555 -5004 0
-6556 6456 6457 0
6556 -6456 0
6556 -6457 0
-6557 6527 5068 0
6557 -6527 0
6557 -5068 0
-6558 6458 6459 0
6558 -6458 0
6558 -6459 0
-6559 5310 6531 0
6559 -5310 0
6559 -6531 0
-6560 6461 6460 0
6560 -6461 0
6560 -6460 0
-6561 5406 6532 0
6561 -5406 0
6561 -6532 0
-6562 6462 6463 0
6562 -6462 0
6562 -6463 0
-6563 5416 6533 0
6563 -5416 0
6563 -6533 0
-6564 6464 6465 0
6564 -6464 0
6564 -6465 0
-6565 3530 6520 0
6565 -3530 0
6565 -6520 0
-6566 6434 6435 0
6566 -6434 0
6566 -6435 0
-6567 3573 6521 0
6567 -3573 0
6567 -6521 0
-6568 6437 6436 0
6568 -6437 0
6568 -6436 0
-6569 5583 6339 0
6569 -5583 0
6569 -6339 0
-6570 5658 6340 0
6570 -5658 0
6570 -6340 0
-6571 6341 5722 0
6571 -6341 0
6571 -5722 0
-6572 5481 6342 0
6572 -5481 0
6572 -6342 0
-6573 6569 5582 0
6573 -6569 0
6573 -5582 0
-94 3744 2633 0
94 -3744 0
94 -2633 0
5831 3198 -2632 1079 -4297 0
-5831 -3198 0
-5831 2632 0
-5831 -1079 0
-5831 4297 0
-6574 6570 5657 0
6574 -6570 0
6574 -5657 0
6575 3198 1079 -2250 -4297 0
-6575 -3198 0
-6575 -1079 0
-6575 2250 0
-6575 4297 0
-6576 5724 6571 0
6576 -5724 0
6576 -6571 0
5889 3198 1079 -4297 -2356 0
-5889 -3198 0
-5889 -1079 0
-5889 4297 0
-5889 2356 0
4814 -1898 3291 1451 -3745 0
-4814 1898 0
-4814 -3291 0
-4814 -1451 0
-4814 3745 0
5951 3198 -2478 1079 -4297 0
-5951 -3198 0
-5951 2478 0
-5951 -1079 0
-5951 4297 0
6024 3198 1079 -2598 -4297 0
-6024 -3198 0
-6024 -1079 0
-6024 2598 0
-6024 4297 0
4511 -1590 3291 1451 -3745 0
-4511 1590 0
-4511 -3291 0
-4511 -1451 0
-4511 3745 0
-6577 2357 4661 0
6577 -2357 0
6577 -4661 0
-6578 4912 2599 0
6578 -4912 0
6578 -2599 0
-6579 5480 6572 0
6579 -5480 0
6579 -6572 0
-6580 4237 4238 0
6580 -4237 0
6580 -4238 0
-6581 6181 6183 6184 0
6581 -6181 0
6581 -6183 0
6581 -6184 0
-6582 6203 6206 6208 0
6582 -6203 0
6582 -6206 0
6582 -6208 0
-6583 6226 6228 6223 0
6583 -6226 0
6583 -6228 0
6583 -6223 0
-6584 6581 6185 0
6584 -6581 0
6584 -6185 0
6585 733 -4244 3319 0
-6585 -733 0
-6585 4244 0
-6585 -3319 0
-6586 6584 6186 0
6586 -6584 0
6586 -6186 0
-6587 6202 6582 0
6587 -6202 0
6587 -6582 0
-6588 6583 6225 0
6588 -6583 0
6588 -6225 0
-6589 6587 6204 0
6589 -6587 0
6589 -6204 0
-6590 6227 6588 0
6590 -6227 0
6590 -6588 0
-6591 6586 6180 0
6591 -6586 0
6591 -6180 0
-6592 6209 6589 0
6592 -6209 0
6592 -6589 0
-6593 6590 6230 0
6593 -6590 0
6593 -6230 0
6162 -3819 207 3697 -2102 0
-6162 3819 0
-6162 -207 0
-6162 -3697 0
-6162 2102 0
-2969 1675 6591 0
2969 -1675 0
2969 -6591 0
-2989 1826 6592 0
2989 -1826 0
2989 -6592 0
-3003 1971 6593 0
3003 -1971 0
3003 -6593 0
-29 3702 3704 0
29 -3702 0
29 -3704 0
-6594 4242 4240 0
6594 -4242 0
6594 -4240 0
-6595 6137 6139 6141 6143 6145 6147 6148 6150 0
6595 -6137 0
6595 -6139 0
6595 -6141 0
6595 -6143 0
6595 -6145 0
6595 -6147 0
6595 -6148 0
6595 -6150 0
-6596 4460 4459 0
6596 -4460 0
6596 -4459 0
-6597 4284 4285 0
6597 -4284 0
6597 -4285 0
-6598 4594 4595 0
6598 -4594 0
6598 -4595 0
-6599 4748 4749 0
6599 -4748 0
6599 -4749 0
-6600 4847 4848 0
6600 -4847 0
6600 -4848 0
4769 -3826 3127 -1822 1425 0
-4769 3826 0
-4769 -3127 0
-4769 1822 0
-4769 -1425 0
-6601 4363 4362 0
6601 -4363 0
6601 -4362 0
-6602 1521 6157 6158 6159 6161 6156 0
6602 -1521 0
6602 -6157 0
6602 -6158 0
6602 -6159 0
6602 -6161 0
6602 -6156 0
-6603 6174 6175 6176 6177 6178 6179 0
6603 -6174 0
6603 -6175 0
6603 -6176 0
6603 -6177 0
6603 -6178 0
6603 -6179 0
-6604 4456 4457 0
6604 -4456 0
6604 -4457 0
-6605 4844 4846 0
6605 -4844 0
6605 -4846 0
-6606 4365 4364 0
6606 -4365 0
6606 -4364 0
-6607 4612 4613 0
6607 -4612 0
6607 -4613 0
6608 1437 -4367 3298 0
-6608 -1437 0
-6608 4367 0
-6608 -3298 0
6609 1437 -4367 3298 0
-6609 -1437 0
-6609 4367 0
-6609 -3298 0
6160 -2857 -6608 0
-6160 2857 0
-6160 6608 0
6201 -2901 -6609 0
-6201 2901 0
-6201 6609 0
-6610 6075 2002 6070 6071 6073 6074 0
6610 -6075 0
6610 -2002 0
6610 -6070 0
6610 -6071 0
6610 -6073 0
6610 -6074 0
4867 -1968 3127 -3826 1425 0
-4867 1968 0
-4867 -3127 0
-4867 3826 0
-4867 -1425 0
-6611 4475 4476 0
6611 -4475 0
6611 -4476 0
-6612 4767 4768 0
6612 -4767 0
6612 -4768 0
6100 -1654 528 3694 -4083 0
-6100 1654 0
-6100 -528 0
-6100 -3694 0
-6100 4083 0
6102 -4195 654 3691 -2110 0
-6102 4195 0
-6102 -654 0
-6102 -3691 0
-6102 2110 0
6103 214 3697 -3824 -2104 0
-6103 -214 0
-6103 -3697 0
-6103 3824 0
-6103 2104 0
6104 3699 -3973 -2116 401 0
-6104 -3699 0
-6104 3973 0
-6104 2116 0
-6104 -401 0
-6613 4866 4868 0
6613 -4866 0
6613 -4868 0
-6614 3297 3125 0
6614 -3297 0
6614 -3125 0
-6615 3224 3318 0
6615 -3224 0
6615 -3318 0
-6616 3404 3394 0
6616 -3404 0
6616 -3394 0
-6617 3330 3382 0
6617 -3330 0
6617 -3382 0
-6618 3560 3467 0
6618 -3560 0
6618 -3467 0
-6619 3502 3504 0
6619 -3502 0
6619 -3504 0
-6620 3651 3615 0
6620 -3651 0
6620 -3615 0
-6621 3667 3575 0
6621 -3667 0
6621 -3575 0
-6622 4421 4409 0
6622 -4421 0
6622 -4409 0
-6623 4441 4442 0
6623 -4441 0
6623 -4442 0
-6624 4567 4552 0
6624 -4567 0
6624 -4552 0
-6625 4581 4525 0
6625 -4581 0
6625 -4525 0
-6626 4686 4731 0
6626 -4686 0
6626 -4731 0
-6627 4703 4705 0
6627 -4703 0
6627 -4705 0
-6628 4929 4941 0
6628 -4929 0
6628 -4941 0
-6629 4957 4984 0
6629 -4957 0
6629 -4984 0
-6630 5012 5008 0
6630 -5012 0
6630 -5008 0
-6631 4997 5050 0
6631 -4997 0
6631 -5050 0
-6632 5071 5082 0
6632 -5071 0
6632 -5082 0
-6633 5109 5075 0
6633 -5109 0
6633 -5075 0
-6634 5162 5116 0
6634 -5162 0
6634 -5116 0
-6635 5120 5146 0
6635 -5120 0
6635 -5146 0
-6636 5226 5195 0
6636 -5226 0
6636 -5195 0
-6637 5198 5221 0
6637 -5198 0
6637 -5221 0
-6638 5246 5263 0
6638 -5246 0
6638 -5263 0
-6639 5272 5291 0
6639 -5272 0
6639 -5291 0
-6640 5338 5299 0
6640 -5338 0
6640 -5299 0
-6641 5321 5330 0
6641 -5321 0
6641 -5330 0
-6642 5370 5392 0
6642 -5370 0
6642 -5392 0
-6643 5414 5359 0
6643 -5414 0
6643 -5359 0
-6644 5465 5460 0
6644 -5465 0
6644 -5460 0
-6645 5450 5428 0
6645 -5450 0
6645 -5428 0
-6646 4190 4192 0
6646 -4190 0
6646 -4192 0
6165 3127 -3126 -2939 0
-6165 -3127 0
-6165 3126 0
-6165 2939 0
6187 -2965 3127 -3126 0
-6187 2965 0
-6187 -3127 0
-6187 3126 0
6207 3127 -3126 -2979 0
-6207 -3127 0
-6207 3126 0
-6207 2979 0
4747 3319 -4243 731 -1825 0
-4747 -3319 0
-4747 4243 0
-4747 -731 0
-4747 1825 0
6229 -2842 3127 -3126 0
-6229 2842 0
-6229 -3127 0
-6229 3126 0
-6647 3818 3820 0
6647 -3818 0
6647 -3820 0
4845 3319 -4243 731 -1970 0
-4845 -3319 0
-4845 4243 0
-4845 -731 0
-4845 1970 0
3889 3319 -4243 731 -28 0
-3889 -3319 0
-3889 4243 0
-3889 -731 0
-3889 28 0
4458 3319 -4243 731 -1522 0
-4458 -3319 0
-4458 4243 0
-4458 -731 0
-4458 1522 0
-6648 3967 3969 0
6648 -3967 0
6648 -3969 0
-6649 4078 4080 0
6649 -4078 0
6649 -4080 0
4593 3319 -4243 731 -1674 0
-4593 -3319 0
-4593 4243 0
-4593 -731 0
-4593 1674 0
6154 3127 -3126 -2924 0
-6154 -3127 0
-6154 3126 0
-6154 2924 0
4660 1045 -1737 -4291 3187 0
-4660 -1045 0
-4660 1737 0
-4660 4291 0
-4660 -3187 0
-6650 5757 5758 5759 5760 5761 0
6650 -5757 0
6650 -5758 0
6650 -5759 0
6650 -5760 0
6650 -5761 0
3806 1045 -4291 -297 3187 0
-3806 -1045 0
-3806 4291 0
-3806 297 0
-3806 -3187 0
4812 1045 -4291 -1888 3187 0
-4812 -1045 0
-4812 4291 0
-4812 1888 0
-4812 -3187 0
4508 1045 -4291 3187 -1581 0
-4508 -1045 0
-4508 4291 0
-4508 -3187 0
-4508 1581 0
-6651 2597 4911 0
6651 -2597 0
6651 -4911 0
-6652 5560 5561 5559 0
6652 -5560 0
6652 -5561 0
6652 -5559 0
-6653 3695 3689 3692 0
6653 -3695 0
6653 -3689 0
6653 -3692 0
-6654 3698 3688 0
6654 -3698 0
6654 -3688 0
-6655 5887 5888 5882 0
6655 -5887 0
6655 -5888 0
6655 -5882 0
-6656 5946 5950 5944 0
6656 -5946 0
6656 -5950 0
6656 -5944 0
-6657 6020 6022 6017 0
6657 -6020 0
6657 -6022 0
6657 -6017 0
-6658 4771 4773 4770 0
6658 -4771 0
6658 -4773 0
6658 -4770 0
-6659 4772 6658 0
6659 -4772 0
6659 -6658 0
-6660 1708 6659 0
6660 -1708 0
6660 -6659 0
4869 688 -3690 3691 -2112 0
-4869 -688 0
-4869 3690 0
-4869 -3691 0
-4869 2112 0
4870 -3696 -2106 295 3697 0
-4870 3696 0
-4870 2106 0
-4870 -295 0
-4870 -3697 0
4871 -3693 562 3694 -1807 0
-4871 3693 0
-4871 -562 0
-4871 -3694 0
-4871 1807 0
-24 6653 6654 0
24 -6653 0
24 -6654 0
-6661 4614 4616 4617 1553 4618 0
6661 -4614 0
6661 -4616 0
6661 -4617 0
6661 -1553 0
6661 -4618 0
4615 3699 435 -2114 -3700 0
-4615 -3699 0
-4615 -435 0
-4615 2114 0
-4615 3700 0
-6662 2437 4795 0
6662 -2437 0
6662 -4795 0
-6663 2238 4498 0
6663 -2238 0
6663 -4498 0
-6664 4894 2562 0
6664 -4894 0
6664 -2562 0
-6665 5681 1755 5682 5683 5684 0
6665 -5681 0
6665 -1755 0
6665 -5682 0
6665 -5683 0
6665 -5684 0
-6666 5741 5742 5743 5744 1906 0
6666 -5741 0
6666 -5742 0
6666 -5743 0
6666 -5744 0
6666 -1906 0
-2165 5518 5519 5520 5521 2053 0
2165 -5518 0
2165 -5519 0
2165 -5520 0
2165 -5521 0
2165 -2053 0
-6667 3146 3186 0
6667 -3146 0
6667 -3186 0
-6668 3440 3364 0
6668 -3440 0
6668 -3364 0
-6669 3546 3476 0
6669 -3546 0
6669 -3476 0
-6670 5562 6652 0
6670 -5562 0
6670 -6652 0
-6671 5556 5557 0
6671 -5556 0
6671 -5557 0
-6672 3611 3661 0
6672 -3611 0
6672 -3661 0
-6673 6655 5883 0
6673 -6655 0
6673 -5883 0
-6674 5884 5886 0
6674 -5884 0
6674 -5886 0
-6675 6656 5945 0
6675 -6656 0
6675 -5945 0
-6676 5947 5948 0
6676 -5947 0
6676 -5948 0
-6677 6657 6021 0
6677 -6657 0
6677 -6021 0
-6678 6019 6023 0
6678 -6019 0
6678 -6023 0
-6679 4403 4384 0
6679 -4403 0
6679 -4384 0
-6680 4399 4427 0
6680 -4399 0
6680 -4427 0
-6681 4568 4549 0
6681 -4568 0
6681 -4549 0
-6682 4687 4704 0
6682 -4687 0
6682 -4704 0
-6683 4986 4978 0
6683 -4986 0
6683 -4978 0
-6684 4945 4942 0
6684 -4945 0
6684 -4942 0
-6685 5021 5015 0
6685 -5021 0
6685 -5015 0
-6686 5105 5091 0
6686 -5105 0
6686 -5091 0
-6687 5160 5158 0
6687 -5160 0
6687 -5158 0
-6688 5159 5118 0
6688 -5159 0
6688 -5118 0
-6689 5222 5178 0
6689 -5222 0
6689 -5178 0
-6690 5270 5290 0
6690 -5270 0
6690 -5290 0
-6691 5303 5339 0
6691 -5303 0
6691 -5339 0
-6692 5294 5322 0
6692 -5294 0
6692 -5322 0
-6693 5385 5412 0
6693 -5385 0
6693 -5412 0
-6694 5457 5423 0
6694 -5457 0
6694 -5423 0
-6695 3300 6667 0
6695 -3300 0
6695 -6667 0
-6696 3406 6668 0
6696 -3406 0
6696 -6668 0
-6697 3550 6669 0
6697 -3550 0
6697 -6669 0
-6698 6670 6671 0
6698 -6670 0
6698 -6671 0
-6699 3617 6672 0
6699 -3617 0
6699 -6672 0
-6700 6673 6674 0
6700 -6673 0
6700 -6674 0
-6701 6675 6676 0
6701 -6675 0
6701 -6676 0
-6702 6677 6678 0
6702 -6677 0
6702 -6678 0
-6703 6679 6680 0
6703 -6679 0
6703 -6680 0
-6704 6681 4550 0
6704 -6681 0
6704 -4550 0
-6705 6682 4706 0
6705 -6682 0
6705 -4706 0
-6706 6683 6684 0
6706 -6683 0
6706 -6684 0
-6707 4993 6685 0
6707 -4993 0
6707 -6685 0
-6708 5070 6686 0
6708 -5070 0
6708 -6686 0
-6709 6687 6688 0
6709 -6687 0
6709 -6688 0
-6710 6689 5223 0
6710 -6689 0
6710 -5223 0
-6711 5247 6690 0
6711 -5247 0
6711 -6690 0
-6712 6691 6692 0
6712 -6691 0
6712 -6692 0
-6713 5371 6693 0
6713 -5371 0
6713 -6693 0
-6714 5466 6694 0
6714 -5466 0
6714 -6694 0
-6715 6698 5558 0
6715 -6698 0
6715 -5558 0
-6716 1598 5606 5607 5608 5609 0
6716 -1598 0
6716 -5606 0
6716 -5607 0
6716 -5608 0
6716 -5609 0
5844 1384 -4352 -2249 3148 0
-5844 -1384 0
-5844 4352 0
-5844 2249 0
-5844 -3148 0
-6717 5843 5845 0
6717 -5843 0
6717 -5845 0
-6718 5885 6700 0
6718 -5885 0
6718 -6700 0
4796 3187 1048 -3810 -1888 0
-4796 -3187 0
-4796 -1048 0
-4796 3810 0
-4796 1888 0
-6719 5949 6701 0
6719 -5949 0
6719 -6701 0
-6720 6702 6018 0
6720 -6702 0
6720 -6018 0
4895 3187 -2034 -3810 1048 0
-4895 -3187 0
-4895 2034 0
-4895 3810 0
-4895 -1048 0
4499 3187 -3810 1048 -1581 0
-4499 -3187 0
-4499 3810 0
-4499 -1048 0
-4499 1581 0
-6721 4643 2318 0
6721 -4643 0
6721 -2318 0
-6722 6695 3265 0
6722 -6695 0
6722 -3265 0
-6723 6614 6615 0
6723 -6614 0
6723 -6615 0
-6724 3400 6696 0
6724 -3400 0
6724 -6696 0
-6725 6616 6617 0
6725 -6616 0
6725 -6617 0
-6726 6697 3540 0
6726 -6697 0
6726 -3540 0
-6727 6618 6619 0
6727 -6618 0
6727 -6619 0
-6728 6699 3569 0
6728 -6699 0
6728 -3569 0
-6729 6621 6620 0
6729 -6621 0
6729 -6620 0
-6730 4396 6703 0
6730 -4396 0
6730 -6703 0
-6731 6622 6623 0
6731 -6622 0
6731 -6623 0
-6732 4559 6704 0
6732 -4559 0
6732 -6704 0
-6733 6624 6625 0
6733 -6624 0
6733 -6625 0
-6734 6705 4719 0
6734 -6705 0
6734 -4719 0
-6735 6626 6627 0
6735 -6626 0
6735 -6627 0
-6736 6706 4930 0
6736 -6706 0
6736 -4930 0
-6737 6629 6628 0
6737 -6629 0
6737 -6628 0
-6738 6707 4999 0
6738 -6707 0
6738 -4999 0
-6739 6630 6631 0
6739 -6630 0
6739 -6631 0
-6740 5079 6708 0
6740 -5079 0
6740 -6708 0
-6741 6632 6633 0
6741 -6632 0
6741 -6633 0
-6742 5137 6709 0
6742 -5137 0
6742 -6709 0
-6743 6634 6635 0
6743 -6634 0
6743 -6635 0
-6744 5194 6710 0
6744 -5194 0
6744 -6710 0
-6745 6637 6636 0
6745 -6637 0
6745 -6636 0
-6746 6711 5284 0
6746 -6711 0
6746 -5284 0
-6747 6638 6639 0
6747 -6638 0
6747 -6639 0
-6748 5341 6712 0
6748 -5341 0
6748 -6712 0
-6749 6640 6641 0
6749 -6640 0
6749 -6641 0
-6750 6713 5394 0
6750 -6713 0
6750 -5394 0
-6751 6642 6643 0
6751 -6642 0
6751 -6643 0
-6752 6714 5467 0
6752 -6714 0
6752 -5467 0
-6753 6645 6644 0
6753 -6645 0
6753 -6644 0
-6754 5854 5856 5858 0
6754 -5854 0
6754 -5856 0
6754 -5858 0
4784 998 -1951 3225 -4286 0
-4784 -998 0
-4784 1951 0
-4784 -3225 0
-4784 4286 0
3878 998 3225 -73 -4286 0
-3878 -998 0
-3878 -3225 0
-3878 73 0
-3878 4286 0
4884 998 3225 -4286 -2097 0
-4884 -998 0
-4884 -3225 0
-4884 4286 0
-4884 2097 0
4487 998 -1649 3225 -4286 0
-4487 -998 0
-4487 1649 0
-4487 -3225 0
-4487 4286 0
4630 998 3225 -4286 -1802 0
-4630 -998 0
-4630 -3225 0
-4630 4286 0
-4630 1802 0
6149 3187 -3189 -2203 0
-6149 -3187 0
-6149 3189 0
-6149 2203 0
6153 -3701 20 4385 0
-6153 3701 0
-6153 -20 0
-6153 -4385 0
-6755 6722 6723 0
6755 -6722 0
6755 -6723 0
-6756 6549 6550 0
6756 -6549 0
6756 -6550 0
-6757 6725 6724 0
6757 -6725 0
6757 -6724 0
-6758 6551 6552 0
6758 -6551 0
6758 -6552 0
-6759 6726 6727 0
6759 -6726 0
6759 -6727 0
-6760 6565 6566 0
6760 -6565 0
6760 -6566 0
-6761 6728 6729 0
6761 -6728 0
6761 -6729 0
-6762 6567 6568 0
6762 -6567 0
6762 -6568 0
-6763 6733 6732 0
6763 -6733 0
6763 -6732 0
-6764 6539 6540 0
6764 -6539 0
6764 -6540 0
-6765 5919 5912 0
6765 -5919 0
6765 -5912 0
-6766 5981 5983 0
6766 -5981 0
6766 -5983 0
-6767 6061 6062 0
6767 -6061 0
6767 -6062 0
-6768 6730 6731 0
6768 -6730 0
6768 -6731 0
-6769 6537 6538 0
6769 -6537 0
6769 -6538 0
-6770 6734 6735 0
6770 -6734 0
6770 -6735 0
-6771 6541 6542 0
6771 -6541 0
6771 -6542 0
-6772 6736 6737 0
6772 -6736 0
6772 -6737 0
-6773 6553 6554 0
6773 -6553 0
6773 -6554 0
-6774 6738 6739 0
6774 -6738 0
6774 -6739 0
-6775 6555 6556 0
6775 -6555 0
6775 -6556 0
-6776 6741 6740 0
6776 -6741 0
6776 -6740 0
-6777 6557 6558 0
6777 -6557 0
6777 -6558 0
-6778 6742 6743 0
6778 -6742 0
6778 -6743 0
-6779 6543 6544 0
6779 -6543 0
6779 -6544 0
-6780 6744 6745 0
6780 -6744 0
6780 -6745 0
-6781 6545 6546 0
6781 -6545 0
6781 -6546 0
-6782 6746 6747 0
6782 -6746 0
6782 -6747 0
-6783 6547 6548 0
6783 -6547 0
6783 -6548 0
-6784 6749 6748 0
6784 -6749 0
6784 -6748 0
-6785 6559 6560 0
6785 -6559 0
6785 -6560 0
-6786 6750 6751 0
6786 -6750 0
6786 -6751 0
-6787 6561 6562 0
6787 -6561 0
6787 -6562 0
-6788 6752 6753 0
6788 -6752 0
6788 -6753 0
-6789 6563 6564 0
6789 -6563 0
6789 -6564 0
-6790 5522 5523 5524 5525 0
6790 -5522 0
6790 -5523 0
6790 -5524 0
6790 -5525 0
-6791 5571 5572 5573 5574 0
6791 -5571 0
6791 -5572 0
6791 -5573 0
6791 -5574 0
-6792 5646 5647 5648 5649 0
6792 -5646 0
6792 -5647 0
6792 -5648 0
6792 -5649 0
-6793 5713 5714 5711 5712 0
6793 -5713 0
6793 -5714 0
6793 -5711 0
6793 -5712 0
-6794 6790 1965 0
6794 -6790 0
6794 -1965 0
6164 3474 -2749 -4354 0
-6164 -3474 0
-6164 2749 0
-6164 4354 0
4672 3319 -1674 729 -4241 0
-4672 -3319 0
-4672 1674 0
-4672 -729 0
-4672 4241 0
6182 -2793 3474 -4354 0
-6182 2793 0
-6182 -3474 0
-6182 4354 0
-6795 6791 1517 0
6795 -6791 0
6795 -1517 0
-6796 6792 5650 0
6796 -6792 0
6796 -5650 0
6205 3474 -2829 -4354 0
-6205 -3474 0
-6205 2829 0
-6205 4354 0
4736 -4283 995 -1951 3225 0
-4736 4283 0
-4736 -995 0
-4736 1951 0
-4736 -3225 0
5855 -3156 -2674 3155 0
-5855 3156 0
-5855 2674 0
-5855 -3155 0
6224 -4354 3474 -2649 0
-6224 4354 0
-6224 -3474 0
-6224 2649 0
-6797 1819 6793 0
6797 -1819 0
6797 -6793 0
4791 3298 -4366 1435 -1857 0
-4791 -3298 0
-4791 4366 0
-4791 -1435 0
-4791 1857 0
3832 3319 -28 729 -4241 0
-3832 -3319 0
-3832 28 0
-3832 -729 0
-3832 4241 0
4828 3319 729 -4241 -1825 0
-4828 -3319 0
-4828 -729 0
-4828 4241 0
-4828 1825 0
4833 -4283 995 -2097 3225 0
-4833 4283 0
-4833 -995 0
-4833 2097 0
-4833 -3225 0
3865 -73 -4283 995 3225 0
-3865 73 0
-3865 4283 0
-3865 -995 0
-3865 -3225 0
3869 3298 -4366 1435 -221 0
-3869 -3298 0
-3869 4366 0
-3869 -1435 0
-3869 221 0
4447 -4283 995 3225 -1649 0
-4447 4283 0
-4447 -995 0
-4447 -3225 0
-4447 1649 0
4890 3298 -4366 1435 -2001 0
-4890 -3298 0
-4890 4366 0
-4890 -1435 0
-4890 2001 0
4494 3298 -4366 1435 -1550 0
-4494 -3298 0
-4494 4366 0
-4494 -1435 0
-4494 1550 0
4923 3319 -1970 729 -4241 0
-4923 -3319 0
-4923 1970 0
-4923 -729 0
-4923 4241 0
4521 3319 729 -4241 -1522 0
-4521 -3319 0
-4521 -729 0
-4521 4241 0
-4521 1522 0
6072 -6510 -2661 0
-6072 6510 0
-6072 2661 0
6798 -2688 3291 -3290 0
-6798 2688 0
-6798 -3291 0
-6798 3290 0
6091 -6511 -2728 0
-6091 6511 0
-6091 2728 0
4584 -4283 995 3225 -1802 0
-4584 4283 0
-4584 -995 0
-4584 -3225 0
-4584 1802 0
6101 -6512 -2778 0
-6101 6512 0
-6101 2778 0
6115 -2818 -6513 0
-6115 2818 0
-6115 6513 0
6146 -2200 -3156 3155 0
-6146 2200 0
-6146 3156 0
-6146 -3155 0
4639 3298 -4366 1435 -1705 0
-4639 -3298 0
-4639 4366 0
-4639 -1435 0
-4639 1705 0
6152 3474 -2697 -4354 0
-6152 -3474 0
-6152 2697 0
-6152 4354 0
-6799 3232 3157 0
6799 -3232 0
6799 -3157 0
-6800 3583 3663 0
6800 -3583 0
6800 -3663 0
6801 1315 -4340 3233 0
-6801 -1315 0
-6801 4340 0
-6801 -3233 0
-6802 3408 3350 0
6802 -3408 0
6802 -3350 0
-6803 3506 3459 0
6803 -3506 0
6803 -3459 0
5835 -6801 -2641 0
-5835 6801 0
-5835 2641 0
-6804 2999 4920 0
6804 -2999 0
6804 -4920 0
-6805 5509 5510 5512 0
6805 -5509 0
6805 -5510 0
6805 -5512 0
-6806 5588 5586 5587 0
6806 -5588 0
6806 -5586 0
6806 -5587 0
-6807 5665 5662 5663 0
6807 -5665 0
6807 -5662 0
6807 -5663 0
-6808 5817 5818 5820 0
6808 -5817 0
6808 -5818 0
6808 -5820 0
-6809 5874 5875 5878 0
6809 -5874 0
6809 -5875 0
6809 -5878 0
-6810 5937 5938 5940 0
6810 -5937 0
6810 -5938 0
6810 -5940 0
-6811 6010 6012 6013 0
6811 -6010 0
6811 -6012 0
6811 -6013 0
-6812 6098 6094 6095 0
6812 -6098 0
6812 -6094 0
6812 -6095 0
-6813 6097 6099 0
6813 -6097 0
6813 -6099 0
-6814 6122 6123 6127 0
6814 -6122 0
6814 -6123 0
6814 -6127 0
-6815 6124 6125 0
6815 -6124 0
6815 -6125 0
-6816 6805 5511 0
6816 -6805 0
6816 -5511 0
-6817 5589 6806 0
6817 -5589 0
6817 -6806 0
-6818 6807 5664 0
6818 -6807 0
6818 -5664 0
5813 3699 -3953 379 -8 0
-5813 -3699 0
-5813 3953 0
-5813 -379 0
-5813 8 0
5815 -3794 166 -3 3697 0
-5815 3794 0
-5815 -166 0
-5815 3 0
-5815 -3697 0
5816 -4176 3691 -18 632 0
-5816 4176 0
-5816 -3691 0
-5816 18 0
-5816 -632 0
-2911 6814 6815 0
2911 -6814 0
2911 -6815 0
5730 508 -4065 3694 -1807 0
-5730 -508 0
-5730 4065 0
-5730 -3694 0
-5730 1807 0
-6819 4344 4345 0
6819 -4344 0
6819 -4345 0
-6820 4346 1346 0
6820 -4346 0
6820 -1346 0
-6821 1348 4347 0
6821 -1348 0
6821 -4347 0
-6822 6011 6014 0
6822 -6011 0
6822 -6014 0
-6823 6811 6009 0
6823 -6811 0
6823 -6009 0
-6824 5065 5097 0
6824 -5065 0
6824 -5097 0
-6825 5053 5095 5084 0
6825 -5053 0
6825 -5095 0
6825 -5084 0
-6826 5266 5253 0
6826 -5266 0
6826 -5253 0
-6827 5273 5258 5275 0
6827 -5273 0
6827 -5258 0
6827 -5275 0
-6828 5417 5473 0
6828 -5417 0
6828 -5473 0
-6829 5435 5461 5463 0
6829 -5435 0
6829 -5461 0
6829 -5463 0
-6830 4732 4711 0
6830 -4732 0
6830 -4711 0
-6831 4733 4682 4707 0
6831 -4733 0
6831 -4682 0
6831 -4707 0
-6832 3279 3251 0
6832 -3279 0
6832 -3251 0
-6833 3132 6799 0
6833 -3132 0
6833 -6799 0
-6834 3436 3412 0
6834 -3436 0
6834 -3412 0
-6835 3396 6802 0
6835 -3396 0
6835 -6802 0
-6836 3482 3514 0
6836 -3482 0
6836 -3514 0
-6837 3564 6803 0
6837 -3564 0
6837 -6803 0
-6838 3621 3655 0
6838 -3621 0
6838 -3655 0
-6839 6800 3631 0
6839 -6800 0
6839 -3631 0
-6840 5819 5821 0
6840 -5819 0
6840 -5821 0
-6841 6808 5822 0
6841 -6808 0
6841 -5822 0
-6842 5877 5879 0
6842 -5877 0
6842 -5879 0
-6843 5876 6809 0
6843 -5876 0
6843 -6809 0
-6844 5936 5941 0
6844 -5936 0
6844 -5941 0
-6845 5939 6810 0
6845 -5939 0
6845 -6810 0
-6846 4444 4431 0
6846 -4444 0
6846 -4431 0
-6847 4432 4417 4443 0
6847 -4432 0
6847 -4417 0
6847 -4443 0
-6848 4965 4976 0
6848 -4965 0
6848 -4976 0
-6849 4937 4963 4932 0
6849 -4937 0
6849 -4963 0
6849 -4932 0
-6850 5119 5166 0
6850 -5119 0
6850 -5166 0
-6851 5121 5123 5142 0
6851 -5121 0
6851 -5123 0
6851 -5142 0
-6852 5347 5342 0
6852 -5347 0
6852 -5342 0
-6853 5311 5340 5336 0
6853 -5311 0
6853 -5340 0
6853 -5336 0
-6854 6840 6841 0
6854 -6840 0
6854 -6841 0
-6855 6842 6843 0
6855 -6842 0
6855 -6843 0
-6856 6844 6845 0
6856 -6844 0
6856 -6845 0
-6857 6822 6823 0
6857 -6822 0
6857 -6823 0
6858 797 -4255 3164 0
-6858 -797 0
-6858 4255 0
-6858 -3164 0
6859 -3162 3164 0
-6859 3162 0
-6859 -3164 0
6860 -3162 3164 0
-6860 3162 0
-6860 -3164 0
4797 -1873 770 -3848 3229 0
-4797 1873 0
-4797 -770 0
-4797 3848 0
-4797 -3229 0
-6861 6026 6027 6028 6030 6031 6032 0
6861 -6026 0
6861 -6027 0
6861 -6028 0
6861 -6030 0
6861 -6031 0
6861 -6032 0
-6862 4500 2691 0
6862 -4500 0
6862 -2691 0
-6863 4644 4645 0
6863 -4644 0
6863 -4645 0
-6864 2825 4896 0
6864 -2825 0
6864 -4896 0
-6865 6832 6833 0
6865 -6832 0
6865 -6833 0
-6866 6834 6835 0
6866 -6834 0
6866 -6835 0
-6867 6836 6837 0
6867 -6836 0
6867 -6837 0
-6868 6838 6839 0
6868 -6838 0
6868 -6839 0
-6869 6846 6847 0
6869 -6846 0
6869 -6847 0
-6870 4551 4573 0
6870 -4551 0
6870 -4573 0
-6871 6830 6831 0
6871 -6830 0
6871 -6831 0
-6872 6848 6849 0
6872 -6848 0
6872 -6849 0
-6873 5049 5034 0
6873 -5049 0
6873 -5034 0
-6874 6824 6825 0
6874 -6824 0
6874 -6825 0
-6875 6850 6851 0
6875 -6850 0
6875 -6851 0
-6876 5183 5179 0
6876 -5183 0
6876 -5179 0
-6877 6826 6827 0
6877 -6826 0
6877 -6827 0
-6878 6852 6853 0
6878 -6852 0
6878 -6853 0
-6879 5372 5407 0
6879 -5372 0
6879 -5407 0
-6880 6828 6829 0
6880 -6828 0
6880 -6829 0
5830 3253 -4348 -2648 1351 0
-5830 -3253 0
-5830 4348 0
-5830 2648 0
-5830 -1351 0
6881 1351 -4348 3253 -2684 0
-6881 -1351 0
-6881 4348 0
-6881 -3253 0
-6881 2684 0
3801 -255 -6858 0
-3801 255 0
-3801 6858 0
4774 797 -1907 -4255 3164 0
-4774 -797 0
-4774 1907 0
-4774 4255 0
-4774 -3164 0
5891 1351 -2718 -4348 3253 0
-5891 -1351 0
-5891 2718 0
-5891 4348 0
-5891 -3253 0
5953 -2768 1351 -4348 3253 0
-5953 2768 0
-5953 -1351 0
-5953 4348 0
-5953 -3253 0
4872 -2054 797 -4255 3164 0
-4872 2054 0
-4872 -797 0
-4872 4255 0
-4872 -3164 0
4478 797 -4255 3164 -1599 0
-4478 -797 0
-4478 4255 0
-4478 -3164 0
-4478 1599 0
6029 1351 -2808 -4348 3253 0
-6029 -1351 0
-6029 2808 0
-6029 4348 0
-6029 -3253 0
4619 -1756 797 -4255 3164 0
-4619 1756 0
-4619 -797 0
-4619 4255 0
-4619 -3164 0
-6882 3161 6865 0
6882 -3161 0
6882 -6865 0
-6883 6866 3338 0
6883 -6866 0
6883 -3338 0
-6884 3449 6867 0
6884 -3449 0
6884 -6867 0
-6885 3681 6868 0
6885 -3681 0
6885 -6868 0
-6886 6869 4412 0
6886 -6869 0
6886 -4412 0
-6887 6870 4579 0
6887 -6870 0
6887 -4579 0
-6888 6871 4678 0
6888 -6871 0
6888 -4678 0
-6889 4938 6872 0
6889 -4938 0
6889 -6872 0
-6890 6873 5014 0
6890 -6873 0
6890 -5014 0
-6891 5096 6874 0
6891 -5096 0
6891 -6874 0
-6892 5129 6875 0
6892 -5129 0
6892 -6875 0
-6893 5190 6876 0
6893 -5190 0
6893 -6876 0
-6894 5262 6877 0
6894 -5262 0
6894 -6877 0
-6895 6878 5304 0
6895 -6878 0
6895 -5304 0
-6896 6879 5403 0
6896 -6879 0
6896 -5403 0
-6897 5426 6880 0
6897 -5426 0
6897 -6880 0
-6898 6882 3322 0
6898 -6882 0
6898 -3322 0
-6899 6883 3402 0
6899 -6883 0
6899 -3402 0
-6900 6884 3554 0
6900 -6884 0
6900 -3554 0
-6901 6885 3579 0
6901 -6885 0
6901 -3579 0
6902 -4343 1339 3323 0
-6902 4343 0
-6902 -1339 0
-6902 -3323 0
-6903 4404 6886 0
6903 -4404 0
6903 -6886 0
-6904 6887 4548 0
6904 -6887 0
6904 -4548 0
-6905 6888 4729 0
6905 -6888 0
6905 -4729 0
-6906 4987 6889 0
6906 -4987 0
6906 -6889 0
-6907 5020 6890 0
6907 -5020 0
6907 -6890 0
-6908 5077 6891 0
6908 -5077 0
6908 -6891 0
-6909 6892 5138 0
6909 -6892 0
6909 -5138 0
-6910 6893 5217 0
6910 -6893 0
6910 -5217 0
-6911 6894 5288 0
6911 -6894 0
6911 -5288 0
-6912 6895 5300 0
6912 -6895 0
6912 -5300 0
-6913 5395 6896 0
6913 -5395 0
6913 -6896 0
-6914 5464 6897 0
6914 -5464 0
6914 -6897 0
6915 -6902 -2225 0
-6915 6902 0
-6915 2225 0
-6916 1569 6817 0
6916 -1569 0
6916 -6817 0
-6917 1724 6818 0
6917 -1724 0
6917 -6818 0
-6918 5726 5727 1876 5728 5729 0
6918 -5726 0
6918 -5727 0
6918 -1876 0
6918 -5728 0
6918 -5729 0
-206 3813 3815 0
206 -3813 0
206 -3815 0
-6919 2226 4482 0
6919 -2226 0
6919 -4482 0
-6920 4625 2292 0
6920 -4625 0
6920 -2292 0
-6921 4667 4669 0
6921 -4667 0
6921 -4669 0
-6922 4779 2414 0
6922 -4779 0
6922 -2414 0
-6923 4822 4823 0
6923 -4822 0
6923 -4823 0
-6924 4877 2535 0
6924 -4877 0
6924 -2535 0
-6925 4917 4918 0
6925 -4917 0
6925 -4918 0
-6926 6816 2023 0
6926 -6816 0
6926 -2023 0
-6927 3846 249 0
6927 -3846 0
6927 -249 0
-6928 5847 5848 0
6928 -5847 0
6928 -5848 0
5892 -4099 544 3694 -1504 0
-5892 4099 0
-5892 -544 0
-5892 -3694 0
-5892 1504 0
5893 3176 -4351 1374 -2305 0
-5893 -3176 0
-5893 4351 0
-5893 -1374 0
-5893 2305 0
5894 -4211 670 3691 -2108 0
-5894 4211 0
-5894 -670 0
-5894 -3691 0
-5894 2108 0
5895 3699 -2114 -3988 417 0
-5895 -3699 0
-5895 2114 0
-5895 3988 0
-5895 -417 0
-6929 4375 4373 0
6929 -4375 0
6929 -4373 0
-6930 3386 3354 0
6930 -3386 0
6930 -3354 0
-6931 3544 3451 0
6931 -3544 0
6931 -3451 0
-6932 3653 3659 0
6932 -3653 0
6932 -3659 0
-6933 4422 4418 0
6933 -4422 0
6933 -4418 0
6934 -3804 1488 0
-6934 3804 0
-6934 -1488 0
6935 3123 -1601 0
-6935 -3123 0
-6935 1601 0
-6936 4560 4563 0
6936 -4560 0
6936 -4563 0
-6937 4722 4723 0
6937 -4722 0
6937 -4723 0
-6938 5113 5165 0
6938 -5113 0
6938 -5165 0
-6939 5175 5197 0
6939 -5175 0
6939 -5197 0
-6940 5271 5245 0
6940 -5271 0
6940 -5245 0
-6941 5293 5312 0
6941 -5293 0
6941 -5312 0
-6942 5368 5410 0
6942 -5368 0
6942 -5410 0
-6943 5441 5434 0
6943 -5441 0
6943 -5434 0
6944 -3654 1482 0
-6944 3654 0
-6944 -1482 0
6945 3123 -1601 0
-6945 -3123 0
-6945 1601 0
6946 -3355 3124 0
-6946 3355 0
-6946 -3124 0
6947 3123 -1601 0
-6947 -3123 0
-6947 1601 0
6948 1479 -3545 0
-6948 -1479 0
-6948 3545 0
6949 3123 -1601 0
-6949 -3123 0
-6949 1601 0
6950 3123 -1601 0
-6950 -3123 0
-6950 1601 0
6951 1485 -4374 0
-6951 -1485 0
-6951 4374 0
6952 3123 -1601 0
-6952 -3123 0
-6952 1601 0
-6953 3175 3122 0
6953 -3175 0
6953 -3122 0
-6954 6936 4566 0
6954 -6936 0
6954 -4566 0
6955 3191 -3193 0
-6955 -3191 0
-6955 3193 0
6956 -1529 3192 0
-6956 1529 0
-6956 -3192 0
-6957 4990 5043 0
6957 -4990 0
6957 -5043 0
-6958 5003 5040 0
6958 -5003 0
6958 -5040 0
-6959 5103 5080 0
6959 -5103 0
6959 -5080 0
-6960 5231 6939 0
6960 -5231 0
6960 -6939 0
-6961 5384 6942 0
6961 -5384 0
6961 -6942 0
-6962 2057 5533 5534 5535 5536 5538 5539 0
6962 -2057 0
6962 -5533 0
6962 -5534 0
6962 -5535 0
6962 -5536 0
6962 -5538 0
6962 -5539 0
-6963 5552 5553 5554 5555 5551 1978 0
6963 -5552 0
6963 -5553 0
6963 -5554 0
6963 -5555 0
6963 -5551 0
6963 -1978 0
5114 -6944 -6945 0
-5114 6944 0
-5114 6945 0
-6964 5597 1587 5598 5599 5600 0
6964 -5597 0
6964 -1587 0
6964 -5598 0
6964 -5599 0
6964 -5600 0
-6965 4341 4342 0
6965 -4341 0
6965 -4342 0
-6966 5671 5672 5673 5674 5675 0
6966 -5671 0
6966 -5672 0
6966 -5673 0
6966 -5674 0
6966 -5675 0
-6967 5736 5737 5738 5739 5740 0
6967 -5736 0
6967 -5737 0
6967 -5738 0
6967 -5739 0
6967 -5740 0
-6968 4349 4350 0
6968 -4349 0
6968 -4350 0
-261 2186 3851 0
261 -2186 0
261 -3851 0
-6969 5954 5955 5956 5957 5958 5960 1759 0
6969 -5954 0
6969 -5955 0
6969 -5956 0
6969 -5957 0
6969 -5958 0
6969 -5960 0
6969 -1759 0
-6970 6033 6034 6035 1911 6036 6038 6039 0
6970 -6033 0
6970 -6034 0
6970 -6035 0
6970 -1911 0
6970 -6036 0
6970 -6038 0
6970 -6039 0
-6971 6085 6086 6087 6088 6089 6090 0
6971 -6085 0
6971 -6086 0
6971 -6087 0
6971 -6088 0
6971 -6089 0
6971 -6090 0
5313 -6946 -6947 0
-5313 6946 0
-5313 6947 0
4419 -6948 -6949 0
-4419 6948 0
-4419 6949 0
-6972 1489 4376 0
6972 -1489 0
6972 -4376 0
-6973 2232 4489 0
6973 -2232 0
6973 -4489 0
4490 -6935 -6934 0
-4490 6935 0
-4490 6934 0
-6974 4598 2856 0
6974 -4598 0
6974 -2856 0
4928 -6950 -3124 0
-4928 6950 0
-4928 3124 0
-6975 4646 4647 0
6975 -4646 0
6975 -4647 0
4948 -6955 -6956 0
-4948 6955 0
-4948 6956 0
-6976 4751 4753 0
6976 -4751 0
6976 -4753 0
-6977 2791 4798 0
6977 -2791 0
6977 -4798 0
-6978 4850 4852 0
6978 -4850 0
6978 -4852 0
-6979 2827 4897 0
6979 -2827 0
6979 -4897 0
-6980 4927 4947 0
6980 -4927 0
6980 -4947 0
-6981 5513 5514 5515 5516 5517 0
6981 -5513 0
6981 -5514 0
6981 -5515 0
6981 -5516 0
6981 -5517 0
-6982 4527 6954 0
6982 -4527 0
6982 -6954 0
-6983 6960 5203 0
6983 -6960 0
6983 -5203 0
-6984 5393 6961 0
6984 -5393 0
6984 -6961 0
-6985 6957 6958 0
6985 -6957 0
6985 -6958 0
-6986 6984 5389 0
6986 -6984 0
6986 -5389 0
-6987 4575 6982 0
6987 -4575 0
6987 -6982 0
-6988 5186 6983 0
6988 -5186 0
6988 -6983 0
-6989 6166 6167 6169 6170 6171 6172 0
6989 -6166 0
6989 -6167 0
6989 -6169 0
6989 -6170 0
6989 -6171 0
6989 -6172 0
-6990 4596 2950 0
6990 -4596 0
6990 -2950 0
-6991 4213 673 0
6991 -4213 0
6991 -673 0
-6992 3853 259 0
6992 -3853 0
6992 -259 0
-6993 547 4101 0
6993 -547 0
6993 -4101 0
-6994 420 3990 0
6994 -420 0
6994 -3990 0
-6995 3190 6953 0
6995 -3190 0
6995 -6953 0
-6996 6930 3434 0
6996 -6930 0
6996 -3434 0
-6997 3455 6931 0
6997 -3455 0
6997 -6931 0
-6998 3633 6932 0
6998 -3633 0
6998 -6932 0
-6999 4415 6933 0
6999 -4415 0
6999 -6933 0
-7000 6987 4562 0
7000 -6987 0
7000 -4562 0
-7001 6937 4680 0
7001 -6937 0
7001 -4680 0
-7002 6980 4944 0
7002 -6980 0
7002 -4944 0
-7003 6985 5013 0
7003 -6985 0
7003 -5013 0
-7004 6959 5106 0
7004 -6959 0
7004 -5106 0
-7005 6938 5141 0
7005 -6938 0
7005 -5141 0
-7006 5199 6988 0
7006 -5199 0
7006 -6988 0
-7007 5242 6940 0
7007 -5242 0
7007 -6940 0
-7008 6941 5334 0
7008 -6941 0
7008 -5334 0
-7009 5361 6986 0
7009 -5361 0
7009 -6986 0
-7010 6943 5454 0
7010 -6943 0
7010 -5454 0
-7011 4210 4212 0
7011 -4210 0
7011 -4212 0
-7012 254 3849 0
7012 -254 0
7012 -3849 0
-7013 3987 3989 0
7013 -3987 0
7013 -3989 0
-7014 4098 4100 0
7014 -4098 0
7014 -4100 0
-7015 6996 3416 0
7015 -6996 0
7015 -3416 0
-7016 3426 6899 0
7016 -3426 0
7016 -6899 0
-7017 3500 6997 0
7017 -3500 0
7017 -6997 0
-7018 6900 3538 0
7018 -6900 0
7018 -3538 0
-7019 3683 6998 0
7019 -3683 0
7019 -6998 0
-7020 6901 3623 0
7020 -6901 0
7020 -3623 0
-7021 4440 6999 0
7021 -4440 0
7021 -6999 0
-7022 6903 4401 0
7022 -6903 0
7022 -4401 0
-7023 7000 4524 0
7023 -7000 0
7023 -4524 0
-7024 6904 4564 0
7024 -6904 0
7024 -4564 0
-7025 7001 4688 0
7025 -7001 0
7025 -4688 0
-7026 6905 4721 0
7026 -6905 0
7026 -4721 0
-7027 5131 7005 0
7027 -5131 0
7027 -7005 0
-7028 6909 5132 0
7028 -6909 0
7028 -5132 0
-7029 5215 7006 0
7029 -5215 0
7029 -7006 0
-7030 6910 5193 0
7030 -6910 0
7030 -5193 0
-7031 5285 7007 0
7031 -5285 0
7031 -7007 0
-7032 6911 5282 0
7032 -6911 0
7032 -5282 0
-7033 7008 5350 0
7033 -7008 0
7033 -5350 0
-7034 5344 6912 0
7034 -5344 0
7034 -6912 0
-7035 7009 5379 0
7035 -7009 0
7035 -5379 0
-7036 6913 5374 0
7036 -6913 0
7036 -5374 0
-7037 7010 5446 0
7037 -7010 0
7037 -5446 0
-7038 5472 6914 0
7038 -5472 0
7038 -6914 0
-7039 6995 3149 0
7039 -6995 0
7039 -3149 0
-7040 3214 6898 0
7040 -3214 0
7040 -6898 0
-7041 7002 4936 0
7041 -7002 0
7041 -4936 0
-7042 4956 6906 0
7042 -4956 0
7042 -6906 0
-7043 5011 7003 0
7043 -5011 0
7043 -7003 0
-7044 6907 5026 0
7044 -6907 0
7044 -5026 0
-7045 5093 7004 0
7045 -5093 0
7045 -7004 0
-7046 6908 5073 0
7046 -6908 0
7046 -5073 0
-7047 6212 6213 6214 6215 0
7047 -6212 0
7047 -6213 0
7047 -6214 0
7047 -6215 0
-7048 6210 6211 0
7048 -6210 0
7048 -6211 0
7049 1315 -4340 3233 0
-7049 -1315 0
-7049 4340 0
-7049 -3233 0
7050 -3133 3135 0
-7050 3133 0
-7050 -3135 0
-7051 6076 6077 6078 6080 0
7051 -6076 0
7051 -6077 0
7051 -6078 0
7051 -6080 0
-7052 2091 6079 0
7052 -2091 0
7052 -6079 0
-7053 6220 6221 6222 6217 0
7053 -6220 0
7053 -6221 0
7053 -6222 0
7053 -6217 0
7054 -3134 3133 3135 0
-7054 3134 0
-7054 -3133 0
-7054 -3135 0
-7055 6218 7053 0
7055 -6218 0
7055 -7053 0
-7056 2093 5540 5541 5542 5543 0
7056 -2093 0
7056 -5540 0
7056 -5541 0
7056 -5542 0
7056 -5543 0
6168 1315 -4340 -2870 3233 0
-6168 -1315 0
-6168 4340 0
-6168 2870 0
-6168 -3233 0
5814 -2202 3192 -3191 0
-5814 2202 0
-5814 -3192 0
-5814 3191 0
6193 -7049 -2888 0
-6193 7049 0
-6193 2888 0
-7057 4336 4335 0
7057 -4336 0
7057 -4335 0
-7058 1310 4337 0
7058 -1310 0
7058 -4337 0
-7059 4338 1312 0
7059 -4338 0
7059 -1312 0
-7060 5640 5641 1646 5642 5643 0
7060 -5640 0
7060 -5641 0
7060 -1646 0
7060 -5642 0
7060 -5643 0
5833 684 3691 -18 -4226 0
-5833 -684 0
-5833 -3691 0
-5833 18 0
-5833 4226 0
5834 285 -3875 -3 3697 0
-5834 -285 0
-5834 3875 0
-5834 3 0
-5834 -3697 0
5836 431 3699 -4002 -8 0
-5836 -431 0
-5836 -3699 0
-5836 4002 0
-5836 8 0
5837 558 -13 -4114 3694 0
-5837 -558 0
-5837 13 0
-5837 4114 0
-5837 -3694 0
-7061 5705 5706 1798 5707 5708 0
7061 -5705 0
7061 -5706 0
7061 -1798 0
7061 -5707 0
7061 -5708 0
-7062 3798 3800 0
7062 -3798 0
7062 -3800 0
4752 3233 -4339 1313 -1900 0
-4752 -3233 0
-4752 4339 0
-4752 -1313 0
-4752 1900 0
-7063 5775 5776 1948 5777 5778 0
7063 -5775 0
7063 -5776 0
7063 -1948 0
7063 -5777 0
7063 -5778 0
-7064 7051 7052 0
7064 -7051 0
7064 -7052 0
-7065 4369 4368 0
7065 -4369 0
7065 -4368 0
-7066 4370 1458 0
7066 -4370 0
7066 -1458 0
-7067 4371 1460 0
7067 -4371 0
7067 -1460 0
-7068 4372 1462 0
7068 -4372 0
7068 -1462 0
-2872 6812 6813 0
2872 -6812 0
2872 -6813 0
3872 3233 -4339 1313 -174 0
-3872 -3233 0
-3872 4339 0
-3872 -1313 0
-3872 174 0
-7069 6188 1677 6189 6190 6191 6192 0
7069 -6188 0
7069 -1677 0
7069 -6189 0
7069 -6190 0
7069 -6191 0
7069 -6192 0
-7070 6198 6199 6200 6195 6196 6197 0
7070 -6198 0
7070 -6199 0
7070 -6200 0
7070 -6195 0
7070 -6196 0
7070 -6197 0
4851 3233 -4339 1313 -2047 0
-4851 -3233 0
-4851 4339 0
-4851 -1313 0
-4851 2047 0
-7071 7048 7047 0
7071 -7048 0
7071 -7047 0
-7072 6219 7055 0
7072 -6219 0
7072 -7055 0
-7073 3955 3957 0
7073 -3955 0
7073 -3957 0
4463 3233 -4339 1313 -1592 0
-4463 -3233 0
-4463 4339 0
-4463 -1313 0
-4463 1592 0
-7074 4278 4277 0
7074 -4278 0
7074 -4277 0
-7075 4279 977 0
7075 -4279 0
7075 -977 0
-7076 4280 979 0
7076 -4280 0
7076 -979 0
-7077 4281 981 0
7077 -4281 0
7077 -981 0
-7078 4518 2261 0
7078 -4518 0
7078 -2261 0
-7079 2378 4671 0
7079 -2378 0
7079 -4671 0
-7080 4066 4067 0
7080 -4066 0
7080 -4067 0
7081 3192 -2848 -3191 0
-7081 -3192 0
-7081 2848 0
-7081 3191 0
5006 -1794 -7054 0
-5006 1794 0
-5006 7054 0
-7082 2499 4826 0
7082 -2499 0
7082 -4826 0
6096 -2855 3192 -3191 0
-6096 2855 0
-6096 -3192 0
-6096 3191 0
6111 -3794 166 3697 -2104 0
-6111 3794 0
-6111 -166 0
-6111 -3697 0
-6111 2104 0
6112 506 -4064 -1654 3694 0
-6112 -506 0
-6112 4064 0
-6112 1654 0
-6112 -3694 0
6114 3699 -3953 379 -2116 0
-6114 -3699 0
-6114 3953 0
-6114 -379 0
-6114 2116 0
6113 -2110 3691 -4176 632 0
-6113 2110 0
-6113 -3691 0
-6113 4176 0
-6113 -632 0
6126 -2895 3192 -3191 0
-6126 2895 0
-6126 -3192 0
-6126 3191 0
-7083 4922 2614 0
7083 -4922 0
7083 -2614 0
-7084 7043 7044 0
7084 -7043 0
7084 -7044 0
-7085 4178 4179 0
7085 -4178 0
7085 -4179 0
-7086 7040 7039 0
7086 -7040 0
7086 -7039 0
-7087 6755 6756 0
7087 -6755 0
7087 -6756 0
-7088 7021 7022 0
7088 -7021 0
7088 -7022 0
-7089 6768 6769 0
7089 -6768 0
7089 -6769 0
-7090 7025 7026 0
7090 -7025 0
7090 -7026 0
-7091 6770 6771 0
7091 -6770 0
7091 -6771 0
-7092 7041 7042 0
7092 -7041 0
7092 -7042 0
-7093 6772 6773 0
7093 -6772 0
7093 -6773 0
-7094 7045 7046 0
7094 -7045 0
7094 -7046 0
-7095 6776 6777 0
7095 -6776 0
7095 -6777 0
-7096 7027 7028 0
7096 -7027 0
7096 -7028 0
-7097 6778 6779 0
7097 -6778 0
7097 -6779 0
-7098 7032 7031 0
7098 -7032 0
7098 -7031 0
-7099 6782 6783 0
7099 -6782 0
7099 -6783 0
-7100 7033 7034 0
7100 -7033 0
7100 -7034 0
-7101 6784 6785 0
7101 -6784 0
7101 -6785 0
-7102 7037 7038 0
7102 -7037 0
7102 -7038 0
-7103 6788 6789 0
7103 -6788 0
7103 -6789 0
-7104 7019 7020 0
7104 -7019 0
7104 -7020 0
-7105 6761 6762 0
7105 -6761 0
7105 -6762 0
-7106 7016 7015 0
7106 -7016 0
7106 -7015 0
-7107 6758 6757 0
7107 -6758 0
7107 -6757 0
-7108 7017 7018 0
7108 -7017 0
7108 -7018 0
-7109 6759 6760 0
7109 -6759 0
7109 -6760 0
-7110 7024 7023 0
7110 -7024 0
7110 -7023 0
-7111 6763 6764 0
7111 -6763 0
7111 -6764 0
-7112 5005 7084 0
7112 -5005 0
7112 -7084 0
-7113 6774 6775 0
7113 -6774 0
7113 -6775 0
-7114 7029 7030 0
7114 -7029 0
7114 -7030 0
-7115 6780 6781 0
7115 -6780 0
7115 -6781 0
-7116 7035 7036 0
7116 -7035 0
7116 -7036 0
-7117 6786 6787 0
7117 -6786 0
7117 -6787 0
-7118 5632 1630 0
7118 -5632 0
7118 -1630 0
-7119 5702 1783 0
7119 -5702 0
7119 -1783 0
-7120 5765 1934 0
7120 -5765 0
7120 -1934 0
-7121 5799 2079 0
7121 -5799 0
7121 -2079 0
-7122 4194 4196 0
7122 -4194 0
7122 -4196 0
-7123 657 4197 0
7123 -657 0
7123 -4197 0
3711 724 -4239 -28 3319 0
-3711 -724 0
-3711 4239 0
-3711 28 0
-3711 -3319 0
-7124 4215 675 0
7124 -4215 0
7124 -675 0
5567 3150 -3152 -2242 0
-5567 -3150 0
-5567 3152 0
-5567 2242 0
-7125 4221 4220 0
7125 -4221 0
7125 -4220 0
-7126 4224 4225 0
7126 -4224 0
7126 -4225 0
-7127 3802 184 0
7127 -3802 0
7127 -184 0
-7128 4253 771 0
7128 -4253 0
7128 -771 0
-7129 3807 3808 0
7129 -3807 0
7129 -3808 0
-7130 3825 3823 0
7130 -3825 0
7130 -3823 0
-7131 3827 220 0
7131 -3827 0
7131 -220 0
-7132 3856 263 0
7132 -3856 0
7132 -263 0
-7133 3866 278 0
7133 -3866 0
7133 -278 0
-7134 3873 3874 0
7134 -3873 0
7134 -3874 0
4801 3198 -1933 -4296 1077 0
-4801 -3198 0
-4801 1933 0
-4801 4296 0
-4801 -1077 0
-7135 6082 6084 0
7135 -6082 0
7135 -6084 0
3858 3198 -93 -4296 1077 0
-3858 -3198 0
-3858 93 0
-3858 4296 0
-3858 -1077 0
-7136 3958 388 0
7136 -3958 0
7136 -388 0
-7137 3961 3962 0
7137 -3961 0
7137 -3962 0
-7138 3971 3972 0
7138 -3971 0
7138 -3972 0
-7139 404 3974 0
7139 -404 0
7139 -3974 0
-7140 422 3992 0
7140 -422 0
7140 -3992 0
-7141 428 3998 0
7141 -428 0
7141 -3998 0
-7142 4001 4003 0
7142 -4001 0
7142 -4003 0
4900 3198 -2078 -4296 1077 0
-4900 -3198 0
-4900 2078 0
-4900 4296 0
-4900 -1077 0
4502 3198 -1629 -4296 1077 0
-4502 -3198 0
-4502 1629 0
-4502 4296 0
-4502 -1077 0
-7143 4069 515 0
7143 -4069 0
7143 -515 0
-7144 4072 4073 0
7144 -4072 0
7144 -4073 0
-7145 4082 4084 0
7145 -4082 0
7145 -4084 0
-7146 4085 531 0
7146 -4085 0
7146 -531 0
-7147 4103 549 0
7147 -4103 0
7147 -549 0
-7148 555 4109 0
7148 -555 0
7148 -4109 0
-7149 4112 4113 0
7149 -4112 0
7149 -4113 0
-7150 641 4181 0
7150 -641 0
7150 -4181 0
-7151 4184 4186 0
7151 -4184 0
7151 -4186 0
4651 3198 -4296 -1782 1077 0
-4651 -3198 0
-4651 4296 0
-4651 1782 0
-4651 -1077 0
-7152 4056 4058 0
7152 -4056 0
7152 -4058 0
7153 3201 1303 -4334 0
-7153 -3201 0
-7153 -1303 0
-7153 4334 0
-7154 5526 5528 5529 1976 5530 5531 5532 0
7154 -5526 0
7154 -5528 0
7154 -5529 0
7154 -1976 0
7154 -5530 0
7154 -5531 0
7154 -5532 0
-7155 4327 4328 0
7155 -4327 0
7155 -4328 0
-7156 5610 5611 1605 5612 5613 0
7156 -5610 0
7156 -5611 0
7156 -1605 0
7156 -5612 0
7156 -5613 0
5838 -7153 -2239 0
-5838 7153 0
-5838 2239 0
-7157 5685 5686 5687 5688 1761 0
7157 -5685 0
7157 -5686 0
7157 -5687 0
7157 -5688 0
7157 -1761 0
-7158 1913 5745 5746 5747 5748 0
7158 -1913 0
7158 -5745 0
7158 -5746 0
7158 -5747 0
7158 -5748 0
-7159 5873 1528 5867 5869 5870 5871 5872 0
7159 -5873 0
7159 -1528 0
7159 -5867 0
7159 -5869 0
7159 -5870 0
7159 -5871 0
7159 -5872 0
-7160 1679 5929 5931 5932 5933 5934 5935 0
7160 -1679 0
7160 -5929 0
7160 -5931 0
7160 -5932 0
7160 -5933 0
7160 -5934 0
7160 -5935 0
-7161 6002 1831 6003 6005 6006 6007 6008 0
7161 -6002 0
7161 -1831 0
7161 -6003 0
7161 -6005 0
7161 -6006 0
7161 -6007 0
7161 -6008 0
-7162 4501 2240 0
7162 -4501 0
7162 -2240 0
-7163 2320 4648 0
7163 -2320 0
7163 -4648 0
-7164 4799 2439 0
7164 -4799 0
7164 -2439 0
-7165 4898 2564 0
7165 -4898 0
7165 -2564 0
-7166 5505 5506 2059 5507 5508 0
7166 -5505 0
7166 -5506 0
7166 -2059 0
7166 -5507 0
7166 -5508 0
7167 -3341 3138 0
-7167 3341 0
-7167 -3138 0
7168 -1606 3137 0
-7168 1606 0
-7168 -3137 0
7169 -1606 3137 0
-7169 1606 0
-7169 -3137 0
-7170 5614 5615 5616 5617 5618 0
7170 -5614 0
7170 -5615 0
7170 -5616 0
7170 -5617 0
7170 -5618 0
-7171 1763 5689 5690 5691 5692 0
7171 -1763 0
7171 -5689 0
7171 -5690 0
7171 -5691 0
7171 -5692 0
-7172 5749 5750 5751 1915 5752 0
7172 -5749 0
7172 -5750 0
7172 -5751 0
7172 -1915 0
7172 -5752 0
-7173 4256 4257 0
7173 -4256 0
7173 -4257 0
5308 -7167 -7168 0
-5308 7167 0
-5308 7168 0
4934 -7169 -3138 0
-4934 7169 0
-4934 3138 0
-7174 4649 2322 0
7174 -4649 0
7174 -2322 0
-7175 2441 4800 0
7175 -2441 0
7175 -4800 0
-7176 2566 4899 0
7176 -2566 0
7176 -4899 0
-7177 5476 5477 2061 5478 5479 0
7177 -5476 0
7177 -5477 0
7177 -2061 0
7177 -5478 0
7177 -5479 0
4650 1290 -3715 -1678 3255 0
-4650 -1290 0
-4650 3715 0
-4650 1678 0
-4650 -3255 0
-7178 3136 3254 0
7178 -3136 0
7178 -3254 0
-7179 3139 3200 0
7179 -3139 0
7179 -3200 0
-7180 3340 3356 0
7180 -3340 0
7180 -3356 0
-7181 3444 3370 0
7181 -3444 0
7181 -3370 0
-7182 3496 3465 0
7182 -3496 0
7182 -3465 0
-7183 3480 3510 0
7183 -3480 0
7183 -3510 0
-7184 3589 3627 0
7184 -3589 0
7184 -3627 0
-7185 3591 3637 0
7185 -3591 0
7185 -3637 0
-7186 4425 4402 0
7186 -4425 0
7186 -4402 0
-7187 4387 4383 0
7187 -4387 0
7187 -4383 0
-7188 4526 4546 0
7188 -4526 0
7188 -4546 0
-7189 4529 4531 0
7189 -4529 0
7189 -4531 0
-7190 4701 4685 0
7190 -4701 0
7190 -4685 0
-7191 4709 4694 0
7191 -4709 0
7191 -4694 0
-7192 4971 4933 0
7192 -4971 0
7192 -4933 0
-7193 4954 4935 0
7193 -4954 0
7193 -4935 0
-7194 5039 5009 0
7194 -5039 0
7194 -5009 0
-7195 5010 5051 0
7195 -5010 0
7195 -5051 0
-7196 5086 5058 0
7196 -5086 0
7196 -5058 0
-7197 5055 5089 0
7197 -5055 0
7197 -5089 0
-7198 5168 5145 0
7198 -5168 0
7198 -5145 0
-7199 5167 5147 0
7199 -5167 0
7199 -5147 0
-7200 5230 5201 0
7200 -5230 0
7200 -5201 0
-7201 5202 5229 0
7201 -5202 0
7201 -5229 0
-7202 5240 5292 0
7202 -5240 0
7202 -5292 0
-7203 5255 5274 0
7203 -5255 0
7203 -5274 0
-7204 5315 5307 0
7204 -5315 0
7204 -5307 0
-7205 5297 5323 0
7205 -5297 0
7205 -5323 0
-7206 5404 5364 0
7206 -5404 0
7206 -5364 0
-7207 5411 5415 0
7207 -5411 0
7207 -5415 0
-7208 5432 5438 0
7208 -5432 0
7208 -5438 0
-7209 5420 5444 0
7209 -5420 0
7209 -5444 0
-7210 4332 4333 0
7210 -4332 0
7210 -4333 0
5839 3137 807 -4258 -2241 0
-5839 -3137 0
-5839 -807 0
-5839 4258 0
-5839 2241 0
5868 807 3137 -2321 -4258 0
-5868 -807 0
-5868 -3137 0
-5868 2321 0
-5868 4258 0
-247 2179 3841 0
247 -2179 0
247 -3841 0
5930 3137 807 -2440 -4258 0
-5930 -3137 0
-5930 -807 0
-5930 2440 0
-5930 4258 0
-7211 4461 4462 0
7211 -4461 0
7211 -4462 0
6004 -2565 3137 807 -4258 0
-6004 2565 0
-6004 -3137 0
-6004 -807 0
-6004 4258 0
-7212 2717 4597 0
7212 -2717 0
7212 -4597 0
-7213 2767 4750 0
7213 -2767 0
7213 -4750 0
-7214 2807 4849 0
7214 -2807 0
7214 -4849 0
5527 3137 807 -4258 -2120 0
-5527 -3137 0
-5527 -807 0
-5527 4258 0
-5527 2120 0
-7215 4323 4324 0
7215 -4323 0
7215 -4324 0
-7216 2263 4522 0
7216 -2263 0
7216 -4522 0
-7217 4673 4674 0
7217 -4673 0
7217 -4674 0
-7218 4829 4831 0
7218 -4829 0
7218 -4831 0
-7219 4924 4925 0
7219 -4924 0
7219 -4925 0
-7220 5810 5806 0
7220 -5810 0
7220 -5806 0
-7221 5901 5902 0
7221 -5901 0
7221 -5902 0
-7222 5967 5968 0
7222 -5967 0
7222 -5968 0
-7223 6040 6041 0
7223 -6040 0
7223 -6041 0
5504 3699 -3942 367 -8 0
-5504 -3699 0
-5504 3942 0
-5504 -367 0
-5504 8 0
5644 3699 -2114 -3942 367 0
-5644 -3699 0
-5644 2114 0
-5644 3942 0
-5644 -367 0
5709 3699 -3942 -2116 367 0
-5709 -3699 0
-5709 3942 0
-5709 2116 0
-5709 -367 0
5779 3699 -3942 -2118 367 0
-5779 -3699 0
-5779 3942 0
-5779 2118 0
-5779 -367 0
4659 1248 3277 -4325 -1805 0
-4659 -1248 0
-4659 -3277 0
-4659 4325 0
-4659 1805 0
3757 3277 -4325 1248 -144 0
-3757 -3277 0
-3757 4325 0
-3757 -1248 0
-3757 144 0
5645 -2344 -4304 1143 3170 0
-5645 2344 0
-5645 4304 0
-5645 -1143 0
-5645 -3170 0
4811 -1954 3277 -4325 1248 0
-4811 1954 0
-4811 -3277 0
-4811 4325 0
-4811 -1248 0
4910 -4325 3277 -2100 1248 0
-4910 4325 0
-4910 -3277 0
-4910 2100 0
-4910 -1248 0
4507 -1652 3277 -4325 1248 0
-4507 1652 0
-4507 -3277 0
-4507 4325 0
-4507 -1248 0
5710 -2466 -4304 1143 3170 0
-5710 2466 0
-5710 4304 0
-5710 -1143 0
-5710 -3170 0
5503 1143 -4304 -2132 3170 0
-5503 -1143 0
-5503 4304 0
-5503 2132 0
-5503 -3170 0
5780 1143 -4304 -2590 3170 0
-5780 -1143 0
-5780 4304 0
-5780 2590 0
-5780 -3170 0
-7224 7220 5807 0
7224 -7220 0
7224 -5807 0
-7225 7221 5903 0
7225 -7221 0
7225 -5903 0
-7226 5961 7222 0
7226 -5961 0
7226 -7222 0
-7227 7223 6043 0
7227 -7223 0
7227 -6043 0
-7228 3169 3276 0
7228 -3169 0
7228 -3276 0
-7229 7178 7179 0
7229 -7178 0
7229 -7179 0
-7230 3360 3348 0
7230 -3360 0
7230 -3348 0
-7231 7180 7181 0
7231 -7180 0
7231 -7181 0
-7232 3532 3524 0
7232 -3532 0
7232 -3524 0
-7233 7182 7183 0
7233 -7182 0
7233 -7183 0
-7234 3605 3599 0
7234 -3605 0
7234 -3599 0
-7235 7184 7185 0
7235 -7184 0
7235 -7185 0
-7236 4413 4389 0
7236 -4413 0
7236 -4389 0
-7237 7186 7187 0
7237 -7186 0
7237 -7187 0
-7238 4537 4558 0
7238 -4537 0
7238 -4558 0
-7239 7188 7189 0
7239 -7188 0
7239 -7189 0
-7240 4700 4718 0
7240 -4700 0
7240 -4718 0
-7241 7190 7191 0
7241 -7190 0
7241 -7191 0
-7242 4940 4974 0
7242 -4940 0
7242 -4974 0
-7243 7192 7193 0
7243 -7192 0
7243 -7193 0
-7244 5038 4998 0
7244 -5038 0
7244 -4998 0
-7245 7194 7195 0
7245 -7194 0
7245 -7195 0
-7246 5101 5064 0
7246 -5101 0
7246 -5064 0
-7247 7196 7197 0
7247 -7196 0
7247 -7197 0
-7248 5172 5150 0
7248 -5172 0
7248 -5150 0
-7249 7198 7199 0
7249 -7198 0
7249 -7199 0
-7250 5206 5232 0
7250 -5206 0
7250 -5232 0
-7251 7200 7201 0
7251 -7200 0
7251 -7201 0
-7252 5238 5243 0
7252 -5238 0
7252 -5243 0
-7253 7202 7203 0
7253 -7202 0
7253 -7203 0
-7254 5333 5309 0
7254 -5333 0
7254 -5309 0
-7255 7204 7205 0
7255 -7204 0
7255 -7205 0
-7256 5418 5437 0
7256 -5418 0
7256 -5437 0
-7257 7208 7209 0
7257 -7208 0
7257 -7209 0
-7258 5408 5367 0
7258 -5408 0
7258 -5367 0
-7259 7206 7207 0
7259 -7206 0
7259 -7207 0
-7260 3777 3779 0
7260 -3777 0
7260 -3779 0
-7261 3945 3943 0
7261 -3945 0
7261 -3943 0
-7262 4167 4166 0
7262 -4167 0
7262 -4166 0
-7263 4809 4810 0
7263 -4809 0
7263 -4810 0
4506 768 -1566 -4252 3229 0
-4506 -768 0
-4506 1566 0
-4506 4252 0
-4506 -3229 0
-7264 4908 4909 0
7264 -4908 0
7264 -4909 0
-7265 4657 4658 0
7265 -4657 0
7265 -4658 0
-7266 4249 4250 0
7266 -4249 0
7266 -4250 0
-7267 6065 6066 6067 6068 0
7267 -6065 0
7267 -6066 0
7267 -6067 0
7267 -6068 0
-7268 6105 6107 6108 6110 0
7268 -6105 0
7268 -6107 0
7268 -6108 0
7268 -6110 0
-7269 6116 6117 6119 6120 0
7269 -6116 0
7269 -6117 0
7269 -6119 0
7269 -6120 0
-7270 3374 3380 0
7270 -3374 0
7270 -3380 0
-7271 7231 7230 0
7271 -7231 0
7271 -7230 0
-7272 3463 3508 0
7272 -3463 0
7272 -3508 0
-7273 7232 7233 0
7273 -7232 0
7273 -7233 0
-7274 3665 3635 0
7274 -3665 0
7274 -3635 0
-7275 7234 7235 0
7275 -7234 0
7275 -7235 0
-7276 4420 4386 0
7276 -4420 0
7276 -4386 0
-7277 7236 7237 0
7277 -7236 0
7277 -7237 0
-7278 4582 4536 0
7278 -4582 0
7278 -4536 0
-7279 7239 7238 0
7279 -7239 0
7279 -7238 0
-7280 4708 4684 0
7280 -4708 0
7280 -4684 0
-7281 7240 7241 0
7281 -7240 0
7281 -7241 0
-7282 4962 4931 0
7282 -4962 0
7282 -4931 0
-7283 7242 7243 0
7283 -7242 0
7283 -7243 0
-7284 5169 5122 0
7284 -5169 0
7284 -5122 0
-7285 7248 7249 0
7285 -7248 0
7285 -7249 0
-7286 5228 5181 0
7286 -5228 0
7286 -5181 0
-7287 7250 7251 0
7287 -7250 0
7287 -7251 0
-7288 5254 5251 0
7288 -5254 0
7288 -5251 0
-7289 7252 7253 0
7289 -7252 0
7289 -7253 0
-7290 5327 5348 0
7290 -5327 0
7290 -5348 0
-7291 7255 7254 0
7291 -7255 0
7291 -7254 0
-7292 5377 5381 0
7292 -5377 0
7292 -5381 0
-7293 7258 7259 0
7293 -7258 0
7293 -7259 0
-7294 5447 5445 0
7294 -5447 0
7294 -5445 0
-7295 7256 7257 0
7295 -7256 0
7295 -7257 0
-7296 3227 3293 0
7296 -3227 0
7296 -3293 0
-7297 7228 7229 0
7297 -7228 0
7297 -7229 0
-7298 5092 5069 0
7298 -5092 0
7298 -5069 0
-7299 7247 7246 0
7299 -7247 0
7299 -7246 0
-7300 5029 5007 0
7300 -5029 0
7300 -5007 0
-7301 7244 7245 0
7301 -7244 0
7301 -7245 0
-7302 6118 7269 0
7302 -6118 0
7302 -7269 0
-7303 6064 7267 0
7303 -6064 0
7303 -7267 0
-7304 6106 7268 0
7304 -6106 0
7304 -7268 0
6092 3294 -3296 -2338 0
-6092 -3294 0
-6092 3296 0
-6092 2338 0
7305 1230 -4320 0
-7305 -1230 0
-7305 4320 0
7306 -1984 3181 0
-7306 1984 0
-7306 -3181 0
7307 -4321 1233 0
-7307 4321 0
-7307 -1233 0
7308 -1984 3181 0
-7308 1984 0
-7308 -3181 0
7309 1236 -4322 0
-7309 -1236 0
-7309 4322 0
7310 -1984 3181 0
-7310 1984 0
-7310 -3181 0
5605 -2278 -3179 3181 0
-5605 2278 0
-5605 3179 0
-5605 -3181 0
5680 -3179 -2400 3181 0
-5680 3179 0
-5680 2400 0
-5680 -3181 0
3421 -7305 -7306 0
-3421 7305 0
-3421 7306 0
3513 -7307 -7308 0
-3513 7307 0
-3513 7308 0
3598 -7309 -7310 0
-3598 7309 0
-3598 7310 0
-7311 4792 4793 0
7311 -4792 0
7311 -4793 0
-7312 4495 4497 0
7312 -4495 0
7312 -4497 0
-7313 4891 4892 0
7313 -4891 0
7313 -4892 0
-7314 4640 4641 0
7314 -4640 0
7314 -4641 0
-7315 4318 4319 0
7315 -4318 0
7315 -4319 0
7316 -4288 1014 0
-7316 4288 0
-7316 -1014 0
7317 -134 3249 0
-7317 134 0
-7317 -3249 0
-7318 4834 4835 0
7318 -4834 0
7318 -4835 0
-7319 4585 4586 0
7319 -4585 0
7319 -4586 0
-7320 4738 4739 0
7320 -4738 0
7320 -4739 0
-7321 3142 3178 0
7321 -3142 0
7321 -3178 0
-7322 3420 3336 0
7322 -3420 0
7322 -3336 0
-7323 3512 3548 0
7323 -3512 0
7323 -3548 0
-7324 3597 3647 0
7324 -3597 0
7324 -3647 0
-7325 4408 4400 0
7325 -4408 0
7325 -4400 0
-7326 4545 4554 0
7326 -4545 0
7326 -4554 0
-7327 4726 4710 0
7327 -4726 0
7327 -4710 0
-7328 4955 4943 0
7328 -4955 0
7328 -4943 0
-7329 5027 5017 0
7329 -5027 0
7329 -5017 0
-7330 5102 5090 0
7330 -5102 0
7330 -5090 0
-7331 5154 5174 0
7331 -5154 0
7331 -5174 0
-7332 5209 5220 0
7332 -5209 0
7332 -5220 0
-7333 5241 5261 0
7333 -5241 0
7333 -5261 0
-7334 5306 5349 0
7334 -5306 0
7334 -5349 0
-7335 5402 5378 0
7335 -5402 0
7335 -5378 0
-7336 5474 5430 0
7336 -5474 0
7336 -5430 0
-7337 121 3769 0
7337 -121 0
7337 -3769 0
7338 3144 -2235 -3145 0
-7338 -3144 0
-7338 2235 0
-7338 3145 0
3774 -7316 -7317 0
-3774 7316 0
-3774 7317 0
5866 -2311 3144 -3145 0
-5866 2311 0
-5866 -3144 0
-5866 3145 0
4794 -4288 1014 3249 -1811 0
-4794 4288 0
-4794 -1014 0
-4794 -3249 0
-4794 1811 0
5922 3144 -3145 -2430 0
-5922 -3144 0
-5922 3145 0
-5922 2430 0
-7339 3938 364 0
7339 -3938 0
7339 -364 0
5995 3144 -2555 -3145 0
-5995 -3144 0
-5995 2555 0
-5995 3145 0
4893 -4288 1014 -1958 3249 0
-4893 4288 0
-4893 -1014 0
-4893 1958 0
-4893 -3249 0
4496 -4288 1014 3249 -1508 0
-4496 4288 0
-4496 -1014 0
-4496 -3249 0
-4496 1508 0
-7340 490 4050 0
7340 -490 0
7340 -4050 0
6069 3144 -2634 -3145 0
-6069 -3144 0
-6069 2634 0
-6069 3145 0
-7341 617 4161 0
7341 -617 0
7341 -4161 0
4642 -4288 1014 3249 -1659 0
-4642 4288 0
-4642 -1014 0
-4642 -3249 0
-4642 1659 0
-7342 7321 3247 0
7342 -7321 0
7342 -3247 0
-7343 7296 7297 0
7343 -7296 0
7343 -7297 0
-7344 4398 7325 0
7344 -4398 0
7344 -7325 0
-7345 7276 7277 0
7345 -7276 0
7345 -7277 0
-7346 4544 7326 0
7346 -4544 0
7346 -7326 0
-7347 7278 7279 0
7347 -7278 0
7347 -7279 0
-7348 4720 7327 0
7348 -4720 0
7348 -7327 0
-7349 7280 7281 0
7349 -7280 0
7349 -7281 0
-7350 7328 4966 0
7350 -7328 0
7350 -4966 0
-7351 7282 7283 0
7351 -7282 0
7351 -7283 0
-7352 5036 7329 0
7352 -5036 0
7352 -7329 0
-7353 7300 7301 0
7353 -7300 0
7353 -7301 0
-7354 7330 5098 0
7354 -7330 0
7354 -5098 0
-7355 7298 7299 0
7355 -7298 0
7355 -7299 0
-7356 7331 5125 0
7356 -7331 0
7356 -5125 0
-7357 7284 7285 0
7357 -7284 0
7357 -7285 0
-7358 5192 7332 0
7358 -5192 0
7358 -7332 0
-7359 7286 7287 0
7359 -7286 0
7359 -7287 0
-7360 7333 5259 0
7360 -7333 0
7360 -5259 0
-7361 7288 7289 0
7361 -7288 0
7361 -7289 0
-7362 5302 7334 0
7362 -5302 0
7362 -7334 0
-7363 7290 7291 0
7363 -7290 0
7363 -7291 0
-7364 5397 7335 0
7364 -5397 0
7364 -7335 0
-7365 7292 7293 0
7365 -7292 0
7365 -7293 0
-7366 7336 5425 0
7366 -7336 0
7366 -5425 0
-7367 7294 7295 0
7367 -7294 0
7367 -7295 0
-7368 7322 3334 0
7368 -7322 0
7368 -3334 0
-7369 7270 7271 0
7369 -7270 0
7369 -7271 0
-7370 7323 3542 0
7370 -7323 0
7370 -3542 0
-7371 7272 7273 0
7371 -7272 0
7371 -7273 0
-7372 7324 3643 0
7372 -7324 0
7372 -3643 0
-7373 7274 7275 0
7373 -7274 0
7373 -7275 0
-7374 3772 133 0
7374 -3772 0
7374 -133 0
-7375 3785 3787 0
7375 -3785 0
7375 -3787 0
-7376 3940 366 0
7376 -3940 0
7376 -366 0
-7377 3947 3948 0
7377 -3947 0
7377 -3948 0
-7378 4052 492 0
7378 -4052 0
7378 -492 0
-7379 4059 501 0
7379 -4059 0
7379 -501 0
-7380 4163 619 0
7380 -4163 0
7380 -619 0
-7381 4170 4172 0
7381 -4170 0
7381 -4172 0
-7382 3025 4467 0
7382 -3025 0
7382 -4467 0
-7383 4603 4605 0
7383 -4603 0
7383 -4605 0
-7384 4758 4760 0
7384 -4758 0
7384 -4760 0
-7385 4857 4859 0
7385 -4857 0
7385 -4859 0
-7386 4310 4311 0
7386 -4310 0
7386 -4311 0
3726 3287 1183 -122 -4312 0
-3726 -3287 0
-3726 -1183 0
-3726 122 0
-3726 4312 0
3766 885 -2624 -4271 3130 0
-3766 -885 0
-3766 2624 0
-3766 4271 0
-3766 -3130 0
6247 885 -4271 3130 -2719 0
-6247 -885 0
-6247 4271 0
-6247 -3130 0
-6247 2719 0
4776 3287 1183 -1842 -4312 0
-4776 -3287 0
-4776 -1183 0
-4776 1842 0
-4776 4312 0
6264 885 -4271 -2769 3130 0
-6264 -885 0
-6264 4271 0
-6264 2769 0
-6264 -3130 0
6284 885 -4271 3130 -2809 0
-6284 -885 0
-6284 4271 0
-6284 -3130 0
-6284 2809 0
-7387 6235 6237 6239 0
7387 -6235 0
7387 -6237 0
7387 -6239 0
4874 -1987 3287 1183 -4312 0
-4874 1987 0
-4874 -3287 0
-4874 -1183 0
-4874 4312 0
4480 3287 1183 -1540 -4312 0
-4480 -3287 0
-4480 -1183 0
-4480 1540 0
-4480 4312 0
4621 3287 1183 -1690 -4312 0
-4621 -3287 0
-4621 -1183 0
-4621 1690 0
-4621 4312 0
-7388 3286 3129 0
7388 -3286 0
7388 -3129 0
-7389 3358 3438 0
7389 -3358 0
7389 -3438 0
-7390 3469 3494 0
7390 -3469 0
7390 -3494 0
-7391 3603 3581 0
7391 -3603 0
7391 -3581 0
-7392 4436 4423 0
7392 -4436 0
7392 -4423 0
-7393 4583 4578 0
7393 -4583 0
7393 -4578 0
-7394 4677 4683 0
7394 -4677 0
7394 -4683 0
-7395 5409 5362 0
7395 -5409 0
7395 -5362 0
-7396 4946 4989 0
7396 -4946 0
7396 -4989 0
-7397 5001 5023 0
7397 -5001 0
7397 -5023 0
-7398 5085 5067 0
7398 -5085 0
7398 -5067 0
-7399 5143 5157 0
7399 -5143 0
7399 -5157 0
-7400 5214 5200 0
7400 -5214 0
7400 -5200 0
-7401 5287 5289 0
7401 -5287 0
7401 -5289 0
-7402 5314 5317 0
7402 -5314 0
7402 -5317 0
-7403 5440 5419 0
7403 -5440 0
7403 -5419 0
5797 -3273 3274 -2126 0
-5797 3273 0
-5797 -3274 0
-5797 2126 0
3751 3130 879 -62 -4269 0
-3751 -3130 0
-3751 -879 0
-3751 62 0
-3751 4269 0
4754 3130 -4269 879 -1870 0
-4754 -3130 0
-4754 4269 0
-4754 -879 0
-4754 1870 0
5881 3274 -3273 -2267 0
-5881 -3274 0
-5881 3273 0
-5881 2267 0
-7404 5841 5840 0
7404 -5841 0
7404 -5840 0
5943 3274 -3273 -2389 0
-5943 -3274 0
-5943 3273 0
-5943 2389 0
4853 -2017 3130 879 -4269 0
-4853 2017 0
-4853 -3130 0
-4853 -879 0
-4853 4269 0
4464 3130 -4269 879 -1563 0
-4464 -3130 0
-4464 4269 0
-4464 -879 0
-4464 1563 0
6016 -2510 3274 -3273 0
-6016 2510 0
-6016 -3274 0
-6016 3273 0
4599 3130 -1718 879 -4269 0
-4599 -3130 0
-4599 1718 0
-4599 -879 0
-4599 4269 0
-7405 6258 6261 6262 0
7405 -6258 0
7405 -6261 0
7405 -6262 0
7406 1117 -4302 0
-7406 -1117 0
-7406 4302 0
7407 -1734 3222 0
-7407 1734 0
-7407 -3222 0
-7408 7405 6259 0
7408 -7405 0
7408 -6259 0
6275 -2110 3691 -4154 608 0
-6275 2110 0
-6275 -3691 0
-6275 4154 0
-6275 -608 0
6281 481 -4044 -1654 3694 0
-6281 -481 0
-6281 4044 0
-6281 1654 0
-6281 -3694 0
6283 3699 -3931 355 -2116 0
-6283 -3699 0
-6283 3931 0
-6283 -355 0
-6283 2116 0
6295 100 -2106 -3753 3697 0
-6295 -100 0
-6295 2106 0
-6295 3753 0
-6295 -3697 0
6297 100 -3 3697 -3753 0
-6297 -100 0
-6297 3 0
-6297 -3697 0
-6297 3753 0
-3051 7408 1580 0
3051 -7408 0
3051 -1580 0
-7409 4299 4300 0
7409 -4299 0
7409 -4300 0
-7410 4881 4882 0
7410 -4881 0
7410 -4882 0
4765 -3070 3222 -4301 1115 0
-4765 3070 0
-4765 -3222 0
-4765 4301 0
-4765 -1115 0
3837 1115 3222 -107 -4301 0
-3837 -1115 0
-3837 -3222 0
-3837 107 0
-3837 4301 0
6298 3183 -3185 -3017 0
-6298 -3183 0
-6298 3185 0
-6298 3017 0
4864 3222 -4301 1115 -3090 0
-4864 -3222 0
-4864 4301 0
-4864 -1115 0
-4864 3090 0
-7411 6277 6279 6280 6282 6274 6276 0
7411 -6277 0
7411 -6279 0
7411 -6280 0
7411 -6282 0
7411 -6274 0
7411 -6276 0
4474 -3029 3222 -4301 1115 0
-4474 3029 0
-4474 -3222 0
-4474 4301 0
-4474 -1115 0
-7412 3030 4486 0
7412 -3030 0
7412 -4486 0
4883 3183 -3185 -1993 0
-4883 -3183 0
-4883 3185 0
-4883 1993 0
-7413 4783 3071 0
7413 -4783 0
7413 -3071 0
4611 1115 3222 -4301 -3049 0
-4611 -1115 0
-4611 -3222 0
-4611 4301 0
-4611 3049 0
4629 3183 -3185 -1697 0
-4629 -3183 0
-4629 3185 0
-4629 1697 0
7414 -4308 1157 3259 0
-7414 4308 0
-7414 -1157 0
-7414 -3259 0
6232 3699 -3936 359 -8 0
-6232 -3699 0
-6232 3936 0
-6232 -359 0
-6232 8 0
6300 485 -4048 3694 -1504 0
-6300 -485 0
-6300 4048 0
-6300 -3694 0
-6300 1504 0
6302 3699 -3936 -2116 359 0
-6302 -3699 0
-6302 3936 0
-6302 2116 0
-6302 -359 0
6304 3699 -3936 -2118 359 0
-6304 -3699 0
-6304 3936 0
-6304 2118 0
-6304 -359 0
-7415 3103 4449 0
7415 -3103 0
7415 -4449 0
-7416 4588 4590 0
7416 -4588 0
7416 -4590 0
-7417 4741 4743 0
7417 -4741 0
7417 -4743 0
-7418 4837 4839 0
7418 -4837 0
7418 -4839 0
-7419 4306 4305 0
7419 -4306 0
7419 -4305 0
-7420 3221 3182 0
7420 -3221 0
7420 -3182 0
-7421 3342 3392 0
7421 -3342 0
7421 -3392 0
-7422 3490 3492 0
7422 -3490 0
7422 -3492 0
-7423 3609 3677 0
7423 -3609 0
7423 -3677 0
-7424 4438 4435 0
7424 -4438 0
7424 -4435 0
-7425 4535 4577 0
7425 -4535 0
7425 -4577 0
-7426 4698 4699 0
7426 -4698 0
7426 -4699 0
-7427 4972 4953 0
7427 -4972 0
7427 -4953 0
-7428 5048 5024 0
7428 -5048 0
7428 -5024 0
-7429 5104 5083 0
7429 -5104 0
7429 -5083 0
-7430 5128 5156 0
7430 -5128 0
7430 -5156 0
-7431 5233 5212 0
7431 -5233 0
7431 -5212 0
-7432 5281 5244 0
7432 -5281 0
7432 -5244 0
-7433 5335 5305 0
7433 -5335 0
7433 -5305 0
-7434 5400 5387 0
7434 -5400 0
7434 -5387 0
-7435 5458 5429 0
7435 -5458 0
7435 -5429 0
3760 1131 -241 -4303 3183 0
-3760 -1131 0
-3760 241 0
-3760 4303 0
-3760 -3183 0
4742 1131 -1849 -4303 3183 0
-4742 -1131 0
-4742 1849 0
-4742 4303 0
-4742 -3183 0
6234 -4308 1157 -3004 3259 0
-6234 4308 0
-6234 -1157 0
-6234 3004 0
-6234 -3259 0
4766 -4308 1157 -3110 3259 0
-4766 4308 0
-4766 -1157 0
-4766 3110 0
-4766 -3259 0
4838 1131 -4303 -1993 3183 0
-4838 -1131 0
-4838 4303 0
-4838 1993 0
-4838 -3183 0
4450 1131 -1547 -4303 3183 0
-4450 -1131 0
-4450 1547 0
-4450 4303 0
-4450 -3183 0
4865 -4308 1157 -3116 3259 0
-4865 4308 0
-4865 -1157 0
-4865 3116 0
-4865 -3259 0
4473 -3102 -4308 1157 3259 0
-4473 3102 0
-4473 4308 0
-4473 -1157 0
-4473 -3259 0
4589 1131 -4303 3183 -1697 0
-4589 -1131 0
-4589 4303 0
-4589 -3183 0
-4589 1697 0
4610 -3104 -7414 0
-4610 3104 0
-4610 7414 0
-7436 7420 3258 0
7436 -7420 0
7436 -3258 0
-7437 3272 7388 0
7437 -3272 0
7437 -7388 0
-7438 7421 3414 0
7438 -7421 0
7438 -3414 0
-7439 3388 7389 0
7439 -3388 0
7439 -7389 0
-7440 7422 3478 0
7440 -7422 0
7440 -3478 0
-7441 7390 3471 0
7441 -7390 0
7441 -3471 0
-7442 3595 7423 0
7442 -3595 0
7442 -7423 0
-7443 7391 3613 0
7443 -7391 0
7443 -3613 0
-7444 4428 7424 0
7444 -4428 0
7444 -7424 0
-7445 7392 4424 0
7445 -7392 0
7445 -4424 0
-7446 4574 7425 0
7446 -4574 0
7446 -7425 0
-7447 7393 4572 0
7447 -7393 0
7447 -4572 0
-7448 4690 7426 0
7448 -4690 0
7448 -7426 0
-7449 7394 4689 0
7449 -7394 0
7449 -4689 0
-7450 7427 4969 0
7450 -7427 0
7450 -4969 0
-7451 4973 7396 0
7451 -4973 0
7451 -7396 0
-7452 7428 5042 0
7452 -7428 0
7452 -5042 0
-7453 5046 7397 0
7453 -5046 0
7453 -7397 0
-7454 7429 5059 0
7454 -7429 0
7454 -5059 0
-7455 7398 5063 0
7455 -7398 0
7455 -5063 0
-7456 7430 5149 0
7456 -7430 0
7456 -5149 0
-7457 7399 5161 0
7457 -7399 0
7457 -5161 0
-7458 5207 7431 0
7458 -5207 0
7458 -7431 0
-7459 5224 7400 0
7459 -5224 0
7459 -7400 0
-7460 5234 7432 0
7460 -5234 0
7460 -7432 0
-7461 5248 7401 0
7461 -5248 0
7461 -7401 0
-7462 5345 7433 0
7462 -5345 0
7462 -7433 0
-7463 5295 7402 0
7463 -5295 0
7463 -7402 0
-7464 5373 7434 0
7464 -5373 0
7464 -7434 0
-7465 5386 7395 0
7465 -5386 0
7465 -7395 0
-7466 7435 5468 0
7466 -7435 0
7466 -5468 0
-7467 5456 7403 0
7467 -5456 0
7467 -7403 0
-7468 96 3749 0
7468 -96 0
7468 -3749 0
-7469 3758 111 0
7469 -3758 0
7469 -111 0
3754 -4313 1185 3287 -122 0
-3754 4313 0
-3754 -1185 0
-3754 -3287 0
-3754 122 0
3767 1117 -4302 3222 -3096 0
-3767 -1117 0
-3767 4302 0
-3767 -3222 0
-3767 3096 0
4759 1117 3222 -1886 -4302 0
-4759 -1117 0
-4759 -3222 0
-4759 1886 0
-4759 4302 0
6260 -4313 1185 -3031 3287 0
-6260 4313 0
-6260 -1185 0
-6260 3031 0
-6260 -3287 0
6278 -4313 1185 3287 -3052 0
-6278 4313 0
-6278 -1185 0
-6278 -3287 0
-6278 3052 0
6296 -4313 1185 -3072 3287 0
-6296 4313 0
-6296 -1185 0
-6296 3072 0
-6296 -3287 0
-7470 3935 360 0
7470 -3935 0
7470 -360 0
4858 1117 -4302 3222 -2032 0
-4858 -1117 0
-4858 4302 0
-4858 -3222 0
-4858 2032 0
4468 1117 3222 -1579 -4302 0
-4468 -1117 0
-4468 -3222 0
-4468 1579 0
-4468 4302 0
-7471 486 4047 0
7471 -486 0
7471 -4047 0
4604 -7406 -7407 0
-4604 7406 0
-4604 7407 0
-7472 613 4158 0
7472 -613 0
7472 -4158 0
5852 1103 -4298 3285 -2228 0
-5852 -1103 0
-5852 4298 0
-5852 -3285 0
-5852 2228 0
4781 -3748 -1935 1205 3241 0
-4781 3748 0
-4781 1935 0
-4781 -1205 0
-4781 -3241 0
4879 -3748 1205 3241 -2080 0
-4879 3748 0
-4879 -1205 0
-4879 -3241 0
-4879 2080 0
4484 -3748 1205 3241 -1631 0
-4484 3748 0
-4484 -1205 0
-4484 -3241 0
-4484 1631 0
4627 -3748 1205 3241 -1784 0
-4627 3748 0
-4627 -1205 0
-4627 -3241 0
-4627 1784 0
-7473 5498 5499 5500 5501 5502 0
7473 -5498 0
7473 -5499 0
7473 -5500 0
7473 -5501 0
7473 -5502 0
-7474 4806 4808 0
7474 -4806 0
7474 -4808 0
-7475 4905 4906 0
7475 -4905 0
7475 -4906 0
-7476 4654 4655 0
7476 -4654 0
7476 -4655 0
-7477 5808 5809 0
7477 -5808 0
7477 -5809 0
-7478 5899 5904 0
7478 -5899 0
7478 -5904 0
-7479 5964 5965 0
7479 -5964 0
7479 -5965 0
-7480 6042 6047 0
7480 -6042 0
7480 -6047 0
-7481 3239 3283 0
7481 -3239 0
7481 -3283 0
-7482 3372 3442 0
7482 -3372 0
7482 -3442 0
-7483 3522 3461 0
7483 -3522 0
7483 -3461 0
-7484 3587 3629 0
7484 -3587 0
7484 -3629 0
-7485 4388 4429 0
7485 -4388 0
7485 -4429 0
-7486 4570 4530 0
7486 -4570 0
7486 -4530 0
-7487 4693 4727 0
7487 -4693 0
7487 -4727 0
-7488 4964 4975 0
7488 -4964 0
7488 -4975 0
-7489 4991 5000 0
7489 -4991 0
7489 -5000 0
-7490 5056 5066 0
7490 -5056 0
7490 -5066 0
-7491 5148 5164 0
7491 -5148 0
7491 -5164 0
-7492 5182 5225 0
7492 -5182 0
7492 -5225 0
-7493 5235 5252 0
7493 -5235 0
7493 -5252 0
-7494 5296 5324 0
7494 -5296 0
7494 -5324 0
-7495 5388 5375 0
7495 -5388 0
7495 -5375 0
-7496 5448 5459 0
7496 -5448 0
7496 -5459 0
4656 1208 3241 -4316 -1784 0
-4656 -1208 0
-4656 -3241 0
-4656 4316 0
-4656 1784 0
5850 3308 -3310 -2246 0
-5850 -3308 0
-5850 3310 0
-5850 2246 0
4807 1208 -1935 -4316 3241 0
-4807 -1208 0
-4807 1935 0
-4807 4316 0
-4807 -3241 0
3886 1208 3241 -4316 -149 0
-3886 -1208 0
-3886 -3241 0
-3886 4316 0
-3886 149 0
4907 1208 3241 -4316 -2080 0
-4907 -1208 0
-4907 -3241 0
-4907 4316 0
-4907 2080 0
4505 1208 3241 -4316 -1631 0
-4505 -1208 0
-4505 -3241 0
-4505 4316 0
-4505 1631 0
7497 745 3305 -4248 0
-7497 -745 0
-7497 -3305 0
-7497 4248 0
5127 741 -3672 -1634 3305 0
-5127 -741 0
-5127 3672 0
-5127 1634 0
-5127 -3305 0
-7498 4246 4245 0
7498 -4246 0
7498 -4245 0
-7499 4247 742 0
7499 -4247 0
7499 -742 0
-7500 5769 5770 5771 5773 5774 1939 0
7500 -5769 0
7500 -5770 0
7500 -5771 0
7500 -5773 0
7500 -5774 0
7500 -1939 0
-7501 5785 2084 5781 5782 5783 5784 0
7501 -5785 0
7501 -2084 0
7501 -5781 0
7501 -5782 0
7501 -5783 0
7501 -5784 0
5635 4015 -4017 3694 -1504 0
-5635 -4015 0
-5635 4017 0
-5635 -3694 0
-5635 1504 0
5636 -2108 4128 3691 -4126 0
-5636 2108 0
-5636 -4128 0
-5636 -3691 0
-5636 4126 0
5637 3699 -3904 -2114 3902 0
-5637 -3699 0
-5637 3904 0
-5637 2114 0
-5637 -3902 0
5639 3706 3697 -2102 -3708 0
-5639 -3706 0
-5639 -3697 0
-5639 2102 0
-5639 3708 0
5963 -2480 -7497 0
-5963 2480 0
-5963 7497 0
-7502 4816 4818 0
7502 -4816 0
7502 -4818 0
-7503 2601 4914 0
7503 -2601 0
7503 -4914 0
3896 -3892 -3 3697 317 0
-3896 3892 0
-3896 3 0
-3896 -3697 0
-3896 -317 0
-7504 4785 4787 0
7504 -4785 0
7504 -4787 0
-7505 4885 4887 0
7505 -4885 0
7505 -4887 0
-7506 4631 4632 0
7506 -4631 0
7506 -4632 0
5595 696 -2108 -4236 3691 0
-5595 -696 0
-5595 2108 0
-5595 4236 0
-5595 -3691 0
5596 3699 443 -2114 -4013 0
-5596 -3699 0
-5596 -443 0
-5596 2114 0
-5596 4013 0
-7507 5563 5564 5565 2038 5566 0
7507 -5563 0
7507 -5564 0
7507 -5565 0
7507 -2038 0
7507 -5566 0
-7508 2230 4488 0
7508 -2230 0
7508 -4488 0
4886 743 3305 -3891 -2083 0
-4886 -743 0
-4886 -3305 0
-4886 3891 0
-4886 2083 0
4786 -1938 3305 -3891 743 0
-4786 1938 0
-4786 -3305 0
-4786 3891 0
-4786 -743 0
5638 3244 -3246 -2300 0
-5638 -3244 0
-5638 3246 0
-5638 2300 0
5704 3244 -3246 -2422 0
-5704 -3244 0
-5704 3246 0
-5704 2422 0
5772 3244 -3246 -2544 0
-5772 -3244 0
-5772 3246 0
-5772 2544 0
4633 3305 -3891 743 -1787 0
-4633 -3305 0
-4633 3891 0
-4633 -743 0
-4633 1787 0
-7509 3518 3552 0
7509 -3518 0
7509 -3552 0
-7510 7483 3516 0
7510 -7483 0
7510 -3516 0
-7511 5811 7477 0
7511 -5811 0
7511 -7477 0
-7512 5900 7478 0
7512 -5900 0
7512 -7478 0
-7513 6045 7480 0
7513 -6045 0
7513 -7480 0
-7514 4405 4390 0
7514 -4405 0
7514 -4390 0
-7515 7485 4407 0
7515 -7485 0
7515 -4407 0
-7516 4538 4565 0
7516 -4538 0
7516 -4565 0
-7517 4553 7486 0
7517 -4553 0
7517 -7486 0
-7518 4725 4695 0
7518 -4725 0
7518 -4695 0
-7519 7487 4712 0
7519 -7487 0
7519 -4712 0
-7520 4979 4980 0
7520 -4979 0
7520 -4980 0
-7521 4981 7488 0
7521 -4981 0
7521 -7488 0
-7522 5016 4992 0
7522 -5016 0
7522 -4992 0
-7523 4994 7489 0
7523 -4994 0
7523 -7489 0
-7524 5216 5184 0
7524 -5216 0
7524 -5184 0
-7525 7492 5218 0
7525 -7492 0
7525 -5218 0
-7526 5343 5354 0
7526 -5343 0
7526 -5354 0
-7527 7494 5298 0
7527 -7494 0
7527 -5298 0
-7528 5405 5399 0
7528 -5405 0
7528 -5399 0
-7529 7495 5391 0
7529 -7495 0
7529 -5391 0
-7530 3410 3430 0
7530 -3410 0
7530 -3430 0
-7531 3446 7482 0
7531 -3446 0
7531 -7482 0
-7532 3685 3671 0
7532 -3685 0
7532 -3671 0
-7533 3571 7484 0
7533 -3571 0
7533 -7484 0
-7534 5256 5283 0
7534 -5256 0
7534 -5283 0
-7535 7493 5249 0
7535 -7493 0
7535 -5249 0
-7536 5072 5057 0
7536 -5072 0
7536 -5057 0
-7537 5074 7490 0
7537 -5074 0
7537 -7490 0
-7538 5421 5469 0
7538 -5421 0
7538 -5469 0
-7539 7496 5422 0
7539 -7496 0
7539 -5422 0
-7540 3243 3304 0
7540 -3243 0
7540 -3304 0
-7541 3307 7481 0
7541 -3307 0
7541 -7481 0
-7542 7479 5966 0
7542 -7479 0
7542 -5966 0
-7543 5126 5133 0
7543 -5126 0
7543 -5133 0
-7544 7491 5139 0
7544 -7491 0
7544 -5139 0
3709 -4317 3241 -149 1211 0
-3709 4317 0
-3709 -3241 0
-3709 149 0
-3709 -1211 0
4663 3241 -4317 -1784 1211 0
-4663 -3241 0
-4663 4317 0
-4663 1784 0
-4663 -1211 0
5851 745 3305 -4248 -2254 0
-5851 -745 0
-5851 -3305 0
-5851 4248 0
-5851 2254 0
4817 -1935 3241 -4317 1211 0
-4817 1935 0
-4817 -3241 0
-4817 4317 0
-4817 -1211 0
4915 -4317 3241 -2080 1211 0
-4915 4317 0
-4915 -3241 0
-4915 2080 0
-4915 -1211 0
4513 3241 -1631 -4317 1211 0
-4513 -3241 0
-4513 1631 0
-4513 4317 0
-4513 -1211 0
-7545 7540 7541 0
7545 -7540 0
7545 -7541 0
-7546 7436 7437 0
7546 -7436 0
7546 -7437 0
-7547 7530 7531 0
7547 -7530 0
7547 -7531 0
-7548 7438 7439 0
7548 -7438 0
7548 -7439 0
-7549 7510 7509 0
7549 -7510 0
7549 -7509 0
-7550 7441 7440 0
7550 -7441 0
7550 -7440 0
-7551 7532 7533 0
7551 -7532 0
7551 -7533 0
-7552 7442 7443 0
7552 -7442 0
7552 -7443 0
-7553 7514 7515 0
7553 -7514 0
7553 -7515 0
-7554 7444 7445 0
7554 -7444 0
7554 -7445 0
-7555 7516 7517 0
7555 -7516 0
7555 -7517 0
-7556 7446 7447 0
7556 -7446 0
7556 -7447 0
-7557 7518 7519 0
7557 -7518 0
7557 -7519 0
-7558 7449 7448 0
7558 -7449 0
7558 -7448 0
-7559 7520 7521 0
7559 -7520 0
7559 -7521 0
-7560 7450 7451 0
7560 -7450 0
7560 -7451 0
-7561 7522 7523 0
7561 -7522 0
7561 -7523 0
-7562 7452 7453 0
7562 -7452 0
7562 -7453 0
-7563 7536 7537 0
7563 -7536 0
7563 -7537 0
-7564 7454 7455 0
7564 -7454 0
7564 -7455 0
-7565 7543 7544 0
7565 -7543 0
7565 -7544 0
-7566 7457 7456 0
7566 -7457 0
7566 -7456 0
-7567 7524 7525 0
7567 -7524 0
7567 -7525 0
-7568 7458 7459 0
7568 -7458 0
7568 -7459 0
-7569 7534 7535 0
7569 -7534 0
7569 -7535 0
-7570 7460 7461 0
7570 -7460 0
7570 -7461 0
-7571 7526 7527 0
7571 -7526 0
7571 -7527 0
-7572 7462 7463 0
7572 -7462 0
7572 -7463 0
-7573 7528 7529 0
7573 -7528 0
7573 -7529 0
-7574 7465 7464 0
7574 -7465 0
7574 -7464 0
-7575 7538 7539 0
7575 -7538 0
7575 -7539 0
-7576 7466 7467 0
7576 -7466 0
7576 -7467 0
4662 1187 3287 -4314 -1690 0
-4662 -1187 0
-4662 -3287 0
-4662 4314 0
-4662 1690 0
-7577 92 3746 0
7577 -92 0
7577 -3746 0
3780 1187 3287 -4314 -122 0
-3780 -1187 0
-3780 -3287 0
-3780 4314 0
-3780 122 0
6236 3241 -2693 -3242 0
-6236 -3241 0
-6236 2693 0
-6236 3242 0
4815 1187 3287 -4314 -1842 0
-4815 -1187 0
-4815 -3287 0
-4815 4314 0
-4815 1842 0
-7578 3927 352 0
7578 -3927 0
7578 -352 0
4913 1187 -1987 3287 -4314 0
-4913 -1187 0
-4913 1987 0
-4913 -3287 0
-4913 4314 0
4512 1187 3287 -4314 -1540 0
-4512 -1187 0
-4512 -3287 0
-4512 4314 0
-4512 1540 0
-7579 478 4039 0
7579 -478 0
7579 -4039 0
-7580 4150 605 0
7580 -4150 0
7580 -605 0
-7581 7545 7546 0
7581 -7545 0
7581 -7546 0
-7582 7343 7342 0
7582 -7343 0
7582 -7342 0
-7583 7547 7548 0
7583 -7547 0
7583 -7548 0
-7584 7368 7369 0
7584 -7368 0
7584 -7369 0
-7585 7549 7550 0
7585 -7549 0
7585 -7550 0
-7586 7370 7371 0
7586 -7370 0
7586 -7371 0
-7587 7552 7551 0
7587 -7552 0
7587 -7551 0
-7588 7372 7373 0
7588 -7372 0
7588 -7373 0
-7589 7553 7554 0
7589 -7553 0
7589 -7554 0
-7590 7344 7345 0
7590 -7344 0
7590 -7345 0
-7591 7555 7556 0
7591 -7555 0
7591 -7556 0
-7592 7346 7347 0
7592 -7346 0
7592 -7347 0
-7593 7557 7558 0
7593 -7557 0
7593 -7558 0
-7594 7348 7349 0
7594 -7348 0
7594 -7349 0
-7595 7560 7559 0
7595 -7560 0
7595 -7559 0
-7596 7351 7350 0
7596 -7351 0
7596 -7350 0
-7597 7561 7562 0
7597 -7561 0
7597 -7562 0
-7598 7352 7353 0
7598 -7352 0
7598 -7353 0
-7599 7563 7564 0
7599 -7563 0
7599 -7564 0
-7600 7354 7355 0
7600 -7354 0
7600 -7355 0
-7601 7565 7566 0
7601 -7565 0
7601 -7566 0
-7602 7356 7357 0
7602 -7356 0
7602 -7357 0
-7603 7568 7567 0
7603 -7568 0
7603 -7567 0
-7604 7359 7358 0
7604 -7359 0
7604 -7358 0
-7605 7569 7570 0
7605 -7569 0
7605 -7570 0
-7606 7360 7361 0
7606 -7360 0
7606 -7361 0
-7607 7571 7572 0
7607 -7571 0
7607 -7572 0
-7608 7362 7363 0
7608 -7362 0
7608 -7363 0
-7609 7573 7574 0
7609 -7573 0
7609 -7574 0
-7610 7364 7365 0
7610 -7364 0
7610 -7365 0
-7611 7576 7575 0
7611 -7576 0
7611 -7575 0
-7612 7367 7366 0
7612 -7367 0
7612 -7366 0
-7613 7511 5812 0
7613 -7511 0
7613 -5812 0
-7614 7224 5805 0
7614 -7224 0
7614 -5805 0
-7615 5897 7512 0
7615 -5897 0
7615 -7512 0
-7616 5898 7225 0
7616 -5898 0
7616 -7225 0
-7617 7542 5962 0
7617 -7542 0
7617 -5962 0
-7618 7226 5969 0
7618 -7226 0
7618 -5969 0
-7619 7513 6044 0
7619 -7513 0
7619 -6044 0
-7620 7227 6046 0
7620 -7227 0
7620 -6046 0
-7621 4202 4204 0
7621 -4202 0
7621 -4204 0
-7622 3705 3707 0
7622 -3705 0
7622 -3707 0
-7623 101 3752 0
7623 -101 0
7623 -3752 0
-7624 3755 106 0
7624 -3755 0
7624 -106 0
-7625 3761 116 0
7625 -3761 0
7625 -116 0
3764 1275 -3010 -4331 3141 0
-3764 -1275 0
-3764 3010 0
-3764 4331 0
-3764 -3141 0
3783 1190 3287 -4315 -122 0
-3783 -1190 0
-3783 -3287 0
-3783 4315 0
-3783 122 0
4763 1190 3287 -4315 -1842 0
-4763 -1190 0
-4763 -3287 0
-4763 4315 0
-4763 1842 0
6238 1275 -2934 -4331 3141 0
-6238 -1275 0
-6238 2934 0
-6238 4331 0
-6238 -3141 0
-7626 7613 7614 0
7626 -7613 0
7626 -7614 0
-7627 3833 230 0
7627 -3833 0
7627 -230 0
6248 1275 -4331 3141 -2951 0
-6248 -1275 0
-6248 4331 0
-6248 -3141 0
-6248 2951 0
6263 1275 -2971 -4331 3141 0
-6263 -1275 0
-6263 2971 0
-6263 4331 0
-6263 -3141 0
-7628 7615 7616 0
7628 -7615 0
7628 -7616 0
-7629 7618 7617 0
7629 -7618 0
7629 -7617 0
-7630 7619 7620 0
7630 -7619 0
7630 -7620 0
-7631 3901 3903 0
7631 -3901 0
7631 -3903 0
6285 1275 -2991 -4331 3141 0
-6285 -1275 0
-6285 2991 0
-6285 4331 0
-6285 -3141 0
-7632 3930 3932 0
7632 -3930 0
7632 -3932 0
-7633 358 3933 0
7633 -358 0
7633 -3933 0
-7634 362 3937 0
7634 -362 0
7634 -3937 0
4861 -1987 3287 -4315 1190 0
-4861 1987 0
-4861 -3287 0
-4861 4315 0
-4861 -1190 0
4470 3287 -4315 1190 -1540 0
-4470 -3287 0
-4470 4315 0
-4470 -1190 0
-4470 1540 0
-7635 3978 408 0
7635 -3978 0
7635 -408 0
-7636 4014 4016 0
7636 -4014 0
7636 -4016 0
-7637 4042 4043 0
7637 -4042 0
7637 -4043 0
-7638 4045 484 0
7638 -4045 0
7638 -484 0
-7639 4049 488 0
7639 -4049 0
7639 -488 0
-7640 535 4089 0
7640 -535 0
7640 -4089 0
-7641 4125 4127 0
7641 -4125 0
7641 -4127 0
4608 3287 -4315 -1690 1190 0
-4608 -3287 0
-4608 4315 0
-4608 1690 0
-4608 -1190 0
-7642 4153 4155 0
7642 -4153 0
7642 -4155 0
-7643 4156 611 0
7643 -4156 0
7643 -611 0
-7644 615 4160 0
7644 -615 0
7644 -4160 0
-7645 5489 5492 5493 0
7645 -5489 0
7645 -5492 0
7645 -5493 0
-7646 5631 5633 5629 5630 0
7646 -5631 0
7646 -5633 0
7646 -5629 0
7646 -5630 0
-7647 5703 5698 5699 5700 0
7647 -5703 0
7647 -5698 0
7647 -5699 0
7647 -5700 0
-7648 5762 5766 5767 5768 0
7648 -5762 0
7648 -5766 0
7648 -5767 0
7648 -5768 0
-7649 5800 5801 5802 5798 0
7649 -5800 0
7649 -5801 0
7649 -5802 0
7649 -5798 0
-7650 7645 5491 0
7650 -7645 0
7650 -5491 0
-7651 3735 3736 0
7651 -3735 0
7651 -3736 0
5580 597 -2108 -4145 3691 0
-5580 -597 0
-5580 2108 0
-5580 4145 0
-5580 -3691 0
-7652 346 3921 0
7652 -346 0
7652 -3921 0
5656 597 -2110 -4145 3691 0
-5656 -597 0
-5656 2110 0
-5656 4145 0
-5656 -3691 0
5720 597 -4145 3691 -2112 0
-5720 -597 0
-5720 4145 0
-5720 -3691 0
-5720 2112 0
-7653 5590 5592 5593 0
7653 -5590 0
7653 -5592 0
7653 -5593 0
-7654 5667 5668 5669 0
7654 -5667 0
7654 -5668 0
7654 -5669 0
-7655 5734 5735 5731 0
7655 -5734 0
7655 -5735 0
7655 -5731 0
-7656 6133 6134 6135 0
7656 -6133 0
7656 -6134 0
7656 -6135 0
-7657 6255 6256 6249 0
7657 -6255 0
7657 -6256 0
7657 -6249 0
-7658 6267 6269 6272 0
7658 -6267 0
7658 -6269 0
7658 -6272 0
-7659 6292 6293 6287 0
7659 -6292 0
7659 -6293 0
7659 -6287 0
-7660 7654 5670 0
7660 -7654 0
7660 -5670 0
-7661 5732 7655 0
7661 -5732 0
7661 -7655 0
-7662 7653 5594 0
7662 -7653 0
7662 -5594 0
-7663 7662 5591 0
7663 -7662 0
7663 -5591 0
-7664 5666 7660 0
7664 -5666 0
7664 -7660 0
-7665 7658 6273 0
7665 -7658 0
7665 -6273 0
-7666 7659 6288 0
7666 -7659 0
7666 -6288 0
-7667 5913 5915 5917 0
7667 -5913 0
7667 -5915 0
7667 -5917 0
-7668 5982 5984 5987 0
7668 -5982 0
7668 -5984 0
7668 -5987 0
-7669 6056 6059 6055 0
7669 -6056 0
7669 -6059 0
7669 -6055 0
-7670 6132 7656 0
7670 -6132 0
7670 -7656 0
-7671 7657 6253 0
7671 -7657 0
7671 -6253 0
-7672 3729 3731 0
7672 -3729 0
7672 -3731 0
-7673 3918 3919 0
7673 -3918 0
7673 -3919 0
-7674 4031 4033 0
7674 -4031 0
7674 -4033 0
-7675 4142 4144 0
7675 -4142 0
7675 -4144 0
3728 1171 -209 -4309 3271 0
-3728 -1171 0
-3728 209 0
-3728 4309 0
-3728 -3271 0
4775 1171 -1883 -4309 3271 0
-4775 -1171 0
-4775 1883 0
-4775 4309 0
-4775 -3271 0
-7676 4273 4275 0
7676 -4273 0
7676 -4275 0
4873 1171 -4309 3271 -2029 0
-4873 -1171 0
-4873 4309 0
-4873 -3271 0
-4873 2029 0
4479 1171 -1576 -4309 3271 0
-4479 -1171 0
-4479 1576 0
-4479 4309 0
-4479 -3271 0
4620 -1731 1171 -4309 3271 0
-4620 1731 0
-4620 -1171 0
-4620 4309 0
-4620 -3271 0
-7677 2221 4465 0
7677 -2221 0
7677 -4465 0
-7678 4854 4855 0
7678 -4854 0
7678 -4855 0
-7679 4600 4601 0
7679 -4600 0
7679 -4601 0
-7680 4755 4757 0
7680 -4755 0
7680 -4757 0
-7681 3203 3261 0
7681 -3203 0
7681 -3261 0
-7682 3268 3172 0
7682 -3268 0
7682 -3172 0
-7683 3376 3378 0
7683 -3376 0
7683 -3378 0
-7684 3384 3432 0
7684 -3384 0
7684 -3432 0
-7685 3484 3534 0
7685 -3484 0
7685 -3534 0
-7686 3498 3556 0
7686 -3498 0
7686 -3556 0
-7687 3639 3673 0
7687 -3639 0
7687 -3673 0
-7688 3625 3645 0
7688 -3625 0
7688 -3645 0
-7689 6136 6129 0
7689 -6136 0
7689 -6129 0
-7690 4395 4430 0
7690 -4395 0
7690 -4430 0
-7691 4439 4406 0
7691 -4439 0
7691 -4406 0
-7692 6251 6252 0
7692 -6251 0
7692 -6252 0
-7693 6268 6270 0
7693 -6268 0
7693 -6270 0
-7694 6286 6289 0
7694 -6286 0
7694 -6289 0
-7695 4528 4542 0
7695 -4528 0
7695 -4542 0
-7696 4571 4547 0
7696 -4571 0
7696 -4547 0
-7697 4717 4691 0
7697 -4717 0
7697 -4691 0
-7698 4702 4730 0
7698 -4702 0
7698 -4730 0
-7699 4970 4951 0
7699 -4970 0
7699 -4951 0
-7700 4967 4983 0
7700 -4967 0
7700 -4983 0
-7701 5022 5041 0
7701 -5022 0
7701 -5041 0
-7702 5037 4996 0
7702 -5037 0
7702 -4996 0
-7703 5081 5060 0
7703 -5081 0
7703 -5060 0
-7704 5062 5099 0
7704 -5062 0
7704 -5099 0
-7705 5130 5170 0
7705 -5130 0
7705 -5170 0
-7706 5135 5173 0
7706 -5135 0
7706 -5173 0
-7707 5185 5210 0
7707 -5185 0
7707 -5210 0
-7708 5187 5188 0
7708 -5187 0
7708 -5188 0
-7709 5257 5280 0
7709 -5257 0
7709 -5280 0
-7710 5277 5260 0
7710 -5277 0
7710 -5260 0
-7711 5325 5326 0
7711 -5325 0
7711 -5326 0
-7712 5351 5331 0
7712 -5351 0
7712 -5331 0
-7713 5355 5356 0
7713 -5355 0
7713 -5356 0
-7714 5380 5366 0
7714 -5380 0
7714 -5366 0
-7715 5427 5451 0
7715 -5427 0
7715 -5451 0
-7716 5475 5455 0
7716 -5475 0
7716 -5455 0
4756 -4272 930 -1867 3174 0
-4756 4272 0
-4756 -930 0
-4756 1867 0
-4756 -3174 0
3845 930 -68 3174 -4272 0
-3845 -930 0
-3845 68 0
-3845 -3174 0
-3845 4272 0
4856 -2014 930 3174 -4272 0
-4856 2014 0
-4856 -930 0
-4856 -3174 0
-4856 4272 0
-7717 6240 6241 6242 6244 0
7717 -6240 0
7717 -6241 0
7717 -6242 0
7717 -6244 0
4466 -4272 930 -1560 3174 0
-4466 4272 0
-4466 -930 0
-4466 1560 0
-4466 -3174 0
4504 3174 -3740 -1560 927 0
-4504 -3174 0
-4504 3740 0
-4504 1560 0
-4504 -927 0
4602 -1715 930 3174 -4272 0
-4602 1715 0
-4602 -930 0
-4602 -3174 0
-4602 4272 0
-7718 7681 7682 0
7718 -7681 0
7718 -7682 0
-7719 3325 3235 0
7719 -3325 0
7719 -3235 0
-7720 7683 7684 0
7720 -7683 0
7720 -7684 0
-7721 3346 3418 0
7721 -3346 0
7721 -3418 0
-7722 7685 7686 0
7722 -7685 0
7722 -7686 0
-7723 3453 3486 0
7723 -3453 0
7723 -3486 0
-7724 7688 7687 0
7724 -7688 0
7724 -7687 0
-7725 3669 3577 0
7725 -3669 0
7725 -3577 0
-7726 7690 7691 0
7726 -7690 0
7726 -7691 0
-7727 4414 4434 0
7727 -4414 0
7727 -4434 0
-7728 7696 7695 0
7728 -7696 0
7728 -7695 0
-7729 4534 4580 0
7729 -4534 0
7729 -4580 0
-7730 7697 7698 0
7730 -7697 0
7730 -7698 0
-7731 4692 4679 0
7731 -4692 0
7731 -4679 0
-7732 7713 7714 0
7732 -7713 0
7732 -7714 0
-7733 5360 5398 0
7733 -5360 0
7733 -5398 0
-7734 7715 7716 0
7734 -7715 0
7734 -7716 0
-7735 5470 5431 0
7735 -5470 0
7735 -5431 0
-7736 7699 7700 0
7736 -7699 0
7736 -7700 0
-7737 4988 4968 0
7737 -4988 0
7737 -4968 0
-7738 7701 7702 0
7738 -7701 0
7738 -7702 0
-7739 5002 5035 0
7739 -5002 0
7739 -5035 0
-7740 7704 7703 0
7740 -7704 0
7740 -7703 0
-7741 5054 5078 0
7741 -5054 0
7741 -5078 0
-7742 7705 7706 0
7742 -7705 0
7742 -7706 0
-7743 5152 5140 0
7743 -5152 0
7743 -5140 0
-7744 7707 7708 0
7744 -7707 0
7744 -7708 0
-7745 5208 5219 0
7745 -5208 0
7745 -5219 0
-7746 7709 7710 0
7746 -7709 0
7746 -7710 0
-7747 5278 5265 0
7747 -5278 0
7747 -5265 0
-7748 7712 7711 0
7748 -7712 0
7748 -7711 0
-7749 5329 5353 0
7749 -5329 0
7749 -5353 0
-7750 7689 6131 0
7750 -7689 0
7750 -6131 0
-7751 6130 7670 0
7751 -6130 0
7751 -7670 0
-7752 6257 7692 0
7752 -6257 0
7752 -7692 0
-7753 7671 6254 0
7753 -7671 0
7753 -6254 0
-7754 6266 7693 0
7754 -6266 0
7754 -7693 0
-7755 7665 6265 0
7755 -7665 0
7755 -6265 0
-7756 6294 7694 0
7756 -6294 0
7756 -7694 0
-7757 6291 7666 0
7757 -6291 0
7757 -7666 0
-7758 5624 5625 5626 5627 1616 0
7758 -5624 0
7758 -5625 0
7758 -5626 0
7758 -5627 0
7758 -1616 0
-7759 5693 5694 5695 5696 1771 0
7759 -5693 0
7759 -5694 0
7759 -5695 0
7759 -5696 0
7759 -1771 0
-7760 7661 5733 0
7760 -7661 0
7760 -5733 0
-7761 5754 5755 1922 5756 5753 0
7761 -5754 0
7761 -5755 0
7761 -1922 0
7761 -5756 0
7761 -5753 0
6243 3237 -3236 -2227 0
-6243 -3237 0
-6243 3236 0
-6243 2227 0
4780 924 -3734 -1867 3174 0
-4780 -924 0
-4780 3734 0
-4780 1867 0
-4780 -3174 0
-2914 7750 7751 0
2914 -7750 0
2914 -7751 0
-3040 7752 7753 0
3040 -7752 0
3040 -7753 0
-3061 7754 7755 0
3061 -7754 0
3061 -7755 0
-3082 7756 7757 0
3082 -7756 0
3082 -7757 0
-7762 4503 2245 0
7762 -4503 0
7762 -2245 0
4483 924 -3734 3174 -1560 0
-4483 -924 0
-4483 3734 0
-4483 -3174 0
-4483 1560 0
-7763 4653 2331 0
7763 -4653 0
7763 -2331 0
-7764 4805 2455 0
7764 -4805 0
7764 -2455 0
-7765 2537 4878 0
7765 -2537 0
7765 -4878 0
-7766 4904 2579 0
7766 -4904 0
7766 -2579 0
4626 924 -1715 -3734 3174 0
-4626 -924 0
-4626 1715 0
-4626 3734 0
-4626 -3174 0
-7767 5486 5487 5488 5485 2025 0
7767 -5486 0
7767 -5487 0
7767 -5488 0
7767 -5485 0
7767 -2025 0
-7768 5494 5495 5496 5497 2068 0
7768 -5494 0
7768 -5495 0
7768 -5496 0
7768 -5497 0
7768 -2068 0
-7769 7718 7719 0
7769 -7718 0
7769 -7719 0
-7770 7581 7582 0
7770 -7581 0
7770 -7582 0
-7771 7720 7721 0
7771 -7720 0
7771 -7721 0
-7772 7583 7584 0
7772 -7583 0
7772 -7584 0
-7773 7722 7723 0
7773 -7722 0
7773 -7723 0
-7774 7586 7585 0
7774 -7586 0
7774 -7585 0
-7775 7724 7725 0
7775 -7724 0
7775 -7725 0
-7776 7587 7588 0
7776 -7587 0
7776 -7588 0
-7777 7726 7727 0
7777 -7726 0
7777 -7727 0
-7778 7589 7590 0
7778 -7589 0
7778 -7590 0
-7779 7728 7729 0
7779 -7728 0
7779 -7729 0
-7780 7591 7592 0
7780 -7591 0
7780 -7592 0
-7781 7730 7731 0
7781 -7730 0
7781 -7731 0
-7782 7594 7593 0
7782 -7594 0
7782 -7593 0
-7783 7736 7737 0
7783 -7736 0
7783 -7737 0
-7784 7595 7596 0
7784 -7595 0
7784 -7596 0
-7785 7738 7739 0
7785 -7738 0
7785 -7739 0
-7786 7597 7598 0
7786 -7597 0
7786 -7598 0
-7787 7740 7741 0
7787 -7740 0
7787 -7741 0
-7788 7599 7600 0
7788 -7599 0
7788 -7600 0
-7789 7742 7743 0
7789 -7742 0
7789 -7743 0
-7790 7602 7601 0
7790 -7602 0
7790 -7601 0
-7791 7744 7745 0
7791 -7744 0
7791 -7745 0
-7792 7603 7604 0
7792 -7603 0
7792 -7604 0
-7793 7746 7747 0
7793 -7746 0
7793 -7747 0
-7794 7605 7606 0
7794 -7605 0
7794 -7606 0
-7795 7748 7749 0
7795 -7748 0
7795 -7749 0
-7796 7607 7608 0
7796 -7607 0
7796 -7608 0
-7797 7732 7733 0
7797 -7732 0
7797 -7733 0
-7798 7610 7609 0
7798 -7610 0
7798 -7609 0
-7799 7734 7735 0
7799 -7734 0
7799 -7735 0
-7800 7611 7612 0
7800 -7611 0
7800 -7612 0
-7801 5918 7667 0
7801 -5918 0
7801 -7667 0
-7802 5986 7668 0
7802 -5986 0
7802 -7668 0
-7803 7669 6060 0
7803 -7669 0
7803 -6060 0
-7804 4205 665 0
7804 -4205 0
7804 -665 0
-7805 3741 3743 0
7805 -3741 0
7805 -3743 0
6231 3271 -3269 -2917 0
-6231 -3271 0
-6231 3269 0
-6231 2917 0
-7806 3838 3840 0
7806 -3838 0
7806 -3840 0
4782 3259 1155 -1813 -4307 0
-4782 -3259 0
-4782 -1155 0
-4782 1813 0
-4782 4307 0
3817 3259 -117 1155 -4307 0
-3817 -3259 0
-3817 117 0
-3817 -1155 0
-3817 4307 0
-7807 3924 3926 0
7807 -3924 0
7807 -3926 0
6301 -3269 -3042 3271 0
-6301 3269 0
-6301 3042 0
-6301 -3271 0
6303 -3063 -3269 3271 0
-6303 3063 0
-6303 3269 0
-6303 -3271 0
6305 -3269 -3083 3271 0
-6305 3269 0
-6305 3083 0
-6305 -3271 0
4880 3259 1155 -1960 -4307 0
-4880 -3259 0
-4880 -1155 0
-4880 1960 0
-4880 4307 0
-7808 3983 3981 0
7808 -3983 0
7808 -3981 0
4485 3259 1155 -1511 -4307 0
-4485 -3259 0
-4485 -1155 0
-4485 1511 0
-4485 4307 0
-7809 4036 4038 0
7809 -4036 0
7809 -4038 0
-7810 4093 4092 0
7810 -4093 0
7810 -4092 0
-7811 4147 4149 0
7811 -4147 0
7811 -4149 0
4628 3259 1155 -1661 -4307 0
-4628 -3259 0
-4628 -1155 0
-4628 1661 0
-4628 4307 0
-7812 7770 7769 0
7812 -7770 0
7812 -7769 0
-7813 7086 7087 0
7813 -7086 0
7813 -7087 0
-7814 7771 7772 0
7814 -7771 0
7814 -7772 0
-7815 7106 7107 0
7815 -7106 0
7815 -7107 0
-7816 7773 7774 0
7816 -7773 0
7816 -7774 0
-7817 7109 7108 0
7817 -7109 0
7817 -7108 0
-7818 7775 7776 0
7818 -7775 0
7818 -7776 0
-7819 7104 7105 0
7819 -7104 0
7819 -7105 0
-7820 7778 7777 0
7820 -7778 0
7820 -7777 0
-7821 7088 7089 0
7821 -7088 0
7821 -7089 0
-7822 7779 7780 0
7822 -7779 0
7822 -7780 0
-7823 7110 7111 0
7823 -7110 0
7823 -7111 0
-7824 7781 7782 0
7824 -7781 0
7824 -7782 0
-7825 7090 7091 0
7825 -7090 0
7825 -7091 0
-7826 7783 7784 0
7826 -7783 0
7826 -7784 0
-7827 7093 7092 0
7827 -7093 0
7827 -7092 0
-7828 7786 7785 0
7828 -7786 0
7828 -7785 0
-7829 7112 7113 0
7829 -7112 0
7829 -7113 0
-7830 7787 7788 0
7830 -7787 0
7830 -7788 0
-7831 7094 7095 0
7831 -7094 0
7831 -7095 0
-7832 7789 7790 0
7832 -7789 0
7832 -7790 0
-7833 7096 7097 0
7833 -7096 0
7833 -7097 0
-7834 7791 7792 0
7834 -7791 0
7834 -7792 0
-7835 7114 7115 0
7835 -7114 0
7835 -7115 0
-7836 7794 7793 0
7836 -7794 0
7836 -7793 0
-7837 7098 7099 0
7837 -7098 0
7837 -7099 0
-7838 7795 7796 0
7838 -7795 0
7838 -7796 0
-7839 7101 7100 0
7839 -7101 0
7839 -7100 0
-7840 7797 7798 0
7840 -7797 0
7840 -7798 0
-7841 7117 7116 0
7841 -7117 0
7841 -7116 0
-7842 7799 7800 0
7842 -7799 0
7842 -7800 0
-7843 7102 7103 0
7843 -7102 0
7843 -7103 0
7844 772 3229 -4254 0
-7844 -772 0
-7844 -3229 0
-7844 4254 0
7845 768 -4252 0
-7845 -768 0
-7845 4252 0
7846 -37 3229 0
-7846 37 0
-7846 -3229 0
-7847 5916 7801 0
7847 -5916 0
7847 -7801 0
-7848 5914 6765 0
7848 -5914 0
7848 -6765 0
-7849 7802 5980 0
7849 -7802 0
7849 -5980 0
-7850 6766 5985 0
7850 -6766 0
7850 -5985 0
-7851 7803 6058 0
7851 -7803 0
7851 -6058 0
-7852 6767 6057 0
7852 -6767 0
7852 -6057 0
-7853 5701 7647 0
7853 -5701 0
7853 -7647 0
-7854 7119 5697 0
7854 -7119 0
7854 -5697 0
-7855 5628 7646 0
7855 -5628 0
7855 -7646 0
-7856 7118 5634 0
7856 -7118 0
7856 -5634 0
-7857 7648 5764 0
7857 -7648 0
7857 -5764 0
-7858 5763 7120 0
7858 -5763 0
7858 -7120 0
-7859 7649 5804 0
7859 -7649 0
7859 -5804 0
-7860 5803 7121 0
7860 -5803 0
7860 -7121 0
-7861 7842 7843 0
7861 -7842 0
7861 -7843 0
-7862 7818 7819 0
7862 -7818 0
7862 -7819 0
-7863 7830 7831 0
7863 -7830 0
7863 -7831 0
-7864 7834 7835 0
7864 -7834 0
7864 -7835 0
-7865 7836 7837 0
7865 -7836 0
7865 -7837 0
-7866 7825 7824 0
7866 -7825 0
7866 -7824 0
-7867 7817 7816 0
7867 -7817 0
7867 -7816 0
-7868 7822 7823 0
7868 -7822 0
7868 -7823 0
-7869 7812 7813 0
7869 -7812 0
7869 -7813 0
-7870 7828 7829 0
7870 -7828 0
7870 -7829 0
-7871 7814 7815 0
7871 -7814 0
7871 -7815 0
-7872 7841 7840 0
7872 -7841 0
7872 -7840 0
-7873 647 4187 0
7873 -647 0
7873 -4187 0
-4 2107 7869 0
4 -2107 0
4 -7869 0
-9 2119 7871 0
9 -2119 0
9 -7871 0
-14 7867 1808 0
14 -7867 0
14 -1808 0
6163 -2863 -7844 0
-6163 2863 0
-6163 7844 0
-7874 659 4199 0
7874 -659 0
7874 -4199 0
-19 2113 7862 0
19 -2113 0
19 -7862 0
5796 3216 -3217 -2166 0
-5796 -3216 0
-5796 3217 0
-5796 2166 0
-7875 4207 667 0
7875 -4207 0
7875 -667 0
4668 -4270 882 -1718 3130 0
-4668 4270 0
-4668 -882 0
-4668 1718 0
-4668 -3130 0
4670 -4274 933 -1715 3174 0
-4670 4274 0
-4670 -933 0
-4670 1715 0
-4670 -3174 0
6173 -2940 -6585 0
-6173 2940 0
-6173 6585 0
-7876 3712 3714 0
7876 -3712 0
7876 -3714 0
5569 3326 -2223 1060 -4292 0
-5569 -3326 0
-5569 2223 0
-5569 -1060 0
-5569 4292 0
4675 3123 -1758 1485 -4374 0
-4675 -3123 0
-4675 1758 0
-4675 -1485 0
-4675 4374 0
-7877 4330 4329 0
7877 -4330 0
7877 -4329 0
-7878 3722 51 0
7878 -3722 0
7878 -51 0
-7879 4229 4228 0
7879 -4229 0
7879 -4228 0
-7880 4231 4232 0
7880 -4231 0
7880 -4232 0
-7881 4234 695 0
7881 -4234 0
7881 -695 0
6194 733 -2966 -4244 3319 0
-6194 -733 0
-6194 2966 0
-6194 4244 0
-6194 -3319 0
6142 339 3699 -3917 -8 0
-6142 -339 0
-6142 -3699 0
-6142 3917 0
-6142 8 0
-7882 7855 7856 0
7882 -7855 0
7882 -7856 0
5842 -2258 3216 -3217 0
-5842 2258 0
-5842 -3216 0
-5842 3217 0
-155 3782 3784 0
155 -3782 0
155 -3784 0
5849 -2262 3277 -4326 1250 0
-5849 2262 0
-5849 -3277 0
-5849 4326 0
-5849 -1250 0
4740 -1951 3225 992 -4282 0
-4740 1951 0
-4740 -3225 0
-4740 -992 0
-4740 4282 0
6216 733 3319 -4244 -2986 0
-6216 -733 0
-6216 -3319 0
-6216 4244 0
-6216 2986 0
-7883 3789 157 0
7883 -3789 0
7883 -157 0
-7884 7853 7854 0
7884 -7853 0
7884 -7854 0
3771 -73 3225 992 -4282 0
-3771 73 0
-3771 -3225 0
-3771 -992 0
-3771 4282 0
5857 3249 -2677 -3250 0
-5857 -3249 0
-5857 2677 0
-5857 3250 0
3776 3123 1485 -260 -4374 0
-3776 -3123 0
-3776 -1485 0
-3776 260 0
-3776 4374 0
-7885 769 4251 0
7885 -769 0
7885 -4251 0
6233 733 3319 -4244 -3000 0
-6233 -733 0
-6233 -3319 0
-6233 4244 0
-6233 3000 0
-7886 199 3811 0
7886 -199 0
7886 -3811 0
4764 3198 -3738 1072 -1933 0
-4764 -3198 0
-4764 3738 0
-4764 -1072 0
-4764 1933 0
-7887 7857 7858 0
7887 -7857 0
7887 -7858 0
5880 3216 -3217 -2370 0
-5880 -3216 0
-5880 3217 0
-5880 2370 0
6245 -3133 3135 -2937 0
-6245 3133 0
-6245 -3135 0
-6245 2937 0
-7888 3830 225 0
7888 -3830 0
7888 -225 0
-7889 7859 7860 0
7889 -7859 0
7889 -7860 0
6250 -2958 -7050 0
-6250 2958 0
-6250 7050 0
-7890 3843 245 0
7890 -3843 0
7890 -245 0
3814 -4270 882 3130 -62 0
-3814 4270 0
-3814 -882 0
-3814 -3130 0
-3814 62 0
5896 -2379 1250 3277 -4326 0
-5896 2379 0
-5896 -1250 0
-5896 -3277 0
-5896 4326 0
-7891 7847 7848 0
7891 -7847 0
7891 -7848 0
3829 -4274 933 -68 3174 0
-3829 4274 0
-3829 -933 0
-3829 68 0
-3829 -3174 0
3835 -7845 -7846 0
-3835 7845 0
-3835 7846 0
6271 -3133 -2978 3135 0
-6271 3133 0
-6271 2978 0
-6271 -3135 0
-7892 3879 3880 0
7892 -3879 0
7892 -3880 0
-7893 7849 7850 0
7893 -7849 0
7893 -7850 0
-7894 3883 3885 0
7894 -3883 0
7894 -3885 0
-7895 308 3887 0
7895 -308 0
7895 -3887 0
-7896 7851 7852 0
7896 -7851 0
7896 -7852 0
-2833 7303 2021 0
2833 -7303 0
2833 -2021 0
-7897 3908 3906 0
7897 -3908 0
7897 -3906 0
4824 -4270 882 3130 -1870 0
-4824 4270 0
-4824 -882 0
-4824 -3130 0
-4824 1870 0
4825 -4274 933 -1867 3174 0
-4825 4274 0
-4825 -933 0
-4825 1867 0
-4825 -3174 0
6290 -2998 -3133 3135 0
-6290 2998 0
-6290 3133 0
-6290 -3135 0
-7898 334 3913 0
7898 -334 0
7898 -3913 0
-2886 7304 1722 0
2886 -7304 0
2886 -1722 0
4830 3123 -4374 1485 -1910 0
-4830 -3123 0
-4830 4374 0
-4830 -1485 0
-4830 1910 0
-2909 7302 1874 0
2909 -7302 0
2909 -1874 0
4836 3225 992 -2097 -4282 0
-4836 -3225 0
-4836 -992 0
-4836 2097 0
-4836 4282 0
5942 3216 -2492 -3217 0
-5942 -3216 0
-5942 2492 0
-5942 3217 0
4448 -1649 3225 992 -4282 0
-4448 1649 0
-4448 -3225 0
-4448 -992 0
-4448 4282 0
-7899 7820 7821 0
7899 -7820 0
7899 -7821 0
4863 3198 -3738 1072 -2078 0
-4863 -3198 0
-4863 3738 0
-4863 -1072 0
-4863 2078 0
-7900 3950 376 0
7900 -3950 0
7900 -376 0
5959 1250 3277 -4326 -2500 0
-5959 -1250 0
-5959 -3277 0
-5959 4326 0
-5959 2500 0
-7901 4471 4469 0
7901 -4471 0
7901 -4469 0
-7902 3964 394 0
7902 -3964 0
7902 -394 0
-7903 2852 4481 0
7903 -2852 0
7903 -4481 0
4472 3198 -3738 1072 -1629 0
-4472 -3198 0
-4472 3738 0
-4472 -1072 0
-4472 1629 0
-7904 3976 406 0
7904 -3976 0
7904 -406 0
-7905 3984 414 0
7905 -3984 0
7905 -414 0
-7906 7868 1505 0
7906 -7868 0
7906 -1505 0
-7907 4006 4005 0
7907 -4006 0
7907 -4005 0
6015 3216 -2607 -3217 0
-6015 -3216 0
-6015 2607 0
-6015 3217 0
-7908 4008 4010 0
7908 -4008 0
7908 -4010 0
-7909 442 4011 0
7909 -442 0
7909 -4011 0
-7910 4606 4607 0
7910 -4606 0
7910 -4607 0
-7911 4021 4019 0
7911 -4021 0
7911 -4019 0
-7912 4622 4624 0
7912 -4622 0
7912 -4624 0
4919 -4270 882 3130 -2017 0
-4919 4270 0
-4919 -882 0
-4919 -3130 0
-4919 2017 0
-7913 4026 459 0
7913 -4026 0
7913 -459 0
4921 -4274 933 -2014 3174 0
-4921 4274 0
-4921 -933 0
-4921 2014 0
-4921 -3174 0
6037 1250 3277 -2615 -4326 0
-6037 -1250 0
-6037 -3277 0
-6037 2615 0
-6037 4326 0
4926 -2056 3123 1485 -4374 0
-4926 2056 0
-4926 -3123 0
-4926 -1485 0
-4926 4374 0
4516 -4270 882 3130 -1563 0
-4516 4270 0
-4516 -882 0
-4516 -3130 0
-4516 1563 0
4517 -4274 933 3174 -1560 0
-4517 4274 0
-4517 -933 0
-4517 -3174 0
-4517 1560 0
4523 -6951 -6952 0
-4523 6951 0
-4523 6952 0
-7914 1655 7866 0
7914 -1655 0
7914 -7866 0
6063 -2655 -6859 0
-6063 2655 0
-6063 6859 0
-7915 4061 503 0
7915 -4061 0
7915 -503 0
-7916 4761 4762 0
7916 -4761 0
7916 -4762 0
-7917 4075 521 0
7917 -4075 0
7917 -521 0
-7918 4777 4778 0
7918 -4777 0
7918 -4778 0
6083 3294 -3296 -2247 0
-6083 -3294 0
-6083 3296 0
-6083 2247 0
-7919 4087 533 0
7919 -4087 0
7919 -533 0
-7920 4095 541 0
7920 -4095 0
7920 -541 0
4587 3225 992 -1802 -4282 0
-4587 -3225 0
-4587 -992 0
-4587 1802 0
-4587 4282 0
6093 -2734 -6860 0
-6093 2734 0
-6093 6860 0
-7921 4117 4116 0
7921 -4117 0
7921 -4116 0
-7922 4119 4121 0
7922 -4119 0
7922 -4121 0
-7923 4122 569 0
7923 -4122 0
7923 -569 0
-7924 4860 4862 0
7924 -4860 0
7924 -4862 0
6109 -3162 -2784 3164 0
-6109 3162 0
-6109 2784 0
-6109 -3164 0
-7925 4131 4130 0
7925 -4131 0
7925 -4130 0
-7926 4875 4876 0
7926 -4875 0
7926 -4876 0
4609 3198 -3738 1072 -1782 0
-4609 -3198 0
-4609 3738 0
-4609 -1072 0
-4609 1782 0
-7927 586 4137 0
7927 -586 0
7927 -4137 0
6121 -2824 -3162 3164 0
-6121 2824 0
-6121 3162 0
-6121 -3164 0
4623 724 -4239 -1674 3319 0
-4623 -724 0
-4623 4239 0
-4623 1674 0
-4623 -3319 0
6128 -2841 -3133 3135 0
-6128 2841 0
-6128 3133 0
-6128 -3135 0
5537 1250 3277 -4326 -2138 0
-5537 -1250 0
-5537 -3277 0
-5537 4326 0
-5537 2138 0
-7928 7826 7827 0
7928 -7826 0
7928 -7827 0
-7929 2103 7870 0
7929 -2103 0
7929 -7870 0
-7930 2105 7863 0
7930 -2105 0
7930 -7863 0
-7931 7833 7832 0
7931 -7833 0
7931 -7832 0
-7932 2109 7864 0
7932 -2109 0
7932 -7864 0
-7933 7865 2111 0
7933 -7865 0
7933 -2111 0
-7934 7838 7839 0
7934 -7838 0
7934 -7839 0
-7935 2115 7872 0
7935 -2115 0
7935 -7872 0
-7936 7861 2117 0
7936 -7861 0
7936 -2117 0
6138 -2834 3249 -3250 0
-6138 2834 0
-6138 -3249 0
-6138 3250 0
-7937 629 4173 0
7937 -629 0
7937 -4173 0
6140 -13 464 -4030 3694 0
-6140 13 0
-6140 -464 0
-6140 4030 0
-6140 -3694 0
-7938 7650 5490 0
7938 -7650 0
7938 -5490 0
6144 3691 -18 591 -4141 0
-6144 -3691 0
-6144 18 0
-6144 -591 0
-6144 4141 0
6151 65 -3 3697 -3730 0
-6151 -65 0
-6151 3 0
-6151 -3697 0
-6151 3730 0
6155 733 -2926 -4244 3319 0
-6155 -733 0
-6155 2926 0
-6155 4244 0
-6155 -3319 0
-7939 1967 -1966 0
7939 -1967 0
7939 1966 0
-7940 -1967 1966 0
7940 1967 0
7940 -1966 0
-7941 -2217 2218 0
7941 2217 0
7941 -2218 0
-7942 2217 -2218 0
7942 -2217 0
7942 2218 0
-7943 3722 -3723 0
7943 -3722 0
7943 3723 0
-7944 -3722 3723 0
7944 3722 0
7944 -3723 0
-7945 51 -50 0
7945 -51 0
7945 50 0
-7946 -51 50 0
7946 51 0
7946 -50 0
-7947 1519 -1518 0
7947 -1519 0
7947 1518 0
-7948 -1519 1518 0
7948 1519 0
7948 -1518 0
-7949 2388 -2387 0
7949 -2388 0
7949 2387 0
-7950 -2388 2387 0
7950 2388 0
7950 -2387 0
-7951 1670 -1669 0
7951 -1670 0
7951 1669 0
-7952 -1670 1669 0
7952 1670 0
7952 -1669 0
-7953 4267 -3312 0
7953 -4267 0
7953 3312 0
-7954 -4267 3312 0
7954 4267 0
7954 -3312 0
-7955 4268 -3314 0
7955 -4268 0
7955 3314 0
-7956 -4268 3314 0
7956 4268 0
7956 -3314 0
-7957 2509 -2508 0
7957 -2509 0
7957 2508 0
-7958 -2509 2508 0
7958 2509 0
7958 -2508 0
-7959 2216 -2215 0
7959 -2216 0
7959 2215 0
-7960 -2216 2215 0
7960 2216 0
7960 -2215 0
-7961 4455 -2217 0
7961 -4455 0
7961 2217 0
-7962 -4455 2217 0
7962 4455 0
7962 -2217 0
-7963 334 -333 0
7963 -334 0
7963 333 0
-7964 -334 333 0
7964 334 0
7964 -333 0
-7965 3913 -3914 0
7965 -3913 0
7965 3914 0
-7966 -3913 3914 0
7966 3913 0
7966 -3914 0
-7967 4509 -2250 0
7967 -4509 0
7967 2250 0
-7968 -4509 2250 0
7968 4509 0
7968 -2250 0
-7969 1821 -1820 0
7969 -1821 0
7969 1820 0
-7970 -1821 1820 0
7970 1821 0
7970 -1820 0
-7971 1078 -4295 0
7971 -1078 0
7971 4295 0
-7972 -1078 4295 0
7972 1078 0
7972 -4295 0
-7973 1076 -1075 0
7973 -1076 0
7973 1075 0
-7974 -1076 1075 0
7974 1076 0
7974 -1075 0
-7975 1080 -4296 0
7975 -1080 0
7975 4296 0
-7976 -1080 4296 0
7976 1080 0
7976 -4296 0
-7977 1081 -1077 0
7977 -1081 0
7977 1077 0
-7978 -1081 1077 0
7978 1081 0
7978 -1077 0
-7979 1083 -4297 0
7979 -1083 0
7979 4297 0
-7980 -1083 4297 0
7980 1083 0
7980 -4297 0
-7981 1084 -1079 0
7981 -1084 0
7981 1079 0
-7982 -1084 1079 0
7982 1084 0
7982 -1079 0
-7983 4026 -4027 0
7983 -4026 0
7983 4027 0
-7984 -4026 4027 0
7984 4026 0
7984 -4027 0
-7985 459 -458 0
7985 -459 0
7985 458 0
-7986 -459 458 0
7986 459 0
7986 -458 0
-7987 2266 -2265 0
7987 -2266 0
7987 2265 0
-7988 -2266 2265 0
7988 2266 0
7988 -2265 0
-7989 586 -585 0
7989 -586 0
7989 585 0
-7990 -586 585 0
7990 586 0
7990 -585 0
-7991 4137 -4138 0
7991 -4137 0
7991 4138 0
-7992 -4137 4138 0
7992 4137 0
7992 -4138 0
-7993 84 -2123 0
7993 -84 0
7993 2123 0
-7994 -84 2123 0
7994 84 0
7994 -2123 0
-7995 1067 -3199 0
7995 -1067 0
7995 3199 0
-7996 -1067 3199 0
7996 1067 0
7996 -3199 0
-7997 1070 -1066 0
7997 -1070 0
7997 1066 0
-7998 -1070 1066 0
7998 1070 0
7998 -1066 0
-7999 1071 -3489 0
7999 -1071 0
7999 3489 0
-8000 -1071 3489 0
8000 1071 0
8000 -3489 0
-8001 4293 -3738 0
8001 -4293 0
8001 3738 0
-8002 -4293 3738 0
8002 4293 0
8002 -3738 0
-8003 4294 -1072 0
8003 -4294 0
8003 1072 0
-8004 -4294 1072 0
8004 4294 0
8004 -1072 0
-8005 1073 -3608 0
8005 -1073 0
8005 3608 0
-8006 -1073 3608 0
8006 1073 0
8006 -3608 0
-8007 1074 -1069 0
8007 -1074 0
8007 1069 0
-8008 -1074 1069 0
8008 1074 0
8008 -1069 0
-8009 1068 -3353 0
8009 -1068 0
8009 3353 0
-8010 -1068 3353 0
8010 1068 0
8010 -3353 0
-8011 2479 -2478 0
8011 -2479 0
8011 2478 0
-8012 -2479 2478 0
8012 2479 0
8012 -2478 0
-8013 1630 -1629 0
8013 -1630 0
8013 1629 0
-8014 -1630 1629 0
8014 1630 0
8014 -1629 0
-8015 1934 -1933 0
8015 -1934 0
8015 1933 0
-8016 -1934 1933 0
8016 1934 0
8016 -1933 0
-8017 -1629 6306 0
8017 1629 0
8017 -6306 0
-8018 1629 -6306 0
8018 -1629 0
8018 6306 0
-8019 -1075 6307 0
8019 1075 0
8019 -6307 0
-8020 1075 -6307 0
8020 -1075 0
8020 6307 0
-8021 -1933 6308 0
8021 1933 0
8021 -6308 0
-8022 1933 -6308 0
8022 -1933 0
8022 6308 0
-8023 58 -2623 0
8023 -58 0
8023 2623 0
-8024 -58 2623 0
8024 58 0
8024 -2623 0
-8025 2386 -2385 0
8025 -2386 0
8025 2385 0
-8026 -2386 2385 0
8026 2386 0
8026 -2385 0
-8027 217 -2172 0
8027 -217 0
8027 2172 0
-8028 -217 2172 0
8028 217 0
8028 -2172 0
-8029 5650 -1666 0
8029 -5650 0
8029 1666 0
-8030 -5650 1666 0
8030 5650 0
8030 -1666 0
-8031 850 -3220 0
8031 -850 0
8031 3220 0
-8032 -850 3220 0
8032 850 0
8032 -3220 0
-8033 849 -3425 0
8033 -849 0
8033 3425 0
-8034 -849 3425 0
8034 849 0
8034 -3425 0
-8035 852 -3563 0
8035 -852 0
8035 3563 0
-8036 -852 3563 0
8036 852 0
8036 -3563 0
-8037 853 -848 0
8037 -853 0
8037 848 0
-8038 -853 848 0
8038 853 0
8038 -848 0
-8039 855 -3680 0
8039 -855 0
8039 3680 0
-8040 -855 3680 0
8040 855 0
8040 -3680 0
-8041 856 -851 0
8041 -856 0
8041 851 0
-8042 -856 851 0
8042 856 0
8042 -851 0
-8043 858 -3822 0
8043 -858 0
8043 3822 0
-8044 -858 3822 0
8044 858 0
8044 -3822 0
-8045 859 -854 0
8045 -859 0
8045 854 0
-8046 -859 854 0
8046 859 0
8046 -854 0
-8047 862 -857 0
8047 -862 0
8047 857 0
-8048 -862 857 0
8048 862 0
8048 -857 0
-8049 861 -4266 0
8049 -861 0
8049 4266 0
-8050 -861 4266 0
8050 861 0
8050 -4266 0
-8051 2507 -2506 0
8051 -2507 0
8051 2506 0
-8052 -2507 2506 0
8052 2507 0
8052 -2506 0
-8053 866 -3369 0
8053 -866 0
8053 3369 0
-8054 -866 3369 0
8054 866 0
8054 -3369 0
-8055 864 -863 0
8055 -864 0
8055 863 0
-8056 -864 863 0
8056 864 0
8056 -863 0
-8057 868 -3521 0
8057 -868 0
8057 3521 0
-8058 -868 3521 0
8058 868 0
8058 -3521 0
-8059 869 -865 0
8059 -869 0
8059 865 0
-8060 -869 865 0
8060 869 0
8060 -865 0
-8061 872 -3594 0
8061 -872 0
8061 3594 0
-8062 -872 3594 0
8062 872 0
8062 -3594 0
-8063 871 -867 0
8063 -871 0
8063 867 0
-8064 -871 867 0
8064 871 0
8064 -867 0
-8065 1667 -2264 0
8065 -1667 0
8065 2264 0
-8066 -1667 2264 0
8066 1667 0
8066 -2264 0
-8067 1517 -1516 0
8067 -1517 0
8067 1516 0
-8068 -1517 1516 0
8068 1517 0
8068 -1516 0
-8069 1965 -1964 0
8069 -1965 0
8069 1964 0
-8070 -1965 1964 0
8070 1965 0
8070 -1964 0
-8071 1819 -1818 0
8071 -1819 0
8071 1818 0
-8072 -1819 1818 0
8072 1819 0
8072 -1818 0
-8073 2252 -5568 0
8073 -2252 0
8073 5568 0
-8074 -2252 5568 0
8074 2252 0
8074 -5568 0
-8075 59 -3724 0
8075 -59 0
8075 3724 0
-8076 -59 3724 0
8076 59 0
8076 -3724 0
-8077 -2265 6327 0
8077 2265 0
8077 -6327 0
-8078 2265 -6327 0
8078 -2265 0
8078 6327 0
-8079 -2387 6328 0
8079 2387 0
8079 -6328 0
-8080 2387 -6328 0
8080 -2387 0
8080 6328 0
-8081 -2508 6329 0
8081 2508 0
8081 -6329 0
-8082 2508 -6329 0
8082 -2508 0
8082 6329 0
-8083 -2623 6330 0
8083 2623 0
8083 -6330 0
-8084 2623 -6330 0
8084 -2623 0
8084 6330 0
-8085 -863 6331 0
8085 863 0
8085 -6331 0
-8086 863 -6331 0
8086 -863 0
8086 6331 0
-8087 4452 -4453 0
8087 -4452 0
8087 4453 0
-8088 -4452 4453 0
8088 4452 0
8088 -4453 0
-8089 -1516 6332 0
8089 1516 0
8089 -6332 0
-8090 1516 -6332 0
8090 -1516 0
8090 6332 0
-8091 -1518 6333 0
8091 1518 0
8091 -6333 0
-8092 1518 -6333 0
8092 -1518 0
8092 6333 0
-8093 -1669 6334 0
8093 1669 0
8093 -6334 0
-8094 1669 -6334 0
8094 -1669 0
8094 6334 0
-8095 -1818 6335 0
8095 1818 0
8095 -6335 0
-8096 1818 -6335 0
8096 -1818 0
8096 6335 0
-8097 -1820 6336 0
8097 1820 0
8097 -6336 0
-8098 1820 -6336 0
8098 -1820 0
8098 6336 0
-8099 -1964 6337 0
8099 1964 0
8099 -6337 0
-8100 1964 -6337 0
8100 -1964 0
8100 6337 0
-8101 -1966 6338 0
8101 1966 0
8101 -6338 0
-8102 1966 -6338 0
8102 -1966 0
8102 6338 0
-8103 5018 -5019 0
8103 -5018 0
8103 5019 0
-8104 -5018 5019 0
8104 5018 0
8104 -5019 0
-8105 46 -3716 0
8105 -46 0
8105 3716 0
-8106 -46 3716 0
8106 46 0
8106 -3716 0
-8107 41 -40 0
8107 -41 0
8107 40 0
-8108 -41 40 0
8108 41 0
8108 -40 0
-8109 3718 -45 0
8109 -3718 0
8109 45 0
-8110 -3718 45 0
8110 3718 0
8110 -45 0
-8111 3719 -3720 0
8111 -3719 0
8111 3720 0
-8112 -3719 3720 0
8112 3719 0
8112 -3720 0
-8113 819 -3620 0
8113 -819 0
8113 3620 0
-8114 -819 3620 0
8114 819 0
8114 -3620 0
-8115 817 -816 0
8115 -817 0
8115 816 0
-8116 -817 816 0
8116 817 0
8116 -816 0
-8117 821 -818 0
8117 -821 0
8117 818 0
-8118 -821 818 0
8118 821 0
8118 -818 0
-8119 822 -4261 0
8119 -822 0
8119 4261 0
-8120 -822 4261 0
8120 822 0
8120 -4261 0
-8121 4821 -2487 0
8121 -4821 0
8121 2487 0
-8122 -4821 2487 0
8122 4821 0
8122 -2487 0
-8123 5925 -1663 0
8123 -5925 0
8123 1663 0
-8124 -5925 1663 0
8124 5925 0
8124 -1663 0
-8125 1791 -1790 0
8125 -1791 0
8125 1790 0
-8126 -1791 1790 0
8126 1791 0
8126 -1790 0
-8127 457 -4022 0
8127 -457 0
8127 4022 0
-8128 -457 4022 0
8128 457 0
8128 -4022 0
-8129 455 -454 0
8129 -455 0
8129 454 0
-8130 -455 454 0
8130 455 0
8130 -454 0
-8131 4023 -4024 0
8131 -4023 0
8131 4024 0
-8132 -4023 4024 0
8132 4023 0
8132 -4024 0
-8133 4025 -456 0
8133 -4025 0
8133 456 0
-8134 -4025 456 0
8134 4025 0
8134 -456 0
-8135 1665 -2709 0
8135 -1665 0
8135 2709 0
-8136 -1665 2709 0
8136 1665 0
8136 -2709 0
-8137 584 -4133 0
8137 -584 0
8137 4133 0
-8138 -584 4133 0
8138 584 0
8138 -4133 0
-8139 582 -581 0
8139 -582 0
8139 581 0
-8140 -582 581 0
8140 582 0
8140 -581 0
-8141 4134 -583 0
8141 -4134 0
8141 583 0
-8142 -4134 583 0
8142 4134 0
8142 -583 0
-8143 4135 -4136 0
8143 -4135 0
8143 4136 0
-8144 -4135 4136 0
8144 4135 0
8144 -4136 0
-8145 330 -329 0
8145 -330 0
8145 329 0
-8146 -330 329 0
8146 330 0
8146 -329 0
-8147 332 -3909 0
8147 -332 0
8147 3909 0
-8148 -332 3909 0
8148 332 0
8148 -3909 0
-8149 3910 -3911 0
8149 -3910 0
8149 3911 0
-8150 -3910 3911 0
8150 3910 0
8150 -3911 0
-8151 3912 -331 0
8151 -3912 0
8151 331 0
-8152 -3912 331 0
8152 3912 0
8152 -331 0
-8153 4664 -2365 0
8153 -4664 0
8153 2365 0
-8154 -4664 2365 0
8154 4664 0
8154 -2365 0
-8155 1638 -1637 0
8155 -1638 0
8155 1637 0
-8156 -1638 1637 0
8156 1638 0
8156 -1637 0
-8157 169 -2151 0
8157 -169 0
8157 2151 0
-8158 -169 2151 0
8158 169 0
8158 -2151 0
-8159 828 -3166 0
8159 -828 0
8159 3166 0
-8160 -828 3166 0
8160 828 0
8160 -3166 0
-8161 827 -3168 0
8161 -827 0
8161 3168 0
-8162 -827 3168 0
8162 827 0
8162 -3168 0
-8163 830 -826 0
8163 -830 0
8163 826 0
-8164 -830 826 0
8164 830 0
8164 -826 0
-8165 831 -3333 0
8165 -831 0
8165 3333 0
-8166 -831 3333 0
8166 831 0
8166 -3333 0
-8167 833 -829 0
8167 -833 0
8167 829 0
-8168 -833 829 0
8168 833 0
8168 -829 0
-8169 834 -3537 0
8169 -834 0
8169 3537 0
-8170 -834 3537 0
8170 834 0
8170 -3537 0
-8171 836 -832 0
8171 -836 0
8171 832 0
-8172 -836 832 0
8172 836 0
8172 -832 0
-8173 837 -3642 0
8173 -837 0
8173 3642 0
-8174 -837 3642 0
8174 837 0
8174 -3642 0
-8175 2087 -2602 0
8175 -2087 0
8175 2602 0
-8176 -2087 2602 0
8176 2087 0
8176 -2602 0
-8177 2153 -2085 0
8177 -2153 0
8177 2085 0
-8178 -2153 2085 0
8178 2153 0
8178 -2085 0
-8179 1941 -1940 0
8179 -1941 0
8179 1940 0
-8180 -1941 1940 0
8180 1941 0
8180 -1940 0
-8181 48 -2622 0
8181 -48 0
8181 2622 0
-8182 -48 2622 0
8182 48 0
8182 -2622 0
-8183 1816 -2765 0
8183 -1816 0
8183 2765 0
-8184 -1816 2765 0
8184 1816 0
8184 -2765 0
-8185 -2679 2680 0
8185 2679 0
8185 -2680 0
-8186 2679 -2680 0
8186 -2679 0
8186 2680 0
-8187 814 -3196 0
8187 -814 0
8187 3196 0
-8188 -814 3196 0
8188 814 0
8188 -3196 0
-8189 815 -3345 0
8189 -815 0
8189 3345 0
-8190 -815 3345 0
8190 815 0
8190 -3345 0
-8191 4260 -813 0
8191 -4260 0
8191 813 0
-8192 -4260 813 0
8192 4260 0
8192 -813 0
-8193 4259 -3529 0
8193 -4259 0
8193 3529 0
-8194 -4259 3529 0
8194 4259 0
8194 -3529 0
-8195 1514 -2679 0
8195 -1514 0
8195 2679 0
-8196 -1514 2679 0
8196 1514 0
8196 -2679 0
-8197 6001 -1815 0
8197 -6001 0
8197 1815 0
-8198 -6001 1815 0
8198 6001 0
8198 -1815 0
-8199 2257 -2256 0
8199 -2257 0
8199 2256 0
-8200 -2257 2256 0
8200 2257 0
8200 -2256 0
-8201 825 -4262 0
8201 -825 0
8201 4262 0
-8202 -825 4262 0
8202 825 0
8202 -4262 0
-8203 2805 -2804 0
8203 -2805 0
8203 2804 0
-8204 -2805 2804 0
8204 2805 0
8204 -2804 0
-8205 1963 -1962 0
8205 -1963 0
8205 1962 0
-8206 -1963 1962 0
8206 1963 0
8206 -1962 0
-8207 4665 -4666 0
8207 -4665 0
8207 4666 0
-8208 -4665 4666 0
8208 4665 0
8208 -4666 0
-8209 2712 -1513 0
8209 -2712 0
8209 1513 0
-8210 -2712 1513 0
8210 2712 0
8210 -1513 0
-8211 170 -3793 0
8211 -170 0
8211 3793 0
-8212 -170 3793 0
8212 170 0
8212 -3793 0
-8213 -2622 6363 0
8213 2622 0
8213 -6363 0
-8214 2622 -6363 0
8214 -2622 0
8214 6363 0
-8215 -816 6364 0
8215 816 0
8215 -6364 0
-8216 816 -6364 0
8216 -816 0
8216 6364 0
-8217 -2765 6365 0
8217 2765 0
8217 -6365 0
-8218 2765 -6365 0
8218 -2765 0
8218 6365 0
-8219 -2804 6366 0
8219 2804 0
8219 -6366 0
-8220 2804 -6366 0
8220 -2804 0
8220 6366 0
-8221 824 -820 0
8221 -824 0
8221 820 0
-8222 -824 820 0
8222 824 0
8222 -820 0
-8223 4819 -4820 0
8223 -4819 0
8223 4820 0
-8224 -4819 4820 0
8224 4819 0
8224 -4820 0
-8225 5357 -5358 0
8225 -5357 0
8225 5358 0
-8226 -5357 5358 0
8226 5357 0
8226 -5358 0
-8227 -1637 6367 0
8227 1637 0
8227 -6367 0
-8228 1637 -6367 0
8228 -1637 0
8228 6367 0
-8229 2086 -4916 0
8229 -2086 0
8229 4916 0
-8230 -2086 4916 0
8230 2086 0
8230 -4916 0
-8231 4514 -4515 0
8231 -4514 0
8231 4515 0
-8232 -4514 4515 0
8232 4514 0
8232 -4515 0
-8233 -1790 6368 0
8233 1790 0
8233 -6368 0
-8234 1790 -6368 0
8234 -1790 0
8234 6368 0
-8235 4540 -4541 0
8235 -4540 0
8235 4541 0
-8236 -4540 4541 0
8236 4540 0
8236 -4541 0
-8237 -1940 6369 0
8237 1940 0
8237 -6369 0
-8238 1940 -6369 0
8238 -1940 0
8238 6369 0
-8239 -1962 6370 0
8239 1962 0
8239 -6370 0
-8240 1962 -6370 0
8240 -1962 0
8240 6370 0
-8241 5044 -5045 0
8241 -5044 0
8241 5045 0
-8242 -5044 5045 0
8242 5044 0
8242 -5045 0
-8243 -50 6403 0
8243 50 0
8243 -6403 0
-8244 50 -6403 0
8244 -50 0
8244 6403 0
-8245 -333 6404 0
8245 333 0
8245 -6404 0
-8246 333 -6404 0
8246 -333 0
8246 6404 0
-8247 -458 6405 0
8247 458 0
8247 -6405 0
-8248 458 -6405 0
8248 -458 0
8248 6405 0
-8249 -585 6406 0
8249 585 0
8249 -6406 0
-8250 585 -6406 0
8250 -585 0
8250 6406 0
-8251 1801 -2749 0
8251 -1801 0
8251 2749 0
-8252 -1801 2749 0
8252 1801 0
8252 -2749 0
-8253 5828 -2094 0
8253 -5828 0
8253 2094 0
-8254 -5828 2094 0
8254 5828 0
8254 -2094 0
-8255 1408 -3475 0
8255 -1408 0
8255 3475 0
-8256 -1408 3475 0
8256 1408 0
8256 -3475 0
-8257 1406 -1405 0
8257 -1406 0
8257 1405 0
-8258 -1406 1405 0
8258 1406 0
8258 -1405 0
-8259 1410 -3586 0
8259 -1410 0
8259 3586 0
-8260 -1410 3586 0
8260 1410 0
8260 -3586 0
-8261 1411 -1407 0
8261 -1411 0
8261 1407 0
-8262 -1411 1407 0
8262 1411 0
8262 -1407 0
-8263 4359 -4360 0
8263 -4359 0
8263 4360 0
-8264 -4359 4360 0
8264 4359 0
8264 -4360 0
-8265 4361 -1409 0
8265 -4361 0
8265 1409 0
-8266 -4361 1409 0
8266 4361 0
8266 -1409 0
-8267 4802 -2448 0
8267 -4802 0
8267 2448 0
-8268 -4802 2448 0
8268 4802 0
8268 -2448 0
-8269 5978 -1799 0
8269 -5978 0
8269 1799 0
-8270 -5978 1799 0
8270 5978 0
8270 -1799 0
-8271 2095 -2829 0
8271 -2095 0
8271 2829 0
-8272 -2095 2829 0
8272 2095 0
8272 -2829 0
-8273 225 -224 0
8273 -225 0
8273 224 0
-8274 -225 224 0
8274 225 0
8274 -224 0
-8275 3830 -3831 0
8275 -3830 0
8275 3831 0
-8276 -3830 3831 0
8276 3830 0
8276 -3831 0
-8277 1648 -1647 0
8277 -1648 0
8277 1647 0
-8278 -1648 1647 0
8278 1648 0
8278 -1647 0
-8279 4901 -2573 0
8279 -4901 0
8279 2573 0
-8280 -4901 2573 0
8280 4901 0
8280 -2573 0
-8281 1950 -1949 0
8281 -1950 0
8281 1949 0
-8282 -1950 1949 0
8282 1950 0
8282 -1949 0
-8283 1920 -1919 0
8283 -1920 0
8283 1919 0
-8284 -1920 1919 0
8284 1920 0
8284 -1919 0
-8285 4087 -4088 0
8285 -4087 0
8285 4088 0
-8286 -4087 4088 0
8286 4087 0
8286 -4088 0
-8287 533 -532 0
8287 -533 0
8287 532 0
-8288 -533 532 0
8288 533 0
8288 -532 0
-8289 3976 -3977 0
8289 -3976 0
8289 3977 0
-8290 -3976 3977 0
8290 3976 0
8290 -3977 0
-8291 406 -405 0
8291 -406 0
8291 405 0
-8292 -406 405 0
8292 406 0
8292 -405 0
-8293 2794 -2793 0
8293 -2794 0
8293 2793 0
-8294 -2794 2793 0
8294 2794 0
8294 -2793 0
-8295 659 -658 0
8295 -659 0
8295 658 0
-8296 -659 658 0
8296 659 0
8296 -658 0
-8297 4199 -4200 0
8297 -4199 0
8297 4200 0
-8298 -4199 4200 0
8298 4199 0
8298 -4200 0
-8299 5974 -5975 0
8299 -5974 0
8299 5975 0
-8300 -5974 5975 0
8300 5974 0
8300 -5975 0
-8301 5976 -5977 0
8301 -5976 0
8301 5977 0
-8302 -5976 5977 0
8302 5976 0
8302 -5977 0
-8303 -1949 6408 0
8303 1949 0
8303 -6408 0
-8304 1949 -6408 0
8304 -1949 0
8304 6408 0
-8305 1768 -2329 0
8305 -1768 0
8305 2329 0
-8306 -1768 2329 0
8306 1768 0
8306 -2329 0
-8307 2066 -2065 0
8307 -2066 0
8307 2065 0
-8308 -2066 2065 0
8308 2066 0
8308 -2065 0
-8309 1403 -4354 0
8309 -1403 0
8309 4354 0
-8310 -1403 4354 0
8310 1403 0
8310 -4354 0
-8311 1404 -4355 0
8311 -1404 0
8311 4355 0
-8312 -1404 4355 0
8312 1404 0
8312 -4355 0
-8313 4356 -1402 0
8313 -4356 0
8313 1402 0
-8314 -4356 1402 0
8314 4356 0
8314 -1402 0
-8315 4357 -4358 0
8315 -4357 0
8315 4358 0
-8316 -4357 4358 0
8316 4357 0
8316 -4358 0
-8317 1415 -3882 0
8317 -1415 0
8317 3882 0
-8318 -1415 3882 0
8318 1415 0
8318 -3882 0
-8319 1413 -1412 0
8319 -1413 0
8319 1412 0
-8320 -1413 1412 0
8320 1413 0
8320 -1412 0
-8321 5622 -1612 0
8321 -5622 0
8321 1612 0
-8322 -5622 1612 0
8322 5622 0
8322 -1612 0
-8323 1468 -3213 0
8323 -1468 0
8323 3213 0
-8324 -1468 3213 0
8324 1468 0
8324 -3213 0
-8325 1469 -3211 0
8325 -1469 0
8325 3211 0
-8326 -1469 3211 0
8326 1469 0
8326 -3211 0
-8327 1471 -1467 0
8327 -1471 0
8327 1467 0
-8328 -1471 1467 0
8328 1471 0
8328 -1467 0
-8329 1472 -3399 0
8329 -1472 0
8329 3399 0
-8330 -1472 3399 0
8330 1472 0
8330 -3399 0
-8331 1474 -3567 0
8331 -1474 0
8331 3567 0
-8332 -1474 3567 0
8332 1474 0
8332 -3567 0
-8333 1475 -1470 0
8333 -1475 0
8333 1470 0
-8334 -1475 1470 0
8334 1475 0
8334 -1470 0
-8335 1478 -1473 0
8335 -1478 0
8335 1473 0
-8336 -1478 1473 0
8336 1478 0
8336 -1473 0
-8337 1477 -3676 0
8337 -1477 0
8337 3676 0
-8338 -1477 3676 0
8338 1477 0
8338 -3676 0
-8339 232 -2649 0
8339 -232 0
8339 2649 0
-8340 -232 2649 0
8340 232 0
8340 -2649 0
-8341 305 -2204 0
8341 -305 0
8341 2204 0
-8342 -305 2204 0
8342 305 0
8342 -2204 0
-8343 1614 -2243 0
8343 -1614 0
8343 2243 0
-8344 -1614 2243 0
8344 1614 0
8344 -2243 0
-8345 4519 -2697 0
8345 -4519 0
8345 2697 0
-8346 -4519 2697 0
8346 4519 0
8346 -2697 0
-8347 1769 -4652 0
8347 -1769 0
8347 4652 0
-8348 -1769 4652 0
8348 1769 0
8348 -4652 0
-8349 5111 -5112 0
8349 -5111 0
8349 5112 0
-8350 -5111 5112 0
8350 5111 0
8350 -5112 0
-8351 2651 -5824 0
8351 -2651 0
8351 5824 0
-8352 -2651 5824 0
8352 2651 0
8352 -5824 0
-8353 2652 -5826 0
8353 -2652 0
8353 5826 0
-8354 -2652 5826 0
8354 2652 0
8354 -5826 0
-8355 2653 -5827 0
8355 -2653 0
8355 5827 0
-8356 -2653 5827 0
8356 2653 0
8356 -5827 0
-8357 -2329 6425 0
8357 2329 0
8357 -6425 0
-8358 2329 -6425 0
8358 -2329 0
8358 6425 0
-8359 -1405 6426 0
8359 1405 0
8359 -6426 0
-8360 1405 -6426 0
8360 -1405 0
8360 6426 0
-8361 -1412 6427 0
8361 1412 0
8361 -6427 0
-8362 1412 -6427 0
8362 -1412 0
8362 6427 0
-8363 -2749 6428 0
8363 2749 0
8363 -6428 0
-8364 2749 -6428 0
8364 -2749 0
8364 6428 0
-8365 -2793 6429 0
8365 2793 0
8365 -6429 0
-8366 2793 -6429 0
8366 -2793 0
8366 6429 0
-8367 4803 -4804 0
8367 -4803 0
8367 4804 0
-8368 -4803 4804 0
8368 4803 0
8368 -4804 0
-8369 -2829 6430 0
8369 2829 0
8369 -6430 0
-8370 2829 -6430 0
8370 -2829 0
8370 6430 0
-8371 5382 -5383 0
8371 -5382 0
8371 5383 0
-8372 -5382 5383 0
8372 5382 0
8372 -5383 0
-8373 2452 -1767 0
8373 -2452 0
8373 1767 0
-8374 -2452 1767 0
8374 2452 0
8374 -1767 0
-8375 3230 -3231 0
8375 -3230 0
8375 3231 0
-8376 -3230 3231 0
8376 3230 0
8376 -3231 0
-8377 -1647 6431 0
8377 1647 0
8377 -6431 0
-8378 1647 -6431 0
8378 -1647 0
8378 6431 0
-8379 4902 -4903 0
8379 -4902 0
8379 4903 0
-8380 -4902 4903 0
8380 4902 0
8380 -4903 0
-8381 5452 -5453 0
8381 -5452 0
8381 5453 0
-8382 -5452 5453 0
8382 5452 0
8382 -5453 0
-8383 3390 -3391 0
8383 -3390 0
8383 3391 0
-8384 -3390 3391 0
8384 3390 0
8384 -3391 0
-8385 -1919 6432 0
8385 1919 0
8385 -6432 0
-8386 1919 -6432 0
8386 -1919 0
8386 6432 0
-8387 5031 -5032 0
8387 -5031 0
8387 5032 0
-8388 -5031 5032 0
8388 5031 0
8388 -5032 0
-8389 -2065 6433 0
8389 2065 0
8389 -6433 0
-8390 2065 -6433 0
8390 -2065 0
8390 6433 0
-8391 49 -3717 0
8391 -49 0
8391 3717 0
-8392 -49 3717 0
8392 49 0
8392 -3717 0
-8393 2654 -5829 0
8393 -2654 0
8393 5829 0
-8394 -2654 5829 0
8394 2654 0
8394 -5829 0
-8395 1817 -4744 0
8395 -1817 0
8395 4744 0
-8396 -1817 4744 0
8396 1817 0
8396 -4744 0
-8397 2699 -5853 0
8397 -2699 0
8397 5853 0
-8398 -2699 5853 0
8398 2699 0
8398 -5853 0
-8399 5906 -5907 0
8399 -5906 0
8399 5907 0
-8400 -5906 5907 0
8400 5906 0
8400 -5907 0
-8401 4840 -4841 0
8401 -4840 0
8401 4841 0
-8402 -4840 4841 0
8402 4840 0
8402 -4841 0
-8403 1515 -4451 0
8403 -1515 0
8403 4451 0
-8404 -1515 4451 0
8404 1515 0
8404 -4451 0
-8405 5970 -5971 0
8405 -5970 0
8405 5971 0
-8406 -5970 5971 0
8406 5970 0
8406 -5971 0
-8407 6051 -6052 0
8407 -6051 0
8407 6052 0
-8408 -6051 6052 0
8408 6051 0
8408 -6052 0
-8409 1664 -4591 0
8409 -1664 0
8409 4591 0
-8410 -1664 4591 0
8410 1664 0
8410 -4591 0
-8411 681 -4219 0
8411 -681 0
8411 4219 0
-8412 -681 4219 0
8412 681 0
8412 -4219 0
-8413 679 -678 0
8413 -679 0
8413 678 0
-8414 -679 678 0
8414 679 0
8414 -678 0
-8415 4220 -680 0
8415 -4220 0
8415 680 0
-8416 -4220 680 0
8416 4220 0
8416 -680 0
-8417 4221 -4222 0
8417 -4221 0
8417 4222 0
-8418 -4221 4222 0
8418 4221 0
8418 -4222 0
-8419 4737 -2751 0
8419 -4737 0
8419 2751 0
-8420 -4737 2751 0
8420 4737 0
8420 -2751 0
-8421 1589 -1588 0
8421 -1589 0
8421 1588 0
-8422 -1589 1588 0
8422 1589 0
8422 -1588 0
-8423 1495 -1494 0
8423 -1495 0
8423 1494 0
-8424 -1495 1494 0
8424 1495 0
8424 -1494 0
-8425 1497 -4380 0
8425 -1497 0
8425 4380 0
-8426 -1497 4380 0
8426 1497 0
8426 -4380 0
-8427 1499 -4381 0
8427 -1499 0
8427 4381 0
-8428 -1499 4381 0
8428 1499 0
8428 -4381 0
-8429 1500 -1496 0
8429 -1500 0
8429 1496 0
-8430 -1500 1496 0
8430 1500 0
8430 -1496 0
-8431 1502 -1498 0
8431 -1502 0
8431 1498 0
-8432 -1502 1498 0
8432 1502 0
8432 -1498 0
-8433 1503 -4382 0
8433 -1503 0
8433 4382 0
-8434 -1503 4382 0
8434 1503 0
8434 -4382 0
-8435 845 -844 0
8435 -845 0
8435 844 0
-8436 -845 844 0
8436 845 0
8436 -844 0
-8437 847 -4265 0
8437 -847 0
8437 4265 0
-8438 -847 4265 0
8438 847 0
8438 -4265 0
-8439 4445 -2674 0
8439 -4445 0
8439 2674 0
-8440 -4445 2674 0
8440 4445 0
8440 -2674 0
-8441 2234 -2233 0
8441 -2234 0
8441 2233 0
-8442 -2234 2233 0
8442 2234 0
8442 -2233 0
-8443 426 -425 0
8443 -426 0
8443 425 0
-8444 -426 425 0
8444 426 0
8444 -425 0
-8445 3996 -3997 0
8445 -3996 0
8445 3997 0
-8446 -3996 3997 0
8446 3996 0
8446 -3997 0
-8447 4634 -2306 0
8447 -4634 0
8447 2306 0
-8448 -4634 2306 0
8448 4634 0
8448 -2306 0
-8449 677 -676 0
8449 -677 0
8449 676 0
-8450 -677 676 0
8450 677 0
8450 -676 0
-8451 4217 -4218 0
8451 -4217 0
8451 4218 0
-8452 -4217 4218 0
8452 4217 0
8452 -4218 0
-8453 4378 -3317 0
8453 -4378 0
8453 3317 0
-8454 -4378 3317 0
8454 4378 0
8454 -3317 0
-8455 4379 -3363 0
8455 -4379 0
8455 3363 0
-8456 -4379 3363 0
8456 4379 0
8456 -3363 0
-8457 268 -267 0
8457 -268 0
8457 267 0
-8458 -268 267 0
8458 268 0
8458 -267 0
-8459 273 -3859 0
8459 -273 0
8459 3859 0
-8460 -273 3859 0
8460 273 0
8460 -3859 0
-8461 275 -2194 0
8461 -275 0
8461 2194 0
-8462 -275 2194 0
8462 275 0
8462 -2194 0
-8463 3861 -272 0
8463 -3861 0
8463 272 0
-8464 -3861 272 0
8464 3861 0
8464 -272 0
-8465 3862 -3863 0
8465 -3862 0
8465 3863 0
-8466 -3862 3863 0
8466 3862 0
8466 -3863 0
-8467 1746 -1745 0
8467 -1746 0
8467 1745 0
-8468 -1746 1745 0
8468 1746 0
8468 -1745 0
-8469 2043 -2550 0
8469 -2043 0
8469 2550 0
-8470 -2043 2550 0
8470 2043 0
8470 -2550 0
-8471 424 -423 0
8471 -424 0
8471 423 0
-8472 -424 423 0
8472 424 0
8472 -423 0
-8473 3994 -3995 0
8473 -3994 0
8473 3995 0
-8474 -3994 3995 0
8474 3994 0
8474 -3995 0
-8475 1897 -1896 0
8475 -1897 0
8475 1896 0
-8476 -1897 1896 0
8476 1897 0
8476 -1896 0
-8477 553 -4105 0
8477 -553 0
8477 4105 0
-8478 -553 4105 0
8478 553 0
8478 -4105 0
-8479 551 -550 0
8479 -551 0
8479 550 0
-8480 -551 550 0
8480 551 0
8480 -550 0
-8481 4106 -4107 0
8481 -4106 0
8481 4107 0
-8482 -4106 4107 0
8482 4106 0
8482 -4107 0
-8483 4108 -552 0
8483 -4108 0
8483 552 0
-8484 -4108 552 0
8484 4108 0
8484 -552 0
-8485 2197 -2042 0
8485 -2197 0
8485 2042 0
-8486 -2197 2042 0
8486 2197 0
8486 -2042 0
-8487 2429 -2428 0
8487 -2429 0
8487 2428 0
-8488 -2429 2428 0
8488 2429 0
8488 -2428 0
-8489 2201 -2200 0
8489 -2201 0
8489 2200 0
-8490 -2201 2200 0
8490 2201 0
8490 -2200 0
-8491 2797 -2796 0
8491 -2797 0
8491 2796 0
-8492 -2797 2796 0
8492 2797 0
8492 -2796 0
-8493 1957 -1956 0
8493 -1957 0
8493 1956 0
-8494 -1957 1956 0
8494 1957 0
8494 -1956 0
-8495 1810 -1809 0
8495 -1810 0
8495 1809 0
-8496 -1810 1809 0
8496 1810 0
8496 -1809 0
-8497 1507 -1506 0
8497 -1507 0
8497 1506 0
-8498 -1507 1506 0
8498 1507 0
8498 -1506 0
-8499 -2200 6479 0
8499 2200 0
8499 -6479 0
-8500 2200 -6479 0
8500 -2200 0
8500 6479 0
-8501 -678 6480 0
8501 678 0
8501 -6480 0
-8502 678 -6480 0
8502 -678 0
8502 6480 0
-8503 -2428 6481 0
8503 2428 0
8503 -6481 0
-8504 2428 -6481 0
8504 -2428 0
8504 6481 0
-8505 2310 -5601 0
8505 -2310 0
8505 5601 0
-8506 -2310 5601 0
8506 2310 0
8506 -5601 0
-8507 2307 -5602 0
8507 -2307 0
8507 5602 0
-8508 -2307 5602 0
8508 2307 0
8508 -5602 0
-8509 2308 -5603 0
8509 -2308 0
8509 5603 0
-8510 -2308 5603 0
8510 2308 0
8510 -5603 0
-8511 2309 -5604 0
8511 -2309 0
8511 5604 0
-8512 -2309 5604 0
8512 2309 0
8512 -5604 0
-8513 5863 -5864 0
8513 -5863 0
8513 5864 0
-8514 -5863 5864 0
8514 5863 0
8514 -5864 0
-8515 -2796 6482 0
8515 2796 0
8515 -6482 0
-8516 2796 -6482 0
8516 -2796 0
8516 6482 0
-8517 2752 -5920 0
8517 -2752 0
8517 5920 0
-8518 -2752 5920 0
8518 2752 0
8518 -5920 0
-8519 2754 -5921 0
8519 -2754 0
8519 5921 0
-8520 -2754 5921 0
8520 2754 0
8520 -5921 0
-8521 -1494 6483 0
8521 1494 0
8521 -6483 0
-8522 1494 -6483 0
8522 -1494 0
8522 6483 0
-8523 -1588 6484 0
8523 1588 0
8523 -6484 0
-8524 1588 -6484 0
8524 -1588 0
8524 6484 0
-8525 5993 -5994 0
8525 -5993 0
8525 5994 0
-8526 -5993 5994 0
8526 5993 0
8526 -5994 0
-8527 -425 6485 0
8527 425 0
8527 -6485 0
-8528 425 -6485 0
8528 -425 0
8528 6485 0
-8529 -1745 6486 0
8529 1745 0
8529 -6486 0
-8530 1745 -6486 0
8530 -1745 0
8530 6486 0
-8531 -1896 6487 0
8531 1896 0
8531 -6487 0
-8532 1896 -6487 0
8532 -1896 0
8532 6487 0
-8533 3558 -3559 0
8533 -3558 0
8533 3559 0
-8534 -3558 3559 0
8534 3558 0
8534 -3559 0
-8535 3649 -3650 0
8535 -3649 0
8535 3650 0
-8536 -3649 3650 0
8536 3649 0
8536 -3650 0
-8537 5544 -5545 0
8537 -5544 0
8537 5545 0
-8538 -5544 5545 0
8538 5544 0
8538 -5545 0
-8539 53 -2121 0
8539 -53 0
8539 2121 0
-8540 -53 2121 0
8540 53 0
8540 -2121 0
-8541 5582 -1554 0
8541 -5582 0
8541 1554 0
-8542 -5582 1554 0
8542 5582 0
8542 -1554 0
-8543 1863 -2412 0
8543 -1863 0
8543 2412 0
-8544 -1863 2412 0
8544 1863 0
8544 -2412 0
-8545 840 -3209 0
8545 -840 0
8545 3209 0
-8546 -840 3209 0
8546 840 0
8546 -3209 0
-8547 839 -3367 0
8547 -839 0
8547 3367 0
-8548 -839 3367 0
8548 839 0
8548 -3367 0
-8549 842 -3527 0
8549 -842 0
8549 3527 0
-8550 -842 3527 0
8550 842 0
8550 -3527 0
-8551 843 -838 0
8551 -843 0
8551 838 0
-8552 -843 838 0
8552 843 0
8552 -838 0
-8553 4263 -841 0
8553 -4263 0
8553 841 0
-8554 -4263 841 0
8554 4263 0
8554 -841 0
-8555 4264 -3602 0
8555 -4264 0
8555 3602 0
-8556 -4264 3602 0
8556 4264 0
8556 -3602 0
-8557 5657 -1709 0
8557 -5657 0
8557 1709 0
-8558 -5657 1709 0
8558 5657 0
8558 -1709 0
-8559 1021 -3154 0
8559 -1021 0
8559 3154 0
-8560 -1021 3154 0
8560 1021 0
8560 -3154 0
-8561 1022 -3156 0
8561 -1022 0
8561 3156 0
-8562 -1022 3156 0
8562 1022 0
8562 -3156 0
-8563 2009 -2533 0
8563 -2009 0
8563 2533 0
-8564 -2009 2533 0
8564 2009 0
8564 -2533 0
-8565 1556 -2224 0
8565 -1556 0
8565 2224 0
-8566 -1556 2224 0
8566 1556 0
8566 -2224 0
-8567 1024 -1020 0
8567 -1024 0
8567 1020 0
-8568 -1024 1020 0
8568 1024 0
8568 -1020 0
-8569 1027 -3458 0
8569 -1027 0
8569 3458 0
-8570 -1027 3458 0
8570 1027 0
8570 -3458 0
-8571 1028 -1023 0
8571 -1028 0
8571 1023 0
-8572 -1028 1023 0
8572 1028 0
8572 -1023 0
-8573 1031 -3658 0
8573 -1031 0
8573 3658 0
-8574 -1031 3658 0
8574 1031 0
8574 -3658 0
-8575 1030 -1026 0
8575 -1030 0
8575 1026 0
-8576 -1030 1026 0
8576 1030 0
8576 -1026 0
-8577 4289 -3721 0
8577 -4289 0
8577 3721 0
-8578 -4289 3721 0
8578 4289 0
8578 -3721 0
-8579 4290 -1029 0
8579 -4290 0
8579 1029 0
-8580 -4290 1029 0
8580 4290 0
8580 -1029 0
-8581 1025 -3423 0
8581 -1025 0
8581 3423 0
-8582 -1025 3423 0
8582 1025 0
8582 -3423 0
-8583 5480 -2008 0
8583 -5480 0
8583 2008 0
-8584 -5480 2008 0
8584 5480 0
8584 -2008 0
-8585 5724 -1861 0
8585 -5724 0
8585 1861 0
-8586 -5724 1861 0
8586 5724 0
8586 -1861 0
-8587 1657 -2701 0
8587 -1657 0
8587 2701 0
-8588 -1657 2701 0
8588 1657 0
8588 -2701 0
-8589 1710 -2290 0
8589 -1710 0
8589 2290 0
-8590 -1710 2290 0
8590 1710 0
8590 -2290 0
-8591 1035 -3860 0
8591 -1035 0
8591 3860 0
-8592 -1035 3860 0
8592 1035 0
8592 -3860 0
-8593 1033 -1032 0
8593 -1033 0
8593 1032 0
-8594 -1033 1032 0
8594 1033 0
8594 -1032 0
-8595 -2701 6504 0
8595 2701 0
8595 -6504 0
-8596 2701 -6504 0
8596 -2701 0
8596 6504 0
-8597 -279 280 0
8597 279 0
8597 -280 0
-8598 279 -280 0
8598 -279 0
8598 280 0
-8599 -844 6505 0
8599 844 0
8599 -6505 0
-8600 844 -6505 0
8600 -844 0
8600 6505 0
-8601 2756 -1656 0
8601 -2756 0
8601 1656 0
-8602 -2756 1656 0
8602 2756 0
8602 -1656 0
-8603 -1506 6506 0
8603 1506 0
8603 -6506 0
-8604 1506 -6506 0
8604 -1506 0
8604 6506 0
-8605 -1032 6507 0
8605 1032 0
8605 -6507 0
-8606 1032 -6507 0
8606 -1032 0
8606 6507 0
-8607 -1809 6508 0
8607 1809 0
8607 -6508 0
-8608 1809 -6508 0
8608 -1809 0
8608 6508 0
-8609 -1956 6509 0
8609 1956 0
8609 -6509 0
-8610 1956 -6509 0
8610 -1956 0
8610 6509 0
-8611 4635 -4636 0
8611 -4635 0
8611 4636 0
-8612 -4635 4636 0
8612 4635 0
8612 -4636 0
-8613 2357 -2356 0
8613 -2357 0
8613 2356 0
-8614 -2357 2356 0
8614 2357 0
8614 -2356 0
-8615 2633 -2632 0
8615 -2633 0
8615 2632 0
-8616 -2633 2632 0
8616 2633 0
8616 -2632 0
-8617 1443 -3290 0
8617 -1443 0
8617 3290 0
-8618 -1443 3290 0
8618 1443 0
8618 -3290 0
-8619 1444 -3292 0
8619 -1444 0
8619 3292 0
-8620 -1444 3292 0
8620 1444 0
8620 -3292 0
-8621 1447 -3429 0
8621 -1447 0
8621 3429 0
-8622 -1447 3429 0
8622 1447 0
8622 -3429 0
-8623 1446 -1442 0
8623 -1446 0
8623 1442 0
-8624 -1446 1442 0
8624 1446 0
8624 -1442 0
-8625 1449 -3531 0
8625 -1449 0
8625 3531 0
-8626 -1449 3531 0
8626 1449 0
8626 -3531 0
-8627 1450 -1445 0
8627 -1450 0
8627 1445 0
-8628 -1450 1445 0
8628 1450 0
8628 -1445 0
-8629 1452 -3574 0
8629 -1452 0
8629 3574 0
-8630 -1452 3574 0
8630 1452 0
8630 -3574 0
-8631 1453 -1448 0
8631 -1453 0
8631 1448 0
-8632 -1453 1448 0
8632 1453 0
8632 -1448 0
-8633 1455 -1451 0
8633 -1455 0
8633 1451 0
-8634 -1455 1451 0
8634 1455 0
8634 -1451 0
-8635 1456 -3745 0
8635 -1456 0
8635 3745 0
-8636 -1456 3745 0
8636 1456 0
8636 -3745 0
-8637 -2688 2689 0
8637 2688 0
8637 -2689 0
-8638 2688 -2689 0
8638 -2688 0
8638 2689 0
-8639 4492 -2688 0
8639 -4492 0
8639 2688 0
-8640 -4492 2688 0
8640 4492 0
8640 -2688 0
-8641 2599 -2598 0
8641 -2599 0
8641 2598 0
-8642 -2599 2598 0
8642 2599 0
8642 -2598 0
-8643 2046 -2045 0
8643 -2046 0
8643 2045 0
-8644 -2046 2045 0
8644 2046 0
8644 -2045 0
-8645 1591 -1590 0
8645 -1591 0
8645 1590 0
-8646 -1591 1590 0
8646 1591 0
8646 -1590 0
-8647 4789 -2778 0
8647 -4789 0
8647 2778 0
-8648 -4789 2778 0
8648 4789 0
8648 -2778 0
-8649 3866 -3867 0
8649 -3866 0
8649 3867 0
-8650 -3866 3867 0
8650 3866 0
8650 -3867 0
-8651 278 -277 0
8651 -278 0
8651 277 0
-8652 -278 277 0
8652 278 0
8652 -277 0
-8653 3870 -2661 0
8653 -3870 0
8653 2661 0
-8654 -3870 2661 0
8654 3870 0
8654 -2661 0
-8655 1748 -1747 0
8655 -1748 0
8655 1747 0
-8656 -1748 1747 0
8656 1748 0
8656 -1747 0
-8657 4888 -2818 0
8657 -4888 0
8657 2818 0
-8658 -4888 2818 0
8658 4888 0
8658 -2818 0
-8659 1899 -1898 0
8659 -1899 0
8659 1898 0
-8660 -1899 1898 0
8660 1899 0
8660 -1898 0
-8661 3998 -3999 0
8661 -3998 0
8661 3999 0
-8662 -3998 3999 0
8662 3998 0
8662 -3999 0
-8663 428 -427 0
8663 -428 0
8663 427 0
-8664 -428 427 0
8664 428 0
8664 -427 0
-8665 4109 -4110 0
8665 -4109 0
8665 4110 0
-8666 -4109 4110 0
8666 4109 0
8666 -4110 0
-8667 555 -554 0
8667 -555 0
8667 554 0
-8668 -555 554 0
8668 555 0
8668 -554 0
-8669 4637 -2728 0
8669 -4637 0
8669 2728 0
-8670 -4637 2728 0
8670 4637 0
8670 -2728 0
-8671 -283 284 0
8671 283 0
8671 -284 0
-8672 283 -284 0
8672 -283 0
8672 284 0
-8673 -1590 6514 0
8673 1590 0
8673 -6514 0
-8674 1590 -6514 0
8674 -1590 0
8674 6514 0
-8675 -1747 6515 0
8675 1747 0
8675 -6515 0
-8676 1747 -6515 0
8676 -1747 0
8676 6515 0
-8677 -1898 6516 0
8677 1898 0
8677 -6516 0
-8678 1898 -6516 0
8678 -1898 0
8678 6516 0
-8679 -2045 6517 0
8679 2045 0
8679 -6517 0
-8680 2045 -6517 0
8680 -2045 0
8680 6517 0
-8681 2665 -5832 0
8681 -2665 0
8681 5832 0
-8682 -2665 5832 0
8682 2665 0
8682 -5832 0
-8683 2733 -5890 0
8683 -2733 0
8683 5890 0
-8684 -2733 5890 0
8684 2733 0
8684 -5890 0
-8685 -277 6534 0
8685 277 0
8685 -6534 0
-8686 277 -6534 0
8686 -277 0
8686 6534 0
-8687 2783 -5952 0
8687 -2783 0
8687 5952 0
-8688 -2783 5952 0
8688 2783 0
8688 -5952 0
-8689 -427 6535 0
8689 427 0
8689 -6535 0
-8690 427 -6535 0
8690 -427 0
8690 6535 0
-8691 2822 -6025 0
8691 -2822 0
8691 6025 0
-8692 -2822 6025 0
8692 2822 0
8692 -6025 0
-8693 -554 6536 0
8693 554 0
8693 -6536 0
-8694 554 -6536 0
8694 -554 0
8694 6536 0
-8695 2079 -2078 0
8695 -2079 0
8695 2078 0
-8696 -2079 2078 0
8696 2079 0
8696 -2078 0
-8697 1783 -1782 0
8697 -1783 0
8697 1782 0
-8698 -1783 1782 0
8698 1783 0
8698 -1782 0
-8699 -2290 6573 0
8699 2290 0
8699 -6573 0
-8700 2290 -6573 0
8700 -2290 0
8700 6573 0
-8701 -93 94 0
8701 93 0
8701 -94 0
-8702 93 -94 0
8702 -93 0
8702 94 0
-8703 2664 -5831 0
8703 -2664 0
8703 5831 0
-8704 -2664 5831 0
8704 2664 0
8704 -5831 0
-8705 -2412 6574 0
8705 2412 0
8705 -6574 0
-8706 2412 -6574 0
8706 -2412 0
8706 6574 0
-8707 2689 -6575 0
8707 -2689 0
8707 6575 0
-8708 -2689 6575 0
8708 2689 0
8708 -6575 0
-8709 -2533 6576 0
8709 2533 0
8709 -6576 0
-8710 2533 -6576 0
8710 -2533 0
8710 6576 0
-8711 2732 -5889 0
8711 -2732 0
8711 5889 0
-8712 -2732 5889 0
8712 2732 0
8712 -5889 0
-8713 4813 -4814 0
8713 -4813 0
8713 4814 0
-8714 -4813 4814 0
8714 4813 0
8714 -4814 0
-8715 2782 -5951 0
8715 -2782 0
8715 5951 0
-8716 -2782 5951 0
8716 2782 0
8716 -5951 0
-8717 2821 -6024 0
8717 -2821 0
8717 6024 0
-8718 -2821 6024 0
8718 2821 0
8718 -6024 0
-8719 4510 -4511 0
8719 -4510 0
8719 4511 0
-8720 -4510 4511 0
8720 4510 0
8720 -4511 0
-8721 -1782 6577 0
8721 1782 0
8721 -6577 0
-8722 1782 -6577 0
8722 -1782 0
8722 6577 0
-8723 -2078 6578 0
8723 2078 0
8723 -6578 0
-8724 2078 -6578 0
8724 -2078 0
8724 6578 0
-8725 -2121 6579 0
8725 2121 0
8725 -6579 0
-8726 2121 -6579 0
8726 -2121 0
8726 6579 0
-8727 1804 -2750 0
8727 -1804 0
8727 2750 0
-8728 -1804 2750 0
8728 1804 0
8728 -2750 0
-8729 74 -2916 0
8729 -74 0
8729 2916 0
-8730 -74 2916 0
8730 74 0
8730 -2916 0
-8731 730 -3732 0
8731 -730 0
8731 3732 0
-8732 -730 3732 0
8732 730 0
8732 -3732 0
-8733 728 -727 0
8733 -728 0
8733 727 0
-8734 -728 727 0
8734 728 0
8734 -727 0
-8735 4240 -4241 0
8735 -4240 0
8735 4241 0
-8736 -4240 4241 0
8736 4240 0
8736 -4241 0
-8737 4242 -729 0
8737 -4242 0
8737 729 0
-8738 -4242 729 0
8738 4242 0
8738 -729 0
-8739 5912 -1649 0
8739 -5912 0
8739 1649 0
-8740 -5912 1649 0
8740 5912 0
8740 -1649 0
-8741 1953 -2795 0
8741 -1953 0
8741 2795 0
-8742 -1953 2795 0
8742 1953 0
8742 -2795 0
-8743 5983 -1802 0
8743 -5983 0
8743 1802 0
-8744 -5983 1802 0
8744 5983 0
8744 -1802 0
-8745 987 -3226 0
8745 -987 0
8745 3226 0
-8746 -987 3226 0
8746 987 0
8746 -3226 0
-8747 988 -3331 0
8747 -988 0
8747 3331 0
-8748 -988 3331 0
8748 988 0
8748 -3331 0
-8749 990 -986 0
8749 -990 0
8749 986 0
-8750 -990 986 0
8750 990 0
8750 -986 0
-8751 991 -3503 0
8751 -991 0
8751 3503 0
-8752 -991 3503 0
8752 991 0
8752 -3503 0
-8753 993 -3668 0
8753 -993 0
8753 3668 0
-8754 -993 3668 0
8754 993 0
8754 -3668 0
-8755 994 -989 0
8755 -994 0
8755 989 0
-8756 -994 989 0
8756 994 0
8756 -989 0
-8757 997 -992 0
8757 -997 0
8757 992 0
-8758 -997 992 0
8758 997 0
8758 -992 0
-8759 996 -4282 0
8759 -996 0
8759 4282 0
-8760 -996 4282 0
8760 996 0
8760 -4282 0
-8761 999 -4283 0
8761 -999 0
8761 4283 0
-8762 -999 4283 0
8762 999 0
8762 -4283 0
-8763 1000 -995 0
8763 -1000 0
8763 995 0
-8764 -1000 995 0
8764 1000 0
8764 -995 0
-8765 4284 -998 0
8765 -4284 0
8765 998 0
-8766 -4284 998 0
8766 4284 0
8766 -998 0
-8767 4285 -4286 0
8767 -4285 0
8767 4286 0
-8768 -4285 4286 0
8768 4285 0
8768 -4286 0
-8769 2098 -2830 0
8769 -2098 0
8769 2830 0
-8770 -2098 2830 0
8770 2098 0
8770 -2830 0
-8771 1650 -2700 0
8771 -1650 0
8771 2700 0
-8772 -1650 2700 0
8772 1650 0
8772 -2700 0
-8773 6061 -1951 0
8773 -6061 0
8773 1951 0
-8774 -6061 1951 0
8774 6061 0
8774 -1951 0
-8775 6147 -2097 0
8775 -6147 0
8775 2097 0
-8776 -6147 2097 0
8776 6147 0
8776 -2097 0
-8777 716 -3321 0
8777 -716 0
8777 3321 0
-8778 -716 3321 0
8778 716 0
8778 -3321 0
-8779 717 -3320 0
8779 -717 0
8779 3320 0
-8780 -717 3320 0
8780 717 0
8780 -3320 0
-8781 719 -715 0
8781 -719 0
8781 715 0
-8782 -719 715 0
8782 719 0
8782 -715 0
-8783 720 -3383 0
8783 -720 0
8783 3383 0
-8784 -720 3383 0
8784 720 0
8784 -3383 0
-8785 723 -3505 0
8785 -723 0
8785 3505 0
-8786 -723 3505 0
8786 723 0
8786 -3505 0
-8787 722 -718 0
8787 -722 0
8787 718 0
-8788 -722 718 0
8788 722 0
8788 -718 0
-8789 725 -721 0
8789 -725 0
8789 721 0
-8790 -725 721 0
8790 725 0
8790 -721 0
-8791 726 -3576 0
8791 -726 0
8791 3576 0
-8792 -726 3576 0
8792 726 0
8792 -3576 0
-8793 4237 -724 0
8793 -4237 0
8793 724 0
-8794 -4237 724 0
8794 4237 0
8794 -724 0
-8795 4238 -4239 0
8795 -4238 0
8795 4239 0
-8796 -4238 4239 0
8796 4238 0
8796 -4239 0
-8797 4777 -2885 0
8797 -4777 0
8797 2885 0
-8798 -4777 2885 0
8798 4777 0
8798 -2885 0
-8799 4876 -2907 0
8799 -4876 0
8799 2907 0
-8800 -4876 2907 0
8800 4876 0
8800 -2907 0
-8801 2852 -2851 0
8801 -2852 0
8801 2851 0
-8802 -2852 2851 0
8802 2852 0
8802 -2851 0
-8803 -727 6580 0
8803 727 0
8803 -6580 0
-8804 727 -6580 0
8804 -727 0
8804 6580 0
-8805 1523 -1522 0
8805 -1523 0
8805 1522 0
-8806 -1523 1522 0
8806 1523 0
8806 -1522 0
-8807 651 -4189 0
8807 -651 0
8807 4189 0
-8808 -651 4189 0
8808 651 0
8808 -4189 0
-8809 649 -648 0
8809 -649 0
8809 648 0
-8810 -649 648 0
8810 649 0
8810 -648 0
-8811 4190 -4191 0
8811 -4190 0
8811 4191 0
-8812 -4190 4191 0
8812 4190 0
8812 -4191 0
-8813 4192 -650 0
8813 -4192 0
8813 650 0
-8814 -4192 650 0
8814 4192 0
8814 -650 0
-8815 396 -395 0
8815 -396 0
8815 395 0
-8816 -396 395 0
8816 396 0
8816 -395 0
-8817 398 -3966 0
8817 -398 0
8817 3966 0
-8818 -398 3966 0
8818 398 0
8818 -3966 0
-8819 3967 -3968 0
8819 -3967 0
8819 3968 0
-8820 -3967 3968 0
8820 3967 0
8820 -3968 0
-8821 3969 -397 0
8821 -3969 0
8821 397 0
-8822 -3969 397 0
8822 3969 0
8822 -397 0
-8823 4594 -2940 0
8823 -4594 0
8823 2940 0
-8824 -4594 2940 0
8824 4594 0
8824 -2940 0
-8825 523 -522 0
8825 -523 0
8825 522 0
-8826 -523 522 0
8826 523 0
8826 -522 0
-8827 525 -4077 0
8827 -525 0
8827 4077 0
-8828 -525 4077 0
8828 525 0
8828 -4077 0
-8829 4078 -4079 0
8829 -4078 0
8829 4079 0
-8830 -4078 4079 0
8830 4078 0
8830 -4079 0
-8831 4080 -524 0
8831 -4080 0
8831 524 0
-8832 -4080 524 0
8832 4080 0
8832 -524 0
-8833 208 -3816 0
8833 -208 0
8833 3816 0
-8834 -208 3816 0
8834 208 0
8834 -3816 0
-8835 204 -203 0
8835 -204 0
8835 203 0
-8836 -204 203 0
8836 204 0
8836 -203 0
-8837 3818 -3819 0
8837 -3818 0
8837 3819 0
-8838 -3818 3819 0
8838 3818 0
8838 -3819 0
-8839 3820 -207 0
8839 -3820 0
8839 207 0
-8840 -3820 207 0
8840 3820 0
8840 -207 0
-8841 3704 -3000 0
8841 -3704 0
8841 3000 0
-8842 -3704 3000 0
8842 3704 0
8842 -3000 0
-8843 732 -731 0
8843 -732 0
8843 731 0
-8844 -732 731 0
8844 732 0
8844 -731 0
-8845 734 -4243 0
8845 -734 0
8845 4243 0
-8846 -734 4243 0
8846 734 0
8846 -4243 0
-8847 736 -4244 0
8847 -736 0
8847 4244 0
-8848 -736 4244 0
8848 736 0
8848 -4244 0
-8849 737 -733 0
8849 -737 0
8849 733 0
-8850 -737 733 0
8850 737 0
8850 -733 0
-8851 773 -772 0
8851 -773 0
8851 772 0
-8852 -773 772 0
8852 773 0
8852 -772 0
-8853 775 -4254 0
8853 -775 0
8853 4254 0
-8854 -775 4254 0
8854 775 0
8854 -4254 0
-8855 4460 -2926 0
8855 -4460 0
8855 2926 0
-8856 -4460 2926 0
8856 4460 0
8856 -2926 0
-8857 1280 -3703 0
8857 -1280 0
8857 3703 0
-8858 -1280 3703 0
8858 1280 0
8858 -3703 0
-8859 1278 -1277 0
8859 -1278 0
8859 1277 0
-8860 -1278 1277 0
8860 1278 0
8860 -1277 0
-8861 4748 -2966 0
8861 -4748 0
8861 2966 0
-8862 -4748 2966 0
8862 4748 0
8862 -2966 0
-8863 1002 -1001 0
8863 -1002 0
8863 1001 0
-8864 -1002 1001 0
8864 1002 0
8864 -1001 0
-8865 1004 -4287 0
8865 -1004 0
8865 4287 0
-8866 -1004 4287 0
8866 1004 0
8866 -4287 0
-8867 4848 -2986 0
8867 -4848 0
8867 2986 0
-8868 -4848 2986 0
8868 4848 0
8868 -2986 0
-8869 1675 -1674 0
8869 -1675 0
8869 1674 0
-8870 -1675 1674 0
8870 1675 0
8870 -1674 0
-8871 1826 -1825 0
8871 -1826 0
8871 1825 0
-8872 -1826 1825 0
8872 1826 0
8872 -1825 0
-8873 1971 -1970 0
8873 -1971 0
8873 1970 0
-8874 -1971 1970 0
8874 1971 0
8874 -1970 0
-8875 2944 -6162 0
8875 -2944 0
8875 6162 0
-8876 -2944 6162 0
8876 2944 0
8876 -6162 0
-8877 -28 29 0
8877 28 0
8877 -29 0
-8878 28 -29 0
8878 -28 0
8878 29 0
-8879 -731 6594 0
8879 731 0
8879 -6594 0
-8880 731 -6594 0
8880 -731 0
8880 6594 0
-8881 -2916 6595 0
8881 2916 0
8881 -6595 0
-8882 2916 -6595 0
8882 -2916 0
8882 6595 0
-8883 -1522 6596 0
8883 1522 0
8883 -6596 0
-8884 1522 -6596 0
8884 -1522 0
8884 6596 0
-8885 -1001 6597 0
8885 1001 0
8885 -6597 0
-8886 1001 -6597 0
8886 -1001 0
8886 6597 0
-8887 -1674 6598 0
8887 1674 0
8887 -6598 0
-8888 1674 -6598 0
8888 -1674 0
8888 6598 0
-8889 -1825 6599 0
8889 1825 0
8889 -6599 0
-8890 1825 -6599 0
8890 -1825 0
8890 6599 0
-8891 -1970 6600 0
8891 1970 0
8891 -6600 0
-8892 1970 -6600 0
8892 -1970 0
8892 6600 0
-8893 1521 -1520 0
8893 -1521 0
8893 1520 0
-8894 -1521 1520 0
8894 1521 0
8894 -1520 0
-8895 4234 -4235 0
8895 -4234 0
8895 4235 0
-8896 -4234 4235 0
8896 4234 0
8896 -4235 0
-8897 695 -694 0
8897 -695 0
8897 694 0
-8898 -695 694 0
8898 695 0
8898 -694 0
-8899 1438 -4366 0
8899 -1438 0
8899 4366 0
-8900 -1438 4366 0
8900 1438 0
8900 -4366 0
-8901 1436 -1435 0
8901 -1436 0
8901 1435 0
-8902 -1436 1435 0
8902 1436 0
8902 -1435 0
-8903 1440 -4367 0
8903 -1440 0
8903 4367 0
-8904 -1440 4367 0
8904 1440 0
8904 -4367 0
-8905 1441 -1437 0
8905 -1441 0
8905 1437 0
-8906 -1441 1437 0
8906 1441 0
8906 -1437 0
-8907 4767 -2879 0
8907 -4767 0
8907 2879 0
-8908 -4767 2879 0
8908 4767 0
8908 -2879 0
-8909 222 -2840 0
8909 -222 0
8909 2840 0
-8910 -222 2840 0
8910 222 0
8910 -2840 0
-8911 -2849 2850 0
8911 2849 0
8911 -2850 0
-8912 2849 -2850 0
8912 -2849 0
8912 2850 0
-8913 -2924 2925 0
8913 2924 0
8913 -2925 0
-8914 2924 -2925 0
8914 -2924 0
8914 2925 0
-8915 4846 -2979 0
8915 -4846 0
8915 2979 0
-8916 -4846 2979 0
8916 4846 0
8916 -2979 0
-8917 308 -307 0
8917 -308 0
8917 307 0
-8918 -308 307 0
8918 308 0
8918 -307 0
-8919 3887 -3888 0
8919 -3887 0
8919 3888 0
-8920 -3887 3888 0
8920 3887 0
8920 -3888 0
-8921 316 -2842 0
8921 -316 0
8921 2842 0
-8922 -316 2842 0
8922 316 0
8922 -2842 0
-8923 4456 -2924 0
8923 -4456 0
8923 2924 0
-8924 -4456 2924 0
8924 4456 0
8924 -2924 0
-8925 4476 -2849 0
8925 -4476 0
8925 2849 0
-8926 -4476 2849 0
8926 4476 0
8926 -2849 0
-8927 442 -441 0
8927 -442 0
8927 441 0
-8928 -442 441 0
8928 442 0
8928 -441 0
-8929 4011 -4012 0
8929 -4011 0
8929 4012 0
-8930 -4011 4012 0
8930 4011 0
8930 -4012 0
-8931 1969 -1968 0
8931 -1969 0
8931 1968 0
-8932 -1969 1968 0
8932 1969 0
8932 -1968 0
-8933 1706 -1705 0
8933 -1706 0
8933 1705 0
-8934 -1706 1705 0
8934 1706 0
8934 -1705 0
-8935 4122 -4123 0
8935 -4122 0
8935 4123 0
-8936 -4122 4123 0
8936 4122 0
8936 -4123 0
-8937 569 -568 0
8937 -569 0
8937 568 0
-8938 -569 568 0
8938 569 0
8938 -568 0
-8939 1426 -1425 0
8939 -1426 0
8939 1425 0
-8940 -1426 1425 0
8940 1426 0
8940 -1425 0
-8941 1428 -3826 0
8941 -1428 0
8941 3826 0
-8942 -1428 3826 0
8942 1428 0
8942 -3826 0
-8943 1824 -2965 0
8943 -1824 0
8943 2965 0
-8944 -1824 2965 0
8944 1824 0
8944 -2965 0
-8945 1417 -3126 0
8945 -1417 0
8945 3126 0
-8946 -1417 3126 0
8946 1417 0
8946 -3126 0
-8947 1418 -3128 0
8947 -1418 0
8947 3128 0
-8948 -1418 3128 0
8948 1418 0
8948 -3128 0
-8949 1420 -3405 0
8949 -1420 0
8949 3405 0
-8950 -1420 3405 0
8950 1420 0
8950 -3405 0
-8951 1421 -1416 0
8951 -1421 0
8951 1416 0
-8952 -1421 1416 0
8952 1421 0
8952 -1416 0
-8953 1423 -3561 0
8953 -1423 0
8953 3561 0
-8954 -1423 3561 0
8954 1423 0
8954 -3561 0
-8955 1424 -1419 0
8955 -1424 0
8955 1419 0
-8956 -1424 1419 0
8956 1424 0
8956 -1419 0
-8957 4362 -3616 0
8957 -4362 0
8957 3616 0
-8958 -4362 3616 0
8958 4362 0
8958 -3616 0
-8959 4363 -1422 0
8959 -4363 0
8959 1422 0
-8960 -4363 1422 0
8960 4363 0
8960 -1422 0
-8961 1673 -2939 0
8961 -1673 0
8961 2939 0
-8962 -1673 2939 0
8962 1673 0
8962 -2939 0
-8963 6179 -1671 0
8963 -6179 0
8963 1671 0
-8964 -6179 1671 0
8964 6179 0
8964 -1671 0
-8965 2985 -1822 0
8965 -2985 0
8965 1822 0
-8966 -2985 1822 0
8966 2985 0
8966 -1822 0
-8967 4768 -4769 0
8967 -4768 0
8967 4769 0
-8968 -4768 4769 0
8968 4768 0
8968 -4769 0
-8969 -1425 6601 0
8969 1425 0
8969 -6601 0
-8970 1425 -6601 0
8970 -1425 0
8970 6601 0
-8971 -2939 6602 0
8971 2939 0
8971 -6602 0
-8972 2939 -6602 0
8972 -2939 0
8972 6602 0
-8973 -2965 6603 0
8973 2965 0
8973 -6603 0
-8974 2965 -6603 0
8974 -2965 0
8974 6603 0
-8975 -1520 6604 0
8975 1520 0
8975 -6604 0
-8976 1520 -6604 0
8976 -1520 0
8976 6604 0
-8977 -1968 6605 0
8977 1968 0
8977 -6605 0
-8978 1968 -6605 0
8978 -1968 0
8978 6605 0
-8979 1430 -3299 0
8979 -1430 0
8979 3299 0
-8980 -1430 3299 0
8980 1430 0
8980 -3299 0
-8981 1431 -3395 0
8981 -1431 0
8981 3395 0
-8982 -1431 3395 0
8982 1431 0
8982 -3395 0
-8983 1433 -1429 0
8983 -1433 0
8983 1429 0
-8984 -1433 1429 0
8984 1433 0
8984 -1429 0
-8985 1434 -3468 0
8985 -1434 0
8985 3468 0
-8986 -1434 3468 0
8986 1434 0
8986 -3468 0
-8987 4364 -1432 0
8987 -4364 0
8987 1432 0
-8988 -4364 1432 0
8988 4364 0
8988 -1432 0
-8989 4365 -3652 0
8989 -4365 0
8989 3652 0
-8990 -4365 3652 0
8990 4365 0
8990 -3652 0
-8991 -1435 6606 0
8991 1435 0
8991 -6606 0
-8992 1435 -6606 0
8992 -1435 0
8992 6606 0
-8993 -1705 6607 0
8993 1705 0
8993 -6607 0
-8994 1705 -6607 0
8994 -1705 0
8994 6607 0
-8995 655 -4193 0
8995 -655 0
8995 4193 0
-8996 -655 4193 0
8996 655 0
8996 -4193 0
-8997 653 -652 0
8997 -653 0
8997 652 0
-8998 -653 652 0
8998 653 0
8998 -652 0
-8999 4194 -4195 0
8999 -4194 0
8999 4195 0
-9000 -4194 4195 0
9000 4194 0
9000 -4195 0
-9001 4196 -654 0
9001 -4196 0
9001 654 0
-9002 -4196 654 0
9002 4196 0
9002 -654 0
-9003 213 -212 0
9003 -213 0
9003 212 0
-9004 -213 212 0
9004 213 0
9004 -212 0
-9005 215 -3821 0
9005 -215 0
9005 3821 0
-9006 -215 3821 0
9006 215 0
9006 -3821 0
-9007 3823 -3824 0
9007 -3823 0
9007 3824 0
-9008 -3823 3824 0
9008 3823 0
9008 -3824 0
-9009 3825 -214 0
9009 -3825 0
9009 214 0
-9010 -3825 214 0
9010 3825 0
9010 -214 0
-9011 4868 -2901 0
9011 -4868 0
9011 2901 0
-9012 -4868 2901 0
9012 4868 0
9012 -2901 0
-9013 402 -3970 0
9013 -402 0
9013 3970 0
-9014 -402 3970 0
9014 402 0
9014 -3970 0
-9015 400 -399 0
9015 -400 0
9015 399 0
-9016 -400 399 0
9016 400 0
9016 -399 0
-9017 3971 -401 0
9017 -3971 0
9017 401 0
-9018 -3971 401 0
9018 3971 0
9018 -401 0
-9019 3972 -3973 0
9019 -3972 0
9019 3973 0
-9020 -3972 3973 0
9020 3972 0
9020 -3973 0
-9021 2002 -2001 0
9021 -2002 0
9021 2001 0
-9022 -2002 2001 0
9022 2002 0
9022 -2001 0
-9023 1551 -1550 0
9023 -1551 0
9023 1550 0
-9024 -1551 1550 0
9024 1551 0
9024 -1550 0
-9025 527 -526 0
9025 -527 0
9025 526 0
-9026 -527 526 0
9026 527 0
9026 -526 0
-9027 529 -4081 0
9027 -529 0
9027 4081 0
-9028 -529 4081 0
9028 529 0
9028 -4081 0
-9029 4082 -4083 0
9029 -4082 0
9029 4083 0
-9030 -4082 4083 0
9030 4082 0
9030 -4083 0
-9031 4084 -528 0
9031 -4084 0
9031 528 0
-9032 -4084 528 0
9032 4084 0
9032 -528 0
-9033 1858 -1857 0
9033 -1858 0
9033 1857 0
-9034 -1858 1857 0
9034 1858 0
9034 -1857 0
-9035 6159 -6160 0
9035 -6159 0
9035 6160 0
-9036 -6159 6160 0
9036 6159 0
9036 -6160 0
-9037 2981 -6201 0
9037 -2981 0
9037 6201 0
-9038 -2981 6201 0
9038 2981 0
9038 -6201 0
-9039 -2840 6610 0
9039 2840 0
9039 -6610 0
-9040 2840 -6610 0
9040 -2840 0
9040 6610 0
-9041 4866 -4867 0
9041 -4866 0
9041 4867 0
-9042 -4866 4867 0
9042 4866 0
9042 -4867 0
-9043 -1550 6611 0
9043 1550 0
9043 -6611 0
-9044 1550 -6611 0
9044 -1550 0
9044 6611 0
-9045 -1857 6612 0
9045 1857 0
9045 -6612 0
-9046 1857 -6612 0
9046 -1857 0
9046 6612 0
-9047 2880 -6100 0
9047 -2880 0
9047 6100 0
-9048 -2880 6100 0
9048 2880 0
9048 -6100 0
-9049 2882 -6102 0
9049 -2882 0
9049 6102 0
-9050 -2882 6102 0
9050 2882 0
9050 -6102 0
-9051 2883 -6103 0
9051 -2883 0
9051 6103 0
-9052 -2883 6103 0
9052 2883 0
9052 -6103 0
-9053 2884 -6104 0
9053 -2884 0
9053 6104 0
-9054 -2884 6104 0
9054 2884 0
9054 -6104 0
-9055 -2001 6613 0
9055 2001 0
9055 -6613 0
-9056 2001 -6613 0
9056 -2001 0
9056 6613 0
-9057 4612 -2857 0
9057 -4612 0
9057 2857 0
-9058 -4612 2857 0
9058 4612 0
9058 -2857 0
-9059 -652 6646 0
9059 652 0
9059 -6646 0
-9060 652 -6646 0
9060 -652 0
9060 6646 0
-9061 2948 -6165 0
9061 -2948 0
9061 6165 0
-9062 -2948 6165 0
9062 2948 0
9062 -6165 0
-9063 2968 -6187 0
9063 -2968 0
9063 6187 0
-9064 -2968 6187 0
9064 2968 0
9064 -6187 0
-9065 2988 -6207 0
9065 -2988 0
9065 6207 0
-9066 -2988 6207 0
9066 2988 0
9066 -6207 0
-9067 1823 -4747 0
9067 -1823 0
9067 4747 0
-9068 -1823 4747 0
9068 1823 0
9068 -4747 0
-9069 3002 -6229 0
9069 -3002 0
9069 6229 0
-9070 -3002 6229 0
9070 3002 0
9070 -6229 0
-9071 -212 6647 0
9071 212 0
9071 -6647 0
-9072 212 -6647 0
9072 -212 0
9072 6647 0
-9073 4844 -4845 0
9073 -4844 0
9073 4845 0
-9074 -4844 4845 0
9074 4844 0
9074 -4845 0
-9075 315 -3889 0
9075 -315 0
9075 3889 0
-9076 -315 3889 0
9076 315 0
9076 -3889 0
-9077 4457 -4458 0
9077 -4457 0
9077 4458 0
-9078 -4457 4458 0
9078 4457 0
9078 -4458 0
-9079 -399 6648 0
9079 399 0
9079 -6648 0
-9080 399 -6648 0
9080 -399 0
9080 6648 0
-9081 -526 6649 0
9081 526 0
9081 -6649 0
-9082 526 -6649 0
9082 -526 0
9082 6649 0
-9083 1672 -4593 0
9083 -1672 0
9083 4593 0
-9084 -1672 4593 0
9084 1672 0
9084 -4593 0
-9085 2930 -6154 0
9085 -2930 0
9085 6154 0
-9086 -2930 6154 0
9086 2930 0
9086 -6154 0
-9087 5557 -2034 0
9087 -5557 0
9087 2034 0
-9088 -5557 2034 0
9088 5557 0
9088 -2034 0
-9089 5886 -1581 0
9089 -5886 0
9089 1581 0
-9090 -5886 1581 0
9090 5886 0
9090 -1581 0
-9091 1889 -2777 0
9091 -1889 0
9091 2777 0
-9092 -1889 2777 0
9092 1889 0
9092 -2777 0
-9093 5947 -1737 0
9093 -5947 0
9093 1737 0
-9094 -5947 1737 0
9094 5947 0
9094 -1737 0
-9095 299 -2203 0
9095 -299 0
9095 2203 0
-9096 -299 2203 0
9096 299 0
9096 -2203 0
-9097 2036 -2817 0
9097 -2036 0
9097 2817 0
-9098 -2036 2817 0
9098 2036 0
9098 -2817 0
-9099 1582 -2687 0
9099 -1582 0
9099 2687 0
-9100 -1582 2687 0
9100 1582 0
9100 -2687 0
-9101 1037 -3189 0
9101 -1037 0
9101 3189 0
-9102 -1037 3189 0
9102 1037 0
9102 -3189 0
-9103 1041 -3441 0
9103 -1041 0
9103 3441 0
-9104 -1041 3441 0
9104 1041 0
9104 -3441 0
-9105 2597 -2596 0
9105 -2597 0
9105 2596 0
-9106 -2597 2596 0
9106 2597 0
9106 -2596 0
-9107 6023 -1888 0
9107 -6023 0
9107 1888 0
-9108 -6023 1888 0
9108 6023 0
9108 -1888 0
-9109 1043 -3477 0
9109 -1043 0
9109 3477 0
-9110 -1043 3477 0
9110 1043 0
9110 -3477 0
-9111 1038 -3188 0
9111 -1038 0
9111 3188 0
-9112 -1038 3188 0
9112 1038 0
9112 -3188 0
-9113 1040 -1036 0
9113 -1040 0
9113 1036 0
-9114 -1040 1036 0
9114 1040 0
9114 -1036 0
-9115 1044 -1039 0
9115 -1044 0
9115 1039 0
-9116 -1044 1039 0
9116 1044 0
9116 -1039 0
-9117 1046 -1042 0
9117 -1046 0
9117 1042 0
-9118 -1046 1042 0
9118 1046 0
9118 -1042 0
-9119 1047 -3662 0
9119 -1047 0
9119 3662 0
-9120 -1047 3662 0
9120 1047 0
9120 -3662 0
-9121 1049 -4291 0
9121 -1049 0
9121 4291 0
-9122 -1049 4291 0
9122 1049 0
9122 -4291 0
-9123 1050 -1045 0
9123 -1050 0
9123 1045 0
-9124 -1050 1045 0
9124 1050 0
9124 -1045 0
-9125 1053 -1048 0
9125 -1053 0
9125 1048 0
-9126 -1053 1048 0
9126 1053 0
9126 -1048 0
-9127 1052 -3810 0
9127 -1052 0
9127 3810 0
-9128 -1052 3810 0
9128 1052 0
9128 -3810 0
-9129 1738 -2727 0
9129 -1738 0
9129 2727 0
-9130 -1738 2727 0
9130 1738 0
9130 -2727 0
-9131 2318 -2317 0
9131 -2318 0
9131 2317 0
-9132 -2318 2317 0
9132 2318 0
9132 -2317 0
-9133 1781 -2350 0
9133 -1781 0
9133 2350 0
-9134 -1781 2350 0
9134 1781 0
9134 -2350 0
-9135 1379 -3365 0
9135 -1379 0
9135 3365 0
-9136 -1379 3365 0
9136 1379 0
9136 -3365 0
-9137 1380 -3147 0
9137 -1380 0
9137 3147 0
-9138 -1380 3147 0
9138 1380 0
9138 -3147 0
-9139 1383 -3547 0
9139 -1383 0
9139 3547 0
-9140 -1383 3547 0
9140 1383 0
9140 -3547 0
-9141 1382 -1378 0
9141 -1382 0
9141 1378 0
-9142 -1382 1378 0
9142 1382 0
9142 -1378 0
-9143 1385 -1381 0
9143 -1385 0
9143 1381 0
-9144 -1385 1381 0
9144 1385 0
9144 -1381 0
-9145 1386 -3612 0
9145 -1386 0
9145 3612 0
-9146 -1386 3612 0
9146 1386 0
9146 -3612 0
-9147 1388 -4352 0
9147 -1388 0
9147 4352 0
-9148 -1388 4352 0
9148 1388 0
9148 -4352 0
-9149 1389 -1384 0
9149 -1389 0
9149 1384 0
-9150 -1389 1384 0
9150 1389 0
9150 -1384 0
-9151 196 -2159 0
9151 -196 0
9151 2159 0
-9152 -196 2159 0
9152 196 0
9152 -2159 0
-9153 2351 -1626 0
9153 -2351 0
9153 1626 0
-9154 -2351 1626 0
9154 2351 0
9154 -1626 0
-9155 1932 -2472 0
9155 -1932 0
9155 2472 0
-9156 -1932 2472 0
9156 1932 0
9156 -2472 0
-9157 2474 -1779 0
9157 -2474 0
9157 1779 0
-9158 -2474 1779 0
9158 2474 0
9158 -1779 0
-9159 1627 -2249 0
9159 -1627 0
9159 2249 0
-9160 -1627 2249 0
9160 1627 0
9160 -2249 0
-9161 2077 -2076 0
9161 -2077 0
9161 2076 0
-9162 -2077 2076 0
9162 2077 0
9162 -2076 0
-9163 5757 -1930 0
9163 -5757 0
9163 1930 0
-9164 -5757 1930 0
9164 5757 0
9164 -1930 0
-9165 1780 -4660 0
9165 -1780 0
9165 4660 0
-9166 -1780 4660 0
9166 1780 0
9166 -4660 0
-9167 -2596 6650 0
9167 2596 0
9167 -6650 0
-9168 2596 -6650 0
9168 -2596 0
9168 6650 0
-9169 197 -3806 0
9169 -197 0
9169 3806 0
-9170 -197 3806 0
9170 197 0
9170 -3806 0
-9171 1931 -4812 0
9171 -1931 0
9171 4812 0
-9172 -1931 4812 0
9172 1931 0
9172 -4812 0
-9173 1628 -4508 0
9173 -1628 0
9173 4508 0
-9174 -1628 4508 0
9174 1628 0
9174 -4508 0
-9175 -2076 6651 0
9175 2076 0
9175 -6651 0
-9176 2076 -6651 0
9176 -2076 0
9176 6651 0
-9177 3688 -2003 0
9177 -3688 0
9177 2003 0
-9178 -3688 2003 0
9178 3688 0
9178 -2003 0
-9179 704 -3303 0
9179 -704 0
9179 3303 0
-9180 -704 3303 0
9180 704 0
9180 -3303 0
-9181 705 -3301 0
9181 -705 0
9181 3301 0
-9182 -705 3301 0
9182 705 0
9182 -3301 0
-9183 707 -3407 0
9183 -707 0
9183 3407 0
-9184 -707 3407 0
9184 707 0
9184 -3407 0
-9185 708 -703 0
9185 -708 0
9185 703 0
-9186 -708 703 0
9186 708 0
9186 -703 0
-9187 711 -3551 0
9187 -711 0
9187 3551 0
-9188 -711 3551 0
9188 711 0
9188 -3551 0
-9189 710 -706 0
9189 -710 0
9189 706 0
-9190 -710 706 0
9190 710 0
9190 -706 0
-9191 713 -709 0
9191 -713 0
9191 709 0
-9192 -713 709 0
9192 713 0
9192 -709 0
-9193 714 -3618 0
9193 -714 0
9193 3618 0
-9194 -714 3618 0
9194 714 0
9194 -3618 0
-9195 1860 -1859 0
9195 -1860 0
9195 1859 0
-9196 -1860 1859 0
9196 1860 0
9196 -1859 0
-9197 436 -4004 0
9197 -436 0
9197 4004 0
-9198 -436 4004 0
9198 436 0
9198 -4004 0
-9199 434 -433 0
9199 -434 0
9199 433 0
-9200 -434 433 0
9200 434 0
9200 -433 0
-9201 4005 -3700 0
9201 -4005 0
9201 3700 0
-9202 -4005 3700 0
9202 4005 0
9202 -3700 0
-9203 4006 -435 0
9203 -4006 0
9203 435 0
-9204 -4006 435 0
9204 4006 0
9204 -435 0
-9205 689 -4227 0
9205 -689 0
9205 4227 0
-9206 -689 4227 0
9206 689 0
9206 -4227 0
-9207 687 -686 0
9207 -687 0
9207 686 0
-9208 -687 686 0
9208 687 0
9208 -686 0
-9209 4228 -688 0
9209 -4228 0
9209 688 0
-9210 -4228 688 0
9210 4228 0
9210 -688 0
-9211 4229 -3690 0
9211 -4229 0
9211 3690 0
-9212 -4229 3690 0
9212 4229 0
9212 -3690 0
-9213 291 -290 0
9213 -291 0
9213 290 0
-9214 -291 290 0
9214 291 0
9214 -290 0
-9215 296 -3877 0
9215 -296 0
9215 3877 0
-9216 -296 3877 0
9216 296 0
9216 -3877 0
-9217 3879 -3696 0
9217 -3879 0
9217 3696 0
-9218 -3879 3696 0
9218 3879 0
9218 -3696 0
-9219 3880 -295 0
9219 -3880 0
9219 295 0
-9220 -3880 295 0
9220 3880 0
9220 -295 0
-9221 1553 -1552 0
9221 -1553 0
9221 1552 0
-9222 -1553 1552 0
9222 1553 0
9222 -1552 0
-9223 563 -4115 0
9223 -563 0
9223 4115 0
-9224 -563 4115 0
9224 563 0
9224 -4115 0
-9225 561 -560 0
9225 -561 0
9225 560 0
-9226 -561 560 0
9226 561 0
9226 -560 0
-9227 4116 -3693 0
9227 -4116 0
9227 3693 0
-9228 -4116 3693 0
9228 4116 0
9228 -3693 0
-9229 4117 -562 0
9229 -4117 0
9229 562 0
-9230 -4117 562 0
9230 4117 0
9230 -562 0
-9231 21 -3687 0
9231 -21 0
9231 3687 0
-9232 -21 3687 0
9232 21 0
9232 -3687 0
-9233 12 -3448 0
9233 -12 0
9233 3448 0
-9234 -12 3448 0
9234 12 0
9234 -3448 0
-9235 11 -5 0
9235 -11 0
9235 5 0
-9236 -11 5 0
9236 11 0
9236 -5 0
-9237 22 -15 0
9237 -22 0
9237 15 0
-9238 -22 15 0
9238 22 0
9238 -15 0
-9239 26 -20 0
9239 -26 0
9239 20 0
-9240 -26 20 0
9240 26 0
9240 -20 0
-9241 27 -3701 0
9241 -27 0
9241 3701 0
-9242 -27 3701 0
9242 27 0
9242 -3701 0
-9243 16 -3568 0
9243 -16 0
9243 3568 0
-9244 -16 3568 0
9244 16 0
9244 -3568 0
-9245 17 -10 0
9245 -17 0
9245 10 0
-9246 -17 10 0
9246 17 0
9246 -10 0
-9247 6 -3328 0
9247 -6 0
9247 3328 0
-9248 -6 3328 0
9248 6 0
9248 -3328 0
-9249 7 -3329 0
9249 -7 0
9249 3329 0
-9250 -7 3329 0
9250 7 0
9250 -3329 0
-9251 1708 -1707 0
9251 -1708 0
9251 1707 0
-9252 -1708 1707 0
9252 1708 0
9252 -1707 0
-9253 -1859 6660 0
9253 1859 0
9253 -6660 0
-9254 1859 -6660 0
9254 -1859 0
9254 6660 0
-9255 2004 -4869 0
9255 -2004 0
9255 4869 0
-9256 -2004 4869 0
9256 2004 0
9256 -4869 0
-9257 2006 -4870 0
9257 -2006 0
9257 4870 0
-9258 -2006 4870 0
9258 2006 0
9258 -4870 0
-9259 2007 -4871 0
9259 -2007 0
9259 4871 0
-9260 -2007 4871 0
9260 2007 0
9260 -4871 0
-9261 -1552 4477 0
9261 1552 0
9261 -4477 0
-9262 1552 -4477 0
9262 -1552 0
9262 4477 0
-9263 -23 24 0
9263 23 0
9263 -24 0
-9264 23 -24 0
9264 -23 0
9264 24 0
-9265 -1707 6661 0
9265 1707 0
9265 -6661 0
-9266 1707 -6661 0
9266 -1707 0
9266 6661 0
-9267 4614 -4615 0
9267 -4614 0
9267 4615 0
-9268 -4614 4615 0
9268 4614 0
9268 -4615 0
-9269 1391 -3267 0
9269 -1391 0
9269 3267 0
-9270 -1391 3267 0
9270 1391 0
9270 -3267 0
-9271 1392 -3401 0
9271 -1392 0
9271 3401 0
-9272 -1392 3401 0
9272 1392 0
9272 -3401 0
-9273 1395 -1390 0
9273 -1395 0
9273 1390 0
-9274 -1395 1390 0
9274 1395 0
9274 -1390 0
-9275 1394 -3541 0
9275 -1394 0
9275 3541 0
-9276 -1394 3541 0
9276 1394 0
9276 -3541 0
-9277 1397 -3570 0
9277 -1397 0
9277 3570 0
-9278 -1397 3570 0
9278 1397 0
9278 -3570 0
-9279 1398 -1393 0
9279 -1398 0
9279 1393 0
-9280 -1398 1393 0
9280 1398 0
9280 -1393 0
-9281 1400 -1396 0
9281 -1400 0
9281 1396 0
-9282 -1400 1396 0
9282 1400 0
9282 -1396 0
-9283 1401 -4353 0
9283 -1401 0
9283 4353 0
-9284 -1401 4353 0
9284 1401 0
9284 -4353 0
-9285 2238 -2237 0
9285 -2238 0
9285 2237 0
-9286 -2238 2237 0
9286 2238 0
9286 -2237 0
-9287 643 -642 0
9287 -643 0
9287 642 0
-9288 -643 642 0
9288 643 0
9288 -642 0
-9289 645 -4183 0
9289 -645 0
9289 4183 0
-9290 -645 4183 0
9290 645 0
9290 -4183 0
-9291 4184 -4185 0
9291 -4184 0
9291 4185 0
-9292 -4184 4185 0
9292 4184 0
9292 -4185 0
-9293 4186 -644 0
9293 -4186 0
9293 644 0
-9294 -4186 644 0
9294 4186 0
9294 -644 0
-9295 1598 -1597 0
9295 -1598 0
9295 1597 0
-9296 -1598 1597 0
9296 1598 0
9296 -1597 0
-9297 194 -3805 0
9297 -194 0
9297 3805 0
-9298 -194 3805 0
9298 194 0
9298 -3805 0
-9299 189 -188 0
9299 -189 0
9299 188 0
-9300 -189 188 0
9300 189 0
9300 -188 0
-9301 3807 -193 0
9301 -3807 0
9301 193 0
-9302 -3807 193 0
9302 3807 0
9302 -193 0
-9303 3808 -3809 0
9303 -3808 0
9303 3809 0
-9304 -3808 3809 0
9304 3808 0
9304 -3809 0
-9305 1755 -1754 0
9305 -1755 0
9305 1754 0
-9306 -1755 1754 0
9306 1755 0
9306 -1754 0
-9307 390 -389 0
9307 -390 0
9307 389 0
-9308 -390 389 0
9308 390 0
9308 -389 0
-9309 392 -3960 0
9309 -392 0
9309 3960 0
-9310 -392 3960 0
9310 392 0
9310 -3960 0
-9311 3961 -391 0
9311 -3961 0
9311 391 0
-9312 -3961 391 0
9312 3961 0
9312 -391 0
-9313 3962 -3963 0
9313 -3962 0
9313 3963 0
-9314 -3962 3963 0
9314 3962 0
9314 -3963 0
-9315 1906 -1905 0
9315 -1906 0
9315 1905 0
-9316 -1906 1905 0
9316 1906 0
9316 -1905 0
-9317 519 -4071 0
9317 -519 0
9317 4071 0
-9318 -519 4071 0
9318 519 0
9318 -4071 0
-9319 517 -516 0
9319 -517 0
9319 516 0
-9320 -517 516 0
9320 517 0
9320 -516 0
-9321 4072 -518 0
9321 -4072 0
9321 518 0
-9322 -4072 518 0
9322 4072 0
9322 -518 0
-9323 4073 -4074 0
9323 -4073 0
9323 4074 0
-9324 -4073 4074 0
9324 4073 0
9324 -4074 0
-9325 2053 -2052 0
9325 -2053 0
9325 2052 0
-9326 -2053 2052 0
9326 2053 0
9326 -2052 0
-9327 2562 -2561 0
9327 -2562 0
9327 2561 0
-9328 -2562 2561 0
9328 2562 0
9328 -2561 0
-9329 2437 -2436 0
9329 -2437 0
9329 2436 0
-9330 -2437 2436 0
9330 2437 0
9330 -2436 0
-9331 -1905 6662 0
9331 1905 0
9331 -6662 0
-9332 1905 -6662 0
9332 -1905 0
9332 6662 0
-9333 -1597 6663 0
9333 1597 0
9333 -6663 0
-9334 1597 -6663 0
9334 -1597 0
9334 6663 0
-9335 -2052 6664 0
9335 2052 0
9335 -6664 0
-9336 2052 -6664 0
9336 -2052 0
9336 6664 0
-9337 -2436 6665 0
9337 2436 0
9337 -6665 0
-9338 2436 -6665 0
9338 -2436 0
9338 6665 0
-9339 -2561 6666 0
9339 2561 0
9339 -6666 0
-9340 2561 -6666 0
9340 -2561 0
9340 6666 0
-9341 -2164 2165 0
9341 2164 0
9341 -2165 0
-9342 2164 -2165 0
9342 -2164 0
9342 2165 0
-9343 -2203 6715 0
9343 2203 0
9343 -6715 0
-9344 2203 -6715 0
9344 -2203 0
9344 6715 0
-9345 -2317 6716 0
9345 2317 0
9345 -6716 0
-9346 2317 -6716 0
9346 -2317 0
9346 6716 0
-9347 5843 -5844 0
9347 -5843 0
9347 5844 0
-9348 -5843 5844 0
9348 5843 0
9348 -5844 0
-9349 201 -2164 0
9349 -201 0
9349 2164 0
-9350 -201 2164 0
9350 201 0
9350 -2164 0
-9351 -2687 6717 0
9351 2687 0
9351 -6717 0
-9352 2687 -6717 0
9352 -2687 0
9352 6717 0
-9353 -2727 6718 0
9353 2727 0
9353 -6718 0
-9354 2727 -6718 0
9354 -2727 0
9354 6718 0
-9355 4795 -4796 0
9355 -4795 0
9355 4796 0
-9356 -4795 4796 0
9356 4795 0
9356 -4796 0
-9357 -2777 6719 0
9357 2777 0
9357 -6719 0
-9358 2777 -6719 0
9358 -2777 0
9358 6719 0
-9359 -2817 6720 0
9359 2817 0
9359 -6720 0
-9360 2817 -6720 0
9360 -2817 0
9360 6720 0
-9361 4894 -4895 0
9361 -4894 0
9361 4895 0
-9362 -4894 4895 0
9362 4894 0
9362 -4895 0
-9363 4498 -4499 0
9363 -4498 0
9363 4499 0
-9364 -4498 4499 0
9364 4498 0
9364 -4499 0
-9365 -1754 6721 0
9365 1754 0
9365 -6721 0
-9366 1754 -6721 0
9366 -1754 0
9366 6721 0
-9367 -2700 6754 0
9367 2700 0
9367 -6754 0
-9368 2700 -6754 0
9368 -2700 0
9368 6754 0
-9369 1890 -4784 0
9369 -1890 0
9369 4784 0
-9370 -1890 4784 0
9370 1890 0
9370 -4784 0
-9371 298 -3878 0
9371 -298 0
9371 3878 0
-9372 -298 3878 0
9372 298 0
9372 -3878 0
-9373 2035 -4884 0
9373 -2035 0
9373 4884 0
-9374 -2035 4884 0
9374 2035 0
9374 -4884 0
-9375 1583 -4487 0
9375 -1583 0
9375 4487 0
-9376 -1583 4487 0
9376 1583 0
9376 -4487 0
-9377 1739 -4630 0
9377 -1739 0
9377 4630 0
-9378 -1739 4630 0
9378 1739 0
9378 -4630 0
-9379 6148 -6149 0
9379 -6148 0
9379 6149 0
-9380 -6148 6149 0
9380 6148 0
9380 -6149 0
-9381 2928 -6153 0
9381 -2928 0
9381 6153 0
-9382 -2928 6153 0
9382 2928 0
9382 -6153 0
-9383 -2172 6794 0
9383 2172 0
9383 -6794 0
-9384 2172 -6794 0
9384 -2172 0
9384 6794 0
-9385 2947 -6164 0
9385 -2947 0
9385 6164 0
-9386 -2947 6164 0
9386 2947 0
9386 -6164 0
-9387 1800 -4672 0
9387 -1800 0
9387 4672 0
-9388 -1800 4672 0
9388 1800 0
9388 -4672 0
-9389 2967 -6182 0
9389 -2967 0
9389 6182 0
-9390 -2967 6182 0
9390 2967 0
9390 -6182 0
-9391 -2264 6795 0
9391 2264 0
9391 -6795 0
-9392 2264 -6795 0
9392 -2264 0
9392 6795 0
-9393 -2385 6796 0
9393 2385 0
9393 -6796 0
-9394 2385 -6796 0
9394 -2385 0
9394 6796 0
-9395 2987 -6205 0
9395 -2987 0
9395 6205 0
-9396 -2987 6205 0
9396 2987 0
9396 -6205 0
-9397 4735 -4736 0
9397 -4735 0
9397 4736 0
-9398 -4735 4736 0
9398 4735 0
9398 -4736 0
-9399 5854 -5855 0
9399 -5854 0
9399 5855 0
-9400 -5854 5855 0
9400 5854 0
9400 -5855 0
-9401 3001 -6224 0
9401 -3001 0
9401 6224 0
-9402 -3001 6224 0
9402 3001 0
9402 -6224 0
-9403 -2506 6797 0
9403 2506 0
9403 -6797 0
-9404 2506 -6797 0
9404 -2506 0
9404 6797 0
-9405 4790 -4791 0
9405 -4790 0
9405 4791 0
-9406 -4790 4791 0
9406 4790 0
9406 -4791 0
-9407 233 -3832 0
9407 -233 0
9407 3832 0
-9408 -233 3832 0
9408 233 0
9408 -3832 0
-9409 4827 -4828 0
9409 -4827 0
9409 4828 0
-9410 -4827 4828 0
9410 4827 0
9410 -4828 0
-9411 4832 -4833 0
9411 -4832 0
9411 4833 0
-9412 -4832 4833 0
9412 4832 0
9412 -4833 0
-9413 3864 -3865 0
9413 -3864 0
9413 3865 0
-9414 -3864 3865 0
9414 3864 0
9414 -3865 0
-9415 3868 -3869 0
9415 -3868 0
9415 3869 0
-9416 -3868 3869 0
9416 3868 0
9416 -3869 0
-9417 4446 -4447 0
9417 -4446 0
9417 4447 0
-9418 -4446 4447 0
9418 4446 0
9418 -4447 0
-9419 4889 -4890 0
9419 -4889 0
9419 4890 0
-9420 -4889 4890 0
9420 4889 0
9420 -4890 0
-9421 4493 -4494 0
9421 -4493 0
9421 4494 0
-9422 -4493 4494 0
9422 4493 0
9422 -4494 0
-9423 2096 -4923 0
9423 -2096 0
9423 4923 0
-9424 -2096 4923 0
9424 2096 0
9424 -4923 0
-9425 4520 -4521 0
9425 -4520 0
9425 4521 0
-9426 -4520 4521 0
9426 4520 0
9426 -4521 0
-9427 6071 -6072 0
9427 -6071 0
9427 6072 0
-9428 -6071 6072 0
9428 6071 0
9428 -6072 0
-9429 2850 -6798 0
9429 -2850 0
9429 6798 0
-9430 -2850 6798 0
9430 2850 0
9430 -6798 0
-9431 2860 -6091 0
9431 -2860 0
9431 6091 0
-9432 -2860 6091 0
9432 2860 0
9432 -6091 0
-9433 1658 -4584 0
9433 -1658 0
9433 4584 0
-9434 -1658 4584 0
9434 1658 0
9434 -4584 0
-9435 2881 -6101 0
9435 -2881 0
9435 6101 0
-9436 -2881 6101 0
9436 2881 0
9436 -6101 0
-9437 2902 -6115 0
9437 -2902 0
9437 6115 0
-9438 -2902 6115 0
9438 2902 0
9438 -6115 0
-9439 6145 -6146 0
9439 -6145 0
9439 6146 0
-9440 -6145 6146 0
9440 6145 0
9440 -6146 0
-9441 4638 -4639 0
9441 -4638 0
9441 4639 0
-9442 -4638 4639 0
9442 4638 0
9442 -4639 0
-9443 2927 -6152 0
9443 -2927 0
9443 6152 0
-9444 -2927 6152 0
9444 2927 0
9444 -6152 0
-9445 1316 -4339 0
9445 -1316 0
9445 4339 0
-9446 -1316 4339 0
9446 1316 0
9446 -4339 0
-9447 1314 -1313 0
9447 -1314 0
9447 1313 0
-9448 -1314 1313 0
9448 1314 0
9448 -1313 0
-9449 1319 -4340 0
9449 -1319 0
9449 4340 0
-9450 -1319 4340 0
9450 1319 0
9450 -4340 0
-9451 1318 -1315 0
9451 -1318 0
9451 1315 0
-9452 -1318 1315 0
9452 1318 0
9452 -1315 0
-9453 6210 -1827 0
9453 -6210 0
9453 1827 0
-9454 -6210 1827 0
9454 6210 0
9454 -1827 0
-9455 6218 -1944 0
9455 -6218 0
9455 1944 0
-9456 -6218 1944 0
9456 6218 0
9456 -1944 0
-9457 1828 -2970 0
9457 -1828 0
9457 2970 0
-9458 -1828 2970 0
9458 1828 0
9458 -2970 0
-9459 -2853 2854 0
9459 2853 0
9459 -2854 0
-9460 2853 -2854 0
9460 -2853 0
9460 2854 0
-9461 1946 -2978 0
9461 -1946 0
9461 2978 0
-9462 -1946 2978 0
9462 1946 0
9462 -2978 0
-9463 -2932 2933 0
9463 2932 0
9463 -2933 0
-9464 2932 -2933 0
9464 -2932 0
9464 2933 0
-9465 -2937 2938 0
9465 2937 0
9465 -2938 0
-9466 2937 -2938 0
9466 -2937 0
9466 2938 0
-9467 1526 -2932 0
9467 -1526 0
9467 2932 0
-9468 -1526 2932 0
9468 1526 0
9468 -2932 0
-9469 4277 -3133 0
9469 -4277 0
9469 3133 0
-9470 -4277 3133 0
9470 4277 0
9470 -3133 0
-9471 4278 -3134 0
9471 -4278 0
9471 3134 0
-9472 -4278 3134 0
9472 4278 0
9472 -3134 0
-9473 1594 -2853 0
9473 -1594 0
9473 2853 0
-9474 -1594 2853 0
9474 1594 0
9474 -2853 0
-9475 1644 -2937 0
9475 -1644 0
9475 2937 0
-9476 -1644 2937 0
9476 1644 0
9476 -2937 0
-9477 6097 -1592 0
9477 -6097 0
9477 1592 0
-9478 -6097 1592 0
9478 6097 0
9478 -1592 0
-9479 6125 -1900 0
9479 -6125 0
9479 1900 0
-9480 -6125 1900 0
9480 6125 0
9480 -1900 0
-9481 2646 -2047 0
9481 -2646 0
9481 2047 0
-9482 -2646 2047 0
9482 2646 0
9482 -2047 0
-9483 2673 -1972 0
9483 -2673 0
9483 1972 0
-9484 -2673 1972 0
9484 2673 0
9484 -1972 0
-9485 176 -2641 0
9485 -176 0
9485 2641 0
-9486 -176 2641 0
9486 176 0
9486 -2641 0
-9487 228 -2841 0
9487 -228 0
9487 2841 0
-9488 -228 2841 0
9488 228 0
9488 -2841 0
-9489 294 -2667 0
9489 -294 0
9489 2667 0
-9490 -294 2667 0
9490 294 0
9490 -2667 0
-9491 1974 -2990 0
9491 -1974 0
9491 2990 0
-9492 -1974 2990 0
9492 1974 0
9492 -2990 0
-9493 2049 -2910 0
9493 -2049 0
9493 2910 0
-9494 -2049 2910 0
9494 2049 0
9494 -2910 0
-9495 507 -4063 0
9495 -507 0
9495 4063 0
-9496 -507 4063 0
9496 507 0
9496 -4063 0
-9497 505 -504 0
9497 -505 0
9497 504 0
-9498 -505 504 0
9498 505 0
9498 -504 0
-9499 509 -4064 0
9499 -509 0
9499 4064 0
-9500 -509 4064 0
9500 509 0
9500 -4064 0
-9501 510 -506 0
9501 -510 0
9501 506 0
-9502 -510 506 0
9502 510 0
9502 -506 0
-9503 512 -4065 0
9503 -512 0
9503 4065 0
-9504 -512 4065 0
9504 512 0
9504 -4065 0
-9505 513 -508 0
9505 -513 0
9505 508 0
-9506 -513 508 0
9506 513 0
9506 -508 0
-9507 4066 -511 0
9507 -4066 0
9507 511 0
-9508 -4066 511 0
9508 4066 0
9508 -511 0
-9509 4067 -4068 0
9509 -4067 0
9509 4068 0
-9510 -4067 4068 0
9510 4067 0
9510 -4068 0
-9511 2999 -2998 0
9511 -2999 0
9511 2998 0
-9512 -2999 2998 0
9512 2999 0
9512 -2998 0
-9513 2091 -2090 0
9513 -2091 0
9513 2090 0
-9514 -2091 2090 0
9514 2091 0
9514 -2090 0
-9515 2670 -5835 0
9515 -2670 0
9515 5835 0
-9516 -2670 5835 0
9516 2670 0
9516 -5835 0
-9517 -2090 6804 0
9517 2090 0
9517 -6804 0
-9518 2090 -6804 0
9518 -2090 0
9518 6804 0
-9519 633 -4175 0
9519 -633 0
9519 4175 0
-9520 -633 4175 0
9520 633 0
9520 -4175 0
-9521 631 -630 0
9521 -631 0
9521 630 0
-9522 -631 630 0
9522 631 0
9522 -630 0
-9523 635 -632 0
9523 -635 0
9523 632 0
-9524 -635 632 0
9524 635 0
9524 -632 0
-9525 636 -4176 0
9525 -636 0
9525 4176 0
-9526 -636 4176 0
9526 636 0
9526 -4176 0
-9527 638 -4177 0
9527 -638 0
9527 4177 0
-9528 -638 4177 0
9528 638 0
9528 -4177 0
-9529 639 -634 0
9529 -639 0
9529 634 0
-9530 -639 634 0
9530 639 0
9530 -634 0
-9531 4178 -637 0
9531 -4178 0
9531 637 0
-9532 -4178 637 0
9532 4178 0
9532 -637 0
-9533 4179 -4180 0
9533 -4179 0
9533 4180 0
-9534 -4179 4180 0
9534 4179 0
9534 -4180 0
-9535 167 -3792 0
9535 -167 0
9535 3792 0
-9536 -167 3792 0
9536 167 0
9536 -3792 0
-9537 162 -161 0
9537 -162 0
9537 161 0
-9538 -162 161 0
9538 162 0
9538 -161 0
-9539 172 -166 0
9539 -172 0
9539 166 0
-9540 -172 166 0
9540 172 0
9540 -166 0
-9541 173 -3794 0
9541 -173 0
9541 3794 0
-9542 -173 3794 0
9542 173 0
9542 -3794 0
-9543 178 -171 0
9543 -178 0
9543 171 0
-9544 -178 171 0
9544 178 0
9544 -171 0
-9545 179 -3796 0
9545 -179 0
9545 3796 0
-9546 -179 3796 0
9546 179 0
9546 -3796 0
-9547 3798 -3799 0
9547 -3798 0
9547 3799 0
-9548 -3798 3799 0
9548 3798 0
9548 -3799 0
-9549 3800 -177 0
9549 -3800 0
9549 177 0
-9550 -3800 177 0
9550 3800 0
9550 -177 0
-9551 380 -3952 0
9551 -380 0
9551 3952 0
-9552 -380 3952 0
9552 380 0
9552 -3952 0
-9553 378 -377 0
9553 -378 0
9553 377 0
-9554 -378 377 0
9554 378 0
9554 -377 0
-9555 382 -3953 0
9555 -382 0
9555 3953 0
-9556 -382 3953 0
9556 382 0
9556 -3953 0
-9557 383 -379 0
9557 -383 0
9557 379 0
-9558 -383 379 0
9558 383 0
9558 -379 0
-9559 385 -381 0
9559 -385 0
9559 381 0
-9560 -385 381 0
9560 385 0
9560 -381 0
-9561 386 -3954 0
9561 -386 0
9561 3954 0
-9562 -386 3954 0
9562 386 0
9562 -3954 0
-9563 3955 -3956 0
9563 -3955 0
9563 3956 0
-9564 -3955 3956 0
9564 3955 0
9564 -3956 0
-9565 3957 -384 0
9565 -3957 0
9565 384 0
-9566 -3957 384 0
9566 3957 0
9566 -384 0
-9567 1876 -1875 0
9567 -1876 0
9567 1875 0
-9568 -1876 1875 0
9568 1876 0
9568 -1875 0
-9569 2023 -2022 0
9569 -2023 0
9569 2022 0
-9570 -2023 2022 0
9570 2023 0
9570 -2022 0
-9571 1569 -1568 0
9571 -1569 0
9571 1568 0
-9572 -1569 1568 0
9572 1569 0
9572 -1568 0
-9573 1724 -1723 0
9573 -1724 0
9573 1723 0
-9574 -1724 1723 0
9574 1724 0
9574 -1723 0
-9575 2643 -5813 0
9575 -2643 0
9575 5813 0
-9576 -2643 5813 0
9576 2643 0
9576 -5813 0
-9577 2645 -5815 0
9577 -2645 0
9577 5815 0
-9578 -2645 5815 0
9578 2645 0
9578 -5815 0
-9579 2647 -5816 0
9579 -2647 0
9579 5816 0
-9580 -2647 5816 0
9580 2647 0
9580 -5816 0
-9581 5729 -5730 0
9581 -5729 0
9581 5730 0
-9582 -5729 5730 0
9582 5729 0
9582 -5730 0
-9583 1865 -2768 0
9583 -1865 0
9583 2768 0
-9584 -1865 2768 0
9584 1865 0
9584 -2768 0
-9585 6011 -1864 0
9585 -6011 0
9585 1864 0
-9586 -6011 1864 0
9586 6011 0
9586 -1864 0
-9587 2499 -2498 0
9587 -2499 0
9587 2498 0
-9588 -2499 2498 0
9588 2499 0
9588 -2498 0
-9589 1352 -3855 0
9589 -1352 0
9589 3855 0
-9590 -1352 3855 0
9590 1352 0
9590 -3855 0
-9591 1350 -1349 0
9591 -1350 0
9591 1349 0
-9592 -1350 1349 0
9592 1350 0
9592 -1349 0
-9593 1354 -4348 0
9593 -1354 0
9593 4348 0
-9594 -1354 4348 0
9594 1354 0
9594 -4348 0
-9595 1355 -1351 0
9595 -1355 0
9595 1351 0
-9596 -1355 1351 0
9596 1355 0
9596 -1351 0
-9597 1357 -3281 0
9597 -1357 0
9597 3281 0
-9598 -1357 3281 0
9598 1357 0
9598 -3281 0
-9599 1358 -3280 0
9599 -1358 0
9599 3280 0
-9600 -1358 3280 0
9600 1358 0
9600 -3280 0
-9601 1361 -3437 0
9601 -1361 0
9601 3437 0
-9602 -1361 3437 0
9602 1361 0
9602 -3437 0
-9603 1360 -1356 0
9603 -1360 0
9603 1356 0
-9604 -1360 1356 0
9604 1360 0
9604 -1356 0
-9605 1363 -3515 0
9605 -1363 0
9605 3515 0
-9606 -1363 3515 0
9606 1363 0
9606 -3515 0
-9607 1364 -1359 0
9607 -1364 0
9607 1359 0
-9608 -1364 1359 0
9608 1364 0
9608 -1359 0
-9609 1366 -1362 0
9609 -1366 0
9609 1362 0
-9610 -1366 1362 0
9610 1366 0
9610 -1362 0
-9611 1367 -3656 0
9611 -1367 0
9611 3656 0
-9612 -1367 3656 0
9612 1367 0
9612 -3656 0
-9613 5877 -1557 0
9613 -5877 0
9613 1557 0
-9614 -5877 1557 0
9614 5877 0
9614 -1557 0
-9615 -2684 2685 0
9615 2684 0
9615 -2685 0
-9616 2684 -2685 0
9616 -2684 0
9616 2685 0
-9617 1559 -2684 0
9617 -1559 0
9617 2684 0
-9618 -1559 2684 0
9618 1559 0
9618 -2684 0
-9619 2261 -2260 0
9619 -2261 0
9619 2260 0
-9620 -2261 2260 0
9620 2261 0
9620 -2260 0
-9621 2012 -2808 0
9621 -2012 0
9621 2808 0
-9622 -2012 2808 0
9622 2012 0
9622 -2808 0
-9623 5821 -2011 0
9623 -5821 0
9623 2011 0
-9624 -5821 2011 0
9624 5821 0
9624 -2011 0
-9625 2614 -2613 0
9625 -2614 0
9625 2613 0
-9626 -2614 2613 0
9626 2614 0
9626 -2613 0
-9627 2378 -2377 0
9627 -2378 0
9627 2377 0
-9628 -2378 2377 0
9628 2378 0
9628 -2377 0
-9629 1714 -2718 0
9629 -1714 0
9629 2718 0
-9630 -1714 2718 0
9630 1714 0
9630 -2718 0
-9631 5936 -1712 0
9631 -5936 0
9631 1712 0
-9632 -5936 1712 0
9632 5936 0
9632 -1712 0
-9633 186 -2648 0
9633 -186 0
9633 2648 0
-9634 -186 2648 0
9634 186 0
9634 -2648 0
-9635 265 -2187 0
9635 -265 0
9635 2187 0
-9636 -265 2187 0
9636 265 0
9636 -2187 0
-9637 4346 -3483 0
9637 -4346 0
9637 3483 0
-9638 -4346 3483 0
9638 4346 0
9638 -3483 0
-9639 1346 -1345 0
9639 -1346 0
9639 1345 0
-9640 -1346 1345 0
9640 1346 0
9640 -1345 0
-9641 4344 -3252 0
9641 -4344 0
9641 3252 0
-9642 -4344 3252 0
9642 4344 0
9642 -3252 0
-9643 4345 -3413 0
9643 -4345 0
9643 3413 0
-9644 -4345 3413 0
9644 4345 0
9644 -3413 0
-9645 1348 -1347 0
9645 -1348 0
9645 1347 0
-9646 -1348 1347 0
9646 1348 0
9646 -1347 0
-9647 4347 -3622 0
9647 -4347 0
9647 3622 0
-9648 -4347 3622 0
9648 4347 0
9648 -3622 0
-9649 -1345 6819 0
9649 1345 0
9649 -6819 0
-9650 1345 -6819 0
9650 -1345 0
9650 6819 0
-9651 -1347 6820 0
9651 1347 0
9651 -6820 0
-9652 1347 -6820 0
9652 -1347 0
9652 6820 0
-9653 -1349 6821 0
9653 1349 0
9653 -6821 0
-9654 1349 -6821 0
9654 -1349 0
9654 6821 0
-9655 -2648 6854 0
9655 2648 0
9655 -6854 0
-9656 2648 -6854 0
9656 -2648 0
9656 6854 0
-9657 -2718 6855 0
9657 2718 0
9657 -6855 0
-9658 2718 -6855 0
9658 -2718 0
9658 6855 0
-9659 -2768 6856 0
9659 2768 0
9659 -6856 0
-9660 2768 -6856 0
9660 -2768 0
9660 6856 0
-9661 -2808 6857 0
9661 2808 0
9661 -6857 0
-9662 2808 -6857 0
9662 -2808 0
9662 6857 0
-9663 789 -3162 0
9663 -789 0
9663 3162 0
-9664 -789 3162 0
9664 789 0
9664 -3162 0
-9665 790 -3163 0
9665 -790 0
9665 3163 0
-9666 -790 3163 0
9666 790 0
9666 -3163 0
-9667 792 -788 0
9667 -792 0
9667 788 0
-9668 -792 788 0
9668 792 0
9668 -788 0
-9669 793 -3339 0
9669 -793 0
9669 3339 0
-9670 -793 3339 0
9670 793 0
9670 -3339 0
-9671 796 -3450 0
9671 -796 0
9671 3450 0
-9672 -796 3450 0
9672 796 0
9672 -3450 0
-9673 795 -791 0
9673 -795 0
9673 791 0
-9674 -795 791 0
9674 795 0
9674 -791 0
-9675 798 -3682 0
9675 -798 0
9675 3682 0
-9676 -798 3682 0
9676 798 0
9676 -3682 0
-9677 799 -794 0
9677 -799 0
9677 794 0
-9678 -799 794 0
9678 799 0
9678 -794 0
-9679 801 -797 0
9679 -801 0
9679 797 0
-9680 -801 797 0
9680 801 0
9680 -797 0
-9681 802 -4255 0
9681 -802 0
9681 4255 0
-9682 -802 4255 0
9682 802 0
9682 -4255 0
-9683 1908 -2784 0
9683 -1908 0
9683 2784 0
-9684 -1908 2784 0
9684 1908 0
9684 -2784 0
-9685 1757 -1756 0
9685 -1757 0
9685 1756 0
-9686 -1757 1756 0
9686 1757 0
9686 -1756 0
-9687 6026 -1907 0
9687 -6026 0
9687 1907 0
-9688 -6026 1907 0
9688 6026 0
9688 -1907 0
-9689 38 -2831 0
9689 -38 0
9689 2831 0
-9690 -38 2831 0
9690 38 0
9690 -2831 0
-9691 2055 -2054 0
9691 -2055 0
9691 2054 0
-9692 -2055 2054 0
9692 2055 0
9692 -2054 0
-9693 771 -770 0
9693 -771 0
9693 770 0
-9694 -771 770 0
9694 771 0
9694 -770 0
-9695 4253 -3848 0
9695 -4253 0
9695 3848 0
-9696 -4253 3848 0
9696 4253 0
9696 -3848 0
-9697 1600 -1599 0
9697 -1600 0
9697 1599 0
-9698 -1600 1599 0
9698 1600 0
9698 -1599 0
-9699 257 -2655 0
9699 -257 0
9699 2655 0
-9700 -257 2655 0
9700 257 0
9700 -2655 0
-9701 2825 -2824 0
9701 -2825 0
9701 2824 0
-9702 -2825 2824 0
9702 2825 0
9702 -2824 0
-9703 2691 -2690 0
9703 -2691 0
9703 2690 0
-9704 -2691 2690 0
9704 2691 0
9704 -2690 0
-9705 4645 -2734 0
9705 -4645 0
9705 2734 0
-9706 -4645 2734 0
9706 4645 0
9706 -2734 0
-9707 -2690 5846 0
9707 2690 0
9707 -5846 0
-9708 2690 -5846 0
9708 -2690 0
9708 5846 0
-9709 1909 -4797 0
9709 -1909 0
9709 4797 0
-9710 -1909 4797 0
9710 1909 0
9710 -4797 0
-9711 -2824 6861 0
9711 2824 0
9711 -6861 0
-9712 2824 -6861 0
9712 -2824 0
9712 6861 0
-9713 -1599 6862 0
9713 1599 0
9713 -6862 0
-9714 1599 -6862 0
9714 -1599 0
9714 6862 0
-9715 -1756 6863 0
9715 1756 0
9715 -6863 0
-9716 1756 -6863 0
9716 -1756 0
9716 6863 0
-9717 -2054 6864 0
9717 2054 0
9717 -6864 0
-9718 2054 -6864 0
9718 -2054 0
9718 6864 0
-9719 2657 -5830 0
9719 -2657 0
9719 5830 0
-9720 -2657 5830 0
9720 2657 0
9720 -5830 0
-9721 5846 -6881 0
9721 -5846 0
9721 6881 0
-9722 -5846 6881 0
9722 5846 0
9722 -6881 0
-9723 187 -3801 0
9723 -187 0
9723 3801 0
-9724 -187 3801 0
9724 187 0
9724 -3801 0
-9725 1866 -4774 0
9725 -1866 0
9725 4774 0
-9726 -1866 4774 0
9726 1866 0
9726 -4774 0
-9727 2737 -5891 0
9727 -2737 0
9727 5891 0
-9728 -2737 5891 0
9728 2737 0
9728 -5891 0
-9729 2788 -5953 0
9729 -2788 0
9729 5953 0
-9730 -2788 5953 0
9730 2788 0
9730 -5953 0
-9731 2013 -4872 0
9731 -2013 0
9731 4872 0
-9732 -2013 4872 0
9732 2013 0
9732 -4872 0
-9733 1558 -4478 0
9733 -1558 0
9733 4478 0
-9734 -1558 4478 0
9734 1558 0
9734 -4478 0
-9735 6028 -6029 0
9735 -6028 0
9735 6029 0
-9736 -6028 6029 0
9736 6028 0
9736 -6029 0
-9737 1713 -4619 0
9737 -1713 0
9737 4619 0
-9738 -1713 4619 0
9738 1713 0
9738 -4619 0
-9739 4669 -2370 0
9739 -4669 0
9739 2370 0
-9740 -4669 2370 0
9740 4669 0
9740 -2370 0
-9741 1334 -3324 0
9741 -1334 0
9741 3324 0
-9742 -1334 3324 0
9742 1334 0
9742 -3324 0
-9743 1335 -3403 0
9743 -1335 0
9743 3403 0
-9744 -1335 3403 0
9744 1335 0
9744 -3403 0
-9745 647 -646 0
9745 -647 0
9745 646 0
-9746 -647 646 0
9746 647 0
9746 -646 0
-9747 4187 -4188 0
9747 -4187 0
9747 4188 0
-9748 -4187 4188 0
9748 4187 0
9748 -4188 0
-9749 1337 -3555 0
9749 -1337 0
9749 3555 0
-9750 -1337 3555 0
9750 1337 0
9750 -3555 0
-9751 1338 -1333 0
9751 -1338 0
9751 1333 0
-9752 -1338 1333 0
9752 1338 0
9752 -1333 0
-9753 1341 -1336 0
9753 -1341 0
9753 1336 0
-9754 -1341 1336 0
9754 1341 0
9754 -1336 0
-9755 1340 -3580 0
9755 -1340 0
9755 3580 0
-9756 -1340 3580 0
9756 1340 0
9756 -3580 0
-9757 1343 -4343 0
9757 -1343 0
9757 4343 0
-9758 -1343 4343 0
9758 1343 0
9758 -4343 0
-9759 1344 -1339 0
9759 -1344 0
9759 1339 0
-9760 -1344 1339 0
9760 1344 0
9760 -1339 0
-9761 199 -198 0
9761 -199 0
9761 198 0
-9762 -199 198 0
9762 199 0
9762 -198 0
-9763 3811 -3812 0
9763 -3811 0
9763 3812 0
-9764 -3811 3812 0
9764 3811 0
9764 -3812 0
-9765 3815 -2166 0
9765 -3815 0
9765 2166 0
-9766 -3815 2166 0
9766 3815 0
9766 -2166 0
-9767 4822 -2492 0
9767 -4822 0
9767 2492 0
-9768 -4822 2492 0
9768 4822 0
9768 -2492 0
-9769 3964 -3965 0
9769 -3964 0
9769 3965 0
-9770 -3964 3965 0
9770 3964 0
9770 -3965 0
-9771 394 -393 0
9771 -394 0
9771 393 0
-9772 -394 393 0
9772 394 0
9772 -393 0
-9773 4917 -2607 0
9773 -4917 0
9773 2607 0
-9774 -4917 2607 0
9774 4917 0
9774 -2607 0
-9775 1793 -1792 0
9775 -1793 0
9775 1792 0
-9776 -1793 1792 0
9776 1793 0
9776 -1792 0
-9777 4075 -4076 0
9777 -4075 0
9777 4076 0
-9778 -4075 4076 0
9778 4075 0
9778 -4076 0
-9779 521 -520 0
9779 -521 0
9779 520 0
-9780 -521 520 0
9780 521 0
9780 -520 0
-9781 2089 -2088 0
9781 -2089 0
9781 2088 0
-9782 -2089 2088 0
9782 2089 0
9782 -2088 0
-9783 1943 -1942 0
9783 -1943 0
9783 1942 0
-9784 -1943 1942 0
9784 1943 0
9784 -1942 0
-9785 -2258 2259 0
9785 2258 0
9785 -2259 0
-9786 2258 -2259 0
9786 -2258 0
9786 2259 0
-9787 181 -2157 0
9787 -181 0
9787 2157 0
-9788 -181 2157 0
9788 181 0
9788 -2157 0
-9789 2414 -2413 0
9789 -2414 0
9789 2413 0
-9790 -2414 2413 0
9790 2414 0
9790 -2413 0
-9791 904 -3217 0
9791 -904 0
9791 3217 0
-9792 -904 3217 0
9792 904 0
9792 -3217 0
-9793 905 -3215 0
9793 -905 0
9793 3215 0
-9794 -905 3215 0
9794 905 0
9794 -3215 0
-9795 908 -903 0
9795 -908 0
9795 903 0
-9796 -908 903 0
9796 908 0
9796 -903 0
-9797 907 -3427 0
9797 -907 0
9797 3427 0
-9798 -907 3427 0
9798 907 0
9798 -3427 0
-9799 910 -3539 0
9799 -910 0
9799 3539 0
-9800 -910 3539 0
9800 910 0
9800 -3539 0
-9801 911 -906 0
9801 -911 0
9801 906 0
-9802 -911 906 0
9802 911 0
9802 -906 0
-9803 913 -909 0
9803 -913 0
9803 909 0
-9804 -913 909 0
9804 913 0
9804 -909 0
-9805 914 -3624 0
9805 -914 0
9805 3624 0
-9806 -914 3624 0
9806 914 0
9806 -3624 0
-9807 916 -3797 0
9807 -916 0
9807 3797 0
-9808 -916 3797 0
9808 916 0
9808 -3797 0
-9809 917 -912 0
9809 -917 0
9809 912 0
-9810 -917 912 0
9810 917 0
9810 -912 0
-9811 2535 -2534 0
9811 -2535 0
9811 2534 0
-9812 -2535 2534 0
9812 2535 0
9812 -2534 0
-9813 2226 -2225 0
9813 -2226 0
9813 2225 0
-9814 -2226 2225 0
9814 2226 0
9814 -2225 0
-9815 1640 -2258 0
9815 -1640 0
9815 2258 0
-9816 -1640 2258 0
9816 1640 0
9816 -2258 0
-9817 2292 -2291 0
9817 -2292 0
9817 2291 0
-9818 -2292 2291 0
9818 2292 0
9818 -2291 0
-9819 2259 -6915 0
9819 -2259 0
9819 6915 0
-9820 -2259 6915 0
9820 2259 0
9820 -6915 0
-9821 -2291 6916 0
9821 2291 0
9821 -6916 0
-9822 2291 -6916 0
9822 -2291 0
9822 6916 0
-9823 -2413 6917 0
9823 2413 0
9823 -6917 0
-9824 2413 -6917 0
9824 -2413 0
9824 6917 0
-9825 -2534 6918 0
9825 2534 0
9825 -6918 0
-9826 2534 -6918 0
9826 -2534 0
9826 6918 0
-9827 -205 206 0
9827 205 0
9827 -206 0
-9828 205 -206 0
9828 -205 0
9828 206 0
-9829 2373 -1639 0
9829 -2373 0
9829 1639 0
-9830 -2373 1639 0
9830 2373 0
9830 -1639 0
-9831 -1568 6919 0
9831 1568 0
9831 -6919 0
-9832 1568 -6919 0
9832 -1568 0
9832 6919 0
-9833 -1723 6920 0
9833 1723 0
9833 -6920 0
-9834 1723 -6920 0
9834 -1723 0
9834 6920 0
-9835 -1792 6921 0
9835 1792 0
9835 -6921 0
-9836 1792 -6921 0
9836 -1792 0
9836 6921 0
-9837 -1875 6922 0
9837 1875 0
9837 -6922 0
-9838 1875 -6922 0
9838 -1875 0
9838 6922 0
-9839 -1942 6923 0
9839 1942 0
9839 -6923 0
-9840 1942 -6923 0
9840 -1942 0
9840 6923 0
-9841 -2022 6924 0
9841 2022 0
9841 -6924 0
-9842 2022 -6924 0
9842 -2022 0
9842 6924 0
-9843 -2088 6925 0
9843 2088 0
9843 -6925 0
-9844 2088 -6925 0
9844 -2088 0
9844 6925 0
-9845 -2157 6926 0
9845 2157 0
9845 -6926 0
-9846 2157 -6926 0
9846 -2157 0
9846 6926 0
-9847 1323 -3435 0
9847 -1323 0
9847 3435 0
-9848 -1323 3435 0
9848 1323 0
9848 -3435 0
-9849 1321 -1320 0
9849 -1321 0
9849 1320 0
-9850 -1321 1320 0
9850 1321 0
9850 -1320 0
-9851 1325 -1322 0
9851 -1325 0
9851 1322 0
-9852 -1325 1322 0
9852 1325 0
9852 -1322 0
-9853 1326 -3456 0
9853 -1326 0
9853 3456 0
-9854 -1326 3456 0
9854 1326 0
9854 -3456 0
-9855 1329 -3634 0
9855 -1329 0
9855 3634 0
-9856 -1329 3634 0
9856 1329 0
9856 -3634 0
-9857 1328 -1324 0
9857 -1328 0
9857 1324 0
-9858 -1328 1324 0
9858 1328 0
9858 -1324 0
-9859 1331 -1327 0
9859 -1331 0
9859 1327 0
-9860 -1331 1327 0
9860 1331 0
9860 -1327 0
-9861 1332 -3852 0
9861 -1332 0
9861 3852 0
-9862 -1332 3852 0
9862 1332 0
9862 -3852 0
-9863 2746 -1601 0
9863 -2746 0
9863 1601 0
-9864 -2746 1601 0
9864 2746 0
9864 -1601 0
-9865 2791 -2790 0
9865 -2791 0
9865 2790 0
-9866 -2791 2790 0
9866 2791 0
9866 -2790 0
-9867 2186 -2185 0
9867 -2186 0
9867 2185 0
-9868 -2186 2185 0
9868 2186 0
9868 -2185 0
-9869 288 -2202 0
9869 -288 0
9869 2202 0
-9870 -288 2202 0
9870 288 0
9870 -2202 0
-9871 1531 -2848 0
9871 -1531 0
9871 2848 0
-9872 -1531 2848 0
9872 1531 0
9872 -2848 0
-9873 2827 -2826 0
9873 -2827 0
9873 2826 0
-9874 -2827 2826 0
9874 2827 0
9874 -2826 0
-9875 1602 -2692 0
9875 -1602 0
9875 2692 0
-9876 -1602 2692 0
9876 1602 0
9876 -2692 0
-9877 6089 -1529 0
9877 -6089 0
9877 1529 0
-9878 -6089 1529 0
9878 6089 0
9878 -1529 0
-9879 4646 -2740 0
9879 -4646 0
9879 2740 0
-9880 -4646 2740 0
9880 4646 0
9880 -2740 0
-9881 669 -668 0
9881 -669 0
9881 668 0
-9882 -669 668 0
9882 669 0
9882 -668 0
-9883 671 -4209 0
9883 -671 0
9883 4209 0
-9884 -671 4209 0
9884 671 0
9884 -4209 0
-9885 4210 -4211 0
9885 -4210 0
9885 4211 0
-9886 -4210 4211 0
9886 4210 0
9886 -4211 0
-9887 4212 -670 0
9887 -4212 0
9887 670 0
-9888 -4212 670 0
9888 4212 0
9888 -670 0
-9889 1375 -1374 0
9889 -1375 0
9889 1374 0
-9890 -1375 1374 0
9890 1375 0
9890 -1374 0
-9891 1377 -4351 0
9891 -1377 0
9891 4351 0
-9892 -1377 4351 0
9892 1377 0
9892 -4351 0
-9893 1759 -1758 0
9893 -1759 0
9893 1758 0
-9894 -1759 1758 0
9894 1759 0
9894 -1758 0
-9895 2232 -2231 0
9895 -2232 0
9895 2231 0
-9896 -2232 2231 0
9896 2232 0
9896 -2231 0
-9897 1911 -1910 0
9897 -1911 0
9897 1910 0
-9898 -1911 1910 0
9898 1911 0
9898 -1910 0
-9899 418 -3986 0
9899 -418 0
9899 3986 0
-9900 -418 3986 0
9900 418 0
9900 -3986 0
-9901 416 -415 0
9901 -416 0
9901 415 0
-9902 -416 415 0
9902 416 0
9902 -415 0
-9903 3987 -3988 0
9903 -3987 0
9903 3988 0
-9904 -3987 3988 0
9904 3987 0
9904 -3988 0
-9905 3989 -417 0
9905 -3989 0
9905 417 0
-9906 -3989 417 0
9906 3989 0
9906 -417 0
-9907 543 -542 0
9907 -543 0
9907 542 0
-9908 -543 542 0
9908 543 0
9908 -542 0
-9909 545 -4097 0
9909 -545 0
9909 4097 0
-9910 -545 4097 0
9910 545 0
9910 -4097 0
-9911 4098 -4099 0
9911 -4098 0
9911 4099 0
-9912 -4098 4099 0
9912 4098 0
9912 -4099 0
-9913 4100 -544 0
9913 -4100 0
9913 544 0
-9914 -4100 544 0
9914 4100 0
9914 -544 0
-9915 2057 -2056 0
9915 -2057 0
9915 2056 0
-9916 -2057 2056 0
9916 2057 0
9916 -2056 0
-9917 3846 -3847 0
9917 -3846 0
9917 3847 0
-9918 -3846 3847 0
9918 3846 0
9918 -3847 0
-9919 249 -248 0
9919 -249 0
9919 248 0
-9920 -249 248 0
9920 249 0
9920 -248 0
-9921 254 -253 0
9921 -254 0
9921 253 0
-9922 -254 253 0
9922 254 0
9922 -253 0
-9923 -253 6927 0
9923 253 0
9923 -6927 0
-9924 253 -6927 0
9924 -253 0
9924 6927 0
-9925 -2692 6928 0
9925 2692 0
9925 -6928 0
-9926 2692 -6928 0
9926 -2692 0
9926 6928 0
-9927 2742 -5892 0
9927 -2742 0
9927 5892 0
-9928 -2742 5892 0
9928 2742 0
9928 -5892 0
-9929 2743 -5893 0
9929 -2743 0
9929 5893 0
-9930 -2743 5893 0
9930 2743 0
9930 -5893 0
-9931 2744 -5894 0
9931 -2744 0
9931 5894 0
-9932 -2744 5894 0
9932 2744 0
9932 -5894 0
-9933 2745 -5895 0
9933 -2745 0
9933 5895 0
-9934 -2745 5895 0
9934 2745 0
9934 -5895 0
-9935 3849 -3850 0
9935 -3849 0
9935 3850 0
-9936 -3849 3850 0
9936 3849 0
9936 -3850 0
-9937 4181 -4182 0
9937 -4181 0
9937 4182 0
-9938 -4181 4182 0
9938 4181 0
9938 -4182 0
-9939 641 -640 0
9939 -641 0
9939 640 0
-9940 -641 640 0
9940 641 0
9940 -640 0
-9941 1369 -3177 0
9941 -1369 0
9941 3177 0
-9942 -1369 3177 0
9942 1369 0
9942 -3177 0
-9943 1370 -3387 0
9943 -1370 0
9943 3387 0
-9944 -1370 3387 0
9944 1370 0
9944 -3387 0
-9945 1373 -3452 0
9945 -1373 0
9945 3452 0
-9946 -1373 3452 0
9946 1373 0
9946 -3452 0
-9947 1372 -1368 0
9947 -1372 0
9947 1368 0
-9948 -1372 1368 0
9948 1372 0
9948 -1368 0
-9949 4349 -3660 0
9949 -4349 0
9949 3660 0
-9950 -4349 3660 0
9950 4349 0
9950 -3660 0
-9951 4350 -1371 0
9951 -4350 0
9951 1371 0
-9952 -4350 1371 0
9952 4350 0
9952 -1371 0
-9953 1587 -1586 0
9953 -1587 0
9953 1586 0
-9954 -1587 1586 0
9954 1587 0
9954 -1586 0
-9955 3802 -3803 0
9955 -3802 0
9955 3803 0
-9956 -3802 3803 0
9956 3802 0
9956 -3803 0
-9957 184 -183 0
9957 -184 0
9957 183 0
-9958 -184 183 0
9958 184 0
9958 -183 0
-9959 191 -2158 0
9959 -191 0
9959 2158 0
-9960 -191 2158 0
9960 191 0
9960 -2158 0
-9961 1894 -2427 0
9961 -1894 0
9961 2427 0
-9962 -1894 2427 0
9962 1894 0
9962 -2427 0
-9963 1489 -1488 0
9963 -1489 0
9963 1488 0
-9964 -1489 1488 0
9964 1489 0
9964 -1488 0
-9965 4376 -3804 0
9965 -4376 0
9965 3804 0
-9966 -4376 3804 0
9966 4376 0
9966 -3804 0
-9967 5674 -1742 0
9967 -5674 0
9967 1742 0
-9968 -5674 1742 0
9968 5674 0
9968 -1742 0
-9969 2041 -2549 0
9969 -2041 0
9969 2549 0
-9970 -2041 2549 0
9970 2041 0
9970 -2549 0
-9971 388 -387 0
9971 -388 0
9971 387 0
-9972 -388 387 0
9972 388 0
9972 -387 0
-9973 3958 -3959 0
9973 -3958 0
9973 3959 0
-9974 -3958 3959 0
9974 3958 0
9974 -3959 0
-9975 5740 -1893 0
9975 -5740 0
9975 1893 0
-9976 -5740 1893 0
9976 5740 0
9976 -1893 0
-9977 515 -514 0
9977 -515 0
9977 514 0
-9978 -515 514 0
9978 515 0
9978 -514 0
-9979 4069 -4070 0
9979 -4069 0
9979 4070 0
-9980 -4069 4070 0
9980 4069 0
9980 -4070 0
-9981 5515 -2039 0
9981 -5515 0
9981 2039 0
-9982 -5515 2039 0
9982 5515 0
9982 -2039 0
-9983 1744 -2305 0
9983 -1744 0
9983 2305 0
-9984 -1744 2305 0
9984 1744 0
9984 -2305 0
-9985 1480 -3124 0
9985 -1480 0
9985 3124 0
-9986 -1480 3124 0
9986 1480 0
9986 -3124 0
-9987 1481 -3355 0
9987 -1481 0
9987 3355 0
-9988 -1481 3355 0
9988 1481 0
9988 -3355 0
-9989 1483 -3545 0
9989 -1483 0
9989 3545 0
-9990 -1483 3545 0
9990 1483 0
9990 -3545 0
-9991 1484 -1479 0
9991 -1484 0
9991 1479 0
-9992 -1484 1479 0
9992 1484 0
9992 -1479 0
-9993 1486 -1482 0
9993 -1486 0
9993 1482 0
-9994 -1486 1482 0
9994 1486 0
9994 -1482 0
-9995 1487 -3654 0
9995 -1487 0
9995 3654 0
-9996 -1487 3654 0
9996 1487 0
9996 -3654 0
-9997 4373 -4374 0
9997 -4373 0
9997 4374 0
-9998 -4373 4374 0
9998 4373 0
9998 -4374 0
-9999 4375 -1485 0
9999 -4375 0
9999 1485 0
-10000 -4375 1485 0
10000 4375 0
10000 -1485 0
-10001 -1488 6929 0
10001 1488 0
10001 -6929 0
-10002 1488 -6929 0
10002 -1488 0
10002 6929 0
-10003 1677 -1676 0
10003 -1677 0
10003 1676 0
-10004 -1677 1676 0
10004 1677 0
10004 -1676 0
-10005 685 -4223 0
10005 -685 0
10005 4223 0
-10006 -685 4223 0
10006 685 0
10006 -4223 0
-10007 683 -682 0
10007 -683 0
10007 682 0
-10008 -683 682 0
10008 683 0
10008 -682 0
-10009 4224 -684 0
10009 -4224 0
10009 684 0
-10010 -4224 684 0
10010 4224 0
10010 -684 0
-10011 4225 -4226 0
10011 -4225 0
10011 4226 0
-10012 -4225 4226 0
10012 4225 0
10012 -4226 0
-10013 286 -3871 0
10013 -286 0
10013 3871 0
-10014 -286 3871 0
10014 286 0
10014 -3871 0
-10015 282 -281 0
10015 -282 0
10015 281 0
-10016 -282 281 0
10016 282 0
10016 -281 0
-10017 3873 -285 0
10017 -3873 0
10017 285 0
-10018 -3873 285 0
10018 3873 0
10018 -285 0
-10019 3874 -3875 0
10019 -3874 0
10019 3875 0
-10020 -3874 3875 0
10020 3874 0
10020 -3875 0
-10021 430 -429 0
10021 -430 0
10021 429 0
-10022 -430 429 0
10022 430 0
10022 -429 0
-10023 432 -4000 0
10023 -432 0
10023 4000 0
-10024 -432 4000 0
10024 432 0
10024 -4000 0
-10025 4001 -4002 0
10025 -4001 0
10025 4002 0
-10026 -4001 4002 0
10026 4001 0
10026 -4002 0
-10027 4003 -431 0
10027 -4003 0
10027 431 0
-10028 -4003 431 0
10028 4003 0
10028 -431 0
-10029 559 -4111 0
10029 -559 0
10029 4111 0
-10030 -559 4111 0
10030 559 0
10030 -4111 0
-10031 557 -556 0
10031 -557 0
10031 556 0
-10032 -557 556 0
10032 557 0
10032 -556 0
-10033 4112 -558 0
10033 -4112 0
10033 558 0
-10034 -4112 558 0
10034 4112 0
10034 -558 0
-10035 4113 -4114 0
10035 -4113 0
10035 4114 0
-10036 -4113 4114 0
10036 4113 0
10036 -4114 0
-10037 4341 -3193 0
10037 -4341 0
10037 3193 0
-10038 -4341 3193 0
10038 4341 0
10038 -3193 0
-10039 4342 -3191 0
10039 -4342 0
10039 3191 0
-10040 -4342 3191 0
10040 4342 0
10040 -3191 0
-10041 4753 -2873 0
10041 -4753 0
10041 2873 0
-10042 -4753 2873 0
10042 4753 0
10042 -2873 0
-10043 4852 -2895 0
10043 -4852 0
10043 2895 0
-10044 -4852 2895 0
10044 4852 0
10044 -2895 0
-10045 1681 -1680 0
10045 -1681 0
10045 1680 0
-10046 -1681 1680 0
10046 1681 0
10046 -1680 0
-10047 2856 -2855 0
10047 -2856 0
10047 2855 0
-10048 -2856 2855 0
10048 2856 0
10048 -2855 0
-10049 2894 -1749 0
10049 -2894 0
10049 1749 0
-10050 -2894 1749 0
10050 2894 0
10050 -1749 0
-10051 1833 -1832 0
10051 -1833 0
10051 1832 0
-10052 -1833 1832 0
10052 1833 0
10052 -1832 0
-10053 1750 -2870 0
10053 -1750 0
10053 2870 0
-10054 -1750 2870 0
10054 1750 0
10054 -2870 0
-10055 1978 -1977 0
10055 -1978 0
10055 1977 0
-10056 -1978 1977 0
10056 1978 0
10056 -1977 0
-10057 1493 -4377 0
10057 -1493 0
10057 4377 0
-10058 -1493 4377 0
10058 1493 0
10058 -4377 0
-10059 1491 -1490 0
10059 -1491 0
10059 1490 0
-10060 -1491 1490 0
10060 1491 0
10060 -1490 0
-10061 -2185 6962 0
10061 2185 0
10061 -6962 0
-10062 2185 -6962 0
10062 -2185 0
10062 6962 0
-10063 -2202 6963 0
10063 2202 0
10063 -6963 0
-10064 2202 -6963 0
10064 -2202 0
10064 6963 0
-10065 5113 -5114 0
10065 -5113 0
10065 5114 0
-10066 -5113 5114 0
10066 5113 0
10066 -5114 0
-10067 -2305 6964 0
10067 2305 0
10067 -6964 0
-10068 2305 -6964 0
10068 -2305 0
10068 6964 0
-10069 -1320 6965 0
10069 1320 0
10069 -6965 0
-10070 1320 -6965 0
10070 -1320 0
10070 6965 0
-10071 -2427 6966 0
10071 2427 0
10071 -6966 0
-10072 2427 -6966 0
10072 -2427 0
10072 6966 0
-10073 -2549 6967 0
10073 2549 0
10073 -6967 0
-10074 2549 -6967 0
10074 -2549 0
10074 6967 0
-10075 -1374 6968 0
10075 1374 0
10075 -6968 0
-10076 1374 -6968 0
10076 -1374 0
10076 6968 0
-10077 -260 261 0
10077 260 0
10077 -261 0
-10078 260 -261 0
10078 -260 0
10078 261 0
-10079 -2790 6969 0
10079 2790 0
10079 -6969 0
-10080 2790 -6969 0
10080 -2790 0
10080 6969 0
-10081 -2826 6970 0
10081 2826 0
10081 -6970 0
-10082 2826 -6970 0
10082 -2826 0
10082 6970 0
-10083 -2848 6081 0
10083 2848 0
10083 -6081 0
-10084 2848 -6081 0
10084 -2848 0
10084 6081 0
-10085 -2855 6971 0
10085 2855 0
10085 -6971 0
-10086 2855 -6971 0
10086 -2855 0
10086 6971 0
-10087 5312 -5313 0
10087 -5312 0
10087 5313 0
-10088 -5312 5313 0
10088 5312 0
10088 -5313 0
-10089 4418 -4419 0
10089 -4418 0
10089 4419 0
-10090 -4418 4419 0
10090 4418 0
10090 -4419 0
-10091 -1490 6972 0
10091 1490 0
10091 -6972 0
-10092 1490 -6972 0
10092 -1490 0
10092 6972 0
-10093 -1586 6973 0
10093 1586 0
10093 -6973 0
-10094 1586 -6973 0
10094 -1586 0
10094 6973 0
-10095 4489 -4490 0
10095 -4489 0
10095 4490 0
-10096 -4489 4490 0
10096 4489 0
10096 -4490 0
-10097 -1680 6974 0
10097 1680 0
10097 -6974 0
-10098 1680 -6974 0
10098 -1680 0
10098 6974 0
-10099 4927 -4928 0
10099 -4927 0
10099 4928 0
-10100 -4927 4928 0
10100 4927 0
10100 -4928 0
-10101 -1758 6975 0
10101 1758 0
10101 -6975 0
-10102 1758 -6975 0
10102 -1758 0
10102 6975 0
-10103 4947 -4948 0
10103 -4947 0
10103 4948 0
-10104 -4947 4948 0
10104 4947 0
10104 -4948 0
-10105 -1832 6976 0
10105 1832 0
10105 -6976 0
-10106 1832 -6976 0
10106 -1832 0
10106 6976 0
-10107 -1910 6977 0
10107 1910 0
10107 -6977 0
-10108 1910 -6977 0
10108 -1910 0
10108 6977 0
-10109 -1977 6978 0
10109 1977 0
10109 -6978 0
-10110 1977 -6978 0
10110 -1977 0
10110 6978 0
-10111 -2056 6979 0
10111 2056 0
10111 -6979 0
-10112 2056 -6979 0
10112 -2056 0
10112 6979 0
-10113 -2158 6981 0
10113 2158 0
10113 -6981 0
-10114 2158 -6981 0
10114 -2158 0
10114 6981 0
-10115 1796 -2958 0
10115 -1796 0
10115 2958 0
-10116 -1796 2958 0
10116 1796 0
10116 -2958 0
-10117 4197 -4198 0
10117 -4197 0
10117 4198 0
-10118 -4197 4198 0
10118 4197 0
10118 -4198 0
-10119 657 -656 0
10119 -657 0
10119 656 0
-10120 -657 656 0
10120 657 0
10120 -656 0
-10121 6200 -1794 0
10121 -6200 0
10121 1794 0
-10122 -6200 1794 0
10122 6200 0
10122 -1794 0
-10123 3827 -3828 0
10123 -3827 0
10123 3828 0
-10124 -3827 3828 0
10124 3827 0
10124 -3828 0
-10125 220 -219 0
10125 -220 0
10125 219 0
-10126 -220 219 0
10126 220 0
10126 -219 0
-10127 3974 -3975 0
10127 -3974 0
10127 3975 0
-10128 -3974 3975 0
10128 3974 0
10128 -3975 0
-10129 404 -403 0
10129 -404 0
10129 403 0
-10130 -404 403 0
10130 404 0
10130 -403 0
-10131 2950 -2949 0
10131 -2950 0
10131 2949 0
-10132 -2950 2949 0
10132 2950 0
10132 -2949 0
-10133 531 -530 0
10133 -531 0
10133 530 0
-10134 -531 530 0
10134 531 0
10134 -530 0
-10135 4085 -4086 0
10135 -4085 0
10135 4086 0
-10136 -4085 4086 0
10136 4085 0
10136 -4086 0
-10137 -2949 6989 0
10137 2949 0
10137 -6989 0
-10138 2949 -6989 0
10138 -2949 0
10138 6989 0
-10139 -1676 6990 0
10139 1676 0
10139 -6990 0
-10140 1676 -6990 0
10140 -1676 0
10140 6990 0
-10141 4215 -4216 0
10141 -4215 0
10141 4216 0
-10142 -4215 4216 0
10142 4215 0
10142 -4216 0
-10143 675 -674 0
10143 -675 0
10143 674 0
-10144 -675 674 0
10144 675 0
10144 -674 0
-10145 2326 -1609 0
10145 -2326 0
10145 1609 0
-10146 -2326 1609 0
10146 2326 0
10146 -1609 0
-10147 1917 -2442 0
10147 -1917 0
10147 2442 0
-10148 -1917 2442 0
10148 1917 0
10148 -2442 0
-10149 263 -262 0
10149 -263 0
10149 262 0
-10150 -263 262 0
10150 263 0
10150 -262 0
-10151 3856 -3857 0
10151 -3856 0
10151 3857 0
-10152 -3856 3857 0
10152 3856 0
10152 -3857 0
-10153 271 -2188 0
10153 -271 0
10153 2188 0
-10154 -271 2188 0
10154 271 0
10154 -2188 0
-10155 2447 -1764 0
10155 -2447 0
10155 1764 0
-10156 -2447 1764 0
10156 2447 0
10156 -1764 0
-10157 2063 -2567 0
10157 -2063 0
10157 2567 0
-10158 -2063 2567 0
10158 2063 0
10158 -2567 0
-10159 1610 -2242 0
10159 -1610 0
10159 2242 0
-10160 -1610 2242 0
10160 1610 0
10160 -2242 0
-10161 422 -421 0
10161 -422 0
10161 421 0
-10162 -422 421 0
10162 422 0
10162 -421 0
-10163 3992 -3993 0
10163 -3992 0
10163 3993 0
-10164 -3992 3993 0
10164 3992 0
10164 -3993 0
-10165 1087 -3152 0
10165 -1087 0
10165 3152 0
-10166 -1087 3152 0
10166 1087 0
10166 -3152 0
-10167 1090 -1085 0
10167 -1090 0
10167 1085 0
-10168 -1090 1085 0
10168 1090 0
10168 -1085 0
-10169 1092 -3501 0
10169 -1092 0
10169 3501 0
-10170 -1092 3501 0
10170 1092 0
10170 -3501 0
-10171 1093 -1088 0
10171 -1093 0
10171 1088 0
-10172 -1093 1088 0
10172 1093 0
10172 -1088 0
-10173 1095 -1091 0
10173 -1095 0
10173 1091 0
-10174 -1095 1091 0
10174 1095 0
10174 -1091 0
-10175 1096 -3684 0
10175 -1096 0
10175 3684 0
-10176 -1096 3684 0
10176 1096 0
10176 -3684 0
-10177 2570 -1916 0
10177 -2570 0
10177 1916 0
-10178 -2570 1916 0
10178 2570 0
10178 -1916 0
-10179 4103 -4104 0
10179 -4103 0
10179 4104 0
-10180 -4103 4104 0
10180 4103 0
10180 -4104 0
-10181 549 -548 0
10181 -549 0
10181 548 0
-10182 -549 548 0
10182 549 0
10182 -548 0
-10183 1086 -3151 0
10183 -1086 0
10183 3151 0
-10184 -1086 3151 0
10184 1086 0
10184 -3151 0
-10185 1089 -3417 0
10185 -1089 0
10185 3417 0
-10186 -1089 3417 0
10186 1089 0
10186 -3417 0
-10187 2190 -2062 0
10187 -2190 0
10187 2062 0
-10188 -2190 2062 0
10188 2190 0
10188 -2062 0
-10189 1765 -2323 0
10189 -1765 0
10189 2323 0
-10190 -1765 2323 0
10190 1765 0
10190 -2323 0
-10191 673 -672 0
10191 -673 0
10191 672 0
-10192 -673 672 0
10192 673 0
10192 -672 0
-10193 4213 -4214 0
10193 -4213 0
10193 4214 0
-10194 -4213 4214 0
10194 4213 0
10194 -4214 0
-10195 1646 -1645 0
10195 -1646 0
10195 1645 0
-10196 -1646 1645 0
10196 1646 0
10196 -1645 0
-10197 3853 -3854 0
10197 -3853 0
10197 3854 0
-10198 -3853 3854 0
10198 3853 0
10198 -3854 0
-10199 259 -258 0
10199 -259 0
10199 258 0
-10200 -259 258 0
10200 259 0
10200 -258 0
-10201 1798 -1797 0
10201 -1798 0
10201 1797 0
-10202 -1798 1797 0
10202 1798 0
10202 -1797 0
-10203 3990 -3991 0
10203 -3990 0
10203 3991 0
-10204 -3990 3991 0
10204 3990 0
10204 -3991 0
-10205 420 -419 0
10205 -420 0
10205 419 0
-10206 -420 419 0
10206 420 0
10206 -419 0
-10207 4101 -4102 0
10207 -4101 0
10207 4102 0
-10208 -4101 4102 0
10208 4101 0
10208 -4102 0
-10209 547 -546 0
10209 -547 0
10209 546 0
-10210 -547 546 0
10210 547 0
10210 -546 0
-10211 2093 -2092 0
10211 -2093 0
10211 2092 0
-10212 -2093 2092 0
10212 2093 0
10212 -2092 0
-10213 1948 -1947 0
10213 -1948 0
10213 1947 0
-10214 -1948 1947 0
10214 1948 0
10214 -1947 0
-10215 -674 6991 0
10215 674 0
10215 -6991 0
-10216 674 -6991 0
10216 -674 0
10216 6991 0
-10217 -262 6992 0
10217 262 0
10217 -6992 0
-10218 262 -6992 0
10218 -262 0
10218 6992 0
-10219 -548 6993 0
10219 548 0
10219 -6993 0
-10220 548 -6993 0
10220 -548 0
10220 6993 0
-10221 -421 6994 0
10221 421 0
10221 -6994 0
-10222 421 -6994 0
10222 -421 0
10222 6994 0
-10223 -672 7011 0
10223 672 0
10223 -7011 0
-10224 672 -7011 0
10224 -672 0
10224 7011 0
-10225 -258 7012 0
10225 258 0
10225 -7012 0
-10226 258 -7012 0
10226 -258 0
10226 7012 0
-10227 -419 7013 0
10227 419 0
10227 -7013 0
-10228 419 -7013 0
10228 -419 0
10228 7013 0
-10229 -546 7014 0
10229 546 0
10229 -7014 0
-10230 546 -7014 0
10230 -546 0
10230 7014 0
-10231 4338 -3664 0
10231 -4338 0
10231 3664 0
-10232 -4338 3664 0
10232 4338 0
10232 -3664 0
-10233 1312 -1311 0
10233 -1312 0
10233 1311 0
-10234 -1312 1311 0
10234 1312 0
10234 -1311 0
-10235 1466 -3795 0
10235 -1466 0
10235 3795 0
-10236 -1466 3795 0
10236 1466 0
10236 -3795 0
-10237 1464 -1463 0
10237 -1464 0
10237 1463 0
-10238 -1464 1463 0
10238 1464 0
10238 -1463 0
-10239 4279 -3397 0
10239 -4279 0
10239 3397 0
-10240 -4279 3397 0
10240 4279 0
10240 -3397 0
-10241 977 -976 0
10241 -977 0
10241 976 0
-10242 -977 976 0
10242 977 0
10242 -976 0
-10243 4280 -3565 0
10243 -4280 0
10243 3565 0
-10244 -4280 3565 0
10244 4280 0
10244 -3565 0
-10245 979 -978 0
10245 -979 0
10245 978 0
-10246 -979 978 0
10246 979 0
10246 -978 0
-10247 4370 -3351 0
10247 -4370 0
10247 3351 0
-10248 -4370 3351 0
10248 4370 0
10248 -3351 0
-10249 1458 -1457 0
10249 -1458 0
10249 1457 0
-10250 -1458 1457 0
10250 1458 0
10250 -1457 0
-10251 4371 -3460 0
10251 -4371 0
10251 3460 0
-10252 -4371 3460 0
10252 4371 0
10252 -3460 0
-10253 1460 -1459 0
10253 -1460 0
10253 1459 0
-10254 -1460 1459 0
10254 1460 0
10254 -1459 0
-10255 4368 -3160 0
10255 -4368 0
10255 3160 0
-10256 -4368 3160 0
10256 4368 0
10256 -3160 0
-10257 4369 -3159 0
10257 -4369 0
10257 3159 0
-10258 -4369 3159 0
10258 4369 0
10258 -3159 0
-10259 4281 -3632 0
10259 -4281 0
10259 3632 0
-10260 -4281 3632 0
10260 4281 0
10260 -3632 0
-10261 981 -980 0
10261 -981 0
10261 980 0
-10262 -981 980 0
10262 981 0
10262 -980 0
-10263 4336 -3234 0
10263 -4336 0
10263 3234 0
-10264 -4336 3234 0
10264 4336 0
10264 -3234 0
-10265 4335 -3409 0
10265 -4335 0
10265 3409 0
-10266 -4335 3409 0
10266 4335 0
10266 -3409 0
-10267 4372 -3584 0
10267 -4372 0
10267 3584 0
-10268 -4372 3584 0
10268 4372 0
10268 -3584 0
-10269 1462 -1461 0
10269 -1462 0
10269 1461 0
-10270 -1462 1461 0
10270 1462 0
10270 -1461 0
-10271 1310 -1309 0
10271 -1310 0
10271 1309 0
-10272 -1310 1309 0
10272 1310 0
10272 -1309 0
-10273 4337 -3507 0
10273 -4337 0
10273 3507 0
-10274 -4337 3507 0
10274 4337 0
10274 -3507 0
-10275 983 -982 0
10275 -983 0
10275 982 0
-10276 -983 982 0
10276 983 0
10276 -982 0
-10277 985 -3876 0
10277 -985 0
10277 3876 0
-10278 -985 3876 0
10278 985 0
10278 -3876 0
-10279 -2187 7056 0
10279 2187 0
10279 -7056 0
-10280 2187 -7056 0
10280 -2187 0
10280 7056 0
-10281 6167 -6168 0
10281 -6167 0
10281 6168 0
-10282 -6167 6168 0
10282 6167 0
10282 -6168 0
-10283 6169 -1524 0
10283 -6169 0
10283 1524 0
-10284 -6169 1524 0
10284 6169 0
10284 -1524 0
-10285 2962 -1642 0
10285 -2962 0
10285 1642 0
-10286 -2962 1642 0
10286 2962 0
10286 -1642 0
-10287 2644 -5814 0
10287 -2644 0
10287 5814 0
-10288 -2644 5814 0
10288 2644 0
10288 -5814 0
-10289 6192 -6193 0
10289 -6192 0
10289 6193 0
-10290 -6192 6193 0
10290 6192 0
10290 -6193 0
-10291 -1309 7057 0
10291 1309 0
10291 -7057 0
-10292 1309 -7057 0
10292 -1309 0
10292 7057 0
-10293 -1311 7058 0
10293 1311 0
10293 -7058 0
-10294 1311 -7058 0
10294 -1311 0
10294 7058 0
-10295 -1313 7059 0
10295 1313 0
10295 -7059 0
-10296 1313 -7059 0
10296 -1313 0
10296 7059 0
-10297 -2377 7060 0
10297 2377 0
10297 -7060 0
-10298 2377 -7060 0
10298 -2377 0
10298 7060 0
-10299 2668 -5833 0
10299 -2668 0
10299 5833 0
-10300 -2668 5833 0
10300 2668 0
10300 -5833 0
-10301 2669 -5834 0
10301 -2669 0
10301 5834 0
-10302 -2669 5834 0
10302 2669 0
10302 -5834 0
-10303 2671 -5836 0
10303 -2671 0
10303 5836 0
-10304 -2671 5836 0
10304 2671 0
10304 -5836 0
-10305 2672 -5837 0
10305 -2672 0
10305 5837 0
-10306 -2672 5837 0
10306 2672 0
10306 -5837 0
-10307 -2498 7061 0
10307 2498 0
10307 -7061 0
-10308 2498 -7061 0
10308 -2498 0
10308 7061 0
-10309 -183 7062 0
10309 183 0
10309 -7062 0
-10310 183 -7062 0
10310 -183 0
10310 7062 0
-10311 4751 -4752 0
10311 -4751 0
10311 4752 0
-10312 -4751 4752 0
10312 4751 0
10312 -4752 0
-10313 -2613 7063 0
10313 2613 0
10313 -7063 0
-10314 2613 -7063 0
10314 -2613 0
10314 7063 0
-10315 1901 -2888 0
10315 -1901 0
10315 2888 0
-10316 -1901 2888 0
10316 1901 0
10316 -2888 0
-10317 -2841 7064 0
10317 2841 0
10317 -7064 0
-10318 2841 -7064 0
10318 -2841 0
10318 7064 0
-10319 -1457 7065 0
10319 1457 0
10319 -7065 0
-10320 1457 -7065 0
10320 -1457 0
10320 7065 0
-10321 -1459 7066 0
10321 1459 0
10321 -7066 0
-10322 1459 -7066 0
10322 -1459 0
10322 7066 0
-10323 -1461 7067 0
10323 1461 0
10323 -7067 0
-10324 1461 -7067 0
10324 -1461 0
10324 7067 0
-10325 -1463 7068 0
10325 1463 0
10325 -7068 0
-10326 1463 -7068 0
10326 -1463 0
10326 7068 0
-10327 289 -3872 0
10327 -289 0
10327 3872 0
-10328 -289 3872 0
10328 289 0
10328 -3872 0
-10329 -2970 7069 0
10329 2970 0
10329 -7069 0
-10330 2970 -7069 0
10330 -2970 0
10330 7069 0
-10331 -2978 7070 0
10331 2978 0
10331 -7070 0
-10332 2978 -7070 0
10332 -2978 0
10332 7070 0
-10333 4850 -4851 0
10333 -4850 0
10333 4851 0
-10334 -4850 4851 0
10334 4850 0
10334 -4851 0
-10335 -2990 7071 0
10335 2990 0
10335 -7071 0
-10336 2990 -7071 0
10336 -2990 0
10336 7071 0
-10337 -2998 7072 0
10337 2998 0
10337 -7072 0
-10338 2998 -7072 0
10338 -2998 0
10338 7072 0
-10339 -387 7073 0
10339 387 0
10339 -7073 0
-10340 387 -7073 0
10340 -387 0
10340 7073 0
-10341 1530 -4463 0
10341 -1530 0
10341 4463 0
-10342 -1530 4463 0
10342 1530 0
10342 -4463 0
-10343 -976 7074 0
10343 976 0
10343 -7074 0
-10344 976 -7074 0
10344 -976 0
10344 7074 0
-10345 -978 7075 0
10345 978 0
10345 -7075 0
-10346 978 -7075 0
10346 -978 0
10346 7075 0
-10347 -980 7076 0
10347 980 0
10347 -7076 0
-10348 980 -7076 0
10348 -980 0
10348 7076 0
-10349 -982 7077 0
10349 982 0
10349 -7077 0
-10350 982 -7077 0
10350 -982 0
10350 7077 0
-10351 -1645 7078 0
10351 1645 0
10351 -7078 0
-10352 1645 -7078 0
10352 -1645 0
10352 7078 0
-10353 -1797 7079 0
10353 1797 0
10353 -7079 0
-10354 1797 -7079 0
10354 -1797 0
10354 7079 0
-10355 -514 7080 0
10355 514 0
10355 -7080 0
-10356 514 -7080 0
10356 -514 0
10356 7080 0
-10357 2854 -7081 0
10357 -2854 0
10357 7081 0
-10358 -2854 7081 0
10358 2854 0
10358 -7081 0
-10359 5005 -5006 0
10359 -5005 0
10359 5006 0
-10360 -5005 5006 0
10360 5005 0
10360 -5006 0
-10361 -1947 7082 0
10361 1947 0
10361 -7082 0
-10362 1947 -7082 0
10362 -1947 0
10362 7082 0
-10363 2871 -6096 0
10363 -2871 0
10363 6096 0
-10364 -2871 6096 0
10364 2871 0
10364 -6096 0
-10365 2889 -6111 0
10365 -2889 0
10365 6111 0
-10366 -2889 6111 0
10366 2889 0
10366 -6111 0
-10367 2890 -6112 0
10367 -2890 0
10367 6112 0
-10368 -2890 6112 0
10368 2890 0
10368 -6112 0
-10369 2893 -6114 0
10369 -2893 0
10369 6114 0
-10370 -2893 6114 0
10370 2893 0
10370 -6114 0
-10371 2892 -6113 0
10371 -2892 0
10371 6113 0
-10372 -2892 6113 0
10372 2892 0
10372 -6113 0
-10373 2912 -6126 0
10373 -2912 0
10373 6126 0
-10374 -2912 6126 0
10374 2912 0
10374 -6126 0
-10375 -2092 7083 0
10375 2092 0
10375 -7083 0
-10376 2092 -7083 0
10376 -2092 0
10376 7083 0
-10377 -640 7085 0
10377 640 0
10377 -7085 0
-10378 640 -7085 0
10378 -640 0
10378 7085 0
-10379 -656 7122 0
10379 656 0
10379 -7122 0
-10380 656 -7122 0
10380 -656 0
10380 7122 0
-10381 -658 7123 0
10381 658 0
10381 -7123 0
-10382 658 -7123 0
10382 -658 0
10382 7123 0
-10383 39 -3711 0
10383 -39 0
10383 3711 0
-10384 -39 3711 0
10384 39 0
10384 -3711 0
-10385 -676 7124 0
10385 676 0
10385 -7124 0
-10386 676 -7124 0
10386 -676 0
10386 7124 0
-10387 2251 -5567 0
10387 -2251 0
10387 5567 0
-10388 -2251 5567 0
10388 2251 0
10388 -5567 0
-10389 -682 7125 0
10389 682 0
10389 -7125 0
-10390 682 -7125 0
10390 -682 0
10390 7125 0
-10391 -686 7126 0
10391 686 0
10391 -7126 0
-10392 686 -7126 0
10392 -686 0
10392 7126 0
-10393 -188 7127 0
10393 188 0
10393 -7127 0
-10394 188 -7127 0
10394 -188 0
10394 7127 0
-10395 -772 7128 0
10395 772 0
10395 -7128 0
-10396 772 -7128 0
10396 -772 0
10396 7128 0
-10397 -198 7129 0
10397 198 0
10397 -7129 0
-10398 198 -7129 0
10398 -198 0
10398 7129 0
-10399 -219 7130 0
10399 219 0
10399 -7130 0
-10400 219 -7130 0
10400 -219 0
10400 7130 0
-10401 -224 7131 0
10401 224 0
10401 -7131 0
-10402 224 -7131 0
10402 -224 0
10402 7131 0
-10403 -267 7132 0
10403 267 0
10403 -7132 0
-10404 267 -7132 0
10404 -267 0
10404 7132 0
-10405 -281 7133 0
10405 281 0
10405 -7133 0
-10406 281 -7133 0
10406 -281 0
10406 7133 0
-10407 -290 7134 0
10407 290 0
10407 -7134 0
-10408 290 -7134 0
10408 -290 0
10408 7134 0
-10409 1918 -4801 0
10409 -1918 0
10409 4801 0
-10410 -1918 4801 0
10410 1918 0
10410 -4801 0
-10411 -2851 7135 0
10411 2851 0
10411 -7135 0
-10412 2851 -7135 0
10412 -2851 0
10412 7135 0
-10413 270 -3858 0
10413 -270 0
10413 3858 0
-10414 -270 3858 0
10414 270 0
10414 -3858 0
-10415 -389 7136 0
10415 389 0
10415 -7136 0
-10416 389 -7136 0
10416 -389 0
10416 7136 0
-10417 -393 7137 0
10417 393 0
10417 -7137 0
-10418 393 -7137 0
10418 -393 0
10418 7137 0
-10419 -403 7138 0
10419 403 0
10419 -7138 0
-10420 403 -7138 0
10420 -403 0
10420 7138 0
-10421 -405 7139 0
10421 405 0
10421 -7139 0
-10422 405 -7139 0
10422 -405 0
10422 7139 0
-10423 -423 7140 0
10423 423 0
10423 -7140 0
-10424 423 -7140 0
10424 -423 0
10424 7140 0
-10425 -429 7141 0
10425 429 0
10425 -7141 0
-10426 429 -7141 0
10426 -429 0
10426 7141 0
-10427 -433 7142 0
10427 433 0
10427 -7142 0
-10428 433 -7142 0
10428 -433 0
10428 7142 0
-10429 2064 -4900 0
10429 -2064 0
10429 4900 0
-10430 -2064 4900 0
10430 2064 0
10430 -4900 0
-10431 1611 -4502 0
10431 -1611 0
10431 4502 0
-10432 -1611 4502 0
10432 1611 0
10432 -4502 0
-10433 -516 7143 0
10433 516 0
10433 -7143 0
-10434 516 -7143 0
10434 -516 0
10434 7143 0
-10435 -520 7144 0
10435 520 0
10435 -7144 0
-10436 520 -7144 0
10436 -520 0
10436 7144 0
-10437 -530 7145 0
10437 530 0
10437 -7145 0
-10438 530 -7145 0
10438 -530 0
10438 7145 0
-10439 -532 7146 0
10439 532 0
10439 -7146 0
-10440 532 -7146 0
10440 -532 0
10440 7146 0
-10441 -550 7147 0
10441 550 0
10441 -7147 0
-10442 550 -7147 0
10442 -550 0
10442 7147 0
-10443 -556 7148 0
10443 556 0
10443 -7148 0
-10444 556 -7148 0
10444 -556 0
10444 7148 0
-10445 -560 7149 0
10445 560 0
10445 -7149 0
-10446 560 -7149 0
10446 -560 0
10446 7149 0
-10447 -642 7150 0
10447 642 0
10447 -7150 0
-10448 642 -7150 0
10448 -642 0
10448 7150 0
-10449 -646 7151 0
10449 646 0
10449 -7151 0
-10450 646 -7151 0
10450 -646 0
10450 7151 0
-10451 1766 -4651 0
10451 -1766 0
10451 4651 0
-10452 -1766 4651 0
10452 1766 0
10452 -4651 0
-10453 1276 -3842 0
10453 -1276 0
10453 3842 0
-10454 -1276 3842 0
10454 1276 0
10454 -3842 0
-10455 1274 -1273 0
10455 -1274 0
10455 1273 0
-10456 -1274 1273 0
10456 1274 0
10456 -1273 0
-10457 4329 -1275 0
10457 -4329 0
10457 1275 0
-10458 -4329 1275 0
10458 4329 0
10458 -1275 0
-10459 4330 -4331 0
10459 -4330 0
10459 4331 0
-10460 -4330 4331 0
10460 4330 0
10460 -4331 0
-10461 1543 -1542 0
10461 -1543 0
10461 1542 0
-10462 -1543 1542 0
10462 1543 0
10462 -1542 0
-10463 1693 -1692 0
10463 -1693 0
10463 1692 0
-10464 -1693 1692 0
10464 1693 0
10464 -1692 0
-10465 1845 -1844 0
10465 -1845 0
10465 1844 0
-10466 -1845 1844 0
10466 1845 0
10466 -1844 0
-10467 3784 -3010 0
10467 -3784 0
10467 3010 0
-10468 -3784 3010 0
10468 3784 0
10468 -3010 0
-10469 1989 -1988 0
10469 -1989 0
10469 1988 0
-10470 -1989 1988 0
10470 1989 0
10470 -1988 0
-10471 4761 -2971 0
10471 -4761 0
10471 2971 0
-10472 -4761 2971 0
10472 4761 0
10472 -2971 0
-10473 4862 -2991 0
10473 -4862 0
10473 2991 0
-10474 -4862 2991 0
10474 4862 0
10474 -2991 0
-10475 4462 -2681 0
10475 -4462 0
10475 2681 0
-10476 -4462 2681 0
10476 4462 0
10476 -2681 0
-10477 4471 -2934 0
10477 -4471 0
10477 2934 0
-10478 -4471 2934 0
10478 4471 0
10478 -2934 0
-10479 494 -493 0
10479 -494 0
10479 493 0
-10480 -494 493 0
10480 494 0
10480 -493 0
-10481 496 -4054 0
10481 -496 0
10481 4054 0
-10482 -496 4054 0
10482 496 0
10482 -4054 0
-10483 499 -495 0
10483 -499 0
10483 495 0
-10484 -499 495 0
10484 499 0
10484 -495 0
-10485 498 -4055 0
10485 -498 0
10485 4055 0
-10486 -498 4055 0
10486 498 0
10486 -4055 0
-10487 4056 -4057 0
10487 -4056 0
10487 4057 0
-10488 -4056 4057 0
10488 4056 0
10488 -4057 0
-10489 4058 -497 0
10489 -4058 0
10489 497 0
-10490 -4058 497 0
10490 4058 0
10490 -497 0
-10491 4606 -2951 0
10491 -4606 0
10491 2951 0
-10492 -4606 2951 0
10492 4606 0
10492 -2951 0
-10493 625 -624 0
10493 -625 0
10493 624 0
-10494 -625 624 0
10494 625 0
10494 -624 0
-10495 627 -4169 0
10495 -627 0
10495 4169 0
-10496 -627 4169 0
10496 627 0
10496 -4169 0
-10497 4170 -4171 0
10497 -4170 0
10497 4171 0
-10498 -4170 4171 0
10498 4170 0
10498 -4171 0
-10499 4172 -626 0
10499 -4172 0
10499 626 0
-10500 -4172 626 0
10500 4172 0
10500 -626 0
-10501 148 -147 0
10501 -148 0
10501 147 0
-10502 -148 147 0
10502 148 0
10502 -147 0
-10503 153 -3781 0
10503 -153 0
10503 3781 0
-10504 -153 3781 0
10504 153 0
10504 -3781 0
-10505 1605 -1604 0
10505 -1605 0
10505 1604 0
-10506 -1605 1604 0
10506 1605 0
10506 -1604 0
-10507 3785 -3786 0
10507 -3785 0
10507 3786 0
-10508 -3785 3786 0
10508 3785 0
10508 -3786 0
-10509 3787 -152 0
10509 -3787 0
10509 152 0
-10510 -3787 152 0
10510 3787 0
10510 -152 0
-10511 1761 -1760 0
10511 -1761 0
10511 1760 0
-10512 -1761 1760 0
10512 1761 0
10512 -1760 0
-10513 374 -3946 0
10513 -374 0
10513 3946 0
-10514 -374 3946 0
10514 374 0
10514 -3946 0
-10515 372 -371 0
10515 -372 0
10515 371 0
-10516 -372 371 0
10516 372 0
10516 -371 0
-10517 3947 -373 0
10517 -3947 0
10517 373 0
-10518 -3947 373 0
10518 3947 0
10518 -373 0
-10519 3948 -3949 0
10519 -3948 0
10519 3949 0
-10520 -3948 3949 0
10520 3948 0
10520 -3949 0
-10521 2059 -2058 0
10521 -2059 0
10521 2058 0
-10522 -2059 2058 0
10522 2059 0
10522 -2058 0
-10523 4059 -4060 0
10523 -4059 0
10523 4060 0
-10524 -4059 4060 0
10524 4059 0
10524 -4060 0
-10525 501 -500 0
10525 -501 0
10525 500 0
-10526 -501 500 0
10526 501 0
10526 -500 0
-10527 1913 -1912 0
10527 -1913 0
10527 1912 0
-10528 -1913 1912 0
10528 1913 0
10528 -1912 0
-10529 -500 7152 0
10529 500 0
10529 -7152 0
-10530 500 -7152 0
10530 -500 0
10530 7152 0
-10531 1299 -3445 0
10531 -1299 0
10531 3445 0
-10532 -1299 3445 0
10532 1299 0
10532 -3445 0
-10533 1298 -3202 0
10533 -1298 0
10533 3202 0
-10534 -1298 3202 0
10534 1298 0
10534 -3202 0
-10535 1301 -3481 0
10535 -1301 0
10535 3481 0
-10536 -1301 3481 0
10536 1301 0
10536 -3481 0
-10537 1302 -1297 0
10537 -1302 0
10537 1297 0
-10538 -1302 1297 0
10538 1302 0
10538 -1297 0
-10539 1304 -3592 0
10539 -1304 0
10539 3592 0
-10540 -1304 3592 0
10540 1304 0
10540 -3592 0
-10541 1305 -1300 0
10541 -1305 0
10541 1300 0
-10542 -1305 1300 0
10542 1305 0
10542 -1300 0
-10543 1307 -1303 0
10543 -1307 0
10543 1303 0
-10544 -1307 1303 0
10544 1307 0
10544 -1303 0
-10545 1308 -4334 0
10545 -1308 0
10545 4334 0
-10546 -1308 4334 0
10546 1308 0
10546 -4334 0
-10547 665 -664 0
10547 -665 0
10547 664 0
-10548 -665 664 0
10548 665 0
10548 -664 0
-10549 4205 -4206 0
10549 -4205 0
10549 4206 0
-10550 -4205 4206 0
10550 4205 0
10550 -4206 0
-10551 1528 -1527 0
10551 -1528 0
10551 1527 0
-10552 -1528 1527 0
10552 1528 0
10552 -1527 0
-10553 240 -3836 0
10553 -240 0
10553 3836 0
-10554 -240 3836 0
10554 240 0
10554 -3836 0
-10555 235 -234 0
10555 -235 0
10555 234 0
-10556 -235 234 0
10556 235 0
10556 -234 0
-10557 3838 -3839 0
10557 -3838 0
10557 3839 0
-10558 -3838 3839 0
10558 3838 0
10558 -3839 0
-10559 3840 -239 0
10559 -3840 0
10559 239 0
-10560 -3840 239 0
10560 3840 0
10560 -239 0
-10561 1679 -1678 0
10561 -1679 0
10561 1678 0
-10562 -1679 1678 0
10562 1679 0
10562 -1678 0
-10563 1831 -1830 0
10563 -1831 0
10563 1830 0
-10564 -1831 1830 0
10564 1831 0
10564 -1830 0
-10565 410 -409 0
10565 -410 0
10565 409 0
-10566 -410 409 0
10566 410 0
10566 -409 0
-10567 3981 -3982 0
10567 -3981 0
10567 3982 0
-10568 -3981 3982 0
10568 3981 0
10568 -3982 0
-10569 3983 -411 0
10569 -3983 0
10569 411 0
-10570 -3983 411 0
10570 3983 0
10570 -411 0
-10571 537 -536 0
10571 -537 0
10571 536 0
-10572 -537 536 0
10572 537 0
10572 -536 0
-10573 4092 -538 0
10573 -4092 0
10573 538 0
-10574 -4092 538 0
10574 4092 0
10574 -538 0
-10575 4093 -4094 0
10575 -4093 0
10575 4094 0
-10576 -4093 4094 0
10576 4093 0
10576 -4094 0
-10577 1976 -1975 0
10577 -1976 0
10577 1975 0
-10578 -1976 1975 0
10578 1976 0
10578 -1975 0
-10579 1294 -1293 0
10579 -1294 0
10579 1293 0
-10580 -1294 1293 0
10580 1294 0
10580 -1293 0
-10581 1296 -3788 0
10581 -1296 0
10581 3788 0
-10582 -1296 3788 0
10582 1296 0
10582 -3788 0
-10583 2564 -2563 0
10583 -2564 0
10583 2563 0
-10584 -2564 2563 0
10584 2564 0
10584 -2563 0
-10585 2439 -2438 0
10585 -2439 0
10585 2438 0
-10586 -2439 2438 0
10586 2439 0
10586 -2438 0
-10587 2240 -2239 0
10587 -2240 0
10587 2239 0
-10588 -2240 2239 0
10588 2240 0
10588 -2239 0
-10589 159 -2144 0
10589 -159 0
10589 2144 0
-10590 -159 2144 0
10590 159 0
10590 -2144 0
-10591 2320 -2319 0
10591 -2320 0
10591 2319 0
-10592 -2320 2319 0
10592 2320 0
10592 -2319 0
-10593 1268 -3371 0
10593 -1268 0
10593 3371 0
-10594 -1268 3371 0
10594 1268 0
10594 -3371 0
-10595 1271 -3511 0
10595 -1271 0
10595 3511 0
-10596 -1271 3511 0
10596 1271 0
10596 -3511 0
-10597 1272 -1267 0
10597 -1272 0
10597 1267 0
-10598 -1272 1267 0
10598 1272 0
10598 -1267 0
-10599 4327 -1270 0
10599 -4327 0
10599 1270 0
-10600 -4327 1270 0
10600 4327 0
10600 -1270 0
-10601 4328 -3638 0
10601 -4328 0
10601 3638 0
-10602 -4328 3638 0
10602 4328 0
10602 -3638 0
-10603 1269 -3140 0
10603 -1269 0
10603 3140 0
-10604 -1269 3140 0
10604 1269 0
10604 -3140 0
-10605 2767 -2766 0
10605 -2767 0
10605 2766 0
-10606 -2767 2766 0
10606 2767 0
10606 -2766 0
-10607 2807 -2806 0
10607 -2807 0
10607 2806 0
-10608 -2807 2806 0
10608 2807 0
10608 -2806 0
-10609 2179 -2178 0
10609 -2179 0
10609 2178 0
-10610 -2179 2178 0
10610 2179 0
10610 -2178 0
-10611 2717 -2716 0
10611 -2717 0
10611 2716 0
-10612 -2717 2716 0
10612 2717 0
10612 -2716 0
-10613 -2178 7154 0
10613 2178 0
10613 -7154 0
-10614 2178 -7154 0
10614 -2178 0
10614 7154 0
-10615 -1273 7155 0
10615 1273 0
10615 -7155 0
-10616 1273 -7155 0
10616 -1273 0
10616 7155 0
-10617 -2319 7156 0
10617 2319 0
10617 -7156 0
-10618 2319 -7156 0
10618 -2319 0
10618 7156 0
-10619 2682 -5838 0
10619 -2682 0
10619 5838 0
-10620 -2682 5838 0
10620 2682 0
10620 -5838 0
-10621 -2438 7157 0
10621 2438 0
10621 -7157 0
-10622 2438 -7157 0
10622 -2438 0
10622 7157 0
-10623 -2563 7158 0
10623 2563 0
10623 -7158 0
-10624 2563 -7158 0
10624 -2563 0
10624 7158 0
-10625 -2716 7159 0
10625 2716 0
10625 -7159 0
-10626 2716 -7159 0
10626 -2716 0
10626 7159 0
-10627 -2766 7160 0
10627 2766 0
10627 -7160 0
-10628 2766 -7160 0
10628 -2766 0
10628 7160 0
-10629 -2806 7161 0
10629 2806 0
10629 -7161 0
-10630 2806 -7161 0
10630 -2806 0
10630 7161 0
-10631 -1604 7162 0
10631 1604 0
10631 -7162 0
-10632 1604 -7162 0
10632 -1604 0
10632 7162 0
-10633 -1760 7163 0
10633 1760 0
10633 -7163 0
-10634 1760 -7163 0
10634 -1760 0
10634 7163 0
-10635 -1912 7164 0
10635 1912 0
10635 -7164 0
-10636 1912 -7164 0
10636 -1912 0
10636 7164 0
-10637 -2058 7165 0
10637 2058 0
10637 -7165 0
-10638 2058 -7165 0
10638 -2058 0
10638 7165 0
-10639 -2144 7166 0
10639 2144 0
10639 -7166 0
-10640 2144 -7166 0
10640 -2144 0
10640 7166 0
-10641 1282 -3256 0
10641 -1282 0
10641 3256 0
-10642 -1282 3256 0
10642 1282 0
10642 -3256 0
-10643 1283 -3257 0
10643 -1283 0
10643 3257 0
-10644 -1283 3257 0
10644 1283 0
10644 -3257 0
-10645 1285 -1281 0
10645 -1285 0
10645 1281 0
-10646 -1285 1281 0
10646 1285 0
10646 -1281 0
-10647 1286 -3357 0
10647 -1286 0
10647 3357 0
-10648 -1286 3357 0
10648 1286 0
10648 -3357 0
-10649 1289 -1284 0
10649 -1289 0
10649 1284 0
-10650 -1289 1284 0
10650 1289 0
10650 -1284 0
-10651 1288 -3466 0
10651 -1288 0
10651 3466 0
-10652 -1288 3466 0
10652 1288 0
10652 -3466 0
-10653 1291 -1287 0
10653 -1291 0
10653 1287 0
-10654 -1291 1287 0
10654 1291 0
10654 -1287 0
-10655 1292 -3590 0
10655 -1292 0
10655 3590 0
-10656 -1292 3590 0
10656 1292 0
10656 -3590 0
-10657 4332 -3715 0
10657 -4332 0
10657 3715 0
-10658 -4332 3715 0
10658 4332 0
10658 -3715 0
-10659 4333 -1290 0
10659 -4333 0
10659 1290 0
-10660 -4333 1290 0
10660 4333 0
10660 -1290 0
-10661 44 -2120 0
10661 -44 0
10661 2120 0
-10662 -44 2120 0
10662 44 0
10662 -2120 0
-10663 2441 -2440 0
10663 -2441 0
10663 2440 0
-10664 -2441 2440 0
10664 2441 0
10664 -2440 0
-10665 806 -3497 0
10665 -806 0
10665 3497 0
-10666 -806 3497 0
10666 806 0
10666 -3497 0
-10667 804 -803 0
10667 -804 0
10667 803 0
-10668 -804 803 0
10668 804 0
10668 -803 0
-10669 808 -3628 0
10669 -808 0
10669 3628 0
-10670 -808 3628 0
10670 808 0
10670 -3628 0
-10671 809 -805 0
10671 -809 0
10671 805 0
-10672 -809 805 0
10672 809 0
10672 -805 0
-10673 811 -807 0
10673 -811 0
10673 807 0
-10674 -811 807 0
10674 811 0
10674 -807 0
-10675 812 -4258 0
10675 -812 0
10675 4258 0
-10676 -812 4258 0
10676 812 0
10676 -4258 0
-10677 2566 -2565 0
10677 -2566 0
10677 2565 0
-10678 -2566 2565 0
10678 2566 0
10678 -2565 0
-10679 1608 -2241 0
10679 -1608 0
10679 2241 0
-10680 -1608 2241 0
10680 1608 0
10680 -2241 0
-10681 31 -30 0
10681 -31 0
10681 30 0
-10682 -31 30 0
10682 31 0
10682 -30 0
-10683 36 -3710 0
10683 -36 0
10683 3710 0
-10684 -36 3710 0
10684 36 0
10684 -3710 0
-10685 3712 -3713 0
10685 -3712 0
10685 3713 0
-10686 -3712 3713 0
10686 3712 0
10686 -3713 0
-10687 3714 -35 0
10687 -3714 0
10687 35 0
-10688 -3714 35 0
10688 3714 0
10688 -35 0
-10689 326 -325 0
10689 -326 0
10689 325 0
-10690 -326 325 0
10690 326 0
10690 -325 0
-10691 328 -3905 0
10691 -328 0
10691 3905 0
-10692 -328 3905 0
10692 328 0
10692 -3905 0
-10693 3906 -3907 0
10693 -3906 0
10693 3907 0
-10694 -3906 3907 0
10694 3906 0
10694 -3907 0
-10695 3908 -327 0
10695 -3908 0
10695 327 0
-10696 -3908 327 0
10696 3908 0
10696 -327 0
-10697 1763 -1762 0
10697 -1763 0
10697 1762 0
-10698 -1763 1762 0
10698 1763 0
10698 -1762 0
-10699 2061 -2060 0
10699 -2061 0
10699 2060 0
-10700 -2061 2060 0
10700 2061 0
10700 -2060 0
-10701 453 -4018 0
10701 -453 0
10701 4018 0
-10702 -453 4018 0
10702 453 0
10702 -4018 0
-10703 451 -450 0
10703 -451 0
10703 450 0
-10704 -451 450 0
10704 451 0
10704 -450 0
-10705 4019 -4020 0
10705 -4019 0
10705 4020 0
-10706 -4019 4020 0
10706 4019 0
10706 -4020 0
-10707 4021 -452 0
10707 -4021 0
10707 452 0
-10708 -4021 452 0
10708 4021 0
10708 -452 0
-10709 1567 -1566 0
10709 -1567 0
10709 1566 0
-10710 -1567 1566 0
10710 1567 0
10710 -1566 0
-10711 1915 -1914 0
10711 -1915 0
10711 1914 0
-10712 -1915 1914 0
10712 1915 0
10712 -1914 0
-10713 4624 -2863 0
10713 -4624 0
10713 2863 0
-10714 -4624 2863 0
10714 4624 0
10714 -2863 0
-10715 580 -4129 0
10715 -580 0
10715 4129 0
-10716 -580 4129 0
10716 580 0
10716 -4129 0
-10717 578 -577 0
10717 -578 0
10717 577 0
-10718 -578 577 0
10718 578 0
10718 -577 0
-10719 4130 -579 0
10719 -4130 0
10719 579 0
-10720 -4130 579 0
10720 4130 0
10720 -579 0
-10721 4131 -4132 0
10721 -4131 0
10721 4132 0
-10722 -4131 4132 0
10722 4131 0
10722 -4132 0
-10723 4256 -3138 0
10723 -4256 0
10723 3138 0
-10724 -4256 3138 0
10724 4256 0
10724 -3138 0
-10725 4257 -3341 0
10725 -4257 0
10725 3341 0
-10726 -4257 3341 0
10726 4257 0
10726 -3341 0
-10727 2322 -2321 0
10727 -2322 0
10727 2321 0
-10728 -2322 2321 0
10728 2322 0
10728 -2321 0
-10729 -2321 7170 0
10729 2321 0
10729 -7170 0
-10730 2321 -7170 0
10730 -2321 0
10730 7170 0
-10731 -2440 7171 0
10731 2440 0
10731 -7171 0
-10732 2440 -7171 0
10732 -2440 0
10732 7171 0
-10733 -2565 7172 0
10733 2565 0
10733 -7172 0
-10734 2565 -7172 0
10734 -2565 0
10734 7172 0
-10735 5618 -1606 0
10735 -5618 0
10735 1606 0
-10736 -5618 1606 0
10736 5618 0
10736 -1606 0
-10737 -803 7173 0
10737 803 0
10737 -7173 0
-10738 803 -7173 0
10738 -803 0
10738 7173 0
-10739 5307 -5308 0
10739 -5307 0
10739 5308 0
-10740 -5307 5308 0
10740 5307 0
10740 -5308 0
-10741 4933 -4934 0
10741 -4933 0
10741 4934 0
-10742 -4933 4934 0
10742 4933 0
10742 -4934 0
-10743 -1762 7174 0
10743 1762 0
10743 -7174 0
-10744 1762 -7174 0
10744 -1762 0
10744 7174 0
-10745 -1914 7175 0
10745 1914 0
10745 -7175 0
-10746 1914 -7175 0
10746 -1914 0
10746 7175 0
-10747 -2060 7176 0
10747 2060 0
10747 -7176 0
-10748 2060 -7176 0
10748 -2060 0
10748 7176 0
-10749 -2120 7177 0
10749 2120 0
10749 -7177 0
-10750 2120 -7177 0
10750 -2120 0
10750 7177 0
-10751 4649 -4650 0
10751 -4649 0
10751 4650 0
-10752 -4649 4650 0
10752 4649 0
10752 -4650 0
-10753 -1293 7210 0
10753 1293 0
10753 -7210 0
-10754 1293 -7210 0
10754 -1293 0
10754 7210 0
-10755 2683 -5839 0
10755 -2683 0
10755 5839 0
-10756 -2683 5839 0
10756 2683 0
10756 -5839 0
-10757 5867 -5868 0
10757 -5867 0
10757 5868 0
-10758 -5867 5868 0
10758 5867 0
10758 -5868 0
-10759 -246 247 0
10759 246 0
10759 -247 0
-10760 246 -247 0
10760 -246 0
10760 247 0
-10761 5929 -5930 0
10761 -5929 0
10761 5930 0
-10762 -5929 5930 0
10762 5929 0
10762 -5930 0
-10763 -1527 7211 0
10763 1527 0
10763 -7211 0
-10764 1527 -7211 0
10764 -1527 0
10764 7211 0
-10765 6003 -6004 0
10765 -6003 0
10765 6004 0
-10766 -6003 6004 0
10766 6003 0
10766 -6004 0
-10767 -1678 7212 0
10767 1678 0
10767 -7212 0
-10768 1678 -7212 0
10768 -1678 0
10768 7212 0
-10769 -1830 7213 0
10769 1830 0
10769 -7213 0
-10770 1830 -7213 0
10770 -1830 0
10770 7213 0
-10771 -1975 7214 0
10771 1975 0
10771 -7214 0
-10772 1975 -7214 0
10772 -1975 0
10772 7214 0
-10773 5526 -5527 0
10773 -5526 0
10773 5527 0
-10774 -5526 5527 0
10774 5526 0
10774 -5527 0
-10775 621 -620 0
10775 -621 0
10775 620 0
-10776 -621 620 0
10776 621 0
10776 -620 0
-10777 623 -4165 0
10777 -623 0
10777 4165 0
-10778 -623 4165 0
10778 623 0
10778 -4165 0
-10779 4166 -622 0
10779 -4166 0
10779 622 0
-10780 -4166 622 0
10780 4166 0
10780 -622 0
-10781 4167 -4168 0
10781 -4167 0
10781 4168 0
-10782 -4167 4168 0
10782 4167 0
10782 -4168 0
-10783 4673 -2379 0
10783 -4673 0
10783 2379 0
-10784 -4673 2379 0
10784 4673 0
10784 -2379 0
-10785 143 -3775 0
10785 -143 0
10785 3775 0
-10786 -143 3775 0
10786 143 0
10786 -3775 0
-10787 138 -137 0
10787 -138 0
10787 137 0
-10788 -138 137 0
10788 138 0
10788 -137 0
-10789 145 -2138 0
10789 -145 0
10789 2138 0
-10790 -145 2138 0
10790 145 0
10790 -2138 0
-10791 3777 -3778 0
10791 -3777 0
10791 3778 0
-10792 -3777 3778 0
10792 3777 0
10792 -3778 0
-10793 3779 -142 0
10793 -3779 0
10793 142 0
-10794 -3779 142 0
10794 3779 0
10794 -142 0
-10795 1653 -1652 0
10795 -1653 0
10795 1652 0
-10796 -1653 1652 0
10796 1653 0
10796 -1652 0
-10797 4831 -2500 0
10797 -4831 0
10797 2500 0
-10798 -4831 2500 0
10798 4831 0
10798 -2500 0
-10799 4924 -2615 0
10799 -4924 0
10799 2615 0
-10800 -4924 2615 0
10800 4924 0
10800 -2615 0
-10801 1806 -1805 0
10801 -1806 0
10801 1805 0
-10802 -1806 1805 0
10802 1806 0
10802 -1805 0
-10803 2101 -2100 0
10803 -2101 0
10803 2100 0
-10804 -2101 2100 0
10804 2101 0
10804 -2100 0
-10805 1251 -4325 0
10805 -1251 0
10805 4325 0
-10806 -1251 4325 0
10806 1251 0
10806 -4325 0
-10807 1249 -1248 0
10807 -1249 0
10807 1248 0
-10808 -1249 1248 0
10808 1249 0
10808 -1248 0
-10809 1253 -4326 0
10809 -1253 0
10809 4326 0
-10810 -1253 4326 0
10810 1253 0
10810 -4326 0
-10811 1254 -1250 0
10811 -1254 0
10811 1250 0
-10812 -1254 1250 0
10812 1254 0
10812 -1250 0
-10813 1955 -1954 0
10813 -1955 0
10813 1954 0
-10814 -1955 1954 0
10814 1955 0
10814 -1954 0
-10815 1243 -3278 0
10815 -1243 0
10815 3278 0
-10816 -1243 3278 0
10816 1243 0
10816 -3278 0
-10817 1244 -3361 0
10817 -1244 0
10817 3361 0
-10818 -1244 3361 0
10818 1244 0
10818 -3361 0
-10819 1247 -3533 0
10819 -1247 0
10819 3533 0
-10820 -1247 3533 0
10820 1247 0
10820 -3533 0
-10821 1246 -1242 0
10821 -1246 0
10821 1242 0
-10822 -1246 1242 0
10822 1246 0
10822 -1242 0
-10823 4323 -3606 0
10823 -4323 0
10823 3606 0
-10824 -4323 3606 0
10824 4323 0
10824 -3606 0
-10825 4324 -1245 0
10825 -4324 0
10825 1245 0
-10826 -4324 1245 0
10826 4324 0
10826 -1245 0
-10827 2263 -2262 0
10827 -2263 0
10827 2262 0
-10828 -2263 2262 0
10828 2263 0
10828 -2262 0
-10829 -1248 7215 0
10829 1248 0
10829 -7215 0
-10830 1248 -7215 0
10830 -1248 0
10830 7215 0
-10831 -1652 7216 0
10831 1652 0
10831 -7216 0
-10832 1652 -7216 0
10832 -1652 0
10832 7216 0
-10833 -1805 7217 0
10833 1805 0
10833 -7217 0
-10834 1805 -7217 0
10834 -1805 0
10834 7217 0
-10835 -1954 7218 0
10835 1954 0
10835 -7218 0
-10836 1954 -7218 0
10836 -1954 0
10836 7218 0
-10837 -2100 7219 0
10837 2100 0
10837 -7219 0
-10838 2100 -7219 0
10838 -2100 0
10838 7219 0
-10839 370 -3942 0
10839 -370 0
10839 3942 0
-10840 -370 3942 0
10840 370 0
10840 -3942 0
-10841 368 -367 0
10841 -368 0
10841 367 0
-10842 -368 367 0
10842 368 0
10842 -367 0
-10843 3943 -3944 0
10843 -3943 0
10843 3944 0
-10844 -3943 3944 0
10844 3943 0
10844 -3944 0
-10845 3945 -369 0
10845 -3945 0
10845 369 0
-10846 -3945 369 0
10846 3945 0
10846 -369 0
-10847 2139 -5504 0
10847 -2139 0
10847 5504 0
-10848 -2139 5504 0
10848 2139 0
10848 -5504 0
-10849 2380 -5644 0
10849 -2380 0
10849 5644 0
-10850 -2380 5644 0
10850 2380 0
10850 -5644 0
-10851 2501 -5709 0
10851 -2501 0
10851 5709 0
-10852 -2501 5709 0
10852 2501 0
10852 -5709 0
-10853 2619 -5779 0
10853 -2619 0
10853 5779 0
-10854 -2619 5779 0
10854 2619 0
10854 -5779 0
-10855 1777 -2344 0
10855 -1777 0
10855 2344 0
-10856 -1777 2344 0
10856 1777 0
10856 -2344 0
-10857 4156 -4157 0
10857 -4156 0
10857 4157 0
-10858 -4156 4157 0
10858 4156 0
10858 -4157 0
-10859 611 -610 0
10859 -611 0
10859 610 0
-10860 -611 610 0
10860 611 0
10860 -610 0
-10861 3755 -3756 0
10861 -3755 0
10861 3756 0
-10862 -3755 3756 0
10862 3755 0
10862 -3756 0
-10863 106 -105 0
10863 -106 0
10863 105 0
-10864 -106 105 0
10864 106 0
10864 -105 0
-10865 113 -2132 0
10865 -113 0
10865 2132 0
-10866 -113 2132 0
10866 113 0
10866 -2132 0
-10867 2348 -1623 0
10867 -2348 0
10867 1623 0
-10868 -2348 1623 0
10868 2348 0
10868 -1623 0
-10869 1928 -2466 0
10869 -1928 0
10869 2466 0
-10870 -1928 2466 0
10870 1928 0
10870 -2466 0
-10871 358 -357 0
10871 -358 0
10871 357 0
-10872 -358 357 0
10872 358 0
10872 -357 0
-10873 3933 -3934 0
10873 -3933 0
10873 3934 0
-10874 -3933 3934 0
10874 3933 0
10874 -3934 0
-10875 2467 -1776 0
10875 -2467 0
10875 1776 0
-10876 -2467 1776 0
10876 2467 0
10876 -1776 0
-10877 2075 -2590 0
10877 -2075 0
10877 2590 0
-10878 -2075 2590 0
10878 2075 0
10878 -2590 0
-10879 1624 -2248 0
10879 -1624 0
10879 2248 0
-10880 -1624 2248 0
10880 1624 0
10880 -2248 0
-10881 2134 -2073 0
10881 -2134 0
10881 2073 0
-10882 -2134 2073 0
10882 2134 0
10882 -2073 0
-10883 4045 -4046 0
10883 -4045 0
10883 4046 0
-10884 -4045 4046 0
10884 4045 0
10884 -4046 0
-10885 484 -483 0
10885 -484 0
10885 483 0
-10886 -484 483 0
10886 484 0
10886 -483 0
-10887 1138 -3171 0
10887 -1138 0
10887 3171 0
-10888 -1138 3171 0
10888 1138 0
10888 -3171 0
-10889 1139 -3349 0
10889 -1139 0
10889 3349 0
-10890 -1139 3349 0
10890 1139 0
10890 -3349 0
-10891 1141 -1137 0
10891 -1141 0
10891 1137 0
-10892 -1141 1137 0
10892 1141 0
10892 -1137 0
-10893 1142 -3525 0
10893 -1142 0
10893 3525 0
-10894 -1142 3525 0
10894 1142 0
10894 -3525 0
-10895 1145 -3600 0
10895 -1145 0
10895 3600 0
-10896 -1145 3600 0
10896 1145 0
10896 -3600 0
-10897 1144 -1140 0
10897 -1144 0
10897 1140 0
-10898 -1144 1140 0
10898 1144 0
10898 -1140 0
-10899 1147 -1143 0
10899 -1147 0
10899 1143 0
-10900 -1147 1143 0
10900 1147 0
10900 -1143 0
-10901 1148 -4304 0
10901 -1148 0
10901 4304 0
-10902 -1148 4304 0
10902 1148 0
10902 -4304 0
-10903 2594 -1927 0
10903 -2594 0
10903 1927 0
-10904 -2594 1927 0
10904 2594 0
10904 -1927 0
-10905 1778 -4659 0
10905 -1778 0
10905 4659 0
-10906 -1778 4659 0
10906 1778 0
10906 -4659 0
-10907 -2262 5570 0
10907 2262 0
10907 -5570 0
-10908 2262 -5570 0
10908 -2262 0
10908 5570 0
-10909 114 -3757 0
10909 -114 0
10909 3757 0
-10910 -114 3757 0
10910 114 0
10910 -3757 0
-10911 2381 -5645 0
10911 -2381 0
10911 5645 0
-10912 -2381 5645 0
10912 2381 0
10912 -5645 0
-10913 1929 -4811 0
10913 -1929 0
10913 4811 0
-10914 -1929 4811 0
10914 1929 0
10914 -4811 0
-10915 2074 -4910 0
10915 -2074 0
10915 4910 0
-10916 -2074 4910 0
10916 2074 0
10916 -4910 0
-10917 1625 -4507 0
10917 -1625 0
10917 4507 0
-10918 -1625 4507 0
10918 1625 0
10918 -4507 0
-10919 2504 -5710 0
10919 -2504 0
10919 5710 0
-10920 -2504 5710 0
10920 2504 0
10920 -5710 0
-10921 2143 -5503 0
10921 -2143 0
10921 5503 0
-10922 -2143 5503 0
10922 2143 0
10922 -5503 0
-10923 2620 -5780 0
10923 -2620 0
10923 5780 0
-10924 -2620 5780 0
10924 2620 0
10924 -5780 0
-10925 -147 7260 0
10925 147 0
10925 -7260 0
-10926 147 -7260 0
10926 -147 0
10926 7260 0
-10927 -371 7261 0
10927 371 0
10927 -7261 0
-10928 371 -7261 0
10928 -371 0
10928 7261 0
-10929 -624 7262 0
10929 624 0
10929 -7262 0
-10930 624 -7262 0
10930 -624 0
10930 7262 0
-10931 4657 -2338 0
10931 -4657 0
10931 2338 0
-10932 -4657 2338 0
10932 4657 0
10932 -2338 0
-10933 769 -768 0
10933 -769 0
10933 768 0
-10934 -769 768 0
10934 769 0
10934 -768 0
-10935 4251 -4252 0
10935 -4251 0
10935 4252 0
-10936 -4251 4252 0
10936 4251 0
10936 -4252 0
-10937 3833 -3834 0
10937 -3833 0
10937 3834 0
-10938 -3833 3834 0
10938 3833 0
10938 -3834 0
-10939 230 -229 0
10939 -230 0
10939 229 0
-10940 -230 229 0
10940 230 0
10940 -229 0
-10941 238 -2173 0
10941 -238 0
10941 2173 0
-10942 -238 2173 0
10942 238 0
10942 -2173 0
-10943 4809 -2461 0
10943 -4809 0
10943 2461 0
-10944 -4809 2461 0
10944 4809 0
10944 -2461 0
-10945 1775 -1774 0
10945 -1775 0
10945 1774 0
-10946 -1775 1774 0
10946 1775 0
10946 -1774 0
-10947 4909 -2585 0
10947 -4909 0
10947 2585 0
-10948 -4909 2585 0
10948 4909 0
10948 -2585 0
-10949 3978 -3979 0
10949 -3978 0
10949 3979 0
-10950 -3978 3979 0
10950 3978 0
10950 -3979 0
-10951 408 -407 0
10951 -408 0
10951 407 0
-10952 -408 407 0
10952 408 0
10952 -407 0
-10953 535 -534 0
10953 -535 0
10953 534 0
-10954 -535 534 0
10954 535 0
10954 -534 0
-10955 4089 -4090 0
10955 -4089 0
10955 4090 0
-10956 -4089 4090 0
10956 4089 0
10956 -4090 0
-10957 1926 -1925 0
10957 -1926 0
10957 1925 0
-10958 -1926 1925 0
10958 1926 0
10958 -1925 0
-10959 2072 -2071 0
10959 -2072 0
10959 2071 0
-10960 -2072 2071 0
10960 2072 0
10960 -2071 0
-10961 777 -3296 0
10961 -777 0
10961 3296 0
-10962 -777 3296 0
10962 777 0
10962 -3296 0
-10963 778 -3295 0
10963 -778 0
10963 3295 0
-10964 -778 3295 0
10964 778 0
10964 -3295 0
-10965 780 -3381 0
10965 -780 0
10965 3381 0
-10966 -780 3381 0
10966 780 0
10966 -3381 0
-10967 781 -776 0
10967 -781 0
10967 776 0
-10968 -781 776 0
10968 781 0
10968 -776 0
-10969 784 -779 0
10969 -784 0
10969 779 0
-10970 -784 779 0
10970 784 0
10970 -779 0
-10971 783 -3464 0
10971 -783 0
10971 3464 0
-10972 -783 3464 0
10972 783 0
10972 -3464 0
-10973 786 -782 0
10973 -786 0
10973 782 0
-10974 -786 782 0
10974 786 0
10974 -782 0
-10975 787 -3666 0
10975 -787 0
10975 3666 0
-10976 -787 3666 0
10976 787 0
10976 -3666 0
-10977 1622 -2247 0
10977 -1622 0
10977 2247 0
-10978 -1622 2247 0
10978 1622 0
10978 -2247 0
-10979 2342 -1620 0
10979 -2342 0
10979 1620 0
-10980 -2342 1620 0
10980 2342 0
10980 -1620 0
-10981 -1925 7263 0
10981 1925 0
10981 -7263 0
-10982 1925 -7263 0
10982 -1925 0
10982 7263 0
-10983 1621 -4506 0
10983 -1621 0
10983 4506 0
-10984 -1621 4506 0
10984 1621 0
10984 -4506 0
-10985 -2071 7264 0
10985 2071 0
10985 -7264 0
-10986 2071 -7264 0
10986 -2071 0
10986 7264 0
-10987 -1774 7265 0
10987 1774 0
10987 -7265 0
-10988 1774 -7265 0
10988 -1774 0
10988 7265 0
-10989 764 -3228 0
10989 -764 0
10989 3228 0
-10990 -764 3228 0
10990 764 0
10990 -3228 0
-10991 763 -3375 0
10991 -763 0
10991 3375 0
-10992 -763 3375 0
10992 763 0
10992 -3375 0
-10993 766 -762 0
10993 -766 0
10993 762 0
-10994 -766 762 0
10994 766 0
10994 -762 0
-10995 767 -3509 0
10995 -767 0
10995 3509 0
-10996 -767 3509 0
10996 767 0
10996 -3509 0
-10997 4249 -3636 0
10997 -4249 0
10997 3636 0
-10998 -4249 3636 0
10998 4249 0
10998 -3636 0
-10999 4250 -765 0
10999 -4250 0
10999 765 0
-11000 -4250 765 0
11000 4250 0
11000 -765 0
-11001 -768 7266 0
11001 768 0
11001 -7266 0
-11002 768 -7266 0
11002 -768 0
11002 7266 0
-11003 1874 -1873 0
11003 -1874 0
11003 1873 0
-11004 -1874 1873 0
11004 1874 0
11004 -1873 0
-11005 2021 -2020 0
11005 -2021 0
11005 2020 0
-11006 -2021 2020 0
11006 2021 0
11006 -2020 0
-11007 1722 -1721 0
11007 -1722 0
11007 1721 0
-11008 -1722 1721 0
11008 1722 0
11008 -1721 0
-11009 2865 -6092 0
11009 -2865 0
11009 6092 0
-11010 -2865 6092 0
11010 2865 0
11010 -6092 0
-11011 4163 -4164 0
11011 -4163 0
11011 4164 0
-11012 -4163 4164 0
11012 4163 0
11012 -4164 0
-11013 619 -618 0
11013 -619 0
11013 618 0
-11014 -619 618 0
11014 619 0
11014 -618 0
-11015 2051 -2050 0
11015 -2051 0
11015 2050 0
-11016 -2051 2050 0
11016 2051 0
11016 -2050 0
-11017 3772 -3773 0
11017 -3772 0
11017 3773 0
-11018 -3772 3773 0
11018 3772 0
11018 -3773 0
-11019 133 -132 0
11019 -133 0
11019 132 0
-11020 -133 132 0
11020 133 0
11020 -132 0
-11021 140 -2634 0
11021 -140 0
11021 2634 0
-11022 -140 2634 0
11022 140 0
11022 -2634 0
-11023 1596 -1595 0
11023 -1596 0
11023 1595 0
-11024 -1596 1595 0
11024 1596 0
11024 -1595 0
-11025 164 -2145 0
11025 -164 0
11025 2145 0
-11026 -164 2145 0
11026 164 0
11026 -2145 0
-11027 4792 -2430 0
11027 -4792 0
11027 2430 0
-11028 -4792 2430 0
11028 4792 0
11028 -2430 0
-11029 1986 -2521 0
11029 -1986 0
11029 2521 0
-11030 -1986 2521 0
11030 1986 0
11030 -2521 0
-11031 1753 -1752 0
11031 -1753 0
11031 1752 0
-11032 -1753 1752 0
11032 1753 0
11032 -1752 0
-11033 4891 -2555 0
11033 -4891 0
11033 2555 0
-11034 -4891 2555 0
11034 4891 0
11034 -2555 0
-11035 3940 -3941 0
11035 -3940 0
11035 3941 0
-11036 -3940 3941 0
11036 3940 0
11036 -3941 0
-11037 366 -365 0
11037 -366 0
11037 365 0
-11038 -366 365 0
11038 366 0
11038 -365 0
-11039 4052 -4053 0
11039 -4052 0
11039 4053 0
-11040 -4052 4053 0
11040 4052 0
11040 -4053 0
-11041 492 -491 0
11041 -492 0
11041 491 0
-11042 -492 491 0
11042 492 0
11042 -491 0
-11043 1904 -1903 0
11043 -1904 0
11043 1903 0
-11044 -1904 1903 0
11044 1904 0
11044 -1903 0
-11045 2149 -1984 0
11045 -2149 0
11045 1984 0
-11046 -2149 1984 0
11046 2149 0
11046 -1984 0
-11047 4640 -2311 0
11047 -4640 0
11047 2311 0
-11048 -4640 2311 0
11048 4640 0
11048 -2311 0
-11049 4061 -4062 0
11049 -4061 0
11049 4062 0
-11050 -4061 4062 0
11050 4061 0
11050 -4062 0
-11051 503 -502 0
11051 -503 0
11051 502 0
-11052 -503 502 0
11052 503 0
11052 -502 0
-11053 -2235 2236 0
11053 2235 0
11053 -2236 0
-11054 2235 -2236 0
11054 -2235 0
11054 2236 0
-11055 2281 -1537 0
11055 -2281 0
11055 1537 0
-11056 -2281 1537 0
11056 2281 0
11056 -1537 0
-11057 1840 -2400 0
11057 -1840 0
11057 2400 0
-11058 -1840 2400 0
11058 1840 0
11058 -2400 0
-11059 2403 -1687 0
11059 -2403 0
11059 1687 0
-11060 -2403 1687 0
11060 2403 0
11060 -1687 0
-11061 1538 -2222 0
11061 -1538 0
11061 2222 0
-11062 -1538 2222 0
11062 1538 0
11062 -2222 0
-11063 4497 -2235 0
11063 -4497 0
11063 2235 0
-11064 -4497 2235 0
11064 4497 0
11064 -2235 0
-11065 1689 -2278 0
11065 -1689 0
11065 2278 0
-11066 -1689 2278 0
11066 1689 0
11066 -2278 0
-11067 1231 -3179 0
11067 -1231 0
11067 3179 0
-11068 -1231 3179 0
11068 1231 0
11068 -3179 0
-11069 1232 -3180 0
11069 -1232 0
11069 3180 0
-11070 -1232 3180 0
11070 1232 0
11070 -3180 0
-11071 1235 -1230 0
11071 -1235 0
11071 1230 0
-11072 -1235 1230 0
11072 1235 0
11072 -1230 0
-11073 1234 -4320 0
11073 -1234 0
11073 4320 0
-11074 -1234 4320 0
11074 1234 0
11074 -4320 0
-11075 1237 -1233 0
11075 -1237 0
11075 1233 0
-11076 -1237 1233 0
11076 1237 0
11076 -1233 0
-11077 1238 -4321 0
11077 -1238 0
11077 4321 0
-11078 -1238 4321 0
11078 1238 0
11078 -4321 0
-11079 1240 -1236 0
11079 -1240 0
11079 1236 0
-11080 -1240 1236 0
11080 1240 0
11080 -1236 0
-11081 1241 -4322 0
11081 -1241 0
11081 4322 0
-11082 -1241 4322 0
11082 1241 0
11082 -4322 0
-11083 629 -628 0
11083 -629 0
11083 628 0
-11084 -629 628 0
11084 629 0
11084 -628 0
-11085 4173 -4174 0
11085 -4173 0
11085 4174 0
-11086 -4173 4174 0
11086 4173 0
11086 -4174 0
-11087 3789 -3790 0
11087 -3789 0
11087 3790 0
-11088 -3789 3790 0
11088 3789 0
11088 -3790 0
-11089 157 -156 0
11089 -157 0
11089 156 0
-11090 -157 156 0
11090 157 0
11090 -156 0
-11091 1229 -3791 0
11091 -1229 0
11091 3791 0
-11092 -1229 3791 0
11092 1229 0
11092 -3791 0
-11093 1227 -1226 0
11093 -1227 0
11093 1226 0
-11094 -1227 1226 0
11094 1227 0
11094 -1226 0
-11095 3950 -3951 0
11095 -3950 0
11095 3951 0
-11096 -3950 3951 0
11096 3950 0
11096 -3951 0
-11097 376 -375 0
11097 -376 0
11097 375 0
-11098 -376 375 0
11098 376 0
11098 -375 0
-11099 2316 -5605 0
11099 -2316 0
11099 5605 0
-11100 -2316 5605 0
11100 2316 0
11100 -5605 0
-11101 2435 -5680 0
11101 -2435 0
11101 5680 0
-11102 -2435 5680 0
11102 2435 0
11102 -5680 0
-11103 2523 -1839 0
11103 -2523 0
11103 1839 0
-11104 -2523 1839 0
11104 2523 0
11104 -1839 0
-11105 3420 -3421 0
11105 -3420 0
11105 3421 0
-11106 -3420 3421 0
11106 3420 0
11106 -3421 0
-11107 3512 -3513 0
11107 -3512 0
11107 3513 0
-11108 -3512 3513 0
11108 3512 0
11108 -3513 0
-11109 3597 -3598 0
11109 -3597 0
11109 3598 0
-11110 -3597 3598 0
11110 3597 0
11110 -3598 0
-11111 1218 -3145 0
11111 -1218 0
11111 3145 0
-11112 -1218 3145 0
11112 1218 0
11112 -3145 0
-11113 1219 -3143 0
11113 -1219 0
11113 3143 0
-11114 -1219 3143 0
11114 1219 0
11114 -3143 0
-11115 1221 -1217 0
11115 -1221 0
11115 1217 0
-11116 -1221 1217 0
11116 1221 0
11116 -1217 0
-11117 1222 -3337 0
11117 -1222 0
11117 3337 0
-11118 -1222 3337 0
11118 1222 0
11118 -3337 0
-11119 1225 -3549 0
11119 -1225 0
11119 3549 0
-11120 -1225 3549 0
11120 1225 0
11120 -3549 0
-11121 1224 -1220 0
11121 -1224 0
11121 1220 0
-11122 -1224 1220 0
11122 1224 0
11122 -1220 0
-11123 4318 -1223 0
11123 -4318 0
11123 1223 0
-11124 -4318 1223 0
11124 4318 0
11124 -1223 0
-11125 4319 -3648 0
11125 -4319 0
11125 3648 0
-11126 -4319 3648 0
11126 4319 0
11126 -3648 0
-11127 -1903 7311 0
11127 1903 0
11127 -7311 0
-11128 1903 -7311 0
11128 -1903 0
11128 7311 0
-11129 -1595 7312 0
11129 1595 0
11129 -7312 0
-11130 1595 -7312 0
11130 -1595 0
11130 7312 0
-11131 -2050 7313 0
11131 2050 0
11131 -7313 0
-11132 2050 -7313 0
11132 -2050 0
11132 7313 0
-11133 -1752 7314 0
11133 1752 0
11133 -7314 0
-11134 1752 -7314 0
11134 -1752 0
11134 7314 0
-11135 -1226 7315 0
11135 1226 0
11135 -7315 0
-11136 1226 -7315 0
11136 -1226 0
11136 7315 0
-11137 617 -616 0
11137 -617 0
11137 616 0
-11138 -617 616 0
11138 617 0
11138 -616 0
-11139 4161 -4162 0
11139 -4161 0
11139 4162 0
-11140 -4161 4162 0
11140 4161 0
11140 -4162 0
-11141 4738 -2759 0
11141 -4738 0
11141 2759 0
-11142 -4738 2759 0
11142 4738 0
11142 -2759 0
-11143 121 -120 0
11143 -121 0
11143 120 0
-11144 -121 120 0
11144 121 0
11144 -120 0
-11145 3769 -3770 0
11145 -3769 0
11145 3770 0
-11146 -3769 3770 0
11146 3769 0
11146 -3770 0
-11147 136 -2834 0
11147 -136 0
11147 2834 0
-11148 -136 2834 0
11148 136 0
11148 -2834 0
-11149 1660 -1659 0
11149 -1660 0
11149 1659 0
-11150 -1660 1659 0
11150 1660 0
11150 -1659 0
-11151 4834 -2798 0
11151 -4834 0
11151 2798 0
-11152 -4834 2798 0
11152 4834 0
11152 -2798 0
-11153 1812 -1811 0
11153 -1812 0
11153 1811 0
-11154 -1812 1811 0
11154 1812 0
11154 -1811 0
-11155 3938 -3939 0
11155 -3938 0
11155 3939 0
-11156 -3938 3939 0
11156 3938 0
11156 -3939 0
-11157 364 -363 0
11157 -364 0
11157 363 0
-11158 -364 363 0
11158 364 0
11158 -363 0
-11159 1959 -1958 0
11159 -1959 0
11159 1958 0
-11160 -1959 1958 0
11160 1959 0
11160 -1958 0
-11161 490 -489 0
11161 -490 0
11161 489 0
-11162 -490 489 0
11162 490 0
11162 -489 0
-11163 4050 -4051 0
11163 -4050 0
11163 4051 0
-11164 -4050 4051 0
11164 4050 0
11164 -4051 0
-11165 4585 -2702 0
11165 -4585 0
11165 2702 0
-11166 -4585 2702 0
11166 4585 0
11166 -2702 0
-11167 -2677 2678 0
11167 2677 0
11167 -2678 0
-11168 2677 -2678 0
11168 -2677 0
11168 2678 0
-11169 1509 -2677 0
11169 -1509 0
11169 2677 0
-11170 -1509 2677 0
11170 1509 0
11170 -2677 0
-11171 1007 -3250 0
11171 -1007 0
11171 3250 0
-11172 -1007 3250 0
11172 1007 0
11172 -3250 0
-11173 1006 -3248 0
11173 -1006 0
11173 3248 0
-11174 -1006 3248 0
11174 1006 0
11174 -3248 0
-11175 1009 -1005 0
11175 -1009 0
11175 1005 0
-11176 -1009 1005 0
11176 1009 0
11176 -1005 0
-11177 1010 -3335 0
11177 -1010 0
11177 3335 0
-11178 -1010 3335 0
11178 1010 0
11178 -3335 0
-11179 1012 -3543 0
11179 -1012 0
11179 3543 0
-11180 -1012 3543 0
11180 1012 0
11180 -3543 0
-11181 1013 -1008 0
11181 -1013 0
11181 1008 0
-11182 -1013 1008 0
11182 1013 0
11182 -1008 0
-11183 1015 -1011 0
11183 -1015 0
11183 1011 0
-11184 -1015 1011 0
11184 1015 0
11184 -1011 0
-11185 1016 -3644 0
11185 -1016 0
11185 3644 0
-11186 -1016 3644 0
11186 1016 0
11186 -3644 0
-11187 1019 -4288 0
11187 -1019 0
11187 4288 0
-11188 -1019 4288 0
11188 1019 0
11188 -4288 0
-11189 1018 -1014 0
11189 -1018 0
11189 1014 0
-11190 -1018 1014 0
11190 1018 0
11190 -1014 0
-11191 -1958 7318 0
11191 1958 0
11191 -7318 0
-11192 1958 -7318 0
11192 -1958 0
11192 7318 0
-11193 -1659 7319 0
11193 1659 0
11193 -7319 0
-11194 1659 -7319 0
11194 -1659 0
11194 7319 0
-11195 2703 -1508 0
11195 -2703 0
11195 1508 0
-11196 -2703 1508 0
11196 2703 0
11196 -1508 0
-11197 -1811 7320 0
11197 1811 0
11197 -7320 0
-11198 1811 -7320 0
11198 -1811 0
11198 7320 0
-11199 -132 7337 0
11199 132 0
11199 -7337 0
-11200 132 -7337 0
11200 -132 0
11200 7337 0
-11201 2678 -7338 0
11201 -2678 0
11201 7338 0
-11202 -2678 7338 0
11202 2678 0
11202 -7338 0
-11203 141 -3774 0
11203 -141 0
11203 3774 0
-11204 -141 3774 0
11204 141 0
11204 -3774 0
-11205 2705 -5866 0
11205 -2705 0
11205 5866 0
-11206 -2705 5866 0
11206 2705 0
11206 -5866 0
-11207 4793 -4794 0
11207 -4793 0
11207 4794 0
-11208 -4793 4794 0
11208 4793 0
11208 -4794 0
-11209 2762 -5922 0
11209 -2762 0
11209 5922 0
-11210 -2762 5922 0
11210 2762 0
11210 -5922 0
-11211 -365 7339 0
11211 365 0
11211 -7339 0
-11212 365 -7339 0
11212 -365 0
11212 7339 0
-11213 2802 -5995 0
11213 -2802 0
11213 5995 0
-11214 -2802 5995 0
11214 2802 0
11214 -5995 0
-11215 4892 -4893 0
11215 -4892 0
11215 4893 0
-11216 -4892 4893 0
11216 4892 0
11216 -4893 0
-11217 4495 -4496 0
11217 -4495 0
11217 4496 0
-11218 -4495 4496 0
11218 4495 0
11218 -4496 0
-11219 -491 7340 0
11219 491 0
11219 -7340 0
-11220 491 -7340 0
11220 -491 0
11220 7340 0
-11221 2837 -6069 0
11221 -2837 0
11221 6069 0
-11222 -2837 6069 0
11222 2837 0
11222 -6069 0
-11223 -618 7341 0
11223 618 0
11223 -7341 0
-11224 618 -7341 0
11224 -618 0
11224 7341 0
-11225 4641 -4642 0
11225 -4641 0
11225 4642 0
-11226 -4641 4642 0
11226 4641 0
11226 -4642 0
-11227 -137 7374 0
11227 137 0
11227 -7374 0
-11228 137 -7374 0
11228 -137 0
11228 7374 0
-11229 -156 7375 0
11229 156 0
11229 -7375 0
-11230 156 -7375 0
11230 -156 0
11230 7375 0
-11231 -367 7376 0
11231 367 0
11231 -7376 0
-11232 367 -7376 0
11232 -367 0
11232 7376 0
-11233 -375 7377 0
11233 375 0
11233 -7377 0
-11234 375 -7377 0
11234 -375 0
11234 7377 0
-11235 -493 7378 0
11235 493 0
11235 -7378 0
-11236 493 -7378 0
11236 -493 0
11236 7378 0
-11237 -502 7379 0
11237 502 0
11237 -7379 0
-11238 502 -7379 0
11238 -502 0
11238 7379 0
-11239 -620 7380 0
11239 620 0
11239 -7380 0
-11240 620 -7380 0
11240 -620 0
11240 7380 0
-11241 -628 7381 0
11241 628 0
11241 -7381 0
-11242 628 -7381 0
11242 -628 0
11242 7381 0
-11243 4160 -3768 0
11243 -4160 0
11243 3768 0
-11244 -4160 3768 0
11244 4160 0
11244 -3768 0
-11245 615 -614 0
11245 -615 0
11245 614 0
-11246 -615 614 0
11246 615 0
11246 -614 0
-11247 3761 -3762 0
11247 -3761 0
11247 3762 0
-11248 -3761 3762 0
11248 3761 0
11248 -3762 0
-11249 116 -115 0
11249 -116 0
11249 115 0
-11250 -116 115 0
11250 116 0
11250 -115 0
-11251 131 -1987 0
11251 -131 0
11251 1987 0
-11252 -131 1987 0
11252 131 0
11252 -1987 0
-11253 4760 -3052 0
11253 -4760 0
11253 3052 0
-11254 -4760 3052 0
11254 4760 0
11254 -3052 0
-11255 1541 -1540 0
11255 -1541 0
11255 1540 0
-11256 -1541 1540 0
11256 1541 0
11256 -1540 0
-11257 1691 -1690 0
11257 -1691 0
11257 1690 0
-11258 -1691 1690 0
11258 1691 0
11258 -1690 0
-11259 1843 -1842 0
11259 -1843 0
11259 1842 0
-11260 -1843 1842 0
11260 1843 0
11260 -1842 0
-11261 4859 -3072 0
11261 -4859 0
11261 3072 0
-11262 -4859 3072 0
11262 4859 0
11262 -3072 0
-11263 3937 -3763 0
11263 -3937 0
11263 3763 0
-11264 -3937 3763 0
11264 3937 0
11264 -3763 0
-11265 362 -361 0
11265 -362 0
11265 361 0
-11266 -362 361 0
11266 362 0
11266 -361 0
-11267 488 -487 0
11267 -488 0
11267 487 0
-11268 -488 487 0
11268 488 0
11268 -487 0
-11269 4049 -3765 0
11269 -4049 0
11269 3765 0
-11270 -4049 3765 0
11270 4049 0
11270 -3765 0
-11271 4605 -3031 0
11271 -4605 0
11271 3031 0
-11272 -4605 3031 0
11272 4605 0
11272 -3031 0
-11273 1186 -4312 0
11273 -1186 0
11273 4312 0
-11274 -1186 4312 0
11274 1186 0
11274 -4312 0
-11275 1184 -1183 0
11275 -1184 0
11275 1183 0
-11276 -1184 1183 0
11276 1184 0
11276 -1183 0
-11277 1189 -1185 0
11277 -1189 0
11277 1185 0
-11278 -1189 1185 0
11278 1189 0
11278 -1185 0
-11279 1188 -4313 0
11279 -1188 0
11279 4313 0
-11280 -1188 4313 0
11280 1188 0
11280 -4313 0
-11281 1191 -1187 0
11281 -1191 0
11281 1187 0
-11282 -1191 1187 0
11282 1191 0
11282 -1187 0
-11283 1192 -4314 0
11283 -1192 0
11283 4314 0
-11284 -1192 4314 0
11284 1192 0
11284 -4314 0
-11285 1194 -1190 0
11285 -1194 0
11285 1190 0
-11286 -1194 1190 0
11286 1194 0
11286 -1190 0
-11287 1195 -4315 0
11287 -1195 0
11287 4315 0
-11288 -1195 4315 0
11288 1195 0
11288 -4315 0
-11289 1179 -3288 0
11289 -1179 0
11289 3288 0
-11290 -1179 3288 0
11290 1179 0
11290 -3288 0
-11291 1178 -3359 0
11291 -1178 0
11291 3359 0
-11292 -1178 3359 0
11292 1178 0
11292 -3359 0
-11293 1181 -3470 0
11293 -1181 0
11293 3470 0
-11294 -1181 3470 0
11294 1181 0
11294 -3470 0
-11295 1182 -1177 0
11295 -1182 0
11295 1177 0
-11296 -1182 1177 0
11296 1182 0
11296 -1177 0
-11297 4310 -1180 0
11297 -4310 0
11297 1180 0
-11298 -4310 1180 0
11298 4310 0
11298 -1180 0
-11299 4311 -3604 0
11299 -4311 0
11299 3604 0
-11300 -4311 3604 0
11300 4311 0
11300 -3604 0
-11301 3025 -3024 0
11301 -3025 0
11301 3024 0
-11302 -3025 3024 0
11302 3025 0
11302 -3024 0
-11303 -1540 7382 0
11303 1540 0
11303 -7382 0
-11304 1540 -7382 0
11304 -1540 0
11304 7382 0
-11305 -1690 7383 0
11305 1690 0
11305 -7383 0
-11306 1690 -7383 0
11306 -1690 0
11306 7383 0
-11307 -1842 7384 0
11307 1842 0
11307 -7384 0
-11308 1842 -7384 0
11308 -1842 0
11308 7384 0
-11309 -1987 7385 0
11309 1987 0
11309 -7385 0
-11310 1987 -7385 0
11310 -1987 0
11310 7385 0
-11311 -1183 7386 0
11311 1183 0
11311 -7386 0
-11312 1183 -7386 0
11312 -1183 0
11312 7386 0
-11313 2630 -2017 0
11313 -2630 0
11313 2017 0
-11314 -2630 2017 0
11314 2630 0
11314 -2017 0
-11315 64 -2624 0
11315 -64 0
11315 2624 0
-11316 -64 2624 0
11316 64 0
11316 -2624 0
-11317 2726 -1563 0
11317 -2726 0
11317 1563 0
-11318 -2726 1563 0
11318 2726 0
11318 -1563 0
-11319 1872 -2769 0
11319 -1872 0
11319 2769 0
-11320 -1872 2769 0
11320 1872 0
11320 -2769 0
-11321 2772 -1718 0
11321 -2772 0
11321 1718 0
-11322 -2772 1718 0
11322 2772 0
11322 -1718 0
-11323 874 -3131 0
11323 -874 0
11323 3131 0
-11324 -874 3131 0
11324 874 0
11324 -3131 0
-11325 875 -3439 0
11325 -875 0
11325 3439 0
-11326 -875 3439 0
11326 875 0
11326 -3439 0
-11327 877 -873 0
11327 -877 0
11327 873 0
-11328 -877 873 0
11328 877 0
11328 -873 0
-11329 878 -3495 0
11329 -878 0
11329 3495 0
-11330 -878 3495 0
11330 878 0
11330 -3495 0
-11331 880 -3582 0
11331 -880 0
11331 3582 0
-11332 -880 3582 0
11332 880 0
11332 -3582 0
-11333 881 -876 0
11333 -881 0
11333 876 0
-11334 -881 876 0
11334 881 0
11334 -876 0
-11335 884 -879 0
11335 -884 0
11335 879 0
-11336 -884 879 0
11336 884 0
11336 -879 0
-11337 883 -4269 0
11337 -883 0
11337 4269 0
-11338 -883 4269 0
11338 883 0
11338 -4269 0
-11339 886 -4270 0
11339 -886 0
11339 4270 0
-11340 -886 4270 0
11340 886 0
11340 -4270 0
-11341 887 -882 0
11341 -887 0
11341 882 0
-11342 -887 882 0
11342 887 0
11342 -882 0
-11343 889 -4271 0
11343 -889 0
11343 4271 0
-11344 -889 4271 0
11344 889 0
11344 -4271 0
-11345 890 -885 0
11345 -890 0
11345 885 0
-11346 -890 885 0
11346 890 0
11346 -885 0
-11347 2019 -2809 0
11347 -2019 0
11347 2809 0
-11348 -2019 2809 0
11348 2019 0
11348 -2809 0
-11349 1565 -2686 0
11349 -1565 0
11349 2686 0
-11350 -1565 2686 0
11350 1565 0
11350 -2686 0
-11351 2816 -1870 0
11351 -2816 0
11351 1870 0
-11352 -2816 1870 0
11352 2816 0
11352 -1870 0
-11353 1719 -2719 0
11353 -1719 0
11353 2719 0
-11354 -1719 2719 0
11354 1719 0
11354 -2719 0
-11355 63 -3726 0
11355 -63 0
11355 3726 0
-11356 -63 3726 0
11356 63 0
11356 -3726 0
-11357 127 -3766 0
11357 -127 0
11357 3766 0
-11358 -127 3766 0
11358 127 0
11358 -3766 0
-11359 3033 -6247 0
11359 -3033 0
11359 6247 0
-11360 -3033 6247 0
11360 3033 0
11360 -6247 0
-11361 1871 -4776 0
11361 -1871 0
11361 4776 0
-11362 -1871 4776 0
11362 1871 0
11362 -4776 0
-11363 3055 -6264 0
11363 -3055 0
11363 6264 0
-11364 -3055 6264 0
11364 3055 0
11364 -6264 0
-11365 3073 -6284 0
11365 -3073 0
11365 6284 0
-11366 -3073 6284 0
11366 3073 0
11366 -6284 0
-11367 -3024 7387 0
11367 3024 0
11367 -7387 0
-11368 3024 -7387 0
11368 -3024 0
11368 7387 0
-11369 2018 -4874 0
11369 -2018 0
11369 4874 0
-11370 -2018 4874 0
11370 2018 0
11370 -4874 0
-11371 1564 -4480 0
11371 -1564 0
11371 4480 0
-11372 -1564 4480 0
11372 1564 0
11372 -4480 0
-11373 1720 -4621 0
11373 -1720 0
11373 4621 0
-11374 -1720 4621 0
11374 1720 0
11374 -4621 0
-11375 2272 -1532 0
11375 -2272 0
11375 1532 0
-11376 -2272 1532 0
11376 2272 0
11376 -1532 0
-11377 96 -95 0
11377 -96 0
11377 95 0
-11378 -96 95 0
11378 96 0
11378 -95 0
-11379 3749 -3750 0
11379 -3749 0
11379 3750 0
-11380 -3749 3750 0
11380 3749 0
11380 -3750 0
-11381 104 -2126 0
11381 -104 0
11381 2126 0
-11382 -104 2126 0
11382 104 0
11382 -2126 0
-11383 1836 -2389 0
11383 -1836 0
11383 2389 0
-11384 -1836 2389 0
11384 1836 0
11384 -2389 0
-11385 2392 -1682 0
11385 -2392 0
11385 1682 0
-11386 -2392 1682 0
11386 2392 0
11386 -1682 0
-11387 1981 -2510 0
11387 -1981 0
11387 2510 0
-11388 -1981 2510 0
11388 1981 0
11388 -2510 0
-11389 892 -3273 0
11389 -892 0
11389 3273 0
-11390 -892 3273 0
11390 892 0
11390 -3273 0
-11391 893 -3275 0
11391 -893 0
11391 3275 0
-11392 -893 3275 0
11392 893 0
11392 -3275 0
-11393 896 -3389 0
11393 -896 0
11393 3389 0
-11394 -896 3389 0
11394 896 0
11394 -3389 0
-11395 895 -891 0
11395 -895 0
11395 891 0
-11396 -895 891 0
11396 895 0
11396 -891 0
-11397 898 -3472 0
11397 -898 0
11397 3472 0
-11398 -898 3472 0
11398 898 0
11398 -3472 0
-11399 899 -894 0
11399 -899 0
11399 894 0
-11400 -899 894 0
11400 899 0
11400 -894 0
-11401 901 -897 0
11401 -901 0
11401 897 0
-11402 -901 897 0
11402 901 0
11402 -897 0
-11403 902 -3614 0
11403 -902 0
11403 3614 0
-11404 -902 3614 0
11404 902 0
11404 -3614 0
-11405 1534 -2219 0
11405 -1534 0
11405 2219 0
-11406 -1534 2219 0
11406 1534 0
11406 -2219 0
-11407 2514 -1834 0
11407 -2514 0
11407 1834 0
-11408 -2514 1834 0
11408 2514 0
11408 -1834 0
-11409 2129 -1979 0
11409 -2129 0
11409 1979 0
-11410 -2129 1979 0
11410 2129 0
11410 -1979 0
-11411 1684 -2267 0
11411 -1684 0
11411 2267 0
-11412 -1684 2267 0
11412 1684 0
11412 -2267 0
-11413 2627 -5797 0
11413 -2627 0
11413 5797 0
-11414 -2627 5797 0
11414 2627 0
11414 -5797 0
-11415 103 -3751 0
11415 -103 0
11415 3751 0
-11416 -103 3751 0
11416 103 0
11416 -3751 0
-11417 1835 -4754 0
11417 -1835 0
11417 4754 0
-11418 -1835 4754 0
11418 1835 0
11418 -4754 0
-11419 2723 -5881 0
11419 -2723 0
11419 5881 0
-11420 -2723 5881 0
11420 2723 0
11420 -5881 0
-11421 -2686 7404 0
11421 2686 0
11421 -7404 0
-11422 2686 -7404 0
11422 -2686 0
11422 7404 0
-11423 2773 -5943 0
11423 -2773 0
11423 5943 0
-11424 -2773 5943 0
11424 2773 0
11424 -5943 0
-11425 1980 -4853 0
11425 -1980 0
11425 4853 0
-11426 -1980 4853 0
11426 1980 0
11426 -4853 0
-11427 1533 -4464 0
11427 -1533 0
11427 4464 0
-11428 -1533 4464 0
11428 1533 0
11428 -4464 0
-11429 2814 -6016 0
11429 -2814 0
11429 6016 0
-11430 -2814 6016 0
11430 2814 0
11430 -6016 0
-11431 1683 -4599 0
11431 -1683 0
11431 4599 0
-11432 -1683 4599 0
11432 1683 0
11432 -4599 0
-11433 101 -100 0
11433 -101 0
11433 100 0
-11434 -101 100 0
11434 101 0
11434 -100 0
-11435 3752 -3753 0
11435 -3752 0
11435 3753 0
-11436 -3752 3753 0
11436 3752 0
11436 -3753 0
-11437 6276 -1734 0
11437 -6276 0
11437 1734 0
-11438 -6276 1734 0
11438 6276 0
11438 -1734 0
-11439 1111 -3343 0
11439 -1111 0
11439 3343 0
-11440 -1111 3343 0
11440 1111 0
11440 -3343 0
-11441 1110 -3223 0
11441 -1110 0
11441 3223 0
-11442 -1110 3223 0
11442 1110 0
11442 -3223 0
-11443 1113 -3491 0
11443 -1113 0
11443 3491 0
-11444 -1113 3491 0
11444 1113 0
11444 -3491 0
-11445 1114 -1109 0
11445 -1114 0
11445 1109 0
-11446 -1114 1109 0
11446 1114 0
11446 -1109 0
-11447 4299 -1112 0
11447 -4299 0
11447 1112 0
-11448 -4299 1112 0
11448 4299 0
11448 -1112 0
-11449 4300 -3678 0
11449 -4300 0
11449 3678 0
-11450 -4300 3678 0
11450 4300 0
11450 -3678 0
-11451 607 -606 0
11451 -607 0
11451 606 0
-11452 -607 606 0
11452 607 0
11452 -606 0
-11453 4153 -4154 0
11453 -4153 0
11453 4154 0
-11454 -4153 4154 0
11454 4153 0
11454 -4154 0
-11455 4155 -608 0
11455 -4155 0
11455 608 0
-11456 -4155 608 0
11456 4155 0
11456 -608 0
-11457 109 -3096 0
11457 -109 0
11457 3096 0
-11458 -109 3096 0
11458 109 0
11458 -3096 0
-11459 1887 -1886 0
11459 -1887 0
11459 1886 0
-11460 -1887 1886 0
11460 1887 0
11460 -1886 0
-11461 2033 -2032 0
11461 -2033 0
11461 2032 0
-11462 -2033 2032 0
11462 2033 0
11462 -2032 0
-11463 4881 -3090 0
11463 -4881 0
11463 3090 0
-11464 -4881 3090 0
11464 4881 0
11464 -3090 0
-11465 354 -353 0
11465 -354 0
11465 353 0
-11466 -354 353 0
11466 354 0
11466 -353 0
-11467 3930 -3931 0
11467 -3930 0
11467 3931 0
-11468 -3930 3931 0
11468 3930 0
11468 -3931 0
-11469 3932 -355 0
11469 -3932 0
11469 355 0
-11470 -3932 355 0
11470 3932 0
11470 -355 0
-11471 1118 -4301 0
11471 -1118 0
11471 4301 0
-11472 -1118 4301 0
11472 1118 0
11472 -4301 0
-11473 1116 -1115 0
11473 -1116 0
11473 1115 0
-11474 -1116 1115 0
11474 1116 0
11474 -1115 0
-11475 480 -479 0
11475 -480 0
11475 479 0
-11476 -480 479 0
11476 480 0
11476 -479 0
-11477 1121 -1117 0
11477 -1121 0
11477 1117 0
-11478 -1121 1117 0
11478 1121 0
11478 -1117 0
-11479 4042 -481 0
11479 -4042 0
11479 481 0
-11480 -4042 481 0
11480 4042 0
11480 -481 0
-11481 4043 -4044 0
11481 -4043 0
11481 4044 0
-11482 -4043 4044 0
11482 4043 0
11482 -4044 0
-11483 1120 -4302 0
11483 -1120 0
11483 4302 0
-11484 -1120 4302 0
11484 1120 0
11484 -4302 0
-11485 1580 -1579 0
11485 -1580 0
11485 1579 0
-11486 -1580 1579 0
11486 1580 0
11486 -1579 0
-11487 6274 -6275 0
11487 -6274 0
11487 6275 0
-11488 -6274 6275 0
11488 6274 0
11488 -6275 0
-11489 6280 -6281 0
11489 -6280 0
11489 6281 0
-11490 -6280 6281 0
11490 6280 0
11490 -6281 0
-11491 6282 -6283 0
11491 -6282 0
11491 6283 0
-11492 -6282 6283 0
11492 6282 0
11492 -6283 0
-11493 3092 -6295 0
11493 -3092 0
11493 6295 0
-11494 -3092 6295 0
11494 3092 0
11494 -6295 0
-11495 3100 -6297 0
11495 -3100 0
11495 6297 0
-11496 -3100 6297 0
11496 3100 0
11496 -6297 0
-11497 -1115 7409 0
11497 1115 0
11497 -7409 0
-11498 1115 -7409 0
11498 -1115 0
11498 7409 0
-11499 -2032 7410 0
11499 2032 0
11499 -7410 0
-11500 2032 -7410 0
11500 -2032 0
11500 7410 0
-11501 1735 -3049 0
11501 -1735 0
11501 3049 0
-11502 -1735 3049 0
11502 1735 0
11502 -3049 0
-11503 663 -4201 0
11503 -663 0
11503 4201 0
-11504 -663 4201 0
11504 663 0
11504 -4201 0
-11505 661 -660 0
11505 -661 0
11505 660 0
-11506 -661 660 0
11506 661 0
11506 -660 0
-11507 4202 -4203 0
11507 -4202 0
11507 4203 0
-11508 -4202 4203 0
11508 4202 0
11508 -4203 0
-11509 4204 -662 0
11509 -4204 0
11509 662 0
-11510 -4204 662 0
11510 4204 0
11510 -662 0
-11511 1133 -3610 0
11511 -1133 0
11511 3610 0
-11512 -1133 3610 0
11512 1133 0
11512 -3610 0
-11513 3019 -1993 0
11513 -3019 0
11513 1993 0
-11514 -3019 1993 0
11514 3019 0
11514 -1993 0
-11515 1132 -1128 0
11515 -1132 0
11515 1128 0
-11516 -1132 1128 0
11516 1132 0
11516 -1128 0
-11517 1856 -1697 0
11517 -1856 0
11517 1697 0
-11518 -1856 1697 0
11518 1856 0
11518 -1697 0
-11519 3071 -3070 0
11519 -3071 0
11519 3070 0
-11520 -3071 3070 0
11520 3071 0
11520 -3070 0
-11521 243 -3017 0
11521 -243 0
11521 3017 0
-11522 -243 3017 0
11522 243 0
11522 -3017 0
-11523 1995 -1849 0
11523 -1995 0
11523 1849 0
-11524 -1995 1849 0
11524 1995 0
11524 -1849 0
-11525 3030 -3029 0
11525 -3030 0
11525 3029 0
-11526 -3030 3029 0
11526 3030 0
11526 -3029 0
-11527 1123 -3184 0
11527 -1123 0
11527 3184 0
-11528 -1123 3184 0
11528 1123 0
11528 -3184 0
-11529 1124 -3185 0
11529 -1124 0
11529 3185 0
-11530 -1124 3185 0
11530 1124 0
11530 -3185 0
-11531 1126 -3393 0
11531 -1126 0
11531 3393 0
-11532 -1126 3393 0
11532 1126 0
11532 -3393 0
-11533 1127 -1122 0
11533 -1127 0
11533 1122 0
-11534 -1127 1122 0
11534 1127 0
11534 -1122 0
-11535 1129 -1125 0
11535 -1129 0
11535 1125 0
-11536 -1129 1125 0
11536 1129 0
11536 -1125 0
-11537 1130 -3493 0
11537 -1130 0
11537 3493 0
-11538 -1130 3493 0
11538 1130 0
11538 -3493 0
-11539 1135 -4303 0
11539 -1135 0
11539 4303 0
-11540 -1135 4303 0
11540 1135 0
11540 -4303 0
-11541 1136 -1131 0
11541 -1136 0
11541 1131 0
-11542 -1136 1131 0
11542 1136 0
11542 -1131 0
-11543 1701 -1547 0
11543 -1701 0
11543 1547 0
-11544 -1701 1547 0
11544 1701 0
11544 -1547 0
-11545 1851 -4765 0
11545 -1851 0
11545 4765 0
-11546 -1851 4765 0
11546 1851 0
11546 -4765 0
-11547 242 -3837 0
11547 -242 0
11547 3837 0
-11548 -242 3837 0
11548 242 0
11548 -3837 0
-11549 3101 -6298 0
11549 -3101 0
11549 6298 0
-11550 -3101 6298 0
11550 3101 0
11550 -6298 0
-11551 1999 -4864 0
11551 -1999 0
11551 4864 0
-11552 -1999 4864 0
11552 1999 0
11552 -4864 0
-11553 -3070 7411 0
11553 3070 0
11553 -7411 0
-11554 3070 -7411 0
11554 -3070 0
11554 7411 0
-11555 1549 -4474 0
11555 -1549 0
11555 4474 0
-11556 -1549 4474 0
11556 1549 0
11556 -4474 0
-11557 -1579 7412 0
11557 1579 0
11557 -7412 0
-11558 1579 -7412 0
11558 -1579 0
11558 7412 0
-11559 4882 -4883 0
11559 -4882 0
11559 4883 0
-11560 -4882 4883 0
11560 4882 0
11560 -4883 0
-11561 -1886 7413 0
11561 1886 0
11561 -7413 0
-11562 1886 -7413 0
11562 -1886 0
11562 7413 0
-11563 1703 -4611 0
11563 -1703 0
11563 4611 0
-11564 -1703 4611 0
11564 1703 0
11564 -4611 0
-11565 1736 -4629 0
11565 -1736 0
11565 4629 0
-11566 -1736 4629 0
11566 1736 0
11566 -4629 0
-11567 118 -3004 0
11567 -118 0
11567 3004 0
-11568 -118 3004 0
11568 118 0
11568 -3004 0
-11569 4743 -3110 0
11569 -4743 0
11569 3110 0
-11570 -4743 3110 0
11570 4743 0
11570 -3110 0
-11571 1961 -1960 0
11571 -1961 0
11571 1960 0
-11572 -1961 1960 0
11572 1961 0
11572 -1960 0
-11573 4839 -3116 0
11573 -4839 0
11573 3116 0
-11574 -4839 3116 0
11574 4839 0
11574 -3116 0
-11575 1662 -1661 0
11575 -1662 0
11575 1661 0
-11576 -1662 1661 0
11576 1662 0
11576 -1661 0
-11577 1814 -1813 0
11577 -1814 0
11577 1813 0
-11578 -1814 1813 0
11578 1814 0
11578 -1813 0
-11579 486 -485 0
11579 -486 0
11579 485 0
-11580 -486 485 0
11580 486 0
11580 -485 0
-11581 4047 -4048 0
11581 -4047 0
11581 4048 0
-11582 -4047 4048 0
11582 4047 0
11582 -4048 0
-11583 1158 -4307 0
11583 -1158 0
11583 4307 0
-11584 -1158 4307 0
11584 1158 0
11584 -4307 0
-11585 1156 -1155 0
11585 -1156 0
11585 1155 0
-11586 -1156 1155 0
11586 1156 0
11586 -1155 0
-11587 1160 -1157 0
11587 -1160 0
11587 1157 0
-11588 -1160 1157 0
11588 1160 0
11588 -1157 0
-11589 1161 -4308 0
11589 -1161 0
11589 4308 0
-11590 -1161 4308 0
11590 1161 0
11590 -4308 0
-11591 1150 -3260 0
11591 -1150 0
11591 3260 0
-11592 -1150 3260 0
11592 1150 0
11592 -3260 0
-11593 1151 -3415 0
11593 -1151 0
11593 3415 0
-11594 -1151 3415 0
11594 1151 0
11594 -3415 0
-11595 1153 -3479 0
11595 -1153 0
11595 3479 0
-11596 -1153 3479 0
11596 1153 0
11596 -3479 0
-11597 1154 -1149 0
11597 -1154 0
11597 1149 0
-11598 -1154 1149 0
11598 1154 0
11598 -1149 0
-11599 4305 -3596 0
11599 -4305 0
11599 3596 0
-11600 -4305 3596 0
11600 4305 0
11600 -3596 0
-11601 4306 -1152 0
11601 -4306 0
11601 1152 0
-11602 -4306 1152 0
11602 4306 0
11602 -1152 0
-11603 3758 -3759 0
11603 -3758 0
11603 3759 0
-11604 -3758 3759 0
11604 3758 0
11604 -3759 0
-11605 111 -110 0
11605 -111 0
11605 110 0
-11606 -111 110 0
11606 111 0
11606 -110 0
-11607 3935 -3936 0
11607 -3935 0
11607 3936 0
-11608 -3935 3936 0
11608 3935 0
11608 -3936 0
-11609 360 -359 0
11609 -360 0
11609 359 0
-11610 -360 359 0
11610 360 0
11610 -359 0
-11611 4590 -3104 0
11611 -4590 0
11611 3104 0
-11612 -4590 3104 0
11612 4590 0
11612 -3104 0
-11613 1512 -1511 0
11613 -1512 0
11613 1511 0
-11614 -1512 1511 0
11614 1512 0
11614 -1511 0
-11615 613 -612 0
11615 -613 0
11615 612 0
-11616 -613 612 0
11616 613 0
11616 -612 0
-11617 4158 -4159 0
11617 -4158 0
11617 4159 0
-11618 -4158 4159 0
11618 4158 0
11618 -4159 0
-11619 3103 -3102 0
11619 -3103 0
11619 3102 0
-11620 -3103 3102 0
11620 3103 0
11620 -3102 0
-11621 3008 -6232 0
11621 -3008 0
11621 6232 0
-11622 -3008 6232 0
11622 3008 0
11622 -6232 0
-11623 3107 -6300 0
11623 -3107 0
11623 6300 0
-11624 -3107 6300 0
11624 3107 0
11624 -6300 0
-11625 3112 -6302 0
11625 -3112 0
11625 6302 0
-11626 -3112 6302 0
11626 3112 0
11626 -6302 0
-11627 3120 -6304 0
11627 -3120 0
11627 6304 0
-11628 -3120 6304 0
11628 3120 0
11628 -6304 0
-11629 -1511 7415 0
11629 1511 0
11629 -7415 0
-11630 1511 -7415 0
11630 -1511 0
11630 7415 0
-11631 -1661 7416 0
11631 1661 0
11631 -7416 0
-11632 1661 -7416 0
11632 -1661 0
11632 7416 0
-11633 -1813 7417 0
11633 1813 0
11633 -7417 0
-11634 1813 -7417 0
11634 -1813 0
11634 7417 0
-11635 -1960 7418 0
11635 1960 0
11635 -7418 0
-11636 1960 -7418 0
11636 -1960 0
11636 7418 0
-11637 -1155 7419 0
11637 1155 0
11637 -7419 0
-11638 1155 -7419 0
11638 -1155 0
11638 7419 0
-11639 119 -3760 0
11639 -119 0
11639 3760 0
-11640 -119 3760 0
11640 119 0
11640 -3760 0
-11641 4741 -4742 0
11641 -4741 0
11641 4742 0
-11642 -4741 4742 0
11642 4741 0
11642 -4742 0
-11643 3021 -6234 0
11643 -3021 0
11643 6234 0
-11644 -3021 6234 0
11644 3021 0
11644 -6234 0
-11645 1852 -4766 0
11645 -1852 0
11645 4766 0
-11646 -1852 4766 0
11646 1852 0
11646 -4766 0
-11647 4837 -4838 0
11647 -4837 0
11647 4838 0
-11648 -4837 4838 0
11648 4837 0
11648 -4838 0
-11649 4449 -4450 0
11649 -4449 0
11649 4450 0
-11650 -4449 4450 0
11650 4449 0
11650 -4450 0
-11651 1994 -4865 0
11651 -1994 0
11651 4865 0
-11652 -1994 4865 0
11652 1994 0
11652 -4865 0
-11653 1548 -4473 0
11653 -1548 0
11653 4473 0
-11654 -1548 4473 0
11654 1548 0
11654 -4473 0
-11655 4588 -4589 0
11655 -4588 0
11655 4589 0
-11656 -4588 4589 0
11656 4588 0
11656 -4589 0
-11657 1698 -4610 0
11657 -1698 0
11657 4610 0
-11658 -1698 4610 0
11658 1698 0
11658 -4610 0
-11659 609 -4152 0
11659 -609 0
11659 4152 0
-11660 -609 4152 0
11660 609 0
11660 -4152 0
-11661 -100 7468 0
11661 100 0
11661 -7468 0
-11662 100 -7468 0
11662 -100 0
11662 7468 0
-11663 -115 7469 0
11663 115 0
11663 -7469 0
-11664 115 -7469 0
11664 -115 0
11664 7469 0
-11665 108 -3754 0
11665 -108 0
11665 3754 0
-11666 -108 3754 0
11666 108 0
11666 -3754 0
-11667 128 -3767 0
11667 -128 0
11667 3767 0
-11668 -128 3767 0
11668 128 0
11668 -3767 0
-11669 4758 -4759 0
11669 -4758 0
11669 4759 0
-11670 -4758 4759 0
11670 4758 0
11670 -4759 0
-11671 3050 -6260 0
11671 -3050 0
11671 6260 0
-11672 -3050 6260 0
11672 3050 0
11672 -6260 0
-11673 6277 -6278 0
11673 -6277 0
11673 6278 0
-11674 -6277 6278 0
11674 6277 0
11674 -6278 0
-11675 3091 -6296 0
11675 -3091 0
11675 6296 0
-11676 -3091 6296 0
11676 3091 0
11676 -6296 0
-11677 -361 7470 0
11677 361 0
11677 -7470 0
-11678 361 -7470 0
11678 -361 0
11678 7470 0
-11679 4857 -4858 0
11679 -4857 0
11679 4858 0
-11680 -4857 4858 0
11680 4857 0
11680 -4858 0
-11681 -3029 6246 0
11681 3029 0
11681 -6246 0
-11682 3029 -6246 0
11682 -3029 0
11682 6246 0
-11683 4467 -4468 0
11683 -4467 0
11683 4468 0
-11684 -4467 4468 0
11684 4467 0
11684 -4468 0
-11685 356 -3929 0
11685 -356 0
11685 3929 0
-11686 -356 3929 0
11686 356 0
11686 -3929 0
-11687 -487 7471 0
11687 487 0
11687 -7471 0
-11688 487 -7471 0
11688 -487 0
11688 7471 0
-11689 482 -4041 0
11689 -482 0
11689 4041 0
-11690 -482 4041 0
11690 482 0
11690 -4041 0
-11691 4603 -4604 0
11691 -4603 0
11691 4604 0
-11692 -4603 4604 0
11692 4603 0
11692 -4604 0
-11693 -614 7472 0
11693 614 0
11693 -7472 0
-11694 614 -7472 0
11694 -614 0
11694 7472 0
-11695 4150 -4151 0
11695 -4150 0
11695 4151 0
-11696 -4150 4151 0
11696 4150 0
11696 -4151 0
-11697 605 -604 0
11697 -605 0
11697 604 0
-11698 -605 604 0
11698 605 0
11698 -604 0
-11699 1102 -1097 0
11699 -1102 0
11699 1097 0
-11700 -1102 1097 0
11700 1102 0
11700 -1097 0
-11701 1104 -3588 0
11701 -1104 0
11701 3588 0
-11702 -1104 3588 0
11702 1104 0
11702 -3588 0
-11703 1105 -1100 0
11703 -1105 0
11703 1100 0
-11704 -1105 1100 0
11704 1105 0
11704 -1100 0
-11705 1107 -1103 0
11705 -1107 0
11705 1103 0
-11706 -1107 1103 0
11706 1107 0
11706 -1103 0
-11707 1108 -4298 0
11707 -1108 0
11707 4298 0
-11708 -1108 4298 0
11708 1108 0
11708 -4298 0
-11709 92 -91 0
11709 -92 0
11709 91 0
-11710 -92 91 0
11710 92 0
11710 -91 0
-11711 3746 -3747 0
11711 -3746 0
11711 3747 0
-11712 -3746 3747 0
11712 3746 0
11712 -3747 0
-11713 2299 -1573 0
11713 -2299 0
11713 1573 0
-11714 -2299 1573 0
11714 2299 0
11714 -1573 0
-11715 2543 -1880 0
11715 -2543 0
11715 1880 0
-11716 -2543 1880 0
11716 2543 0
11716 -1880 0
-11717 1882 -2416 0
11717 -1882 0
11717 2416 0
-11718 -1882 2416 0
11718 1882 0
11718 -2416 0
-11719 2420 -1728 0
11719 -2420 0
11719 1728 0
-11720 -2420 1728 0
11720 2420 0
11720 -1728 0
-11721 2028 -2538 0
11721 -2028 0
11721 2538 0
-11722 -2028 2538 0
11722 2028 0
11722 -2538 0
-11723 3927 -3928 0
11723 -3927 0
11723 3928 0
-11724 -3927 3928 0
11724 3927 0
11724 -3928 0
-11725 352 -351 0
11725 -352 0
11725 351 0
-11726 -352 351 0
11726 352 0
11726 -351 0
-11727 1574 -2228 0
11727 -1574 0
11727 2228 0
-11728 -1574 2228 0
11728 1574 0
11728 -2228 0
-11729 1099 -3284 0
11729 -1099 0
11729 3284 0
-11730 -1099 3284 0
11730 1099 0
11730 -3284 0
-11731 1098 -3373 0
11731 -1098 0
11731 3373 0
-11732 -1098 3373 0
11732 1098 0
11732 -3373 0
-11733 1101 -3462 0
11733 -1101 0
11733 3462 0
-11734 -1101 3462 0
11734 1101 0
11734 -3462 0
-11735 478 -477 0
11735 -478 0
11735 477 0
-11736 -478 477 0
11736 478 0
11736 -477 0
-11737 4039 -4040 0
11737 -4039 0
11737 4040 0
-11738 -4039 4040 0
11738 4039 0
11738 -4040 0
-11739 5502 -2026 0
11739 -5502 0
11739 2026 0
-11740 -5502 2026 0
11740 5502 0
11740 -2026 0
-11741 1729 -2294 0
11741 -1729 0
11741 2294 0
-11742 -1729 2294 0
11742 1729 0
11742 -2294 0
-11743 1785 -2748 0
11743 -1785 0
11743 2748 0
-11744 -1785 2748 0
11744 1785 0
11744 -2748 0
-11745 5808 -2080 0
11745 -5808 0
11745 2080 0
-11746 -5808 2080 0
11746 5808 0
11746 -2080 0
-11747 98 -2125 0
11747 -98 0
11747 2125 0
-11748 -98 2125 0
11748 98 0
11748 -2125 0
-11749 150 -2640 0
11749 -150 0
11749 2640 0
-11750 -150 2640 0
11750 150 0
11750 -2640 0
-11751 5904 -1631 0
11751 -5904 0
11751 1631 0
-11752 -5904 1631 0
11752 5904 0
11752 -1631 0
-11753 1936 -2792 0
11753 -1936 0
11753 2792 0
-11754 -1936 2792 0
11754 1936 0
11754 -2792 0
-11755 5965 -1784 0
11755 -5965 0
11755 1784 0
-11756 -5965 1784 0
11756 5965 0
11756 -1784 0
-11757 2082 -2828 0
11757 -2082 0
11757 2828 0
-11758 -2082 2828 0
11758 2082 0
11758 -2828 0
-11759 1632 -2693 0
11759 -1632 0
11759 2693 0
-11760 -1632 2693 0
11760 1632 0
11760 -2693 0
-11761 6042 -1935 0
11761 -6042 0
11761 1935 0
-11762 -6042 1935 0
11762 6042 0
11762 -1935 0
-11763 1197 -3240 0
11763 -1197 0
11763 3240 0
-11764 -1197 3240 0
11764 1197 0
11764 -3240 0
-11765 1198 -3242 0
11765 -1198 0
11765 3242 0
-11766 -1198 3242 0
11766 1198 0
11766 -3242 0
-11767 1201 -3443 0
11767 -1201 0
11767 3443 0
-11768 -1201 3443 0
11768 1201 0
11768 -3443 0
-11769 1200 -1196 0
11769 -1200 0
11769 1196 0
-11770 -1200 1196 0
11770 1200 0
11770 -1196 0
-11771 1203 -1199 0
11771 -1203 0
11771 1199 0
-11772 -1203 1199 0
11772 1203 0
11772 -1199 0
-11773 1204 -3523 0
11773 -1204 0
11773 3523 0
-11774 -1204 3523 0
11774 1204 0
11774 -3523 0
-11775 1206 -1202 0
11775 -1206 0
11775 1202 0
-11776 -1206 1202 0
11776 1206 0
11776 -1202 0
-11777 1207 -3630 0
11777 -1207 0
11777 3630 0
-11778 -1207 3630 0
11778 1207 0
11778 -3630 0
-11779 1209 -3748 0
11779 -1209 0
11779 3748 0
-11780 -1209 3748 0
11780 1209 0
11780 -3748 0
-11781 1210 -1205 0
11781 -1210 0
11781 1205 0
-11782 -1210 1205 0
11782 1210 0
11782 -1205 0
-11783 1213 -4316 0
11783 -1213 0
11783 4316 0
-11784 -1213 4316 0
11784 1213 0
11784 -4316 0
-11785 1212 -1208 0
11785 -1212 0
11785 1208 0
-11786 -1212 1208 0
11786 1212 0
11786 -1208 0
-11787 1215 -4317 0
11787 -1215 0
11787 4317 0
-11788 -1215 4317 0
11788 1215 0
11788 -4317 0
-11789 1216 -1211 0
11789 -1216 0
11789 1211 0
-11790 -1216 1211 0
11790 1216 0
11790 -1211 0
-11791 2695 -5852 0
11791 -2695 0
11791 5852 0
-11792 -2695 5852 0
11792 2695 0
11792 -5852 0
-11793 1881 -4781 0
11793 -1881 0
11793 4781 0
-11794 -1881 4781 0
11794 1881 0
11794 -4781 0
-11795 2027 -4879 0
11795 -2027 0
11795 4879 0
-11796 -2027 4879 0
11796 2027 0
11796 -4879 0
-11797 1575 -4484 0
11797 -1575 0
11797 4484 0
-11798 -1575 4484 0
11798 1575 0
11798 -4484 0
-11799 1730 -4627 0
11799 -1730 0
11799 4627 0
-11800 -1730 4627 0
11800 1730 0
11800 -4627 0
-11801 -2125 7473 0
11801 2125 0
11801 -7473 0
-11802 2125 -7473 0
11802 -2125 0
11802 7473 0
-11803 4654 -2332 0
11803 -4654 0
11803 2332 0
-11804 -4654 2332 0
11804 4654 0
11804 -2332 0
-11805 2070 -2069 0
11805 -2070 0
11805 2069 0
-11806 -2070 2069 0
11806 2070 0
11806 -2069 0
-11807 693 -4230 0
11807 -693 0
11807 4230 0
-11808 -693 4230 0
11808 693 0
11808 -4230 0
-11809 691 -690 0
11809 -691 0
11809 690 0
-11810 -691 690 0
11810 691 0
11810 -690 0
-11811 4231 -692 0
11811 -4231 0
11811 692 0
-11812 -4231 692 0
11812 4231 0
11812 -692 0
-11813 4232 -4233 0
11813 -4232 0
11813 4233 0
-11814 -4232 4233 0
11814 4232 0
11814 -4233 0
-11815 4808 -2456 0
11815 -4808 0
11815 2456 0
-11816 -4808 2456 0
11816 4808 0
11816 -2456 0
-11817 301 -300 0
11817 -301 0
11817 300 0
-11818 -301 300 0
11818 301 0
11818 -300 0
-11819 303 -3881 0
11819 -303 0
11819 3881 0
-11820 -303 3881 0
11820 303 0
11820 -3881 0
-11821 3883 -3884 0
11821 -3883 0
11821 3884 0
-11822 -3883 3884 0
11822 3883 0
11822 -3884 0
-11823 3885 -302 0
11823 -3885 0
11823 302 0
-11824 -3885 302 0
11824 3885 0
11824 -302 0
-11825 311 -2209 0
11825 -311 0
11825 2209 0
-11826 -311 2209 0
11826 311 0
11826 -2209 0
-11827 1773 -1772 0
11827 -1773 0
11827 1772 0
-11828 -1773 1772 0
11828 1773 0
11828 -1772 0
-11829 4905 -2580 0
11829 -4905 0
11829 2580 0
-11830 -4905 2580 0
11830 4905 0
11830 -2580 0
-11831 438 -437 0
11831 -438 0
11831 437 0
-11832 -438 437 0
11832 438 0
11832 -437 0
-11833 440 -4007 0
11833 -440 0
11833 4007 0
-11834 -440 4007 0
11834 440 0
11834 -4007 0
-11835 4008 -4009 0
11835 -4008 0
11835 4009 0
-11836 -4008 4009 0
11836 4008 0
11836 -4009 0
-11837 4010 -439 0
11837 -4010 0
11837 439 0
-11838 -4010 439 0
11838 4010 0
11838 -439 0
-11839 1924 -1923 0
11839 -1924 0
11839 1923 0
-11840 -1924 1923 0
11840 1924 0
11840 -1923 0
-11841 567 -4118 0
11841 -567 0
11841 4118 0
-11842 -567 4118 0
11842 567 0
11842 -4118 0
-11843 565 -564 0
11843 -565 0
11843 564 0
-11844 -565 564 0
11844 565 0
11844 -564 0
-11845 4119 -4120 0
11845 -4119 0
11845 4120 0
-11846 -4119 4120 0
11846 4119 0
11846 -4120 0
-11847 4121 -566 0
11847 -4121 0
11847 566 0
-11848 -4121 566 0
11848 4121 0
11848 -566 0
-11849 1619 -2246 0
11849 -1619 0
11849 2246 0
-11850 -1619 2246 0
11850 1619 0
11850 -2246 0
-11851 1257 -3310 0
11851 -1257 0
11851 3310 0
-11852 -1257 3310 0
11852 1257 0
11852 -3310 0
-11853 1256 -3309 0
11853 -1256 0
11853 3309 0
-11854 -1256 3309 0
11854 1256 0
11854 -3309 0
-11855 1259 -3447 0
11855 -1259 0
11855 3447 0
-11856 -1259 3447 0
11856 1259 0
11856 -3447 0
-11857 1260 -1255 0
11857 -1260 0
11857 1255 0
-11858 -1260 1255 0
11858 1260 0
11858 -1255 0
-11859 1262 -3517 0
11859 -1262 0
11859 3517 0
-11860 -1262 3517 0
11860 1262 0
11860 -3517 0
-11861 1263 -1258 0
11861 -1263 0
11861 1258 0
-11862 -1263 1258 0
11862 1263 0
11862 -1258 0
-11863 1265 -3572 0
11863 -1265 0
11863 3572 0
-11864 -1265 3572 0
11864 1265 0
11864 -3572 0
-11865 1266 -1261 0
11865 -1266 0
11865 1261 0
-11866 -1266 1261 0
11866 1266 0
11866 -1261 0
-11867 2334 -1617 0
11867 -2334 0
11867 1617 0
-11868 -2334 1617 0
11868 2334 0
11868 -1617 0
-11869 -1923 7474 0
11869 1923 0
11869 -7474 0
-11870 1923 -7474 0
11870 -1923 0
11870 7474 0
-11871 -2069 7475 0
11871 2069 0
11871 -7475 0
-11872 2069 -7475 0
11872 -2069 0
11872 7475 0
-11873 -1772 7476 0
11873 1772 0
11873 -7476 0
-11874 1772 -7476 0
11874 -1772 0
11874 7476 0
-11875 4655 -4656 0
11875 -4655 0
11875 4656 0
-11876 -4655 4656 0
11876 4655 0
11876 -4656 0
-11877 2696 -5850 0
11877 -2696 0
11877 5850 0
-11878 -2696 5850 0
11878 2696 0
11878 -5850 0
-11879 4806 -4807 0
11879 -4806 0
11879 4807 0
-11880 -4806 4807 0
11880 4806 0
11880 -4807 0
-11881 310 -3886 0
11881 -310 0
11881 3886 0
-11882 -310 3886 0
11882 310 0
11882 -3886 0
-11883 4906 -4907 0
11883 -4906 0
11883 4907 0
-11884 -4906 4907 0
11884 4906 0
11884 -4907 0
-11885 1618 -4505 0
11885 -1618 0
11885 4505 0
-11886 -1618 4505 0
11886 1618 0
11886 -4505 0
-11887 1789 -2358 0
11887 -1789 0
11887 2358 0
-11888 -1789 2358 0
11888 1789 0
11888 -2358 0
-11889 -2254 2255 0
11889 2254 0
11889 -2255 0
-11890 2254 -2255 0
11890 -2254 0
11890 2255 0
-11891 739 -3306 0
11891 -739 0
11891 3306 0
-11892 -739 3306 0
11892 739 0
11892 -3306 0
-11893 740 -3411 0
11893 -740 0
11893 3411 0
-11894 -740 3411 0
11894 740 0
11894 -3411 0
-11895 4245 -738 0
11895 -4245 0
11895 738 0
-11896 -4245 738 0
11896 4245 0
11896 -738 0
-11897 4246 -3553 0
11897 -4246 0
11897 3553 0
-11898 -4246 3553 0
11898 4246 0
11898 -3553 0
-11899 746 -3891 0
11899 -746 0
11899 3891 0
-11900 -746 3891 0
11900 746 0
11900 -3891 0
-11901 744 -743 0
11901 -744 0
11901 743 0
-11902 -744 743 0
11902 744 0
11902 -743 0
-11903 748 -4248 0
11903 -748 0
11903 4248 0
-11904 -748 4248 0
11904 748 0
11904 -4248 0
-11905 749 -745 0
11905 -749 0
11905 745 0
-11906 -749 745 0
11906 749 0
11906 -745 0
-11907 2364 -1634 0
11907 -2364 0
11907 1634 0
-11908 -2364 1634 0
11908 2364 0
11908 -1634 0
-11909 2230 -2229 0
11909 -2230 0
11909 2229 0
-11910 -2230 2229 0
11910 2230 0
11910 -2229 0
-11911 1636 -2254 0
11911 -1636 0
11911 2254 0
-11912 -1636 2254 0
11912 1636 0
11912 -2254 0
-11913 2084 -2083 0
11913 -2084 0
11913 2083 0
-11914 -2084 2083 0
11914 2084 0
11914 -2083 0
-11915 3705 -3706 0
11915 -3705 0
11915 3706 0
-11916 -3705 3706 0
11916 3705 0
11916 -3706 0
-11917 3707 -3708 0
11917 -3707 0
11917 3708 0
-11918 -3707 3708 0
11918 3707 0
11918 -3708 0
-11919 4818 -2480 0
11919 -4818 0
11919 2480 0
-11920 -4818 2480 0
11920 4818 0
11920 -2480 0
-11921 3901 -3902 0
11921 -3901 0
11921 3902 0
-11922 -3901 3902 0
11922 3901 0
11922 -3902 0
-11923 3903 -3904 0
11923 -3903 0
11923 3904 0
-11924 -3903 3904 0
11924 3903 0
11924 -3904 0
-11925 4014 -4015 0
11925 -4014 0
11925 4015 0
-11926 -4014 4015 0
11926 4014 0
11926 -4015 0
-11927 4016 -4017 0
11927 -4016 0
11927 4017 0
-11928 -4016 4017 0
11928 4016 0
11928 -4017 0
-11929 1939 -1938 0
11929 -1939 0
11929 1938 0
-11930 -1939 1938 0
11930 1939 0
11930 -1938 0
-11931 4125 -4126 0
11931 -4125 0
11931 4126 0
-11932 -4125 4126 0
11932 4125 0
11932 -4126 0
-11933 4127 -4128 0
11933 -4127 0
11933 4128 0
-11934 -4127 4128 0
11934 4127 0
11934 -4128 0
-11935 34 -2621 0
11935 -34 0
11935 2621 0
-11936 -34 2621 0
11936 34 0
11936 -2621 0
-11937 320 -2214 0
11937 -320 0
11937 2214 0
-11938 -320 2214 0
11938 320 0
11938 -2214 0
-11939 4247 -3672 0
11939 -4247 0
11939 3672 0
-11940 -4247 3672 0
11940 4247 0
11940 -3672 0
-11941 742 -741 0
11941 -742 0
11941 741 0
-11942 -742 741 0
11942 742 0
11942 -741 0
-11943 2601 -2600 0
11943 -2601 0
11943 2600 0
-11944 -2601 2600 0
11944 2601 0
11944 -2600 0
-11945 5126 -5127 0
11945 -5126 0
11945 5127 0
-11946 -5126 5127 0
11946 5126 0
11946 -5127 0
-11947 -741 7498 0
11947 741 0
11947 -7498 0
-11948 741 -7498 0
11948 -741 0
11948 7498 0
-11949 -743 7499 0
11949 743 0
11949 -7499 0
-11950 743 -7499 0
11950 -743 0
11950 7499 0
-11951 -2600 7500 0
11951 2600 0
11951 -7500 0
-11952 2600 -7500 0
11952 -2600 0
11952 7500 0
-11953 -2621 7501 0
11953 2621 0
11953 -7501 0
-11954 2621 -7501 0
11954 -2621 0
11954 7501 0
-11955 2359 -5635 0
11955 -2359 0
11955 5635 0
-11956 -2359 5635 0
11956 2359 0
11956 -5635 0
-11957 2360 -5636 0
11957 -2360 0
11957 5636 0
-11958 -2360 5636 0
11958 2360 0
11958 -5636 0
-11959 2361 -5637 0
11959 -2361 0
11959 5637 0
-11960 -2361 5637 0
11960 2361 0
11960 -5637 0
-11961 2363 -5639 0
11961 -2363 0
11961 5639 0
-11962 -2363 5639 0
11962 2363 0
11962 -5639 0
-11963 5962 -5963 0
11963 -5962 0
11963 5963 0
-11964 -5962 5963 0
11964 5962 0
11964 -5963 0
-11965 2485 -1787 0
11965 -2485 0
11965 1787 0
-11966 -2485 1787 0
11966 2485 0
11966 -1787 0
-11967 -1938 7502 0
11967 1938 0
11967 -7502 0
-11968 1938 -7502 0
11968 -1938 0
11968 7502 0
-11969 -2083 7503 0
11969 2083 0
11969 -7503 0
-11970 2083 -7503 0
11970 -2083 0
11970 7503 0
-11971 752 -3245 0
11971 -752 0
11971 3245 0
-11972 -752 3245 0
11972 752 0
11972 -3245 0
-11973 751 -3246 0
11973 -751 0
11973 3246 0
-11974 -751 3246 0
11974 751 0
11974 -3246 0
-11975 754 -3431 0
11975 -754 0
11975 3431 0
-11976 -754 3431 0
11976 754 0
11976 -3431 0
-11977 755 -750 0
11977 -755 0
11977 750 0
-11978 -755 750 0
11978 755 0
11978 -750 0
-11979 757 -3519 0
11979 -757 0
11979 3519 0
-11980 -757 3519 0
11980 757 0
11980 -3519 0
-11981 758 -753 0
11981 -758 0
11981 753 0
-11982 -758 753 0
11982 758 0
11982 -753 0
-11983 760 -756 0
11983 -760 0
11983 756 0
-11984 -760 756 0
11984 760 0
11984 -756 0
-11985 761 -3686 0
11985 -761 0
11985 3686 0
-11986 -761 3686 0
11986 761 0
11986 -3686 0
-11987 2038 -2037 0
11987 -2038 0
11987 2037 0
-11988 -2038 2037 0
11988 2038 0
11988 -2037 0
-11989 699 -4236 0
11989 -699 0
11989 4236 0
-11990 -699 4236 0
11990 699 0
11990 -4236 0
-11991 697 -696 0
11991 -697 0
11991 696 0
-11992 -697 696 0
11992 697 0
11992 -696 0
-11993 701 -698 0
11993 -701 0
11993 698 0
-11994 -701 698 0
11994 701 0
11994 -698 0
-11995 702 -3894 0
11995 -702 0
11995 3894 0
-11996 -702 3894 0
11996 702 0
11996 -3894 0
-11997 4787 -2422 0
11997 -4787 0
11997 2422 0
-11998 -4787 2422 0
11998 4787 0
11998 -2422 0
-11999 -12000 3895 3897 3899 3893 0
11999 12000 0
11999 -3895 0
11999 -3897 0
11999 -3899 0
11999 -3893 0
-12001 12000 -3895 0
12001 -12000 0
12001 3895 0
-12002 12000 -3897 0
12002 -12000 0
12002 3897 0
-12003 12000 -3899 0
12003 -12000 0
12003 3899 0
-12004 12000 -3893 0
12004 -12000 0
12004 3893 0
-12005 1741 -1740 0
12005 -1741 0
12005 1740 0
-12006 -1741 1740 0
12006 1741 0
12006 -1740 0
-12007 4887 -2544 0
12007 -4887 0
12007 2544 0
-12008 -4887 2544 0
12008 4887 0
12008 -2544 0
-12009 444 -443 0
12009 -444 0
12009 443 0
-12010 -444 443 0
12010 444 0
12010 -443 0
-12011 446 -4013 0
12011 -446 0
12011 4013 0
-12012 -446 4013 0
12012 446 0
12012 -4013 0
-12013 448 -3898 0
12013 -448 0
12013 3898 0
-12014 -448 3898 0
12014 448 0
12014 -3898 0
-12015 449 -445 0
12015 -449 0
12015 445 0
-12016 -449 445 0
12016 449 0
12016 -445 0
-12017 1892 -1891 0
12017 -1892 0
12017 1891 0
-12018 -1892 1891 0
12018 1892 0
12018 -1891 0
-12019 573 -4124 0
12019 -573 0
12019 4124 0
-12020 -573 4124 0
12020 573 0
12020 -4124 0
-12021 571 -570 0
12021 -571 0
12021 570 0
-12022 -571 570 0
12022 571 0
12022 -570 0
-12023 575 -572 0
12023 -575 0
12023 572 0
-12024 -575 572 0
12024 575 0
12024 -572 0
-12025 576 -3900 0
12025 -576 0
12025 3900 0
-12026 -576 3900 0
12026 576 0
12026 -3900 0
-12027 1585 -1584 0
12027 -1585 0
12027 1584 0
-12028 -1585 1584 0
12028 1585 0
12028 -1584 0
-12029 4631 -2300 0
12029 -4631 0
12029 2300 0
-12030 -4631 2300 0
12030 4631 0
12030 -2300 0
-12031 313 -312 0
12031 -313 0
12031 312 0
-12032 -313 312 0
12032 313 0
12032 -312 0
-12033 318 -3890 0
12033 -318 0
12033 3890 0
-12034 -318 3890 0
12034 318 0
12034 -3890 0
-12035 323 -317 0
12035 -323 0
12035 317 0
-12036 -323 317 0
12036 323 0
12036 -317 0
-12037 324 -3892 0
12037 -324 0
12037 3892 0
-12038 -324 3892 0
12038 324 0
12038 -3892 0
-12039 3895 -3896 0
12039 -3895 0
12039 3896 0
-12040 -3895 3896 0
12040 3895 0
12040 -3896 0
-12041 -1891 7504 0
12041 1891 0
12041 -7504 0
-12042 1891 -7504 0
12042 -1891 0
12042 7504 0
-12043 -2037 7505 0
12043 2037 0
12043 -7505 0
-12044 2037 -7505 0
12044 -2037 0
12044 7505 0
-12045 -1740 7506 0
12045 1740 0
12045 -7506 0
-12046 1740 -7506 0
12046 -1740 0
12046 7506 0
-12047 2303 -5595 0
12047 -2303 0
12047 5595 0
-12048 -2303 5595 0
12048 2303 0
12048 -5595 0
-12049 2304 -5596 0
12049 -2304 0
12049 5596 0
-12050 -2304 5596 0
12050 2304 0
12050 -5596 0
-12051 -2214 7507 0
12051 2214 0
12051 -7507 0
-12052 2214 -7507 0
12052 -2214 0
12052 7507 0
-12053 -1584 7508 0
12053 1584 0
12053 -7508 0
-12054 1584 -7508 0
12054 -1584 0
12054 7508 0
-12055 4885 -4886 0
12055 -4885 0
12055 4886 0
-12056 -4885 4886 0
12056 4885 0
12056 -4886 0
-12057 4785 -4786 0
12057 -4785 0
12057 4786 0
-12058 -4785 4786 0
12058 4785 0
12058 -4786 0
-12059 2362 -5638 0
12059 -2362 0
12059 5638 0
-12060 -2362 5638 0
12060 2362 0
12060 -5638 0
-12061 2486 -5704 0
12061 -2486 0
12061 5704 0
-12062 -2486 5704 0
12062 2486 0
12062 -5704 0
-12063 5771 -5772 0
12063 -5771 0
12063 5772 0
-12064 -5771 5772 0
12064 5771 0
12064 -5772 0
-12065 4632 -4633 0
12065 -4632 0
12065 4633 0
-12066 -4632 4633 0
12066 4632 0
12066 -4633 0
-12067 33 -3709 0
12067 -33 0
12067 3709 0
-12068 -33 3709 0
12068 33 0
12068 -3709 0
-12069 1788 -4663 0
12069 -1788 0
12069 4663 0
-12070 -1788 4663 0
12070 1788 0
12070 -4663 0
-12071 2694 -5851 0
12071 -2694 0
12071 5851 0
-12072 -2694 5851 0
12072 2694 0
12072 -5851 0
-12073 4816 -4817 0
12073 -4816 0
12073 4817 0
-12074 -4816 4817 0
12074 4816 0
12074 -4817 0
-12075 4914 -4915 0
12075 -4914 0
12075 4915 0
-12076 -4914 4915 0
12076 4914 0
12076 -4915 0
-12077 1635 -4513 0
12077 -1635 0
12077 4513 0
-12078 -1635 4513 0
12078 1635 0
12078 -4513 0
-12079 1786 -4662 0
12079 -1786 0
12079 4662 0
-12080 -1786 4662 0
12080 1786 0
12080 -4662 0
-12081 -95 7577 0
12081 95 0
12081 -7577 0
-12082 95 -7577 0
12082 -95 0
12082 7577 0
-12083 151 -3780 0
12083 -151 0
12083 3780 0
-12084 -151 3780 0
12084 151 0
12084 -3780 0
-12085 6235 -6236 0
12085 -6235 0
12085 6236 0
-12086 -6235 6236 0
12086 6235 0
12086 -6236 0
-12087 1937 -4815 0
12087 -1937 0
12087 4815 0
-12088 -1937 4815 0
12088 1937 0
12088 -4815 0
-12089 -353 7578 0
12089 353 0
12089 -7578 0
-12090 353 -7578 0
12090 -353 0
12090 7578 0
-12091 2081 -4913 0
12091 -2081 0
12091 4913 0
-12092 -2081 4913 0
12092 2081 0
12092 -4913 0
-12093 1633 -4512 0
12093 -1633 0
12093 4512 0
-12094 -1633 4512 0
12094 1633 0
12094 -4512 0
-12095 -479 7579 0
12095 479 0
12095 -7579 0
-12096 479 -7579 0
12096 -479 0
12096 7579 0
-12097 -606 7580 0
12097 606 0
12097 -7580 0
-12098 606 -7580 0
12098 -606 0
12098 7580 0
-12099 -664 7621 0
12099 664 0
12099 -7621 0
-12100 664 -7621 0
12100 -664 0
12100 7621 0
-12101 -30 7622 0
12101 30 0
12101 -7622 0
-12102 30 -7622 0
12102 -30 0
12102 7622 0
-12103 -105 7623 0
12103 105 0
12103 -7623 0
-12104 105 -7623 0
12104 -105 0
12104 7623 0
-12105 -110 7624 0
12105 110 0
12105 -7624 0
-12106 110 -7624 0
12106 -110 0
12106 7624 0
-12107 -120 7625 0
12107 120 0
12107 -7625 0
-12108 120 -7625 0
12108 -120 0
12108 7625 0
-12109 125 -3764 0
12109 -125 0
12109 3764 0
-12110 -125 3764 0
12110 125 0
12110 -3764 0
-12111 3782 -3783 0
12111 -3782 0
12111 3783 0
-12112 -3782 3783 0
12112 3782 0
12112 -3783 0
-12113 4762 -4763 0
12113 -4762 0
12113 4763 0
-12114 -4762 4763 0
12114 4762 0
12114 -4763 0
-12115 6237 -6238 0
12115 -6237 0
12115 6238 0
-12116 -6237 6238 0
12116 6237 0
12116 -6238 0
-12117 -2640 7626 0
12117 2640 0
12117 -7626 0
-12118 2640 -7626 0
12118 -2640 0
12118 7626 0
-12119 -234 7627 0
12119 234 0
12119 -7627 0
-12120 234 -7627 0
12120 -234 0
12120 7627 0
-12121 3038 -6248 0
12121 -3038 0
12121 6248 0
-12122 -3038 6248 0
12122 3038 0
12122 -6248 0
-12123 3054 -6263 0
12123 -3054 0
12123 6263 0
-12124 -3054 6263 0
12124 3054 0
12124 -6263 0
-12125 -2748 7628 0
12125 2748 0
12125 -7628 0
-12126 2748 -7628 0
12126 -2748 0
12126 7628 0
-12127 -2792 7629 0
12127 2792 0
12127 -7629 0
-12128 2792 -7629 0
12128 -2792 0
12128 7629 0
-12129 -2828 7630 0
12129 2828 0
12129 -7630 0
-12130 2828 -7630 0
12130 -2828 0
12130 7630 0
-12131 -325 7631 0
12131 325 0
12131 -7631 0
-12132 325 -7631 0
12132 -325 0
12132 7631 0
-12133 3078 -6285 0
12133 -3078 0
12133 6285 0
-12134 -3078 6285 0
12134 3078 0
12134 -6285 0
-12135 -357 7632 0
12135 357 0
12135 -7632 0
-12136 357 -7632 0
12136 -357 0
12136 7632 0
-12137 -359 7633 0
12137 359 0
12137 -7633 0
-12138 359 -7633 0
12138 -359 0
12138 7633 0
-12139 -363 7634 0
12139 363 0
12139 -7634 0
-12140 363 -7634 0
12140 -363 0
12140 7634 0
-12141 4860 -4861 0
12141 -4860 0
12141 4861 0
-12142 -4860 4861 0
12142 4860 0
12142 -4861 0
-12143 4469 -4470 0
12143 -4469 0
12143 4470 0
-12144 -4469 4470 0
12144 4469 0
12144 -4470 0
-12145 -409 7635 0
12145 409 0
12145 -7635 0
-12146 409 -7635 0
12146 -409 0
12146 7635 0
-12147 -450 7636 0
12147 450 0
12147 -7636 0
-12148 450 -7636 0
12148 -450 0
12148 7636 0
-12149 412 -3980 0
12149 -412 0
12149 3980 0
-12150 -412 3980 0
12150 412 0
12150 -3980 0
-12151 -483 7637 0
12151 483 0
12151 -7637 0
-12152 483 -7637 0
12152 -483 0
12152 7637 0
-12153 -485 7638 0
12153 485 0
12153 -7638 0
-12154 485 -7638 0
12154 -485 0
12154 7638 0
-12155 -489 7639 0
12155 489 0
12155 -7639 0
-12156 489 -7639 0
12156 -489 0
12156 7639 0
-12157 -536 7640 0
12157 536 0
12157 -7640 0
-12158 536 -7640 0
12158 -536 0
12158 7640 0
-12159 -577 7641 0
12159 577 0
12159 -7641 0
-12160 577 -7641 0
12160 -577 0
12160 7641 0
-12161 4607 -4608 0
12161 -4607 0
12161 4608 0
-12162 -4607 4608 0
12162 4607 0
12162 -4608 0
-12163 539 -4091 0
12163 -539 0
12163 4091 0
-12164 -539 4091 0
12164 539 0
12164 -4091 0
-12165 -610 7642 0
12165 610 0
12165 -7642 0
-12166 610 -7642 0
12166 -610 0
12166 7642 0
-12167 -612 7643 0
12167 612 0
12167 -7643 0
-12168 612 -7643 0
12168 -612 0
12168 7643 0
-12169 -616 7644 0
12169 616 0
12169 -7644 0
-12170 616 -7644 0
12170 -616 0
12170 7644 0
-12171 72 -71 0
12171 -72 0
12171 71 0
-12172 -72 71 0
12172 72 0
12172 -71 0
-12173 77 -3733 0
12173 -77 0
12173 3733 0
-12174 -77 3733 0
12174 77 0
12174 -3733 0
-12175 3735 -76 0
12175 -3735 0
12175 76 0
-12176 -3735 76 0
12176 3735 0
12176 -76 0
-12177 3736 -3737 0
12177 -3736 0
12177 3737 0
-12178 -3736 3737 0
12178 3736 0
12178 -3737 0
-12179 2286 -1544 0
12179 -2286 0
12179 1544 0
-12180 -2286 1544 0
12180 2286 0
12180 -1544 0
-12181 1847 -2406 0
12181 -1847 0
12181 2406 0
-12182 -1847 2406 0
12182 1847 0
12182 -2406 0
-12183 2409 -1694 0
12183 -2409 0
12183 1694 0
-12184 -2409 1694 0
12184 2409 0
12184 -1694 0
-12185 1991 -2527 0
12185 -1991 0
12185 2527 0
-12186 -1991 2527 0
12186 1991 0
12186 -2527 0
-12187 1546 -2223 0
12187 -1546 0
12187 2223 0
-12188 -1546 2223 0
12188 1546 0
12188 -2223 0
-12189 3921 -3922 0
12189 -3921 0
12189 3922 0
-12190 -3921 3922 0
12190 3921 0
12190 -3922 0
-12191 346 -345 0
12191 -346 0
12191 345 0
-12192 -346 345 0
12192 346 0
12192 -345 0
-12193 1055 -3327 0
12193 -1055 0
12193 3327 0
-12194 -1055 3327 0
12194 1055 0
12194 -3327 0
-12195 1056 -3419 0
12195 -1056 0
12195 3419 0
-12196 -1056 3419 0
12196 1056 0
12196 -3419 0
-12197 1058 -3487 0
12197 -1058 0
12197 3487 0
-12198 -1058 3487 0
12198 1058 0
12198 -3487 0
-12199 1059 -1054 0
12199 -1059 0
12199 1054 0
-12200 -1059 1054 0
12200 1059 0
12200 -1054 0
-12201 1061 -1057 0
12201 -1061 0
12201 1057 0
-12202 -1061 1057 0
12202 1061 0
12202 -1057 0
-12203 1062 -3670 0
12203 -1062 0
12203 3670 0
-12204 -1062 3670 0
12204 1062 0
12204 -3670 0
-12205 2530 -1846 0
12205 -2530 0
12205 1846 0
-12206 -2530 1846 0
12206 2530 0
12206 -1846 0
-12207 5489 -1990 0
12207 -5489 0
12207 1990 0
-12208 -5489 1990 0
12208 5489 0
12208 -1990 0
-12209 1065 -4292 0
12209 -1065 0
12209 4292 0
-12210 -1065 4292 0
12210 1065 0
12210 -4292 0
-12211 1064 -1060 0
12211 -1064 0
12211 1060 0
-12212 -1064 1060 0
12212 1064 0
12212 -1060 0
-12213 1696 -2284 0
12213 -1696 0
12213 2284 0
-12214 -1696 2284 0
12214 1696 0
12214 -2284 0
-12215 600 -4145 0
12215 -600 0
12215 4145 0
-12216 -600 4145 0
12216 600 0
12216 -4145 0
-12217 598 -597 0
12217 -598 0
12217 597 0
-12218 -598 597 0
12218 598 0
12218 -597 0
-12219 602 -4146 0
12219 -602 0
12219 4146 0
-12220 -602 4146 0
12220 602 0
12220 -4146 0
-12221 603 -599 0
12221 -603 0
12221 599 0
-12222 -603 599 0
12222 603 0
12222 -599 0
-12223 4147 -4148 0
12223 -4147 0
12223 4148 0
-12224 -4147 4148 0
12224 4147 0
12224 -4148 0
-12225 4149 -601 0
12225 -4149 0
12225 601 0
-12226 -4149 601 0
12226 4149 0
12226 -601 0
-12227 82 -81 0
12227 -82 0
12227 81 0
-12228 -82 81 0
12228 82 0
12228 -81 0
-12229 87 -3739 0
12229 -87 0
12229 3739 0
-12230 -87 3739 0
12230 87 0
12230 -3739 0
-12231 3741 -3742 0
12231 -3741 0
12231 3742 0
-12232 -3741 3742 0
12232 3741 0
12232 -3742 0
-12233 3743 -86 0
12233 -3743 0
12233 86 0
-12234 -3743 86 0
12234 3743 0
12234 -86 0
-12235 1616 -1615 0
12235 -1616 0
12235 1615 0
-12236 -1616 1615 0
12236 1616 0
12236 -1615 0
-12237 350 -3923 0
12237 -350 0
12237 3923 0
-12238 -350 3923 0
12238 350 0
12238 -3923 0
-12239 348 -347 0
12239 -348 0
12239 347 0
-12240 -348 347 0
12240 348 0
12240 -347 0
-12241 3924 -3925 0
12241 -3924 0
12241 3925 0
-12242 -3924 3925 0
12242 3924 0
12242 -3925 0
-12243 3926 -349 0
12243 -3926 0
12243 349 0
-12244 -3926 349 0
12244 3926 0
12244 -349 0
-12245 1771 -1770 0
12245 -1771 0
12245 1770 0
-12246 -1771 1770 0
12246 1771 0
12246 -1770 0
-12247 2068 -2067 0
12247 -2068 0
12247 2067 0
-12248 -2068 2067 0
12248 2068 0
12248 -2067 0
-12249 473 -4034 0
12249 -473 0
12249 4034 0
-12250 -473 4034 0
12250 473 0
12250 -4034 0
-12251 471 -470 0
12251 -471 0
12251 470 0
-12252 -471 470 0
12252 471 0
12252 -470 0
-12253 475 -472 0
12253 -475 0
12253 472 0
-12254 -475 472 0
12254 475 0
12254 -472 0
-12255 476 -4035 0
12255 -476 0
12255 4035 0
-12256 -476 4035 0
12256 476 0
12256 -4035 0
-12257 4036 -4037 0
12257 -4036 0
12257 4037 0
-12258 -4036 4037 0
12258 4036 0
12258 -4037 0
-12259 4038 -474 0
12259 -4038 0
12259 474 0
-12260 -4038 474 0
12260 4038 0
12260 -474 0
-12261 1922 -1921 0
12261 -1922 0
12261 1921 0
-12262 -1922 1921 0
12262 1922 0
12262 -1921 0
-12263 -81 7651 0
12263 81 0
12263 -7651 0
-12264 81 -7651 0
12264 -81 0
12264 7651 0
-12265 2285 -5580 0
12265 -2285 0
12265 5580 0
-12266 -2285 5580 0
12266 2285 0
12266 -5580 0
-12267 -347 7652 0
12267 347 0
12267 -7652 0
-12268 347 -7652 0
12268 -347 0
12268 7652 0
-12269 2411 -5656 0
12269 -2411 0
12269 5656 0
-12270 -2411 5656 0
12270 2411 0
12270 -5656 0
-12271 2528 -5720 0
12271 -2528 0
12271 5720 0
-12272 -2528 5720 0
12272 2528 0
12272 -5720 0
-12273 588 -587 0
12273 -588 0
12273 587 0
-12274 -588 587 0
12274 588 0
12274 -587 0
-12275 592 -4140 0
12275 -592 0
12275 4140 0
-12276 -592 4140 0
12276 592 0
12276 -4140 0
-12277 593 -589 0
12277 -593 0
12277 589 0
-12278 -593 589 0
12278 593 0
12278 -589 0
-12279 595 -4141 0
12279 -595 0
12279 4141 0
-12280 -595 4141 0
12280 595 0
12280 -4141 0
-12281 596 -591 0
12281 -596 0
12281 591 0
-12282 -596 591 0
12282 596 0
12282 -591 0
-12283 4142 -4143 0
12283 -4142 0
12283 4143 0
-12284 -4142 4143 0
12284 4142 0
12284 -4143 0
-12285 4144 -594 0
12285 -4144 0
12285 594 0
-12286 -4144 594 0
12286 4144 0
12286 -594 0
-12287 338 -3915 0
12287 -338 0
12287 3915 0
-12288 -338 3915 0
12288 338 0
12288 -3915 0
-12289 336 -335 0
12289 -336 0
12289 335 0
-12290 -336 335 0
12290 336 0
12290 -335 0
-12291 340 -337 0
12291 -340 0
12291 337 0
-12292 -340 337 0
12292 340 0
12292 -337 0
-12293 341 -3916 0
12293 -341 0
12293 3916 0
-12294 -341 3916 0
12294 341 0
12294 -3916 0
-12295 343 -3917 0
12295 -343 0
12295 3917 0
-12296 -343 3917 0
12296 343 0
12296 -3917 0
-12297 344 -339 0
12297 -344 0
12297 339 0
-12298 -344 339 0
12298 344 0
12298 -339 0
-12299 3918 -342 0
12299 -3918 0
12299 342 0
-12300 -3918 342 0
12300 3918 0
12300 -342 0
-12301 3919 -3920 0
12301 -3919 0
12301 3920 0
-12302 -3919 3920 0
12302 3919 0
12302 -3920 0
-12303 2025 -2024 0
12303 -2025 0
12303 2024 0
-12304 -2025 2024 0
12304 2025 0
12304 -2024 0
-12305 463 -4028 0
12305 -463 0
12305 4028 0
-12306 -463 4028 0
12306 463 0
12306 -4028 0
-12307 461 -460 0
12307 -461 0
12307 460 0
-12308 -461 460 0
12308 461 0
12308 -460 0
-12309 465 -4029 0
12309 -465 0
12309 4029 0
-12310 -465 4029 0
12310 465 0
12310 -4029 0
-12311 466 -462 0
12311 -466 0
12311 462 0
-12312 -466 462 0
12312 466 0
12312 -462 0
-12313 468 -4030 0
12313 -468 0
12313 4030 0
-12314 -468 4030 0
12314 468 0
12314 -4030 0
-12315 469 -464 0
12315 -469 0
12315 464 0
-12316 -469 464 0
12316 469 0
12316 -464 0
-12317 4031 -4032 0
12317 -4031 0
12317 4032 0
-12318 -4031 4032 0
12318 4031 0
12318 -4032 0
-12319 4033 -467 0
12319 -4033 0
12319 467 0
-12320 -4033 467 0
12320 4033 0
12320 -467 0
-12321 590 -4139 0
12321 -590 0
12321 4139 0
-12322 -590 4139 0
12322 590 0
12322 -4139 0
-12323 5594 -1570 0
12323 -5594 0
12323 1570 0
-12324 -5594 1570 0
12324 5594 0
12324 -1570 0
-12325 1878 -2415 0
12325 -1878 0
12325 2415 0
-12326 -1878 2415 0
12326 1878 0
12326 -2415 0
-12327 5670 -1725 0
12327 -5670 0
12327 1725 0
-12328 -5670 1725 0
12328 5670 0
12328 -1725 0
-12329 942 -3236 0
12329 -942 0
12329 3236 0
-12330 -942 3236 0
12330 942 0
12330 -3236 0
-12331 941 -3238 0
12331 -941 0
12331 3238 0
-12332 -941 3238 0
12332 941 0
12332 -3238 0
-12333 944 -940 0
12333 -944 0
12333 940 0
-12334 -944 940 0
12334 944 0
12334 -940 0
-12335 945 -3347 0
12335 -945 0
12335 3347 0
-12336 -945 3347 0
12336 945 0
12336 -3347 0
-12337 947 -3454 0
12337 -947 0
12337 3454 0
-12338 -947 3454 0
12338 947 0
12338 -3454 0
-12339 948 -943 0
12339 -948 0
12339 943 0
-12340 -948 943 0
12340 948 0
12340 -943 0
-12341 950 -3578 0
12341 -950 0
12341 3578 0
-12342 -950 3578 0
12342 950 0
12342 -3578 0
-12343 951 -946 0
12343 -951 0
12343 946 0
-12344 -951 946 0
12344 951 0
12344 -946 0
-12345 1572 -2227 0
12345 -1572 0
12345 2227 0
-12346 -1572 2227 0
12346 1572 0
12346 -2227 0
-12347 5732 -1877 0
12347 -5732 0
12347 1877 0
-12348 -5732 1877 0
12348 5732 0
12348 -1877 0
-12349 1727 -2293 0
12349 -1727 0
12349 2293 0
-12350 -1727 2293 0
12350 1727 0
12350 -2293 0
-12351 -2293 7663 0
12351 2293 0
12351 -7663 0
-12352 2293 -7663 0
12352 -2293 0
12352 7663 0
-12353 -2415 7664 0
12353 2415 0
12353 -7664 0
-12354 2415 -7664 0
12354 -2415 0
12354 7664 0
-12355 56 -55 0
12355 -56 0
12355 55 0
-12356 -56 55 0
12356 56 0
12356 -55 0
-12357 61 -3725 0
12357 -61 0
12357 3725 0
-12358 -61 3725 0
12358 61 0
12358 -3725 0
-12359 66 -3727 0
12359 -66 0
12359 3727 0
-12360 -66 3727 0
12360 66 0
12360 -3727 0
-12361 67 -60 0
12361 -67 0
12361 60 0
-12362 -67 60 0
12362 67 0
12362 -60 0
-12363 3729 -3730 0
12363 -3729 0
12363 3730 0
-12364 -3729 3730 0
12364 3729 0
12364 -3730 0
-12365 3731 -65 0
12365 -3731 0
12365 65 0
-12366 -3731 65 0
12366 3731 0
12366 -65 0
-12367 -71 7672 0
12367 71 0
12367 -7672 0
-12368 71 -7672 0
12368 -71 0
12368 7672 0
-12369 -345 7673 0
12369 345 0
12369 -7673 0
-12370 345 -7673 0
12370 -345 0
12370 7673 0
-12371 -470 7674 0
12371 470 0
12371 -7674 0
-12372 470 -7674 0
12372 -470 0
12372 7674 0
-12373 -597 7675 0
12373 597 0
12373 -7675 0
-12374 597 -7675 0
12374 -597 0
12374 7675 0
-12375 1885 -3063 0
12375 -1885 0
12375 3063 0
-12376 -1885 3063 0
12376 1885 0
12376 -3063 0
-12377 211 -2917 0
12377 -211 0
12377 2917 0
-12378 -211 2917 0
12378 211 0
12378 -2917 0
-12379 3048 -1576 0
12379 -3048 0
12379 1576 0
-12380 -3048 1576 0
12380 3048 0
12380 -1576 0
-12381 3069 -1731 0
12381 -3069 0
12381 1731 0
-12382 -3069 1731 0
12382 3069 0
12382 -1731 0
-12383 3086 -1883 0
12383 -3086 0
12383 1883 0
-12384 -3086 1883 0
12384 3086 0
12384 -1883 0
-12385 -3027 3028 0
12385 3027 0
12385 -3028 0
-12386 3027 -3028 0
12386 -3027 0
12386 3028 0
-12387 937 -936 0
12387 -937 0
12387 936 0
-12388 -937 936 0
12388 937 0
12388 -936 0
-12389 939 -4276 0
12389 -939 0
12389 4276 0
-12390 -939 4276 0
12390 939 0
12390 -4276 0
-12391 2031 -3083 0
12391 -2031 0
12391 3083 0
-12392 -2031 3083 0
12392 2031 0
12392 -3083 0
-12393 1578 -3027 0
12393 -1578 0
12393 3027 0
-12394 -1578 3027 0
12394 1578 0
12394 -3027 0
-12395 1163 -3269 0
12395 -1163 0
12395 3269 0
-12396 -1163 3269 0
12396 1163 0
12396 -3269 0
-12397 1164 -3270 0
12397 -1164 0
12397 3270 0
-12398 -1164 3270 0
12398 1164 0
12398 -3270 0
-12399 1167 -3385 0
12399 -1167 0
12399 3385 0
-12400 -1167 3385 0
12400 1167 0
12400 -3385 0
-12401 1166 -1162 0
12401 -1166 0
12401 1162 0
-12402 -1166 1162 0
12402 1166 0
12402 -1162 0
-12403 1169 -1165 0
12403 -1169 0
12403 1165 0
-12404 -1169 1165 0
12404 1169 0
12404 -1165 0
-12405 1170 -3557 0
12405 -1170 0
12405 3557 0
-12406 -1170 3557 0
12406 1170 0
12406 -3557 0
-12407 1172 -3646 0
12407 -1172 0
12407 3646 0
-12408 -1172 3646 0
12408 1172 0
12408 -3646 0
-12409 1173 -1168 0
12409 -1173 0
12409 1168 0
-12410 -1173 1168 0
12410 1173 0
12410 -1168 0
-12411 1175 -4309 0
12411 -1175 0
12411 4309 0
-12412 -1175 4309 0
12412 1175 0
12412 -4309 0
-12413 1176 -1171 0
12413 -1176 0
12413 1171 0
-12414 -1176 1171 0
12414 1176 0
12414 -1171 0
-12415 1732 -3042 0
12415 -1732 0
12415 3042 0
-12416 -1732 3042 0
12416 1732 0
12416 -3042 0
-12417 2918 -2029 0
12417 -2918 0
12417 2029 0
-12418 -2918 2029 0
12418 2918 0
12418 -2029 0
-12419 2331 -2330 0
12419 -2331 0
12419 2330 0
-12420 -2331 2330 0
12420 2331 0
12420 -2330 0
-12421 70 -2913 0
12421 -70 0
12421 2913 0
-12422 -70 2913 0
12422 70 0
12422 -2913 0
-12423 80 -2122 0
12423 -80 0
12423 2122 0
-12424 -80 2122 0
12424 80 0
12424 -2122 0
-12425 90 -2124 0
12425 -90 0
12425 2124 0
-12426 -90 2124 0
12426 90 0
12426 -2124 0
-12427 1868 -3060 0
12427 -1868 0
12427 3060 0
-12428 -1868 3060 0
12428 1868 0
12428 -3060 0
-12429 6257 -1560 0
12429 -6257 0
12429 1560 0
-12430 -6257 1560 0
12430 6257 0
12430 -1560 0
-12431 6266 -1715 0
12431 -6266 0
12431 1715 0
-12432 -6266 1715 0
12432 6266 0
12432 -1715 0
-12433 2455 -2454 0
12433 -2455 0
12433 2454 0
-12434 -2455 2454 0
12434 2455 0
12434 -2454 0
-12435 6294 -1867 0
12435 -6294 0
12435 1867 0
-12436 -6294 1867 0
12436 6294 0
12436 -1867 0
-12437 920 -3173 0
12437 -920 0
12437 3173 0
-12438 -920 3173 0
12438 920 0
12438 -3173 0
-12439 919 -3433 0
12439 -919 0
12439 3433 0
-12440 -919 3433 0
12440 919 0
12440 -3433 0
-12441 922 -3499 0
12441 -922 0
12441 3499 0
-12442 -922 3499 0
12442 922 0
12442 -3499 0
-12443 923 -918 0
12443 -923 0
12443 918 0
-12444 -923 918 0
12444 923 0
12444 -918 0
-12445 925 -3626 0
12445 -925 0
12445 3626 0
-12446 -925 3626 0
12446 925 0
12446 -3626 0
-12447 926 -921 0
12447 -926 0
12447 921 0
-12448 -926 921 0
12448 926 0
12448 -921 0
-12449 928 -3734 0
12449 -928 0
12449 3734 0
-12450 -928 3734 0
12450 928 0
12450 -3734 0
-12451 929 -924 0
12451 -929 0
12451 924 0
-12452 -929 924 0
12452 929 0
12452 -924 0
-12453 932 -3740 0
12453 -932 0
12453 3740 0
-12454 -932 3740 0
12454 932 0
12454 -3740 0
-12455 931 -927 0
12455 -931 0
12455 927 0
-12456 -931 927 0
12456 931 0
12456 -927 0
-12457 934 -4272 0
12457 -934 0
12457 4272 0
-12458 -934 4272 0
12458 934 0
12458 -4272 0
-12459 935 -930 0
12459 -935 0
12459 930 0
-12460 -935 930 0
12460 935 0
12460 -930 0
-12461 4273 -4274 0
12461 -4273 0
12461 4274 0
-12462 -4273 4274 0
12462 4273 0
12462 -4274 0
-12463 4275 -933 0
12463 -4275 0
12463 933 0
-12464 -4275 933 0
12464 4275 0
12464 -933 0
-12465 2016 -3080 0
12465 -2016 0
12465 3080 0
-12466 -2016 3080 0
12466 2016 0
12466 -3080 0
-12467 2537 -2536 0
12467 -2537 0
12467 2536 0
-12468 -2537 2536 0
12468 2537 0
12468 -2536 0
-12469 1561 -3026 0
12469 -1561 0
12469 3026 0
-12470 -1561 3026 0
12470 1561 0
12470 -3026 0
-12471 2579 -2578 0
12471 -2579 0
12471 2578 0
-12472 -2579 2578 0
12472 2579 0
12472 -2578 0
-12473 1717 -3039 0
12473 -1717 0
12473 3039 0
-12474 -1717 3039 0
12474 1717 0
12474 -3039 0
-12475 6131 -2014 0
12475 -6131 0
12475 2014 0
-12476 -6131 2014 0
12476 6131 0
12476 -2014 0
-12477 69 -3728 0
12477 -69 0
12477 3728 0
-12478 -69 3728 0
12478 69 0
12478 -3728 0
-12479 1869 -4775 0
12479 -1869 0
12479 4775 0
-12480 -1869 4775 0
12480 1869 0
12480 -4775 0
-12481 -936 7676 0
12481 936 0
12481 -7676 0
-12482 936 -7676 0
12482 -936 0
12482 7676 0
-12483 2015 -4873 0
12483 -2015 0
12483 4873 0
-12484 -2015 4873 0
12484 2015 0
12484 -4873 0
-12485 1562 -4479 0
12485 -1562 0
12485 4479 0
-12486 -1562 4479 0
12486 1562 0
12486 -4479 0
-12487 1716 -4620 0
12487 -1716 0
12487 4620 0
-12488 -1716 4620 0
12488 1716 0
12488 -4620 0
-12489 2221 -2220 0
12489 -2221 0
12489 2220 0
-12490 -2221 2220 0
12490 2221 0
12490 -2220 0
-12491 954 -3206 0
12491 -954 0
12491 3206 0
-12492 -954 3206 0
12492 954 0
12492 -3206 0
-12493 953 -3204 0
12493 -953 0
12493 3204 0
-12494 -953 3204 0
12494 953 0
12494 -3204 0
-12495 956 -3379 0
12495 -956 0
12495 3379 0
-12496 -956 3379 0
12496 956 0
12496 -3379 0
-12497 957 -952 0
12497 -957 0
12497 952 0
-12498 -957 952 0
12498 957 0
12498 -952 0
-12499 959 -955 0
12499 -959 0
12499 955 0
-12500 -959 955 0
12500 959 0
12500 -955 0
-12501 960 -3535 0
12501 -960 0
12501 3535 0
-12502 -960 3535 0
12502 960 0
12502 -3535 0
-12503 962 -3674 0
12503 -962 0
12503 3674 0
-12504 -962 3674 0
12504 962 0
12504 -3674 0
-12505 963 -958 0
12505 -963 0
12505 958 0
-12506 -963 958 0
12506 963 0
12506 -958 0
-12507 2245 -2244 0
12507 -2245 0
12507 2244 0
-12508 -2245 2244 0
12508 2245 0
12508 -2244 0
-12509 1536 -1535 0
12509 -1536 0
12509 1535 0
-12510 -1536 1535 0
12510 1536 0
12510 -1535 0
-12511 4207 -4208 0
12511 -4207 0
12511 4208 0
-12512 -4207 4208 0
12512 4207 0
12512 -4208 0
-12513 667 -666 0
12513 -667 0
12513 666 0
-12514 -667 666 0
12514 667 0
12514 -666 0
-12515 4757 -2395 0
12515 -4757 0
12515 2395 0
-12516 -4757 2395 0
12516 4757 0
12516 -2395 0
-12517 245 -244 0
12517 -245 0
12517 244 0
-12518 -245 244 0
12518 245 0
12518 -244 0
-12519 3843 -3844 0
12519 -3843 0
12519 3844 0
-12520 -3843 3844 0
12520 3843 0
12520 -3844 0
-12521 252 -2180 0
12521 -252 0
12521 2180 0
-12522 -252 2180 0
12522 252 0
12522 -2180 0
-12523 1686 -1685 0
12523 -1686 0
12523 1685 0
-12524 -1686 1685 0
12524 1686 0
12524 -1685 0
-12525 4854 -2516 0
12525 -4854 0
12525 2516 0
-12526 -4854 2516 0
12526 4854 0
12526 -2516 0
-12527 3984 -3985 0
12527 -3984 0
12527 3985 0
-12528 -3984 3985 0
12528 3984 0
12528 -3985 0
-12529 414 -413 0
12529 -414 0
12529 413 0
-12530 -414 413 0
12530 414 0
12530 -413 0
-12531 1838 -1837 0
12531 -1838 0
12531 1837 0
-12532 -1838 1837 0
12532 1838 0
12532 -1837 0
-12533 4600 -2273 0
12533 -4600 0
12533 2273 0
-12534 -4600 2273 0
12534 4600 0
12534 -2273 0
-12535 4095 -4096 0
12535 -4095 0
12535 4096 0
-12536 -4095 4096 0
12536 4095 0
12536 -4096 0
-12537 541 -540 0
12537 -541 0
12537 540 0
-12538 -541 540 0
12538 541 0
12538 -540 0
-12539 1983 -1982 0
12539 -1983 0
12539 1982 0
-12540 -1983 1982 0
12540 1983 0
12540 -1982 0
-12541 966 -3264 0
12541 -966 0
12541 3264 0
-12542 -966 3264 0
12542 966 0
12542 -3264 0
-12543 965 -3263 0
12543 -965 0
12543 3263 0
-12544 -965 3263 0
12544 965 0
12544 -3263 0
-12545 968 -3377 0
12545 -968 0
12545 3377 0
-12546 -968 3377 0
12546 968 0
12546 -3377 0
-12547 969 -964 0
12547 -969 0
12547 964 0
-12548 -969 964 0
12548 969 0
12548 -964 0
-12549 971 -3485 0
12549 -971 0
12549 3485 0
-12550 -971 3485 0
12550 971 0
12550 -3485 0
-12551 972 -967 0
12551 -972 0
12551 967 0
-12552 -972 967 0
12552 972 0
12552 -967 0
-12553 974 -3640 0
12553 -974 0
12553 3640 0
-12554 -974 3640 0
12554 974 0
12554 -3640 0
-12555 975 -970 0
12555 -975 0
12555 970 0
-12556 -975 970 0
12556 975 0
12556 -970 0
-12557 -1535 7677 0
12557 1535 0
12557 -7677 0
-12558 1535 -7677 0
12558 -1535 0
12558 7677 0
-12559 -1982 7678 0
12559 1982 0
12559 -7678 0
-12560 1982 -7678 0
12560 -1982 0
12560 7678 0
-12561 -1685 7679 0
12561 1685 0
12561 -7679 0
-12562 1685 -7679 0
12562 -1685 0
12562 7679 0
-12563 -1837 7680 0
12563 1837 0
12563 -7680 0
-12564 1837 -7680 0
12564 -1837 0
12564 7680 0
-12565 4755 -4756 0
12565 -4755 0
12565 4756 0
-12566 -4755 4756 0
12566 4755 0
12566 -4756 0
-12567 251 -3845 0
12567 -251 0
12567 3845 0
-12568 -251 3845 0
12568 251 0
12568 -3845 0
-12569 4855 -4856 0
12569 -4855 0
12569 4856 0
-12570 -4855 4856 0
12570 4855 0
12570 -4856 0
-12571 -3026 7717 0
12571 3026 0
12571 -7717 0
-12572 3026 -7717 0
12572 -3026 0
12572 7717 0
-12573 4465 -4466 0
12573 -4465 0
12573 4466 0
-12574 -4465 4466 0
12574 4465 0
12574 -4466 0
-12575 4503 -4504 0
12575 -4503 0
12575 4504 0
-12576 -4503 4504 0
12576 4503 0
12576 -4504 0
-12577 4601 -4602 0
12577 -4601 0
12577 4602 0
-12578 -4601 4602 0
12578 4601 0
12578 -4602 0
-12579 -2330 7758 0
12579 2330 0
12579 -7758 0
-12580 2330 -7758 0
12580 -2330 0
12580 7758 0
-12581 -2454 7759 0
12581 2454 0
12581 -7759 0
-12582 2454 -7759 0
12582 -2454 0
12582 7759 0
-12583 -2536 7760 0
12583 2536 0
12583 -7760 0
-12584 2536 -7760 0
12584 -2536 0
12584 7760 0
-12585 -2578 7761 0
12585 2578 0
12585 -7761 0
-12586 2578 -7761 0
12586 -2578 0
12586 7761 0
-12587 6242 -6243 0
12587 -6242 0
12587 6243 0
-12588 -6242 6243 0
12588 6242 0
12588 -6243 0
-12589 1879 -4780 0
12589 -1879 0
12589 4780 0
-12590 -1879 4780 0
12590 1879 0
12590 -4780 0
-12591 -1615 7762 0
12591 1615 0
12591 -7762 0
-12592 1615 -7762 0
12592 -1615 0
12592 7762 0
-12593 1571 -4483 0
12593 -1571 0
12593 4483 0
-12594 -1571 4483 0
12594 1571 0
12594 -4483 0
-12595 -1770 7763 0
12595 1770 0
12595 -7763 0
-12596 1770 -7763 0
12596 -1770 0
12596 7763 0
-12597 -1921 7764 0
12597 1921 0
12597 -7764 0
-12598 1921 -7764 0
12598 -1921 0
12598 7764 0
-12599 -2024 7765 0
12599 2024 0
12599 -7765 0
-12600 2024 -7765 0
12600 -2024 0
12600 7765 0
-12601 -2067 7766 0
12601 2067 0
12601 -7766 0
-12602 2067 -7766 0
12602 -2067 0
12602 7766 0
-12603 1726 -4626 0
12603 -1726 0
12603 4626 0
-12604 -1726 4626 0
12604 1726 0
12604 -4626 0
-12605 -2122 7767 0
12605 2122 0
12605 -7767 0
-12606 2122 -7767 0
12606 -2122 0
12606 7767 0
-12607 -2124 7768 0
12607 2124 0
12607 -7768 0
-12608 2124 -7768 0
12608 -2124 0
12608 7768 0
-12609 -666 7804 0
12609 666 0
12609 -7804 0
-12610 666 -7804 0
12610 -666 0
12610 7804 0
-12611 -91 7805 0
12611 91 0
12611 -7805 0
-12612 91 -7805 0
12612 -91 0
12612 7805 0
-12613 3007 -6231 0
12613 -3007 0
12613 6231 0
-12614 -3007 6231 0
12614 3007 0
12614 -6231 0
-12615 -244 7806 0
12615 244 0
12615 -7806 0
-12616 244 -7806 0
12616 -244 0
12616 7806 0
-12617 1884 -4782 0
12617 -1884 0
12617 4782 0
-12618 -1884 4782 0
12618 1884 0
12618 -4782 0
-12619 210 -3817 0
12619 -210 0
12619 3817 0
-12620 -210 3817 0
12620 210 0
12620 -3817 0
-12621 -351 7807 0
12621 351 0
12621 -7807 0
-12622 351 -7807 0
12622 -351 0
12622 7807 0
-12623 3108 -6301 0
12623 -3108 0
12623 6301 0
-12624 -3108 6301 0
12624 3108 0
12624 -6301 0
-12625 3114 -6303 0
12625 -3114 0
12625 6303 0
-12626 -3114 6303 0
12626 3114 0
12626 -6303 0
-12627 3121 -6305 0
12627 -3121 0
12627 6305 0
-12628 -3121 6305 0
12628 3121 0
12628 -6305 0
-12629 -3102 6299 0
12629 3102 0
12629 -6299 0
-12630 3102 -6299 0
12630 -3102 0
12630 6299 0
-12631 2030 -4880 0
12631 -2030 0
12631 4880 0
-12632 -2030 4880 0
12632 2030 0
12632 -4880 0
-12633 -413 7808 0
12633 413 0
12633 -7808 0
-12634 413 -7808 0
12634 -413 0
12634 7808 0
-12635 1577 -4485 0
12635 -1577 0
12635 4485 0
-12636 -1577 4485 0
12636 1577 0
12636 -4485 0
-12637 -477 7809 0
12637 477 0
12637 -7809 0
-12638 477 -7809 0
12638 -477 0
12638 7809 0
-12639 -540 7810 0
12639 540 0
12639 -7810 0
-12640 540 -7810 0
12640 -540 0
12640 7810 0
-12641 -604 7811 0
12641 604 0
12641 -7811 0
-12642 604 -7811 0
12642 -604 0
12642 7811 0
-12643 1733 -4628 0
12643 -1733 0
12643 4628 0
-12644 -1733 4628 0
12644 1733 0
12644 -4628 0
-12645 2117 -2116 0
12645 -2117 0
12645 2116 0
-12646 -2117 2116 0
12646 2117 0
12646 -2116 0
-12647 2113 -2112 0
12647 -2113 0
12647 2112 0
-12648 -2113 2112 0
12648 2113 0
12648 -2112 0
-12649 2105 -2104 0
12649 -2105 0
12649 2104 0
-12650 -2105 2104 0
12650 2105 0
12650 -2104 0
-12651 2109 -2108 0
12651 -2109 0
12651 2108 0
-12652 -2109 2108 0
12652 2109 0
12652 -2108 0
-12653 2111 -2110 0
12653 -2111 0
12653 2110 0
-12654 -2111 2110 0
12654 2111 0
12654 -2110 0
-12655 1655 -1654 0
12655 -1655 0
12655 1654 0
-12656 -1655 1654 0
12656 1655 0
12656 -1654 0
-12657 1808 -1807 0
12657 -1808 0
12657 1807 0
-12658 -1808 1807 0
12658 1808 0
12658 -1807 0
-12659 1505 -1504 0
12659 -1505 0
12659 1504 0
-12660 -1505 1504 0
12660 1505 0
12660 -1504 0
-12661 2107 -2106 0
12661 -2107 0
12661 2106 0
-12662 -2107 2106 0
12662 2107 0
12662 -2106 0
-12663 2103 -2102 0
12663 -2103 0
12663 2102 0
-12664 -2103 2102 0
12664 2103 0
12664 -2102 0
-12665 2119 -2118 0
12665 -2119 0
12665 2118 0
-12666 -2119 2118 0
12666 2119 0
12666 -2118 0
-12667 2115 -2114 0
12667 -2115 0
12667 2114 0
-12668 -2115 2114 0
12668 2115 0
12668 -2114 0
-12669 -648 7873 0
12669 648 0
12669 -7873 0
-12670 648 -7873 0
12670 -648 0
12670 7873 0
-12671 -3 4 0
12671 3 0
12671 -4 0
-12672 3 -4 0
12672 -3 0
12672 4 0
-12673 -8 9 0
12673 8 0
12673 -9 0
-12674 8 -9 0
12674 -8 0
12674 9 0
-12675 -13 14 0
12675 13 0
12675 -14 0
-12676 13 -14 0
12676 -13 0
12676 14 0
-12677 2946 -6163 0
12677 -2946 0
12677 6163 0
-12678 -2946 6163 0
12678 2946 0
12678 -6163 0
-12679 -660 7874 0
12679 660 0
12679 -7874 0
-12680 660 -7874 0
12680 -660 0
12680 7874 0
-12681 -18 19 0
12681 18 0
12681 -19 0
-12682 18 -19 0
12682 -18 0
12682 19 0
-12683 2625 -5796 0
12683 -2625 0
12683 5796 0
-12684 -2625 5796 0
12684 2625 0
12684 -5796 0
-12685 -668 7875 0
12685 668 0
12685 -7875 0
-12686 668 -7875 0
12686 -668 0
12686 7875 0
-12687 4667 -4668 0
12687 -4667 0
12687 4668 0
-12688 -4667 4668 0
12688 4667 0
12688 -4668 0
-12689 1795 -4670 0
12689 -1795 0
12689 4670 0
-12690 -1795 4670 0
12690 1795 0
12690 -4670 0
-12691 2957 -6173 0
12691 -2957 0
12691 6173 0
-12692 -2957 6173 0
12692 2957 0
12692 -6173 0
-12693 -40 7876 0
12693 40 0
12693 -7876 0
-12694 40 -7876 0
12694 -40 0
12694 7876 0
-12695 2253 -5569 0
12695 -2253 0
12695 5569 0
-12696 -2253 5569 0
12696 2253 0
12696 -5569 0
-12697 4674 -4675 0
12697 -4674 0
12697 4675 0
-12698 -4674 4675 0
12698 4674 0
12698 -4675 0
-12699 -1277 7877 0
12699 1277 0
12699 -7877 0
-12700 1277 -7877 0
12700 -1277 0
12700 7877 0
-12701 -55 7878 0
12701 55 0
12701 -7878 0
-12702 55 -7878 0
12702 -55 0
12702 7878 0
-12703 -690 7879 0
12703 690 0
12703 -7879 0
-12704 690 -7879 0
12704 -690 0
12704 7879 0
-12705 -694 7880 0
12705 694 0
12705 -7880 0
-12706 694 -7880 0
12706 -694 0
12706 7880 0
-12707 -696 7881 0
12707 696 0
12707 -7881 0
-12708 696 -7881 0
12708 -696 0
12708 7881 0
-12709 2973 -6194 0
12709 -2973 0
12709 6194 0
-12710 -2973 6194 0
12710 2973 0
12710 -6194 0
-12711 6141 -6142 0
12711 -6141 0
12711 6142 0
-12712 -6141 6142 0
12712 6141 0
12712 -6142 0
-12713 -2356 7882 0
12713 2356 0
12713 -7882 0
-12714 2356 -7882 0
12714 -2356 0
12714 7882 0
-12715 5841 -5842 0
12715 -5841 0
12715 5842 0
-12716 -5841 5842 0
12716 5841 0
12716 -5842 0
-12717 -154 155 0
12717 154 0
12717 -155 0
-12718 154 -155 0
12718 -154 0
12718 155 0
-12719 5848 -5849 0
12719 -5848 0
12719 5849 0
-12720 -5848 5849 0
12720 5848 0
12720 -5849 0
-12721 4739 -4740 0
12721 -4739 0
12721 4740 0
-12722 -4739 4740 0
12722 4739 0
12722 -4740 0
-12723 2997 -6216 0
12723 -2997 0
12723 6216 0
-12724 -2997 6216 0
12724 2997 0
12724 -6216 0
-12725 -161 7883 0
12725 161 0
12725 -7883 0
-12726 161 -7883 0
12726 -161 0
12726 7883 0
-12727 -2478 7884 0
12727 2478 0
12727 -7884 0
-12728 2478 -7884 0
12728 -2478 0
12728 7884 0
-12729 135 -3771 0
12729 -135 0
12729 3771 0
-12730 -135 3771 0
12730 135 0
12730 -3771 0
-12731 5856 -5857 0
12731 -5856 0
12731 5857 0
-12732 -5856 5857 0
12732 5856 0
12732 -5857 0
-12733 146 -3776 0
12733 -146 0
12733 3776 0
-12734 -146 3776 0
12734 146 0
12734 -3776 0
-12735 -770 7885 0
12735 770 0
12735 -7885 0
-12736 770 -7885 0
12736 -770 0
12736 7885 0
-12737 3012 -6233 0
12737 -3012 0
12737 6233 0
-12738 -3012 6233 0
12738 3012 0
12738 -6233 0
-12739 -203 7886 0
12739 203 0
12739 -7886 0
-12740 203 -7886 0
12740 -203 0
12740 7886 0
-12741 1848 -4764 0
12741 -1848 0
12741 4764 0
-12742 -1848 4764 0
12742 1848 0
12742 -4764 0
-12743 -2598 7887 0
12743 2598 0
12743 -7887 0
-12744 2598 -7887 0
12744 -2598 0
12744 7887 0
-12745 2720 -5880 0
12745 -2720 0
12745 5880 0
-12746 -2720 5880 0
12746 2720 0
12746 -5880 0
-12747 6244 -6245 0
12747 -6244 0
12747 6245 0
-12748 -6244 6245 0
12748 6244 0
12748 -6245 0
-12749 -229 7888 0
12749 229 0
12749 -7888 0
-12750 229 -7888 0
12750 -229 0
12750 7888 0
-12751 -2632 7889 0
12751 2632 0
12751 -7889 0
-12752 2632 -7889 0
12752 -2632 0
12752 7889 0
-12753 3041 -6250 0
12753 -3041 0
12753 6250 0
-12754 -3041 6250 0
12754 3041 0
12754 -6250 0
-12755 -248 7890 0
12755 248 0
12755 -7890 0
-12756 248 -7890 0
12756 -248 0
12756 7890 0
-12757 3813 -3814 0
12757 -3813 0
12757 3814 0
-12758 -3813 3814 0
12758 3813 0
12758 -3814 0
-12759 2747 -5896 0
12759 -2747 0
12759 5896 0
-12760 -2747 5896 0
12760 2747 0
12760 -5896 0
-12761 -2750 7891 0
12761 2750 0
12761 -7891 0
-12762 2750 -7891 0
12762 -2750 0
12762 7891 0
-12763 227 -3829 0
12763 -227 0
12763 3829 0
-12764 -227 3829 0
12764 227 0
12764 -3829 0
-12765 237 -3835 0
12765 -237 0
12765 3835 0
-12766 -237 3835 0
12766 237 0
12766 -3835 0
-12767 3062 -6271 0
12767 -3062 0
12767 6271 0
-12768 -3062 6271 0
12768 3062 0
12768 -6271 0
-12769 -300 7892 0
12769 300 0
12769 -7892 0
-12770 300 -7892 0
12770 -300 0
12770 7892 0
-12771 -2795 7893 0
12771 2795 0
12771 -7893 0
-12772 2795 -7893 0
12772 -2795 0
12772 7893 0
-12773 -307 7894 0
12773 307 0
12773 -7894 0
-12774 307 -7894 0
12774 -307 0
12774 7894 0
-12775 -312 7895 0
12775 312 0
12775 -7895 0
-12776 312 -7895 0
12776 -312 0
12776 7895 0
-12777 -2830 7896 0
12777 2830 0
12777 -7896 0
-12778 2830 -7896 0
12778 -2830 0
12778 7896 0
-12779 -329 7897 0
12779 329 0
12779 -7897 0
-12780 329 -7897 0
12780 -329 0
12780 7897 0
-12781 4823 -4824 0
12781 -4823 0
12781 4824 0
-12782 -4823 4824 0
12782 4823 0
12782 -4824 0
-12783 1945 -4825 0
12783 -1945 0
12783 4825 0
-12784 -1945 4825 0
12784 1945 0
12784 -4825 0
-12785 3081 -6290 0
12785 -3081 0
12785 6290 0
-12786 -3081 6290 0
12786 3081 0
12786 -6290 0
-12787 -335 7898 0
12787 335 0
12787 -7898 0
-12788 335 -7898 0
12788 -335 0
12788 7898 0
-12789 4829 -4830 0
12789 -4829 0
12789 4830 0
-12790 -4829 4830 0
12790 4829 0
12790 -4830 0
-12791 4835 -4836 0
12791 -4835 0
12791 4836 0
-12792 -4835 4836 0
12792 4835 0
12792 -4836 0
-12793 2771 -5942 0
12793 -2771 0
12793 5942 0
-12794 -2771 5942 0
12794 2771 0
12794 -5942 0
-12795 1510 -4448 0
12795 -1510 0
12795 4448 0
-12796 -1510 4448 0
12796 1510 0
12796 -4448 0
-12797 -1504 7899 0
12797 1504 0
12797 -7899 0
-12798 1504 -7899 0
12798 -1504 0
12798 7899 0
-12799 1992 -4863 0
12799 -1992 0
12799 4863 0
-12800 -1992 4863 0
12800 1992 0
12800 -4863 0
-12801 -377 7900 0
12801 377 0
12801 -7900 0
-12802 377 -7900 0
12802 -377 0
12802 7900 0
-12803 5958 -5959 0
12803 -5958 0
12803 5959 0
-12804 -5958 5959 0
12804 5958 0
12804 -5959 0
-12805 -1542 7901 0
12805 1542 0
12805 -7901 0
-12806 1542 -7901 0
12806 -1542 0
12806 7901 0
-12807 -395 7902 0
12807 395 0
12807 -7902 0
-12808 395 -7902 0
12808 -395 0
12808 7902 0
-12809 -1566 7903 0
12809 1566 0
12809 -7903 0
-12810 1566 -7903 0
12810 -1566 0
12810 7903 0
-12811 1545 -4472 0
12811 -1545 0
12811 4472 0
-12812 -1545 4472 0
12812 1545 0
12812 -4472 0
-12813 -407 7904 0
12813 407 0
12813 -7904 0
-12814 407 -7904 0
12814 -407 0
12814 7904 0
-12815 -415 7905 0
12815 415 0
12815 -7905 0
-12816 415 -7905 0
12816 -415 0
12816 7905 0
-12817 -1654 7906 0
12817 1654 0
12817 -7906 0
-12818 1654 -7906 0
12818 -1654 0
12818 7906 0
-12819 -437 7907 0
12819 437 0
12819 -7907 0
-12820 437 -7907 0
12820 -437 0
12820 7907 0
-12821 2810 -6015 0
12821 -2810 0
12821 6015 0
-12822 -2810 6015 0
12822 2810 0
12822 -6015 0
-12823 -441 7908 0
12823 441 0
12823 -7908 0
-12824 441 -7908 0
12824 -441 0
12824 7908 0
-12825 -443 7909 0
12825 443 0
12825 -7909 0
-12826 443 -7909 0
12826 -443 0
12826 7909 0
-12827 -1692 7910 0
12827 1692 0
12827 -7910 0
-12828 1692 -7910 0
12828 -1692 0
12828 7910 0
-12829 -454 7911 0
12829 454 0
12829 -7911 0
-12830 454 -7911 0
12830 -454 0
12830 7911 0
-12831 -1721 7912 0
12831 1721 0
12831 -7912 0
-12832 1721 -7912 0
12832 -1721 0
12832 7912 0
-12833 4918 -4919 0
12833 -4918 0
12833 4919 0
-12834 -4918 4919 0
12834 4918 0
12834 -4919 0
-12835 -460 7913 0
12835 460 0
12835 -7913 0
-12836 460 -7913 0
12836 -460 0
12836 7913 0
-12837 4920 -4921 0
12837 -4920 0
12837 4921 0
-12838 -4920 4921 0
12838 4920 0
12838 -4921 0
-12839 6036 -6037 0
12839 -6036 0
12839 6037 0
-12840 -6036 6037 0
12840 6036 0
12840 -6037 0
-12841 4925 -4926 0
12841 -4925 0
12841 4926 0
-12842 -4925 4926 0
12842 4925 0
12842 -4926 0
-12843 1641 -4516 0
12843 -1641 0
12843 4516 0
-12844 -1641 4516 0
12844 1641 0
12844 -4516 0
-12845 1643 -4517 0
12845 -1643 0
12845 4517 0
-12846 -1643 4517 0
12846 1643 0
12846 -4517 0
-12847 4522 -4523 0
12847 -4522 0
12847 4523 0
-12848 -4522 4523 0
12848 4522 0
12848 -4523 0
-12849 -1807 7914 0
12849 1807 0
12849 -7914 0
-12850 1807 -7914 0
12850 -1807 0
12850 7914 0
-12851 2832 -6063 0
12851 -2832 0
12851 6063 0
-12852 -2832 6063 0
12852 2832 0
12852 -6063 0
-12853 -504 7915 0
12853 504 0
12853 -7915 0
-12854 504 -7915 0
12854 -504 0
12854 7915 0
-12855 -1844 7916 0
12855 1844 0
12855 -7916 0
-12856 1844 -7916 0
12856 -1844 0
12856 7916 0
-12857 -522 7917 0
12857 522 0
12857 -7917 0
-12858 522 -7917 0
12858 -522 0
12858 7917 0
-12859 -1873 7918 0
12859 1873 0
12859 -7918 0
-12860 1873 -7918 0
12860 -1873 0
12860 7918 0
-12861 6082 -6083 0
12861 -6082 0
12861 6083 0
-12862 -6082 6083 0
12862 6082 0
12862 -6083 0
-12863 -534 7919 0
12863 534 0
12863 -7919 0
-12864 534 -7919 0
12864 -534 0
12864 7919 0
-12865 -542 7920 0
12865 542 0
12865 -7920 0
-12866 542 -7920 0
12866 -542 0
12866 7920 0
-12867 4586 -4587 0
12867 -4586 0
12867 4587 0
-12868 -4586 4587 0
12868 4586 0
12868 -4587 0
-12869 2868 -6093 0
12869 -2868 0
12869 6093 0
-12870 -2868 6093 0
12870 2868 0
12870 -6093 0
-12871 -564 7921 0
12871 564 0
12871 -7921 0
-12872 564 -7921 0
12872 -564 0
12872 7921 0
-12873 -568 7922 0
12873 568 0
12873 -7922 0
-12874 568 -7922 0
12874 -568 0
12874 7922 0
-12875 -570 7923 0
12875 570 0
12875 -7923 0
-12876 570 -7923 0
12876 -570 0
12876 7923 0
-12877 -1988 7924 0
12877 1988 0
12877 -7924 0
-12878 1988 -7924 0
12878 -1988 0
12878 7924 0
-12879 2887 -6109 0
12879 -2887 0
12879 6109 0
-12880 -2887 6109 0
12880 2887 0
12880 -6109 0
-12881 -581 7925 0
12881 581 0
12881 -7925 0
-12882 581 -7925 0
12882 -581 0
12882 7925 0
-12883 -2020 7926 0
12883 2020 0
12883 -7926 0
-12884 2020 -7926 0
12884 -2020 0
12884 7926 0
-12885 1695 -4609 0
12885 -1695 0
12885 4609 0
-12886 -1695 4609 0
12886 1695 0
12886 -4609 0
-12887 -587 7927 0
12887 587 0
12887 -7927 0
-12888 587 -7927 0
12888 -587 0
12888 7927 0
-12889 2908 -6121 0
12889 -2908 0
12889 6121 0
-12890 -2908 6121 0
12890 2908 0
12890 -6121 0
-12891 4622 -4623 0
12891 -4622 0
12891 4623 0
-12892 -4622 4623 0
12892 4622 0
12892 -4623 0
-12893 2915 -6128 0
12893 -2915 0
12893 6128 0
-12894 -2915 6128 0
12894 2915 0
12894 -6128 0
-12895 5536 -5537 0
12895 -5536 0
12895 5537 0
-12896 -5536 5537 0
12896 5536 0
12896 -5537 0
-12897 -2102 7928 0
12897 2102 0
12897 -7928 0
-12898 2102 -7928 0
12898 -2102 0
12898 7928 0
-12899 -2104 7929 0
12899 2104 0
12899 -7929 0
-12900 2104 -7929 0
12900 -2104 0
12900 7929 0
-12901 -2106 7930 0
12901 2106 0
12901 -7930 0
-12902 2106 -7930 0
12902 -2106 0
12902 7930 0
-12903 -2108 7931 0
12903 2108 0
12903 -7931 0
-12904 2108 -7931 0
12904 -2108 0
12904 7931 0
-12905 -2110 7932 0
12905 2110 0
12905 -7932 0
-12906 2110 -7932 0
12906 -2110 0
12906 7932 0
-12907 -2112 7933 0
12907 2112 0
12907 -7933 0
-12908 2112 -7933 0
12908 -2112 0
12908 7933 0
-12909 -2114 7934 0
12909 2114 0
12909 -7934 0
-12910 2114 -7934 0
12910 -2114 0
12910 7934 0
-12911 -2116 7935 0
12911 2116 0
12911 -7935 0
-12912 2116 -7935 0
12912 -2116 0
12912 7935 0
-12913 -2118 7936 0
12913 2118 0
12913 -7936 0
-12914 2118 -7936 0
12914 -2118 0
12914 7936 0
-12915 6137 -6138 0
12915 -6137 0
12915 6138 0
-12916 -6137 6138 0
12916 6137 0
12916 -6138 0
-12917 -630 7937 0
12917 630 0
12917 -7937 0
-12918 630 -7937 0
12918 -630 0
12918 7937 0
-12919 6139 -6140 0
12919 -6139 0
12919 6140 0
-12920 -6139 6140 0
12920 6139 0
12920 -6140 0
-12921 -2123 7938 0
12921 2123 0
12921 -7938 0
-12922 2123 -7938 0
12922 -2123 0
12922 7938 0
-12923 6143 -6144 0
12923 -6143 0
12923 6144 0
-12924 -6143 6144 0
12924 6143 0
12924 -6144 0
-12925 6150 -6151 0
12925 -6150 0
12925 6151 0
-12926 -6150 6151 0
12926 6150 0
12926 -6151 0
-12927 2936 -6155 0
12927 -2936 0
12927 6155 0
-12928 -2936 6155 0
12928 2936 0
12928 -6155 0
-12929 -1 2 0
12929 1 0
12929 -2 0
-12930 1 -2 0
12930 -1 0
12930 2 0
7939 0
7940 0
7941 0
7942 0
7943 0
7944 0
7945 0
7946 0
7947 0
7948 0
7949 0
7950 0
7951 0
7952 0
7953 0
7954 0
7955 0
7956 0
7957 0
7958 0
7959 0
7960 0
7961 0
7962 0
7963 0
7964 0
7965 0
7966 0
7967 0
7968 0
7969 0
7970 0
7971 0
7972 0
7973 0
7974 0
7975 0
7976 0
7977 0
7978 0
7979 0
7980 0
7981 0
7982 0
7983 0
7984 0
7985 0
7986 0
7987 0
7988 0
7989 0
7990 0
7991 0
7992 0
7993 0
7994 0
7995 0
7996 0
7997 0
7998 0
7999 0
8000 0
8001 0
8002 0
8003 0
8004 0
8005 0
8006 0
8007 0
8008 0
8009 0
8010 0
8011 0
8012 0
8013 0
8014 0
8015 0
8016 0
8017 0
8018 0
8019 0
8020 0
8021 0
8022 0
8023 0
8024 0
8025 0
8026 0
8027 0
8028 0
8029 0
8030 0
8031 0
8032 0
8033 0
8034 0
8035 0
8036 0
8037 0
8038 0
8039 0
8040 0
8041 0
8042 0
8043 0
8044 0
8045 0
8046 0
8047 0
8048 0
8049 0
8050 0
8051 0
8052 0
8053 0
8054 0
8055 0
8056 0
8057 0
8058 0
8059 0
8060 0
8061 0
8062 0
8063 0
8064 0
8065 0
8066 0
8067 0
8068 0
8069 0
8070 0
8071 0
8072 0
8073 0
8074 0
8075 0
8076 0
8077 0
8078 0
8079 0
8080 0
8081 0
8082 0
8083 0
8084 0
8085 0
8086 0
8087 0
8088 0
8089 0
8090 0
8091 0
8092 0
8093 0
8094 0
8095 0
8096 0
8097 0
8098 0
8099 0
8100 0
8101 0
8102 0
8103 0
8104 0
8105 0
8106 0
8107 0
8108 0
8109 0
8110 0
8111 0
8112 0
8113 0
8114 0
8115 0
8116 0
8117 0
8118 0
8119 0
8120 0
8121 0
8122 0
8123 0
8124 0
8125 0
8126 0
8127 0
8128 0
8129 0
8130 0
8131 0
8132 0
8133 0
8134 0
8135 0
8136 0
8137 0
8138 0
8139 0
8140 0
8141 0
8142 0
8143 0
8144 0
8145 0
8146 0
8147 0
8148 0
8149 0
8150 0
8151 0
8152 0
8153 0
8154 0
8155 0
8156 0
8157 0
8158 0
8159 0
8160 0
8161 0
8162 0
8163 0
8164 0
8165 0
8166 0
8167 0
8168 0
8169 0
8170 0
8171 0
8172 0
8173 0
8174 0
8175 0
8176 0
8177 0
8178 0
8179 0
8180 0
8181 0
8182 0
8183 0
8184 0
8185 0
8186 0
8187 0
8188 0
8189 0
8190 0
8191 0
8192 0
8193 0
8194 0
8195 0
8196 0
8197 0
8198 0
8199 0
8200 0
8201 0
8202 0
8203 0
8204 0
8205 0
8206 0
8207 0
8208 0
8209 0
8210 0
8211 0
8212 0
8213 0
8214 0
8215 0
8216 0
8217 0
8218 0
8219 0
8220 0
8221 0
8222 0
8223 0
8224 0
8225 0
8226 0
8227 0
8228 0
8229 0
8230 0
8231 0
8232 0
8233 0
8234 0
8235 0
8236 0
8237 0
8238 0
8239 0
8240 0
8241 0
8242 0
8243 0
8244 0
8245 0
8246 0
8247 0
8248 0
8249 0
8250 0
8251 0
8252 0
8253 0
8254 0
8255 0
8256 0
8257 0
8258 0
8259 0
8260 0
8261 0
8262 0
8263 0
8264 0
8265 0
8266 0
8267 0
8268 0
8269 0
8270 0
8271 0
8272 0
8273 0
8274 0
8275 0
8276 0
8277 0
8278 0
8279 0
8280 0
8281 0
8282 0
8283 0
8284 0
8285 0
8286 0
8287 0
8288 0
8289 0
8290 0
8291 0
8292 0
8293 0
8294 0
8295 0
8296 0
8297 0
8298 0
8299 0
8300 0
8301 0
8302 0
8303 0
8304 0
8305 0
8306 0
8307 0
8308 0
8309 0
8310 0
8311 0
8312 0
8313 0
8314 0
8315 0
8316 0
8317 0
8318 0
8319 0
8320 0
8321 0
8322 0
8323 0
8324 0
8325 0
8326 0
8327 0
8328 0
8329 0
8330 0
8331 0
8332 0
8333 0
8334 0
8335 0
8336 0
8337 0
8338 0
8339 0
8340 0
8341 0
8342 0
8343 0
8344 0
8345 0
8346 0
8347 0
8348 0
8349 0
8350 0
8351 0
8352 0
8353 0
8354 0
8355 0
8356 0
8357 0
8358 0
8359 0
8360 0
8361 0
8362 0
8363 0
8364 0
8365 0
8366 0
8367 0
8368 0
8369 0
8370 0
8371 0
8372 0
8373 0
8374 0
8375 0
8376 0
8377 0
8378 0
8379 0
8380 0
8381 0
8382 0
8383 0
8384 0
8385 0
8386 0
8387 0
8388 0
8389 0
8390 0
8391 0
8392 0
8393 0
8394 0
8395 0
8396 0
8397 0
8398 0
8399 0
8400 0
8401 0
8402 0
8403 0
8404 0
8405 0
8406 0
8407 0
8408 0
8409 0
8410 0
8411 0
8412 0
8413 0
8414 0
8415 0
8416 0
8417 0
8418 0
8419 0
8420 0
8421 0
8422 0
8423 0
8424 0
8425 0
8426 0
8427 0
8428 0
8429 0
8430 0
8431 0
8432 0
8433 0
8434 0
8435 0
8436 0
8437 0
8438 0
8439 0
8440 0
8441 0
8442 0
8443 0
8444 0
8445 0
8446 0
8447 0
8448 0
8449 0
8450 0
8451 0
8452 0
8453 0
8454 0
8455 0
8456 0
8457 0
8458 0
8459 0
8460 0
8461 0
8462 0
8463 0
8464 0
8465 0
8466 0
8467 0
8468 0
8469 0
8470 0
8471 0
8472 0
8473 0
8474 0
8475 0
8476 0
8477 0
8478 0
8479 0
8480 0
8481 0
8482 0
8483 0
8484 0
8485 0
8486 0
8487 0
8488 0
8489 0
8490 0
8491 0
8492 0
8493 0
8494 0
8495 0
8496 0
8497 0
8498 0
8499 0
8500 0
8501 0
8502 0
8503 0
8504 0
8505 0
8506 0
8507 0
8508 0
8509 0
8510 0
8511 0
8512 0
8513 0
8514 0
8515 0
8516 0
8517 0
8518 0
8519 0
8520 0
8521 0
8522 0
8523 0
8524 0
8525 0
8526 0
8527 0
8528 0
8529 0
8530 0
8531 0
8532 0
8533 0
8534 0
8535 0
8536 0
8537 0
8538 0
8539 0
8540 0
8541 0
8542 0
8543 0
8544 0
8545 0
8546 0
8547 0
8548 0
8549 0
8550 0
8551 0
8552 0
8553 0
8554 0
8555 0
8556 0
8557 0
8558 0
8559 0
8560 0
8561 0
8562 0
8563 0
8564 0
8565 0
8566 0
8567 0
8568 0
8569 0
8570 0
8571 0
8572 0
8573 0
8574 0
8575 0
8576 0
8577 0
8578 0
8579 0
8580 0
8581 0
8582 0
8583 0
8584 0
8585 0
8586 0
8587 0
8588 0
8589 0
8590 0
8591 0
8592 0
8593 0
8594 0
8595 0
8596 0
8597 0
8598 0
8599 0
8600 0
8601 0
8602 0
8603 0
8604 0
8605 0
8606 0
8607 0
8608 0
8609 0
8610 0
8611 0
8612 0
8613 0
8614 0
8615 0
8616 0
8617 0
8618 0
8619 0
8620 0
8621 0
8622 0
8623 0
8624 0
8625 0
8626 0
8627 0
8628 0
8629 0
8630 0
8631 0
8632 0
8633 0
8634 0
8635 0
8636 0
8637 0
8638 0
8639 0
8640 0
8641 0
8642 0
8643 0
8644 0
8645 0
8646 0
8647 0
8648 0
8649 0
8650 0
8651 0
8652 0
8653 0
8654 0
8655 0
8656 0
8657 0
8658 0
8659 0
8660 0
8661 0
8662 0
8663 0
8664 0
8665 0
8666 0
8667 0
8668 0
8669 0
8670 0
8671 0
8672 0
8673 0
8674 0
8675 0
8676 0
8677 0
8678 0
8679 0
8680 0
8681 0
8682 0
8683 0
8684 0
8685 0
8686 0
8687 0
8688 0
8689 0
8690 0
8691 0
8692 0
8693 0
8694 0
8695 0
8696 0
8697 0
8698 0
8699 0
8700 0
8701 0
8702 0
8703 0
8704 0
8705 0
8706 0
8707 0
8708 0
8709 0
8710 0
8711 0
8712 0
8713 0
8714 0
8715 0
8716 0
8717 0
8718 0
8719 0
8720 0
8721 0
8722 0
8723 0
8724 0
8725 0
8726 0
8727 0
8728 0
8729 0
8730 0
8731 0
8732 0
8733 0
8734 0
8735 0
8736 0
8737 0
8738 0
8739 0
8740 0
8741 0
8742 0
8743 0
8744 0
8745 0
8746 0
8747 0
8748 0
8749 0
8750 0
8751 0
8752 0
8753 0
8754 0
8755 0
8756 0
8757 0
8758 0
8759 0
8760 0
8761 0
8762 0
8763 0
8764 0
8765 0
8766 0
8767 0
8768 0
8769 0
8770 0
8771 0
8772 0
8773 0
8774 0
8775 0
8776 0
8777 0
8778 0
8779 0
8780 0
8781 0
8782 0
8783 0
8784 0
8785 0
8786 0
8787 0
8788 0
8789 0
8790 0
8791 0
8792 0
8793 0
8794 0
8795 0
8796 0
8797 0
8798 0
8799 0
8800 0
8801 0
8802 0
8803 0
8804 0
8805 0
8806 0
8807 0
8808 0
8809 0
8810 0
8811 0
8812 0
8813 0
8814 0
8815 0
8816 0
8817 0
8818 0
8819 0
8820 0
8821 0
8822 0
8823 0
8824 0
8825 0
8826 0
8827 0
8828 0
8829 0
8830 0
8831 0
8832 0
8833 0
8834 0
8835 0
8836 0
8837 0
8838 0
8839 0
8840 0
8841 0
8842 0
8843 0
8844 0
8845 0
8846 0
8847 0
8848 0
8849 0
8850 0
8851 0
8852 0
8853 0
8854 0
8855 0
8856 0
8857 0
8858 0
8859 0
8860 0
8861 0
8862 0
8863 0
8864 0
8865 0
8866 0
8867 0
8868 0
8869 0
8870 0
8871 0
8872 0
8873 0
8874 0
8875 0
8876 0
8877 0
8878 0
8879 0
8880 0
8881 0
8882 0
8883 0
8884 0
8885 0
8886 0
8887 0
8888 0
8889 0
8890 0
8891 0
8892 0
8893 0
8894 0
8895 0
8896 0
8897 0
8898 0
8899 0
8900 0
8901 0
8902 0
8903 0
8904 0
8905 0
8906 0
8907 0
8908 0
8909 0
8910 0
8911 0
8912 0
8913 0
8914 0
8915 0
8916 0
8917 0
8918 0
8919 0
8920 0
8921 0
8922 0
8923 0
8924 0
8925 0
8926 0
8927 0
8928 0
8929 0
8930 0
8931 0
8932 0
8933 0
8934 0
8935 0
8936 0
8937 0
8938 0
8939 0
8940 0
8941 0
8942 0
8943 0
8944 0
8945 0
8946 0
8947 0
8948 0
8949 0
8950 0
8951 0
8952 0
8953 0
8954 0
8955 0
8956 0
8957 0
8958 0
8959 0
8960 0
8961 0
8962 0
8963 0
8964 0
8965 0
8966 0
8967 0
8968 0
8969 0
8970 0
8971 0
8972 0
8973 0
8974 0
8975 0
8976 0
8977 0
8978 0
8979 0
8980 0
8981 0
8982 0
8983 0
8984 0
8985 0
8986 0
8987 0
8988 0
8989 0
8990 0
8991 0
8992 0
8993 0
8994 0
8995 0
8996 0
8997 0
8998 0
8999 0
9000 0
9001 0
9002 0
9003 0
9004 0
9005 0
9006 0
9007 0
9008 0
9009 0
9010 0
9011 0
9012 0
9013 0
9014 0
9015 0
9016 0
9017 0
9018 0
9019 0
9020 0
9021 0
9022 0
9023 0
9024 0
9025 0
9026 0
9027 0
9028 0
9029 0
9030 0
9031 0
9032 0
9033 0
9034 0
9035 0
9036 0
9037 0
9038 0
9039 0
9040 0
9041 0
9042 0
9043 0
9044 0
9045 0
9046 0
9047 0
9048 0
9049 0
9050 0
9051 0
9052 0
9053 0
9054 0
9055 0
9056 0
9057 0
9058 0
9059 0
9060 0
9061 0
9062 0
9063 0
9064 0
9065 0
9066 0
9067 0
9068 0
9069 0
9070 0
9071 0
9072 0
9073 0
9074 0
9075 0
9076 0
9077 0
9078 0
9079 0
9080 0
9081 0
9082 0
9083 0
9084 0
9085 0
9086 0
9087 0
9088 0
9089 0
9090 0
9091 0
9092 0
9093 0
9094 0
9095 0
9096 0
9097 0
9098 0
9099 0
9100 0
9101 0
9102 0
9103 0
9104 0
9105 0
9106 0
9107 0
9108 0
9109 0
9110 0
9111 0
9112 0
9113 0
9114 0
9115 0
9116 0
9117 0
9118 0
9119 0
9120 0
9121 0
9122 0
9123 0
9124 0
9125 0
9126 0
9127 0
9128 0
9129 0
9130 0
9131 0
9132 0
9133 0
9134 0
9135 0
9136 0
9137 0
9138 0
9139 0
9140 0
9141 0
9142 0
9143 0
9144 0
9145 0
9146 0
9147 0
9148 0
9149 0
9150 0
9151 0
9152 0
9153 0
9154 0
9155 0
9156 0
9157 0
9158 0
9159 0
9160 0
9161 0
9162 0
9163 0
9164 0
9165 0
9166 0
9167 0
9168 0
9169 0
9170 0
9171 0
9172 0
9173 0
9174 0
9175 0
9176 0
9177 0
9178 0
9179 0
9180 0
9181 0
9182 0
9183 0
9184 0
9185 0
9186 0
9187 0
9188 0
9189 0
9190 0
9191 0
9192 0
9193 0
9194 0
9195 0
9196 0
9197 0
9198 0
9199 0
9200 0
9201 0
9202 0
9203 0
9204 0
9205 0
9206 0
9207 0
9208 0
9209 0
9210 0
9211 0
9212 0
9213 0
9214 0
9215 0
9216 0
9217 0
9218 0
9219 0
9220 0
9221 0
9222 0
9223 0
9224 0
9225 0
9226 0
9227 0
9228 0
9229 0
9230 0
9231 0
9232 0
9233 0
9234 0
9235 0
9236 0
9237 0
9238 0
9239 0
9240 0
9241 0
9242 0
9243 0
9244 0
9245 0
9246 0
9247 0
9248 0
9249 0
9250 0
9251 0
9252 0
9253 0
9254 0
9255 0
9256 0
9257 0
9258 0
9259 0
9260 0
9261 0
9262 0
9263 0
9264 0
9265 0
9266 0
9267 0
9268 0
9269 0
9270 0
9271 0
9272 0
9273 0
9274 0
9275 0
9276 0
9277 0
9278 0
9279 0
9280 0
9281 0
9282 0
9283 0
9284 0
9285 0
9286 0
9287 0
9288 0
9289 0
9290 0
9291 0
9292 0
9293 0
9294 0
9295 0
9296 0
9297 0
9298 0
9299 0
9300 0
9301 0
9302 0
9303 0
9304 0
9305 0
9306 0
9307 0
9308 0
9309 0
9310 0
9311 0
9312 0
9313 0
9314 0
9315 0
9316 0
9317 0
9318 0
9319 0
9320 0
9321 0
9322 0
9323 0
9324 0
9325 0
9326 0
9327 0
9328 0
9329 0
9330 0
9331 0
9332 0
9333 0
9334 0
9335 0
9336 0
9337 0
9338 0
9339 0
9340 0
9341 0
9342 0
9343 0
9344 0
9345 0
9346 0
9347 0
9348 0
9349 0
9350 0
9351 0
9352 0
9353 0
9354 0
9355 0
9356 0
9357 0
9358 0
9359 0
9360 0
9361 0
9362 0
9363 0
9364 0
9365 0
9366 0
9367 0
9368 0
9369 0
9370 0
9371 0
9372 0
9373 0
9374 0
9375 0
9376 0
9377 0
9378 0
9379 0
9380 0
9381 0
9382 0
9383 0
9384 0
9385 0
9386 0
9387 0
9388 0
9389 0
9390 0
9391 0
9392 0
9393 0
9394 0
9395 0
9396 0
9397 0
9398 0
9399 0
9400 0
9401 0
9402 0
9403 0
9404 0
9405 0
9406 0
9407 0
9408 0
9409 0
9410 0
9411 0
9412 0
9413 0
9414 0
9415 0
9416 0
9417 0
9418 0
9419 0
9420 0
9421 0
9422 0
9423 0
9424 0
9425 0
9426 0
9427 0
9428 0
9429 0
9430 0
9431 0
9432 0
9433 0
9434 0
9435 0
9436 0
9437 0
9438 0
9439 0
9440 0
9441 0
9442 0
9443 0
9444 0
9445 0
9446 0
9447 0
9448 0
9449 0
9450 0
9451 0
9452 0
9453 0
9454 0
9455 0
9456 0
9457 0
9458 0
9459 0
9460 0
9461 0
9462 0
9463 0
9464 0
9465 0
9466 0
9467 0
9468 0
9469 0
9470 0
9471 0
9472 0
9473 0
9474 0
9475 0
9476 0
9477 0
9478 0
9479 0
9480 0
9481 0
9482 0
9483 0
9484 0
9485 0
9486 0
9487 0
9488 0
9489 0
9490 0
9491 0
9492 0
9493 0
9494 0
9495 0
9496 0
9497 0
9498 0
9499 0
9500 0
9501 0
9502 0
9503 0
9504 0
9505 0
9506 0
9507 0
9508 0
9509 0
9510 0
9511 0
9512 0
9513 0
9514 0
9515 0
9516 0
9517 0
9518 0
9519 0
9520 0
9521 0
9522 0
9523 0
9524 0
9525 0
9526 0
9527 0
9528 0
9529 0
9530 0
9531 0
9532 0
9533 0
9534 0
9535 0
9536 0
9537 0
9538 0
9539 0
9540 0
9541 0
9542 0
9543 0
9544 0
9545 0
9546 0
9547 0
9548 0
9549 0
9550 0
9551 0
9552 0
9553 0
9554 0
9555 0
9556 0
9557 0
9558 0
9559 0
9560 0
9561 0
9562 0
9563 0
9564 0
9565 0
9566 0
9567 0
9568 0
9569 0
9570 0
9571 0
9572 0
9573 0
9574 0
9575 0
9576 0
9577 0
9578 0
9579 0
9580 0
9581 0
9582 0
9583 0
9584 0
9585 0
9586 0
9587 0
9588 0
9589 0
9590 0
9591 0
9592 0
9593 0
9594 0
9595 0
9596 0
9597 0
9598 0
9599 0
9600 0
9601 0
9602 0
9603 0
9604 0
9605 0
9606 0
9607 0
9608 0
9609 0
9610 0
9611 0
9612 0
9613 0
9614 0
9615 0
9616 0
9617 0
9618 0
9619 0
9620 0
9621 0
9622 0
9623 0
9624 0
9625 0
9626 0
9627 0
9628 0
9629 0
9630 0
9631 0
9632 0
9633 0
9634 0
9635 0
9636 0
9637 0
9638 0
9639 0
9640 0
9641 0
9642 0
9643 0
9644 0
9645 0
9646 0
9647 0
9648 0
9649 0
9650 0
9651 0
9652 0
9653 0
9654 0
9655 0
9656 0
9657 0
9658 0
9659 0
9660 0
9661 0
9662 0
9663 0
9664 0
9665 0
9666 0
9667 0
9668 0
9669 0
9670 0
9671 0
9672 0
9673 0
9674 0
9675 0
9676 0
9677 0
9678 0
9679 0
9680 0
9681 0
9682 0
9683 0
9684 0
9685 0
9686 0
9687 0
9688 0
9689 0
9690 0
9691 0
9692 0
9693 0
9694 0
9695 0
9696 0
9697 0
9698 0
9699 0
9700 0
9701 0
9702 0
9703 0
9704 0
9705 0
9706 0
9707 0
9708 0
9709 0
9710 0
9711 0
9712 0
9713 0
9714 0
9715 0
9716 0
9717 0
9718 0
9719 0
9720 0
9721 0
9722 0
9723 0
9724 0
9725 0
9726 0
9727 0
9728 0
9729 0
9730 0
9731 0
9732 0
9733 0
9734 0
9735 0
9736 0
9737 0
9738 0
9739 0
9740 0
9741 0
9742 0
9743 0
9744 0
9745 0
9746 0
9747 0
9748 0
9749 0
9750 0
9751 0
9752 0
9753 0
9754 0
9755 0
9756 0
9757 0
9758 0
9759 0
9760 0
9761 0
9762 0
9763 0
9764 0
9765 0
9766 0
9767 0
9768 0
9769 0
9770 0
9771 0
9772 0
9773 0
9774 0
9775 0
9776 0
9777 0
9778 0
9779 0
9780 0
9781 0
9782 0
9783 0
9784 0
9785 0
9786 0
9787 0
9788 0
9789 0
9790 0
9791 0
9792 0
9793 0
9794 0
9795 0
9796 0
9797 0
9798 0
9799 0
9800 0
9801 0
9802 0
9803 0
9804 0
9805 0
9806 0
9807 0
9808 0
9809 0
9810 0
9811 0
9812 0
9813 0
9814 0
9815 0
9816 0
9817 0
9818 0
9819 0
9820 0
9821 0
9822 0
9823 0
9824 0
9825 0
9826 0
9827 0
9828 0
9829 0
9830 0
9831 0
9832 0
9833 0
9834 0
9835 0
9836 0
9837 0
9838 0
9839 0
9840 0
9841 0
9842 0
9843 0
9844 0
9845 0
9846 0
9847 0
9848 0
9849 0
9850 0
9851 0
9852 0
9853 0
9854 0
9855 0
9856 0
9857 0
9858 0
9859 0
9860 0
9861 0
9862 0
9863 0
9864 0
9865 0
9866 0
9867 0
9868 0
9869 0
9870 0
9871 0
9872 0
9873 0
9874 0
9875 0
9876 0
9877 0
9878 0
9879 0
9880 0
9881 0
9882 0
9883 0
9884 0
9885 0
9886 0
9887 0
9888 0
9889 0
9890 0
9891 0
9892 0
9893 0
9894 0
9895 0
9896 0
9897 0
9898 0
9899 0
9900 0
9901 0
9902 0
9903 0
9904 0
9905 0
9906 0
9907 0
9908 0
9909 0
9910 0
9911 0
9912 0
9913 0
9914 0
9915 0
9916 0
9917 0
9918 0
9919 0
9920 0
9921 0
9922 0
9923 0
9924 0
9925 0
9926 0
9927 0
9928 0
9929 0
9930 0
9931 0
9932 0
9933 0
9934 0
9935 0
9936 0
9937 0
9938 0
9939 0
9940 0
9941 0
9942 0
9943 0
9944 0
9945 0
9946 0
9947 0
9948 0
9949 0
9950 0
9951 0
9952 0
9953 0
9954 0
9955 0
9956 0
9957 0
9958 0
9959 0
9960 0
9961 0
9962 0
9963 0
9964 0
9965 0
9966 0
9967 0
9968 0
9969 0
9970 0
9971 0
9972 0
9973 0
9974 0
9975 0
9976 0
9977 0
9978 0
9979 0
9980 0
9981 0
9982 0
9983 0
9984 0
9985 0
9986 0
9987 0
9988 0
9989 0
9990 0
9991 0
9992 0
9993 0
9994 0
9995 0
9996 0
9997 0
9998 0
9999 0
10000 0
10001 0
10002 0
10003 0
10004 0
10005 0
10006 0
10007 0
10008 0
10009 0
10010 0
10011 0
10012 0
10013 0
10014 0
10015 0
10016 0
10017 0
10018 0
10019 0
10020 0
10021 0
10022 0
10023 0
10024 0
10025 0
10026 0
10027 0
10028 0
10029 0
10030 0
10031 0
10032 0
10033 0
10034 0
10035 0
10036 0
10037 0
10038 0
10039 0
10040 0
10041 0
10042 0
10043 0
10044 0
10045 0
10046 0
10047 0
10048 0
10049 0
10050 0
10051 0
10052 0
10053 0
10054 0
10055 0
10056 0
10057 0
10058 0
10059 0
10060 0
10061 0
10062 0
10063 0
10064 0
10065 0
10066 0
10067 0
10068 0
10069 0
10070 0
10071 0
10072 0
10073 0
10074 0
10075 0
10076 0
10077 0
10078 0
10079 0
10080 0
10081 0
10082 0
10083 0
10084 0
10085 0
10086 0
10087 0
10088 0
10089 0
10090 0
10091 0
10092 0
10093 0
10094 0
10095 0
10096 0
10097 0
10098 0
10099 0
10100 0
10101 0
10102 0
10103 0
10104 0
10105 0
10106 0
10107 0
10108 0
10109 0
10110 0
10111 0
10112 0
10113 0
10114 0
10115 0
10116 0
10117 0
10118 0
10119 0
10120 0
10121 0
10122 0
10123 0
10124 0
10125 0
10126 0
10127 0
10128 0
10129 0
10130 0
10131 0
10132 0
10133 0
10134 0
10135 0
10136 0
10137 0
10138 0
10139 0
10140 0
10141 0
10142 0
10143 0
10144 0
10145 0
10146 0
10147 0
10148 0
10149 0
10150 0
10151 0
10152 0
10153 0
10154 0
10155 0
10156 0
10157 0
10158 0
10159 0
10160 0
10161 0
10162 0
10163 0
10164 0
10165 0
10166 0
10167 0
10168 0
10169 0
10170 0
10171 0
10172 0
10173 0
10174 0
10175 0
10176 0
10177 0
10178 0
10179 0
10180 0
10181 0
10182 0
10183 0
10184 0
10185 0
10186 0
10187 0
10188 0
10189 0
10190 0
10191 0
10192 0
10193 0
10194 0
10195 0
10196 0
10197 0
10198 0
10199 0
10200 0
10201 0
10202 0
10203 0
10204 0
10205 0
10206 0
10207 0
10208 0
10209 0
10210 0
10211 0
10212 0
10213 0
10214 0
10215 0
10216 0
10217 0
10218 0
10219 0
10220 0
10221 0
10222 0
10223 0
10224 0
10225 0
10226 0
10227 0
10228 0
10229 0
10230 0
10231 0
10232 0
10233 0
10234 0
10235 0
10236 0
10237 0
10238 0
10239 0
10240 0
10241 0
10242 0
10243 0
10244 0
10245 0
10246 0
10247 0
10248 0
10249 0
10250 0
10251 0
10252 0
10253 0
10254 0
10255 0
10256 0
10257 0
10258 0
10259 0
10260 0
10261 0
10262 0
10263 0
10264 0
10265 0
10266 0
10267 0
10268 0
10269 0
10270 0
10271 0
10272 0
10273 0
10274 0
10275 0
10276 0
10277 0
10278 0
10279 0
10280 0
10281 0
10282 0
10283 0
10284 0
10285 0
10286 0
10287 0
10288 0
10289 0
10290 0
10291 0
10292 0
10293 0
10294 0
10295 0
10296 0
10297 0
10298 0
10299 0
10300 0
10301 0
10302 0
10303 0
10304 0
10305 0
10306 0
10307 0
10308 0
10309 0
10310 0
10311 0
10312 0
10313 0
10314 0
10315 0
10316 0
10317 0
10318 0
10319 0
10320 0
10321 0
10322 0
10323 0
10324 0
10325 0
10326 0
10327 0
10328 0
10329 0
10330 0
10331 0
10332 0
10333 0
10334 0
10335 0
10336 0
10337 0
10338 0
10339 0
10340 0
10341 0
10342 0
10343 0
10344 0
10345 0
10346 0
10347 0
10348 0
10349 0
10350 0
10351 0
10352 0
10353 0
10354 0
10355 0
10356 0
10357 0
10358 0
10359 0
10360 0
10361 0
10362 0
10363 0
10364 0
10365 0
10366 0
10367 0
10368 0
10369 0
10370 0
10371 0
10372 0
10373 0
10374 0
10375 0
10376 0
10377 0
10378 0
10379 0
10380 0
10381 0
10382 0
10383 0
10384 0
10385 0
10386 0
10387 0
10388 0
10389 0
10390 0
10391 0
10392 0
10393 0
10394 0
10395 0
10396 0
10397 0
10398 0
10399 0
10400 0
10401 0
10402 0
10403 0
10404 0
10405 0
10406 0
10407 0
10408 0
10409 0
10410 0
10411 0
10412 0
10413 0
10414 0
10415 0
10416 0
10417 0
10418 0
10419 0
10420 0
10421 0
10422 0
10423 0
10424 0
10425 0
10426 0
10427 0
10428 0
10429 0
10430 0
10431 0
10432 0
10433 0
10434 0
10435 0
10436 0
10437 0
10438 0
10439 0
10440 0
10441 0
10442 0
10443 0
10444 0
10445 0
10446 0
10447 0
10448 0
10449 0
10450 0
10451 0
10452 0
10453 0
10454 0
10455 0
10456 0
10457 0
10458 0
10459 0
10460 0
10461 0
10462 0
10463 0
10464 0
10465 0
10466 0
10467 0
10468 0
10469 0
10470 0
10471 0
10472 0
10473 0
10474 0
10475 0
10476 0
10477 0
10478 0
10479 0
10480 0
10481 0
10482 0
10483 0
10484 0
10485 0
10486 0
10487 0
10488 0
10489 0
10490 0
10491 0
10492 0
10493 0
10494 0
10495 0
10496 0
10497 0
10498 0
10499 0
10500 0
10501 0
10502 0
10503 0
10504 0
10505 0
10506 0
10507 0
10508 0
10509 0
10510 0
10511 0
10512 0
10513 0
10514 0
10515 0
10516 0
10517 0
10518 0
10519 0
10520 0
10521 0
10522 0
10523 0
10524 0
10525 0
10526 0
10527 0
10528 0
10529 0
10530 0
10531 0
10532 0
10533 0
10534 0
10535 0
10536 0
10537 0
10538 0
10539 0
10540 0
10541 0
10542 0
10543 0
10544 0
10545 0
10546 0
10547 0
10548 0
10549 0
10550 0
10551 0
10552 0
10553 0
10554 0
10555 0
10556 0
10557 0
10558 0
10559 0
10560 0
10561 0
10562 0
10563 0
10564 0
10565 0
10566 0
10567 0
10568 0
10569 0
10570 0
10571 0
10572 0
10573 0
10574 0
10575 0
10576 0
10577 0
10578 0
10579 0
10580 0
10581 0
10582 0
10583 0
10584 0
10585 0
10586 0
10587 0
10588 0
10589 0
10590 0
10591 0
10592 0
10593 0
10594 0
10595 0
10596 0
10597 0
10598 0
10599 0
10600 0
10601 0
10602 0
10603 0
10604 0
10605 0
10606 0
10607 0
10608 0
10609 0
10610 0
10611 0
10612 0
10613 0
10614 0
10615 0
10616 0
10617 0
10618 0
10619 0
10620 0
10621 0
10622 0
10623 0
10624 0
10625 0
10626 0
10627 0
10628 0
10629 0
10630 0
10631 0
10632 0
10633 0
10634 0
10635 0
10636 0
10637 0
10638 0
10639 0
10640 0
10641 0
10642 0
10643 0
10644 0
10645 0
10646 0
10647 0
10648 0
10649 0
10650 0
10651 0
10652 0
10653 0
10654 0
10655 0
10656 0
10657 0
10658 0
10659 0
10660 0
10661 0
10662 0
10663 0
10664 0
10665 0
10666 0
10667 0
10668 0
10669 0
10670 0
10671 0
10672 0
10673 0
10674 0
10675 0
10676 0
10677 0
10678 0
10679 0
10680 0
10681 0
10682 0
10683 0
10684 0
10685 0
10686 0
10687 0
10688 0
10689 0
10690 0
10691 0
10692 0
10693 0
10694 0
10695 0
10696 0
10697 0
10698 0
10699 0
10700 0
10701 0
10702 0
10703 0
10704 0
10705 0
10706 0
10707 0
10708 0
10709 0
10710 0
10711 0
10712 0
10713 0
10714 0
10715 0
10716 0
10717 0
10718 0
10719 0
10720 0
10721 0
10722 0
10723 0
10724 0
10725 0
10726 0
10727 0
10728 0
10729 0
10730 0
10731 0
10732 0
10733 0
10734 0
10735 0
10736 0
10737 0
10738 0
10739 0
10740 0
10741 0
10742 0
10743 0
10744 0
10745 0
10746 0
10747 0
10748 0
10749 0
10750 0
10751 0
10752 0
10753 0
10754 0
10755 0
10756 0
10757 0
10758 0
10759 0
10760 0
10761 0
10762 0
10763 0
10764 0
10765 0
10766 0
10767 0
10768 0
10769 0
10770 0
10771 0
10772 0
10773 0
10774 0
10775 0
10776 0
10777 0
10778 0
10779 0
10780 0
10781 0
10782 0
10783 0
10784 0
10785 0
10786 0
10787 0
10788 0
10789 0
10790 0
10791 0
10792 0
10793 0
10794 0
10795 0
10796 0
10797 0
10798 0
10799 0
10800 0
10801 0
10802 0
10803 0
10804 0
10805 0
10806 0
10807 0
10808 0
10809 0
10810 0
10811 0
10812 0
10813 0
10814 0
10815 0
10816 0
10817 0
10818 0
10819 0
10820 0
10821 0
10822 0
10823 0
10824 0
10825 0
10826 0
10827 0
10828 0
10829 0
10830 0
10831 0
10832 0
10833 0
10834 0
10835 0
10836 0
10837 0
10838 0
10839 0
10840 0
10841 0
10842 0
10843 0
10844 0
10845 0
10846 0
10847 0
10848 0
10849 0
10850 0
10851 0
10852 0
10853 0
10854 0
10855 0
10856 0
10857 0
10858 0
10859 0
10860 0
10861 0
10862 0
10863 0
10864 0
10865 0
10866 0
10867 0
10868 0
10869 0
10870 0
10871 0
10872 0
10873 0
10874 0
10875 0
10876 0
10877 0
10878 0
10879 0
10880 0
10881 0
10882 0
10883 0
10884 0
10885 0
10886 0
10887 0
10888 0
10889 0
10890 0
10891 0
10892 0
10893 0
10894 0
10895 0
10896 0
10897 0
10898 0
10899 0
10900 0
10901 0
10902 0
10903 0
10904 0
10905 0
10906 0
10907 0
10908 0
10909 0
10910 0
10911 0
10912 0
10913 0
10914 0
10915 0
10916 0
10917 0
10918 0
10919 0
10920 0
10921 0
10922 0
10923 0
10924 0
10925 0
10926 0
10927 0
10928 0
10929 0
10930 0
10931 0
10932 0
10933 0
10934 0
10935 0
10936 0
10937 0
10938 0
10939 0
10940 0
10941 0
10942 0
10943 0
10944 0
10945 0
10946 0
10947 0
10948 0
10949 0
10950 0
10951 0
10952 0
10953 0
10954 0
10955 0
10956 0
10957 0
10958 0
10959 0
10960 0
10961 0
10962 0
10963 0
10964 0
10965 0
10966 0
10967 0
10968 0
10969 0
10970 0
10971 0
10972 0
10973 0
10974 0
10975 0
10976 0
10977 0
10978 0
10979 0
10980 0
10981 0
10982 0
10983 0
10984 0
10985 0
10986 0
10987 0
10988 0
10989 0
10990 0
10991 0
10992 0
10993 0
10994 0
10995 0
10996 0
10997 0
10998 0
10999 0
11000 0
11001 0
11002 0
11003 0
11004 0
11005 0
11006 0
11007 0
11008 0
11009 0
11010 0
11011 0
11012 0
11013 0
11014 0
11015 0
11016 0
11017 0
11018 0
11019 0
11020 0
11021 0
11022 0
11023 0
11024 0
11025 0
11026 0
11027 0
11028 0
11029 0
11030 0
11031 0
11032 0
11033 0
11034 0
11035 0
11036 0
11037 0
11038 0
11039 0
11040 0
11041 0
11042 0
11043 0
11044 0
11045 0
11046 0
11047 0
11048 0
11049 0
11050 0
11051 0
11052 0
11053 0
11054 0
11055 0
11056 0
11057 0
11058 0
11059 0
11060 0
11061 0
11062 0
11063 0
11064 0
11065 0
11066 0
11067 0
11068 0
11069 0
11070 0
11071 0
11072 0
11073 0
11074 0
11075 0
11076 0
11077 0
11078 0
11079 0
11080 0
11081 0
11082 0
11083 0
11084 0
11085 0
11086 0
11087 0
11088 0
11089 0
11090 0
11091 0
11092 0
11093 0
11094 0
11095 0
11096 0
11097 0
11098 0
11099 0
11100 0
11101 0
11102 0
11103 0
11104 0
11105 0
11106 0
11107 0
11108 0
11109 0
11110 0
11111 0
11112 0
11113 0
11114 0
11115 0
11116 0
11117 0
11118 0
11119 0
11120 0
11121 0
11122 0
11123 0
11124 0
11125 0
11126 0
11127 0
11128 0
11129 0
11130 0
11131 0
11132 0
11133 0
11134 0
11135 0
11136 0
11137 0
11138 0
11139 0
11140 0
11141 0
11142 0
11143 0
11144 0
11145 0
11146 0
11147 0
11148 0
11149 0
11150 0
11151 0
11152 0
11153 0
11154 0
11155 0
11156 0
11157 0
11158 0
11159 0
11160 0
11161 0
11162 0
11163 0
11164 0
11165 0
11166 0
11167 0
11168 0
11169 0
11170 0
11171 0
11172 0
11173 0
11174 0
11175 0
11176 0
11177 0
11178 0
11179 0
11180 0
11181 0
11182 0
11183 0
11184 0
11185 0
11186 0
11187 0
11188 0
11189 0
11190 0
11191 0
11192 0
11193 0
11194 0
11195 0
11196 0
11197 0
11198 0
11199 0
11200 0
11201 0
11202 0
11203 0
11204 0
11205 0
11206 0
11207 0
11208 0
11209 0
11210 0
11211 0
11212 0
11213 0
11214 0
11215 0
11216 0
11217 0
11218 0
11219 0
11220 0
11221 0
11222 0
11223 0
11224 0
11225 0
11226 0
11227 0
11228 0
11229 0
11230 0
11231 0
11232 0
11233 0
11234 0
11235 0
11236 0
11237 0
11238 0
11239 0
11240 0
11241 0
11242 0
11243 0
11244 0
11245 0
11246 0
11247 0
11248 0
11249 0
11250 0
11251 0
11252 0
11253 0
11254 0
11255 0
11256 0
11257 0
11258 0
11259 0
11260 0
11261 0
11262 0
11263 0
11264 0
11265 0
11266 0
11267 0
11268 0
11269 0
11270 0
11271 0
11272 0
11273 0
11274 0
11275 0
11276 0
11277 0
11278 0
11279 0
11280 0
11281 0
11282 0
11283 0
11284 0
11285 0
11286 0
11287 0
11288 0
11289 0
11290 0
11291 0
11292 0
11293 0
11294 0
11295 0
11296 0
11297 0
11298 0
11299 0
11300 0
11301 0
11302 0
11303 0
11304 0
11305 0
11306 0
11307 0
11308 0
11309 0
11310 0
11311 0
11312 0
11313 0
11314 0
11315 0
11316 0
11317 0
11318 0
11319 0
11320 0
11321 0
11322 0
11323 0
11324 0
11325 0
11326 0
11327 0
11328 0
11329 0
11330 0
11331 0
11332 0
11333 0
11334 0
11335 0
11336 0
11337 0
11338 0
11339 0
11340 0
11341 0
11342 0
11343 0
11344 0
11345 0
11346 0
11347 0
11348 0
11349 0
11350 0
11351 0
11352 0
11353 0
11354 0
11355 0
11356 0
11357 0
11358 0
11359 0
11360 0
11361 0
11362 0
11363 0
11364 0
11365 0
11366 0
11367 0
11368 0
11369 0
11370 0
11371 0
11372 0
11373 0
11374 0
11375 0
11376 0
11377 0
11378 0
11379 0
11380 0
11381 0
11382 0
11383 0
11384 0
11385 0
11386 0
11387 0
11388 0
11389 0
11390 0
11391 0
11392 0
11393 0
11394 0
11395 0
11396 0
11397 0
11398 0
11399 0
11400 0
11401 0
11402 0
11403 0
11404 0
11405 0
11406 0
11407 0
11408 0
11409 0
11410 0
11411 0
11412 0
11413 0
11414 0
11415 0
11416 0
11417 0
11418 0
11419 0
11420 0
11421 0
11422 0
11423 0
11424 0
11425 0
11426 0
11427 0
11428 0
11429 0
11430 0
11431 0
11432 0
11433 0
11434 0
11435 0
11436 0
11437 0
11438 0
11439 0
11440 0
11441 0
11442 0
11443 0
11444 0
11445 0
11446 0
11447 0
11448 0
11449 0
11450 0
11451 0
11452 0
11453 0
11454 0
11455 0
11456 0
11457 0
11458 0
11459 0
11460 0
11461 0
11462 0
11463 0
11464 0
11465 0
11466 0
11467 0
11468 0
11469 0
11470 0
11471 0
11472 0
11473 0
11474 0
11475 0
11476 0
11477 0
11478 0
11479 0
11480 0
11481 0
11482 0
11483 0
11484 0
11485 0
11486 0
11487 0
11488 0
11489 0
11490 0
11491 0
11492 0
11493 0
11494 0
11495 0
11496 0
11497 0
11498 0
11499 0
11500 0
11501 0
11502 0
11503 0
11504 0
11505 0
11506 0
11507 0
11508 0
11509 0
11510 0
11511 0
11512 0
11513 0
11514 0
11515 0
11516 0
11517 0
11518 0
11519 0
11520 0
11521 0
11522 0
11523 0
11524 0
11525 0
11526 0
11527 0
11528 0
11529 0
11530 0
11531 0
11532 0
11533 0
11534 0
11535 0
11536 0
11537 0
11538 0
11539 0
11540 0
11541 0
11542 0
11543 0
11544 0
11545 0
11546 0
11547 0
11548 0
11549 0
11550 0
11551 0
11552 0
11553 0
11554 0
11555 0
11556 0
11557 0
11558 0
11559 0
11560 0
11561 0
11562 0
11563 0
11564 0
11565 0
11566 0
11567 0
11568 0
11569 0
11570 0
11571 0
11572 0
11573 0
11574 0
11575 0
11576 0
11577 0
11578 0
11579 0
11580 0
11581 0
11582 0
11583 0
11584 0
11585 0
11586 0
11587 0
11588 0
11589 0
11590 0
11591 0
11592 0
11593 0
11594 0
11595 0
11596 0
11597 0
11598 0
11599 0
11600 0
11601 0
11602 0
11603 0
11604 0
11605 0
11606 0
11607 0
11608 0
11609 0
11610 0
11611 0
11612 0
11613 0
11614 0
11615 0
11616 0
11617 0
11618 0
11619 0
11620 0
11621 0
11622 0
11623 0
11624 0
11625 0
11626 0
11627 0
11628 0
11629 0
11630 0
11631 0
11632 0
11633 0
11634 0
11635 0
11636 0
11637 0
11638 0
11639 0
11640 0
11641 0
11642 0
11643 0
11644 0
11645 0
11646 0
11647 0
11648 0
11649 0
11650 0
11651 0
11652 0
11653 0
11654 0
11655 0
11656 0
11657 0
11658 0
11659 0
11660 0
11661 0
11662 0
11663 0
11664 0
11665 0
11666 0
11667 0
11668 0
11669 0
11670 0
11671 0
11672 0
11673 0
11674 0
11675 0
11676 0
11677 0
11678 0
11679 0
11680 0
11681 0
11682 0
11683 0
11684 0
11685 0
11686 0
11687 0
11688 0
11689 0
11690 0
11691 0
11692 0
11693 0
11694 0
11695 0
11696 0
11697 0
11698 0
11699 0
11700 0
11701 0
11702 0
11703 0
11704 0
11705 0
11706 0
11707 0
11708 0
11709 0
11710 0
11711 0
11712 0
11713 0
11714 0
11715 0
11716 0
11717 0
11718 0
11719 0
11720 0
11721 0
11722 0
11723 0
11724 0
11725 0
11726 0
11727 0
11728 0
11729 0
11730 0
11731 0
11732 0
11733 0
11734 0
11735 0
11736 0
11737 0
11738 0
11739 0
11740 0
11741 0
11742 0
11743 0
11744 0
11745 0
11746 0
11747 0
11748 0
11749 0
11750 0
11751 0
11752 0
11753 0
11754 0
11755 0
11756 0
11757 0
11758 0
11759 0
11760 0
11761 0
11762 0
11763 0
11764 0
11765 0
11766 0
11767 0
11768 0
11769 0
11770 0
11771 0
11772 0
11773 0
11774 0
11775 0
11776 0
11777 0
11778 0
11779 0
11780 0
11781 0
11782 0
11783 0
11784 0
11785 0
11786 0
11787 0
11788 0
11789 0
11790 0
11791 0
11792 0
11793 0
11794 0
11795 0
11796 0
11797 0
11798 0
11799 0
11800 0
11801 0
11802 0
11803 0
11804 0
11805 0
11806 0
11807 0
11808 0
11809 0
11810 0
11811 0
11812 0
11813 0
11814 0
11815 0
11816 0
11817 0
11818 0
11819 0
11820 0
11821 0
11822 0
11823 0
11824 0
11825 0
11826 0
11827 0
11828 0
11829 0
11830 0
11831 0
11832 0
11833 0
11834 0
11835 0
11836 0
11837 0
11838 0
11839 0
11840 0
11841 0
11842 0
11843 0
11844 0
11845 0
11846 0
11847 0
11848 0
11849 0
11850 0
11851 0
11852 0
11853 0
11854 0
11855 0
11856 0
11857 0
11858 0
11859 0
11860 0
11861 0
11862 0
11863 0
11864 0
11865 0
11866 0
11867 0
11868 0
11869 0
11870 0
11871 0
11872 0
11873 0
11874 0
11875 0
11876 0
11877 0
11878 0
11879 0
11880 0
11881 0
11882 0
11883 0
11884 0
11885 0
11886 0
11887 0
11888 0
11889 0
11890 0
11891 0
11892 0
11893 0
11894 0
11895 0
11896 0
11897 0
11898 0
11899 0
11900 0
11901 0
11902 0
11903 0
11904 0
11905 0
11906 0
11907 0
11908 0
11909 0
11910 0
11911 0
11912 0
11913 0
11914 0
11915 0
11916 0
11917 0
11918 0
11919 0
11920 0
11921 0
11922 0
11923 0
11924 0
11925 0
11926 0
11927 0
11928 0
11929 0
11930 0
11931 0
11932 0
11933 0
11934 0
11935 0
11936 0
11937 0
11938 0
11939 0
11940 0
11941 0
11942 0
11943 0
11944 0
11945 0
11946 0
11947 0
11948 0
11949 0
11950 0
11951 0
11952 0
11953 0
11954 0
11955 0
11956 0
11957 0
11958 0
11959 0
11960 0
11961 0
11962 0
11963 0
11964 0
11965 0
11966 0
11967 0
11968 0
11969 0
11970 0
11971 0
11972 0
11973 0
11974 0
11975 0
11976 0
11977 0
11978 0
11979 0
11980 0
11981 0
11982 0
11983 0
11984 0
11985 0
11986 0
11987 0
11988 0
11989 0
11990 0
11991 0
11992 0
11993 0
11994 0
11995 0
11996 0
11997 0
11998 0
11999 0
12001 0
12002 0
12003 0
12004 0
12005 0
12006 0
12007 0
12008 0
12009 0
12010 0
12011 0
12012 0
12013 0
12014 0
12015 0
12016 0
12017 0
12018 0
12019 0
12020 0
12021 0
12022 0
12023 0
12024 0
12025 0
12026 0
12027 0
12028 0
12029 0
12030 0
12031 0
12032 0
12033 0
12034 0
12035 0
12036 0
12037 0
12038 0
12039 0
12040 0
12041 0
12042 0
12043 0
12044 0
12045 0
12046 0
12047 0
12048 0
12049 0
12050 0
12051 0
12052 0
12053 0
12054 0
12055 0
12056 0
12057 0
12058 0
12059 0
12060 0
12061 0
12062 0
12063 0
12064 0
12065 0
12066 0
12067 0
12068 0
12069 0
12070 0
12071 0
12072 0
12073 0
12074 0
12075 0
12076 0
12077 0
12078 0
12079 0
12080 0
12081 0
12082 0
12083 0
12084 0
12085 0
12086 0
12087 0
12088 0
12089 0
12090 0
12091 0
12092 0
12093 0
12094 0
12095 0
12096 0
12097 0
12098 0
12099 0
12100 0
12101 0
12102 0
12103 0
12104 0
12105 0
12106 0
12107 0
12108 0
12109 0
12110 0
12111 0
12112 0
12113 0
12114 0
12115 0
12116 0
12117 0
12118 0
12119 0
12120 0
12121 0
12122 0
12123 0
12124 0
12125 0
12126 0
12127 0
12128 0
12129 0
12130 0
12131 0
12132 0
12133 0
12134 0
12135 0
12136 0
12137 0
12138 0
12139 0
12140 0
12141 0
12142 0
12143 0
12144 0
12145 0
12146 0
12147 0
12148 0
12149 0
12150 0
12151 0
12152 0
12153 0
12154 0
12155 0
12156 0
12157 0
12158 0
12159 0
12160 0
12161 0
12162 0
12163 0
12164 0
12165 0
12166 0
12167 0
12168 0
12169 0
12170 0
12171 0
12172 0
12173 0
12174 0
12175 0
12176 0
12177 0
12178 0
12179 0
12180 0
12181 0
12182 0
12183 0
12184 0
12185 0
12186 0
12187 0
12188 0
12189 0
12190 0
12191 0
12192 0
12193 0
12194 0
12195 0
12196 0
12197 0
12198 0
12199 0
12200 0
12201 0
12202 0
12203 0
12204 0
12205 0
12206 0
12207 0
12208 0
12209 0
12210 0
12211 0
12212 0
12213 0
12214 0
12215 0
12216 0
12217 0
12218 0
12219 0
12220 0
12221 0
12222 0
12223 0
12224 0
12225 0
12226 0
12227 0
12228 0
12229 0
12230 0
12231 0
12232 0
12233 0
12234 0
12235 0
12236 0
12237 0
12238 0
12239 0
12240 0
12241 0
12242 0
12243 0
12244 0
12245 0
12246 0
12247 0
12248 0
12249 0
12250 0
12251 0
12252 0
12253 0
12254 0
12255 0
12256 0
12257 0
12258 0
12259 0
12260 0
12261 0
12262 0
12263 0
12264 0
12265 0
12266 0
12267 0
12268 0
12269 0
12270 0
12271 0
12272 0
12273 0
12274 0
12275 0
12276 0
12277 0
12278 0
12279 0
12280 0
12281 0
12282 0
12283 0
12284 0
12285 0
12286 0
12287 0
12288 0
12289 0
12290 0
12291 0
12292 0
12293 0
12294 0
12295 0
12296 0
12297 0
12298 0
12299 0
12300 0
12301 0
12302 0
12303 0
12304 0
12305 0
12306 0
12307 0
12308 0
12309 0
12310 0
12311 0
12312 0
12313 0
12314 0
12315 0
12316 0
12317 0
12318 0
12319 0
12320 0
12321 0
12322 0
12323 0
12324 0
12325 0
12326 0
12327 0
12328 0
12329 0
12330 0
12331 0
12332 0
12333 0
12334 0
12335 0
12336 0
12337 0
12338 0
12339 0
12340 0
12341 0
12342 0
12343 0
12344 0
12345 0
12346 0
12347 0
12348 0
12349 0
12350 0
12351 0
12352 0
12353 0
12354 0
12355 0
12356 0
12357 0
12358 0
12359 0
12360 0
12361 0
12362 0
12363 0
12364 0
12365 0
12366 0
12367 0
12368 0
12369 0
12370 0
12371 0
12372 0
12373 0
12374 0
12375 0
12376 0
12377 0
12378 0
12379 0
12380 0
12381 0
12382 0
12383 0
12384 0
12385 0
12386 0
12387 0
12388 0
12389 0
12390 0
12391 0
12392 0
12393 0
12394 0
12395 0
12396 0
12397 0
12398 0
12399 0
12400 0
12401 0
12402 0
12403 0
12404 0
12405 0
12406 0
12407 0
12408 0
12409 0
12410 0
12411 0
12412 0
12413 0
12414 0
12415 0
12416 0
12417 0
12418 0
12419 0
12420 0
12421 0
12422 0
12423 0
12424 0
12425 0
12426 0
12427 0
12428 0
12429 0
12430 0
12431 0
12432 0
12433 0
12434 0
12435 0
12436 0
12437 0
12438 0
12439 0
12440 0
12441 0
12442 0
12443 0
12444 0
12445 0
12446 0
12447 0
12448 0
12449 0
12450 0
12451 0
12452 0
12453 0
12454 0
12455 0
12456 0
12457 0
12458 0
12459 0
12460 0
12461 0
12462 0
12463 0
12464 0
12465 0
12466 0
12467 0
12468 0
12469 0
12470 0
12471 0
12472 0
12473 0
12474 0
12475 0
12476 0
12477 0
12478 0
12479 0
12480 0
12481 0
12482 0
12483 0
12484 0
12485 0
12486 0
12487 0
12488 0
12489 0
12490 0
12491 0
12492 0
12493 0
12494 0
12495 0
12496 0
12497 0
12498 0
12499 0
12500 0
12501 0
12502 0
12503 0
12504 0
12505 0
12506 0
12507 0
12508 0
12509 0
12510 0
12511 0
12512 0
12513 0
12514 0
12515 0
12516 0
12517 0
12518 0
12519 0
12520 0
12521 0
12522 0
12523 0
12524 0
12525 0
12526 0
12527 0
12528 0
12529 0
12530 0
12531 0
12532 0
12533 0
12534 0
12535 0
12536 0
12537 0
12538 0
12539 0
12540 0
12541 0
12542 0
12543 0
12544 0
12545 0
12546 0
12547 0
12548 0
12549 0
12550 0
12551 0
12552 0
12553 0
12554 0
12555 0
12556 0
12557 0
12558 0
12559 0
12560 0
12561 0
12562 0
12563 0
12564 0
12565 0
12566 0
12567 0
12568 0
12569 0
12570 0
12571 0
12572 0
12573 0
12574 0
12575 0
12576 0
12577 0
12578 0
12579 0
12580 0
12581 0
12582 0
12583 0
12584 0
12585 0
12586 0
12587 0
12588 0
12589 0
12590 0
12591 0
12592 0
12593 0
12594 0
12595 0
12596 0
12597 0
12598 0
12599 0
12600 0
12601 0
12602 0
12603 0
12604 0
12605 0
12606 0
12607 0
12608 0
12609 0
12610 0
12611 0
12612 0
12613 0
12614 0
12615 0
12616 0
12617 0
12618 0
12619 0
12620 0
12621 0
12622 0
12623 0
12624 0
12625 0
12626 0
12627 0
12628 0
12629 0
12630 0
12631 0
12632 0
12633 0
12634 0
12635 0
12636 0
12637 0
12638 0
12639 0
12640 0
12641 0
12642 0
12643 0
12644 0
12645 0
12646 0
12647 0
12648 0
12649 0
12650 0
12651 0
12652 0
12653 0
12654 0
12655 0
12656 0
12657 0
12658 0
12659 0
12660 0
12661 0
12662 0
12663 0
12664 0
12665 0
12666 0
12667 0
12668 0
12669 0
12670 0
12671 0
12672 0
12673 0
12674 0
12675 0
12676 0
12677 0
12678 0
12679 0
12680 0
12681 0
12682 0
12683 0
12684 0
12685 0
12686 0
12687 0
12688 0
12689 0
12690 0
12691 0
12692 0
12693 0
12694 0
12695 0
12696 0
12697 0
12698 0
12699 0
12700 0
12701 0
12702 0
12703 0
12704 0
12705 0
12706 0
12707 0
12708 0
12709 0
12710 0
12711 0
12712 0
12713 0
12714 0
12715 0
12716 0
12717 0
12718 0
12719 0
12720 0
12721 0
12722 0
12723 0
12724 0
12725 0
12726 0
12727 0
12728 0
12729 0
12730 0
12731 0
12732 0
12733 0
12734 0
12735 0
12736 0
12737 0
12738 0
12739 0
12740 0
12741 0
12742 0
12743 0
12744 0
12745 0
12746 0
12747 0
12748 0
12749 0
12750 0
12751 0
12752 0
12753 0
12754 0
12755 0
12756 0
12757 0
12758 0
12759 0
12760 0
12761 0
12762 0
12763 0
12764 0
12765 0
12766 0
12767 0
12768 0
12769 0
12770 0
12771 0
12772 0
12773 0
12774 0
12775 0
12776 0
12777 0
12778 0
12779 0
12780 0
12781 0
12782 0
12783 0
12784 0
12785 0
12786 0
12787 0
12788 0
12789 0
12790 0
12791 0
12792 0
12793 0
12794 0
12795 0
12796 0
12797 0
12798 0
12799 0
12800 0
12801 0
12802 0
12803 0
12804 0
12805 0
12806 0
12807 0
12808 0
12809 0
12810 0
12811 0
12812 0
12813 0
12814 0
12815 0
12816 0
12817 0
12818 0
12819 0
12820 0
12821 0
12822 0
12823 0
12824 0
12825 0
12826 0
12827 0
12828 0
12829 0
12830 0
12831 0
12832 0
12833 0
12834 0
12835 0
12836 0
12837 0
12838 0
12839 0
12840 0
12841 0
12842 0
12843 0
12844 0
12845 0
12846 0
12847 0
12848 0
12849 0
12850 0
12851 0
12852 0
12853 0
12854 0
12855 0
12856 0
12857 0
12858 0
12859 0
12860 0
12861 0
12862 0
12863 0
12864 0
12865 0
12866 0
12867 0
12868 0
12869 0
12870 0
12871 0
12872 0
12873 0
12874 0
12875 0
12876 0
12877 0
12878 0
12879 0
12880 0
12881 0
12882 0
12883 0
12884 0
12885 0
12886 0
12887 0
12888 0
12889 0
12890 0
12891 0
12892 0
12893 0
12894 0
12895 0
12896 0
12897 0
12898 0
12899 0
12900 0
12901 0
12902 0
12903 0
12904 0
12905 0
12906 0
12907 0
12908 0
12909 0
12910 0
12911 0
12912 0
12913 0
12914 0
12915 0
12916 0
12917 0
12918 0
12919 0
12920 0
12921 0
12922 0
12923 0
12924 0
12925 0
12926 0
12927 0
12928 0
12929 0
12930 0
-2215 0
-2256 0
-2243 0
-2233 0
-2224 0
-2249 0
-2237 0
-2260 0
-2225 0
-2231 0
-2242 0
-2239 0
-2241 0
-2248 0
-2247 0
-2222 0
-2219 0
-2228 0
-2246 0
-2229 0
-2223 0
-2227 0
-2220 0
-2244 0
2 0
