c BC-S1.2
p cnf 426 1322
1 -2 0
-1 2 0
-3 4 5 6 7 8 9 10 11 12 13 0
3 -4 0
3 -5 0
3 -6 0
3 -7 0
3 -8 0
3 -9 0
3 -10 0
3 -11 0
3 -12 0
3 -13 0
-14 15 16 0
14 -15 0
14 -16 0
-17 18 19 0
17 -18 0
17 -19 0
-20 21 22 0
20 -21 0
20 -22 0
-23 24 25 0
23 -24 0
23 -25 0
-26 27 28 0
26 -27 0
26 -28 0
-29 30 31 32 33 0
29 -30 0
29 -31 0
29 -32 0
29 -33 0
-34 35 36 0
34 -35 0
34 -36 0
-37 38 39 0
37 -38 0
37 -39 0
-40 41 42 0
40 -41 0
40 -42 0
-43 44 45 0
43 -44 0
43 -45 0
-46 47 48 0
46 -47 0
46 -48 0
-49 50 51 0
49 -50 0
49 -51 0
-52 53 54 0
52 -53 0
52 -54 0
-55 56 57 0
55 -56 0
55 -57 0
-58 59 60 0
58 -59 0
58 -60 0
-61 62 63 0
61 -62 0
61 -63 0
-64 65 66 0
64 -65 0
64 -66 0
-67 68 69 0
67 -68 0
67 -69 0
-70 71 72 0
70 -71 0
70 -72 0
-73 74 75 0
73 -74 0
73 -75 0
-76 77 78 0
76 -77 0
76 -78 0
-79 80 81 0
79 -80 0
79 -81 0
-82 83 84 0
82 -83 0
82 -84 0
-85 86 87 0
85 -86 0
85 -87 0
-88 89 90 0
88 -89 0
88 -90 0
-91 92 93 0
91 -92 0
91 -93 0
-94 95 96 0
94 -95 0
94 -96 0
-97 98 99 0
97 -98 0
97 -99 0
-100 101 102 0
100 -101 0
100 -102 0
-103 104 105 0
103 -104 0
103 -105 0
-106 107 108 0
106 -107 0
106 -108 0
-109 110 111 0
109 -110 0
109 -111 0
-112 113 114 0
112 -113 0
112 -114 0
-115 116 117 0
115 -116 0
115 -117 0
-118 119 120 0
118 -119 0
118 -120 0
-121 122 123 0
121 -122 0
121 -123 0
-124 125 126 0
124 -125 0
124 -126 0
-127 128 129 130 131 0
127 -128 0
127 -129 0
127 -130 0
127 -131 0
-132 133 134 0
132 -133 0
132 -134 0
-135 136 137 0
135 -136 0
135 -137 0
-138 139 140 0
138 -139 0
138 -140 0
-141 142 143 0
141 -142 0
141 -143 0
-144 145 146 0
144 -145 0
144 -146 0
-147 148 149 0
147 -148 0
147 -149 0
-150 151 152 0
150 -151 0
150 -152 0
-153 154 155 0
153 -154 0
153 -155 0
156 -145 0
-156 145 0
157 -148 0
-157 148 0
-158 159 160 0
158 -159 0
158 -160 0
161 -154 0
-161 154 0
162 -151 0
-162 151 0
-163 164 165 0
163 -164 0
163 -165 0
-166 167 168 0
166 -167 0
166 -168 0
-169 170 171 172 0
169 -170 0
169 -171 0
169 -172 0
-173 174 175 176 0
173 -174 0
173 -175 0
173 -176 0
-177 178 179 0
177 -178 0
177 -179 0
180 -134 0
-180 134 0
181 -136 0
-181 136 0
182 -139 0
-182 139 0
-183 184 185 186 0
183 -184 0
183 -185 0
183 -186 0
187 -142 0
-187 142 0
-188 189 190 191 192 193 0
188 -189 0
188 -190 0
188 -191 0
188 -192 0
188 -193 0
2 -1 0
-2 1 0
4 -194 195 -127 0
-4 194 0
-4 -195 0
-4 127 0
5 -196 197 -150 0
-5 196 0
-5 -197 0
-5 150 0
6 -198 199 0
-6 198 0
-6 -199 0
7 -200 201 202 -132 0
-7 200 0
-7 -201 0
-7 -202 0
-7 132 0
8 -203 204 205 -138 0
-8 203 0
-8 -204 0
-8 -205 0
-8 138 0
9 -206 207 208 -135 0
-9 206 0
-9 -207 0
-9 -208 0
-9 135 0
10 -209 210 211 -153 0
-10 209 0
-10 -210 0
-10 -211 0
-10 153 0
11 -212 213 -147 0
-11 212 0
-11 -213 0
-11 147 0
12 -214 215 216 -141 0
-12 214 0
-12 -215 0
-12 -216 0
-12 141 0
13 -217 218 219 -144 0
-13 217 0
-13 -218 0
-13 -219 0
-13 144 0
15 -198 0
-15 198 0
16 -220 0
-16 220 0
18 -163 0
-18 163 0
19 -221 115 197 -43 0
-19 221 0
-19 -115 0
-19 -197 0
-19 43 0
21 -222 0
-21 222 0
22 -223 0
-22 223 0
24 -188 0
-24 188 0
25 -215 216 -29 0
-25 215 0
-25 -216 0
-25 29 0
27 -20 0
-27 20 0
28 -224 0
-28 224 0
30 -201 202 -169 0
-30 201 0
-30 -202 0
-30 169 0
31 -224 20 225 -3 0
-31 224 0
-31 -20 0
-31 -225 0
-31 3 0
32 -226 82 195 -188 0
-32 226 0
-32 -82 0
-32 -195 0
-32 188 0
33 -141 0
-33 141 0
35 -227 0
-35 227 0
36 -26 0
-36 26 0
38 -166 0
-38 166 0
39 -228 106 202 -58 0
-39 228 0
-39 -106 0
-39 -202 0
-39 58 0
41 -229 0
-41 229 0
42 -34 0
-42 34 0
44 -173 0
-44 173 0
45 -207 208 -64 0
-45 207 0
-45 -208 0
-45 64 0
47 -230 0
-47 230 0
48 -40 0
-48 40 0
50 -177 0
-50 177 0
51 -231 194 195 -23 0
-51 231 0
-51 -194 0
-51 -195 0
-51 23 0
53 -46 0
-53 46 0
54 -232 0
-54 232 0
56 -233 0
-56 233 0
57 -52 0
-57 52 0
59 -234 97 216 -29 0
-59 234 0
-59 -97 0
-59 -216 0
-59 29 0
60 -169 0
-60 169 0
62 -55 0
-62 55 0
63 -235 0
-63 235 0
65 -183 0
-65 183 0
66 -236 88 195 -23 0
-66 236 0
-66 -88 0
-66 -195 0
-66 23 0
68 -237 0
-68 237 0
69 -61 0
-69 61 0
71 -238 85 195 -23 0
-71 238 0
-71 -85 0
-71 -195 0
-71 23 0
72 -158 0
-72 158 0
74 -239 0
-74 239 0
75 -67 0
-75 67 0
240 -239 67 225 -3 0
-240 239 0
-240 -67 0
-240 -225 0
-240 3 0
77 -218 0
-77 218 0
78 -217 0
-78 217 0
80 -241 0
-80 241 0
81 -76 0
-81 76 0
83 -194 0
-83 194 0
84 -231 0
-84 231 0
86 -82 0
-86 82 0
87 -226 0
-87 226 0
89 -238 0
-89 238 0
90 -85 0
-90 85 0
92 -88 0
-92 88 0
93 -236 0
-93 236 0
95 -204 0
-95 204 0
96 -203 0
-96 203 0
98 -215 0
-98 215 0
99 -214 0
-99 214 0
101 -97 0
-101 97 0
102 -234 0
-102 234 0
104 -209 0
-104 209 0
105 -210 0
-105 210 0
107 -201 0
-107 201 0
108 -200 0
-108 200 0
110 -106 0
-110 106 0
111 -228 0
-111 228 0
113 -212 0
-113 212 0
114 -242 0
-114 242 0
116 -196 0
-116 196 0
117 -243 0
-117 243 0
119 -115 0
-119 115 0
120 -221 0
-120 221 0
122 -206 0
-122 206 0
123 -207 0
-123 207 0
125 -244 0
-125 244 0
126 -121 0
-126 121 0
128 -215 216 -187 0
-128 215 0
-128 -216 0
-128 187 0
129 -244 121 208 -181 0
-129 244 0
-129 -121 0
-129 -208 0
-129 181 0
130 -204 205 -182 0
-130 204 0
-130 -205 0
-130 182 0
131 -210 211 -161 0
-131 210 0
-131 -211 0
-131 161 0
133 -234 97 216 -141 0
-133 234 0
-133 -97 0
-133 -216 0
-133 141 0
134 -180 0
-134 180 0
136 -181 0
-136 181 0
137 -236 88 195 -127 0
-137 236 0
-137 -88 0
-137 -195 0
-137 127 0
139 -182 0
-139 182 0
140 -231 194 195 -127 0
-140 231 0
-140 -194 0
-140 -195 0
-140 127 0
142 -187 0
-142 187 0
143 -226 82 195 -127 0
-143 226 0
-143 -82 0
-143 -195 0
-143 127 0
145 -156 0
-145 156 0
146 -221 115 197 -150 0
-146 221 0
-146 -115 0
-146 -197 0
-146 150 0
148 -157 0
-148 157 0
149 -228 106 202 -132 0
-149 228 0
-149 -106 0
-149 -202 0
-149 132 0
151 -162 0
-151 162 0
152 -207 208 -135 0
-152 207 0
-152 -208 0
-152 135 0
154 -161 0
-154 161 0
155 -238 85 195 -127 0
-155 238 0
-155 -85 0
-155 -195 0
-155 127 0
245 -220 198 199 0
-245 220 0
-245 -198 0
-245 -199 0
159 -153 0
-159 153 0
160 -237 61 225 -3 0
-160 237 0
-160 -61 0
-160 -225 0
-160 3 0
246 -241 76 219 -156 0
-246 241 0
-246 -76 0
-246 -219 0
-246 156 0
164 -144 0
-164 144 0
165 -232 46 225 -3 0
-165 232 0
-165 -46 0
-165 -225 0
-165 3 0
167 -147 0
-167 147 0
168 -227 26 225 -3 0
-168 227 0
-168 -26 0
-168 -225 0
-168 3 0
170 -233 52 225 -3 0
-170 233 0
-170 -52 0
-170 -225 0
-170 3 0
171 -242 212 213 -166 0
-171 242 0
-171 -212 0
-171 -213 0
-171 166 0
172 -132 0
-172 132 0
174 -150 0
-174 150 0
175 -229 34 225 -3 0
-175 229 0
-175 -34 0
-175 -225 0
-175 3 0
176 -241 76 219 -163 0
-176 241 0
-176 -76 0
-176 -219 0
-176 163 0
178 -230 40 225 -3 0
-178 230 0
-178 -40 0
-178 -225 0
-178 3 0
179 -138 0
-179 138 0
247 -242 212 213 -157 0
-247 242 0
-247 -212 0
-247 -213 0
-247 157 0
248 -243 196 197 -162 0
-248 243 0
-248 -196 0
-248 -197 0
-248 162 0
184 -135 0
-184 135 0
185 -243 196 197 -173 0
-185 243 0
-185 -196 0
-185 -197 0
-185 173 0
186 -235 55 225 -3 0
-186 235 0
-186 -55 0
-186 -225 0
-186 3 0
249 -201 202 -180 0
-249 201 0
-249 -202 0
-249 180 0
189 -223 222 225 -3 0
-189 223 0
-189 -222 0
-189 -225 0
-189 3 0
190 -210 211 -158 0
-190 210 0
-190 -211 0
-190 158 0
191 -244 121 208 -183 0
-191 244 0
-191 -121 0
-191 -208 0
-191 183 0
192 -204 205 -177 0
-192 204 0
-192 -205 0
-192 177 0
193 -127 0
-193 127 0
-250 -1 2 0
250 1 0
250 -2 0
-251 1 -2 0
251 -1 0
251 2 0
-252 15 -198 0
252 -15 0
252 198 0
-253 -15 198 0
253 15 0
253 -198 0
-254 16 -220 0
254 -16 0
254 220 0
-255 -16 220 0
255 16 0
255 -220 0
-256 18 -163 0
256 -18 0
256 163 0
-257 -18 163 0
257 18 0
257 -163 0
-258 21 -222 0
258 -21 0
258 222 0
-259 -21 222 0
259 21 0
259 -222 0
-260 22 -223 0
260 -22 0
260 223 0
-261 -22 223 0
261 22 0
261 -223 0
-262 24 -188 0
262 -24 0
262 188 0
-263 -24 188 0
263 24 0
263 -188 0
-264 27 -20 0
264 -27 0
264 20 0
-265 -27 20 0
265 27 0
265 -20 0
-266 28 -224 0
266 -28 0
266 224 0
-267 -28 224 0
267 28 0
267 -224 0
-268 33 -141 0
268 -33 0
268 141 0
-269 -33 141 0
269 33 0
269 -141 0
-270 35 -227 0
270 -35 0
270 227 0
-271 -35 227 0
271 35 0
271 -227 0
-272 36 -26 0
272 -36 0
272 26 0
-273 -36 26 0
273 36 0
273 -26 0
-274 38 -166 0
274 -38 0
274 166 0
-275 -38 166 0
275 38 0
275 -166 0
-276 41 -229 0
276 -41 0
276 229 0
-277 -41 229 0
277 41 0
277 -229 0
-278 42 -34 0
278 -42 0
278 34 0
-279 -42 34 0
279 42 0
279 -34 0
-280 44 -173 0
280 -44 0
280 173 0
-281 -44 173 0
281 44 0
281 -173 0
-282 47 -230 0
282 -47 0
282 230 0
-283 -47 230 0
283 47 0
283 -230 0
-284 48 -40 0
284 -48 0
284 40 0
-285 -48 40 0
285 48 0
285 -40 0
-286 50 -177 0
286 -50 0
286 177 0
-287 -50 177 0
287 50 0
287 -177 0
-288 53 -46 0
288 -53 0
288 46 0
-289 -53 46 0
289 53 0
289 -46 0
-290 54 -232 0
290 -54 0
290 232 0
-291 -54 232 0
291 54 0
291 -232 0
-292 56 -233 0
292 -56 0
292 233 0
-293 -56 233 0
293 56 0
293 -233 0
-294 57 -52 0
294 -57 0
294 52 0
-295 -57 52 0
295 57 0
295 -52 0
-296 60 -169 0
296 -60 0
296 169 0
-297 -60 169 0
297 60 0
297 -169 0
-298 62 -55 0
298 -62 0
298 55 0
-299 -62 55 0
299 62 0
299 -55 0
-300 63 -235 0
300 -63 0
300 235 0
-301 -63 235 0
301 63 0
301 -235 0
-302 65 -183 0
302 -65 0
302 183 0
-303 -65 183 0
303 65 0
303 -183 0
-304 68 -237 0
304 -68 0
304 237 0
-305 -68 237 0
305 68 0
305 -237 0
-306 69 -61 0
306 -69 0
306 61 0
-307 -69 61 0
307 69 0
307 -61 0
-308 72 -158 0
308 -72 0
308 158 0
-309 -72 158 0
309 72 0
309 -158 0
-310 74 -239 0
310 -74 0
310 239 0
-311 -74 239 0
311 74 0
311 -239 0
-312 75 -67 0
312 -75 0
312 67 0
-313 -75 67 0
313 75 0
313 -67 0
-314 -315 240 0
314 315 0
314 -240 0
-316 315 -240 0
316 -315 0
316 240 0
-317 77 -218 0
317 -77 0
317 218 0
-318 -77 218 0
318 77 0
318 -218 0
-319 78 -217 0
319 -78 0
319 217 0
-320 -78 217 0
320 78 0
320 -217 0
-321 80 -241 0
321 -80 0
321 241 0
-322 -80 241 0
322 80 0
322 -241 0
-323 81 -76 0
323 -81 0
323 76 0
-324 -81 76 0
324 81 0
324 -76 0
-325 83 -194 0
325 -83 0
325 194 0
-326 -83 194 0
326 83 0
326 -194 0
-327 84 -231 0
327 -84 0
327 231 0
-328 -84 231 0
328 84 0
328 -231 0
-329 86 -82 0
329 -86 0
329 82 0
-330 -86 82 0
330 86 0
330 -82 0
-331 87 -226 0
331 -87 0
331 226 0
-332 -87 226 0
332 87 0
332 -226 0
-333 89 -238 0
333 -89 0
333 238 0
-334 -89 238 0
334 89 0
334 -238 0
-335 90 -85 0
335 -90 0
335 85 0
-336 -90 85 0
336 90 0
336 -85 0
-337 92 -88 0
337 -92 0
337 88 0
-338 -92 88 0
338 92 0
338 -88 0
-339 93 -236 0
339 -93 0
339 236 0
-340 -93 236 0
340 93 0
340 -236 0
-341 95 -204 0
341 -95 0
341 204 0
-342 -95 204 0
342 95 0
342 -204 0
-343 96 -203 0
343 -96 0
343 203 0
-344 -96 203 0
344 96 0
344 -203 0
-345 98 -215 0
345 -98 0
345 215 0
-346 -98 215 0
346 98 0
346 -215 0
-347 99 -214 0
347 -99 0
347 214 0
-348 -99 214 0
348 99 0
348 -214 0
-349 101 -97 0
349 -101 0
349 97 0
-350 -101 97 0
350 101 0
350 -97 0
-351 102 -234 0
351 -102 0
351 234 0
-352 -102 234 0
352 102 0
352 -234 0
-353 104 -209 0
353 -104 0
353 209 0
-354 -104 209 0
354 104 0
354 -209 0
-355 105 -210 0
355 -105 0
355 210 0
-356 -105 210 0
356 105 0
356 -210 0
-357 107 -201 0
357 -107 0
357 201 0
-358 -107 201 0
358 107 0
358 -201 0
-359 108 -200 0
359 -108 0
359 200 0
-360 -108 200 0
360 108 0
360 -200 0
-361 110 -106 0
361 -110 0
361 106 0
-362 -110 106 0
362 110 0
362 -106 0
-363 111 -228 0
363 -111 0
363 228 0
-364 -111 228 0
364 111 0
364 -228 0
-365 113 -212 0
365 -113 0
365 212 0
-366 -113 212 0
366 113 0
366 -212 0
-367 114 -242 0
367 -114 0
367 242 0
-368 -114 242 0
368 114 0
368 -242 0
-369 116 -196 0
369 -116 0
369 196 0
-370 -116 196 0
370 116 0
370 -196 0
-371 117 -243 0
371 -117 0
371 243 0
-372 -117 243 0
372 117 0
372 -243 0
-373 119 -115 0
373 -119 0
373 115 0
-374 -119 115 0
374 119 0
374 -115 0
-375 120 -221 0
375 -120 0
375 221 0
-376 -120 221 0
376 120 0
376 -221 0
-377 122 -206 0
377 -122 0
377 206 0
-378 -122 206 0
378 122 0
378 -206 0
-379 123 -207 0
379 -123 0
379 207 0
-380 -123 207 0
380 123 0
380 -207 0
-381 125 -244 0
381 -125 0
381 244 0
-382 -125 244 0
382 125 0
382 -244 0
-383 126 -121 0
383 -126 0
383 121 0
-384 -126 121 0
384 126 0
384 -121 0
-385 134 -180 0
385 -134 0
385 180 0
-386 -134 180 0
386 134 0
386 -180 0
-387 136 -181 0
387 -136 0
387 181 0
-388 -136 181 0
388 136 0
388 -181 0
-389 139 -182 0
389 -139 0
389 182 0
-390 -139 182 0
390 139 0
390 -182 0
-391 142 -187 0
391 -142 0
391 187 0
-392 -142 187 0
392 142 0
392 -187 0
-393 145 -156 0
393 -145 0
393 156 0
-394 -145 156 0
394 145 0
394 -156 0
-395 148 -157 0
395 -148 0
395 157 0
-396 -148 157 0
396 148 0
396 -157 0
-397 151 -162 0
397 -151 0
397 162 0
-398 -151 162 0
398 151 0
398 -162 0
-399 154 -161 0
399 -154 0
399 161 0
-400 -154 161 0
400 154 0
400 -161 0
-401 -156 245 0
401 156 0
401 -245 0
-402 156 -245 0
402 -156 0
402 245 0
-403 159 -153 0
403 -159 0
403 153 0
-404 -159 153 0
404 159 0
404 -153 0
-405 -162 246 0
405 162 0
405 -246 0
-406 162 -246 0
406 -162 0
406 246 0
-407 164 -144 0
407 -164 0
407 144 0
-408 -164 144 0
408 164 0
408 -144 0
-409 167 -147 0
409 -167 0
409 147 0
-410 -167 147 0
410 167 0
410 -147 0
-411 172 -132 0
411 -172 0
411 132 0
-412 -172 132 0
412 172 0
412 -132 0
-413 174 -150 0
413 -174 0
413 150 0
-414 -174 150 0
414 174 0
414 -150 0
-415 179 -138 0
415 -179 0
415 138 0
-416 -179 138 0
416 179 0
416 -138 0
-417 -180 247 0
417 180 0
417 -247 0
-418 180 -247 0
418 -180 0
418 247 0
-419 -181 248 0
419 181 0
419 -248 0
-420 181 -248 0
420 -181 0
420 248 0
-421 184 -135 0
421 -184 0
421 135 0
-422 -184 135 0
422 184 0
422 -135 0
-423 -187 249 0
423 187 0
423 -249 0
-424 187 -249 0
424 -187 0
424 249 0
-425 193 -127 0
425 -193 0
425 127 0
-426 -193 127 0
426 193 0
426 -127 0
250 0
251 0
252 0
253 0
254 0
255 0
256 0
257 0
258 0
259 0
260 0
261 0
262 0
263 0
264 0
265 0
266 0
267 0
268 0
269 0
270 0
271 0
272 0
273 0
274 0
275 0
276 0
277 0
278 0
279 0
280 0
281 0
282 0
283 0
284 0
285 0
286 0
287 0
288 0
289 0
290 0
291 0
292 0
293 0
294 0
295 0
296 0
297 0
298 0
299 0
300 0
301 0
302 0
303 0
304 0
305 0
306 0
307 0
308 0
309 0
310 0
311 0
312 0
313 0
314 0
316 0
317 0
318 0
319 0
320 0
321 0
322 0
323 0
324 0
325 0
326 0
327 0
328 0
329 0
330 0
331 0
332 0
333 0
334 0
335 0
336 0
337 0
338 0
339 0
340 0
341 0
342 0
343 0
344 0
345 0
346 0
347 0
348 0
349 0
350 0
351 0
352 0
353 0
354 0
355 0
356 0
357 0
358 0
359 0
360 0
361 0
362 0
363 0
364 0
365 0
366 0
367 0
368 0
369 0
370 0
371 0
372 0
373 0
374 0
375 0
376 0
377 0
378 0
379 0
380 0
381 0
382 0
383 0
384 0
385 0
386 0
387 0
388 0
389 0
390 0
391 0
392 0
393 0
394 0
395 0
396 0
397 0
398 0
399 0
400 0
401 0
402 0
403 0
404 0
405 0
406 0
407 0
408 0
409 0
410 0
411 0
412 0
413 0
414 0
415 0
416 0
417 0
418 0
419 0
420 0
421 0
422 0
423 0
424 0
425 0
426 0
2 0
-157 0
-161 0
-182 0
