c BC-S1.2
p cnf 547 1655
1 -2 0
-1 2 0
3 -4 0
-3 4 0
5 -6 0
-5 6 0
7 -8 0
-7 8 0
9 -10 0
-9 10 0
11 -12 0
-11 12 0
13 -14 0
-13 14 0
15 -16 0
-15 16 0
17 -18 0
-17 18 0
19 -20 0
-19 20 0
21 -22 0
-21 22 0
23 -24 0
-23 24 0
25 -26 0
-25 26 0
27 -28 0
-27 28 0
29 -30 0
-29 30 0
31 -32 0
-31 32 0
33 -34 0
-33 34 0
35 -36 0
-35 36 0
37 -38 0
-37 38 0
39 -40 0
-39 40 0
41 -42 0
-41 42 0
43 -44 0
-43 44 0
45 -46 0
-45 46 0
47 -48 0
-47 48 0
49 -50 0
-49 50 0
51 -52 0
-51 52 0
53 -54 0
-53 54 0
55 -56 0
-55 56 0
57 -58 0
-57 58 0
59 -60 0
-59 60 0
61 -62 0
-61 62 0
63 -64 0
-63 64 0
65 -66 0
-65 66 0
67 -68 0
-67 68 0
69 -70 0
-69 70 0
71 -72 0
-71 72 0
73 -74 0
-73 74 0
75 -76 0
-75 76 0
77 -78 0
-77 78 0
79 -80 0
-79 80 0
81 -82 0
-81 82 0
83 -84 0
-83 84 0
85 -86 0
-85 86 0
87 -88 0
-87 88 0
89 -90 0
-89 90 0
91 -92 0
-91 92 0
93 -94 0
-93 94 0
-95 96 97 98 99 100 0
95 -96 0
95 -97 0
95 -98 0
95 -99 0
95 -100 0
-101 102 103 0
101 -102 0
101 -103 0
-104 105 106 107 0
104 -105 0
104 -106 0
104 -107 0
-108 109 110 0
108 -109 0
108 -110 0
-111 112 113 0
111 -112 0
111 -113 0
-114 115 116 0
114 -115 0
114 -116 0
-117 118 119 120 121 0
117 -118 0
117 -119 0
117 -120 0
117 -121 0
-122 123 124 0
122 -123 0
122 -124 0
-125 126 127 0
125 -126 0
125 -127 0
-128 129 130 131 132 133 0
128 -129 0
128 -130 0
128 -131 0
128 -132 0
128 -133 0
-134 135 136 0
134 -135 0
134 -136 0
-137 138 139 0
137 -138 0
137 -139 0
-140 141 142 0
140 -141 0
140 -142 0
-143 144 145 0
143 -144 0
143 -145 0
-146 147 148 0
146 -147 0
146 -148 0
-149 150 151 152 0
149 -150 0
149 -151 0
149 -152 0
-153 154 155 0
153 -154 0
153 -155 0
-156 157 158 159 0
156 -157 0
156 -158 0
156 -159 0
-160 161 162 0
160 -161 0
160 -162 0
-163 164 165 0
163 -164 0
163 -165 0
-166 167 168 0
166 -167 0
166 -168 0
-169 170 171 172 0
169 -170 0
169 -171 0
169 -172 0
-173 174 175 0
173 -174 0
173 -175 0
176 -110 0
-176 110 0
177 -113 0
-177 113 0
-178 179 180 0
178 -179 0
178 -180 0
-181 182 183 0
181 -182 0
181 -183 0
184 -135 0
-184 135 0
185 -142 0
-185 142 0
-186 187 188 0
186 -187 0
186 -188 0
-189 190 191 0
189 -190 0
189 -191 0
-192 193 194 195 196 0
192 -193 0
192 -194 0
192 -195 0
192 -196 0
-197 198 199 200 0
197 -198 0
197 -199 0
197 -200 0
2 -1 0
-2 1 0
4 -3 0
-4 3 0
6 -5 0
-6 5 0
8 -7 0
-8 7 0
10 -9 0
-10 9 0
12 -11 0
-12 11 0
14 -13 0
-14 13 0
16 -15 0
-16 15 0
18 -17 0
-18 17 0
20 -19 0
-20 19 0
22 -21 0
-22 21 0
24 -23 0
-24 23 0
26 -25 0
-26 25 0
28 -27 0
-28 27 0
30 -29 0
-30 29 0
32 -31 0
-32 31 0
34 -33 0
-34 33 0
36 -35 0
-36 35 0
38 -37 0
-38 37 0
40 -39 0
-40 39 0
42 -41 0
-42 41 0
44 -43 0
-44 43 0
46 -45 0
-46 45 0
48 -47 0
-48 47 0
50 -49 0
-50 49 0
52 -51 0
-52 51 0
54 -53 0
-54 53 0
56 -55 0
-56 55 0
58 -57 0
-58 57 0
60 -59 0
-60 59 0
62 -61 0
-62 61 0
64 -63 0
-64 63 0
66 -65 0
-66 65 0
68 -67 0
-68 67 0
70 -69 0
-70 69 0
72 -71 0
-72 71 0
74 -73 0
-74 73 0
76 -75 0
-76 75 0
78 -77 0
-78 77 0
80 -79 0
-80 79 0
82 -81 0
-82 81 0
84 -83 0
-84 83 0
86 -85 0
-86 85 0
88 -87 0
-88 87 0
90 -89 0
-90 89 0
201 -202 -203 0
-201 202 0
-201 203 0
204 -163 0
-204 163 0
205 -206 -122 0
-205 206 0
-205 122 0
207 -208 -117 0
-207 208 0
-207 117 0
209 -210 -114 0
-209 210 0
-209 114 0
211 -212 -128 0
-211 212 0
-211 128 0
213 -95 0
-213 95 0
214 -215 -125 0
-214 215 0
-214 125 0
216 -217 -95 0
-216 217 0
-216 95 0
218 -219 -146 0
-218 219 0
-218 146 0
220 -221 -156 0
-220 221 0
-220 156 0
222 -223 -153 0
-222 223 0
-222 153 0
224 -128 0
-224 128 0
225 -226 -149 0
-225 226 0
-225 149 0
227 -166 0
-227 166 0
228 -229 -230 0
-228 229 0
-228 230 0
231 -232 -169 0
-231 232 0
-231 169 0
233 -114 0
-233 114 0
234 -235 -236 0
-234 235 0
-234 236 0
237 -238 -173 0
-237 238 0
-237 173 0
239 -240 -241 0
-239 240 0
-239 241 0
242 -169 0
-242 169 0
243 -244 -245 0
-243 244 0
-243 245 0
246 -247 -163 0
-246 247 0
-246 163 0
248 -156 0
-248 156 0
249 -250 -241 0
-249 250 0
-249 241 0
251 -173 0
-251 173 0
252 -253 -241 0
-252 253 0
-252 241 0
94 -93 0
-94 93 0
92 -91 0
-92 91 0
254 -255 -241 0
-254 255 0
-254 241 0
256 -257 -258 0
-256 257 0
-256 258 0
259 -160 0
-259 160 0
260 -149 0
-260 149 0
261 -262 -245 0
-261 262 0
-261 245 0
263 -264 -166 0
-263 264 0
-263 166 0
265 -266 0
-265 266 0
267 -268 0
-267 268 0
269 -270 0
-269 270 0
96 -215 -111 0
-96 215 0
-96 111 0
97 -208 -104 0
-97 208 0
-97 104 0
98 -210 -101 0
-98 210 0
-98 101 0
99 -271 0
-99 271 0
100 -206 -108 0
-100 206 0
-100 108 0
102 -192 0
-102 192 0
103 -232 -104 0
-103 232 0
-103 104 0
105 -272 0
-105 272 0
106 -240 -192 0
-106 240 0
-106 192 0
107 -273 -176 0
-107 273 0
-107 176 0
109 -257 -104 0
-109 257 0
-109 104 0
110 -176 0
-110 176 0
112 -250 -101 0
-112 250 0
-112 101 0
113 -177 0
-113 177 0
115 -197 0
-115 197 0
116 -232 -117 0
-116 232 0
-116 117 0
118 -104 0
-118 104 0
119 -274 -95 0
-119 274 0
-119 95 0
120 -273 -178 0
-120 273 0
-120 178 0
121 -240 -197 0
-121 240 0
-121 197 0
123 -178 0
-123 178 0
124 -257 -117 0
-124 257 0
-124 117 0
126 -181 0
-126 181 0
127 -250 -114 0
-127 250 0
-127 114 0
129 -226 -137 0
-129 226 0
-129 137 0
130 -275 0
-130 275 0
131 -219 -134 0
-131 219 0
-131 134 0
132 -221 -143 0
-132 221 0
-132 143 0
133 -223 -140 0
-133 223 0
-133 140 0
135 -184 0
-135 184 0
136 -229 -137 0
-136 229 0
-136 137 0
138 -264 -184 0
-138 264 0
-138 184 0
139 -276 0
-139 276 0
141 -202 -143 0
-141 202 0
-141 143 0
142 -185 0
-142 185 0
144 -247 -185 0
-144 247 0
-144 185 0
145 -277 0
-145 277 0
147 -229 -149 0
-147 229 0
-147 149 0
148 -186 0
-148 186 0
150 -264 -186 0
-150 264 0
-150 186 0
151 -137 0
-151 137 0
152 -262 -128 0
-152 262 0
-152 128 0
154 -189 0
-154 189 0
155 -202 -156 0
-155 202 0
-155 156 0
157 -244 -128 0
-157 244 0
-157 128 0
158 -143 0
-158 143 0
159 -247 -189 0
-159 247 0
-159 189 0
161 -122 0
-161 122 0
162 -278 -236 0
-162 278 0
-162 236 0
164 -153 0
-164 153 0
165 -279 -245 0
-165 279 0
-165 245 0
167 -146 0
-167 146 0
168 -280 -245 0
-168 280 0
-168 245 0
170 -117 0
-170 117 0
171 -274 -236 0
-171 274 0
-171 236 0
172 -273 -160 0
-172 273 0
-172 160 0
174 -125 0
-174 125 0
175 -281 -236 0
-175 281 0
-175 236 0
282 -283 0
-282 283 0
284 -285 0
-284 285 0
179 -278 -95 0
-179 278 0
-179 95 0
180 -108 0
-180 108 0
182 -111 0
-182 111 0
183 -281 -95 0
-183 281 0
-183 95 0
286 -287 0
-286 287 0
288 -289 0
-288 289 0
187 -134 0
-187 134 0
188 -280 -128 0
-188 280 0
-188 128 0
190 -140 0
-190 140 0
191 -279 -128 0
-191 279 0
-191 128 0
193 -290 0
-193 290 0
194 -291 -93 0
-194 291 0
-194 93 0
195 -238 -177 0
-195 238 0
-195 177 0
196 -292 -91 0
-196 292 0
-196 91 0
198 -101 0
-198 101 0
199 -235 -95 0
-199 235 0
-199 95 0
200 -238 -181 0
-200 238 0
-200 181 0
-293 -1 2 0
293 1 0
293 -2 0
-294 1 -2 0
294 -1 0
294 2 0
-295 -3 4 0
295 3 0
295 -4 0
-296 3 -4 0
296 -3 0
296 4 0
-297 -5 6 0
297 5 0
297 -6 0
-298 5 -6 0
298 -5 0
298 6 0
-299 -7 8 0
299 7 0
299 -8 0
-300 7 -8 0
300 -7 0
300 8 0
-301 -9 10 0
301 9 0
301 -10 0
-302 9 -10 0
302 -9 0
302 10 0
-303 -11 12 0
303 11 0
303 -12 0
-304 11 -12 0
304 -11 0
304 12 0
-305 -13 14 0
305 13 0
305 -14 0
-306 13 -14 0
306 -13 0
306 14 0
-307 -15 16 0
307 15 0
307 -16 0
-308 15 -16 0
308 -15 0
308 16 0
-309 -17 18 0
309 17 0
309 -18 0
-310 17 -18 0
310 -17 0
310 18 0
-311 -19 20 0
311 19 0
311 -20 0
-312 19 -20 0
312 -19 0
312 20 0
-313 -21 22 0
313 21 0
313 -22 0
-314 21 -22 0
314 -21 0
314 22 0
-315 -23 24 0
315 23 0
315 -24 0
-316 23 -24 0
316 -23 0
316 24 0
-317 -25 26 0
317 25 0
317 -26 0
-318 25 -26 0
318 -25 0
318 26 0
-319 -27 28 0
319 27 0
319 -28 0
-320 27 -28 0
320 -27 0
320 28 0
-321 -29 30 0
321 29 0
321 -30 0
-322 29 -30 0
322 -29 0
322 30 0
-323 -31 32 0
323 31 0
323 -32 0
-324 31 -32 0
324 -31 0
324 32 0
-325 -33 34 0
325 33 0
325 -34 0
-326 33 -34 0
326 -33 0
326 34 0
-327 -35 36 0
327 35 0
327 -36 0
-328 35 -36 0
328 -35 0
328 36 0
-329 -37 38 0
329 37 0
329 -38 0
-330 37 -38 0
330 -37 0
330 38 0
-331 -39 40 0
331 39 0
331 -40 0
-332 39 -40 0
332 -39 0
332 40 0
-333 -41 42 0
333 41 0
333 -42 0
-334 41 -42 0
334 -41 0
334 42 0
-335 -43 44 0
335 43 0
335 -44 0
-336 43 -44 0
336 -43 0
336 44 0
-337 -45 46 0
337 45 0
337 -46 0
-338 45 -46 0
338 -45 0
338 46 0
-339 -47 48 0
339 47 0
339 -48 0
-340 47 -48 0
340 -47 0
340 48 0
-341 -49 50 0
341 49 0
341 -50 0
-342 49 -50 0
342 -49 0
342 50 0
-343 -51 52 0
343 51 0
343 -52 0
-344 51 -52 0
344 -51 0
344 52 0
-345 -53 54 0
345 53 0
345 -54 0
-346 53 -54 0
346 -53 0
346 54 0
-347 -55 56 0
347 55 0
347 -56 0
-348 55 -56 0
348 -55 0
348 56 0
-349 -57 58 0
349 57 0
349 -58 0
-350 57 -58 0
350 -57 0
350 58 0
-351 -59 60 0
351 59 0
351 -60 0
-352 59 -60 0
352 -59 0
352 60 0
-353 -61 62 0
353 61 0
353 -62 0
-354 61 -62 0
354 -61 0
354 62 0
-355 -63 64 0
355 63 0
355 -64 0
-356 63 -64 0
356 -63 0
356 64 0
-357 -65 66 0
357 65 0
357 -66 0
-358 65 -66 0
358 -65 0
358 66 0
-359 -67 68 0
359 67 0
359 -68 0
-360 67 -68 0
360 -67 0
360 68 0
-361 -69 70 0
361 69 0
361 -70 0
-362 69 -70 0
362 -69 0
362 70 0
-363 -71 72 0
363 71 0
363 -72 0
-364 71 -72 0
364 -71 0
364 72 0
-365 -73 74 0
365 73 0
365 -74 0
-366 73 -74 0
366 -73 0
366 74 0
-367 -75 76 0
367 75 0
367 -76 0
-368 75 -76 0
368 -75 0
368 76 0
-369 -77 78 0
369 77 0
369 -78 0
-370 77 -78 0
370 -77 0
370 78 0
-371 -79 80 0
371 79 0
371 -80 0
-372 79 -80 0
372 -79 0
372 80 0
-373 -81 82 0
373 81 0
373 -82 0
-374 81 -82 0
374 -81 0
374 82 0
-375 -83 84 0
375 83 0
375 -84 0
-376 83 -84 0
376 -83 0
376 84 0
-377 -85 86 0
377 85 0
377 -86 0
-378 85 -86 0
378 -85 0
378 86 0
-379 -87 88 0
379 87 0
379 -88 0
-380 87 -88 0
380 -87 0
380 88 0
-381 -89 90 0
381 89 0
381 -90 0
-382 89 -90 0
382 -89 0
382 90 0
-383 204 -163 0
383 -204 0
383 163 0
-384 -204 163 0
384 204 0
384 -163 0
-385 -386 201 204 0
385 386 0
385 -201 0
385 -204 0
-387 386 -201 0
387 -386 0
387 201 0
-388 386 -204 0
388 -386 0
388 204 0
-389 213 -95 0
389 -213 0
389 95 0
-390 -213 95 0
390 213 0
390 -95 0
-391 -236 205 207 209 211 213 214 0
391 236 0
391 -205 0
391 -207 0
391 -209 0
391 -211 0
391 -213 0
391 -214 0
-392 236 -205 0
392 -236 0
392 205 0
-393 236 -207 0
393 -236 0
393 207 0
-394 236 -209 0
394 -236 0
394 209 0
-395 236 -211 0
395 -236 0
395 211 0
-396 236 -213 0
396 -236 0
396 213 0
-397 236 -214 0
397 -236 0
397 214 0
-398 224 -128 0
398 -224 0
398 128 0
-399 -224 128 0
399 224 0
399 -128 0
-400 -245 216 218 220 222 224 225 0
400 245 0
400 -216 0
400 -218 0
400 -220 0
400 -222 0
400 -224 0
400 -225 0
-401 245 -216 0
401 -245 0
401 216 0
-402 245 -218 0
402 -245 0
402 218 0
-403 245 -220 0
403 -245 0
403 220 0
-404 245 -222 0
404 -245 0
404 222 0
-405 245 -224 0
405 -245 0
405 224 0
-406 245 -225 0
406 -245 0
406 225 0
-407 227 -166 0
407 -227 0
407 166 0
-408 -227 166 0
408 227 0
408 -166 0
-409 -410 227 228 0
409 410 0
409 -227 0
409 -228 0
-411 410 -227 0
411 -410 0
411 227 0
-412 410 -228 0
412 -410 0
412 228 0
-413 233 -114 0
413 -233 0
413 114 0
-414 -233 114 0
414 233 0
414 -114 0
-415 -241 231 233 234 237 0
415 241 0
415 -231 0
415 -233 0
415 -234 0
415 -237 0
-416 241 -231 0
416 -241 0
416 231 0
-417 241 -233 0
417 -241 0
417 233 0
-418 241 -234 0
418 -241 0
418 234 0
-419 241 -237 0
419 -241 0
419 237 0
-420 242 -169 0
420 -242 0
420 169 0
-421 -242 169 0
421 242 0
421 -169 0
-422 -258 239 242 0
422 258 0
422 -239 0
422 -242 0
-423 258 -239 0
423 -258 0
423 239 0
-424 258 -242 0
424 -258 0
424 242 0
-425 248 -156 0
425 -248 0
425 156 0
-426 -248 156 0
426 248 0
426 -156 0
-427 -203 243 246 248 0
427 203 0
427 -243 0
427 -246 0
427 -248 0
-428 203 -243 0
428 -203 0
428 243 0
-429 203 -246 0
429 -203 0
429 246 0
-430 203 -248 0
430 -203 0
430 248 0
-431 251 -173 0
431 -251 0
431 173 0
-432 -251 173 0
432 251 0
432 -173 0
-433 -434 249 251 0
433 434 0
433 -249 0
433 -251 0
-435 434 -249 0
435 -434 0
435 249 0
-436 434 -251 0
436 -434 0
436 251 0
-437 94 -93 0
437 -94 0
437 93 0
-438 -94 93 0
438 94 0
438 -93 0
-439 -440 252 94 0
439 440 0
439 -252 0
439 -94 0
-441 440 -252 0
441 -440 0
441 252 0
-442 440 -94 0
442 -440 0
442 94 0
-443 92 -91 0
443 -92 0
443 91 0
-444 -92 91 0
444 92 0
444 -91 0
-445 -446 92 254 0
445 446 0
445 -92 0
445 -254 0
-447 446 -92 0
447 -446 0
447 92 0
-448 446 -254 0
448 -446 0
448 254 0
-449 259 -160 0
449 -259 0
449 160 0
-450 -259 160 0
450 259 0
450 -160 0
-451 -452 256 259 0
451 452 0
451 -256 0
451 -259 0
-453 452 -256 0
453 -452 0
453 256 0
-454 452 -259 0
454 -452 0
454 259 0
-455 260 -149 0
455 -260 0
455 149 0
-456 -260 149 0
456 260 0
456 -149 0
-457 -230 260 261 263 0
457 230 0
457 -260 0
457 -261 0
457 -263 0
-458 230 -260 0
458 -230 0
458 260 0
-459 230 -261 0
459 -230 0
459 261 0
-460 230 -263 0
460 -230 0
460 263 0
-461 265 -266 0
461 -265 0
461 266 0
-462 -265 266 0
462 265 0
462 -266 0
-463 -464 265 0
463 464 0
463 -265 0
-465 464 -265 0
465 -464 0
465 265 0
-466 267 -268 0
466 -267 0
466 268 0
-467 -267 268 0
467 267 0
467 -268 0
-468 -91 267 0
468 91 0
468 -267 0
-469 91 -267 0
469 -91 0
469 267 0
-470 269 -270 0
470 -269 0
470 270 0
-471 -269 270 0
471 269 0
471 -270 0
-472 -93 269 0
472 93 0
472 -269 0
-473 93 -269 0
473 -93 0
473 269 0
-474 99 -271 0
474 -99 0
474 271 0
-475 -99 271 0
475 99 0
475 -271 0
-476 102 -192 0
476 -102 0
476 192 0
-477 -102 192 0
477 102 0
477 -192 0
-478 105 -272 0
478 -105 0
478 272 0
-479 -105 272 0
479 105 0
479 -272 0
-480 110 -176 0
480 -110 0
480 176 0
-481 -110 176 0
481 110 0
481 -176 0
-482 113 -177 0
482 -113 0
482 177 0
-483 -113 177 0
483 113 0
483 -177 0
-484 115 -197 0
484 -115 0
484 197 0
-485 -115 197 0
485 115 0
485 -197 0
-486 118 -104 0
486 -118 0
486 104 0
-487 -118 104 0
487 118 0
487 -104 0
-488 123 -178 0
488 -123 0
488 178 0
-489 -123 178 0
489 123 0
489 -178 0
-490 126 -181 0
490 -126 0
490 181 0
-491 -126 181 0
491 126 0
491 -181 0
-492 130 -275 0
492 -130 0
492 275 0
-493 -130 275 0
493 130 0
493 -275 0
-494 135 -184 0
494 -135 0
494 184 0
-495 -135 184 0
495 135 0
495 -184 0
-496 139 -276 0
496 -139 0
496 276 0
-497 -139 276 0
497 139 0
497 -276 0
-498 142 -185 0
498 -142 0
498 185 0
-499 -142 185 0
499 142 0
499 -185 0
-500 145 -277 0
500 -145 0
500 277 0
-501 -145 277 0
501 145 0
501 -277 0
-502 148 -186 0
502 -148 0
502 186 0
-503 -148 186 0
503 148 0
503 -186 0
-504 151 -137 0
504 -151 0
504 137 0
-505 -151 137 0
505 151 0
505 -137 0
-506 154 -189 0
506 -154 0
506 189 0
-507 -154 189 0
507 154 0
507 -189 0
-508 158 -143 0
508 -158 0
508 143 0
-509 -158 143 0
509 158 0
509 -143 0
-510 161 -122 0
510 -161 0
510 122 0
-511 -161 122 0
511 161 0
511 -122 0
-512 164 -153 0
512 -164 0
512 153 0
-513 -164 153 0
513 164 0
513 -153 0
-514 167 -146 0
514 -167 0
514 146 0
-515 -167 146 0
515 167 0
515 -146 0
-516 170 -117 0
516 -170 0
516 117 0
-517 -170 117 0
517 170 0
517 -117 0
-518 174 -125 0
518 -174 0
518 125 0
-519 -174 125 0
519 174 0
519 -125 0
-520 282 -283 0
520 -282 0
520 283 0
-521 -282 283 0
521 282 0
521 -283 0
-522 -176 282 0
522 176 0
522 -282 0
-523 176 -282 0
523 -176 0
523 282 0
-524 284 -285 0
524 -284 0
524 285 0
-525 -284 285 0
525 284 0
525 -285 0
-526 -177 284 0
526 177 0
526 -284 0
-527 177 -284 0
527 -177 0
527 284 0
-528 180 -108 0
528 -180 0
528 108 0
-529 -180 108 0
529 180 0
529 -108 0
-530 182 -111 0
530 -182 0
530 111 0
-531 -182 111 0
531 182 0
531 -111 0
-532 286 -287 0
532 -286 0
532 287 0
-533 -286 287 0
533 286 0
533 -287 0
-534 -184 286 0
534 184 0
534 -286 0
-535 184 -286 0
535 -184 0
535 286 0
-536 288 -289 0
536 -288 0
536 289 0
-537 -288 289 0
537 288 0
537 -289 0
-538 -185 288 0
538 185 0
538 -288 0
-539 185 -288 0
539 -185 0
539 288 0
-540 187 -134 0
540 -187 0
540 134 0
-541 -187 134 0
541 187 0
541 -134 0
-542 190 -140 0
542 -190 0
542 140 0
-543 -190 140 0
543 190 0
543 -140 0
-544 193 -290 0
544 -193 0
544 290 0
-545 -193 290 0
545 193 0
545 -290 0
-546 198 -101 0
546 -198 0
546 101 0
-547 -198 101 0
547 198 0
547 -101 0
293 0
294 0
295 0
296 0
297 0
298 0
299 0
300 0
301 0
302 0
303 0
304 0
305 0
306 0
307 0
308 0
309 0
310 0
311 0
312 0
313 0
314 0
315 0
316 0
317 0
318 0
319 0
320 0
321 0
322 0
323 0
324 0
325 0
326 0
327 0
328 0
329 0
330 0
331 0
332 0
333 0
334 0
335 0
336 0
337 0
338 0
339 0
340 0
341 0
342 0
343 0
344 0
345 0
346 0
347 0
348 0
349 0
350 0
351 0
352 0
353 0
354 0
355 0
356 0
357 0
358 0
359 0
360 0
361 0
362 0
363 0
364 0
365 0
366 0
367 0
368 0
369 0
370 0
371 0
372 0
373 0
374 0
375 0
376 0
377 0
378 0
379 0
380 0
381 0
382 0
383 0
384 0
385 0
387 0
388 0
389 0
390 0
391 0
392 0
393 0
394 0
395 0
396 0
397 0
398 0
399 0
400 0
401 0
402 0
403 0
404 0
405 0
406 0
407 0
408 0
409 0
411 0
412 0
413 0
414 0
415 0
416 0
417 0
418 0
419 0
420 0
421 0
422 0
423 0
424 0
425 0
426 0
427 0
428 0
429 0
430 0
431 0
432 0
433 0
435 0
436 0
437 0
438 0
439 0
441 0
442 0
443 0
444 0
445 0
447 0
448 0
449 0
450 0
451 0
453 0
454 0
455 0
456 0
457 0
458 0
459 0
460 0
461 0
462 0
463 0
465 0
466 0
467 0
468 0
469 0
470 0
471 0
472 0
473 0
474 0
475 0
476 0
477 0
478 0
479 0
480 0
481 0
482 0
483 0
484 0
485 0
486 0
487 0
488 0
489 0
490 0
491 0
492 0
493 0
494 0
495 0
496 0
497 0
498 0
499 0
500 0
501 0
502 0
503 0
504 0
505 0
506 0
507 0
508 0
509 0
510 0
511 0
512 0
513 0
514 0
515 0
516 0
517 0
518 0
519 0
520 0
521 0
522 0
523 0
524 0
525 0
526 0
527 0
528 0
529 0
530 0
531 0
532 0
533 0
534 0
535 0
536 0
537 0
538 0
539 0
540 0
541 0
542 0
543 0
544 0
545 0
546 0
547 0
2 0
4 0
6 0
8 0
10 0
12 0
14 0
16 0
18 0
20 0
22 0
24 0
26 0
28 0
30 0
32 0
34 0
36 0
38 0
40 0
42 0
44 0
46 0
48 0
50 0
52 0
54 0
56 0
58 0
60 0
62 0
64 0
66 0
68 0
70 0
72 0
74 0
76 0
78 0
80 0
82 0
84 0
86 0
88 0
90 0
