c BC-S1.2
p cnf 215 636
1 -2 0
-1 2 0
3 -4 0
-3 4 0
5 -6 0
-5 6 0
7 -8 0
-7 8 0
9 -10 0
-9 10 0
11 -12 0
-11 12 0
13 -14 0
-13 14 0
15 -16 0
-15 16 0
17 -18 0
-17 18 0
19 -20 0
-19 20 0
21 -22 0
-21 22 0
23 -24 0
-23 24 0
25 -26 0
-25 26 0
27 -28 0
-27 28 0
29 -30 0
-29 30 0
31 -32 0
-31 32 0
33 -34 0
-33 34 0
35 -36 0
-35 36 0
37 -38 0
-37 38 0
39 -40 0
-39 40 0
41 -42 0
-41 42 0
-43 44 45 0
43 -44 0
43 -45 0
-46 47 48 0
46 -47 0
46 -48 0
-49 50 51 0
49 -50 0
49 -51 0
-52 53 54 55 0
52 -53 0
52 -54 0
52 -55 0
-56 57 58 0
56 -57 0
56 -58 0
59 -47 0
-59 47 0
60 -51 0
-60 51 0
-61 62 63 0
61 -62 0
61 -63 0
2 -1 0
-2 1 0
4 -3 0
-4 3 0
6 -5 0
-6 5 0
8 -7 0
-8 7 0
10 -9 0
-10 9 0
12 -11 0
-12 11 0
14 -13 0
-14 13 0
16 -15 0
-16 15 0
18 -17 0
-18 17 0
20 -19 0
-20 19 0
22 -21 0
-22 21 0
24 -23 0
-24 23 0
26 -25 0
-26 25 0
28 -27 0
-28 27 0
30 -29 0
-30 29 0
32 -31 0
-32 31 0
34 -33 0
-34 33 0
36 -35 0
-36 35 0
38 -37 0
-38 37 0
40 -39 0
-40 39 0
64 -61 0
-64 61 0
65 -66 -67 0
-65 66 0
-65 67 0
68 -43 0
-68 43 0
69 -70 -71 0
-69 70 0
-69 71 0
72 -73 -56 0
-72 73 0
-72 56 0
74 -75 -61 0
-74 75 0
-74 61 0
76 -52 0
-76 52 0
42 -41 0
-42 41 0
77 -78 -79 0
-77 78 0
-77 79 0
80 -81 -49 0
-80 81 0
-80 49 0
82 -83 0
-82 83 0
84 -85 -46 0
-84 85 0
-84 46 0
86 -87 0
-86 87 0
88 -89 -43 0
-88 89 0
-88 43 0
90 -56 0
-90 56 0
91 -92 -67 0
-91 92 0
-91 67 0
93 -94 0
-93 94 0
95 -96 0
-95 96 0
44 -97 0
-44 97 0
45 -98 -41 0
-45 98 0
-45 41 0
47 -59 0
-47 59 0
48 -66 -52 0
-48 66 0
-48 52 0
50 -92 -52 0
-50 92 0
-50 52 0
51 -60 0
-51 60 0
53 -75 -59 0
-53 75 0
-53 59 0
54 -99 0
-54 99 0
55 -73 -60 0
-55 73 0
-55 60 0
57 -100 -101 0
-57 100 0
-57 101 0
58 -49 0
-58 49 0
102 -103 0
-102 103 0
104 -105 0
-104 105 0
62 -46 0
-62 46 0
63 -106 -101 0
-63 106 0
-63 101 0
-107 -1 2 0
107 1 0
107 -2 0
-108 1 -2 0
108 -1 0
108 2 0
-109 -3 4 0
109 3 0
109 -4 0
-110 3 -4 0
110 -3 0
110 4 0
-111 -5 6 0
111 5 0
111 -6 0
-112 5 -6 0
112 -5 0
112 6 0
-113 -7 8 0
113 7 0
113 -8 0
-114 7 -8 0
114 -7 0
114 8 0
-115 -9 10 0
115 9 0
115 -10 0
-116 9 -10 0
116 -9 0
116 10 0
-117 -11 12 0
117 11 0
117 -12 0
-118 11 -12 0
118 -11 0
118 12 0
-119 -13 14 0
119 13 0
119 -14 0
-120 13 -14 0
120 -13 0
120 14 0
-121 -15 16 0
121 15 0
121 -16 0
-122 15 -16 0
122 -15 0
122 16 0
-123 -17 18 0
123 17 0
123 -18 0
-124 17 -18 0
124 -17 0
124 18 0
-125 -19 20 0
125 19 0
125 -20 0
-126 19 -20 0
126 -19 0
126 20 0
-127 -21 22 0
127 21 0
127 -22 0
-128 21 -22 0
128 -21 0
128 22 0
-129 -23 24 0
129 23 0
129 -24 0
-130 23 -24 0
130 -23 0
130 24 0
-131 -25 26 0
131 25 0
131 -26 0
-132 25 -26 0
132 -25 0
132 26 0
-133 -27 28 0
133 27 0
133 -28 0
-134 27 -28 0
134 -27 0
134 28 0
-135 -29 30 0
135 29 0
135 -30 0
-136 29 -30 0
136 -29 0
136 30 0
-137 -31 32 0
137 31 0
137 -32 0
-138 31 -32 0
138 -31 0
138 32 0
-139 -33 34 0
139 33 0
139 -34 0
-140 33 -34 0
140 -33 0
140 34 0
-141 -35 36 0
141 35 0
141 -36 0
-142 35 -36 0
142 -35 0
142 36 0
-143 -37 38 0
143 37 0
143 -38 0
-144 37 -38 0
144 -37 0
144 38 0
-145 -39 40 0
145 39 0
145 -40 0
-146 39 -40 0
146 -39 0
146 40 0
-147 64 -61 0
147 -64 0
147 61 0
-148 -64 61 0
148 64 0
148 -61 0
-149 -150 64 65 0
149 150 0
149 -64 0
149 -65 0
-151 150 -64 0
151 -150 0
151 64 0
-152 150 -65 0
152 -150 0
152 65 0
-153 68 -43 0
153 -68 0
153 43 0
-154 -68 43 0
154 68 0
154 -43 0
-155 -79 68 69 0
155 79 0
155 -68 0
155 -69 0
-156 79 -68 0
156 -79 0
156 68 0
-157 79 -69 0
157 -79 0
157 69 0
-158 76 -52 0
158 -76 0
158 52 0
-159 -76 52 0
159 76 0
159 -52 0
-160 -67 72 74 76 0
160 67 0
160 -72 0
160 -74 0
160 -76 0
-161 67 -72 0
161 -67 0
161 72 0
-162 67 -74 0
162 -67 0
162 74 0
-163 67 -76 0
163 -67 0
163 76 0
-164 42 -41 0
164 -42 0
164 41 0
-165 -42 41 0
165 42 0
165 -41 0
-166 -167 42 77 0
166 167 0
166 -42 0
166 -77 0
-168 167 -42 0
168 -167 0
168 42 0
-169 167 -77 0
169 -167 0
169 77 0
-170 82 -83 0
170 -82 0
170 83 0
-171 -82 83 0
171 82 0
171 -83 0
-172 -101 80 82 84 0
172 101 0
172 -80 0
172 -82 0
172 -84 0
-173 101 -80 0
173 -101 0
173 80 0
-174 101 -82 0
174 -101 0
174 82 0
-175 101 -84 0
175 -101 0
175 84 0
-176 86 -87 0
176 -86 0
176 87 0
-177 -86 87 0
177 86 0
177 -87 0
-178 -71 86 88 0
178 71 0
178 -86 0
178 -88 0
-179 71 -86 0
179 -71 0
179 86 0
-180 71 -88 0
180 -71 0
180 88 0
-181 90 -56 0
181 -90 0
181 56 0
-182 -90 56 0
182 90 0
182 -56 0
-183 -184 90 91 0
183 184 0
183 -90 0
183 -91 0
-185 184 -90 0
185 -184 0
185 90 0
-186 184 -91 0
186 -184 0
186 91 0
-187 93 -94 0
187 -93 0
187 94 0
-188 -93 94 0
188 93 0
188 -94 0
-189 -190 93 0
189 190 0
189 -93 0
-191 190 -93 0
191 -190 0
191 93 0
-192 95 -96 0
192 -95 0
192 96 0
-193 -95 96 0
193 95 0
193 -96 0
-194 -41 95 0
194 41 0
194 -95 0
-195 41 -95 0
195 -41 0
195 95 0
-196 44 -97 0
196 -44 0
196 97 0
-197 -44 97 0
197 44 0
197 -97 0
-198 47 -59 0
198 -47 0
198 59 0
-199 -47 59 0
199 47 0
199 -59 0
-200 51 -60 0
200 -51 0
200 60 0
-201 -51 60 0
201 51 0
201 -60 0
-202 54 -99 0
202 -54 0
202 99 0
-203 -54 99 0
203 54 0
203 -99 0
-204 58 -49 0
204 -58 0
204 49 0
-205 -58 49 0
205 58 0
205 -49 0
-206 102 -103 0
206 -102 0
206 103 0
-207 -102 103 0
207 102 0
207 -103 0
-208 -59 102 0
208 59 0
208 -102 0
-209 59 -102 0
209 -59 0
209 102 0
-210 104 -105 0
210 -104 0
210 105 0
-211 -104 105 0
211 104 0
211 -105 0
-212 -60 104 0
212 60 0
212 -104 0
-213 60 -104 0
213 -60 0
213 104 0
-214 62 -46 0
214 -62 0
214 46 0
-215 -62 46 0
215 62 0
215 -46 0
107 0
108 0
109 0
110 0
111 0
112 0
113 0
114 0
115 0
116 0
117 0
118 0
119 0
120 0
121 0
122 0
123 0
124 0
125 0
126 0
127 0
128 0
129 0
130 0
131 0
132 0
133 0
134 0
135 0
136 0
137 0
138 0
139 0
140 0
141 0
142 0
143 0
144 0
145 0
146 0
147 0
148 0
149 0
151 0
152 0
153 0
154 0
155 0
156 0
157 0
158 0
159 0
160 0
161 0
162 0
163 0
164 0
165 0
166 0
168 0
169 0
170 0
171 0
172 0
173 0
174 0
175 0
176 0
177 0
178 0
179 0
180 0
181 0
182 0
183 0
185 0
186 0
187 0
188 0
189 0
191 0
192 0
193 0
194 0
195 0
196 0
197 0
198 0
199 0
200 0
201 0
202 0
203 0
204 0
205 0
206 0
207 0
208 0
209 0
210 0
211 0
212 0
213 0
214 0
215 0
2 0
4 0
6 0
8 0
10 0
12 0
14 0
16 0
18 0
20 0
22 0
24 0
26 0
28 0
30 0
32 0
34 0
36 0
38 0
40 0
