c BC-S1.2
p cnf 8738 30721
1 -2 0
-1 2 0
3 -4 0
-3 4 0
5 -6 0
-5 6 0
7 -8 0
-7 8 0
9 -10 0
-9 10 0
11 -12 0
-11 12 0
13 -14 0
-13 14 0
15 -16 0
-15 16 0
17 -18 0
-17 18 0
19 -20 0
-19 20 0
21 -22 0
-21 22 0
23 -24 0
-23 24 0
25 -26 0
-25 26 0
27 -28 0
-27 28 0
29 -30 0
-29 30 0
31 -32 0
-31 32 0
33 -34 0
-33 34 0
35 -36 0
-35 36 0
37 -38 0
-37 38 0
39 -40 0
-39 40 0
41 -42 0
-41 42 0
43 -44 0
-43 44 0
45 -46 0
-45 46 0
47 -48 0
-47 48 0
49 -50 0
-49 50 0
51 -52 0
-51 52 0
53 -54 0
-53 54 0
55 -56 0
-55 56 0
57 -58 0
-57 58 0
59 -60 0
-59 60 0
61 -62 0
-61 62 0
63 -64 0
-63 64 0
65 -66 0
-65 66 0
67 -68 0
-67 68 0
69 -70 0
-69 70 0
71 -72 0
-71 72 0
73 -74 0
-73 74 0
75 -76 0
-75 76 0
77 -78 0
-77 78 0
79 -80 0
-79 80 0
81 -82 0
-81 82 0
83 -84 0
-83 84 0
85 -86 0
-85 86 0
87 -88 0
-87 88 0
89 -90 0
-89 90 0
91 -92 0
-91 92 0
93 -94 0
-93 94 0
95 -96 0
-95 96 0
97 -98 0
-97 98 0
99 -100 0
-99 100 0
101 -102 0
-101 102 0
103 -104 0
-103 104 0
105 -106 0
-105 106 0
107 -108 0
-107 108 0
109 -110 0
-109 110 0
111 -112 0
-111 112 0
113 -114 0
-113 114 0
115 -116 0
-115 116 0
117 -118 0
-117 118 0
119 -120 0
-119 120 0
121 -122 0
-121 122 0
123 -124 0
-123 124 0
125 -126 0
-125 126 0
127 -128 0
-127 128 0
129 -130 0
-129 130 0
131 -132 0
-131 132 0
133 -134 0
-133 134 0
135 -136 0
-135 136 0
137 -138 0
-137 138 0
139 -140 0
-139 140 0
141 -142 0
-141 142 0
143 -144 0
-143 144 0
145 -146 0
-145 146 0
147 -148 0
-147 148 0
149 -150 0
-149 150 0
151 -152 0
-151 152 0
153 -154 0
-153 154 0
155 -156 0
-155 156 0
157 -158 0
-157 158 0
159 -160 0
-159 160 0
161 -162 0
-161 162 0
163 -164 0
-163 164 0
165 -166 0
-165 166 0
167 -168 0
-167 168 0
169 -170 0
-169 170 0
171 -172 0
-171 172 0
173 -174 0
-173 174 0
175 -176 0
-175 176 0
177 -178 0
-177 178 0
179 -180 0
-179 180 0
181 -182 0
-181 182 0
183 -184 0
-183 184 0
185 -186 0
-185 186 0
187 -188 0
-187 188 0
189 -190 0
-189 190 0
191 -192 0
-191 192 0
193 -194 0
-193 194 0
195 -196 0
-195 196 0
197 -198 0
-197 198 0
199 -200 0
-199 200 0
201 -202 0
-201 202 0
203 -204 0
-203 204 0
205 -206 0
-205 206 0
207 -208 0
-207 208 0
209 -210 0
-209 210 0
211 -212 0
-211 212 0
213 -214 0
-213 214 0
215 -216 0
-215 216 0
217 -218 0
-217 218 0
219 -220 0
-219 220 0
221 -222 0
-221 222 0
223 -224 0
-223 224 0
225 -226 0
-225 226 0
227 -228 0
-227 228 0
229 -230 0
-229 230 0
231 -232 0
-231 232 0
233 -234 0
-233 234 0
235 -236 0
-235 236 0
237 -238 0
-237 238 0
239 -240 0
-239 240 0
241 -242 0
-241 242 0
243 -244 0
-243 244 0
245 -246 0
-245 246 0
247 -248 0
-247 248 0
249 -250 0
-249 250 0
251 -252 0
-251 252 0
253 -254 0
-253 254 0
255 -256 0
-255 256 0
257 -258 0
-257 258 0
259 -260 0
-259 260 0
261 -262 0
-261 262 0
263 -264 0
-263 264 0
265 -266 0
-265 266 0
267 -268 0
-267 268 0
269 -270 0
-269 270 0
271 -272 0
-271 272 0
273 -274 0
-273 274 0
275 -276 0
-275 276 0
277 -278 0
-277 278 0
279 -280 0
-279 280 0
281 -282 0
-281 282 0
283 -284 0
-283 284 0
285 -286 0
-285 286 0
287 -288 0
-287 288 0
289 -290 0
-289 290 0
291 -292 0
-291 292 0
293 -294 0
-293 294 0
295 -296 0
-295 296 0
297 -298 0
-297 298 0
299 -300 0
-299 300 0
301 -302 0
-301 302 0
303 -304 0
-303 304 0
305 -306 0
-305 306 0
307 -308 0
-307 308 0
309 -310 0
-309 310 0
311 -312 0
-311 312 0
313 -314 0
-313 314 0
315 -316 0
-315 316 0
317 -318 0
-317 318 0
319 -320 0
-319 320 0
321 -322 0
-321 322 0
323 -324 0
-323 324 0
325 -326 0
-325 326 0
327 -328 0
-327 328 0
329 -330 0
-329 330 0
331 -332 0
-331 332 0
333 -334 0
-333 334 0
335 -336 0
-335 336 0
337 -338 0
-337 338 0
339 -340 0
-339 340 0
341 -342 0
-341 342 0
343 -344 0
-343 344 0
345 -346 0
-345 346 0
347 -348 0
-347 348 0
349 -350 0
-349 350 0
351 -352 0
-351 352 0
353 -354 0
-353 354 0
355 -356 0
-355 356 0
357 -358 0
-357 358 0
359 -360 0
-359 360 0
361 -362 0
-361 362 0
363 -364 0
-363 364 0
365 -366 0
-365 366 0
367 -368 0
-367 368 0
369 -370 0
-369 370 0
371 -372 0
-371 372 0
373 -374 0
-373 374 0
375 -376 0
-375 376 0
377 -378 0
-377 378 0
379 -380 0
-379 380 0
381 -382 0
-381 382 0
383 -384 0
-383 384 0
385 -386 0
-385 386 0
387 -388 0
-387 388 0
389 -390 0
-389 390 0
391 -392 0
-391 392 0
393 -394 0
-393 394 0
395 -396 0
-395 396 0
397 -398 0
-397 398 0
399 -400 0
-399 400 0
401 -402 0
-401 402 0
403 -404 0
-403 404 0
405 -406 0
-405 406 0
407 -408 0
-407 408 0
409 -410 0
-409 410 0
411 -412 0
-411 412 0
413 -414 0
-413 414 0
415 -416 0
-415 416 0
417 -418 0
-417 418 0
419 -420 0
-419 420 0
421 -422 0
-421 422 0
423 -424 0
-423 424 0
425 -426 0
-425 426 0
427 -428 0
-427 428 0
429 -430 0
-429 430 0
431 -432 0
-431 432 0
433 -434 0
-433 434 0
435 -436 0
-435 436 0
437 -438 0
-437 438 0
439 -440 0
-439 440 0
441 -442 0
-441 442 0
443 -444 0
-443 444 0
445 -446 0
-445 446 0
447 -448 0
-447 448 0
449 -450 0
-449 450 0
451 -452 0
-451 452 0
453 -454 0
-453 454 0
455 -456 0
-455 456 0
457 -458 0
-457 458 0
459 -460 0
-459 460 0
461 -462 0
-461 462 0
463 -464 0
-463 464 0
465 -466 0
-465 466 0
467 -468 0
-467 468 0
469 -470 0
-469 470 0
471 -472 0
-471 472 0
473 -474 0
-473 474 0
475 -476 0
-475 476 0
477 -478 0
-477 478 0
479 -480 0
-479 480 0
481 -482 0
-481 482 0
483 -484 0
-483 484 0
485 -486 0
-485 486 0
487 -488 0
-487 488 0
489 -490 0
-489 490 0
491 -492 0
-491 492 0
493 -494 0
-493 494 0
495 -496 0
-495 496 0
497 -498 0
-497 498 0
499 -500 0
-499 500 0
501 -502 0
-501 502 0
503 -504 0
-503 504 0
505 -506 0
-505 506 0
507 -508 0
-507 508 0
509 -510 0
-509 510 0
511 -512 0
-511 512 0
513 -514 0
-513 514 0
515 -516 0
-515 516 0
517 -518 0
-517 518 0
519 -520 0
-519 520 0
521 -522 0
-521 522 0
523 -524 0
-523 524 0
525 -526 0
-525 526 0
527 -528 0
-527 528 0
529 -530 0
-529 530 0
531 -532 0
-531 532 0
533 -534 0
-533 534 0
535 -536 0
-535 536 0
537 -538 0
-537 538 0
539 -540 0
-539 540 0
541 -542 0
-541 542 0
543 -544 0
-543 544 0
545 -546 0
-545 546 0
547 -548 0
-547 548 0
549 -550 0
-549 550 0
551 -552 0
-551 552 0
553 -554 0
-553 554 0
555 -556 0
-555 556 0
557 -558 0
-557 558 0
559 -560 0
-559 560 0
561 -562 0
-561 562 0
563 -564 0
-563 564 0
565 -566 0
-565 566 0
567 -568 0
-567 568 0
569 -570 0
-569 570 0
571 -572 0
-571 572 0
573 -574 0
-573 574 0
575 -576 0
-575 576 0
577 -578 0
-577 578 0
579 -580 0
-579 580 0
581 -582 0
-581 582 0
583 -584 0
-583 584 0
585 -586 0
-585 586 0
587 -588 0
-587 588 0
589 -590 0
-589 590 0
591 -592 0
-591 592 0
593 -594 0
-593 594 0
595 -596 0
-595 596 0
597 -598 0
-597 598 0
599 -600 0
-599 600 0
601 -602 0
-601 602 0
603 -604 0
-603 604 0
605 -606 0
-605 606 0
607 -608 0
-607 608 0
609 -610 0
-609 610 0
611 -612 0
-611 612 0
613 -614 0
-613 614 0
615 -616 0
-615 616 0
617 -618 0
-617 618 0
619 -620 0
-619 620 0
621 -622 0
-621 622 0
623 -624 0
-623 624 0
625 -626 0
-625 626 0
627 -628 0
-627 628 0
629 -630 0
-629 630 0
631 -632 0
-631 632 0
633 -634 0
-633 634 0
635 -636 0
-635 636 0
637 -638 0
-637 638 0
639 -640 0
-639 640 0
641 -642 0
-641 642 0
643 -644 0
-643 644 0
645 -646 0
-645 646 0
647 -648 0
-647 648 0
649 -650 0
-649 650 0
651 -652 0
-651 652 0
653 -654 0
-653 654 0
655 -656 0
-655 656 0
657 -658 0
-657 658 0
659 -660 0
-659 660 0
661 -662 0
-661 662 0
663 -664 0
-663 664 0
665 -666 0
-665 666 0
667 -668 0
-667 668 0
669 -670 0
-669 670 0
671 -672 0
-671 672 0
673 -674 0
-673 674 0
675 -676 0
-675 676 0
677 -678 0
-677 678 0
679 -680 0
-679 680 0
681 -682 0
-681 682 0
683 -684 0
-683 684 0
685 -686 0
-685 686 0
687 -688 0
-687 688 0
689 -690 0
-689 690 0
691 -692 0
-691 692 0
693 -694 0
-693 694 0
695 -696 0
-695 696 0
697 -698 0
-697 698 0
699 -700 0
-699 700 0
701 -702 0
-701 702 0
703 -704 0
-703 704 0
705 -706 0
-705 706 0
707 -708 0
-707 708 0
709 -710 0
-709 710 0
711 -712 0
-711 712 0
713 -714 0
-713 714 0
715 -716 0
-715 716 0
717 -718 0
-717 718 0
719 -720 0
-719 720 0
721 -722 0
-721 722 0
723 -724 0
-723 724 0
725 -726 0
-725 726 0
727 -728 0
-727 728 0
729 -730 0
-729 730 0
731 -732 0
-731 732 0
733 -734 0
-733 734 0
735 -736 0
-735 736 0
737 -738 0
-737 738 0
739 -740 0
-739 740 0
741 -742 0
-741 742 0
743 -744 0
-743 744 0
745 -746 0
-745 746 0
747 -748 0
-747 748 0
749 -750 0
-749 750 0
751 -752 0
-751 752 0
753 -754 0
-753 754 0
755 -756 0
-755 756 0
757 -758 0
-757 758 0
759 -760 0
-759 760 0
761 -762 0
-761 762 0
763 -764 0
-763 764 0
765 -766 0
-765 766 0
767 -768 0
-767 768 0
769 -770 0
-769 770 0
771 -772 0
-771 772 0
773 -774 0
-773 774 0
775 -776 0
-775 776 0
777 -778 0
-777 778 0
779 -780 0
-779 780 0
781 -782 0
-781 782 0
783 -784 0
-783 784 0
785 -786 0
-785 786 0
787 -788 0
-787 788 0
789 -790 0
-789 790 0
791 -792 0
-791 792 0
793 -794 0
-793 794 0
795 -796 0
-795 796 0
797 -798 0
-797 798 0
799 -800 0
-799 800 0
801 -802 0
-801 802 0
803 -804 0
-803 804 0
805 -806 0
-805 806 0
807 -808 0
-807 808 0
809 -810 0
-809 810 0
811 -812 0
-811 812 0
813 -814 0
-813 814 0
815 -816 0
-815 816 0
817 -818 0
-817 818 0
819 -820 0
-819 820 0
821 -822 0
-821 822 0
823 -824 0
-823 824 0
825 -826 0
-825 826 0
827 -828 0
-827 828 0
829 -830 0
-829 830 0
831 -832 0
-831 832 0
833 -834 0
-833 834 0
835 -836 0
-835 836 0
837 -838 0
-837 838 0
839 -840 0
-839 840 0
841 -842 0
-841 842 0
843 -844 0
-843 844 0
845 -846 0
-845 846 0
847 -848 0
-847 848 0
849 -850 0
-849 850 0
851 -852 0
-851 852 0
853 -854 0
-853 854 0
855 -856 0
-855 856 0
857 -858 0
-857 858 0
859 -860 0
-859 860 0
861 -862 0
-861 862 0
863 -864 0
-863 864 0
865 -866 0
-865 866 0
867 -868 0
-867 868 0
869 -870 0
-869 870 0
871 -872 0
-871 872 0
873 -874 0
-873 874 0
875 -876 0
-875 876 0
877 -878 0
-877 878 0
879 -880 0
-879 880 0
881 -882 0
-881 882 0
883 -884 0
-883 884 0
885 -886 0
-885 886 0
887 -888 0
-887 888 0
889 -890 0
-889 890 0
891 -892 0
-891 892 0
893 -894 0
-893 894 0
895 -896 0
-895 896 0
897 -898 0
-897 898 0
899 -900 0
-899 900 0
901 -902 0
-901 902 0
903 -904 0
-903 904 0
905 -906 0
-905 906 0
907 -908 0
-907 908 0
909 -910 0
-909 910 0
911 -912 0
-911 912 0
913 -914 0
-913 914 0
915 -916 0
-915 916 0
917 -918 0
-917 918 0
919 -920 0
-919 920 0
921 -922 0
-921 922 0
923 -924 0
-923 924 0
925 -926 0
-925 926 0
927 -928 0
-927 928 0
929 -930 0
-929 930 0
931 -932 0
-931 932 0
933 -934 0
-933 934 0
935 -936 0
-935 936 0
937 -938 0
-937 938 0
939 -940 0
-939 940 0
941 -942 0
-941 942 0
943 -944 0
-943 944 0
945 -946 0
-945 946 0
947 -948 0
-947 948 0
949 -950 0
-949 950 0
951 -952 0
-951 952 0
953 -954 0
-953 954 0
955 -956 0
-955 956 0
957 -958 0
-957 958 0
959 -960 0
-959 960 0
961 -962 0
-961 962 0
963 -964 0
-963 964 0
965 -966 0
-965 966 0
967 -968 0
-967 968 0
969 -970 0
-969 970 0
971 -972 0
-971 972 0
973 -974 0
-973 974 0
975 -976 0
-975 976 0
977 -978 0
-977 978 0
979 -980 0
-979 980 0
981 -982 0
-981 982 0
983 -984 0
-983 984 0
985 -986 0
-985 986 0
987 -988 0
-987 988 0
989 -990 0
-989 990 0
991 -992 0
-991 992 0
993 -994 0
-993 994 0
995 -996 0
-995 996 0
997 -998 0
-997 998 0
999 -1000 0
-999 1000 0
1001 -1002 0
-1001 1002 0
1003 -1004 0
-1003 1004 0
1005 -1006 0
-1005 1006 0
1007 -1008 0
-1007 1008 0
1009 -1010 0
-1009 1010 0
1011 -1012 0
-1011 1012 0
1013 -1014 0
-1013 1014 0
1015 -1016 0
-1015 1016 0
1017 -1018 0
-1017 1018 0
1019 -1020 0
-1019 1020 0
1021 -1022 0
-1021 1022 0
1023 -1024 0
-1023 1024 0
1025 -1026 0
-1025 1026 0
1027 -1028 0
-1027 1028 0
1029 -1030 0
-1029 1030 0
1031 -1032 0
-1031 1032 0
1033 -1034 0
-1033 1034 0
1035 -1036 0
-1035 1036 0
1037 -1038 0
-1037 1038 0
1039 -1040 0
-1039 1040 0
1041 -1042 0
-1041 1042 0
1043 -1044 0
-1043 1044 0
1045 -1046 0
-1045 1046 0
1047 -1048 0
-1047 1048 0
1049 -1050 0
-1049 1050 0
1051 -1052 0
-1051 1052 0
1053 -1054 0
-1053 1054 0
1055 -1056 0
-1055 1056 0
1057 -1058 0
-1057 1058 0
1059 -1060 0
-1059 1060 0
1061 -1062 0
-1061 1062 0
1063 -1064 0
-1063 1064 0
1065 -1066 0
-1065 1066 0
1067 -1068 0
-1067 1068 0
1069 -1070 0
-1069 1070 0
1071 -1072 0
-1071 1072 0
1073 -1074 0
-1073 1074 0
1075 -1076 0
-1075 1076 0
1077 -1078 0
-1077 1078 0
1079 -1080 0
-1079 1080 0
1081 -1082 0
-1081 1082 0
1083 -1084 0
-1083 1084 0
1085 -1086 0
-1085 1086 0
1087 -1088 0
-1087 1088 0
1089 -1090 0
-1089 1090 0
1091 -1092 0
-1091 1092 0
1093 -1094 0
-1093 1094 0
1095 -1096 0
-1095 1096 0
1097 -1098 0
-1097 1098 0
1099 -1100 0
-1099 1100 0
1101 -1102 0
-1101 1102 0
1103 -1104 0
-1103 1104 0
1105 -1106 0
-1105 1106 0
1107 -1108 0
-1107 1108 0
1109 -1110 0
-1109 1110 0
1111 -1112 0
-1111 1112 0
1113 -1114 0
-1113 1114 0
1115 -1116 0
-1115 1116 0
1117 -1118 0
-1117 1118 0
1119 -1120 0
-1119 1120 0
1121 -1122 0
-1121 1122 0
1123 -1124 0
-1123 1124 0
1125 -1126 0
-1125 1126 0
1127 -1128 0
-1127 1128 0
1129 -1130 0
-1129 1130 0
1131 -1132 0
-1131 1132 0
1133 -1134 0
-1133 1134 0
1135 -1136 0
-1135 1136 0
1137 -1138 0
-1137 1138 0
1139 -1140 0
-1139 1140 0
1141 -1142 0
-1141 1142 0
1143 -1144 0
-1143 1144 0
1145 -1146 0
-1145 1146 0
1147 -1148 0
-1147 1148 0
1149 -1150 0
-1149 1150 0
1151 -1152 0
-1151 1152 0
1153 -1154 0
-1153 1154 0
1155 -1156 0
-1155 1156 0
1157 -1158 0
-1157 1158 0
1159 -1160 0
-1159 1160 0
1161 -1162 0
-1161 1162 0
1163 -1164 0
-1163 1164 0
1165 -1166 0
-1165 1166 0
1167 -1168 0
-1167 1168 0
1169 -1170 0
-1169 1170 0
1171 -1172 0
-1171 1172 0
1173 -1174 0
-1173 1174 0
1175 -1176 0
-1175 1176 0
1177 -1178 0
-1177 1178 0
1179 -1180 0
-1179 1180 0
1181 -1182 0
-1181 1182 0
1183 -1184 0
-1183 1184 0
1185 -1186 0
-1185 1186 0
1187 -1188 0
-1187 1188 0
1189 -1190 0
-1189 1190 0
1191 -1192 0
-1191 1192 0
1193 -1194 0
-1193 1194 0
1195 -1196 0
-1195 1196 0
1197 -1198 0
-1197 1198 0
1199 -1200 0
-1199 1200 0
1201 -1202 0
-1201 1202 0
1203 -1204 0
-1203 1204 0
1205 -1206 0
-1205 1206 0
1207 -1208 0
-1207 1208 0
1209 -1210 0
-1209 1210 0
1211 -1212 0
-1211 1212 0
1213 -1214 0
-1213 1214 0
1215 -1216 0
-1215 1216 0
1217 -1218 0
-1217 1218 0
1219 -1220 0
-1219 1220 0
1221 -1222 0
-1221 1222 0
1223 -1224 0
-1223 1224 0
1225 -1226 0
-1225 1226 0
1227 -1228 0
-1227 1228 0
1229 -1230 0
-1229 1230 0
1231 -1232 0
-1231 1232 0
1233 -1234 0
-1233 1234 0
1235 -1236 0
-1235 1236 0
1237 -1238 0
-1237 1238 0
1239 -1240 0
-1239 1240 0
1241 -1242 0
-1241 1242 0
1243 -1244 0
-1243 1244 0
1245 -1246 0
-1245 1246 0
1247 -1248 0
-1247 1248 0
1249 -1250 0
-1249 1250 0
1251 -1252 0
-1251 1252 0
1253 -1254 0
-1253 1254 0
1255 -1256 0
-1255 1256 0
1257 -1258 0
-1257 1258 0
1259 -1260 0
-1259 1260 0
1261 -1262 0
-1261 1262 0
1263 -1264 0
-1263 1264 0
1265 -1266 0
-1265 1266 0
1267 -1268 0
-1267 1268 0
1269 -1270 0
-1269 1270 0
1271 -1272 0
-1271 1272 0
1273 -1274 0
-1273 1274 0
1275 -1276 0
-1275 1276 0
1277 -1278 0
-1277 1278 0
1279 -1280 0
-1279 1280 0
1281 -1282 0
-1281 1282 0
1283 -1284 0
-1283 1284 0
1285 -1286 0
-1285 1286 0
1287 -1288 0
-1287 1288 0
1289 -1290 0
-1289 1290 0
1291 -1292 0
-1291 1292 0
1293 -1294 0
-1293 1294 0
1295 -1296 0
-1295 1296 0
1297 -1298 0
-1297 1298 0
1299 -1300 0
-1299 1300 0
1301 -1302 0
-1301 1302 0
1303 -1304 0
-1303 1304 0
1305 -1306 0
-1305 1306 0
1307 -1308 0
-1307 1308 0
1309 -1310 0
-1309 1310 0
1311 -1312 0
-1311 1312 0
1313 -1314 0
-1313 1314 0
1315 -1316 0
-1315 1316 0
1317 -1318 0
-1317 1318 0
1319 -1320 0
-1319 1320 0
1321 -1322 0
-1321 1322 0
1323 -1324 0
-1323 1324 0
1325 -1326 0
-1325 1326 0
1327 -1328 0
-1327 1328 0
1329 -1330 0
-1329 1330 0
1331 -1332 0
-1331 1332 0
1333 -1334 0
-1333 1334 0
1335 -1336 0
-1335 1336 0
1337 -1338 0
-1337 1338 0
1339 -1340 0
-1339 1340 0
1341 -1342 0
-1341 1342 0
1343 -1344 0
-1343 1344 0
1345 -1346 0
-1345 1346 0
1347 -1348 0
-1347 1348 0
1349 -1350 0
-1349 1350 0
1351 -1352 0
-1351 1352 0
1353 -1354 0
-1353 1354 0
1355 -1356 0
-1355 1356 0
1357 -1358 0
-1357 1358 0
1359 -1360 0
-1359 1360 0
1361 -1362 0
-1361 1362 0
1363 -1364 0
-1363 1364 0
1365 -1366 0
-1365 1366 0
1367 -1368 0
-1367 1368 0
1369 -1370 0
-1369 1370 0
1371 -1372 0
-1371 1372 0
1373 -1374 0
-1373 1374 0
1375 -1376 0
-1375 1376 0
1377 -1378 0
-1377 1378 0
1379 -1380 0
-1379 1380 0
1381 -1382 0
-1381 1382 0
1383 -1384 0
-1383 1384 0
1385 -1386 0
-1385 1386 0
1387 -1388 0
-1387 1388 0
1389 -1390 0
-1389 1390 0
1391 -1392 0
-1391 1392 0
2 -1 0
-2 1 0
1393 -1394 1395 1396 -1017 0
-1393 1394 0
-1393 -1395 0
-1393 -1396 0
-1393 1017 0
1397 -1398 1399 1400 -971 0
-1397 1398 0
-1397 -1399 0
-1397 -1400 0
-1397 971 0
1401 -1402 1403 -1015 0
-1401 1402 0
-1401 -1403 0
-1401 1015 0
1404 -1405 1406 -983 0
-1404 1405 0
-1404 -1406 0
-1404 983 0
1407 -1408 1409 1410 -987 0
-1407 1408 0
-1407 -1409 0
-1407 -1410 0
-1407 987 0
1411 -1412 1413 -989 0
-1411 1412 0
-1411 -1413 0
-1411 989 0
1414 -1415 1416 1417 -969 0
-1414 1415 0
-1414 -1416 0
-1414 -1417 0
-1414 969 0
1418 -1419 1420 1421 -991 0
-1418 1419 0
-1418 -1420 0
-1418 -1421 0
-1418 991 0
1422 -1423 1424 -1023 0
-1422 1423 0
-1422 -1424 0
-1422 1023 0
1425 -1426 1427 -967 0
-1425 1426 0
-1425 -1427 0
-1425 967 0
1428 -1429 1430 1431 -1011 0
-1428 1429 0
-1428 -1430 0
-1428 -1431 0
-1428 1011 0
1432 -1433 1434 1435 -1021 0
-1432 1433 0
-1432 -1434 0
-1432 -1435 0
-1432 1021 0
1436 -1437 1438 -1005 0
-1436 1437 0
-1436 -1438 0
-1436 1005 0
1439 -1440 1441 1442 -1009 0
-1439 1440 0
-1439 -1441 0
-1439 -1442 0
-1439 1009 0
1443 -1444 1445 -997 0
-1443 1444 0
-1443 -1445 0
-1443 997 0
1446 -1447 1448 1449 -1013 0
-1446 1447 0
-1446 -1448 0
-1446 -1449 0
-1446 1013 0
1450 -1451 1452 -977 0
-1450 1451 0
-1450 -1452 0
-1450 977 0
1453 -1454 1455 -979 0
-1453 1454 0
-1453 -1455 0
-1453 979 0
908 -907 0
-908 907 0
1456 -1457 1458 1459 -1003 0
-1456 1457 0
-1456 -1458 0
-1456 -1459 0
-1456 1003 0
1460 -1461 1462 1463 -975 0
-1460 1461 0
-1460 -1462 0
-1460 -1463 0
-1460 975 0
1464 -1465 1466 1467 -985 0
-1464 1465 0
-1464 -1466 0
-1464 -1467 0
-1464 985 0
1468 -1469 1470 -995 0
-1468 1469 0
-1468 -1470 0
-1468 995 0
1471 -1472 1473 1474 -1019 0
-1471 1472 0
-1471 -1473 0
-1471 -1474 0
-1471 1019 0
1475 -1476 1477 -1001 0
-1475 1476 0
-1475 -1477 0
-1475 1001 0
1478 -1479 1480 1481 -973 0
-1478 1479 0
-1478 -1480 0
-1478 -1481 0
-1478 973 0
1482 -1483 1484 1485 -1007 0
-1482 1483 0
-1482 -1484 0
-1482 -1485 0
-1482 1007 0
1486 -1487 1488 -981 0
-1486 1487 0
-1486 -1488 0
-1486 981 0
1489 -1490 1491 -993 0
-1489 1490 0
-1489 -1491 0
-1489 993 0
1492 -1493 1494 -999 0
-1492 1493 0
-1492 -1494 0
-1492 999 0
1495 -1496 0
-1495 1496 0
1497 -1498 0
-1497 1498 0
1032 -1031 0
-1032 1031 0
1499 -1500 695 1417 -969 0
-1499 1500 0
-1499 -695 0
-1499 -1417 0
-1499 969 0
1501 -1502 1476 1477 -1001 0
-1501 1502 0
-1501 -1476 0
-1501 -1477 0
-1501 1001 0
1503 -1504 1412 1413 -989 0
-1503 1504 0
-1503 -1412 0
-1503 -1413 0
-1503 989 0
1505 -1506 591 1449 -1013 0
-1505 1506 0
-1505 -591 0
-1505 -1449 0
-1505 1013 0
1507 -1508 555 1467 -985 0
-1507 1508 0
-1507 -555 0
-1507 -1467 0
-1507 985 0
1509 -1510 1402 1403 -1015 0
-1509 1510 0
-1509 -1402 0
-1509 -1403 0
-1509 1015 0
1511 -1512 1487 1488 -981 0
-1511 1512 0
-1511 -1487 0
-1511 -1488 0
-1511 981 0
1513 -1514 1444 1445 -997 0
-1513 1514 0
-1513 -1444 0
-1513 -1445 0
-1513 997 0
1515 -1516 1437 1438 -1005 0
-1515 1516 0
-1515 -1437 0
-1515 -1438 0
-1515 1005 0
1517 -1518 707 1442 -1009 0
-1517 1518 0
-1517 -707 0
-1517 -1442 0
-1517 1009 0
1519 -1520 481 1431 -1011 0
-1519 1520 0
-1519 -481 0
-1519 -1431 0
-1519 1011 0
1521 -1522 673 1481 -973 0
-1521 1522 0
-1521 -673 0
-1521 -1481 0
-1521 973 0
1523 -1524 441 1400 -971 0
-1523 1524 0
-1523 -441 0
-1523 -1400 0
-1523 971 0
1525 -1526 601 1421 -991 0
-1525 1526 0
-1525 -601 0
-1525 -1421 0
-1525 991 0
1527 -1528 1490 1491 -993 0
-1527 1528 0
-1527 -1490 0
-1527 -1491 0
-1527 993 0
1529 -1530 1451 1452 -977 0
-1529 1530 0
-1529 -1451 0
-1529 -1452 0
-1529 977 0
1531 -1532 1469 1470 -995 0
-1531 1532 0
-1531 -1469 0
-1531 -1470 0
-1531 995 0
1533 -1534 625 1463 -975 0
-1533 1534 0
-1533 -625 0
-1533 -1463 0
-1533 975 0
1535 -1536 417 1474 -1019 0
-1535 1536 0
-1535 -417 0
-1535 -1474 0
-1535 1019 0
1537 -1538 661 1396 -1017 0
-1537 1538 0
-1537 -661 0
-1537 -1396 0
-1537 1017 0
1539 -1540 451 1459 -1003 0
-1539 1540 0
-1539 -451 0
-1539 -1459 0
-1539 1003 0
1541 -1542 527 1410 -987 0
-1541 1542 0
-1541 -527 0
-1541 -1410 0
-1541 987 0
1543 -1544 1493 1494 -999 0
-1543 1544 0
-1543 -1493 0
-1543 -1494 0
-1543 999 0
1545 -1546 637 1485 -1007 0
-1545 1546 0
-1545 -637 0
-1545 -1485 0
-1545 1007 0
1547 -1548 1454 1455 -979 0
-1547 1548 0
-1547 -1454 0
-1547 -1455 0
-1547 979 0
1549 -1550 381 1435 -1021 0
-1549 1550 0
-1549 -381 0
-1549 -1435 0
-1549 1021 0
1551 -1552 1405 1406 -983 0
-1551 1552 0
-1551 -1405 0
-1551 -1406 0
-1551 983 0
1553 -1554 1426 1427 -967 0
-1553 1554 0
-1553 -1426 0
-1553 -1427 0
-1553 967 0
1555 -1556 1423 1424 -1023 0
-1555 1556 0
-1555 -1423 0
-1555 -1424 0
-1555 1023 0
1557 -1558 0
-1557 1558 0
6 -5 0
-6 5 0
1559 -1560 663 1396 -1017 0
-1559 1560 0
-1559 -663 0
-1559 -1396 0
-1559 1017 0
1561 -1562 483 1431 -1011 0
-1561 1562 0
-1561 -483 0
-1561 -1431 0
-1561 1011 0
1563 -1564 515 1488 -981 0
-1563 1564 0
-1563 -515 0
-1563 -1488 0
-1563 981 0
1565 -1566 419 1474 -1019 0
-1565 1566 0
-1565 -419 0
-1565 -1474 0
-1565 1019 0
1567 -1568 469 1427 -967 0
-1567 1568 0
-1567 -469 0
-1567 -1427 0
-1567 967 0
1569 -1570 453 1459 -1003 0
-1569 1570 0
-1569 -453 0
-1569 -1459 0
-1569 1003 0
1571 -1572 683 1452 -977 0
-1571 1572 0
-1571 -683 0
-1571 -1452 0
-1571 977 0
1040 -1039 0
-1040 1039 0
1573 -1574 603 1421 -991 0
-1573 1574 0
-1573 -603 0
-1573 -1421 0
-1573 991 0
1575 -1576 567 1406 -983 0
-1575 1576 0
-1575 -567 0
-1575 -1406 0
-1575 983 0
1577 -1578 505 1438 -1005 0
-1577 1578 0
-1577 -505 0
-1577 -1438 0
-1577 1005 0
1579 -1580 395 1491 -993 0
-1579 1580 0
-1579 -395 0
-1579 -1491 0
-1579 993 0
1581 -1582 405 1494 -999 0
-1581 1582 0
-1581 -405 0
-1581 -1494 0
-1581 999 0
1583 -1584 639 1485 -1007 0
-1583 1584 0
-1583 -639 0
-1583 -1485 0
-1583 1007 0
1585 -1586 443 1400 -971 0
-1585 1586 0
-1585 -443 0
-1585 -1400 0
-1585 971 0
1587 -1588 383 1435 -1021 0
-1587 1588 0
-1587 -383 0
-1587 -1435 0
-1587 1021 0
1589 -1590 717 1455 -979 0
-1589 1590 0
-1589 -717 0
-1589 -1455 0
-1589 979 0
1591 -1592 697 1417 -969 0
-1591 1592 0
-1591 -697 0
-1591 -1417 0
-1591 969 0
1593 -1594 709 1442 -1009 0
-1593 1594 0
-1593 -709 0
-1593 -1442 0
-1593 1009 0
1595 -1596 577 1413 -989 0
-1595 1596 0
-1595 -577 0
-1595 -1413 0
-1595 989 0
1597 -1598 427 1470 -995 0
-1597 1598 0
-1597 -427 0
-1597 -1470 0
-1597 995 0
1599 -1600 557 1467 -985 0
-1599 1600 0
-1599 -557 0
-1599 -1467 0
-1599 985 0
1601 -1602 529 1410 -987 0
-1601 1602 0
-1601 -529 0
-1601 -1410 0
-1601 987 0
1603 -1604 615 1445 -997 0
-1603 1604 0
-1603 -615 0
-1603 -1445 0
-1603 997 0
1605 -1606 593 1449 -1013 0
-1605 1606 0
-1605 -593 0
-1605 -1449 0
-1605 1013 0
1607 -1608 675 1481 -973 0
-1607 1608 0
-1607 -675 0
-1607 -1481 0
-1607 973 0
1609 -1610 495 1477 -1001 0
-1609 1610 0
-1609 -495 0
-1609 -1477 0
-1609 1001 0
1611 -1612 649 1424 -1023 0
-1611 1612 0
-1611 -649 0
-1611 -1424 0
-1611 1023 0
1613 -1614 627 1463 -975 0
-1613 1614 0
-1613 -627 0
-1613 -1463 0
-1613 975 0
1615 -1616 541 1403 -1015 0
-1615 1616 0
-1615 -541 0
-1615 -1403 0
-1615 1015 0
1617 -1618 0
-1617 1618 0
10 -9 0
-10 9 0
1619 -1620 517 1488 -981 0
-1619 1620 0
-1619 -517 0
-1619 -1488 0
-1619 981 0
1621 -1622 559 1467 -985 0
-1621 1622 0
-1621 -559 0
-1621 -1467 0
-1621 985 0
1623 -1624 569 1406 -983 0
-1623 1624 0
-1623 -569 0
-1623 -1406 0
-1623 983 0
1625 -1626 719 1455 -979 0
-1625 1626 0
-1625 -719 0
-1625 -1455 0
-1625 979 0
1627 -1628 595 1449 -1013 0
-1627 1628 0
-1627 -595 0
-1627 -1449 0
-1627 1013 0
1629 -1630 651 1424 -1023 0
-1629 1630 0
-1629 -651 0
-1629 -1424 0
-1629 1023 0
1631 -1632 429 1470 -995 0
-1631 1632 0
-1631 -429 0
-1631 -1470 0
-1631 995 0
1633 -1634 421 1474 -1019 0
-1633 1634 0
-1633 -421 0
-1633 -1474 0
-1633 1019 0
1635 -1636 471 1427 -967 0
-1635 1636 0
-1635 -471 0
-1635 -1427 0
-1635 967 0
1637 -1638 455 1459 -1003 0
-1637 1638 0
-1637 -455 0
-1637 -1459 0
-1637 1003 0
1639 -1640 579 1413 -989 0
-1639 1640 0
-1639 -579 0
-1639 -1413 0
-1639 989 0
1641 -1642 685 1452 -977 0
-1641 1642 0
-1641 -685 0
-1641 -1452 0
-1641 977 0
1643 -1644 605 1421 -991 0
-1643 1644 0
-1643 -605 0
-1643 -1421 0
-1643 991 0
1645 -1646 531 1410 -987 0
-1645 1646 0
-1645 -531 0
-1645 -1410 0
-1645 987 0
1647 -1648 507 1438 -1005 0
-1647 1648 0
-1647 -507 0
-1647 -1438 0
-1647 1005 0
1649 -1650 385 1435 -1021 0
-1649 1650 0
-1649 -385 0
-1649 -1435 0
-1649 1021 0
1651 -1652 641 1485 -1007 0
-1651 1652 0
-1651 -641 0
-1651 -1485 0
-1651 1007 0
1653 -1654 445 1400 -971 0
-1653 1654 0
-1653 -445 0
-1653 -1400 0
-1653 971 0
1655 -1656 485 1431 -1011 0
-1655 1656 0
-1655 -485 0
-1655 -1431 0
-1655 1011 0
1657 -1658 699 1417 -969 0
-1657 1658 0
-1657 -699 0
-1657 -1417 0
-1657 969 0
1659 -1660 543 1403 -1015 0
-1659 1660 0
-1659 -543 0
-1659 -1403 0
-1659 1015 0
1661 -1662 711 1442 -1009 0
-1661 1662 0
-1661 -711 0
-1661 -1442 0
-1661 1009 0
1048 -1047 0
-1048 1047 0
1663 -1664 497 1477 -1001 0
-1663 1664 0
-1663 -497 0
-1663 -1477 0
-1663 1001 0
1665 -1666 677 1481 -973 0
-1665 1666 0
-1665 -677 0
-1665 -1481 0
-1665 973 0
1667 -1668 617 1445 -997 0
-1667 1668 0
-1667 -617 0
-1667 -1445 0
-1667 997 0
1669 -1670 397 1491 -993 0
-1669 1670 0
-1669 -397 0
-1669 -1491 0
-1669 993 0
1671 -1672 665 1396 -1017 0
-1671 1672 0
-1671 -665 0
-1671 -1396 0
-1671 1017 0
1673 -1674 629 1463 -975 0
-1673 1674 0
-1673 -629 0
-1673 -1463 0
-1673 975 0
1675 -1676 407 1494 -999 0
-1675 1676 0
-1675 -407 0
-1675 -1494 0
-1675 999 0
1677 -1678 0
-1677 1678 0
14 -13 0
-14 13 0
1679 -1680 653 1424 -1023 0
-1679 1680 0
-1679 -653 0
-1679 -1424 0
-1679 1023 0
1681 -1682 499 1477 -1001 0
-1681 1682 0
-1681 -499 0
-1681 -1477 0
-1681 1001 0
1683 -1684 721 1455 -979 0
-1683 1684 0
-1683 -721 0
-1683 -1455 0
-1683 979 0
1685 -1686 581 1413 -989 0
-1685 1686 0
-1685 -581 0
-1685 -1413 0
-1685 989 0
1687 -1688 487 1431 -1011 0
-1687 1688 0
-1687 -487 0
-1687 -1431 0
-1687 1011 0
1689 -1690 687 1452 -977 0
-1689 1690 0
-1689 -687 0
-1689 -1452 0
-1689 977 0
1056 -1055 0
-1056 1055 0
1691 -1692 679 1481 -973 0
-1691 1692 0
-1691 -679 0
-1691 -1481 0
-1691 973 0
1693 -1694 545 1403 -1015 0
-1693 1694 0
-1693 -545 0
-1693 -1403 0
-1693 1015 0
1695 -1696 457 1459 -1003 0
-1695 1696 0
-1695 -457 0
-1695 -1459 0
-1695 1003 0
1697 -1698 631 1463 -975 0
-1697 1698 0
-1697 -631 0
-1697 -1463 0
-1697 975 0
1699 -1700 713 1442 -1009 0
-1699 1700 0
-1699 -713 0
-1699 -1442 0
-1699 1009 0
1701 -1702 399 1491 -993 0
-1701 1702 0
-1701 -399 0
-1701 -1491 0
-1701 993 0
1703 -1704 561 1467 -985 0
-1703 1704 0
-1703 -561 0
-1703 -1467 0
-1703 985 0
1705 -1706 643 1485 -1007 0
-1705 1706 0
-1705 -643 0
-1705 -1485 0
-1705 1007 0
1707 -1708 509 1438 -1005 0
-1707 1708 0
-1707 -509 0
-1707 -1438 0
-1707 1005 0
1709 -1710 667 1396 -1017 0
-1709 1710 0
-1709 -667 0
-1709 -1396 0
-1709 1017 0
1711 -1712 473 1427 -967 0
-1711 1712 0
-1711 -473 0
-1711 -1427 0
-1711 967 0
1713 -1714 519 1488 -981 0
-1713 1714 0
-1713 -519 0
-1713 -1488 0
-1713 981 0
1715 -1716 387 1435 -1021 0
-1715 1716 0
-1715 -387 0
-1715 -1435 0
-1715 1021 0
1717 -1718 409 1494 -999 0
-1717 1718 0
-1717 -409 0
-1717 -1494 0
-1717 999 0
1719 -1720 423 1474 -1019 0
-1719 1720 0
-1719 -423 0
-1719 -1474 0
-1719 1019 0
1721 -1722 597 1449 -1013 0
-1721 1722 0
-1721 -597 0
-1721 -1449 0
-1721 1013 0
1723 -1724 447 1400 -971 0
-1723 1724 0
-1723 -447 0
-1723 -1400 0
-1723 971 0
1725 -1726 571 1406 -983 0
-1725 1726 0
-1725 -571 0
-1725 -1406 0
-1725 983 0
1727 -1728 701 1417 -969 0
-1727 1728 0
-1727 -701 0
-1727 -1417 0
-1727 969 0
1729 -1730 533 1410 -987 0
-1729 1730 0
-1729 -533 0
-1729 -1410 0
-1729 987 0
1731 -1732 431 1470 -995 0
-1731 1732 0
-1731 -431 0
-1731 -1470 0
-1731 995 0
1733 -1734 619 1445 -997 0
-1733 1734 0
-1733 -619 0
-1733 -1445 0
-1733 997 0
1735 -1736 607 1421 -991 0
-1735 1736 0
-1735 -607 0
-1735 -1421 0
-1735 991 0
18 -17 0
-18 17 0
1737 -1738 0
-1737 1738 0
1739 -1740 477 1427 -39 0
-1739 1740 0
-1739 -477 0
-1739 -1427 0
-1739 39 0
1374 -1373 0
-1374 1373 0
1741 -1742 0
-1741 1742 0
1743 -1744 0
-1743 1744 0
1104 -1103 0
-1104 1103 0
1745 -1746 669 1396 -125 0
-1745 1746 0
-1745 -669 0
-1745 -1396 0
-1745 125 0
26 -25 0
-26 25 0
1747 -1748 0
-1747 1748 0
1749 -1750 465 1459 -111 0
-1749 1750 0
-1749 -465 0
-1749 -1459 0
-1749 111 0
1262 -1261 0
-1262 1261 0
1751 -1752 0
-1751 1752 0
30 -29 0
-30 29 0
1753 -1754 389 1435 -23 0
-1753 1754 0
-1753 -389 0
-1753 -1435 0
-1753 23 0
1350 -1349 0
-1350 1349 0
1755 -1756 0
-1755 1756 0
34 -33 0
-34 33 0
1757 -1430 1431 -99 0
-1757 1430 0
-1757 -1431 0
-1757 99 0
1384 -1383 0
-1384 1383 0
38 -37 0
-38 37 0
1758 -1759 0
-1758 1759 0
1116 -1115 0
-1116 1115 0
1760 -1761 535 1410 -103 0
-1760 1761 0
-1760 -535 0
-1760 -1410 0
-1760 103 0
1762 -1763 0
-1762 1763 0
42 -41 0
-42 41 0
1764 -1765 547 1403 -55 0
-1764 1765 0
-1764 -547 0
-1764 -1403 0
-1764 55 0
1120 -1119 0
-1120 1119 0
46 -45 0
-46 45 0
1766 -1767 0
-1766 1767 0
1274 -1273 0
-1274 1273 0
1768 -1769 461 1459 -111 0
-1768 1769 0
-1768 -461 0
-1768 -1459 0
-1768 111 0
1770 -1771 0
-1770 1771 0
50 -49 0
-50 49 0
1772 -1773 633 1463 -91 0
-1772 1773 0
-1772 -633 0
-1772 -1463 0
-1772 91 0
1314 -1313 0
-1314 1313 0
1774 -1775 0
-1774 1775 0
54 -53 0
-54 53 0
1134 -1133 0
-1134 1133 0
1776 -1777 459 1459 -111 0
-1776 1777 0
-1776 -459 0
-1776 -1459 0
-1776 111 0
58 -57 0
-58 57 0
1778 -1779 0
-1778 1779 0
1368 -1367 0
-1368 1367 0
1780 -1781 703 1417 -121 0
-1780 1781 0
-1780 -703 0
-1780 -1417 0
-1780 121 0
62 -61 0
-62 61 0
1782 -1783 0
-1782 1783 0
1144 -1143 0
-1144 1143 0
1784 -1785 537 1410 -103 0
-1784 1785 0
-1784 -537 0
-1784 -1410 0
-1784 103 0
66 -65 0
-66 65 0
1786 -1787 0
-1786 1787 0
1788 -1789 585 1413 -63 0
-1788 1789 0
-1788 -585 0
-1788 -1413 0
-1788 63 0
1352 -1351 0
-1352 1351 0
1790 -1791 0
-1790 1791 0
70 -69 0
-70 69 0
1792 -1793 689 1452 -87 0
-1792 1793 0
-1792 -689 0
-1792 -1452 0
-1792 87 0
1284 -1283 0
-1284 1283 0
74 -73 0
-74 73 0
1794 -1795 0
-1794 1795 0
1154 -1153 0
-1154 1153 0
1796 -1797 583 1413 -63 0
-1796 1797 0
-1796 -583 0
-1796 -1413 0
-1796 63 0
78 -77 0
-78 77 0
1798 -1799 0
-1798 1799 0
1282 -1281 0
-1282 1281 0
1800 -1801 549 1403 -55 0
-1800 1801 0
-1800 -549 0
-1800 -1403 0
-1800 55 0
82 -81 0
-82 81 0
1802 -1803 0
-1802 1803 0
1804 -1805 463 1459 -111 0
-1804 1805 0
-1804 -463 0
-1804 -1459 0
-1804 111 0
1310 -1309 0
-1310 1309 0
1806 -1807 0
-1806 1807 0
86 -85 0
-86 85 0
1340 -1339 0
-1340 1339 0
1808 -1809 609 1421 -71 0
-1808 1809 0
-1808 -609 0
-1808 -1421 0
-1808 71 0
1810 -1811 0
-1810 1811 0
90 -89 0
-90 89 0
1812 -1813 563 1467 -83 0
-1812 1813 0
-1812 -563 0
-1812 -1467 0
-1812 83 0
1166 -1165 0
-1166 1165 0
1814 -1815 0
-1814 1815 0
94 -93 0
-94 93 0
1012 -1011 0
-1012 1011 0
1816 -1817 475 1427 -1383 0
-1816 1817 0
-1816 -475 0
-1816 -1427 0
-1816 1383 0
1818 -1819 235 1820 -11 0
-1818 1819 0
-1818 -235 0
-1818 -1820 0
-1818 11 0
1821 -1416 1417 -1391 0
-1821 1416 0
-1821 -1417 0
-1821 1391 0
1822 -1823 295 1824 -15 0
-1822 1823 0
-1822 -295 0
-1822 -1824 0
-1822 15 0
1825 -1441 1442 -1213 0
-1825 1441 0
-1825 -1442 0
-1825 1213 0
1826 -1827 355 1828 -19 0
-1826 1827 0
-1826 -355 0
-1826 -1828 0
-1826 19 0
1829 -1830 175 1831 -7 0
-1829 1830 0
-1829 -175 0
-1829 -1831 0
-1829 7 0
1832 -1815 93 1833 -3 0
-1832 1815 0
-1832 -93 0
-1832 -1833 0
-1832 3 0
98 -97 0
-98 97 0
1834 -1835 0
-1834 1835 0
1176 -1175 0
-1176 1175 0
1836 -1837 521 1488 -51 0
-1836 1837 0
-1836 -521 0
-1836 -1488 0
-1836 51 0
1838 -1839 0
-1838 1839 0
102 -101 0
-102 101 0
1840 -1841 645 1485 -133 0
-1840 1841 0
-1840 -645 0
-1840 -1485 0
-1840 133 0
1182 -1181 0
-1182 1181 0
1842 -1843 0
-1842 1843 0
106 -105 0
-106 105 0
1844 -1845 435 1470 -35 0
-1844 1845 0
-1844 -435 0
-1844 -1470 0
-1844 35 0
1336 -1335 0
-1336 1335 0
1846 -1847 0
-1846 1847 0
110 -109 0
-110 109 0
1848 -1849 0
-1848 1849 0
114 -113 0
-114 113 0
1192 -1191 0
-1192 1191 0
1850 -1851 433 1470 -35 0
-1850 1851 0
-1850 -433 0
-1850 -1470 0
-1850 35 0
1852 -1853 0
-1852 1853 0
116 -115 0
-116 115 0
1392 -1391 0
-1392 1391 0
1854 -1855 489 1431 -99 0
-1854 1855 0
-1854 -489 0
-1854 -1431 0
-1854 99 0
1856 -1857 0
-1856 1857 0
120 -119 0
-120 119 0
1200 -1199 0
-1200 1199 0
1858 -1859 655 1424 -75 0
-1858 1859 0
-1858 -655 0
-1858 -1424 0
-1858 75 0
1860 -1861 0
-1860 1861 0
124 -123 0
-124 123 0
1862 -1863 411 1494 -31 0
-1862 1863 0
-1862 -411 0
-1862 -1494 0
-1862 31 0
1204 -1203 0
-1204 1203 0
1864 -1865 0
-1864 1865 0
128 -127 0
-128 127 0
1210 -1209 0
-1210 1209 0
1866 -1867 611 1421 -71 0
-1866 1867 0
-1866 -611 0
-1866 -1421 0
-1866 71 0
1868 -1869 0
-1868 1869 0
132 -131 0
-132 131 0
1214 -1213 0
-1214 1213 0
1870 -1871 491 1431 -99 0
-1870 1871 0
-1870 -491 0
-1870 -1431 0
-1870 99 0
1872 -1873 0
-1872 1873 0
136 -135 0
-136 135 0
1874 -1875 317 1824 -15 0
-1874 1875 0
-1874 -317 0
-1874 -1824 0
-1874 15 0
1876 -1877 377 1828 -19 0
-1876 1877 0
-1876 -377 0
-1876 -1828 0
-1876 19 0
1878 -1873 135 1833 -3 0
-1878 1873 0
-1878 -135 0
-1878 -1833 0
-1878 3 0
1879 -1880 197 1831 -7 0
-1879 1880 0
-1879 -197 0
-1879 -1831 0
-1879 7 0
1881 -1882 257 1820 -11 0
-1881 1882 0
-1881 -257 0
-1881 -1820 0
-1881 11 0
1883 -1884 0
-1883 1884 0
1885 -1886 0
-1885 1886 0
1887 -1888 0
-1887 1888 0
142 -141 0
-142 141 0
1889 -1890 0
-1889 1890 0
144 -143 0
-144 143 0
1891 -1892 0
-1891 1892 0
146 -145 0
-146 145 0
148 -147 0
-148 147 0
1893 -1894 0
-1893 1894 0
1895 -1896 0
-1895 1896 0
150 -149 0
-150 149 0
1897 -1898 0
-1897 1898 0
152 -151 0
-152 151 0
1899 -1900 0
-1899 1900 0
154 -153 0
-154 153 0
156 -155 0
-156 155 0
1901 -1902 0
-1901 1902 0
1903 -1904 0
-1903 1904 0
158 -157 0
-158 157 0
1905 -1906 0
-1905 1906 0
160 -159 0
-160 159 0
1907 -1908 0
-1907 1908 0
162 -161 0
-162 161 0
164 -163 0
-164 163 0
1909 -1910 0
-1909 1910 0
1911 -1912 0
-1911 1912 0
166 -165 0
-166 165 0
1913 -1914 0
-1913 1914 0
168 -167 0
-168 167 0
1915 -1916 0
-1915 1916 0
170 -169 0
-170 169 0
172 -171 0
-172 171 0
1917 -1918 0
-1917 1918 0
1919 -1920 0
-1919 1920 0
174 -173 0
-174 173 0
176 -175 0
-176 175 0
1921 -1830 0
-1921 1830 0
178 -177 0
-178 177 0
1922 -1923 0
-1922 1923 0
180 -179 0
-180 179 0
1924 -1925 0
-1924 1925 0
1926 -1927 0
-1926 1927 0
182 -181 0
-182 181 0
1928 -1929 0
-1928 1929 0
184 -183 0
-184 183 0
1930 -1931 0
-1930 1931 0
186 -185 0
-186 185 0
1932 -1933 0
-1932 1933 0
188 -187 0
-188 187 0
1934 -1935 0
-1934 1935 0
190 -189 0
-190 189 0
192 -191 0
-192 191 0
1936 -1937 0
-1936 1937 0
1938 -1939 0
-1938 1939 0
194 -193 0
-194 193 0
196 -195 0
-196 195 0
1940 -1941 0
-1940 1941 0
1942 -1880 0
-1942 1880 0
198 -197 0
-198 197 0
1943 -1944 0
-1943 1944 0
1945 -1946 0
-1945 1946 0
1947 -1948 0
-1947 1948 0
202 -201 0
-202 201 0
204 -203 0
-204 203 0
1949 -1950 0
-1949 1950 0
1951 -1952 0
-1951 1952 0
206 -205 0
-206 205 0
208 -207 0
-208 207 0
1953 -1954 0
-1953 1954 0
210 -209 0
-210 209 0
1955 -1956 0
-1955 1956 0
212 -211 0
-212 211 0
1957 -1958 0
-1957 1958 0
1959 -1960 0
-1959 1960 0
214 -213 0
-214 213 0
216 -215 0
-216 215 0
1961 -1962 0
-1961 1962 0
1963 -1964 0
-1963 1964 0
218 -217 0
-218 217 0
1965 -1966 0
-1965 1966 0
220 -219 0
-220 219 0
1967 -1968 0
-1967 1968 0
222 -221 0
-222 221 0
224 -223 0
-224 223 0
1969 -1970 0
-1969 1970 0
1971 -1972 0
-1971 1972 0
226 -225 0
-226 225 0
1973 -1974 0
-1973 1974 0
228 -227 0
-228 227 0
1975 -1976 0
-1975 1976 0
230 -229 0
-230 229 0
232 -231 0
-232 231 0
1977 -1978 0
-1977 1978 0
234 -233 0
-234 233 0
1979 -1980 0
-1979 1980 0
1981 -1819 0
-1981 1819 0
236 -235 0
-236 235 0
1982 -1983 0
-1982 1983 0
238 -237 0
-238 237 0
1984 -1985 0
-1984 1985 0
240 -239 0
-240 239 0
242 -241 0
-242 241 0
1986 -1987 0
-1986 1987 0
1988 -1989 0
-1988 1989 0
244 -243 0
-244 243 0
1990 -1991 0
-1990 1991 0
246 -245 0
-246 245 0
1992 -1993 0
-1992 1993 0
248 -247 0
-248 247 0
250 -249 0
-250 249 0
1994 -1995 0
-1994 1995 0
1996 -1997 0
-1996 1997 0
252 -251 0
-252 251 0
1998 -1999 0
-1998 1999 0
254 -253 0
-254 253 0
2000 -2001 0
-2000 2001 0
256 -255 0
-256 255 0
258 -257 0
-258 257 0
2002 -1882 0
-2002 1882 0
2003 -2004 0
-2003 2004 0
2005 -2006 0
-2005 2006 0
2007 -2008 0
-2007 2008 0
262 -261 0
-262 261 0
264 -263 0
-264 263 0
2009 -2010 0
-2009 2010 0
2011 -2012 0
-2011 2012 0
266 -265 0
-266 265 0
268 -267 0
-268 267 0
2013 -2014 0
-2013 2014 0
2015 -2016 0
-2015 2016 0
270 -269 0
-270 269 0
2017 -2018 0
-2017 2018 0
272 -271 0
-272 271 0
2019 -2020 0
-2019 2020 0
274 -273 0
-274 273 0
2021 -2022 0
-2021 2022 0
276 -275 0
-276 275 0
2023 -2024 0
-2023 2024 0
278 -277 0
-278 277 0
2025 -2026 0
-2025 2026 0
280 -279 0
-280 279 0
282 -281 0
-282 281 0
2027 -2028 0
-2027 2028 0
2029 -2030 0
-2029 2030 0
284 -283 0
-284 283 0
2031 -2032 0
-2031 2032 0
286 -285 0
-286 285 0
2033 -2034 0
-2033 2034 0
288 -287 0
-288 287 0
2035 -2036 0
-2035 2036 0
290 -289 0
-290 289 0
2037 -2038 0
-2037 2038 0
292 -291 0
-292 291 0
294 -293 0
-294 293 0
2039 -2040 0
-2039 2040 0
2041 -1823 0
-2041 1823 0
296 -295 0
-296 295 0
298 -297 0
-298 297 0
2042 -2043 0
-2042 2043 0
2044 -2045 0
-2044 2045 0
300 -299 0
-300 299 0
302 -301 0
-302 301 0
2046 -2047 0
-2046 2047 0
2048 -2049 0
-2048 2049 0
304 -303 0
-304 303 0
306 -305 0
-306 305 0
2050 -2051 0
-2050 2051 0
2052 -2053 0
-2052 2053 0
308 -307 0
-308 307 0
310 -309 0
-310 309 0
2054 -2055 0
-2054 2055 0
2056 -2057 0
-2056 2057 0
312 -311 0
-312 311 0
2058 -2059 0
-2058 2059 0
314 -313 0
-314 313 0
316 -315 0
-316 315 0
2060 -2061 0
-2060 2061 0
318 -317 0
-318 317 0
2062 -1875 0
-2062 1875 0
2063 -2064 0
-2063 2064 0
2065 -2066 0
-2065 2066 0
2067 -2068 0
-2067 2068 0
322 -321 0
-322 321 0
2069 -2070 0
-2069 2070 0
324 -323 0
-324 323 0
326 -325 0
-326 325 0
2071 -2072 0
-2071 2072 0
2073 -2074 0
-2073 2074 0
328 -327 0
-328 327 0
2075 -2076 0
-2075 2076 0
330 -329 0
-330 329 0
332 -331 0
-332 331 0
2077 -2078 0
-2077 2078 0
2079 -2080 0
-2079 2080 0
334 -333 0
-334 333 0
336 -335 0
-336 335 0
2081 -2082 0
-2081 2082 0
338 -337 0
-338 337 0
2083 -2084 0
-2083 2084 0
2085 -2086 0
-2085 2086 0
340 -339 0
-340 339 0
342 -341 0
-342 341 0
2087 -2088 0
-2087 2088 0
2089 -2090 0
-2089 2090 0
344 -343 0
-344 343 0
2091 -2092 0
-2091 2092 0
346 -345 0
-346 345 0
2093 -2094 0
-2093 2094 0
348 -347 0
-348 347 0
350 -349 0
-350 349 0
2095 -2096 0
-2095 2096 0
2097 -2098 0
-2097 2098 0
352 -351 0
-352 351 0
354 -353 0
-354 353 0
2099 -2100 0
-2099 2100 0
2101 -1827 0
-2101 1827 0
356 -355 0
-356 355 0
358 -357 0
-358 357 0
2102 -2103 0
-2102 2103 0
2104 -2105 0
-2104 2105 0
360 -359 0
-360 359 0
362 -361 0
-362 361 0
2106 -2107 0
-2106 2107 0
2108 -2109 0
-2108 2109 0
364 -363 0
-364 363 0
2110 -2111 0
-2110 2111 0
366 -365 0
-366 365 0
2112 -2113 0
-2112 2113 0
368 -367 0
-368 367 0
370 -369 0
-370 369 0
2114 -2115 0
-2114 2115 0
2116 -2117 0
-2116 2117 0
372 -371 0
-372 371 0
2118 -2119 0
-2118 2119 0
374 -373 0
-374 373 0
2120 -2121 0
-2120 2121 0
376 -375 0
-376 375 0
378 -377 0
-378 377 0
2122 -1877 0
-2122 1877 0
2123 -1434 0
-2123 1434 0
2124 -1433 0
-2124 1433 0
2125 -1550 0
-2125 1550 0
382 -381 0
-382 381 0
2126 -1588 0
-2126 1588 0
384 -383 0
-384 383 0
386 -385 0
-386 385 0
2127 -1650 0
-2127 1650 0
2128 -1716 0
-2128 1716 0
388 -387 0
-388 387 0
2129 -1754 0
-2129 1754 0
390 -389 0
-390 389 0
392 -391 0
-392 391 0
2130 -2131 0
-2130 2131 0
2132 -1490 0
-2132 1490 0
2133 -1528 0
-2133 1528 0
2134 -1580 0
-2134 1580 0
396 -395 0
-396 395 0
2135 -1670 0
-2135 1670 0
398 -397 0
-398 397 0
400 -399 0
-400 399 0
2136 -1702 0
-2136 1702 0
402 -401 0
-402 401 0
2137 -2138 0
-2137 2138 0
2139 -1493 0
-2139 1493 0
2140 -1544 0
-2140 1544 0
2141 -1582 0
-2141 1582 0
406 -405 0
-406 405 0
2142 -1676 0
-2142 1676 0
408 -407 0
-408 407 0
2143 -1718 0
-2143 1718 0
410 -409 0
-410 409 0
2144 -1863 0
-2144 1863 0
412 -411 0
-412 411 0
414 -413 0
-414 413 0
2145 -2146 0
-2145 2146 0
2147 -1473 0
-2147 1473 0
2148 -1472 0
-2148 1472 0
2149 -1536 0
-2149 1536 0
418 -417 0
-418 417 0
2150 -1566 0
-2150 1566 0
420 -419 0
-420 419 0
2151 -1634 0
-2151 1634 0
422 -421 0
-422 421 0
2152 -1720 0
-2152 1720 0
424 -423 0
-424 423 0
2153 -1469 0
-2153 1469 0
2154 -1532 0
-2154 1532 0
428 -427 0
-428 427 0
2155 -1598 0
-2155 1598 0
2156 -1632 0
-2156 1632 0
430 -429 0
-430 429 0
2157 -1732 0
-2157 1732 0
432 -431 0
-432 431 0
2158 -1851 0
-2158 1851 0
434 -433 0
-434 433 0
436 -435 0
-436 435 0
2159 -1845 0
-2159 1845 0
438 -437 0
-438 437 0
2160 -2161 0
-2160 2161 0
2162 -1399 0
-2162 1399 0
2163 -1398 0
-2163 1398 0
2164 -1524 0
-2164 1524 0
442 -441 0
-442 441 0
2165 -1586 0
-2165 1586 0
444 -443 0
-444 443 0
446 -445 0
-446 445 0
2166 -1654 0
-2166 1654 0
2167 -1724 0
-2167 1724 0
448 -447 0
-448 447 0
2168 -1458 0
-2168 1458 0
2169 -1457 0
-2169 1457 0
452 -451 0
-452 451 0
2170 -1540 0
-2170 1540 0
2171 -1570 0
-2171 1570 0
454 -453 0
-454 453 0
2172 -1638 0
-2172 1638 0
456 -455 0
-456 455 0
2173 -1696 0
-2173 1696 0
458 -457 0
-458 457 0
460 -459 0
-460 459 0
2174 -1777 0
-2174 1777 0
2175 -1769 0
-2175 1769 0
462 -461 0
-462 461 0
2176 -1805 0
-2176 1805 0
464 -463 0
-464 463 0
466 -465 0
-466 465 0
2177 -1750 0
-2177 1750 0
2178 -1554 0
-2178 1554 0
2179 -1426 0
-2179 1426 0
2180 -1568 0
-2180 1568 0
470 -469 0
-470 469 0
472 -471 0
-472 471 0
2181 -1636 0
-2181 1636 0
2182 -1712 0
-2182 1712 0
474 -473 0
-474 473 0
476 -475 0
-476 475 0
2183 -1817 0
-2183 1817 0
2184 -1740 0
-2184 1740 0
478 -477 0
-478 477 0
2185 -1430 0
-2185 1430 0
2186 -1429 0
-2186 1429 0
482 -481 0
-482 481 0
2187 -1520 0
-2187 1520 0
2188 -1562 0
-2188 1562 0
484 -483 0
-484 483 0
486 -485 0
-486 485 0
2189 -1656 0
-2189 1656 0
2190 -1688 0
-2190 1688 0
488 -487 0
-488 487 0
490 -489 0
-490 489 0
2191 -1855 0
-2191 1855 0
492 -491 0
-492 491 0
2192 -1871 0
-2192 1871 0
2193 -1476 0
-2193 1476 0
2194 -1502 0
-2194 1502 0
496 -495 0
-496 495 0
2195 -1610 0
-2195 1610 0
498 -497 0
-498 497 0
2196 -1664 0
-2196 1664 0
2197 -1682 0
-2197 1682 0
500 -499 0
-500 499 0
502 -501 0
-502 501 0
2198 -2199 0
-2198 2199 0
2200 -1516 0
-2200 1516 0
2201 -1437 0
-2201 1437 0
2202 -1578 0
-2202 1578 0
506 -505 0
-506 505 0
508 -507 0
-508 507 0
2203 -1648 0
-2203 1648 0
2204 -1708 0
-2204 1708 0
510 -509 0
-510 509 0
512 -511 0
-512 511 0
2205 -2206 0
-2205 2206 0
2207 -1512 0
-2207 1512 0
2208 -1487 0
-2208 1487 0
2209 -1564 0
-2209 1564 0
516 -515 0
-516 515 0
518 -517 0
-518 517 0
2210 -1620 0
-2210 1620 0
2211 -1714 0
-2211 1714 0
520 -519 0
-520 519 0
522 -521 0
-522 521 0
2212 -1837 0
-2212 1837 0
524 -523 0
-524 523 0
2213 -2214 0
-2213 2214 0
2215 -1409 0
-2215 1409 0
2216 -1408 0
-2216 1408 0
2217 -1542 0
-2217 1542 0
528 -527 0
-528 527 0
2218 -1602 0
-2218 1602 0
530 -529 0
-530 529 0
2219 -1646 0
-2219 1646 0
532 -531 0
-532 531 0
2220 -1730 0
-2220 1730 0
534 -533 0
-534 533 0
2221 -1761 0
-2221 1761 0
536 -535 0
-536 535 0
538 -537 0
-538 537 0
2222 -1785 0
-2222 1785 0
2223 -1402 0
-2223 1402 0
2224 -1510 0
-2224 1510 0
2225 -1616 0
-2225 1616 0
542 -541 0
-542 541 0
2226 -1660 0
-2226 1660 0
544 -543 0
-544 543 0
2227 -1694 0
-2227 1694 0
546 -545 0
-546 545 0
548 -547 0
-548 547 0
2228 -1765 0
-2228 1765 0
550 -549 0
-550 549 0
2229 -1801 0
-2229 1801 0
552 -551 0
-552 551 0
2230 -2231 0
-2230 2231 0
2232 -1466 0
-2232 1466 0
2233 -1465 0
-2233 1465 0
2234 -1508 0
-2234 1508 0
556 -555 0
-556 555 0
558 -557 0
-558 557 0
2235 -1600 0
-2235 1600 0
560 -559 0
-560 559 0
2236 -1622 0
-2236 1622 0
562 -561 0
-562 561 0
2237 -1704 0
-2237 1704 0
2238 -1813 0
-2238 1813 0
564 -563 0
-564 563 0
2239 -1405 0
-2239 1405 0
2240 -1552 0
-2240 1552 0
568 -567 0
-568 567 0
2241 -1576 0
-2241 1576 0
570 -569 0
-570 569 0
2242 -1624 0
-2242 1624 0
2243 -1726 0
-2243 1726 0
572 -571 0
-572 571 0
574 -573 0
-574 573 0
2244 -2245 0
-2244 2245 0
2246 -1412 0
-2246 1412 0
2247 -1504 0
-2247 1504 0
578 -577 0
-578 577 0
2248 -1596 0
-2248 1596 0
2249 -1640 0
-2249 1640 0
580 -579 0
-580 579 0
2250 -1686 0
-2250 1686 0
582 -581 0
-582 581 0
2251 -1797 0
-2251 1797 0
584 -583 0
-584 583 0
2252 -1789 0
-2252 1789 0
586 -585 0
-586 585 0
588 -587 0
-588 587 0
2253 -2254 0
-2253 2254 0
2255 -1447 0
-2255 1447 0
2256 -1448 0
-2256 1448 0
2257 -1506 0
-2257 1506 0
592 -591 0
-592 591 0
594 -593 0
-594 593 0
2258 -1606 0
-2258 1606 0
2259 -1628 0
-2259 1628 0
596 -595 0
-596 595 0
2260 -1722 0
-2260 1722 0
598 -597 0
-598 597 0
2261 -1420 0
-2261 1420 0
2262 -1419 0
-2262 1419 0
2263 -1526 0
-2263 1526 0
602 -601 0
-602 601 0
604 -603 0
-604 603 0
2264 -1574 0
-2264 1574 0
606 -605 0
-606 605 0
2265 -1644 0
-2265 1644 0
2266 -1736 0
-2266 1736 0
608 -607 0
-608 607 0
610 -609 0
-610 609 0
2267 -1809 0
-2267 1809 0
2268 -1867 0
-2268 1867 0
612 -611 0
-612 611 0
2269 -1514 0
-2269 1514 0
2270 -1444 0
-2270 1444 0
2271 -1604 0
-2271 1604 0
616 -615 0
-616 615 0
618 -617 0
-618 617 0
2272 -1668 0
-2272 1668 0
2273 -1734 0
-2273 1734 0
620 -619 0
-620 619 0
2274 -2275 0
-2274 2275 0
622 -621 0
-622 621 0
2276 -1461 0
-2276 1461 0
2277 -1462 0
-2277 1462 0
626 -625 0
-626 625 0
2278 -1534 0
-2278 1534 0
2279 -1614 0
-2279 1614 0
628 -627 0
-628 627 0
630 -629 0
-630 629 0
2280 -1674 0
-2280 1674 0
2281 -1698 0
-2281 1698 0
632 -631 0
-632 631 0
2282 -1773 0
-2282 1773 0
634 -633 0
-634 633 0
2283 -1484 0
-2283 1484 0
2284 -1483 0
-2284 1483 0
2285 -1546 0
-2285 1546 0
638 -637 0
-638 637 0
640 -639 0
-640 639 0
2286 -1584 0
-2286 1584 0
2287 -1652 0
-2287 1652 0
642 -641 0
-642 641 0
644 -643 0
-644 643 0
2288 -1706 0
-2288 1706 0
2289 -1841 0
-2289 1841 0
646 -645 0
-646 645 0
2290 -1423 0
-2290 1423 0
2291 -1556 0
-2291 1556 0
650 -649 0
-650 649 0
2292 -1612 0
-2292 1612 0
2293 -1630 0
-2293 1630 0
652 -651 0
-652 651 0
2294 -1680 0
-2294 1680 0
654 -653 0
-654 653 0
2295 -1859 0
-2295 1859 0
656 -655 0
-656 655 0
658 -657 0
-658 657 0
2296 -2297 0
-2296 2297 0
2298 -1394 0
-2298 1394 0
2299 -1395 0
-2299 1395 0
662 -661 0
-662 661 0
2300 -1538 0
-2300 1538 0
2301 -1560 0
-2301 1560 0
664 -663 0
-664 663 0
2302 -1672 0
-2302 1672 0
666 -665 0
-666 665 0
2303 -1710 0
-2303 1710 0
668 -667 0
-668 667 0
670 -669 0
-670 669 0
2304 -1746 0
-2304 1746 0
2305 -1479 0
-2305 1479 0
2306 -1480 0
-2306 1480 0
2307 -1522 0
-2307 1522 0
674 -673 0
-674 673 0
676 -675 0
-676 675 0
2308 -1608 0
-2308 1608 0
2309 -1666 0
-2309 1666 0
678 -677 0
-678 677 0
680 -679 0
-680 679 0
2310 -1692 0
-2310 1692 0
2311 -1451 0
-2311 1451 0
2312 -1530 0
-2312 1530 0
2313 -1572 0
-2313 1572 0
684 -683 0
-684 683 0
686 -685 0
-686 685 0
2314 -1642 0
-2314 1642 0
2315 -1690 0
-2315 1690 0
688 -687 0
-688 687 0
690 -689 0
-690 689 0
2316 -1793 0
-2316 1793 0
2317 -2318 0
-2317 2318 0
692 -691 0
-692 691 0
2319 -1416 0
-2319 1416 0
2320 -1415 0
-2320 1415 0
2321 -1500 0
-2321 1500 0
696 -695 0
-696 695 0
2322 -1592 0
-2322 1592 0
698 -697 0
-698 697 0
2323 -1658 0
-2323 1658 0
700 -699 0
-700 699 0
2324 -1728 0
-2324 1728 0
702 -701 0
-702 701 0
2325 -1781 0
-2325 1781 0
704 -703 0
-704 703 0
2326 -1440 0
-2326 1440 0
2327 -1441 0
-2327 1441 0
2328 -1518 0
-2328 1518 0
708 -707 0
-708 707 0
2329 -1594 0
-2329 1594 0
710 -709 0
-710 709 0
712 -711 0
-712 711 0
2330 -1662 0
-2330 1662 0
2331 -1700 0
-2331 1700 0
714 -713 0
-714 713 0
2332 -1548 0
-2332 1548 0
2333 -1454 0
-2333 1454 0
718 -717 0
-718 717 0
2334 -1590 0
-2334 1590 0
2335 -1626 0
-2335 1626 0
720 -719 0
-720 719 0
722 -721 0
-722 721 0
2336 -1684 0
-2336 1684 0
724 -723 0
-724 723 0
2337 -2338 0
-2337 2338 0
2339 -1447 1448 1449 -775 0
-2339 1447 0
-2339 -1448 0
-2339 -1449 0
-2339 775 0
2340 -1423 1424 -785 0
-2340 1423 0
-2340 -1424 0
-2340 785 0
2341 -1451 1452 -739 0
-2341 1451 0
-2341 -1452 0
-2341 739 0
2342 -1415 1416 1417 -731 0
-2342 1415 0
-2342 -1416 0
-2342 -1417 0
-2342 731 0
2343 -1419 1420 1421 -753 0
-2343 1419 0
-2343 -1420 0
-2343 -1421 0
-2343 753 0
2344 -1454 1455 -741 0
-2344 1454 0
-2344 -1455 0
-2344 741 0
2345 -1429 1430 1431 -773 0
-2345 1429 0
-2345 -1430 0
-2345 -1431 0
-2345 773 0
2346 -1461 1462 1463 -737 0
-2346 1461 0
-2346 -1462 0
-2346 -1463 0
-2346 737 0
2347 -1444 1445 -759 0
-2347 1444 0
-2347 -1445 0
-2347 759 0
2348 -1465 1466 1467 -747 0
-2348 1465 0
-2348 -1466 0
-2348 -1467 0
-2348 747 0
2349 -1472 1473 1474 -781 0
-2349 1472 0
-2349 -1473 0
-2349 -1474 0
-2349 781 0
2350 -1476 1477 -763 0
-2350 1476 0
-2350 -1477 0
-2350 763 0
2351 -1479 1480 1481 -735 0
-2351 1479 0
-2351 -1480 0
-2351 -1481 0
-2351 735 0
2352 -1483 1484 1485 -769 0
-2352 1483 0
-2352 -1484 0
-2352 -1485 0
-2352 769 0
2353 -1457 1458 1459 -765 0
-2353 1457 0
-2353 -1458 0
-2353 -1459 0
-2353 765 0
2354 -1394 1395 1396 -779 0
-2354 1394 0
-2354 -1395 0
-2354 -1396 0
-2354 779 0
2355 -1493 1494 -761 0
-2355 1493 0
-2355 -1494 0
-2355 761 0
2356 -1398 1399 1400 -733 0
-2356 1398 0
-2356 -1399 0
-2356 -1400 0
-2356 733 0
2357 -1469 1470 -757 0
-2357 1469 0
-2357 -1470 0
-2357 757 0
2358 -1408 1409 1410 -749 0
-2358 1408 0
-2358 -1409 0
-2358 -1410 0
-2358 749 0
2359 -1412 1413 -751 0
-2359 1412 0
-2359 -1413 0
-2359 751 0
2360 -1426 1427 -729 0
-2360 1426 0
-2360 -1427 0
-2360 729 0
2361 -1498 2362 0
-2361 1498 0
-2361 -2362 0
2363 -1433 1434 1435 -783 0
-2363 1433 0
-2363 -1434 0
-2363 -1435 0
-2363 783 0
2364 -1490 1491 -755 0
-2364 1490 0
-2364 -1491 0
-2364 755 0
2365 -1440 1441 1442 -771 0
-2365 1440 0
-2365 -1441 0
-2365 -1442 0
-2365 771 0
2366 -1487 1488 -743 0
-2366 1487 0
-2366 -1488 0
-2366 743 0
2367 -1437 1438 -767 0
-2367 1437 0
-2367 -1438 0
-2367 767 0
2368 -1402 1403 -777 0
-2368 1402 0
-2368 -1403 0
-2368 777 0
2369 -1405 1406 -745 0
-2369 1405 0
-2369 -1406 0
-2369 745 0
2370 -2131 391 1435 -1379 0
-2370 2131 0
-2370 -391 0
-2370 -1435 0
-2370 1379 0
2371 -1430 1431 -1375 0
-2371 1430 0
-2371 -1431 0
-2371 1375 0
2372 -1855 489 1431 -773 0
-2372 1855 0
-2372 -489 0
-2372 -1431 0
-2372 773 0
1366 -1365 0
-1366 1365 0
1250 -1249 0
-1250 1249 0
2373 -1851 433 1470 -757 0
-2373 1851 0
-2373 -433 0
-2373 -1470 0
-2373 757 0
2374 -1813 563 1467 -747 0
-2374 1813 0
-2374 -563 0
-2374 -1467 0
-2374 747 0
1058 -1057 0
-1058 1057 0
1252 -1251 0
-1252 1251 0
2375 -1809 609 1421 -753 0
-2375 1809 0
-2375 -609 0
-2375 -1421 0
-2375 753 0
1254 -1253 0
-1254 1253 0
2376 -1805 463 1459 -765 0
-2376 1805 0
-2376 -463 0
-2376 -1459 0
-2376 765 0
1062 -1061 0
-1062 1061 0
2377 -1841 645 1485 -769 0
-2377 1841 0
-2377 -645 0
-2377 -1485 0
-2377 769 0
2378 -1769 461 1459 -765 0
-2378 1769 0
-2378 -461 0
-2378 -1459 0
-2378 765 0
1318 -1317 0
-1318 1317 0
2379 -1777 459 1459 -765 0
-2379 1777 0
-2379 -459 0
-2379 -1459 0
-2379 765 0
1066 -1065 0
-1066 1065 0
2380 -1801 549 1403 -777 0
-2380 1801 0
-2380 -549 0
-2380 -1403 0
-2380 777 0
1072 -1071 0
-1072 1071 0
2381 -1837 521 1488 -743 0
-2381 1837 0
-2381 -521 0
-2381 -1488 0
-2381 743 0
1256 -1255 0
-1256 1255 0
2382 -1781 703 1417 -731 0
-2382 1781 0
-2382 -703 0
-2382 -1417 0
-2382 731 0
1320 -1319 0
-1320 1319 0
1258 -1257 0
-1258 1257 0
2383 -1789 585 1413 -751 0
-2383 1789 0
-2383 -585 0
-2383 -1413 0
-2383 751 0
2384 -1746 669 1396 -779 0
-2384 1746 0
-2384 -669 0
-2384 -1396 0
-2384 779 0
1076 -1075 0
-1076 1075 0
2385 -1754 389 1435 -783 0
-2385 1754 0
-2385 -389 0
-2385 -1435 0
-2385 783 0
1372 -1371 0
-1372 1371 0
2386 -1785 537 1410 -749 0
-2386 1785 0
-2386 -537 0
-2386 -1410 0
-2386 749 0
1080 -1079 0
-1080 1079 0
1260 -1259 0
-1260 1259 0
2387 -1750 465 1459 -765 0
-2387 1750 0
-2387 -465 0
-2387 -1459 0
-2387 765 0
2388 -1761 535 1410 -749 0
-2388 1761 0
-2388 -535 0
-2388 -1410 0
-2388 749 0
1084 -1083 0
-1084 1083 0
1324 -1323 0
-1324 1323 0
2389 -1845 435 1470 -757 0
-2389 1845 0
-2389 -435 0
-2389 -1470 0
-2389 757 0
1088 -1087 0
-1088 1087 0
2390 -1765 547 1403 -777 0
-2390 1765 0
-2390 -547 0
-2390 -1403 0
-2390 777 0
1090 -1089 0
-1090 1089 0
2391 -1867 611 1421 -753 0
-2391 1867 0
-2391 -611 0
-2391 -1421 0
-2391 753 0
2392 -1871 491 1431 -773 0
-2392 1871 0
-2392 -491 0
-2392 -1431 0
-2392 773 0
1092 -1091 0
-1092 1091 0
2393 -1817 475 1427 -729 0
-2393 1817 0
-2393 -475 0
-2393 -1427 0
-2393 729 0
1376 -1375 0
-1376 1375 0
2394 -1797 583 1413 -751 0
-2394 1797 0
-2394 -583 0
-2394 -1413 0
-2394 751 0
1096 -1095 0
-1096 1095 0
1098 -1097 0
-1098 1097 0
2395 -1773 633 1463 -737 0
-2395 1773 0
-2395 -633 0
-2395 -1463 0
-2395 737 0
2396 -1859 655 1424 -785 0
-2396 1859 0
-2396 -655 0
-2396 -1424 0
-2396 785 0
1100 -1099 0
-1100 1099 0
2397 -1863 411 1494 -761 0
-2397 1863 0
-2397 -411 0
-2397 -1494 0
-2397 761 0
1102 -1101 0
-1102 1101 0
2398 -1740 477 1427 -729 0
-2398 1740 0
-2398 -477 0
-2398 -1427 0
-2398 729 0
1380 -1379 0
-1380 1379 0
2399 -1793 689 1452 -739 0
-2399 1793 0
-2399 -689 0
-2399 -1452 0
-2399 739 0
1106 -1105 0
-1106 1105 0
2400 -1444 1445 -819 0
-2400 1444 0
-2400 -1445 0
-2400 819 0
2401 -1465 1466 1467 -807 0
-2401 1465 0
-2401 -1466 0
-2401 -1467 0
-2401 807 0
2402 -1479 1480 1481 -795 0
-2402 1479 0
-2402 -1480 0
-2402 -1481 0
-2402 795 0
2403 -1476 1477 -823 0
-2403 1476 0
-2403 -1477 0
-2403 823 0
2404 -1472 1473 1474 -841 0
-2404 1472 0
-2404 -1473 0
-2404 -1474 0
-2404 841 0
2405 -1457 1458 1459 -825 0
-2405 1457 0
-2405 -1458 0
-2405 -1459 0
-2405 825 0
2406 -1461 1462 1463 -797 0
-2406 1461 0
-2406 -1462 0
-2406 -1463 0
-2406 797 0
2407 -1469 1470 -817 0
-2407 1469 0
-2407 -1470 0
-2407 817 0
2408 -1412 1413 -811 0
-2408 1412 0
-2408 -1413 0
-2408 811 0
2409 -1483 1484 1485 -829 0
-2409 1483 0
-2409 -1484 0
-2409 -1485 0
-2409 829 0
2410 -1426 1427 -789 0
-2410 1426 0
-2410 -1427 0
-2410 789 0
2411 -1433 1434 1435 -843 0
-2411 1433 0
-2411 -1434 0
-2411 -1435 0
-2411 843 0
2412 -1490 1491 -815 0
-2412 1490 0
-2412 -1491 0
-2412 815 0
2413 -1487 1488 -803 0
-2413 1487 0
-2413 -1488 0
-2413 803 0
2414 -1394 1395 1396 -839 0
-2414 1394 0
-2414 -1395 0
-2414 -1396 0
-2414 839 0
2415 -1493 1494 -821 0
-2415 1493 0
-2415 -1494 0
-2415 821 0
2416 -1398 1399 1400 -793 0
-2416 1398 0
-2416 -1399 0
-2416 -1400 0
-2416 793 0
2417 -1440 1441 1442 -831 0
-2417 1440 0
-2417 -1441 0
-2417 -1442 0
-2417 831 0
2418 -1437 1438 -827 0
-2418 1437 0
-2418 -1438 0
-2418 827 0
2419 -1402 1403 -837 0
-2419 1402 0
-2419 -1403 0
-2419 837 0
2420 -1405 1406 -805 0
-2420 1405 0
-2420 -1406 0
-2420 805 0
2421 -1408 1409 1410 -809 0
-2421 1408 0
-2421 -1409 0
-2421 -1410 0
-2421 809 0
728 -727 0
-728 727 0
2422 -1451 1452 -799 0
-2422 1451 0
-2422 -1452 0
-2422 799 0
2423 -1447 1448 1449 -835 0
-2423 1447 0
-2423 -1448 0
-2423 -1449 0
-2423 835 0
2424 -1415 1416 1417 -791 0
-2424 1415 0
-2424 -1416 0
-2424 -1417 0
-2424 791 0
2425 -1454 1455 -801 0
-2425 1454 0
-2425 -1455 0
-2425 801 0
2426 -1419 1420 1421 -813 0
-2426 1419 0
-2426 -1420 0
-2426 -1421 0
-2426 813 0
2427 -1423 1424 -845 0
-2427 1423 0
-2427 -1424 0
-2427 845 0
2428 -1429 1430 1431 -833 0
-2428 1429 0
-2428 -1430 0
-2428 -1431 0
-2428 833 0
2429 -2131 391 1435 -843 0
-2429 2131 0
-2429 -391 0
-2429 -1435 0
-2429 843 0
1354 -1353 0
-1354 1353 0
2430 -1855 489 1431 -833 0
-2430 1855 0
-2430 -489 0
-2430 -1431 0
-2430 833 0
1326 -1325 0
-1326 1325 0
2431 -1851 433 1470 -817 0
-2431 1851 0
-2431 -433 0
-2431 -1470 0
-2431 817 0
1108 -1107 0
-1108 1107 0
1110 -1109 0
-1110 1109 0
2432 -1813 563 1467 -807 0
-2432 1813 0
-2432 -563 0
-2432 -1467 0
-2432 807 0
2433 -1809 609 1421 -813 0
-2433 1809 0
-2433 -609 0
-2433 -1421 0
-2433 813 0
1264 -1263 0
-1264 1263 0
2434 -1805 463 1459 -825 0
-2434 1805 0
-2434 -463 0
-2434 -1459 0
-2434 825 0
1266 -1265 0
-1266 1265 0
1112 -1111 0
-1112 1111 0
2435 -1841 645 1485 -829 0
-2435 1841 0
-2435 -645 0
-2435 -1485 0
-2435 829 0
1328 -1327 0
-1328 1327 0
2436 -1769 461 1459 -825 0
-2436 1769 0
-2436 -461 0
-2436 -1459 0
-2436 825 0
2437 -1777 459 1459 -825 0
-2437 1777 0
-2437 -459 0
-2437 -1459 0
-2437 825 0
1114 -1113 0
-1114 1113 0
2438 -1801 549 1403 -837 0
-2438 1801 0
-2438 -549 0
-2438 -1403 0
-2438 837 0
1118 -1117 0
-1118 1117 0
2439 -1837 521 1488 -803 0
-2439 1837 0
-2439 -521 0
-2439 -1488 0
-2439 803 0
1268 -1267 0
-1268 1267 0
2440 -1781 703 1417 -791 0
-2440 1781 0
-2440 -703 0
-2440 -1417 0
-2440 791 0
1312 -1311 0
-1312 1311 0
2441 -1789 585 1413 -811 0
-2441 1789 0
-2441 -585 0
-2441 -1413 0
-2441 811 0
1270 -1269 0
-1270 1269 0
1122 -1121 0
-1122 1121 0
2442 -1746 669 1396 -839 0
-2442 1746 0
-2442 -669 0
-2442 -1396 0
-2442 839 0
1364 -1363 0
-1364 1363 0
2443 -1458 1459 -825 0
-2443 1458 0
-2443 -1459 0
-2443 825 0
1124 -1123 0
-1124 1123 0
2444 -1785 537 1410 -809 0
-2444 1785 0
-2444 -537 0
-2444 -1410 0
-2444 809 0
1272 -1271 0
-1272 1271 0
2445 -1750 465 1459 -825 0
-2445 1750 0
-2445 -465 0
-2445 -1459 0
-2445 825 0
2446 -1761 535 1410 -809 0
-2446 1761 0
-2446 -535 0
-2446 -1410 0
-2446 809 0
1126 -1125 0
-1126 1125 0
2447 -2047 301 1824 -1041 0
-2447 2047 0
-2447 -301 0
-2447 -1824 0
-2447 1041 0
2448 -1987 241 1820 -1033 0
-2448 1987 0
-2448 -241 0
-2448 -1820 0
-2448 1033 0
766 -765 0
-766 765 0
2449 -2146 413 1494 -1271 0
-2449 2146 0
-2449 -413 0
-2449 -1494 0
-2449 1271 0
2450 -1927 181 1831 -1025 0
-2450 1927 0
-2450 -181 0
-2450 -1831 0
-2450 1025 0
2451 -2107 361 1828 -1049 0
-2451 2107 0
-2451 -361 0
-2451 -1828 0
-2451 1049 0
2452 -1845 435 1470 -1363 0
-2452 1845 0
-2452 -435 0
-2452 -1470 0
-2452 1363 0
2453 -2214 523 1488 -1327 0
-2453 2214 0
-2453 -523 0
-2453 -1488 0
-2453 1327 0
2454 -2318 691 1452 -1265 0
-2454 2318 0
-2454 -691 0
-2454 -1452 0
-2454 1265 0
2455 -1843 105 1833 -727 0
-2455 1843 0
-2455 -105 0
-2455 -1833 0
-2455 727 0
2456 -2245 573 1406 -1113 0
-2456 2245 0
-2456 -573 0
-2456 -1406 0
-2456 1113 0
1128 -1127 0
-1128 1127 0
2457 -1765 547 1403 -837 0
-2457 1765 0
-2457 -547 0
-2457 -1403 0
-2457 837 0
1130 -1129 0
-1130 1129 0
2458 -1867 611 1421 -813 0
-2458 1867 0
-2458 -611 0
-2458 -1421 0
-2458 813 0
1132 -1131 0
-1132 1131 0
2459 -1871 491 1431 -833 0
-2459 1871 0
-2459 -491 0
-2459 -1431 0
-2459 833 0
1330 -1329 0
-1330 1329 0
2460 -1817 475 1427 -789 0
-2460 1817 0
-2460 -475 0
-2460 -1427 0
-2460 789 0
1136 -1135 0
-1136 1135 0
2461 -1797 583 1413 -811 0
-2461 1797 0
-2461 -583 0
-2461 -1413 0
-2461 811 0
1138 -1137 0
-1138 1137 0
2462 -1773 633 1463 -797 0
-2462 1773 0
-2462 -633 0
-2462 -1463 0
-2462 797 0
2463 -1859 655 1424 -845 0
-2463 1859 0
-2463 -655 0
-2463 -1424 0
-2463 845 0
1140 -1139 0
-1140 1139 0
2464 -1863 411 1494 -821 0
-2464 1863 0
-2464 -411 0
-2464 -1494 0
-2464 821 0
1142 -1141 0
-1142 1141 0
2465 -2161 437 1470 -817 0
-2465 2161 0
-2465 -437 0
-2465 -1470 0
-2465 817 0
1358 -1357 0
-1358 1357 0
2466 -1793 689 1452 -799 0
-2466 1793 0
-2466 -689 0
-2466 -1452 0
-2466 799 0
1146 -1145 0
-1146 1145 0
2467 -1447 1448 1449 -895 0
-2467 1447 0
-2467 -1448 0
-2467 -1449 0
-2467 895 0
2468 -1472 1473 1474 -901 0
-2468 1472 0
-2468 -1473 0
-2468 -1474 0
-2468 901 0
2469 -1454 1455 -861 0
-2469 1454 0
-2469 -1455 0
-2469 861 0
2470 -1457 1458 1459 -885 0
-2470 1457 0
-2470 -1458 0
-2470 -1459 0
-2470 885 0
2471 -1461 1462 1463 -857 0
-2471 1461 0
-2471 -1462 0
-2471 -1463 0
-2471 857 0
2472 -1465 1466 1467 -867 0
-2472 1465 0
-2472 -1466 0
-2472 -1467 0
-2472 867 0
2473 -1469 1470 -877 0
-2473 1469 0
-2473 -1470 0
-2473 877 0
2474 -1479 1480 1481 -855 0
-2474 1479 0
-2474 -1480 0
-2474 -1481 0
-2474 855 0
2475 -1483 1484 1485 -889 0
-2475 1483 0
-2475 -1484 0
-2475 -1485 0
-2475 889 0
2476 -1487 1488 -863 0
-2476 1487 0
-2476 -1488 0
-2476 863 0
2477 -1490 1491 -875 0
-2477 1490 0
-2477 -1491 0
-2477 875 0
2478 -1398 1399 1400 -853 0
-2478 1398 0
-2478 -1399 0
-2478 -1400 0
-2478 853 0
2479 -1493 1494 -881 0
-2479 1493 0
-2479 -1494 0
-2479 881 0
2480 -1437 1438 -887 0
-2480 1437 0
-2480 -1438 0
-2480 887 0
2481 -1394 1395 1396 -899 0
-2481 1394 0
-2481 -1395 0
-2481 -1396 0
-2481 899 0
2482 -1402 1403 -897 0
-2482 1402 0
-2482 -1403 0
-2482 897 0
2483 -1405 1406 -865 0
-2483 1405 0
-2483 -1406 0
-2483 865 0
2484 -1412 1413 -871 0
-2484 1412 0
-2484 -1413 0
-2484 871 0
2485 -1408 1409 1410 -869 0
-2485 1408 0
-2485 -1409 0
-2485 -1410 0
-2485 869 0
2486 -1451 1452 -859 0
-2486 1451 0
-2486 -1452 0
-2486 859 0
2487 -1415 1416 1417 -851 0
-2487 1415 0
-2487 -1416 0
-2487 -1417 0
-2487 851 0
788 -787 0
-788 787 0
2488 -1419 1420 1421 -873 0
-2488 1419 0
-2488 -1420 0
-2488 -1421 0
-2488 873 0
2489 -1423 1424 -905 0
-2489 1423 0
-2489 -1424 0
-2489 905 0
2490 -1426 1427 -849 0
-2490 1426 0
-2490 -1427 0
-2490 849 0
2491 -1429 1430 1431 -893 0
-2491 1429 0
-2491 -1430 0
-2491 -1431 0
-2491 893 0
2492 -1433 1434 1435 -903 0
-2492 1433 0
-2492 -1434 0
-2492 -1435 0
-2492 903 0
2493 -1440 1441 1442 -891 0
-2493 1440 0
-2493 -1441 0
-2493 -1442 0
-2493 891 0
2494 -1444 1445 -879 0
-2494 1444 0
-2494 -1445 0
-2494 879 0
2495 -1476 1477 -883 0
-2495 1476 0
-2495 -1477 0
-2495 883 0
2496 -2072 325 1828 -1051 0
-2496 2072 0
-2496 -325 0
-2496 -1828 0
-2496 1051 0
2497 -1892 145 1831 -1027 0
-2497 1892 0
-2497 -145 0
-2497 -1831 0
-2497 1027 0
2498 -1756 33 1833 -787 0
-2498 1756 0
-2498 -33 0
-2498 -1833 0
-2498 787 0
2499 -2012 265 1824 -1043 0
-2499 2012 0
-2499 -265 0
-2499 -1824 0
-2499 1043 0
2500 -1952 205 1820 -1035 0
-2500 1952 0
-2500 -205 0
-2500 -1820 0
-2500 1035 0
2501 -1430 1431 -1337 0
-2501 1430 0
-2501 -1431 0
-2501 1337 0
2502 -2131 391 1435 -1355 0
-2502 2131 0
-2502 -391 0
-2502 -1435 0
-2502 1355 0
790 -789 0
-790 789 0
1332 -1331 0
-1332 1331 0
2503 -1855 489 1431 -893 0
-2503 1855 0
-2503 -489 0
-2503 -1431 0
-2503 893 0
1148 -1147 0
-1148 1147 0
2504 -1851 433 1470 -877 0
-2504 1851 0
-2504 -433 0
-2504 -1470 0
-2504 877 0
1150 -1149 0
-1150 1149 0
2505 -1813 563 1467 -867 0
-2505 1813 0
-2505 -563 0
-2505 -1467 0
-2505 867 0
1276 -1275 0
-1276 1275 0
2506 -1809 609 1421 -873 0
-2506 1809 0
-2506 -609 0
-2506 -1421 0
-2506 873 0
2507 -1805 463 1459 -885 0
-2507 1805 0
-2507 -463 0
-2507 -1459 0
-2507 885 0
1278 -1277 0
-1278 1277 0
2508 -1841 645 1485 -889 0
-2508 1841 0
-2508 -645 0
-2508 -1485 0
-2508 889 0
1152 -1151 0
-1152 1151 0
1296 -1295 0
-1296 1295 0
2509 -1769 461 1459 -885 0
-2509 1769 0
-2509 -461 0
-2509 -1459 0
-2509 885 0
1156 -1155 0
-1156 1155 0
2510 -1777 459 1459 -885 0
-2510 1777 0
-2510 -459 0
-2510 -1459 0
-2510 885 0
2511 -1801 549 1403 -897 0
-2511 1801 0
-2511 -549 0
-2511 -1403 0
-2511 897 0
1158 -1157 0
-1158 1157 0
2512 -1837 521 1488 -863 0
-2512 1837 0
-2512 -521 0
-2512 -1488 0
-2512 863 0
1280 -1279 0
-1280 1279 0
1300 -1299 0
-1300 1299 0
2513 -1781 703 1417 -851 0
-2513 1781 0
-2513 -703 0
-2513 -1417 0
-2513 851 0
1286 -1285 0
-1286 1285 0
2514 -1789 585 1413 -871 0
-2514 1789 0
-2514 -585 0
-2514 -1413 0
-2514 871 0
1160 -1159 0
-1160 1159 0
2515 -1746 669 1396 -899 0
-2515 1746 0
-2515 -669 0
-2515 -1396 0
-2515 899 0
2516 -1754 389 1435 -903 0
-2516 1754 0
-2516 -389 0
-2516 -1435 0
-2516 903 0
1344 -1343 0
-1344 1343 0
2517 -1785 537 1410 -869 0
-2517 1785 0
-2517 -537 0
-2517 -1410 0
-2517 869 0
1162 -1161 0
-1162 1161 0
1288 -1287 0
-1288 1287 0
2518 -1750 465 1459 -885 0
-2518 1750 0
-2518 -465 0
-2518 -1459 0
-2518 885 0
1164 -1163 0
-1164 1163 0
2519 -1761 535 1410 -869 0
-2519 1761 0
-2519 -535 0
-2519 -1410 0
-2519 869 0
1334 -1333 0
-1334 1333 0
2520 -1845 435 1470 -877 0
-2520 1845 0
-2520 -435 0
-2520 -1470 0
-2520 877 0
2521 -1765 547 1403 -897 0
-2521 1765 0
-2521 -547 0
-2521 -1403 0
-2521 897 0
1168 -1167 0
-1168 1167 0
2522 -1867 611 1421 -873 0
-2522 1867 0
-2522 -611 0
-2522 -1421 0
-2522 873 0
1170 -1169 0
-1170 1169 0
1172 -1171 0
-1172 1171 0
2523 -1871 491 1431 -893 0
-2523 1871 0
-2523 -491 0
-2523 -1431 0
-2523 893 0
2524 -1817 475 1427 -849 0
-2524 1817 0
-2524 -475 0
-2524 -1427 0
-2524 849 0
1338 -1337 0
-1338 1337 0
1174 -1173 0
-1174 1173 0
2525 -1797 583 1413 -871 0
-2525 1797 0
-2525 -583 0
-2525 -1413 0
-2525 871 0
2526 -1773 633 1463 -857 0
-2526 1773 0
-2526 -633 0
-2526 -1463 0
-2526 857 0
1184 -1183 0
-1184 1183 0
1178 -1177 0
-1178 1177 0
2527 -1859 655 1424 -905 0
-2527 1859 0
-2527 -655 0
-2527 -1424 0
-2527 905 0
2528 -1863 411 1494 -881 0
-2528 1863 0
-2528 -411 0
-2528 -1494 0
-2528 881 0
1180 -1179 0
-1180 1179 0
1356 -1355 0
-1356 1355 0
2529 -1740 477 1427 -849 0
-2529 1740 0
-2529 -477 0
-2529 -1427 0
-2529 849 0
1186 -1185 0
-1186 1185 0
2530 -1793 689 1452 -859 0
-2530 1793 0
-2530 -689 0
-2530 -1452 0
-2530 859 0
2531 -1433 1434 1435 -963 0
-2531 1433 0
-2531 -1434 0
-2531 -1435 0
-2531 963 0
2532 -1487 1488 -923 0
-2532 1487 0
-2532 -1488 0
-2532 923 0
2533 -1437 1438 -947 0
-2533 1437 0
-2533 -1438 0
-2533 947 0
2534 -1440 1441 1442 -951 0
-2534 1440 0
-2534 -1441 0
-2534 -1442 0
-2534 951 0
2535 -1444 1445 -939 0
-2535 1444 0
-2535 -1445 0
-2535 939 0
848 -847 0
-848 847 0
2536 -1451 1452 -919 0
-2536 1451 0
-2536 -1452 0
-2536 919 0
2537 -1447 1448 1449 -955 0
-2537 1447 0
-2537 -1448 0
-2537 -1449 0
-2537 955 0
2538 -1454 1455 -921 0
-2538 1454 0
-2538 -1455 0
-2538 921 0
2539 -1457 1458 1459 -945 0
-2539 1457 0
-2539 -1458 0
-2539 -1459 0
-2539 945 0
2540 -1461 1462 1463 -917 0
-2540 1461 0
-2540 -1462 0
-2540 -1463 0
-2540 917 0
2541 -1465 1466 1467 -927 0
-2541 1465 0
-2541 -1466 0
-2541 -1467 0
-2541 927 0
2542 -1469 1470 -937 0
-2542 1469 0
-2542 -1470 0
-2542 937 0
2543 -1479 1480 1481 -915 0
-2543 1479 0
-2543 -1480 0
-2543 -1481 0
-2543 915 0
2544 -1476 1477 -943 0
-2544 1476 0
-2544 -1477 0
-2544 943 0
2545 -1472 1473 1474 -961 0
-2545 1472 0
-2545 -1473 0
-2545 -1474 0
-2545 961 0
2546 -1483 1484 1485 -949 0
-2546 1483 0
-2546 -1484 0
-2546 -1485 0
-2546 949 0
2547 -1490 1491 -935 0
-2547 1490 0
-2547 -1491 0
-2547 935 0
2548 -1419 1420 1421 -933 0
-2548 1419 0
-2548 -1420 0
-2548 -1421 0
-2548 933 0
2549 -1394 1395 1396 -959 0
-2549 1394 0
-2549 -1395 0
-2549 -1396 0
-2549 959 0
2550 -1398 1399 1400 -913 0
-2550 1398 0
-2550 -1399 0
-2550 -1400 0
-2550 913 0
2551 -1493 1494 -941 0
-2551 1493 0
-2551 -1494 0
-2551 941 0
2552 -1402 1403 -957 0
-2552 1402 0
-2552 -1403 0
-2552 957 0
2553 -1405 1406 -925 0
-2553 1405 0
-2553 -1406 0
-2553 925 0
2554 -1408 1409 1410 -929 0
-2554 1408 0
-2554 -1409 0
-2554 -1410 0
-2554 929 0
2555 -1412 1413 -931 0
-2555 1412 0
-2555 -1413 0
-2555 931 0
2556 -1423 1424 -965 0
-2556 1423 0
-2556 -1424 0
-2556 965 0
2557 -1415 1416 1417 -911 0
-2557 1415 0
-2557 -1416 0
-2557 -1417 0
-2557 911 0
2558 -1426 1427 -909 0
-2558 1426 0
-2558 -1427 0
-2558 909 0
2559 -1429 1430 1431 -953 0
-2559 1429 0
-2559 -1430 0
-2559 -1431 0
-2559 953 0
2560 -1430 1431 -953 0
-2560 1430 0
-2560 -1431 0
-2560 953 0
1388 -1387 0
-1388 1387 0
2561 -1855 489 1431 -953 0
-2561 1855 0
-2561 -489 0
-2561 -1431 0
-2561 953 0
1390 -1389 0
-1390 1389 0
1188 -1187 0
-1188 1187 0
2562 -1851 433 1470 -937 0
-2562 1851 0
-2562 -433 0
-2562 -1470 0
-2562 937 0
1190 -1189 0
-1190 1189 0
2563 -1813 563 1467 -927 0
-2563 1813 0
-2563 -563 0
-2563 -1467 0
-2563 927 0
2564 -1809 609 1421 -933 0
-2564 1809 0
-2564 -609 0
-2564 -1421 0
-2564 933 0
1290 -1289 0
-1290 1289 0
1292 -1291 0
-1292 1291 0
2565 -1805 463 1459 -945 0
-2565 1805 0
-2565 -463 0
-2565 -1459 0
-2565 945 0
2566 -1841 645 1485 -949 0
-2566 1841 0
-2566 -645 0
-2566 -1485 0
-2566 949 0
1194 -1193 0
-1194 1193 0
1316 -1315 0
-1316 1315 0
2567 -1769 461 1459 -945 0
-2567 1769 0
-2567 -461 0
-2567 -1459 0
-2567 945 0
1196 -1195 0
-1196 1195 0
2568 -1777 459 1459 -945 0
-2568 1777 0
-2568 -459 0
-2568 -1459 0
-2568 945 0
2569 -1801 549 1403 -957 0
-2569 1801 0
-2569 -549 0
-2569 -1403 0
-2569 957 0
1198 -1197 0
-1198 1197 0
1294 -1293 0
-1294 1293 0
2570 -1837 521 1488 -923 0
-2570 1837 0
-2570 -521 0
-2570 -1488 0
-2570 923 0
1370 -1369 0
-1370 1369 0
2571 -1781 703 1417 -911 0
-2571 1781 0
-2571 -703 0
-2571 -1417 0
-2571 911 0
1322 -1321 0
-1322 1321 0
2572 -1789 585 1413 -931 0
-2572 1789 0
-2572 -585 0
-2572 -1413 0
-2572 931 0
1202 -1201 0
-1202 1201 0
2573 -1746 669 1396 -959 0
-2573 1746 0
-2573 -669 0
-2573 -1396 0
-2573 959 0
1378 -1377 0
-1378 1377 0
2574 -1754 389 1435 -963 0
-2574 1754 0
-2574 -389 0
-2574 -1435 0
-2574 963 0
1206 -1205 0
-1206 1205 0
2575 -1785 537 1410 -929 0
-2575 1785 0
-2575 -537 0
-2575 -1410 0
-2575 929 0
2576 -1750 465 1459 -945 0
-2576 1750 0
-2576 -465 0
-2576 -1459 0
-2576 945 0
1298 -1297 0
-1298 1297 0
2577 -1761 535 1410 -929 0
-2577 1761 0
-2577 -535 0
-2577 -1410 0
-2577 929 0
1208 -1207 0
-1208 1207 0
1360 -1359 0
-1360 1359 0
2578 -1845 435 1470 -937 0
-2578 1845 0
-2578 -435 0
-2578 -1470 0
-2578 937 0
2579 -1765 547 1403 -957 0
-2579 1765 0
-2579 -547 0
-2579 -1403 0
-2579 957 0
1212 -1211 0
-1212 1211 0
1218 -1217 0
-1218 1217 0
2580 -1867 611 1421 -933 0
-2580 1867 0
-2580 -611 0
-2580 -1421 0
-2580 933 0
2581 -1871 491 1431 -953 0
-2581 1871 0
-2581 -491 0
-2581 -1431 0
-2581 953 0
1216 -1215 0
-1216 1215 0
2582 -1819 235 1820 -1037 0
-2582 1819 0
-2582 -235 0
-2582 -1820 0
-2582 1037 0
2583 -1416 1417 -1389 0
-2583 1416 0
-2583 -1417 0
-2583 1389 0
2584 -1441 1442 -1215 0
-2584 1441 0
-2584 -1442 0
-2584 1215 0
2585 -1827 355 1828 -1053 0
-2585 1827 0
-2585 -355 0
-2585 -1828 0
-2585 1053 0
2586 -1830 175 1831 -1029 0
-2586 1830 0
-2586 -175 0
-2586 -1831 0
-2586 1029 0
2587 -1817 475 1427 -1387 0
-2587 1817 0
-2587 -475 0
-2587 -1427 0
-2587 1387 0
2588 -1823 295 1824 -1045 0
-2588 1823 0
-2588 -295 0
-2588 -1824 0
-2588 1045 0
2589 -1815 93 1833 -847 0
-2589 1815 0
-2589 -93 0
-2589 -1833 0
-2589 847 0
894 -893 0
-894 893 0
1220 -1219 0
-1220 1219 0
2590 -1797 583 1413 -931 0
-2590 1797 0
-2590 -583 0
-2590 -1413 0
-2590 931 0
2591 -1773 633 1463 -917 0
-2591 1773 0
-2591 -633 0
-2591 -1463 0
-2591 917 0
1222 -1221 0
-1222 1221 0
1224 -1223 0
-1224 1223 0
2592 -1859 655 1424 -965 0
-2592 1859 0
-2592 -655 0
-2592 -1424 0
-2592 965 0
2593 -1863 411 1494 -941 0
-2593 1863 0
-2593 -411 0
-2593 -1494 0
-2593 941 0
1226 -1225 0
-1226 1225 0
1386 -1385 0
-1386 1385 0
2594 -1740 477 1427 -909 0
-2594 1740 0
-2594 -477 0
-2594 -1427 0
-2594 909 0
2595 -1793 689 1452 -919 0
-2595 1793 0
-2595 -689 0
-2595 -1452 0
-2595 919 0
1228 -1227 0
-1228 1227 0
2596 -1430 1431 -1011 0
-2596 1430 0
-2596 -1431 0
-2596 1011 0
1362 -1361 0
-1362 1361 0
2597 -1855 489 1431 -1011 0
-2597 1855 0
-2597 -489 0
-2597 -1431 0
-2597 1011 0
1382 -1381 0
-1382 1381 0
2598 -1851 433 1470 -995 0
-2598 1851 0
-2598 -433 0
-2598 -1470 0
-2598 995 0
1230 -1229 0
-1230 1229 0
2599 -1813 563 1467 -985 0
-2599 1813 0
-2599 -563 0
-2599 -1467 0
-2599 985 0
1232 -1231 0
-1232 1231 0
1302 -1301 0
-1302 1301 0
2600 -1809 609 1421 -991 0
-2600 1809 0
-2600 -609 0
-2600 -1421 0
-2600 991 0
1234 -1233 0
-1234 1233 0
2601 -1805 463 1459 -1003 0
-2601 1805 0
-2601 -463 0
-2601 -1459 0
-2601 1003 0
2602 -1841 645 1485 -1007 0
-2602 1841 0
-2602 -645 0
-2602 -1485 0
-2602 1007 0
1236 -1235 0
-1236 1235 0
1304 -1303 0
-1304 1303 0
2603 -1769 461 1459 -1003 0
-2603 1769 0
-2603 -461 0
-2603 -1459 0
-2603 1003 0
2604 -1777 459 1459 -1003 0
-2604 1777 0
-2604 -459 0
-2604 -1459 0
-2604 1003 0
1238 -1237 0
-1238 1237 0
2605 -1801 549 1403 -1015 0
-2605 1801 0
-2605 -549 0
-2605 -1403 0
-2605 1015 0
1240 -1239 0
-1240 1239 0
1242 -1241 0
-1242 1241 0
2606 -1837 521 1488 -981 0
-2606 1837 0
-2606 -521 0
-2606 -1488 0
-2606 981 0
2607 -1781 703 1417 -969 0
-2607 1781 0
-2607 -703 0
-2607 -1417 0
-2607 969 0
1342 -1341 0
-1342 1341 0
2608 -1789 585 1413 -989 0
-2608 1789 0
-2608 -585 0
-2608 -1413 0
-2608 989 0
1306 -1305 0
-1306 1305 0
1060 -1059 0
-1060 1059 0
2609 -1746 669 1396 -1017 0
-2609 1746 0
-2609 -669 0
-2609 -1396 0
-2609 1017 0
1346 -1345 0
-1346 1345 0
2610 -1754 389 1435 -1021 0
-2610 1754 0
-2610 -389 0
-2610 -1435 0
-2610 1021 0
1064 -1063 0
-1064 1063 0
2611 -1785 537 1410 -987 0
-2611 1785 0
-2611 -537 0
-2611 -1410 0
-2611 987 0
1244 -1243 0
-1244 1243 0
2612 -1750 465 1459 -1003 0
-2612 1750 0
-2612 -465 0
-2612 -1459 0
-2612 1003 0
1068 -1067 0
-1068 1067 0
2613 -1761 535 1410 -987 0
-2613 1761 0
-2613 -535 0
-2613 -1410 0
-2613 987 0
2614 -1845 435 1470 -995 0
-2614 1845 0
-2614 -435 0
-2614 -1470 0
-2614 995 0
1308 -1307 0
-1308 1307 0
1070 -1069 0
-1070 1069 0
2615 -1765 547 1403 -1015 0
-2615 1765 0
-2615 -547 0
-2615 -1403 0
-2615 1015 0
2616 -1867 611 1421 -991 0
-2616 1867 0
-2616 -611 0
-2616 -1421 0
-2616 991 0
1246 -1245 0
-1246 1245 0
1074 -1073 0
-1074 1073 0
2617 -1871 491 1431 -1011 0
-2617 1871 0
-2617 -491 0
-2617 -1431 0
-2617 1011 0
2618 -1817 475 1427 -1361 0
-2618 1817 0
-2618 -475 0
-2618 -1427 0
-2618 1361 0
2619 -1819 235 1820 -1039 0
-2619 1819 0
-2619 -235 0
-2619 -1820 0
-2619 1039 0
2620 -1827 355 1828 -1055 0
-2620 1827 0
-2620 -355 0
-2620 -1828 0
-2620 1055 0
2621 -1441 1442 -1073 0
-2621 1441 0
-2621 -1442 0
-2621 1073 0
2622 -1416 1417 -1381 0
-2622 1416 0
-2622 -1417 0
-2622 1381 0
2623 -1823 295 1824 -1047 0
-2623 1823 0
-2623 -295 0
-2623 -1824 0
-2623 1047 0
2624 -1815 93 1833 -907 0
-2624 1815 0
-2624 -93 0
-2624 -1833 0
-2624 907 0
2625 -1830 175 1831 -1031 0
-2625 1830 0
-2625 -175 0
-2625 -1831 0
-2625 1031 0
954 -953 0
-954 953 0
2626 -1797 583 1413 -989 0
-2626 1797 0
-2626 -583 0
-2626 -1413 0
-2626 989 0
1078 -1077 0
-1078 1077 0
2627 -1773 633 1463 -975 0
-2627 1773 0
-2627 -633 0
-2627 -1463 0
-2627 975 0
1248 -1247 0
-1248 1247 0
1082 -1081 0
-1082 1081 0
2628 -1859 655 1424 -1023 0
-2628 1859 0
-2628 -655 0
-2628 -1424 0
-2628 1023 0
2629 -1863 411 1494 -999 0
-2629 1863 0
-2629 -411 0
-2629 -1494 0
-2629 999 0
1086 -1085 0
-1086 1085 0
2630 -1740 477 1427 -967 0
-2630 1740 0
-2630 -477 0
-2630 -1427 0
-2630 967 0
1348 -1347 0
-1348 1347 0
2631 -1793 689 1452 -977 0
-2631 1793 0
-2631 -689 0
-2631 -1452 0
-2631 977 0
1094 -1093 0
-1094 1093 0
2632 -1496 1498 2362 0
-2632 1496 0
-2632 -1498 0
-2632 -2362 0
2633 -1504 1412 1413 -751 0
-2633 1504 0
-2633 -1412 0
-2633 -1413 0
-2633 751 0
2634 -1506 591 1449 -775 0
-2634 1506 0
-2634 -591 0
-2634 -1449 0
-2634 775 0
2635 -1520 481 1431 -773 0
-2635 1520 0
-2635 -481 0
-2635 -1431 0
-2635 773 0
2636 -1508 555 1467 -747 0
-2636 1508 0
-2636 -555 0
-2636 -1467 0
-2636 747 0
2637 -1522 673 1481 -735 0
-2637 1522 0
-2637 -673 0
-2637 -1481 0
-2637 735 0
2638 -1510 1402 1403 -777 0
-2638 1510 0
-2638 -1402 0
-2638 -1403 0
-2638 777 0
2639 -1524 441 1400 -733 0
-2639 1524 0
-2639 -441 0
-2639 -1400 0
-2639 733 0
2640 -1526 601 1421 -753 0
-2640 1526 0
-2640 -601 0
-2640 -1421 0
-2640 753 0
2641 -1514 1444 1445 -759 0
-2641 1514 0
-2641 -1444 0
-2641 -1445 0
-2641 759 0
2642 -1534 625 1463 -737 0
-2642 1534 0
-2642 -625 0
-2642 -1463 0
-2642 737 0
2643 -1516 1437 1438 -767 0
-2643 1516 0
-2643 -1437 0
-2643 -1438 0
-2643 767 0
2644 -1536 417 1474 -781 0
-2644 1536 0
-2644 -417 0
-2644 -1474 0
-2644 781 0
2645 -1518 707 1442 -771 0
-2645 1518 0
-2645 -707 0
-2645 -1442 0
-2645 771 0
2646 -1538 661 1396 -779 0
-2646 1538 0
-2646 -661 0
-2646 -1396 0
-2646 779 0
2647 -1540 451 1459 -765 0
-2647 1540 0
-2647 -451 0
-2647 -1459 0
-2647 765 0
2648 -1542 527 1410 -749 0
-2648 1542 0
-2648 -527 0
-2648 -1410 0
-2648 749 0
2649 -1544 1493 1494 -761 0
-2649 1544 0
-2649 -1493 0
-2649 -1494 0
-2649 761 0
2650 -1528 1490 1491 -755 0
-2650 1528 0
-2650 -1490 0
-2650 -1491 0
-2650 755 0
2651 -1554 1426 1427 -729 0
-2651 1554 0
-2651 -1426 0
-2651 -1427 0
-2651 729 0
2652 -1532 1469 1470 -757 0
-2652 1532 0
-2652 -1469 0
-2652 -1470 0
-2652 757 0
2653 -1530 1451 1452 -739 0
-2653 1530 0
-2653 -1451 0
-2653 -1452 0
-2653 739 0
2654 -1500 695 1417 -731 0
-2654 1500 0
-2654 -695 0
-2654 -1417 0
-2654 731 0
2655 -1502 1476 1477 -763 0
-2655 1502 0
-2655 -1476 0
-2655 -1477 0
-2655 763 0
2656 -1546 637 1485 -769 0
-2656 1546 0
-2656 -637 0
-2656 -1485 0
-2656 769 0
2657 -1548 1454 1455 -741 0
-2657 1548 0
-2657 -1454 0
-2657 -1455 0
-2657 741 0
2658 -1550 381 1435 -783 0
-2658 1550 0
-2658 -381 0
-2658 -1435 0
-2658 783 0
2659 -1552 1405 1406 -745 0
-2659 1552 0
-2659 -1405 0
-2659 -1406 0
-2659 745 0
2660 -1556 1423 1424 -785 0
-2660 1556 0
-2660 -1423 0
-2660 -1424 0
-2660 785 0
2661 -1512 1487 1488 -743 0
-2661 1512 0
-2661 -1487 0
-2661 -1488 0
-2661 743 0
2662 -1530 1451 1452 -799 0
-2662 1530 0
-2662 -1451 0
-2662 -1452 0
-2662 799 0
2663 -1532 1469 1470 -817 0
-2663 1532 0
-2663 -1469 0
-2663 -1470 0
-2663 817 0
2664 -1534 625 1463 -797 0
-2664 1534 0
-2664 -625 0
-2664 -1463 0
-2664 797 0
2665 -1502 1476 1477 -823 0
-2665 1502 0
-2665 -1476 0
-2665 -1477 0
-2665 823 0
2666 -1542 527 1410 -809 0
-2666 1542 0
-2666 -527 0
-2666 -1410 0
-2666 809 0
2667 -1544 1493 1494 -821 0
-2667 1544 0
-2667 -1493 0
-2667 -1494 0
-2667 821 0
1026 -1025 0
-1026 1025 0
2668 -1546 637 1485 -829 0
-2668 1546 0
-2668 -637 0
-2668 -1485 0
-2668 829 0
2669 -1548 1454 1455 -801 0
-2669 1548 0
-2669 -1454 0
-2669 -1455 0
-2669 801 0
2670 -1550 381 1435 -843 0
-2670 1550 0
-2670 -381 0
-2670 -1435 0
-2670 843 0
2671 -1552 1405 1406 -805 0
-2671 1552 0
-2671 -1405 0
-2671 -1406 0
-2671 805 0
2672 -1554 1426 1427 -789 0
-2672 1554 0
-2672 -1426 0
-2672 -1427 0
-2672 789 0
2673 -1512 1487 1488 -803 0
-2673 1512 0
-2673 -1487 0
-2673 -1488 0
-2673 803 0
2674 -1556 1423 1424 -845 0
-2674 1556 0
-2674 -1423 0
-2674 -1424 0
-2674 845 0
2675 -1506 591 1449 -835 0
-2675 1506 0
-2675 -591 0
-2675 -1449 0
-2675 835 0
2676 -1520 481 1431 -833 0
-2676 1520 0
-2676 -481 0
-2676 -1431 0
-2676 833 0
2677 -1500 695 1417 -791 0
-2677 1500 0
-2677 -695 0
-2677 -1417 0
-2677 791 0
2678 -1504 1412 1413 -811 0
-2678 1504 0
-2678 -1412 0
-2678 -1413 0
-2678 811 0
2679 -1508 555 1467 -807 0
-2679 1508 0
-2679 -555 0
-2679 -1467 0
-2679 807 0
2680 -1510 1402 1403 -837 0
-2680 1510 0
-2680 -1402 0
-2680 -1403 0
-2680 837 0
2681 -1524 441 1400 -793 0
-2681 1524 0
-2681 -441 0
-2681 -1400 0
-2681 793 0
2682 -1522 673 1481 -795 0
-2682 1522 0
-2682 -673 0
-2682 -1481 0
-2682 795 0
2683 -1526 601 1421 -813 0
-2683 1526 0
-2683 -601 0
-2683 -1421 0
-2683 813 0
2684 -1514 1444 1445 -819 0
-2684 1514 0
-2684 -1444 0
-2684 -1445 0
-2684 819 0
2685 -1516 1437 1438 -827 0
-2685 1516 0
-2685 -1437 0
-2685 -1438 0
-2685 827 0
2686 -1540 451 1459 -825 0
-2686 1540 0
-2686 -451 0
-2686 -1459 0
-2686 825 0
2687 -1536 417 1474 -841 0
-2687 1536 0
-2687 -417 0
-2687 -1474 0
-2687 841 0
2688 -1518 707 1442 -831 0
-2688 1518 0
-2688 -707 0
-2688 -1442 0
-2688 831 0
2689 -1538 661 1396 -839 0
-2689 1538 0
-2689 -661 0
-2689 -1396 0
-2689 839 0
2690 -1528 1490 1491 -815 0
-2690 1528 0
-2690 -1490 0
-2690 -1491 0
-2690 815 0
2691 -1548 1454 1455 -861 0
-2691 1548 0
-2691 -1454 0
-2691 -1455 0
-2691 861 0
2692 -1556 1423 1424 -905 0
-2692 1556 0
-2692 -1423 0
-2692 -1424 0
-2692 905 0
2693 -1552 1405 1406 -865 0
-2693 1552 0
-2693 -1405 0
-2693 -1406 0
-2693 865 0
2694 -1554 1426 1427 -849 0
-2694 1554 0
-2694 -1426 0
-2694 -1427 0
-2694 849 0
2695 -1550 381 1435 -903 0
-2695 1550 0
-2695 -381 0
-2695 -1435 0
-2695 903 0
1028 -1027 0
-1028 1027 0
2696 -1520 481 1431 -893 0
-2696 1520 0
-2696 -481 0
-2696 -1431 0
-2696 893 0
2697 -1502 1476 1477 -883 0
-2697 1502 0
-2697 -1476 0
-2697 -1477 0
-2697 883 0
2698 -1500 695 1417 -851 0
-2698 1500 0
-2698 -695 0
-2698 -1417 0
-2698 851 0
2699 -1504 1412 1413 -871 0
-2699 1504 0
-2699 -1412 0
-2699 -1413 0
-2699 871 0
2700 -1506 591 1449 -895 0
-2700 1506 0
-2700 -591 0
-2700 -1449 0
-2700 895 0
2701 -1508 555 1467 -867 0
-2701 1508 0
-2701 -555 0
-2701 -1467 0
-2701 867 0
2702 -1510 1402 1403 -897 0
-2702 1510 0
-2702 -1402 0
-2702 -1403 0
-2702 897 0
2703 -1522 673 1481 -855 0
-2703 1522 0
-2703 -673 0
-2703 -1481 0
-2703 855 0
2704 -1526 601 1421 -873 0
-2704 1526 0
-2704 -601 0
-2704 -1421 0
-2704 873 0
2705 -1512 1487 1488 -863 0
-2705 1512 0
-2705 -1487 0
-2705 -1488 0
-2705 863 0
2706 -1514 1444 1445 -879 0
-2706 1514 0
-2706 -1444 0
-2706 -1445 0
-2706 879 0
2707 -1516 1437 1438 -887 0
-2707 1516 0
-2707 -1437 0
-2707 -1438 0
-2707 887 0
2708 -1518 707 1442 -891 0
-2708 1518 0
-2708 -707 0
-2708 -1442 0
-2708 891 0
2709 -1538 661 1396 -899 0
-2709 1538 0
-2709 -661 0
-2709 -1396 0
-2709 899 0
2710 -1540 451 1459 -885 0
-2710 1540 0
-2710 -451 0
-2710 -1459 0
-2710 885 0
2711 -1524 441 1400 -853 0
-2711 1524 0
-2711 -441 0
-2711 -1400 0
-2711 853 0
2712 -1528 1490 1491 -875 0
-2712 1528 0
-2712 -1490 0
-2712 -1491 0
-2712 875 0
2713 -1530 1451 1452 -859 0
-2713 1530 0
-2713 -1451 0
-2713 -1452 0
-2713 859 0
2714 -1532 1469 1470 -877 0
-2714 1532 0
-2714 -1469 0
-2714 -1470 0
-2714 877 0
2715 -1534 625 1463 -857 0
-2715 1534 0
-2715 -625 0
-2715 -1463 0
-2715 857 0
2716 -1536 417 1474 -901 0
-2716 1536 0
-2716 -417 0
-2716 -1474 0
-2716 901 0
2717 -1542 527 1410 -869 0
-2717 1542 0
-2717 -527 0
-2717 -1410 0
-2717 869 0
2718 -1544 1493 1494 -881 0
-2718 1544 0
-2718 -1493 0
-2718 -1494 0
-2718 881 0
2719 -1546 637 1485 -889 0
-2719 1546 0
-2719 -637 0
-2719 -1485 0
-2719 889 0
2720 -1548 1454 1455 -921 0
-2720 1548 0
-2720 -1454 0
-2720 -1455 0
-2720 921 0
2721 -1550 381 1435 -963 0
-2721 1550 0
-2721 -381 0
-2721 -1435 0
-2721 963 0
2722 -1556 1423 1424 -965 0
-2722 1556 0
-2722 -1423 0
-2722 -1424 0
-2722 965 0
2723 -1554 1426 1427 -909 0
-2723 1554 0
-2723 -1426 0
-2723 -1427 0
-2723 909 0
2724 -1502 1476 1477 -943 0
-2724 1502 0
-2724 -1476 0
-2724 -1477 0
-2724 943 0
2725 -1504 1412 1413 -931 0
-2725 1504 0
-2725 -1412 0
-2725 -1413 0
-2725 931 0
2726 -1506 591 1449 -955 0
-2726 1506 0
-2726 -591 0
-2726 -1449 0
-2726 955 0
2727 -1508 555 1467 -927 0
-2727 1508 0
-2727 -555 0
-2727 -1467 0
-2727 927 0
2728 -1500 695 1417 -911 0
-2728 1500 0
-2728 -695 0
-2728 -1417 0
-2728 911 0
2729 -1510 1402 1403 -957 0
-2729 1510 0
-2729 -1402 0
-2729 -1403 0
-2729 957 0
2730 -1552 1405 1406 -925 0
-2730 1552 0
-2730 -1405 0
-2730 -1406 0
-2730 925 0
2731 -1512 1487 1488 -923 0
-2731 1512 0
-2731 -1487 0
-2731 -1488 0
-2731 923 0
1030 -1029 0
-1030 1029 0
2732 -1518 707 1442 -951 0
-2732 1518 0
-2732 -707 0
-2732 -1442 0
-2732 951 0
2733 -1520 481 1431 -953 0
-2733 1520 0
-2733 -481 0
-2733 -1431 0
-2733 953 0
2734 -1524 441 1400 -913 0
-2734 1524 0
-2734 -441 0
-2734 -1400 0
-2734 913 0
2735 -1522 673 1481 -915 0
-2735 1522 0
-2735 -673 0
-2735 -1481 0
-2735 915 0
2736 -1528 1490 1491 -935 0
-2736 1528 0
-2736 -1490 0
-2736 -1491 0
-2736 935 0
2737 -1526 601 1421 -933 0
-2737 1526 0
-2737 -601 0
-2737 -1421 0
-2737 933 0
2738 -1514 1444 1445 -939 0
-2738 1514 0
-2738 -1444 0
-2738 -1445 0
-2738 939 0
2739 -1532 1469 1470 -937 0
-2739 1532 0
-2739 -1469 0
-2739 -1470 0
-2739 937 0
2740 -1516 1437 1438 -947 0
-2740 1516 0
-2740 -1437 0
-2740 -1438 0
-2740 947 0
2741 -1530 1451 1452 -919 0
-2741 1530 0
-2741 -1451 0
-2741 -1452 0
-2741 919 0
2742 -1534 625 1463 -917 0
-2742 1534 0
-2742 -625 0
-2742 -1463 0
-2742 917 0
2743 -1536 417 1474 -961 0
-2743 1536 0
-2743 -417 0
-2743 -1474 0
-2743 961 0
2744 -1544 1493 1494 -941 0
-2744 1544 0
-2744 -1493 0
-2744 -1494 0
-2744 941 0
2745 -1538 661 1396 -959 0
-2745 1538 0
-2745 -661 0
-2745 -1396 0
-2745 959 0
2746 -1540 451 1459 -945 0
-2746 1540 0
-2746 -451 0
-2746 -1459 0
-2746 945 0
2747 -1542 527 1410 -929 0
-2747 1542 0
-2747 -527 0
-2747 -1410 0
-2747 929 0
2748 -1546 637 1485 -949 0
-2748 1546 0
-2748 -637 0
-2748 -1485 0
-2748 949 0
2749 -1594 709 1442 -771 0
-2749 1594 0
-2749 -709 0
-2749 -1442 0
-2749 771 0
2750 -1560 663 1396 -779 0
-2750 1560 0
-2750 -663 0
-2750 -1396 0
-2750 779 0
2751 -1602 529 1410 -749 0
-2751 1602 0
-2751 -529 0
-2751 -1410 0
-2751 749 0
2752 -1606 593 1449 -775 0
-2752 1606 0
-2752 -593 0
-2752 -1449 0
-2752 775 0
2753 -1612 649 1424 -785 0
-2753 1612 0
-2753 -649 0
-2753 -1424 0
-2753 785 0
2754 -1614 627 1463 -737 0
-2754 1614 0
-2754 -627 0
-2754 -1463 0
-2754 737 0
2755 -1570 453 1459 -765 0
-2755 1570 0
-2755 -453 0
-2755 -1459 0
-2755 765 0
2756 -1574 603 1421 -753 0
-2756 1574 0
-2756 -603 0
-2756 -1421 0
-2756 753 0
2757 -1616 541 1403 -777 0
-2757 1616 0
-2757 -541 0
-2757 -1403 0
-2757 777 0
2758 -1578 505 1438 -767 0
-2758 1578 0
-2758 -505 0
-2758 -1438 0
-2758 767 0
2759 -1562 483 1431 -773 0
-2759 1562 0
-2759 -483 0
-2759 -1431 0
-2759 773 0
2760 -1564 515 1488 -743 0
-2760 1564 0
-2760 -515 0
-2760 -1488 0
-2760 743 0
2761 -1566 419 1474 -781 0
-2761 1566 0
-2761 -419 0
-2761 -1474 0
-2761 781 0
2762 -1584 639 1485 -769 0
-2762 1584 0
-2762 -639 0
-2762 -1485 0
-2762 769 0
2763 -1580 395 1491 -755 0
-2763 1580 0
-2763 -395 0
-2763 -1491 0
-2763 755 0
2764 -1586 443 1400 -733 0
-2764 1586 0
-2764 -443 0
-2764 -1400 0
-2764 733 0
2765 -1572 683 1452 -739 0
-2765 1572 0
-2765 -683 0
-2765 -1452 0
-2765 739 0
2766 -1568 469 1427 -729 0
-2766 1568 0
-2766 -469 0
-2766 -1427 0
-2766 729 0
2767 -1590 717 1455 -741 0
-2767 1590 0
-2767 -717 0
-2767 -1455 0
-2767 741 0
2768 -1576 567 1406 -745 0
-2768 1576 0
-2768 -567 0
-2768 -1406 0
-2768 745 0
2769 -1598 427 1470 -757 0
-2769 1598 0
-2769 -427 0
-2769 -1470 0
-2769 757 0
2770 -1610 495 1477 -763 0
-2770 1610 0
-2770 -495 0
-2770 -1477 0
-2770 763 0
2771 -1600 557 1467 -747 0
-2771 1600 0
-2771 -557 0
-2771 -1467 0
-2771 747 0
2772 -1596 577 1413 -751 0
-2772 1596 0
-2772 -577 0
-2772 -1413 0
-2772 751 0
2773 -1604 615 1445 -759 0
-2773 1604 0
-2773 -615 0
-2773 -1445 0
-2773 759 0
2774 -1582 405 1494 -761 0
-2774 1582 0
-2774 -405 0
-2774 -1494 0
-2774 761 0
2775 -1608 675 1481 -735 0
-2775 1608 0
-2775 -675 0
-2775 -1481 0
-2775 735 0
2776 -1558 5 2362 0
-2776 1558 0
-2776 -5 0
-2776 -2362 0
2777 -1588 383 1435 -783 0
-2777 1588 0
-2777 -383 0
-2777 -1435 0
-2777 783 0
2778 -1592 697 1417 -731 0
-2778 1592 0
-2778 -697 0
-2778 -1417 0
-2778 731 0
2779 -1600 557 1467 -807 0
-2779 1600 0
-2779 -557 0
-2779 -1467 0
-2779 807 0
2780 -1576 567 1406 -805 0
-2780 1576 0
-2780 -567 0
-2780 -1406 0
-2780 805 0
2781 -1596 577 1413 -811 0
-2781 1596 0
-2781 -577 0
-2781 -1413 0
-2781 811 0
2782 -1580 395 1491 -815 0
-2782 1580 0
-2782 -395 0
-2782 -1491 0
-2782 815 0
2783 -1604 615 1445 -819 0
-2783 1604 0
-2783 -615 0
-2783 -1445 0
-2783 819 0
2784 -1584 639 1485 -829 0
-2784 1584 0
-2784 -639 0
-2784 -1485 0
-2784 829 0
2785 -1588 383 1435 -843 0
-2785 1588 0
-2785 -383 0
-2785 -1435 0
-2785 843 0
2786 -1582 405 1494 -821 0
-2786 1582 0
-2786 -405 0
-2786 -1494 0
-2786 821 0
2787 -1586 443 1400 -793 0
-2787 1586 0
-2787 -443 0
-2787 -1400 0
-2787 793 0
2788 -1590 717 1455 -801 0
-2788 1590 0
-2788 -717 0
-2788 -1455 0
-2788 801 0
2789 -1592 697 1417 -791 0
-2789 1592 0
-2789 -697 0
-2789 -1417 0
-2789 791 0
2790 -1594 709 1442 -831 0
-2790 1594 0
-2790 -709 0
-2790 -1442 0
-2790 831 0
2791 -1602 529 1410 -809 0
-2791 1602 0
-2791 -529 0
-2791 -1410 0
-2791 809 0
2792 -1598 427 1470 -817 0
-2792 1598 0
-2792 -427 0
-2792 -1470 0
-2792 817 0
2793 -1610 495 1477 -823 0
-2793 1610 0
-2793 -495 0
-2793 -1477 0
-2793 823 0
2794 -1606 593 1449 -835 0
-2794 1606 0
-2794 -593 0
-2794 -1449 0
-2794 835 0
2795 -1608 675 1481 -795 0
-2795 1608 0
-2795 -675 0
-2795 -1481 0
-2795 795 0
2796 -1614 627 1463 -797 0
-2796 1614 0
-2796 -627 0
-2796 -1463 0
-2796 797 0
2797 -1612 649 1424 -845 0
-2797 1612 0
-2797 -649 0
-2797 -1424 0
-2797 845 0
2798 -1570 453 1459 -825 0
-2798 1570 0
-2798 -453 0
-2798 -1459 0
-2798 825 0
2799 -1574 603 1421 -813 0
-2799 1574 0
-2799 -603 0
-2799 -1421 0
-2799 813 0
2800 -1616 541 1403 -837 0
-2800 1616 0
-2800 -541 0
-2800 -1403 0
-2800 837 0
1034 -1033 0
-1034 1033 0
2801 -1562 483 1431 -833 0
-2801 1562 0
-2801 -483 0
-2801 -1431 0
-2801 833 0
2802 -1566 419 1474 -841 0
-2802 1566 0
-2802 -419 0
-2802 -1474 0
-2802 841 0
2803 -1560 663 1396 -839 0
-2803 1560 0
-2803 -663 0
-2803 -1396 0
-2803 839 0
2804 -1578 505 1438 -827 0
-2804 1578 0
-2804 -505 0
-2804 -1438 0
-2804 827 0
2805 -1564 515 1488 -803 0
-2805 1564 0
-2805 -515 0
-2805 -1488 0
-2805 803 0
2806 -1572 683 1452 -799 0
-2806 1572 0
-2806 -683 0
-2806 -1452 0
-2806 799 0
2807 -1568 469 1427 -789 0
-2807 1568 0
-2807 -469 0
-2807 -1427 0
-2807 789 0
2808 -1576 567 1406 -865 0
-2808 1576 0
-2808 -567 0
-2808 -1406 0
-2808 865 0
2809 -1578 505 1438 -887 0
-2809 1578 0
-2809 -505 0
-2809 -1438 0
-2809 887 0
2810 -1580 395 1491 -875 0
-2810 1580 0
-2810 -395 0
-2810 -1491 0
-2810 875 0
2811 -1582 405 1494 -881 0
-2811 1582 0
-2811 -405 0
-2811 -1494 0
-2811 881 0
2812 -1584 639 1485 -889 0
-2812 1584 0
-2812 -639 0
-2812 -1485 0
-2812 889 0
2813 -1588 383 1435 -903 0
-2813 1588 0
-2813 -383 0
-2813 -1435 0
-2813 903 0
2814 -1586 443 1400 -853 0
-2814 1586 0
-2814 -443 0
-2814 -1400 0
-2814 853 0
2815 -1590 717 1455 -861 0
-2815 1590 0
-2815 -717 0
-2815 -1455 0
-2815 861 0
2816 -1592 697 1417 -851 0
-2816 1592 0
-2816 -697 0
-2816 -1417 0
-2816 851 0
2817 -1594 709 1442 -891 0
-2817 1594 0
-2817 -709 0
-2817 -1442 0
-2817 891 0
2818 -1596 577 1413 -871 0
-2818 1596 0
-2818 -577 0
-2818 -1413 0
-2818 871 0
2819 -1598 427 1470 -877 0
-2819 1598 0
-2819 -427 0
-2819 -1470 0
-2819 877 0
2820 -1600 557 1467 -867 0
-2820 1600 0
-2820 -557 0
-2820 -1467 0
-2820 867 0
2821 -1602 529 1410 -869 0
-2821 1602 0
-2821 -529 0
-2821 -1410 0
-2821 869 0
2822 -1604 615 1445 -879 0
-2822 1604 0
-2822 -615 0
-2822 -1445 0
-2822 879 0
2823 -1606 593 1449 -895 0
-2823 1606 0
-2823 -593 0
-2823 -1449 0
-2823 895 0
2824 -1610 495 1477 -883 0
-2824 1610 0
-2824 -495 0
-2824 -1477 0
-2824 883 0
2825 -1608 675 1481 -855 0
-2825 1608 0
-2825 -675 0
-2825 -1481 0
-2825 855 0
2826 -1612 649 1424 -905 0
-2826 1612 0
-2826 -649 0
-2826 -1424 0
-2826 905 0
2827 -1614 627 1463 -857 0
-2827 1614 0
-2827 -627 0
-2827 -1463 0
-2827 857 0
2828 -1574 603 1421 -873 0
-2828 1574 0
-2828 -603 0
-2828 -1421 0
-2828 873 0
2829 -1616 541 1403 -897 0
-2829 1616 0
-2829 -541 0
-2829 -1403 0
-2829 897 0
2830 -1560 663 1396 -899 0
-2830 1560 0
-2830 -663 0
-2830 -1396 0
-2830 899 0
2831 -1562 483 1431 -893 0
-2831 1562 0
-2831 -483 0
-2831 -1431 0
-2831 893 0
2832 -1564 515 1488 -863 0
-2832 1564 0
-2832 -515 0
-2832 -1488 0
-2832 863 0
2833 -1566 419 1474 -901 0
-2833 1566 0
-2833 -419 0
-2833 -1474 0
-2833 901 0
2834 -1568 469 1427 -849 0
-2834 1568 0
-2834 -469 0
-2834 -1427 0
-2834 849 0
2835 -1570 453 1459 -885 0
-2835 1570 0
-2835 -453 0
-2835 -1459 0
-2835 885 0
2836 -1572 683 1452 -859 0
-2836 1572 0
-2836 -683 0
-2836 -1452 0
-2836 859 0
1036 -1035 0
-1036 1035 0
2837 -1600 557 1467 -927 0
-2837 1600 0
-2837 -557 0
-2837 -1467 0
-2837 927 0
2838 -1612 649 1424 -965 0
-2838 1612 0
-2838 -649 0
-2838 -1424 0
-2838 965 0
2839 -1604 615 1445 -939 0
-2839 1604 0
-2839 -615 0
-2839 -1445 0
-2839 939 0
2840 -1608 675 1481 -915 0
-2840 1608 0
-2840 -675 0
-2840 -1481 0
-2840 915 0
2841 -1614 627 1463 -917 0
-2841 1614 0
-2841 -627 0
-2841 -1463 0
-2841 917 0
2842 -1560 663 1396 -959 0
-2842 1560 0
-2842 -663 0
-2842 -1396 0
-2842 959 0
2843 -1562 483 1431 -953 0
-2843 1562 0
-2843 -483 0
-2843 -1431 0
-2843 953 0
2844 -1564 515 1488 -923 0
-2844 1564 0
-2844 -515 0
-2844 -1488 0
-2844 923 0
2845 -1572 683 1452 -919 0
-2845 1572 0
-2845 -683 0
-2845 -1452 0
-2845 919 0
2846 -1568 469 1427 -909 0
-2846 1568 0
-2846 -469 0
-2846 -1427 0
-2846 909 0
2847 -1570 453 1459 -945 0
-2847 1570 0
-2847 -453 0
-2847 -1459 0
-2847 945 0
2848 -1574 603 1421 -933 0
-2848 1574 0
-2848 -603 0
-2848 -1421 0
-2848 933 0
2849 -1596 577 1413 -931 0
-2849 1596 0
-2849 -577 0
-2849 -1413 0
-2849 931 0
2850 -1566 419 1474 -961 0
-2850 1566 0
-2850 -419 0
-2850 -1474 0
-2850 961 0
2851 -1616 541 1403 -957 0
-2851 1616 0
-2851 -541 0
-2851 -1403 0
-2851 957 0
2852 -1578 505 1438 -947 0
-2852 1578 0
-2852 -505 0
-2852 -1438 0
-2852 947 0
2853 -1576 567 1406 -925 0
-2853 1576 0
-2853 -567 0
-2853 -1406 0
-2853 925 0
2854 -1580 395 1491 -935 0
-2854 1580 0
-2854 -395 0
-2854 -1491 0
-2854 935 0
2855 -1584 639 1485 -949 0
-2855 1584 0
-2855 -639 0
-2855 -1485 0
-2855 949 0
2856 -1588 383 1435 -963 0
-2856 1588 0
-2856 -383 0
-2856 -1435 0
-2856 963 0
2857 -1582 405 1494 -941 0
-2857 1582 0
-2857 -405 0
-2857 -1494 0
-2857 941 0
2858 -1586 443 1400 -913 0
-2858 1586 0
-2858 -443 0
-2858 -1400 0
-2858 913 0
1038 -1037 0
-1038 1037 0
2859 -1590 717 1455 -921 0
-2859 1590 0
-2859 -717 0
-2859 -1455 0
-2859 921 0
2860 -1592 697 1417 -911 0
-2860 1592 0
-2860 -697 0
-2860 -1417 0
-2860 911 0
2861 -1594 709 1442 -951 0
-2861 1594 0
-2861 -709 0
-2861 -1442 0
-2861 951 0
2862 -1602 529 1410 -929 0
-2862 1602 0
-2862 -529 0
-2862 -1410 0
-2862 929 0
2863 -1598 427 1470 -937 0
-2863 1598 0
-2863 -427 0
-2863 -1470 0
-2863 937 0
2864 -1610 495 1477 -943 0
-2864 1610 0
-2864 -495 0
-2864 -1477 0
-2864 943 0
2865 -1606 593 1449 -955 0
-2865 1606 0
-2865 -593 0
-2865 -1449 0
-2865 955 0
2866 -1676 407 1494 -761 0
-2866 1676 0
-2866 -407 0
-2866 -1494 0
-2866 761 0
2867 -1656 485 1431 -773 0
-2867 1656 0
-2867 -485 0
-2867 -1431 0
-2867 773 0
2868 -1658 699 1417 -731 0
-2868 1658 0
-2868 -699 0
-2868 -1417 0
-2868 731 0
2869 -1662 711 1442 -771 0
-2869 1662 0
-2869 -711 0
-2869 -1442 0
-2869 771 0
2870 -1624 569 1406 -745 0
-2870 1624 0
-2870 -569 0
-2870 -1406 0
-2870 745 0
2871 -1626 719 1455 -741 0
-2871 1626 0
-2871 -719 0
-2871 -1455 0
-2871 741 0
2872 -1628 595 1449 -775 0
-2872 1628 0
-2872 -595 0
-2872 -1449 0
-2872 775 0
2873 -1670 397 1491 -755 0
-2873 1670 0
-2873 -397 0
-2873 -1491 0
-2873 755 0
2874 -1632 429 1470 -757 0
-2874 1632 0
-2874 -429 0
-2874 -1470 0
-2874 757 0
2875 -1674 629 1463 -737 0
-2875 1674 0
-2875 -629 0
-2875 -1463 0
-2875 737 0
2876 -1672 665 1396 -779 0
-2876 1672 0
-2876 -665 0
-2876 -1396 0
-2876 779 0
2877 -1634 421 1474 -781 0
-2877 1634 0
-2877 -421 0
-2877 -1474 0
-2877 781 0
2878 -1638 455 1459 -765 0
-2878 1638 0
-2878 -455 0
-2878 -1459 0
-2878 765 0
2879 -1640 579 1413 -751 0
-2879 1640 0
-2879 -579 0
-2879 -1413 0
-2879 751 0
2880 -1620 517 1488 -743 0
-2880 1620 0
-2880 -517 0
-2880 -1488 0
-2880 743 0
2881 -1622 559 1467 -747 0
-2881 1622 0
-2881 -559 0
-2881 -1467 0
-2881 747 0
2882 -1648 507 1438 -767 0
-2882 1648 0
-2882 -507 0
-2882 -1438 0
-2882 767 0
2883 -1630 651 1424 -785 0
-2883 1630 0
-2883 -651 0
-2883 -1424 0
-2883 785 0
2884 -1642 685 1452 -739 0
-2884 1642 0
-2884 -685 0
-2884 -1452 0
-2884 739 0
2885 -1636 471 1427 -729 0
-2885 1636 0
-2885 -471 0
-2885 -1427 0
-2885 729 0
2886 -1644 605 1421 -753 0
-2886 1644 0
-2886 -605 0
-2886 -1421 0
-2886 753 0
2887 -1618 9 2362 0
-2887 1618 0
-2887 -9 0
-2887 -2362 0
2888 -1654 445 1400 -733 0
-2888 1654 0
-2888 -445 0
-2888 -1400 0
-2888 733 0
2889 -1646 531 1410 -749 0
-2889 1646 0
-2889 -531 0
-2889 -1410 0
-2889 749 0
2890 -1660 543 1403 -777 0
-2890 1660 0
-2890 -543 0
-2890 -1403 0
-2890 777 0
2891 -1664 497 1477 -763 0
-2891 1664 0
-2891 -497 0
-2891 -1477 0
-2891 763 0
2892 -1666 677 1481 -735 0
-2892 1666 0
-2892 -677 0
-2892 -1481 0
-2892 735 0
2893 -1668 617 1445 -759 0
-2893 1668 0
-2893 -617 0
-2893 -1445 0
-2893 759 0
2894 -1650 385 1435 -783 0
-2894 1650 0
-2894 -385 0
-2894 -1435 0
-2894 783 0
2895 -1652 641 1485 -769 0
-2895 1652 0
-2895 -641 0
-2895 -1485 0
-2895 769 0
2896 -1654 445 1400 -793 0
-2896 1654 0
-2896 -445 0
-2896 -1400 0
-2896 793 0
2897 -1656 485 1431 -833 0
-2897 1656 0
-2897 -485 0
-2897 -1431 0
-2897 833 0
2898 -1658 699 1417 -791 0
-2898 1658 0
-2898 -699 0
-2898 -1417 0
-2898 791 0
2899 -1624 569 1406 -805 0
-2899 1624 0
-2899 -569 0
-2899 -1406 0
-2899 805 0
2900 -1662 711 1442 -831 0
-2900 1662 0
-2900 -711 0
-2900 -1442 0
-2900 831 0
2901 -1660 543 1403 -837 0
-2901 1660 0
-2901 -543 0
-2901 -1403 0
-2901 837 0
2902 -1628 595 1449 -835 0
-2902 1628 0
-2902 -595 0
-2902 -1449 0
-2902 835 0
2903 -1626 719 1455 -801 0
-2903 1626 0
-2903 -719 0
-2903 -1455 0
-2903 801 0
2904 -1664 497 1477 -823 0
-2904 1664 0
-2904 -497 0
-2904 -1477 0
-2904 823 0
2905 -1672 665 1396 -839 0
-2905 1672 0
-2905 -665 0
-2905 -1396 0
-2905 839 0
2906 -1670 397 1491 -815 0
-2906 1670 0
-2906 -397 0
-2906 -1491 0
-2906 815 0
2907 -1634 421 1474 -841 0
-2907 1634 0
-2907 -421 0
-2907 -1474 0
-2907 841 0
2908 -1632 429 1470 -817 0
-2908 1632 0
-2908 -429 0
-2908 -1470 0
-2908 817 0
2909 -1674 629 1463 -797 0
-2909 1674 0
-2909 -629 0
-2909 -1463 0
-2909 797 0
2910 -1676 407 1494 -821 0
-2910 1676 0
-2910 -407 0
-2910 -1494 0
-2910 821 0
2911 -1638 455 1459 -825 0
-2911 1638 0
-2911 -455 0
-2911 -1459 0
-2911 825 0
2912 -1640 579 1413 -811 0
-2912 1640 0
-2912 -579 0
-2912 -1413 0
-2912 811 0
2913 -1620 517 1488 -803 0
-2913 1620 0
-2913 -517 0
-2913 -1488 0
-2913 803 0
2914 -1622 559 1467 -807 0
-2914 1622 0
-2914 -559 0
-2914 -1467 0
-2914 807 0
2915 -1648 507 1438 -827 0
-2915 1648 0
-2915 -507 0
-2915 -1438 0
-2915 827 0
2916 -1630 651 1424 -845 0
-2916 1630 0
-2916 -651 0
-2916 -1424 0
-2916 845 0
2917 -1642 685 1452 -799 0
-2917 1642 0
-2917 -685 0
-2917 -1452 0
-2917 799 0
2918 -1644 605 1421 -813 0
-2918 1644 0
-2918 -605 0
-2918 -1421 0
-2918 813 0
2919 -1636 471 1427 -789 0
-2919 1636 0
-2919 -471 0
-2919 -1427 0
-2919 789 0
2920 -1646 531 1410 -809 0
-2920 1646 0
-2920 -531 0
-2920 -1410 0
-2920 809 0
2921 -1666 677 1481 -795 0
-2921 1666 0
-2921 -677 0
-2921 -1481 0
-2921 795 0
1042 -1041 0
-1042 1041 0
2922 -1668 617 1445 -819 0
-2922 1668 0
-2922 -617 0
-2922 -1445 0
-2922 819 0
2923 -1650 385 1435 -843 0
-2923 1650 0
-2923 -385 0
-2923 -1435 0
-2923 843 0
2924 -1652 641 1485 -829 0
-2924 1652 0
-2924 -641 0
-2924 -1485 0
-2924 829 0
2925 -1648 507 1438 -887 0
-2925 1648 0
-2925 -507 0
-2925 -1438 0
-2925 887 0
2926 -1650 385 1435 -903 0
-2926 1650 0
-2926 -385 0
-2926 -1435 0
-2926 903 0
2927 -1654 445 1400 -853 0
-2927 1654 0
-2927 -445 0
-2927 -1400 0
-2927 853 0
2928 -1652 641 1485 -889 0
-2928 1652 0
-2928 -641 0
-2928 -1485 0
-2928 889 0
2929 -1656 485 1431 -893 0
-2929 1656 0
-2929 -485 0
-2929 -1431 0
-2929 893 0
2930 -1658 699 1417 -851 0
-2930 1658 0
-2930 -699 0
-2930 -1417 0
-2930 851 0
2931 -1660 543 1403 -897 0
-2931 1660 0
-2931 -543 0
-2931 -1403 0
-2931 897 0
2932 -1662 711 1442 -891 0
-2932 1662 0
-2932 -711 0
-2932 -1442 0
-2932 891 0
2933 -1666 677 1481 -855 0
-2933 1666 0
-2933 -677 0
-2933 -1481 0
-2933 855 0
2934 -1626 719 1455 -861 0
-2934 1626 0
-2934 -719 0
-2934 -1455 0
-2934 861 0
2935 -1668 617 1445 -879 0
-2935 1668 0
-2935 -617 0
-2935 -1445 0
-2935 879 0
2936 -1664 497 1477 -883 0
-2936 1664 0
-2936 -497 0
-2936 -1477 0
-2936 883 0
1044 -1043 0
-1044 1043 0
2937 -1670 397 1491 -875 0
-2937 1670 0
-2937 -397 0
-2937 -1491 0
-2937 875 0
2938 -1672 665 1396 -899 0
-2938 1672 0
-2938 -665 0
-2938 -1396 0
-2938 899 0
2939 -1674 629 1463 -857 0
-2939 1674 0
-2939 -629 0
-2939 -1463 0
-2939 857 0
2940 -1676 407 1494 -881 0
-2940 1676 0
-2940 -407 0
-2940 -1494 0
-2940 881 0
2941 -1620 517 1488 -863 0
-2941 1620 0
-2941 -517 0
-2941 -1488 0
-2941 863 0
2942 -1622 559 1467 -867 0
-2942 1622 0
-2942 -559 0
-2942 -1467 0
-2942 867 0
2943 -1624 569 1406 -865 0
-2943 1624 0
-2943 -569 0
-2943 -1406 0
-2943 865 0
2944 -1628 595 1449 -895 0
-2944 1628 0
-2944 -595 0
-2944 -1449 0
-2944 895 0
2945 -1630 651 1424 -905 0
-2945 1630 0
-2945 -651 0
-2945 -1424 0
-2945 905 0
2946 -1634 421 1474 -901 0
-2946 1634 0
-2946 -421 0
-2946 -1474 0
-2946 901 0
2947 -1632 429 1470 -877 0
-2947 1632 0
-2947 -429 0
-2947 -1470 0
-2947 877 0
2948 -1636 471 1427 -849 0
-2948 1636 0
-2948 -471 0
-2948 -1427 0
-2948 849 0
2949 -1638 455 1459 -885 0
-2949 1638 0
-2949 -455 0
-2949 -1459 0
-2949 885 0
2950 -1640 579 1413 -871 0
-2950 1640 0
-2950 -579 0
-2950 -1413 0
-2950 871 0
2951 -1642 685 1452 -859 0
-2951 1642 0
-2951 -685 0
-2951 -1452 0
-2951 859 0
2952 -1644 605 1421 -873 0
-2952 1644 0
-2952 -605 0
-2952 -1421 0
-2952 873 0
2953 -1646 531 1410 -869 0
-2953 1646 0
-2953 -531 0
-2953 -1410 0
-2953 869 0
2954 -1656 485 1431 -953 0
-2954 1656 0
-2954 -485 0
-2954 -1431 0
-2954 953 0
2955 -1662 711 1442 -951 0
-2955 1662 0
-2955 -711 0
-2955 -1442 0
-2955 951 0
2956 -1658 699 1417 -911 0
-2956 1658 0
-2956 -699 0
-2956 -1417 0
-2956 911 0
2957 -1660 543 1403 -957 0
-2957 1660 0
-2957 -543 0
-2957 -1403 0
-2957 957 0
2958 -1666 677 1481 -915 0
-2958 1666 0
-2958 -677 0
-2958 -1481 0
-2958 915 0
2959 -1670 397 1491 -935 0
-2959 1670 0
-2959 -397 0
-2959 -1491 0
-2959 935 0
2960 -1664 497 1477 -943 0
-2960 1664 0
-2960 -497 0
-2960 -1477 0
-2960 943 0
2961 -1672 665 1396 -959 0
-2961 1672 0
-2961 -665 0
-2961 -1396 0
-2961 959 0
2962 -1668 617 1445 -939 0
-2962 1668 0
-2962 -617 0
-2962 -1445 0
-2962 939 0
2963 -1674 629 1463 -917 0
-2963 1674 0
-2963 -629 0
-2963 -1463 0
-2963 917 0
2964 -1676 407 1494 -941 0
-2964 1676 0
-2964 -407 0
-2964 -1494 0
-2964 941 0
1046 -1045 0
-1046 1045 0
2965 -1620 517 1488 -923 0
-2965 1620 0
-2965 -517 0
-2965 -1488 0
-2965 923 0
2966 -1622 559 1467 -927 0
-2966 1622 0
-2966 -559 0
-2966 -1467 0
-2966 927 0
2967 -1624 569 1406 -925 0
-2967 1624 0
-2967 -569 0
-2967 -1406 0
-2967 925 0
2968 -1626 719 1455 -921 0
-2968 1626 0
-2968 -719 0
-2968 -1455 0
-2968 921 0
2969 -1628 595 1449 -955 0
-2969 1628 0
-2969 -595 0
-2969 -1449 0
-2969 955 0
2970 -1632 429 1470 -937 0
-2970 1632 0
-2970 -429 0
-2970 -1470 0
-2970 937 0
2971 -1642 685 1452 -919 0
-2971 1642 0
-2971 -685 0
-2971 -1452 0
-2971 919 0
2972 -1634 421 1474 -961 0
-2972 1634 0
-2972 -421 0
-2972 -1474 0
-2972 961 0
2973 -1636 471 1427 -909 0
-2973 1636 0
-2973 -471 0
-2973 -1427 0
-2973 909 0
2974 -1638 455 1459 -945 0
-2974 1638 0
-2974 -455 0
-2974 -1459 0
-2974 945 0
2975 -1640 579 1413 -931 0
-2975 1640 0
-2975 -579 0
-2975 -1413 0
-2975 931 0
2976 -1644 605 1421 -933 0
-2976 1644 0
-2976 -605 0
-2976 -1421 0
-2976 933 0
2977 -1646 531 1410 -929 0
-2977 1646 0
-2977 -531 0
-2977 -1410 0
-2977 929 0
2978 -1630 651 1424 -965 0
-2978 1630 0
-2978 -651 0
-2978 -1424 0
-2978 965 0
2979 -1648 507 1438 -947 0
-2979 1648 0
-2979 -507 0
-2979 -1438 0
-2979 947 0
2980 -1650 385 1435 -963 0
-2980 1650 0
-2980 -385 0
-2980 -1435 0
-2980 963 0
2981 -1652 641 1485 -949 0
-2981 1652 0
-2981 -641 0
-2981 -1485 0
-2981 949 0
2982 -1654 445 1400 -913 0
-2982 1654 0
-2982 -445 0
-2982 -1400 0
-2982 913 0
2983 -1698 631 1463 -737 0
-2983 1698 0
-2983 -631 0
-2983 -1463 0
-2983 737 0
2984 -1696 457 1459 -765 0
-2984 1696 0
-2984 -457 0
-2984 -1459 0
-2984 765 0
2985 -1692 679 1481 -735 0
-2985 1692 0
-2985 -679 0
-2985 -1481 0
-2985 735 0
2986 -1700 713 1442 -771 0
-2986 1700 0
-2986 -713 0
-2986 -1442 0
-2986 771 0
2987 -1708 509 1438 -767 0
-2987 1708 0
-2987 -509 0
-2987 -1438 0
-2987 767 0
2988 -1686 581 1413 -751 0
-2988 1686 0
-2988 -581 0
-2988 -1413 0
-2988 751 0
2989 -1688 487 1431 -773 0
-2989 1688 0
-2989 -487 0
-2989 -1431 0
-2989 773 0
2990 -1704 561 1467 -747 0
-2990 1704 0
-2990 -561 0
-2990 -1467 0
-2990 747 0
2991 -1678 13 2362 0
-2991 1678 0
-2991 -13 0
-2991 -2362 0
2992 -1690 687 1452 -739 0
-2992 1690 0
-2992 -687 0
-2992 -1452 0
-2992 739 0
2993 -1714 519 1488 -743 0
-2993 1714 0
-2993 -519 0
-2993 -1488 0
-2993 743 0
2994 -1694 545 1403 -777 0
-2994 1694 0
-2994 -545 0
-2994 -1403 0
-2994 777 0
2995 -1724 447 1400 -733 0
-2995 1724 0
-2995 -447 0
-2995 -1400 0
-2995 733 0
2996 -1726 571 1406 -745 0
-2996 1726 0
-2996 -571 0
-2996 -1406 0
-2996 745 0
2997 -1702 399 1491 -755 0
-2997 1702 0
-2997 -399 0
-2997 -1491 0
-2997 755 0
2998 -1706 643 1485 -769 0
-2998 1706 0
-2998 -643 0
-2998 -1485 0
-2998 769 0
2999 -1710 667 1396 -779 0
-2999 1710 0
-2999 -667 0
-2999 -1396 0
-2999 779 0
3000 -1712 473 1427 -729 0
-3000 1712 0
-3000 -473 0
-3000 -1427 0
-3000 729 0
3001 -1732 431 1470 -757 0
-3001 1732 0
-3001 -431 0
-3001 -1470 0
-3001 757 0
3002 -1734 619 1445 -759 0
-3002 1734 0
-3002 -619 0
-3002 -1445 0
-3002 759 0
3003 -1718 409 1494 -761 0
-3003 1718 0
-3003 -409 0
-3003 -1494 0
-3003 761 0
3004 -1720 423 1474 -781 0
-3004 1720 0
-3004 -423 0
-3004 -1474 0
-3004 781 0
3005 -1716 387 1435 -783 0
-3005 1716 0
-3005 -387 0
-3005 -1435 0
-3005 783 0
3006 -1722 597 1449 -775 0
-3006 1722 0
-3006 -597 0
-3006 -1449 0
-3006 775 0
3007 -1680 653 1424 -785 0
-3007 1680 0
-3007 -653 0
-3007 -1424 0
-3007 785 0
3008 -1682 499 1477 -763 0
-3008 1682 0
-3008 -499 0
-3008 -1477 0
-3008 763 0
3009 -1728 701 1417 -731 0
-3009 1728 0
-3009 -701 0
-3009 -1417 0
-3009 731 0
3010 -1684 721 1455 -741 0
-3010 1684 0
-3010 -721 0
-3010 -1455 0
-3010 741 0
3011 -1730 533 1410 -749 0
-3011 1730 0
-3011 -533 0
-3011 -1410 0
-3011 749 0
3012 -1736 607 1421 -753 0
-3012 1736 0
-3012 -607 0
-3012 -1421 0
-3012 753 0
3013 -1724 447 1400 -793 0
-3013 1724 0
-3013 -447 0
-3013 -1400 0
-3013 793 0
3014 -1722 597 1449 -835 0
-3014 1722 0
-3014 -597 0
-3014 -1449 0
-3014 835 0
3015 -1726 571 1406 -805 0
-3015 1726 0
-3015 -571 0
-3015 -1406 0
-3015 805 0
3016 -1680 653 1424 -845 0
-3016 1680 0
-3016 -653 0
-3016 -1424 0
-3016 845 0
3017 -1682 499 1477 -823 0
-3017 1682 0
-3017 -499 0
-3017 -1477 0
-3017 823 0
3018 -1728 701 1417 -791 0
-3018 1728 0
-3018 -701 0
-3018 -1417 0
-3018 791 0
3019 -1732 431 1470 -817 0
-3019 1732 0
-3019 -431 0
-3019 -1470 0
-3019 817 0
3020 -1684 721 1455 -801 0
-3020 1684 0
-3020 -721 0
-3020 -1455 0
-3020 801 0
3021 -1730 533 1410 -809 0
-3021 1730 0
-3021 -533 0
-3021 -1410 0
-3021 809 0
3022 -1736 607 1421 -813 0
-3022 1736 0
-3022 -607 0
-3022 -1421 0
-3022 813 0
3023 -1696 457 1459 -825 0
-3023 1696 0
-3023 -457 0
-3023 -1459 0
-3023 825 0
3024 -1692 679 1481 -795 0
-3024 1692 0
-3024 -679 0
-3024 -1481 0
-3024 795 0
3025 -1698 631 1463 -797 0
-3025 1698 0
-3025 -631 0
-3025 -1463 0
-3025 797 0
1050 -1049 0
-1050 1049 0
3026 -1700 713 1442 -831 0
-3026 1700 0
-3026 -713 0
-3026 -1442 0
-3026 831 0
3027 -1686 581 1413 -811 0
-3027 1686 0
-3027 -581 0
-3027 -1413 0
-3027 811 0
3028 -1688 487 1431 -833 0
-3028 1688 0
-3028 -487 0
-3028 -1431 0
-3028 833 0
3029 -1704 561 1467 -807 0
-3029 1704 0
-3029 -561 0
-3029 -1467 0
-3029 807 0
3030 -1708 509 1438 -827 0
-3030 1708 0
-3030 -509 0
-3030 -1438 0
-3030 827 0
3031 -1690 687 1452 -799 0
-3031 1690 0
-3031 -687 0
-3031 -1452 0
-3031 799 0
3032 -1694 545 1403 -837 0
-3032 1694 0
-3032 -545 0
-3032 -1403 0
-3032 837 0
3033 -1702 399 1491 -815 0
-3033 1702 0
-3033 -399 0
-3033 -1491 0
-3033 815 0
3034 -1706 643 1485 -829 0
-3034 1706 0
-3034 -643 0
-3034 -1485 0
-3034 829 0
3035 -1710 667 1396 -839 0
-3035 1710 0
-3035 -667 0
-3035 -1396 0
-3035 839 0
3036 -1712 473 1427 -789 0
-3036 1712 0
-3036 -473 0
-3036 -1427 0
-3036 789 0
3037 -1714 519 1488 -803 0
-3037 1714 0
-3037 -519 0
-3037 -1488 0
-3037 803 0
3038 -1734 619 1445 -819 0
-3038 1734 0
-3038 -619 0
-3038 -1445 0
-3038 819 0
3039 -1718 409 1494 -821 0
-3039 1718 0
-3039 -409 0
-3039 -1494 0
-3039 821 0
3040 -1716 387 1435 -843 0
-3040 1716 0
-3040 -387 0
-3040 -1435 0
-3040 843 0
3041 -1720 423 1474 -841 0
-3041 1720 0
-3041 -423 0
-3041 -1474 0
-3041 841 0
3042 -1708 509 1438 -887 0
-3042 1708 0
-3042 -509 0
-3042 -1438 0
-3042 887 0
3043 -1714 519 1488 -863 0
-3043 1714 0
-3043 -519 0
-3043 -1488 0
-3043 863 0
3044 -1716 387 1435 -903 0
-3044 1716 0
-3044 -387 0
-3044 -1435 0
-3044 903 0
3045 -1734 619 1445 -879 0
-3045 1734 0
-3045 -619 0
-3045 -1445 0
-3045 879 0
3046 -1718 409 1494 -881 0
-3046 1718 0
-3046 -409 0
-3046 -1494 0
-3046 881 0
3047 -1720 423 1474 -901 0
-3047 1720 0
-3047 -423 0
-3047 -1474 0
-3047 901 0
3048 -1722 597 1449 -895 0
-3048 1722 0
-3048 -597 0
-3048 -1449 0
-3048 895 0
3049 -1724 447 1400 -853 0
-3049 1724 0
-3049 -447 0
-3049 -1400 0
-3049 853 0
3050 -1726 571 1406 -865 0
-3050 1726 0
-3050 -571 0
-3050 -1406 0
-3050 865 0
3051 -1680 653 1424 -905 0
-3051 1680 0
-3051 -653 0
-3051 -1424 0
-3051 905 0
3052 -1682 499 1477 -883 0
-3052 1682 0
-3052 -499 0
-3052 -1477 0
-3052 883 0
3053 -1728 701 1417 -851 0
-3053 1728 0
-3053 -701 0
-3053 -1417 0
-3053 851 0
3054 -1732 431 1470 -877 0
-3054 1732 0
-3054 -431 0
-3054 -1470 0
-3054 877 0
3055 -1684 721 1455 -861 0
-3055 1684 0
-3055 -721 0
-3055 -1455 0
-3055 861 0
3056 -1730 533 1410 -869 0
-3056 1730 0
-3056 -533 0
-3056 -1410 0
-3056 869 0
3057 -1736 607 1421 -873 0
-3057 1736 0
-3057 -607 0
-3057 -1421 0
-3057 873 0
3058 -1688 487 1431 -893 0
-3058 1688 0
-3058 -487 0
-3058 -1431 0
-3058 893 0
3059 -1686 581 1413 -871 0
-3059 1686 0
-3059 -581 0
-3059 -1413 0
-3059 871 0
3060 -1690 687 1452 -859 0
-3060 1690 0
-3060 -687 0
-3060 -1452 0
-3060 859 0
3061 -1694 545 1403 -897 0
-3061 1694 0
-3061 -545 0
-3061 -1403 0
-3061 897 0
3062 -1696 457 1459 -885 0
-3062 1696 0
-3062 -457 0
-3062 -1459 0
-3062 885 0
3063 -1698 631 1463 -857 0
-3063 1698 0
-3063 -631 0
-3063 -1463 0
-3063 857 0
3064 -1692 679 1481 -855 0
-3064 1692 0
-3064 -679 0
-3064 -1481 0
-3064 855 0
1052 -1051 0
-1052 1051 0
3065 -1700 713 1442 -891 0
-3065 1700 0
-3065 -713 0
-3065 -1442 0
-3065 891 0
3066 -1702 399 1491 -875 0
-3066 1702 0
-3066 -399 0
-3066 -1491 0
-3066 875 0
3067 -1704 561 1467 -867 0
-3067 1704 0
-3067 -561 0
-3067 -1467 0
-3067 867 0
3068 -1706 643 1485 -889 0
-3068 1706 0
-3068 -643 0
-3068 -1485 0
-3068 889 0
3069 -1710 667 1396 -899 0
-3069 1710 0
-3069 -667 0
-3069 -1396 0
-3069 899 0
3070 -1712 473 1427 -849 0
-3070 1712 0
-3070 -473 0
-3070 -1427 0
-3070 849 0
3071 -1732 431 1470 -937 0
-3071 1732 0
-3071 -431 0
-3071 -1470 0
-3071 937 0
3072 -1730 533 1410 -929 0
-3072 1730 0
-3072 -533 0
-3072 -1410 0
-3072 929 0
3073 -1734 619 1445 -939 0
-3073 1734 0
-3073 -619 0
-3073 -1445 0
-3073 939 0
3074 -1736 607 1421 -933 0
-3074 1736 0
-3074 -607 0
-3074 -1421 0
-3074 933 0
3075 -1680 653 1424 -965 0
-3075 1680 0
-3075 -653 0
-3075 -1424 0
-3075 965 0
3076 -1682 499 1477 -943 0
-3076 1682 0
-3076 -499 0
-3076 -1477 0
-3076 943 0
3077 -1684 721 1455 -921 0
-3077 1684 0
-3077 -721 0
-3077 -1455 0
-3077 921 0
3078 -1686 581 1413 -931 0
-3078 1686 0
-3078 -581 0
-3078 -1413 0
-3078 931 0
3079 -1688 487 1431 -953 0
-3079 1688 0
-3079 -487 0
-3079 -1431 0
-3079 953 0
3080 -1690 687 1452 -919 0
-3080 1690 0
-3080 -687 0
-3080 -1452 0
-3080 919 0
3081 -1694 545 1403 -957 0
-3081 1694 0
-3081 -545 0
-3081 -1403 0
-3081 957 0
3082 -1696 457 1459 -945 0
-3082 1696 0
-3082 -457 0
-3082 -1459 0
-3082 945 0
3083 -1698 631 1463 -917 0
-3083 1698 0
-3083 -631 0
-3083 -1463 0
-3083 917 0
3084 -1692 679 1481 -915 0
-3084 1692 0
-3084 -679 0
-3084 -1481 0
-3084 915 0
3085 -1700 713 1442 -951 0
-3085 1700 0
-3085 -713 0
-3085 -1442 0
-3085 951 0
3086 -1706 643 1485 -949 0
-3086 1706 0
-3086 -643 0
-3086 -1485 0
-3086 949 0
3087 -1710 667 1396 -959 0
-3087 1710 0
-3087 -667 0
-3087 -1396 0
-3087 959 0
3088 -1712 473 1427 -909 0
-3088 1712 0
-3088 -473 0
-3088 -1427 0
-3088 909 0
3089 -1704 561 1467 -927 0
-3089 1704 0
-3089 -561 0
-3089 -1467 0
-3089 927 0
3090 -1708 509 1438 -947 0
-3090 1708 0
-3090 -509 0
-3090 -1438 0
-3090 947 0
3091 -1714 519 1488 -923 0
-3091 1714 0
-3091 -519 0
-3091 -1488 0
-3091 923 0
3092 -1718 409 1494 -941 0
-3092 1718 0
-3092 -409 0
-3092 -1494 0
-3092 941 0
3093 -1720 423 1474 -961 0
-3093 1720 0
-3093 -423 0
-3093 -1474 0
-3093 961 0
1054 -1053 0
-1054 1053 0
3094 -1716 387 1435 -963 0
-3094 1716 0
-3094 -387 0
-3094 -1435 0
-3094 963 0
3095 -1724 447 1400 -913 0
-3095 1724 0
-3095 -447 0
-3095 -1400 0
-3095 913 0
3096 -1722 597 1449 -955 0
-3096 1722 0
-3096 -597 0
-3096 -1449 0
-3096 955 0
3097 -1726 571 1406 -925 0
-3097 1726 0
-3097 -571 0
-3097 -1406 0
-3097 925 0
3098 -1702 399 1491 -935 0
-3098 1702 0
-3098 -399 0
-3098 -1491 0
-3098 935 0
3099 -1728 701 1417 -911 0
-3099 1728 0
-3099 -701 0
-3099 -1417 0
-3099 911 0
3100 -1944 1946 1820 -1039 0
-3100 1944 0
-3100 -1946 0
-3100 -1820 0
-3100 1039 0
3101 -2004 2006 1824 -1047 0
-3101 2004 0
-3101 -2006 0
-3101 -1824 0
-3101 1047 0
3102 -2064 2066 1828 -1055 0
-3102 2064 0
-3102 -2066 0
-3102 -1828 0
-3102 1055 0
3103 -1744 1742 1833 -907 0
-3103 1744 0
-3103 -1742 0
-3103 -1833 0
-3103 907 0
3104 -1886 1884 1831 -1031 0
-3104 1886 0
-3104 -1884 0
-3104 -1831 0
-3104 1031 0
936 -935 0
-936 935 0
940 -939 0
-940 939 0
3105 -2026 279 1824 -1047 0
-3105 2026 0
-3105 -279 0
-3105 -1824 0
-3105 1047 0
3106 -2086 339 1828 -1055 0
-3106 2086 0
-3106 -339 0
-3106 -1828 0
-3106 1055 0
3107 -1906 159 1831 -1031 0
-3107 1906 0
-3107 -159 0
-3107 -1831 0
-3107 1031 0
3108 -1966 219 1820 -1039 0
-3108 1966 0
-3108 -219 0
-3108 -1820 0
-3108 1039 0
3109 -1783 61 1833 -907 0
-3109 1783 0
-3109 -61 0
-3109 -1833 0
-3109 907 0
3110 -1759 37 1833 -907 0
-3110 1759 0
-3110 -37 0
-3110 -1833 0
-3110 907 0
944 -943 0
-944 943 0
3111 -2014 267 1824 -1047 0
-3111 2014 0
-3111 -267 0
-3111 -1824 0
-3111 1047 0
3112 -1954 207 1820 -1039 0
-3112 1954 0
-3112 -207 0
-3112 -1820 0
-3112 1039 0
3113 -1894 147 1831 -1031 0
-3113 1894 0
-3113 -147 0
-3113 -1831 0
-3113 1031 0
3114 -2074 327 1828 -1055 0
-3114 2074 0
-3114 -327 0
-3114 -1828 0
-3114 1055 0
948 -947 0
-948 947 0
3115 -2016 269 1824 -1047 0
-3115 2016 0
-3115 -269 0
-3115 -1824 0
-3115 1047 0
3116 -1896 149 1831 -1031 0
-3116 1896 0
-3116 -149 0
-3116 -1831 0
-3116 1031 0
3117 -1956 209 1820 -1039 0
-3117 1956 0
-3117 -209 0
-3117 -1820 0
-3117 1039 0
3118 -2076 329 1828 -1055 0
-3118 2076 0
-3118 -329 0
-3118 -1828 0
-3118 1055 0
3119 -1763 41 1833 -907 0
-3119 1763 0
-3119 -41 0
-3119 -1833 0
-3119 907 0
3120 -1480 1481 -1057 0
-3120 1480 0
-3120 -1481 0
-3120 1057 0
3121 -2061 315 1824 -1047 0
-3121 2061 0
-3121 -315 0
-3121 -1824 0
-3121 1047 0
3122 -2121 375 1828 -1055 0
-3122 2121 0
-3122 -375 0
-3122 -1828 0
-3122 1055 0
3123 -1941 195 1831 -1031 0
-3123 1941 0
-3123 -195 0
-3123 -1831 0
-3123 1031 0
3124 -1869 131 1833 -907 0
-3124 1869 0
-3124 -131 0
-3124 -1833 0
-3124 907 0
952 -951 0
-952 951 0
3125 -2001 255 1820 -1039 0
-3125 2001 0
-3125 -255 0
-3125 -1820 0
-3125 1039 0
3126 -1912 165 1831 -1031 0
-3126 1912 0
-3126 -165 0
-3126 -1831 0
-3126 1031 0
956 -955 0
-956 955 0
3127 -2032 285 1824 -1047 0
-3127 2032 0
-3127 -285 0
-3127 -1824 0
-3127 1047 0
3128 -1972 225 1820 -1039 0
-3128 1972 0
-3128 -225 0
-3128 -1820 0
-3128 1039 0
3129 -2092 345 1828 -1055 0
-3129 2092 0
-3129 -345 0
-3129 -1828 0
-3129 1055 0
3130 -1795 73 1833 -907 0
-3130 1795 0
-3130 -73 0
-3130 -1833 0
-3130 907 0
3131 -2055 309 1824 -1047 0
-3131 2055 0
-3131 -309 0
-3131 -1824 0
-3131 1047 0
3132 -2138 401 1491 -1059 0
-3132 2138 0
-3132 -401 0
-3132 -1491 0
-3132 1059 0
3133 -2115 369 1828 -1055 0
-3133 2115 0
-3133 -369 0
-3133 -1828 0
-3133 1055 0
3134 -1995 249 1820 -1039 0
-3134 1995 0
-3134 -249 0
-3134 -1820 0
-3134 1039 0
3135 -1935 189 1831 -1031 0
-3135 1935 0
-3135 -189 0
-3135 -1831 0
-3135 1031 0
960 -959 0
-960 959 0
3136 -1857 119 1833 -907 0
-3136 1857 0
-3136 -119 0
-3136 -1833 0
-3136 907 0
3137 -2057 311 1824 -1047 0
-3137 2057 0
-3137 -311 0
-3137 -1824 0
-3137 1047 0
3138 -1861 123 1833 -907 0
-3138 1861 0
-3138 -123 0
-3138 -1833 0
-3138 907 0
3139 -1997 251 1820 -1039 0
-3139 1997 0
-3139 -251 0
-3139 -1820 0
-3139 1039 0
962 -961 0
-962 961 0
3140 -2117 371 1828 -1055 0
-3140 2117 0
-3140 -371 0
-3140 -1828 0
-3140 1055 0
3141 -1937 191 1831 -1031 0
-3141 1937 0
-3141 -191 0
-3141 -1831 0
-3141 1031 0
3142 -2338 723 1455 -1061 0
-3142 2338 0
-3142 -723 0
-3142 -1455 0
-3142 1061 0
3143 -1395 1396 -1081 0
-3143 1395 0
-3143 -1396 0
-3143 1081 0
3144 -1791 69 1833 -907 0
-3144 1791 0
-3144 -69 0
-3144 -1833 0
-3144 907 0
3145 -2090 343 1828 -1055 0
-3145 2090 0
-3145 -343 0
-3145 -1828 0
-3145 1055 0
3146 -1970 223 1820 -1039 0
-3146 1970 0
-3146 -223 0
-3146 -1820 0
-3146 1039 0
3147 -2030 283 1824 -1047 0
-3147 2030 0
-3147 -283 0
-3147 -1824 0
-3147 1047 0
3148 -1910 163 1831 -1031 0
-3148 1910 0
-3148 -163 0
-3148 -1831 0
-3148 1031 0
966 -965 0
-966 965 0
3149 -1466 1467 -1071 0
-3149 1466 0
-3149 -1467 0
-3149 1071 0
3150 -2206 511 1438 -1087 0
-3150 2206 0
-3150 -511 0
-3150 -1438 0
-3150 1087 0
3151 -2138 401 1491 -1075 0
-3151 2138 0
-3151 -401 0
-3151 -1491 0
-3151 1075 0
3152 -1744 1742 1833 -3 0
-3152 1744 0
-3152 -1742 0
-3152 -1833 0
-3152 3 0
3153 -2064 2066 1828 -19 0
-3153 2064 0
-3153 -2066 0
-3153 -1828 0
-3153 19 0
3154 -1944 1946 1820 -11 0
-3154 1944 0
-3154 -1946 0
-3154 -1820 0
-3154 11 0
3155 -1886 1884 1831 -7 0
-3155 1886 0
-3155 -1884 0
-3155 -1831 0
-3155 7 0
3156 -2004 2006 1824 -15 0
-3156 2004 0
-3156 -2006 0
-3156 -1824 0
-3156 15 0
994 -993 0
-994 993 0
3157 -1395 1396 -1099 0
-3157 1395 0
-3157 -1396 0
-3157 1099 0
3158 -1931 185 1831 -1025 0
-3158 1931 0
-3158 -185 0
-3158 -1831 0
-3158 1025 0
3159 -2051 305 1824 -1041 0
-3159 2051 0
-3159 -305 0
-3159 -1824 0
-3159 1041 0
734 -733 0
-734 733 0
3160 -1991 245 1820 -1033 0
-3160 1991 0
-3160 -245 0
-3160 -1820 0
-3160 1033 0
3161 -1849 113 1833 -727 0
-3161 1849 0
-3161 -113 0
-3161 -1833 0
-3161 727 0
3162 -2111 365 1828 -1049 0
-3162 2111 0
-3162 -365 0
-3162 -1828 0
-3162 1049 0
736 -735 0
-736 735 0
3163 -2040 293 1824 -1041 0
-3163 2040 0
-3163 -293 0
-3163 -1824 0
-3163 1041 0
3164 -1811 89 1833 -727 0
-3164 1811 0
-3164 -89 0
-3164 -1833 0
-3164 727 0
3165 -1980 233 1820 -1033 0
-3165 1980 0
-3165 -233 0
-3165 -1820 0
-3165 1033 0
3166 -1920 173 1831 -1025 0
-3166 1920 0
-3166 -173 0
-3166 -1831 0
-3166 1025 0
3167 -2100 353 1828 -1049 0
-3167 2100 0
-3167 -353 0
-3167 -1828 0
-3167 1049 0
3168 -2045 299 1824 -1041 0
-3168 2045 0
-3168 -299 0
-3168 -1824 0
-3168 1041 0
742 -741 0
-742 741 0
3169 -2105 359 1828 -1049 0
-3169 2105 0
-3169 -359 0
-3169 -1828 0
-3169 1049 0
3170 -1839 101 1833 -727 0
-3170 1839 0
-3170 -101 0
-3170 -1833 0
-3170 727 0
3171 -1925 179 1831 -1025 0
-3171 1925 0
-3171 -179 0
-3171 -1831 0
-3171 1025 0
3172 -1985 239 1820 -1033 0
-3172 1985 0
-3172 -239 0
-3172 -1820 0
-3172 1033 0
3173 -1962 215 1820 -1033 0
-3173 1962 0
-3173 -215 0
-3173 -1820 0
-3173 1033 0
3174 -2082 335 1828 -1049 0
-3174 2082 0
-3174 -335 0
-3174 -1828 0
-3174 1049 0
3175 -2022 275 1824 -1041 0
-3175 2022 0
-3175 -275 0
-3175 -1824 0
-3175 1041 0
746 -745 0
-746 745 0
3176 -1902 155 1831 -1025 0
-3176 1902 0
-3176 -155 0
-3176 -1831 0
-3176 1025 0
3177 -1775 53 1833 -727 0
-3177 1775 0
-3177 -53 0
-3177 -1833 0
-3177 727 0
3178 -2014 267 1824 -15 0
-3178 2014 0
-3178 -267 0
-3178 -1824 0
-3178 15 0
1002 -1001 0
-1002 1001 0
3179 -1759 37 1833 -3 0
-3179 1759 0
-3179 -37 0
-3179 -1833 0
-3179 3 0
3180 -1894 147 1831 -7 0
-3180 1894 0
-3180 -147 0
-3180 -1831 0
-3180 7 0
3181 -1954 207 1820 -11 0
-3181 1954 0
-3181 -207 0
-3181 -1820 0
-3181 11 0
3182 -2074 327 1828 -19 0
-3182 2074 0
-3182 -327 0
-3182 -1828 0
-3182 19 0
3183 -2094 347 1828 -1049 0
-3183 2094 0
-3183 -347 0
-3183 -1828 0
-3183 1049 0
3184 -1914 167 1831 -1025 0
-3184 1914 0
-3184 -167 0
-3184 -1831 0
-3184 1025 0
748 -747 0
-748 747 0
3185 -2034 287 1824 -1041 0
-3185 2034 0
-3185 -287 0
-3185 -1824 0
-3185 1041 0
3186 -1480 1481 -1109 0
-3186 1480 0
-3186 -1481 0
-3186 1109 0
3187 -1799 77 1833 -727 0
-3187 1799 0
-3187 -77 0
-3187 -1833 0
-3187 727 0
3188 -1974 227 1820 -1033 0
-3188 1974 0
-3188 -227 0
-3188 -1820 0
-3188 1033 0
1006 -1005 0
-1006 1005 0
3189 -1896 149 1831 -7 0
-3189 1896 0
-3189 -149 0
-3189 -1831 0
-3189 7 0
3190 -2076 329 1828 -19 0
-3190 2076 0
-3190 -329 0
-3190 -1828 0
-3190 19 0
3191 -1956 209 1820 -11 0
-3191 1956 0
-3191 -209 0
-3191 -1820 0
-3191 11 0
3192 -2016 269 1824 -15 0
-3192 2016 0
-3192 -269 0
-3192 -1824 0
-3192 15 0
3193 -1763 41 1833 -3 0
-3193 1763 0
-3193 -41 0
-3193 -1833 0
-3193 3 0
3194 -1886 1884 1831 -1025 0
-3194 1886 0
-3194 -1884 0
-3194 -1831 0
-3194 1025 0
3195 -1744 1742 1833 -727 0
-3195 1744 0
-3195 -1742 0
-3195 -1833 0
-3195 727 0
756 -755 0
-756 755 0
3196 -2004 2006 1824 -1041 0
-3196 2004 0
-3196 -2006 0
-3196 -1824 0
-3196 1041 0
3197 -1944 1946 1820 -1033 0
-3197 1944 0
-3197 -1946 0
-3197 -1820 0
-3197 1033 0
3198 -2064 2066 1828 -1049 0
-3198 2064 0
-3198 -2066 0
-3198 -1828 0
-3198 1049 0
760 -759 0
-760 759 0
3199 -2026 279 1824 -1041 0
-3199 2026 0
-3199 -279 0
-3199 -1824 0
-3199 1041 0
3200 -2086 339 1828 -1049 0
-3200 2086 0
-3200 -339 0
-3200 -1828 0
-3200 1049 0
3201 -1906 159 1831 -1025 0
-3201 1906 0
-3201 -159 0
-3201 -1831 0
-3201 1025 0
3202 -1966 219 1820 -1033 0
-3202 1966 0
-3202 -219 0
-3202 -1820 0
-3202 1033 0
3203 -1783 61 1833 -727 0
-3203 1783 0
-3203 -61 0
-3203 -1833 0
-3203 727 0
3204 -1759 37 1833 -727 0
-3204 1759 0
-3204 -37 0
-3204 -1833 0
-3204 727 0
764 -763 0
-764 763 0
3205 -2014 267 1824 -1041 0
-3205 2014 0
-3205 -267 0
-3205 -1824 0
-3205 1041 0
3206 -1954 207 1820 -1033 0
-3206 1954 0
-3206 -207 0
-3206 -1820 0
-3206 1033 0
3207 -1894 147 1831 -1025 0
-3207 1894 0
-3207 -147 0
-3207 -1831 0
-3207 1025 0
3208 -2074 327 1828 -1049 0
-3208 2074 0
-3208 -327 0
-3208 -1828 0
-3208 1049 0
768 -767 0
-768 767 0
3209 -2016 269 1824 -1041 0
-3209 2016 0
-3209 -269 0
-3209 -1824 0
-3209 1041 0
3210 -1896 149 1831 -1025 0
-3210 1896 0
-3210 -149 0
-3210 -1831 0
-3210 1025 0
3211 -2076 329 1828 -1049 0
-3211 2076 0
-3211 -329 0
-3211 -1828 0
-3211 1049 0
3212 -1956 209 1820 -1033 0
-3212 1956 0
-3212 -209 0
-3212 -1820 0
-3212 1033 0
3213 -1763 41 1833 -727 0
-3213 1763 0
-3213 -41 0
-3213 -1833 0
-3213 727 0
3214 -2338 723 1455 -1111 0
-3214 2338 0
-3214 -723 0
-3214 -1455 0
-3214 1111 0
3215 -2059 313 1824 -1041 0
-3215 2059 0
-3215 -313 0
-3215 -1824 0
-3215 1041 0
3216 -1865 127 1833 -727 0
-3216 1865 0
-3216 -127 0
-3216 -1833 0
-3216 727 0
3217 -2119 373 1828 -1049 0
-3217 2119 0
-3217 -373 0
-3217 -1828 0
-3217 1049 0
3218 -1939 193 1831 -1025 0
-3218 1939 0
-3218 -193 0
-3218 -1831 0
-3218 1025 0
770 -769 0
-770 769 0
3219 -1999 253 1820 -1033 0
-3219 1999 0
-3219 -253 0
-3219 -1820 0
-3219 1033 0
3220 -1869 131 1833 -727 0
-3220 1869 0
-3220 -131 0
-3220 -1833 0
-3220 727 0
3221 -1941 195 1831 -1025 0
-3221 1941 0
-3221 -195 0
-3221 -1831 0
-3221 1025 0
772 -771 0
-772 771 0
3222 -2001 255 1820 -1033 0
-3222 2001 0
-3222 -255 0
-3222 -1820 0
-3222 1033 0
3223 -2061 315 1824 -1041 0
-3223 2061 0
-3223 -315 0
-3223 -1824 0
-3223 1041 0
3224 -2121 375 1828 -1049 0
-3224 2121 0
-3224 -375 0
-3224 -1828 0
-3224 1049 0
3225 -1962 215 1820 -11 0
-3225 1962 0
-3225 -215 0
-3225 -1820 0
-3225 11 0
984 -983 0
-984 983 0
3226 -1775 53 1833 -3 0
-3226 1775 0
-3226 -53 0
-3226 -1833 0
-3226 3 0
3227 -2082 335 1828 -19 0
-3227 2082 0
-3227 -335 0
-3227 -1828 0
-3227 19 0
3228 -2022 275 1824 -15 0
-3228 2022 0
-3228 -275 0
-3228 -1824 0
-3228 15 0
3229 -1902 155 1831 -7 0
-3229 1902 0
-3229 -155 0
-3229 -1831 0
-3229 7 0
3230 -2092 345 1828 -1049 0
-3230 2092 0
-3230 -345 0
-3230 -1828 0
-3230 1049 0
3231 -1795 73 1833 -727 0
-3231 1795 0
-3231 -73 0
-3231 -1833 0
-3231 727 0
776 -775 0
-776 775 0
3232 -1972 225 1820 -1033 0
-3232 1972 0
-3232 -225 0
-3232 -1820 0
-3232 1033 0
3233 -1912 165 1831 -1025 0
-3233 1912 0
-3233 -165 0
-3233 -1831 0
-3233 1025 0
3234 -2032 285 1824 -1041 0
-3234 2032 0
-3234 -285 0
-3234 -1824 0
-3234 1041 0
3235 -2020 273 1824 -1041 0
-3235 2020 0
-3235 -273 0
-3235 -1824 0
-3235 1041 0
3236 -1900 153 1831 -1025 0
-3236 1900 0
-3236 -153 0
-3236 -1831 0
-3236 1025 0
3237 -2206 511 1438 -1127 0
-3237 2206 0
-3237 -511 0
-3237 -1438 0
-3237 1127 0
778 -777 0
-778 777 0
3238 -1466 1467 -1117 0
-3238 1466 0
-3238 -1467 0
-3238 1117 0
3239 -1771 49 1833 -727 0
-3239 1771 0
-3239 -49 0
-3239 -1833 0
-3239 727 0
3240 -2080 333 1828 -1049 0
-3240 2080 0
-3240 -333 0
-3240 -1828 0
-3240 1049 0
3241 -1960 213 1820 -1033 0
-3241 1960 0
-3241 -213 0
-3241 -1820 0
-3241 1033 0
3242 -2115 369 1828 -1049 0
-3242 2115 0
-3242 -369 0
-3242 -1828 0
-3242 1049 0
3243 -1995 249 1820 -1033 0
-3243 1995 0
-3243 -249 0
-3243 -1820 0
-3243 1033 0
3244 -1935 189 1831 -1025 0
-3244 1935 0
-3244 -189 0
-3244 -1831 0
-3244 1025 0
3245 -2055 309 1824 -1041 0
-3245 2055 0
-3245 -309 0
-3245 -1824 0
-3245 1041 0
3246 -2138 401 1491 -1121 0
-3246 2138 0
-3246 -401 0
-3246 -1491 0
-3246 1121 0
3247 -1857 119 1833 -727 0
-3247 1857 0
-3247 -119 0
-3247 -1833 0
-3247 727 0
780 -779 0
-780 779 0
3248 -2117 371 1828 -1049 0
-3248 2117 0
-3248 -371 0
-3248 -1828 0
-3248 1049 0
3249 -1997 251 1820 -1033 0
-3249 1997 0
-3249 -251 0
-3249 -1820 0
-3249 1033 0
3250 -2057 311 1824 -1041 0
-3250 2057 0
-3250 -311 0
-3250 -1824 0
-3250 1041 0
3251 -1937 191 1831 -1025 0
-3251 1937 0
-3251 -191 0
-3251 -1831 0
-3251 1025 0
3252 -1861 123 1833 -727 0
-3252 1861 0
-3252 -123 0
-3252 -1833 0
-3252 727 0
782 -781 0
-782 781 0
3253 -2086 339 1828 -19 0
-3253 2086 0
-3253 -339 0
-3253 -1828 0
-3253 19 0
3254 -1966 219 1820 -11 0
-3254 1966 0
-3254 -219 0
-3254 -1820 0
-3254 11 0
3255 -1783 61 1833 -3 0
-3255 1783 0
-3255 -61 0
-3255 -1833 0
-3255 3 0
998 -997 0
-998 997 0
3256 -2026 279 1824 -15 0
-3256 2026 0
-3256 -279 0
-3256 -1824 0
-3256 15 0
3257 -1906 159 1831 -7 0
-3257 1906 0
-3257 -159 0
-3257 -1831 0
-3257 7 0
3258 -1395 1396 -1139 0
-3258 1395 0
-3258 -1396 0
-3258 1139 0
3259 -1970 223 1820 -1033 0
-3259 1970 0
-3259 -223 0
-3259 -1820 0
-3259 1033 0
786 -785 0
-786 785 0
3260 -2090 343 1828 -1049 0
-3260 2090 0
-3260 -343 0
-3260 -1828 0
-3260 1049 0
3261 -1791 69 1833 -727 0
-3261 1791 0
-3261 -69 0
-3261 -1833 0
-3261 727 0
3262 -2030 283 1824 -1041 0
-3262 2030 0
-3262 -283 0
-3262 -1824 0
-3262 1041 0
3263 -1910 163 1831 -1025 0
-3263 1910 0
-3263 -163 0
-3263 -1831 0
-3263 1025 0
3264 -1849 113 1833 -787 0
-3264 1849 0
-3264 -113 0
-3264 -1833 0
-3264 787 0
3265 -1991 245 1820 -1035 0
-3265 1991 0
-3265 -245 0
-3265 -1820 0
-3265 1035 0
3266 -1931 185 1831 -1027 0
-3266 1931 0
-3266 -185 0
-3266 -1831 0
-3266 1027 0
3267 -2111 365 1828 -1051 0
-3267 2111 0
-3267 -365 0
-3267 -1828 0
-3267 1051 0
3268 -2051 305 1824 -1043 0
-3268 2051 0
-3268 -305 0
-3268 -1824 0
-3268 1043 0
794 -793 0
-794 793 0
3269 -2100 353 1828 -1051 0
-3269 2100 0
-3269 -353 0
-3269 -1828 0
-3269 1051 0
796 -795 0
-796 795 0
3270 -1920 173 1831 -1027 0
-3270 1920 0
-3270 -173 0
-3270 -1831 0
-3270 1027 0
3271 -2040 293 1824 -1043 0
-3271 2040 0
-3271 -293 0
-3271 -1824 0
-3271 1043 0
3272 -1980 233 1820 -1035 0
-3272 1980 0
-3272 -233 0
-3272 -1820 0
-3272 1035 0
3273 -1811 89 1833 -787 0
-3273 1811 0
-3273 -89 0
-3273 -1833 0
-3273 787 0
3274 -1839 101 1833 -787 0
-3274 1839 0
-3274 -101 0
-3274 -1833 0
-3274 787 0
3275 -1985 239 1820 -1035 0
-3275 1985 0
-3275 -239 0
-3275 -1820 0
-3275 1035 0
802 -801 0
-802 801 0
3276 -2105 359 1828 -1051 0
-3276 2105 0
-3276 -359 0
-3276 -1828 0
-3276 1051 0
3277 -2045 299 1824 -1043 0
-3277 2045 0
-3277 -299 0
-3277 -1824 0
-3277 1043 0
3278 -1925 179 1831 -1027 0
-3278 1925 0
-3278 -179 0
-3278 -1831 0
-3278 1027 0
1014 -1013 0
-1014 1013 0
3279 -1972 225 1820 -11 0
-3279 1972 0
-3279 -225 0
-3279 -1820 0
-3279 11 0
3280 -2092 345 1828 -19 0
-3280 2092 0
-3280 -345 0
-3280 -1828 0
-3280 19 0
3281 -1795 73 1833 -3 0
-3281 1795 0
-3281 -73 0
-3281 -1833 0
-3281 3 0
3282 -1912 165 1831 -7 0
-3282 1912 0
-3282 -165 0
-3282 -1831 0
-3282 7 0
3283 -2032 285 1824 -15 0
-3283 2032 0
-3283 -285 0
-3283 -1824 0
-3283 15 0
3284 -1775 53 1833 -787 0
-3284 1775 0
-3284 -53 0
-3284 -1833 0
-3284 787 0
3285 -2082 335 1828 -1051 0
-3285 2082 0
-3285 -335 0
-3285 -1828 0
-3285 1051 0
3286 -1962 215 1820 -1035 0
-3286 1962 0
-3286 -215 0
-3286 -1820 0
-3286 1035 0
806 -805 0
-806 805 0
3287 -2022 275 1824 -1043 0
-3287 2022 0
-3287 -275 0
-3287 -1824 0
-3287 1043 0
3288 -1902 155 1831 -1027 0
-3288 1902 0
-3288 -155 0
-3288 -1831 0
-3288 1027 0
3289 -1799 77 1833 -787 0
-3289 1799 0
-3289 -77 0
-3289 -1833 0
-3289 787 0
3290 -1480 1481 -1149 0
-3290 1480 0
-3290 -1481 0
-3290 1149 0
3291 -2094 347 1828 -1051 0
-3291 2094 0
-3291 -347 0
-3291 -1828 0
-3291 1051 0
3292 -2034 287 1824 -1043 0
-3292 2034 0
-3292 -287 0
-3292 -1824 0
-3292 1043 0
3293 -1914 167 1831 -1027 0
-3293 1914 0
-3293 -167 0
-3293 -1831 0
-3293 1027 0
3294 -1974 227 1820 -1035 0
-3294 1974 0
-3294 -227 0
-3294 -1820 0
-3294 1035 0
808 -807 0
-808 807 0
3295 -2064 2066 1828 -1051 0
-3295 2064 0
-3295 -2066 0
-3295 -1828 0
-3295 1051 0
3296 -2004 2006 1824 -1043 0
-3296 2004 0
-3296 -2006 0
-3296 -1824 0
-3296 1043 0
3297 -1744 1742 1833 -787 0
-3297 1744 0
-3297 -1742 0
-3297 -1833 0
-3297 787 0
3298 -1944 1946 1820 -1035 0
-3298 1944 0
-3298 -1946 0
-3298 -1820 0
-3298 1035 0
3299 -1886 1884 1831 -1027 0
-3299 1886 0
-3299 -1884 0
-3299 -1831 0
-3299 1027 0
816 -815 0
-816 815 0
3300 -1783 61 1833 -787 0
-3300 1783 0
-3300 -61 0
-3300 -1833 0
-3300 787 0
820 -819 0
-820 819 0
3301 -2026 279 1824 -1043 0
-3301 2026 0
-3301 -279 0
-3301 -1824 0
-3301 1043 0
3302 -2086 339 1828 -1051 0
-3302 2086 0
-3302 -339 0
-3302 -1828 0
-3302 1051 0
3303 -1906 159 1831 -1027 0
-3303 1906 0
-3303 -159 0
-3303 -1831 0
-3303 1027 0
3304 -1966 219 1820 -1035 0
-3304 1966 0
-3304 -219 0
-3304 -1820 0
-3304 1035 0
3305 -1954 207 1820 -1035 0
-3305 1954 0
-3305 -207 0
-3305 -1820 0
-3305 1035 0
3306 -2074 327 1828 -1051 0
-3306 2074 0
-3306 -327 0
-3306 -1828 0
-3306 1051 0
824 -823 0
-824 823 0
3307 -1759 37 1833 -787 0
-3307 1759 0
-3307 -37 0
-3307 -1833 0
-3307 787 0
3308 -2014 267 1824 -1043 0
-3308 2014 0
-3308 -267 0
-3308 -1824 0
-3308 1043 0
3309 -1894 147 1831 -1027 0
-3309 1894 0
-3309 -147 0
-3309 -1831 0
-3309 1027 0
3310 -1920 173 1831 -7 0
-3310 1920 0
-3310 -173 0
-3310 -1831 0
-3310 7 0
974 -973 0
-974 973 0
3311 -1811 89 1833 -3 0
-3311 1811 0
-3311 -89 0
-3311 -1833 0
-3311 3 0
3312 -2100 353 1828 -19 0
-3312 2100 0
-3312 -353 0
-3312 -1828 0
-3312 19 0
3313 -1980 233 1820 -11 0
-3313 1980 0
-3313 -233 0
-3313 -1820 0
-3313 11 0
3314 -2040 293 1824 -15 0
-3314 2040 0
-3314 -293 0
-3314 -1824 0
-3314 15 0
3315 -2016 269 1824 -1043 0
-3315 2016 0
-3315 -269 0
-3315 -1824 0
-3315 1043 0
3316 -1896 149 1831 -1027 0
-3316 1896 0
-3316 -149 0
-3316 -1831 0
-3316 1027 0
3317 -2076 329 1828 -1051 0
-3317 2076 0
-3317 -329 0
-3317 -1828 0
-3317 1051 0
3318 -1956 209 1820 -1035 0
-3318 1956 0
-3318 -209 0
-3318 -1820 0
-3318 1035 0
3319 -1763 41 1833 -787 0
-3319 1763 0
-3319 -41 0
-3319 -1833 0
-3319 787 0
828 -827 0
-828 827 0
3320 -1939 193 1831 -1027 0
-3320 1939 0
-3320 -193 0
-3320 -1831 0
-3320 1027 0
3321 -1865 127 1833 -787 0
-3321 1865 0
-3321 -127 0
-3321 -1833 0
-3321 787 0
3322 -2059 313 1824 -1043 0
-3322 2059 0
-3322 -313 0
-3322 -1824 0
-3322 1043 0
3323 -2338 723 1455 -1151 0
-3323 2338 0
-3323 -723 0
-3323 -1455 0
-3323 1151 0
3324 -2119 373 1828 -1051 0
-3324 2119 0
-3324 -373 0
-3324 -1828 0
-3324 1051 0
3325 -1999 253 1820 -1035 0
-3325 1999 0
-3325 -253 0
-3325 -1820 0
-3325 1035 0
830 -829 0
-830 829 0
832 -831 0
-832 831 0
3326 -1869 131 1833 -787 0
-3326 1869 0
-3326 -131 0
-3326 -1833 0
-3326 787 0
3327 -2001 255 1820 -1035 0
-3327 2001 0
-3327 -255 0
-3327 -1820 0
-3327 1035 0
3328 -2061 315 1824 -1043 0
-3328 2061 0
-3328 -315 0
-3328 -1824 0
-3328 1043 0
3329 -2121 375 1828 -1051 0
-3329 2121 0
-3329 -375 0
-3329 -1828 0
-3329 1051 0
3330 -1941 195 1831 -1027 0
-3330 1941 0
-3330 -195 0
-3330 -1831 0
-3330 1027 0
3331 -1795 73 1833 -787 0
-3331 1795 0
-3331 -73 0
-3331 -1833 0
-3331 787 0
3332 -1912 165 1831 -1027 0
-3332 1912 0
-3332 -165 0
-3332 -1831 0
-3332 1027 0
3333 -2032 285 1824 -1043 0
-3333 2032 0
-3333 -285 0
-3333 -1824 0
-3333 1043 0
836 -835 0
-836 835 0
3334 -1972 225 1820 -1035 0
-3334 1972 0
-3334 -225 0
-3334 -1820 0
-3334 1035 0
3335 -2092 345 1828 -1051 0
-3335 2092 0
-3335 -345 0
-3335 -1828 0
-3335 1051 0
3336 -2275 621 1445 -1143 0
-3336 2275 0
-3336 -621 0
-3336 -1445 0
-3336 1143 0
3337 -2103 357 1828 -19 0
-3337 2103 0
-3337 -357 0
-3337 -1828 0
-3337 19 0
988 -987 0
-988 987 0
3338 -1923 177 1831 -7 0
-3338 1923 0
-3338 -177 0
-3338 -1831 0
-3338 7 0
3339 -1983 237 1820 -11 0
-3339 1983 0
-3339 -237 0
-3339 -1820 0
-3339 11 0
3340 -2043 297 1824 -15 0
-3340 2043 0
-3340 -297 0
-3340 -1824 0
-3340 15 0
3341 -2199 501 1477 -1115 0
-3341 2199 0
-3341 -501 0
-3341 -1477 0
-3341 1115 0
3342 -1835 97 1833 -3 0
-3342 1835 0
-3342 -97 0
-3342 -1833 0
-3342 3 0
3343 -2055 309 1824 -1043 0
-3343 2055 0
-3343 -309 0
-3343 -1824 0
-3343 1043 0
840 -839 0
-840 839 0
3344 -1857 119 1833 -787 0
-3344 1857 0
-3344 -119 0
-3344 -1833 0
-3344 787 0
3345 -2138 401 1491 -1159 0
-3345 2138 0
-3345 -401 0
-3345 -1491 0
-3345 1159 0
3346 -2115 369 1828 -1051 0
-3346 2115 0
-3346 -369 0
-3346 -1828 0
-3346 1051 0
3347 -1995 249 1820 -1035 0
-3347 1995 0
-3347 -249 0
-3347 -1820 0
-3347 1035 0
3348 -1935 189 1831 -1027 0
-3348 1935 0
-3348 -189 0
-3348 -1831 0
-3348 1027 0
3349 -1861 123 1833 -787 0
-3349 1861 0
-3349 -123 0
-3349 -1833 0
-3349 787 0
3350 -2057 311 1824 -1043 0
-3350 2057 0
-3350 -311 0
-3350 -1824 0
-3350 1043 0
842 -841 0
-842 841 0
3351 -2117 371 1828 -1051 0
-3351 2117 0
-3351 -371 0
-3351 -1828 0
-3351 1051 0
3352 -1937 191 1831 -1027 0
-3352 1937 0
-3352 -191 0
-3352 -1831 0
-3352 1027 0
3353 -1997 251 1820 -1035 0
-3353 1997 0
-3353 -251 0
-3353 -1820 0
-3353 1035 0
3354 -2045 299 1824 -15 0
-3354 2045 0
-3354 -299 0
-3354 -1824 0
-3354 15 0
3355 -2105 359 1828 -19 0
-3355 2105 0
-3355 -359 0
-3355 -1828 0
-3355 19 0
3356 -1925 179 1831 -7 0
-3356 1925 0
-3356 -179 0
-3356 -1831 0
-3356 7 0
3357 -1839 101 1833 -3 0
-3357 1839 0
-3357 -101 0
-3357 -1833 0
-3357 3 0
3358 -1985 239 1820 -11 0
-3358 1985 0
-3358 -239 0
-3358 -1820 0
-3358 11 0
980 -979 0
-980 979 0
3359 -2080 333 1828 -1051 0
-3359 2080 0
-3359 -333 0
-3359 -1828 0
-3359 1051 0
3360 -2206 511 1438 -1167 0
-3360 2206 0
-3360 -511 0
-3360 -1438 0
-3360 1167 0
3361 -1960 213 1820 -1035 0
-3361 1960 0
-3361 -213 0
-3361 -1820 0
-3361 1035 0
3362 -2020 273 1824 -1043 0
-3362 2020 0
-3362 -273 0
-3362 -1824 0
-3362 1043 0
3363 -1900 153 1831 -1027 0
-3363 1900 0
-3363 -153 0
-3363 -1831 0
-3363 1027 0
3364 -1466 1467 -1157 0
-3364 1466 0
-3364 -1467 0
-3364 1157 0
838 -837 0
-838 837 0
3365 -1771 49 1833 -787 0
-3365 1771 0
-3365 -49 0
-3365 -1833 0
-3365 787 0
3366 -2030 283 1824 -1043 0
-3366 2030 0
-3366 -283 0
-3366 -1824 0
-3366 1043 0
3367 -1970 223 1820 -1035 0
-3367 1970 0
-3367 -223 0
-3367 -1820 0
-3367 1035 0
3368 -1395 1396 -1177 0
-3368 1395 0
-3368 -1396 0
-3368 1177 0
3369 -1910 163 1831 -1027 0
-3369 1910 0
-3369 -163 0
-3369 -1831 0
-3369 1027 0
846 -845 0
-846 845 0
3370 -1791 69 1833 -787 0
-3370 1791 0
-3370 -69 0
-3370 -1833 0
-3370 787 0
3371 -2090 343 1828 -1051 0
-3371 2090 0
-3371 -343 0
-3371 -1828 0
-3371 1051 0
3372 -1991 245 1820 -1037 0
-3372 1991 0
-3372 -245 0
-3372 -1820 0
-3372 1037 0
3373 -2111 365 1828 -1053 0
-3373 2111 0
-3373 -365 0
-3373 -1828 0
-3373 1053 0
3374 -1931 185 1831 -1029 0
-3374 1931 0
-3374 -185 0
-3374 -1831 0
-3374 1029 0
3375 -2051 305 1824 -1045 0
-3375 2051 0
-3375 -305 0
-3375 -1824 0
-3375 1045 0
854 -853 0
-854 853 0
3376 -1849 113 1833 -847 0
-3376 1849 0
-3376 -113 0
-3376 -1833 0
-3376 847 0
3377 -2040 293 1824 -1045 0
-3377 2040 0
-3377 -293 0
-3377 -1824 0
-3377 1045 0
3378 -1811 89 1833 -847 0
-3378 1811 0
-3378 -89 0
-3378 -1833 0
-3378 847 0
3379 -1920 173 1831 -1029 0
-3379 1920 0
-3379 -173 0
-3379 -1831 0
-3379 1029 0
3380 -1980 233 1820 -1037 0
-3380 1980 0
-3380 -233 0
-3380 -1820 0
-3380 1037 0
3381 -2100 353 1828 -1053 0
-3381 2100 0
-3381 -353 0
-3381 -1828 0
-3381 1053 0
856 -855 0
-856 855 0
3382 -1849 113 1833 -3 0
-3382 1849 0
-3382 -113 0
-3382 -1833 0
-3382 3 0
3383 -1991 245 1820 -11 0
-3383 1991 0
-3383 -245 0
-3383 -1820 0
-3383 11 0
3384 -1931 185 1831 -7 0
-3384 1931 0
-3384 -185 0
-3384 -1831 0
-3384 7 0
3385 -2111 365 1828 -19 0
-3385 2111 0
-3385 -365 0
-3385 -1828 0
-3385 19 0
3386 -2051 305 1824 -15 0
-3386 2051 0
-3386 -305 0
-3386 -1824 0
-3386 15 0
972 -971 0
-972 971 0
3387 -2105 359 1828 -1053 0
-3387 2105 0
-3387 -359 0
-3387 -1828 0
-3387 1053 0
3388 -1839 101 1833 -847 0
-3388 1839 0
-3388 -101 0
-3388 -1833 0
-3388 847 0
3389 -2045 299 1824 -1045 0
-3389 2045 0
-3389 -299 0
-3389 -1824 0
-3389 1045 0
3390 -1925 179 1831 -1029 0
-3390 1925 0
-3390 -179 0
-3390 -1831 0
-3390 1029 0
3391 -1985 239 1820 -1037 0
-3391 1985 0
-3391 -239 0
-3391 -1820 0
-3391 1037 0
862 -861 0
-862 861 0
866 -865 0
-866 865 0
3392 -1902 155 1831 -1029 0
-3392 1902 0
-3392 -155 0
-3392 -1831 0
-3392 1029 0
3393 -1775 53 1833 -847 0
-3393 1775 0
-3393 -53 0
-3393 -1833 0
-3393 847 0
3394 -2082 335 1828 -1053 0
-3394 2082 0
-3394 -335 0
-3394 -1828 0
-3394 1053 0
3395 -1962 215 1820 -1037 0
-3395 1962 0
-3395 -215 0
-3395 -1820 0
-3395 1037 0
3396 -2022 275 1824 -1045 0
-3396 2022 0
-3396 -275 0
-3396 -1824 0
-3396 1045 0
3397 -1799 77 1833 -847 0
-3397 1799 0
-3397 -77 0
-3397 -1833 0
-3397 847 0
3398 -1480 1481 -1189 0
-3398 1480 0
-3398 -1481 0
-3398 1189 0
3399 -2034 287 1824 -1045 0
-3399 2034 0
-3399 -287 0
-3399 -1824 0
-3399 1045 0
3400 -2094 347 1828 -1053 0
-3400 2094 0
-3400 -347 0
-3400 -1828 0
-3400 1053 0
3401 -1914 167 1831 -1029 0
-3401 1914 0
-3401 -167 0
-3401 -1831 0
-3401 1029 0
868 -867 0
-868 867 0
3402 -1974 227 1820 -1037 0
-3402 1974 0
-3402 -227 0
-3402 -1820 0
-3402 1037 0
3403 -2115 369 1828 -19 0
-3403 2115 0
-3403 -369 0
-3403 -1828 0
-3403 19 0
3404 -2138 401 1491 -1103 0
-3404 2138 0
-3404 -401 0
-3404 -1491 0
-3404 1103 0
1018 -1017 0
-1018 1017 0
3405 -1995 249 1820 -11 0
-3405 1995 0
-3405 -249 0
-3405 -1820 0
-3405 11 0
3406 -1857 119 1833 -3 0
-3406 1857 0
-3406 -119 0
-3406 -1833 0
-3406 3 0
3407 -1935 189 1831 -7 0
-3407 1935 0
-3407 -189 0
-3407 -1831 0
-3407 7 0
3408 -2055 309 1824 -15 0
-3408 2055 0
-3408 -309 0
-3408 -1824 0
-3408 15 0
876 -875 0
-876 875 0
3409 -1886 1884 1831 -1029 0
-3409 1886 0
-3409 -1884 0
-3409 -1831 0
-3409 1029 0
3410 -2004 2006 1824 -1045 0
-3410 2004 0
-3410 -2006 0
-3410 -1824 0
-3410 1045 0
3411 -1944 1946 1820 -1037 0
-3411 1944 0
-3411 -1946 0
-3411 -1820 0
-3411 1037 0
3412 -2064 2066 1828 -1053 0
-3412 2064 0
-3412 -2066 0
-3412 -1828 0
-3412 1053 0
3413 -1744 1742 1833 -847 0
-3413 1744 0
-3413 -1742 0
-3413 -1833 0
-3413 847 0
3414 -1997 251 1820 -11 0
-3414 1997 0
-3414 -251 0
-3414 -1820 0
-3414 11 0
3415 -1861 123 1833 -3 0
-3415 1861 0
-3415 -123 0
-3415 -1833 0
-3415 3 0
1020 -1019 0
-1020 1019 0
3416 -1937 191 1831 -7 0
-3416 1937 0
-3416 -191 0
-3416 -1831 0
-3416 7 0
3417 -2117 371 1828 -19 0
-3417 2117 0
-3417 -371 0
-3417 -1828 0
-3417 19 0
3418 -2057 311 1824 -15 0
-3418 2057 0
-3418 -311 0
-3418 -1824 0
-3418 15 0
3419 -2086 339 1828 -1053 0
-3419 2086 0
-3419 -339 0
-3419 -1828 0
-3419 1053 0
3420 -1906 159 1831 -1029 0
-3420 1906 0
-3420 -159 0
-3420 -1831 0
-3420 1029 0
3421 -1966 219 1820 -1037 0
-3421 1966 0
-3421 -219 0
-3421 -1820 0
-3421 1037 0
3422 -1783 61 1833 -847 0
-3422 1783 0
-3422 -61 0
-3422 -1833 0
-3422 847 0
880 -879 0
-880 879 0
3423 -2026 279 1824 -1045 0
-3423 2026 0
-3423 -279 0
-3423 -1824 0
-3423 1045 0
3424 -1894 147 1831 -1029 0
-3424 1894 0
-3424 -147 0
-3424 -1831 0
-3424 1029 0
3425 -1954 207 1820 -1037 0
-3425 1954 0
-3425 -207 0
-3425 -1820 0
-3425 1037 0
3426 -2074 327 1828 -1053 0
-3426 2074 0
-3426 -327 0
-3426 -1828 0
-3426 1053 0
3427 -1759 37 1833 -847 0
-3427 1759 0
-3427 -37 0
-3427 -1833 0
-3427 847 0
884 -883 0
-884 883 0
3428 -2014 267 1824 -1045 0
-3428 2014 0
-3428 -267 0
-3428 -1824 0
-3428 1045 0
3429 -1999 253 1820 -11 0
-3429 1999 0
-3429 -253 0
-3429 -1820 0
-3429 11 0
3430 -2059 313 1824 -15 0
-3430 2059 0
-3430 -313 0
-3430 -1824 0
-3430 15 0
3431 -1939 193 1831 -7 0
-3431 1939 0
-3431 -193 0
-3431 -1831 0
-3431 7 0
3432 -2119 373 1828 -19 0
-3432 2119 0
-3432 -373 0
-3432 -1828 0
-3432 19 0
1008 -1007 0
-1008 1007 0
3433 -1865 127 1833 -3 0
-3433 1865 0
-3433 -127 0
-3433 -1833 0
-3433 3 0
3434 -2338 723 1455 -1181 0
-3434 2338 0
-3434 -723 0
-3434 -1455 0
-3434 1181 0
3435 -2016 269 1824 -1045 0
-3435 2016 0
-3435 -269 0
-3435 -1824 0
-3435 1045 0
3436 -1896 149 1831 -1029 0
-3436 1896 0
-3436 -149 0
-3436 -1831 0
-3436 1029 0
3437 -1763 41 1833 -847 0
-3437 1763 0
-3437 -41 0
-3437 -1833 0
-3437 847 0
3438 -1956 209 1820 -1037 0
-3438 1956 0
-3438 -209 0
-3438 -1820 0
-3438 1037 0
888 -887 0
-888 887 0
3439 -2076 329 1828 -1053 0
-3439 2076 0
-3439 -329 0
-3439 -1828 0
-3439 1053 0
3440 -2001 255 1820 -11 0
-3440 2001 0
-3440 -255 0
-3440 -1820 0
-3440 11 0
3441 -2121 375 1828 -19 0
-3441 2121 0
-3441 -375 0
-3441 -1828 0
-3441 19 0
1010 -1009 0
-1010 1009 0
3442 -1869 131 1833 -3 0
-3442 1869 0
-3442 -131 0
-3442 -1833 0
-3442 3 0
3443 -2061 315 1824 -15 0
-3443 2061 0
-3443 -315 0
-3443 -1824 0
-3443 15 0
3444 -1941 195 1831 -7 0
-3444 1941 0
-3444 -195 0
-3444 -1831 0
-3444 7 0
3445 -2001 255 1820 -1037 0
-3445 2001 0
-3445 -255 0
-3445 -1820 0
-3445 1037 0
3446 -2061 315 1824 -1045 0
-3446 2061 0
-3446 -315 0
-3446 -1824 0
-3446 1045 0
3447 -2121 375 1828 -1053 0
-3447 2121 0
-3447 -375 0
-3447 -1828 0
-3447 1053 0
3448 -1941 195 1831 -1029 0
-3448 1941 0
-3448 -195 0
-3448 -1831 0
-3448 1029 0
892 -891 0
-892 891 0
3449 -1869 131 1833 -847 0
-3449 1869 0
-3449 -131 0
-3449 -1833 0
-3449 847 0
3450 -1999 253 1820 -1037 0
-3450 1999 0
-3450 -253 0
-3450 -1820 0
-3450 1037 0
3451 -1865 127 1833 -847 0
-3451 1865 0
-3451 -127 0
-3451 -1833 0
-3451 847 0
3452 -1939 193 1831 -1029 0
-3452 1939 0
-3452 -193 0
-3452 -1831 0
-3452 1029 0
3453 -2338 723 1455 -1193 0
-3453 2338 0
-3453 -723 0
-3453 -1455 0
-3453 1193 0
890 -889 0
-890 889 0
3454 -2059 313 1824 -1045 0
-3454 2059 0
-3454 -313 0
-3454 -1824 0
-3454 1045 0
3455 -2119 373 1828 -1053 0
-3455 2119 0
-3455 -373 0
-3455 -1828 0
-3455 1053 0
3456 -1972 225 1820 -1037 0
-3456 1972 0
-3456 -225 0
-3456 -1820 0
-3456 1037 0
896 -895 0
-896 895 0
3457 -1912 165 1831 -1029 0
-3457 1912 0
-3457 -165 0
-3457 -1831 0
-3457 1029 0
3458 -2032 285 1824 -1045 0
-3458 2032 0
-3458 -285 0
-3458 -1824 0
-3458 1045 0
3459 -1795 73 1833 -847 0
-3459 1795 0
-3459 -73 0
-3459 -1833 0
-3459 847 0
3460 -2092 345 1828 -1053 0
-3460 2092 0
-3460 -345 0
-3460 -1828 0
-3460 1053 0
3461 -2020 273 1824 -1045 0
-3461 2020 0
-3461 -273 0
-3461 -1824 0
-3461 1045 0
3462 -1900 153 1831 -1029 0
-3462 1900 0
-3462 -153 0
-3462 -1831 0
-3462 1029 0
3463 -1771 49 1833 -847 0
-3463 1771 0
-3463 -49 0
-3463 -1833 0
-3463 847 0
3464 -2206 511 1438 -1211 0
-3464 2206 0
-3464 -511 0
-3464 -1438 0
-3464 1211 0
898 -897 0
-898 897 0
3465 -1466 1467 -1197 0
-3465 1466 0
-3465 -1467 0
-3465 1197 0
3466 -2080 333 1828 -1053 0
-3466 2080 0
-3466 -333 0
-3466 -1828 0
-3466 1053 0
3467 -1960 213 1820 -1037 0
-3467 1960 0
-3467 -213 0
-3467 -1820 0
-3467 1037 0
3468 -1857 119 1833 -847 0
-3468 1857 0
-3468 -119 0
-3468 -1833 0
-3468 847 0
3469 -2055 309 1824 -1045 0
-3469 2055 0
-3469 -309 0
-3469 -1824 0
-3469 1045 0
3470 -2138 401 1491 -1201 0
-3470 2138 0
-3470 -401 0
-3470 -1491 0
-3470 1201 0
3471 -2115 369 1828 -1053 0
-3471 2115 0
-3471 -369 0
-3471 -1828 0
-3471 1053 0
900 -899 0
-900 899 0
3472 -1995 249 1820 -1037 0
-3472 1995 0
-3472 -249 0
-3472 -1820 0
-3472 1037 0
3473 -1935 189 1831 -1029 0
-3473 1935 0
-3473 -189 0
-3473 -1831 0
-3473 1029 0
3474 -1997 251 1820 -1037 0
-3474 1997 0
-3474 -251 0
-3474 -1820 0
-3474 1037 0
3475 -2057 311 1824 -1045 0
-3475 2057 0
-3475 -311 0
-3475 -1824 0
-3475 1045 0
3476 -1861 123 1833 -847 0
-3476 1861 0
-3476 -123 0
-3476 -1833 0
-3476 847 0
3477 -2117 371 1828 -1053 0
-3477 2117 0
-3477 -371 0
-3477 -1828 0
-3477 1053 0
902 -901 0
-902 901 0
3478 -1937 191 1831 -1029 0
-3478 1937 0
-3478 -191 0
-3478 -1831 0
-3478 1029 0
906 -905 0
-906 905 0
3479 -1791 69 1833 -847 0
-3479 1791 0
-3479 -69 0
-3479 -1833 0
-3479 847 0
3480 -2090 343 1828 -1053 0
-3480 2090 0
-3480 -343 0
-3480 -1828 0
-3480 1053 0
3481 -1970 223 1820 -1037 0
-3481 1970 0
-3481 -223 0
-3481 -1820 0
-3481 1037 0
3482 -2030 283 1824 -1045 0
-3482 2030 0
-3482 -283 0
-3482 -1824 0
-3482 1045 0
3483 -1910 163 1831 -1029 0
-3483 1910 0
-3483 -163 0
-3483 -1831 0
-3483 1029 0
3484 -1395 1396 -1223 0
-3484 1395 0
-3484 -1396 0
-3484 1223 0
3485 -1991 245 1820 -1039 0
-3485 1991 0
-3485 -245 0
-3485 -1820 0
-3485 1039 0
3486 -1931 185 1831 -1031 0
-3486 1931 0
-3486 -185 0
-3486 -1831 0
-3486 1031 0
3487 -2051 305 1824 -1047 0
-3487 2051 0
-3487 -305 0
-3487 -1824 0
-3487 1047 0
914 -913 0
-914 913 0
3488 -1849 113 1833 -907 0
-3488 1849 0
-3488 -113 0
-3488 -1833 0
-3488 907 0
3489 -2111 365 1828 -1055 0
-3489 2111 0
-3489 -365 0
-3489 -1828 0
-3489 1055 0
916 -915 0
-916 915 0
3490 -1811 89 1833 -907 0
-3490 1811 0
-3490 -89 0
-3490 -1833 0
-3490 907 0
3491 -1920 173 1831 -1031 0
-3491 1920 0
-3491 -173 0
-3491 -1831 0
-3491 1031 0
3492 -2040 293 1824 -1047 0
-3492 2040 0
-3492 -293 0
-3492 -1824 0
-3492 1047 0
3493 -1980 233 1820 -1039 0
-3493 1980 0
-3493 -233 0
-3493 -1820 0
-3493 1039 0
3494 -2100 353 1828 -1055 0
-3494 2100 0
-3494 -353 0
-3494 -1828 0
-3494 1055 0
3495 -2096 349 1828 -1055 0
-3495 2096 0
-3495 -349 0
-3495 -1828 0
-3495 1055 0
3496 -2297 657 1424 -1093 0
-3496 2297 0
-3496 -657 0
-3496 -1424 0
-3496 1093 0
920 -919 0
-920 919 0
3497 -1916 169 1831 -1031 0
-3497 1916 0
-3497 -169 0
-3497 -1831 0
-3497 1031 0
3498 -1976 229 1820 -1039 0
-3498 1976 0
-3498 -229 0
-3498 -1820 0
-3498 1039 0
3499 -2036 289 1824 -1047 0
-3499 2036 0
-3499 -289 0
-3499 -1824 0
-3499 1047 0
3500 -1803 81 1833 -907 0
-3500 1803 0
-3500 -81 0
-3500 -1833 0
-3500 907 0
3501 -2105 359 1828 -1055 0
-3501 2105 0
-3501 -359 0
-3501 -1828 0
-3501 1055 0
3502 -2045 299 1824 -1047 0
-3502 2045 0
-3502 -299 0
-3502 -1824 0
-3502 1047 0
3503 -1839 101 1833 -907 0
-3503 1839 0
-3503 -101 0
-3503 -1833 0
-3503 907 0
3504 -1925 179 1831 -1031 0
-3504 1925 0
-3504 -179 0
-3504 -1831 0
-3504 1031 0
3505 -1985 239 1820 -1039 0
-3505 1985 0
-3505 -239 0
-3505 -1820 0
-3505 1039 0
922 -921 0
-922 921 0
3506 -1775 53 1833 -907 0
-3506 1775 0
-3506 -53 0
-3506 -1833 0
-3506 907 0
3507 -2082 335 1828 -1055 0
-3507 2082 0
-3507 -335 0
-3507 -1828 0
-3507 1055 0
3508 -1962 215 1820 -1039 0
-3508 1962 0
-3508 -215 0
-3508 -1820 0
-3508 1039 0
3509 -2022 275 1824 -1047 0
-3509 2022 0
-3509 -275 0
-3509 -1824 0
-3509 1047 0
926 -925 0
-926 925 0
3510 -1902 155 1831 -1031 0
-3510 1902 0
-3510 -155 0
-3510 -1831 0
-3510 1031 0
3511 -1480 1481 -1231 0
-3511 1480 0
-3511 -1481 0
-3511 1231 0
3512 -1974 227 1820 -1039 0
-3512 1974 0
-3512 -227 0
-3512 -1820 0
-3512 1039 0
3513 -1799 77 1833 -907 0
-3513 1799 0
-3513 -77 0
-3513 -1833 0
-3513 907 0
928 -927 0
-928 927 0
3514 -2094 347 1828 -1055 0
-3514 2094 0
-3514 -347 0
-3514 -1828 0
-3514 1055 0
3515 -1914 167 1831 -1031 0
-3515 1914 0
-3515 -167 0
-3515 -1831 0
-3515 1031 0
3516 -2034 287 1824 -1047 0
-3516 2034 0
-3516 -287 0
-3516 -1824 0
-3516 1047 0
3517 -1835 97 1833 -907 0
-3517 1835 0
-3517 -97 0
-3517 -1833 0
-3517 907 0
3518 -1923 177 1831 -1031 0
-3518 1923 0
-3518 -177 0
-3518 -1831 0
-3518 1031 0
3519 -2103 357 1828 -1055 0
-3519 2103 0
-3519 -357 0
-3519 -1828 0
-3519 1055 0
3520 -2275 621 1445 -1063 0
-3520 2275 0
-3520 -621 0
-3520 -1445 0
-3520 1063 0
3521 -2043 297 1824 -1047 0
-3521 2043 0
-3521 -297 0
-3521 -1824 0
-3521 1047 0
930 -929 0
-930 929 0
3522 -1983 237 1820 -1039 0
-3522 1983 0
-3522 -237 0
-3522 -1820 0
-3522 1039 0
3523 -2199 501 1477 -1067 0
-3523 2199 0
-3523 -501 0
-3523 -1477 0
-3523 1067 0
3524 -1748 25 1833 -907 0
-3524 1748 0
-3524 -25 0
-3524 -1833 0
-3524 907 0
3525 -1473 1474 -1085 0
-3525 1473 0
-3525 -1474 0
-3525 1085 0
3526 -1948 201 1820 -1039 0
-3526 1948 0
-3526 -201 0
-3526 -1820 0
-3526 1039 0
942 -941 0
-942 941 0
3527 -2008 261 1824 -1047 0
-3527 2008 0
-3527 -261 0
-3527 -1824 0
-3527 1047 0
3528 -2068 321 1828 -1055 0
-3528 2068 0
-3528 -321 0
-3528 -1828 0
-3528 1055 0
3529 -1888 141 1831 -1031 0
-3529 1888 0
-3529 -141 0
-3529 -1831 0
-3529 1031 0
3530 -1865 127 1833 -907 0
-3530 1865 0
-3530 -127 0
-3530 -1833 0
-3530 907 0
3531 -1939 193 1831 -1031 0
-3531 1939 0
-3531 -193 0
-3531 -1831 0
-3531 1031 0
950 -949 0
-950 949 0
3532 -2338 723 1455 -1235 0
-3532 2338 0
-3532 -723 0
-3532 -1455 0
-3532 1235 0
3533 -2059 313 1824 -1047 0
-3533 2059 0
-3533 -313 0
-3533 -1824 0
-3533 1047 0
3534 -2119 373 1828 -1055 0
-3534 2119 0
-3534 -373 0
-3534 -1828 0
-3534 1055 0
3535 -1999 253 1820 -1039 0
-3535 1999 0
-3535 -253 0
-3535 -1820 0
-3535 1039 0
3536 -1900 153 1831 -1031 0
-3536 1900 0
-3536 -153 0
-3536 -1831 0
-3536 1031 0
3537 -1771 49 1833 -907 0
-3537 1771 0
-3537 -49 0
-3537 -1833 0
-3537 907 0
3538 -2080 333 1828 -1055 0
-3538 2080 0
-3538 -333 0
-3538 -1828 0
-3538 1055 0
958 -957 0
-958 957 0
3539 -2206 511 1438 -1069 0
-3539 2206 0
-3539 -511 0
-3539 -1438 0
-3539 1069 0
3540 -1466 1467 -1239 0
-3540 1466 0
-3540 -1467 0
-3540 1239 0
3541 -1960 213 1820 -1039 0
-3541 1960 0
-3541 -213 0
-3541 -1820 0
-3541 1039 0
3542 -2020 273 1824 -1047 0
-3542 2020 0
-3542 -273 0
-3542 -1824 0
-3542 1047 0
3543 -2231 551 1403 -1097 0
-3543 2231 0
-3543 -551 0
-3543 -1403 0
-3543 1097 0
3544 -2297 657 1424 -1105 0
-3544 2297 0
-3544 -657 0
-3544 -1424 0
-3544 1105 0
3545 -2199 501 1477 -1083 0
-3545 2199 0
-3545 -501 0
-3545 -1477 0
-3545 1083 0
3546 -2275 621 1445 -1079 0
-3546 2275 0
-3546 -621 0
-3546 -1445 0
-3546 1079 0
3547 -1462 1463 -1251 0
-3547 1462 0
-3547 -1463 0
-3547 1251 0
3548 -1484 1485 -1089 0
-3548 1484 0
-3548 -1485 0
-3548 1089 0
3549 -1473 1474 -1101 0
-3549 1473 0
-3549 -1474 0
-3549 1101 0
1000 -999 0
-1000 999 0
3550 -1473 1474 -1203 0
-3550 1473 0
-3550 -1474 0
-3550 1203 0
3551 -1888 141 1831 -7 0
-3551 1888 0
-3551 -141 0
-3551 -1831 0
-3551 7 0
3552 -1948 201 1820 -11 0
-3552 1948 0
-3552 -201 0
-3552 -1820 0
-3552 11 0
3553 -2068 321 1828 -19 0
-3553 2068 0
-3553 -321 0
-3553 -1828 0
-3553 19 0
3554 -1748 25 1833 -3 0
-3554 1748 0
-3554 -25 0
-3554 -1833 0
-3554 3 0
3555 -2008 261 1824 -15 0
-3555 2008 0
-3555 -261 0
-3555 -1824 0
-3555 15 0
3556 -2038 291 1824 -1041 0
-3556 2038 0
-3556 -291 0
-3556 -1824 0
-3556 1041 0
3557 -2098 351 1828 -1049 0
-3557 2098 0
-3557 -351 0
-3557 -1828 0
-3557 1049 0
3558 -2231 551 1403 -1137 0
-3558 2231 0
-3558 -551 0
-3558 -1403 0
-3558 1137 0
3559 -1807 85 1833 -727 0
-3559 1807 0
-3559 -85 0
-3559 -1833 0
-3559 727 0
3560 -1918 171 1831 -1025 0
-3560 1918 0
-3560 -171 0
-3560 -1831 0
-3560 1025 0
3561 -1978 231 1820 -1033 0
-3561 1978 0
-3561 -231 0
-3561 -1820 0
-3561 1033 0
738 -737 0
-738 737 0
3562 -1803 81 1833 -727 0
-3562 1803 0
-3562 -81 0
-3562 -1833 0
-3562 727 0
3563 -2096 349 1828 -1049 0
-3563 2096 0
-3563 -349 0
-3563 -1828 0
-3563 1049 0
3564 -2297 657 1424 -1145 0
-3564 2297 0
-3564 -657 0
-3564 -1424 0
-3564 1145 0
3565 -1916 169 1831 -1025 0
-3565 1916 0
-3565 -169 0
-3565 -1831 0
-3565 1025 0
740 -739 0
-740 739 0
3566 -2036 289 1824 -1041 0
-3566 2036 0
-3566 -289 0
-3566 -1824 0
-3566 1041 0
3567 -1976 229 1820 -1033 0
-3567 1976 0
-3567 -229 0
-3567 -1820 0
-3567 1033 0
3568 -2103 357 1828 -1049 0
-3568 2103 0
-3568 -357 0
-3568 -1828 0
-3568 1049 0
3569 -2275 621 1445 -1123 0
-3569 2275 0
-3569 -621 0
-3569 -1445 0
-3569 1123 0
3570 -1983 237 1820 -1033 0
-3570 1983 0
-3570 -237 0
-3570 -1820 0
-3570 1033 0
750 -749 0
-750 749 0
3571 -1835 97 1833 -727 0
-3571 1835 0
-3571 -97 0
-3571 -1833 0
-3571 727 0
3572 -1923 177 1831 -1025 0
-3572 1923 0
-3572 -177 0
-3572 -1831 0
-3572 1025 0
3573 -2043 297 1824 -1041 0
-3573 2043 0
-3573 -297 0
-3573 -1824 0
-3573 1041 0
3574 -2199 501 1477 -1125 0
-3574 2199 0
-3574 -501 0
-3574 -1477 0
-3574 1125 0
3575 -1787 65 1833 -727 0
-3575 1787 0
-3575 -65 0
-3575 -1833 0
-3575 727 0
3576 -1484 1485 -1129 0
-3576 1484 0
-3576 -1485 0
-3576 1129 0
3577 -1968 221 1820 -1033 0
-3577 1968 0
-3577 -221 0
-3577 -1820 0
-3577 1033 0
3578 -2088 341 1828 -1049 0
-3578 2088 0
-3578 -341 0
-3578 -1828 0
-3578 1049 0
3579 -1462 1463 -1263 0
-3579 1462 0
-3579 -1463 0
-3579 1263 0
3580 -1908 161 1831 -1025 0
-3580 1908 0
-3580 -161 0
-3580 -1831 0
-3580 1025 0
3581 -2028 281 1824 -1041 0
-3581 2028 0
-3581 -281 0
-3581 -1824 0
-3581 1041 0
754 -753 0
-754 753 0
3582 -1473 1474 -1141 0
-3582 1473 0
-3582 -1474 0
-3582 1141 0
3583 -1748 25 1833 -727 0
-3583 1748 0
-3583 -25 0
-3583 -1833 0
-3583 727 0
762 -761 0
-762 761 0
3584 -2068 321 1828 -1049 0
-3584 2068 0
-3584 -321 0
-3584 -1828 0
-3584 1049 0
3585 -1948 201 1820 -1033 0
-3585 1948 0
-3585 -201 0
-3585 -1820 0
-3585 1033 0
3586 -2008 261 1824 -1041 0
-3586 2008 0
-3586 -261 0
-3586 -1824 0
-3586 1041 0
3587 -1888 141 1831 -1025 0
-3587 1888 0
-3587 -141 0
-3587 -1831 0
-3587 1025 0
3588 -1958 211 1820 -11 0
-3588 1958 0
-3588 -211 0
-3588 -1820 0
-3588 11 0
3589 -1767 45 1833 -3 0
-3589 1767 0
-3589 -45 0
-3589 -1833 0
-3589 3 0
3590 -2018 271 1824 -15 0
-3590 2018 0
-3590 -271 0
-3590 -1824 0
-3590 15 0
3591 -1409 1410 -1175 0
-3591 1409 0
-3591 -1410 0
-3591 1175 0
3592 -2078 331 1828 -19 0
-3592 2078 0
-3592 -331 0
-3592 -1828 0
-3592 19 0
982 -981 0
-982 981 0
3593 -1898 151 1831 -7 0
-3593 1898 0
-3593 -151 0
-3593 -1831 0
-3593 7 0
3594 -1807 85 1833 -787 0
-3594 1807 0
-3594 -85 0
-3594 -1833 0
-3594 787 0
3595 -1918 171 1831 -1027 0
-3595 1918 0
-3595 -171 0
-3595 -1831 0
-3595 1027 0
3596 -1978 231 1820 -1035 0
-3596 1978 0
-3596 -231 0
-3596 -1820 0
-3596 1035 0
3597 -2231 551 1403 -1183 0
-3597 2231 0
-3597 -551 0
-3597 -1403 0
-3597 1183 0
798 -797 0
-798 797 0
3598 -2038 291 1824 -1043 0
-3598 2038 0
-3598 -291 0
-3598 -1824 0
-3598 1043 0
3599 -2098 351 1828 -1051 0
-3599 2098 0
-3599 -351 0
-3599 -1828 0
-3599 1051 0
3600 -1803 81 1833 -787 0
-3600 1803 0
-3600 -81 0
-3600 -1833 0
-3600 787 0
3601 -2096 349 1828 -1051 0
-3601 2096 0
-3601 -349 0
-3601 -1828 0
-3601 1051 0
3602 -1916 169 1831 -1027 0
-3602 1916 0
-3602 -169 0
-3602 -1831 0
-3602 1027 0
800 -799 0
-800 799 0
3603 -1976 229 1820 -1035 0
-3603 1976 0
-3603 -229 0
-3603 -1820 0
-3603 1035 0
3604 -2297 657 1424 -1185 0
-3604 2297 0
-3604 -657 0
-3604 -1424 0
-3604 1185 0
3605 -2036 289 1824 -1043 0
-3605 2036 0
-3605 -289 0
-3605 -1824 0
-3605 1043 0
810 -809 0
-810 809 0
3606 -1983 237 1820 -1035 0
-3606 1983 0
-3606 -237 0
-3606 -1820 0
-3606 1035 0
3607 -2199 501 1477 -1163 0
-3607 2199 0
-3607 -501 0
-3607 -1477 0
-3607 1163 0
3608 -1835 97 1833 -787 0
-3608 1835 0
-3608 -97 0
-3608 -1833 0
-3608 787 0
3609 -1923 177 1831 -1027 0
-3609 1923 0
-3609 -177 0
-3609 -1831 0
-3609 1027 0
3610 -2275 621 1445 -1161 0
-3610 2275 0
-3610 -621 0
-3610 -1445 0
-3610 1161 0
3611 -2103 357 1828 -1051 0
-3611 2103 0
-3611 -357 0
-3611 -1828 0
-3611 1051 0
3612 -2043 297 1824 -1043 0
-3612 2043 0
-3612 -297 0
-3612 -1824 0
-3612 1043 0
3613 -1799 77 1833 -3 0
-3613 1799 0
-3613 -77 0
-3613 -1833 0
-3613 3 0
3614 -1974 227 1820 -11 0
-3614 1974 0
-3614 -227 0
-3614 -1820 0
-3614 11 0
3615 -1914 167 1831 -7 0
-3615 1914 0
-3615 -167 0
-3615 -1831 0
-3615 7 0
3616 -2034 287 1824 -15 0
-3616 2034 0
-3616 -287 0
-3616 -1824 0
-3616 15 0
3617 -2094 347 1828 -19 0
-3617 2094 0
-3617 -347 0
-3617 -1828 0
-3617 19 0
3618 -1480 1481 -1165 0
-3618 1480 0
-3618 -1481 0
-3618 1165 0
986 -985 0
-986 985 0
3619 -1395 1396 -1199 0
-3619 1395 0
-3619 -1396 0
-3619 1199 0
3620 -1970 223 1820 -11 0
-3620 1970 0
-3620 -223 0
-3620 -1820 0
-3620 11 0
1024 -1023 0
-1024 1023 0
3621 -2030 283 1824 -15 0
-3621 2030 0
-3621 -283 0
-3621 -1824 0
-3621 15 0
3622 -2090 343 1828 -19 0
-3622 2090 0
-3622 -343 0
-3622 -1828 0
-3622 19 0
3623 -1910 163 1831 -7 0
-3623 1910 0
-3623 -163 0
-3623 -1831 0
-3623 7 0
3624 -1791 69 1833 -3 0
-3624 1791 0
-3624 -69 0
-3624 -1833 0
-3624 3 0
3625 -1484 1485 -1169 0
-3625 1484 0
-3625 -1485 0
-3625 1169 0
814 -813 0
-814 813 0
3626 -1462 1463 -1275 0
-3626 1462 0
-3626 -1463 0
-3626 1275 0
3627 -1787 65 1833 -787 0
-3627 1787 0
-3627 -65 0
-3627 -1833 0
-3627 787 0
3628 -2088 341 1828 -1051 0
-3628 2088 0
-3628 -341 0
-3628 -1828 0
-3628 1051 0
3629 -1968 221 1820 -1035 0
-3629 1968 0
-3629 -221 0
-3629 -1820 0
-3629 1035 0
3630 -1908 161 1831 -1027 0
-3630 1908 0
-3630 -161 0
-3630 -1831 0
-3630 1027 0
3631 -2028 281 1824 -1043 0
-3631 2028 0
-3631 -281 0
-3631 -1824 0
-3631 1043 0
3632 -1748 25 1833 -787 0
-3632 1748 0
-3632 -25 0
-3632 -1833 0
-3632 787 0
3633 -2068 321 1828 -1051 0
-3633 2068 0
-3633 -321 0
-3633 -1828 0
-3633 1051 0
3634 -1948 201 1820 -1035 0
-3634 1948 0
-3634 -201 0
-3634 -1820 0
-3634 1035 0
3635 -2008 261 1824 -1043 0
-3635 2008 0
-3635 -261 0
-3635 -1824 0
-3635 1043 0
822 -821 0
-822 821 0
3636 -1888 141 1831 -1027 0
-3636 1888 0
-3636 -141 0
-3636 -1831 0
-3636 1027 0
3637 -1473 1474 -1179 0
-3637 1473 0
-3637 -1474 0
-3637 1179 0
858 -857 0
-858 857 0
3638 -2038 291 1824 -1045 0
-3638 2038 0
-3638 -291 0
-3638 -1824 0
-3638 1045 0
3639 -1807 85 1833 -847 0
-3639 1807 0
-3639 -85 0
-3639 -1833 0
-3639 847 0
3640 -2231 551 1403 -1221 0
-3640 2231 0
-3640 -551 0
-3640 -1403 0
-3640 1221 0
3641 -2098 351 1828 -1053 0
-3641 2098 0
-3641 -351 0
-3641 -1828 0
-3641 1053 0
3642 -1918 171 1831 -1029 0
-3642 1918 0
-3642 -171 0
-3642 -1831 0
-3642 1029 0
3643 -1978 231 1820 -1037 0
-3643 1978 0
-3643 -231 0
-3643 -1820 0
-3643 1037 0
3644 -2297 657 1424 -1227 0
-3644 2297 0
-3644 -657 0
-3644 -1424 0
-3644 1227 0
3645 -1803 81 1833 -847 0
-3645 1803 0
-3645 -81 0
-3645 -1833 0
-3645 847 0
3646 -2096 349 1828 -1053 0
-3646 2096 0
-3646 -349 0
-3646 -1828 0
-3646 1053 0
860 -859 0
-860 859 0
3647 -1916 169 1831 -1029 0
-3647 1916 0
-3647 -169 0
-3647 -1831 0
-3647 1029 0
3648 -2036 289 1824 -1045 0
-3648 2036 0
-3648 -289 0
-3648 -1824 0
-3648 1045 0
3649 -1976 229 1820 -1037 0
-3649 1976 0
-3649 -229 0
-3649 -1820 0
-3649 1037 0
3650 -2043 297 1824 -1045 0
-3650 2043 0
-3650 -297 0
-3650 -1824 0
-3650 1045 0
870 -869 0
-870 869 0
3651 -1983 237 1820 -1037 0
-3651 1983 0
-3651 -237 0
-3651 -1820 0
-3651 1037 0
3652 -2199 501 1477 -1207 0
-3652 2199 0
-3652 -501 0
-3652 -1477 0
-3652 1207 0
3653 -1835 97 1833 -847 0
-3653 1835 0
-3653 -97 0
-3653 -1833 0
-3653 847 0
3654 -1923 177 1831 -1029 0
-3654 1923 0
-3654 -177 0
-3654 -1831 0
-3654 1029 0
3655 -2275 621 1445 -1205 0
-3655 2275 0
-3655 -621 0
-3655 -1445 0
-3655 1205 0
3656 -2103 357 1828 -1053 0
-3656 2103 0
-3656 -357 0
-3656 -1828 0
-3656 1053 0
804 -803 0
-804 803 0
3657 -2078 331 1828 -1051 0
-3657 2078 0
-3657 -331 0
-3657 -1828 0
-3657 1051 0
3658 -2018 271 1824 -1043 0
-3658 2018 0
-3658 -271 0
-3658 -1824 0
-3658 1043 0
3659 -1409 1410 -1279 0
-3659 1409 0
-3659 -1410 0
-3659 1279 0
3660 -1958 211 1820 -1035 0
-3660 1958 0
-3660 -211 0
-3660 -1820 0
-3660 1035 0
3661 -1767 45 1833 -787 0
-3661 1767 0
-3661 -45 0
-3661 -1833 0
-3661 787 0
3662 -1898 151 1831 -1027 0
-3662 1898 0
-3662 -151 0
-3662 -1831 0
-3662 1027 0
3663 -1473 1474 -1225 0
-3663 1473 0
-3663 -1474 0
-3663 1225 0
3664 -1748 25 1833 -847 0
-3664 1748 0
-3664 -25 0
-3664 -1833 0
-3664 847 0
3665 -2008 261 1824 -1045 0
-3665 2008 0
-3665 -261 0
-3665 -1824 0
-3665 1045 0
882 -881 0
-882 881 0
3666 -1948 201 1820 -1037 0
-3666 1948 0
-3666 -201 0
-3666 -1820 0
-3666 1037 0
3667 -2068 321 1828 -1053 0
-3667 2068 0
-3667 -321 0
-3667 -1828 0
-3667 1053 0
3668 -1888 141 1831 -1029 0
-3668 1888 0
-3668 -141 0
-3668 -1831 0
-3668 1029 0
3669 -1448 1449 -1173 0
-3669 1448 0
-3669 -1449 0
-3669 1173 0
3670 -1779 57 1833 -787 0
-3670 1779 0
-3670 -57 0
-3670 -1833 0
-3670 787 0
3671 -1420 1421 -1285 0
-3671 1420 0
-3671 -1421 0
-3671 1285 0
3672 -2084 337 1828 -1051 0
-3672 2084 0
-3672 -337 0
-3672 -1828 0
-3672 1051 0
3673 -2024 277 1824 -1043 0
-3673 2024 0
-3673 -277 0
-3673 -1824 0
-3673 1043 0
3674 -1904 157 1831 -1027 0
-3674 1904 0
-3674 -157 0
-3674 -1831 0
-3674 1027 0
3675 -1964 217 1820 -1035 0
-3675 1964 0
-3675 -217 0
-3675 -1820 0
-3675 1035 0
812 -811 0
-812 811 0
3676 -2038 291 1824 -1047 0
-3676 2038 0
-3676 -291 0
-3676 -1824 0
-3676 1047 0
3677 -1807 85 1833 -907 0
-3677 1807 0
-3677 -85 0
-3677 -1833 0
-3677 907 0
3678 -2098 351 1828 -1055 0
-3678 2098 0
-3678 -351 0
-3678 -1828 0
-3678 1055 0
3679 -1918 171 1831 -1031 0
-3679 1918 0
-3679 -171 0
-3679 -1831 0
-3679 1031 0
3680 -1978 231 1820 -1039 0
-3680 1978 0
-3680 -231 0
-3680 -1820 0
-3680 1039 0
3681 -2231 551 1403 -1247 0
-3681 2231 0
-3681 -551 0
-3681 -1403 0
-3681 1247 0
918 -917 0
-918 917 0
924 -923 0
-924 923 0
3682 -2018 271 1824 -1047 0
-3682 2018 0
-3682 -271 0
-3682 -1824 0
-3682 1047 0
3683 -1767 45 1833 -907 0
-3683 1767 0
-3683 -45 0
-3683 -1833 0
-3683 907 0
3684 -1958 211 1820 -1039 0
-3684 1958 0
-3684 -211 0
-3684 -1820 0
-3684 1039 0
3685 -1409 1410 -1241 0
-3685 1409 0
-3685 -1410 0
-3685 1241 0
3686 -2078 331 1828 -1055 0
-3686 2078 0
-3686 -331 0
-3686 -1828 0
-3686 1055 0
3687 -1898 151 1831 -1031 0
-3687 1898 0
-3687 -151 0
-3687 -1831 0
-3687 1031 0
3688 -2088 341 1828 -1055 0
-3688 2088 0
-3688 -341 0
-3688 -1828 0
-3688 1055 0
3689 -1787 65 1833 -907 0
-3689 1787 0
-3689 -65 0
-3689 -1833 0
-3689 907 0
3690 -1908 161 1831 -1031 0
-3690 1908 0
-3690 -161 0
-3690 -1831 0
-3690 1031 0
3691 -1968 221 1820 -1039 0
-3691 1968 0
-3691 -221 0
-3691 -1820 0
-3691 1039 0
3692 -1484 1485 -1245 0
-3692 1484 0
-3692 -1485 0
-3692 1245 0
934 -933 0
-934 933 0
3693 -2028 281 1824 -1047 0
-3693 2028 0
-3693 -281 0
-3693 -1824 0
-3693 1047 0
3694 -1462 1463 -1301 0
-3694 1462 0
-3694 -1463 0
-3694 1301 0
946 -945 0
-946 945 0
3695 -1927 181 1831 -1031 0
-3695 1927 0
-3695 -181 0
-3695 -1831 0
-3695 1031 0
3696 -2214 523 1488 -1303 0
-3696 2214 0
-3696 -523 0
-3696 -1488 0
-3696 1303 0
3697 -2047 301 1824 -1047 0
-3697 2047 0
-3697 -301 0
-3697 -1824 0
-3697 1047 0
3698 -1987 241 1820 -1039 0
-3698 1987 0
-3698 -241 0
-3698 -1820 0
-3698 1039 0
3699 -1843 105 1833 -907 0
-3699 1843 0
-3699 -105 0
-3699 -1833 0
-3699 907 0
3700 -2107 361 1828 -1055 0
-3700 2107 0
-3700 -361 0
-3700 -1828 0
-3700 1055 0
3701 -2245 573 1406 -1237 0
-3701 2245 0
-3701 -573 0
-3701 -1406 0
-3701 1237 0
3702 -2318 691 1452 -1233 0
-3702 2318 0
-3702 -691 0
-3702 -1452 0
-3702 1233 0
3703 -2146 413 1494 -1243 0
-3703 2146 0
-3703 -413 0
-3703 -1494 0
-3703 1243 0
3704 -2036 289 1824 -15 0
-3704 2036 0
-3704 -289 0
-3704 -1824 0
-3704 15 0
3705 -2096 349 1828 -19 0
-3705 2096 0
-3705 -349 0
-3705 -1828 0
-3705 19 0
978 -977 0
-978 977 0
3706 -1976 229 1820 -11 0
-3706 1976 0
-3706 -229 0
-3706 -1820 0
-3706 11 0
3707 -2297 657 1424 -1283 0
-3707 2297 0
-3707 -657 0
-3707 -1424 0
-3707 1283 0
3708 -1803 81 1833 -3 0
-3708 1803 0
-3708 -81 0
-3708 -1833 0
-3708 3 0
3709 -1916 169 1831 -7 0
-3709 1916 0
-3709 -169 0
-3709 -1831 0
-3709 7 0
752 -751 0
-752 751 0
3710 -1904 157 1831 -1025 0
-3710 1904 0
-3710 -157 0
-3710 -1831 0
-3710 1025 0
3711 -1964 217 1820 -1033 0
-3711 1964 0
-3711 -217 0
-3711 -1820 0
-3711 1033 0
3712 -1448 1449 -1135 0
-3712 1448 0
-3712 -1449 0
-3712 1135 0
3713 -1779 57 1833 -727 0
-3713 1779 0
-3713 -57 0
-3713 -1833 0
-3713 727 0
3714 -2084 337 1828 -1049 0
-3714 2084 0
-3714 -337 0
-3714 -1828 0
-3714 1049 0
3715 -1420 1421 -1269 0
-3715 1420 0
-3715 -1421 0
-3715 1269 0
3716 -2024 277 1824 -1041 0
-3716 2024 0
-3716 -277 0
-3716 -1824 0
-3716 1041 0
3717 -1466 1467 -1281 0
-3717 1466 0
-3717 -1467 0
-3717 1281 0
3718 -1771 49 1833 -3 0
-3718 1771 0
-3718 -49 0
-3718 -1833 0
-3718 3 0
1016 -1015 0
-1016 1015 0
3719 -2020 273 1824 -15 0
-3719 2020 0
-3719 -273 0
-3719 -1824 0
-3719 15 0
3720 -2206 511 1438 -1119 0
-3720 2206 0
-3720 -511 0
-3720 -1438 0
-3720 1119 0
3721 -2080 333 1828 -19 0
-3721 2080 0
-3721 -333 0
-3721 -1828 0
-3721 19 0
3722 -1900 153 1831 -7 0
-3722 1900 0
-3722 -153 0
-3722 -1831 0
-3722 7 0
3723 -1960 213 1820 -11 0
-3723 1960 0
-3723 -213 0
-3723 -1820 0
-3723 11 0
3724 -1767 45 1833 -847 0
-3724 1767 0
-3724 -45 0
-3724 -1833 0
-3724 847 0
3725 -2078 331 1828 -1053 0
-3725 2078 0
-3725 -331 0
-3725 -1828 0
-3725 1053 0
3726 -1898 151 1831 -1029 0
-3726 1898 0
-3726 -151 0
-3726 -1831 0
-3726 1029 0
3727 -2018 271 1824 -1045 0
-3727 2018 0
-3727 -271 0
-3727 -1824 0
-3727 1045 0
864 -863 0
-864 863 0
3728 -1958 211 1820 -1037 0
-3728 1958 0
-3728 -211 0
-3728 -1820 0
-3728 1037 0
3729 -1409 1410 -1293 0
-3729 1409 0
-3729 -1410 0
-3729 1293 0
3730 -1409 1410 -1255 0
-3730 1409 0
-3730 -1410 0
-3730 1255 0
3731 -1448 1449 -1095 0
-3731 1448 0
-3731 -1449 0
-3731 1095 0
3732 -1420 1421 -1257 0
-3732 1420 0
-3732 -1421 0
-3732 1257 0
3733 -1787 65 1833 -847 0
-3733 1787 0
-3733 -65 0
-3733 -1833 0
-3733 847 0
3734 -2088 341 1828 -1053 0
-3734 2088 0
-3734 -341 0
-3734 -1828 0
-3734 1053 0
874 -873 0
-874 873 0
3735 -1484 1485 -1217 0
-3735 1484 0
-3735 -1485 0
-3735 1217 0
3736 -1968 221 1820 -1037 0
-3736 1968 0
-3736 -221 0
-3736 -1820 0
-3736 1037 0
3737 -1908 161 1831 -1029 0
-3737 1908 0
-3737 -161 0
-3737 -1831 0
-3737 1029 0
3738 -1462 1463 -1289 0
-3738 1462 0
-3738 -1463 0
-3738 1289 0
3739 -2028 281 1824 -1045 0
-3739 2028 0
-3739 -281 0
-3739 -1824 0
-3739 1045 0
3740 -2146 413 1494 -1259 0
-3740 2146 0
-3740 -413 0
-3740 -1494 0
-3740 1259 0
3741 -2318 691 1452 -1253 0
-3741 2318 0
-3741 -691 0
-3741 -1452 0
-3741 1253 0
3742 -2245 573 1406 -1065 0
-3742 2245 0
-3742 -573 0
-3742 -1406 0
-3742 1065 0
3743 -2214 523 1488 -1317 0
-3743 2214 0
-3743 -523 0
-3743 -1488 0
-3743 1317 0
3744 -2053 307 1824 -1041 0
-3744 2053 0
-3744 -307 0
-3744 -1824 0
-3744 1041 0
3745 -2254 587 1413 -1311 0
-3745 2254 0
-3745 -587 0
-3745 -1413 0
-3745 1311 0
732 -731 0
-732 731 0
3746 -2113 367 1828 -1049 0
-3746 2113 0
-3746 -367 0
-3746 -1828 0
-3746 1049 0
3747 -1853 115 1833 -727 0
-3747 1853 0
-3747 -115 0
-3747 -1833 0
-3747 727 0
3748 -1993 247 1820 -1033 0
-3748 1993 0
-3748 -247 0
-3748 -1820 0
-3748 1033 0
3749 -1933 187 1831 -1025 0
-3749 1933 0
-3749 -187 0
-3749 -1831 0
-3749 1025 0
3750 -1767 45 1833 -727 0
-3750 1767 0
-3750 -45 0
-3750 -1833 0
-3750 727 0
3751 -1409 1410 -1267 0
-3751 1409 0
-3751 -1410 0
-3751 1267 0
3752 -2078 331 1828 -1049 0
-3752 2078 0
-3752 -331 0
-3752 -1828 0
-3752 1049 0
3753 -1898 151 1831 -1025 0
-3753 1898 0
-3753 -151 0
-3753 -1831 0
-3753 1025 0
744 -743 0
-744 743 0
3754 -2018 271 1824 -1041 0
-3754 2018 0
-3754 -271 0
-3754 -1824 0
-3754 1041 0
3755 -1958 211 1820 -1033 0
-3755 1958 0
-3755 -211 0
-3755 -1820 0
-3755 1033 0
3756 -1441 1442 -1131 0
-3756 1441 0
-3756 -1442 0
-3756 1131 0
3757 -1827 355 1828 -1049 0
-3757 1827 0
-3757 -355 0
-3757 -1828 0
-3757 1049 0
3758 -1416 1417 -1325 0
-3758 1416 0
-3758 -1417 0
-3758 1325 0
3759 -1823 295 1824 -1041 0
-3759 1823 0
-3759 -295 0
-3759 -1824 0
-3759 1041 0
3760 -1830 175 1831 -1025 0
-3760 1830 0
-3760 -175 0
-3760 -1831 0
-3760 1025 0
3761 -1815 93 1833 -727 0
-3761 1815 0
-3761 -93 0
-3761 -1833 0
-3761 727 0
774 -773 0
-774 773 0
3762 -1819 235 1820 -1033 0
-3762 1819 0
-3762 -235 0
-3762 -1820 0
-3762 1033 0
792 -791 0
-792 791 0
3763 -2254 587 1413 -1299 0
-3763 2254 0
-3763 -587 0
-3763 -1413 0
-3763 1299 0
3764 -2113 367 1828 -1051 0
-3764 2113 0
-3764 -367 0
-3764 -1828 0
-3764 1051 0
3765 -1933 187 1831 -1027 0
-3765 1933 0
-3765 -187 0
-3765 -1831 0
-3765 1027 0
3766 -2053 307 1824 -1043 0
-3766 2053 0
-3766 -307 0
-3766 -1824 0
-3766 1043 0
3767 -1853 115 1833 -787 0
-3767 1853 0
-3767 -115 0
-3767 -1833 0
-3767 787 0
3768 -1993 247 1820 -1035 0
-3768 1993 0
-3768 -247 0
-3768 -1820 0
-3768 1035 0
3769 -1843 105 1833 -787 0
-3769 1843 0
-3769 -105 0
-3769 -1833 0
-3769 787 0
3770 -2318 691 1452 -1277 0
-3770 2318 0
-3770 -691 0
-3770 -1452 0
-3770 1277 0
3771 -2214 523 1488 -1295 0
-3771 2214 0
-3771 -523 0
-3771 -1488 0
-3771 1295 0
3772 -2146 413 1494 -1287 0
-3772 2146 0
-3772 -413 0
-3772 -1494 0
-3772 1287 0
3773 -2245 573 1406 -1155 0
-3773 2245 0
-3773 -573 0
-3773 -1406 0
-3773 1155 0
3774 -1927 181 1831 -1027 0
-3774 1927 0
-3774 -181 0
-3774 -1831 0
-3774 1027 0
826 -825 0
-826 825 0
3775 -2047 301 1824 -1043 0
-3775 2047 0
-3775 -301 0
-3775 -1824 0
-3775 1043 0
3776 -1987 241 1820 -1035 0
-3776 1987 0
-3776 -241 0
-3776 -1820 0
-3776 1035 0
3777 -2107 361 1828 -1051 0
-3777 2107 0
-3777 -361 0
-3777 -1828 0
-3777 1051 0
3778 -2318 691 1452 -1309 0
-3778 2318 0
-3778 -691 0
-3778 -1452 0
-3778 1309 0
3779 -1843 105 1833 -3 0
-3779 1843 0
-3779 -105 0
-3779 -1833 0
-3779 3 0
3780 -2214 523 1488 -1273 0
-3780 2214 0
-3780 -523 0
-3780 -1488 0
-3780 1273 0
3781 -2047 301 1824 -15 0
-3781 2047 0
-3781 -301 0
-3781 -1824 0
-3781 15 0
1004 -1003 0
-1004 1003 0
3782 -1927 181 1831 -7 0
-3782 1927 0
-3782 -181 0
-3782 -1831 0
-3782 7 0
3783 -2146 413 1494 -1261 0
-3783 2146 0
-3783 -413 0
-3783 -1494 0
-3783 1261 0
3784 -2245 573 1406 -1133 0
-3784 2245 0
-3784 -573 0
-3784 -1406 0
-3784 1133 0
3785 -2107 361 1828 -19 0
-3785 2107 0
-3785 -361 0
-3785 -1828 0
-3785 19 0
3786 -1987 241 1820 -11 0
-3786 1987 0
-3786 -241 0
-3786 -1820 0
-3786 11 0
3787 -1441 1442 -1171 0
-3787 1441 0
-3787 -1442 0
-3787 1171 0
3788 -1823 295 1824 -1043 0
-3788 1823 0
-3788 -295 0
-3788 -1824 0
-3788 1043 0
3789 -1830 175 1831 -1027 0
-3789 1830 0
-3789 -175 0
-3789 -1831 0
-3789 1027 0
3790 -1815 93 1833 -787 0
-3790 1815 0
-3790 -93 0
-3790 -1833 0
-3790 787 0
3791 -1819 235 1820 -1035 0
-3791 1819 0
-3791 -235 0
-3791 -1820 0
-3791 1035 0
3792 -1416 1417 -1331 0
-3792 1416 0
-3792 -1417 0
-3792 1331 0
834 -833 0
-834 833 0
3793 -1827 355 1828 -1051 0
-3793 1827 0
-3793 -355 0
-3793 -1828 0
-3793 1051 0
976 -975 0
-976 975 0
3794 -2231 551 1403 -1313 0
-3794 2231 0
-3794 -551 0
-3794 -1403 0
-3794 1313 0
3795 -1918 171 1831 -7 0
-3795 1918 0
-3795 -171 0
-3795 -1831 0
-3795 7 0
3796 -2098 351 1828 -19 0
-3796 2098 0
-3796 -351 0
-3796 -1828 0
-3796 19 0
3797 -1807 85 1833 -3 0
-3797 1807 0
-3797 -85 0
-3797 -1833 0
-3797 3 0
3798 -1978 231 1820 -11 0
-3798 1978 0
-3798 -231 0
-3798 -1820 0
-3798 11 0
3799 -2038 291 1824 -15 0
-3799 2038 0
-3799 -291 0
-3799 -1824 0
-3799 15 0
3800 -2024 277 1824 -1047 0
-3800 2024 0
-3800 -277 0
-3800 -1824 0
-3800 1047 0
3801 -1448 1449 -1077 0
-3801 1448 0
-3801 -1449 0
-3801 1077 0
3802 -2084 337 1828 -1055 0
-3802 2084 0
-3802 -337 0
-3802 -1828 0
-3802 1055 0
3803 -1779 57 1833 -907 0
-3803 1779 0
-3803 -57 0
-3803 -1833 0
-3803 907 0
932 -931 0
-932 931 0
3804 -1420 1421 -1305 0
-3804 1420 0
-3804 -1421 0
-3804 1305 0
3805 -1964 217 1820 -1039 0
-3805 1964 0
-3805 -217 0
-3805 -1820 0
-3805 1039 0
3806 -1904 157 1831 -1031 0
-3806 1904 0
-3806 -157 0
-3806 -1831 0
-3806 1031 0
818 -817 0
-818 817 0
3807 -1950 203 1820 -1035 0
-3807 1950 0
-3807 -203 0
-3807 -1820 0
-3807 1035 0
3808 -2010 263 1824 -1043 0
-3808 2010 0
-3808 -263 0
-3808 -1824 0
-3808 1043 0
3809 -1752 29 1833 -787 0
-3809 1752 0
-3809 -29 0
-3809 -1833 0
-3809 787 0
3810 -1458 1459 -1333 0
-3810 1458 0
-3810 -1459 0
-3810 1333 0
3811 -2070 323 1828 -1051 0
-3811 2070 0
-3811 -323 0
-3811 -1828 0
-3811 1051 0
3812 -1399 1400 -1147 0
-3812 1399 0
-3812 -1400 0
-3812 1147 0
3813 -1890 143 1831 -1027 0
-3813 1890 0
-3813 -143 0
-3813 -1831 0
-3813 1027 0
3814 -1950 203 1820 -1039 0
-3814 1950 0
-3814 -203 0
-3814 -1820 0
-3814 1039 0
3815 -1458 1459 -1307 0
-3815 1458 0
-3815 -1459 0
-3815 1307 0
3816 -2070 323 1828 -1055 0
-3816 2070 0
-3816 -323 0
-3816 -1828 0
-3816 1055 0
938 -937 0
-938 937 0
3817 -1890 143 1831 -1031 0
-3817 1890 0
-3817 -143 0
-3817 -1831 0
-3817 1031 0
3818 -1752 29 1833 -907 0
-3818 1752 0
-3818 -29 0
-3818 -1833 0
-3818 907 0
3819 -2010 263 1824 -1047 0
-3819 2010 0
-3819 -263 0
-3819 -1824 0
-3819 1047 0
3820 -1399 1400 -1229 0
-3820 1399 0
-3820 -1400 0
-3820 1229 0
3821 -2109 363 1828 -1055 0
-3821 2109 0
-3821 -363 0
-3821 -1828 0
-3821 1055 0
3822 -1989 243 1820 -1039 0
-3822 1989 0
-3822 -243 0
-3822 -1820 0
-3822 1039 0
3823 -2049 303 1824 -1047 0
-3823 2049 0
-3823 -303 0
-3823 -1824 0
-3823 1047 0
3824 -1929 183 1831 -1031 0
-3824 1929 0
-3824 -183 0
-3824 -1831 0
-3824 1031 0
3825 -1847 109 1833 -907 0
-3825 1847 0
-3825 -109 0
-3825 -1833 0
-3825 907 0
3826 -2161 437 1470 -1345 0
-3826 2161 0
-3826 -437 0
-3826 -1470 0
-3826 1345 0
964 -963 0
-964 963 0
3827 -1890 143 1831 -7 0
-3827 1890 0
-3827 -143 0
-3827 -1831 0
-3827 7 0
3828 -1458 1459 -1335 0
-3828 1458 0
-3828 -1459 0
-3828 1335 0
3829 -2010 263 1824 -15 0
-3829 2010 0
-3829 -263 0
-3829 -1824 0
-3829 15 0
3830 -1399 1400 -1191 0
-3830 1399 0
-3830 -1400 0
-3830 1191 0
3831 -2070 323 1828 -19 0
-3831 2070 0
-3831 -323 0
-3831 -1828 0
-3831 19 0
996 -995 0
-996 995 0
3832 -1752 29 1833 -3 0
-3832 1752 0
-3832 -29 0
-3832 -1833 0
-3832 3 0
3833 -1950 203 1820 -11 0
-3833 1950 0
-3833 -203 0
-3833 -1820 0
-3833 11 0
3834 -1787 65 1833 -3 0
-3834 1787 0
-3834 -65 0
-3834 -1833 0
-3834 3 0
3835 -1908 161 1831 -7 0
-3835 1908 0
-3835 -161 0
-3835 -1831 0
-3835 7 0
3836 -2088 341 1828 -19 0
-3836 2088 0
-3836 -341 0
-3836 -1828 0
-3836 19 0
3837 -1968 221 1820 -11 0
-3837 1968 0
-3837 -221 0
-3837 -1820 0
-3837 11 0
3838 -2028 281 1824 -15 0
-3838 2028 0
-3838 -281 0
-3838 -1824 0
-3838 15 0
3839 -1484 1485 -1209 0
-3839 1484 0
-3839 -1485 0
-3839 1209 0
3840 -1462 1463 -1339 0
-3840 1462 0
-3840 -1463 0
-3840 1339 0
992 -991 0
-992 991 0
3841 -1430 1431 -1329 0
-3841 1430 0
-3841 -1431 0
-3841 1329 0
730 -729 0
-730 729 0
3842 -1892 145 1831 -1025 0
-3842 1892 0
-3842 -145 0
-3842 -1831 0
-3842 1025 0
3843 -2072 325 1828 -1049 0
-3843 2072 0
-3843 -325 0
-3843 -1828 0
-3843 1049 0
3844 -1756 33 1833 -727 0
-3844 1756 0
-3844 -33 0
-3844 -1833 0
-3844 727 0
3845 -1952 205 1820 -1033 0
-3845 1952 0
-3845 -205 0
-3845 -1820 0
-3845 1033 0
3846 -2012 265 1824 -1041 0
-3846 2012 0
-3846 -265 0
-3846 -1824 0
-3846 1041 0
3847 -2161 437 1470 -1343 0
-3847 2161 0
-3847 -437 0
-3847 -1470 0
-3847 1343 0
3848 -1847 109 1833 -787 0
-3848 1847 0
-3848 -109 0
-3848 -1833 0
-3848 787 0
844 -843 0
-844 843 0
3849 -1929 183 1831 -1027 0
-3849 1929 0
-3849 -183 0
-3849 -1831 0
-3849 1027 0
3850 -1989 243 1820 -1035 0
-3850 1989 0
-3850 -243 0
-3850 -1820 0
-3850 1035 0
3851 -2049 303 1824 -1043 0
-3851 2049 0
-3851 -303 0
-3851 -1824 0
-3851 1043 0
3852 -2109 363 1828 -1051 0
-3852 2109 0
-3852 -363 0
-3852 -1828 0
-3852 1051 0
784 -783 0
-784 783 0
3853 -1989 243 1820 -1033 0
-3853 1989 0
-3853 -243 0
-3853 -1820 0
-3853 1033 0
3854 -2049 303 1824 -1041 0
-3854 2049 0
-3854 -303 0
-3854 -1824 0
-3854 1041 0
3855 -1929 183 1831 -1025 0
-3855 1929 0
-3855 -183 0
-3855 -1831 0
-3855 1025 0
3856 -2109 363 1828 -1049 0
-3856 2109 0
-3856 -363 0
-3856 -1828 0
-3856 1049 0
3857 -1740 477 1427 -1353 0
-3857 1740 0
-3857 -477 0
-3857 -1427 0
-3857 1353 0
3858 -1847 109 1833 -727 0
-3858 1847 0
-3858 -109 0
-3858 -1833 0
-3858 727 0
3859 -2245 573 1406 -1195 0
-3859 2245 0
-3859 -573 0
-3859 -1406 0
-3859 1195 0
3860 -2214 523 1488 -1315 0
-3860 2214 0
-3860 -523 0
-3860 -1488 0
-3860 1315 0
886 -885 0
-886 885 0
3861 -2318 691 1452 -1291 0
-3861 2318 0
-3861 -691 0
-3861 -1452 0
-3861 1291 0
3862 -2146 413 1494 -1297 0
-3862 2146 0
-3862 -413 0
-3862 -1494 0
-3862 1297 0
3863 -1927 181 1831 -1029 0
-3863 1927 0
-3863 -181 0
-3863 -1831 0
-3863 1029 0
3864 -2047 301 1824 -1045 0
-3864 2047 0
-3864 -301 0
-3864 -1824 0
-3864 1045 0
3865 -2107 361 1828 -1053 0
-3865 2107 0
-3865 -361 0
-3865 -1828 0
-3865 1053 0
3866 -1843 105 1833 -847 0
-3866 1843 0
-3866 -105 0
-3866 -1833 0
-3866 847 0
3867 -1987 241 1820 -1037 0
-3867 1987 0
-3867 -241 0
-3867 -1820 0
-3867 1037 0
3868 -2012 265 1824 -1047 0
-3868 2012 0
-3868 -265 0
-3868 -1824 0
-3868 1047 0
910 -909 0
-910 909 0
3869 -1892 145 1831 -1031 0
-3869 1892 0
-3869 -145 0
-3869 -1831 0
-3869 1031 0
3870 -1756 33 1833 -907 0
-3870 1756 0
-3870 -33 0
-3870 -1833 0
-3870 907 0
3871 -1952 205 1820 -1039 0
-3871 1952 0
-3871 -205 0
-3871 -1820 0
-3871 1039 0
3872 -2072 325 1828 -1055 0
-3872 2072 0
-3872 -325 0
-3872 -1828 0
-3872 1055 0
3873 -2131 391 1435 -1347 0
-3873 2131 0
-3873 -391 0
-3873 -1435 0
-3873 1347 0
3874 -1890 143 1831 -1025 0
-3874 1890 0
-3874 -143 0
-3874 -1831 0
-3874 1025 0
3875 -1950 203 1820 -1033 0
-3875 1950 0
-3875 -203 0
-3875 -1820 0
-3875 1033 0
758 -757 0
-758 757 0
3876 -2010 263 1824 -1041 0
-3876 2010 0
-3876 -263 0
-3876 -1824 0
-3876 1041 0
3877 -1399 1400 -1107 0
-3877 1399 0
-3877 -1400 0
-3877 1107 0
3878 -1752 29 1833 -727 0
-3878 1752 0
-3878 -29 0
-3878 -1833 0
-3878 727 0
3879 -1754 389 1435 -1357 0
-3879 1754 0
-3879 -389 0
-3879 -1435 0
-3879 1357 0
3880 -2070 323 1828 -1049 0
-3880 2070 0
-3880 -323 0
-3880 -1828 0
-3880 1049 0
3881 -2254 587 1413 -1319 0
-3881 2254 0
-3881 -587 0
-3881 -1413 0
-3881 1319 0
3882 -2024 277 1824 -15 0
-3882 2024 0
-3882 -277 0
-3882 -1824 0
-3882 15 0
3883 -1420 1421 -1351 0
-3883 1420 0
-3883 -1421 0
-3883 1351 0
3884 -1904 157 1831 -7 0
-3884 1904 0
-3884 -157 0
-3884 -1831 0
-3884 7 0
3885 -2084 337 1828 -19 0
-3885 2084 0
-3885 -337 0
-3885 -1828 0
-3885 19 0
3886 -1448 1449 -1153 0
-3886 1448 0
-3886 -1449 0
-3886 1153 0
3887 -1779 57 1833 -3 0
-3887 1779 0
-3887 -57 0
-3887 -1833 0
-3887 3 0
990 -989 0
-990 989 0
3888 -1964 217 1820 -11 0
-3888 1964 0
-3888 -217 0
-3888 -1820 0
-3888 11 0
3889 -2084 337 1828 -1053 0
-3889 2084 0
-3889 -337 0
-3889 -1828 0
-3889 1053 0
3890 -1779 57 1833 -847 0
-3890 1779 0
-3890 -57 0
-3890 -1833 0
-3890 847 0
3891 -1448 1449 -1219 0
-3891 1448 0
-3891 -1449 0
-3891 1219 0
3892 -1904 157 1831 -1029 0
-3892 1904 0
-3892 -157 0
-3892 -1831 0
-3892 1029 0
872 -871 0
-872 871 0
3893 -1420 1421 -1321 0
-3893 1420 0
-3893 -1421 0
-3893 1321 0
3894 -2024 277 1824 -1045 0
-3894 2024 0
-3894 -277 0
-3894 -1824 0
-3894 1045 0
3895 -1964 217 1820 -1037 0
-3895 1964 0
-3895 -217 0
-3895 -1820 0
-3895 1037 0
3896 -1399 1400 -1249 0
-3896 1399 0
-3896 -1400 0
-3896 1249 0
3897 -1458 1459 -1323 0
-3897 1458 0
-3897 -1459 0
-3897 1323 0
3898 -2161 437 1470 -1349 0
-3898 2161 0
-3898 -437 0
-3898 -1470 0
-3898 1349 0
3899 -1989 243 1820 -11 0
-3899 1989 0
-3899 -243 0
-3899 -1820 0
-3899 11 0
3900 -2109 363 1828 -19 0
-3900 2109 0
-3900 -363 0
-3900 -1828 0
-3900 19 0
3901 -1929 183 1831 -7 0
-3901 1929 0
-3901 -183 0
-3901 -1831 0
-3901 7 0
3902 -2049 303 1824 -15 0
-3902 2049 0
-3902 -303 0
-3902 -1824 0
-3902 15 0
3903 -1847 109 1833 -3 0
-3903 1847 0
-3903 -109 0
-3903 -1833 0
-3903 3 0
1022 -1021 0
-1022 1021 0
3904 -1441 1442 -1091 0
-3904 1441 0
-3904 -1442 0
-3904 1091 0
3905 -1416 1417 -1365 0
-3905 1416 0
-3905 -1417 0
-3905 1365 0
878 -877 0
-878 877 0
3906 -2010 263 1824 -1045 0
-3906 2010 0
-3906 -263 0
-3906 -1824 0
-3906 1045 0
3907 -1399 1400 -1187 0
-3907 1399 0
-3907 -1400 0
-3907 1187 0
3908 -2070 323 1828 -1053 0
-3908 2070 0
-3908 -323 0
-3908 -1828 0
-3908 1053 0
3909 -1950 203 1820 -1037 0
-3909 1950 0
-3909 -203 0
-3909 -1820 0
-3909 1037 0
3910 -1458 1459 -1359 0
-3910 1458 0
-3910 -1459 0
-3910 1359 0
3911 -1890 143 1831 -1029 0
-3911 1890 0
-3911 -143 0
-3911 -1831 0
-3911 1029 0
3912 -1752 29 1833 -847 0
-3912 1752 0
-3912 -29 0
-3912 -1833 0
-3912 847 0
3913 -1738 17 2362 0
-3913 1738 0
-3913 -17 0
-3913 -2362 0
3914 -2161 437 1470 -1371 0
-3914 2161 0
-3914 -437 0
-3914 -1470 0
-3914 1371 0
3915 -1993 247 1820 -1039 0
-3915 1993 0
-3915 -247 0
-3915 -1820 0
-3915 1039 0
3916 -1853 115 1833 -907 0
-3916 1853 0
-3916 -115 0
-3916 -1833 0
-3916 907 0
3917 -2254 587 1413 -1341 0
-3917 2254 0
-3917 -587 0
-3917 -1413 0
-3917 1341 0
912 -911 0
-912 911 0
3918 -1933 187 1831 -1031 0
-3918 1933 0
-3918 -187 0
-3918 -1831 0
-3918 1031 0
3919 -2053 307 1824 -1047 0
-3919 2053 0
-3919 -307 0
-3919 -1824 0
-3919 1047 0
3920 -2113 367 1828 -1055 0
-3920 2113 0
-3920 -367 0
-3920 -1828 0
-3920 1055 0
3921 -2131 391 1435 -1373 0
-3921 2131 0
-3921 -391 0
-3921 -1435 0
-3921 1373 0
3922 -1892 145 1831 -7 0
-3922 1892 0
-3922 -145 0
-3922 -1831 0
-3922 7 0
3923 -2012 265 1824 -15 0
-3923 2012 0
-3923 -265 0
-3923 -1824 0
-3923 15 0
968 -967 0
-968 967 0
3924 -2072 325 1828 -19 0
-3924 2072 0
-3924 -325 0
-3924 -1828 0
-3924 19 0
3925 -1756 33 1833 -3 0
-3925 1756 0
-3925 -33 0
-3925 -1833 0
-3925 3 0
3926 -1952 205 1820 -11 0
-3926 1952 0
-3926 -205 0
-3926 -1820 0
-3926 11 0
3927 -1929 183 1831 -1029 0
-3927 1929 0
-3927 -183 0
-3927 -1831 0
-3927 1029 0
3928 -1989 243 1820 -1037 0
-3928 1989 0
-3928 -243 0
-3928 -1820 0
-3928 1037 0
3929 -2049 303 1824 -1045 0
-3929 2049 0
-3929 -303 0
-3929 -1824 0
-3929 1045 0
3930 -2161 437 1470 -1377 0
-3930 2161 0
-3930 -437 0
-3930 -1470 0
-3930 1377 0
3931 -2109 363 1828 -1053 0
-3931 2109 0
-3931 -363 0
-3931 -1828 0
-3931 1053 0
3932 -1847 109 1833 -847 0
-3932 1847 0
-3932 -109 0
-3932 -1833 0
-3932 847 0
904 -903 0
-904 903 0
850 -849 0
-850 849 0
3933 -2072 325 1828 -1053 0
-3933 2072 0
-3933 -325 0
-3933 -1828 0
-3933 1053 0
3934 -1756 33 1833 -847 0
-3934 1756 0
-3934 -33 0
-3934 -1833 0
-3934 847 0
3935 -1952 205 1820 -1037 0
-3935 1952 0
-3935 -205 0
-3935 -1820 0
-3935 1037 0
3936 -2012 265 1824 -1045 0
-3936 2012 0
-3936 -265 0
-3936 -1824 0
-3936 1045 0
3937 -1892 145 1831 -1029 0
-3937 1892 0
-3937 -145 0
-3937 -1831 0
-3937 1029 0
3938 -2131 391 1435 -1385 0
-3938 2131 0
-3938 -391 0
-3938 -1435 0
-3938 1385 0
3939 -1993 247 1820 -1037 0
-3939 1993 0
-3939 -247 0
-3939 -1820 0
-3939 1037 0
3940 -1933 187 1831 -1029 0
-3940 1933 0
-3940 -187 0
-3940 -1831 0
-3940 1029 0
3941 -1853 115 1833 -847 0
-3941 1853 0
-3941 -115 0
-3941 -1833 0
-3941 847 0
3942 -2053 307 1824 -1045 0
-3942 2053 0
-3942 -307 0
-3942 -1824 0
-3942 1045 0
852 -851 0
-852 851 0
3943 -2254 587 1413 -1369 0
-3943 2254 0
-3943 -587 0
-3943 -1413 0
-3943 1369 0
3944 -2113 367 1828 -1053 0
-3944 2113 0
-3944 -367 0
-3944 -1828 0
-3944 1053 0
3945 -2053 307 1824 -15 0
-3945 2053 0
-3945 -307 0
-3945 -1824 0
-3945 15 0
970 -969 0
-970 969 0
3946 -2254 587 1413 -1367 0
-3946 2254 0
-3946 -587 0
-3946 -1413 0
-3946 1367 0
3947 -1993 247 1820 -11 0
-3947 1993 0
-3947 -247 0
-3947 -1820 0
-3947 11 0
3948 -1853 115 1833 -3 0
-3948 1853 0
-3948 -115 0
-3948 -1833 0
-3948 3 0
3949 -2113 367 1828 -19 0
-3949 2113 0
-3949 -367 0
-3949 -1828 0
-3949 19 0
3950 -1933 187 1831 -7 0
-3950 1933 0
-3950 -187 0
-3950 -1831 0
-3950 7 0
-3951 1254 2376 0
3951 -1254 0
3951 -2376 0
-3952 1422 1450 0
3952 -1422 0
3952 -1450 0
-3953 1529 1555 0
3953 -1529 0
3953 -1555 0
-3954 3564 740 0
3954 -3564 0
3954 -740 0
-3955 1571 1611 0
3955 -1571 0
3955 -1611 0
-3956 1629 1641 0
3956 -1629 0
3956 -1641 0
-3957 800 3604 0
3957 -800 0
3957 -3604 0
-3958 1679 1689 0
3958 -1679 0
3958 -1689 0
-3959 3644 860 0
3959 -3644 0
3959 -860 0
-3960 2399 1106 0
3960 -2399 0
3960 -1106 0
-3961 2422 2427 0
3961 -2422 0
3961 -2427 0
-3962 978 3707 0
3962 -978 0
3962 -3707 0
-3963 2434 1266 0
3963 -2434 0
3963 -1266 0
-3964 2466 1146 0
3964 -2466 0
3964 -1146 0
-3965 2486 2489 0
3965 -2486 0
3965 -2489 0
-3966 3051 3060 0
3966 -3051 0
3966 -3060 0
-76 1792 1284 0
76 -1792 0
76 -1284 0
-3967 2507 1278 0
3967 -2507 0
3967 -1278 0
-3968 3075 3080 0
3968 -3075 0
3968 -3080 0
-88 1804 1310 0
88 -1804 0
88 -1310 0
-3969 1186 2530 0
3969 -1186 0
3969 -2530 0
-3970 2536 2556 0
3970 -2536 0
3970 -2556 0
-3971 1292 2565 0
3971 -1292 0
3971 -2565 0
-3972 2595 1228 0
3972 -2595 0
3972 -1228 0
-3973 1234 2601 0
3973 -1234 0
3973 -2601 0
-3974 2631 1094 0
3974 -2631 0
3974 -1094 0
-3975 2653 2660 0
3975 -2653 0
3975 -2660 0
-3976 2662 2674 0
3976 -2662 0
3976 -2674 0
-3977 2692 2713 0
3977 -2692 0
3977 -2713 0
-3978 2722 2741 0
3978 -2722 0
3978 -2741 0
-3979 2753 2765 0
3979 -2753 0
3979 -2765 0
-3980 2797 2806 0
3980 -2797 0
3980 -2806 0
-3981 2826 2836 0
3981 -2826 0
3981 -2836 0
-3982 2838 2845 0
3982 -2838 0
3982 -2845 0
-3983 2883 2884 0
3983 -2883 0
3983 -2884 0
-3984 2916 2917 0
3984 -2916 0
3984 -2917 0
-3985 2945 2951 0
3985 -2945 0
3985 -2951 0
-3986 2971 2978 0
3986 -2971 0
3986 -2978 0
-3987 2992 3007 0
3987 -2992 0
3987 -3007 0
-3988 3016 3031 0
3988 -3016 0
3988 -3031 0
-3989 2290 2291 0
3989 -2290 0
3989 -2291 0
-3990 650 2292 0
3990 -650 0
3990 -2292 0
-3991 2293 652 0
3991 -2293 0
3991 -652 0
-3992 2294 654 0
3992 -2294 0
3992 -654 0
-3993 2295 656 0
3993 -2295 0
3993 -656 0
-660 658 2296 0
660 -658 0
660 -2296 0
-3994 2311 2312 0
3994 -2311 0
3994 -2312 0
-3995 2313 684 0
3995 -2313 0
3995 -684 0
-3996 686 2314 0
3996 -686 0
3996 -2314 0
-3997 2315 688 0
3997 -2315 0
3997 -688 0
-3998 690 2316 0
3998 -690 0
3998 -2316 0
-694 2317 692 0
694 -2317 0
694 -692 0
-3999 2176 464 0
3999 -2176 0
3999 -464 0
-4000 2175 462 0
4000 -2175 0
4000 -462 0
-4001 3496 920 0
4001 -3496 0
4001 -920 0
-4002 2340 2341 0
4002 -2340 0
4002 -2341 0
-4003 1967 222 0
4003 -1967 0
4003 -222 0
-4004 224 1969 0
4004 -224 0
4004 -1969 0
-4005 1971 226 0
4005 -1971 0
4005 -226 0
-4006 1973 228 0
4006 -1973 0
4006 -228 0
-4007 1975 230 0
4007 -1975 0
4007 -230 0
-4008 282 2027 0
4008 -282 0
4008 -2027 0
-4009 2029 284 0
4009 -2029 0
4009 -284 0
-4010 2031 286 0
4010 -2031 0
4010 -286 0
-4011 2033 288 0
4011 -2033 0
4011 -288 0
-4012 2035 290 0
4012 -2035 0
4012 -290 0
-4013 342 2087 0
4013 -342 0
4013 -2087 0
-4014 2089 344 0
4014 -2089 0
4014 -344 0
-4015 2091 346 0
4015 -2091 0
4015 -346 0
-4016 2093 348 0
4016 -2093 0
4016 -348 0
-4017 350 2095 0
4017 -350 0
4017 -2095 0
-4018 66 1786 0
4018 -66 0
4018 -1786 0
-4019 1790 70 0
4019 -1790 0
4019 -70 0
-4020 74 1794 0
4020 -74 0
4020 -1794 0
-4021 78 1798 0
4021 -78 0
4021 -1798 0
-4022 82 1802 0
4022 -82 0
4022 -1802 0
-4023 1907 162 0
4023 -1907 0
4023 -162 0
-4024 164 1909 0
4024 -164 0
4024 -1909 0
-4025 1911 166 0
4025 -1911 0
4025 -166 0
-4026 1913 168 0
4026 -1913 0
4026 -168 0
-4027 1915 170 0
4027 -1915 0
4027 -170 0
-4028 3954 3567 3566 3563 3562 3565 0
4028 -3954 0
4028 -3567 0
4028 -3566 0
4028 -3563 0
4028 -3562 0
4028 -3565 0
-4029 3577 3581 3578 3575 3580 0
4029 -3577 0
4029 -3581 0
4029 -3578 0
4029 -3575 0
4029 -3580 0
-4030 3512 3516 3514 3513 3515 0
4030 -3512 0
4030 -3516 0
4030 -3514 0
4030 -3513 0
4030 -3515 0
-4031 3957 3603 3605 3601 3600 3602 0
4031 -3957 0
4031 -3603 0
4031 -3605 0
4031 -3601 0
4031 -3600 0
4031 -3602 0
-4032 3614 3616 3617 3613 3615 0
4032 -3614 0
4032 -3616 0
4032 -3617 0
4032 -3613 0
4032 -3615 0
-4033 1024 3620 3621 3622 3624 3623 0
4033 -1024 0
4033 -3620 0
4033 -3621 0
4033 -3622 0
4033 -3624 0
4033 -3623 0
-4034 3629 3631 3628 3627 3630 0
4034 -3629 0
4034 -3631 0
4034 -3628 0
4034 -3627 0
4034 -3630 0
-4035 3959 3649 3648 3646 3645 3647 0
4035 -3959 0
4035 -3649 0
4035 -3648 0
4035 -3646 0
4035 -3645 0
4035 -3647 0
-4036 3691 3693 3688 3689 3690 0
4036 -3691 0
4036 -3693 0
4036 -3688 0
4036 -3689 0
4036 -3690 0
-4037 3962 3706 3704 3705 3708 3709 0
4037 -3962 0
4037 -3706 0
4037 -3704 0
4037 -3705 0
4037 -3708 0
4037 -3709 0
-4038 3736 3739 3734 3733 3737 0
4038 -3736 0
4038 -3739 0
4038 -3734 0
4038 -3733 0
4038 -3737 0
-4039 3837 3838 3836 3834 3835 0
4039 -3837 0
4039 -3838 0
4039 -3836 0
4039 -3834 0
4039 -3835 0
-4040 3128 3127 3129 3130 3126 0
4040 -3128 0
4040 -3127 0
4040 -3129 0
4040 -3130 0
4040 -3126 0
-4041 966 3146 3147 3145 3144 3148 0
4041 -966 0
4041 -3146 0
4041 -3147 0
4041 -3145 0
4041 -3144 0
4041 -3148 0
-4042 3188 3185 3183 3187 3184 0
4042 -3188 0
4042 -3185 0
4042 -3183 0
4042 -3187 0
4042 -3184 0
-4043 3232 3234 3230 3231 3233 0
4043 -3232 0
4043 -3234 0
4043 -3230 0
4043 -3231 0
4043 -3233 0
-4044 786 3259 3262 3260 3261 3263 0
4044 -786 0
4044 -3259 0
4044 -3262 0
4044 -3260 0
4044 -3261 0
4044 -3263 0
-4045 3279 3283 3280 3281 3282 0
4045 -3279 0
4045 -3283 0
4045 -3280 0
4045 -3281 0
4045 -3282 0
-4046 3294 3292 3291 3289 3293 0
4046 -3294 0
4046 -3292 0
4046 -3291 0
4046 -3289 0
4046 -3293 0
-4047 3334 3333 3335 3331 3332 0
4047 -3334 0
4047 -3333 0
4047 -3335 0
4047 -3331 0
4047 -3332 0
-4048 846 3367 3366 3371 3370 3369 0
4048 -846 0
4048 -3367 0
4048 -3366 0
4048 -3371 0
4048 -3370 0
4048 -3369 0
-4049 3402 3399 3400 3397 3401 0
4049 -3402 0
4049 -3399 0
4049 -3400 0
4049 -3397 0
4049 -3401 0
-4050 3456 3458 3460 3459 3457 0
4050 -3456 0
4050 -3458 0
4050 -3460 0
4050 -3459 0
4050 -3457 0
-4051 906 3481 3482 3480 3479 3483 0
4051 -906 0
4051 -3481 0
4051 -3482 0
4051 -3480 0
4051 -3479 0
4051 -3483 0
-4052 4001 3498 3499 3495 3500 3497 0
4052 -4001 0
4052 -3498 0
4052 -3499 0
4052 -3495 0
4052 -3500 0
4052 -3497 0
-4053 1393 1489 0
4053 -1393 0
4053 -1489 0
-4054 1527 1537 0
4054 -1527 0
4054 -1537 0
-4055 1559 1579 0
4055 -1559 0
4055 -1579 0
-4056 2384 1076 0
4056 -2384 0
4056 -1076 0
-4057 1669 1671 0
4057 -1669 0
4057 -1671 0
-4058 1701 1709 0
4058 -1701 0
4058 -1709 0
-28 1104 1745 0
28 -1104 0
28 -1745 0
-4059 2412 2414 0
4059 -2412 0
4059 -2414 0
-4060 1122 2442 0
4060 -1122 0
4060 -2442 0
-4061 2477 2481 0
4061 -2477 0
4061 -2481 0
-4062 1160 2515 0
4062 -1160 0
4062 -2515 0
-4063 2547 2549 0
4063 -2547 0
4063 -2549 0
-4064 1202 2573 0
4064 -1202 0
4064 -2573 0
-4065 2132 2133 0
4065 -2132 0
4065 -2133 0
-4066 2134 396 0
4066 -2134 0
4066 -396 0
-4067 2135 398 0
4067 -2135 0
4067 -398 0
-4068 400 2136 0
4068 -400 0
4068 -2136 0
-404 402 2137 0
404 -402 0
404 -2137 0
-4069 1060 2609 0
4069 -1060 0
4069 -2609 0
-4070 2646 2650 0
4070 -2646 0
4070 -2650 0
-4071 2689 2690 0
4071 -2689 0
4071 -2690 0
-4072 2709 2712 0
4072 -2709 0
4072 -2712 0
-4073 2736 2745 0
4073 -2736 0
4073 -2745 0
-4074 2750 2763 0
4074 -2750 0
4074 -2763 0
-4075 2782 2803 0
4075 -2782 0
4075 -2803 0
-4076 2810 2830 0
4076 -2810 0
4076 -2830 0
-4077 2842 2854 0
4077 -2842 0
4077 -2854 0
-4078 2873 2876 0
4078 -2873 0
4078 -2876 0
-4079 2905 2906 0
4079 -2905 0
4079 -2906 0
-4080 2937 2938 0
4080 -2937 0
4080 -2938 0
-4081 2959 2961 0
4081 -2959 0
4081 -2961 0
-4082 2997 2999 0
4082 -2997 0
4082 -2999 0
-4083 3033 3035 0
4083 -3033 0
4083 -3035 0
-4084 3066 3069 0
4084 -3066 0
4084 -3069 0
-4085 3087 3098 0
4085 -3087 0
4085 -3098 0
-4086 2298 2299 0
4086 -2298 0
4086 -2299 0
-4087 662 2300 0
4087 -662 0
4087 -2300 0
-4088 2301 664 0
4088 -2301 0
4088 -664 0
-4089 2302 666 0
4089 -2302 0
4089 -666 0
-4090 2303 668 0
4090 -2303 0
4090 -668 0
-672 670 2304 0
672 -670 0
672 -2304 0
-4091 2354 2364 0
4091 -2354 0
4091 -2364 0
-4092 3952 4053 0
4092 -3952 0
4092 -4053 0
-4093 3953 4054 0
4093 -3953 0
4093 -4054 0
-4094 3955 4055 0
4094 -3955 0
4094 -4055 0
-4095 3956 4057 0
4095 -3956 0
4095 -4057 0
-4096 3958 4058 0
4096 -3958 0
4096 -4058 0
-4097 4033 3619 0
4097 -4033 0
4097 -3619 0
-4098 2396 1100 0
4098 -2396 0
4098 -1100 0
-4099 3961 4059 0
4099 -3961 0
4099 -4059 0
-4100 2463 1140 0
4100 -2463 0
4100 -1140 0
-4101 3965 4061 0
4101 -3965 0
4101 -4061 0
-4102 2527 1178 0
4102 -2527 0
4102 -1178 0
-4103 3970 4063 0
4103 -3970 0
4103 -4063 0
-126 1858 1200 0
126 -1858 0
126 -1200 0
-4104 2592 1224 0
4104 -2592 0
4104 -1224 0
-4105 2628 1082 0
4105 -2628 0
4105 -1082 0
-4106 3975 4070 0
4106 -3975 0
4106 -4070 0
-4107 3976 4071 0
4107 -3976 0
4107 -4071 0
-4108 3977 4072 0
4108 -3977 0
4108 -4072 0
-4109 3978 4073 0
4109 -3978 0
4109 -4073 0
-4110 3979 4074 0
4110 -3979 0
4110 -4074 0
-4111 3980 4075 0
4111 -3980 0
4111 -4075 0
-4112 3981 4076 0
4112 -3981 0
4112 -4076 0
-4113 3982 4077 0
4113 -3982 0
4113 -4077 0
-4114 3983 4078 0
4114 -3983 0
4114 -4078 0
-4115 3984 4079 0
4115 -3984 0
4115 -4079 0
-4116 3985 4080 0
4116 -3985 0
4116 -4080 0
-4117 3986 4081 0
4117 -3986 0
4117 -4081 0
-4118 3987 4082 0
4118 -3987 0
4118 -4082 0
-4119 3988 4083 0
4119 -3988 0
4119 -4083 0
-4120 3966 4084 0
4120 -3966 0
4120 -4084 0
-4121 3968 4085 0
4121 -3968 0
4121 -4085 0
-4122 3132 960 0
4122 -3132 0
4122 -960 0
-4123 4041 3143 0
4123 -4041 0
4123 -3143 0
-4124 3246 780 0
4124 -3246 0
4124 -780 0
-4125 4044 3258 0
4125 -4044 0
4125 -3258 0
-4126 3345 840 0
4126 -3345 0
4126 -840 0
-4127 4048 3368 0
4127 -4048 0
4127 -3368 0
-4128 3404 1018 0
4128 -3404 0
4128 -1018 0
-4129 3470 900 0
4129 -3470 0
4129 -900 0
-4130 4051 3484 0
4130 -4051 0
4130 -3484 0
-4131 4002 4091 0
4131 -4002 0
4131 -4091 0
-4132 3556 3557 3558 3559 3560 3561 738 0
4132 -3556 0
4132 -3557 0
4132 -3558 0
4132 -3559 0
4132 -3560 0
4132 -3561 0
4132 -738 0
-4133 3594 3595 3596 3597 798 3598 3599 0
4133 -3594 0
4133 -3595 0
4133 -3596 0
4133 -3597 0
4133 -798 0
4133 -3598 0
4133 -3599 0
-4134 2037 292 0
4134 -2037 0
4134 -292 0
-4135 294 2039 0
4135 -294 0
4135 -2039 0
-4136 858 3638 3639 3640 3641 3642 3643 0
4136 -858 0
4136 -3638 0
4136 -3639 0
4136 -3640 0
4136 -3641 0
4136 -3642 0
4136 -3643 0
-4137 3676 3677 3678 3679 3680 3681 918 0
4137 -3676 0
4137 -3677 0
4137 -3678 0
4137 -3679 0
4137 -3680 0
4137 -3681 0
4137 -918 0
-4138 976 3794 3795 3796 3797 3798 3799 0
4138 -976 0
4138 -3794 0
4138 -3795 0
4138 -3796 0
4138 -3797 0
4138 -3798 0
4138 -3799 0
-554 552 2230 0
554 -552 0
554 -2230 0
-4139 1806 86 0
4139 -1806 0
4139 -86 0
-4140 1810 90 0
4140 -1810 0
4140 -90 0
-4141 2097 352 0
4141 -2097 0
4141 -352 0
-4142 354 2099 0
4142 -354 0
4142 -2099 0
-4143 172 1917 0
4143 -172 0
4143 -1917 0
-4144 1919 174 0
4144 -1919 0
4144 -174 0
-4145 3163 3164 3165 3166 3167 0
4145 -3163 0
4145 -3164 0
4145 -3165 0
4145 -3166 0
4145 -3167 0
-4146 232 1977 0
4146 -232 0
4146 -1977 0
-4147 234 1979 0
4147 -234 0
4147 -1979 0
-4148 3269 3270 3271 3272 3273 0
4148 -3269 0
4148 -3270 0
4148 -3271 0
4148 -3272 0
4148 -3273 0
-4149 3310 3311 3312 3313 3314 0
4149 -3310 0
4149 -3311 0
4149 -3312 0
4149 -3313 0
4149 -3314 0
-4150 3377 3378 3379 3380 3381 0
4150 -3377 0
4150 -3378 0
4150 -3379 0
4150 -3380 0
4150 -3381 0
-4151 3490 3491 3492 3493 3494 0
4151 -3490 0
4151 -3491 0
4151 -3492 0
4151 -3493 0
4151 -3494 0
-4152 2374 1058 0
4152 -2374 0
4152 -1058 0
-4153 1464 1478 0
4153 -1464 0
4153 -1478 0
-4154 1507 1521 0
4154 -1507 0
4154 -1521 0
-4155 1599 1607 0
4155 -1599 0
4155 -1607 0
-4156 1621 1665 0
4156 -1621 0
4156 -1665 0
-4157 1691 1703 0
4157 -1691 0
4157 -1703 0
-4158 2401 2402 0
4158 -2401 0
4158 -2402 0
-4159 1110 2432 0
4159 -1110 0
4159 -2432 0
-4160 2232 2233 0
4160 -2232 0
4160 -2233 0
-4161 2234 556 0
4161 -2234 0
4161 -556 0
-4162 558 2235 0
4162 -558 0
4162 -2235 0
-4163 560 2236 0
4163 -560 0
4163 -2236 0
-4164 562 2237 0
4164 -562 0
4164 -2237 0
-566 2238 564 0
566 -2238 0
566 -564 0
-4165 2472 2474 0
4165 -2472 0
4165 -2474 0
-4166 1150 2505 0
4166 -1150 0
4166 -2505 0
-96 1812 1166 0
96 -1812 0
96 -1166 0
-4167 2541 2543 0
4167 -2541 0
4167 -2543 0
-4168 1190 2563 0
4168 -1190 0
4168 -2563 0
-4169 2599 1232 0
4169 -2599 0
4169 -1232 0
-4170 2636 2637 0
4170 -2636 0
4170 -2637 0
-4171 2679 2682 0
4171 -2679 0
4171 -2682 0
-4172 2701 2703 0
4172 -2701 0
4172 -2703 0
-4173 2727 2735 0
4173 -2727 0
4173 -2735 0
-4174 2771 2775 0
4174 -2771 0
4174 -2775 0
-4175 2779 2795 0
4175 -2779 0
4175 -2795 0
-4176 2820 2825 0
4176 -2820 0
4176 -2825 0
-4177 2837 2840 0
4177 -2837 0
4177 -2840 0
-4178 2881 2892 0
4178 -2881 0
4178 -2892 0
-4179 2914 2921 0
4179 -2914 0
4179 -2921 0
-4180 2933 2942 0
4180 -2933 0
4180 -2942 0
-4181 2958 2966 0
4181 -2958 0
4181 -2966 0
-4182 2985 2990 0
4182 -2985 0
4182 -2990 0
-4183 3024 3029 0
4183 -3024 0
4183 -3029 0
-4184 3064 3067 0
4184 -3064 0
4184 -3067 0
-4185 3084 3089 0
4185 -3084 0
4185 -3089 0
-4186 2305 2306 0
4186 -2305 0
4186 -2306 0
-4187 2307 674 0
4187 -2307 0
4187 -674 0
-4188 676 2308 0
4188 -676 0
4188 -2308 0
-4189 2309 678 0
4189 -2309 0
4189 -678 0
-682 680 2310 0
682 -680 0
682 -2310 0
-4190 2348 2351 0
4190 -2348 0
4190 -2351 0
-4191 4145 736 0
4191 -4145 0
4191 -736 0
-4192 4148 796 0
4192 -4148 0
4192 -796 0
-4193 4149 974 0
4193 -4149 0
4193 -974 0
-4194 4150 856 0
4194 -4150 0
4194 -856 0
-4195 4151 916 0
4195 -4151 0
4195 -916 0
-514 512 2205 0
514 -512 0
514 -2205 0
-4196 958 3539 0
4196 -958 0
4196 -3539 0
-4197 1401 1436 1460 0
4197 -1401 0
4197 -1436 0
4197 -1460 0
-4198 1509 1515 1533 0
4198 -1509 0
4198 -1515 0
4198 -1533 0
-4199 1577 1613 1615 0
4199 -1577 0
4199 -1613 0
4199 -1615 0
-4200 1647 1659 1673 0
4200 -1647 0
4200 -1659 0
4200 -1673 0
-4201 1693 1697 1707 0
4201 -1693 0
4201 -1697 0
4201 -1707 0
-4202 1088 2390 0
4202 -1088 0
4202 -2390 0
-4203 1098 2395 0
4203 -1098 0
4203 -2395 0
-4204 2406 2418 2419 0
4204 -2406 0
4204 -2418 0
4204 -2419 0
-4205 1016 3720 0
4205 -1016 0
4205 -3720 0
-4206 2223 2224 0
4206 -2223 0
4206 -2224 0
-4207 2225 542 0
4207 -2225 0
4207 -542 0
-48 1764 1120 0
48 -1764 0
48 -1120 0
-4208 2226 544 0
4208 -2226 0
4208 -544 0
-4209 2227 546 0
4209 -2227 0
4209 -546 0
-4210 548 2228 0
4210 -548 0
4210 -2228 0
-56 1772 1314 0
56 -1772 0
56 -1314 0
-4211 550 2229 0
4211 -550 0
4211 -2229 0
-4212 1128 2457 0
4212 -1128 0
4212 -2457 0
-4213 1138 2462 0
4213 -1138 0
4213 -2462 0
-4214 2471 2480 2482 0
4214 -2471 0
4214 -2480 0
4214 -2482 0
-4215 2521 1168 0
4215 -2521 0
4215 -1168 0
-4216 2526 1184 0
4216 -2526 0
4216 -1184 0
-4217 2533 2540 2552 0
4217 -2533 0
4217 -2540 0
4217 -2552 0
-4218 2579 1212 0
4218 -2579 0
4218 -1212 0
-4219 2591 1222 0
4219 -2591 0
4219 -1222 0
-4220 2276 2277 0
4220 -2276 0
4220 -2277 0
-4221 626 2278 0
4221 -626 0
4221 -2278 0
-4222 2279 628 0
4222 -2279 0
4222 -628 0
-4223 630 2280 0
4223 -630 0
4223 -2280 0
-4224 2281 632 0
4224 -2281 0
4224 -632 0
-636 2282 634 0
636 -2282 0
636 -634 0
-4225 2627 1248 0
4225 -2627 0
4225 -1248 0
-4226 2638 2642 2643 0
4226 -2638 0
4226 -2642 0
4226 -2643 0
-4227 2664 2680 2685 0
4227 -2664 0
4227 -2680 0
4227 -2685 0
-4228 2702 2707 2715 0
4228 -2702 0
4228 -2707 0
4228 -2715 0
-4229 2729 2740 2742 0
4229 -2729 0
4229 -2740 0
4229 -2742 0
-4230 2754 2757 2758 0
4230 -2754 0
4230 -2757 0
4230 -2758 0
-4231 2796 2800 2804 0
4231 -2796 0
4231 -2800 0
4231 -2804 0
-4232 2809 2827 2829 0
4232 -2809 0
4232 -2827 0
4232 -2829 0
-4233 2841 2851 2852 0
4233 -2841 0
4233 -2851 0
4233 -2852 0
-4234 2875 2882 2890 0
4234 -2875 0
4234 -2882 0
4234 -2890 0
-4235 2901 2909 2915 0
4235 -2901 0
4235 -2909 0
4235 -2915 0
-4236 2925 2931 2939 0
4236 -2925 0
4236 -2931 0
4236 -2939 0
-4237 2957 2963 2979 0
4237 -2957 0
4237 -2963 0
4237 -2979 0
-4238 2983 2987 2994 0
4238 -2983 0
4238 -2987 0
4238 -2994 0
-4239 3025 3030 3032 0
4239 -3025 0
4239 -3030 0
4239 -3032 0
-4240 3042 3061 3063 0
4240 -3042 0
4240 -3061 0
4240 -3063 0
-4241 3081 3083 3090 0
4241 -3081 0
4241 -3083 0
4241 -3090 0
-4242 1070 2615 0
4242 -1070 0
4242 -2615 0
-4243 3237 778 0
4243 -3237 0
4243 -778 0
-4244 3360 838 0
4244 -3360 0
4244 -838 0
-4245 3464 898 0
4245 -3464 0
4245 -898 0
-4246 2200 2201 0
4246 -2200 0
4246 -2201 0
-4247 2202 506 0
4247 -2202 0
4247 -506 0
-4248 2346 2367 2368 0
4248 -2346 0
4248 -2367 0
4248 -2368 0
-4249 508 2203 0
4249 -508 0
4249 -2203 0
-4250 2204 510 0
4250 -2204 0
4250 -510 0
-4251 3540 4196 0
4251 -3540 0
4251 -4196 0
-4252 4153 4197 0
4252 -4153 0
4252 -4197 0
-4253 1072 2380 0
4253 -1072 0
4253 -2380 0
-4254 4154 4198 0
4254 -4154 0
4254 -4198 0
-4255 4155 4199 0
4255 -4155 0
4255 -4199 0
-4256 4156 4200 0
4256 -4156 0
4256 -4200 0
-4257 3511 928 0
4257 -3511 0
4257 -928 0
-4258 4157 4201 0
4258 -4157 0
4258 -4201 0
-4259 3618 986 0
4259 -3618 0
4259 -986 0
-4260 4158 4204 0
4260 -4158 0
4260 -4204 0
-4261 3717 4205 0
4261 -3717 0
4261 -4205 0
-4262 2438 1118 0
4262 -2438 0
4262 -1118 0
-4263 4165 4214 0
4263 -4165 0
4263 -4214 0
-84 1800 1282 0
84 -1800 0
84 -1282 0
-4264 2511 1158 0
4264 -2511 0
4264 -1158 0
-4265 4167 4217 0
4265 -4167 0
4265 -4217 0
-4266 2569 1198 0
4266 -2569 0
4266 -1198 0
-4267 2605 1240 0
4267 -2605 0
4267 -1240 0
-4268 4170 4226 0
4268 -4170 0
4268 -4226 0
-4269 4171 4227 0
4269 -4171 0
4269 -4227 0
-4270 4172 4228 0
4270 -4172 0
4270 -4228 0
-4271 4173 4229 0
4271 -4173 0
4271 -4229 0
-4272 4174 4230 0
4272 -4174 0
4272 -4230 0
-4273 4175 4231 0
4273 -4175 0
4273 -4231 0
-4274 4176 4232 0
4274 -4176 0
4274 -4232 0
-4275 4177 4233 0
4275 -4177 0
4275 -4233 0
-4276 4178 4234 0
4276 -4178 0
4276 -4234 0
-4277 4179 4235 0
4277 -4179 0
4277 -4235 0
-4278 4180 4236 0
4278 -4180 0
4278 -4236 0
-4279 4181 4237 0
4279 -4181 0
4279 -4237 0
-4280 4182 4238 0
4280 -4182 0
4280 -4238 0
-4281 4183 4239 0
4281 -4183 0
4281 -4239 0
-4282 4184 4240 0
4282 -4184 0
4282 -4240 0
-4283 4185 4241 0
4283 -4185 0
4283 -4241 0
-4284 3149 3150 0
4284 -3149 0
4284 -3150 0
-4285 3186 748 0
4285 -3186 0
4285 -748 0
-4286 3238 4243 0
4286 -3238 0
4286 -4243 0
-4287 3290 808 0
4287 -3290 0
4287 -808 0
-4288 3364 4244 0
4288 -3364 0
4288 -4244 0
-4289 3398 868 0
4289 -3398 0
4289 -868 0
-4290 3465 4245 0
4290 -3465 0
4290 -4245 0
-4291 4190 4248 0
4291 -4190 0
4291 -4248 0
-4292 4092 4252 0
4292 -4092 0
4292 -4252 0
-4293 4093 4254 0
4293 -4093 0
4293 -4254 0
-4294 4094 4255 0
4294 -4094 0
4294 -4255 0
-4295 4029 3579 0
4295 -4029 0
4295 -3579 0
-4296 4095 4256 0
4296 -4095 0
4296 -4256 0
-4297 4030 4257 0
4297 -4030 0
4297 -4257 0
-4298 4096 4258 0
4298 -4096 0
4298 -4258 0
-4299 4032 4259 0
4299 -4032 0
4299 -4259 0
-4300 4034 3626 0
4300 -4034 0
4300 -3626 0
-4301 4099 4260 0
4301 -4099 0
4301 -4260 0
-4302 4036 3694 0
4302 -4036 0
4302 -3694 0
-4303 4038 3738 0
4303 -4038 0
4303 -3738 0
-4304 4039 3840 0
4304 -4039 0
4304 -3840 0
-4305 4101 4263 0
4305 -4101 0
4305 -4263 0
-4306 4103 4265 0
4306 -4103 0
4306 -4265 0
-4307 4106 4268 0
4307 -4106 0
4307 -4268 0
-4308 4107 4269 0
4308 -4107 0
4308 -4269 0
-4309 4108 4270 0
4309 -4108 0
4309 -4270 0
-4310 4109 4271 0
4310 -4109 0
4310 -4271 0
-4311 4110 4272 0
4311 -4110 0
4311 -4272 0
-4312 4111 4273 0
4312 -4111 0
4312 -4273 0
-4313 4112 4274 0
4313 -4112 0
4313 -4274 0
-4314 4113 4275 0
4314 -4113 0
4314 -4275 0
-4315 4114 4276 0
4315 -4114 0
4315 -4276 0
-4316 4115 4277 0
4316 -4115 0
4316 -4277 0
-4317 4116 4278 0
4317 -4116 0
4317 -4278 0
-4318 4117 4279 0
4318 -4117 0
4318 -4279 0
-4319 4118 4280 0
4319 -4118 0
4319 -4280 0
-4320 4119 4281 0
4320 -4119 0
4320 -4281 0
-4321 4120 4282 0
4321 -4120 0
4321 -4282 0
-4322 4121 4283 0
4322 -4121 0
4322 -4283 0
-4323 4042 4285 0
4323 -4042 0
4323 -4285 0
-4324 4046 4287 0
4324 -4046 0
4324 -4287 0
-4325 4049 4289 0
4325 -4049 0
4325 -4289 0
-4326 4131 4291 0
4326 -4131 0
4326 -4291 0
-4327 2207 2208 0
4327 -2207 0
4327 -2208 0
-4328 2209 516 0
4328 -2209 0
4328 -516 0
-4329 518 2210 0
4329 -518 0
4329 -2210 0
-4330 2211 520 0
4330 -2211 0
4330 -520 0
-4331 522 2212 0
4331 -522 0
4331 -2212 0
-526 524 2213 0
526 -524 0
526 -2213 0
-4332 1328 2436 0
4332 -1328 0
4332 -2436 0
-52 1274 1768 0
52 -1274 0
52 -1768 0
-4333 2378 1318 0
4333 -2378 0
4333 -1318 0
-4334 1296 2509 0
4334 -1296 0
4334 -2509 0
-4335 1316 2567 0
4335 -1316 0
4335 -2567 0
-4336 1304 2603 0
4336 -1304 0
4336 -2603 0
-4337 208 1953 0
4337 -208 0
4337 -1953 0
-4338 210 1955 0
4338 -210 0
4338 -1955 0
-4339 212 1957 0
4339 -212 0
4339 -1957 0
-4340 38 1758 0
4340 -38 0
4340 -1758 0
-4341 1762 42 0
4341 -1762 0
4341 -42 0
-4342 46 1766 0
4342 -46 0
4342 -1766 0
-4343 148 1893 0
4343 -148 0
4343 -1893 0
-4344 1895 150 0
4344 -1895 0
4344 -150 0
-4345 1897 152 0
4345 -1897 0
4345 -152 0
-4346 268 2013 0
4346 -268 0
4346 -2013 0
-4347 2015 270 0
4347 -2015 0
4347 -270 0
-4348 2017 272 0
4348 -2017 0
4348 -272 0
-4349 2073 328 0
4349 -2073 0
4349 -328 0
-4350 2075 330 0
4350 -2075 0
4350 -330 0
-4351 332 2077 0
4351 -332 0
4351 -2077 0
-4352 982 3588 3589 3593 3590 3592 3591 0
4352 -982 0
4352 -3588 0
4352 -3589 0
4352 -3593 0
4352 -3590 0
4352 -3592 0
4352 -3591 0
-4353 804 3660 3661 3662 3658 3657 3659 0
4353 -804 0
4353 -3660 0
4353 -3661 0
4353 -3662 0
4353 -3658 0
4353 -3657 0
4353 -3659 0
-4354 924 3684 3683 3687 3682 3686 3685 0
4354 -924 0
4354 -3684 0
4354 -3683 0
4354 -3687 0
4354 -3682 0
4354 -3686 0
4354 -3685 0
-4355 864 3728 3724 3726 3727 3725 3729 0
4355 -864 0
4355 -3728 0
4355 -3724 0
4355 -3726 0
4355 -3727 0
4355 -3725 0
4355 -3729 0
-4356 744 3755 3750 3753 3754 3752 3751 0
4356 -744 0
4356 -3755 0
4356 -3750 0
4356 -3753 0
4356 -3754 0
4356 -3752 0
4356 -3751 0
-4357 3112 3110 3113 3111 3114 0
4357 -3112 0
4357 -3110 0
4357 -3113 0
4357 -3111 0
4357 -3114 0
-4358 3117 3119 3116 3115 3118 0
4358 -3117 0
4358 -3119 0
4358 -3116 0
4358 -3115 0
4358 -3118 0
-4359 3181 3179 3180 3178 3182 0
4359 -3181 0
4359 -3179 0
4359 -3180 0
4359 -3178 0
4359 -3182 0
-4360 3191 3193 3189 3192 3190 0
4360 -3191 0
4360 -3193 0
4360 -3189 0
4360 -3192 0
4360 -3190 0
-4361 3206 3204 3207 3205 3208 0
4361 -3206 0
4361 -3204 0
4361 -3207 0
4361 -3205 0
4361 -3208 0
-4362 3212 3213 3210 3209 3211 0
4362 -3212 0
4362 -3213 0
4362 -3210 0
4362 -3209 0
4362 -3211 0
-4363 3305 3307 3309 3308 3306 0
4363 -3305 0
4363 -3307 0
4363 -3309 0
4363 -3308 0
4363 -3306 0
-4364 3318 3319 3316 3315 3317 0
4364 -3318 0
4364 -3319 0
4364 -3316 0
4364 -3315 0
4364 -3317 0
-4365 3425 3427 3424 3428 3426 0
4365 -3425 0
4365 -3427 0
4365 -3424 0
4365 -3428 0
4365 -3426 0
-4366 3438 3437 3436 3435 3439 0
4366 -3438 0
4366 -3437 0
4366 -3436 0
4366 -3435 0
4366 -3439 0
-4367 1407 1443 1475 0
4367 -1407 0
4367 -1443 0
4367 -1475 0
-4368 3545 3546 0
4368 -3545 0
4368 -3546 0
-4369 1501 1513 1541 0
4369 -1501 0
4369 -1513 0
4369 -1541 0
-4370 1601 1603 1609 0
4370 -1601 0
4370 -1603 0
4370 -1609 0
-4371 3569 3574 0
4371 -3569 0
4371 -3574 0
-4372 2386 1080 0
4372 -2386 0
4372 -1080 0
-4373 1645 1663 1667 0
4373 -1645 0
4373 -1663 0
4373 -1667 0
-4374 2388 1084 0
4374 -2388 0
4374 -1084 0
-4375 1681 1729 1733 0
4375 -1681 0
4375 -1729 0
4375 -1733 0
-4376 2215 2216 0
4376 -2215 0
4376 -2216 0
-4377 2217 528 0
4377 -2217 0
4377 -528 0
-4378 2218 530 0
4378 -2218 0
4378 -530 0
-4379 2219 532 0
4379 -2219 0
4379 -532 0
-4380 2220 534 0
4380 -2220 0
4380 -534 0
-4381 2221 536 0
4381 -2221 0
4381 -536 0
-540 538 2222 0
540 -538 0
540 -2222 0
-4382 2400 2403 2421 0
4382 -2400 0
4382 -2403 0
4382 -2421 0
-44 1116 1760 0
44 -1116 0
44 -1760 0
-4383 1124 2444 0
4383 -1124 0
4383 -2444 0
-4384 2446 1126 0
4384 -2446 0
4384 -1126 0
-68 1144 1784 0
68 -1144 0
68 -1784 0
-4385 2485 2494 2495 0
4385 -2485 0
4385 -2494 0
4385 -2495 0
-4386 2517 1162 0
4386 -2517 0
4386 -1162 0
-4387 1164 2519 0
4387 -1164 0
4387 -2519 0
-4388 2535 2544 2554 0
4388 -2535 0
4388 -2544 0
4388 -2554 0
-4389 1206 2575 0
4389 -1206 0
4389 -2575 0
-4390 2577 1208 0
4390 -2577 0
4390 -1208 0
-4391 3607 3610 0
4391 -3607 0
4391 -3610 0
-4392 2269 2270 0
4392 -2269 0
4392 -2270 0
-4393 2271 616 0
4393 -2271 0
4393 -616 0
-4394 618 2272 0
4394 -618 0
4394 -2272 0
-4395 2273 620 0
4395 -2273 0
4395 -620 0
-624 2274 622 0
624 -2274 0
624 -622 0
-4396 1064 2611 0
4396 -1064 0
4396 -2611 0
-4397 1068 2613 0
4397 -1068 0
4397 -2613 0
-4398 2641 2648 2655 0
4398 -2641 0
4398 -2648 0
4398 -2655 0
-4399 2665 2666 2684 0
4399 -2665 0
4399 -2666 0
4399 -2684 0
-4400 2697 2706 2717 0
4400 -2697 0
4400 -2706 0
4400 -2717 0
-4401 3652 3655 0
4401 -3652 0
4401 -3655 0
-4402 2724 2738 2747 0
4402 -2724 0
4402 -2738 0
4402 -2747 0
-4403 2751 2770 2773 0
4403 -2751 0
4403 -2770 0
4403 -2773 0
-4404 2783 2791 2793 0
4404 -2783 0
4404 -2791 0
4404 -2793 0
-4405 2821 2822 2824 0
4405 -2821 0
4405 -2822 0
4405 -2824 0
-4406 2839 2862 2864 0
4406 -2839 0
4406 -2862 0
4406 -2864 0
-4407 2889 2891 2893 0
4407 -2889 0
4407 -2891 0
4407 -2893 0
-4408 2904 2920 2922 0
4408 -2904 0
4408 -2920 0
4408 -2922 0
-4409 2935 2936 2953 0
4409 -2935 0
4409 -2936 0
4409 -2953 0
-4410 2960 2962 2977 0
4410 -2960 0
4410 -2962 0
4410 -2977 0
-4411 3002 3008 3011 0
4411 -3002 0
4411 -3008 0
4411 -3011 0
-4412 3017 3021 3038 0
4412 -3017 0
4412 -3021 0
4412 -3038 0
-4413 3045 3052 3056 0
4413 -3045 0
4413 -3052 0
4413 -3056 0
-4414 3072 3073 3076 0
4414 -3072 0
4414 -3073 0
4414 -3076 0
-4415 3336 3341 0
4415 -3336 0
4415 -3341 0
-4416 2193 2194 0
4416 -2193 0
4416 -2194 0
-4417 496 2195 0
4417 -496 0
4417 -2195 0
-4418 498 2196 0
4418 -498 0
4418 -2196 0
-4419 2197 500 0
4419 -2197 0
4419 -500 0
-504 502 2198 0
504 -502 0
504 -2198 0
-4420 2347 2350 2358 0
4420 -2347 0
4420 -2350 0
4420 -2358 0
-4421 3520 3523 0
4421 -3520 0
4421 -3523 0
-4422 176 1921 0
4422 -176 0
4422 -1921 0
-4423 178 1922 0
4423 -178 0
4423 -1922 0
-4424 1981 236 0
4424 -1981 0
4424 -236 0
-4425 1982 238 0
4425 -1982 0
4425 -238 0
-4426 1814 94 0
4426 -1814 0
4426 -94 0
-4427 98 1834 0
4427 -98 0
4427 -1834 0
-4428 2041 296 0
4428 -2041 0
4428 -296 0
-4429 298 2042 0
4429 -298 0
4429 -2042 0
-4430 2101 356 0
4430 -2101 0
4430 -356 0
-4431 358 2102 0
4431 -358 0
4431 -2102 0
-4432 1486 4367 0
4432 -1486 0
4432 -4367 0
-4433 1511 4369 0
4433 -1511 0
4433 -4369 0
-4434 2381 1256 0
4434 -2381 0
4434 -1256 0
-4435 4371 3572 3570 3571 3573 3568 750 0
4435 -4371 0
4435 -3572 0
4435 -3570 0
4435 -3571 0
4435 -3573 0
4435 -3568 0
4435 -750 0
-4436 1563 4370 0
4436 -1563 0
4436 -4370 0
-4437 1619 4373 0
4437 -1619 0
4437 -4373 0
-4438 4391 3609 3606 3608 3612 3611 810 0
4438 -4391 0
4438 -3609 0
4438 -3606 0
4438 -3608 0
4438 -3612 0
4438 -3611 0
4438 -810 0
-4439 1713 4375 0
4439 -1713 0
4439 -4375 0
-4440 4401 3654 3651 3653 3650 3656 870 0
4440 -4401 0
4440 -3654 0
4440 -3651 0
4440 -3653 0
4440 -3650 0
4440 -3656 0
4440 -870 0
-4441 2413 4382 0
4441 -2413 0
4441 -4382 0
-4442 2439 1268 0
4442 -2439 0
4442 -1268 0
-4443 3760 3762 3761 3759 3757 0
4443 -3760 0
4443 -3762 0
4443 -3761 0
4443 -3759 0
4443 -3757 0
-4444 3789 3791 3790 3788 3793 0
4444 -3789 0
4444 -3791 0
4444 -3790 0
4444 -3788 0
4444 -3793 0
-4445 2476 4385 0
4445 -2476 0
4445 -4385 0
-4446 2512 1280 0
4446 -2512 0
4446 -1280 0
-4447 1829 1818 1832 1822 1826 0
4447 -1829 0
4447 -1818 0
4447 -1832 0
4447 -1822 0
4447 -1826 0
-104 1836 1176 0
104 -1836 0
104 -1176 0
-4448 2532 4388 0
4448 -2532 0
4448 -4388 0
-4449 2570 1294 0
4449 -2570 0
4449 -1294 0
-4450 2586 2582 2589 2588 2585 0
4450 -2586 0
4450 -2582 0
4450 -2589 0
4450 -2588 0
4450 -2585 0
-4451 2606 1242 0
4451 -2606 0
4451 -1242 0
-4452 2625 2619 2624 2623 2620 0
4452 -2625 0
4452 -2619 0
4452 -2624 0
4452 -2623 0
4452 -2620 0
-4453 2661 4398 0
4453 -2661 0
4453 -4398 0
-4454 2673 4399 0
4454 -2673 0
4454 -4399 0
-4455 2705 4400 0
4455 -2705 0
4455 -4400 0
-4456 2731 4402 0
4456 -2731 0
4456 -4402 0
-4457 2760 4403 0
4457 -2760 0
4457 -4403 0
-4458 2805 4404 0
4458 -2805 0
4458 -4404 0
-4459 2832 4405 0
4459 -2832 0
4459 -4405 0
-4460 2844 4406 0
4460 -2844 0
4460 -4406 0
-4461 2880 4407 0
4461 -2880 0
4461 -4407 0
-4462 2913 4408 0
4462 -2913 0
4462 -4408 0
-4463 2941 4409 0
4463 -2941 0
4463 -4409 0
-4464 2965 4410 0
4464 -2965 0
4464 -4410 0
-4465 2993 4411 0
4465 -2993 0
4465 -4411 0
-4466 3037 4412 0
4466 -3037 0
4466 -4412 0
-4467 3043 4413 0
4467 -3043 0
4467 -4413 0
-4468 3091 4414 0
4468 -3091 0
4468 -4414 0
-4469 4357 944 0
4469 -4357 0
4469 -944 0
-4470 4359 1002 0
4470 -4359 0
4470 -1002 0
-4471 4361 764 0
4471 -4361 0
4471 -764 0
-4472 4363 824 0
4472 -4363 0
4472 -824 0
-4473 4415 3338 3339 3342 3340 3337 988 0
4473 -4415 0
4473 -3338 0
4473 -3339 0
4473 -3342 0
4473 -3340 0
4473 -3337 0
4473 -988 0
-4474 4365 884 0
4474 -4365 0
4474 -884 0
-4475 2366 4420 0
4475 -2366 0
4475 -4420 0
-4476 4421 3518 3522 3517 3521 3519 930 0
4476 -4421 0
4476 -3518 0
4476 -3522 0
4476 -3517 0
4476 -3521 0
4476 -3519 0
4476 -930 0
-4477 156 1901 0
4477 -156 0
4477 -1901 0
-4478 1903 158 0
4478 -1903 0
4478 -158 0
-4479 1905 160 0
4479 -1905 0
4479 -160 0
-4480 1899 154 0
4480 -1899 0
4480 -154 0
-4481 1959 214 0
4481 -1959 0
4481 -214 0
-4482 1963 218 0
4482 -1963 0
4482 -218 0
-4483 1965 220 0
4483 -1965 0
4483 -220 0
-4484 216 1961 0
4484 -216 0
4484 -1961 0
-4485 2025 280 0
4485 -2025 0
4485 -280 0
-4486 2019 274 0
4486 -2019 0
4486 -274 0
-4487 2021 276 0
4487 -2021 0
4487 -276 0
-4488 2023 278 0
4488 -2023 0
4488 -278 0
-4489 2379 1066 0
4489 -2379 0
4489 -1066 0
-4490 1623 1637 0
4490 -1623 0
4490 -1637 0
-4491 1695 1725 0
4491 -1695 0
4491 -1725 0
-4492 2437 1114 0
4492 -2437 0
4492 -1114 0
-60 1134 1776 0
60 -1134 0
60 -1776 0
-4493 2239 2240 0
4493 -2239 0
4493 -2240 0
-4494 568 2241 0
4494 -568 0
4494 -2241 0
-4495 570 2242 0
4495 -570 0
4495 -2242 0
-4496 2243 572 0
4496 -2243 0
4496 -572 0
-576 574 2244 0
576 -574 0
576 -2244 0
-4497 1196 2568 0
4497 -1196 0
4497 -2568 0
-4498 1156 2510 0
4498 -1156 0
4498 -2510 0
-4499 2604 1238 0
4499 -2604 0
4499 -1238 0
-4500 2870 2878 0
4500 -2870 0
4500 -2878 0
-4501 2899 2911 0
4501 -2899 0
4501 -2911 0
-4502 2943 2949 0
4502 -2943 0
4502 -2949 0
-4503 2967 2974 0
4503 -2967 0
4503 -2974 0
-4504 2984 2996 0
4504 -2984 0
4504 -2996 0
-4505 3015 3023 0
4505 -3015 0
4505 -3023 0
-4506 3050 3062 0
4506 -3050 0
4506 -3062 0
-4507 3082 3097 0
4507 -3082 0
4507 -3097 0
-4508 2172 456 0
4508 -2172 0
4508 -456 0
-4509 2173 458 0
4509 -2173 0
4509 -458 0
-4510 460 2174 0
4510 -460 0
4510 -2174 0
-4511 1770 50 0
4511 -1770 0
4511 -50 0
-4512 1774 54 0
4512 -1774 0
4512 -54 0
-4513 58 1778 0
4513 -58 0
4513 -1778 0
-4514 62 1782 0
4514 -62 0
4514 -1782 0
-4515 2079 334 0
4515 -2079 0
4515 -334 0
-4516 336 2081 0
4516 -336 0
4516 -2081 0
-4517 2085 340 0
4517 -2085 0
4517 -340 0
-4518 338 2083 0
4518 -338 0
4518 -2083 0
-4519 3536 3541 3542 3537 3538 0
4519 -3536 0
4519 -3541 0
4519 -3542 0
4519 -3537 0
4519 -3538 0
-4520 3674 3675 3673 3670 3672 0
4520 -3674 0
4520 -3675 0
4520 -3673 0
4520 -3670 0
4520 -3672 0
-4521 3710 3711 3716 3713 3714 0
4521 -3710 0
4521 -3711 0
4521 -3716 0
4521 -3713 0
4521 -3714 0
-4522 3722 3723 3719 3718 3721 0
4522 -3722 0
4522 -3723 0
4522 -3719 0
4522 -3718 0
4522 -3721 0
-4523 3806 3805 3800 3803 3802 0
4523 -3806 0
4523 -3805 0
4523 -3800 0
4523 -3803 0
4523 -3802 0
-4524 3884 3888 3882 3887 3885 0
4524 -3884 0
4524 -3888 0
4524 -3882 0
4524 -3887 0
4524 -3885 0
-4525 3892 3895 3894 3890 3889 0
4525 -3892 0
4525 -3895 0
4525 -3894 0
4525 -3890 0
4525 -3889 0
-4526 3107 3108 3105 3109 3106 0
4526 -3107 0
4526 -3108 0
4526 -3105 0
4526 -3109 0
4526 -3106 0
-4527 3176 3173 3175 746 3177 3174 0
4527 -3176 0
4527 -3173 0
4527 -3175 0
4527 -746 0
4527 -3177 0
4527 -3174 0
-4528 3201 3202 3199 3203 3200 0
4528 -3201 0
4528 -3202 0
4528 -3199 0
4528 -3203 0
4528 -3200 0
-4529 3229 3225 3228 984 3226 3227 0
4529 -3229 0
4529 -3225 0
4529 -3228 0
4529 -984 0
4529 -3226 0
4529 -3227 0
-4530 3236 3241 3235 3239 3240 0
4530 -3236 0
4530 -3241 0
4530 -3235 0
4530 -3239 0
4530 -3240 0
-4531 3257 3254 3256 3255 3253 0
4531 -3257 0
4531 -3254 0
4531 -3256 0
4531 -3255 0
4531 -3253 0
-4532 3288 3286 3287 806 3284 3285 0
4532 -3288 0
4532 -3286 0
4532 -3287 0
4532 -806 0
4532 -3284 0
4532 -3285 0
-4533 3303 3304 3301 3300 3302 0
4533 -3303 0
4533 -3304 0
4533 -3301 0
4533 -3300 0
4533 -3302 0
-4534 3363 3361 3362 3365 3359 0
4534 -3363 0
4534 -3361 0
4534 -3362 0
4534 -3365 0
4534 -3359 0
-4535 3392 3395 3396 866 3393 3394 0
4535 -3392 0
4535 -3395 0
4535 -3396 0
4535 -866 0
4535 -3393 0
4535 -3394 0
-4536 3420 3421 3423 3422 3419 0
4536 -3420 0
4536 -3421 0
4536 -3423 0
4536 -3422 0
4536 -3419 0
-4537 3462 3467 3461 3463 3466 0
4537 -3462 0
4537 -3467 0
4537 -3461 0
4537 -3463 0
4537 -3466 0
-4538 3510 3508 3509 926 3506 3507 0
4538 -3510 0
4538 -3508 0
4538 -3509 0
4538 -926 0
4538 -3506 0
4538 -3507 0
-4539 4432 1404 0
4539 -4432 0
4539 -1404 0
-4540 4433 1551 0
4540 -4433 0
4540 -1551 0
-4541 4436 1575 0
4541 -4436 0
4541 -1575 0
-4542 4437 4490 0
4542 -4437 0
4542 -4490 0
-4543 4439 4491 0
4543 -4439 0
4543 -4491 0
-4544 4441 2420 0
4544 -4441 0
4544 -2420 0
-4545 3696 3701 0
4545 -3696 0
4545 -3701 0
-4546 3743 3742 0
4546 -3743 0
4546 -3742 0
-4547 3771 3773 0
4547 -3771 0
4547 -3773 0
-4548 3780 3784 0
4548 -3780 0
4548 -3784 0
-4549 2453 2456 0
4549 -2453 0
4549 -2456 0
-4550 3860 3859 0
4550 -3860 0
4550 -3859 0
-4551 4445 2483 0
4551 -4445 0
4551 -2483 0
-4552 4448 2553 0
4552 -4448 0
4552 -2553 0
-4553 4453 2659 0
4553 -4453 0
4553 -2659 0
-4554 4454 2671 0
4554 -4454 0
4554 -2671 0
-4555 4455 2693 0
4555 -4455 0
4555 -2693 0
-4556 4456 2730 0
4556 -4456 0
4556 -2730 0
-4557 4457 2768 0
4557 -4457 0
4557 -2768 0
-4558 4458 2780 0
4558 -4458 0
4558 -2780 0
-4559 4459 2808 0
4559 -4459 0
4559 -2808 0
-4560 4460 2853 0
4560 -4460 0
4560 -2853 0
-4561 4461 4500 0
4561 -4461 0
4561 -4500 0
-4562 4462 4501 0
4562 -4462 0
4562 -4501 0
-4563 4463 4502 0
4563 -4463 0
4563 -4502 0
-4564 4464 4503 0
4564 -4464 0
4564 -4503 0
-4565 4465 4504 0
4565 -4465 0
4565 -4504 0
-4566 4466 4505 0
4566 -4466 0
4566 -4505 0
-4567 4467 4506 0
4567 -4467 0
4567 -4506 0
-4568 4468 4507 0
4568 -4468 0
4568 -4507 0
-4569 940 4526 0
4569 -940 0
4569 -4526 0
-4570 760 4528 0
4570 -760 0
4570 -4528 0
-4571 998 4531 0
4571 -998 0
4571 -4531 0
-4572 820 4533 0
4572 -820 0
4572 -4533 0
-4573 880 4536 0
4573 -880 0
4573 -4536 0
-4574 4475 2369 0
4574 -4475 0
4574 -2369 0
-4575 4251 4519 0
4575 -4251 0
4575 -4519 0
-4576 4292 4539 0
4576 -4292 0
4576 -4539 0
-4577 4293 4540 0
4577 -4293 0
4577 -4540 0
-4578 4294 4541 0
4578 -4294 0
4578 -4541 0
-4579 4296 4542 0
4579 -4296 0
4579 -4542 0
-4580 4298 4543 0
4580 -4298 0
4580 -4543 0
-4581 4301 4544 0
4581 -4301 0
4581 -4544 0
-4582 3702 4545 0
4582 -3702 0
4582 -4545 0
-4583 4261 4522 0
4583 -4261 0
4583 -4522 0
-4584 3741 4546 0
4584 -3741 0
4584 -4546 0
-4585 3770 4547 0
4585 -3770 0
4585 -4547 0
-4586 3778 4548 0
4586 -3778 0
4586 -4548 0
-4587 2454 4549 0
4587 -2454 0
4587 -4549 0
-4588 3861 4550 0
4588 -3861 0
4588 -4550 0
-4589 4305 4551 0
4589 -4305 0
4589 -4551 0
-4590 4306 4552 0
4590 -4306 0
4590 -4552 0
-4591 4307 4553 0
4591 -4307 0
4591 -4553 0
-4592 4308 4554 0
4592 -4308 0
4592 -4554 0
-4593 4309 4555 0
4593 -4309 0
4593 -4555 0
-4594 4310 4556 0
4594 -4310 0
4594 -4556 0
-4595 4311 4557 0
4595 -4311 0
4595 -4557 0
-4596 4312 4558 0
4596 -4312 0
4596 -4558 0
-4597 4313 4559 0
4597 -4313 0
4597 -4559 0
-4598 4314 4560 0
4598 -4314 0
4598 -4560 0
-4599 4315 4561 0
4599 -4315 0
4599 -4561 0
-4600 4316 4562 0
4600 -4316 0
4600 -4562 0
-4601 4317 4563 0
4601 -4317 0
4601 -4563 0
-4602 4318 4564 0
4602 -4318 0
4602 -4564 0
-4603 4319 4565 0
4603 -4319 0
4603 -4565 0
-4604 4320 4566 0
4604 -4320 0
4604 -4566 0
-4605 4321 4567 0
4605 -4321 0
4605 -4567 0
-4606 4322 4568 0
4606 -4322 0
4606 -4568 0
-4607 948 4358 0
4607 -948 0
4607 -4358 0
-4608 1006 4360 0
4608 -1006 0
4608 -4360 0
-4609 768 4362 0
4609 -768 0
4609 -4362 0
-4610 4286 4530 0
4610 -4286 0
4610 -4530 0
-4611 828 4364 0
4611 -828 0
4611 -4364 0
-4612 4288 4534 0
4612 -4288 0
4612 -4534 0
-4613 888 4366 0
4613 -888 0
4613 -4366 0
-4614 4290 4537 0
4614 -4290 0
4614 -4537 0
-4615 4326 4574 0
4615 -4326 0
4615 -4574 0
-4616 1418 1482 0
4616 -1418 0
4616 -1482 0
-4617 3547 3548 0
4617 -3547 0
4617 -3548 0
-4618 1525 1545 0
4618 -1525 0
4618 -1545 0
-4619 1573 1583 0
4619 -1573 0
4619 -1583 0
-4620 1643 1651 0
4620 -1643 0
4620 -1651 0
-4621 1705 1735 0
4621 -1705 0
4621 -1735 0
-4622 2409 2426 0
4622 -2409 0
4622 -2426 0
-4623 2475 2488 0
4623 -2475 0
4623 -2488 0
-4624 2546 2548 0
4624 -2546 0
4624 -2548 0
-4625 2261 2262 0
4625 -2261 0
4625 -2262 0
-4626 2263 602 0
4626 -2263 0
4626 -602 0
-4627 604 2264 0
4627 -604 0
4627 -2264 0
-4628 606 2265 0
4628 -606 0
4628 -2265 0
-4629 2266 608 0
4629 -2266 0
4629 -608 0
-4630 610 2267 0
4630 -610 0
4630 -2267 0
-614 2268 612 0
614 -2268 0
614 -612 0
-4631 2283 2284 0
4631 -2283 0
4631 -2284 0
-4632 2285 638 0
4632 -2285 0
4632 -638 0
-4633 640 2286 0
4633 -640 0
4633 -2286 0
-4634 2287 642 0
4634 -2287 0
4634 -642 0
-4635 644 2288 0
4635 -644 0
4635 -2288 0
-4636 2737 2748 0
4636 -2737 0
4636 -2748 0
-4637 2756 2762 0
4637 -2756 0
4637 -2762 0
-4638 2784 2799 0
4638 -2784 0
4638 -2799 0
-4639 2812 2828 0
4639 -2812 0
4639 -2828 0
-4640 2848 2855 0
4640 -2848 0
4640 -2855 0
-4641 2886 2895 0
4641 -2886 0
4641 -2895 0
-4642 2918 2924 0
4642 -2918 0
4642 -2924 0
-4643 2928 2952 0
4643 -2928 0
4643 -2952 0
-4644 2976 2981 0
4644 -2976 0
4644 -2981 0
-4645 2998 3012 0
4645 -2998 0
4645 -3012 0
-4646 3022 3034 0
4646 -3022 0
4646 -3034 0
-4647 3057 3068 0
4647 -3057 0
4647 -3068 0
-4648 3074 3086 0
4648 -3074 0
4648 -3086 0
-4649 2704 2719 0
4649 -2704 0
4649 -2719 0
-4650 2640 2656 0
4650 -2640 0
4650 -2656 0
-4651 2668 2683 0
4651 -2668 0
4651 -2683 0
-4652 2343 2352 0
4652 -2343 0
4652 -2352 0
-4653 3501 3502 3503 3504 3505 922 0
4653 -3501 0
4653 -3502 0
4653 -3503 0
4653 -3504 0
4653 -3505 0
4653 -922 0
-4654 1062 2377 0
4654 -1062 0
4654 -2377 0
-4655 1112 2435 0
4655 -1112 0
4655 -2435 0
-4656 2508 1152 0
4656 -2508 0
4656 -1152 0
-108 1840 1182 0
108 -1840 0
108 -1182 0
-4657 2566 1194 0
4657 -2566 0
4657 -1194 0
-4658 2602 1236 0
4658 -2602 0
4658 -1236 0
-648 2289 646 0
648 -2289 0
648 -646 0
-4659 3168 742 3169 3170 3171 3172 0
4659 -3168 0
4659 -742 0
4659 -3169 0
4659 -3170 0
4659 -3171 0
4659 -3172 0
-4660 3274 3275 802 3276 3277 3278 0
4660 -3274 0
4660 -3275 0
4660 -802 0
4660 -3276 0
4660 -3277 0
4660 -3278 0
-4661 3354 3355 3356 3357 3358 980 0
4661 -3354 0
4661 -3355 0
4661 -3356 0
4661 -3357 0
4661 -3358 0
4661 -980 0
-4662 3387 3388 3389 3390 3391 862 0
4662 -3387 0
4662 -3388 0
4662 -3389 0
4662 -3390 0
4662 -3391 0
4662 -862 0
-4663 2332 2333 0
4663 -2332 0
4663 -2333 0
-4664 718 2334 0
4664 -718 0
4664 -2334 0
-4665 2335 720 0
4665 -2335 0
4665 -720 0
-4666 722 2336 0
4666 -722 0
4666 -2336 0
-726 724 2337 0
726 -724 0
726 -2337 0
-4667 4616 1453 0
4667 -4616 0
4667 -1453 0
-4668 4618 1547 0
4668 -4618 0
4668 -1547 0
-4669 4619 1589 0
4669 -4619 0
4669 -1589 0
-4670 4620 1625 0
4670 -4620 0
4670 -1625 0
-4671 4621 1683 0
4671 -4621 0
4671 -1683 0
-4672 2391 1090 0
4672 -2391 0
4672 -1090 0
-4673 4622 2425 0
4673 -4622 0
4673 -2425 0
-4674 2458 1130 0
4674 -2458 0
4674 -1130 0
-4675 4623 2469 0
4675 -4623 0
4675 -2469 0
-4676 2522 1170 0
4676 -2522 0
4676 -1170 0
-4677 4624 2538 0
4677 -4624 0
4677 -2538 0
-134 1866 1210 0
134 -1866 0
134 -1210 0
-4678 2580 1218 0
4678 -2580 0
4678 -1218 0
-4679 2616 1246 0
4679 -2616 0
4679 -1246 0
-4680 4650 2657 0
4680 -4650 0
4680 -2657 0
-4681 4651 2669 0
4681 -4651 0
4681 -2669 0
-4682 4649 2691 0
4682 -4649 0
4682 -2691 0
-4683 4636 2720 0
4683 -4636 0
4683 -2720 0
-4684 4637 2767 0
4684 -4637 0
4684 -2767 0
-4685 4638 2788 0
4685 -4638 0
4685 -2788 0
-4686 4639 2815 0
4686 -4639 0
4686 -2815 0
-4687 4640 2859 0
4687 -4640 0
4687 -2859 0
-4688 4641 2871 0
4688 -4641 0
4688 -2871 0
-4689 4642 2903 0
4689 -4642 0
4689 -2903 0
-4690 4643 2934 0
4690 -4643 0
4690 -2934 0
-4691 4644 2968 0
4691 -4644 0
4691 -2968 0
-4692 4645 3010 0
4692 -4645 0
4692 -3010 0
-4693 4646 3020 0
4693 -4646 0
4693 -3020 0
-4694 4647 3055 0
4694 -4647 0
4694 -3055 0
-4695 4648 3077 0
4695 -4648 0
4695 -3077 0
-4696 3214 770 0
4696 -3214 0
4696 -770 0
-4697 3323 830 0
4697 -3323 0
4697 -830 0
-4698 3434 1008 0
4698 -3434 0
4698 -1008 0
-4699 3453 890 0
4699 -3453 0
4699 -890 0
-4700 4652 2344 0
4700 -4652 0
4700 -2344 0
-4701 3532 950 0
4701 -3532 0
4701 -950 0
-4702 1411 1446 0
4702 -1411 0
4702 -1446 0
-4703 1503 1505 0
4703 -1503 0
4703 -1505 0
-4704 1595 1605 0
4704 -1595 0
4704 -1605 0
-4705 1627 1639 0
4705 -1627 0
4705 -1639 0
-4706 1685 1721 0
4706 -1685 0
4706 -1721 0
-4707 2394 1096 0
4707 -2394 0
4707 -1096 0
-4708 2408 2423 0
4708 -2408 0
4708 -2423 0
-4709 1136 2461 0
4709 -1136 0
4709 -2461 0
-4710 2467 2484 0
4710 -2467 0
4710 -2484 0
-80 1154 1796 0
80 -1154 0
80 -1796 0
-4711 2246 2247 0
4711 -2246 0
4711 -2247 0
-4712 578 2248 0
4712 -578 0
4712 -2248 0
-4713 2249 580 0
4713 -2249 0
4713 -580 0
-4714 2250 582 0
4714 -2250 0
4714 -582 0
-4715 2251 584 0
4715 -2251 0
4715 -584 0
-4716 2252 586 0
4716 -2252 0
4716 -586 0
-590 588 2253 0
590 -588 0
590 -2253 0
-4717 2255 2256 0
4717 -2255 0
4717 -2256 0
-4718 2257 592 0
4718 -2257 0
4718 -592 0
-4719 594 2258 0
4719 -594 0
4719 -2258 0
-4720 2259 596 0
4720 -2259 0
4720 -596 0
-600 2260 598 0
600 -2260 0
600 -598 0
-4721 1220 2590 0
4721 -1220 0
4721 -2590 0
-4722 2626 1078 0
4722 -2626 0
4722 -1078 0
-4723 2633 2634 0
4723 -2633 0
4723 -2634 0
-4724 2675 2678 0
4724 -2675 0
4724 -2678 0
-4725 2699 2700 0
4725 -2699 0
4725 -2700 0
-4726 2725 2726 0
4726 -2725 0
4726 -2726 0
-4727 2752 2772 0
4727 -2752 0
4727 -2772 0
-4728 2781 2794 0
4728 -2781 0
4728 -2794 0
-4729 2818 2823 0
4729 -2818 0
4729 -2823 0
-4730 2849 2865 0
4730 -2849 0
4730 -2865 0
-4731 2872 2879 0
4731 -2872 0
4731 -2879 0
-4732 2902 2912 0
4732 -2902 0
4732 -2912 0
-4733 2944 2950 0
4733 -2944 0
4733 -2950 0
-4734 2969 2975 0
4734 -2969 0
4734 -2975 0
-4735 2988 3006 0
4735 -2988 0
4735 -3006 0
-4736 3014 3027 0
4736 -3014 0
4736 -3027 0
-4737 3048 3059 0
4737 -3048 0
4737 -3059 0
-4738 3078 3096 0
4738 -3078 0
4738 -3096 0
-4739 1174 2525 0
4739 -1174 0
4739 -2525 0
-4740 2537 2555 0
4740 -2537 0
4740 -2555 0
-4741 2339 2359 0
4741 -2339 0
4741 -2359 0
-4742 1414 1428 0
4742 -1414 0
4742 -1428 0
-4743 1499 1519 0
4743 -1499 0
4743 -1519 0
-4744 1561 1591 0
4744 -1561 0
4744 -1591 0
-4745 1655 1657 0
4745 -1655 0
4745 -1657 0
-4746 1687 1727 0
4746 -1687 0
4746 -1727 0
-4747 2424 2428 0
4747 -2424 0
4747 -2428 0
-4748 2430 1326 0
4748 -2430 0
4748 -1326 0
-4749 2487 2491 0
4749 -2487 0
4749 -2491 0
-4750 1332 2503 0
4750 -1332 0
4750 -2503 0
-4751 2557 2559 0
4751 -2557 0
4751 -2559 0
-4752 2561 1390 0
4752 -2561 0
4752 -1390 0
-122 1392 1854 0
122 -1392 0
122 -1854 0
-4753 2597 1382 0
4753 -2597 0
4753 -1382 0
-4754 2635 2654 0
4754 -2635 0
4754 -2654 0
-4755 2676 2677 0
4755 -2676 0
4755 -2677 0
-4756 2696 2698 0
4756 -2696 0
4756 -2698 0
-4757 2728 2733 0
4757 -2728 0
4757 -2733 0
-4758 2759 2778 0
4758 -2759 0
4758 -2778 0
-4759 2789 2801 0
4759 -2789 0
4759 -2801 0
-4760 2816 2831 0
4760 -2816 0
4760 -2831 0
-4761 2843 2860 0
4761 -2843 0
4761 -2860 0
-4762 2867 2868 0
4762 -2867 0
4762 -2868 0
-4763 2897 2898 0
4763 -2897 0
4763 -2898 0
-4764 2929 2930 0
4764 -2929 0
4764 -2930 0
-4765 2954 2956 0
4765 -2954 0
4765 -2956 0
-4766 2989 3009 0
4766 -2989 0
4766 -3009 0
-4767 3018 3028 0
4767 -3018 0
4767 -3028 0
-4768 3053 3058 0
4768 -3053 0
4768 -3058 0
-4769 3079 3099 0
4769 -3079 0
4769 -3099 0
-4770 2319 2320 0
4770 -2319 0
4770 -2320 0
-4771 2321 696 0
4771 -2321 0
4771 -696 0
-4772 2322 698 0
4772 -2322 0
4772 -698 0
-4773 2323 700 0
4773 -2323 0
4773 -700 0
-4774 2324 702 0
4774 -2324 0
4774 -702 0
-706 2325 704 0
706 -2325 0
706 -704 0
-4775 2185 2186 0
4775 -2185 0
4775 -2186 0
-4776 482 2187 0
4776 -482 0
4776 -2187 0
-4777 2188 484 0
4777 -2188 0
4777 -484 0
-4778 486 2189 0
4778 -486 0
4778 -2189 0
-4779 2190 488 0
4779 -2190 0
4779 -488 0
-4780 490 2191 0
4780 -490 0
4780 -2191 0
-4781 2342 2345 0
4781 -2342 0
4781 -2345 0
-4782 2372 1366 0
4782 -2372 0
4782 -1366 0
-4783 4702 4742 0
4783 -4702 0
4783 -4742 0
-4784 4703 4743 0
4784 -4703 0
4784 -4743 0
-4785 2382 1320 0
4785 -2382 0
4785 -1320 0
-4786 4704 4744 0
4786 -4704 0
4786 -4744 0
-4787 4705 4745 0
4787 -4705 0
4787 -4745 0
-4788 4706 4746 0
4788 -4706 0
4788 -4746 0
-4789 4708 4747 0
4789 -4708 0
4789 -4747 0
-4790 3669 812 0
4790 -3669 0
4790 -812 0
-4791 3712 752 0
4791 -3712 0
4791 -752 0
-4792 2440 1312 0
4792 -2440 0
4792 -1312 0
-4793 3745 732 0
4793 -3745 0
4793 -732 0
-4794 3763 792 0
4794 -3763 0
4794 -792 0
-4795 3801 932 0
4795 -3801 0
4795 -932 0
-64 1780 1368 0
64 -1780 0
64 -1368 0
-4796 4710 4749 0
4796 -4710 0
4796 -4749 0
-4797 3886 990 0
4797 -3886 0
4797 -990 0
-4798 3891 872 0
4798 -3891 0
4798 -872 0
-4799 3917 912 0
4799 -3917 0
4799 -912 0
-4800 2513 1300 0
4800 -2513 0
4800 -1300 0
-4801 3943 852 0
4801 -3943 0
4801 -852 0
-4802 3946 970 0
4802 -3946 0
4802 -970 0
-4803 4740 4751 0
4803 -4740 0
4803 -4751 0
-4804 2571 1370 0
4804 -2571 0
4804 -1370 0
-4805 2607 1342 0
4805 -2607 0
4805 -1342 0
-4806 4723 4754 0
4806 -4723 0
4806 -4754 0
-4807 4724 4755 0
4807 -4724 0
4807 -4755 0
-4808 4725 4756 0
4808 -4725 0
4808 -4756 0
-4809 4726 4757 0
4809 -4726 0
4809 -4757 0
-4810 4727 4758 0
4810 -4727 0
4810 -4758 0
-4811 4728 4759 0
4811 -4728 0
4811 -4759 0
-4812 4729 4760 0
4812 -4729 0
4812 -4760 0
-4813 4730 4761 0
4813 -4730 0
4813 -4761 0
-4814 4731 4762 0
4814 -4731 0
4814 -4762 0
-4815 4732 4763 0
4815 -4732 0
4815 -4763 0
-4816 4733 4764 0
4816 -4733 0
4816 -4764 0
-4817 4734 4765 0
4817 -4734 0
4817 -4765 0
-4818 4735 4766 0
4818 -4735 0
4818 -4766 0
-4819 4736 4767 0
4819 -4736 0
4819 -4767 0
-4820 4737 4768 0
4820 -4737 0
4820 -4768 0
-4821 4738 4769 0
4821 -4738 0
4821 -4769 0
-4822 4741 4781 0
4822 -4741 0
4822 -4781 0
-4823 4667 4783 0
4823 -4667 0
4823 -4783 0
-4824 4668 4784 0
4824 -4668 0
4824 -4784 0
-4825 1258 2383 0
4825 -1258 0
4825 -2383 0
-4826 4669 4786 0
4826 -4669 0
4826 -4786 0
-4827 3576 754 0
4827 -3576 0
4827 -754 0
-4828 4670 4787 0
4828 -4670 0
4828 -4787 0
-4829 4671 4788 0
4829 -4671 0
4829 -4788 0
-4830 3625 814 0
4830 -3625 0
4830 -814 0
-4831 3671 4790 0
4831 -3671 0
4831 -4790 0
-4832 4673 4789 0
4832 -4673 0
4832 -4789 0
-4833 3692 934 0
4833 -3692 0
4833 -934 0
-4834 3715 4791 0
4834 -3715 0
4834 -4791 0
-4835 3732 3731 0
4835 -3732 0
4835 -3731 0
-4836 3735 874 0
4836 -3735 0
4836 -874 0
-4837 2441 1270 0
4837 -2441 0
4837 -1270 0
-4838 3804 4795 0
4838 -3804 0
4838 -4795 0
-4839 3839 992 0
4839 -3839 0
4839 -992 0
-4840 4675 4796 0
4840 -4675 0
4840 -4796 0
-72 1788 1352 0
72 -1788 0
72 -1352 0
-4841 3883 4797 0
4841 -3883 0
4841 -4797 0
-4842 3893 4798 0
4842 -3893 0
4842 -4798 0
-4843 2514 1286 0
4843 -2514 0
4843 -1286 0
-4844 4677 4803 0
4844 -4677 0
4844 -4803 0
-4845 2572 1322 0
4845 -2572 0
4845 -1322 0
-4846 2608 1306 0
4846 -2608 0
4846 -1306 0
-4847 4680 4806 0
4847 -4680 0
4847 -4806 0
-4848 4681 4807 0
4848 -4681 0
4848 -4807 0
-4849 4682 4808 0
4849 -4682 0
4849 -4808 0
-4850 4683 4809 0
4850 -4683 0
4850 -4809 0
-4851 4684 4810 0
4851 -4684 0
4851 -4810 0
-4852 4685 4811 0
4852 -4685 0
4852 -4811 0
-4853 4686 4812 0
4853 -4686 0
4853 -4812 0
-4854 4687 4813 0
4854 -4687 0
4854 -4813 0
-4855 4688 4814 0
4855 -4688 0
4855 -4814 0
-4856 4689 4815 0
4856 -4689 0
4856 -4815 0
-4857 4690 4816 0
4857 -4690 0
4857 -4816 0
-4858 4691 4817 0
4858 -4691 0
4858 -4817 0
-4859 4692 4818 0
4859 -4692 0
4859 -4818 0
-4860 4693 4819 0
4860 -4693 0
4860 -4819 0
-4861 4694 4820 0
4861 -4694 0
4861 -4820 0
-4862 4695 4821 0
4862 -4695 0
4862 -4821 0
-4863 4700 4822 0
4863 -4700 0
4863 -4822 0
-4864 2112 368 0
4864 -2112 0
4864 -368 0
-4865 370 2114 0
4865 -370 0
4865 -2114 0
-4866 2116 372 0
4866 -2116 0
4866 -372 0
-4867 2118 374 0
4867 -2118 0
4867 -374 0
-4868 2120 376 0
4868 -2120 0
4868 -376 0
-380 378 2122 0
380 -378 0
380 -2122 0
-4869 1852 116 0
4869 -1852 0
4869 -116 0
-4870 1856 120 0
4870 -1856 0
4870 -120 0
-4871 1860 124 0
4871 -1860 0
4871 -124 0
-4872 1864 128 0
4872 -1864 0
4872 -128 0
-4873 1868 132 0
4873 -1868 0
4873 -132 0
-140 1872 136 0
140 -1872 0
140 -136 0
-4874 1992 248 0
4874 -1992 0
4874 -248 0
-4875 250 1994 0
4875 -250 0
4875 -1994 0
-4876 1996 252 0
4876 -1996 0
4876 -252 0
-4877 1998 254 0
4877 -1998 0
4877 -254 0
-4878 2000 256 0
4878 -2000 0
4878 -256 0
-260 258 2002 0
260 -258 0
260 -2002 0
-4879 1932 188 0
4879 -1932 0
4879 -188 0
-4880 1934 190 0
4880 -1934 0
4880 -190 0
-4881 192 1936 0
4881 -192 0
4881 -1936 0
-4882 1938 194 0
4882 -1938 0
4882 -194 0
-4883 196 1940 0
4883 -196 0
4883 -1940 0
-200 1942 198 0
200 -1942 0
200 -198 0
-4884 2052 308 0
4884 -2052 0
4884 -308 0
-4885 310 2054 0
4885 -310 0
4885 -2054 0
-4886 2056 312 0
4886 -2056 0
4886 -312 0
-4887 2058 314 0
4887 -2058 0
4887 -314 0
-4888 316 2060 0
4888 -316 0
4888 -2060 0
-320 318 2062 0
320 -318 0
320 -2062 0
-4889 3746 3747 3748 3749 3744 0
4889 -3746 0
4889 -3747 0
4889 -3748 0
4889 -3749 0
4889 -3744 0
-4890 3764 3767 3768 3765 3766 0
4890 -3764 0
4890 -3767 0
4890 -3768 0
4890 -3765 0
4890 -3766 0
-4891 3122 3124 3125 3123 3121 0
4891 -3122 0
4891 -3124 0
4891 -3125 0
4891 -3123 0
4891 -3121 0
-4892 3133 3136 3134 3135 3131 0
4892 -3133 0
4892 -3136 0
4892 -3134 0
4892 -3135 0
4892 -3131 0
-4893 3140 3138 3139 3141 3137 0
4893 -3140 0
4893 -3138 0
4893 -3139 0
4893 -3141 0
4893 -3137 0
-4894 3920 3916 3915 3918 3919 0
4894 -3920 0
4894 -3916 0
4894 -3915 0
4894 -3918 0
4894 -3919 0
-4895 3217 3216 3219 3218 3215 0
4895 -3217 0
4895 -3216 0
4895 -3219 0
4895 -3218 0
4895 -3215 0
-4896 3224 3220 3222 3221 3223 0
4896 -3224 0
4896 -3220 0
4896 -3222 0
4896 -3221 0
4896 -3223 0
-4897 3944 3941 3939 3940 3942 0
4897 -3944 0
4897 -3941 0
4897 -3939 0
4897 -3940 0
4897 -3942 0
-4898 3949 3948 3947 3950 3945 0
4898 -3949 0
4898 -3948 0
4898 -3947 0
4898 -3950 0
4898 -3945 0
-4899 3242 3247 3243 3244 3245 0
4899 -3242 0
4899 -3247 0
4899 -3243 0
4899 -3244 0
4899 -3245 0
-4900 3248 3252 3249 3251 3250 0
4900 -3248 0
4900 -3252 0
4900 -3249 0
4900 -3251 0
4900 -3250 0
-4901 3324 3321 3325 3320 3322 0
4901 -3324 0
4901 -3321 0
4901 -3325 0
4901 -3320 0
4901 -3322 0
-4902 3329 3326 3327 3330 3328 0
4902 -3329 0
4902 -3326 0
4902 -3327 0
4902 -3330 0
4902 -3328 0
-4903 3346 3344 3347 3348 3343 0
4903 -3346 0
4903 -3344 0
4903 -3347 0
4903 -3348 0
4903 -3343 0
-4904 3351 3349 3353 3352 3350 0
4904 -3351 0
4904 -3349 0
4904 -3353 0
4904 -3352 0
4904 -3350 0
-4905 3403 3406 3405 3407 3408 0
4905 -3403 0
4905 -3406 0
4905 -3405 0
4905 -3407 0
4905 -3408 0
-4906 3417 3415 3414 3416 3418 0
4906 -3417 0
4906 -3415 0
4906 -3414 0
4906 -3416 0
4906 -3418 0
-4907 3432 3433 3429 3431 3430 0
4907 -3432 0
4907 -3433 0
4907 -3429 0
4907 -3431 0
4907 -3430 0
-4908 1876 1878 1881 1879 1874 0
4908 -1876 0
4908 -1878 0
4908 -1881 0
4908 -1879 0
4908 -1874 0
-4909 3441 3442 3440 3444 3443 0
4909 -3441 0
4909 -3442 0
4909 -3440 0
4909 -3444 0
4909 -3443 0
-4910 3455 3451 3450 3452 3454 0
4910 -3455 0
4910 -3451 0
4910 -3450 0
4910 -3452 0
4910 -3454 0
-4911 3447 3449 3445 3448 3446 0
4911 -3447 0
4911 -3449 0
4911 -3445 0
4911 -3448 0
4911 -3446 0
-4912 3471 3468 3472 3473 3469 0
4912 -3471 0
4912 -3468 0
4912 -3472 0
4912 -3473 0
4912 -3469 0
-4913 3477 3476 3474 3478 3475 0
4913 -3477 0
4913 -3476 0
4913 -3474 0
4913 -3478 0
4913 -3475 0
-4914 3534 3530 3535 3531 3533 0
4914 -3534 0
4914 -3530 0
4914 -3535 0
4914 -3531 0
4914 -3533 0
-4915 1074 2617 0
4915 -1074 0
4915 -2617 0
-4916 2392 1092 0
4916 -2392 0
4916 -1092 0
-4917 1132 2459 0
4917 -1132 0
4917 -2459 0
-4918 1172 2523 0
4918 -1172 0
4918 -2523 0
-4919 2326 2327 0
4919 -2326 0
4919 -2327 0
-4920 2328 708 0
4920 -2328 0
4920 -708 0
-494 492 2192 0
494 -492 0
494 -2192 0
-138 1214 1870 0
138 -1214 0
138 -1870 0
-4921 2329 710 0
4921 -2329 0
4921 -710 0
-4922 712 2330 0
4922 -712 0
4922 -2330 0
-716 2331 714 0
716 -2331 0
716 -714 0
-4923 2581 1216 0
4923 -2581 0
4923 -1216 0
-4924 4891 952 0
4924 -4891 0
4924 -952 0
-4925 4896 772 0
4925 -4896 0
4925 -772 0
-4926 4902 832 0
4926 -4902 0
4926 -832 0
-4927 4909 1010 0
4927 -4909 0
4927 -1010 0
-4928 4911 892 0
4928 -4911 0
4928 -892 0
-4929 4823 1439 0
4929 -4823 0
4929 -1439 0
-4930 4824 1517 0
4930 -4824 0
4930 -1517 0
-4931 4826 1593 0
4931 -4826 0
4931 -1593 0
-4932 4828 1661 0
4932 -4828 0
4932 -1661 0
-4933 4829 1699 0
4933 -4829 0
4933 -1699 0
-4934 4832 2417 0
4934 -4832 0
4934 -2417 0
-4935 4793 4889 0
4935 -4793 0
4935 -4889 0
-4936 3758 3756 0
4936 -3758 0
4936 -3756 0
-4937 4794 4890 0
4937 -4794 0
4937 -4890 0
-4938 3792 3787 0
4938 -3792 0
4938 -3787 0
-4939 4840 2493 0
4939 -4840 0
4939 -2493 0
-4940 3905 3904 0
4940 -3905 0
4940 -3904 0
-4941 4799 4894 0
4941 -4799 0
4941 -4894 0
-4942 4801 4897 0
4942 -4801 0
4942 -4897 0
-4943 4802 4898 0
4943 -4802 0
4943 -4898 0
-4944 1821 1825 0
4944 -1821 0
4944 -1825 0
-4945 4844 2534 0
4945 -4844 0
4945 -2534 0
-4946 2583 2584 0
4946 -2583 0
4946 -2584 0
-4947 2622 2621 0
4947 -2622 0
4947 -2621 0
-4948 4847 2645 0
4948 -4847 0
4948 -2645 0
-4949 4848 2688 0
4949 -4848 0
4949 -2688 0
-4950 4849 2708 0
4950 -4849 0
4950 -2708 0
-4951 4850 2732 0
4951 -4850 0
4951 -2732 0
-4952 4851 2749 0
4952 -4851 0
4952 -2749 0
-4953 4852 2790 0
4953 -4852 0
4953 -2790 0
-4954 4853 2817 0
4954 -4853 0
4954 -2817 0
-4955 4854 2861 0
4955 -4854 0
4955 -2861 0
-4956 4855 2869 0
4956 -4855 0
4956 -2869 0
-4957 4856 2900 0
4957 -4856 0
4957 -2900 0
-4958 4857 2932 0
4958 -4857 0
4958 -2932 0
-4959 4858 2955 0
4959 -4858 0
4959 -2955 0
-4960 4859 2986 0
4960 -4859 0
4960 -2986 0
-4961 4860 3026 0
4961 -4860 0
4961 -3026 0
-4962 4861 3065 0
4962 -4861 0
4962 -3065 0
-4963 4862 3085 0
4963 -4862 0
4963 -3085 0
-4964 4696 4895 0
4964 -4696 0
4964 -4895 0
-4965 4697 4901 0
4965 -4697 0
4965 -4901 0
-4966 4698 4907 0
4966 -4698 0
4966 -4907 0
-4967 4699 4910 0
4967 -4699 0
4967 -4910 0
-4968 4863 2365 0
4968 -4863 0
4968 -2365 0
-4969 4701 4914 0
4969 -4701 0
4969 -4914 0
-4970 2044 300 0
4970 -2044 0
4970 -300 0
-4971 302 2046 0
4971 -302 0
4971 -2046 0
-4972 2048 304 0
4972 -2048 0
4972 -304 0
-4973 306 2050 0
4973 -306 0
4973 -2050 0
-4974 3695 3697 3698 3699 3700 0
4974 -3695 0
4974 -3697 0
4974 -3698 0
4974 -3699 0
4974 -3700 0
-4975 3769 3774 3775 3776 3777 0
4975 -3769 0
4975 -3774 0
4975 -3775 0
4975 -3776 0
4975 -3777 0
-4976 3779 3781 3782 3785 3786 0
4976 -3779 0
4976 -3781 0
4976 -3782 0
4976 -3785 0
4976 -3786 0
-4977 2447 2448 2450 2451 2455 0
4977 -2447 0
4977 -2448 0
4977 -2450 0
4977 -2451 0
4977 -2455 0
-4978 3821 3822 3823 3824 3825 0
4978 -3821 0
4978 -3822 0
4978 -3823 0
4978 -3824 0
4978 -3825 0
-4979 3848 3849 3850 3851 3852 0
4979 -3848 0
4979 -3849 0
4979 -3850 0
4979 -3851 0
4979 -3852 0
-4980 3853 3854 3855 3856 3858 0
4980 -3853 0
4980 -3854 0
4980 -3855 0
4980 -3856 0
4980 -3858 0
-4981 3863 3864 3865 3866 3867 0
4981 -3863 0
4981 -3864 0
4981 -3865 0
4981 -3866 0
4981 -3867 0
-4982 3899 3900 3901 3902 3903 0
4982 -3899 0
4982 -3900 0
4982 -3901 0
4982 -3902 0
4982 -3903 0
-4983 3927 3928 3929 3931 3932 0
4983 -3927 0
4983 -3928 0
4983 -3929 0
4983 -3931 0
4983 -3932 0
-4984 1838 102 0
4984 -1838 0
4984 -102 0
-4985 2104 360 0
4985 -2104 0
4985 -360 0
-4986 1842 106 0
4986 -1842 0
4986 -106 0
-4987 1846 110 0
4987 -1846 0
4987 -110 0
-4988 1848 114 0
4988 -1848 0
4988 -114 0
-4989 362 2106 0
4989 -362 0
4989 -2106 0
-4990 2108 364 0
4990 -2108 0
4990 -364 0
-4991 180 1924 0
4991 -180 0
4991 -1924 0
-4992 1926 182 0
4992 -1926 0
4992 -182 0
-4993 1928 184 0
4993 -1928 0
4993 -184 0
-4994 1930 186 0
4994 -1930 0
4994 -186 0
-4995 3158 3159 734 3160 3161 3162 0
4995 -3158 0
4995 -3159 0
4995 -734 0
4995 -3160 0
4995 -3161 0
4995 -3162 0
-4996 2110 366 0
4996 -2110 0
4996 -366 0
-4997 3264 3265 3266 3267 3268 794 0
4997 -3264 0
4997 -3265 0
4997 -3266 0
4997 -3267 0
4997 -3268 0
4997 -794 0
-4998 1984 240 0
4998 -1984 0
4998 -240 0
-4999 242 1986 0
4999 -242 0
4999 -1986 0
-5000 1988 244 0
5000 -1988 0
5000 -244 0
-5001 1990 246 0
5001 -1990 0
5001 -246 0
-5002 3372 3373 3374 3375 854 3376 0
5002 -3372 0
5002 -3373 0
5002 -3374 0
5002 -3375 0
5002 -854 0
5002 -3376 0
-5003 3382 3383 3384 3385 3386 972 0
5003 -3382 0
5003 -3383 0
5003 -3384 0
5003 -3385 0
5003 -3386 0
5003 -972 0
-5004 3485 3486 3487 914 3488 3489 0
5004 -3485 0
5004 -3486 0
5004 -3487 0
5004 -914 0
5004 -3488 0
5004 -3489 0
-5005 1456 1468 0
5005 -1456 0
5005 -1468 0
-5006 1531 1539 0
5006 -1531 0
5006 -1539 0
-5007 1569 1597 0
5007 -1569 0
5007 -1597 0
-5008 2405 2407 0
5008 -2405 0
5008 -2407 0
-5009 1364 2443 0
5009 -1364 0
5009 -2443 0
-5010 818 3810 0
5010 -818 0
5010 -3810 0
-5011 2470 2473 0
5011 -2470 0
5011 -2473 0
-5012 3896 3897 0
5012 -3896 0
5012 -3897 0
-5013 2539 2542 0
5013 -2539 0
5013 -2542 0
-5014 2647 2652 0
5014 -2647 0
5014 -2652 0
-5015 2663 2686 0
5015 -2663 0
5015 -2686 0
-5016 2710 2714 0
5016 -2710 0
5016 -2714 0
-5017 2739 2746 0
5017 -2739 0
5017 -2746 0
-5018 2755 2769 0
5018 -2755 0
5018 -2769 0
-5019 2792 2798 0
5019 -2792 0
5019 -2798 0
-5020 2819 2835 0
5020 -2819 0
5020 -2835 0
-5021 2847 2863 0
5021 -2847 0
5021 -2863 0
-5022 2153 2154 0
5022 -2153 0
5022 -2154 0
-5023 428 2155 0
5023 -428 0
5023 -2155 0
-5024 2156 430 0
5024 -2156 0
5024 -430 0
-5025 2157 432 0
5025 -2157 0
5025 -432 0
-5026 2158 434 0
5026 -2158 0
5026 -434 0
-5027 436 2159 0
5027 -436 0
5027 -2159 0
-440 438 2160 0
440 -438 0
440 -2160 0
-5028 2168 2169 0
5028 -2168 0
5028 -2169 0
-5029 452 2170 0
5029 -452 0
5029 -2170 0
-5030 2171 454 0
5030 -2171 0
5030 -454 0
-5031 2353 2357 0
5031 -2353 0
5031 -2357 0
-5032 1250 2373 0
5032 -1250 0
5032 -2373 0
-5033 2162 2163 0
5033 -2162 0
5033 -2163 0
-5034 2164 442 0
5034 -2164 0
5034 -442 0
-5035 2165 444 0
5035 -2165 0
5035 -444 0
-5036 446 2166 0
5036 -446 0
5036 -2166 0
-450 2167 448 0
450 -2167 0
450 -448 0
-5037 5005 1397 0
5037 -5005 0
5037 -1397 0
-5038 5006 1523 0
5038 -5006 0
5038 -1523 0
-5039 5007 1585 0
5039 -5007 0
5039 -1585 0
-5040 1631 1653 0
5040 -1631 0
5040 -1653 0
-5041 1731 1723 0
5041 -1731 0
5041 -1723 0
-5042 5008 2416 0
5042 -5008 0
5042 -2416 0
-5043 1108 2431 0
5043 -1108 0
5043 -2431 0
-5044 4977 2452 0
5044 -4977 0
5044 -2452 0
-5045 3812 5010 0
5045 -3812 0
5045 -5010 0
-5046 3820 3815 0
5046 -3820 0
5046 -3815 0
-5047 4978 3826 0
5047 -4978 0
5047 -3826 0
-5048 3830 3828 0
5048 -3830 0
5048 -3828 0
-5049 4979 3847 0
5049 -4979 0
5049 -3847 0
-5050 5011 2478 0
5050 -5011 0
5050 -2478 0
-5051 1148 2504 0
5051 -1148 0
5051 -2504 0
-5052 4982 3898 0
5052 -4982 0
5052 -3898 0
-5053 3907 3910 0
5053 -3907 0
5053 -3910 0
-5054 4983 3930 0
5054 -4983 0
5054 -3930 0
-5055 5013 2550 0
5055 -5013 0
5055 -2550 0
-5056 1188 2562 0
5056 -1188 0
5056 -2562 0
-118 1192 1850 0
118 -1192 0
118 -1850 0
-5057 1230 2598 0
5057 -1230 0
5057 -2598 0
-5058 5014 2639 0
5058 -5014 0
5058 -2639 0
-5059 5015 2681 0
5059 -5015 0
5059 -2681 0
-5060 5016 2711 0
5060 -5016 0
5060 -2711 0
-5061 5017 2734 0
5061 -5017 0
5061 -2734 0
-5062 5018 2764 0
5062 -5018 0
5062 -2764 0
-5063 5019 2787 0
5063 -5019 0
5063 -2787 0
-5064 5020 2814 0
5064 -5020 0
5064 -2814 0
-5065 5021 2858 0
5065 -5021 0
5065 -2858 0
-5066 2874 2888 0
5066 -2874 0
5066 -2888 0
-5067 2908 2896 0
5067 -2908 0
5067 -2896 0
-5068 2947 2927 0
5068 -2947 0
5068 -2927 0
-5069 2970 2982 0
5069 -2970 0
5069 -2982 0
-5070 3001 2995 0
5070 -3001 0
5070 -2995 0
-5071 3019 3013 0
5071 -3019 0
5071 -3013 0
-5072 3054 3049 0
5072 -3054 0
5072 -3049 0
-5073 3071 3095 0
5073 -3071 0
5073 -3095 0
-5074 5031 2356 0
5074 -5031 0
5074 -2356 0
-5075 2429 1354 0
5075 -2429 0
5075 -1354 0
-5076 1751 30 0
5076 -1751 0
5076 -30 0
-5077 1755 34 0
5077 -1755 0
5077 -34 0
-5078 2069 324 0
5078 -2069 0
5078 -324 0
-5079 3807 3808 3809 3811 3813 0
5079 -3807 0
5079 -3808 0
5079 -3809 0
5079 -3811 0
5079 -3813 0
-5080 3814 3816 3817 3818 3819 0
5080 -3814 0
5080 -3816 0
5080 -3817 0
5080 -3818 0
5080 -3819 0
-5081 3827 3829 3831 3832 3833 0
5081 -3827 0
5081 -3829 0
5081 -3831 0
5081 -3832 0
5081 -3833 0
-5082 3842 3843 3844 3845 3846 0
5082 -3842 0
5082 -3843 0
5082 -3844 0
5082 -3845 0
5082 -3846 0
-5083 326 2071 0
5083 -326 0
5083 -2071 0
-5084 3868 910 3869 3870 3871 3872 3873 0
5084 -3868 0
5084 -910 0
5084 -3869 0
5084 -3870 0
5084 -3871 0
5084 -3872 0
5084 -3873 0
-5085 3874 3875 3876 3878 3880 0
5085 -3874 0
5085 -3875 0
5085 -3876 0
5085 -3878 0
5085 -3880 0
-5086 2496 2497 2498 2499 2500 2502 790 0
5086 -2496 0
5086 -2497 0
5086 -2498 0
5086 -2499 0
5086 -2500 0
5086 -2502 0
5086 -790 0
-5087 3906 3908 3909 3911 3912 0
5087 -3906 0
5087 -3908 0
5087 -3909 0
5087 -3911 0
5087 -3912 0
-5088 3921 3922 3923 3924 3925 3926 0
5088 -3921 0
5088 -3922 0
5088 -3923 0
5088 -3924 0
5088 -3925 0
5088 -3926 0
-5089 850 3933 3934 3935 3936 3937 3938 0
5089 -850 0
5089 -3933 0
5089 -3934 0
5089 -3935 0
5089 -3936 0
5089 -3937 0
5089 -3938 0
-5090 1889 144 0
5090 -1889 0
5090 -144 0
-5091 1891 146 0
5091 -1891 0
5091 -146 0
-394 392 2130 0
394 -392 0
394 -2130 0
-5092 204 1949 0
5092 -204 0
5092 -1949 0
-5093 1951 206 0
5093 -1951 0
5093 -206 0
-5094 2178 2179 0
5094 -2178 0
5094 -2179 0
-5095 2180 470 0
5095 -2180 0
5095 -470 0
-5096 472 2181 0
5096 -472 0
5096 -2181 0
-5097 2182 474 0
5097 -2182 0
5097 -474 0
-5098 476 2183 0
5098 -476 0
5098 -2183 0
-5099 264 2009 0
5099 -264 0
5099 -2009 0
-5100 2011 266 0
5100 -2011 0
5100 -266 0
-24 1739 1374 0
24 -1739 0
24 -1374 0
-5101 2398 1380 0
5101 -2398 0
5101 -1380 0
-40 1757 1384 0
40 -1757 0
40 -1384 0
-5102 784 3857 0
5102 -784 0
5102 -3857 0
-5103 1356 2529 0
5103 -1356 0
5103 -2529 0
-5104 2123 2124 0
5104 -2123 0
5104 -2124 0
-5105 2125 382 0
5105 -2125 0
5105 -382 0
-5106 2126 384 0
5106 -2126 0
5106 -384 0
-5107 386 2127 0
5107 -386 0
5107 -2127 0
-5108 2128 388 0
5108 -2128 0
5108 -388 0
-5109 1386 2594 0
5109 -1386 0
5109 -2594 0
-5110 2129 390 0
5110 -2129 0
5110 -390 0
-5111 2630 1348 0
5111 -2630 0
5111 -1348 0
-480 2184 478 0
480 -2184 0
480 -478 0
-5112 1425 1432 0
5112 -1425 0
5112 -1432 0
-5113 1553 1549 0
5113 -1553 0
5113 -1549 0
-5114 1567 1587 0
5114 -1567 0
5114 -1587 0
-5115 1635 1649 0
5115 -1635 0
5115 -1649 0
-5116 1711 1715 0
5116 -1711 0
5116 -1715 0
-5117 2410 2411 0
5117 -2410 0
5117 -2411 0
-5118 5082 3841 730 0
5118 -5082 0
5118 -3841 0
5118 -730 0
-5119 5085 3879 0
5119 -5085 0
5119 -3879 0
-5120 2490 2492 0
5120 -2490 0
5120 -2492 0
-5121 5086 2501 0
5121 -5086 0
5121 -2501 0
-5122 5088 968 0
5122 -5088 0
5122 -968 0
-5123 2558 2531 0
5123 -2558 0
5123 -2531 0
-5124 1388 2560 0
5124 -1388 0
5124 -2560 0
-5125 1362 2596 0
5125 -1362 0
5125 -2596 0
-5126 2651 2658 0
5126 -2651 0
5126 -2658 0
-5127 2672 2670 0
5127 -2672 0
5127 -2670 0
-5128 2694 2695 0
5128 -2694 0
5128 -2695 0
-5129 2723 2721 0
5129 -2723 0
5129 -2721 0
-5130 2766 2777 0
5130 -2766 0
5130 -2777 0
-5131 2807 2785 0
5131 -2807 0
5131 -2785 0
-5132 2834 2813 0
5132 -2834 0
5132 -2813 0
-5133 2846 2856 0
5133 -2846 0
5133 -2856 0
-5134 2885 2894 0
5134 -2885 0
5134 -2894 0
-5135 2919 2923 0
5135 -2919 0
5135 -2923 0
-5136 2948 2926 0
5136 -2948 0
5136 -2926 0
-5137 2973 2980 0
5137 -2973 0
5137 -2980 0
-5138 3000 3005 0
5138 -3000 0
5138 -3005 0
-5139 3036 3040 0
5139 -3036 0
5139 -3040 0
-5140 3070 3044 0
5140 -3070 0
5140 -3044 0
-5141 3088 3094 0
5141 -3088 0
5141 -3094 0
-5142 2360 2363 0
5142 -2360 0
5142 -2363 0
-5143 2370 2371 0
5143 -2370 0
5143 -2371 0
-5144 1495 1497 0
5144 -1495 0
5144 -1497 0
-5145 1557 6 0
5145 -1557 0
5145 -6 0
-5146 1617 10 0
5146 -1617 0
5146 -10 0
-5147 1677 14 0
5147 -1677 0
5147 -14 0
-22 18 1737 0
22 -18 0
22 -1737 0
-5148 5037 5112 0
5148 -5037 0
5148 -5112 0
-5149 5038 5113 0
5149 -5038 0
5149 -5113 0
-5150 5039 5114 0
5150 -5039 0
5150 -5114 0
-5151 1372 2385 0
5151 -1372 0
5151 -2385 0
-5152 5040 5115 0
5152 -5040 0
5152 -5115 0
-5153 5041 5116 0
5153 -5041 0
5153 -5116 0
-5154 5042 5117 0
5154 -5042 0
5154 -5117 0
-36 1753 1350 0
36 -1753 0
36 -1350 0
-5155 5045 5079 0
5155 -5045 0
5155 -5079 0
-5156 5046 5080 938 0
5156 -5046 0
5156 -5080 0
5156 -938 0
-5157 5047 964 0
5157 -5047 0
5157 -964 0
-5158 5048 5081 996 0
5158 -5048 0
5158 -5081 0
5158 -996 0
-5159 5049 844 0
5159 -5049 0
5159 -844 0
-5160 4980 5102 0
5160 -4980 0
5160 -5102 0
-5161 2465 1358 0
5161 -2465 0
5161 -1358 0
-5162 3877 5119 758 0
5162 -3877 0
5162 -5119 0
5162 -758 0
-5163 5050 5120 0
5163 -5050 0
5163 -5120 0
-5164 5052 1022 0
5164 -5052 0
5164 -1022 0
-5165 5053 5087 878 0
5165 -5053 0
5165 -5087 0
5165 -878 0
-5166 3914 3913 0
5166 -3914 0
5166 -3913 0
-5167 5054 904 0
5167 -5054 0
5167 -904 0
-5168 2516 1344 0
5168 -2516 0
5168 -1344 0
-5169 5055 5123 0
5169 -5055 0
5169 -5123 0
-5170 2574 1378 0
5170 -2574 0
5170 -1378 0
-5171 2610 1346 0
5171 -2610 0
5171 -1346 0
-5172 5058 5126 2632 0
5172 -5058 0
5172 -5126 0
5172 -2632 0
-5173 5059 5127 0
5173 -5059 0
5173 -5127 0
-5174 5060 5128 0
5174 -5060 0
5174 -5128 0
-5175 5061 5129 0
5175 -5061 0
5175 -5129 0
-5176 5062 5130 2776 0
5176 -5062 0
5176 -5130 0
5176 -2776 0
-5177 5063 5131 0
5177 -5063 0
5177 -5131 0
-5178 5064 5132 0
5178 -5064 0
5178 -5132 0
-5179 5065 5133 0
5179 -5065 0
5179 -5133 0
-5180 5066 5134 2887 0
5180 -5066 0
5180 -5134 0
5180 -2887 0
-5181 5067 5135 0
5181 -5067 0
5181 -5135 0
-5182 5068 5136 0
5182 -5068 0
5182 -5136 0
-5183 5069 5137 0
5183 -5069 0
5183 -5137 0
-5184 5070 5138 2991 0
5184 -5070 0
5184 -5138 0
5184 -2991 0
-5185 5071 5139 0
5185 -5071 0
5185 -5139 0
-5186 5072 5140 0
5186 -5072 0
5186 -5140 0
-5187 5073 5141 0
5187 -5073 0
5187 -5141 0
-5188 5074 5142 2361 0
5188 -5074 0
5188 -5142 0
5188 -2361 0
-5189 1471 1492 0
5189 -1471 0
5189 -1492 0
-5190 2761 2774 0
5190 -2761 0
5190 -2774 0
-5191 1535 1543 0
5191 -1535 0
5191 -1543 0
-5192 1565 1581 0
5192 -1565 0
5192 -1581 0
-5193 1633 1675 0
5193 -1633 0
5193 -1675 0
-5194 1717 1719 0
5194 -1717 0
5194 -1719 0
-5195 2404 2415 0
5195 -2404 0
5195 -2415 0
-32 1749 1262 0
32 -1749 0
32 -1262 0
-5196 2464 1142 0
5196 -2464 0
5196 -1142 0
-5197 2468 2479 0
5197 -2468 0
5197 -2479 0
-5198 2528 1180 0
5198 -2528 0
5198 -1180 0
-5199 2545 2551 0
5199 -2545 0
5199 -2551 0
-130 1862 1204 0
130 -1862 0
130 -1204 0
-5200 2576 1298 0
5200 -2576 0
5200 -1298 0
-5201 2593 1226 0
5201 -2593 0
5201 -1226 0
-5202 2139 2140 0
5202 -2139 0
5202 -2140 0
-5203 2141 406 0
5203 -2141 0
5203 -406 0
-5204 2142 408 0
5204 -2142 0
5204 -408 0
-5205 2143 410 0
5205 -2143 0
5205 -410 0
-5206 1244 2612 0
5206 -1244 0
5206 -2612 0
-5207 2629 1086 0
5207 -2629 0
5207 -1086 0
-5208 2144 412 0
5208 -2144 0
5208 -412 0
-5209 2147 2148 0
5209 -2147 0
5209 -2148 0
-5210 2743 2744 0
5210 -2743 0
5210 -2744 0
-5211 2786 2802 0
5211 -2786 0
5211 -2802 0
-5212 2811 2833 0
5212 -2811 0
5212 -2833 0
-5213 2149 418 0
5213 -2149 0
5213 -418 0
-5214 2150 420 0
5214 -2150 0
5214 -420 0
-5215 2151 422 0
5215 -2151 0
5215 -422 0
-426 2152 424 0
426 -2152 0
426 -424 0
-5216 2850 2857 0
5216 -2850 0
5216 -2857 0
-5217 2866 2877 0
5217 -2866 0
5217 -2877 0
-5218 2907 2910 0
5218 -2907 0
5218 -2910 0
-5219 2940 2946 0
5219 -2940 0
5219 -2946 0
-5220 2964 2972 0
5220 -2964 0
5220 -2972 0
-5221 3003 3004 0
5221 -3003 0
5221 -3004 0
-5222 3039 3041 0
5222 -3039 0
5222 -3041 0
-5223 3046 3047 0
5223 -3046 0
5223 -3047 0
-5224 3092 3093 0
5224 -3092 0
5224 -3093 0
-468 466 2177 0
468 -466 0
468 -2177 0
-5225 2716 2718 0
5225 -2716 0
5225 -2718 0
-5226 2644 2649 0
5226 -2644 0
5226 -2649 0
-5227 2667 2687 0
5227 -2667 0
5227 -2687 0
-5228 2349 2355 0
5228 -2349 0
5228 -2355 0
-5229 3551 3552 3553 3554 3555 0
5229 -3551 0
5229 -3552 0
5229 -3553 0
5229 -3554 0
5229 -3555 0
-5230 3582 3583 762 3584 3585 3586 3587 0
5230 -3582 0
5230 -3583 0
5230 -762 0
5230 -3584 0
5230 -3585 0
5230 -3586 0
5230 -3587 0
-5231 3632 3633 3634 3635 822 3636 3637 0
5231 -3632 0
5231 -3633 0
5231 -3634 0
5231 -3635 0
5231 -822 0
5231 -3636 0
5231 -3637 0
-5232 1741 1743 0
5232 -1741 0
5232 -1743 0
-5233 26 1747 0
5233 -26 0
5233 -1747 0
-5234 3664 3665 3666 3667 3668 0
5234 -3664 0
5234 -3665 0
5234 -3666 0
5234 -3667 0
5234 -3668 0
-5235 2063 2065 0
5235 -2063 0
5235 -2065 0
-5236 2067 322 0
5236 -2067 0
5236 -322 0
-5237 1883 1885 0
5237 -1883 0
5237 -1885 0
-5238 1887 142 0
5238 -1887 0
5238 -142 0
-416 414 2145 0
416 -414 0
416 -2145 0
-5239 3100 3101 3102 3103 3104 0
5239 -3100 0
5239 -3101 0
5239 -3102 0
5239 -3103 0
5239 -3104 0
-5240 1943 1945 0
5240 -1943 0
5240 -1945 0
-5241 1947 202 0
5241 -1947 0
5241 -202 0
-5242 3152 3153 3154 3155 3156 0
5242 -3152 0
5242 -3153 0
5242 -3154 0
5242 -3155 0
5242 -3156 0
-5243 3194 3195 3196 3197 3198 0
5243 -3194 0
5243 -3195 0
5243 -3196 0
5243 -3197 0
5243 -3198 0
-5244 3295 3296 3297 3298 3299 0
5244 -3295 0
5244 -3296 0
5244 -3297 0
5244 -3298 0
5244 -3299 0
-5245 3409 3410 3411 3412 3413 0
5245 -3409 0
5245 -3410 0
5245 -3411 0
5245 -3412 0
5245 -3413 0
-5246 2003 2005 0
5246 -2003 0
5246 -2005 0
-5247 2007 262 0
5247 -2007 0
5247 -262 0
-5248 3524 3526 3527 3528 3529 0
5248 -3524 0
5248 -3526 0
5248 -3527 0
5248 -3528 0
5248 -3529 0
-5249 1000 5229 3550 0
5249 -1000 0
5249 -5229 0
5249 -3550 0
-5250 2387 1260 0
5250 -2387 0
5250 -1260 0
-5251 2397 1102 0
5251 -2397 0
5251 -1102 0
-5252 5234 3663 882 0
5252 -5234 0
5252 -3663 0
5252 -882 0
-5253 2445 1272 0
5253 -2445 0
5253 -1272 0
-5254 2518 1288 0
5254 -2518 0
5254 -1288 0
-5255 942 5248 3525 0
5255 -942 0
5255 -5248 0
5255 -3525 0
-5256 5148 5189 0
5256 -5148 0
5256 -5189 0
-5257 5149 5191 0
5257 -5149 0
5257 -5191 0
-5258 5150 5192 0
5258 -5150 0
5258 -5192 0
-5259 5152 5193 0
5259 -5152 0
5259 -5193 0
-5260 5153 5194 0
5260 -5153 0
5260 -5194 0
-5261 5154 5195 0
5261 -5154 0
5261 -5195 0
-5262 4974 3703 0
5262 -4974 0
5262 -3703 0
-5263 4975 3772 0
5263 -4975 0
5263 -3772 0
-5264 4976 3783 0
5264 -4976 0
5264 -3783 0
-5265 5044 2449 0
5265 -5044 0
5265 -2449 0
-5266 4981 3862 0
5266 -4981 0
5266 -3862 0
-5267 5163 5197 0
5267 -5163 0
5267 -5197 0
-5268 5169 5199 0
5268 -5169 0
5268 -5199 0
-5269 5172 5226 0
5269 -5172 0
5269 -5226 0
-5270 5173 5227 0
5270 -5173 0
5270 -5227 0
-5271 5174 5225 0
5271 -5174 0
5271 -5225 0
-5272 5175 5210 0
5272 -5175 0
5272 -5210 0
-5273 5176 5190 0
5273 -5176 0
5273 -5190 0
-5274 5177 5211 0
5274 -5177 0
5274 -5211 0
-5275 5178 5212 0
5275 -5178 0
5275 -5212 0
-5276 5179 5216 0
5276 -5179 0
5276 -5216 0
-5277 5180 5217 0
5277 -5180 0
5277 -5217 0
-5278 5181 5218 0
5278 -5181 0
5278 -5218 0
-5279 5182 5219 0
5279 -5182 0
5279 -5219 0
-5280 5183 5220 0
5280 -5183 0
5280 -5220 0
-5281 5184 5221 0
5281 -5184 0
5281 -5221 0
-5282 5185 5222 0
5282 -5185 0
5282 -5222 0
-5283 5186 5223 0
5283 -5186 0
5283 -5223 0
-5284 5187 5224 0
5284 -5187 0
5284 -5224 0
-5285 5188 5228 0
5285 -5188 0
5285 -5228 0
-5286 4929 5256 0
5286 -4929 0
5286 -5256 0
-5287 4930 5257 0
5287 -4930 0
5287 -5257 0
-5288 4931 5258 0
5288 -4931 0
5288 -5258 0
-5289 4932 5259 0
5289 -4932 0
5289 -5259 0
-5290 4933 5260 0
5290 -4933 0
5290 -5260 0
-5291 2393 1376 0
5291 -2393 0
5291 -1376 0
-5292 4934 5261 0
5292 -4934 0
5292 -5261 0
-5293 4936 774 0
5293 -4936 0
5293 -774 0
-5294 4938 834 0
5294 -4938 0
5294 -834 0
-5295 2460 1330 0
5295 -2460 0
5295 -1330 0
-5296 4939 5267 0
5296 -4939 0
5296 -5267 0
-5297 4944 1816 0
5297 -4944 0
5297 -1816 0
-5298 2524 1338 0
5298 -2524 0
5298 -1338 0
-5299 4945 5268 0
5299 -4945 0
5299 -5268 0
-5300 4946 2587 894 0
5300 -4946 0
5300 -2587 0
5300 -894 0
-5301 4947 2618 0
5301 -4947 0
5301 -2618 0
-5302 4948 5269 0
5302 -4948 0
5302 -5269 0
-5303 4949 5270 0
5303 -4949 0
5303 -5270 0
-5304 4950 5271 0
5304 -4950 0
5304 -5271 0
-5305 4951 5272 0
5305 -4951 0
5305 -5272 0
-5306 4952 5273 0
5306 -4952 0
5306 -5273 0
-5307 4953 5274 0
5307 -4953 0
5307 -5274 0
-5308 4954 5275 0
5308 -4954 0
5308 -5275 0
-5309 4955 5276 0
5309 -4955 0
5309 -5276 0
-5310 4956 5277 0
5310 -4956 0
5310 -5277 0
-5311 4957 5278 0
5311 -4957 0
5311 -5278 0
-5312 4958 5279 0
5312 -4958 0
5312 -5279 0
-5313 4959 5280 0
5313 -4959 0
5313 -5280 0
-5314 4960 5281 0
5314 -4960 0
5314 -5281 0
-5315 4961 5282 0
5315 -4961 0
5315 -5282 0
-5316 4962 5283 0
5316 -4962 0
5316 -5283 0
-5317 4963 5284 0
5317 -4963 0
5317 -5284 0
-5318 4893 962 0
5318 -4893 0
5318 -962 0
-5319 4900 782 0
5319 -4900 0
5319 -782 0
-5320 4904 842 0
5320 -4904 0
5320 -842 0
-5321 4906 1020 0
5321 -4906 0
5321 -1020 0
-5322 4913 902 0
5322 -4913 0
5322 -902 0
-5323 4968 5285 0
5323 -4968 0
5323 -5285 0
-5324 2375 1252 0
5324 -2375 0
5324 -1252 0
-4 4576 5286 908 0
4 -4576 0
4 -5286 0
4 -908 0
-8 4577 5287 1032 0
8 -4577 0
8 -5287 0
8 -1032 0
-12 4578 5288 1040 0
12 -4578 0
12 -5288 0
12 -1040 0
-5325 4295 4827 0
5325 -4295 0
5325 -4827 0
-16 4579 5289 1048 0
16 -4579 0
16 -5289 0
16 -1048 0
-5326 2389 1324 0
5326 -2389 0
5326 -1324 0
-20 4580 5290 1056 0
20 -4580 0
20 -5290 0
20 -1056 0
-5327 4300 4830 0
5327 -4300 0
5327 -4830 0
-5328 4520 4831 0
5328 -4520 0
5328 -4831 0
-5329 4581 5292 728 0
5329 -4581 0
5329 -5292 0
5329 -728 0
-5330 4302 4833 0
5330 -4302 0
5330 -4833 0
-5331 4582 5262 946 0
5331 -4582 0
5331 -5262 0
5331 -946 0
-5332 4521 4834 0
5332 -4521 0
5332 -4834 0
-5333 1264 2433 0
5333 -1264 0
5333 -2433 0
-5334 4303 4836 0
5334 -4303 0
5334 -4836 0
-5335 4584 3740 0
5335 -4584 0
5335 -3740 0
-5336 4443 5293 0
5336 -4443 0
5336 -5293 0
-5337 4585 5263 826 0
5337 -4585 0
5337 -5263 0
5337 -826 0
-5338 4586 5264 1004 0
5338 -4586 0
5338 -5264 0
5338 -1004 0
-5339 4444 5294 0
5339 -4444 0
5339 -5294 0
-5340 4587 5265 766 0
5340 -4587 0
5340 -5265 0
5340 -766 0
-5341 4523 4838 0
5341 -4523 0
5341 -4838 0
-5342 4304 4839 0
5342 -4304 0
5342 -4839 0
-5343 4588 5266 886 0
5343 -4588 0
5343 -5266 0
5343 -886 0
-5344 4589 5296 788 0
5344 -4589 0
5344 -5296 0
5344 -788 0
-5345 4524 4841 0
5345 -4524 0
5345 -4841 0
-5346 4525 4842 0
5346 -4525 0
5346 -4842 0
-5347 1276 2506 0
5347 -1276 0
5347 -2506 0
-92 1340 1808 0
92 -1340 0
92 -1808 0
-5348 2520 1334 0
5348 -2520 0
5348 -1334 0
-100 4447 5297 1012 0
100 -4447 0
100 -5297 0
100 -1012 0
-5349 4590 5299 848 0
5349 -4590 0
5349 -5299 0
5349 -848 0
-112 1844 1336 0
112 -1844 0
112 -1336 0
-5350 1290 2564 0
5350 -1290 0
5350 -2564 0
-5351 2578 1360 0
5351 -2578 0
5351 -1360 0
-5352 4450 5300 0
5352 -4450 0
5352 -5300 0
-5353 1302 2600 0
5353 -1302 0
5353 -2600 0
-5354 2614 1308 0
5354 -2614 0
5354 -1308 0
-5355 4452 5301 954 0
5355 -4452 0
5355 -5301 0
5355 -954 0
-5356 4591 5302 0
5356 -4591 0
5356 -5302 0
-5357 4592 5303 1026 0
5357 -4592 0
5357 -5303 0
5357 -1026 0
-5358 4593 5304 1028 0
5358 -4593 0
5358 -5304 0
5358 -1028 0
-5359 4594 5305 1030 0
5359 -4594 0
5359 -5305 0
5359 -1030 0
-5360 4595 5306 0
5360 -4595 0
5360 -5306 0
-5361 4596 5307 1034 0
5361 -4596 0
5361 -5307 0
5361 -1034 0
-5362 4597 5308 1036 0
5362 -4597 0
5362 -5308 0
5362 -1036 0
-5363 4598 5309 1038 0
5363 -4598 0
5363 -5309 0
5363 -1038 0
-5364 4599 5310 0
5364 -4599 0
5364 -5310 0
-5365 4600 5311 1042 0
5365 -4600 0
5365 -5311 0
5365 -1042 0
-5366 4601 5312 1044 0
5366 -4601 0
5366 -5312 0
5366 -1044 0
-5367 4602 5313 1046 0
5367 -4602 0
5367 -5313 0
5367 -1046 0
-5368 4603 5314 0
5368 -4603 0
5368 -5314 0
-5369 4604 5315 1050 0
5369 -4604 0
5369 -5315 0
5369 -1050 0
-5370 4605 5316 1052 0
5370 -4605 0
5370 -5316 0
5370 -1052 0
-5371 4606 5317 1054 0
5371 -4606 0
5371 -5317 0
5371 -1054 0
-5372 936 5239 0
5372 -936 0
5372 -5239 0
-5373 4040 956 0
5373 -4040 0
5373 -956 0
-5374 4122 4892 0
5374 -4122 0
5374 -4892 0
-5375 994 5242 0
5375 -994 0
5375 -5242 0
-5376 756 5243 0
5376 -756 0
5376 -5243 0
-5377 4043 776 0
5377 -4043 0
5377 -776 0
-5378 4124 4899 0
5378 -4124 0
5378 -4899 0
-5379 4045 1014 0
5379 -4045 0
5379 -1014 0
-5380 816 5244 0
5380 -816 0
5380 -5244 0
-5381 4047 836 0
5381 -4047 0
5381 -836 0
-5382 4126 4903 0
5382 -4126 0
5382 -4903 0
-5383 4128 4905 0
5383 -4128 0
5383 -4905 0
-5384 876 5245 0
5384 -876 0
5384 -5245 0
-5385 4050 896 0
5385 -4050 0
5385 -896 0
-5386 4129 4912 0
5386 -4129 0
5386 -4912 0
-5387 4615 5323 0
5387 -4615 0
5387 -5323 0
-5388 908 -907 0
5388 -908 0
5388 907 0
-5389 -908 907 0
5389 908 0
5389 -907 0
-5390 1495 -1496 0
5390 -1495 0
5390 1496 0
-5391 -1495 1496 0
5391 1495 0
5391 -1496 0
-5392 1497 -1498 0
5392 -1497 0
5392 1498 0
-5393 -1497 1498 0
5393 1497 0
5393 -1498 0
-5394 1032 -1031 0
5394 -1032 0
5394 1031 0
-5395 -1032 1031 0
5395 1032 0
5395 -1031 0
-5396 1557 -1558 0
5396 -1557 0
5396 1558 0
-5397 -1557 1558 0
5397 1557 0
5397 -1558 0
-5398 6 -5 0
5398 -6 0
5398 5 0
-5399 -6 5 0
5399 6 0
5399 -5 0
-5400 1040 -1039 0
5400 -1040 0
5400 1039 0
-5401 -1040 1039 0
5401 1040 0
5401 -1039 0
-5402 1617 -1618 0
5402 -1617 0
5402 1618 0
-5403 -1617 1618 0
5403 1617 0
5403 -1618 0
-5404 10 -9 0
5404 -10 0
5404 9 0
-5405 -10 9 0
5405 10 0
5405 -9 0
-5406 1048 -1047 0
5406 -1048 0
5406 1047 0
-5407 -1048 1047 0
5407 1048 0
5407 -1047 0
-5408 1677 -1678 0
5408 -1677 0
5408 1678 0
-5409 -1677 1678 0
5409 1677 0
5409 -1678 0
-5410 14 -13 0
5410 -14 0
5410 13 0
-5411 -14 13 0
5411 14 0
5411 -13 0
-5412 1056 -1055 0
5412 -1056 0
5412 1055 0
-5413 -1056 1055 0
5413 1056 0
5413 -1055 0
-5414 18 -17 0
5414 -18 0
5414 17 0
-5415 -18 17 0
5415 18 0
5415 -17 0
-5416 1737 -1738 0
5416 -1737 0
5416 1738 0
-5417 -1737 1738 0
5417 1737 0
5417 -1738 0
-5418 1374 -1373 0
5418 -1374 0
5418 1373 0
-5419 -1374 1373 0
5419 1374 0
5419 -1373 0
-5420 1741 -1742 0
5420 -1741 0
5420 1742 0
-5421 -1741 1742 0
5421 1741 0
5421 -1742 0
-5422 1743 -1744 0
5422 -1743 0
5422 1744 0
-5423 -1743 1744 0
5423 1743 0
5423 -1744 0
-5424 1104 -1103 0
5424 -1104 0
5424 1103 0
-5425 -1104 1103 0
5425 1104 0
5425 -1103 0
-5426 26 -25 0
5426 -26 0
5426 25 0
-5427 -26 25 0
5427 26 0
5427 -25 0
-5428 1747 -1748 0
5428 -1747 0
5428 1748 0
-5429 -1747 1748 0
5429 1747 0
5429 -1748 0
-5430 1262 -1261 0
5430 -1262 0
5430 1261 0
-5431 -1262 1261 0
5431 1262 0
5431 -1261 0
-5432 1751 -1752 0
5432 -1751 0
5432 1752 0
-5433 -1751 1752 0
5433 1751 0
5433 -1752 0
-5434 30 -29 0
5434 -30 0
5434 29 0
-5435 -30 29 0
5435 30 0
5435 -29 0
-5436 1350 -1349 0
5436 -1350 0
5436 1349 0
-5437 -1350 1349 0
5437 1350 0
5437 -1349 0
-5438 1755 -1756 0
5438 -1755 0
5438 1756 0
-5439 -1755 1756 0
5439 1755 0
5439 -1756 0
-5440 34 -33 0
5440 -34 0
5440 33 0
-5441 -34 33 0
5441 34 0
5441 -33 0
-5442 1384 -1383 0
5442 -1384 0
5442 1383 0
-5443 -1384 1383 0
5443 1384 0
5443 -1383 0
-5444 38 -37 0
5444 -38 0
5444 37 0
-5445 -38 37 0
5445 38 0
5445 -37 0
-5446 1758 -1759 0
5446 -1758 0
5446 1759 0
-5447 -1758 1759 0
5447 1758 0
5447 -1759 0
-5448 1116 -1115 0
5448 -1116 0
5448 1115 0
-5449 -1116 1115 0
5449 1116 0
5449 -1115 0
-5450 1762 -1763 0
5450 -1762 0
5450 1763 0
-5451 -1762 1763 0
5451 1762 0
5451 -1763 0
-5452 42 -41 0
5452 -42 0
5452 41 0
-5453 -42 41 0
5453 42 0
5453 -41 0
-5454 1120 -1119 0
5454 -1120 0
5454 1119 0
-5455 -1120 1119 0
5455 1120 0
5455 -1119 0
-5456 46 -45 0
5456 -46 0
5456 45 0
-5457 -46 45 0
5457 46 0
5457 -45 0
-5458 1766 -1767 0
5458 -1766 0
5458 1767 0
-5459 -1766 1767 0
5459 1766 0
5459 -1767 0
-5460 1274 -1273 0
5460 -1274 0
5460 1273 0
-5461 -1274 1273 0
5461 1274 0
5461 -1273 0
-5462 1770 -1771 0
5462 -1770 0
5462 1771 0
-5463 -1770 1771 0
5463 1770 0
5463 -1771 0
-5464 50 -49 0
5464 -50 0
5464 49 0
-5465 -50 49 0
5465 50 0
5465 -49 0
-5466 1314 -1313 0
5466 -1314 0
5466 1313 0
-5467 -1314 1313 0
5467 1314 0
5467 -1313 0
-5468 1774 -1775 0
5468 -1774 0
5468 1775 0
-5469 -1774 1775 0
5469 1774 0
5469 -1775 0
-5470 54 -53 0
5470 -54 0
5470 53 0
-5471 -54 53 0
5471 54 0
5471 -53 0
-5472 1134 -1133 0
5472 -1134 0
5472 1133 0
-5473 -1134 1133 0
5473 1134 0
5473 -1133 0
-5474 58 -57 0
5474 -58 0
5474 57 0
-5475 -58 57 0
5475 58 0
5475 -57 0
-5476 1778 -1779 0
5476 -1778 0
5476 1779 0
-5477 -1778 1779 0
5477 1778 0
5477 -1779 0
-5478 1368 -1367 0
5478 -1368 0
5478 1367 0
-5479 -1368 1367 0
5479 1368 0
5479 -1367 0
-5480 62 -61 0
5480 -62 0
5480 61 0
-5481 -62 61 0
5481 62 0
5481 -61 0
-5482 1782 -1783 0
5482 -1782 0
5482 1783 0
-5483 -1782 1783 0
5483 1782 0
5483 -1783 0
-5484 1144 -1143 0
5484 -1144 0
5484 1143 0
-5485 -1144 1143 0
5485 1144 0
5485 -1143 0
-5486 66 -65 0
5486 -66 0
5486 65 0
-5487 -66 65 0
5487 66 0
5487 -65 0
-5488 1786 -1787 0
5488 -1786 0
5488 1787 0
-5489 -1786 1787 0
5489 1786 0
5489 -1787 0
-5490 1352 -1351 0
5490 -1352 0
5490 1351 0
-5491 -1352 1351 0
5491 1352 0
5491 -1351 0
-5492 1790 -1791 0
5492 -1790 0
5492 1791 0
-5493 -1790 1791 0
5493 1790 0
5493 -1791 0
-5494 70 -69 0
5494 -70 0
5494 69 0
-5495 -70 69 0
5495 70 0
5495 -69 0
-5496 1284 -1283 0
5496 -1284 0
5496 1283 0
-5497 -1284 1283 0
5497 1284 0
5497 -1283 0
-5498 74 -73 0
5498 -74 0
5498 73 0
-5499 -74 73 0
5499 74 0
5499 -73 0
-5500 1794 -1795 0
5500 -1794 0
5500 1795 0
-5501 -1794 1795 0
5501 1794 0
5501 -1795 0
-5502 1154 -1153 0
5502 -1154 0
5502 1153 0
-5503 -1154 1153 0
5503 1154 0
5503 -1153 0
-5504 78 -77 0
5504 -78 0
5504 77 0
-5505 -78 77 0
5505 78 0
5505 -77 0
-5506 1798 -1799 0
5506 -1798 0
5506 1799 0
-5507 -1798 1799 0
5507 1798 0
5507 -1799 0
-5508 1282 -1281 0
5508 -1282 0
5508 1281 0
-5509 -1282 1281 0
5509 1282 0
5509 -1281 0
-5510 82 -81 0
5510 -82 0
5510 81 0
-5511 -82 81 0
5511 82 0
5511 -81 0
-5512 1802 -1803 0
5512 -1802 0
5512 1803 0
-5513 -1802 1803 0
5513 1802 0
5513 -1803 0
-5514 1310 -1309 0
5514 -1310 0
5514 1309 0
-5515 -1310 1309 0
5515 1310 0
5515 -1309 0
-5516 1806 -1807 0
5516 -1806 0
5516 1807 0
-5517 -1806 1807 0
5517 1806 0
5517 -1807 0
-5518 86 -85 0
5518 -86 0
5518 85 0
-5519 -86 85 0
5519 86 0
5519 -85 0
-5520 1340 -1339 0
5520 -1340 0
5520 1339 0
-5521 -1340 1339 0
5521 1340 0
5521 -1339 0
-5522 1810 -1811 0
5522 -1810 0
5522 1811 0
-5523 -1810 1811 0
5523 1810 0
5523 -1811 0
-5524 90 -89 0
5524 -90 0
5524 89 0
-5525 -90 89 0
5525 90 0
5525 -89 0
-5526 1166 -1165 0
5526 -1166 0
5526 1165 0
-5527 -1166 1165 0
5527 1166 0
5527 -1165 0
-5528 1814 -1815 0
5528 -1814 0
5528 1815 0
-5529 -1814 1815 0
5529 1814 0
5529 -1815 0
-5530 94 -93 0
5530 -94 0
5530 93 0
-5531 -94 93 0
5531 94 0
5531 -93 0
-5532 1012 -1011 0
5532 -1012 0
5532 1011 0
-5533 -1012 1011 0
5533 1012 0
5533 -1011 0
-5534 98 -97 0
5534 -98 0
5534 97 0
-5535 -98 97 0
5535 98 0
5535 -97 0
-5536 1834 -1835 0
5536 -1834 0
5536 1835 0
-5537 -1834 1835 0
5537 1834 0
5537 -1835 0
-5538 1176 -1175 0
5538 -1176 0
5538 1175 0
-5539 -1176 1175 0
5539 1176 0
5539 -1175 0
-5540 1838 -1839 0
5540 -1838 0
5540 1839 0
-5541 -1838 1839 0
5541 1838 0
5541 -1839 0
-5542 102 -101 0
5542 -102 0
5542 101 0
-5543 -102 101 0
5543 102 0
5543 -101 0
-5544 1182 -1181 0
5544 -1182 0
5544 1181 0
-5545 -1182 1181 0
5545 1182 0
5545 -1181 0
-5546 1842 -1843 0
5546 -1842 0
5546 1843 0
-5547 -1842 1843 0
5547 1842 0
5547 -1843 0
-5548 106 -105 0
5548 -106 0
5548 105 0
-5549 -106 105 0
5549 106 0
5549 -105 0
-5550 1336 -1335 0
5550 -1336 0
5550 1335 0
-5551 -1336 1335 0
5551 1336 0
5551 -1335 0
-5552 1846 -1847 0
5552 -1846 0
5552 1847 0
-5553 -1846 1847 0
5553 1846 0
5553 -1847 0
-5554 110 -109 0
5554 -110 0
5554 109 0
-5555 -110 109 0
5555 110 0
5555 -109 0
-5556 1848 -1849 0
5556 -1848 0
5556 1849 0
-5557 -1848 1849 0
5557 1848 0
5557 -1849 0
-5558 114 -113 0
5558 -114 0
5558 113 0
-5559 -114 113 0
5559 114 0
5559 -113 0
-5560 1192 -1191 0
5560 -1192 0
5560 1191 0
-5561 -1192 1191 0
5561 1192 0
5561 -1191 0
-5562 1852 -1853 0
5562 -1852 0
5562 1853 0
-5563 -1852 1853 0
5563 1852 0
5563 -1853 0
-5564 116 -115 0
5564 -116 0
5564 115 0
-5565 -116 115 0
5565 116 0
5565 -115 0
-5566 1392 -1391 0
5566 -1392 0
5566 1391 0
-5567 -1392 1391 0
5567 1392 0
5567 -1391 0
-5568 1856 -1857 0
5568 -1856 0
5568 1857 0
-5569 -1856 1857 0
5569 1856 0
5569 -1857 0
-5570 120 -119 0
5570 -120 0
5570 119 0
-5571 -120 119 0
5571 120 0
5571 -119 0
-5572 1200 -1199 0
5572 -1200 0
5572 1199 0
-5573 -1200 1199 0
5573 1200 0
5573 -1199 0
-5574 1860 -1861 0
5574 -1860 0
5574 1861 0
-5575 -1860 1861 0
5575 1860 0
5575 -1861 0
-5576 124 -123 0
5576 -124 0
5576 123 0
-5577 -124 123 0
5577 124 0
5577 -123 0
-5578 1204 -1203 0
5578 -1204 0
5578 1203 0
-5579 -1204 1203 0
5579 1204 0
5579 -1203 0
-5580 1864 -1865 0
5580 -1864 0
5580 1865 0
-5581 -1864 1865 0
5581 1864 0
5581 -1865 0
-5582 128 -127 0
5582 -128 0
5582 127 0
-5583 -128 127 0
5583 128 0
5583 -127 0
-5584 1210 -1209 0
5584 -1210 0
5584 1209 0
-5585 -1210 1209 0
5585 1210 0
5585 -1209 0
-5586 1868 -1869 0
5586 -1868 0
5586 1869 0
-5587 -1868 1869 0
5587 1868 0
5587 -1869 0
-5588 132 -131 0
5588 -132 0
5588 131 0
-5589 -132 131 0
5589 132 0
5589 -131 0
-5590 1214 -1213 0
5590 -1214 0
5590 1213 0
-5591 -1214 1213 0
5591 1214 0
5591 -1213 0
-5592 1872 -1873 0
5592 -1872 0
5592 1873 0
-5593 -1872 1873 0
5593 1872 0
5593 -1873 0
-5594 136 -135 0
5594 -136 0
5594 135 0
-5595 -136 135 0
5595 136 0
5595 -135 0
-5596 1883 -1884 0
5596 -1883 0
5596 1884 0
-5597 -1883 1884 0
5597 1883 0
5597 -1884 0
-5598 1885 -1886 0
5598 -1885 0
5598 1886 0
-5599 -1885 1886 0
5599 1885 0
5599 -1886 0
-5600 1887 -1888 0
5600 -1887 0
5600 1888 0
-5601 -1887 1888 0
5601 1887 0
5601 -1888 0
-5602 142 -141 0
5602 -142 0
5602 141 0
-5603 -142 141 0
5603 142 0
5603 -141 0
-5604 1889 -1890 0
5604 -1889 0
5604 1890 0
-5605 -1889 1890 0
5605 1889 0
5605 -1890 0
-5606 144 -143 0
5606 -144 0
5606 143 0
-5607 -144 143 0
5607 144 0
5607 -143 0
-5608 1891 -1892 0
5608 -1891 0
5608 1892 0
-5609 -1891 1892 0
5609 1891 0
5609 -1892 0
-5610 146 -145 0
5610 -146 0
5610 145 0
-5611 -146 145 0
5611 146 0
5611 -145 0
-5612 148 -147 0
5612 -148 0
5612 147 0
-5613 -148 147 0
5613 148 0
5613 -147 0
-5614 1893 -1894 0
5614 -1893 0
5614 1894 0
-5615 -1893 1894 0
5615 1893 0
5615 -1894 0
-5616 1895 -1896 0
5616 -1895 0
5616 1896 0
-5617 -1895 1896 0
5617 1895 0
5617 -1896 0
-5618 150 -149 0
5618 -150 0
5618 149 0
-5619 -150 149 0
5619 150 0
5619 -149 0
-5620 1897 -1898 0
5620 -1897 0
5620 1898 0
-5621 -1897 1898 0
5621 1897 0
5621 -1898 0
-5622 152 -151 0
5622 -152 0
5622 151 0
-5623 -152 151 0
5623 152 0
5623 -151 0
-5624 1899 -1900 0
5624 -1899 0
5624 1900 0
-5625 -1899 1900 0
5625 1899 0
5625 -1900 0
-5626 154 -153 0
5626 -154 0
5626 153 0
-5627 -154 153 0
5627 154 0
5627 -153 0
-5628 156 -155 0
5628 -156 0
5628 155 0
-5629 -156 155 0
5629 156 0
5629 -155 0
-5630 1901 -1902 0
5630 -1901 0
5630 1902 0
-5631 -1901 1902 0
5631 1901 0
5631 -1902 0
-5632 1903 -1904 0
5632 -1903 0
5632 1904 0
-5633 -1903 1904 0
5633 1903 0
5633 -1904 0
-5634 158 -157 0
5634 -158 0
5634 157 0
-5635 -158 157 0
5635 158 0
5635 -157 0
-5636 1905 -1906 0
5636 -1905 0
5636 1906 0
-5637 -1905 1906 0
5637 1905 0
5637 -1906 0
-5638 160 -159 0
5638 -160 0
5638 159 0
-5639 -160 159 0
5639 160 0
5639 -159 0
-5640 1907 -1908 0
5640 -1907 0
5640 1908 0
-5641 -1907 1908 0
5641 1907 0
5641 -1908 0
-5642 162 -161 0
5642 -162 0
5642 161 0
-5643 -162 161 0
5643 162 0
5643 -161 0
-5644 164 -163 0
5644 -164 0
5644 163 0
-5645 -164 163 0
5645 164 0
5645 -163 0
-5646 1909 -1910 0
5646 -1909 0
5646 1910 0
-5647 -1909 1910 0
5647 1909 0
5647 -1910 0
-5648 1911 -1912 0
5648 -1911 0
5648 1912 0
-5649 -1911 1912 0
5649 1911 0
5649 -1912 0
-5650 166 -165 0
5650 -166 0
5650 165 0
-5651 -166 165 0
5651 166 0
5651 -165 0
-5652 1913 -1914 0
5652 -1913 0
5652 1914 0
-5653 -1913 1914 0
5653 1913 0
5653 -1914 0
-5654 168 -167 0
5654 -168 0
5654 167 0
-5655 -168 167 0
5655 168 0
5655 -167 0
-5656 1915 -1916 0
5656 -1915 0
5656 1916 0
-5657 -1915 1916 0
5657 1915 0
5657 -1916 0
-5658 170 -169 0
5658 -170 0
5658 169 0
-5659 -170 169 0
5659 170 0
5659 -169 0
-5660 172 -171 0
5660 -172 0
5660 171 0
-5661 -172 171 0
5661 172 0
5661 -171 0
-5662 1917 -1918 0
5662 -1917 0
5662 1918 0
-5663 -1917 1918 0
5663 1917 0
5663 -1918 0
-5664 1919 -1920 0
5664 -1919 0
5664 1920 0
-5665 -1919 1920 0
5665 1919 0
5665 -1920 0
-5666 174 -173 0
5666 -174 0
5666 173 0
-5667 -174 173 0
5667 174 0
5667 -173 0
-5668 176 -175 0
5668 -176 0
5668 175 0
-5669 -176 175 0
5669 176 0
5669 -175 0
-5670 1921 -1830 0
5670 -1921 0
5670 1830 0
-5671 -1921 1830 0
5671 1921 0
5671 -1830 0
-5672 178 -177 0
5672 -178 0
5672 177 0
-5673 -178 177 0
5673 178 0
5673 -177 0
-5674 1922 -1923 0
5674 -1922 0
5674 1923 0
-5675 -1922 1923 0
5675 1922 0
5675 -1923 0
-5676 180 -179 0
5676 -180 0
5676 179 0
-5677 -180 179 0
5677 180 0
5677 -179 0
-5678 1924 -1925 0
5678 -1924 0
5678 1925 0
-5679 -1924 1925 0
5679 1924 0
5679 -1925 0
-5680 1926 -1927 0
5680 -1926 0
5680 1927 0
-5681 -1926 1927 0
5681 1926 0
5681 -1927 0
-5682 182 -181 0
5682 -182 0
5682 181 0
-5683 -182 181 0
5683 182 0
5683 -181 0
-5684 1928 -1929 0
5684 -1928 0
5684 1929 0
-5685 -1928 1929 0
5685 1928 0
5685 -1929 0
-5686 184 -183 0
5686 -184 0
5686 183 0
-5687 -184 183 0
5687 184 0
5687 -183 0
-5688 1930 -1931 0
5688 -1930 0
5688 1931 0
-5689 -1930 1931 0
5689 1930 0
5689 -1931 0
-5690 186 -185 0
5690 -186 0
5690 185 0
-5691 -186 185 0
5691 186 0
5691 -185 0
-5692 1932 -1933 0
5692 -1932 0
5692 1933 0
-5693 -1932 1933 0
5693 1932 0
5693 -1933 0
-5694 188 -187 0
5694 -188 0
5694 187 0
-5695 -188 187 0
5695 188 0
5695 -187 0
-5696 1934 -1935 0
5696 -1934 0
5696 1935 0
-5697 -1934 1935 0
5697 1934 0
5697 -1935 0
-5698 190 -189 0
5698 -190 0
5698 189 0
-5699 -190 189 0
5699 190 0
5699 -189 0
-5700 192 -191 0
5700 -192 0
5700 191 0
-5701 -192 191 0
5701 192 0
5701 -191 0
-5702 1936 -1937 0
5702 -1936 0
5702 1937 0
-5703 -1936 1937 0
5703 1936 0
5703 -1937 0
-5704 1938 -1939 0
5704 -1938 0
5704 1939 0
-5705 -1938 1939 0
5705 1938 0
5705 -1939 0
-5706 194 -193 0
5706 -194 0
5706 193 0
-5707 -194 193 0
5707 194 0
5707 -193 0
-5708 196 -195 0
5708 -196 0
5708 195 0
-5709 -196 195 0
5709 196 0
5709 -195 0
-5710 1940 -1941 0
5710 -1940 0
5710 1941 0
-5711 -1940 1941 0
5711 1940 0
5711 -1941 0
-5712 1942 -1880 0
5712 -1942 0
5712 1880 0
-5713 -1942 1880 0
5713 1942 0
5713 -1880 0
-5714 198 -197 0
5714 -198 0
5714 197 0
-5715 -198 197 0
5715 198 0
5715 -197 0
-5716 1943 -1944 0
5716 -1943 0
5716 1944 0
-5717 -1943 1944 0
5717 1943 0
5717 -1944 0
-5718 1945 -1946 0
5718 -1945 0
5718 1946 0
-5719 -1945 1946 0
5719 1945 0
5719 -1946 0
-5720 1947 -1948 0
5720 -1947 0
5720 1948 0
-5721 -1947 1948 0
5721 1947 0
5721 -1948 0
-5722 202 -201 0
5722 -202 0
5722 201 0
-5723 -202 201 0
5723 202 0
5723 -201 0
-5724 204 -203 0
5724 -204 0
5724 203 0
-5725 -204 203 0
5725 204 0
5725 -203 0
-5726 1949 -1950 0
5726 -1949 0
5726 1950 0
-5727 -1949 1950 0
5727 1949 0
5727 -1950 0
-5728 1951 -1952 0
5728 -1951 0
5728 1952 0
-5729 -1951 1952 0
5729 1951 0
5729 -1952 0
-5730 206 -205 0
5730 -206 0
5730 205 0
-5731 -206 205 0
5731 206 0
5731 -205 0
-5732 208 -207 0
5732 -208 0
5732 207 0
-5733 -208 207 0
5733 208 0
5733 -207 0
-5734 1953 -1954 0
5734 -1953 0
5734 1954 0
-5735 -1953 1954 0
5735 1953 0
5735 -1954 0
-5736 210 -209 0
5736 -210 0
5736 209 0
-5737 -210 209 0
5737 210 0
5737 -209 0
-5738 1955 -1956 0
5738 -1955 0
5738 1956 0
-5739 -1955 1956 0
5739 1955 0
5739 -1956 0
-5740 212 -211 0
5740 -212 0
5740 211 0
-5741 -212 211 0
5741 212 0
5741 -211 0
-5742 1957 -1958 0
5742 -1957 0
5742 1958 0
-5743 -1957 1958 0
5743 1957 0
5743 -1958 0
-5744 1959 -1960 0
5744 -1959 0
5744 1960 0
-5745 -1959 1960 0
5745 1959 0
5745 -1960 0
-5746 214 -213 0
5746 -214 0
5746 213 0
-5747 -214 213 0
5747 214 0
5747 -213 0
-5748 216 -215 0
5748 -216 0
5748 215 0
-5749 -216 215 0
5749 216 0
5749 -215 0
-5750 1961 -1962 0
5750 -1961 0
5750 1962 0
-5751 -1961 1962 0
5751 1961 0
5751 -1962 0
-5752 1963 -1964 0
5752 -1963 0
5752 1964 0
-5753 -1963 1964 0
5753 1963 0
5753 -1964 0
-5754 218 -217 0
5754 -218 0
5754 217 0
-5755 -218 217 0
5755 218 0
5755 -217 0
-5756 1965 -1966 0
5756 -1965 0
5756 1966 0
-5757 -1965 1966 0
5757 1965 0
5757 -1966 0
-5758 220 -219 0
5758 -220 0
5758 219 0
-5759 -220 219 0
5759 220 0
5759 -219 0
-5760 1967 -1968 0
5760 -1967 0
5760 1968 0
-5761 -1967 1968 0
5761 1967 0
5761 -1968 0
-5762 222 -221 0
5762 -222 0
5762 221 0
-5763 -222 221 0
5763 222 0
5763 -221 0
-5764 224 -223 0
5764 -224 0
5764 223 0
-5765 -224 223 0
5765 224 0
5765 -223 0
-5766 1969 -1970 0
5766 -1969 0
5766 1970 0
-5767 -1969 1970 0
5767 1969 0
5767 -1970 0
-5768 1971 -1972 0
5768 -1971 0
5768 1972 0
-5769 -1971 1972 0
5769 1971 0
5769 -1972 0
-5770 226 -225 0
5770 -226 0
5770 225 0
-5771 -226 225 0
5771 226 0
5771 -225 0
-5772 1973 -1974 0
5772 -1973 0
5772 1974 0
-5773 -1973 1974 0
5773 1973 0
5773 -1974 0
-5774 228 -227 0
5774 -228 0
5774 227 0
-5775 -228 227 0
5775 228 0
5775 -227 0
-5776 1975 -1976 0
5776 -1975 0
5776 1976 0
-5777 -1975 1976 0
5777 1975 0
5777 -1976 0
-5778 230 -229 0
5778 -230 0
5778 229 0
-5779 -230 229 0
5779 230 0
5779 -229 0
-5780 232 -231 0
5780 -232 0
5780 231 0
-5781 -232 231 0
5781 232 0
5781 -231 0
-5782 1977 -1978 0
5782 -1977 0
5782 1978 0
-5783 -1977 1978 0
5783 1977 0
5783 -1978 0
-5784 234 -233 0
5784 -234 0
5784 233 0
-5785 -234 233 0
5785 234 0
5785 -233 0
-5786 1979 -1980 0
5786 -1979 0
5786 1980 0
-5787 -1979 1980 0
5787 1979 0
5787 -1980 0
-5788 1981 -1819 0
5788 -1981 0
5788 1819 0
-5789 -1981 1819 0
5789 1981 0
5789 -1819 0
-5790 236 -235 0
5790 -236 0
5790 235 0
-5791 -236 235 0
5791 236 0
5791 -235 0
-5792 1982 -1983 0
5792 -1982 0
5792 1983 0
-5793 -1982 1983 0
5793 1982 0
5793 -1983 0
-5794 238 -237 0
5794 -238 0
5794 237 0
-5795 -238 237 0
5795 238 0
5795 -237 0
-5796 1984 -1985 0
5796 -1984 0
5796 1985 0
-5797 -1984 1985 0
5797 1984 0
5797 -1985 0
-5798 240 -239 0
5798 -240 0
5798 239 0
-5799 -240 239 0
5799 240 0
5799 -239 0
-5800 242 -241 0
5800 -242 0
5800 241 0
-5801 -242 241 0
5801 242 0
5801 -241 0
-5802 1986 -1987 0
5802 -1986 0
5802 1987 0
-5803 -1986 1987 0
5803 1986 0
5803 -1987 0
-5804 1988 -1989 0
5804 -1988 0
5804 1989 0
-5805 -1988 1989 0
5805 1988 0
5805 -1989 0
-5806 244 -243 0
5806 -244 0
5806 243 0
-5807 -244 243 0
5807 244 0
5807 -243 0
-5808 1990 -1991 0
5808 -1990 0
5808 1991 0
-5809 -1990 1991 0
5809 1990 0
5809 -1991 0
-5810 246 -245 0
5810 -246 0
5810 245 0
-5811 -246 245 0
5811 246 0
5811 -245 0
-5812 1992 -1993 0
5812 -1992 0
5812 1993 0
-5813 -1992 1993 0
5813 1992 0
5813 -1993 0
-5814 248 -247 0
5814 -248 0
5814 247 0
-5815 -248 247 0
5815 248 0
5815 -247 0
-5816 250 -249 0
5816 -250 0
5816 249 0
-5817 -250 249 0
5817 250 0
5817 -249 0
-5818 1994 -1995 0
5818 -1994 0
5818 1995 0
-5819 -1994 1995 0
5819 1994 0
5819 -1995 0
-5820 1996 -1997 0
5820 -1996 0
5820 1997 0
-5821 -1996 1997 0
5821 1996 0
5821 -1997 0
-5822 252 -251 0
5822 -252 0
5822 251 0
-5823 -252 251 0
5823 252 0
5823 -251 0
-5824 1998 -1999 0
5824 -1998 0
5824 1999 0
-5825 -1998 1999 0
5825 1998 0
5825 -1999 0
-5826 254 -253 0
5826 -254 0
5826 253 0
-5827 -254 253 0
5827 254 0
5827 -253 0
-5828 2000 -2001 0
5828 -2000 0
5828 2001 0
-5829 -2000 2001 0
5829 2000 0
5829 -2001 0
-5830 256 -255 0
5830 -256 0
5830 255 0
-5831 -256 255 0
5831 256 0
5831 -255 0
-5832 258 -257 0
5832 -258 0
5832 257 0
-5833 -258 257 0
5833 258 0
5833 -257 0
-5834 2002 -1882 0
5834 -2002 0
5834 1882 0
-5835 -2002 1882 0
5835 2002 0
5835 -1882 0
-5836 2003 -2004 0
5836 -2003 0
5836 2004 0
-5837 -2003 2004 0
5837 2003 0
5837 -2004 0
-5838 2005 -2006 0
5838 -2005 0
5838 2006 0
-5839 -2005 2006 0
5839 2005 0
5839 -2006 0
-5840 2007 -2008 0
5840 -2007 0
5840 2008 0
-5841 -2007 2008 0
5841 2007 0
5841 -2008 0
-5842 262 -261 0
5842 -262 0
5842 261 0
-5843 -262 261 0
5843 262 0
5843 -261 0
-5844 264 -263 0
5844 -264 0
5844 263 0
-5845 -264 263 0
5845 264 0
5845 -263 0
-5846 2009 -2010 0
5846 -2009 0
5846 2010 0
-5847 -2009 2010 0
5847 2009 0
5847 -2010 0
-5848 2011 -2012 0
5848 -2011 0
5848 2012 0
-5849 -2011 2012 0
5849 2011 0
5849 -2012 0
-5850 266 -265 0
5850 -266 0
5850 265 0
-5851 -266 265 0
5851 266 0
5851 -265 0
-5852 268 -267 0
5852 -268 0
5852 267 0
-5853 -268 267 0
5853 268 0
5853 -267 0
-5854 2013 -2014 0
5854 -2013 0
5854 2014 0
-5855 -2013 2014 0
5855 2013 0
5855 -2014 0
-5856 2015 -2016 0
5856 -2015 0
5856 2016 0
-5857 -2015 2016 0
5857 2015 0
5857 -2016 0
-5858 270 -269 0
5858 -270 0
5858 269 0
-5859 -270 269 0
5859 270 0
5859 -269 0
-5860 2017 -2018 0
5860 -2017 0
5860 2018 0
-5861 -2017 2018 0
5861 2017 0
5861 -2018 0
-5862 272 -271 0
5862 -272 0
5862 271 0
-5863 -272 271 0
5863 272 0
5863 -271 0
-5864 2019 -2020 0
5864 -2019 0
5864 2020 0
-5865 -2019 2020 0
5865 2019 0
5865 -2020 0
-5866 274 -273 0
5866 -274 0
5866 273 0
-5867 -274 273 0
5867 274 0
5867 -273 0
-5868 2021 -2022 0
5868 -2021 0
5868 2022 0
-5869 -2021 2022 0
5869 2021 0
5869 -2022 0
-5870 276 -275 0
5870 -276 0
5870 275 0
-5871 -276 275 0
5871 276 0
5871 -275 0
-5872 2023 -2024 0
5872 -2023 0
5872 2024 0
-5873 -2023 2024 0
5873 2023 0
5873 -2024 0
-5874 278 -277 0
5874 -278 0
5874 277 0
-5875 -278 277 0
5875 278 0
5875 -277 0
-5876 2025 -2026 0
5876 -2025 0
5876 2026 0
-5877 -2025 2026 0
5877 2025 0
5877 -2026 0
-5878 280 -279 0
5878 -280 0
5878 279 0
-5879 -280 279 0
5879 280 0
5879 -279 0
-5880 282 -281 0
5880 -282 0
5880 281 0
-5881 -282 281 0
5881 282 0
5881 -281 0
-5882 2027 -2028 0
5882 -2027 0
5882 2028 0
-5883 -2027 2028 0
5883 2027 0
5883 -2028 0
-5884 2029 -2030 0
5884 -2029 0
5884 2030 0
-5885 -2029 2030 0
5885 2029 0
5885 -2030 0
-5886 284 -283 0
5886 -284 0
5886 283 0
-5887 -284 283 0
5887 284 0
5887 -283 0
-5888 2031 -2032 0
5888 -2031 0
5888 2032 0
-5889 -2031 2032 0
5889 2031 0
5889 -2032 0
-5890 286 -285 0
5890 -286 0
5890 285 0
-5891 -286 285 0
5891 286 0
5891 -285 0
-5892 2033 -2034 0
5892 -2033 0
5892 2034 0
-5893 -2033 2034 0
5893 2033 0
5893 -2034 0
-5894 288 -287 0
5894 -288 0
5894 287 0
-5895 -288 287 0
5895 288 0
5895 -287 0
-5896 2035 -2036 0
5896 -2035 0
5896 2036 0
-5897 -2035 2036 0
5897 2035 0
5897 -2036 0
-5898 290 -289 0
5898 -290 0
5898 289 0
-5899 -290 289 0
5899 290 0
5899 -289 0
-5900 2037 -2038 0
5900 -2037 0
5900 2038 0
-5901 -2037 2038 0
5901 2037 0
5901 -2038 0
-5902 292 -291 0
5902 -292 0
5902 291 0
-5903 -292 291 0
5903 292 0
5903 -291 0
-5904 294 -293 0
5904 -294 0
5904 293 0
-5905 -294 293 0
5905 294 0
5905 -293 0
-5906 2039 -2040 0
5906 -2039 0
5906 2040 0
-5907 -2039 2040 0
5907 2039 0
5907 -2040 0
-5908 2041 -1823 0
5908 -2041 0
5908 1823 0
-5909 -2041 1823 0
5909 2041 0
5909 -1823 0
-5910 296 -295 0
5910 -296 0
5910 295 0
-5911 -296 295 0
5911 296 0
5911 -295 0
-5912 298 -297 0
5912 -298 0
5912 297 0
-5913 -298 297 0
5913 298 0
5913 -297 0
-5914 2042 -2043 0
5914 -2042 0
5914 2043 0
-5915 -2042 2043 0
5915 2042 0
5915 -2043 0
-5916 2044 -2045 0
5916 -2044 0
5916 2045 0
-5917 -2044 2045 0
5917 2044 0
5917 -2045 0
-5918 300 -299 0
5918 -300 0
5918 299 0
-5919 -300 299 0
5919 300 0
5919 -299 0
-5920 302 -301 0
5920 -302 0
5920 301 0
-5921 -302 301 0
5921 302 0
5921 -301 0
-5922 2046 -2047 0
5922 -2046 0
5922 2047 0
-5923 -2046 2047 0
5923 2046 0
5923 -2047 0
-5924 2048 -2049 0
5924 -2048 0
5924 2049 0
-5925 -2048 2049 0
5925 2048 0
5925 -2049 0
-5926 304 -303 0
5926 -304 0
5926 303 0
-5927 -304 303 0
5927 304 0
5927 -303 0
-5928 306 -305 0
5928 -306 0
5928 305 0
-5929 -306 305 0
5929 306 0
5929 -305 0
-5930 2050 -2051 0
5930 -2050 0
5930 2051 0
-5931 -2050 2051 0
5931 2050 0
5931 -2051 0
-5932 2052 -2053 0
5932 -2052 0
5932 2053 0
-5933 -2052 2053 0
5933 2052 0
5933 -2053 0
-5934 308 -307 0
5934 -308 0
5934 307 0
-5935 -308 307 0
5935 308 0
5935 -307 0
-5936 310 -309 0
5936 -310 0
5936 309 0
-5937 -310 309 0
5937 310 0
5937 -309 0
-5938 2054 -2055 0
5938 -2054 0
5938 2055 0
-5939 -2054 2055 0
5939 2054 0
5939 -2055 0
-5940 2056 -2057 0
5940 -2056 0
5940 2057 0
-5941 -2056 2057 0
5941 2056 0
5941 -2057 0
-5942 312 -311 0
5942 -312 0
5942 311 0
-5943 -312 311 0
5943 312 0
5943 -311 0
-5944 2058 -2059 0
5944 -2058 0
5944 2059 0
-5945 -2058 2059 0
5945 2058 0
5945 -2059 0
-5946 314 -313 0
5946 -314 0
5946 313 0
-5947 -314 313 0
5947 314 0
5947 -313 0
-5948 316 -315 0
5948 -316 0
5948 315 0
-5949 -316 315 0
5949 316 0
5949 -315 0
-5950 2060 -2061 0
5950 -2060 0
5950 2061 0
-5951 -2060 2061 0
5951 2060 0
5951 -2061 0
-5952 318 -317 0
5952 -318 0
5952 317 0
-5953 -318 317 0
5953 318 0
5953 -317 0
-5954 2062 -1875 0
5954 -2062 0
5954 1875 0
-5955 -2062 1875 0
5955 2062 0
5955 -1875 0
-5956 2063 -2064 0
5956 -2063 0
5956 2064 0
-5957 -2063 2064 0
5957 2063 0
5957 -2064 0
-5958 2065 -2066 0
5958 -2065 0
5958 2066 0
-5959 -2065 2066 0
5959 2065 0
5959 -2066 0
-5960 2067 -2068 0
5960 -2067 0
5960 2068 0
-5961 -2067 2068 0
5961 2067 0
5961 -2068 0
-5962 322 -321 0
5962 -322 0
5962 321 0
-5963 -322 321 0
5963 322 0
5963 -321 0
-5964 2069 -2070 0
5964 -2069 0
5964 2070 0
-5965 -2069 2070 0
5965 2069 0
5965 -2070 0
-5966 324 -323 0
5966 -324 0
5966 323 0
-5967 -324 323 0
5967 324 0
5967 -323 0
-5968 326 -325 0
5968 -326 0
5968 325 0
-5969 -326 325 0
5969 326 0
5969 -325 0
-5970 2071 -2072 0
5970 -2071 0
5970 2072 0
-5971 -2071 2072 0
5971 2071 0
5971 -2072 0
-5972 2073 -2074 0
5972 -2073 0
5972 2074 0
-5973 -2073 2074 0
5973 2073 0
5973 -2074 0
-5974 328 -327 0
5974 -328 0
5974 327 0
-5975 -328 327 0
5975 328 0
5975 -327 0
-5976 2075 -2076 0
5976 -2075 0
5976 2076 0
-5977 -2075 2076 0
5977 2075 0
5977 -2076 0
-5978 330 -329 0
5978 -330 0
5978 329 0
-5979 -330 329 0
5979 330 0
5979 -329 0
-5980 332 -331 0
5980 -332 0
5980 331 0
-5981 -332 331 0
5981 332 0
5981 -331 0
-5982 2077 -2078 0
5982 -2077 0
5982 2078 0
-5983 -2077 2078 0
5983 2077 0
5983 -2078 0
-5984 2079 -2080 0
5984 -2079 0
5984 2080 0
-5985 -2079 2080 0
5985 2079 0
5985 -2080 0
-5986 334 -333 0
5986 -334 0
5986 333 0
-5987 -334 333 0
5987 334 0
5987 -333 0
-5988 336 -335 0
5988 -336 0
5988 335 0
-5989 -336 335 0
5989 336 0
5989 -335 0
-5990 2081 -2082 0
5990 -2081 0
5990 2082 0
-5991 -2081 2082 0
5991 2081 0
5991 -2082 0
-5992 338 -337 0
5992 -338 0
5992 337 0
-5993 -338 337 0
5993 338 0
5993 -337 0
-5994 2083 -2084 0
5994 -2083 0
5994 2084 0
-5995 -2083 2084 0
5995 2083 0
5995 -2084 0
-5996 2085 -2086 0
5996 -2085 0
5996 2086 0
-5997 -2085 2086 0
5997 2085 0
5997 -2086 0
-5998 340 -339 0
5998 -340 0
5998 339 0
-5999 -340 339 0
5999 340 0
5999 -339 0
-6000 342 -341 0
6000 -342 0
6000 341 0
-6001 -342 341 0
6001 342 0
6001 -341 0
-6002 2087 -2088 0
6002 -2087 0
6002 2088 0
-6003 -2087 2088 0
6003 2087 0
6003 -2088 0
-6004 2089 -2090 0
6004 -2089 0
6004 2090 0
-6005 -2089 2090 0
6005 2089 0
6005 -2090 0
-6006 344 -343 0
6006 -344 0
6006 343 0
-6007 -344 343 0
6007 344 0
6007 -343 0
-6008 2091 -2092 0
6008 -2091 0
6008 2092 0
-6009 -2091 2092 0
6009 2091 0
6009 -2092 0
-6010 346 -345 0
6010 -346 0
6010 345 0
-6011 -346 345 0
6011 346 0
6011 -345 0
-6012 2093 -2094 0
6012 -2093 0
6012 2094 0
-6013 -2093 2094 0
6013 2093 0
6013 -2094 0
-6014 348 -347 0
6014 -348 0
6014 347 0
-6015 -348 347 0
6015 348 0
6015 -347 0
-6016 350 -349 0
6016 -350 0
6016 349 0
-6017 -350 349 0
6017 350 0
6017 -349 0
-6018 2095 -2096 0
6018 -2095 0
6018 2096 0
-6019 -2095 2096 0
6019 2095 0
6019 -2096 0
-6020 2097 -2098 0
6020 -2097 0
6020 2098 0
-6021 -2097 2098 0
6021 2097 0
6021 -2098 0
-6022 352 -351 0
6022 -352 0
6022 351 0
-6023 -352 351 0
6023 352 0
6023 -351 0
-6024 354 -353 0
6024 -354 0
6024 353 0
-6025 -354 353 0
6025 354 0
6025 -353 0
-6026 2099 -2100 0
6026 -2099 0
6026 2100 0
-6027 -2099 2100 0
6027 2099 0
6027 -2100 0
-6028 2101 -1827 0
6028 -2101 0
6028 1827 0
-6029 -2101 1827 0
6029 2101 0
6029 -1827 0
-6030 356 -355 0
6030 -356 0
6030 355 0
-6031 -356 355 0
6031 356 0
6031 -355 0
-6032 358 -357 0
6032 -358 0
6032 357 0
-6033 -358 357 0
6033 358 0
6033 -357 0
-6034 2102 -2103 0
6034 -2102 0
6034 2103 0
-6035 -2102 2103 0
6035 2102 0
6035 -2103 0
-6036 2104 -2105 0
6036 -2104 0
6036 2105 0
-6037 -2104 2105 0
6037 2104 0
6037 -2105 0
-6038 360 -359 0
6038 -360 0
6038 359 0
-6039 -360 359 0
6039 360 0
6039 -359 0
-6040 362 -361 0
6040 -362 0
6040 361 0
-6041 -362 361 0
6041 362 0
6041 -361 0
-6042 2106 -2107 0
6042 -2106 0
6042 2107 0
-6043 -2106 2107 0
6043 2106 0
6043 -2107 0
-6044 2108 -2109 0
6044 -2108 0
6044 2109 0
-6045 -2108 2109 0
6045 2108 0
6045 -2109 0
-6046 364 -363 0
6046 -364 0
6046 363 0
-6047 -364 363 0
6047 364 0
6047 -363 0
-6048 2110 -2111 0
6048 -2110 0
6048 2111 0
-6049 -2110 2111 0
6049 2110 0
6049 -2111 0
-6050 366 -365 0
6050 -366 0
6050 365 0
-6051 -366 365 0
6051 366 0
6051 -365 0
-6052 2112 -2113 0
6052 -2112 0
6052 2113 0
-6053 -2112 2113 0
6053 2112 0
6053 -2113 0
-6054 368 -367 0
6054 -368 0
6054 367 0
-6055 -368 367 0
6055 368 0
6055 -367 0
-6056 370 -369 0
6056 -370 0
6056 369 0
-6057 -370 369 0
6057 370 0
6057 -369 0
-6058 2114 -2115 0
6058 -2114 0
6058 2115 0
-6059 -2114 2115 0
6059 2114 0
6059 -2115 0
-6060 2116 -2117 0
6060 -2116 0
6060 2117 0
-6061 -2116 2117 0
6061 2116 0
6061 -2117 0
-6062 372 -371 0
6062 -372 0
6062 371 0
-6063 -372 371 0
6063 372 0
6063 -371 0
-6064 2118 -2119 0
6064 -2118 0
6064 2119 0
-6065 -2118 2119 0
6065 2118 0
6065 -2119 0
-6066 374 -373 0
6066 -374 0
6066 373 0
-6067 -374 373 0
6067 374 0
6067 -373 0
-6068 2120 -2121 0
6068 -2120 0
6068 2121 0
-6069 -2120 2121 0
6069 2120 0
6069 -2121 0
-6070 376 -375 0
6070 -376 0
6070 375 0
-6071 -376 375 0
6071 376 0
6071 -375 0
-6072 378 -377 0
6072 -378 0
6072 377 0
-6073 -378 377 0
6073 378 0
6073 -377 0
-6074 2122 -1877 0
6074 -2122 0
6074 1877 0
-6075 -2122 1877 0
6075 2122 0
6075 -1877 0
-6076 2123 -1434 0
6076 -2123 0
6076 1434 0
-6077 -2123 1434 0
6077 2123 0
6077 -1434 0
-6078 2124 -1433 0
6078 -2124 0
6078 1433 0
-6079 -2124 1433 0
6079 2124 0
6079 -1433 0
-6080 2125 -1550 0
6080 -2125 0
6080 1550 0
-6081 -2125 1550 0
6081 2125 0
6081 -1550 0
-6082 382 -381 0
6082 -382 0
6082 381 0
-6083 -382 381 0
6083 382 0
6083 -381 0
-6084 2126 -1588 0
6084 -2126 0
6084 1588 0
-6085 -2126 1588 0
6085 2126 0
6085 -1588 0
-6086 384 -383 0
6086 -384 0
6086 383 0
-6087 -384 383 0
6087 384 0
6087 -383 0
-6088 386 -385 0
6088 -386 0
6088 385 0
-6089 -386 385 0
6089 386 0
6089 -385 0
-6090 2127 -1650 0
6090 -2127 0
6090 1650 0
-6091 -2127 1650 0
6091 2127 0
6091 -1650 0
-6092 2128 -1716 0
6092 -2128 0
6092 1716 0
-6093 -2128 1716 0
6093 2128 0
6093 -1716 0
-6094 388 -387 0
6094 -388 0
6094 387 0
-6095 -388 387 0
6095 388 0
6095 -387 0
-6096 2129 -1754 0
6096 -2129 0
6096 1754 0
-6097 -2129 1754 0
6097 2129 0
6097 -1754 0
-6098 390 -389 0
6098 -390 0
6098 389 0
-6099 -390 389 0
6099 390 0
6099 -389 0
-6100 392 -391 0
6100 -392 0
6100 391 0
-6101 -392 391 0
6101 392 0
6101 -391 0
-6102 2130 -2131 0
6102 -2130 0
6102 2131 0
-6103 -2130 2131 0
6103 2130 0
6103 -2131 0
-6104 2132 -1490 0
6104 -2132 0
6104 1490 0
-6105 -2132 1490 0
6105 2132 0
6105 -1490 0
-6106 2133 -1528 0
6106 -2133 0
6106 1528 0
-6107 -2133 1528 0
6107 2133 0
6107 -1528 0
-6108 2134 -1580 0
6108 -2134 0
6108 1580 0
-6109 -2134 1580 0
6109 2134 0
6109 -1580 0
-6110 396 -395 0
6110 -396 0
6110 395 0
-6111 -396 395 0
6111 396 0
6111 -395 0
-6112 2135 -1670 0
6112 -2135 0
6112 1670 0
-6113 -2135 1670 0
6113 2135 0
6113 -1670 0
-6114 398 -397 0
6114 -398 0
6114 397 0
-6115 -398 397 0
6115 398 0
6115 -397 0
-6116 400 -399 0
6116 -400 0
6116 399 0
-6117 -400 399 0
6117 400 0
6117 -399 0
-6118 2136 -1702 0
6118 -2136 0
6118 1702 0
-6119 -2136 1702 0
6119 2136 0
6119 -1702 0
-6120 402 -401 0
6120 -402 0
6120 401 0
-6121 -402 401 0
6121 402 0
6121 -401 0
-6122 2137 -2138 0
6122 -2137 0
6122 2138 0
-6123 -2137 2138 0
6123 2137 0
6123 -2138 0
-6124 2139 -1493 0
6124 -2139 0
6124 1493 0
-6125 -2139 1493 0
6125 2139 0
6125 -1493 0
-6126 2140 -1544 0
6126 -2140 0
6126 1544 0
-6127 -2140 1544 0
6127 2140 0
6127 -1544 0
-6128 2141 -1582 0
6128 -2141 0
6128 1582 0
-6129 -2141 1582 0
6129 2141 0
6129 -1582 0
-6130 406 -405 0
6130 -406 0
6130 405 0
-6131 -406 405 0
6131 406 0
6131 -405 0
-6132 2142 -1676 0
6132 -2142 0
6132 1676 0
-6133 -2142 1676 0
6133 2142 0
6133 -1676 0
-6134 408 -407 0
6134 -408 0
6134 407 0
-6135 -408 407 0
6135 408 0
6135 -407 0
-6136 2143 -1718 0
6136 -2143 0
6136 1718 0
-6137 -2143 1718 0
6137 2143 0
6137 -1718 0
-6138 410 -409 0
6138 -410 0
6138 409 0
-6139 -410 409 0
6139 410 0
6139 -409 0
-6140 2144 -1863 0
6140 -2144 0
6140 1863 0
-6141 -2144 1863 0
6141 2144 0
6141 -1863 0
-6142 412 -411 0
6142 -412 0
6142 411 0
-6143 -412 411 0
6143 412 0
6143 -411 0
-6144 414 -413 0
6144 -414 0
6144 413 0
-6145 -414 413 0
6145 414 0
6145 -413 0
-6146 2145 -2146 0
6146 -2145 0
6146 2146 0
-6147 -2145 2146 0
6147 2145 0
6147 -2146 0
-6148 2147 -1473 0
6148 -2147 0
6148 1473 0
-6149 -2147 1473 0
6149 2147 0
6149 -1473 0
-6150 2148 -1472 0
6150 -2148 0
6150 1472 0
-6151 -2148 1472 0
6151 2148 0
6151 -1472 0
-6152 2149 -1536 0
6152 -2149 0
6152 1536 0
-6153 -2149 1536 0
6153 2149 0
6153 -1536 0
-6154 418 -417 0
6154 -418 0
6154 417 0
-6155 -418 417 0
6155 418 0
6155 -417 0
-6156 2150 -1566 0
6156 -2150 0
6156 1566 0
-6157 -2150 1566 0
6157 2150 0
6157 -1566 0
-6158 420 -419 0
6158 -420 0
6158 419 0
-6159 -420 419 0
6159 420 0
6159 -419 0
-6160 2151 -1634 0
6160 -2151 0
6160 1634 0
-6161 -2151 1634 0
6161 2151 0
6161 -1634 0
-6162 422 -421 0
6162 -422 0
6162 421 0
-6163 -422 421 0
6163 422 0
6163 -421 0
-6164 2152 -1720 0
6164 -2152 0
6164 1720 0
-6165 -2152 1720 0
6165 2152 0
6165 -1720 0
-6166 424 -423 0
6166 -424 0
6166 423 0
-6167 -424 423 0
6167 424 0
6167 -423 0
-6168 2153 -1469 0
6168 -2153 0
6168 1469 0
-6169 -2153 1469 0
6169 2153 0
6169 -1469 0
-6170 2154 -1532 0
6170 -2154 0
6170 1532 0
-6171 -2154 1532 0
6171 2154 0
6171 -1532 0
-6172 428 -427 0
6172 -428 0
6172 427 0
-6173 -428 427 0
6173 428 0
6173 -427 0
-6174 2155 -1598 0
6174 -2155 0
6174 1598 0
-6175 -2155 1598 0
6175 2155 0
6175 -1598 0
-6176 2156 -1632 0
6176 -2156 0
6176 1632 0
-6177 -2156 1632 0
6177 2156 0
6177 -1632 0
-6178 430 -429 0
6178 -430 0
6178 429 0
-6179 -430 429 0
6179 430 0
6179 -429 0
-6180 2157 -1732 0
6180 -2157 0
6180 1732 0
-6181 -2157 1732 0
6181 2157 0
6181 -1732 0
-6182 432 -431 0
6182 -432 0
6182 431 0
-6183 -432 431 0
6183 432 0
6183 -431 0
-6184 2158 -1851 0
6184 -2158 0
6184 1851 0
-6185 -2158 1851 0
6185 2158 0
6185 -1851 0
-6186 434 -433 0
6186 -434 0
6186 433 0
-6187 -434 433 0
6187 434 0
6187 -433 0
-6188 436 -435 0
6188 -436 0
6188 435 0
-6189 -436 435 0
6189 436 0
6189 -435 0
-6190 2159 -1845 0
6190 -2159 0
6190 1845 0
-6191 -2159 1845 0
6191 2159 0
6191 -1845 0
-6192 438 -437 0
6192 -438 0
6192 437 0
-6193 -438 437 0
6193 438 0
6193 -437 0
-6194 2160 -2161 0
6194 -2160 0
6194 2161 0
-6195 -2160 2161 0
6195 2160 0
6195 -2161 0
-6196 2162 -1399 0
6196 -2162 0
6196 1399 0
-6197 -2162 1399 0
6197 2162 0
6197 -1399 0
-6198 2163 -1398 0
6198 -2163 0
6198 1398 0
-6199 -2163 1398 0
6199 2163 0
6199 -1398 0
-6200 2164 -1524 0
6200 -2164 0
6200 1524 0
-6201 -2164 1524 0
6201 2164 0
6201 -1524 0
-6202 442 -441 0
6202 -442 0
6202 441 0
-6203 -442 441 0
6203 442 0
6203 -441 0
-6204 2165 -1586 0
6204 -2165 0
6204 1586 0
-6205 -2165 1586 0
6205 2165 0
6205 -1586 0
-6206 444 -443 0
6206 -444 0
6206 443 0
-6207 -444 443 0
6207 444 0
6207 -443 0
-6208 446 -445 0
6208 -446 0
6208 445 0
-6209 -446 445 0
6209 446 0
6209 -445 0
-6210 2166 -1654 0
6210 -2166 0
6210 1654 0
-6211 -2166 1654 0
6211 2166 0
6211 -1654 0
-6212 2167 -1724 0
6212 -2167 0
6212 1724 0
-6213 -2167 1724 0
6213 2167 0
6213 -1724 0
-6214 448 -447 0
6214 -448 0
6214 447 0
-6215 -448 447 0
6215 448 0
6215 -447 0
-6216 2168 -1458 0
6216 -2168 0
6216 1458 0
-6217 -2168 1458 0
6217 2168 0
6217 -1458 0
-6218 2169 -1457 0
6218 -2169 0
6218 1457 0
-6219 -2169 1457 0
6219 2169 0
6219 -1457 0
-6220 452 -451 0
6220 -452 0
6220 451 0
-6221 -452 451 0
6221 452 0
6221 -451 0
-6222 2170 -1540 0
6222 -2170 0
6222 1540 0
-6223 -2170 1540 0
6223 2170 0
6223 -1540 0
-6224 2171 -1570 0
6224 -2171 0
6224 1570 0
-6225 -2171 1570 0
6225 2171 0
6225 -1570 0
-6226 454 -453 0
6226 -454 0
6226 453 0
-6227 -454 453 0
6227 454 0
6227 -453 0
-6228 2172 -1638 0
6228 -2172 0
6228 1638 0
-6229 -2172 1638 0
6229 2172 0
6229 -1638 0
-6230 456 -455 0
6230 -456 0
6230 455 0
-6231 -456 455 0
6231 456 0
6231 -455 0
-6232 2173 -1696 0
6232 -2173 0
6232 1696 0
-6233 -2173 1696 0
6233 2173 0
6233 -1696 0
-6234 458 -457 0
6234 -458 0
6234 457 0
-6235 -458 457 0
6235 458 0
6235 -457 0
-6236 460 -459 0
6236 -460 0
6236 459 0
-6237 -460 459 0
6237 460 0
6237 -459 0
-6238 2174 -1777 0
6238 -2174 0
6238 1777 0
-6239 -2174 1777 0
6239 2174 0
6239 -1777 0
-6240 2175 -1769 0
6240 -2175 0
6240 1769 0
-6241 -2175 1769 0
6241 2175 0
6241 -1769 0
-6242 462 -461 0
6242 -462 0
6242 461 0
-6243 -462 461 0
6243 462 0
6243 -461 0
-6244 2176 -1805 0
6244 -2176 0
6244 1805 0
-6245 -2176 1805 0
6245 2176 0
6245 -1805 0
-6246 464 -463 0
6246 -464 0
6246 463 0
-6247 -464 463 0
6247 464 0
6247 -463 0
-6248 466 -465 0
6248 -466 0
6248 465 0
-6249 -466 465 0
6249 466 0
6249 -465 0
-6250 2177 -1750 0
6250 -2177 0
6250 1750 0
-6251 -2177 1750 0
6251 2177 0
6251 -1750 0
-6252 2178 -1554 0
6252 -2178 0
6252 1554 0
-6253 -2178 1554 0
6253 2178 0
6253 -1554 0
-6254 2179 -1426 0
6254 -2179 0
6254 1426 0
-6255 -2179 1426 0
6255 2179 0
6255 -1426 0
-6256 2180 -1568 0
6256 -2180 0
6256 1568 0
-6257 -2180 1568 0
6257 2180 0
6257 -1568 0
-6258 470 -469 0
6258 -470 0
6258 469 0
-6259 -470 469 0
6259 470 0
6259 -469 0
-6260 472 -471 0
6260 -472 0
6260 471 0
-6261 -472 471 0
6261 472 0
6261 -471 0
-6262 2181 -1636 0
6262 -2181 0
6262 1636 0
-6263 -2181 1636 0
6263 2181 0
6263 -1636 0
-6264 2182 -1712 0
6264 -2182 0
6264 1712 0
-6265 -2182 1712 0
6265 2182 0
6265 -1712 0
-6266 474 -473 0
6266 -474 0
6266 473 0
-6267 -474 473 0
6267 474 0
6267 -473 0
-6268 476 -475 0
6268 -476 0
6268 475 0
-6269 -476 475 0
6269 476 0
6269 -475 0
-6270 2183 -1817 0
6270 -2183 0
6270 1817 0
-6271 -2183 1817 0
6271 2183 0
6271 -1817 0
-6272 2184 -1740 0
6272 -2184 0
6272 1740 0
-6273 -2184 1740 0
6273 2184 0
6273 -1740 0
-6274 478 -477 0
6274 -478 0
6274 477 0
-6275 -478 477 0
6275 478 0
6275 -477 0
-6276 2185 -1430 0
6276 -2185 0
6276 1430 0
-6277 -2185 1430 0
6277 2185 0
6277 -1430 0
-6278 2186 -1429 0
6278 -2186 0
6278 1429 0
-6279 -2186 1429 0
6279 2186 0
6279 -1429 0
-6280 482 -481 0
6280 -482 0
6280 481 0
-6281 -482 481 0
6281 482 0
6281 -481 0
-6282 2187 -1520 0
6282 -2187 0
6282 1520 0
-6283 -2187 1520 0
6283 2187 0
6283 -1520 0
-6284 2188 -1562 0
6284 -2188 0
6284 1562 0
-6285 -2188 1562 0
6285 2188 0
6285 -1562 0
-6286 484 -483 0
6286 -484 0
6286 483 0
-6287 -484 483 0
6287 484 0
6287 -483 0
-6288 486 -485 0
6288 -486 0
6288 485 0
-6289 -486 485 0
6289 486 0
6289 -485 0
-6290 2189 -1656 0
6290 -2189 0
6290 1656 0
-6291 -2189 1656 0
6291 2189 0
6291 -1656 0
-6292 2190 -1688 0
6292 -2190 0
6292 1688 0
-6293 -2190 1688 0
6293 2190 0
6293 -1688 0
-6294 488 -487 0
6294 -488 0
6294 487 0
-6295 -488 487 0
6295 488 0
6295 -487 0
-6296 490 -489 0
6296 -490 0
6296 489 0
-6297 -490 489 0
6297 490 0
6297 -489 0
-6298 2191 -1855 0
6298 -2191 0
6298 1855 0
-6299 -2191 1855 0
6299 2191 0
6299 -1855 0
-6300 492 -491 0
6300 -492 0
6300 491 0
-6301 -492 491 0
6301 492 0
6301 -491 0
-6302 2192 -1871 0
6302 -2192 0
6302 1871 0
-6303 -2192 1871 0
6303 2192 0
6303 -1871 0
-6304 2193 -1476 0
6304 -2193 0
6304 1476 0
-6305 -2193 1476 0
6305 2193 0
6305 -1476 0
-6306 2194 -1502 0
6306 -2194 0
6306 1502 0
-6307 -2194 1502 0
6307 2194 0
6307 -1502 0
-6308 496 -495 0
6308 -496 0
6308 495 0
-6309 -496 495 0
6309 496 0
6309 -495 0
-6310 2195 -1610 0
6310 -2195 0
6310 1610 0
-6311 -2195 1610 0
6311 2195 0
6311 -1610 0
-6312 498 -497 0
6312 -498 0
6312 497 0
-6313 -498 497 0
6313 498 0
6313 -497 0
-6314 2196 -1664 0
6314 -2196 0
6314 1664 0
-6315 -2196 1664 0
6315 2196 0
6315 -1664 0
-6316 2197 -1682 0
6316 -2197 0
6316 1682 0
-6317 -2197 1682 0
6317 2197 0
6317 -1682 0
-6318 500 -499 0
6318 -500 0
6318 499 0
-6319 -500 499 0
6319 500 0
6319 -499 0
-6320 502 -501 0
6320 -502 0
6320 501 0
-6321 -502 501 0
6321 502 0
6321 -501 0
-6322 2198 -2199 0
6322 -2198 0
6322 2199 0
-6323 -2198 2199 0
6323 2198 0
6323 -2199 0
-6324 2200 -1516 0
6324 -2200 0
6324 1516 0
-6325 -2200 1516 0
6325 2200 0
6325 -1516 0
-6326 2201 -1437 0
6326 -2201 0
6326 1437 0
-6327 -2201 1437 0
6327 2201 0
6327 -1437 0
-6328 2202 -1578 0
6328 -2202 0
6328 1578 0
-6329 -2202 1578 0
6329 2202 0
6329 -1578 0
-6330 506 -505 0
6330 -506 0
6330 505 0
-6331 -506 505 0
6331 506 0
6331 -505 0
-6332 508 -507 0
6332 -508 0
6332 507 0
-6333 -508 507 0
6333 508 0
6333 -507 0
-6334 2203 -1648 0
6334 -2203 0
6334 1648 0
-6335 -2203 1648 0
6335 2203 0
6335 -1648 0
-6336 2204 -1708 0
6336 -2204 0
6336 1708 0
-6337 -2204 1708 0
6337 2204 0
6337 -1708 0
-6338 510 -509 0
6338 -510 0
6338 509 0
-6339 -510 509 0
6339 510 0
6339 -509 0
-6340 512 -511 0
6340 -512 0
6340 511 0
-6341 -512 511 0
6341 512 0
6341 -511 0
-6342 2205 -2206 0
6342 -2205 0
6342 2206 0
-6343 -2205 2206 0
6343 2205 0
6343 -2206 0
-6344 2207 -1512 0
6344 -2207 0
6344 1512 0
-6345 -2207 1512 0
6345 2207 0
6345 -1512 0
-6346 2208 -1487 0
6346 -2208 0
6346 1487 0
-6347 -2208 1487 0
6347 2208 0
6347 -1487 0
-6348 2209 -1564 0
6348 -2209 0
6348 1564 0
-6349 -2209 1564 0
6349 2209 0
6349 -1564 0
-6350 516 -515 0
6350 -516 0
6350 515 0
-6351 -516 515 0
6351 516 0
6351 -515 0
-6352 518 -517 0
6352 -518 0
6352 517 0
-6353 -518 517 0
6353 518 0
6353 -517 0
-6354 2210 -1620 0
6354 -2210 0
6354 1620 0
-6355 -2210 1620 0
6355 2210 0
6355 -1620 0
-6356 2211 -1714 0
6356 -2211 0
6356 1714 0
-6357 -2211 1714 0
6357 2211 0
6357 -1714 0
-6358 520 -519 0
6358 -520 0
6358 519 0
-6359 -520 519 0
6359 520 0
6359 -519 0
-6360 522 -521 0
6360 -522 0
6360 521 0
-6361 -522 521 0
6361 522 0
6361 -521 0
-6362 2212 -1837 0
6362 -2212 0
6362 1837 0
-6363 -2212 1837 0
6363 2212 0
6363 -1837 0
-6364 524 -523 0
6364 -524 0
6364 523 0
-6365 -524 523 0
6365 524 0
6365 -523 0
-6366 2213 -2214 0
6366 -2213 0
6366 2214 0
-6367 -2213 2214 0
6367 2213 0
6367 -2214 0
-6368 2215 -1409 0
6368 -2215 0
6368 1409 0
-6369 -2215 1409 0
6369 2215 0
6369 -1409 0
-6370 2216 -1408 0
6370 -2216 0
6370 1408 0
-6371 -2216 1408 0
6371 2216 0
6371 -1408 0
-6372 2217 -1542 0
6372 -2217 0
6372 1542 0
-6373 -2217 1542 0
6373 2217 0
6373 -1542 0
-6374 528 -527 0
6374 -528 0
6374 527 0
-6375 -528 527 0
6375 528 0
6375 -527 0
-6376 2218 -1602 0
6376 -2218 0
6376 1602 0
-6377 -2218 1602 0
6377 2218 0
6377 -1602 0
-6378 530 -529 0
6378 -530 0
6378 529 0
-6379 -530 529 0
6379 530 0
6379 -529 0
-6380 2219 -1646 0
6380 -2219 0
6380 1646 0
-6381 -2219 1646 0
6381 2219 0
6381 -1646 0
-6382 532 -531 0
6382 -532 0
6382 531 0
-6383 -532 531 0
6383 532 0
6383 -531 0
-6384 2220 -1730 0
6384 -2220 0
6384 1730 0
-6385 -2220 1730 0
6385 2220 0
6385 -1730 0
-6386 534 -533 0
6386 -534 0
6386 533 0
-6387 -534 533 0
6387 534 0
6387 -533 0
-6388 2221 -1761 0
6388 -2221 0
6388 1761 0
-6389 -2221 1761 0
6389 2221 0
6389 -1761 0
-6390 536 -535 0
6390 -536 0
6390 535 0
-6391 -536 535 0
6391 536 0
6391 -535 0
-6392 538 -537 0
6392 -538 0
6392 537 0
-6393 -538 537 0
6393 538 0
6393 -537 0
-6394 2222 -1785 0
6394 -2222 0
6394 1785 0
-6395 -2222 1785 0
6395 2222 0
6395 -1785 0
-6396 2223 -1402 0
6396 -2223 0
6396 1402 0
-6397 -2223 1402 0
6397 2223 0
6397 -1402 0
-6398 2224 -1510 0
6398 -2224 0
6398 1510 0
-6399 -2224 1510 0
6399 2224 0
6399 -1510 0
-6400 2225 -1616 0
6400 -2225 0
6400 1616 0
-6401 -2225 1616 0
6401 2225 0
6401 -1616 0
-6402 542 -541 0
6402 -542 0
6402 541 0
-6403 -542 541 0
6403 542 0
6403 -541 0
-6404 2226 -1660 0
6404 -2226 0
6404 1660 0
-6405 -2226 1660 0
6405 2226 0
6405 -1660 0
-6406 544 -543 0
6406 -544 0
6406 543 0
-6407 -544 543 0
6407 544 0
6407 -543 0
-6408 2227 -1694 0
6408 -2227 0
6408 1694 0
-6409 -2227 1694 0
6409 2227 0
6409 -1694 0
-6410 546 -545 0
6410 -546 0
6410 545 0
-6411 -546 545 0
6411 546 0
6411 -545 0
-6412 548 -547 0
6412 -548 0
6412 547 0
-6413 -548 547 0
6413 548 0
6413 -547 0
-6414 2228 -1765 0
6414 -2228 0
6414 1765 0
-6415 -2228 1765 0
6415 2228 0
6415 -1765 0
-6416 550 -549 0
6416 -550 0
6416 549 0
-6417 -550 549 0
6417 550 0
6417 -549 0
-6418 2229 -1801 0
6418 -2229 0
6418 1801 0
-6419 -2229 1801 0
6419 2229 0
6419 -1801 0
-6420 552 -551 0
6420 -552 0
6420 551 0
-6421 -552 551 0
6421 552 0
6421 -551 0
-6422 2230 -2231 0
6422 -2230 0
6422 2231 0
-6423 -2230 2231 0
6423 2230 0
6423 -2231 0
-6424 2232 -1466 0
6424 -2232 0
6424 1466 0
-6425 -2232 1466 0
6425 2232 0
6425 -1466 0
-6426 2233 -1465 0
6426 -2233 0
6426 1465 0
-6427 -2233 1465 0
6427 2233 0
6427 -1465 0
-6428 2234 -1508 0
6428 -2234 0
6428 1508 0
-6429 -2234 1508 0
6429 2234 0
6429 -1508 0
-6430 556 -555 0
6430 -556 0
6430 555 0
-6431 -556 555 0
6431 556 0
6431 -555 0
-6432 558 -557 0
6432 -558 0
6432 557 0
-6433 -558 557 0
6433 558 0
6433 -557 0
-6434 2235 -1600 0
6434 -2235 0
6434 1600 0
-6435 -2235 1600 0
6435 2235 0
6435 -1600 0
-6436 560 -559 0
6436 -560 0
6436 559 0
-6437 -560 559 0
6437 560 0
6437 -559 0
-6438 2236 -1622 0
6438 -2236 0
6438 1622 0
-6439 -2236 1622 0
6439 2236 0
6439 -1622 0
-6440 562 -561 0
6440 -562 0
6440 561 0
-6441 -562 561 0
6441 562 0
6441 -561 0
-6442 2237 -1704 0
6442 -2237 0
6442 1704 0
-6443 -2237 1704 0
6443 2237 0
6443 -1704 0
-6444 2238 -1813 0
6444 -2238 0
6444 1813 0
-6445 -2238 1813 0
6445 2238 0
6445 -1813 0
-6446 564 -563 0
6446 -564 0
6446 563 0
-6447 -564 563 0
6447 564 0
6447 -563 0
-6448 2239 -1405 0
6448 -2239 0
6448 1405 0
-6449 -2239 1405 0
6449 2239 0
6449 -1405 0
-6450 2240 -1552 0
6450 -2240 0
6450 1552 0
-6451 -2240 1552 0
6451 2240 0
6451 -1552 0
-6452 568 -567 0
6452 -568 0
6452 567 0
-6453 -568 567 0
6453 568 0
6453 -567 0
-6454 2241 -1576 0
6454 -2241 0
6454 1576 0
-6455 -2241 1576 0
6455 2241 0
6455 -1576 0
-6456 570 -569 0
6456 -570 0
6456 569 0
-6457 -570 569 0
6457 570 0
6457 -569 0
-6458 2242 -1624 0
6458 -2242 0
6458 1624 0
-6459 -2242 1624 0
6459 2242 0
6459 -1624 0
-6460 2243 -1726 0
6460 -2243 0
6460 1726 0
-6461 -2243 1726 0
6461 2243 0
6461 -1726 0
-6462 572 -571 0
6462 -572 0
6462 571 0
-6463 -572 571 0
6463 572 0
6463 -571 0
-6464 574 -573 0
6464 -574 0
6464 573 0
-6465 -574 573 0
6465 574 0
6465 -573 0
-6466 2244 -2245 0
6466 -2244 0
6466 2245 0
-6467 -2244 2245 0
6467 2244 0
6467 -2245 0
-6468 2246 -1412 0
6468 -2246 0
6468 1412 0
-6469 -2246 1412 0
6469 2246 0
6469 -1412 0
-6470 2247 -1504 0
6470 -2247 0
6470 1504 0
-6471 -2247 1504 0
6471 2247 0
6471 -1504 0
-6472 578 -577 0
6472 -578 0
6472 577 0
-6473 -578 577 0
6473 578 0
6473 -577 0
-6474 2248 -1596 0
6474 -2248 0
6474 1596 0
-6475 -2248 1596 0
6475 2248 0
6475 -1596 0
-6476 2249 -1640 0
6476 -2249 0
6476 1640 0
-6477 -2249 1640 0
6477 2249 0
6477 -1640 0
-6478 580 -579 0
6478 -580 0
6478 579 0
-6479 -580 579 0
6479 580 0
6479 -579 0
-6480 2250 -1686 0
6480 -2250 0
6480 1686 0
-6481 -2250 1686 0
6481 2250 0
6481 -1686 0
-6482 582 -581 0
6482 -582 0
6482 581 0
-6483 -582 581 0
6483 582 0
6483 -581 0
-6484 2251 -1797 0
6484 -2251 0
6484 1797 0
-6485 -2251 1797 0
6485 2251 0
6485 -1797 0
-6486 584 -583 0
6486 -584 0
6486 583 0
-6487 -584 583 0
6487 584 0
6487 -583 0
-6488 2252 -1789 0
6488 -2252 0
6488 1789 0
-6489 -2252 1789 0
6489 2252 0
6489 -1789 0
-6490 586 -585 0
6490 -586 0
6490 585 0
-6491 -586 585 0
6491 586 0
6491 -585 0
-6492 588 -587 0
6492 -588 0
6492 587 0
-6493 -588 587 0
6493 588 0
6493 -587 0
-6494 2253 -2254 0
6494 -2253 0
6494 2254 0
-6495 -2253 2254 0
6495 2253 0
6495 -2254 0
-6496 2255 -1447 0
6496 -2255 0
6496 1447 0
-6497 -2255 1447 0
6497 2255 0
6497 -1447 0
-6498 2256 -1448 0
6498 -2256 0
6498 1448 0
-6499 -2256 1448 0
6499 2256 0
6499 -1448 0
-6500 2257 -1506 0
6500 -2257 0
6500 1506 0
-6501 -2257 1506 0
6501 2257 0
6501 -1506 0
-6502 592 -591 0
6502 -592 0
6502 591 0
-6503 -592 591 0
6503 592 0
6503 -591 0
-6504 594 -593 0
6504 -594 0
6504 593 0
-6505 -594 593 0
6505 594 0
6505 -593 0
-6506 2258 -1606 0
6506 -2258 0
6506 1606 0
-6507 -2258 1606 0
6507 2258 0
6507 -1606 0
-6508 2259 -1628 0
6508 -2259 0
6508 1628 0
-6509 -2259 1628 0
6509 2259 0
6509 -1628 0
-6510 596 -595 0
6510 -596 0
6510 595 0
-6511 -596 595 0
6511 596 0
6511 -595 0
-6512 2260 -1722 0
6512 -2260 0
6512 1722 0
-6513 -2260 1722 0
6513 2260 0
6513 -1722 0
-6514 598 -597 0
6514 -598 0
6514 597 0
-6515 -598 597 0
6515 598 0
6515 -597 0
-6516 2261 -1420 0
6516 -2261 0
6516 1420 0
-6517 -2261 1420 0
6517 2261 0
6517 -1420 0
-6518 2262 -1419 0
6518 -2262 0
6518 1419 0
-6519 -2262 1419 0
6519 2262 0
6519 -1419 0
-6520 2263 -1526 0
6520 -2263 0
6520 1526 0
-6521 -2263 1526 0
6521 2263 0
6521 -1526 0
-6522 602 -601 0
6522 -602 0
6522 601 0
-6523 -602 601 0
6523 602 0
6523 -601 0
-6524 604 -603 0
6524 -604 0
6524 603 0
-6525 -604 603 0
6525 604 0
6525 -603 0
-6526 2264 -1574 0
6526 -2264 0
6526 1574 0
-6527 -2264 1574 0
6527 2264 0
6527 -1574 0
-6528 606 -605 0
6528 -606 0
6528 605 0
-6529 -606 605 0
6529 606 0
6529 -605 0
-6530 2265 -1644 0
6530 -2265 0
6530 1644 0
-6531 -2265 1644 0
6531 2265 0
6531 -1644 0
-6532 2266 -1736 0
6532 -2266 0
6532 1736 0
-6533 -2266 1736 0
6533 2266 0
6533 -1736 0
-6534 608 -607 0
6534 -608 0
6534 607 0
-6535 -608 607 0
6535 608 0
6535 -607 0
-6536 610 -609 0
6536 -610 0
6536 609 0
-6537 -610 609 0
6537 610 0
6537 -609 0
-6538 2267 -1809 0
6538 -2267 0
6538 1809 0
-6539 -2267 1809 0
6539 2267 0
6539 -1809 0
-6540 2268 -1867 0
6540 -2268 0
6540 1867 0
-6541 -2268 1867 0
6541 2268 0
6541 -1867 0
-6542 612 -611 0
6542 -612 0
6542 611 0
-6543 -612 611 0
6543 612 0
6543 -611 0
-6544 2269 -1514 0
6544 -2269 0
6544 1514 0
-6545 -2269 1514 0
6545 2269 0
6545 -1514 0
-6546 2270 -1444 0
6546 -2270 0
6546 1444 0
-6547 -2270 1444 0
6547 2270 0
6547 -1444 0
-6548 2271 -1604 0
6548 -2271 0
6548 1604 0
-6549 -2271 1604 0
6549 2271 0
6549 -1604 0
-6550 616 -615 0
6550 -616 0
6550 615 0
-6551 -616 615 0
6551 616 0
6551 -615 0
-6552 618 -617 0
6552 -618 0
6552 617 0
-6553 -618 617 0
6553 618 0
6553 -617 0
-6554 2272 -1668 0
6554 -2272 0
6554 1668 0
-6555 -2272 1668 0
6555 2272 0
6555 -1668 0
-6556 2273 -1734 0
6556 -2273 0
6556 1734 0
-6557 -2273 1734 0
6557 2273 0
6557 -1734 0
-6558 620 -619 0
6558 -620 0
6558 619 0
-6559 -620 619 0
6559 620 0
6559 -619 0
-6560 2274 -2275 0
6560 -2274 0
6560 2275 0
-6561 -2274 2275 0
6561 2274 0
6561 -2275 0
-6562 622 -621 0
6562 -622 0
6562 621 0
-6563 -622 621 0
6563 622 0
6563 -621 0
-6564 2276 -1461 0
6564 -2276 0
6564 1461 0
-6565 -2276 1461 0
6565 2276 0
6565 -1461 0
-6566 2277 -1462 0
6566 -2277 0
6566 1462 0
-6567 -2277 1462 0
6567 2277 0
6567 -1462 0
-6568 626 -625 0
6568 -626 0
6568 625 0
-6569 -626 625 0
6569 626 0
6569 -625 0
-6570 2278 -1534 0
6570 -2278 0
6570 1534 0
-6571 -2278 1534 0
6571 2278 0
6571 -1534 0
-6572 2279 -1614 0
6572 -2279 0
6572 1614 0
-6573 -2279 1614 0
6573 2279 0
6573 -1614 0
-6574 628 -627 0
6574 -628 0
6574 627 0
-6575 -628 627 0
6575 628 0
6575 -627 0
-6576 630 -629 0
6576 -630 0
6576 629 0
-6577 -630 629 0
6577 630 0
6577 -629 0
-6578 2280 -1674 0
6578 -2280 0
6578 1674 0
-6579 -2280 1674 0
6579 2280 0
6579 -1674 0
-6580 2281 -1698 0
6580 -2281 0
6580 1698 0
-6581 -2281 1698 0
6581 2281 0
6581 -1698 0
-6582 632 -631 0
6582 -632 0
6582 631 0
-6583 -632 631 0
6583 632 0
6583 -631 0
-6584 2282 -1773 0
6584 -2282 0
6584 1773 0
-6585 -2282 1773 0
6585 2282 0
6585 -1773 0
-6586 634 -633 0
6586 -634 0
6586 633 0
-6587 -634 633 0
6587 634 0
6587 -633 0
-6588 2283 -1484 0
6588 -2283 0
6588 1484 0
-6589 -2283 1484 0
6589 2283 0
6589 -1484 0
-6590 2284 -1483 0
6590 -2284 0
6590 1483 0
-6591 -2284 1483 0
6591 2284 0
6591 -1483 0
-6592 2285 -1546 0
6592 -2285 0
6592 1546 0
-6593 -2285 1546 0
6593 2285 0
6593 -1546 0
-6594 638 -637 0
6594 -638 0
6594 637 0
-6595 -638 637 0
6595 638 0
6595 -637 0
-6596 640 -639 0
6596 -640 0
6596 639 0
-6597 -640 639 0
6597 640 0
6597 -639 0
-6598 2286 -1584 0
6598 -2286 0
6598 1584 0
-6599 -2286 1584 0
6599 2286 0
6599 -1584 0
-6600 2287 -1652 0
6600 -2287 0
6600 1652 0
-6601 -2287 1652 0
6601 2287 0
6601 -1652 0
-6602 642 -641 0
6602 -642 0
6602 641 0
-6603 -642 641 0
6603 642 0
6603 -641 0
-6604 644 -643 0
6604 -644 0
6604 643 0
-6605 -644 643 0
6605 644 0
6605 -643 0
-6606 2288 -1706 0
6606 -2288 0
6606 1706 0
-6607 -2288 1706 0
6607 2288 0
6607 -1706 0
-6608 2289 -1841 0
6608 -2289 0
6608 1841 0
-6609 -2289 1841 0
6609 2289 0
6609 -1841 0
-6610 646 -645 0
6610 -646 0
6610 645 0
-6611 -646 645 0
6611 646 0
6611 -645 0
-6612 2290 -1423 0
6612 -2290 0
6612 1423 0
-6613 -2290 1423 0
6613 2290 0
6613 -1423 0
-6614 2291 -1556 0
6614 -2291 0
6614 1556 0
-6615 -2291 1556 0
6615 2291 0
6615 -1556 0
-6616 650 -649 0
6616 -650 0
6616 649 0
-6617 -650 649 0
6617 650 0
6617 -649 0
-6618 2292 -1612 0
6618 -2292 0
6618 1612 0
-6619 -2292 1612 0
6619 2292 0
6619 -1612 0
-6620 2293 -1630 0
6620 -2293 0
6620 1630 0
-6621 -2293 1630 0
6621 2293 0
6621 -1630 0
-6622 652 -651 0
6622 -652 0
6622 651 0
-6623 -652 651 0
6623 652 0
6623 -651 0
-6624 2294 -1680 0
6624 -2294 0
6624 1680 0
-6625 -2294 1680 0
6625 2294 0
6625 -1680 0
-6626 654 -653 0
6626 -654 0
6626 653 0
-6627 -654 653 0
6627 654 0
6627 -653 0
-6628 2295 -1859 0
6628 -2295 0
6628 1859 0
-6629 -2295 1859 0
6629 2295 0
6629 -1859 0
-6630 656 -655 0
6630 -656 0
6630 655 0
-6631 -656 655 0
6631 656 0
6631 -655 0
-6632 658 -657 0
6632 -658 0
6632 657 0
-6633 -658 657 0
6633 658 0
6633 -657 0
-6634 2296 -2297 0
6634 -2296 0
6634 2297 0
-6635 -2296 2297 0
6635 2296 0
6635 -2297 0
-6636 2298 -1394 0
6636 -2298 0
6636 1394 0
-6637 -2298 1394 0
6637 2298 0
6637 -1394 0
-6638 2299 -1395 0
6638 -2299 0
6638 1395 0
-6639 -2299 1395 0
6639 2299 0
6639 -1395 0
-6640 662 -661 0
6640 -662 0
6640 661 0
-6641 -662 661 0
6641 662 0
6641 -661 0
-6642 2300 -1538 0
6642 -2300 0
6642 1538 0
-6643 -2300 1538 0
6643 2300 0
6643 -1538 0
-6644 2301 -1560 0
6644 -2301 0
6644 1560 0
-6645 -2301 1560 0
6645 2301 0
6645 -1560 0
-6646 664 -663 0
6646 -664 0
6646 663 0
-6647 -664 663 0
6647 664 0
6647 -663 0
-6648 2302 -1672 0
6648 -2302 0
6648 1672 0
-6649 -2302 1672 0
6649 2302 0
6649 -1672 0
-6650 666 -665 0
6650 -666 0
6650 665 0
-6651 -666 665 0
6651 666 0
6651 -665 0
-6652 2303 -1710 0
6652 -2303 0
6652 1710 0
-6653 -2303 1710 0
6653 2303 0
6653 -1710 0
-6654 668 -667 0
6654 -668 0
6654 667 0
-6655 -668 667 0
6655 668 0
6655 -667 0
-6656 670 -669 0
6656 -670 0
6656 669 0
-6657 -670 669 0
6657 670 0
6657 -669 0
-6658 2304 -1746 0
6658 -2304 0
6658 1746 0
-6659 -2304 1746 0
6659 2304 0
6659 -1746 0
-6660 2305 -1479 0
6660 -2305 0
6660 1479 0
-6661 -2305 1479 0
6661 2305 0
6661 -1479 0
-6662 2306 -1480 0
6662 -2306 0
6662 1480 0
-6663 -2306 1480 0
6663 2306 0
6663 -1480 0
-6664 2307 -1522 0
6664 -2307 0
6664 1522 0
-6665 -2307 1522 0
6665 2307 0
6665 -1522 0
-6666 674 -673 0
6666 -674 0
6666 673 0
-6667 -674 673 0
6667 674 0
6667 -673 0
-6668 676 -675 0
6668 -676 0
6668 675 0
-6669 -676 675 0
6669 676 0
6669 -675 0
-6670 2308 -1608 0
6670 -2308 0
6670 1608 0
-6671 -2308 1608 0
6671 2308 0
6671 -1608 0
-6672 2309 -1666 0
6672 -2309 0
6672 1666 0
-6673 -2309 1666 0
6673 2309 0
6673 -1666 0
-6674 678 -677 0
6674 -678 0
6674 677 0
-6675 -678 677 0
6675 678 0
6675 -677 0
-6676 680 -679 0
6676 -680 0
6676 679 0
-6677 -680 679 0
6677 680 0
6677 -679 0
-6678 2310 -1692 0
6678 -2310 0
6678 1692 0
-6679 -2310 1692 0
6679 2310 0
6679 -1692 0
-6680 2311 -1451 0
6680 -2311 0
6680 1451 0
-6681 -2311 1451 0
6681 2311 0
6681 -1451 0
-6682 2312 -1530 0
6682 -2312 0
6682 1530 0
-6683 -2312 1530 0
6683 2312 0
6683 -1530 0
-6684 2313 -1572 0
6684 -2313 0
6684 1572 0
-6685 -2313 1572 0
6685 2313 0
6685 -1572 0
-6686 684 -683 0
6686 -684 0
6686 683 0
-6687 -684 683 0
6687 684 0
6687 -683 0
-6688 686 -685 0
6688 -686 0
6688 685 0
-6689 -686 685 0
6689 686 0
6689 -685 0
-6690 2314 -1642 0
6690 -2314 0
6690 1642 0
-6691 -2314 1642 0
6691 2314 0
6691 -1642 0
-6692 2315 -1690 0
6692 -2315 0
6692 1690 0
-6693 -2315 1690 0
6693 2315 0
6693 -1690 0
-6694 688 -687 0
6694 -688 0
6694 687 0
-6695 -688 687 0
6695 688 0
6695 -687 0
-6696 690 -689 0
6696 -690 0
6696 689 0
-6697 -690 689 0
6697 690 0
6697 -689 0
-6698 2316 -1793 0
6698 -2316 0
6698 1793 0
-6699 -2316 1793 0
6699 2316 0
6699 -1793 0
-6700 2317 -2318 0
6700 -2317 0
6700 2318 0
-6701 -2317 2318 0
6701 2317 0
6701 -2318 0
-6702 692 -691 0
6702 -692 0
6702 691 0
-6703 -692 691 0
6703 692 0
6703 -691 0
-6704 2319 -1416 0
6704 -2319 0
6704 1416 0
-6705 -2319 1416 0
6705 2319 0
6705 -1416 0
-6706 2320 -1415 0
6706 -2320 0
6706 1415 0
-6707 -2320 1415 0
6707 2320 0
6707 -1415 0
-6708 2321 -1500 0
6708 -2321 0
6708 1500 0
-6709 -2321 1500 0
6709 2321 0
6709 -1500 0
-6710 696 -695 0
6710 -696 0
6710 695 0
-6711 -696 695 0
6711 696 0
6711 -695 0
-6712 2322 -1592 0
6712 -2322 0
6712 1592 0
-6713 -2322 1592 0
6713 2322 0
6713 -1592 0
-6714 698 -697 0
6714 -698 0
6714 697 0
-6715 -698 697 0
6715 698 0
6715 -697 0
-6716 2323 -1658 0
6716 -2323 0
6716 1658 0
-6717 -2323 1658 0
6717 2323 0
6717 -1658 0
-6718 700 -699 0
6718 -700 0
6718 699 0
-6719 -700 699 0
6719 700 0
6719 -699 0
-6720 2324 -1728 0
6720 -2324 0
6720 1728 0
-6721 -2324 1728 0
6721 2324 0
6721 -1728 0
-6722 702 -701 0
6722 -702 0
6722 701 0
-6723 -702 701 0
6723 702 0
6723 -701 0
-6724 2325 -1781 0
6724 -2325 0
6724 1781 0
-6725 -2325 1781 0
6725 2325 0
6725 -1781 0
-6726 704 -703 0
6726 -704 0
6726 703 0
-6727 -704 703 0
6727 704 0
6727 -703 0
-6728 2326 -1440 0
6728 -2326 0
6728 1440 0
-6729 -2326 1440 0
6729 2326 0
6729 -1440 0
-6730 2327 -1441 0
6730 -2327 0
6730 1441 0
-6731 -2327 1441 0
6731 2327 0
6731 -1441 0
-6732 2328 -1518 0
6732 -2328 0
6732 1518 0
-6733 -2328 1518 0
6733 2328 0
6733 -1518 0
-6734 708 -707 0
6734 -708 0
6734 707 0
-6735 -708 707 0
6735 708 0
6735 -707 0
-6736 2329 -1594 0
6736 -2329 0
6736 1594 0
-6737 -2329 1594 0
6737 2329 0
6737 -1594 0
-6738 710 -709 0
6738 -710 0
6738 709 0
-6739 -710 709 0
6739 710 0
6739 -709 0
-6740 712 -711 0
6740 -712 0
6740 711 0
-6741 -712 711 0
6741 712 0
6741 -711 0
-6742 2330 -1662 0
6742 -2330 0
6742 1662 0
-6743 -2330 1662 0
6743 2330 0
6743 -1662 0
-6744 2331 -1700 0
6744 -2331 0
6744 1700 0
-6745 -2331 1700 0
6745 2331 0
6745 -1700 0
-6746 714 -713 0
6746 -714 0
6746 713 0
-6747 -714 713 0
6747 714 0
6747 -713 0
-6748 2332 -1548 0
6748 -2332 0
6748 1548 0
-6749 -2332 1548 0
6749 2332 0
6749 -1548 0
-6750 2333 -1454 0
6750 -2333 0
6750 1454 0
-6751 -2333 1454 0
6751 2333 0
6751 -1454 0
-6752 718 -717 0
6752 -718 0
6752 717 0
-6753 -718 717 0
6753 718 0
6753 -717 0
-6754 2334 -1590 0
6754 -2334 0
6754 1590 0
-6755 -2334 1590 0
6755 2334 0
6755 -1590 0
-6756 2335 -1626 0
6756 -2335 0
6756 1626 0
-6757 -2335 1626 0
6757 2335 0
6757 -1626 0
-6758 720 -719 0
6758 -720 0
6758 719 0
-6759 -720 719 0
6759 720 0
6759 -719 0
-6760 722 -721 0
6760 -722 0
6760 721 0
-6761 -722 721 0
6761 722 0
6761 -721 0
-6762 2336 -1684 0
6762 -2336 0
6762 1684 0
-6763 -2336 1684 0
6763 2336 0
6763 -1684 0
-6764 724 -723 0
6764 -724 0
6764 723 0
-6765 -724 723 0
6765 724 0
6765 -723 0
-6766 2337 -2338 0
6766 -2337 0
6766 2338 0
-6767 -2337 2338 0
6767 2337 0
6767 -2338 0
-6768 1366 -1365 0
6768 -1366 0
6768 1365 0
-6769 -1366 1365 0
6769 1366 0
6769 -1365 0
-6770 1250 -1249 0
6770 -1250 0
6770 1249 0
-6771 -1250 1249 0
6771 1250 0
6771 -1249 0
-6772 1058 -1057 0
6772 -1058 0
6772 1057 0
-6773 -1058 1057 0
6773 1058 0
6773 -1057 0
-6774 1252 -1251 0
6774 -1252 0
6774 1251 0
-6775 -1252 1251 0
6775 1252 0
6775 -1251 0
-6776 1254 -1253 0
6776 -1254 0
6776 1253 0
-6777 -1254 1253 0
6777 1254 0
6777 -1253 0
-6778 1062 -1061 0
6778 -1062 0
6778 1061 0
-6779 -1062 1061 0
6779 1062 0
6779 -1061 0
-6780 1318 -1317 0
6780 -1318 0
6780 1317 0
-6781 -1318 1317 0
6781 1318 0
6781 -1317 0
-6782 1066 -1065 0
6782 -1066 0
6782 1065 0
-6783 -1066 1065 0
6783 1066 0
6783 -1065 0
-6784 1072 -1071 0
6784 -1072 0
6784 1071 0
-6785 -1072 1071 0
6785 1072 0
6785 -1071 0
-6786 1256 -1255 0
6786 -1256 0
6786 1255 0
-6787 -1256 1255 0
6787 1256 0
6787 -1255 0
-6788 1320 -1319 0
6788 -1320 0
6788 1319 0
-6789 -1320 1319 0
6789 1320 0
6789 -1319 0
-6790 1258 -1257 0
6790 -1258 0
6790 1257 0
-6791 -1258 1257 0
6791 1258 0
6791 -1257 0
-6792 1076 -1075 0
6792 -1076 0
6792 1075 0
-6793 -1076 1075 0
6793 1076 0
6793 -1075 0
-6794 1372 -1371 0
6794 -1372 0
6794 1371 0
-6795 -1372 1371 0
6795 1372 0
6795 -1371 0
-6796 1080 -1079 0
6796 -1080 0
6796 1079 0
-6797 -1080 1079 0
6797 1080 0
6797 -1079 0
-6798 1260 -1259 0
6798 -1260 0
6798 1259 0
-6799 -1260 1259 0
6799 1260 0
6799 -1259 0
-6800 1084 -1083 0
6800 -1084 0
6800 1083 0
-6801 -1084 1083 0
6801 1084 0
6801 -1083 0
-6802 1324 -1323 0
6802 -1324 0
6802 1323 0
-6803 -1324 1323 0
6803 1324 0
6803 -1323 0
-6804 1088 -1087 0
6804 -1088 0
6804 1087 0
-6805 -1088 1087 0
6805 1088 0
6805 -1087 0
-6806 1090 -1089 0
6806 -1090 0
6806 1089 0
-6807 -1090 1089 0
6807 1090 0
6807 -1089 0
-6808 1092 -1091 0
6808 -1092 0
6808 1091 0
-6809 -1092 1091 0
6809 1092 0
6809 -1091 0
-6810 1376 -1375 0
6810 -1376 0
6810 1375 0
-6811 -1376 1375 0
6811 1376 0
6811 -1375 0
-6812 1096 -1095 0
6812 -1096 0
6812 1095 0
-6813 -1096 1095 0
6813 1096 0
6813 -1095 0
-6814 1098 -1097 0
6814 -1098 0
6814 1097 0
-6815 -1098 1097 0
6815 1098 0
6815 -1097 0
-6816 1100 -1099 0
6816 -1100 0
6816 1099 0
-6817 -1100 1099 0
6817 1100 0
6817 -1099 0
-6818 1102 -1101 0
6818 -1102 0
6818 1101 0
-6819 -1102 1101 0
6819 1102 0
6819 -1101 0
-6820 1380 -1379 0
6820 -1380 0
6820 1379 0
-6821 -1380 1379 0
6821 1380 0
6821 -1379 0
-6822 1106 -1105 0
6822 -1106 0
6822 1105 0
-6823 -1106 1105 0
6823 1106 0
6823 -1105 0
-6824 728 -727 0
6824 -728 0
6824 727 0
-6825 -728 727 0
6825 728 0
6825 -727 0
-6826 1354 -1353 0
6826 -1354 0
6826 1353 0
-6827 -1354 1353 0
6827 1354 0
6827 -1353 0
-6828 1326 -1325 0
6828 -1326 0
6828 1325 0
-6829 -1326 1325 0
6829 1326 0
6829 -1325 0
-6830 1108 -1107 0
6830 -1108 0
6830 1107 0
-6831 -1108 1107 0
6831 1108 0
6831 -1107 0
-6832 1110 -1109 0
6832 -1110 0
6832 1109 0
-6833 -1110 1109 0
6833 1110 0
6833 -1109 0
-6834 1264 -1263 0
6834 -1264 0
6834 1263 0
-6835 -1264 1263 0
6835 1264 0
6835 -1263 0
-6836 1266 -1265 0
6836 -1266 0
6836 1265 0
-6837 -1266 1265 0
6837 1266 0
6837 -1265 0
-6838 1112 -1111 0
6838 -1112 0
6838 1111 0
-6839 -1112 1111 0
6839 1112 0
6839 -1111 0
-6840 1328 -1327 0
6840 -1328 0
6840 1327 0
-6841 -1328 1327 0
6841 1328 0
6841 -1327 0
-6842 1114 -1113 0
6842 -1114 0
6842 1113 0
-6843 -1114 1113 0
6843 1114 0
6843 -1113 0
-6844 1118 -1117 0
6844 -1118 0
6844 1117 0
-6845 -1118 1117 0
6845 1118 0
6845 -1117 0
-6846 1268 -1267 0
6846 -1268 0
6846 1267 0
-6847 -1268 1267 0
6847 1268 0
6847 -1267 0
-6848 1312 -1311 0
6848 -1312 0
6848 1311 0
-6849 -1312 1311 0
6849 1312 0
6849 -1311 0
-6850 1270 -1269 0
6850 -1270 0
6850 1269 0
-6851 -1270 1269 0
6851 1270 0
6851 -1269 0
-6852 1122 -1121 0
6852 -1122 0
6852 1121 0
-6853 -1122 1121 0
6853 1122 0
6853 -1121 0
-6854 1364 -1363 0
6854 -1364 0
6854 1363 0
-6855 -1364 1363 0
6855 1364 0
6855 -1363 0
-6856 1124 -1123 0
6856 -1124 0
6856 1123 0
-6857 -1124 1123 0
6857 1124 0
6857 -1123 0
-6858 1272 -1271 0
6858 -1272 0
6858 1271 0
-6859 -1272 1271 0
6859 1272 0
6859 -1271 0
-6860 1126 -1125 0
6860 -1126 0
6860 1125 0
-6861 -1126 1125 0
6861 1126 0
6861 -1125 0
-6862 766 -765 0
6862 -766 0
6862 765 0
-6863 -766 765 0
6863 766 0
6863 -765 0
-6864 1128 -1127 0
6864 -1128 0
6864 1127 0
-6865 -1128 1127 0
6865 1128 0
6865 -1127 0
-6866 1130 -1129 0
6866 -1130 0
6866 1129 0
-6867 -1130 1129 0
6867 1130 0
6867 -1129 0
-6868 1132 -1131 0
6868 -1132 0
6868 1131 0
-6869 -1132 1131 0
6869 1132 0
6869 -1131 0
-6870 1330 -1329 0
6870 -1330 0
6870 1329 0
-6871 -1330 1329 0
6871 1330 0
6871 -1329 0
-6872 1136 -1135 0
6872 -1136 0
6872 1135 0
-6873 -1136 1135 0
6873 1136 0
6873 -1135 0
-6874 1138 -1137 0
6874 -1138 0
6874 1137 0
-6875 -1138 1137 0
6875 1138 0
6875 -1137 0
-6876 1140 -1139 0
6876 -1140 0
6876 1139 0
-6877 -1140 1139 0
6877 1140 0
6877 -1139 0
-6878 1142 -1141 0
6878 -1142 0
6878 1141 0
-6879 -1142 1141 0
6879 1142 0
6879 -1141 0
-6880 1358 -1357 0
6880 -1358 0
6880 1357 0
-6881 -1358 1357 0
6881 1358 0
6881 -1357 0
-6882 1146 -1145 0
6882 -1146 0
6882 1145 0
-6883 -1146 1145 0
6883 1146 0
6883 -1145 0
-6884 788 -787 0
6884 -788 0
6884 787 0
-6885 -788 787 0
6885 788 0
6885 -787 0
-6886 790 -789 0
6886 -790 0
6886 789 0
-6887 -790 789 0
6887 790 0
6887 -789 0
-6888 1332 -1331 0
6888 -1332 0
6888 1331 0
-6889 -1332 1331 0
6889 1332 0
6889 -1331 0
-6890 1148 -1147 0
6890 -1148 0
6890 1147 0
-6891 -1148 1147 0
6891 1148 0
6891 -1147 0
-6892 1150 -1149 0
6892 -1150 0
6892 1149 0
-6893 -1150 1149 0
6893 1150 0
6893 -1149 0
-6894 1276 -1275 0
6894 -1276 0
6894 1275 0
-6895 -1276 1275 0
6895 1276 0
6895 -1275 0
-6896 1278 -1277 0
6896 -1278 0
6896 1277 0
-6897 -1278 1277 0
6897 1278 0
6897 -1277 0
-6898 1152 -1151 0
6898 -1152 0
6898 1151 0
-6899 -1152 1151 0
6899 1152 0
6899 -1151 0
-6900 1296 -1295 0
6900 -1296 0
6900 1295 0
-6901 -1296 1295 0
6901 1296 0
6901 -1295 0
-6902 1156 -1155 0
6902 -1156 0
6902 1155 0
-6903 -1156 1155 0
6903 1156 0
6903 -1155 0
-6904 1158 -1157 0
6904 -1158 0
6904 1157 0
-6905 -1158 1157 0
6905 1158 0
6905 -1157 0
-6906 1280 -1279 0
6906 -1280 0
6906 1279 0
-6907 -1280 1279 0
6907 1280 0
6907 -1279 0
-6908 1300 -1299 0
6908 -1300 0
6908 1299 0
-6909 -1300 1299 0
6909 1300 0
6909 -1299 0
-6910 1286 -1285 0
6910 -1286 0
6910 1285 0
-6911 -1286 1285 0
6911 1286 0
6911 -1285 0
-6912 1160 -1159 0
6912 -1160 0
6912 1159 0
-6913 -1160 1159 0
6913 1160 0
6913 -1159 0
-6914 1344 -1343 0
6914 -1344 0
6914 1343 0
-6915 -1344 1343 0
6915 1344 0
6915 -1343 0
-6916 1162 -1161 0
6916 -1162 0
6916 1161 0
-6917 -1162 1161 0
6917 1162 0
6917 -1161 0
-6918 1288 -1287 0
6918 -1288 0
6918 1287 0
-6919 -1288 1287 0
6919 1288 0
6919 -1287 0
-6920 1164 -1163 0
6920 -1164 0
6920 1163 0
-6921 -1164 1163 0
6921 1164 0
6921 -1163 0
-6922 1334 -1333 0
6922 -1334 0
6922 1333 0
-6923 -1334 1333 0
6923 1334 0
6923 -1333 0
-6924 1168 -1167 0
6924 -1168 0
6924 1167 0
-6925 -1168 1167 0
6925 1168 0
6925 -1167 0
-6926 1170 -1169 0
6926 -1170 0
6926 1169 0
-6927 -1170 1169 0
6927 1170 0
6927 -1169 0
-6928 1172 -1171 0
6928 -1172 0
6928 1171 0
-6929 -1172 1171 0
6929 1172 0
6929 -1171 0
-6930 1338 -1337 0
6930 -1338 0
6930 1337 0
-6931 -1338 1337 0
6931 1338 0
6931 -1337 0
-6932 1174 -1173 0
6932 -1174 0
6932 1173 0
-6933 -1174 1173 0
6933 1174 0
6933 -1173 0
-6934 1184 -1183 0
6934 -1184 0
6934 1183 0
-6935 -1184 1183 0
6935 1184 0
6935 -1183 0
-6936 1178 -1177 0
6936 -1178 0
6936 1177 0
-6937 -1178 1177 0
6937 1178 0
6937 -1177 0
-6938 1180 -1179 0
6938 -1180 0
6938 1179 0
-6939 -1180 1179 0
6939 1180 0
6939 -1179 0
-6940 1356 -1355 0
6940 -1356 0
6940 1355 0
-6941 -1356 1355 0
6941 1356 0
6941 -1355 0
-6942 1186 -1185 0
6942 -1186 0
6942 1185 0
-6943 -1186 1185 0
6943 1186 0
6943 -1185 0
-6944 848 -847 0
6944 -848 0
6944 847 0
-6945 -848 847 0
6945 848 0
6945 -847 0
-6946 1388 -1387 0
6946 -1388 0
6946 1387 0
-6947 -1388 1387 0
6947 1388 0
6947 -1387 0
-6948 1390 -1389 0
6948 -1390 0
6948 1389 0
-6949 -1390 1389 0
6949 1390 0
6949 -1389 0
-6950 1188 -1187 0
6950 -1188 0
6950 1187 0
-6951 -1188 1187 0
6951 1188 0
6951 -1187 0
-6952 1190 -1189 0
6952 -1190 0
6952 1189 0
-6953 -1190 1189 0
6953 1190 0
6953 -1189 0
-6954 1290 -1289 0
6954 -1290 0
6954 1289 0
-6955 -1290 1289 0
6955 1290 0
6955 -1289 0
-6956 1292 -1291 0
6956 -1292 0
6956 1291 0
-6957 -1292 1291 0
6957 1292 0
6957 -1291 0
-6958 1194 -1193 0
6958 -1194 0
6958 1193 0
-6959 -1194 1193 0
6959 1194 0
6959 -1193 0
-6960 1316 -1315 0
6960 -1316 0
6960 1315 0
-6961 -1316 1315 0
6961 1316 0
6961 -1315 0
-6962 1196 -1195 0
6962 -1196 0
6962 1195 0
-6963 -1196 1195 0
6963 1196 0
6963 -1195 0
-6964 1198 -1197 0
6964 -1198 0
6964 1197 0
-6965 -1198 1197 0
6965 1198 0
6965 -1197 0
-6966 1294 -1293 0
6966 -1294 0
6966 1293 0
-6967 -1294 1293 0
6967 1294 0
6967 -1293 0
-6968 1370 -1369 0
6968 -1370 0
6968 1369 0
-6969 -1370 1369 0
6969 1370 0
6969 -1369 0
-6970 1322 -1321 0
6970 -1322 0
6970 1321 0
-6971 -1322 1321 0
6971 1322 0
6971 -1321 0
-6972 1202 -1201 0
6972 -1202 0
6972 1201 0
-6973 -1202 1201 0
6973 1202 0
6973 -1201 0
-6974 1378 -1377 0
6974 -1378 0
6974 1377 0
-6975 -1378 1377 0
6975 1378 0
6975 -1377 0
-6976 1206 -1205 0
6976 -1206 0
6976 1205 0
-6977 -1206 1205 0
6977 1206 0
6977 -1205 0
-6978 1298 -1297 0
6978 -1298 0
6978 1297 0
-6979 -1298 1297 0
6979 1298 0
6979 -1297 0
-6980 1208 -1207 0
6980 -1208 0
6980 1207 0
-6981 -1208 1207 0
6981 1208 0
6981 -1207 0
-6982 1360 -1359 0
6982 -1360 0
6982 1359 0
-6983 -1360 1359 0
6983 1360 0
6983 -1359 0
-6984 1212 -1211 0
6984 -1212 0
6984 1211 0
-6985 -1212 1211 0
6985 1212 0
6985 -1211 0
-6986 1218 -1217 0
6986 -1218 0
6986 1217 0
-6987 -1218 1217 0
6987 1218 0
6987 -1217 0
-6988 1216 -1215 0
6988 -1216 0
6988 1215 0
-6989 -1216 1215 0
6989 1216 0
6989 -1215 0
-6990 894 -893 0
6990 -894 0
6990 893 0
-6991 -894 893 0
6991 894 0
6991 -893 0
-6992 1220 -1219 0
6992 -1220 0
6992 1219 0
-6993 -1220 1219 0
6993 1220 0
6993 -1219 0
-6994 1222 -1221 0
6994 -1222 0
6994 1221 0
-6995 -1222 1221 0
6995 1222 0
6995 -1221 0
-6996 1224 -1223 0
6996 -1224 0
6996 1223 0
-6997 -1224 1223 0
6997 1224 0
6997 -1223 0
-6998 1226 -1225 0
6998 -1226 0
6998 1225 0
-6999 -1226 1225 0
6999 1226 0
6999 -1225 0
-7000 1386 -1385 0
7000 -1386 0
7000 1385 0
-7001 -1386 1385 0
7001 1386 0
7001 -1385 0
-7002 1228 -1227 0
7002 -1228 0
7002 1227 0
-7003 -1228 1227 0
7003 1228 0
7003 -1227 0
-7004 1362 -1361 0
7004 -1362 0
7004 1361 0
-7005 -1362 1361 0
7005 1362 0
7005 -1361 0
-7006 1382 -1381 0
7006 -1382 0
7006 1381 0
-7007 -1382 1381 0
7007 1382 0
7007 -1381 0
-7008 1230 -1229 0
7008 -1230 0
7008 1229 0
-7009 -1230 1229 0
7009 1230 0
7009 -1229 0
-7010 1232 -1231 0
7010 -1232 0
7010 1231 0
-7011 -1232 1231 0
7011 1232 0
7011 -1231 0
-7012 1302 -1301 0
7012 -1302 0
7012 1301 0
-7013 -1302 1301 0
7013 1302 0
7013 -1301 0
-7014 1234 -1233 0
7014 -1234 0
7014 1233 0
-7015 -1234 1233 0
7015 1234 0
7015 -1233 0
-7016 1236 -1235 0
7016 -1236 0
7016 1235 0
-7017 -1236 1235 0
7017 1236 0
7017 -1235 0
-7018 1304 -1303 0
7018 -1304 0
7018 1303 0
-7019 -1304 1303 0
7019 1304 0
7019 -1303 0
-7020 1238 -1237 0
7020 -1238 0
7020 1237 0
-7021 -1238 1237 0
7021 1238 0
7021 -1237 0
-7022 1240 -1239 0
7022 -1240 0
7022 1239 0
-7023 -1240 1239 0
7023 1240 0
7023 -1239 0
-7024 1242 -1241 0
7024 -1242 0
7024 1241 0
-7025 -1242 1241 0
7025 1242 0
7025 -1241 0
-7026 1342 -1341 0
7026 -1342 0
7026 1341 0
-7027 -1342 1341 0
7027 1342 0
7027 -1341 0
-7028 1306 -1305 0
7028 -1306 0
7028 1305 0
-7029 -1306 1305 0
7029 1306 0
7029 -1305 0
-7030 1060 -1059 0
7030 -1060 0
7030 1059 0
-7031 -1060 1059 0
7031 1060 0
7031 -1059 0
-7032 1346 -1345 0
7032 -1346 0
7032 1345 0
-7033 -1346 1345 0
7033 1346 0
7033 -1345 0
-7034 1064 -1063 0
7034 -1064 0
7034 1063 0
-7035 -1064 1063 0
7035 1064 0
7035 -1063 0
-7036 1244 -1243 0
7036 -1244 0
7036 1243 0
-7037 -1244 1243 0
7037 1244 0
7037 -1243 0
-7038 1068 -1067 0
7038 -1068 0
7038 1067 0
-7039 -1068 1067 0
7039 1068 0
7039 -1067 0
-7040 1308 -1307 0
7040 -1308 0
7040 1307 0
-7041 -1308 1307 0
7041 1308 0
7041 -1307 0
-7042 1070 -1069 0
7042 -1070 0
7042 1069 0
-7043 -1070 1069 0
7043 1070 0
7043 -1069 0
-7044 1246 -1245 0
7044 -1246 0
7044 1245 0
-7045 -1246 1245 0
7045 1246 0
7045 -1245 0
-7046 1074 -1073 0
7046 -1074 0
7046 1073 0
-7047 -1074 1073 0
7047 1074 0
7047 -1073 0
-7048 954 -953 0
7048 -954 0
7048 953 0
-7049 -954 953 0
7049 954 0
7049 -953 0
-7050 1078 -1077 0
7050 -1078 0
7050 1077 0
-7051 -1078 1077 0
7051 1078 0
7051 -1077 0
-7052 1248 -1247 0
7052 -1248 0
7052 1247 0
-7053 -1248 1247 0
7053 1248 0
7053 -1247 0
-7054 1082 -1081 0
7054 -1082 0
7054 1081 0
-7055 -1082 1081 0
7055 1082 0
7055 -1081 0
-7056 1086 -1085 0
7056 -1086 0
7056 1085 0
-7057 -1086 1085 0
7057 1086 0
7057 -1085 0
-7058 1348 -1347 0
7058 -1348 0
7058 1347 0
-7059 -1348 1347 0
7059 1348 0
7059 -1347 0
-7060 1094 -1093 0
7060 -1094 0
7060 1093 0
-7061 -1094 1093 0
7061 1094 0
7061 -1093 0
-7062 1026 -1025 0
7062 -1026 0
7062 1025 0
-7063 -1026 1025 0
7063 1026 0
7063 -1025 0
-7064 1028 -1027 0
7064 -1028 0
7064 1027 0
-7065 -1028 1027 0
7065 1028 0
7065 -1027 0
-7066 1030 -1029 0
7066 -1030 0
7066 1029 0
-7067 -1030 1029 0
7067 1030 0
7067 -1029 0
-7068 1034 -1033 0
7068 -1034 0
7068 1033 0
-7069 -1034 1033 0
7069 1034 0
7069 -1033 0
-7070 1036 -1035 0
7070 -1036 0
7070 1035 0
-7071 -1036 1035 0
7071 1036 0
7071 -1035 0
-7072 1038 -1037 0
7072 -1038 0
7072 1037 0
-7073 -1038 1037 0
7073 1038 0
7073 -1037 0
-7074 1042 -1041 0
7074 -1042 0
7074 1041 0
-7075 -1042 1041 0
7075 1042 0
7075 -1041 0
-7076 1044 -1043 0
7076 -1044 0
7076 1043 0
-7077 -1044 1043 0
7077 1044 0
7077 -1043 0
-7078 1046 -1045 0
7078 -1046 0
7078 1045 0
-7079 -1046 1045 0
7079 1046 0
7079 -1045 0
-7080 1050 -1049 0
7080 -1050 0
7080 1049 0
-7081 -1050 1049 0
7081 1050 0
7081 -1049 0
-7082 1052 -1051 0
7082 -1052 0
7082 1051 0
-7083 -1052 1051 0
7083 1052 0
7083 -1051 0
-7084 1054 -1053 0
7084 -1054 0
7084 1053 0
-7085 -1054 1053 0
7085 1054 0
7085 -1053 0
-7086 936 -935 0
7086 -936 0
7086 935 0
-7087 -936 935 0
7087 936 0
7087 -935 0
-7088 940 -939 0
7088 -940 0
7088 939 0
-7089 -940 939 0
7089 940 0
7089 -939 0
-7090 944 -943 0
7090 -944 0
7090 943 0
-7091 -944 943 0
7091 944 0
7091 -943 0
-7092 948 -947 0
7092 -948 0
7092 947 0
-7093 -948 947 0
7093 948 0
7093 -947 0
-7094 952 -951 0
7094 -952 0
7094 951 0
-7095 -952 951 0
7095 952 0
7095 -951 0
-7096 956 -955 0
7096 -956 0
7096 955 0
-7097 -956 955 0
7097 956 0
7097 -955 0
-7098 960 -959 0
7098 -960 0
7098 959 0
-7099 -960 959 0
7099 960 0
7099 -959 0
-7100 962 -961 0
7100 -962 0
7100 961 0
-7101 -962 961 0
7101 962 0
7101 -961 0
-7102 966 -965 0
7102 -966 0
7102 965 0
-7103 -966 965 0
7103 966 0
7103 -965 0
-7104 994 -993 0
7104 -994 0
7104 993 0
-7105 -994 993 0
7105 994 0
7105 -993 0
-7106 734 -733 0
7106 -734 0
7106 733 0
-7107 -734 733 0
7107 734 0
7107 -733 0
-7108 736 -735 0
7108 -736 0
7108 735 0
-7109 -736 735 0
7109 736 0
7109 -735 0
-7110 742 -741 0
7110 -742 0
7110 741 0
-7111 -742 741 0
7111 742 0
7111 -741 0
-7112 746 -745 0
7112 -746 0
7112 745 0
-7113 -746 745 0
7113 746 0
7113 -745 0
-7114 1002 -1001 0
7114 -1002 0
7114 1001 0
-7115 -1002 1001 0
7115 1002 0
7115 -1001 0
-7116 748 -747 0
7116 -748 0
7116 747 0
-7117 -748 747 0
7117 748 0
7117 -747 0
-7118 1006 -1005 0
7118 -1006 0
7118 1005 0
-7119 -1006 1005 0
7119 1006 0
7119 -1005 0
-7120 756 -755 0
7120 -756 0
7120 755 0
-7121 -756 755 0
7121 756 0
7121 -755 0
-7122 760 -759 0
7122 -760 0
7122 759 0
-7123 -760 759 0
7123 760 0
7123 -759 0
-7124 764 -763 0
7124 -764 0
7124 763 0
-7125 -764 763 0
7125 764 0
7125 -763 0
-7126 768 -767 0
7126 -768 0
7126 767 0
-7127 -768 767 0
7127 768 0
7127 -767 0
-7128 770 -769 0
7128 -770 0
7128 769 0
-7129 -770 769 0
7129 770 0
7129 -769 0
-7130 772 -771 0
7130 -772 0
7130 771 0
-7131 -772 771 0
7131 772 0
7131 -771 0
-7132 984 -983 0
7132 -984 0
7132 983 0
-7133 -984 983 0
7133 984 0
7133 -983 0
-7134 776 -775 0
7134 -776 0
7134 775 0
-7135 -776 775 0
7135 776 0
7135 -775 0
-7136 778 -777 0
7136 -778 0
7136 777 0
-7137 -778 777 0
7137 778 0
7137 -777 0
-7138 780 -779 0
7138 -780 0
7138 779 0
-7139 -780 779 0
7139 780 0
7139 -779 0
-7140 782 -781 0
7140 -782 0
7140 781 0
-7141 -782 781 0
7141 782 0
7141 -781 0
-7142 998 -997 0
7142 -998 0
7142 997 0
-7143 -998 997 0
7143 998 0
7143 -997 0
-7144 786 -785 0
7144 -786 0
7144 785 0
-7145 -786 785 0
7145 786 0
7145 -785 0
-7146 794 -793 0
7146 -794 0
7146 793 0
-7147 -794 793 0
7147 794 0
7147 -793 0
-7148 796 -795 0
7148 -796 0
7148 795 0
-7149 -796 795 0
7149 796 0
7149 -795 0
-7150 802 -801 0
7150 -802 0
7150 801 0
-7151 -802 801 0
7151 802 0
7151 -801 0
-7152 1014 -1013 0
7152 -1014 0
7152 1013 0
-7153 -1014 1013 0
7153 1014 0
7153 -1013 0
-7154 806 -805 0
7154 -806 0
7154 805 0
-7155 -806 805 0
7155 806 0
7155 -805 0
-7156 808 -807 0
7156 -808 0
7156 807 0
-7157 -808 807 0
7157 808 0
7157 -807 0
-7158 816 -815 0
7158 -816 0
7158 815 0
-7159 -816 815 0
7159 816 0
7159 -815 0
-7160 820 -819 0
7160 -820 0
7160 819 0
-7161 -820 819 0
7161 820 0
7161 -819 0
-7162 824 -823 0
7162 -824 0
7162 823 0
-7163 -824 823 0
7163 824 0
7163 -823 0
-7164 974 -973 0
7164 -974 0
7164 973 0
-7165 -974 973 0
7165 974 0
7165 -973 0
-7166 828 -827 0
7166 -828 0
7166 827 0
-7167 -828 827 0
7167 828 0
7167 -827 0
-7168 830 -829 0
7168 -830 0
7168 829 0
-7169 -830 829 0
7169 830 0
7169 -829 0
-7170 832 -831 0
7170 -832 0
7170 831 0
-7171 -832 831 0
7171 832 0
7171 -831 0
-7172 836 -835 0
7172 -836 0
7172 835 0
-7173 -836 835 0
7173 836 0
7173 -835 0
-7174 988 -987 0
7174 -988 0
7174 987 0
-7175 -988 987 0
7175 988 0
7175 -987 0
-7176 840 -839 0
7176 -840 0
7176 839 0
-7177 -840 839 0
7177 840 0
7177 -839 0
-7178 842 -841 0
7178 -842 0
7178 841 0
-7179 -842 841 0
7179 842 0
7179 -841 0
-7180 980 -979 0
7180 -980 0
7180 979 0
-7181 -980 979 0
7181 980 0
7181 -979 0
-7182 838 -837 0
7182 -838 0
7182 837 0
-7183 -838 837 0
7183 838 0
7183 -837 0
-7184 846 -845 0
7184 -846 0
7184 845 0
-7185 -846 845 0
7185 846 0
7185 -845 0
-7186 854 -853 0
7186 -854 0
7186 853 0
-7187 -854 853 0
7187 854 0
7187 -853 0
-7188 856 -855 0
7188 -856 0
7188 855 0
-7189 -856 855 0
7189 856 0
7189 -855 0
-7190 972 -971 0
7190 -972 0
7190 971 0
-7191 -972 971 0
7191 972 0
7191 -971 0
-7192 862 -861 0
7192 -862 0
7192 861 0
-7193 -862 861 0
7193 862 0
7193 -861 0
-7194 866 -865 0
7194 -866 0
7194 865 0
-7195 -866 865 0
7195 866 0
7195 -865 0
-7196 868 -867 0
7196 -868 0
7196 867 0
-7197 -868 867 0
7197 868 0
7197 -867 0
-7198 1018 -1017 0
7198 -1018 0
7198 1017 0
-7199 -1018 1017 0
7199 1018 0
7199 -1017 0
-7200 876 -875 0
7200 -876 0
7200 875 0
-7201 -876 875 0
7201 876 0
7201 -875 0
-7202 1020 -1019 0
7202 -1020 0
7202 1019 0
-7203 -1020 1019 0
7203 1020 0
7203 -1019 0
-7204 880 -879 0
7204 -880 0
7204 879 0
-7205 -880 879 0
7205 880 0
7205 -879 0
-7206 884 -883 0
7206 -884 0
7206 883 0
-7207 -884 883 0
7207 884 0
7207 -883 0
-7208 1008 -1007 0
7208 -1008 0
7208 1007 0
-7209 -1008 1007 0
7209 1008 0
7209 -1007 0
-7210 888 -887 0
7210 -888 0
7210 887 0
-7211 -888 887 0
7211 888 0
7211 -887 0
-7212 1010 -1009 0
7212 -1010 0
7212 1009 0
-7213 -1010 1009 0
7213 1010 0
7213 -1009 0
-7214 892 -891 0
7214 -892 0
7214 891 0
-7215 -892 891 0
7215 892 0
7215 -891 0
-7216 890 -889 0
7216 -890 0
7216 889 0
-7217 -890 889 0
7217 890 0
7217 -889 0
-7218 896 -895 0
7218 -896 0
7218 895 0
-7219 -896 895 0
7219 896 0
7219 -895 0
-7220 898 -897 0
7220 -898 0
7220 897 0
-7221 -898 897 0
7221 898 0
7221 -897 0
-7222 900 -899 0
7222 -900 0
7222 899 0
-7223 -900 899 0
7223 900 0
7223 -899 0
-7224 902 -901 0
7224 -902 0
7224 901 0
-7225 -902 901 0
7225 902 0
7225 -901 0
-7226 906 -905 0
7226 -906 0
7226 905 0
-7227 -906 905 0
7227 906 0
7227 -905 0
-7228 914 -913 0
7228 -914 0
7228 913 0
-7229 -914 913 0
7229 914 0
7229 -913 0
-7230 916 -915 0
7230 -916 0
7230 915 0
-7231 -916 915 0
7231 916 0
7231 -915 0
-7232 920 -919 0
7232 -920 0
7232 919 0
-7233 -920 919 0
7233 920 0
7233 -919 0
-7234 922 -921 0
7234 -922 0
7234 921 0
-7235 -922 921 0
7235 922 0
7235 -921 0
-7236 926 -925 0
7236 -926 0
7236 925 0
-7237 -926 925 0
7237 926 0
7237 -925 0
-7238 928 -927 0
7238 -928 0
7238 927 0
-7239 -928 927 0
7239 928 0
7239 -927 0
-7240 930 -929 0
7240 -930 0
7240 929 0
-7241 -930 929 0
7241 930 0
7241 -929 0
-7242 942 -941 0
7242 -942 0
7242 941 0
-7243 -942 941 0
7243 942 0
7243 -941 0
-7244 950 -949 0
7244 -950 0
7244 949 0
-7245 -950 949 0
7245 950 0
7245 -949 0
-7246 958 -957 0
7246 -958 0
7246 957 0
-7247 -958 957 0
7247 958 0
7247 -957 0
-7248 1000 -999 0
7248 -1000 0
7248 999 0
-7249 -1000 999 0
7249 1000 0
7249 -999 0
-7250 738 -737 0
7250 -738 0
7250 737 0
-7251 -738 737 0
7251 738 0
7251 -737 0
-7252 740 -739 0
7252 -740 0
7252 739 0
-7253 -740 739 0
7253 740 0
7253 -739 0
-7254 750 -749 0
7254 -750 0
7254 749 0
-7255 -750 749 0
7255 750 0
7255 -749 0
-7256 754 -753 0
7256 -754 0
7256 753 0
-7257 -754 753 0
7257 754 0
7257 -753 0
-7258 762 -761 0
7258 -762 0
7258 761 0
-7259 -762 761 0
7259 762 0
7259 -761 0
-7260 982 -981 0
7260 -982 0
7260 981 0
-7261 -982 981 0
7261 982 0
7261 -981 0
-7262 798 -797 0
7262 -798 0
7262 797 0
-7263 -798 797 0
7263 798 0
7263 -797 0
-7264 800 -799 0
7264 -800 0
7264 799 0
-7265 -800 799 0
7265 800 0
7265 -799 0
-7266 810 -809 0
7266 -810 0
7266 809 0
-7267 -810 809 0
7267 810 0
7267 -809 0
-7268 986 -985 0
7268 -986 0
7268 985 0
-7269 -986 985 0
7269 986 0
7269 -985 0
-7270 1024 -1023 0
7270 -1024 0
7270 1023 0
-7271 -1024 1023 0
7271 1024 0
7271 -1023 0
-7272 814 -813 0
7272 -814 0
7272 813 0
-7273 -814 813 0
7273 814 0
7273 -813 0
-7274 822 -821 0
7274 -822 0
7274 821 0
-7275 -822 821 0
7275 822 0
7275 -821 0
-7276 858 -857 0
7276 -858 0
7276 857 0
-7277 -858 857 0
7277 858 0
7277 -857 0
-7278 860 -859 0
7278 -860 0
7278 859 0
-7279 -860 859 0
7279 860 0
7279 -859 0
-7280 870 -869 0
7280 -870 0
7280 869 0
-7281 -870 869 0
7281 870 0
7281 -869 0
-7282 804 -803 0
7282 -804 0
7282 803 0
-7283 -804 803 0
7283 804 0
7283 -803 0
-7284 882 -881 0
7284 -882 0
7284 881 0
-7285 -882 881 0
7285 882 0
7285 -881 0
-7286 812 -811 0
7286 -812 0
7286 811 0
-7287 -812 811 0
7287 812 0
7287 -811 0
-7288 918 -917 0
7288 -918 0
7288 917 0
-7289 -918 917 0
7289 918 0
7289 -917 0
-7290 924 -923 0
7290 -924 0
7290 923 0
-7291 -924 923 0
7291 924 0
7291 -923 0
-7292 934 -933 0
7292 -934 0
7292 933 0
-7293 -934 933 0
7293 934 0
7293 -933 0
-7294 946 -945 0
7294 -946 0
7294 945 0
-7295 -946 945 0
7295 946 0
7295 -945 0
-7296 978 -977 0
7296 -978 0
7296 977 0
-7297 -978 977 0
7297 978 0
7297 -977 0
-7298 752 -751 0
7298 -752 0
7298 751 0
-7299 -752 751 0
7299 752 0
7299 -751 0
-7300 1016 -1015 0
7300 -1016 0
7300 1015 0
-7301 -1016 1015 0
7301 1016 0
7301 -1015 0
-7302 864 -863 0
7302 -864 0
7302 863 0
-7303 -864 863 0
7303 864 0
7303 -863 0
-7304 874 -873 0
7304 -874 0
7304 873 0
-7305 -874 873 0
7305 874 0
7305 -873 0
-7306 732 -731 0
7306 -732 0
7306 731 0
-7307 -732 731 0
7307 732 0
7307 -731 0
-7308 744 -743 0
7308 -744 0
7308 743 0
-7309 -744 743 0
7309 744 0
7309 -743 0
-7310 774 -773 0
7310 -774 0
7310 773 0
-7311 -774 773 0
7311 774 0
7311 -773 0
-7312 792 -791 0
7312 -792 0
7312 791 0
-7313 -792 791 0
7313 792 0
7313 -791 0
-7314 826 -825 0
7314 -826 0
7314 825 0
-7315 -826 825 0
7315 826 0
7315 -825 0
-7316 1004 -1003 0
7316 -1004 0
7316 1003 0
-7317 -1004 1003 0
7317 1004 0
7317 -1003 0
-7318 834 -833 0
7318 -834 0
7318 833 0
-7319 -834 833 0
7319 834 0
7319 -833 0
-7320 976 -975 0
7320 -976 0
7320 975 0
-7321 -976 975 0
7321 976 0
7321 -975 0
-7322 932 -931 0
7322 -932 0
7322 931 0
-7323 -932 931 0
7323 932 0
7323 -931 0
-7324 818 -817 0
7324 -818 0
7324 817 0
-7325 -818 817 0
7325 818 0
7325 -817 0
-7326 938 -937 0
7326 -938 0
7326 937 0
-7327 -938 937 0
7327 938 0
7327 -937 0
-7328 964 -963 0
7328 -964 0
7328 963 0
-7329 -964 963 0
7329 964 0
7329 -963 0
-7330 996 -995 0
7330 -996 0
7330 995 0
-7331 -996 995 0
7331 996 0
7331 -995 0
-7332 992 -991 0
7332 -992 0
7332 991 0
-7333 -992 991 0
7333 992 0
7333 -991 0
-7334 730 -729 0
7334 -730 0
7334 729 0
-7335 -730 729 0
7335 730 0
7335 -729 0
-7336 844 -843 0
7336 -844 0
7336 843 0
-7337 -844 843 0
7337 844 0
7337 -843 0
-7338 784 -783 0
7338 -784 0
7338 783 0
-7339 -784 783 0
7339 784 0
7339 -783 0
-7340 886 -885 0
7340 -886 0
7340 885 0
-7341 -886 885 0
7341 886 0
7341 -885 0
-7342 910 -909 0
7342 -910 0
7342 909 0
-7343 -910 909 0
7343 910 0
7343 -909 0
-7344 758 -757 0
7344 -758 0
7344 757 0
-7345 -758 757 0
7345 758 0
7345 -757 0
-7346 990 -989 0
7346 -990 0
7346 989 0
-7347 -990 989 0
7347 990 0
7347 -989 0
-7348 872 -871 0
7348 -872 0
7348 871 0
-7349 -872 871 0
7349 872 0
7349 -871 0
-7350 1022 -1021 0
7350 -1022 0
7350 1021 0
-7351 -1022 1021 0
7351 1022 0
7351 -1021 0
-7352 878 -877 0
7352 -878 0
7352 877 0
-7353 -878 877 0
7353 878 0
7353 -877 0
-7354 912 -911 0
7354 -912 0
7354 911 0
-7355 -912 911 0
7355 912 0
7355 -911 0
-7356 968 -967 0
7356 -968 0
7356 967 0
-7357 -968 967 0
7357 968 0
7357 -967 0
-7358 904 -903 0
7358 -904 0
7358 903 0
-7359 -904 903 0
7359 904 0
7359 -903 0
-7360 850 -849 0
7360 -850 0
7360 849 0
-7361 -850 849 0
7361 850 0
7361 -849 0
-7362 852 -851 0
7362 -852 0
7362 851 0
-7363 -852 851 0
7363 852 0
7363 -851 0
-7364 970 -969 0
7364 -970 0
7364 969 0
-7365 -970 969 0
7365 970 0
7365 -969 0
-7366 -739 3951 0
7366 739 0
7366 -3951 0
-7367 739 -3951 0
7367 -739 0
7367 3951 0
-7368 -1253 3544 0
7368 1253 0
7368 -3544 0
-7369 1253 -3544 0
7369 -1253 0
7369 3544 0
-7370 -1023 3974 0
7370 1023 0
7370 -3974 0
-7371 1023 -3974 0
7371 -1023 0
7371 3974 0
-7372 -785 3960 0
7372 785 0
7372 -3960 0
-7373 785 -3960 0
7373 -785 0
7373 3960 0
-7374 -799 3963 0
7374 799 0
7374 -3963 0
-7375 799 -3963 0
7375 -799 0
7375 3963 0
-7376 -649 3989 0
7376 649 0
7376 -3989 0
-7377 649 -3989 0
7377 -649 0
7377 3989 0
-7378 -651 3990 0
7378 651 0
7378 -3990 0
-7379 651 -3990 0
7379 -651 0
7379 3990 0
-7380 -653 3991 0
7380 653 0
7380 -3991 0
-7381 653 -3991 0
7381 -653 0
7381 3991 0
-7382 -655 3992 0
7382 655 0
7382 -3992 0
-7383 655 -3992 0
7383 -655 0
7383 3992 0
-7384 -657 3993 0
7384 657 0
7384 -3993 0
-7385 657 -3993 0
7385 -657 0
7385 3993 0
-7386 -659 660 0
7386 659 0
7386 -660 0
-7387 659 -660 0
7387 -659 0
7387 660 0
-7388 -845 3964 0
7388 845 0
7388 -3964 0
-7389 845 -3964 0
7389 -845 0
7389 3964 0
-7390 -75 76 0
7390 75 0
7390 -76 0
-7391 75 -76 0
7391 -75 0
7391 76 0
-7392 -859 3967 0
7392 859 0
7392 -3967 0
-7393 859 -3967 0
7393 -859 0
7393 3967 0
-7394 -87 88 0
7394 87 0
7394 -88 0
-7395 87 -88 0
7395 -87 0
7395 88 0
-7396 -683 3994 0
7396 683 0
7396 -3994 0
-7397 683 -3994 0
7397 -683 0
7397 3994 0
-7398 -685 3995 0
7398 685 0
7398 -3995 0
-7399 685 -3995 0
7399 -685 0
7399 3995 0
-7400 -687 3996 0
7400 687 0
7400 -3996 0
-7401 687 -3996 0
7401 -687 0
7401 3996 0
-7402 -689 3997 0
7402 689 0
7402 -3997 0
-7403 689 -3997 0
7403 -689 0
7403 3997 0
-7404 -693 694 0
7404 693 0
7404 -694 0
-7405 693 -694 0
7405 -693 0
7405 694 0
-7406 -905 3969 0
7406 905 0
7406 -3969 0
-7407 905 -3969 0
7407 -905 0
7407 3969 0
-7408 -919 3971 0
7408 919 0
7408 -3971 0
-7409 919 -3971 0
7409 -919 0
7409 3971 0
-7410 -463 4000 0
7410 463 0
7410 -4000 0
-7411 463 -4000 0
7411 -463 0
7411 4000 0
-7412 -965 3972 0
7412 965 0
7412 -3972 0
-7413 965 -3972 0
7413 -965 0
7413 3972 0
-7414 -977 3973 0
7414 977 0
7414 -3973 0
-7415 977 -3973 0
7415 -977 0
7415 3973 0
-7416 -223 4003 0
7416 223 0
7416 -4003 0
-7417 223 -4003 0
7417 -223 0
7417 4003 0
-7418 -225 4004 0
7418 225 0
7418 -4004 0
-7419 225 -4004 0
7419 -225 0
7419 4004 0
-7420 -227 4005 0
7420 227 0
7420 -4005 0
-7421 227 -4005 0
7421 -227 0
7421 4005 0
-7422 -229 4006 0
7422 229 0
7422 -4006 0
-7423 229 -4006 0
7423 -229 0
7423 4006 0
-7424 -283 4008 0
7424 283 0
7424 -4008 0
-7425 283 -4008 0
7425 -283 0
7425 4008 0
-7426 -285 4009 0
7426 285 0
7426 -4009 0
-7427 285 -4009 0
7427 -285 0
7427 4009 0
-7428 -287 4010 0
7428 287 0
7428 -4010 0
-7429 287 -4010 0
7429 -287 0
7429 4010 0
-7430 -289 4011 0
7430 289 0
7430 -4011 0
-7431 289 -4011 0
7431 -289 0
7431 4011 0
-7432 -343 4013 0
7432 343 0
7432 -4013 0
-7433 343 -4013 0
7433 -343 0
7433 4013 0
-7434 -345 4014 0
7434 345 0
7434 -4014 0
-7435 345 -4014 0
7435 -345 0
7435 4014 0
-7436 -347 4015 0
7436 347 0
7436 -4015 0
-7437 347 -4015 0
7437 -347 0
7437 4015 0
-7438 -349 4016 0
7438 349 0
7438 -4016 0
-7439 349 -4016 0
7439 -349 0
7439 4016 0
-7440 -81 4021 0
7440 81 0
7440 -4021 0
-7441 81 -4021 0
7441 -81 0
7441 4021 0
-7442 -69 4018 0
7442 69 0
7442 -4018 0
-7443 69 -4018 0
7443 -69 0
7443 4018 0
-7444 -73 4019 0
7444 73 0
7444 -4019 0
-7445 73 -4019 0
7445 -73 0
7445 4019 0
-7446 -77 4020 0
7446 77 0
7446 -4020 0
-7447 77 -4020 0
7447 -77 0
7447 4020 0
-7448 -163 4023 0
7448 163 0
7448 -4023 0
-7449 163 -4023 0
7449 -163 0
7449 4023 0
-7450 -165 4024 0
7450 165 0
7450 -4024 0
-7451 165 -4024 0
7451 -165 0
7451 4024 0
-7452 -167 4025 0
7452 167 0
7452 -4025 0
-7453 167 -4025 0
7453 -167 0
7453 4025 0
-7454 -169 4026 0
7454 169 0
7454 -4026 0
-7455 169 -4026 0
7455 -169 0
7455 4026 0
-7456 -1265 4028 0
7456 1265 0
7456 -4028 0
-7457 1265 -4028 0
7457 -1265 0
7457 4028 0
-7458 -1277 4031 0
7458 1277 0
7458 -4031 0
-7459 1277 -4031 0
7459 -1277 0
7459 4031 0
-7460 -691 3998 0
7460 691 0
7460 -3998 0
-7461 691 -3998 0
7461 -691 0
7461 3998 0
-7462 -1291 4035 0
7462 1291 0
7462 -4035 0
-7463 1291 -4035 0
7463 -1291 0
7463 4035 0
-7464 -1233 4052 0
7464 1233 0
7464 -4052 0
-7465 1233 -4052 0
7465 -1233 0
7465 4052 0
-7466 -1309 4037 0
7466 1309 0
7466 -4037 0
-7467 1309 -4037 0
7467 -1309 0
7467 4037 0
-7468 -403 404 0
7468 403 0
7468 -404 0
-7469 403 -404 0
7469 -403 0
7469 404 0
-7470 -993 4069 0
7470 993 0
7470 -4069 0
-7471 993 -4069 0
7471 -993 0
7471 4069 0
-7472 -755 4056 0
7472 755 0
7472 -4056 0
-7473 755 -4056 0
7473 -755 0
7473 4056 0
-7474 -27 28 0
7474 27 0
7474 -28 0
-7475 27 -28 0
7475 -27 0
7475 28 0
-7476 -815 4060 0
7476 815 0
7476 -4060 0
-7477 815 -4060 0
7477 -815 0
7477 4060 0
-7478 -661 4086 0
7478 661 0
7478 -4086 0
-7479 661 -4086 0
7479 -661 0
7479 4086 0
-7480 -663 4087 0
7480 663 0
7480 -4087 0
-7481 663 -4087 0
7481 -663 0
7481 4087 0
-7482 -665 4088 0
7482 665 0
7482 -4088 0
-7483 665 -4088 0
7483 -665 0
7483 4088 0
-7484 -667 4089 0
7484 667 0
7484 -4089 0
-7485 667 -4089 0
7485 -667 0
7485 4089 0
-7486 -669 4090 0
7486 669 0
7486 -4090 0
-7487 669 -4090 0
7487 -669 0
7487 4090 0
-7488 -671 672 0
7488 671 0
7488 -672 0
-7489 671 -672 0
7489 -671 0
7489 672 0
-7490 -1099 3151 0
7490 1099 0
7490 -3151 0
-7491 1099 -3151 0
7491 -1099 0
7491 3151 0
-7492 -875 4062 0
7492 875 0
7492 -4062 0
-7493 875 -4062 0
7493 -875 0
7493 4062 0
-7494 -935 4064 0
7494 935 0
7494 -4064 0
-7495 935 -4064 0
7495 -935 0
7495 4064 0
-7496 -395 4065 0
7496 395 0
7496 -4065 0
-7497 395 -4065 0
7497 -395 0
7497 4065 0
-7498 -397 4066 0
7498 397 0
7498 -4066 0
-7499 397 -4066 0
7499 -397 0
7499 4066 0
-7500 -399 4067 0
7500 399 0
7500 -4067 0
-7501 399 -4067 0
7501 -399 0
7501 4067 0
-7502 -401 4068 0
7502 401 0
7502 -4068 0
-7503 401 -4068 0
7503 -401 0
7503 4068 0
-7504 -1263 4132 0
7504 1263 0
7504 -4132 0
-7505 1263 -4132 0
7505 -1263 0
7505 4132 0
-7506 -293 4134 0
7506 293 0
7506 -4134 0
-7507 293 -4134 0
7507 -293 0
7507 4134 0
-7508 -1275 4133 0
7508 1275 0
7508 -4133 0
-7509 1275 -4133 0
7509 -1275 0
7509 4133 0
-7510 -173 4143 0
7510 173 0
7510 -4143 0
-7511 173 -4143 0
7511 -173 0
7511 4143 0
-7512 -1289 4136 0
7512 1289 0
7512 -4136 0
-7513 1289 -4136 0
7513 -1289 0
7513 4136 0
-7514 -1301 4137 0
7514 1301 0
7514 -4137 0
-7515 1301 -4137 0
7515 -1301 0
7515 4137 0
-7516 -1339 4138 0
7516 1339 0
7516 -4138 0
-7517 1339 -4138 0
7517 -1339 0
7517 4138 0
-7518 -553 554 0
7518 553 0
7518 -554 0
-7519 553 -554 0
7519 -553 0
7519 554 0
-7520 -89 4139 0
7520 89 0
7520 -4139 0
-7521 89 -4139 0
7521 -89 0
7521 4139 0
-7522 -353 4141 0
7522 353 0
7522 -4141 0
-7523 353 -4141 0
7523 -353 0
7523 4141 0
-7524 -233 4146 0
7524 233 0
7524 -4146 0
-7525 233 -4146 0
7525 -233 0
7525 4146 0
-7526 -735 4152 0
7526 735 0
7526 -4152 0
-7527 735 -4152 0
7527 -735 0
7527 4152 0
-7528 -795 4159 0
7528 795 0
7528 -4159 0
-7529 795 -4159 0
7529 -795 0
7529 4159 0
-7530 -1071 3120 0
7530 1071 0
7530 -3120 0
-7531 1071 -3120 0
7531 -1071 0
7531 3120 0
-7532 -555 4160 0
7532 555 0
7532 -4160 0
-7533 555 -4160 0
7533 -555 0
7533 4160 0
-7534 -557 4161 0
7534 557 0
7534 -4161 0
-7535 557 -4161 0
7535 -557 0
7535 4161 0
-7536 -559 4162 0
7536 559 0
7536 -4162 0
-7537 559 -4162 0
7537 -559 0
7537 4162 0
-7538 -561 4163 0
7538 561 0
7538 -4163 0
-7539 561 -4163 0
7539 -561 0
7539 4163 0
-7540 -563 4164 0
7540 563 0
7540 -4164 0
-7541 563 -4164 0
7541 -563 0
7541 4164 0
-7542 -855 4166 0
7542 855 0
7542 -4166 0
-7543 855 -4166 0
7543 -855 0
7543 4166 0
-7544 -565 566 0
7544 565 0
7544 -566 0
-7545 565 -566 0
7545 -565 0
7545 566 0
-7546 -673 4186 0
7546 673 0
7546 -4186 0
-7547 673 -4186 0
7547 -673 0
7547 4186 0
-7548 -675 4187 0
7548 675 0
7548 -4187 0
-7549 675 -4187 0
7549 -675 0
7549 4187 0
-7550 -677 4188 0
7550 677 0
7550 -4188 0
-7551 677 -4188 0
7551 -677 0
7551 4188 0
-7552 -679 4189 0
7552 679 0
7552 -4189 0
-7553 679 -4189 0
7553 -679 0
7553 4189 0
-7554 -95 96 0
7554 95 0
7554 -96 0
-7555 95 -96 0
7555 -95 0
7555 96 0
-7556 -681 682 0
7556 681 0
7556 -682 0
-7557 681 -682 0
7557 -681 0
7557 682 0
-7558 -915 4168 0
7558 915 0
7558 -4168 0
-7559 915 -4168 0
7559 -915 0
7559 4168 0
-7560 -973 4169 0
7560 973 0
7560 -4169 0
-7561 973 -4169 0
7561 -973 0
7561 4169 0
-7562 -1189 4194 0
7562 1189 0
7562 -4194 0
-7563 1189 -4194 0
7563 -1189 0
7563 4194 0
-7564 -1149 4192 0
7564 1149 0
7564 -4192 0
-7565 1149 -4192 0
7565 -1149 0
7565 4192 0
-7566 -1165 4193 0
7566 1165 0
7566 -4193 0
-7567 1165 -4193 0
7567 -1165 0
7567 4193 0
-7568 -1231 4195 0
7568 1231 0
7568 -4195 0
-7569 1231 -4195 0
7569 -1231 0
7569 4195 0
-7570 -1109 4191 0
7570 1109 0
7570 -4191 0
-7571 1109 -4191 0
7571 -1109 0
7571 4191 0
-7572 -513 514 0
7572 513 0
7572 -514 0
-7573 513 -514 0
7573 -513 0
7573 514 0
-7574 -625 4220 0
7574 625 0
7574 -4220 0
-7575 625 -4220 0
7575 -625 0
7575 4220 0
-7576 -627 4221 0
7576 627 0
7576 -4221 0
-7577 627 -4221 0
7577 -627 0
7577 4221 0
-7578 -629 4222 0
7578 629 0
7578 -4222 0
-7579 629 -4222 0
7579 -629 0
7579 4222 0
-7580 -631 4223 0
7580 631 0
7580 -4223 0
-7581 631 -4223 0
7581 -631 0
7581 4223 0
-7582 -633 4224 0
7582 633 0
7582 -4224 0
-7583 633 -4224 0
7583 -633 0
7583 4224 0
-7584 -635 636 0
7584 635 0
7584 -636 0
-7585 635 -636 0
7585 -635 0
7585 636 0
-7586 -767 4202 0
7586 767 0
7586 -4202 0
-7587 767 -4202 0
7587 -767 0
7587 4202 0
-7588 -1015 4225 0
7588 1015 0
7588 -4225 0
-7589 1015 -4225 0
7589 -1015 0
7589 4225 0
-7590 -777 4203 0
7590 777 0
7590 -4203 0
-7591 777 -4203 0
7591 -777 0
7591 4203 0
-7592 -541 4206 0
7592 541 0
7592 -4206 0
-7593 541 -4206 0
7593 -541 0
7593 4206 0
-7594 -543 4207 0
7594 543 0
7594 -4207 0
-7595 543 -4207 0
7595 -543 0
7595 4207 0
-7596 -47 48 0
7596 47 0
7596 -48 0
-7597 47 -48 0
7597 -47 0
7597 48 0
-7598 -545 4208 0
7598 545 0
7598 -4208 0
-7599 545 -4208 0
7599 -545 0
7599 4208 0
-7600 -547 4209 0
7600 547 0
7600 -4209 0
-7601 547 -4209 0
7601 -547 0
7601 4209 0
-7602 -549 4210 0
7602 549 0
7602 -4210 0
-7603 549 -4210 0
7603 -549 0
7603 4210 0
-7604 -55 56 0
7604 55 0
7604 -56 0
-7605 55 -56 0
7605 -55 0
7605 56 0
-7606 -827 4212 0
7606 827 0
7606 -4212 0
-7607 827 -4212 0
7607 -827 0
7607 4212 0
-7608 -837 4213 0
7608 837 0
7608 -4213 0
-7609 837 -4213 0
7609 -837 0
7609 4213 0
-7610 -1005 4242 0
7610 1005 0
7610 -4242 0
-7611 1005 -4242 0
7611 -1005 0
7611 4242 0
-7612 -887 4215 0
7612 887 0
7612 -4215 0
-7613 887 -4215 0
7613 -887 0
7613 4215 0
-7614 -897 4216 0
7614 897 0
7614 -4216 0
-7615 897 -4216 0
7615 -897 0
7615 4216 0
-7616 -947 4218 0
7616 947 0
7616 -4218 0
-7617 947 -4218 0
7617 -947 0
7617 4218 0
-7618 -957 4219 0
7618 957 0
7618 -4219 0
-7619 957 -4219 0
7619 -957 0
7619 4219 0
-7620 -505 4246 0
7620 505 0
7620 -4246 0
-7621 505 -4246 0
7621 -505 0
7621 4246 0
-7622 -507 4247 0
7622 507 0
7622 -4247 0
-7623 507 -4247 0
7623 -507 0
7623 4247 0
-7624 -509 4249 0
7624 509 0
7624 -4249 0
-7625 509 -4249 0
7625 -509 0
7625 4249 0
-7626 -511 4250 0
7626 511 0
7626 -4250 0
-7627 511 -4250 0
7627 -511 0
7627 4250 0
-7628 -1185 4127 0
7628 1185 0
7628 -4127 0
-7629 1185 -4127 0
7629 -1185 0
7629 4127 0
-7630 -125 126 0
7630 125 0
7630 -126 0
-7631 125 -126 0
7631 -125 0
7631 126 0
-7632 -1017 4105 0
7632 1017 0
7632 -4105 0
-7633 1017 -4105 0
7633 -1017 0
7633 4105 0
-7634 -1145 4125 0
7634 1145 0
7634 -4125 0
-7635 1145 -4125 0
7635 -1145 0
7635 4125 0
-7636 -959 4104 0
7636 959 0
7636 -4104 0
-7637 959 -4104 0
7637 -959 0
7637 4104 0
-7638 -1283 4097 0
7638 1283 0
7638 -4097 0
-7639 1283 -4097 0
7639 -1283 0
7639 4097 0
-7640 -899 4102 0
7640 899 0
7640 -4102 0
-7641 899 -4102 0
7641 -899 0
7641 4102 0
-7642 -839 4100 0
7642 839 0
7642 -4100 0
-7643 839 -4100 0
7643 -839 0
7643 4100 0
-7644 -1093 4123 0
7644 1093 0
7644 -4123 0
-7645 1093 -4123 0
7645 -1093 0
7645 4123 0
-7646 -779 4098 0
7646 779 0
7646 -4098 0
-7647 779 -4098 0
7647 -779 0
7647 4098 0
-7648 -1227 4130 0
7648 1227 0
7648 -4130 0
-7649 1227 -4130 0
7649 -1227 0
7649 4130 0
-7650 -1105 3157 0
7650 1105 0
7650 -3157 0
-7651 1105 -3157 0
7651 -1105 0
7651 3157 0
-7652 -927 4266 0
7652 927 0
7652 -4266 0
-7653 927 -4266 0
7653 -927 0
7653 4266 0
-7654 -83 84 0
7654 83 0
7654 -84 0
-7655 83 -84 0
7655 -83 0
7655 84 0
-7656 -867 4264 0
7656 867 0
7656 -4264 0
-7657 867 -4264 0
7657 -867 0
7657 4264 0
-7658 -807 4262 0
7658 807 0
7658 -4262 0
-7659 807 -4262 0
7659 -807 0
7659 4262 0
-7660 -747 4253 0
7660 747 0
7660 -4253 0
-7661 747 -4253 0
7661 -747 0
7661 4253 0
-7662 -551 4211 0
7662 551 0
7662 -4211 0
-7663 551 -4211 0
7663 -551 0
7663 4211 0
-7664 -1097 4284 0
7664 1097 0
7664 -4284 0
-7665 1097 -4284 0
7665 -1097 0
7665 4284 0
-7666 -985 4267 0
7666 985 0
7666 -4267 0
-7667 985 -4267 0
7667 -985 0
7667 4267 0
-7668 -515 4327 0
7668 515 0
7668 -4327 0
-7669 515 -4327 0
7669 -515 0
7669 4327 0
-7670 -517 4328 0
7670 517 0
7670 -4328 0
-7671 517 -4328 0
7671 -517 0
7671 4328 0
-7672 -519 4329 0
7672 519 0
7672 -4329 0
-7673 519 -4329 0
7673 -519 0
7673 4329 0
-7674 -521 4330 0
7674 521 0
7674 -4330 0
-7675 521 -4330 0
7675 -521 0
7675 4330 0
-7676 -523 4331 0
7676 523 0
7676 -4331 0
-7677 523 -4331 0
7677 -523 0
7677 4331 0
-7678 -525 526 0
7678 525 0
7678 -526 0
-7679 525 -526 0
7679 -525 0
7679 526 0
-7680 -803 4332 0
7680 803 0
7680 -4332 0
-7681 803 -4332 0
7681 -803 0
7681 4332 0
-7682 -1317 3730 0
7682 1317 0
7682 -3730 0
-7683 1317 -3730 0
7683 -1317 0
7683 3730 0
-7684 -51 52 0
7684 51 0
7684 -52 0
-7685 51 -52 0
7685 -51 0
7685 52 0
-7686 -743 4333 0
7686 743 0
7686 -4333 0
-7687 743 -4333 0
7687 -743 0
7687 4333 0
-7688 -863 4334 0
7688 863 0
7688 -4334 0
-7689 863 -4334 0
7689 -863 0
7689 4334 0
-7690 -923 4335 0
7690 923 0
7690 -4335 0
-7691 923 -4335 0
7691 -923 0
7691 4335 0
-7692 -981 4336 0
7692 981 0
7692 -4336 0
-7693 981 -4336 0
7693 -981 0
7693 4336 0
-7694 -209 4337 0
7694 209 0
7694 -4337 0
-7695 209 -4337 0
7695 -209 0
7695 4337 0
-7696 -211 4338 0
7696 211 0
7696 -4338 0
-7697 211 -4338 0
7697 -211 0
7697 4338 0
-7698 -41 4340 0
7698 41 0
7698 -4340 0
-7699 41 -4340 0
7699 -41 0
7699 4340 0
-7700 -45 4341 0
7700 45 0
7700 -4341 0
-7701 45 -4341 0
7701 -45 0
7701 4341 0
-7702 -149 4343 0
7702 149 0
7702 -4343 0
-7703 149 -4343 0
7703 -149 0
7703 4343 0
-7704 -151 4344 0
7704 151 0
7704 -4344 0
-7705 151 -4344 0
7705 -151 0
7705 4344 0
-7706 -269 4346 0
7706 269 0
7706 -4346 0
-7707 269 -4346 0
7707 -269 0
7707 4346 0
-7708 -271 4347 0
7708 271 0
7708 -4347 0
-7709 271 -4347 0
7709 -271 0
7709 4347 0
-7710 -329 4349 0
7710 329 0
7710 -4349 0
-7711 329 -4349 0
7711 -329 0
7711 4349 0
-7712 -331 4350 0
7712 331 0
7712 -4350 0
-7713 331 -4350 0
7713 -331 0
7713 4350 0
-7714 -1315 4355 0
7714 1315 0
7714 -4355 0
-7715 1315 -4355 0
7715 -1315 0
7715 4355 0
-7716 -1327 4356 0
7716 1327 0
7716 -4356 0
-7717 1327 -4356 0
7717 -1327 0
7717 4356 0
-7718 -1273 4352 0
7718 1273 0
7718 -4352 0
-7719 1273 -4352 0
7719 -1273 0
7719 4352 0
-7720 -1295 4353 0
7720 1295 0
7720 -4353 0
-7721 1295 -4353 0
7721 -1295 0
7721 4353 0
-7722 -1303 4354 0
7722 1303 0
7722 -4354 0
-7723 1303 -4354 0
7723 -1303 0
7723 4354 0
-7724 -623 624 0
7724 623 0
7724 -624 0
-7725 623 -624 0
7725 -623 0
7725 624 0
-7726 -997 4396 0
7726 997 0
7726 -4396 0
-7727 997 -4396 0
7727 -997 0
7727 4396 0
-7728 -1001 4397 0
7728 1001 0
7728 -4397 0
-7729 1001 -4397 0
7729 -1001 0
7729 4397 0
-7730 -759 4372 0
7730 759 0
7730 -4372 0
-7731 759 -4372 0
7731 -759 0
7731 4372 0
-7732 -763 4374 0
7732 763 0
7732 -4374 0
-7733 763 -4374 0
7733 -763 0
7733 4374 0
-7734 -527 4376 0
7734 527 0
7734 -4376 0
-7735 527 -4376 0
7735 -527 0
7735 4376 0
-7736 -529 4377 0
7736 529 0
7736 -4377 0
-7737 529 -4377 0
7737 -529 0
7737 4377 0
-7738 -531 4378 0
7738 531 0
7738 -4378 0
-7739 531 -4378 0
7739 -531 0
7739 4378 0
-7740 -533 4379 0
7740 533 0
7740 -4379 0
-7741 533 -4379 0
7741 -533 0
7741 4379 0
-7742 -535 4380 0
7742 535 0
7742 -4380 0
-7743 535 -4380 0
7743 -535 0
7743 4380 0
-7744 -537 4381 0
7744 537 0
7744 -4381 0
-7745 537 -4381 0
7745 -537 0
7745 4381 0
-7746 -539 540 0
7746 539 0
7746 -540 0
-7747 539 -540 0
7747 -539 0
7747 540 0
-7748 -43 44 0
7748 43 0
7748 -44 0
-7749 43 -44 0
7749 -43 0
7749 44 0
-7750 -819 4383 0
7750 819 0
7750 -4383 0
-7751 819 -4383 0
7751 -819 0
7751 4383 0
-7752 -823 4384 0
7752 823 0
7752 -4384 0
-7753 823 -4384 0
7753 -823 0
7753 4384 0
-7754 -67 68 0
7754 67 0
7754 -68 0
-7755 67 -68 0
7755 -67 0
7755 68 0
-7756 -879 4386 0
7756 879 0
7756 -4386 0
-7757 879 -4386 0
7757 -879 0
7757 4386 0
-7758 -883 4387 0
7758 883 0
7758 -4387 0
-7759 883 -4387 0
7759 -883 0
7759 4387 0
-7760 -939 4389 0
7760 939 0
7760 -4389 0
-7761 939 -4389 0
7761 -939 0
7761 4389 0
-7762 -943 4390 0
7762 943 0
7762 -4390 0
-7763 943 -4390 0
7763 -943 0
7763 4390 0
-7764 -495 4416 0
7764 495 0
7764 -4416 0
-7765 495 -4416 0
7765 -495 0
7765 4416 0
-7766 -497 4417 0
7766 497 0
7766 -4417 0
-7767 497 -4417 0
7767 -497 0
7767 4417 0
-7768 -499 4418 0
7768 499 0
7768 -4418 0
-7769 499 -4418 0
7769 -499 0
7769 4418 0
-7770 -501 4419 0
7770 501 0
7770 -4419 0
-7771 501 -4419 0
7771 -501 0
7771 4419 0
-7772 -503 504 0
7772 503 0
7772 -504 0
-7773 503 -504 0
7773 -503 0
7773 504 0
-7774 -615 4392 0
7774 615 0
7774 -4392 0
-7775 615 -4392 0
7775 -615 0
7775 4392 0
-7776 -617 4393 0
7776 617 0
7776 -4393 0
-7777 617 -4393 0
7777 -617 0
7777 4393 0
-7778 -619 4394 0
7778 619 0
7778 -4394 0
-7779 619 -4394 0
7779 -619 0
7779 4394 0
-7780 -621 4395 0
7780 621 0
7780 -4395 0
-7781 621 -4395 0
7781 -621 0
7781 4395 0
-7782 -177 4422 0
7782 177 0
7782 -4422 0
-7783 177 -4422 0
7783 -177 0
7783 4422 0
-7784 -237 4424 0
7784 237 0
7784 -4424 0
-7785 237 -4424 0
7785 -237 0
7785 4424 0
-7786 -97 4426 0
7786 97 0
7786 -4426 0
-7787 97 -4426 0
7787 -97 0
7787 4426 0
-7788 -297 4428 0
7788 297 0
7788 -4428 0
-7789 297 -4428 0
7789 -297 0
7789 4428 0
-7790 -357 4430 0
7790 357 0
7790 -4430 0
-7791 357 -4430 0
7791 -357 0
7791 4430 0
-7792 -157 4477 0
7792 157 0
7792 -4477 0
-7793 157 -4477 0
7793 -157 0
7793 4477 0
-7794 -159 4478 0
7794 159 0
7794 -4478 0
-7795 159 -4478 0
7795 -159 0
7795 4478 0
-7796 -155 4480 0
7796 155 0
7796 -4480 0
-7797 155 -4480 0
7797 -155 0
7797 4480 0
-7798 -219 4482 0
7798 219 0
7798 -4482 0
-7799 219 -4482 0
7799 -219 0
7799 4482 0
-7800 -215 4481 0
7800 215 0
7800 -4481 0
-7801 215 -4481 0
7801 -215 0
7801 4481 0
-7802 -217 4484 0
7802 217 0
7802 -4484 0
-7803 217 -4484 0
7803 -217 0
7803 4484 0
-7804 -275 4486 0
7804 275 0
7804 -4486 0
-7805 275 -4486 0
7805 -275 0
7805 4486 0
-7806 -277 4487 0
7806 277 0
7806 -4487 0
-7807 277 -4487 0
7807 -277 0
7807 4487 0
-7808 -279 4488 0
7808 279 0
7808 -4488 0
-7809 279 -4488 0
7809 -279 0
7809 4488 0
-7810 -745 4489 0
7810 745 0
7810 -4489 0
-7811 745 -4489 0
7811 -745 0
7811 4489 0
-7812 -805 4492 0
7812 805 0
7812 -4492 0
-7813 805 -4492 0
7813 -805 0
7813 4492 0
-7814 -59 60 0
7814 59 0
7814 -60 0
-7815 59 -60 0
7815 -59 0
7815 60 0
-7816 -567 4493 0
7816 567 0
7816 -4493 0
-7817 567 -4493 0
7817 -567 0
7817 4493 0
-7818 -569 4494 0
7818 569 0
7818 -4494 0
-7819 569 -4494 0
7819 -569 0
7819 4494 0
-7820 -571 4495 0
7820 571 0
7820 -4495 0
-7821 571 -4495 0
7821 -571 0
7821 4495 0
-7822 -573 4496 0
7822 573 0
7822 -4496 0
-7823 573 -4496 0
7823 -573 0
7823 4496 0
-7824 -575 576 0
7824 575 0
7824 -576 0
-7825 575 -576 0
7825 -575 0
7825 576 0
-7826 -459 4509 0
7826 459 0
7826 -4509 0
-7827 459 -4509 0
7827 -459 0
7827 4509 0
-7828 -457 4508 0
7828 457 0
7828 -4508 0
-7829 457 -4508 0
7829 -457 0
7829 4508 0
-7830 -925 4497 0
7830 925 0
7830 -4497 0
-7831 925 -4497 0
7831 -925 0
7831 4497 0
-7832 -865 4498 0
7832 865 0
7832 -4498 0
-7833 865 -4498 0
7833 -865 0
7833 4498 0
-7834 -983 4499 0
7834 983 0
7834 -4499 0
-7835 983 -4499 0
7835 -983 0
7835 4499 0
-7836 -53 4511 0
7836 53 0
7836 -4511 0
-7837 53 -4511 0
7837 -53 0
7837 4511 0
-7838 -57 4512 0
7838 57 0
7838 -4512 0
-7839 57 -4512 0
7839 -57 0
7839 4512 0
-7840 -61 4513 0
7840 61 0
7840 -4513 0
-7841 61 -4513 0
7841 -61 0
7841 4513 0
-7842 -335 4515 0
7842 335 0
7842 -4515 0
-7843 335 -4515 0
7843 -335 0
7843 4515 0
-7844 -337 4516 0
7844 337 0
7844 -4516 0
-7845 337 -4516 0
7845 -337 0
7845 4516 0
-7846 -339 4518 0
7846 339 0
7846 -4518 0
-7847 339 -4518 0
7847 -339 0
7847 4518 0
-7848 -1255 4368 0
7848 1255 0
7848 -4368 0
-7849 1255 -4368 0
7849 -1255 0
7849 4368 0
-7850 -749 4434 0
7850 749 0
7850 -4434 0
-7851 749 -4434 0
7851 -749 0
7851 4434 0
-7852 -1267 4435 0
7852 1267 0
7852 -4435 0
-7853 1267 -4435 0
7853 -1267 0
7853 4435 0
-7854 -1279 4438 0
7854 1279 0
7854 -4438 0
-7855 1279 -4438 0
7855 -1279 0
7855 4438 0
-7856 -1293 4440 0
7856 1293 0
7856 -4440 0
-7857 1293 -4440 0
7857 -1293 0
7857 4440 0
-7858 -809 4442 0
7858 809 0
7858 -4442 0
-7859 809 -4442 0
7859 -809 0
7859 4442 0
-7860 -1067 4469 0
7860 1067 0
7860 -4469 0
-7861 1067 -4469 0
7861 -1067 0
7861 4469 0
-7862 -1115 4470 0
7862 1115 0
7862 -4470 0
-7863 1115 -4470 0
7863 -1115 0
7863 4470 0
-7864 -869 4446 0
7864 869 0
7864 -4446 0
-7865 869 -4446 0
7865 -869 0
7865 4446 0
-7866 -1125 4471 0
7866 1125 0
7866 -4471 0
-7867 1125 -4471 0
7867 -1125 0
7867 4471 0
-7868 -103 104 0
7868 103 0
7868 -104 0
-7869 103 -104 0
7869 -103 0
7869 104 0
-7870 -1163 4472 0
7870 1163 0
7870 -4472 0
-7871 1163 -4472 0
7871 -1163 0
7871 4472 0
-7872 -1175 4473 0
7872 1175 0
7872 -4473 0
-7873 1175 -4473 0
7873 -1175 0
7873 4473 0
-7874 -929 4449 0
7874 929 0
7874 -4449 0
-7875 929 -4449 0
7875 -929 0
7875 4449 0
-7876 -1207 4474 0
7876 1207 0
7876 -4474 0
-7877 1207 -4474 0
7877 -1207 0
7877 4474 0
-7878 -1241 4476 0
7878 1241 0
7878 -4476 0
-7879 1241 -4476 0
7879 -1241 0
7879 4476 0
-7880 -987 4451 0
7880 987 0
7880 -4451 0
-7881 987 -4451 0
7881 -987 0
7881 4451 0
-7882 -1195 4535 0
7882 1195 0
7882 -4535 0
-7883 1195 -4535 0
7883 -1195 0
7883 4535 0
-7884 -1133 4529 0
7884 1133 0
7884 -4529 0
-7885 1133 -4529 0
7885 -1133 0
7885 4529 0
-7886 -1155 4532 0
7886 1155 0
7886 -4532 0
-7887 1155 -4532 0
7887 -1155 0
7887 4532 0
-7888 -1237 4538 0
7888 1237 0
7888 -4538 0
-7889 1237 -4538 0
7889 -1237 0
7889 4538 0
-7890 -1113 4527 0
7890 1113 0
7890 -4527 0
-7891 1113 -4527 0
7891 -1113 0
7891 4527 0
-7892 -85 4022 0
7892 85 0
7892 -4022 0
-7893 85 -4022 0
7893 -85 0
7893 4022 0
-7894 -1197 4325 0
7894 1197 0
7894 -4325 0
-7895 1197 -4325 0
7895 -1197 0
7895 4325 0
-7896 -351 4017 0
7896 351 0
7896 -4017 0
-7897 351 -4017 0
7897 -351 0
7897 4017 0
-7898 -291 4012 0
7898 291 0
7898 -4012 0
-7899 291 -4012 0
7899 -291 0
7899 4012 0
-7900 -231 4007 0
7900 231 0
7900 -4007 0
-7901 231 -4007 0
7901 -231 0
7901 4007 0
-7902 -171 4027 0
7902 171 0
7902 -4027 0
-7903 171 -4027 0
7903 -171 0
7903 4027 0
-7904 -1281 4299 0
7904 1281 0
7904 -4299 0
-7905 1281 -4299 0
7905 -1281 0
7905 4299 0
-7906 -1157 4324 0
7906 1157 0
7906 -4324 0
-7907 1157 -4324 0
7907 -1157 0
7907 4324 0
-7908 -1239 4297 0
7908 1239 0
7908 -4297 0
-7909 1239 -4297 0
7909 -1239 0
7909 4297 0
-7910 -1117 4323 0
7910 1117 0
7910 -4323 0
-7911 1117 -4323 0
7911 -1117 0
7911 4323 0
-7912 -1123 4570 0
7912 1123 0
7912 -4570 0
-7913 1123 -4570 0
7913 -1123 0
7913 4570 0
-7914 -1063 4569 0
7914 1063 0
7914 -4569 0
-7915 1063 -4569 0
7915 -1063 0
7915 4569 0
-7916 -49 4342 0
7916 49 0
7916 -4342 0
-7917 49 -4342 0
7917 -49 0
7917 4342 0
-7918 -1205 4573 0
7918 1205 0
7918 -4573 0
-7919 1205 -4573 0
7919 -1205 0
7919 4573 0
-7920 -1143 4571 0
7920 1143 0
7920 -4571 0
-7921 1143 -4571 0
7921 -1143 0
7921 4571 0
-7922 -1161 4572 0
7922 1161 0
7922 -4572 0
-7923 1161 -4572 0
7923 -1161 0
7923 4572 0
-7924 -333 4351 0
7924 333 0
7924 -4351 0
-7925 333 -4351 0
7925 -333 0
7925 4351 0
-7926 -273 4348 0
7926 273 0
7926 -4348 0
-7927 273 -4348 0
7927 -273 0
7927 4348 0
-7928 -213 4339 0
7928 213 0
7928 -4339 0
-7929 213 -4339 0
7929 -213 0
7929 4339 0
-7930 -153 4345 0
7930 153 0
7930 -4345 0
-7931 153 -4345 0
7931 -153 0
7931 4345 0
-7932 -1257 4617 0
7932 1257 0
7932 -4617 0
-7933 1257 -4617 0
7933 -1257 0
7933 4617 0
-7934 -637 4631 0
7934 637 0
7934 -4631 0
-7935 637 -4631 0
7935 -637 0
7935 4631 0
-7936 -639 4632 0
7936 639 0
7936 -4632 0
-7937 639 -4632 0
7937 -639 0
7937 4632 0
-7938 -641 4633 0
7938 641 0
7938 -4633 0
-7939 641 -4633 0
7939 -641 0
7939 4633 0
-7940 -643 4634 0
7940 643 0
7940 -4634 0
-7941 643 -4634 0
7941 -643 0
7941 4634 0
-7942 -601 4625 0
7942 601 0
7942 -4625 0
-7943 601 -4625 0
7943 -601 0
7943 4625 0
-7944 -603 4626 0
7944 603 0
7944 -4626 0
-7945 603 -4626 0
7945 -603 0
7945 4626 0
-7946 -605 4627 0
7946 605 0
7946 -4627 0
-7947 605 -4627 0
7947 -605 0
7947 4627 0
-7948 -607 4628 0
7948 607 0
7948 -4628 0
-7949 607 -4628 0
7949 -607 0
7949 4628 0
-7950 -609 4629 0
7950 609 0
7950 -4629 0
-7951 609 -4629 0
7951 -609 0
7951 4629 0
-7952 -611 4630 0
7952 611 0
7952 -4630 0
-7953 611 -4630 0
7953 -611 0
7953 4630 0
-7954 -613 614 0
7954 613 0
7954 -614 0
-7955 613 -614 0
7955 -613 0
7955 614 0
-7956 -741 4654 0
7956 741 0
7956 -4654 0
-7957 741 -4654 0
7957 -741 0
7957 4654 0
-7958 -647 648 0
7958 647 0
7958 -648 0
-7959 647 -648 0
7959 -647 0
7959 648 0
-7960 -801 4655 0
7960 801 0
7960 -4655 0
-7961 801 -4655 0
7961 -801 0
7961 4655 0
-7962 -1111 4659 0
7962 1111 0
7962 -4659 0
-7963 1111 -4659 0
7963 -1111 0
7963 4659 0
-7964 -861 4656 0
7964 861 0
7964 -4656 0
-7965 861 -4656 0
7965 -861 0
7965 4656 0
-7966 -1151 4660 0
7966 1151 0
7966 -4660 0
-7967 1151 -4660 0
7967 -1151 0
7967 4660 0
-7968 -107 108 0
7968 107 0
7968 -108 0
-7969 107 -108 0
7969 -107 0
7969 108 0
-7970 -921 4657 0
7970 921 0
7970 -4657 0
-7971 921 -4657 0
7971 -921 0
7971 4657 0
-7972 -1181 4661 0
7972 1181 0
7972 -4661 0
-7973 1181 -4661 0
7973 -1181 0
7973 4661 0
-7974 -1193 4662 0
7974 1193 0
7974 -4662 0
-7975 1193 -4662 0
7975 -1193 0
7975 4662 0
-7976 -717 4663 0
7976 717 0
7976 -4663 0
-7977 717 -4663 0
7977 -717 0
7977 4663 0
-7978 -719 4664 0
7978 719 0
7978 -4664 0
-7979 719 -4664 0
7979 -719 0
7979 4664 0
-7980 -721 4665 0
7980 721 0
7980 -4665 0
-7981 721 -4665 0
7981 -721 0
7981 4665 0
-7982 -723 4666 0
7982 723 0
7982 -4666 0
-7983 723 -4666 0
7983 -723 0
7983 4666 0
-7984 -725 726 0
7984 725 0
7984 -726 0
-7985 725 -726 0
7985 -725 0
7985 726 0
-7986 -1235 4653 0
7986 1235 0
7986 -4653 0
-7987 1235 -4653 0
7987 -1235 0
7987 4653 0
-7988 -979 4658 0
7988 979 0
7988 -4658 0
-7989 979 -4658 0
7989 -979 0
7989 4658 0
-7990 -1013 4722 0
7990 1013 0
7990 -4722 0
-7991 1013 -4722 0
7991 -1013 0
7991 4722 0
-7992 -775 4707 0
7992 775 0
7992 -4707 0
-7993 775 -4707 0
7993 -775 0
7993 4707 0
-7994 -895 4739 0
7994 895 0
7994 -4739 0
-7995 895 -4739 0
7995 -895 0
7995 4739 0
-7996 -835 4709 0
7996 835 0
7996 -4709 0
-7997 835 -4709 0
7997 -835 0
7997 4709 0
-7998 -79 80 0
7998 79 0
7998 -80 0
-7999 79 -80 0
7999 -79 0
7999 80 0
-8000 -577 4711 0
8000 577 0
8000 -4711 0
-8001 577 -4711 0
8001 -577 0
8001 4711 0
-8002 -579 4712 0
8002 579 0
8002 -4712 0
-8003 579 -4712 0
8003 -579 0
8003 4712 0
-8004 -581 4713 0
8004 581 0
8004 -4713 0
-8005 581 -4713 0
8005 -581 0
8005 4713 0
-8006 -583 4714 0
8006 583 0
8006 -4714 0
-8007 583 -4714 0
8007 -583 0
8007 4714 0
-8008 -585 4715 0
8008 585 0
8008 -4715 0
-8009 585 -4715 0
8009 -585 0
8009 4715 0
-8010 -587 4716 0
8010 587 0
8010 -4716 0
-8011 587 -4716 0
8011 -587 0
8011 4716 0
-8012 -589 590 0
8012 589 0
8012 -590 0
-8013 589 -590 0
8013 -589 0
8013 590 0
-8014 -591 4717 0
8014 591 0
8014 -4717 0
-8015 591 -4717 0
8015 -591 0
8015 4717 0
-8016 -593 4718 0
8016 593 0
8016 -4718 0
-8017 593 -4718 0
8017 -593 0
8017 4718 0
-8018 -595 4719 0
8018 595 0
8018 -4719 0
-8019 595 -4719 0
8019 -595 0
8019 4719 0
-8020 -597 4720 0
8020 597 0
8020 -4720 0
-8021 597 -4720 0
8021 -597 0
8021 4720 0
-8022 -599 600 0
8022 599 0
8022 -600 0
-8023 599 -600 0
8023 -599 0
8023 600 0
-8024 -955 4721 0
8024 955 0
8024 -4721 0
-8025 955 -4721 0
8025 -955 0
8025 4721 0
-8026 -791 4748 0
8026 791 0
8026 -4748 0
-8027 791 -4748 0
8027 -791 0
8027 4748 0
-8028 -851 4750 0
8028 851 0
8028 -4750 0
-8029 851 -4750 0
8029 -851 0
8029 4750 0
-8030 -695 4770 0
8030 695 0
8030 -4770 0
-8031 695 -4770 0
8031 -695 0
8031 4770 0
-8032 -911 4752 0
8032 911 0
8032 -4752 0
-8033 911 -4752 0
8033 -911 0
8033 4752 0
-8034 -697 4771 0
8034 697 0
8034 -4771 0
-8035 697 -4771 0
8035 -697 0
8035 4771 0
-8036 -699 4772 0
8036 699 0
8036 -4772 0
-8037 699 -4772 0
8037 -699 0
8037 4772 0
-8038 -701 4773 0
8038 701 0
8038 -4773 0
-8039 701 -4773 0
8039 -701 0
8039 4773 0
-8040 -703 4774 0
8040 703 0
8040 -4774 0
-8041 703 -4774 0
8041 -703 0
8041 4774 0
-8042 -705 706 0
8042 705 0
8042 -706 0
-8043 705 -706 0
8043 -705 0
8043 706 0
-8044 -121 122 0
8044 121 0
8044 -122 0
-8045 121 -122 0
8045 -121 0
8045 122 0
-8046 -481 4775 0
8046 481 0
8046 -4775 0
-8047 481 -4775 0
8047 -481 0
8047 4775 0
-8048 -483 4776 0
8048 483 0
8048 -4776 0
-8049 483 -4776 0
8049 -483 0
8049 4776 0
-8050 -485 4777 0
8050 485 0
8050 -4777 0
-8051 485 -4777 0
8051 -485 0
8051 4777 0
-8052 -487 4778 0
8052 487 0
8052 -4778 0
-8053 487 -4778 0
8053 -487 0
8053 4778 0
-8054 -489 4779 0
8054 489 0
8054 -4779 0
-8055 489 -4779 0
8055 -489 0
8055 4779 0
-8056 -969 4753 0
8056 969 0
8056 -4753 0
-8057 969 -4753 0
8057 -969 0
8057 4753 0
-8058 -731 4782 0
8058 731 0
8058 -4782 0
-8059 731 -4782 0
8059 -731 0
8059 4782 0
-8060 -133 134 0
8060 133 0
8060 -134 0
-8061 133 -134 0
8061 -133 0
8061 134 0
-8062 -1007 4679 0
8062 1007 0
8062 -4679 0
-8063 1007 -4679 0
8063 -1007 0
8063 4679 0
-8064 -949 4678 0
8064 949 0
8064 -4678 0
-8065 949 -4678 0
8065 -949 0
8065 4678 0
-8066 -889 4676 0
8066 889 0
8066 -4676 0
-8067 889 -4676 0
8067 -889 0
8067 4676 0
-8068 -829 4674 0
8068 829 0
8068 -4674 0
-8069 829 -4674 0
8069 -829 0
8069 4674 0
-8070 -769 4672 0
8070 769 0
8070 -4672 0
-8071 769 -4672 0
8071 -769 0
8071 4672 0
-8072 -1089 3142 0
8072 1089 0
8072 -3142 0
-8073 1089 -3142 0
8073 -1089 0
8073 3142 0
-8074 -645 4635 0
8074 645 0
8074 -4635 0
-8075 645 -4635 0
8075 -645 0
8075 4635 0
-8076 -931 4804 0
8076 931 0
8076 -4804 0
-8077 931 -4804 0
8077 -931 0
8077 4804 0
-8078 -871 4800 0
8078 871 0
8078 -4800 0
-8079 871 -4800 0
8079 -871 0
8079 4800 0
-8080 -811 4792 0
8080 811 0
8080 -4792 0
-8081 811 -4792 0
8081 -811 0
8081 4792 0
-8082 -751 4785 0
8082 751 0
8082 -4785 0
-8083 751 -4785 0
8083 -751 0
8083 4785 0
-8084 -63 64 0
8084 63 0
8084 -64 0
-8085 63 -64 0
8085 -63 0
8085 64 0
-8086 -1365 3881 0
8086 1365 0
8086 -3881 0
-8087 1365 -3881 0
8087 -1365 0
8087 3881 0
-8088 -989 4805 0
8088 989 0
8088 -4805 0
-8089 989 -4805 0
8089 -989 0
8089 4805 0
-8090 -375 4867 0
8090 375 0
8090 -4867 0
-8091 375 -4867 0
8091 -375 0
8091 4867 0
-8092 -377 4868 0
8092 377 0
8092 -4868 0
-8093 377 -4868 0
8093 -377 0
8093 4868 0
-8094 -379 380 0
8094 379 0
8094 -380 0
-8095 379 -380 0
8095 -379 0
8095 380 0
-8096 -369 4864 0
8096 369 0
8096 -4864 0
-8097 369 -4864 0
8097 -369 0
8097 4864 0
-8098 -371 4865 0
8098 371 0
8098 -4865 0
-8099 371 -4865 0
8099 -371 0
8099 4865 0
-8100 -373 4866 0
8100 373 0
8100 -4866 0
-8101 373 -4866 0
8101 -373 0
8101 4866 0
-8102 -123 4870 0
8102 123 0
8102 -4870 0
-8103 123 -4870 0
8103 -123 0
8103 4870 0
-8104 -127 4871 0
8104 127 0
8104 -4871 0
-8105 127 -4871 0
8105 -127 0
8105 4871 0
-8106 -131 4872 0
8106 131 0
8106 -4872 0
-8107 131 -4872 0
8107 -131 0
8107 4872 0
-8108 -135 4873 0
8108 135 0
8108 -4873 0
-8109 135 -4873 0
8109 -135 0
8109 4873 0
-8110 -139 140 0
8110 139 0
8110 -140 0
-8111 139 -140 0
8111 -139 0
8111 140 0
-8112 -119 4869 0
8112 119 0
8112 -4869 0
-8113 119 -4869 0
8113 -119 0
8113 4869 0
-8114 -251 4875 0
8114 251 0
8114 -4875 0
-8115 251 -4875 0
8115 -251 0
8115 4875 0
-8116 -253 4876 0
8116 253 0
8116 -4876 0
-8117 253 -4876 0
8117 -253 0
8117 4876 0
-8118 -255 4877 0
8118 255 0
8118 -4877 0
-8119 255 -4877 0
8119 -255 0
8119 4877 0
-8120 -257 4878 0
8120 257 0
8120 -4878 0
-8121 257 -4878 0
8121 -257 0
8121 4878 0
-8122 -259 260 0
8122 259 0
8122 -260 0
-8123 259 -260 0
8123 -259 0
8123 260 0
-8124 -249 4874 0
8124 249 0
8124 -4874 0
-8125 249 -4874 0
8125 -249 0
8125 4874 0
-8126 -189 4879 0
8126 189 0
8126 -4879 0
-8127 189 -4879 0
8127 -189 0
8127 4879 0
-8128 -191 4880 0
8128 191 0
8128 -4880 0
-8129 191 -4880 0
8129 -191 0
8129 4880 0
-8130 -193 4881 0
8130 193 0
8130 -4881 0
-8131 193 -4881 0
8131 -193 0
8131 4881 0
-8132 -195 4882 0
8132 195 0
8132 -4882 0
-8133 195 -4882 0
8133 -195 0
8133 4882 0
-8134 -197 4883 0
8134 197 0
8134 -4883 0
-8135 197 -4883 0
8135 -197 0
8135 4883 0
-8136 -199 200 0
8136 199 0
8136 -200 0
-8137 199 -200 0
8137 -199 0
8137 200 0
-8138 -313 4886 0
8138 313 0
8138 -4886 0
-8139 313 -4886 0
8139 -313 0
8139 4886 0
-8140 -315 4887 0
8140 315 0
8140 -4887 0
-8141 315 -4887 0
8141 -315 0
8141 4887 0
-8142 -317 4888 0
8142 317 0
8142 -4888 0
-8143 317 -4888 0
8143 -317 0
8143 4888 0
-8144 -319 320 0
8144 319 0
8144 -320 0
-8145 319 -320 0
8145 -319 0
8145 320 0
-8146 -309 4884 0
8146 309 0
8146 -4884 0
-8147 309 -4884 0
8147 -309 0
8147 4884 0
-8148 -311 4885 0
8148 311 0
8148 -4885 0
-8149 311 -4885 0
8149 -311 0
8149 4885 0
-8150 -8151 4908 0
8150 8151 0
8150 -4908 0
-8152 8151 -4908 0
8152 -8151 0
8152 4908 0
-8153 -1009 4915 0
8153 1009 0
8153 -4915 0
-8154 1009 -4915 0
8154 -1009 0
8154 4915 0
-8155 -771 4916 0
8155 771 0
8155 -4916 0
-8156 771 -4916 0
8156 -771 0
8156 4916 0
-8157 -831 4917 0
8157 831 0
8157 -4917 0
-8158 831 -4917 0
8158 -831 0
8158 4917 0
-8159 -891 4918 0
8159 891 0
8159 -4918 0
-8160 891 -4918 0
8160 -891 0
8160 4918 0
-8161 -707 4919 0
8161 707 0
8161 -4919 0
-8162 707 -4919 0
8162 -707 0
8162 4919 0
-8163 -709 4920 0
8163 709 0
8163 -4920 0
-8164 709 -4920 0
8164 -709 0
8164 4920 0
-8165 -493 494 0
8165 493 0
8165 -494 0
-8166 493 -494 0
8166 -493 0
8166 494 0
-8167 -137 138 0
8167 137 0
8167 -138 0
-8168 137 -138 0
8168 -137 0
8168 138 0
-8169 -711 4921 0
8169 711 0
8169 -4921 0
-8170 711 -4921 0
8170 -711 0
8170 4921 0
-8171 -713 4922 0
8171 713 0
8171 -4922 0
-8172 713 -4922 0
8172 -713 0
8172 4922 0
-8173 -715 716 0
8173 715 0
8173 -716 0
-8174 715 -716 0
8174 -715 0
8174 716 0
-8175 -951 4923 0
8175 951 0
8175 -4923 0
-8176 951 -4923 0
8176 -951 0
8176 4923 0
-8177 -991 4846 0
8177 991 0
8177 -4846 0
-8178 991 -4846 0
8178 -991 0
8178 4846 0
-8179 -933 4845 0
8179 933 0
8179 -4845 0
-8180 933 -4845 0
8180 -933 0
8180 4845 0
-8181 -1319 4835 0
8181 1319 0
8181 -4835 0
-8182 1319 -4835 0
8182 -1319 0
8182 4835 0
-8183 -873 4843 0
8183 873 0
8183 -4843 0
-8184 873 -4843 0
8184 -873 0
8184 4843 0
-8185 -813 4837 0
8185 813 0
8185 -4837 0
-8186 813 -4837 0
8186 -813 0
8186 4837 0
-8187 -753 4825 0
8187 753 0
8187 -4825 0
-8188 753 -4825 0
8188 -753 0
8188 4825 0
-8189 -71 72 0
8189 71 0
8189 -72 0
-8190 71 -72 0
8190 -71 0
8190 72 0
-8191 -1131 4925 0
8191 1131 0
8191 -4925 0
-8192 1131 -4925 0
8192 -1131 0
8192 4925 0
-8193 -1073 4924 0
8193 1073 0
8193 -4924 0
-8194 1073 -4924 0
8194 -1073 0
8194 4924 0
-8195 -1213 4927 0
8195 1213 0
8195 -4927 0
-8196 1213 -4927 0
8196 -1213 0
8196 4927 0
-8197 -1215 4928 0
8197 1215 0
8197 -4928 0
-8198 1215 -4928 0
8198 -1215 0
8198 4928 0
-8199 -1171 4926 0
8199 1171 0
8199 -4926 0
-8200 1171 -4926 0
8200 -1171 0
8200 4926 0
-8201 -301 4970 0
8201 301 0
8201 -4970 0
-8202 301 -4970 0
8202 -301 0
8202 4970 0
-8203 -303 4971 0
8203 303 0
8203 -4971 0
-8204 303 -4971 0
8204 -303 0
8204 4971 0
-8205 -181 4991 0
8205 181 0
8205 -4991 0
-8206 181 -4991 0
8206 -181 0
8206 4991 0
-8207 -305 4972 0
8207 305 0
8207 -4972 0
-8208 305 -4972 0
8208 -305 0
8208 4972 0
-8209 -183 4992 0
8209 183 0
8209 -4992 0
-8210 183 -4992 0
8210 -183 0
8210 4992 0
-8211 -185 4993 0
8211 185 0
8211 -4993 0
-8212 185 -4993 0
8212 -185 0
8212 4993 0
-8213 -1107 4995 0
8213 1107 0
8213 -4995 0
-8214 1107 -4995 0
8214 -1107 0
8214 4995 0
-8215 -1147 4997 0
8215 1147 0
8215 -4997 0
-8216 1147 -4997 0
8216 -1147 0
8216 4997 0
-8217 -105 4984 0
8217 105 0
8217 -4984 0
-8218 105 -4984 0
8218 -105 0
8218 4984 0
-8219 -361 4985 0
8219 361 0
8219 -4985 0
-8220 361 -4985 0
8220 -361 0
8220 4985 0
-8221 -109 4986 0
8221 109 0
8221 -4986 0
-8222 109 -4986 0
8222 -109 0
8222 4986 0
-8223 -365 4990 0
8223 365 0
8223 -4990 0
-8224 365 -4990 0
8224 -365 0
8224 4990 0
-8225 -113 4987 0
8225 113 0
8225 -4987 0
-8226 113 -4987 0
8226 -113 0
8226 4987 0
-8227 -363 4989 0
8227 363 0
8227 -4989 0
-8228 363 -4989 0
8228 -363 0
8228 4989 0
-8229 -241 4998 0
8229 241 0
8229 -4998 0
-8230 241 -4998 0
8230 -241 0
8230 4998 0
-8231 -243 4999 0
8231 243 0
8231 -4999 0
-8232 243 -4999 0
8232 -243 0
8232 4999 0
-8233 -245 5000 0
8233 245 0
8233 -5000 0
-8234 245 -5000 0
8234 -245 0
8234 5000 0
-8235 -1187 5002 0
8235 1187 0
8235 -5002 0
-8236 1187 -5002 0
8236 -1187 0
8236 5002 0
-8237 -1191 5003 0
8237 1191 0
8237 -5003 0
-8238 1191 -5003 0
8238 -1191 0
8238 5003 0
-8239 -1229 5004 0
8239 1229 0
8239 -5004 0
-8240 1229 -5004 0
8240 -1229 0
8240 5004 0
-8241 -427 5022 0
8241 427 0
8241 -5022 0
-8242 427 -5022 0
8242 -427 0
8242 5022 0
-8243 -429 5023 0
8243 429 0
8243 -5023 0
-8244 429 -5023 0
8244 -429 0
8244 5023 0
-8245 -431 5024 0
8245 431 0
8245 -5024 0
-8246 431 -5024 0
8246 -431 0
8246 5024 0
-8247 -433 5025 0
8247 433 0
8247 -5025 0
-8248 433 -5025 0
8248 -433 0
8248 5025 0
-8249 -435 5026 0
8249 435 0
8249 -5026 0
-8250 435 -5026 0
8250 -435 0
8250 5026 0
-8251 -817 5009 0
8251 817 0
8251 -5009 0
-8252 817 -5009 0
8252 -817 0
8252 5009 0
-8253 -437 5027 0
8253 437 0
8253 -5027 0
-8254 437 -5027 0
8254 -437 0
8254 5027 0
-8255 -439 440 0
8255 439 0
8255 -440 0
-8256 439 -440 0
8256 -439 0
8256 440 0
-8257 -451 5028 0
8257 451 0
8257 -5028 0
-8258 451 -5028 0
8258 -451 0
8258 5028 0
-8259 -453 5029 0
8259 453 0
8259 -5029 0
-8260 453 -5029 0
8260 -453 0
8260 5029 0
-8261 -1371 5012 0
8261 1371 0
8261 -5012 0
-8262 1371 -5012 0
8262 -1371 0
8262 5012 0
-8263 -441 5033 0
8263 441 0
8263 -5033 0
-8264 441 -5033 0
8264 -441 0
8264 5033 0
-8265 -443 5034 0
8265 443 0
8265 -5034 0
-8266 443 -5034 0
8266 -443 0
8266 5034 0
-8267 -445 5035 0
8267 445 0
8267 -5035 0
-8268 445 -5035 0
8268 -445 0
8268 5035 0
-8269 -447 5036 0
8269 447 0
8269 -5036 0
-8270 447 -5036 0
8270 -447 0
8270 5036 0
-8271 -449 450 0
8271 449 0
8271 -450 0
-8272 449 -450 0
8272 -449 0
8272 450 0
-8273 -789 5075 0
8273 789 0
8273 -5075 0
-8274 789 -5075 0
8274 -789 0
8274 5075 0
-8275 -33 5076 0
8275 33 0
8275 -5076 0
-8276 33 -5076 0
8276 -33 0
8276 5076 0
-8277 -325 5078 0
8277 325 0
8277 -5078 0
-8278 325 -5078 0
8278 -325 0
8278 5078 0
-8279 -205 5092 0
8279 205 0
8279 -5092 0
-8280 205 -5092 0
8280 -205 0
8280 5092 0
-8281 -1361 5084 0
8281 1361 0
8281 -5084 0
-8282 1361 -5084 0
8282 -1361 0
8282 5084 0
-8283 -1387 5089 0
8283 1387 0
8283 -5089 0
-8284 1387 -5089 0
8284 -1387 0
8284 5089 0
-8285 -469 5094 0
8285 469 0
8285 -5094 0
-8286 469 -5094 0
8286 -469 0
8286 5094 0
-8287 -471 5095 0
8287 471 0
8287 -5095 0
-8288 471 -5095 0
8288 -471 0
8288 5095 0
-8289 -473 5096 0
8289 473 0
8289 -5096 0
-8290 473 -5096 0
8290 -473 0
8290 5096 0
-8291 -475 5097 0
8291 475 0
8291 -5097 0
-8292 475 -5097 0
8292 -475 0
8292 5097 0
-8293 -265 5099 0
8293 265 0
8293 -5099 0
-8294 265 -5099 0
8294 -265 0
8294 5099 0
-8295 -145 5090 0
8295 145 0
8295 -5090 0
-8296 145 -5090 0
8296 -145 0
8296 5090 0
-8297 -393 394 0
8297 393 0
8297 -394 0
-8298 393 -394 0
8298 -393 0
8298 394 0
-8299 -1021 5111 0
8299 1021 0
8299 -5111 0
-8300 1021 -5111 0
8300 -1021 0
8300 5111 0
-8301 -23 24 0
8301 23 0
8301 -24 0
-8302 23 -24 0
8302 -23 0
8302 24 0
-8303 -783 5101 0
8303 783 0
8303 -5101 0
-8304 783 -5101 0
8304 -783 0
8304 5101 0
-8305 -39 40 0
8305 39 0
8305 -40 0
-8306 39 -40 0
8306 -39 0
8306 40 0
-8307 -903 5103 0
8307 903 0
8307 -5103 0
-8308 903 -5103 0
8308 -903 0
8308 5103 0
-8309 -479 480 0
8309 479 0
8309 -480 0
-8310 479 -480 0
8310 -479 0
8310 480 0
-8311 -381 5104 0
8311 381 0
8311 -5104 0
-8312 381 -5104 0
8312 -381 0
8312 5104 0
-8313 -383 5105 0
8313 383 0
8313 -5105 0
-8314 383 -5105 0
8314 -383 0
8314 5105 0
-8315 -385 5106 0
8315 385 0
8315 -5106 0
-8316 385 -5106 0
8316 -385 0
8316 5106 0
-8317 -387 5107 0
8317 387 0
8317 -5107 0
-8318 387 -5107 0
8318 -387 0
8318 5107 0
-8319 -389 5108 0
8319 389 0
8319 -5108 0
-8320 389 -5108 0
8320 -389 0
8320 5108 0
-8321 -963 5109 0
8321 963 0
8321 -5109 0
-8322 963 -5109 0
8322 -963 0
8322 5109 0
-8323 -971 5057 0
8323 971 0
8323 -5057 0
-8324 971 -5057 0
8324 -971 0
8324 5057 0
-8325 -913 5056 0
8325 913 0
8325 -5056 0
-8326 913 -5056 0
8326 -913 0
8326 5056 0
-8327 -853 5051 0
8327 853 0
8327 -5051 0
-8328 853 -5051 0
8328 -853 0
8328 5051 0
-8329 -117 118 0
8329 117 0
8329 -118 0
-8330 117 -118 0
8330 -117 0
8330 118 0
-8331 -793 5043 0
8331 793 0
8331 -5043 0
-8332 793 -5043 0
8332 -793 0
8332 5043 0
-8333 -733 5032 0
8333 733 0
8333 -5032 0
-8334 733 -5032 0
8334 -733 0
8334 5032 0
-8335 -477 5098 0
8335 477 0
8335 -5098 0
-8336 477 -5098 0
8336 -477 0
8336 5098 0
-8337 -1383 5122 0
8337 1383 0
8337 -5122 0
-8338 1383 -5122 0
8338 -1383 0
8338 5122 0
-8339 -391 5110 0
8339 391 0
8339 -5110 0
-8340 391 -5110 0
8340 -391 0
8340 5110 0
-8341 -967 5125 0
8341 967 0
8341 -5125 0
-8342 967 -5125 0
8342 -967 0
8342 5125 0
-8343 -1353 5118 0
8343 1353 0
8343 -5118 0
-8344 1353 -5118 0
8344 -1353 0
8344 5118 0
-8345 -909 5124 0
8345 909 0
8345 -5124 0
-8346 909 -5124 0
8346 -909 0
8346 5124 0
-8347 -849 5121 0
8347 849 0
8347 -5121 0
-8348 849 -5121 0
8348 -849 0
8348 5121 0
-8349 -729 5143 0
8349 729 0
8349 -5143 0
-8350 729 -5143 0
8350 -729 0
8350 5143 0
-8351 -5 5144 0
8351 5 0
8351 -5144 0
-8352 5 -5144 0
8352 -5 0
8352 5144 0
-8353 -9 5145 0
8353 9 0
8353 -5145 0
-8354 9 -5145 0
8354 -9 0
8354 5145 0
-8355 -13 5146 0
8355 13 0
8355 -5146 0
-8356 13 -5146 0
8356 -13 0
8356 5146 0
-8357 -17 5147 0
8357 17 0
8357 -5147 0
-8358 17 -5147 0
8358 -17 0
8358 5147 0
-8359 -21 22 0
8359 21 0
8359 -22 0
-8360 21 -22 0
8360 -21 0
8360 22 0
-8361 -405 5202 0
8361 405 0
8361 -5202 0
-8362 405 -5202 0
8362 -405 0
8362 5202 0
-8363 -407 5203 0
8363 407 0
8363 -5203 0
-8364 407 -5203 0
8364 -407 0
8364 5203 0
-8365 -409 5204 0
8365 409 0
8365 -5204 0
-8366 409 -5204 0
8366 -409 0
8366 5204 0
-8367 -411 5205 0
8367 411 0
8367 -5205 0
-8368 411 -5205 0
8368 -411 0
8368 5205 0
-8369 -999 5206 0
8369 999 0
8369 -5206 0
-8370 999 -5206 0
8370 -999 0
8370 5206 0
-8371 -1019 5207 0
8371 1019 0
8371 -5207 0
-8372 1019 -5207 0
8372 -1019 0
8372 5207 0
-8373 -417 5209 0
8373 417 0
8373 -5209 0
-8374 417 -5209 0
8374 -417 0
8374 5209 0
-8375 -419 5213 0
8375 419 0
8375 -5213 0
-8376 419 -5213 0
8376 -419 0
8376 5213 0
-8377 -421 5214 0
8377 421 0
8377 -5214 0
-8378 421 -5214 0
8378 -421 0
8378 5214 0
-8379 -423 5215 0
8379 423 0
8379 -5215 0
-8380 423 -5215 0
8380 -423 0
8380 5215 0
-8381 -31 32 0
8381 31 0
8381 -32 0
-8382 31 -32 0
8382 -31 0
8382 32 0
-8383 -425 426 0
8383 425 0
8383 -426 0
-8384 425 -426 0
8384 -425 0
8384 426 0
-8385 -841 5196 0
8385 841 0
8385 -5196 0
-8386 841 -5196 0
8386 -841 0
8386 5196 0
-8387 -467 468 0
8387 467 0
8387 -468 0
-8388 467 -468 0
8388 -467 0
8388 468 0
-8389 -901 5198 0
8389 901 0
8389 -5198 0
-8390 901 -5198 0
8390 -901 0
8390 5198 0
-8391 -129 130 0
8391 129 0
8391 -130 0
-8392 129 -130 0
8392 -129 0
8392 130 0
-8393 -941 5200 0
8393 941 0
8393 -5200 0
-8394 941 -5200 0
8394 -941 0
8394 5200 0
-8395 -961 5201 0
8395 961 0
8395 -5201 0
-8396 961 -5201 0
8396 -961 0
8396 5201 0
-8397 -1259 3549 0
8397 1259 0
8397 -3549 0
-8398 1259 -3549 0
8398 -1259 0
8398 3549 0
-8399 -1271 5230 0
8399 1271 0
8399 -5230 0
-8400 1271 -5230 0
8400 -1271 0
8400 5230 0
-8401 -415 416 0
8401 415 0
8401 -416 0
-8402 415 -416 0
8402 -415 0
8402 416 0
-8403 -1287 5231 0
8403 1287 0
8403 -5231 0
-8404 1287 -5231 0
8404 -1287 0
8404 5231 0
-8405 -25 5232 0
8405 25 0
8405 -5232 0
-8406 25 -5232 0
8406 -25 0
8406 5232 0
-8407 -321 5235 0
8407 321 0
8407 -5235 0
-8408 321 -5235 0
8408 -321 0
8408 5235 0
-8409 -201 5240 0
8409 201 0
8409 -5240 0
-8410 201 -5240 0
8410 -201 0
8410 5240 0
-8411 -261 5246 0
8411 261 0
8411 -5246 0
-8412 261 -5246 0
8412 -261 0
8412 5246 0
-8413 -141 5237 0
8413 141 0
8413 -5237 0
-8414 141 -5237 0
8414 -141 0
8414 5237 0
-8415 -1377 5165 0
8415 1377 0
8415 -5165 0
-8416 1377 -5165 0
8416 -1377 0
8416 5165 0
-8417 -1379 5166 0
8417 1379 0
8417 -5166 0
-8418 1379 -5166 0
8418 -1379 0
8418 5166 0
-8419 -995 5171 0
8419 995 0
8419 -5171 0
-8420 995 -5171 0
8420 -995 0
8420 5171 0
-8421 -1385 5167 0
8421 1385 0
8421 -5167 0
-8422 1385 -5167 0
8422 -1385 0
8422 5167 0
-8423 -937 5170 0
8423 937 0
8423 -5170 0
-8424 937 -5170 0
8424 -937 0
8424 5170 0
-8425 -877 5168 0
8425 877 0
8425 -5168 0
-8426 877 -5168 0
8426 -877 0
8426 5168 0
-8427 -757 5151 0
8427 757 0
8427 -5151 0
-8428 757 -5151 0
8428 -757 0
8428 5151 0
-8429 -1343 5155 0
8429 1343 0
8429 -5155 0
-8430 1343 -5155 0
8430 -1343 0
8430 5155 0
-8431 -1345 5156 0
8431 1345 0
8431 -5156 0
-8432 1345 -5156 0
8432 -1345 0
8432 5156 0
-8433 -1347 5157 0
8433 1347 0
8433 -5157 0
-8434 1347 -5157 0
8434 -1347 0
8434 5157 0
-8435 -1349 5158 0
8435 1349 0
8435 -5158 0
-8436 1349 -5158 0
8436 -1349 0
8436 5158 0
-8437 -1355 5159 0
8437 1355 0
8437 -5159 0
-8438 1355 -5159 0
8438 -1355 0
8438 5159 0
-8439 -1357 5160 0
8439 1357 0
8439 -5160 0
-8440 1357 -5160 0
8440 -1357 0
8440 5160 0
-8441 -843 5161 0
8441 843 0
8441 -5161 0
-8442 843 -5161 0
8442 -843 0
8442 5161 0
-8443 -1363 5162 0
8443 1363 0
8443 -5162 0
-8444 1363 -5162 0
8444 -1363 0
8444 5162 0
-8445 -35 36 0
8445 35 0
8445 -36 0
-8446 35 -36 0
8446 -35 0
8446 36 0
-8447 -1373 5164 0
8447 1373 0
8447 -5164 0
-8448 1373 -5164 0
8448 -1373 0
8448 5164 0
-8449 -1261 5249 0
8449 1261 0
8449 -5249 0
-8450 1261 -5249 0
8450 -1261 0
8450 5249 0
-8451 -881 5254 0
8451 881 0
8451 -5254 0
-8452 881 -5254 0
8452 -881 0
8452 5254 0
-8453 -821 5253 0
8453 821 0
8453 -5253 0
-8454 821 -5253 0
8454 -821 0
8454 5253 0
-8455 -761 5250 0
8455 761 0
8455 -5250 0
-8456 761 -5250 0
8456 -761 0
8456 5250 0
-8457 -413 5208 0
8457 413 0
8457 -5208 0
-8458 413 -5208 0
8458 -413 0
8458 5208 0
-8459 -781 5251 0
8459 781 0
8459 -5251 0
-8460 781 -5251 0
8460 -781 0
8460 5251 0
-8461 -1297 5252 0
8461 1297 0
8461 -5252 0
-8462 1297 -5252 0
8462 -1297 0
8462 5252 0
-8463 -1243 5255 0
8463 1243 0
8463 -5255 0
-8464 1243 -5255 0
8464 -1243 0
8464 5255 0
-8465 -1381 4941 0
8465 1381 0
8465 -4941 0
-8466 1381 -4941 0
8466 -1381 0
8466 4941 0
-8467 -1129 4964 0
8467 1129 0
8467 -4964 0
-8468 1129 -4964 0
8468 -1129 0
8468 4964 0
-8469 -1389 4942 0
8469 1389 0
8469 -4942 0
-8470 1389 -4942 0
8470 -1389 0
8470 4942 0
-8471 -1391 4943 0
8471 1391 0
8471 -4943 0
-8472 1391 -4943 0
8472 -1391 0
8472 4943 0
-8473 -1325 4935 0
8473 1325 0
8473 -4935 0
-8474 1325 -4935 0
8474 -1325 0
8474 4935 0
-8475 -1331 4937 0
8475 1331 0
8475 -4937 0
-8476 1331 -4937 0
8476 -1331 0
8476 4937 0
-8477 -491 4780 0
8477 491 0
8477 -4780 0
-8478 491 -4780 0
8478 -491 0
8478 4780 0
-8479 -1209 4966 0
8479 1209 0
8479 -4966 0
-8480 1209 -4966 0
8480 -1209 0
8480 4966 0
-8481 -1217 4967 0
8481 1217 0
8481 -4967 0
-8482 1217 -4967 0
8482 -1217 0
8482 4967 0
-8483 -1169 4965 0
8483 1169 0
8483 -4965 0
-8484 1169 -4965 0
8484 -1169 0
8484 4965 0
-8485 -1245 4969 0
8485 1245 0
8485 -4969 0
-8486 1245 -4969 0
8486 -1245 0
8486 4969 0
-8487 -323 5236 0
8487 323 0
8487 -5236 0
-8488 323 -5236 0
8488 -323 0
8488 5236 0
-8489 -263 5247 0
8489 263 0
8489 -5247 0
-8490 263 -5247 0
8490 -263 0
8490 5247 0
-8491 -203 5241 0
8491 203 0
8491 -5241 0
-8492 203 -5241 0
8492 -203 0
8492 5241 0
-8493 -143 5238 0
8493 143 0
8493 -5238 0
-8494 143 -5238 0
8494 -143 0
8494 5238 0
-8495 -29 5233 0
8495 29 0
8495 -5233 0
-8496 29 -5233 0
8496 -29 0
8496 5233 0
-8497 -1247 4575 0
8497 1247 0
8497 -4575 0
-8498 1247 -4575 0
8498 -1247 0
8498 4575 0
-8499 -281 4485 0
8499 281 0
8499 -4485 0
-8500 281 -4485 0
8500 -281 0
8500 4485 0
-8501 -161 4479 0
8501 161 0
8501 -4479 0
-8502 161 -4479 0
8502 -161 0
8502 4479 0
-8503 -295 4135 0
8503 295 0
8503 -4135 0
-8504 295 -4135 0
8504 -295 0
8504 4135 0
-8505 -175 4144 0
8505 175 0
8505 -4144 0
-8506 175 -4144 0
8506 -175 0
8506 4144 0
-8507 -1313 4583 0
8507 1313 0
8507 -4583 0
-8508 1313 -4583 0
8508 -1313 0
8508 4583 0
-8509 -1069 4607 0
8509 1069 0
8509 -4607 0
-8510 1069 -4607 0
8510 -1069 0
8510 4607 0
-8511 -65 4514 0
8511 65 0
8511 -4514 0
-8512 65 -4514 0
8512 -65 0
8512 4514 0
-8513 -341 4517 0
8513 341 0
8513 -4517 0
-8514 341 -4517 0
8514 -341 0
8514 4517 0
-8515 -1119 4608 0
8515 1119 0
8515 -4608 0
-8516 1119 -4608 0
8516 -1119 0
8516 4608 0
-8517 -221 4483 0
8517 221 0
8517 -4483 0
-8518 221 -4483 0
8518 -221 0
8518 4483 0
-8519 -1127 4609 0
8519 1127 0
8519 -4609 0
-8520 1127 -4609 0
8520 -1127 0
8520 4609 0
-8521 -461 4510 0
8521 461 0
8521 -4510 0
-8522 461 -4510 0
8522 -461 0
8522 4510 0
-8523 -93 4140 0
8523 93 0
8523 -4140 0
-8524 93 -4140 0
8524 -93 0
8524 4140 0
-8525 -1137 4610 0
8525 1137 0
8525 -4610 0
-8526 1137 -4610 0
8526 -1137 0
8526 4610 0
-8527 -355 4142 0
8527 355 0
8527 -4142 0
-8528 355 -4142 0
8528 -355 0
8528 4142 0
-8529 -235 4147 0
8529 235 0
8529 -4147 0
-8530 235 -4147 0
8530 -235 0
8530 4147 0
-8531 -1167 4611 0
8531 1167 0
8531 -4611 0
-8532 1167 -4611 0
8532 -1167 0
8532 4611 0
-8533 -1183 4612 0
8533 1183 0
8533 -4612 0
-8534 1183 -4612 0
8534 -1183 0
8534 4612 0
-8535 -1211 4613 0
8535 1211 0
8535 -4613 0
-8536 1211 -4613 0
8536 -1211 0
8536 4613 0
-8537 -1221 4614 0
8537 1221 0
8537 -4614 0
-8538 1221 -4614 0
8538 -1221 0
8538 4614 0
-8539 -773 5291 0
8539 773 0
8539 -5291 0
-8540 773 -5291 0
8540 -773 0
8540 5291 0
-8541 -307 4973 0
8541 307 0
8541 -4973 0
-8542 307 -4973 0
8542 -307 0
8542 4973 0
-8543 -187 4994 0
8543 187 0
8543 -4994 0
-8544 187 -4994 0
8544 -187 0
8544 4994 0
-8545 -1085 5318 0
8545 1085 0
8545 -5318 0
-8546 1085 -5318 0
8546 -1085 0
8546 5318 0
-8547 -833 5295 0
8547 833 0
8547 -5295 0
-8548 833 -5295 0
8548 -833 0
8548 5295 0
-8549 -1375 4940 0
8549 1375 0
8549 -4940 0
-8550 1375 -4940 0
8550 -1375 0
8550 4940 0
-8551 -1141 5319 0
8551 1141 0
8551 -5319 0
-8552 1141 -5319 0
8552 -1141 0
8552 5319 0
-8553 -893 5298 0
8553 893 0
8553 -5298 0
-8554 893 -5298 0
8554 -893 0
8554 5298 0
-8555 -367 4996 0
8555 367 0
8555 -4996 0
-8556 367 -4996 0
8556 -367 0
8556 4996 0
-8557 -115 4988 0
8557 115 0
8557 -4988 0
-8558 115 -4988 0
8558 -115 0
8558 4988 0
-8559 -247 5001 0
8559 247 0
8559 -5001 0
-8560 247 -5001 0
8560 -247 0
8560 5001 0
-8561 -1179 5320 0
8561 1179 0
8561 -5320 0
-8562 1179 -5320 0
8562 -1179 0
8562 5320 0
-8563 -1203 5321 0
8563 1203 0
8563 -5321 0
-8564 1203 -5321 0
8564 -1203 0
8564 5321 0
-8565 -1225 5322 0
8565 1225 0
8565 -5322 0
-8566 1225 -5322 0
8566 -1225 0
8566 5322 0
-8567 -737 5324 0
8567 737 0
8567 -5324 0
-8568 737 -5324 0
8568 -737 0
8568 5324 0
-8569 -1251 3543 0
8569 1251 0
8569 -3543 0
-8570 1251 -3543 0
8570 -1251 0
8570 3543 0
-8571 -3 4 0
8571 3 0
8571 -4 0
-8572 3 -4 0
8572 -3 0
8572 4 0
-8573 -7 8 0
8573 7 0
8573 -8 0
-8574 7 -8 0
8574 -7 0
8574 8 0
-8575 -11 12 0
8575 11 0
8575 -12 0
-8576 11 -12 0
8576 -11 0
8576 12 0
-8577 -1269 5325 0
8577 1269 0
8577 -5325 0
-8578 1269 -5325 0
8578 -1269 0
8578 5325 0
-8579 -15 16 0
8579 15 0
8579 -16 0
-8580 15 -16 0
8580 -15 0
8580 16 0
-8581 -765 5326 0
8581 765 0
8581 -5326 0
-8582 765 -5326 0
8582 -765 0
8582 5326 0
-8583 -19 20 0
8583 19 0
8583 -20 0
-8584 19 -20 0
8584 -19 0
8584 20 0
-8585 -1285 5327 0
8585 1285 0
8585 -5327 0
-8586 1285 -5327 0
8586 -1285 0
8586 5327 0
-8587 -299 4429 0
8587 299 0
8587 -4429 0
-8588 299 -4429 0
8588 -299 0
8588 4429 0
-8589 -1299 5328 0
8589 1299 0
8589 -5328 0
-8590 1299 -5328 0
8590 -1299 0
8590 5328 0
-8591 -787 5329 0
8591 787 0
8591 -5329 0
-8592 787 -5329 0
8592 -787 0
8592 5329 0
-8593 -1305 5330 0
8593 1305 0
8593 -5330 0
-8594 1305 -5330 0
8594 -1305 0
8594 5330 0
-8595 -1307 5331 0
8595 1307 0
8595 -5331 0
-8596 1307 -5331 0
8596 -1307 0
8596 5331 0
-8597 -37 5077 0
8597 37 0
8597 -5077 0
-8598 37 -5077 0
8598 -37 0
8598 5077 0
-8599 -1311 5332 0
8599 1311 0
8599 -5332 0
-8600 1311 -5332 0
8600 -1311 0
8600 5332 0
-8601 -797 5333 0
8601 797 0
8601 -5333 0
-8602 797 -5333 0
8602 -797 0
8602 5333 0
-8603 -1321 5334 0
8603 1321 0
8603 -5334 0
-8604 1321 -5334 0
8604 -1321 0
8604 5334 0
-8605 -1323 5335 0
8605 1323 0
8605 -5335 0
-8606 1323 -5335 0
8606 -1323 0
8606 5335 0
-8607 -1329 5336 0
8607 1329 0
8607 -5336 0
-8608 1329 -5336 0
8608 -1329 0
8608 5336 0
-8609 -1333 5337 0
8609 1333 0
8609 -5337 0
-8610 1333 -5337 0
8610 -1333 0
8610 5337 0
-8611 -1335 5338 0
8611 1335 0
8611 -5338 0
-8612 1335 -5338 0
8612 -1335 0
8612 5338 0
-8613 -1337 5339 0
8613 1337 0
8613 -5339 0
-8614 1337 -5339 0
8614 -1337 0
8614 5339 0
-8615 -825 5340 0
8615 825 0
8615 -5340 0
-8616 825 -5340 0
8616 -825 0
8616 5340 0
-8617 -1341 5341 0
8617 1341 0
8617 -5341 0
-8618 1341 -5341 0
8618 -1341 0
8618 5341 0
-8619 -327 5083 0
8619 327 0
8619 -5083 0
-8620 327 -5083 0
8620 -327 0
8620 5083 0
-8621 -1351 5342 0
8621 1351 0
8621 -5342 0
-8622 1351 -5342 0
8622 -1351 0
8622 5342 0
-8623 -1359 5343 0
8623 1359 0
8623 -5343 0
-8624 1359 -5343 0
8624 -1359 0
8624 5343 0
-8625 -847 5344 0
8625 847 0
8625 -5344 0
-8626 847 -5344 0
8626 -847 0
8626 5344 0
-8627 -1367 5345 0
8627 1367 0
8627 -5345 0
-8628 1367 -5345 0
8628 -1367 0
8628 5345 0
-8629 -1369 5346 0
8629 1369 0
8629 -5346 0
-8630 1369 -5346 0
8630 -1369 0
8630 5346 0
-8631 -857 5347 0
8631 857 0
8631 -5347 0
-8632 857 -5347 0
8632 -857 0
8632 5347 0
-8633 -91 92 0
8633 91 0
8633 -92 0
-8634 91 -92 0
8634 -91 0
8634 92 0
-8635 -885 5348 0
8635 885 0
8635 -5348 0
-8636 885 -5348 0
8636 -885 0
8636 5348 0
-8637 -99 100 0
8637 99 0
8637 -100 0
-8638 99 -100 0
8638 -99 0
8638 100 0
-8639 -101 4427 0
8639 101 0
8639 -4427 0
-8640 101 -4427 0
8640 -101 0
8640 4427 0
-8641 -359 4431 0
8641 359 0
8641 -4431 0
-8642 359 -4431 0
8642 -359 0
8642 4431 0
-8643 -907 5349 0
8643 907 0
8643 -5349 0
-8644 907 -5349 0
8644 -907 0
8644 5349 0
-8645 -111 112 0
8645 111 0
8645 -112 0
-8646 111 -112 0
8646 -111 0
8646 112 0
-8647 -917 5350 0
8647 917 0
8647 -5350 0
-8648 917 -5350 0
8648 -917 0
8648 5350 0
-8649 -945 5351 0
8649 945 0
8649 -5351 0
-8650 945 -5351 0
8650 -945 0
8650 5351 0
-8651 -953 5352 0
8651 953 0
8651 -5352 0
-8652 953 -5352 0
8652 -953 0
8652 5352 0
-8653 -147 5091 0
8653 147 0
8653 -5091 0
-8654 147 -5091 0
8654 -147 0
8654 5091 0
-8655 -975 5353 0
8655 975 0
8655 -5353 0
-8656 975 -5353 0
8656 -975 0
8656 5353 0
-8657 -1003 5354 0
8657 1003 0
8657 -5354 0
-8658 1003 -5354 0
8658 -1003 0
8658 5354 0
-8659 -1011 5355 0
8659 1011 0
8659 -5355 0
-8660 1011 -5355 0
8660 -1011 0
8660 5355 0
-8661 -1025 5356 0
8661 1025 0
8661 -5356 0
-8662 1025 -5356 0
8662 -1025 0
8662 5356 0
-8663 -1027 5357 0
8663 1027 0
8663 -5357 0
-8664 1027 -5357 0
8664 -1027 0
8664 5357 0
-8665 -1029 5358 0
8665 1029 0
8665 -5358 0
-8666 1029 -5358 0
8666 -1029 0
8666 5358 0
-8667 -1031 5359 0
8667 1031 0
8667 -5359 0
-8668 1031 -5359 0
8668 -1031 0
8668 5359 0
-8669 -1033 5360 0
8669 1033 0
8669 -5360 0
-8670 1033 -5360 0
8670 -1033 0
8670 5360 0
-8671 -1035 5361 0
8671 1035 0
8671 -5361 0
-8672 1035 -5361 0
8672 -1035 0
8672 5361 0
-8673 -179 4423 0
8673 179 0
8673 -4423 0
-8674 179 -4423 0
8674 -179 0
8674 4423 0
-8675 -1037 5362 0
8675 1037 0
8675 -5362 0
-8676 1037 -5362 0
8676 -1037 0
8676 5362 0
-8677 -1039 5363 0
8677 1039 0
8677 -5363 0
-8678 1039 -5363 0
8678 -1039 0
8678 5363 0
-8679 -1041 5364 0
8679 1041 0
8679 -5364 0
-8680 1041 -5364 0
8680 -1041 0
8680 5364 0
-8681 -1043 5365 0
8681 1043 0
8681 -5365 0
-8682 1043 -5365 0
8682 -1043 0
8682 5365 0
-8683 -1045 5366 0
8683 1045 0
8683 -5366 0
-8684 1045 -5366 0
8684 -1045 0
8684 5366 0
-8685 -1047 5367 0
8685 1047 0
8685 -5367 0
-8686 1047 -5367 0
8686 -1047 0
8686 5367 0
-8687 -1049 5368 0
8687 1049 0
8687 -5368 0
-8688 1049 -5368 0
8688 -1049 0
8688 5368 0
-8689 -1051 5369 0
8689 1051 0
8689 -5369 0
-8690 1051 -5369 0
8690 -1051 0
8690 5369 0
-8691 -1053 5370 0
8691 1053 0
8691 -5370 0
-8692 1053 -5370 0
8692 -1053 0
8692 5370 0
-8693 -1055 5371 0
8693 1055 0
8693 -5371 0
-8694 1055 -5371 0
8694 -1055 0
8694 5371 0
-8695 -1059 5372 0
8695 1059 0
8695 -5372 0
-8696 1059 -5372 0
8696 -1059 0
8696 5372 0
-8697 -1077 5373 0
8697 1077 0
8697 -5373 0
-8698 1077 -5373 0
8698 -1077 0
8698 5373 0
-8699 -1081 5374 0
8699 1081 0
8699 -5374 0
-8700 1081 -5374 0
8700 -1081 0
8700 5374 0
-8701 -207 5093 0
8701 207 0
8701 -5093 0
-8702 207 -5093 0
8702 -207 0
8702 5093 0
-8703 -1103 5375 0
8703 1103 0
8703 -5375 0
-8704 1103 -5375 0
8704 -1103 0
8704 5375 0
-8705 -455 5030 0
8705 455 0
8705 -5030 0
-8706 455 -5030 0
8706 -455 0
8706 5030 0
-8707 -1121 5376 0
8707 1121 0
8707 -5376 0
-8708 1121 -5376 0
8708 -1121 0
8708 5376 0
-8709 -1135 5377 0
8709 1135 0
8709 -5377 0
-8710 1135 -5377 0
8710 -1135 0
8710 5377 0
-8711 -465 3999 0
8711 465 0
8711 -3999 0
-8712 465 -3999 0
8712 -465 0
8712 3999 0
-8713 -1139 5378 0
8713 1139 0
8713 -5378 0
-8714 1139 -5378 0
8714 -1139 0
8714 5378 0
-8715 -1153 5379 0
8715 1153 0
8715 -5379 0
-8716 1153 -5379 0
8716 -1153 0
8716 5379 0
-8717 -1159 5380 0
8717 1159 0
8717 -5380 0
-8718 1159 -5380 0
8718 -1159 0
8718 5380 0
-8719 -239 4425 0
8719 239 0
8719 -4425 0
-8720 239 -4425 0
8720 -239 0
8720 4425 0
-8721 -1173 5381 0
8721 1173 0
8721 -5381 0
-8722 1173 -5381 0
8722 -1173 0
8722 5381 0
-8723 -1177 5382 0
8723 1177 0
8723 -5382 0
-8724 1177 -5382 0
8724 -1177 0
8724 5382 0
-8725 -1199 5383 0
8725 1199 0
8725 -5383 0
-8726 1199 -5383 0
8726 -1199 0
8726 5383 0
-8727 -1201 5384 0
8727 1201 0
8727 -5384 0
-8728 1201 -5384 0
8728 -1201 0
8728 5384 0
-8729 -1219 5385 0
8729 1219 0
8729 -5385 0
-8730 1219 -5385 0
8730 -1219 0
8730 5385 0
-8731 -267 5100 0
8731 267 0
8731 -5100 0
-8732 267 -5100 0
8732 -267 0
8732 5100 0
-8733 -1223 5386 0
8733 1223 0
8733 -5386 0
-8734 1223 -5386 0
8734 -1223 0
8734 5386 0
-8735 -727 5387 0
8735 727 0
8735 -5387 0
-8736 727 -5387 0
8736 -727 0
8736 5387 0
-8737 -1 2 0
8737 1 0
8737 -2 0
-8738 1 -2 0
8738 -1 0
8738 2 0
5388 0
5389 0
5390 0
5391 0
5392 0
5393 0
5394 0
5395 0
5396 0
5397 0
5398 0
5399 0
5400 0
5401 0
5402 0
5403 0
5404 0
5405 0
5406 0
5407 0
5408 0
5409 0
5410 0
5411 0
5412 0
5413 0
5414 0
5415 0
5416 0
5417 0
5418 0
5419 0
5420 0
5421 0
5422 0
5423 0
5424 0
5425 0
5426 0
5427 0
5428 0
5429 0
5430 0
5431 0
5432 0
5433 0
5434 0
5435 0
5436 0
5437 0
5438 0
5439 0
5440 0
5441 0
5442 0
5443 0
5444 0
5445 0
5446 0
5447 0
5448 0
5449 0
5450 0
5451 0
5452 0
5453 0
5454 0
5455 0
5456 0
5457 0
5458 0
5459 0
5460 0
5461 0
5462 0
5463 0
5464 0
5465 0
5466 0
5467 0
5468 0
5469 0
5470 0
5471 0
5472 0
5473 0
5474 0
5475 0
5476 0
5477 0
5478 0
5479 0
5480 0
5481 0
5482 0
5483 0
5484 0
5485 0
5486 0
5487 0
5488 0
5489 0
5490 0
5491 0
5492 0
5493 0
5494 0
5495 0
5496 0
5497 0
5498 0
5499 0
5500 0
5501 0
5502 0
5503 0
5504 0
5505 0
5506 0
5507 0
5508 0
5509 0
5510 0
5511 0
5512 0
5513 0
5514 0
5515 0
5516 0
5517 0
5518 0
5519 0
5520 0
5521 0
5522 0
5523 0
5524 0
5525 0
5526 0
5527 0
5528 0
5529 0
5530 0
5531 0
5532 0
5533 0
5534 0
5535 0
5536 0
5537 0
5538 0
5539 0
5540 0
5541 0
5542 0
5543 0
5544 0
5545 0
5546 0
5547 0
5548 0
5549 0
5550 0
5551 0
5552 0
5553 0
5554 0
5555 0
5556 0
5557 0
5558 0
5559 0
5560 0
5561 0
5562 0
5563 0
5564 0
5565 0
5566 0
5567 0
5568 0
5569 0
5570 0
5571 0
5572 0
5573 0
5574 0
5575 0
5576 0
5577 0
5578 0
5579 0
5580 0
5581 0
5582 0
5583 0
5584 0
5585 0
5586 0
5587 0
5588 0
5589 0
5590 0
5591 0
5592 0
5593 0
5594 0
5595 0
5596 0
5597 0
5598 0
5599 0
5600 0
5601 0
5602 0
5603 0
5604 0
5605 0
5606 0
5607 0
5608 0
5609 0
5610 0
5611 0
5612 0
5613 0
5614 0
5615 0
5616 0
5617 0
5618 0
5619 0
5620 0
5621 0
5622 0
5623 0
5624 0
5625 0
5626 0
5627 0
5628 0
5629 0
5630 0
5631 0
5632 0
5633 0
5634 0
5635 0
5636 0
5637 0
5638 0
5639 0
5640 0
5641 0
5642 0
5643 0
5644 0
5645 0
5646 0
5647 0
5648 0
5649 0
5650 0
5651 0
5652 0
5653 0
5654 0
5655 0
5656 0
5657 0
5658 0
5659 0
5660 0
5661 0
5662 0
5663 0
5664 0
5665 0
5666 0
5667 0
5668 0
5669 0
5670 0
5671 0
5672 0
5673 0
5674 0
5675 0
5676 0
5677 0
5678 0
5679 0
5680 0
5681 0
5682 0
5683 0
5684 0
5685 0
5686 0
5687 0
5688 0
5689 0
5690 0
5691 0
5692 0
5693 0
5694 0
5695 0
5696 0
5697 0
5698 0
5699 0
5700 0
5701 0
5702 0
5703 0
5704 0
5705 0
5706 0
5707 0
5708 0
5709 0
5710 0
5711 0
5712 0
5713 0
5714 0
5715 0
5716 0
5717 0
5718 0
5719 0
5720 0
5721 0
5722 0
5723 0
5724 0
5725 0
5726 0
5727 0
5728 0
5729 0
5730 0
5731 0
5732 0
5733 0
5734 0
5735 0
5736 0
5737 0
5738 0
5739 0
5740 0
5741 0
5742 0
5743 0
5744 0
5745 0
5746 0
5747 0
5748 0
5749 0
5750 0
5751 0
5752 0
5753 0
5754 0
5755 0
5756 0
5757 0
5758 0
5759 0
5760 0
5761 0
5762 0
5763 0
5764 0
5765 0
5766 0
5767 0
5768 0
5769 0
5770 0
5771 0
5772 0
5773 0
5774 0
5775 0
5776 0
5777 0
5778 0
5779 0
5780 0
5781 0
5782 0
5783 0
5784 0
5785 0
5786 0
5787 0
5788 0
5789 0
5790 0
5791 0
5792 0
5793 0
5794 0
5795 0
5796 0
5797 0
5798 0
5799 0
5800 0
5801 0
5802 0
5803 0
5804 0
5805 0
5806 0
5807 0
5808 0
5809 0
5810 0
5811 0
5812 0
5813 0
5814 0
5815 0
5816 0
5817 0
5818 0
5819 0
5820 0
5821 0
5822 0
5823 0
5824 0
5825 0
5826 0
5827 0
5828 0
5829 0
5830 0
5831 0
5832 0
5833 0
5834 0
5835 0
5836 0
5837 0
5838 0
5839 0
5840 0
5841 0
5842 0
5843 0
5844 0
5845 0
5846 0
5847 0
5848 0
5849 0
5850 0
5851 0
5852 0
5853 0
5854 0
5855 0
5856 0
5857 0
5858 0
5859 0
5860 0
5861 0
5862 0
5863 0
5864 0
5865 0
5866 0
5867 0
5868 0
5869 0
5870 0
5871 0
5872 0
5873 0
5874 0
5875 0
5876 0
5877 0
5878 0
5879 0
5880 0
5881 0
5882 0
5883 0
5884 0
5885 0
5886 0
5887 0
5888 0
5889 0
5890 0
5891 0
5892 0
5893 0
5894 0
5895 0
5896 0
5897 0
5898 0
5899 0
5900 0
5901 0
5902 0
5903 0
5904 0
5905 0
5906 0
5907 0
5908 0
5909 0
5910 0
5911 0
5912 0
5913 0
5914 0
5915 0
5916 0
5917 0
5918 0
5919 0
5920 0
5921 0
5922 0
5923 0
5924 0
5925 0
5926 0
5927 0
5928 0
5929 0
5930 0
5931 0
5932 0
5933 0
5934 0
5935 0
5936 0
5937 0
5938 0
5939 0
5940 0
5941 0
5942 0
5943 0
5944 0
5945 0
5946 0
5947 0
5948 0
5949 0
5950 0
5951 0
5952 0
5953 0
5954 0
5955 0
5956 0
5957 0
5958 0
5959 0
5960 0
5961 0
5962 0
5963 0
5964 0
5965 0
5966 0
5967 0
5968 0
5969 0
5970 0
5971 0
5972 0
5973 0
5974 0
5975 0
5976 0
5977 0
5978 0
5979 0
5980 0
5981 0
5982 0
5983 0
5984 0
5985 0
5986 0
5987 0
5988 0
5989 0
5990 0
5991 0
5992 0
5993 0
5994 0
5995 0
5996 0
5997 0
5998 0
5999 0
6000 0
6001 0
6002 0
6003 0
6004 0
6005 0
6006 0
6007 0
6008 0
6009 0
6010 0
6011 0
6012 0
6013 0
6014 0
6015 0
6016 0
6017 0
6018 0
6019 0
6020 0
6021 0
6022 0
6023 0
6024 0
6025 0
6026 0
6027 0
6028 0
6029 0
6030 0
6031 0
6032 0
6033 0
6034 0
6035 0
6036 0
6037 0
6038 0
6039 0
6040 0
6041 0
6042 0
6043 0
6044 0
6045 0
6046 0
6047 0
6048 0
6049 0
6050 0
6051 0
6052 0
6053 0
6054 0
6055 0
6056 0
6057 0
6058 0
6059 0
6060 0
6061 0
6062 0
6063 0
6064 0
6065 0
6066 0
6067 0
6068 0
6069 0
6070 0
6071 0
6072 0
6073 0
6074 0
6075 0
6076 0
6077 0
6078 0
6079 0
6080 0
6081 0
6082 0
6083 0
6084 0
6085 0
6086 0
6087 0
6088 0
6089 0
6090 0
6091 0
6092 0
6093 0
6094 0
6095 0
6096 0
6097 0
6098 0
6099 0
6100 0
6101 0
6102 0
6103 0
6104 0
6105 0
6106 0
6107 0
6108 0
6109 0
6110 0
6111 0
6112 0
6113 0
6114 0
6115 0
6116 0
6117 0
6118 0
6119 0
6120 0
6121 0
6122 0
6123 0
6124 0
6125 0
6126 0
6127 0
6128 0
6129 0
6130 0
6131 0
6132 0
6133 0
6134 0
6135 0
6136 0
6137 0
6138 0
6139 0
6140 0
6141 0
6142 0
6143 0
6144 0
6145 0
6146 0
6147 0
6148 0
6149 0
6150 0
6151 0
6152 0
6153 0
6154 0
6155 0
6156 0
6157 0
6158 0
6159 0
6160 0
6161 0
6162 0
6163 0
6164 0
6165 0
6166 0
6167 0
6168 0
6169 0
6170 0
6171 0
6172 0
6173 0
6174 0
6175 0
6176 0
6177 0
6178 0
6179 0
6180 0
6181 0
6182 0
6183 0
6184 0
6185 0
6186 0
6187 0
6188 0
6189 0
6190 0
6191 0
6192 0
6193 0
6194 0
6195 0
6196 0
6197 0
6198 0
6199 0
6200 0
6201 0
6202 0
6203 0
6204 0
6205 0
6206 0
6207 0
6208 0
6209 0
6210 0
6211 0
6212 0
6213 0
6214 0
6215 0
6216 0
6217 0
6218 0
6219 0
6220 0
6221 0
6222 0
6223 0
6224 0
6225 0
6226 0
6227 0
6228 0
6229 0
6230 0
6231 0
6232 0
6233 0
6234 0
6235 0
6236 0
6237 0
6238 0
6239 0
6240 0
6241 0
6242 0
6243 0
6244 0
6245 0
6246 0
6247 0
6248 0
6249 0
6250 0
6251 0
6252 0
6253 0
6254 0
6255 0
6256 0
6257 0
6258 0
6259 0
6260 0
6261 0
6262 0
6263 0
6264 0
6265 0
6266 0
6267 0
6268 0
6269 0
6270 0
6271 0
6272 0
6273 0
6274 0
6275 0
6276 0
6277 0
6278 0
6279 0
6280 0
6281 0
6282 0
6283 0
6284 0
6285 0
6286 0
6287 0
6288 0
6289 0
6290 0
6291 0
6292 0
6293 0
6294 0
6295 0
6296 0
6297 0
6298 0
6299 0
6300 0
6301 0
6302 0
6303 0
6304 0
6305 0
6306 0
6307 0
6308 0
6309 0
6310 0
6311 0
6312 0
6313 0
6314 0
6315 0
6316 0
6317 0
6318 0
6319 0
6320 0
6321 0
6322 0
6323 0
6324 0
6325 0
6326 0
6327 0
6328 0
6329 0
6330 0
6331 0
6332 0
6333 0
6334 0
6335 0
6336 0
6337 0
6338 0
6339 0
6340 0
6341 0
6342 0
6343 0
6344 0
6345 0
6346 0
6347 0
6348 0
6349 0
6350 0
6351 0
6352 0
6353 0
6354 0
6355 0
6356 0
6357 0
6358 0
6359 0
6360 0
6361 0
6362 0
6363 0
6364 0
6365 0
6366 0
6367 0
6368 0
6369 0
6370 0
6371 0
6372 0
6373 0
6374 0
6375 0
6376 0
6377 0
6378 0
6379 0
6380 0
6381 0
6382 0
6383 0
6384 0
6385 0
6386 0
6387 0
6388 0
6389 0
6390 0
6391 0
6392 0
6393 0
6394 0
6395 0
6396 0
6397 0
6398 0
6399 0
6400 0
6401 0
6402 0
6403 0
6404 0
6405 0
6406 0
6407 0
6408 0
6409 0
6410 0
6411 0
6412 0
6413 0
6414 0
6415 0
6416 0
6417 0
6418 0
6419 0
6420 0
6421 0
6422 0
6423 0
6424 0
6425 0
6426 0
6427 0
6428 0
6429 0
6430 0
6431 0
6432 0
6433 0
6434 0
6435 0
6436 0
6437 0
6438 0
6439 0
6440 0
6441 0
6442 0
6443 0
6444 0
6445 0
6446 0
6447 0
6448 0
6449 0
6450 0
6451 0
6452 0
6453 0
6454 0
6455 0
6456 0
6457 0
6458 0
6459 0
6460 0
6461 0
6462 0
6463 0
6464 0
6465 0
6466 0
6467 0
6468 0
6469 0
6470 0
6471 0
6472 0
6473 0
6474 0
6475 0
6476 0
6477 0
6478 0
6479 0
6480 0
6481 0
6482 0
6483 0
6484 0
6485 0
6486 0
6487 0
6488 0
6489 0
6490 0
6491 0
6492 0
6493 0
6494 0
6495 0
6496 0
6497 0
6498 0
6499 0
6500 0
6501 0
6502 0
6503 0
6504 0
6505 0
6506 0
6507 0
6508 0
6509 0
6510 0
6511 0
6512 0
6513 0
6514 0
6515 0
6516 0
6517 0
6518 0
6519 0
6520 0
6521 0
6522 0
6523 0
6524 0
6525 0
6526 0
6527 0
6528 0
6529 0
6530 0
6531 0
6532 0
6533 0
6534 0
6535 0
6536 0
6537 0
6538 0
6539 0
6540 0
6541 0
6542 0
6543 0
6544 0
6545 0
6546 0
6547 0
6548 0
6549 0
6550 0
6551 0
6552 0
6553 0
6554 0
6555 0
6556 0
6557 0
6558 0
6559 0
6560 0
6561 0
6562 0
6563 0
6564 0
6565 0
6566 0
6567 0
6568 0
6569 0
6570 0
6571 0
6572 0
6573 0
6574 0
6575 0
6576 0
6577 0
6578 0
6579 0
6580 0
6581 0
6582 0
6583 0
6584 0
6585 0
6586 0
6587 0
6588 0
6589 0
6590 0
6591 0
6592 0
6593 0
6594 0
6595 0
6596 0
6597 0
6598 0
6599 0
6600 0
6601 0
6602 0
6603 0
6604 0
6605 0
6606 0
6607 0
6608 0
6609 0
6610 0
6611 0
6612 0
6613 0
6614 0
6615 0
6616 0
6617 0
6618 0
6619 0
6620 0
6621 0
6622 0
6623 0
6624 0
6625 0
6626 0
6627 0
6628 0
6629 0
6630 0
6631 0
6632 0
6633 0
6634 0
6635 0
6636 0
6637 0
6638 0
6639 0
6640 0
6641 0
6642 0
6643 0
6644 0
6645 0
6646 0
6647 0
6648 0
6649 0
6650 0
6651 0
6652 0
6653 0
6654 0
6655 0
6656 0
6657 0
6658 0
6659 0
6660 0
6661 0
6662 0
6663 0
6664 0
6665 0
6666 0
6667 0
6668 0
6669 0
6670 0
6671 0
6672 0
6673 0
6674 0
6675 0
6676 0
6677 0
6678 0
6679 0
6680 0
6681 0
6682 0
6683 0
6684 0
6685 0
6686 0
6687 0
6688 0
6689 0
6690 0
6691 0
6692 0
6693 0
6694 0
6695 0
6696 0
6697 0
6698 0
6699 0
6700 0
6701 0
6702 0
6703 0
6704 0
6705 0
6706 0
6707 0
6708 0
6709 0
6710 0
6711 0
6712 0
6713 0
6714 0
6715 0
6716 0
6717 0
6718 0
6719 0
6720 0
6721 0
6722 0
6723 0
6724 0
6725 0
6726 0
6727 0
6728 0
6729 0
6730 0
6731 0
6732 0
6733 0
6734 0
6735 0
6736 0
6737 0
6738 0
6739 0
6740 0
6741 0
6742 0
6743 0
6744 0
6745 0
6746 0
6747 0
6748 0
6749 0
6750 0
6751 0
6752 0
6753 0
6754 0
6755 0
6756 0
6757 0
6758 0
6759 0
6760 0
6761 0
6762 0
6763 0
6764 0
6765 0
6766 0
6767 0
6768 0
6769 0
6770 0
6771 0
6772 0
6773 0
6774 0
6775 0
6776 0
6777 0
6778 0
6779 0
6780 0
6781 0
6782 0
6783 0
6784 0
6785 0
6786 0
6787 0
6788 0
6789 0
6790 0
6791 0
6792 0
6793 0
6794 0
6795 0
6796 0
6797 0
6798 0
6799 0
6800 0
6801 0
6802 0
6803 0
6804 0
6805 0
6806 0
6807 0
6808 0
6809 0
6810 0
6811 0
6812 0
6813 0
6814 0
6815 0
6816 0
6817 0
6818 0
6819 0
6820 0
6821 0
6822 0
6823 0
6824 0
6825 0
6826 0
6827 0
6828 0
6829 0
6830 0
6831 0
6832 0
6833 0
6834 0
6835 0
6836 0
6837 0
6838 0
6839 0
6840 0
6841 0
6842 0
6843 0
6844 0
6845 0
6846 0
6847 0
6848 0
6849 0
6850 0
6851 0
6852 0
6853 0
6854 0
6855 0
6856 0
6857 0
6858 0
6859 0
6860 0
6861 0
6862 0
6863 0
6864 0
6865 0
6866 0
6867 0
6868 0
6869 0
6870 0
6871 0
6872 0
6873 0
6874 0
6875 0
6876 0
6877 0
6878 0
6879 0
6880 0
6881 0
6882 0
6883 0
6884 0
6885 0
6886 0
6887 0
6888 0
6889 0
6890 0
6891 0
6892 0
6893 0
6894 0
6895 0
6896 0
6897 0
6898 0
6899 0
6900 0
6901 0
6902 0
6903 0
6904 0
6905 0
6906 0
6907 0
6908 0
6909 0
6910 0
6911 0
6912 0
6913 0
6914 0
6915 0
6916 0
6917 0
6918 0
6919 0
6920 0
6921 0
6922 0
6923 0
6924 0
6925 0
6926 0
6927 0
6928 0
6929 0
6930 0
6931 0
6932 0
6933 0
6934 0
6935 0
6936 0
6937 0
6938 0
6939 0
6940 0
6941 0
6942 0
6943 0
6944 0
6945 0
6946 0
6947 0
6948 0
6949 0
6950 0
6951 0
6952 0
6953 0
6954 0
6955 0
6956 0
6957 0
6958 0
6959 0
6960 0
6961 0
6962 0
6963 0
6964 0
6965 0
6966 0
6967 0
6968 0
6969 0
6970 0
6971 0
6972 0
6973 0
6974 0
6975 0
6976 0
6977 0
6978 0
6979 0
6980 0
6981 0
6982 0
6983 0
6984 0
6985 0
6986 0
6987 0
6988 0
6989 0
6990 0
6991 0
6992 0
6993 0
6994 0
6995 0
6996 0
6997 0
6998 0
6999 0
7000 0
7001 0
7002 0
7003 0
7004 0
7005 0
7006 0
7007 0
7008 0
7009 0
7010 0
7011 0
7012 0
7013 0
7014 0
7015 0
7016 0
7017 0
7018 0
7019 0
7020 0
7021 0
7022 0
7023 0
7024 0
7025 0
7026 0
7027 0
7028 0
7029 0
7030 0
7031 0
7032 0
7033 0
7034 0
7035 0
7036 0
7037 0
7038 0
7039 0
7040 0
7041 0
7042 0
7043 0
7044 0
7045 0
7046 0
7047 0
7048 0
7049 0
7050 0
7051 0
7052 0
7053 0
7054 0
7055 0
7056 0
7057 0
7058 0
7059 0
7060 0
7061 0
7062 0
7063 0
7064 0
7065 0
7066 0
7067 0
7068 0
7069 0
7070 0
7071 0
7072 0
7073 0
7074 0
7075 0
7076 0
7077 0
7078 0
7079 0
7080 0
7081 0
7082 0
7083 0
7084 0
7085 0
7086 0
7087 0
7088 0
7089 0
7090 0
7091 0
7092 0
7093 0
7094 0
7095 0
7096 0
7097 0
7098 0
7099 0
7100 0
7101 0
7102 0
7103 0
7104 0
7105 0
7106 0
7107 0
7108 0
7109 0
7110 0
7111 0
7112 0
7113 0
7114 0
7115 0
7116 0
7117 0
7118 0
7119 0
7120 0
7121 0
7122 0
7123 0
7124 0
7125 0
7126 0
7127 0
7128 0
7129 0
7130 0
7131 0
7132 0
7133 0
7134 0
7135 0
7136 0
7137 0
7138 0
7139 0
7140 0
7141 0
7142 0
7143 0
7144 0
7145 0
7146 0
7147 0
7148 0
7149 0
7150 0
7151 0
7152 0
7153 0
7154 0
7155 0
7156 0
7157 0
7158 0
7159 0
7160 0
7161 0
7162 0
7163 0
7164 0
7165 0
7166 0
7167 0
7168 0
7169 0
7170 0
7171 0
7172 0
7173 0
7174 0
7175 0
7176 0
7177 0
7178 0
7179 0
7180 0
7181 0
7182 0
7183 0
7184 0
7185 0
7186 0
7187 0
7188 0
7189 0
7190 0
7191 0
7192 0
7193 0
7194 0
7195 0
7196 0
7197 0
7198 0
7199 0
7200 0
7201 0
7202 0
7203 0
7204 0
7205 0
7206 0
7207 0
7208 0
7209 0
7210 0
7211 0
7212 0
7213 0
7214 0
7215 0
7216 0
7217 0
7218 0
7219 0
7220 0
7221 0
7222 0
7223 0
7224 0
7225 0
7226 0
7227 0
7228 0
7229 0
7230 0
7231 0
7232 0
7233 0
7234 0
7235 0
7236 0
7237 0
7238 0
7239 0
7240 0
7241 0
7242 0
7243 0
7244 0
7245 0
7246 0
7247 0
7248 0
7249 0
7250 0
7251 0
7252 0
7253 0
7254 0
7255 0
7256 0
7257 0
7258 0
7259 0
7260 0
7261 0
7262 0
7263 0
7264 0
7265 0
7266 0
7267 0
7268 0
7269 0
7270 0
7271 0
7272 0
7273 0
7274 0
7275 0
7276 0
7277 0
7278 0
7279 0
7280 0
7281 0
7282 0
7283 0
7284 0
7285 0
7286 0
7287 0
7288 0
7289 0
7290 0
7291 0
7292 0
7293 0
7294 0
7295 0
7296 0
7297 0
7298 0
7299 0
7300 0
7301 0
7302 0
7303 0
7304 0
7305 0
7306 0
7307 0
7308 0
7309 0
7310 0
7311 0
7312 0
7313 0
7314 0
7315 0
7316 0
7317 0
7318 0
7319 0
7320 0
7321 0
7322 0
7323 0
7324 0
7325 0
7326 0
7327 0
7328 0
7329 0
7330 0
7331 0
7332 0
7333 0
7334 0
7335 0
7336 0
7337 0
7338 0
7339 0
7340 0
7341 0
7342 0
7343 0
7344 0
7345 0
7346 0
7347 0
7348 0
7349 0
7350 0
7351 0
7352 0
7353 0
7354 0
7355 0
7356 0
7357 0
7358 0
7359 0
7360 0
7361 0
7362 0
7363 0
7364 0
7365 0
7366 0
7367 0
7368 0
7369 0
7370 0
7371 0
7372 0
7373 0
7374 0
7375 0
7376 0
7377 0
7378 0
7379 0
7380 0
7381 0
7382 0
7383 0
7384 0
7385 0
7386 0
7387 0
7388 0
7389 0
7390 0
7391 0
7392 0
7393 0
7394 0
7395 0
7396 0
7397 0
7398 0
7399 0
7400 0
7401 0
7402 0
7403 0
7404 0
7405 0
7406 0
7407 0
7408 0
7409 0
7410 0
7411 0
7412 0
7413 0
7414 0
7415 0
7416 0
7417 0
7418 0
7419 0
7420 0
7421 0
7422 0
7423 0
7424 0
7425 0
7426 0
7427 0
7428 0
7429 0
7430 0
7431 0
7432 0
7433 0
7434 0
7435 0
7436 0
7437 0
7438 0
7439 0
7440 0
7441 0
7442 0
7443 0
7444 0
7445 0
7446 0
7447 0
7448 0
7449 0
7450 0
7451 0
7452 0
7453 0
7454 0
7455 0
7456 0
7457 0
7458 0
7459 0
7460 0
7461 0
7462 0
7463 0
7464 0
7465 0
7466 0
7467 0
7468 0
7469 0
7470 0
7471 0
7472 0
7473 0
7474 0
7475 0
7476 0
7477 0
7478 0
7479 0
7480 0
7481 0
7482 0
7483 0
7484 0
7485 0
7486 0
7487 0
7488 0
7489 0
7490 0
7491 0
7492 0
7493 0
7494 0
7495 0
7496 0
7497 0
7498 0
7499 0
7500 0
7501 0
7502 0
7503 0
7504 0
7505 0
7506 0
7507 0
7508 0
7509 0
7510 0
7511 0
7512 0
7513 0
7514 0
7515 0
7516 0
7517 0
7518 0
7519 0
7520 0
7521 0
7522 0
7523 0
7524 0
7525 0
7526 0
7527 0
7528 0
7529 0
7530 0
7531 0
7532 0
7533 0
7534 0
7535 0
7536 0
7537 0
7538 0
7539 0
7540 0
7541 0
7542 0
7543 0
7544 0
7545 0
7546 0
7547 0
7548 0
7549 0
7550 0
7551 0
7552 0
7553 0
7554 0
7555 0
7556 0
7557 0
7558 0
7559 0
7560 0
7561 0
7562 0
7563 0
7564 0
7565 0
7566 0
7567 0
7568 0
7569 0
7570 0
7571 0
7572 0
7573 0
7574 0
7575 0
7576 0
7577 0
7578 0
7579 0
7580 0
7581 0
7582 0
7583 0
7584 0
7585 0
7586 0
7587 0
7588 0
7589 0
7590 0
7591 0
7592 0
7593 0
7594 0
7595 0
7596 0
7597 0
7598 0
7599 0
7600 0
7601 0
7602 0
7603 0
7604 0
7605 0
7606 0
7607 0
7608 0
7609 0
7610 0
7611 0
7612 0
7613 0
7614 0
7615 0
7616 0
7617 0
7618 0
7619 0
7620 0
7621 0
7622 0
7623 0
7624 0
7625 0
7626 0
7627 0
7628 0
7629 0
7630 0
7631 0
7632 0
7633 0
7634 0
7635 0
7636 0
7637 0
7638 0
7639 0
7640 0
7641 0
7642 0
7643 0
7644 0
7645 0
7646 0
7647 0
7648 0
7649 0
7650 0
7651 0
7652 0
7653 0
7654 0
7655 0
7656 0
7657 0
7658 0
7659 0
7660 0
7661 0
7662 0
7663 0
7664 0
7665 0
7666 0
7667 0
7668 0
7669 0
7670 0
7671 0
7672 0
7673 0
7674 0
7675 0
7676 0
7677 0
7678 0
7679 0
7680 0
7681 0
7682 0
7683 0
7684 0
7685 0
7686 0
7687 0
7688 0
7689 0
7690 0
7691 0
7692 0
7693 0
7694 0
7695 0
7696 0
7697 0
7698 0
7699 0
7700 0
7701 0
7702 0
7703 0
7704 0
7705 0
7706 0
7707 0
7708 0
7709 0
7710 0
7711 0
7712 0
7713 0
7714 0
7715 0
7716 0
7717 0
7718 0
7719 0
7720 0
7721 0
7722 0
7723 0
7724 0
7725 0
7726 0
7727 0
7728 0
7729 0
7730 0
7731 0
7732 0
7733 0
7734 0
7735 0
7736 0
7737 0
7738 0
7739 0
7740 0
7741 0
7742 0
7743 0
7744 0
7745 0
7746 0
7747 0
7748 0
7749 0
7750 0
7751 0
7752 0
7753 0
7754 0
7755 0
7756 0
7757 0
7758 0
7759 0
7760 0
7761 0
7762 0
7763 0
7764 0
7765 0
7766 0
7767 0
7768 0
7769 0
7770 0
7771 0
7772 0
7773 0
7774 0
7775 0
7776 0
7777 0
7778 0
7779 0
7780 0
7781 0
7782 0
7783 0
7784 0
7785 0
7786 0
7787 0
7788 0
7789 0
7790 0
7791 0
7792 0
7793 0
7794 0
7795 0
7796 0
7797 0
7798 0
7799 0
7800 0
7801 0
7802 0
7803 0
7804 0
7805 0
7806 0
7807 0
7808 0
7809 0
7810 0
7811 0
7812 0
7813 0
7814 0
7815 0
7816 0
7817 0
7818 0
7819 0
7820 0
7821 0
7822 0
7823 0
7824 0
7825 0
7826 0
7827 0
7828 0
7829 0
7830 0
7831 0
7832 0
7833 0
7834 0
7835 0
7836 0
7837 0
7838 0
7839 0
7840 0
7841 0
7842 0
7843 0
7844 0
7845 0
7846 0
7847 0
7848 0
7849 0
7850 0
7851 0
7852 0
7853 0
7854 0
7855 0
7856 0
7857 0
7858 0
7859 0
7860 0
7861 0
7862 0
7863 0
7864 0
7865 0
7866 0
7867 0
7868 0
7869 0
7870 0
7871 0
7872 0
7873 0
7874 0
7875 0
7876 0
7877 0
7878 0
7879 0
7880 0
7881 0
7882 0
7883 0
7884 0
7885 0
7886 0
7887 0
7888 0
7889 0
7890 0
7891 0
7892 0
7893 0
7894 0
7895 0
7896 0
7897 0
7898 0
7899 0
7900 0
7901 0
7902 0
7903 0
7904 0
7905 0
7906 0
7907 0
7908 0
7909 0
7910 0
7911 0
7912 0
7913 0
7914 0
7915 0
7916 0
7917 0
7918 0
7919 0
7920 0
7921 0
7922 0
7923 0
7924 0
7925 0
7926 0
7927 0
7928 0
7929 0
7930 0
7931 0
7932 0
7933 0
7934 0
7935 0
7936 0
7937 0
7938 0
7939 0
7940 0
7941 0
7942 0
7943 0
7944 0
7945 0
7946 0
7947 0
7948 0
7949 0
7950 0
7951 0
7952 0
7953 0
7954 0
7955 0
7956 0
7957 0
7958 0
7959 0
7960 0
7961 0
7962 0
7963 0
7964 0
7965 0
7966 0
7967 0
7968 0
7969 0
7970 0
7971 0
7972 0
7973 0
7974 0
7975 0
7976 0
7977 0
7978 0
7979 0
7980 0
7981 0
7982 0
7983 0
7984 0
7985 0
7986 0
7987 0
7988 0
7989 0
7990 0
7991 0
7992 0
7993 0
7994 0
7995 0
7996 0
7997 0
7998 0
7999 0
8000 0
8001 0
8002 0
8003 0
8004 0
8005 0
8006 0
8007 0
8008 0
8009 0
8010 0
8011 0
8012 0
8013 0
8014 0
8015 0
8016 0
8017 0
8018 0
8019 0
8020 0
8021 0
8022 0
8023 0
8024 0
8025 0
8026 0
8027 0
8028 0
8029 0
8030 0
8031 0
8032 0
8033 0
8034 0
8035 0
8036 0
8037 0
8038 0
8039 0
8040 0
8041 0
8042 0
8043 0
8044 0
8045 0
8046 0
8047 0
8048 0
8049 0
8050 0
8051 0
8052 0
8053 0
8054 0
8055 0
8056 0
8057 0
8058 0
8059 0
8060 0
8061 0
8062 0
8063 0
8064 0
8065 0
8066 0
8067 0
8068 0
8069 0
8070 0
8071 0
8072 0
8073 0
8074 0
8075 0
8076 0
8077 0
8078 0
8079 0
8080 0
8081 0
8082 0
8083 0
8084 0
8085 0
8086 0
8087 0
8088 0
8089 0
8090 0
8091 0
8092 0
8093 0
8094 0
8095 0
8096 0
8097 0
8098 0
8099 0
8100 0
8101 0
8102 0
8103 0
8104 0
8105 0
8106 0
8107 0
8108 0
8109 0
8110 0
8111 0
8112 0
8113 0
8114 0
8115 0
8116 0
8117 0
8118 0
8119 0
8120 0
8121 0
8122 0
8123 0
8124 0
8125 0
8126 0
8127 0
8128 0
8129 0
8130 0
8131 0
8132 0
8133 0
8134 0
8135 0
8136 0
8137 0
8138 0
8139 0
8140 0
8141 0
8142 0
8143 0
8144 0
8145 0
8146 0
8147 0
8148 0
8149 0
8150 0
8152 0
8153 0
8154 0
8155 0
8156 0
8157 0
8158 0
8159 0
8160 0
8161 0
8162 0
8163 0
8164 0
8165 0
8166 0
8167 0
8168 0
8169 0
8170 0
8171 0
8172 0
8173 0
8174 0
8175 0
8176 0
8177 0
8178 0
8179 0
8180 0
8181 0
8182 0
8183 0
8184 0
8185 0
8186 0
8187 0
8188 0
8189 0
8190 0
8191 0
8192 0
8193 0
8194 0
8195 0
8196 0
8197 0
8198 0
8199 0
8200 0
8201 0
8202 0
8203 0
8204 0
8205 0
8206 0
8207 0
8208 0
8209 0
8210 0
8211 0
8212 0
8213 0
8214 0
8215 0
8216 0
8217 0
8218 0
8219 0
8220 0
8221 0
8222 0
8223 0
8224 0
8225 0
8226 0
8227 0
8228 0
8229 0
8230 0
8231 0
8232 0
8233 0
8234 0
8235 0
8236 0
8237 0
8238 0
8239 0
8240 0
8241 0
8242 0
8243 0
8244 0
8245 0
8246 0
8247 0
8248 0
8249 0
8250 0
8251 0
8252 0
8253 0
8254 0
8255 0
8256 0
8257 0
8258 0
8259 0
8260 0
8261 0
8262 0
8263 0
8264 0
8265 0
8266 0
8267 0
8268 0
8269 0
8270 0
8271 0
8272 0
8273 0
8274 0
8275 0
8276 0
8277 0
8278 0
8279 0
8280 0
8281 0
8282 0
8283 0
8284 0
8285 0
8286 0
8287 0
8288 0
8289 0
8290 0
8291 0
8292 0
8293 0
8294 0
8295 0
8296 0
8297 0
8298 0
8299 0
8300 0
8301 0
8302 0
8303 0
8304 0
8305 0
8306 0
8307 0
8308 0
8309 0
8310 0
8311 0
8312 0
8313 0
8314 0
8315 0
8316 0
8317 0
8318 0
8319 0
8320 0
8321 0
8322 0
8323 0
8324 0
8325 0
8326 0
8327 0
8328 0
8329 0
8330 0
8331 0
8332 0
8333 0
8334 0
8335 0
8336 0
8337 0
8338 0
8339 0
8340 0
8341 0
8342 0
8343 0
8344 0
8345 0
8346 0
8347 0
8348 0
8349 0
8350 0
8351 0
8352 0
8353 0
8354 0
8355 0
8356 0
8357 0
8358 0
8359 0
8360 0
8361 0
8362 0
8363 0
8364 0
8365 0
8366 0
8367 0
8368 0
8369 0
8370 0
8371 0
8372 0
8373 0
8374 0
8375 0
8376 0
8377 0
8378 0
8379 0
8380 0
8381 0
8382 0
8383 0
8384 0
8385 0
8386 0
8387 0
8388 0
8389 0
8390 0
8391 0
8392 0
8393 0
8394 0
8395 0
8396 0
8397 0
8398 0
8399 0
8400 0
8401 0
8402 0
8403 0
8404 0
8405 0
8406 0
8407 0
8408 0
8409 0
8410 0
8411 0
8412 0
8413 0
8414 0
8415 0
8416 0
8417 0
8418 0
8419 0
8420 0
8421 0
8422 0
8423 0
8424 0
8425 0
8426 0
8427 0
8428 0
8429 0
8430 0
8431 0
8432 0
8433 0
8434 0
8435 0
8436 0
8437 0
8438 0
8439 0
8440 0
8441 0
8442 0
8443 0
8444 0
8445 0
8446 0
8447 0
8448 0
8449 0
8450 0
8451 0
8452 0
8453 0
8454 0
8455 0
8456 0
8457 0
8458 0
8459 0
8460 0
8461 0
8462 0
8463 0
8464 0
8465 0
8466 0
8467 0
8468 0
8469 0
8470 0
8471 0
8472 0
8473 0
8474 0
8475 0
8476 0
8477 0
8478 0
8479 0
8480 0
8481 0
8482 0
8483 0
8484 0
8485 0
8486 0
8487 0
8488 0
8489 0
8490 0
8491 0
8492 0
8493 0
8494 0
8495 0
8496 0
8497 0
8498 0
8499 0
8500 0
8501 0
8502 0
8503 0
8504 0
8505 0
8506 0
8507 0
8508 0
8509 0
8510 0
8511 0
8512 0
8513 0
8514 0
8515 0
8516 0
8517 0
8518 0
8519 0
8520 0
8521 0
8522 0
8523 0
8524 0
8525 0
8526 0
8527 0
8528 0
8529 0
8530 0
8531 0
8532 0
8533 0
8534 0
8535 0
8536 0
8537 0
8538 0
8539 0
8540 0
8541 0
8542 0
8543 0
8544 0
8545 0
8546 0
8547 0
8548 0
8549 0
8550 0
8551 0
8552 0
8553 0
8554 0
8555 0
8556 0
8557 0
8558 0
8559 0
8560 0
8561 0
8562 0
8563 0
8564 0
8565 0
8566 0
8567 0
8568 0
8569 0
8570 0
8571 0
8572 0
8573 0
8574 0
8575 0
8576 0
8577 0
8578 0
8579 0
8580 0
8581 0
8582 0
8583 0
8584 0
8585 0
8586 0
8587 0
8588 0
8589 0
8590 0
8591 0
8592 0
8593 0
8594 0
8595 0
8596 0
8597 0
8598 0
8599 0
8600 0
8601 0
8602 0
8603 0
8604 0
8605 0
8606 0
8607 0
8608 0
8609 0
8610 0
8611 0
8612 0
8613 0
8614 0
8615 0
8616 0
8617 0
8618 0
8619 0
8620 0
8621 0
8622 0
8623 0
8624 0
8625 0
8626 0
8627 0
8628 0
8629 0
8630 0
8631 0
8632 0
8633 0
8634 0
8635 0
8636 0
8637 0
8638 0
8639 0
8640 0
8641 0
8642 0
8643 0
8644 0
8645 0
8646 0
8647 0
8648 0
8649 0
8650 0
8651 0
8652 0
8653 0
8654 0
8655 0
8656 0
8657 0
8658 0
8659 0
8660 0
8661 0
8662 0
8663 0
8664 0
8665 0
8666 0
8667 0
8668 0
8669 0
8670 0
8671 0
8672 0
8673 0
8674 0
8675 0
8676 0
8677 0
8678 0
8679 0
8680 0
8681 0
8682 0
8683 0
8684 0
8685 0
8686 0
8687 0
8688 0
8689 0
8690 0
8691 0
8692 0
8693 0
8694 0
8695 0
8696 0
8697 0
8698 0
8699 0
8700 0
8701 0
8702 0
8703 0
8704 0
8705 0
8706 0
8707 0
8708 0
8709 0
8710 0
8711 0
8712 0
8713 0
8714 0
8715 0
8716 0
8717 0
8718 0
8719 0
8720 0
8721 0
8722 0
8723 0
8724 0
8725 0
8726 0
8727 0
8728 0
8729 0
8730 0
8731 0
8732 0
8733 0
8734 0
8735 0
8736 0
8737 0
8738 0
2 0
-1075 0
-1057 0
-1087 0
-1079 0
-1083 0
-1065 0
-1061 0
-1095 0
-1091 0
-1249 0
-1101 0
