c BC-S1.2
p cnf 45 114
1 2 0
-1 -2 0
3 4 0
-3 -4 0
5 6 0
-5 -6 0
7 8 0
-7 -8 0
-9 2 1 0
9 -2 0
9 -1 0
-10 -2 -1 0
10 2 0
10 1 0
-11 12 -2 0
11 -12 0
11 2 0
-13 -12 2 0
13 12 0
13 -2 0
-14 4 3 0
14 -4 0
14 -3 0
-15 -4 -3 0
15 4 0
15 3 0
-16 17 -4 0
16 -17 0
16 4 0
-18 -17 4 0
18 17 0
18 -4 0
-19 6 5 0
19 -6 0
19 -5 0
-20 -6 -5 0
20 6 0
20 5 0
-21 22 -6 0
21 -22 0
21 6 0
-23 -22 6 0
23 22 0
23 -6 0
-24 8 7 0
24 -8 0
24 -7 0
-25 -8 -7 0
25 8 0
25 7 0
-26 27 -8 0
26 -27 0
26 8 0
-28 -27 8 0
28 27 0
28 -8 0
-29 1 2 0
29 -1 0
29 -2 0
-30 -1 -2 0
30 1 0
30 2 0
-31 3 4 0
31 -3 0
31 -4 0
-32 -3 -4 0
32 3 0
32 4 0
-33 5 6 0
33 -5 0
33 -6 0
-34 -5 -6 0
34 5 0
34 6 0
-35 7 8 0
35 -7 0
35 -8 0
-36 -7 -8 0
36 7 0
36 8 0
9 0
10 0
11 0
13 0
14 0
15 0
16 0
18 0
19 0
20 0
21 0
23 0
24 0
25 0
26 0
28 0
29 0
30 0
31 0
32 0
33 0
34 0
35 0
36 0
37 0
38 0
39 0
40 0
-41 0
-41 0
-42 0
-43 0
-44 0
-45 0
