c BC-S1.2
p cnf 813 2550
1 -2 0
-1 2 0
3 -4 0
-3 4 0
5 -6 0
-5 6 0
7 -8 0
-7 8 0
9 -10 0
-9 10 0
11 -12 0
-11 12 0
13 -14 0
-13 14 0
15 -16 0
-15 16 0
17 -18 0
-17 18 0
19 -20 0
-19 20 0
21 -22 0
-21 22 0
23 -24 0
-23 24 0
25 -26 0
-25 26 0
27 -28 0
-27 28 0
29 -30 0
-29 30 0
31 -32 0
-31 32 0
33 -34 0
-33 34 0
35 -36 0
-35 36 0
37 -38 0
-37 38 0
39 -40 0
-39 40 0
41 -42 0
-41 42 0
43 -44 0
-43 44 0
45 -46 0
-45 46 0
47 -48 0
-47 48 0
49 -50 0
-49 50 0
51 -52 0
-51 52 0
53 -54 0
-53 54 0
55 -56 0
-55 56 0
57 -58 0
-57 58 0
59 -60 0
-59 60 0
61 -62 0
-61 62 0
63 -64 0
-63 64 0
65 -66 0
-65 66 0
67 -68 0
-67 68 0
69 -70 0
-69 70 0
71 -72 0
-71 72 0
73 -74 0
-73 74 0
75 -76 0
-75 76 0
77 -78 0
-77 78 0
79 -80 0
-79 80 0
81 -82 0
-81 82 0
83 -84 0
-83 84 0
85 -86 0
-85 86 0
87 -88 0
-87 88 0
89 -90 0
-89 90 0
91 -92 0
-91 92 0
93 -94 0
-93 94 0
95 -96 0
-95 96 0
97 -98 0
-97 98 0
99 -100 0
-99 100 0
101 -102 0
-101 102 0
103 -104 0
-103 104 0
105 -106 0
-105 106 0
107 -108 0
-107 108 0
109 -110 0
-109 110 0
111 -112 0
-111 112 0
113 -114 0
-113 114 0
115 -116 0
-115 116 0
-117 118 119 120 121 0
117 -118 0
117 -119 0
117 -120 0
117 -121 0
-122 123 124 0
122 -123 0
122 -124 0
-125 126 127 0
125 -126 0
125 -127 0
-128 129 130 0
128 -129 0
128 -130 0
-131 132 133 134 135 0
131 -132 0
131 -133 0
131 -134 0
131 -135 0
-136 137 138 0
136 -137 0
136 -138 0
-139 140 141 0
139 -140 0
139 -141 0
-142 143 144 145 146 147 148 0
142 -143 0
142 -144 0
142 -145 0
142 -146 0
142 -147 0
142 -148 0
-149 150 151 152 153 0
149 -150 0
149 -151 0
149 -152 0
149 -153 0
-154 155 156 0
154 -155 0
154 -156 0
-157 158 159 0
157 -158 0
157 -159 0
-160 161 162 163 164 165 166 0
160 -161 0
160 -162 0
160 -163 0
160 -164 0
160 -165 0
160 -166 0
-167 168 169 0
167 -168 0
167 -169 0
-170 171 172 0
170 -171 0
170 -172 0
-173 174 175 176 177 178 179 0
173 -174 0
173 -175 0
173 -176 0
173 -177 0
173 -178 0
173 -179 0
-180 181 182 183 184 185 0
180 -181 0
180 -182 0
180 -183 0
180 -184 0
180 -185 0
-186 187 188 0
186 -187 0
186 -188 0
-189 190 191 192 193 194 195 0
189 -190 0
189 -191 0
189 -192 0
189 -193 0
189 -194 0
189 -195 0
-196 197 198 199 200 201 202 0
196 -197 0
196 -198 0
196 -199 0
196 -200 0
196 -201 0
196 -202 0
-203 204 205 0
203 -204 0
203 -205 0
-206 207 208 209 210 211 212 0
206 -207 0
206 -208 0
206 -209 0
206 -210 0
206 -211 0
206 -212 0
-213 214 215 216 217 218 219 220 221 0
213 -214 0
213 -215 0
213 -216 0
213 -217 0
213 -218 0
213 -219 0
213 -220 0
213 -221 0
-222 223 224 0
222 -223 0
222 -224 0
-225 226 227 228 229 230 231 232 233 0
225 -226 0
225 -227 0
225 -228 0
225 -229 0
225 -230 0
225 -231 0
225 -232 0
225 -233 0
-234 235 236 0
234 -235 0
234 -236 0
-237 238 239 240 241 242 243 0
237 -238 0
237 -239 0
237 -240 0
237 -241 0
237 -242 0
237 -243 0
-244 245 246 0
244 -245 0
244 -246 0
-247 248 249 250 251 252 253 254 0
247 -248 0
247 -249 0
247 -250 0
247 -251 0
247 -252 0
247 -253 0
247 -254 0
-255 256 257 0
255 -256 0
255 -257 0
-258 259 260 261 262 263 264 265 0
258 -259 0
258 -260 0
258 -261 0
258 -262 0
258 -263 0
258 -264 0
258 -265 0
-266 267 268 0
266 -267 0
266 -268 0
-269 270 271 0
269 -270 0
269 -271 0
-272 273 274 275 0
272 -273 0
272 -274 0
272 -275 0
-276 277 278 279 280 0
276 -277 0
276 -278 0
276 -279 0
276 -280 0
-281 282 283 284 285 0
281 -282 0
281 -283 0
281 -284 0
281 -285 0
-286 287 288 289 290 0
286 -287 0
286 -288 0
286 -289 0
286 -290 0
291 -124 0
-291 124 0
292 -127 0
-292 127 0
-293 294 295 296 297 298 0
293 -294 0
293 -295 0
293 -296 0
293 -297 0
293 -298 0
-299 300 301 302 303 304 0
299 -300 0
299 -301 0
299 -302 0
299 -303 0
299 -304 0
-305 306 307 308 309 310 0
305 -306 0
305 -307 0
305 -308 0
305 -309 0
305 -310 0
-311 312 313 314 315 316 0
311 -312 0
311 -313 0
311 -314 0
311 -315 0
311 -316 0
-317 318 319 320 321 322 0
317 -318 0
317 -319 0
317 -320 0
317 -321 0
317 -322 0
-323 324 325 326 327 328 0
323 -324 0
323 -325 0
323 -326 0
323 -327 0
323 -328 0
329 -187 0
-329 187 0
-330 331 332 333 334 0
330 -331 0
330 -332 0
330 -333 0
330 -334 0
-335 336 337 338 339 0
335 -336 0
335 -337 0
335 -338 0
335 -339 0
-340 341 342 343 344 0
340 -341 0
340 -342 0
340 -343 0
340 -344 0
-345 346 347 0
345 -346 0
345 -347 0
-348 349 350 351 0
348 -349 0
348 -350 0
348 -351 0
-352 353 354 355 0
352 -353 0
352 -354 0
352 -355 0
-356 357 358 359 0
356 -357 0
356 -358 0
356 -359 0
-360 361 362 363 364 365 0
360 -361 0
360 -362 0
360 -363 0
360 -364 0
360 -365 0
-366 367 368 369 370 0
366 -367 0
366 -368 0
366 -369 0
366 -370 0
-371 372 373 374 375 376 0
371 -372 0
371 -373 0
371 -374 0
371 -375 0
371 -376 0
-377 378 379 380 0
377 -378 0
377 -379 0
377 -380 0
2 -1 0
-2 1 0
4 -3 0
-4 3 0
6 -5 0
-6 5 0
8 -7 0
-8 7 0
10 -9 0
-10 9 0
12 -11 0
-12 11 0
14 -13 0
-14 13 0
16 -15 0
-16 15 0
18 -17 0
-18 17 0
20 -19 0
-20 19 0
22 -21 0
-22 21 0
24 -23 0
-24 23 0
26 -25 0
-26 25 0
28 -27 0
-28 27 0
30 -29 0
-30 29 0
32 -31 0
-32 31 0
34 -33 0
-34 33 0
36 -35 0
-36 35 0
38 -37 0
-38 37 0
40 -39 0
-40 39 0
42 -41 0
-42 41 0
44 -43 0
-44 43 0
46 -45 0
-46 45 0
48 -47 0
-48 47 0
50 -49 0
-50 49 0
52 -51 0
-52 51 0
54 -53 0
-54 53 0
56 -55 0
-56 55 0
58 -57 0
-58 57 0
60 -59 0
-60 59 0
62 -61 0
-62 61 0
64 -63 0
-64 63 0
66 -65 0
-66 65 0
68 -67 0
-68 67 0
70 -69 0
-70 69 0
72 -71 0
-72 71 0
74 -73 0
-74 73 0
76 -75 0
-76 75 0
78 -77 0
-78 77 0
80 -79 0
-80 79 0
82 -81 0
-82 81 0
84 -83 0
-84 83 0
86 -85 0
-86 85 0
88 -87 0
-88 87 0
90 -89 0
-90 89 0
92 -91 0
-92 91 0
94 -93 0
-94 93 0
96 -95 0
-96 95 0
98 -97 0
-98 97 0
100 -99 0
-100 99 0
102 -101 0
-102 101 0
104 -103 0
-104 103 0
106 -105 0
-106 105 0
108 -107 0
-108 107 0
110 -109 0
-110 109 0
112 -111 0
-112 111 0
114 -113 0
-114 113 0
116 -115 0
-116 115 0
381 -269 0
-381 269 0
382 -383 -377 0
-382 383 0
-382 377 0
384 -385 -371 0
-384 385 0
-384 371 0
386 -387 -388 0
-386 387 0
-386 388 0
389 -390 -391 0
-389 390 0
-389 391 0
392 -360 0
-392 360 0
393 -394 0
-393 394 0
395 -366 0
-395 366 0
396 -397 -398 0
-396 397 0
-396 398 0
399 -400 -269 0
-399 400 0
-399 269 0
401 -402 -167 0
-401 402 0
-401 167 0
403 -404 -170 0
-403 404 0
-403 170 0
405 -406 -234 0
-405 406 0
-405 234 0
407 -258 0
-407 258 0
408 -409 -225 0
-408 409 0
-408 225 0
410 -411 -173 0
-410 411 0
-410 173 0
412 -413 -286 0
-412 413 0
-412 286 0
414 -415 -173 0
-414 415 0
-414 173 0
416 -417 -167 0
-416 417 0
-416 167 0
418 -419 -258 0
-418 419 0
-418 258 0
420 -421 -234 0
-420 421 0
-420 234 0
422 -423 -170 0
-422 423 0
-422 170 0
424 -225 0
-424 225 0
425 -426 -206 0
-425 426 0
-425 206 0
427 -167 0
-427 167 0
428 -429 -388 0
-428 429 0
-428 388 0
430 -431 -360 0
-430 431 0
-430 360 0
432 -433 -434 0
-432 433 0
-432 434 0
435 -436 -437 0
-435 436 0
-435 437 0
438 -439 -440 0
-438 439 0
-438 440 0
441 -442 -234 0
-441 442 0
-441 234 0
443 -444 -173 0
-443 444 0
-443 173 0
445 -206 0
-445 206 0
446 -447 -170 0
-446 447 0
-446 170 0
448 -449 -167 0
-448 449 0
-448 167 0
450 -451 -225 0
-450 451 0
-450 225 0
452 -371 0
-452 371 0
453 -454 -455 0
-453 454 0
-453 455 0
456 -377 0
-456 377 0
457 -458 -455 0
-457 458 0
-457 455 0
459 -460 -170 0
-459 460 0
-459 170 0
461 -462 -173 0
-461 462 0
-461 173 0
463 -464 -167 0
-463 464 0
-463 167 0
465 -149 0
-465 149 0
466 -467 0
-466 467 0
118 -460 -125 0
-118 460 0
-118 125 0
119 -464 -122 0
-119 464 0
-119 122 0
120 -462 -128 0
-120 462 0
-120 128 0
121 -468 0
-121 468 0
123 -431 -128 0
-123 431 0
-123 128 0
124 -291 0
-124 291 0
126 -454 -244 0
-126 454 0
-126 244 0
127 -292 0
-127 292 0
129 -390 -291 0
-129 390 0
-129 291 0
130 -469 0
-130 469 0
132 -460 -139 0
-132 460 0
-132 139 0
133 -464 -136 0
-133 464 0
-133 136 0
134 -117 0
-134 117 0
135 -462 -142 0
-135 462 0
-135 142 0
137 -293 0
-137 293 0
138 -431 -142 0
-138 431 0
-138 142 0
140 -299 0
-140 299 0
141 -454 -255 0
-141 454 0
-141 255 0
143 -390 -293 0
-143 390 0
-143 293 0
144 -470 -117 0
-144 470 0
-144 117 0
145 -128 0
-145 128 0
146 -471 -237 0
-146 471 0
-146 237 0
147 -472 -180 0
-147 472 0
-147 180 0
148 -473 -196 0
-148 473 0
-148 196 0
150 -131 0
-150 131 0
151 -460 -157 0
-151 460 0
-151 157 0
152 -462 -160 0
-152 462 0
-152 160 0
153 -464 -154 0
-153 464 0
-153 154 0
155 -431 -160 0
-155 431 0
-155 160 0
156 -305 0
-156 305 0
158 -454 -266 0
-158 454 0
-158 266 0
159 -311 0
-159 311 0
161 -473 -213 0
-161 473 0
-161 213 0
162 -470 -131 0
-162 470 0
-162 131 0
163 -471 -247 0
-163 471 0
-163 247 0
164 -472 -189 0
-164 472 0
-164 189 0
165 -142 0
-165 142 0
166 -390 -305 0
-166 390 0
-166 305 0
168 -431 -173 0
-168 431 0
-168 173 0
169 -317 0
-169 317 0
171 -454 -269 0
-171 454 0
-171 269 0
172 -323 0
-172 323 0
174 -471 -258 0
-174 471 0
-174 258 0
175 -160 0
-175 160 0
176 -390 -317 0
-176 390 0
-176 317 0
177 -472 -206 0
-177 472 0
-177 206 0
178 -473 -225 0
-178 473 0
-178 225 0
179 -470 -149 0
-179 470 0
-179 149 0
181 -447 -125 0
-181 447 0
-181 125 0
182 -442 -186 0
-182 442 0
-182 186 0
183 -449 -122 0
-183 449 0
-183 122 0
184 -444 -128 0
-184 444 0
-184 128 0
185 -474 0
-185 474 0
187 -329 0
-187 329 0
188 -397 -272 0
-188 397 0
-188 272 0
190 -180 0
-190 180 0
191 -447 -139 0
-191 447 0
-191 139 0
192 -449 -136 0
-192 449 0
-192 136 0
193 -442 -203 0
-193 442 0
-193 203 0
194 -451 -196 0
-194 451 0
-194 196 0
195 -444 -142 0
-195 444 0
-195 142 0
197 -413 -272 0
-197 413 0
-197 272 0
198 -415 -128 0
-198 415 0
-198 128 0
199 -421 -186 0
-199 421 0
-199 186 0
200 -417 -122 0
-200 417 0
-200 122 0
201 -475 0
-201 475 0
202 -423 -125 0
-202 423 0
-202 125 0
204 -330 0
-204 330 0
205 -397 -276 0
-205 397 0
-205 276 0
207 -444 -160 0
-207 444 0
-207 160 0
208 -189 0
-208 189 0
209 -442 -222 0
-209 442 0
-209 222 0
210 -447 -157 0
-210 447 0
-210 157 0
211 -449 -154 0
-211 449 0
-211 154 0
212 -451 -213 0
-212 451 0
-212 213 0
214 -423 -139 0
-214 423 0
-214 139 0
215 -196 0
-215 196 0
216 -421 -203 0
-216 421 0
-216 203 0
217 -419 -237 0
-217 419 0
-217 237 0
218 -413 -276 0
-218 413 0
-218 276 0
219 -415 -142 0
-219 415 0
-219 142 0
220 -417 -136 0
-220 417 0
-220 136 0
221 -426 -180 0
-221 426 0
-221 180 0
223 -335 0
-223 335 0
224 -397 -281 0
-224 397 0
-224 281 0
226 -213 0
-226 213 0
227 -421 -222 0
-227 421 0
-227 222 0
228 -419 -247 0
-228 419 0
-228 247 0
229 -426 -189 0
-229 426 0
-229 189 0
230 -417 -154 0
-230 417 0
-230 154 0
231 -415 -160 0
-231 415 0
-231 160 0
232 -413 -281 0
-232 413 0
-232 281 0
233 -423 -157 0
-233 423 0
-233 157 0
235 -397 -286 0
-235 397 0
-235 286 0
236 -340 0
-236 340 0
238 -406 -186 0
-238 406 0
-238 186 0
239 -404 -125 0
-239 404 0
-239 125 0
240 -402 -122 0
-240 402 0
-240 122 0
241 -476 0
-241 476 0
242 -400 -244 0
-242 400 0
-242 244 0
243 -411 -128 0
-243 411 0
-243 128 0
245 -383 -272 0
-245 383 0
-245 272 0
246 -345 0
-246 345 0
248 -409 -196 0
-248 409 0
-248 196 0
249 -237 0
-249 237 0
250 -400 -255 0
-250 400 0
-250 255 0
251 -404 -139 0
-251 404 0
-251 139 0
252 -402 -136 0
-252 402 0
-252 136 0
253 -406 -203 0
-253 406 0
-253 203 0
254 -411 -142 0
-254 411 0
-254 142 0
256 -383 -276 0
-256 383 0
-256 276 0
257 -348 0
-257 348 0
259 -247 0
-259 247 0
260 -406 -222 0
-260 406 0
-260 222 0
261 -404 -157 0
-261 404 0
-261 157 0
262 -400 -266 0
-262 400 0
-262 266 0
263 -409 -213 0
-263 409 0
-263 213 0
264 -402 -154 0
-264 402 0
-264 154 0
265 -411 -160 0
-265 411 0
-265 160 0
267 -383 -281 0
-267 383 0
-267 281 0
268 -352 0
-268 352 0
270 -383 -286 0
-270 383 0
-270 286 0
271 -356 0
-271 356 0
273 -477 -329 0
-273 477 0
-273 329 0
274 -458 -345 0
-274 458 0
-274 345 0
275 -478 0
-275 478 0
277 -479 -196 0
-277 479 0
-277 196 0
278 -477 -330 0
-278 477 0
-278 330 0
279 -272 0
-279 272 0
280 -458 -348 0
-280 458 0
-280 348 0
282 -477 -335 0
-282 477 0
-282 335 0
283 -479 -213 0
-283 479 0
-283 213 0
284 -458 -352 0
-284 458 0
-284 352 0
285 -276 0
-285 276 0
287 -458 -356 0
-287 458 0
-287 356 0
288 -479 -225 0
-288 479 0
-288 225 0
289 -281 0
-289 281 0
290 -477 -340 0
-290 477 0
-290 340 0
480 -481 0
-480 481 0
482 -483 0
-482 483 0
294 -122 0
-294 122 0
295 -436 -117 0
-295 436 0
-295 117 0
296 -439 -196 0
-296 439 0
-296 196 0
297 -429 -237 0
-297 429 0
-297 237 0
298 -433 -180 0
-298 433 0
-298 180 0
300 -484 -237 0
-300 484 0
-300 237 0
301 -485 -196 0
-301 485 0
-301 196 0
302 -486 -117 0
-302 486 0
-302 117 0
303 -487 -180 0
-303 487 0
-303 180 0
304 -125 0
-304 125 0
306 -436 -131 0
-306 436 0
-306 131 0
307 -136 0
-307 136 0
308 -439 -213 0
-308 439 0
-308 213 0
309 -429 -247 0
-309 429 0
-309 247 0
310 -433 -189 0
-310 433 0
-310 189 0
312 -486 -131 0
-312 486 0
-312 131 0
313 -485 -213 0
-313 485 0
-313 213 0
314 -139 0
-314 139 0
315 -487 -189 0
-315 487 0
-315 189 0
316 -484 -247 0
-316 484 0
-316 247 0
318 -154 0
-318 154 0
319 -436 -149 0
-319 436 0
-319 149 0
320 -429 -258 0
-320 429 0
-320 258 0
321 -433 -206 0
-321 433 0
-321 206 0
322 -439 -225 0
-322 439 0
-322 225 0
324 -487 -206 0
-324 487 0
-324 206 0
325 -484 -258 0
-325 484 0
-325 258 0
326 -486 -149 0
-326 486 0
-326 149 0
327 -157 0
-327 157 0
328 -485 -225 0
-328 485 0
-328 225 0
488 -489 0
-488 489 0
331 -490 -180 0
-331 490 0
-331 180 0
332 -491 -196 0
-332 491 0
-332 196 0
333 -492 -237 0
-333 492 0
-333 237 0
334 -186 0
-334 186 0
336 -492 -247 0
-336 492 0
-336 247 0
337 -491 -213 0
-337 491 0
-337 213 0
338 -490 -189 0
-338 490 0
-338 189 0
339 -203 0
-339 203 0
341 -490 -206 0
-341 490 0
-341 206 0
342 -491 -225 0
-342 491 0
-342 225 0
343 -222 0
-343 222 0
344 -492 -258 0
-344 492 0
-344 258 0
346 -385 -292 0
-346 385 0
-346 292 0
347 -493 0
-347 493 0
349 -244 0
-349 244 0
350 -385 -299 0
-350 385 0
-350 299 0
351 -387 -237 0
-351 387 0
-351 237 0
353 -255 0
-353 255 0
354 -387 -247 0
-354 387 0
-354 247 0
355 -385 -311 0
-355 385 0
-355 311 0
357 -387 -258 0
-357 387 0
-357 258 0
358 -266 0
-358 266 0
359 -385 -323 0
-359 385 0
-359 323 0
361 -473 -440 0
-361 473 0
-361 440 0
362 -470 -437 0
-362 470 0
-362 437 0
363 -471 -388 0
-363 471 0
-363 388 0
364 -173 0
-364 173 0
365 -472 -434 0
-365 472 0
-365 434 0
367 -234 0
-367 234 0
368 -490 -434 0
-368 490 0
-368 434 0
369 -492 -388 0
-369 492 0
-369 388 0
370 -491 -440 0
-370 491 0
-370 440 0
372 -485 -440 0
-372 485 0
-372 440 0
373 -487 -434 0
-373 487 0
-373 434 0
374 -170 0
-374 170 0
375 -486 -437 0
-375 486 0
-375 437 0
376 -484 -388 0
-376 484 0
-376 388 0
378 -479 -440 0
-378 479 0
-378 440 0
379 -477 -366 0
-379 477 0
-379 366 0
380 -286 0
-380 286 0
-494 -1 2 0
494 1 0
494 -2 0
-495 1 -2 0
495 -1 0
495 2 0
-496 -3 4 0
496 3 0
496 -4 0
-497 3 -4 0
497 -3 0
497 4 0
-498 -5 6 0
498 5 0
498 -6 0
-499 5 -6 0
499 -5 0
499 6 0
-500 -7 8 0
500 7 0
500 -8 0
-501 7 -8 0
501 -7 0
501 8 0
-502 -9 10 0
502 9 0
502 -10 0
-503 9 -10 0
503 -9 0
503 10 0
-504 -11 12 0
504 11 0
504 -12 0
-505 11 -12 0
505 -11 0
505 12 0
-506 -13 14 0
506 13 0
506 -14 0
-507 13 -14 0
507 -13 0
507 14 0
-508 -15 16 0
508 15 0
508 -16 0
-509 15 -16 0
509 -15 0
509 16 0
-510 -17 18 0
510 17 0
510 -18 0
-511 17 -18 0
511 -17 0
511 18 0
-512 -19 20 0
512 19 0
512 -20 0
-513 19 -20 0
513 -19 0
513 20 0
-514 -21 22 0
514 21 0
514 -22 0
-515 21 -22 0
515 -21 0
515 22 0
-516 -23 24 0
516 23 0
516 -24 0
-517 23 -24 0
517 -23 0
517 24 0
-518 -25 26 0
518 25 0
518 -26 0
-519 25 -26 0
519 -25 0
519 26 0
-520 -27 28 0
520 27 0
520 -28 0
-521 27 -28 0
521 -27 0
521 28 0
-522 -29 30 0
522 29 0
522 -30 0
-523 29 -30 0
523 -29 0
523 30 0
-524 -31 32 0
524 31 0
524 -32 0
-525 31 -32 0
525 -31 0
525 32 0
-526 -33 34 0
526 33 0
526 -34 0
-527 33 -34 0
527 -33 0
527 34 0
-528 -35 36 0
528 35 0
528 -36 0
-529 35 -36 0
529 -35 0
529 36 0
-530 -37 38 0
530 37 0
530 -38 0
-531 37 -38 0
531 -37 0
531 38 0
-532 -39 40 0
532 39 0
532 -40 0
-533 39 -40 0
533 -39 0
533 40 0
-534 -41 42 0
534 41 0
534 -42 0
-535 41 -42 0
535 -41 0
535 42 0
-536 -43 44 0
536 43 0
536 -44 0
-537 43 -44 0
537 -43 0
537 44 0
-538 -45 46 0
538 45 0
538 -46 0
-539 45 -46 0
539 -45 0
539 46 0
-540 -47 48 0
540 47 0
540 -48 0
-541 47 -48 0
541 -47 0
541 48 0
-542 -49 50 0
542 49 0
542 -50 0
-543 49 -50 0
543 -49 0
543 50 0
-544 -51 52 0
544 51 0
544 -52 0
-545 51 -52 0
545 -51 0
545 52 0
-546 -53 54 0
546 53 0
546 -54 0
-547 53 -54 0
547 -53 0
547 54 0
-548 -55 56 0
548 55 0
548 -56 0
-549 55 -56 0
549 -55 0
549 56 0
-550 -57 58 0
550 57 0
550 -58 0
-551 57 -58 0
551 -57 0
551 58 0
-552 -59 60 0
552 59 0
552 -60 0
-553 59 -60 0
553 -59 0
553 60 0
-554 -61 62 0
554 61 0
554 -62 0
-555 61 -62 0
555 -61 0
555 62 0
-556 -63 64 0
556 63 0
556 -64 0
-557 63 -64 0
557 -63 0
557 64 0
-558 -65 66 0
558 65 0
558 -66 0
-559 65 -66 0
559 -65 0
559 66 0
-560 -67 68 0
560 67 0
560 -68 0
-561 67 -68 0
561 -67 0
561 68 0
-562 -69 70 0
562 69 0
562 -70 0
-563 69 -70 0
563 -69 0
563 70 0
-564 -71 72 0
564 71 0
564 -72 0
-565 71 -72 0
565 -71 0
565 72 0
-566 -73 74 0
566 73 0
566 -74 0
-567 73 -74 0
567 -73 0
567 74 0
-568 -75 76 0
568 75 0
568 -76 0
-569 75 -76 0
569 -75 0
569 76 0
-570 -77 78 0
570 77 0
570 -78 0
-571 77 -78 0
571 -77 0
571 78 0
-572 -79 80 0
572 79 0
572 -80 0
-573 79 -80 0
573 -79 0
573 80 0
-574 -81 82 0
574 81 0
574 -82 0
-575 81 -82 0
575 -81 0
575 82 0
-576 -83 84 0
576 83 0
576 -84 0
-577 83 -84 0
577 -83 0
577 84 0
-578 -85 86 0
578 85 0
578 -86 0
-579 85 -86 0
579 -85 0
579 86 0
-580 -87 88 0
580 87 0
580 -88 0
-581 87 -88 0
581 -87 0
581 88 0
-582 -89 90 0
582 89 0
582 -90 0
-583 89 -90 0
583 -89 0
583 90 0
-584 -91 92 0
584 91 0
584 -92 0
-585 91 -92 0
585 -91 0
585 92 0
-586 -93 94 0
586 93 0
586 -94 0
-587 93 -94 0
587 -93 0
587 94 0
-588 -95 96 0
588 95 0
588 -96 0
-589 95 -96 0
589 -95 0
589 96 0
-590 -97 98 0
590 97 0
590 -98 0
-591 97 -98 0
591 -97 0
591 98 0
-592 -99 100 0
592 99 0
592 -100 0
-593 99 -100 0
593 -99 0
593 100 0
-594 -101 102 0
594 101 0
594 -102 0
-595 101 -102 0
595 -101 0
595 102 0
-596 -103 104 0
596 103 0
596 -104 0
-597 103 -104 0
597 -103 0
597 104 0
-598 -105 106 0
598 105 0
598 -106 0
-599 105 -106 0
599 -105 0
599 106 0
-600 -107 108 0
600 107 0
600 -108 0
-601 107 -108 0
601 -107 0
601 108 0
-602 -109 110 0
602 109 0
602 -110 0
-603 109 -110 0
603 -109 0
603 110 0
-604 -111 112 0
604 111 0
604 -112 0
-605 111 -112 0
605 -111 0
605 112 0
-606 -113 114 0
606 113 0
606 -114 0
-607 113 -114 0
607 -113 0
607 114 0
-608 -115 116 0
608 115 0
608 -116 0
-609 115 -116 0
609 -115 0
609 116 0
-610 381 -269 0
610 -381 0
610 269 0
-611 -381 269 0
611 381 0
611 -269 0
-612 -455 381 382 384 386 0
612 455 0
612 -381 0
612 -382 0
612 -384 0
612 -386 0
-613 455 -381 0
613 -455 0
613 381 0
-614 455 -382 0
614 -455 0
614 382 0
-615 455 -384 0
615 -455 0
615 384 0
-616 455 -386 0
616 -455 0
616 386 0
-617 392 -360 0
617 -392 0
617 360 0
-618 -392 360 0
618 392 0
618 -360 0
-619 -620 389 392 0
619 620 0
619 -389 0
619 -392 0
-621 620 -389 0
621 -620 0
621 389 0
-622 620 -392 0
622 -620 0
622 392 0
-623 393 -394 0
623 -393 0
623 394 0
-624 -393 394 0
624 393 0
624 -394 0
-625 -626 393 0
625 626 0
625 -393 0
-627 626 -393 0
627 -626 0
627 393 0
-628 395 -366 0
628 -395 0
628 366 0
-629 -395 366 0
629 395 0
629 -366 0
-630 -631 395 396 0
630 631 0
630 -395 0
630 -396 0
-632 631 -395 0
632 -631 0
632 395 0
-633 631 -396 0
633 -631 0
633 396 0
-634 407 -258 0
634 -407 0
634 258 0
-635 -407 258 0
635 407 0
635 -258 0
-636 -388 399 401 403 405 407 408 410 0
636 388 0
636 -399 0
636 -401 0
636 -403 0
636 -405 0
636 -407 0
636 -408 0
636 -410 0
-637 388 -399 0
637 -388 0
637 399 0
-638 388 -401 0
638 -388 0
638 401 0
-639 388 -403 0
639 -388 0
639 403 0
-640 388 -405 0
640 -388 0
640 405 0
-641 388 -407 0
641 -388 0
641 407 0
-642 388 -408 0
642 -388 0
642 408 0
-643 388 -410 0
643 -388 0
643 410 0
-644 424 -225 0
644 -424 0
644 225 0
-645 -424 225 0
645 424 0
645 -225 0
-646 -440 412 414 416 418 420 422 424 425 0
646 440 0
646 -412 0
646 -414 0
646 -416 0
646 -418 0
646 -420 0
646 -422 0
646 -424 0
646 -425 0
-647 440 -412 0
647 -440 0
647 412 0
-648 440 -414 0
648 -440 0
648 414 0
-649 440 -416 0
649 -440 0
649 416 0
-650 440 -418 0
650 -440 0
650 418 0
-651 440 -420 0
651 -440 0
651 420 0
-652 440 -422 0
652 -440 0
652 422 0
-653 440 -424 0
653 -440 0
653 424 0
-654 440 -425 0
654 -440 0
654 425 0
-655 427 -167 0
655 -427 0
655 167 0
-656 -427 167 0
656 427 0
656 -167 0
-657 -391 427 428 430 432 435 438 0
657 391 0
657 -427 0
657 -428 0
657 -430 0
657 -432 0
657 -435 0
657 -438 0
-658 391 -427 0
658 -391 0
658 427 0
-659 391 -428 0
659 -391 0
659 428 0
-660 391 -430 0
660 -391 0
660 430 0
-661 391 -432 0
661 -391 0
661 432 0
-662 391 -435 0
662 -391 0
662 435 0
-663 391 -438 0
663 -391 0
663 438 0
-664 445 -206 0
664 -445 0
664 206 0
-665 -445 206 0
665 445 0
665 -206 0
-666 -434 441 443 445 446 448 450 0
666 434 0
666 -441 0
666 -443 0
666 -445 0
666 -446 0
666 -448 0
666 -450 0
-667 434 -441 0
667 -434 0
667 441 0
-668 434 -443 0
668 -434 0
668 443 0
-669 434 -445 0
669 -434 0
669 445 0
-670 434 -446 0
670 -434 0
670 446 0
-671 434 -448 0
671 -434 0
671 448 0
-672 434 -450 0
672 -434 0
672 450 0
-673 452 -371 0
673 -452 0
673 371 0
-674 -452 371 0
674 452 0
674 -371 0
-675 -676 452 453 0
675 676 0
675 -452 0
675 -453 0
-677 676 -452 0
677 -676 0
677 452 0
-678 676 -453 0
678 -676 0
678 453 0
-679 456 -377 0
679 -456 0
679 377 0
-680 -456 377 0
680 456 0
680 -377 0
-681 -398 456 457 0
681 398 0
681 -456 0
681 -457 0
-682 398 -456 0
682 -398 0
682 456 0
-683 398 -457 0
683 -398 0
683 457 0
-684 465 -149 0
684 -465 0
684 149 0
-685 -465 149 0
685 465 0
685 -149 0
-686 -437 459 461 463 465 0
686 437 0
686 -459 0
686 -461 0
686 -463 0
686 -465 0
-687 437 -459 0
687 -437 0
687 459 0
-688 437 -461 0
688 -437 0
688 461 0
-689 437 -463 0
689 -437 0
689 463 0
-690 437 -465 0
690 -437 0
690 465 0
-691 466 -467 0
691 -466 0
691 467 0
-692 -466 467 0
692 466 0
692 -467 0
-693 -694 466 0
693 694 0
693 -466 0
-695 694 -466 0
695 -694 0
695 466 0
-696 121 -468 0
696 -121 0
696 468 0
-697 -121 468 0
697 121 0
697 -468 0
-698 124 -291 0
698 -124 0
698 291 0
-699 -124 291 0
699 124 0
699 -291 0
-700 127 -292 0
700 -127 0
700 292 0
-701 -127 292 0
701 127 0
701 -292 0
-702 130 -469 0
702 -130 0
702 469 0
-703 -130 469 0
703 130 0
703 -469 0
-704 134 -117 0
704 -134 0
704 117 0
-705 -134 117 0
705 134 0
705 -117 0
-706 137 -293 0
706 -137 0
706 293 0
-707 -137 293 0
707 137 0
707 -293 0
-708 140 -299 0
708 -140 0
708 299 0
-709 -140 299 0
709 140 0
709 -299 0
-710 145 -128 0
710 -145 0
710 128 0
-711 -145 128 0
711 145 0
711 -128 0
-712 150 -131 0
712 -150 0
712 131 0
-713 -150 131 0
713 150 0
713 -131 0
-714 156 -305 0
714 -156 0
714 305 0
-715 -156 305 0
715 156 0
715 -305 0
-716 159 -311 0
716 -159 0
716 311 0
-717 -159 311 0
717 159 0
717 -311 0
-718 165 -142 0
718 -165 0
718 142 0
-719 -165 142 0
719 165 0
719 -142 0
-720 169 -317 0
720 -169 0
720 317 0
-721 -169 317 0
721 169 0
721 -317 0
-722 172 -323 0
722 -172 0
722 323 0
-723 -172 323 0
723 172 0
723 -323 0
-724 175 -160 0
724 -175 0
724 160 0
-725 -175 160 0
725 175 0
725 -160 0
-726 185 -474 0
726 -185 0
726 474 0
-727 -185 474 0
727 185 0
727 -474 0
-728 187 -329 0
728 -187 0
728 329 0
-729 -187 329 0
729 187 0
729 -329 0
-730 190 -180 0
730 -190 0
730 180 0
-731 -190 180 0
731 190 0
731 -180 0
-732 201 -475 0
732 -201 0
732 475 0
-733 -201 475 0
733 201 0
733 -475 0
-734 204 -330 0
734 -204 0
734 330 0
-735 -204 330 0
735 204 0
735 -330 0
-736 208 -189 0
736 -208 0
736 189 0
-737 -208 189 0
737 208 0
737 -189 0
-738 215 -196 0
738 -215 0
738 196 0
-739 -215 196 0
739 215 0
739 -196 0
-740 223 -335 0
740 -223 0
740 335 0
-741 -223 335 0
741 223 0
741 -335 0
-742 226 -213 0
742 -226 0
742 213 0
-743 -226 213 0
743 226 0
743 -213 0
-744 236 -340 0
744 -236 0
744 340 0
-745 -236 340 0
745 236 0
745 -340 0
-746 241 -476 0
746 -241 0
746 476 0
-747 -241 476 0
747 241 0
747 -476 0
-748 246 -345 0
748 -246 0
748 345 0
-749 -246 345 0
749 246 0
749 -345 0
-750 249 -237 0
750 -249 0
750 237 0
-751 -249 237 0
751 249 0
751 -237 0
-752 257 -348 0
752 -257 0
752 348 0
-753 -257 348 0
753 257 0
753 -348 0
-754 259 -247 0
754 -259 0
754 247 0
-755 -259 247 0
755 259 0
755 -247 0
-756 268 -352 0
756 -268 0
756 352 0
-757 -268 352 0
757 268 0
757 -352 0
-758 271 -356 0
758 -271 0
758 356 0
-759 -271 356 0
759 271 0
759 -356 0
-760 275 -478 0
760 -275 0
760 478 0
-761 -275 478 0
761 275 0
761 -478 0
-762 279 -272 0
762 -279 0
762 272 0
-763 -279 272 0
763 279 0
763 -272 0
-764 285 -276 0
764 -285 0
764 276 0
-765 -285 276 0
765 285 0
765 -276 0
-766 289 -281 0
766 -289 0
766 281 0
-767 -289 281 0
767 289 0
767 -281 0
-768 480 -481 0
768 -480 0
768 481 0
-769 -480 481 0
769 480 0
769 -481 0
-770 -291 480 0
770 291 0
770 -480 0
-771 291 -480 0
771 -291 0
771 480 0
-772 482 -483 0
772 -482 0
772 483 0
-773 -482 483 0
773 482 0
773 -483 0
-774 -292 482 0
774 292 0
774 -482 0
-775 292 -482 0
775 -292 0
775 482 0
-776 294 -122 0
776 -294 0
776 122 0
-777 -294 122 0
777 294 0
777 -122 0
-778 304 -125 0
778 -304 0
778 125 0
-779 -304 125 0
779 304 0
779 -125 0
-780 307 -136 0
780 -307 0
780 136 0
-781 -307 136 0
781 307 0
781 -136 0
-782 314 -139 0
782 -314 0
782 139 0
-783 -314 139 0
783 314 0
783 -139 0
-784 318 -154 0
784 -318 0
784 154 0
-785 -318 154 0
785 318 0
785 -154 0
-786 327 -157 0
786 -327 0
786 157 0
-787 -327 157 0
787 327 0
787 -157 0
-788 488 -489 0
788 -488 0
788 489 0
-789 -488 489 0
789 488 0
789 -489 0
-790 -329 488 0
790 329 0
790 -488 0
-791 329 -488 0
791 -329 0
791 488 0
-792 334 -186 0
792 -334 0
792 186 0
-793 -334 186 0
793 334 0
793 -186 0
-794 339 -203 0
794 -339 0
794 203 0
-795 -339 203 0
795 339 0
795 -203 0
-796 343 -222 0
796 -343 0
796 222 0
-797 -343 222 0
797 343 0
797 -222 0
-798 347 -493 0
798 -347 0
798 493 0
-799 -347 493 0
799 347 0
799 -493 0
-800 349 -244 0
800 -349 0
800 244 0
-801 -349 244 0
801 349 0
801 -244 0
-802 353 -255 0
802 -353 0
802 255 0
-803 -353 255 0
803 353 0
803 -255 0
-804 358 -266 0
804 -358 0
804 266 0
-805 -358 266 0
805 358 0
805 -266 0
-806 364 -173 0
806 -364 0
806 173 0
-807 -364 173 0
807 364 0
807 -173 0
-808 367 -234 0
808 -367 0
808 234 0
-809 -367 234 0
809 367 0
809 -234 0
-810 374 -170 0
810 -374 0
810 170 0
-811 -374 170 0
811 374 0
811 -170 0
-812 380 -286 0
812 -380 0
812 286 0
-813 -380 286 0
813 380 0
813 -286 0
494 0
495 0
496 0
497 0
498 0
499 0
500 0
501 0
502 0
503 0
504 0
505 0
506 0
507 0
508 0
509 0
510 0
511 0
512 0
513 0
514 0
515 0
516 0
517 0
518 0
519 0
520 0
521 0
522 0
523 0
524 0
525 0
526 0
527 0
528 0
529 0
530 0
531 0
532 0
533 0
534 0
535 0
536 0
537 0
538 0
539 0
540 0
541 0
542 0
543 0
544 0
545 0
546 0
547 0
548 0
549 0
550 0
551 0
552 0
553 0
554 0
555 0
556 0
557 0
558 0
559 0
560 0
561 0
562 0
563 0
564 0
565 0
566 0
567 0
568 0
569 0
570 0
571 0
572 0
573 0
574 0
575 0
576 0
577 0
578 0
579 0
580 0
581 0
582 0
583 0
584 0
585 0
586 0
587 0
588 0
589 0
590 0
591 0
592 0
593 0
594 0
595 0
596 0
597 0
598 0
599 0
600 0
601 0
602 0
603 0
604 0
605 0
606 0
607 0
608 0
609 0
610 0
611 0
612 0
613 0
614 0
615 0
616 0
617 0
618 0
619 0
621 0
622 0
623 0
624 0
625 0
627 0
628 0
629 0
630 0
632 0
633 0
634 0
635 0
636 0
637 0
638 0
639 0
640 0
641 0
642 0
643 0
644 0
645 0
646 0
647 0
648 0
649 0
650 0
651 0
652 0
653 0
654 0
655 0
656 0
657 0
658 0
659 0
660 0
661 0
662 0
663 0
664 0
665 0
666 0
667 0
668 0
669 0
670 0
671 0
672 0
673 0
674 0
675 0
677 0
678 0
679 0
680 0
681 0
682 0
683 0
684 0
685 0
686 0
687 0
688 0
689 0
690 0
691 0
692 0
693 0
695 0
696 0
697 0
698 0
699 0
700 0
701 0
702 0
703 0
704 0
705 0
706 0
707 0
708 0
709 0
710 0
711 0
712 0
713 0
714 0
715 0
716 0
717 0
718 0
719 0
720 0
721 0
722 0
723 0
724 0
725 0
726 0
727 0
728 0
729 0
730 0
731 0
732 0
733 0
734 0
735 0
736 0
737 0
738 0
739 0
740 0
741 0
742 0
743 0
744 0
745 0
746 0
747 0
748 0
749 0
750 0
751 0
752 0
753 0
754 0
755 0
756 0
757 0
758 0
759 0
760 0
761 0
762 0
763 0
764 0
765 0
766 0
767 0
768 0
769 0
770 0
771 0
772 0
773 0
774 0
775 0
776 0
777 0
778 0
779 0
780 0
781 0
782 0
783 0
784 0
785 0
786 0
787 0
788 0
789 0
790 0
791 0
792 0
793 0
794 0
795 0
796 0
797 0
798 0
799 0
800 0
801 0
802 0
803 0
804 0
805 0
806 0
807 0
808 0
809 0
810 0
811 0
812 0
813 0
2 0
4 0
6 0
8 0
10 0
12 0
14 0
16 0
18 0
20 0
22 0
24 0
26 0
28 0
30 0
32 0
34 0
36 0
38 0
40 0
42 0
44 0
46 0
48 0
50 0
52 0
54 0
56 0
58 0
60 0
62 0
64 0
66 0
68 0
70 0
72 0
74 0
76 0
78 0
80 0
82 0
84 0
86 0
88 0
90 0
92 0
94 0
96 0
98 0
100 0
102 0
104 0
106 0
108 0
110 0
112 0
114 0
116 0
