c BC-S1.2
p cnf 934 2925
1 -2 0
-1 2 0
3 -4 0
-3 4 0
5 -6 0
-5 6 0
7 -8 0
-7 8 0
9 -10 0
-9 10 0
11 -12 0
-11 12 0
13 -14 0
-13 14 0
15 -16 0
-15 16 0
17 -18 0
-17 18 0
19 -20 0
-19 20 0
21 -22 0
-21 22 0
23 -24 0
-23 24 0
25 -26 0
-25 26 0
27 -28 0
-27 28 0
29 -30 0
-29 30 0
31 -32 0
-31 32 0
33 -34 0
-33 34 0
35 -36 0
-35 36 0
37 -38 0
-37 38 0
39 -40 0
-39 40 0
41 -42 0
-41 42 0
43 -44 0
-43 44 0
45 -46 0
-45 46 0
47 -48 0
-47 48 0
49 -50 0
-49 50 0
51 -52 0
-51 52 0
53 -54 0
-53 54 0
55 -56 0
-55 56 0
57 -58 0
-57 58 0
59 -60 0
-59 60 0
61 -62 0
-61 62 0
63 -64 0
-63 64 0
65 -66 0
-65 66 0
67 -68 0
-67 68 0
69 -70 0
-69 70 0
71 -72 0
-71 72 0
73 -74 0
-73 74 0
75 -76 0
-75 76 0
77 -78 0
-77 78 0
79 -80 0
-79 80 0
81 -82 0
-81 82 0
83 -84 0
-83 84 0
85 -86 0
-85 86 0
87 -88 0
-87 88 0
89 -90 0
-89 90 0
91 -92 0
-91 92 0
93 -94 0
-93 94 0
95 -96 0
-95 96 0
97 -98 0
-97 98 0
99 -100 0
-99 100 0
101 -102 0
-101 102 0
103 -104 0
-103 104 0
105 -106 0
-105 106 0
107 -108 0
-107 108 0
109 -110 0
-109 110 0
111 -112 0
-111 112 0
113 -114 0
-113 114 0
115 -116 0
-115 116 0
117 -118 0
-117 118 0
119 -120 0
-119 120 0
121 -122 0
-121 122 0
123 -124 0
-123 124 0
125 -126 0
-125 126 0
127 -128 0
-127 128 0
129 -130 0
-129 130 0
131 -132 0
-131 132 0
133 -134 0
-133 134 0
135 -136 0
-135 136 0
-137 138 139 140 141 0
137 -138 0
137 -139 0
137 -140 0
137 -141 0
-142 143 144 0
142 -143 0
142 -144 0
-145 146 147 0
145 -146 0
145 -147 0
-148 149 150 0
148 -149 0
148 -150 0
-151 152 153 154 155 156 0
151 -152 0
151 -153 0
151 -154 0
151 -155 0
151 -156 0
-157 158 159 0
157 -158 0
157 -159 0
-160 161 162 0
160 -161 0
160 -162 0
-163 164 165 166 167 168 169 0
163 -164 0
163 -165 0
163 -166 0
163 -167 0
163 -168 0
163 -169 0
-170 171 172 0
170 -171 0
170 -172 0
-173 174 175 176 177 178 0
173 -174 0
173 -175 0
173 -176 0
173 -177 0
173 -178 0
-179 180 181 0
179 -180 0
179 -181 0
-182 183 184 0
182 -183 0
182 -184 0
-185 186 187 188 189 190 191 192 193 194 0
185 -186 0
185 -187 0
185 -188 0
185 -189 0
185 -190 0
185 -191 0
185 -192 0
185 -193 0
185 -194 0
-195 196 197 0
195 -196 0
195 -197 0
-198 199 200 0
198 -199 0
198 -200 0
-201 202 203 0
201 -202 0
201 -203 0
-204 205 206 207 208 209 210 211 212 213 0
204 -205 0
204 -206 0
204 -207 0
204 -208 0
204 -209 0
204 -210 0
204 -211 0
204 -212 0
204 -213 0
-214 215 216 0
214 -215 0
214 -216 0
-217 218 219 220 221 0
217 -218 0
217 -219 0
217 -220 0
217 -221 0
-222 223 224 0
222 -223 0
222 -224 0
-225 226 227 0
225 -226 0
225 -227 0
-228 229 230 231 232 233 0
228 -229 0
228 -230 0
228 -231 0
228 -232 0
228 -233 0
-234 235 236 237 238 0
234 -235 0
234 -236 0
234 -237 0
234 -238 0
-239 240 241 242 243 244 245 246 0
239 -240 0
239 -241 0
239 -242 0
239 -243 0
239 -244 0
239 -245 0
239 -246 0
-247 248 249 0
247 -248 0
247 -249 0
-250 251 252 253 0
250 -251 0
250 -252 0
250 -253 0
-254 255 256 257 258 259 0
254 -255 0
254 -256 0
254 -257 0
254 -258 0
254 -259 0
-260 261 262 263 264 265 266 0
260 -261 0
260 -262 0
260 -263 0
260 -264 0
260 -265 0
260 -266 0
-267 268 269 270 271 272 273 274 275 276 0
267 -268 0
267 -269 0
267 -270 0
267 -271 0
267 -272 0
267 -273 0
267 -274 0
267 -275 0
267 -276 0
-277 278 279 0
277 -278 0
277 -279 0
-280 281 282 283 0
280 -281 0
280 -282 0
280 -283 0
-284 285 286 287 288 289 0
284 -285 0
284 -286 0
284 -287 0
284 -288 0
284 -289 0
-290 291 292 293 294 295 296 0
290 -291 0
290 -292 0
290 -293 0
290 -294 0
290 -295 0
290 -296 0
-297 298 299 300 301 302 303 304 305 306 0
297 -298 0
297 -299 0
297 -300 0
297 -301 0
297 -302 0
297 -303 0
297 -304 0
297 -305 0
297 -306 0
-307 308 309 0
307 -308 0
307 -309 0
-310 311 312 313 0
310 -311 0
310 -312 0
310 -313 0
-314 315 316 0
314 -315 0
314 -316 0
-317 318 319 0
317 -318 0
317 -319 0
-320 321 322 0
320 -321 0
320 -322 0
-323 324 325 0
323 -324 0
323 -325 0
-326 327 328 329 330 331 0
326 -327 0
326 -328 0
326 -329 0
326 -330 0
326 -331 0
-332 333 334 335 336 337 0
332 -333 0
332 -334 0
332 -335 0
332 -336 0
332 -337 0
338 -224 0
-338 224 0
-339 340 341 0
339 -340 0
339 -341 0
-342 343 344 345 346 0
342 -343 0
342 -344 0
342 -345 0
342 -346 0
-347 348 349 350 351 352 353 0
347 -348 0
347 -349 0
347 -350 0
347 -351 0
347 -352 0
347 -353 0
-354 355 356 357 358 359 0
354 -355 0
354 -356 0
354 -357 0
354 -358 0
354 -359 0
-360 361 362 363 364 0
360 -361 0
360 -362 0
360 -363 0
360 -364 0
365 -150 0
-365 150 0
-366 367 368 369 370 0
366 -367 0
366 -368 0
366 -369 0
366 -370 0
-371 372 373 374 375 376 0
371 -372 0
371 -373 0
371 -374 0
371 -375 0
371 -376 0
-377 378 379 380 381 0
377 -378 0
377 -379 0
377 -380 0
377 -381 0
-382 383 384 385 386 0
382 -383 0
382 -384 0
382 -385 0
382 -386 0
-387 388 389 390 391 0
387 -388 0
387 -389 0
387 -390 0
387 -391 0
-392 393 394 395 396 0
392 -393 0
392 -394 0
392 -395 0
392 -396 0
397 -316 0
-397 316 0
-398 399 400 0
398 -399 0
398 -400 0
-401 402 403 0
401 -402 0
401 -403 0
-404 405 406 0
404 -405 0
404 -406 0
-407 408 409 0
407 -408 0
407 -409 0
-410 411 412 413 414 0
410 -411 0
410 -412 0
410 -413 0
410 -414 0
-415 416 417 0
415 -416 0
415 -417 0
-418 419 420 421 422 423 424 0
418 -419 0
418 -420 0
418 -421 0
418 -422 0
418 -423 0
418 -424 0
-425 426 427 428 429 430 431 0
425 -426 0
425 -427 0
425 -428 0
425 -429 0
425 -430 0
425 -431 0
-432 433 434 435 436 437 438 0
432 -433 0
432 -434 0
432 -435 0
432 -436 0
432 -437 0
432 -438 0
2 -1 0
-2 1 0
4 -3 0
-4 3 0
6 -5 0
-6 5 0
8 -7 0
-8 7 0
10 -9 0
-10 9 0
12 -11 0
-12 11 0
14 -13 0
-14 13 0
16 -15 0
-16 15 0
18 -17 0
-18 17 0
20 -19 0
-20 19 0
22 -21 0
-22 21 0
24 -23 0
-24 23 0
26 -25 0
-26 25 0
28 -27 0
-28 27 0
30 -29 0
-30 29 0
32 -31 0
-32 31 0
34 -33 0
-34 33 0
36 -35 0
-36 35 0
38 -37 0
-38 37 0
40 -39 0
-40 39 0
42 -41 0
-42 41 0
44 -43 0
-44 43 0
46 -45 0
-46 45 0
48 -47 0
-48 47 0
50 -49 0
-50 49 0
52 -51 0
-52 51 0
54 -53 0
-54 53 0
56 -55 0
-56 55 0
58 -57 0
-58 57 0
60 -59 0
-60 59 0
62 -61 0
-62 61 0
64 -63 0
-64 63 0
66 -65 0
-66 65 0
68 -67 0
-68 67 0
70 -69 0
-70 69 0
72 -71 0
-72 71 0
74 -73 0
-74 73 0
76 -75 0
-76 75 0
78 -77 0
-78 77 0
80 -79 0
-80 79 0
82 -81 0
-82 81 0
84 -83 0
-84 83 0
86 -85 0
-86 85 0
88 -87 0
-88 87 0
90 -89 0
-90 89 0
92 -91 0
-92 91 0
94 -93 0
-94 93 0
96 -95 0
-96 95 0
98 -97 0
-98 97 0
100 -99 0
-100 99 0
102 -101 0
-102 101 0
104 -103 0
-104 103 0
106 -105 0
-106 105 0
108 -107 0
-108 107 0
110 -109 0
-110 109 0
112 -111 0
-112 111 0
114 -113 0
-114 113 0
116 -115 0
-116 115 0
118 -117 0
-118 117 0
120 -119 0
-120 119 0
122 -121 0
-122 121 0
124 -123 0
-124 123 0
126 -125 0
-126 125 0
128 -127 0
-128 127 0
130 -129 0
-130 129 0
132 -131 0
-132 131 0
134 -133 0
-134 133 0
439 -440 -441 0
-439 440 0
-439 441 0
136 -135 0
-136 135 0
442 -443 -204 0
-442 443 0
-442 204 0
444 -290 0
-444 290 0
445 -446 -201 0
-445 446 0
-445 201 0
447 -448 -297 0
-447 448 0
-447 297 0
449 -450 -214 0
-449 450 0
-449 214 0
451 -452 -307 0
-451 452 0
-451 307 0
453 -454 -455 0
-453 454 0
-453 455 0
456 -198 0
-456 198 0
457 -458 -459 0
-457 458 0
-457 459 0
460 -461 -354 0
-460 461 0
-460 354 0
462 -463 -366 0
-462 463 0
-462 366 0
464 -339 0
-464 339 0
465 -466 -467 0
-465 466 0
-465 467 0
468 -469 -201 0
-468 469 0
-468 201 0
470 -471 -323 0
-470 471 0
-470 323 0
472 -297 0
-472 297 0
473 -474 -310 0
-473 474 0
-473 310 0
475 -476 -204 0
-475 476 0
-475 204 0
477 -478 -290 0
-477 478 0
-477 290 0
479 -480 -214 0
-479 480 0
-479 214 0
481 -482 -198 0
-481 482 0
-481 198 0
483 -484 -307 0
-483 484 0
-483 307 0
485 -486 -487 0
-485 486 0
-485 487 0
488 -347 0
-488 347 0
489 -354 0
-489 354 0
490 -491 -492 0
-490 491 0
-490 492 0
493 -494 -307 0
-493 494 0
-493 307 0
495 -496 -297 0
-495 496 0
-495 297 0
497 -498 -201 0
-497 498 0
-497 201 0
499 -204 0
-499 204 0
500 -501 -173 0
-500 501 0
-500 173 0
502 -503 -290 0
-502 503 0
-502 290 0
504 -505 -310 0
-504 505 0
-504 310 0
506 -507 -214 0
-506 507 0
-506 214 0
508 -509 -284 0
-508 509 0
-508 284 0
510 -310 0
-510 310 0
511 -512 -513 0
-511 512 0
-511 513 0
514 -515 -459 0
-514 515 0
-514 459 0
516 -360 0
-516 360 0
517 -518 -487 0
-517 518 0
-517 487 0
519 -520 -492 0
-519 520 0
-519 492 0
521 -366 0
-521 366 0
522 -523 -201 0
-522 523 0
-522 201 0
524 -525 -198 0
-524 525 0
-524 198 0
526 -173 0
-526 173 0
527 -528 -204 0
-527 528 0
-527 204 0
529 -530 -214 0
-529 530 0
-529 214 0
531 -532 0
-531 532 0
533 -534 0
-533 534 0
138 -525 -142 0
-138 525 0
-138 142 0
139 -530 -148 0
-139 530 0
-139 148 0
140 -523 -145 0
-140 523 0
-140 145 0
141 -535 0
-141 535 0
143 -407 0
-143 407 0
144 -463 -217 0
-144 463 0
-144 217 0
146 -486 -217 0
-146 486 0
-146 217 0
147 -415 0
-147 415 0
149 -491 -142 0
-149 491 0
-149 142 0
150 -365 0
-150 365 0
152 -523 -160 0
-152 523 0
-152 160 0
153 -525 -157 0
-153 525 0
-153 157 0
154 -528 -163 0
-154 528 0
-154 163 0
155 -530 -170 0
-155 530 0
-155 170 0
156 -137 0
-156 137 0
158 -463 -228 0
-158 463 0
-158 228 0
159 -410 0
-159 410 0
161 -418 0
-161 418 0
162 -486 -228 0
-162 486 0
-162 228 0
164 -498 -145 0
-164 498 0
-164 145 0
165 -494 -222 0
-165 494 0
-165 222 0
166 -507 -148 0
-166 507 0
-166 148 0
167 -505 -225 0
-167 505 0
-167 225 0
168 -536 0
-168 536 0
169 -509 -217 0
-169 509 0
-169 217 0
171 -371 0
-171 371 0
172 -491 -157 0
-172 491 0
-172 157 0
174 -151 0
-174 151 0
175 -523 -182 0
-175 523 0
-175 182 0
176 -525 -179 0
-176 525 0
-176 179 0
177 -528 -185 0
-177 528 0
-177 185 0
178 -530 -195 0
-178 530 0
-178 195 0
180 -463 -254 0
-180 463 0
-180 254 0
181 -377 0
-181 377 0
183 -425 0
-183 425 0
184 -486 -254 0
-184 486 0
-184 254 0
186 -503 -234 0
-186 503 0
-186 234 0
187 -498 -160 0
-187 498 0
-187 160 0
188 -509 -228 0
-188 509 0
-188 228 0
189 -163 0
-189 163 0
190 -494 -247 0
-190 494 0
-190 247 0
191 -501 -137 0
-191 501 0
-191 137 0
192 -507 -170 0
-192 507 0
-192 170 0
193 -496 -239 0
-193 496 0
-193 239 0
194 -505 -250 0
-194 505 0
-194 250 0
196 -326 0
-196 326 0
197 -491 -179 0
-197 491 0
-197 179 0
199 -382 0
-199 382 0
200 -463 -284 0
-200 463 0
-200 284 0
202 -432 0
-202 432 0
203 -486 -284 0
-203 486 0
-203 284 0
205 -494 -277 0
-205 494 0
-205 277 0
206 -507 -195 0
-206 507 0
-206 195 0
207 -496 -267 0
-207 496 0
-207 267 0
208 -509 -254 0
-208 509 0
-208 254 0
209 -501 -151 0
-209 501 0
-209 151 0
210 -503 -260 0
-210 503 0
-210 260 0
211 -498 -182 0
-211 498 0
-211 182 0
212 -505 -280 0
-212 505 0
-212 280 0
213 -185 0
-213 185 0
215 -491 -198 0
-215 491 0
-215 198 0
216 -332 0
-216 332 0
218 -520 -407 0
-218 520 0
-218 407 0
219 -537 -415 0
-219 537 0
-219 415 0
220 -538 -338 0
-220 538 0
-220 338 0
221 -539 0
-221 539 0
223 -518 -217 0
-223 518 0
-223 217 0
224 -338 0
-224 338 0
226 -540 0
-226 540 0
227 -541 -135 0
-227 541 0
-227 135 0
229 -217 0
-229 217 0
230 -542 -163 0
-230 542 0
-230 163 0
231 -537 -418 0
-231 537 0
-231 418 0
232 -520 -410 0
-232 520 0
-232 410 0
233 -538 -342 0
-233 538 0
-233 342 0
235 -450 -148 0
-235 450 0
-235 148 0
236 -452 -222 0
-236 452 0
-236 222 0
237 -446 -145 0
-237 446 0
-237 145 0
238 -543 0
-238 543 0
240 -482 -142 0
-240 482 0
-240 142 0
241 -480 -148 0
-241 480 0
-241 148 0
242 -471 -314 0
-242 471 0
-242 314 0
243 -469 -145 0
-243 469 0
-243 145 0
244 -484 -222 0
-244 484 0
-244 222 0
245 -474 -225 0
-245 474 0
-245 225 0
246 -544 0
-246 544 0
248 -342 0
-248 342 0
249 -518 -228 0
-249 518 0
-249 228 0
251 -515 -239 0
-251 515 0
-251 239 0
252 -225 0
-252 225 0
253 -512 -163 0
-253 512 0
-253 163 0
255 -538 -387 0
-255 538 0
-255 387 0
256 -537 -425 0
-256 537 0
-256 425 0
257 -228 0
-257 228 0
258 -542 -185 0
-258 542 0
-258 185 0
259 -520 -377 0
-259 520 0
-259 377 0
261 -443 -163 0
-261 443 0
-261 163 0
262 -452 -247 0
-262 452 0
-262 247 0
263 -234 0
-263 234 0
264 -450 -170 0
-264 450 0
-264 170 0
265 -446 -160 0
-265 446 0
-265 160 0
266 -448 -239 0
-266 448 0
-266 239 0
268 -480 -170 0
-268 480 0
-268 170 0
269 -476 -163 0
-269 476 0
-269 163 0
270 -484 -247 0
-270 484 0
-270 247 0
271 -482 -157 0
-271 482 0
-271 157 0
272 -474 -250 0
-272 474 0
-272 250 0
273 -478 -234 0
-273 478 0
-273 234 0
274 -469 -160 0
-274 469 0
-274 160 0
275 -471 -317 0
-275 471 0
-275 317 0
276 -239 0
-276 239 0
278 -518 -254 0
-278 518 0
-278 254 0
279 -387 0
-279 387 0
281 -512 -185 0
-281 512 0
-281 185 0
282 -515 -267 0
-282 515 0
-282 267 0
283 -250 0
-283 250 0
285 -542 -204 0
-285 542 0
-285 204 0
286 -537 -432 0
-286 537 0
-286 432 0
287 -520 -382 0
-287 520 0
-287 382 0
288 -254 0
-288 254 0
289 -538 -392 0
-289 538 0
-289 392 0
291 -450 -195 0
-291 450 0
-291 195 0
292 -448 -267 0
-292 448 0
-292 267 0
293 -443 -185 0
-293 443 0
-293 185 0
294 -260 0
-294 260 0
295 -452 -277 0
-295 452 0
-295 277 0
296 -446 -182 0
-296 446 0
-296 182 0
298 -478 -260 0
-298 478 0
-298 260 0
299 -474 -280 0
-299 474 0
-299 280 0
300 -482 -179 0
-300 482 0
-300 179 0
301 -471 -320 0
-301 471 0
-301 320 0
302 -469 -182 0
-302 469 0
-302 182 0
303 -476 -185 0
-303 476 0
-303 185 0
304 -484 -277 0
-304 484 0
-304 277 0
305 -267 0
-305 267 0
306 -480 -195 0
-306 480 0
-306 195 0
308 -518 -284 0
-308 518 0
-308 284 0
309 -392 0
-309 392 0
311 -515 -297 0
-311 515 0
-311 297 0
312 -512 -204 0
-312 512 0
-312 204 0
313 -280 0
-313 280 0
315 -466 -145 0
-315 466 0
-315 145 0
316 -397 0
-316 397 0
318 -398 0
-318 398 0
319 -466 -160 0
-319 466 0
-319 160 0
321 -466 -182 0
-321 466 0
-321 182 0
322 -401 0
-322 401 0
324 -404 0
-324 404 0
325 -466 -201 0
-325 466 0
-325 201 0
327 -545 -185 0
-327 545 0
-327 185 0
328 -546 -267 0
-328 546 0
-328 267 0
329 -547 -151 0
-329 547 0
-329 151 0
330 -170 0
-330 170 0
331 -548 -260 0
-331 548 0
-331 260 0
333 -195 0
-333 195 0
334 -548 -290 0
-334 548 0
-334 290 0
335 -546 -297 0
-335 546 0
-335 297 0
336 -545 -204 0
-336 545 0
-336 204 0
337 -547 -173 0
-337 547 0
-337 173 0
549 -550 0
-549 550 0
340 -551 -459 0
-340 551 0
-340 459 0
341 -323 0
-341 323 0
343 -222 0
-343 222 0
344 -552 -163 0
-344 552 0
-344 163 0
345 -553 -239 0
-345 553 0
-345 239 0
346 -554 -234 0
-346 554 0
-346 234 0
348 -555 -455 0
-348 555 0
-348 455 0
349 -556 -513 0
-349 556 0
-349 513 0
350 -557 -459 0
-350 557 0
-350 459 0
351 -558 -339 0
-351 558 0
-351 339 0
352 -559 -560 0
-352 559 0
-352 560 0
353 -201 0
-353 201 0
355 -214 0
-355 214 0
356 -548 -560 0
-356 548 0
-356 560 0
357 -546 -459 0
-357 546 0
-357 459 0
358 -545 -513 0
-358 545 0
-358 513 0
359 -547 -455 0
-359 547 0
-359 455 0
361 -554 -560 0
-361 554 0
-361 560 0
362 -552 -513 0
-362 552 0
-362 513 0
363 -553 -459 0
-363 553 0
-363 459 0
364 -307 0
-364 307 0
561 -562 0
-561 562 0
367 -284 0
-367 284 0
368 -542 -513 0
-368 542 0
-368 513 0
369 -538 -360 0
-369 538 0
-369 360 0
370 -537 -347 0
-370 537 0
-370 347 0
372 -546 -239 0
-372 546 0
-372 239 0
373 -548 -234 0
-373 548 0
-373 234 0
374 -148 0
-374 148 0
375 -545 -163 0
-375 545 0
-375 163 0
376 -547 -137 0
-376 547 0
-376 137 0
378 -454 -151 0
-378 454 0
-378 151 0
379 -458 -267 0
-379 458 0
-379 267 0
380 -461 -326 0
-380 461 0
-380 326 0
381 -157 0
-381 157 0
383 -454 -173 0
-383 454 0
-383 173 0
384 -461 -332 0
-384 461 0
-384 332 0
385 -179 0
-385 179 0
386 -458 -297 0
-386 458 0
-386 297 0
388 -247 0
-388 247 0
389 -553 -267 0
-389 553 0
-389 267 0
390 -552 -185 0
-390 552 0
-390 185 0
391 -554 -260 0
-391 554 0
-391 260 0
393 -552 -204 0
-393 552 0
-393 204 0
394 -277 0
-394 277 0
395 -553 -297 0
-395 553 0
-395 297 0
396 -554 -290 0
-396 554 0
-396 290 0
563 -564 0
-563 564 0
399 -551 -239 0
-399 551 0
-399 239 0
400 -314 0
-400 314 0
402 -317 0
-402 317 0
403 -551 -267 0
-403 551 0
-403 267 0
405 -320 0
-405 320 0
406 -551 -297 0
-406 551 0
-406 297 0
408 -461 -365 0
-408 461 0
-408 365 0
409 -565 0
-409 565 0
411 -461 -371 0
-411 461 0
-411 371 0
412 -142 0
-412 142 0
413 -454 -137 0
-413 454 0
-413 137 0
414 -458 -239 0
-414 458 0
-414 239 0
416 -566 0
-416 566 0
417 -558 -397 0
-417 558 0
-417 397 0
419 -555 -137 0
-419 555 0
-419 137 0
420 -557 -239 0
-420 557 0
-420 239 0
421 -145 0
-421 145 0
422 -556 -163 0
-422 556 0
-422 163 0
423 -558 -398 0
-423 558 0
-423 398 0
424 -559 -234 0
-424 559 0
-424 234 0
426 -556 -185 0
-426 556 0
-426 185 0
427 -160 0
-427 160 0
428 -555 -151 0
-428 555 0
-428 151 0
429 -557 -267 0
-429 557 0
-429 267 0
430 -559 -260 0
-430 559 0
-430 260 0
431 -558 -401 0
-431 558 0
-431 401 0
433 -182 0
-433 182 0
434 -556 -204 0
-434 556 0
-434 204 0
435 -558 -404 0
-435 558 0
-435 404 0
436 -557 -297 0
-436 557 0
-436 297 0
437 -555 -173 0
-437 555 0
-437 173 0
438 -559 -290 0
-438 559 0
-438 290 0
-567 -1 2 0
567 1 0
567 -2 0
-568 1 -2 0
568 -1 0
568 2 0
-569 -3 4 0
569 3 0
569 -4 0
-570 3 -4 0
570 -3 0
570 4 0
-571 -5 6 0
571 5 0
571 -6 0
-572 5 -6 0
572 -5 0
572 6 0
-573 -7 8 0
573 7 0
573 -8 0
-574 7 -8 0
574 -7 0
574 8 0
-575 -9 10 0
575 9 0
575 -10 0
-576 9 -10 0
576 -9 0
576 10 0
-577 -11 12 0
577 11 0
577 -12 0
-578 11 -12 0
578 -11 0
578 12 0
-579 -13 14 0
579 13 0
579 -14 0
-580 13 -14 0
580 -13 0
580 14 0
-581 -15 16 0
581 15 0
581 -16 0
-582 15 -16 0
582 -15 0
582 16 0
-583 -17 18 0
583 17 0
583 -18 0
-584 17 -18 0
584 -17 0
584 18 0
-585 -19 20 0
585 19 0
585 -20 0
-586 19 -20 0
586 -19 0
586 20 0
-587 -21 22 0
587 21 0
587 -22 0
-588 21 -22 0
588 -21 0
588 22 0
-589 -23 24 0
589 23 0
589 -24 0
-590 23 -24 0
590 -23 0
590 24 0
-591 -25 26 0
591 25 0
591 -26 0
-592 25 -26 0
592 -25 0
592 26 0
-593 -27 28 0
593 27 0
593 -28 0
-594 27 -28 0
594 -27 0
594 28 0
-595 -29 30 0
595 29 0
595 -30 0
-596 29 -30 0
596 -29 0
596 30 0
-597 -31 32 0
597 31 0
597 -32 0
-598 31 -32 0
598 -31 0
598 32 0
-599 -33 34 0
599 33 0
599 -34 0
-600 33 -34 0
600 -33 0
600 34 0
-601 -35 36 0
601 35 0
601 -36 0
-602 35 -36 0
602 -35 0
602 36 0
-603 -37 38 0
603 37 0
603 -38 0
-604 37 -38 0
604 -37 0
604 38 0
-605 -39 40 0
605 39 0
605 -40 0
-606 39 -40 0
606 -39 0
606 40 0
-607 -41 42 0
607 41 0
607 -42 0
-608 41 -42 0
608 -41 0
608 42 0
-609 -43 44 0
609 43 0
609 -44 0
-610 43 -44 0
610 -43 0
610 44 0
-611 -45 46 0
611 45 0
611 -46 0
-612 45 -46 0
612 -45 0
612 46 0
-613 -47 48 0
613 47 0
613 -48 0
-614 47 -48 0
614 -47 0
614 48 0
-615 -49 50 0
615 49 0
615 -50 0
-616 49 -50 0
616 -49 0
616 50 0
-617 -51 52 0
617 51 0
617 -52 0
-618 51 -52 0
618 -51 0
618 52 0
-619 -53 54 0
619 53 0
619 -54 0
-620 53 -54 0
620 -53 0
620 54 0
-621 -55 56 0
621 55 0
621 -56 0
-622 55 -56 0
622 -55 0
622 56 0
-623 -57 58 0
623 57 0
623 -58 0
-624 57 -58 0
624 -57 0
624 58 0
-625 -59 60 0
625 59 0
625 -60 0
-626 59 -60 0
626 -59 0
626 60 0
-627 -61 62 0
627 61 0
627 -62 0
-628 61 -62 0
628 -61 0
628 62 0
-629 -63 64 0
629 63 0
629 -64 0
-630 63 -64 0
630 -63 0
630 64 0
-631 -65 66 0
631 65 0
631 -66 0
-632 65 -66 0
632 -65 0
632 66 0
-633 -67 68 0
633 67 0
633 -68 0
-634 67 -68 0
634 -67 0
634 68 0
-635 -69 70 0
635 69 0
635 -70 0
-636 69 -70 0
636 -69 0
636 70 0
-637 -71 72 0
637 71 0
637 -72 0
-638 71 -72 0
638 -71 0
638 72 0
-639 -73 74 0
639 73 0
639 -74 0
-640 73 -74 0
640 -73 0
640 74 0
-641 -75 76 0
641 75 0
641 -76 0
-642 75 -76 0
642 -75 0
642 76 0
-643 -77 78 0
643 77 0
643 -78 0
-644 77 -78 0
644 -77 0
644 78 0
-645 -79 80 0
645 79 0
645 -80 0
-646 79 -80 0
646 -79 0
646 80 0
-647 -81 82 0
647 81 0
647 -82 0
-648 81 -82 0
648 -81 0
648 82 0
-649 -83 84 0
649 83 0
649 -84 0
-650 83 -84 0
650 -83 0
650 84 0
-651 -85 86 0
651 85 0
651 -86 0
-652 85 -86 0
652 -85 0
652 86 0
-653 -87 88 0
653 87 0
653 -88 0
-654 87 -88 0
654 -87 0
654 88 0
-655 -89 90 0
655 89 0
655 -90 0
-656 89 -90 0
656 -89 0
656 90 0
-657 -91 92 0
657 91 0
657 -92 0
-658 91 -92 0
658 -91 0
658 92 0
-659 -93 94 0
659 93 0
659 -94 0
-660 93 -94 0
660 -93 0
660 94 0
-661 -95 96 0
661 95 0
661 -96 0
-662 95 -96 0
662 -95 0
662 96 0
-663 -97 98 0
663 97 0
663 -98 0
-664 97 -98 0
664 -97 0
664 98 0
-665 -99 100 0
665 99 0
665 -100 0
-666 99 -100 0
666 -99 0
666 100 0
-667 -101 102 0
667 101 0
667 -102 0
-668 101 -102 0
668 -101 0
668 102 0
-669 -103 104 0
669 103 0
669 -104 0
-670 103 -104 0
670 -103 0
670 104 0
-671 -105 106 0
671 105 0
671 -106 0
-672 105 -106 0
672 -105 0
672 106 0
-673 -107 108 0
673 107 0
673 -108 0
-674 107 -108 0
674 -107 0
674 108 0
-675 -109 110 0
675 109 0
675 -110 0
-676 109 -110 0
676 -109 0
676 110 0
-677 -111 112 0
677 111 0
677 -112 0
-678 111 -112 0
678 -111 0
678 112 0
-679 -113 114 0
679 113 0
679 -114 0
-680 113 -114 0
680 -113 0
680 114 0
-681 -115 116 0
681 115 0
681 -116 0
-682 115 -116 0
682 -115 0
682 116 0
-683 -117 118 0
683 117 0
683 -118 0
-684 117 -118 0
684 -117 0
684 118 0
-685 -119 120 0
685 119 0
685 -120 0
-686 119 -120 0
686 -119 0
686 120 0
-687 -121 122 0
687 121 0
687 -122 0
-688 121 -122 0
688 -121 0
688 122 0
-689 -123 124 0
689 123 0
689 -124 0
-690 123 -124 0
690 -123 0
690 124 0
-691 -125 126 0
691 125 0
691 -126 0
-692 125 -126 0
692 -125 0
692 126 0
-693 -127 128 0
693 127 0
693 -128 0
-694 127 -128 0
694 -127 0
694 128 0
-695 -129 130 0
695 129 0
695 -130 0
-696 129 -130 0
696 -129 0
696 130 0
-697 -131 132 0
697 131 0
697 -132 0
-698 131 -132 0
698 -131 0
698 132 0
-699 -133 134 0
699 133 0
699 -134 0
-700 133 -134 0
700 -133 0
700 134 0
-701 136 -135 0
701 -136 0
701 135 0
-702 -136 135 0
702 136 0
702 -135 0
-703 -704 439 136 0
703 704 0
703 -439 0
703 -136 0
-705 704 -439 0
705 -704 0
705 439 0
-706 704 -136 0
706 -704 0
706 136 0
-707 444 -290 0
707 -444 0
707 290 0
-708 -444 290 0
708 444 0
708 -290 0
-709 -560 442 444 445 447 449 451 0
709 560 0
709 -442 0
709 -444 0
709 -445 0
709 -447 0
709 -449 0
709 -451 0
-710 560 -442 0
710 -560 0
710 442 0
-711 560 -444 0
711 -560 0
711 444 0
-712 560 -445 0
712 -560 0
712 445 0
-713 560 -447 0
713 -560 0
713 447 0
-714 560 -449 0
714 -560 0
714 449 0
-715 560 -451 0
715 -560 0
715 451 0
-716 456 -198 0
716 -456 0
716 198 0
-717 -456 198 0
717 456 0
717 -198 0
-718 -492 453 456 457 460 462 0
718 492 0
718 -453 0
718 -456 0
718 -457 0
718 -460 0
718 -462 0
-719 492 -453 0
719 -492 0
719 453 0
-720 492 -456 0
720 -492 0
720 456 0
-721 492 -457 0
721 -492 0
721 457 0
-722 492 -460 0
722 -492 0
722 460 0
-723 492 -462 0
723 -492 0
723 462 0
-724 464 -339 0
724 -464 0
724 339 0
-725 -464 339 0
725 464 0
725 -339 0
-726 -727 464 465 0
726 727 0
726 -464 0
726 -465 0
-728 727 -464 0
728 -727 0
728 464 0
-729 727 -465 0
729 -727 0
729 465 0
-730 472 -297 0
730 -472 0
730 297 0
-731 -472 297 0
731 472 0
731 -297 0
-732 -459 468 470 472 473 475 477 479 481 483 0
732 459 0
732 -468 0
732 -470 0
732 -472 0
732 -473 0
732 -475 0
732 -477 0
732 -479 0
732 -481 0
732 -483 0
-733 459 -468 0
733 -459 0
733 468 0
-734 459 -470 0
734 -459 0
734 470 0
-735 459 -472 0
735 -459 0
735 472 0
-736 459 -473 0
736 -459 0
736 473 0
-737 459 -475 0
737 -459 0
737 475 0
-738 459 -477 0
738 -459 0
738 477 0
-739 459 -479 0
739 -459 0
739 479 0
-740 459 -481 0
740 -459 0
740 481 0
-741 459 -483 0
741 -459 0
741 483 0
-742 488 -347 0
742 -488 0
742 347 0
-743 -488 347 0
743 488 0
743 -347 0
-744 -467 485 488 0
744 467 0
744 -485 0
744 -488 0
-745 467 -485 0
745 -467 0
745 485 0
-746 467 -488 0
746 -467 0
746 488 0
-747 489 -354 0
747 -489 0
747 354 0
-748 -489 354 0
748 489 0
748 -354 0
-749 -750 489 490 0
749 750 0
749 -489 0
749 -490 0
-751 750 -489 0
751 -750 0
751 489 0
-752 750 -490 0
752 -750 0
752 490 0
-753 499 -204 0
753 -499 0
753 204 0
-754 -499 204 0
754 499 0
754 -204 0
-755 -513 493 495 497 499 500 502 504 506 508 0
755 513 0
755 -493 0
755 -495 0
755 -497 0
755 -499 0
755 -500 0
755 -502 0
755 -504 0
755 -506 0
755 -508 0
-756 513 -493 0
756 -513 0
756 493 0
-757 513 -495 0
757 -513 0
757 495 0
-758 513 -497 0
758 -513 0
758 497 0
-759 513 -499 0
759 -513 0
759 499 0
-760 513 -500 0
760 -513 0
760 500 0
-761 513 -502 0
761 -513 0
761 502 0
-762 513 -504 0
762 -513 0
762 504 0
-763 513 -506 0
763 -513 0
763 506 0
-764 513 -508 0
764 -513 0
764 508 0
-765 510 -310 0
765 -510 0
765 310 0
-766 -510 310 0
766 510 0
766 -310 0
-767 -441 510 511 514 0
767 441 0
767 -510 0
767 -511 0
767 -514 0
-768 441 -510 0
768 -441 0
768 510 0
-769 441 -511 0
769 -441 0
769 511 0
-770 441 -514 0
770 -441 0
770 514 0
-771 516 -360 0
771 -516 0
771 360 0
-772 -516 360 0
772 516 0
772 -360 0
-773 -774 516 517 0
773 774 0
773 -516 0
773 -517 0
-775 774 -516 0
775 -774 0
775 516 0
-776 774 -517 0
776 -774 0
776 517 0
-777 521 -366 0
777 -521 0
777 366 0
-778 -521 366 0
778 521 0
778 -366 0
-779 -487 519 521 0
779 487 0
779 -519 0
779 -521 0
-780 487 -519 0
780 -487 0
780 519 0
-781 487 -521 0
781 -487 0
781 521 0
-782 526 -173 0
782 -526 0
782 173 0
-783 -526 173 0
783 526 0
783 -173 0
-784 -455 522 524 526 527 529 0
784 455 0
784 -522 0
784 -524 0
784 -526 0
784 -527 0
784 -529 0
-785 455 -522 0
785 -455 0
785 522 0
-786 455 -524 0
786 -455 0
786 524 0
-787 455 -526 0
787 -455 0
787 526 0
-788 455 -527 0
788 -455 0
788 527 0
-789 455 -529 0
789 -455 0
789 529 0
-790 531 -532 0
790 -531 0
790 532 0
-791 -531 532 0
791 531 0
791 -532 0
-792 -793 531 0
792 793 0
792 -531 0
-794 793 -531 0
794 -793 0
794 531 0
-795 533 -534 0
795 -533 0
795 534 0
-796 -533 534 0
796 533 0
796 -534 0
-797 -135 533 0
797 135 0
797 -533 0
-798 135 -533 0
798 -135 0
798 533 0
-799 141 -535 0
799 -141 0
799 535 0
-800 -141 535 0
800 141 0
800 -535 0
-801 143 -407 0
801 -143 0
801 407 0
-802 -143 407 0
802 143 0
802 -407 0
-803 147 -415 0
803 -147 0
803 415 0
-804 -147 415 0
804 147 0
804 -415 0
-805 150 -365 0
805 -150 0
805 365 0
-806 -150 365 0
806 150 0
806 -365 0
-807 156 -137 0
807 -156 0
807 137 0
-808 -156 137 0
808 156 0
808 -137 0
-809 159 -410 0
809 -159 0
809 410 0
-810 -159 410 0
810 159 0
810 -410 0
-811 161 -418 0
811 -161 0
811 418 0
-812 -161 418 0
812 161 0
812 -418 0
-813 168 -536 0
813 -168 0
813 536 0
-814 -168 536 0
814 168 0
814 -536 0
-815 171 -371 0
815 -171 0
815 371 0
-816 -171 371 0
816 171 0
816 -371 0
-817 174 -151 0
817 -174 0
817 151 0
-818 -174 151 0
818 174 0
818 -151 0
-819 181 -377 0
819 -181 0
819 377 0
-820 -181 377 0
820 181 0
820 -377 0
-821 183 -425 0
821 -183 0
821 425 0
-822 -183 425 0
822 183 0
822 -425 0
-823 189 -163 0
823 -189 0
823 163 0
-824 -189 163 0
824 189 0
824 -163 0
-825 196 -326 0
825 -196 0
825 326 0
-826 -196 326 0
826 196 0
826 -326 0
-827 199 -382 0
827 -199 0
827 382 0
-828 -199 382 0
828 199 0
828 -382 0
-829 202 -432 0
829 -202 0
829 432 0
-830 -202 432 0
830 202 0
830 -432 0
-831 213 -185 0
831 -213 0
831 185 0
-832 -213 185 0
832 213 0
832 -185 0
-833 216 -332 0
833 -216 0
833 332 0
-834 -216 332 0
834 216 0
834 -332 0
-835 221 -539 0
835 -221 0
835 539 0
-836 -221 539 0
836 221 0
836 -539 0
-837 224 -338 0
837 -224 0
837 338 0
-838 -224 338 0
838 224 0
838 -338 0
-839 226 -540 0
839 -226 0
839 540 0
-840 -226 540 0
840 226 0
840 -540 0
-841 229 -217 0
841 -229 0
841 217 0
-842 -229 217 0
842 229 0
842 -217 0
-843 238 -543 0
843 -238 0
843 543 0
-844 -238 543 0
844 238 0
844 -543 0
-845 246 -544 0
845 -246 0
845 544 0
-846 -246 544 0
846 246 0
846 -544 0
-847 248 -342 0
847 -248 0
847 342 0
-848 -248 342 0
848 248 0
848 -342 0
-849 252 -225 0
849 -252 0
849 225 0
-850 -252 225 0
850 252 0
850 -225 0
-851 257 -228 0
851 -257 0
851 228 0
-852 -257 228 0
852 257 0
852 -228 0
-853 263 -234 0
853 -263 0
853 234 0
-854 -263 234 0
854 263 0
854 -234 0
-855 276 -239 0
855 -276 0
855 239 0
-856 -276 239 0
856 276 0
856 -239 0
-857 279 -387 0
857 -279 0
857 387 0
-858 -279 387 0
858 279 0
858 -387 0
-859 283 -250 0
859 -283 0
859 250 0
-860 -283 250 0
860 283 0
860 -250 0
-861 288 -254 0
861 -288 0
861 254 0
-862 -288 254 0
862 288 0
862 -254 0
-863 294 -260 0
863 -294 0
863 260 0
-864 -294 260 0
864 294 0
864 -260 0
-865 305 -267 0
865 -305 0
865 267 0
-866 -305 267 0
866 305 0
866 -267 0
-867 309 -392 0
867 -309 0
867 392 0
-868 -309 392 0
868 309 0
868 -392 0
-869 313 -280 0
869 -313 0
869 280 0
-870 -313 280 0
870 313 0
870 -280 0
-871 316 -397 0
871 -316 0
871 397 0
-872 -316 397 0
872 316 0
872 -397 0
-873 318 -398 0
873 -318 0
873 398 0
-874 -318 398 0
874 318 0
874 -398 0
-875 322 -401 0
875 -322 0
875 401 0
-876 -322 401 0
876 322 0
876 -401 0
-877 324 -404 0
877 -324 0
877 404 0
-878 -324 404 0
878 324 0
878 -404 0
-879 330 -170 0
879 -330 0
879 170 0
-880 -330 170 0
880 330 0
880 -170 0
-881 333 -195 0
881 -333 0
881 195 0
-882 -333 195 0
882 333 0
882 -195 0
-883 549 -550 0
883 -549 0
883 550 0
-884 -549 550 0
884 549 0
884 -550 0
-885 -338 549 0
885 338 0
885 -549 0
-886 338 -549 0
886 -338 0
886 549 0
-887 341 -323 0
887 -341 0
887 323 0
-888 -341 323 0
888 341 0
888 -323 0
-889 343 -222 0
889 -343 0
889 222 0
-890 -343 222 0
890 343 0
890 -222 0
-891 353 -201 0
891 -353 0
891 201 0
-892 -353 201 0
892 353 0
892 -201 0
-893 355 -214 0
893 -355 0
893 214 0
-894 -355 214 0
894 355 0
894 -214 0
-895 364 -307 0
895 -364 0
895 307 0
-896 -364 307 0
896 364 0
896 -307 0
-897 561 -562 0
897 -561 0
897 562 0
-898 -561 562 0
898 561 0
898 -562 0
-899 -365 561 0
899 365 0
899 -561 0
-900 365 -561 0
900 -365 0
900 561 0
-901 367 -284 0
901 -367 0
901 284 0
-902 -367 284 0
902 367 0
902 -284 0
-903 374 -148 0
903 -374 0
903 148 0
-904 -374 148 0
904 374 0
904 -148 0
-905 381 -157 0
905 -381 0
905 157 0
-906 -381 157 0
906 381 0
906 -157 0
-907 385 -179 0
907 -385 0
907 179 0
-908 -385 179 0
908 385 0
908 -179 0
-909 388 -247 0
909 -388 0
909 247 0
-910 -388 247 0
910 388 0
910 -247 0
-911 394 -277 0
911 -394 0
911 277 0
-912 -394 277 0
912 394 0
912 -277 0
-913 563 -564 0
913 -563 0
913 564 0
-914 -563 564 0
914 563 0
914 -564 0
-915 -397 563 0
915 397 0
915 -563 0
-916 397 -563 0
916 -397 0
916 563 0
-917 400 -314 0
917 -400 0
917 314 0
-918 -400 314 0
918 400 0
918 -314 0
-919 402 -317 0
919 -402 0
919 317 0
-920 -402 317 0
920 402 0
920 -317 0
-921 405 -320 0
921 -405 0
921 320 0
-922 -405 320 0
922 405 0
922 -320 0
-923 409 -565 0
923 -409 0
923 565 0
-924 -409 565 0
924 409 0
924 -565 0
-925 412 -142 0
925 -412 0
925 142 0
-926 -412 142 0
926 412 0
926 -142 0
-927 416 -566 0
927 -416 0
927 566 0
-928 -416 566 0
928 416 0
928 -566 0
-929 421 -145 0
929 -421 0
929 145 0
-930 -421 145 0
930 421 0
930 -145 0
-931 427 -160 0
931 -427 0
931 160 0
-932 -427 160 0
932 427 0
932 -160 0
-933 433 -182 0
933 -433 0
933 182 0
-934 -433 182 0
934 433 0
934 -182 0
567 0
568 0
569 0
570 0
571 0
572 0
573 0
574 0
575 0
576 0
577 0
578 0
579 0
580 0
581 0
582 0
583 0
584 0
585 0
586 0
587 0
588 0
589 0
590 0
591 0
592 0
593 0
594 0
595 0
596 0
597 0
598 0
599 0
600 0
601 0
602 0
603 0
604 0
605 0
606 0
607 0
608 0
609 0
610 0
611 0
612 0
613 0
614 0
615 0
616 0
617 0
618 0
619 0
620 0
621 0
622 0
623 0
624 0
625 0
626 0
627 0
628 0
629 0
630 0
631 0
632 0
633 0
634 0
635 0
636 0
637 0
638 0
639 0
640 0
641 0
642 0
643 0
644 0
645 0
646 0
647 0
648 0
649 0
650 0
651 0
652 0
653 0
654 0
655 0
656 0
657 0
658 0
659 0
660 0
661 0
662 0
663 0
664 0
665 0
666 0
667 0
668 0
669 0
670 0
671 0
672 0
673 0
674 0
675 0
676 0
677 0
678 0
679 0
680 0
681 0
682 0
683 0
684 0
685 0
686 0
687 0
688 0
689 0
690 0
691 0
692 0
693 0
694 0
695 0
696 0
697 0
698 0
699 0
700 0
701 0
702 0
703 0
705 0
706 0
707 0
708 0
709 0
710 0
711 0
712 0
713 0
714 0
715 0
716 0
717 0
718 0
719 0
720 0
721 0
722 0
723 0
724 0
725 0
726 0
728 0
729 0
730 0
731 0
732 0
733 0
734 0
735 0
736 0
737 0
738 0
739 0
740 0
741 0
742 0
743 0
744 0
745 0
746 0
747 0
748 0
749 0
751 0
752 0
753 0
754 0
755 0
756 0
757 0
758 0
759 0
760 0
761 0
762 0
763 0
764 0
765 0
766 0
767 0
768 0
769 0
770 0
771 0
772 0
773 0
775 0
776 0
777 0
778 0
779 0
780 0
781 0
782 0
783 0
784 0
785 0
786 0
787 0
788 0
789 0
790 0
791 0
792 0
794 0
795 0
796 0
797 0
798 0
799 0
800 0
801 0
802 0
803 0
804 0
805 0
806 0
807 0
808 0
809 0
810 0
811 0
812 0
813 0
814 0
815 0
816 0
817 0
818 0
819 0
820 0
821 0
822 0
823 0
824 0
825 0
826 0
827 0
828 0
829 0
830 0
831 0
832 0
833 0
834 0
835 0
836 0
837 0
838 0
839 0
840 0
841 0
842 0
843 0
844 0
845 0
846 0
847 0
848 0
849 0
850 0
851 0
852 0
853 0
854 0
855 0
856 0
857 0
858 0
859 0
860 0
861 0
862 0
863 0
864 0
865 0
866 0
867 0
868 0
869 0
870 0
871 0
872 0
873 0
874 0
875 0
876 0
877 0
878 0
879 0
880 0
881 0
882 0
883 0
884 0
885 0
886 0
887 0
888 0
889 0
890 0
891 0
892 0
893 0
894 0
895 0
896 0
897 0
898 0
899 0
900 0
901 0
902 0
903 0
904 0
905 0
906 0
907 0
908 0
909 0
910 0
911 0
912 0
913 0
914 0
915 0
916 0
917 0
918 0
919 0
920 0
921 0
922 0
923 0
924 0
925 0
926 0
927 0
928 0
929 0
930 0
931 0
932 0
933 0
934 0
2 0
4 0
6 0
8 0
10 0
12 0
14 0
16 0
18 0
20 0
22 0
24 0
26 0
28 0
30 0
32 0
34 0
36 0
38 0
40 0
42 0
44 0
46 0
48 0
50 0
52 0
54 0
56 0
58 0
60 0
62 0
64 0
66 0
68 0
70 0
72 0
74 0
76 0
78 0
80 0
82 0
84 0
86 0
88 0
90 0
92 0
94 0
96 0
98 0
100 0
102 0
104 0
106 0
108 0
110 0
112 0
114 0
116 0
118 0
120 0
122 0
124 0
126 0
128 0
130 0
132 0
134 0
