c BC-S1.2
p cnf 673 2081
1 -2 0
-1 2 0
3 -4 0
-3 4 0
5 -6 0
-5 6 0
7 -8 0
-7 8 0
9 -10 0
-9 10 0
11 -12 0
-11 12 0
13 -14 0
-13 14 0
15 -16 0
-15 16 0
17 -18 0
-17 18 0
19 -20 0
-19 20 0
21 -22 0
-21 22 0
23 -24 0
-23 24 0
25 -26 0
-25 26 0
27 -28 0
-27 28 0
29 -30 0
-29 30 0
31 -32 0
-31 32 0
33 -34 0
-33 34 0
35 -36 0
-35 36 0
37 -38 0
-37 38 0
39 -40 0
-39 40 0
41 -42 0
-41 42 0
43 -44 0
-43 44 0
45 -46 0
-45 46 0
47 -48 0
-47 48 0
49 -50 0
-49 50 0
51 -52 0
-51 52 0
53 -54 0
-53 54 0
55 -56 0
-55 56 0
57 -58 0
-57 58 0
59 -60 0
-59 60 0
61 -62 0
-61 62 0
63 -64 0
-63 64 0
65 -66 0
-65 66 0
67 -68 0
-67 68 0
69 -70 0
-69 70 0
71 -72 0
-71 72 0
73 -74 0
-73 74 0
75 -76 0
-75 76 0
77 -78 0
-77 78 0
79 -80 0
-79 80 0
81 -82 0
-81 82 0
83 -84 0
-83 84 0
85 -86 0
-85 86 0
87 -88 0
-87 88 0
89 -90 0
-89 90 0
91 -92 0
-91 92 0
93 -94 0
-93 94 0
95 -96 0
-95 96 0
97 -98 0
-97 98 0
99 -100 0
-99 100 0
101 -102 0
-101 102 0
-103 104 105 106 107 108 109 0
103 -104 0
103 -105 0
103 -106 0
103 -107 0
103 -108 0
103 -109 0
-110 111 112 0
110 -111 0
110 -112 0
-113 114 115 0
113 -114 0
113 -115 0
-116 117 118 119 120 0
116 -117 0
116 -118 0
116 -119 0
116 -120 0
-121 122 123 0
121 -122 0
121 -123 0
-124 125 126 0
124 -125 0
124 -126 0
-127 128 129 130 131 132 133 134 0
127 -128 0
127 -129 0
127 -130 0
127 -131 0
127 -132 0
127 -133 0
127 -134 0
-135 136 137 0
135 -136 0
135 -137 0
-138 139 140 141 142 143 0
138 -139 0
138 -140 0
138 -141 0
138 -142 0
138 -143 0
-144 145 146 147 148 149 0
144 -145 0
144 -146 0
144 -147 0
144 -148 0
144 -149 0
-150 151 152 0
150 -151 0
150 -152 0
-153 154 155 0
153 -154 0
153 -155 0
-156 157 158 159 160 161 162 0
156 -157 0
156 -158 0
156 -159 0
156 -160 0
156 -161 0
156 -162 0
-163 164 165 166 167 168 0
163 -164 0
163 -165 0
163 -166 0
163 -167 0
163 -168 0
-169 170 171 0
169 -170 0
169 -171 0
-172 173 174 175 176 177 0
172 -173 0
172 -174 0
172 -175 0
172 -176 0
172 -177 0
-178 179 180 0
178 -179 0
178 -180 0
-181 182 183 0
181 -182 0
181 -183 0
-184 185 186 187 188 189 190 191 192 0
184 -185 0
184 -186 0
184 -187 0
184 -188 0
184 -189 0
184 -190 0
184 -191 0
184 -192 0
-193 194 195 196 197 0
193 -194 0
193 -195 0
193 -196 0
193 -197 0
-198 199 200 0
198 -199 0
198 -200 0
-201 202 203 204 205 206 0
201 -202 0
201 -203 0
201 -204 0
201 -205 0
201 -206 0
-207 208 209 0
207 -208 0
207 -209 0
-210 211 212 0
210 -211 0
210 -212 0
-213 214 215 0
213 -214 0
213 -215 0
-216 217 218 0
216 -217 0
216 -218 0
-219 220 221 0
219 -220 0
219 -221 0
-222 223 224 225 226 0
222 -223 0
222 -224 0
222 -225 0
222 -226 0
-227 228 229 0
227 -228 0
227 -229 0
-230 231 232 233 234 0
230 -231 0
230 -232 0
230 -233 0
230 -234 0
235 -200 0
-235 200 0
-236 237 238 239 0
236 -237 0
236 -238 0
236 -239 0
-240 241 242 243 0
240 -241 0
240 -242 0
240 -243 0
244 -215 0
-244 215 0
-245 246 247 0
245 -246 0
245 -247 0
-248 249 250 0
248 -249 0
248 -250 0
-251 252 253 0
251 -252 0
251 -253 0
-254 255 256 257 258 0
254 -255 0
254 -256 0
254 -257 0
254 -258 0
-259 260 261 262 263 0
259 -260 0
259 -261 0
259 -262 0
259 -263 0
-264 265 266 267 0
264 -265 0
264 -266 0
264 -267 0
-268 269 270 0
268 -269 0
268 -270 0
-271 272 273 0
271 -272 0
271 -273 0
274 -123 0
-274 123 0
275 -126 0
-275 126 0
-276 277 278 279 280 0
276 -277 0
276 -278 0
276 -279 0
276 -280 0
-281 282 283 0
281 -282 0
281 -283 0
-284 285 286 287 288 0
284 -285 0
284 -286 0
284 -287 0
284 -288 0
2 -1 0
-2 1 0
4 -3 0
-4 3 0
6 -5 0
-6 5 0
8 -7 0
-8 7 0
10 -9 0
-10 9 0
12 -11 0
-12 11 0
14 -13 0
-14 13 0
16 -15 0
-16 15 0
18 -17 0
-18 17 0
20 -19 0
-20 19 0
22 -21 0
-22 21 0
24 -23 0
-24 23 0
26 -25 0
-26 25 0
28 -27 0
-28 27 0
30 -29 0
-30 29 0
32 -31 0
-32 31 0
34 -33 0
-34 33 0
36 -35 0
-36 35 0
38 -37 0
-38 37 0
40 -39 0
-40 39 0
42 -41 0
-42 41 0
44 -43 0
-44 43 0
46 -45 0
-46 45 0
48 -47 0
-48 47 0
50 -49 0
-50 49 0
52 -51 0
-52 51 0
54 -53 0
-54 53 0
56 -55 0
-56 55 0
58 -57 0
-58 57 0
60 -59 0
-60 59 0
62 -61 0
-62 61 0
64 -63 0
-64 63 0
66 -65 0
-66 65 0
68 -67 0
-68 67 0
70 -69 0
-70 69 0
72 -71 0
-72 71 0
74 -73 0
-74 73 0
76 -75 0
-76 75 0
78 -77 0
-78 77 0
80 -79 0
-80 79 0
82 -81 0
-82 81 0
84 -83 0
-84 83 0
86 -85 0
-86 85 0
88 -87 0
-88 87 0
90 -89 0
-90 89 0
92 -91 0
-92 91 0
94 -93 0
-94 93 0
96 -95 0
-96 95 0
98 -97 0
-98 97 0
100 -99 0
-100 99 0
102 -101 0
-102 101 0
289 -251 0
-289 251 0
290 -291 -292 0
-290 291 0
-290 292 0
293 -254 0
-293 254 0
294 -295 -296 0
-294 295 0
-294 296 0
297 -259 0
-297 259 0
298 -299 -292 0
-298 299 0
-298 292 0
300 -264 0
-300 264 0
301 -302 -296 0
-301 302 0
-301 296 0
303 -304 -296 0
-303 304 0
-303 296 0
305 -268 0
-305 268 0
306 -307 -163 0
-306 307 0
-306 163 0
308 -309 -210 0
-308 309 0
-308 210 0
310 -311 -219 0
-310 311 0
-310 219 0
312 -313 -169 0
-312 313 0
-312 169 0
314 -184 0
-314 184 0
315 -316 -127 0
-315 316 0
-315 127 0
317 -318 -201 0
-317 318 0
-317 201 0
319 -320 -181 0
-319 320 0
-319 181 0
321 -322 -169 0
-321 322 0
-321 169 0
323 -324 -181 0
-323 324 0
-323 181 0
325 -326 -184 0
-325 326 0
-325 184 0
327 -328 -178 0
-327 328 0
-327 178 0
329 -330 -163 0
-329 330 0
-329 163 0
331 -127 0
-331 127 0
332 -333 -172 0
-332 333 0
-332 172 0
334 -163 0
-334 163 0
335 -336 -337 0
-335 336 0
-335 337 0
338 -339 -251 0
-338 339 0
-338 251 0
340 -341 -259 0
-340 341 0
-340 259 0
342 -343 -344 0
-342 343 0
-342 344 0
345 -346 -337 0
-345 346 0
-345 337 0
347 -348 -254 0
-347 348 0
-347 254 0
349 -350 -264 0
-349 350 0
-349 264 0
351 -352 -268 0
-351 352 0
-351 268 0
353 -172 0
-353 172 0
354 -355 -169 0
-354 355 0
-354 169 0
356 -357 -210 0
-356 357 0
-356 210 0
358 -201 0
-358 201 0
359 -360 -181 0
-359 360 0
-359 181 0
361 -362 -184 0
-361 362 0
-361 184 0
363 -364 0
-363 364 0
104 -328 -121 0
-104 328 0
-104 121 0
105 -330 -110 0
-105 330 0
-105 110 0
106 -324 -124 0
-106 324 0
-106 124 0
107 -333 -116 0
-107 333 0
-107 116 0
108 -322 -113 0
-108 322 0
-108 113 0
109 -365 0
-109 365 0
111 -271 0
-111 271 0
112 -341 -113 0
-112 341 0
-112 113 0
114 -366 0
-114 366 0
115 -299 -271 0
-115 299 0
-115 271 0
117 -350 -235 0
-117 350 0
-117 235 0
118 -352 -274 0
-118 352 0
-118 274 0
119 -367 0
-119 367 0
120 -348 -275 0
-120 348 0
-120 275 0
122 -304 -116 0
-122 304 0
-122 116 0
123 -274 0
-123 274 0
125 -295 -116 0
-125 295 0
-125 116 0
126 -275 0
-126 275 0
128 -324 -153 0
-128 324 0
-128 153 0
129 -330 -135 0
-129 330 0
-129 135 0
130 -326 -156 0
-130 326 0
-130 156 0
131 -328 -150 0
-131 328 0
-131 150 0
132 -322 -138 0
-132 322 0
-132 138 0
133 -103 0
-133 103 0
134 -333 -144 0
-134 333 0
-134 144 0
136 -276 0
-136 276 0
137 -341 -138 0
-137 341 0
-137 138 0
139 -299 -276 0
-139 299 0
-139 276 0
140 -368 -193 0
-140 368 0
-140 193 0
141 -113 0
-141 113 0
142 -369 -156 0
-142 369 0
-142 156 0
143 -370 -103 0
-143 370 0
-143 103 0
145 -116 0
-145 116 0
146 -346 -103 0
-146 346 0
-146 103 0
147 -350 -236 0
-147 350 0
-147 236 0
148 -352 -281 0
-148 352 0
-148 281 0
149 -348 -284 0
-149 348 0
-149 284 0
151 -281 0
-151 281 0
152 -304 -144 0
-152 304 0
-152 144 0
154 -284 0
-154 284 0
155 -295 -144 0
-155 295 0
-155 144 0
157 -311 -213 0
-157 311 0
-157 213 0
158 -371 0
-158 371 0
159 -320 -124 0
-159 320 0
-159 124 0
160 -307 -110 0
-160 307 0
-160 110 0
161 -309 -198 0
-161 309 0
-161 198 0
162 -313 -113 0
-162 313 0
-162 113 0
164 -341 -222 0
-164 341 0
-164 222 0
165 -135 0
-165 135 0
166 -339 -248 0
-166 339 0
-166 248 0
167 -336 -127 0
-167 336 0
-167 127 0
168 -343 -184 0
-168 343 0
-168 184 0
170 -299 -163 0
-170 299 0
-170 163 0
171 -222 0
-171 222 0
173 -350 -240 0
-173 350 0
-173 240 0
174 -348 -230 0
-174 348 0
-174 230 0
175 -352 -227 0
-175 352 0
-175 227 0
176 -346 -127 0
-176 346 0
-176 127 0
177 -144 0
-177 144 0
179 -227 0
-179 227 0
180 -304 -172 0
-180 304 0
-180 172 0
182 -295 -172 0
-182 295 0
-182 172 0
183 -230 0
-183 230 0
185 -316 -103 0
-185 316 0
-185 103 0
186 -320 -153 0
-186 320 0
-186 153 0
187 -309 -207 0
-187 309 0
-187 207 0
188 -307 -135 0
-188 307 0
-188 135 0
189 -313 -138 0
-189 313 0
-189 138 0
190 -311 -216 0
-190 311 0
-190 216 0
191 -156 0
-191 156 0
192 -318 -193 0
-192 318 0
-192 193 0
194 -355 -113 0
-194 355 0
-194 113 0
195 -372 0
-195 372 0
196 -357 -198 0
-196 357 0
-196 198 0
197 -360 -124 0
-197 360 0
-197 124 0
199 -302 -116 0
-199 302 0
-199 116 0
200 -235 0
-200 235 0
202 -362 -156 0
-202 362 0
-202 156 0
203 -357 -207 0
-203 357 0
-203 207 0
204 -355 -138 0
-204 355 0
-204 138 0
205 -360 -153 0
-205 360 0
-205 153 0
206 -193 0
-206 193 0
208 -302 -144 0
-208 302 0
-208 144 0
209 -236 0
-209 236 0
211 -302 -172 0
-211 302 0
-211 172 0
212 -240 0
-212 240 0
214 -291 -110 0
-214 291 0
-214 110 0
215 -244 0
-215 244 0
217 -245 0
-217 245 0
218 -291 -135 0
-218 291 0
-218 135 0
220 -291 -163 0
-220 291 0
-220 163 0
221 -248 0
-221 248 0
223 -369 -184 0
-223 369 0
-223 184 0
224 -368 -201 0
-224 368 0
-224 201 0
225 -370 -127 0
-225 370 0
-225 127 0
226 -138 0
-226 138 0
228 -150 0
-228 150 0
229 -373 -127 0
-229 373 0
-229 127 0
231 -374 -201 0
-231 374 0
-231 201 0
232 -375 -127 0
-232 375 0
-232 127 0
233 -153 0
-233 153 0
234 -376 -184 0
-234 376 0
-234 184 0
377 -378 0
-377 378 0
237 -379 -193 0
-237 379 0
-237 193 0
238 -380 -156 0
-238 380 0
-238 156 0
239 -198 0
-239 198 0
241 -207 0
-241 207 0
242 -379 -201 0
-242 379 0
-242 201 0
243 -380 -184 0
-243 380 0
-243 184 0
381 -382 0
-381 382 0
246 -213 0
-246 213 0
247 -383 -156 0
-247 383 0
-247 156 0
249 -216 0
-249 216 0
250 -383 -184 0
-250 383 0
-250 184 0
252 -383 -344 0
-252 383 0
-252 344 0
253 -219 0
-253 219 0
255 -375 -337 0
-255 375 0
-255 337 0
256 -376 -344 0
-256 376 0
-256 344 0
257 -181 0
-257 181 0
258 -374 -384 0
-258 374 0
-258 384 0
260 -368 -384 0
-260 368 0
-260 384 0
261 -169 0
-261 169 0
262 -370 -337 0
-262 370 0
-262 337 0
263 -369 -344 0
-263 369 0
-263 344 0
265 -379 -384 0
-265 379 0
-265 384 0
266 -210 0
-266 210 0
267 -380 -344 0
-267 380 0
-267 344 0
269 -178 0
-269 178 0
270 -373 -337 0
-270 373 0
-270 337 0
272 -339 -244 0
-272 339 0
-272 244 0
273 -385 0
-273 385 0
386 -387 0
-386 387 0
388 -389 0
-388 389 0
277 -110 0
-277 110 0
278 -343 -156 0
-278 343 0
-278 156 0
279 -339 -245 0
-279 339 0
-279 245 0
280 -336 -103 0
-280 336 0
-280 103 0
282 -373 -103 0
-282 373 0
-282 103 0
283 -121 0
-283 121 0
285 -374 -193 0
-285 374 0
-285 193 0
286 -376 -156 0
-286 376 0
-286 156 0
287 -124 0
-287 124 0
288 -375 -103 0
-288 375 0
-288 103 0
-390 -1 2 0
390 1 0
390 -2 0
-391 1 -2 0
391 -1 0
391 2 0
-392 -3 4 0
392 3 0
392 -4 0
-393 3 -4 0
393 -3 0
393 4 0
-394 -5 6 0
394 5 0
394 -6 0
-395 5 -6 0
395 -5 0
395 6 0
-396 -7 8 0
396 7 0
396 -8 0
-397 7 -8 0
397 -7 0
397 8 0
-398 -9 10 0
398 9 0
398 -10 0
-399 9 -10 0
399 -9 0
399 10 0
-400 -11 12 0
400 11 0
400 -12 0
-401 11 -12 0
401 -11 0
401 12 0
-402 -13 14 0
402 13 0
402 -14 0
-403 13 -14 0
403 -13 0
403 14 0
-404 -15 16 0
404 15 0
404 -16 0
-405 15 -16 0
405 -15 0
405 16 0
-406 -17 18 0
406 17 0
406 -18 0
-407 17 -18 0
407 -17 0
407 18 0
-408 -19 20 0
408 19 0
408 -20 0
-409 19 -20 0
409 -19 0
409 20 0
-410 -21 22 0
410 21 0
410 -22 0
-411 21 -22 0
411 -21 0
411 22 0
-412 -23 24 0
412 23 0
412 -24 0
-413 23 -24 0
413 -23 0
413 24 0
-414 -25 26 0
414 25 0
414 -26 0
-415 25 -26 0
415 -25 0
415 26 0
-416 -27 28 0
416 27 0
416 -28 0
-417 27 -28 0
417 -27 0
417 28 0
-418 -29 30 0
418 29 0
418 -30 0
-419 29 -30 0
419 -29 0
419 30 0
-420 -31 32 0
420 31 0
420 -32 0
-421 31 -32 0
421 -31 0
421 32 0
-422 -33 34 0
422 33 0
422 -34 0
-423 33 -34 0
423 -33 0
423 34 0
-424 -35 36 0
424 35 0
424 -36 0
-425 35 -36 0
425 -35 0
425 36 0
-426 -37 38 0
426 37 0
426 -38 0
-427 37 -38 0
427 -37 0
427 38 0
-428 -39 40 0
428 39 0
428 -40 0
-429 39 -40 0
429 -39 0
429 40 0
-430 -41 42 0
430 41 0
430 -42 0
-431 41 -42 0
431 -41 0
431 42 0
-432 -43 44 0
432 43 0
432 -44 0
-433 43 -44 0
433 -43 0
433 44 0
-434 -45 46 0
434 45 0
434 -46 0
-435 45 -46 0
435 -45 0
435 46 0
-436 -47 48 0
436 47 0
436 -48 0
-437 47 -48 0
437 -47 0
437 48 0
-438 -49 50 0
438 49 0
438 -50 0
-439 49 -50 0
439 -49 0
439 50 0
-440 -51 52 0
440 51 0
440 -52 0
-441 51 -52 0
441 -51 0
441 52 0
-442 -53 54 0
442 53 0
442 -54 0
-443 53 -54 0
443 -53 0
443 54 0
-444 -55 56 0
444 55 0
444 -56 0
-445 55 -56 0
445 -55 0
445 56 0
-446 -57 58 0
446 57 0
446 -58 0
-447 57 -58 0
447 -57 0
447 58 0
-448 -59 60 0
448 59 0
448 -60 0
-449 59 -60 0
449 -59 0
449 60 0
-450 -61 62 0
450 61 0
450 -62 0
-451 61 -62 0
451 -61 0
451 62 0
-452 -63 64 0
452 63 0
452 -64 0
-453 63 -64 0
453 -63 0
453 64 0
-454 -65 66 0
454 65 0
454 -66 0
-455 65 -66 0
455 -65 0
455 66 0
-456 -67 68 0
456 67 0
456 -68 0
-457 67 -68 0
457 -67 0
457 68 0
-458 -69 70 0
458 69 0
458 -70 0
-459 69 -70 0
459 -69 0
459 70 0
-460 -71 72 0
460 71 0
460 -72 0
-461 71 -72 0
461 -71 0
461 72 0
-462 -73 74 0
462 73 0
462 -74 0
-463 73 -74 0
463 -73 0
463 74 0
-464 -75 76 0
464 75 0
464 -76 0
-465 75 -76 0
465 -75 0
465 76 0
-466 -77 78 0
466 77 0
466 -78 0
-467 77 -78 0
467 -77 0
467 78 0
-468 -79 80 0
468 79 0
468 -80 0
-469 79 -80 0
469 -79 0
469 80 0
-470 -81 82 0
470 81 0
470 -82 0
-471 81 -82 0
471 -81 0
471 82 0
-472 -83 84 0
472 83 0
472 -84 0
-473 83 -84 0
473 -83 0
473 84 0
-474 -85 86 0
474 85 0
474 -86 0
-475 85 -86 0
475 -85 0
475 86 0
-476 -87 88 0
476 87 0
476 -88 0
-477 87 -88 0
477 -87 0
477 88 0
-478 -89 90 0
478 89 0
478 -90 0
-479 89 -90 0
479 -89 0
479 90 0
-480 -91 92 0
480 91 0
480 -92 0
-481 91 -92 0
481 -91 0
481 92 0
-482 -93 94 0
482 93 0
482 -94 0
-483 93 -94 0
483 -93 0
483 94 0
-484 -95 96 0
484 95 0
484 -96 0
-485 95 -96 0
485 -95 0
485 96 0
-486 -97 98 0
486 97 0
486 -98 0
-487 97 -98 0
487 -97 0
487 98 0
-488 -99 100 0
488 99 0
488 -100 0
-489 99 -100 0
489 -99 0
489 100 0
-490 -101 102 0
490 101 0
490 -102 0
-491 101 -102 0
491 -101 0
491 102 0
-492 289 -251 0
492 -289 0
492 251 0
-493 -289 251 0
493 289 0
493 -251 0
-494 -495 289 290 0
494 495 0
494 -289 0
494 -290 0
-496 495 -289 0
496 -495 0
496 289 0
-497 495 -290 0
497 -495 0
497 290 0
-498 293 -254 0
498 -293 0
498 254 0
-499 -293 254 0
499 293 0
499 -254 0
-500 -501 293 294 0
500 501 0
500 -293 0
500 -294 0
-502 501 -293 0
502 -501 0
502 293 0
-503 501 -294 0
503 -501 0
503 294 0
-504 297 -259 0
504 -297 0
504 259 0
-505 -297 259 0
505 297 0
505 -259 0
-506 -507 297 298 0
506 507 0
506 -297 0
506 -298 0
-508 507 -297 0
508 -507 0
508 297 0
-509 507 -298 0
509 -507 0
509 298 0
-510 300 -264 0
510 -300 0
510 264 0
-511 -300 264 0
511 300 0
511 -264 0
-512 -513 300 301 0
512 513 0
512 -300 0
512 -301 0
-514 513 -300 0
514 -513 0
514 300 0
-515 513 -301 0
515 -513 0
515 301 0
-516 305 -268 0
516 -305 0
516 268 0
-517 -305 268 0
517 305 0
517 -268 0
-518 -519 303 305 0
518 519 0
518 -303 0
518 -305 0
-520 519 -303 0
520 -519 0
520 303 0
-521 519 -305 0
521 -519 0
521 305 0
-522 314 -184 0
522 -314 0
522 184 0
-523 -314 184 0
523 314 0
523 -184 0
-524 -344 306 308 310 312 314 315 317 319 0
524 344 0
524 -306 0
524 -308 0
524 -310 0
524 -312 0
524 -314 0
524 -315 0
524 -317 0
524 -319 0
-525 344 -306 0
525 -344 0
525 306 0
-526 344 -308 0
526 -344 0
526 308 0
-527 344 -310 0
527 -344 0
527 310 0
-528 344 -312 0
528 -344 0
528 312 0
-529 344 -314 0
529 -344 0
529 314 0
-530 344 -315 0
530 -344 0
530 315 0
-531 344 -317 0
531 -344 0
531 317 0
-532 344 -319 0
532 -344 0
532 319 0
-533 331 -127 0
533 -331 0
533 127 0
-534 -331 127 0
534 331 0
534 -127 0
-535 -337 321 323 325 327 329 331 332 0
535 337 0
535 -321 0
535 -323 0
535 -325 0
535 -327 0
535 -329 0
535 -331 0
535 -332 0
-536 337 -321 0
536 -337 0
536 321 0
-537 337 -323 0
537 -337 0
537 323 0
-538 337 -325 0
538 -337 0
538 325 0
-539 337 -327 0
539 -337 0
539 327 0
-540 337 -329 0
540 -337 0
540 329 0
-541 337 -331 0
541 -337 0
541 331 0
-542 337 -332 0
542 -337 0
542 332 0
-543 334 -163 0
543 -334 0
543 163 0
-544 -334 163 0
544 334 0
544 -163 0
-545 -292 334 335 338 340 342 0
545 292 0
545 -334 0
545 -335 0
545 -338 0
545 -340 0
545 -342 0
-546 292 -334 0
546 -292 0
546 334 0
-547 292 -335 0
547 -292 0
547 335 0
-548 292 -338 0
548 -292 0
548 338 0
-549 292 -340 0
549 -292 0
549 340 0
-550 292 -342 0
550 -292 0
550 342 0
-551 353 -172 0
551 -353 0
551 172 0
-552 -353 172 0
552 353 0
552 -172 0
-553 -296 345 347 349 351 353 0
553 296 0
553 -345 0
553 -347 0
553 -349 0
553 -351 0
553 -353 0
-554 296 -345 0
554 -296 0
554 345 0
-555 296 -347 0
555 -296 0
555 347 0
-556 296 -349 0
556 -296 0
556 349 0
-557 296 -351 0
557 -296 0
557 351 0
-558 296 -353 0
558 -296 0
558 353 0
-559 358 -201 0
559 -358 0
559 201 0
-560 -358 201 0
560 358 0
560 -201 0
-561 -384 354 356 358 359 361 0
561 384 0
561 -354 0
561 -356 0
561 -358 0
561 -359 0
561 -361 0
-562 384 -354 0
562 -384 0
562 354 0
-563 384 -356 0
563 -384 0
563 356 0
-564 384 -358 0
564 -384 0
564 358 0
-565 384 -359 0
565 -384 0
565 359 0
-566 384 -361 0
566 -384 0
566 361 0
-567 363 -364 0
567 -363 0
567 364 0
-568 -363 364 0
568 363 0
568 -364 0
-569 -570 363 0
569 570 0
569 -363 0
-571 570 -363 0
571 -570 0
571 363 0
-572 109 -365 0
572 -109 0
572 365 0
-573 -109 365 0
573 109 0
573 -365 0
-574 111 -271 0
574 -111 0
574 271 0
-575 -111 271 0
575 111 0
575 -271 0
-576 114 -366 0
576 -114 0
576 366 0
-577 -114 366 0
577 114 0
577 -366 0
-578 119 -367 0
578 -119 0
578 367 0
-579 -119 367 0
579 119 0
579 -367 0
-580 123 -274 0
580 -123 0
580 274 0
-581 -123 274 0
581 123 0
581 -274 0
-582 126 -275 0
582 -126 0
582 275 0
-583 -126 275 0
583 126 0
583 -275 0
-584 133 -103 0
584 -133 0
584 103 0
-585 -133 103 0
585 133 0
585 -103 0
-586 136 -276 0
586 -136 0
586 276 0
-587 -136 276 0
587 136 0
587 -276 0
-588 141 -113 0
588 -141 0
588 113 0
-589 -141 113 0
589 141 0
589 -113 0
-590 145 -116 0
590 -145 0
590 116 0
-591 -145 116 0
591 145 0
591 -116 0
-592 151 -281 0
592 -151 0
592 281 0
-593 -151 281 0
593 151 0
593 -281 0
-594 154 -284 0
594 -154 0
594 284 0
-595 -154 284 0
595 154 0
595 -284 0
-596 158 -371 0
596 -158 0
596 371 0
-597 -158 371 0
597 158 0
597 -371 0
-598 165 -135 0
598 -165 0
598 135 0
-599 -165 135 0
599 165 0
599 -135 0
-600 171 -222 0
600 -171 0
600 222 0
-601 -171 222 0
601 171 0
601 -222 0
-602 177 -144 0
602 -177 0
602 144 0
-603 -177 144 0
603 177 0
603 -144 0
-604 179 -227 0
604 -179 0
604 227 0
-605 -179 227 0
605 179 0
605 -227 0
-606 183 -230 0
606 -183 0
606 230 0
-607 -183 230 0
607 183 0
607 -230 0
-608 191 -156 0
608 -191 0
608 156 0
-609 -191 156 0
609 191 0
609 -156 0
-610 195 -372 0
610 -195 0
610 372 0
-611 -195 372 0
611 195 0
611 -372 0
-612 200 -235 0
612 -200 0
612 235 0
-613 -200 235 0
613 200 0
613 -235 0
-614 206 -193 0
614 -206 0
614 193 0
-615 -206 193 0
615 206 0
615 -193 0
-616 209 -236 0
616 -209 0
616 236 0
-617 -209 236 0
617 209 0
617 -236 0
-618 212 -240 0
618 -212 0
618 240 0
-619 -212 240 0
619 212 0
619 -240 0
-620 215 -244 0
620 -215 0
620 244 0
-621 -215 244 0
621 215 0
621 -244 0
-622 217 -245 0
622 -217 0
622 245 0
-623 -217 245 0
623 217 0
623 -245 0
-624 221 -248 0
624 -221 0
624 248 0
-625 -221 248 0
625 221 0
625 -248 0
-626 226 -138 0
626 -226 0
626 138 0
-627 -226 138 0
627 226 0
627 -138 0
-628 228 -150 0
628 -228 0
628 150 0
-629 -228 150 0
629 228 0
629 -150 0
-630 233 -153 0
630 -233 0
630 153 0
-631 -233 153 0
631 233 0
631 -153 0
-632 377 -378 0
632 -377 0
632 378 0
-633 -377 378 0
633 377 0
633 -378 0
-634 -235 377 0
634 235 0
634 -377 0
-635 235 -377 0
635 -235 0
635 377 0
-636 239 -198 0
636 -239 0
636 198 0
-637 -239 198 0
637 239 0
637 -198 0
-638 241 -207 0
638 -241 0
638 207 0
-639 -241 207 0
639 241 0
639 -207 0
-640 381 -382 0
640 -381 0
640 382 0
-641 -381 382 0
641 381 0
641 -382 0
-642 -244 381 0
642 244 0
642 -381 0
-643 244 -381 0
643 -244 0
643 381 0
-644 246 -213 0
644 -246 0
644 213 0
-645 -246 213 0
645 246 0
645 -213 0
-646 249 -216 0
646 -249 0
646 216 0
-647 -249 216 0
647 249 0
647 -216 0
-648 253 -219 0
648 -253 0
648 219 0
-649 -253 219 0
649 253 0
649 -219 0
-650 257 -181 0
650 -257 0
650 181 0
-651 -257 181 0
651 257 0
651 -181 0
-652 261 -169 0
652 -261 0
652 169 0
-653 -261 169 0
653 261 0
653 -169 0
-654 266 -210 0
654 -266 0
654 210 0
-655 -266 210 0
655 266 0
655 -210 0
-656 269 -178 0
656 -269 0
656 178 0
-657 -269 178 0
657 269 0
657 -178 0
-658 273 -385 0
658 -273 0
658 385 0
-659 -273 385 0
659 273 0
659 -385 0
-660 386 -387 0
660 -386 0
660 387 0
-661 -386 387 0
661 386 0
661 -387 0
-662 -274 386 0
662 274 0
662 -386 0
-663 274 -386 0
663 -274 0
663 386 0
-664 388 -389 0
664 -388 0
664 389 0
-665 -388 389 0
665 388 0
665 -389 0
-666 -275 388 0
666 275 0
666 -388 0
-667 275 -388 0
667 -275 0
667 388 0
-668 277 -110 0
668 -277 0
668 110 0
-669 -277 110 0
669 277 0
669 -110 0
-670 283 -121 0
670 -283 0
670 121 0
-671 -283 121 0
671 283 0
671 -121 0
-672 287 -124 0
672 -287 0
672 124 0
-673 -287 124 0
673 287 0
673 -124 0
390 0
391 0
392 0
393 0
394 0
395 0
396 0
397 0
398 0
399 0
400 0
401 0
402 0
403 0
404 0
405 0
406 0
407 0
408 0
409 0
410 0
411 0
412 0
413 0
414 0
415 0
416 0
417 0
418 0
419 0
420 0
421 0
422 0
423 0
424 0
425 0
426 0
427 0
428 0
429 0
430 0
431 0
432 0
433 0
434 0
435 0
436 0
437 0
438 0
439 0
440 0
441 0
442 0
443 0
444 0
445 0
446 0
447 0
448 0
449 0
450 0
451 0
452 0
453 0
454 0
455 0
456 0
457 0
458 0
459 0
460 0
461 0
462 0
463 0
464 0
465 0
466 0
467 0
468 0
469 0
470 0
471 0
472 0
473 0
474 0
475 0
476 0
477 0
478 0
479 0
480 0
481 0
482 0
483 0
484 0
485 0
486 0
487 0
488 0
489 0
490 0
491 0
492 0
493 0
494 0
496 0
497 0
498 0
499 0
500 0
502 0
503 0
504 0
505 0
506 0
508 0
509 0
510 0
511 0
512 0
514 0
515 0
516 0
517 0
518 0
520 0
521 0
522 0
523 0
524 0
525 0
526 0
527 0
528 0
529 0
530 0
531 0
532 0
533 0
534 0
535 0
536 0
537 0
538 0
539 0
540 0
541 0
542 0
543 0
544 0
545 0
546 0
547 0
548 0
549 0
550 0
551 0
552 0
553 0
554 0
555 0
556 0
557 0
558 0
559 0
560 0
561 0
562 0
563 0
564 0
565 0
566 0
567 0
568 0
569 0
571 0
572 0
573 0
574 0
575 0
576 0
577 0
578 0
579 0
580 0
581 0
582 0
583 0
584 0
585 0
586 0
587 0
588 0
589 0
590 0
591 0
592 0
593 0
594 0
595 0
596 0
597 0
598 0
599 0
600 0
601 0
602 0
603 0
604 0
605 0
606 0
607 0
608 0
609 0
610 0
611 0
612 0
613 0
614 0
615 0
616 0
617 0
618 0
619 0
620 0
621 0
622 0
623 0
624 0
625 0
626 0
627 0
628 0
629 0
630 0
631 0
632 0
633 0
634 0
635 0
636 0
637 0
638 0
639 0
640 0
641 0
642 0
643 0
644 0
645 0
646 0
647 0
648 0
649 0
650 0
651 0
652 0
653 0
654 0
655 0
656 0
657 0
658 0
659 0
660 0
661 0
662 0
663 0
664 0
665 0
666 0
667 0
668 0
669 0
670 0
671 0
672 0
673 0
2 0
4 0
6 0
8 0
10 0
12 0
14 0
16 0
18 0
20 0
22 0
24 0
26 0
28 0
30 0
32 0
34 0
36 0
38 0
40 0
42 0
44 0
46 0
48 0
50 0
52 0
54 0
56 0
58 0
60 0
62 0
64 0
66 0
68 0
70 0
72 0
74 0
76 0
78 0
80 0
82 0
84 0
86 0
88 0
90 0
92 0
94 0
96 0
98 0
100 0
102 0
