c BC-S1.2
p cnf 1264 4016
1 -2 0
-1 2 0
3 -4 0
-3 4 0
5 -6 0
-5 6 0
7 -8 0
-7 8 0
9 -10 0
-9 10 0
11 -12 0
-11 12 0
13 -14 0
-13 14 0
15 -16 0
-15 16 0
17 -18 0
-17 18 0
19 -20 0
-19 20 0
21 -22 0
-21 22 0
23 -24 0
-23 24 0
25 -26 0
-25 26 0
27 -28 0
-27 28 0
29 -30 0
-29 30 0
31 -32 0
-31 32 0
33 -34 0
-33 34 0
35 -36 0
-35 36 0
37 -38 0
-37 38 0
39 -40 0
-39 40 0
41 -42 0
-41 42 0
43 -44 0
-43 44 0
45 -46 0
-45 46 0
47 -48 0
-47 48 0
49 -50 0
-49 50 0
51 -52 0
-51 52 0
53 -54 0
-53 54 0
55 -56 0
-55 56 0
57 -58 0
-57 58 0
59 -60 0
-59 60 0
61 -62 0
-61 62 0
63 -64 0
-63 64 0
65 -66 0
-65 66 0
67 -68 0
-67 68 0
69 -70 0
-69 70 0
71 -72 0
-71 72 0
73 -74 0
-73 74 0
75 -76 0
-75 76 0
77 -78 0
-77 78 0
79 -80 0
-79 80 0
81 -82 0
-81 82 0
83 -84 0
-83 84 0
85 -86 0
-85 86 0
87 -88 0
-87 88 0
89 -90 0
-89 90 0
91 -92 0
-91 92 0
93 -94 0
-93 94 0
95 -96 0
-95 96 0
97 -98 0
-97 98 0
99 -100 0
-99 100 0
101 -102 0
-101 102 0
103 -104 0
-103 104 0
105 -106 0
-105 106 0
107 -108 0
-107 108 0
109 -110 0
-109 110 0
111 -112 0
-111 112 0
113 -114 0
-113 114 0
115 -116 0
-115 116 0
117 -118 0
-117 118 0
119 -120 0
-119 120 0
121 -122 0
-121 122 0
123 -124 0
-123 124 0
125 -126 0
-125 126 0
127 -128 0
-127 128 0
129 -130 0
-129 130 0
131 -132 0
-131 132 0
133 -134 0
-133 134 0
135 -136 0
-135 136 0
137 -138 0
-137 138 0
139 -140 0
-139 140 0
141 -142 0
-141 142 0
143 -144 0
-143 144 0
145 -146 0
-145 146 0
147 -148 0
-147 148 0
149 -150 0
-149 150 0
151 -152 0
-151 152 0
153 -154 0
-153 154 0
155 -156 0
-155 156 0
157 -158 0
-157 158 0
159 -160 0
-159 160 0
161 -162 0
-161 162 0
163 -164 0
-163 164 0
165 -166 0
-165 166 0
167 -168 0
-167 168 0
169 -170 0
-169 170 0
-171 172 173 174 175 176 177 178 179 0
171 -172 0
171 -173 0
171 -174 0
171 -175 0
171 -176 0
171 -177 0
171 -178 0
171 -179 0
-180 181 182 0
180 -181 0
180 -182 0
-183 184 185 0
183 -184 0
183 -185 0
-186 187 188 0
186 -187 0
186 -188 0
-189 190 191 192 193 0
189 -190 0
189 -191 0
189 -192 0
189 -193 0
-194 195 196 0
194 -195 0
194 -196 0
-197 198 199 0
197 -198 0
197 -199 0
-200 201 202 203 204 205 206 207 208 209 210 211 0
200 -201 0
200 -202 0
200 -203 0
200 -204 0
200 -205 0
200 -206 0
200 -207 0
200 -208 0
200 -209 0
200 -210 0
200 -211 0
-212 213 214 215 0
212 -213 0
212 -214 0
212 -215 0
-216 217 218 219 220 221 222 0
216 -217 0
216 -218 0
216 -219 0
216 -220 0
216 -221 0
216 -222 0
-223 224 225 0
223 -224 0
223 -225 0
-226 227 228 0
226 -227 0
226 -228 0
-229 230 231 0
229 -230 0
229 -231 0
-232 233 234 235 236 237 238 0
232 -233 0
232 -234 0
232 -235 0
232 -236 0
232 -237 0
232 -238 0
-239 240 241 0
239 -240 0
239 -241 0
-242 243 244 0
242 -243 0
242 -244 0
-245 246 247 248 0
245 -246 0
245 -247 0
245 -248 0
-249 250 251 252 253 0
249 -250 0
249 -251 0
249 -252 0
249 -253 0
-254 255 256 257 258 259 260 261 262 263 264 265 0
254 -255 0
254 -256 0
254 -257 0
254 -258 0
254 -259 0
254 -260 0
254 -261 0
254 -262 0
254 -263 0
254 -264 0
254 -265 0
-266 267 268 269 270 271 272 273 0
266 -267 0
266 -268 0
266 -269 0
266 -270 0
266 -271 0
266 -272 0
266 -273 0
-274 275 276 277 278 279 280 281 282 283 284 0
274 -275 0
274 -276 0
274 -277 0
274 -278 0
274 -279 0
274 -280 0
274 -281 0
274 -282 0
274 -283 0
274 -284 0
-285 286 287 0
285 -286 0
285 -287 0
-288 289 290 0
288 -289 0
288 -290 0
-291 292 293 0
291 -292 0
291 -293 0
-294 295 296 297 298 299 300 0
294 -295 0
294 -296 0
294 -297 0
294 -298 0
294 -299 0
294 -300 0
-301 302 303 0
301 -302 0
301 -303 0
-304 305 306 0
304 -305 0
304 -306 0
-307 308 309 310 311 312 313 314 0
307 -308 0
307 -309 0
307 -310 0
307 -311 0
307 -312 0
307 -313 0
307 -314 0
-315 316 317 318 319 320 321 322 323 0
315 -316 0
315 -317 0
315 -318 0
315 -319 0
315 -320 0
315 -321 0
315 -322 0
315 -323 0
-324 325 326 327 328 329 330 331 332 333 334 335 0
324 -325 0
324 -326 0
324 -327 0
324 -328 0
324 -329 0
324 -330 0
324 -331 0
324 -332 0
324 -333 0
324 -334 0
324 -335 0
-336 337 338 339 340 341 342 343 0
336 -337 0
336 -338 0
336 -339 0
336 -340 0
336 -341 0
336 -342 0
336 -343 0
-344 345 346 347 348 349 350 351 352 353 354 0
344 -345 0
344 -346 0
344 -347 0
344 -348 0
344 -349 0
344 -350 0
344 -351 0
344 -352 0
344 -353 0
344 -354 0
-355 356 357 0
355 -356 0
355 -357 0
-358 359 360 0
358 -359 0
358 -360 0
-361 362 363 364 365 366 0
361 -362 0
361 -363 0
361 -364 0
361 -365 0
361 -366 0
-367 368 369 0
367 -368 0
367 -369 0
-370 371 372 0
370 -371 0
370 -372 0
-373 374 375 0
373 -374 0
373 -375 0
-376 377 378 379 380 381 382 383 0
376 -377 0
376 -378 0
376 -379 0
376 -380 0
376 -381 0
376 -382 0
376 -383 0
-384 385 386 387 388 389 390 391 392 0
384 -385 0
384 -386 0
384 -387 0
384 -388 0
384 -389 0
384 -390 0
384 -391 0
384 -392 0
-393 394 395 396 397 398 399 400 0
393 -394 0
393 -395 0
393 -396 0
393 -397 0
393 -398 0
393 -399 0
393 -400 0
-401 402 403 404 405 406 407 408 409 410 411 0
401 -402 0
401 -403 0
401 -404 0
401 -405 0
401 -406 0
401 -407 0
401 -408 0
401 -409 0
401 -410 0
401 -411 0
-412 413 414 0
412 -413 0
412 -414 0
-415 416 417 0
415 -416 0
415 -417 0
-418 419 420 0
418 -419 0
418 -420 0
-421 422 423 424 425 426 427 0
421 -422 0
421 -423 0
421 -424 0
421 -425 0
421 -426 0
421 -427 0
-428 429 430 0
428 -429 0
428 -430 0
-431 432 433 0
431 -432 0
431 -433 0
-434 435 436 437 438 439 440 441 0
434 -435 0
434 -436 0
434 -437 0
434 -438 0
434 -439 0
434 -440 0
434 -441 0
-442 443 444 445 446 447 448 449 450 0
442 -443 0
442 -444 0
442 -445 0
442 -446 0
442 -447 0
442 -448 0
442 -449 0
442 -450 0
-451 452 453 0
451 -452 0
451 -453 0
-454 455 456 0
454 -455 0
454 -456 0
-457 458 459 0
457 -458 0
457 -459 0
-460 461 462 0
460 -461 0
460 -462 0
-463 464 465 0
463 -464 0
463 -465 0
-466 467 468 469 470 471 0
466 -467 0
466 -468 0
466 -469 0
466 -470 0
466 -471 0
472 -185 0
-472 185 0
473 -196 0
-473 196 0
474 -198 0
-474 198 0
-475 476 477 0
475 -476 0
475 -477 0
-478 479 480 481 482 0
478 -479 0
478 -480 0
478 -481 0
478 -482 0
-483 484 485 486 487 488 0
483 -484 0
483 -485 0
483 -486 0
483 -487 0
483 -488 0
-489 490 491 0
489 -490 0
489 -491 0
-492 493 494 495 496 0
492 -493 0
492 -494 0
492 -495 0
492 -496 0
-497 498 499 500 501 0
497 -498 0
497 -499 0
497 -500 0
497 -501 0
-502 503 504 505 506 507 0
502 -503 0
502 -504 0
502 -505 0
502 -506 0
502 -507 0
-508 509 510 0
508 -509 0
508 -510 0
-511 512 513 0
511 -512 0
511 -513 0
-514 515 516 517 518 0
514 -515 0
514 -516 0
514 -517 0
514 -518 0
-519 520 521 522 523 524 0
519 -520 0
519 -521 0
519 -522 0
519 -523 0
519 -524 0
-525 526 527 528 529 530 0
525 -526 0
525 -527 0
525 -528 0
525 -529 0
525 -530 0
-531 532 533 0
531 -532 0
531 -533 0
-534 535 536 537 538 0
534 -535 0
534 -536 0
534 -537 0
534 -538 0
-539 540 541 542 543 544 0
539 -540 0
539 -541 0
539 -542 0
539 -543 0
539 -544 0
-545 546 547 0
545 -546 0
545 -547 0
-548 549 550 551 552 553 0
548 -549 0
548 -550 0
548 -551 0
548 -552 0
548 -553 0
-554 555 556 557 558 559 0
554 -555 0
554 -556 0
554 -557 0
554 -558 0
554 -559 0
-560 561 562 563 564 565 0
560 -561 0
560 -562 0
560 -563 0
560 -564 0
560 -565 0
-566 567 568 569 570 571 0
566 -567 0
566 -568 0
566 -569 0
566 -570 0
566 -571 0
-572 573 574 575 576 577 0
572 -573 0
572 -574 0
572 -575 0
572 -576 0
572 -577 0
-578 579 580 0
578 -579 0
578 -580 0
-581 582 583 0
581 -582 0
581 -583 0
-584 585 586 587 588 589 0
584 -585 0
584 -586 0
584 -587 0
584 -588 0
584 -589 0
-590 591 592 593 594 0
590 -591 0
590 -592 0
590 -593 0
590 -594 0
-595 596 597 598 599 600 0
595 -596 0
595 -597 0
595 -598 0
595 -599 0
595 -600 0
-601 602 603 604 605 0
601 -602 0
601 -603 0
601 -604 0
601 -605 0
-606 607 608 609 610 0
606 -607 0
606 -608 0
606 -609 0
606 -610 0
-611 612 613 614 615 616 0
611 -612 0
611 -613 0
611 -614 0
611 -615 0
611 -616 0
-617 618 619 620 621 622 0
617 -618 0
617 -619 0
617 -620 0
617 -621 0
617 -622 0
-623 624 625 626 627 628 0
623 -624 0
623 -625 0
623 -626 0
623 -627 0
623 -628 0
-629 630 631 632 633 0
629 -630 0
629 -631 0
629 -632 0
629 -633 0
2 -1 0
-2 1 0
4 -3 0
-4 3 0
6 -5 0
-6 5 0
8 -7 0
-8 7 0
10 -9 0
-10 9 0
12 -11 0
-12 11 0
14 -13 0
-14 13 0
16 -15 0
-16 15 0
18 -17 0
-18 17 0
20 -19 0
-20 19 0
22 -21 0
-22 21 0
24 -23 0
-24 23 0
26 -25 0
-26 25 0
28 -27 0
-28 27 0
30 -29 0
-30 29 0
32 -31 0
-32 31 0
34 -33 0
-34 33 0
36 -35 0
-36 35 0
38 -37 0
-38 37 0
40 -39 0
-40 39 0
42 -41 0
-42 41 0
44 -43 0
-44 43 0
46 -45 0
-46 45 0
48 -47 0
-48 47 0
50 -49 0
-50 49 0
52 -51 0
-52 51 0
54 -53 0
-54 53 0
56 -55 0
-56 55 0
58 -57 0
-58 57 0
60 -59 0
-60 59 0
62 -61 0
-62 61 0
64 -63 0
-64 63 0
66 -65 0
-66 65 0
68 -67 0
-68 67 0
70 -69 0
-70 69 0
72 -71 0
-72 71 0
74 -73 0
-74 73 0
76 -75 0
-76 75 0
78 -77 0
-78 77 0
80 -79 0
-80 79 0
82 -81 0
-82 81 0
84 -83 0
-84 83 0
86 -85 0
-86 85 0
88 -87 0
-88 87 0
90 -89 0
-90 89 0
92 -91 0
-92 91 0
94 -93 0
-94 93 0
96 -95 0
-96 95 0
98 -97 0
-98 97 0
100 -99 0
-100 99 0
102 -101 0
-102 101 0
104 -103 0
-104 103 0
106 -105 0
-106 105 0
108 -107 0
-108 107 0
110 -109 0
-110 109 0
112 -111 0
-112 111 0
114 -113 0
-114 113 0
116 -115 0
-116 115 0
118 -117 0
-118 117 0
120 -119 0
-120 119 0
122 -121 0
-122 121 0
124 -123 0
-124 123 0
126 -125 0
-126 125 0
128 -127 0
-128 127 0
130 -129 0
-130 129 0
132 -131 0
-132 131 0
134 -133 0
-134 133 0
136 -135 0
-136 135 0
138 -137 0
-138 137 0
140 -139 0
-140 139 0
142 -141 0
-142 141 0
144 -143 0
-144 143 0
146 -145 0
-146 145 0
148 -147 0
-148 147 0
150 -149 0
-150 149 0
152 -151 0
-152 151 0
154 -153 0
-154 153 0
156 -155 0
-156 155 0
158 -157 0
-158 157 0
160 -159 0
-160 159 0
162 -161 0
-162 161 0
164 -163 0
-164 163 0
166 -165 0
-166 165 0
168 -167 0
-168 167 0
634 -606 0
-634 606 0
635 -636 -637 0
-635 636 0
-635 637 0
638 -639 -640 0
-638 639 0
-638 640 0
641 -497 0
-641 497 0
642 -643 -644 0
-642 643 0
-642 644 0
170 -169 0
-170 169 0
645 -508 0
-645 508 0
646 -647 -640 0
-646 647 0
-646 640 0
648 -649 -637 0
-648 649 0
-648 637 0
650 -617 0
-650 617 0
651 -652 -421 0
-651 652 0
-651 421 0
653 -654 -418 0
-653 654 0
-653 418 0
655 -656 -434 0
-655 656 0
-655 434 0
657 -324 0
-657 324 0
658 -659 -415 0
-658 659 0
-658 415 0
660 -661 -428 0
-660 661 0
-660 428 0
662 -663 -401 0
-662 663 0
-662 401 0
664 -665 -442 0
-664 665 0
-664 442 0
666 -667 -393 0
-666 667 0
-666 393 0
668 -669 -412 0
-668 669 0
-668 412 0
670 -671 -431 0
-670 671 0
-670 431 0
672 -673 -415 0
-672 673 0
-672 415 0
674 -675 -442 0
-674 675 0
-674 442 0
676 -677 -393 0
-676 677 0
-676 393 0
678 -679 -412 0
-678 679 0
-678 412 0
680 -681 -463 0
-680 681 0
-680 463 0
682 -683 -431 0
-682 683 0
-682 431 0
684 -685 -434 0
-684 685 0
-684 434 0
686 -687 -418 0
-686 687 0
-686 418 0
688 -401 0
-688 401 0
689 -690 -324 0
-689 690 0
-689 324 0
691 -692 -393 0
-691 692 0
-691 393 0
693 -694 -431 0
-693 694 0
-693 431 0
695 -696 -442 0
-695 696 0
-695 442 0
697 -434 0
-697 434 0
698 -699 -324 0
-698 699 0
-698 324 0
700 -701 -463 0
-700 701 0
-700 463 0
702 -703 -401 0
-702 703 0
-702 401 0
704 -705 -415 0
-704 705 0
-704 415 0
706 -707 -401 0
-706 707 0
-706 401 0
708 -709 -463 0
-708 709 0
-708 463 0
710 -711 -393 0
-710 711 0
-710 393 0
712 -713 -324 0
-712 713 0
-712 324 0
714 -715 -412 0
-714 715 0
-714 412 0
716 -442 0
-716 442 0
717 -718 -434 0
-717 718 0
-717 434 0
719 -720 -721 0
-719 720 0
-719 721 0
722 -539 0
-722 539 0
723 -724 -442 0
-723 724 0
-723 442 0
725 -726 -415 0
-725 726 0
-725 415 0
727 -728 -434 0
-727 728 0
-727 434 0
729 -730 -324 0
-729 730 0
-729 324 0
731 -393 0
-731 393 0
732 -733 -401 0
-732 733 0
-732 401 0
734 -735 -421 0
-734 735 0
-734 421 0
736 -548 0
-736 548 0
737 -738 -739 0
-737 738 0
-737 739 0
740 -741 -742 0
-740 741 0
-740 742 0
743 -412 0
-743 412 0
744 -745 -606 0
-744 745 0
-744 606 0
746 -747 -617 0
-746 747 0
-746 617 0
748 -749 -750 0
-748 749 0
-748 750 0
751 -752 -644 0
-751 752 0
-751 644 0
753 -754 0
-753 754 0
755 -756 0
-755 756 0
172 -757 -169 0
-172 757 0
-172 169 0
173 -669 -180 0
-173 669 0
-173 180 0
174 -758 0
-174 758 0
175 -652 -189 0
-175 652 0
-175 189 0
176 -671 -197 0
-176 671 0
-176 197 0
177 -654 -186 0
-177 654 0
-177 186 0
178 -661 -194 0
-178 661 0
-178 194 0
179 -659 -183 0
-179 659 0
-179 183 0
181 -578 0
-181 578 0
182 -745 -186 0
-182 745 0
-182 186 0
184 -738 -451 0
-184 738 0
-184 451 0
185 -472 0
-185 472 0
187 -759 -189 0
-187 759 0
-187 189 0
188 -581 0
-188 581 0
190 -760 -473 0
-190 760 0
-190 473 0
191 -761 0
-191 761 0
192 -762 -474 0
-192 762 0
-192 474 0
193 -720 -581 0
-193 720 0
-193 581 0
195 -647 -189 0
-195 647 0
-195 189 0
196 -473 0
-196 473 0
198 -474 0
-198 474 0
199 -639 -189 0
-199 639 0
-199 189 0
201 -652 -232 0
-201 652 0
-201 232 0
202 -671 -242 0
-202 671 0
-202 242 0
203 -656 -245 0
-203 656 0
-203 245 0
204 -661 -239 0
-204 661 0
-204 239 0
205 -654 -229 0
-205 654 0
-205 229 0
206 -663 -216 0
-206 663 0
-206 216 0
207 -659 -226 0
-207 659 0
-207 226 0
208 -665 -249 0
-208 665 0
-208 249 0
209 -667 -212 0
-209 667 0
-209 212 0
210 -669 -223 0
-210 669 0
-210 223 0
211 -171 0
-211 171 0
213 -763 0
-213 763 0
214 -726 -183 0
-214 726 0
-214 183 0
215 -735 -189 0
-215 735 0
-215 189 0
217 -681 -451 0
-217 681 0
-217 451 0
218 -679 -180 0
-218 679 0
-218 180 0
219 -683 -197 0
-219 683 0
-219 197 0
220 -673 -183 0
-220 673 0
-220 183 0
221 -687 -186 0
-221 687 0
-221 186 0
222 -764 0
-222 764 0
224 -745 -229 0
-224 745 0
-224 229 0
225 -584 0
-225 584 0
227 -738 -454 0
-227 738 0
-227 454 0
228 -466 0
-228 466 0
230 -590 0
-230 590 0
231 -759 -232 0
-231 759 0
-231 232 0
233 -765 -171 0
-233 765 0
-233 171 0
234 -762 -478 0
-234 762 0
-234 478 0
235 -189 0
-235 189 0
236 -720 -590 0
-236 720 0
-236 590 0
237 -766 -212 0
-237 766 0
-237 212 0
238 -760 -475 0
-238 760 0
-238 475 0
240 -475 0
-240 475 0
241 -647 -232 0
-241 647 0
-241 232 0
243 -478 0
-243 478 0
244 -639 -232 0
-244 639 0
-244 232 0
246 -694 -197 0
-246 694 0
-246 197 0
247 -767 0
-247 767 0
248 -701 -451 0
-248 701 0
-248 451 0
250 -709 -451 0
-250 709 0
-250 451 0
251 -705 -183 0
-251 705 0
-251 183 0
252 -768 0
-252 768 0
253 -715 -180 0
-253 715 0
-253 180 0
255 -671 -304 0
-255 671 0
-255 304 0
256 -200 0
-256 200 0
257 -652 -294 0
-257 652 0
-257 294 0
258 -656 -307 0
-258 656 0
-258 307 0
259 -654 -291 0
-259 654 0
-259 291 0
260 -661 -301 0
-260 661 0
-260 301 0
261 -663 -274 0
-261 663 0
-261 274 0
262 -665 -315 0
-262 665 0
-262 315 0
263 -659 -288 0
-263 659 0
-263 288 0
264 -667 -266 0
-264 667 0
-264 266 0
265 -669 -285 0
-265 669 0
-265 285 0
267 -724 -249 0
-267 724 0
-267 249 0
268 -726 -226 0
-268 726 0
-268 226 0
269 -728 -245 0
-269 728 0
-269 245 0
270 -735 -232 0
-270 735 0
-270 232 0
271 -730 -171 0
-271 730 0
-271 171 0
272 -733 -216 0
-272 733 0
-272 216 0
273 -212 0
-273 212 0
275 -685 -245 0
-275 685 0
-275 245 0
276 -690 -171 0
-276 690 0
-276 171 0
277 -679 -223 0
-277 679 0
-277 223 0
278 -683 -242 0
-278 683 0
-278 242 0
279 -677 -212 0
-279 677 0
-279 212 0
280 -673 -226 0
-280 673 0
-280 226 0
281 -681 -454 0
-281 681 0
-281 454 0
282 -687 -229 0
-282 687 0
-282 229 0
283 -216 0
-283 216 0
284 -675 -249 0
-284 675 0
-284 249 0
286 -745 -291 0
-286 745 0
-286 291 0
287 -595 0
-287 595 0
289 -483 0
-289 483 0
290 -738 -457 0
-290 738 0
-290 457 0
292 -759 -294 0
-292 759 0
-292 294 0
293 -601 0
-293 601 0
295 -720 -601 0
-295 720 0
-295 601 0
296 -765 -200 0
-296 765 0
-296 200 0
297 -232 0
-297 232 0
298 -760 -489 0
-298 760 0
-298 489 0
299 -762 -492 0
-299 762 0
-299 492 0
300 -766 -266 0
-300 766 0
-300 266 0
302 -489 0
-302 489 0
303 -647 -294 0
-303 647 0
-303 294 0
305 -639 -294 0
-305 639 0
-305 294 0
306 -492 0
-306 492 0
308 -694 -242 0
-308 694 0
-308 242 0
309 -699 -171 0
-309 699 0
-309 171 0
310 -701 -454 0
-310 701 0
-310 454 0
311 -703 -216 0
-311 703 0
-311 216 0
312 -245 0
-312 245 0
313 -696 -249 0
-313 696 0
-313 249 0
314 -692 -212 0
-314 692 0
-314 212 0
316 -705 -226 0
-316 705 0
-316 226 0
317 -711 -212 0
-317 711 0
-317 212 0
318 -713 -171 0
-318 713 0
-318 171 0
319 -249 0
-319 249 0
320 -718 -245 0
-320 718 0
-320 245 0
321 -715 -223 0
-321 715 0
-321 223 0
322 -709 -454 0
-322 709 0
-322 454 0
323 -707 -216 0
-323 707 0
-323 216 0
325 -669 -355 0
-325 669 0
-325 355 0
326 -671 -373 0
-326 671 0
-326 373 0
327 -652 -367 0
-327 652 0
-327 367 0
328 -254 0
-328 254 0
329 -656 -376 0
-329 656 0
-329 376 0
330 -654 -361 0
-330 654 0
-330 361 0
331 -663 -344 0
-331 663 0
-331 344 0
332 -659 -358 0
-332 659 0
-332 358 0
333 -661 -370 0
-333 661 0
-333 370 0
334 -665 -384 0
-334 665 0
-334 384 0
335 -667 -336 0
-335 667 0
-335 336 0
337 -730 -200 0
-337 730 0
-337 200 0
338 -266 0
-338 266 0
339 -724 -315 0
-339 724 0
-339 315 0
340 -726 -288 0
-340 726 0
-340 288 0
341 -735 -294 0
-341 735 0
-341 294 0
342 -728 -307 0
-342 728 0
-342 307 0
343 -733 -274 0
-343 733 0
-343 274 0
345 -687 -291 0
-345 687 0
-345 291 0
346 -683 -304 0
-346 683 0
-346 304 0
347 -274 0
-347 274 0
348 -681 -457 0
-348 681 0
-348 457 0
349 -673 -288 0
-349 673 0
-349 288 0
350 -675 -315 0
-350 675 0
-350 315 0
351 -677 -266 0
-351 677 0
-351 266 0
352 -679 -285 0
-352 679 0
-352 285 0
353 -690 -200 0
-353 690 0
-353 200 0
354 -685 -307 0
-354 685 0
-354 307 0
356 -611 0
-356 611 0
357 -745 -361 0
-357 745 0
-357 361 0
359 -502 0
-359 502 0
360 -738 -460 0
-360 738 0
-360 460 0
362 -769 -344 0
-362 769 0
-362 344 0
363 -770 -254 0
-363 770 0
-363 254 0
364 -636 -611 0
-364 636 0
-364 611 0
365 -291 0
-365 291 0
366 -759 -519 0
-366 759 0
-366 519 0
368 -720 -361 0
-368 720 0
-368 361 0
369 -519 0
-369 519 0
371 -511 0
-371 511 0
372 -647 -367 0
-372 647 0
-372 367 0
374 -514 0
-374 514 0
375 -639 -367 0
-375 639 0
-375 367 0
377 -701 -457 0
-377 701 0
-377 457 0
378 -694 -304 0
-378 694 0
-378 304 0
379 -703 -274 0
-379 703 0
-379 274 0
380 -696 -315 0
-380 696 0
-380 315 0
381 -307 0
-381 307 0
382 -692 -266 0
-382 692 0
-382 266 0
383 -699 -200 0
-383 699 0
-383 200 0
385 -715 -285 0
-385 715 0
-385 285 0
386 -315 0
-386 315 0
387 -718 -307 0
-387 718 0
-387 307 0
388 -705 -288 0
-388 705 0
-388 288 0
389 -707 -274 0
-389 707 0
-389 274 0
390 -711 -266 0
-390 711 0
-390 266 0
391 -713 -200 0
-391 713 0
-391 200 0
392 -709 -457 0
-392 709 0
-392 457 0
394 -733 -344 0
-394 733 0
-394 344 0
395 -730 -254 0
-395 730 0
-395 254 0
396 -728 -376 0
-396 728 0
-396 376 0
397 -336 0
-397 336 0
398 -735 -367 0
-398 735 0
-398 367 0
399 -724 -384 0
-399 724 0
-399 384 0
400 -726 -358 0
-400 726 0
-400 358 0
402 -690 -254 0
-402 690 0
-402 254 0
403 -673 -358 0
-403 673 0
-403 358 0
404 -675 -384 0
-404 675 0
-404 384 0
405 -677 -336 0
-405 677 0
-405 336 0
406 -679 -355 0
-406 679 0
-406 355 0
407 -685 -376 0
-407 685 0
-407 376 0
408 -683 -373 0
-408 683 0
-408 373 0
409 -344 0
-409 344 0
410 -681 -460 0
-410 681 0
-410 460 0
411 -687 -361 0
-411 687 0
-411 361 0
413 -623 0
-413 623 0
414 -745 -418 0
-414 745 0
-414 418 0
416 -525 0
-416 525 0
417 -738 -463 0
-417 738 0
-417 463 0
419 -759 -421 0
-419 759 0
-419 421 0
420 -629 0
-420 629 0
422 -765 -324 0
-422 765 0
-422 324 0
423 -720 -629 0
-423 720 0
-423 629 0
424 -766 -393 0
-424 766 0
-424 393 0
425 -760 -531 0
-425 760 0
-425 531 0
426 -367 0
-426 367 0
427 -762 -534 0
-427 762 0
-427 534 0
429 -647 -421 0
-429 647 0
-429 421 0
430 -531 0
-430 531 0
432 -534 0
-432 534 0
433 -639 -421 0
-433 639 0
-433 421 0
435 -694 -373 0
-435 694 0
-435 373 0
436 -701 -460 0
-436 701 0
-436 460 0
437 -696 -384 0
-437 696 0
-437 384 0
438 -692 -336 0
-438 692 0
-438 336 0
439 -376 0
-439 376 0
440 -703 -344 0
-440 703 0
-440 344 0
441 -699 -254 0
-441 699 0
-441 254 0
443 -711 -336 0
-443 711 0
-443 336 0
444 -713 -254 0
-444 713 0
-444 254 0
445 -718 -376 0
-445 718 0
-445 376 0
446 -384 0
-446 384 0
447 -709 -460 0
-447 709 0
-447 460 0
448 -715 -355 0
-448 715 0
-448 355 0
449 -705 -358 0
-449 705 0
-449 358 0
450 -707 -344 0
-450 707 0
-450 344 0
452 -545 0
-452 545 0
453 -649 -180 0
-453 649 0
-453 180 0
455 -554 0
-455 554 0
456 -649 -223 0
-456 649 0
-456 223 0
458 -560 0
-458 560 0
459 -649 -285 0
-459 649 0
-459 285 0
461 -649 -355 0
-461 649 0
-461 355 0
462 -566 0
-462 566 0
464 -649 -412 0
-464 649 0
-464 412 0
465 -572 0
-465 572 0
467 -771 -171 0
-467 771 0
-467 171 0
468 -772 -249 0
-468 772 0
-468 249 0
469 -773 -212 0
-469 773 0
-469 212 0
470 -774 -216 0
-470 774 0
-470 216 0
471 -183 0
-471 183 0
775 -776 0
-775 776 0
777 -778 0
-777 778 0
779 -780 0
-779 780 0
476 -781 -171 0
-476 781 0
-476 171 0
477 -194 0
-477 194 0
479 -782 -216 0
-479 782 0
-479 216 0
480 -783 -245 0
-480 783 0
-480 245 0
481 -784 -171 0
-481 784 0
-481 171 0
482 -197 0
-482 197 0
484 -771 -200 0
-484 771 0
-484 200 0
485 -226 0
-485 226 0
486 -773 -266 0
-486 773 0
-486 266 0
487 -774 -274 0
-487 774 0
-487 274 0
488 -772 -315 0
-488 772 0
-488 315 0
490 -239 0
-490 239 0
491 -781 -200 0
-491 781 0
-491 200 0
493 -784 -200 0
-493 784 0
-493 200 0
494 -782 -274 0
-494 782 0
-494 274 0
495 -242 0
-495 242 0
496 -783 -307 0
-496 783 0
-496 307 0
498 -782 -750 0
-498 782 0
-498 750 0
499 -784 -644 0
-499 784 0
-499 644 0
500 -431 0
-500 431 0
501 -783 -785 0
-501 783 0
-501 785 0
503 -772 -384 0
-503 772 0
-503 384 0
504 -771 -254 0
-504 771 0
-504 254 0
505 -774 -344 0
-505 774 0
-505 344 0
506 -288 0
-506 288 0
507 -773 -336 0
-507 773 0
-507 336 0
509 -781 -644 0
-509 781 0
-509 644 0
510 -428 0
-510 428 0
512 -301 0
-512 301 0
513 -781 -254 0
-513 781 0
-513 254 0
515 -783 -376 0
-515 783 0
-515 376 0
516 -782 -344 0
-516 782 0
-516 344 0
517 -784 -254 0
-517 784 0
-517 254 0
518 -304 0
-518 304 0
520 -760 -511 0
-520 760 0
-520 511 0
521 -294 0
-521 294 0
522 -762 -514 0
-522 762 0
-522 514 0
523 -766 -336 0
-523 766 0
-523 336 0
524 -765 -254 0
-524 765 0
-524 254 0
526 -771 -324 0
-526 771 0
-526 324 0
527 -774 -401 0
-527 774 0
-527 401 0
528 -772 -442 0
-528 772 0
-528 442 0
529 -773 -393 0
-529 773 0
-529 393 0
530 -358 0
-530 358 0
532 -370 0
-532 370 0
533 -781 -324 0
-533 781 0
-533 324 0
535 -373 0
-535 373 0
536 -783 -434 0
-536 783 0
-536 434 0
537 -784 -324 0
-537 784 0
-537 324 0
538 -782 -401 0
-538 782 0
-538 401 0
540 -762 -497 0
-540 762 0
-540 497 0
541 -765 -644 0
-541 765 0
-541 644 0
542 -766 -786 0
-542 766 0
-542 786 0
543 -421 0
-543 421 0
544 -760 -508 0
-544 760 0
-544 508 0
546 -787 0
-546 787 0
547 -788 -472 0
-547 788 0
-547 472 0
549 -773 -786 0
-549 773 0
-549 786 0
550 -772 -742 0
-550 772 0
-550 742 0
551 -774 -750 0
-551 774 0
-551 750 0
552 -415 0
-552 415 0
553 -771 -644 0
-553 771 0
-553 644 0
555 -451 0
-555 451 0
556 -789 -249 0
-556 789 0
-556 249 0
557 -790 -245 0
-557 790 0
-557 245 0
558 -788 -466 0
-558 788 0
-558 466 0
559 -791 -216 0
-559 791 0
-559 216 0
561 -790 -307 0
-561 790 0
-561 307 0
562 -788 -483 0
-562 788 0
-562 483 0
563 -454 0
-563 454 0
564 -791 -274 0
-564 791 0
-564 274 0
565 -789 -315 0
-565 789 0
-565 315 0
567 -790 -376 0
-567 790 0
-567 376 0
568 -788 -502 0
-568 788 0
-568 502 0
569 -789 -384 0
-569 789 0
-569 384 0
570 -791 -344 0
-570 791 0
-570 344 0
571 -457 0
-571 457 0
573 -791 -401 0
-573 791 0
-573 401 0
574 -788 -525 0
-574 788 0
-574 525 0
575 -789 -442 0
-575 789 0
-575 442 0
576 -460 0
-576 460 0
577 -790 -434 0
-577 790 0
-577 434 0
579 -747 -545 0
-579 747 0
-579 545 0
580 -792 0
-580 792 0
582 -793 0
-582 793 0
583 -636 -578 0
-583 636 0
-583 578 0
585 -180 0
-585 180 0
586 -749 -216 0
-586 749 0
-586 216 0
587 -752 -171 0
-587 752 0
-587 171 0
588 -741 -249 0
-588 741 0
-588 249 0
589 -747 -554 0
-589 747 0
-589 554 0
591 -770 -171 0
-591 770 0
-591 171 0
592 -769 -216 0
-592 769 0
-592 216 0
593 -186 0
-593 186 0
594 -636 -584 0
-594 636 0
-594 584 0
596 -747 -560 0
-596 747 0
-596 560 0
597 -741 -315 0
-597 741 0
-597 315 0
598 -223 0
-598 223 0
599 -749 -274 0
-599 749 0
-599 274 0
600 -752 -200 0
-600 752 0
-600 200 0
602 -229 0
-602 229 0
603 -770 -200 0
-603 770 0
-603 200 0
604 -636 -595 0
-604 636 0
-604 595 0
605 -769 -274 0
-605 769 0
-605 274 0
607 -770 -644 0
-607 770 0
-607 644 0
608 -769 -750 0
-608 769 0
-608 750 0
609 -418 0
-609 418 0
610 -759 -539 0
-610 759 0
-610 539 0
612 -285 0
-612 285 0
613 -741 -384 0
-613 741 0
-613 384 0
614 -747 -566 0
-614 747 0
-614 566 0
615 -749 -344 0
-615 749 0
-615 344 0
616 -752 -254 0
-616 752 0
-616 254 0
618 -789 -742 0
-618 789 0
-618 742 0
619 -790 -785 0
-619 790 0
-619 785 0
620 -463 0
-620 463 0
621 -788 -548 0
-621 788 0
-621 548 0
622 -791 -750 0
-622 791 0
-622 750 0
624 -752 -324 0
-624 752 0
-624 324 0
625 -747 -572 0
-625 747 0
-625 572 0
626 -749 -401 0
-626 749 0
-626 401 0
627 -355 0
-627 355 0
628 -741 -442 0
-628 741 0
-628 442 0
630 -361 0
-630 361 0
631 -770 -324 0
-631 770 0
-631 324 0
632 -769 -401 0
-632 769 0
-632 401 0
633 -636 -623 0
-633 636 0
-633 623 0
-794 -1 2 0
794 1 0
794 -2 0
-795 1 -2 0
795 -1 0
795 2 0
-796 -3 4 0
796 3 0
796 -4 0
-797 3 -4 0
797 -3 0
797 4 0
-798 -5 6 0
798 5 0
798 -6 0
-799 5 -6 0
799 -5 0
799 6 0
-800 -7 8 0
800 7 0
800 -8 0
-801 7 -8 0
801 -7 0
801 8 0
-802 -9 10 0
802 9 0
802 -10 0
-803 9 -10 0
803 -9 0
803 10 0
-804 -11 12 0
804 11 0
804 -12 0
-805 11 -12 0
805 -11 0
805 12 0
-806 -13 14 0
806 13 0
806 -14 0
-807 13 -14 0
807 -13 0
807 14 0
-808 -15 16 0
808 15 0
808 -16 0
-809 15 -16 0
809 -15 0
809 16 0
-810 -17 18 0
810 17 0
810 -18 0
-811 17 -18 0
811 -17 0
811 18 0
-812 -19 20 0
812 19 0
812 -20 0
-813 19 -20 0
813 -19 0
813 20 0
-814 -21 22 0
814 21 0
814 -22 0
-815 21 -22 0
815 -21 0
815 22 0
-816 -23 24 0
816 23 0
816 -24 0
-817 23 -24 0
817 -23 0
817 24 0
-818 -25 26 0
818 25 0
818 -26 0
-819 25 -26 0
819 -25 0
819 26 0
-820 -27 28 0
820 27 0
820 -28 0
-821 27 -28 0
821 -27 0
821 28 0
-822 -29 30 0
822 29 0
822 -30 0
-823 29 -30 0
823 -29 0
823 30 0
-824 -31 32 0
824 31 0
824 -32 0
-825 31 -32 0
825 -31 0
825 32 0
-826 -33 34 0
826 33 0
826 -34 0
-827 33 -34 0
827 -33 0
827 34 0
-828 -35 36 0
828 35 0
828 -36 0
-829 35 -36 0
829 -35 0
829 36 0
-830 -37 38 0
830 37 0
830 -38 0
-831 37 -38 0
831 -37 0
831 38 0
-832 -39 40 0
832 39 0
832 -40 0
-833 39 -40 0
833 -39 0
833 40 0
-834 -41 42 0
834 41 0
834 -42 0
-835 41 -42 0
835 -41 0
835 42 0
-836 -43 44 0
836 43 0
836 -44 0
-837 43 -44 0
837 -43 0
837 44 0
-838 -45 46 0
838 45 0
838 -46 0
-839 45 -46 0
839 -45 0
839 46 0
-840 -47 48 0
840 47 0
840 -48 0
-841 47 -48 0
841 -47 0
841 48 0
-842 -49 50 0
842 49 0
842 -50 0
-843 49 -50 0
843 -49 0
843 50 0
-844 -51 52 0
844 51 0
844 -52 0
-845 51 -52 0
845 -51 0
845 52 0
-846 -53 54 0
846 53 0
846 -54 0
-847 53 -54 0
847 -53 0
847 54 0
-848 -55 56 0
848 55 0
848 -56 0
-849 55 -56 0
849 -55 0
849 56 0
-850 -57 58 0
850 57 0
850 -58 0
-851 57 -58 0
851 -57 0
851 58 0
-852 -59 60 0
852 59 0
852 -60 0
-853 59 -60 0
853 -59 0
853 60 0
-854 -61 62 0
854 61 0
854 -62 0
-855 61 -62 0
855 -61 0
855 62 0
-856 -63 64 0
856 63 0
856 -64 0
-857 63 -64 0
857 -63 0
857 64 0
-858 -65 66 0
858 65 0
858 -66 0
-859 65 -66 0
859 -65 0
859 66 0
-860 -67 68 0
860 67 0
860 -68 0
-861 67 -68 0
861 -67 0
861 68 0
-862 -69 70 0
862 69 0
862 -70 0
-863 69 -70 0
863 -69 0
863 70 0
-864 -71 72 0
864 71 0
864 -72 0
-865 71 -72 0
865 -71 0
865 72 0
-866 -73 74 0
866 73 0
866 -74 0
-867 73 -74 0
867 -73 0
867 74 0
-868 -75 76 0
868 75 0
868 -76 0
-869 75 -76 0
869 -75 0
869 76 0
-870 -77 78 0
870 77 0
870 -78 0
-871 77 -78 0
871 -77 0
871 78 0
-872 -79 80 0
872 79 0
872 -80 0
-873 79 -80 0
873 -79 0
873 80 0
-874 -81 82 0
874 81 0
874 -82 0
-875 81 -82 0
875 -81 0
875 82 0
-876 -83 84 0
876 83 0
876 -84 0
-877 83 -84 0
877 -83 0
877 84 0
-878 -85 86 0
878 85 0
878 -86 0
-879 85 -86 0
879 -85 0
879 86 0
-880 -87 88 0
880 87 0
880 -88 0
-881 87 -88 0
881 -87 0
881 88 0
-882 -89 90 0
882 89 0
882 -90 0
-883 89 -90 0
883 -89 0
883 90 0
-884 -91 92 0
884 91 0
884 -92 0
-885 91 -92 0
885 -91 0
885 92 0
-886 -93 94 0
886 93 0
886 -94 0
-887 93 -94 0
887 -93 0
887 94 0
-888 -95 96 0
888 95 0
888 -96 0
-889 95 -96 0
889 -95 0
889 96 0
-890 -97 98 0
890 97 0
890 -98 0
-891 97 -98 0
891 -97 0
891 98 0
-892 -99 100 0
892 99 0
892 -100 0
-893 99 -100 0
893 -99 0
893 100 0
-894 -101 102 0
894 101 0
894 -102 0
-895 101 -102 0
895 -101 0
895 102 0
-896 -103 104 0
896 103 0
896 -104 0
-897 103 -104 0
897 -103 0
897 104 0
-898 -105 106 0
898 105 0
898 -106 0
-899 105 -106 0
899 -105 0
899 106 0
-900 -107 108 0
900 107 0
900 -108 0
-901 107 -108 0
901 -107 0
901 108 0
-902 -109 110 0
902 109 0
902 -110 0
-903 109 -110 0
903 -109 0
903 110 0
-904 -111 112 0
904 111 0
904 -112 0
-905 111 -112 0
905 -111 0
905 112 0
-906 -113 114 0
906 113 0
906 -114 0
-907 113 -114 0
907 -113 0
907 114 0
-908 -115 116 0
908 115 0
908 -116 0
-909 115 -116 0
909 -115 0
909 116 0
-910 -117 118 0
910 117 0
910 -118 0
-911 117 -118 0
911 -117 0
911 118 0
-912 -119 120 0
912 119 0
912 -120 0
-913 119 -120 0
913 -119 0
913 120 0
-914 -121 122 0
914 121 0
914 -122 0
-915 121 -122 0
915 -121 0
915 122 0
-916 -123 124 0
916 123 0
916 -124 0
-917 123 -124 0
917 -123 0
917 124 0
-918 -125 126 0
918 125 0
918 -126 0
-919 125 -126 0
919 -125 0
919 126 0
-920 -127 128 0
920 127 0
920 -128 0
-921 127 -128 0
921 -127 0
921 128 0
-922 -129 130 0
922 129 0
922 -130 0
-923 129 -130 0
923 -129 0
923 130 0
-924 -131 132 0
924 131 0
924 -132 0
-925 131 -132 0
925 -131 0
925 132 0
-926 -133 134 0
926 133 0
926 -134 0
-927 133 -134 0
927 -133 0
927 134 0
-928 -135 136 0
928 135 0
928 -136 0
-929 135 -136 0
929 -135 0
929 136 0
-930 -137 138 0
930 137 0
930 -138 0
-931 137 -138 0
931 -137 0
931 138 0
-932 -139 140 0
932 139 0
932 -140 0
-933 139 -140 0
933 -139 0
933 140 0
-934 -141 142 0
934 141 0
934 -142 0
-935 141 -142 0
935 -141 0
935 142 0
-936 -143 144 0
936 143 0
936 -144 0
-937 143 -144 0
937 -143 0
937 144 0
-938 -145 146 0
938 145 0
938 -146 0
-939 145 -146 0
939 -145 0
939 146 0
-940 -147 148 0
940 147 0
940 -148 0
-941 147 -148 0
941 -147 0
941 148 0
-942 -149 150 0
942 149 0
942 -150 0
-943 149 -150 0
943 -149 0
943 150 0
-944 -151 152 0
944 151 0
944 -152 0
-945 151 -152 0
945 -151 0
945 152 0
-946 -153 154 0
946 153 0
946 -154 0
-947 153 -154 0
947 -153 0
947 154 0
-948 -155 156 0
948 155 0
948 -156 0
-949 155 -156 0
949 -155 0
949 156 0
-950 -157 158 0
950 157 0
950 -158 0
-951 157 -158 0
951 -157 0
951 158 0
-952 -159 160 0
952 159 0
952 -160 0
-953 159 -160 0
953 -159 0
953 160 0
-954 -161 162 0
954 161 0
954 -162 0
-955 161 -162 0
955 -161 0
955 162 0
-956 -163 164 0
956 163 0
956 -164 0
-957 163 -164 0
957 -163 0
957 164 0
-958 -165 166 0
958 165 0
958 -166 0
-959 165 -166 0
959 -165 0
959 166 0
-960 -167 168 0
960 167 0
960 -168 0
-961 167 -168 0
961 -167 0
961 168 0
-962 634 -606 0
962 -634 0
962 606 0
-963 -634 606 0
963 634 0
963 -606 0
-964 -721 634 635 0
964 721 0
964 -634 0
964 -635 0
-965 721 -634 0
965 -721 0
965 634 0
-966 721 -635 0
966 -721 0
966 635 0
-967 641 -497 0
967 -641 0
967 497 0
-968 -641 497 0
968 641 0
968 -497 0
-969 -970 638 641 0
969 970 0
969 -638 0
969 -641 0
-971 970 -638 0
971 -970 0
971 638 0
-972 970 -641 0
972 -970 0
972 641 0
-973 170 -169 0
973 -170 0
973 169 0
-974 -170 169 0
974 170 0
974 -169 0
-975 -976 642 170 0
975 976 0
975 -642 0
975 -170 0
-977 976 -642 0
977 -976 0
977 642 0
-978 976 -170 0
978 -976 0
978 170 0
-979 645 -508 0
979 -645 0
979 508 0
-980 -645 508 0
980 645 0
980 -508 0
-981 -982 645 646 0
981 982 0
981 -645 0
981 -646 0
-983 982 -645 0
983 -982 0
983 645 0
-984 982 -646 0
984 -982 0
984 646 0
-985 650 -617 0
985 -650 0
985 617 0
-986 -650 617 0
986 650 0
986 -617 0
-987 -739 648 650 0
987 739 0
987 -648 0
987 -650 0
-988 739 -648 0
988 -739 0
988 648 0
-989 739 -650 0
989 -739 0
989 650 0
-990 657 -324 0
990 -657 0
990 324 0
-991 -657 324 0
991 657 0
991 -324 0
-992 -644 651 653 655 657 658 660 662 664 666 668 670 0
992 644 0
992 -651 0
992 -653 0
992 -655 0
992 -657 0
992 -658 0
992 -660 0
992 -662 0
992 -664 0
992 -666 0
992 -668 0
992 -670 0
-993 644 -651 0
993 -644 0
993 651 0
-994 644 -653 0
994 -644 0
994 653 0
-995 644 -655 0
995 -644 0
995 655 0
-996 644 -657 0
996 -644 0
996 657 0
-997 644 -658 0
997 -644 0
997 658 0
-998 644 -660 0
998 -644 0
998 660 0
-999 644 -662 0
999 -644 0
999 662 0
-1000 644 -664 0
1000 -644 0
1000 664 0
-1001 644 -666 0
1001 -644 0
1001 666 0
-1002 644 -668 0
1002 -644 0
1002 668 0
-1003 644 -670 0
1003 -644 0
1003 670 0
-1004 688 -401 0
1004 -688 0
1004 401 0
-1005 -688 401 0
1005 688 0
1005 -401 0
-1006 -750 672 674 676 678 680 682 684 686 688 689 0
1006 750 0
1006 -672 0
1006 -674 0
1006 -676 0
1006 -678 0
1006 -680 0
1006 -682 0
1006 -684 0
1006 -686 0
1006 -688 0
1006 -689 0
-1007 750 -672 0
1007 -750 0
1007 672 0
-1008 750 -674 0
1008 -750 0
1008 674 0
-1009 750 -676 0
1009 -750 0
1009 676 0
-1010 750 -678 0
1010 -750 0
1010 678 0
-1011 750 -680 0
1011 -750 0
1011 680 0
-1012 750 -682 0
1012 -750 0
1012 682 0
-1013 750 -684 0
1013 -750 0
1013 684 0
-1014 750 -686 0
1014 -750 0
1014 686 0
-1015 750 -688 0
1015 -750 0
1015 688 0
-1016 750 -689 0
1016 -750 0
1016 689 0
-1017 697 -434 0
1017 -697 0
1017 434 0
-1018 -697 434 0
1018 697 0
1018 -434 0
-1019 -785 691 693 695 697 698 700 702 0
1019 785 0
1019 -691 0
1019 -693 0
1019 -695 0
1019 -697 0
1019 -698 0
1019 -700 0
1019 -702 0
-1020 785 -691 0
1020 -785 0
1020 691 0
-1021 785 -693 0
1021 -785 0
1021 693 0
-1022 785 -695 0
1022 -785 0
1022 695 0
-1023 785 -697 0
1023 -785 0
1023 697 0
-1024 785 -698 0
1024 -785 0
1024 698 0
-1025 785 -700 0
1025 -785 0
1025 700 0
-1026 785 -702 0
1026 -785 0
1026 702 0
-1027 716 -442 0
1027 -716 0
1027 442 0
-1028 -716 442 0
1028 716 0
1028 -442 0
-1029 -742 704 706 708 710 712 714 716 717 0
1029 742 0
1029 -704 0
1029 -706 0
1029 -708 0
1029 -710 0
1029 -712 0
1029 -714 0
1029 -716 0
1029 -717 0
-1030 742 -704 0
1030 -742 0
1030 704 0
-1031 742 -706 0
1031 -742 0
1031 706 0
-1032 742 -708 0
1032 -742 0
1032 708 0
-1033 742 -710 0
1033 -742 0
1033 710 0
-1034 742 -712 0
1034 -742 0
1034 712 0
-1035 742 -714 0
1035 -742 0
1035 714 0
-1036 742 -716 0
1036 -742 0
1036 716 0
-1037 742 -717 0
1037 -742 0
1037 717 0
-1038 722 -539 0
1038 -722 0
1038 539 0
-1039 -722 539 0
1039 722 0
1039 -539 0
-1040 -640 719 722 0
1040 640 0
1040 -719 0
1040 -722 0
-1041 640 -719 0
1041 -640 0
1041 719 0
-1042 640 -722 0
1042 -640 0
1042 722 0
-1043 731 -393 0
1043 -731 0
1043 393 0
-1044 -731 393 0
1044 731 0
1044 -393 0
-1045 -786 723 725 727 729 731 732 734 0
1045 786 0
1045 -723 0
1045 -725 0
1045 -727 0
1045 -729 0
1045 -731 0
1045 -732 0
1045 -734 0
-1046 786 -723 0
1046 -786 0
1046 723 0
-1047 786 -725 0
1047 -786 0
1047 725 0
-1048 786 -727 0
1048 -786 0
1048 727 0
-1049 786 -729 0
1049 -786 0
1049 729 0
-1050 786 -731 0
1050 -786 0
1050 731 0
-1051 786 -732 0
1051 -786 0
1051 732 0
-1052 786 -734 0
1052 -786 0
1052 734 0
-1053 736 -548 0
1053 -736 0
1053 548 0
-1054 -736 548 0
1054 736 0
1054 -548 0
-1055 -1056 736 737 0
1055 1056 0
1055 -736 0
1055 -737 0
-1057 1056 -736 0
1057 -1056 0
1057 736 0
-1058 1056 -737 0
1058 -1056 0
1058 737 0
-1059 743 -412 0
1059 -743 0
1059 412 0
-1060 -743 412 0
1060 743 0
1060 -412 0
-1061 -637 740 743 744 746 748 751 0
1061 637 0
1061 -740 0
1061 -743 0
1061 -744 0
1061 -746 0
1061 -748 0
1061 -751 0
-1062 637 -740 0
1062 -637 0
1062 740 0
-1063 637 -743 0
1063 -637 0
1063 743 0
-1064 637 -744 0
1064 -637 0
1064 744 0
-1065 637 -746 0
1065 -637 0
1065 746 0
-1066 637 -748 0
1066 -637 0
1066 748 0
-1067 637 -751 0
1067 -637 0
1067 751 0
-1068 753 -754 0
1068 -753 0
1068 754 0
-1069 -753 754 0
1069 753 0
1069 -754 0
-1070 -1071 753 0
1070 1071 0
1070 -753 0
-1072 1071 -753 0
1072 -1071 0
1072 753 0
-1073 755 -756 0
1073 -755 0
1073 756 0
-1074 -755 756 0
1074 755 0
1074 -756 0
-1075 -169 755 0
1075 169 0
1075 -755 0
-1076 169 -755 0
1076 -169 0
1076 755 0
-1077 174 -758 0
1077 -174 0
1077 758 0
-1078 -174 758 0
1078 174 0
1078 -758 0
-1079 181 -578 0
1079 -181 0
1079 578 0
-1080 -181 578 0
1080 181 0
1080 -578 0
-1081 185 -472 0
1081 -185 0
1081 472 0
-1082 -185 472 0
1082 185 0
1082 -472 0
-1083 188 -581 0
1083 -188 0
1083 581 0
-1084 -188 581 0
1084 188 0
1084 -581 0
-1085 191 -761 0
1085 -191 0
1085 761 0
-1086 -191 761 0
1086 191 0
1086 -761 0
-1087 196 -473 0
1087 -196 0
1087 473 0
-1088 -196 473 0
1088 196 0
1088 -473 0
-1089 198 -474 0
1089 -198 0
1089 474 0
-1090 -198 474 0
1090 198 0
1090 -474 0
-1091 211 -171 0
1091 -211 0
1091 171 0
-1092 -211 171 0
1092 211 0
1092 -171 0
-1093 213 -763 0
1093 -213 0
1093 763 0
-1094 -213 763 0
1094 213 0
1094 -763 0
-1095 222 -764 0
1095 -222 0
1095 764 0
-1096 -222 764 0
1096 222 0
1096 -764 0
-1097 225 -584 0
1097 -225 0
1097 584 0
-1098 -225 584 0
1098 225 0
1098 -584 0
-1099 228 -466 0
1099 -228 0
1099 466 0
-1100 -228 466 0
1100 228 0
1100 -466 0
-1101 230 -590 0
1101 -230 0
1101 590 0
-1102 -230 590 0
1102 230 0
1102 -590 0
-1103 235 -189 0
1103 -235 0
1103 189 0
-1104 -235 189 0
1104 235 0
1104 -189 0
-1105 240 -475 0
1105 -240 0
1105 475 0
-1106 -240 475 0
1106 240 0
1106 -475 0
-1107 243 -478 0
1107 -243 0
1107 478 0
-1108 -243 478 0
1108 243 0
1108 -478 0
-1109 247 -767 0
1109 -247 0
1109 767 0
-1110 -247 767 0
1110 247 0
1110 -767 0
-1111 252 -768 0
1111 -252 0
1111 768 0
-1112 -252 768 0
1112 252 0
1112 -768 0
-1113 256 -200 0
1113 -256 0
1113 200 0
-1114 -256 200 0
1114 256 0
1114 -200 0
-1115 273 -212 0
1115 -273 0
1115 212 0
-1116 -273 212 0
1116 273 0
1116 -212 0
-1117 283 -216 0
1117 -283 0
1117 216 0
-1118 -283 216 0
1118 283 0
1118 -216 0
-1119 287 -595 0
1119 -287 0
1119 595 0
-1120 -287 595 0
1120 287 0
1120 -595 0
-1121 289 -483 0
1121 -289 0
1121 483 0
-1122 -289 483 0
1122 289 0
1122 -483 0
-1123 293 -601 0
1123 -293 0
1123 601 0
-1124 -293 601 0
1124 293 0
1124 -601 0
-1125 297 -232 0
1125 -297 0
1125 232 0
-1126 -297 232 0
1126 297 0
1126 -232 0
-1127 302 -489 0
1127 -302 0
1127 489 0
-1128 -302 489 0
1128 302 0
1128 -489 0
-1129 306 -492 0
1129 -306 0
1129 492 0
-1130 -306 492 0
1130 306 0
1130 -492 0
-1131 312 -245 0
1131 -312 0
1131 245 0
-1132 -312 245 0
1132 312 0
1132 -245 0
-1133 319 -249 0
1133 -319 0
1133 249 0
-1134 -319 249 0
1134 319 0
1134 -249 0
-1135 328 -254 0
1135 -328 0
1135 254 0
-1136 -328 254 0
1136 328 0
1136 -254 0
-1137 338 -266 0
1137 -338 0
1137 266 0
-1138 -338 266 0
1138 338 0
1138 -266 0
-1139 347 -274 0
1139 -347 0
1139 274 0
-1140 -347 274 0
1140 347 0
1140 -274 0
-1141 356 -611 0
1141 -356 0
1141 611 0
-1142 -356 611 0
1142 356 0
1142 -611 0
-1143 359 -502 0
1143 -359 0
1143 502 0
-1144 -359 502 0
1144 359 0
1144 -502 0
-1145 365 -291 0
1145 -365 0
1145 291 0
-1146 -365 291 0
1146 365 0
1146 -291 0
-1147 369 -519 0
1147 -369 0
1147 519 0
-1148 -369 519 0
1148 369 0
1148 -519 0
-1149 371 -511 0
1149 -371 0
1149 511 0
-1150 -371 511 0
1150 371 0
1150 -511 0
-1151 374 -514 0
1151 -374 0
1151 514 0
-1152 -374 514 0
1152 374 0
1152 -514 0
-1153 381 -307 0
1153 -381 0
1153 307 0
-1154 -381 307 0
1154 381 0
1154 -307 0
-1155 386 -315 0
1155 -386 0
1155 315 0
-1156 -386 315 0
1156 386 0
1156 -315 0
-1157 397 -336 0
1157 -397 0
1157 336 0
-1158 -397 336 0
1158 397 0
1158 -336 0
-1159 409 -344 0
1159 -409 0
1159 344 0
-1160 -409 344 0
1160 409 0
1160 -344 0
-1161 413 -623 0
1161 -413 0
1161 623 0
-1162 -413 623 0
1162 413 0
1162 -623 0
-1163 416 -525 0
1163 -416 0
1163 525 0
-1164 -416 525 0
1164 416 0
1164 -525 0
-1165 420 -629 0
1165 -420 0
1165 629 0
-1166 -420 629 0
1166 420 0
1166 -629 0
-1167 426 -367 0
1167 -426 0
1167 367 0
-1168 -426 367 0
1168 426 0
1168 -367 0
-1169 430 -531 0
1169 -430 0
1169 531 0
-1170 -430 531 0
1170 430 0
1170 -531 0
-1171 432 -534 0
1171 -432 0
1171 534 0
-1172 -432 534 0
1172 432 0
1172 -534 0
-1173 439 -376 0
1173 -439 0
1173 376 0
-1174 -439 376 0
1174 439 0
1174 -376 0
-1175 446 -384 0
1175 -446 0
1175 384 0
-1176 -446 384 0
1176 446 0
1176 -384 0
-1177 452 -545 0
1177 -452 0
1177 545 0
-1178 -452 545 0
1178 452 0
1178 -545 0
-1179 455 -554 0
1179 -455 0
1179 554 0
-1180 -455 554 0
1180 455 0
1180 -554 0
-1181 458 -560 0
1181 -458 0
1181 560 0
-1182 -458 560 0
1182 458 0
1182 -560 0
-1183 462 -566 0
1183 -462 0
1183 566 0
-1184 -462 566 0
1184 462 0
1184 -566 0
-1185 465 -572 0
1185 -465 0
1185 572 0
-1186 -465 572 0
1186 465 0
1186 -572 0
-1187 471 -183 0
1187 -471 0
1187 183 0
-1188 -471 183 0
1188 471 0
1188 -183 0
-1189 775 -776 0
1189 -775 0
1189 776 0
-1190 -775 776 0
1190 775 0
1190 -776 0
-1191 -472 775 0
1191 472 0
1191 -775 0
-1192 472 -775 0
1192 -472 0
1192 775 0
-1193 777 -778 0
1193 -777 0
1193 778 0
-1194 -777 778 0
1194 777 0
1194 -778 0
-1195 -473 777 0
1195 473 0
1195 -777 0
-1196 473 -777 0
1196 -473 0
1196 777 0
-1197 779 -780 0
1197 -779 0
1197 780 0
-1198 -779 780 0
1198 779 0
1198 -780 0
-1199 -474 779 0
1199 474 0
1199 -779 0
-1200 474 -779 0
1200 -474 0
1200 779 0
-1201 477 -194 0
1201 -477 0
1201 194 0
-1202 -477 194 0
1202 477 0
1202 -194 0
-1203 482 -197 0
1203 -482 0
1203 197 0
-1204 -482 197 0
1204 482 0
1204 -197 0
-1205 485 -226 0
1205 -485 0
1205 226 0
-1206 -485 226 0
1206 485 0
1206 -226 0
-1207 490 -239 0
1207 -490 0
1207 239 0
-1208 -490 239 0
1208 490 0
1208 -239 0
-1209 495 -242 0
1209 -495 0
1209 242 0
-1210 -495 242 0
1210 495 0
1210 -242 0
-1211 500 -431 0
1211 -500 0
1211 431 0
-1212 -500 431 0
1212 500 0
1212 -431 0
-1213 506 -288 0
1213 -506 0
1213 288 0
-1214 -506 288 0
1214 506 0
1214 -288 0
-1215 510 -428 0
1215 -510 0
1215 428 0
-1216 -510 428 0
1216 510 0
1216 -428 0
-1217 512 -301 0
1217 -512 0
1217 301 0
-1218 -512 301 0
1218 512 0
1218 -301 0
-1219 518 -304 0
1219 -518 0
1219 304 0
-1220 -518 304 0
1220 518 0
1220 -304 0
-1221 521 -294 0
1221 -521 0
1221 294 0
-1222 -521 294 0
1222 521 0
1222 -294 0
-1223 530 -358 0
1223 -530 0
1223 358 0
-1224 -530 358 0
1224 530 0
1224 -358 0
-1225 532 -370 0
1225 -532 0
1225 370 0
-1226 -532 370 0
1226 532 0
1226 -370 0
-1227 535 -373 0
1227 -535 0
1227 373 0
-1228 -535 373 0
1228 535 0
1228 -373 0
-1229 543 -421 0
1229 -543 0
1229 421 0
-1230 -543 421 0
1230 543 0
1230 -421 0
-1231 546 -787 0
1231 -546 0
1231 787 0
-1232 -546 787 0
1232 546 0
1232 -787 0
-1233 552 -415 0
1233 -552 0
1233 415 0
-1234 -552 415 0
1234 552 0
1234 -415 0
-1235 555 -451 0
1235 -555 0
1235 451 0
-1236 -555 451 0
1236 555 0
1236 -451 0
-1237 563 -454 0
1237 -563 0
1237 454 0
-1238 -563 454 0
1238 563 0
1238 -454 0
-1239 571 -457 0
1239 -571 0
1239 457 0
-1240 -571 457 0
1240 571 0
1240 -457 0
-1241 576 -460 0
1241 -576 0
1241 460 0
-1242 -576 460 0
1242 576 0
1242 -460 0
-1243 580 -792 0
1243 -580 0
1243 792 0
-1244 -580 792 0
1244 580 0
1244 -792 0
-1245 582 -793 0
1245 -582 0
1245 793 0
-1246 -582 793 0
1246 582 0
1246 -793 0
-1247 585 -180 0
1247 -585 0
1247 180 0
-1248 -585 180 0
1248 585 0
1248 -180 0
-1249 593 -186 0
1249 -593 0
1249 186 0
-1250 -593 186 0
1250 593 0
1250 -186 0
-1251 598 -223 0
1251 -598 0
1251 223 0
-1252 -598 223 0
1252 598 0
1252 -223 0
-1253 602 -229 0
1253 -602 0
1253 229 0
-1254 -602 229 0
1254 602 0
1254 -229 0
-1255 609 -418 0
1255 -609 0
1255 418 0
-1256 -609 418 0
1256 609 0
1256 -418 0
-1257 612 -285 0
1257 -612 0
1257 285 0
-1258 -612 285 0
1258 612 0
1258 -285 0
-1259 620 -463 0
1259 -620 0
1259 463 0
-1260 -620 463 0
1260 620 0
1260 -463 0
-1261 627 -355 0
1261 -627 0
1261 355 0
-1262 -627 355 0
1262 627 0
1262 -355 0
-1263 630 -361 0
1263 -630 0
1263 361 0
-1264 -630 361 0
1264 630 0
1264 -361 0
794 0
795 0
796 0
797 0
798 0
799 0
800 0
801 0
802 0
803 0
804 0
805 0
806 0
807 0
808 0
809 0
810 0
811 0
812 0
813 0
814 0
815 0
816 0
817 0
818 0
819 0
820 0
821 0
822 0
823 0
824 0
825 0
826 0
827 0
828 0
829 0
830 0
831 0
832 0
833 0
834 0
835 0
836 0
837 0
838 0
839 0
840 0
841 0
842 0
843 0
844 0
845 0
846 0
847 0
848 0
849 0
850 0
851 0
852 0
853 0
854 0
855 0
856 0
857 0
858 0
859 0
860 0
861 0
862 0
863 0
864 0
865 0
866 0
867 0
868 0
869 0
870 0
871 0
872 0
873 0
874 0
875 0
876 0
877 0
878 0
879 0
880 0
881 0
882 0
883 0
884 0
885 0
886 0
887 0
888 0
889 0
890 0
891 0
892 0
893 0
894 0
895 0
896 0
897 0
898 0
899 0
900 0
901 0
902 0
903 0
904 0
905 0
906 0
907 0
908 0
909 0
910 0
911 0
912 0
913 0
914 0
915 0
916 0
917 0
918 0
919 0
920 0
921 0
922 0
923 0
924 0
925 0
926 0
927 0
928 0
929 0
930 0
931 0
932 0
933 0
934 0
935 0
936 0
937 0
938 0
939 0
940 0
941 0
942 0
943 0
944 0
945 0
946 0
947 0
948 0
949 0
950 0
951 0
952 0
953 0
954 0
955 0
956 0
957 0
958 0
959 0
960 0
961 0
962 0
963 0
964 0
965 0
966 0
967 0
968 0
969 0
971 0
972 0
973 0
974 0
975 0
977 0
978 0
979 0
980 0
981 0
983 0
984 0
985 0
986 0
987 0
988 0
989 0
990 0
991 0
992 0
993 0
994 0
995 0
996 0
997 0
998 0
999 0
1000 0
1001 0
1002 0
1003 0
1004 0
1005 0
1006 0
1007 0
1008 0
1009 0
1010 0
1011 0
1012 0
1013 0
1014 0
1015 0
1016 0
1017 0
1018 0
1019 0
1020 0
1021 0
1022 0
1023 0
1024 0
1025 0
1026 0
1027 0
1028 0
1029 0
1030 0
1031 0
1032 0
1033 0
1034 0
1035 0
1036 0
1037 0
1038 0
1039 0
1040 0
1041 0
1042 0
1043 0
1044 0
1045 0
1046 0
1047 0
1048 0
1049 0
1050 0
1051 0
1052 0
1053 0
1054 0
1055 0
1057 0
1058 0
1059 0
1060 0
1061 0
1062 0
1063 0
1064 0
1065 0
1066 0
1067 0
1068 0
1069 0
1070 0
1072 0
1073 0
1074 0
1075 0
1076 0
1077 0
1078 0
1079 0
1080 0
1081 0
1082 0
1083 0
1084 0
1085 0
1086 0
1087 0
1088 0
1089 0
1090 0
1091 0
1092 0
1093 0
1094 0
1095 0
1096 0
1097 0
1098 0
1099 0
1100 0
1101 0
1102 0
1103 0
1104 0
1105 0
1106 0
1107 0
1108 0
1109 0
1110 0
1111 0
1112 0
1113 0
1114 0
1115 0
1116 0
1117 0
1118 0
1119 0
1120 0
1121 0
1122 0
1123 0
1124 0
1125 0
1126 0
1127 0
1128 0
1129 0
1130 0
1131 0
1132 0
1133 0
1134 0
1135 0
1136 0
1137 0
1138 0
1139 0
1140 0
1141 0
1142 0
1143 0
1144 0
1145 0
1146 0
1147 0
1148 0
1149 0
1150 0
1151 0
1152 0
1153 0
1154 0
1155 0
1156 0
1157 0
1158 0
1159 0
1160 0
1161 0
1162 0
1163 0
1164 0
1165 0
1166 0
1167 0
1168 0
1169 0
1170 0
1171 0
1172 0
1173 0
1174 0
1175 0
1176 0
1177 0
1178 0
1179 0
1180 0
1181 0
1182 0
1183 0
1184 0
1185 0
1186 0
1187 0
1188 0
1189 0
1190 0
1191 0
1192 0
1193 0
1194 0
1195 0
1196 0
1197 0
1198 0
1199 0
1200 0
1201 0
1202 0
1203 0
1204 0
1205 0
1206 0
1207 0
1208 0
1209 0
1210 0
1211 0
1212 0
1213 0
1214 0
1215 0
1216 0
1217 0
1218 0
1219 0
1220 0
1221 0
1222 0
1223 0
1224 0
1225 0
1226 0
1227 0
1228 0
1229 0
1230 0
1231 0
1232 0
1233 0
1234 0
1235 0
1236 0
1237 0
1238 0
1239 0
1240 0
1241 0
1242 0
1243 0
1244 0
1245 0
1246 0
1247 0
1248 0
1249 0
1250 0
1251 0
1252 0
1253 0
1254 0
1255 0
1256 0
1257 0
1258 0
1259 0
1260 0
1261 0
1262 0
1263 0
1264 0
2 0
4 0
6 0
8 0
10 0
12 0
14 0
16 0
18 0
20 0
22 0
24 0
26 0
28 0
30 0
32 0
34 0
36 0
38 0
40 0
42 0
44 0
46 0
48 0
50 0
52 0
54 0
56 0
58 0
60 0
62 0
64 0
66 0
68 0
70 0
72 0
74 0
76 0
78 0
80 0
82 0
84 0
86 0
88 0
90 0
92 0
94 0
96 0
98 0
100 0
102 0
104 0
106 0
108 0
110 0
112 0
114 0
116 0
118 0
120 0
122 0
124 0
126 0
128 0
130 0
132 0
134 0
136 0
138 0
140 0
142 0
144 0
146 0
148 0
150 0
152 0
154 0
156 0
158 0
160 0
162 0
164 0
166 0
168 0
