c BC-S1.2
p cnf 2308 6929
1 -2 0
-1 2 0
3 -4 0
-3 4 0
-5 6 7 0
5 -6 0
5 -7 0
8 -9 0
-8 9 0
-10 11 12 0
10 -11 0
10 -12 0
-13 14 15 0
13 -14 0
13 -15 0
16 -17 0
-16 17 0
-18 19 20 0
18 -19 0
18 -20 0
-21 22 23 0
21 -22 0
21 -23 0
-24 25 26 0
24 -25 0
24 -26 0
27 -28 0
-27 28 0
-29 30 31 0
29 -30 0
29 -31 0
32 -33 0
-32 33 0
-34 35 33 0
34 -35 0
34 -33 0
-36 37 38 0
36 -37 0
36 -38 0
-39 40 41 42 43 44 45 0
39 -40 0
39 -41 0
39 -42 0
39 -43 0
39 -44 0
39 -45 0
-46 47 48 0
46 -47 0
46 -48 0
49 -50 0
-49 50 0
-51 52 50 0
51 -52 0
51 -50 0
-53 54 55 0
53 -54 0
53 -55 0
-56 57 58 0
56 -57 0
56 -58 0
59 -60 0
-59 60 0
-61 62 63 0
61 -62 0
61 -63 0
-64 65 66 0
64 -65 0
64 -66 0
67 -68 0
-67 68 0
-69 70 68 0
69 -70 0
69 -68 0
-71 72 73 0
71 -72 0
71 -73 0
-74 75 76 0
74 -75 0
74 -76 0
77 -78 0
-77 78 0
-79 80 81 0
79 -80 0
79 -81 0
-82 83 84 0
82 -83 0
82 -84 0
85 -86 0
-85 86 0
-87 86 88 0
87 -86 0
87 -88 0
89 -90 0
-89 90 0
-91 90 92 0
91 -90 0
91 -92 0
-93 94 95 0
93 -94 0
93 -95 0
96 -97 0
-96 97 0
-98 99 100 0
98 -99 0
98 -100 0
101 -102 0
-101 102 0
-103 104 102 0
103 -104 0
103 -102 0
105 -106 0
-105 106 0
-107 108 106 0
107 -108 0
107 -106 0
109 -110 0
-109 110 0
-111 112 110 0
111 -112 0
111 -110 0
-113 114 115 0
113 -114 0
113 -115 0
116 -117 0
-116 117 0
-118 119 120 0
118 -119 0
118 -120 0
121 -122 0
-121 122 0
-123 122 124 0
123 -122 0
123 -124 0
125 -126 0
-125 126 0
-127 126 128 0
127 -126 0
127 -128 0
-129 130 131 0
129 -130 0
129 -131 0
132 -133 0
-132 133 0
-134 135 133 0
134 -135 0
134 -133 0
-136 137 138 0
136 -137 0
136 -138 0
139 -140 0
-139 140 0
-141 142 143 0
141 -142 0
141 -143 0
144 -145 0
-144 145 0
-146 145 147 0
146 -145 0
146 -147 0
-148 149 150 0
148 -149 0
148 -150 0
151 -152 0
-151 152 0
-153 154 152 0
153 -154 0
153 -152 0
-155 156 157 0
155 -156 0
155 -157 0
158 -159 0
-158 159 0
-160 161 159 0
160 -161 0
160 -159 0
-162 163 164 0
162 -163 0
162 -164 0
165 -166 0
-165 166 0
-167 168 169 0
167 -168 0
167 -169 0
170 -171 0
-170 171 0
-172 173 171 0
172 -173 0
172 -171 0
-174 175 176 0
174 -175 0
174 -176 0
177 -178 0
-177 178 0
-179 178 180 0
179 -178 0
179 -180 0
-181 182 183 0
181 -182 0
181 -183 0
184 -185 0
-184 185 0
-186 187 185 0
186 -187 0
186 -185 0
-188 189 190 0
188 -189 0
188 -190 0
-191 192 193 0
191 -192 0
191 -193 0
194 -195 0
-194 195 0
-196 197 198 0
196 -197 0
196 -198 0
-199 200 201 0
199 -200 0
199 -201 0
202 -203 0
-202 203 0
-204 203 205 0
204 -203 0
204 -205 0
-206 207 208 0
206 -207 0
206 -208 0
209 -210 0
-209 210 0
-211 210 212 0
211 -210 0
211 -212 0
-213 214 215 0
213 -214 0
213 -215 0
216 -217 0
-216 217 0
-218 217 219 0
218 -217 0
218 -219 0
-220 221 222 0
220 -221 0
220 -222 0
-223 224 225 0
223 -224 0
223 -225 0
226 -227 0
-226 227 0
-228 229 230 0
228 -229 0
228 -230 0
-231 232 233 0
231 -232 0
231 -233 0
234 -235 0
-234 235 0
-236 237 235 0
236 -237 0
236 -235 0
-238 239 240 0
238 -239 0
238 -240 0
241 -242 0
-241 242 0
-243 242 244 0
243 -242 0
243 -244 0
245 -246 0
-245 246 0
-247 246 248 0
247 -246 0
247 -248 0
249 -250 0
-249 250 0
-251 250 252 0
251 -250 0
251 -252 0
-253 254 255 0
253 -254 0
253 -255 0
-256 257 258 0
256 -257 0
256 -258 0
259 -260 0
-259 260 0
-261 262 263 0
261 -262 0
261 -263 0
-264 265 266 0
264 -265 0
264 -266 0
267 -268 0
-267 268 0
-269 268 270 0
269 -268 0
269 -270 0
-271 272 273 0
271 -272 0
271 -273 0
274 -275 0
-274 275 0
-276 275 277 0
276 -275 0
276 -277 0
-278 279 280 0
278 -279 0
278 -280 0
281 -282 0
-281 282 0
283 -284 0
-283 284 0
-285 286 284 0
285 -286 0
285 -284 0
-287 288 289 0
287 -288 0
287 -289 0
290 -291 0
-290 291 0
-292 291 293 0
292 -291 0
292 -293 0
294 -295 0
-294 295 0
-296 297 298 0
296 -297 0
296 -298 0
-299 300 301 0
299 -300 0
299 -301 0
302 -303 0
-302 303 0
-304 303 305 0
304 -303 0
304 -305 0
-306 307 308 0
306 -307 0
306 -308 0
309 -310 0
-309 310 0
-311 312 310 0
311 -312 0
311 -310 0
-313 314 315 0
313 -314 0
313 -315 0
316 -317 0
-316 317 0
318 -319 0
-318 319 0
-320 321 319 0
320 -321 0
320 -319 0
-322 323 324 0
322 -323 0
322 -324 0
325 -326 0
-325 326 0
-327 328 326 0
327 -328 0
327 -326 0
-329 330 331 0
329 -330 0
329 -331 0
332 -333 0
-332 333 0
-334 335 336 0
334 -335 0
334 -336 0
337 -338 0
-337 338 0
-339 340 338 0
339 -340 0
339 -338 0
-341 342 343 0
341 -342 0
341 -343 0
344 -345 0
-344 345 0
-346 347 345 0
346 -347 0
346 -345 0
-348 349 350 0
348 -349 0
348 -350 0
351 -352 0
-351 352 0
353 -354 0
-353 354 0
355 -356 0
-355 356 0
-357 358 356 0
357 -358 0
357 -356 0
-359 360 361 0
359 -360 0
359 -361 0
362 -363 0
-362 363 0
-364 365 363 0
364 -365 0
364 -363 0
-366 367 368 0
366 -367 0
366 -368 0
-369 370 371 0
369 -370 0
369 -371 0
372 -373 0
-372 373 0
-374 375 376 0
374 -375 0
374 -376 0
-377 378 379 0
377 -378 0
377 -379 0
380 -381 0
-380 381 0
-382 383 381 0
382 -383 0
382 -381 0
-384 385 386 0
384 -385 0
384 -386 0
387 -388 0
-387 388 0
-389 390 388 0
389 -390 0
389 -388 0
-391 392 393 0
391 -392 0
391 -393 0
394 -395 0
-394 395 0
396 -397 0
-396 397 0
-398 399 397 0
398 -399 0
398 -397 0
-400 401 402 0
400 -401 0
400 -402 0
403 -404 0
-403 404 0
-405 404 406 0
405 -404 0
405 -406 0
407 -408 0
-407 408 0
-409 408 410 0
409 -408 0
409 -410 0
-411 412 413 0
411 -412 0
411 -413 0
414 -415 0
-414 415 0
-416 417 418 0
416 -417 0
416 -418 0
419 -420 0
-419 420 0
-421 422 420 0
421 -422 0
421 -420 0
-423 424 425 0
423 -424 0
423 -425 0
426 -427 0
-426 427 0
-428 427 429 0
428 -427 0
428 -429 0
-430 431 432 0
430 -431 0
430 -432 0
433 -434 0
-433 434 0
435 -436 0
-435 436 0
437 -438 0
-437 438 0
-439 440 438 0
439 -440 0
439 -438 0
-441 442 443 0
441 -442 0
441 -443 0
444 -445 0
-444 445 0
-446 447 445 0
446 -447 0
446 -445 0
448 -449 0
-448 449 0
-450 451 449 0
450 -451 0
450 -449 0
-452 453 454 0
452 -453 0
452 -454 0
-455 456 457 0
455 -456 0
455 -457 0
-458 459 460 0
458 -459 0
458 -460 0
461 -462 0
-461 462 0
-463 464 462 0
463 -464 0
463 -462 0
-465 466 467 0
465 -466 0
465 -467 0
468 -469 0
-468 469 0
-470 469 471 0
470 -469 0
470 -471 0
-472 473 474 0
472 -473 0
472 -474 0
475 -476 0
-475 476 0
477 -478 0
-477 478 0
479 -480 0
-479 480 0
-481 482 480 0
481 -482 0
481 -480 0
-483 484 485 0
483 -484 0
483 -485 0
486 -487 0
-486 487 0
-488 487 489 0
488 -487 0
488 -489 0
490 -491 0
-490 491 0
-492 493 491 0
492 -493 0
492 -491 0
494 -495 0
-494 495 0
-496 495 497 0
496 -495 0
496 -497 0
-498 499 500 0
498 -499 0
498 -500 0
501 502 -165 -503 0
-501 -502 0
-501 165 0
-501 503 0
504 -77 -505 506 0
-504 77 0
-504 505 0
-504 -506 0
507 -508 509 -39 0
-507 508 0
-507 -509 0
-507 39 0
510 -414 511 -512 0
-510 414 0
-510 -511 0
-510 512 0
513 -194 514 -515 0
-513 194 0
-513 -514 0
-513 515 0
516 -139 517 -518 0
-516 139 0
-516 -517 0
-516 518 0
519 -8 520 -521 0
-519 8 0
-519 -520 0
-519 521 0
522 -523 524 -116 0
-522 523 0
-522 -524 0
-522 116 0
525 -526 0
-525 526 0
527 528 -16 -529 0
-527 -528 0
-527 16 0
-527 529 0
530 -531 -532 533 0
-530 531 0
-530 532 0
-530 -533 0
534 -535 536 -3 0
-534 535 0
-534 -536 0
-534 3 0
537 -27 538 -539 0
-537 27 0
-537 -538 0
-537 539 0
540 -96 541 -542 0
-540 96 0
-540 -541 0
-540 542 0
543 -544 -226 545 0
-543 544 0
-543 226 0
-543 -545 0
546 547 -294 -548 0
-546 -547 0
-546 294 0
-546 548 0
549 -59 550 -551 0
-549 59 0
-549 -550 0
-549 551 0
552 -259 553 -554 0
-552 259 0
-552 -553 0
-552 554 0
555 -332 556 -557 0
-555 332 0
-555 -556 0
-555 557 0
558 -559 560 -372 0
-558 559 0
-558 -560 0
-558 372 0
561 -39 -509 0
-561 39 0
-561 509 0
562 -414 -511 0
-562 414 0
-562 511 0
563 -332 -556 0
-563 332 0
-563 556 0
564 -8 -520 0
-564 8 0
-564 520 0
565 -139 -517 0
-565 139 0
-565 517 0
566 -77 -506 0
-566 77 0
-566 506 0
567 -294 -547 0
-567 294 0
-567 547 0
568 -96 -541 0
-568 96 0
-568 541 0
569 -1 -570 0
-569 1 0
-569 570 0
571 -165 -502 0
-571 165 0
-571 502 0
572 -531 -533 0
-572 531 0
-572 533 0
573 -59 -550 0
-573 59 0
-573 550 0
574 -194 -514 0
-574 194 0
-574 514 0
575 -27 -538 0
-575 27 0
-575 538 0
576 -16 -528 0
-576 16 0
-576 528 0
577 -372 -560 0
-577 372 0
-577 560 0
578 -3 -536 0
-578 3 0
-578 536 0
579 -226 -545 0
-579 226 0
-579 545 0
580 -116 -524 0
-580 116 0
-580 524 0
581 -259 -553 0
-581 259 0
-581 553 0
582 374 -583 -372 0
-582 -374 0
-582 583 0
-582 372 0
584 -165 167 -585 0
-584 165 0
-584 -167 0
-584 585 0
586 -77 79 -587 0
-586 77 0
-586 -79 0
-586 587 0
588 -589 196 -194 0
-588 589 0
-588 -196 0
-588 194 0
590 -591 261 -259 0
-590 591 0
-590 -261 0
-590 259 0
592 46 -593 -39 0
-592 -46 0
-592 593 0
-592 39 0
594 -595 -8 10 0
-594 595 0
-594 8 0
-594 -10 0
596 -597 -27 29 0
-596 597 0
-596 27 0
-596 -29 0
598 -531 458 -599 0
-598 531 0
-598 -458 0
-598 599 0
600 -601 -139 141 0
-600 601 0
-600 139 0
-600 -141 0
602 118 -603 -116 0
-602 -118 0
-602 603 0
-602 116 0
604 -605 -332 334 0
-604 605 0
-604 332 0
-604 -334 0
606 -607 0
-606 607 0
608 228 -609 -226 0
-608 -228 0
-608 609 0
-608 226 0
610 -611 -96 98 0
-610 611 0
-610 96 0
-610 -98 0
612 -16 18 -613 0
-612 16 0
-612 -18 0
-612 613 0
614 -294 296 -615 0
-614 294 0
-614 -296 0
-614 615 0
616 -617 -59 61 0
-616 617 0
-616 59 0
-616 -61 0
618 -619 -414 416 0
-618 619 0
-618 414 0
-618 -416 0
6 -535 0
-6 535 0
7 -536 0
-7 536 0
620 337 -621 -332 0
-620 -337 0
-620 621 0
-620 332 0
622 -623 -531 461 0
-622 623 0
-622 531 0
-622 -461 0
624 -625 82 -77 0
-624 625 0
-624 -82 0
-624 77 0
626 101 -627 -96 0
-626 -101 0
-626 627 0
-626 96 0
628 -629 299 -294 0
-628 629 0
-628 -299 0
-628 294 0
630 199 -631 -194 0
-630 -199 0
-630 631 0
-630 194 0
632 -372 -633 377 0
-632 372 0
-632 633 0
-632 -377 0
634 264 -635 -259 0
-634 -264 0
-634 635 0
-634 259 0
636 32 -637 -27 0
-636 -32 0
-636 637 0
-636 27 0
638 64 -639 -59 0
-638 -64 0
-638 639 0
-638 59 0
640 -39 -641 49 0
-640 39 0
-640 641 0
-640 -49 0
642 -643 0
-642 643 0
644 -116 -645 121 0
-644 116 0
-644 645 0
-644 -121 0
646 419 -647 -414 0
-646 -419 0
-646 647 0
-646 414 0
648 144 -649 -139 0
-648 -144 0
-648 649 0
-648 139 0
650 -651 170 -165 0
-650 651 0
-650 -170 0
-650 165 0
652 -226 -653 231 0
-652 226 0
-652 653 0
-652 -231 0
654 -655 21 -16 0
-654 655 0
-654 -21 0
-654 16 0
11 -520 0
-11 520 0
12 -521 0
-12 521 0
14 -10 0
-14 10 0
15 -595 0
-15 595 0
656 51 -39 -657 0
-656 -51 0
-656 39 0
-656 657 0
658 302 -294 -659 0
-658 -302 0
-658 294 0
-658 659 0
660 463 -661 -531 0
-660 -463 0
-660 661 0
-660 531 0
662 172 -165 -663 0
-662 -172 0
-662 165 0
-662 663 0
664 -194 -665 202 0
-664 194 0
-664 665 0
-664 -202 0
666 -139 -667 146 0
-666 139 0
-666 667 0
-666 -146 0
668 234 -226 -669 0
-668 -234 0
-668 226 0
-668 669 0
670 -414 -671 421 0
-670 414 0
-670 671 0
-670 -421 0
672 -96 -673 103 0
-672 96 0
-672 673 0
-672 -103 0
674 -675 0
-674 675 0
676 -59 -677 67 0
-676 59 0
-676 677 0
-676 -67 0
678 -27 -679 34 0
-678 27 0
-678 679 0
-678 -34 0
680 123 -116 -681 0
-680 -123 0
-680 116 0
-680 681 0
682 380 -372 -683 0
-682 -380 0
-682 372 0
-682 683 0
684 -259 -685 267 0
-684 259 0
-684 685 0
-684 -267 0
686 -332 -687 339 0
-686 332 0
-686 687 0
-686 -339 0
688 85 -77 -689 0
-688 -85 0
-688 77 0
-688 689 0
19 -528 0
-19 528 0
20 -529 0
-20 529 0
23 -613 0
-23 613 0
22 -18 0
-22 18 0
25 -21 0
-25 21 0
26 -655 0
-26 655 0
690 -294 -691 304 0
-690 294 0
-690 691 0
-690 -304 0
692 -693 125 -116 0
-692 693 0
-692 -125 0
-692 116 0
694 -259 269 -695 0
-694 259 0
-694 -269 0
-694 695 0
696 -332 341 -697 0
-696 332 0
-696 -341 0
-696 697 0
698 -59 69 -699 0
-698 59 0
-698 -69 0
-698 699 0
700 -194 204 -701 0
-700 194 0
-700 -204 0
-700 701 0
702 -703 53 -39 0
-702 703 0
-702 -53 0
-702 39 0
704 -96 105 -705 0
-704 96 0
-704 -105 0
-704 705 0
706 -77 -707 87 0
-706 77 0
-706 707 0
-706 -87 0
708 -531 -709 465 0
-708 531 0
-708 709 0
-708 -465 0
710 -711 0
-710 711 0
712 -139 148 -713 0
-712 139 0
-712 -148 0
-712 713 0
714 -715 236 -226 0
-714 715 0
-714 -236 0
-714 226 0
716 -165 -717 174 0
-716 165 0
-716 717 0
-716 -174 0
718 -719 382 -372 0
-718 719 0
-718 -382 0
-718 372 0
720 -414 423 -721 0
-720 414 0
-720 -423 0
-720 721 0
30 -538 0
-30 538 0
31 -539 0
-31 539 0
722 -597 0
-722 597 0
723 -29 0
-723 29 0
33 -32 0
-33 32 0
35 -637 0
-35 637 0
37 -679 0
-37 679 0
38 -34 0
-38 34 0
724 -725 206 -194 0
-724 725 0
-724 -206 0
-724 194 0
44 -726 0
-44 726 0
727 -165 177 -728 0
-727 165 0
-727 -177 0
-727 728 0
729 -730 -139 151 0
-729 730 0
-729 139 0
-729 -151 0
45 -731 0
-45 731 0
732 127 -733 -116 0
-732 -127 0
-732 733 0
-732 116 0
40 -734 0
-40 734 0
735 -736 -96 107 0
-735 736 0
-735 96 0
-735 -107 0
737 -738 0
-737 738 0
739 -740 271 -259 0
-739 740 0
-739 -271 0
-739 259 0
741 -59 71 -742 0
-741 59 0
-741 -71 0
-741 742 0
41 -743 0
-41 743 0
744 -77 89 -745 0
-744 77 0
-744 -89 0
-744 745 0
746 238 -747 -226 0
-746 -238 0
-746 747 0
-746 226 0
43 -748 0
-43 748 0
47 -509 0
-47 509 0
48 -508 0
-48 508 0
749 -46 0
-749 46 0
750 -593 0
-750 593 0
52 -641 0
-52 641 0
50 -49 0
-50 49 0
54 -657 0
-54 657 0
55 -51 0
-55 51 0
57 -53 0
-57 53 0
58 -703 0
-58 703 0
751 -372 -752 387 0
-751 372 0
-751 752 0
-751 -387 0
753 209 -754 -194 0
-753 -209 0
-753 754 0
-753 194 0
755 -756 179 -165 0
-755 756 0
-755 -179 0
-755 165 0
757 346 -758 -332 0
-757 -346 0
-757 758 0
-757 332 0
759 -760 0
-759 760 0
761 109 -762 -96 0
-761 -109 0
-761 762 0
-761 96 0
763 153 -764 -139 0
-763 -153 0
-763 764 0
-763 139 0
765 274 -766 -259 0
-765 -274 0
-765 766 0
-765 259 0
767 -768 91 -77 0
-767 768 0
-767 -91 0
-767 77 0
769 428 -770 -414 0
-769 -428 0
-769 770 0
-769 414 0
771 -772 309 -294 0
-771 772 0
-771 -309 0
-771 294 0
773 -226 -774 241 0
-773 226 0
-773 774 0
-773 -241 0
775 -776 -531 470 0
-775 776 0
-775 531 0
-775 -470 0
777 -116 -778 129 0
-777 116 0
-777 778 0
-777 -129 0
62 -551 0
-62 551 0
63 -550 0
-63 550 0
65 -61 0
-65 61 0
66 -617 0
-66 617 0
779 -64 0
-779 64 0
780 -639 0
-780 639 0
70 -677 0
-70 677 0
68 -67 0
-68 67 0
72 -699 0
-72 699 0
73 -69 0
-73 69 0
75 -71 0
-75 71 0
76 -742 0
-76 742 0
781 -782 0
-781 782 0
783 -194 -784 211 0
-783 194 0
-783 784 0
-783 -211 0
785 181 -165 -786 0
-785 -181 0
-785 165 0
-785 786 0
787 -259 -788 276 0
-787 259 0
-787 788 0
-787 -276 0
789 -96 -790 111 0
-789 96 0
-789 790 0
-789 -111 0
791 311 -294 -792 0
-791 -311 0
-791 294 0
-791 792 0
793 132 -116 -794 0
-793 -132 0
-793 116 0
-793 794 0
795 389 -372 -796 0
-795 -389 0
-795 372 0
-795 796 0
797 472 -798 -531 0
-797 -472 0
-797 798 0
-797 531 0
799 243 -226 -800 0
-799 -243 0
-799 226 0
-799 800 0
801 -139 -802 155 0
-801 139 0
-801 802 0
-801 -155 0
803 -414 -804 430 0
-803 414 0
-803 804 0
-803 -430 0
805 -332 -806 348 0
-805 332 0
-805 806 0
-805 -348 0
80 -506 0
-80 506 0
81 -505 0
-81 505 0
83 -79 0
-83 79 0
84 -587 0
-84 587 0
807 -82 0
-807 82 0
808 -625 0
-808 625 0
86 -85 0
-86 85 0
88 -689 0
-88 689 0
809 -707 0
-809 707 0
810 -87 0
-810 87 0
90 -89 0
-90 89 0
92 -745 0
-92 745 0
95 -768 0
-95 768 0
94 -91 0
-94 91 0
811 -414 433 -812 0
-811 414 0
-811 -433 0
-811 812 0
813 -165 -814 184 0
-813 165 0
-813 814 0
-813 -184 0
815 -139 158 -816 0
-815 139 0
-815 -158 0
-815 816 0
817 -332 351 -818 0
-817 332 0
-817 -351 0
-817 818 0
819 -820 0
-819 820 0
821 -822 391 -372 0
-821 822 0
-821 -391 0
-821 372 0
823 -824 245 -226 0
-823 824 0
-823 -245 0
-823 226 0
825 -294 -826 313 0
-825 294 0
-825 826 0
-825 -313 0
827 -531 -828 475 0
-827 531 0
-827 828 0
-827 -475 0
829 -830 134 -116 0
-829 830 0
-829 -134 0
-829 116 0
831 -259 278 -832 0
-831 259 0
-831 -278 0
-831 832 0
833 -194 213 -834 0
-833 194 0
-833 -213 0
-833 834 0
99 -541 0
-99 541 0
100 -542 0
-100 542 0
835 -98 0
-835 98 0
836 -611 0
-836 611 0
104 -627 0
-104 627 0
102 -101 0
-102 101 0
837 -103 0
-837 103 0
838 -673 0
-838 673 0
108 -705 0
-108 705 0
106 -105 0
-106 105 0
839 -107 0
-839 107 0
840 -736 0
-840 736 0
112 -762 0
-112 762 0
110 -109 0
-110 109 0
114 -790 0
-114 790 0
115 -111 0
-115 111 0
841 -842 -139 160 0
-841 842 0
-841 139 0
-841 -160 0
843 -844 281 -259 0
-843 844 0
-843 -281 0
-843 259 0
845 -846 -332 353 0
-845 846 0
-845 332 0
-845 -353 0
847 -848 0
-847 848 0
849 394 -850 -372 0
-849 -394 0
-849 850 0
-849 372 0
851 -531 477 -852 0
-851 531 0
-851 -477 0
-851 852 0
853 -294 316 -854 0
-853 294 0
-853 -316 0
-853 854 0
855 -165 186 -856 0
-855 165 0
-855 -186 0
-855 856 0
857 -858 216 -194 0
-857 858 0
-857 -216 0
-857 194 0
859 247 -860 -226 0
-859 -247 0
-859 860 0
-859 226 0
861 -862 -414 435 0
-861 862 0
-861 414 0
-861 -435 0
119 -523 0
-119 523 0
120 -524 0
-120 524 0
863 -603 0
-863 603 0
864 -118 0
-864 118 0
122 -121 0
-122 121 0
124 -645 0
-124 645 0
865 -681 0
-865 681 0
866 -123 0
-866 123 0
126 -125 0
-126 125 0
128 -693 0
-128 693 0
130 -127 0
-130 127 0
131 -733 0
-131 733 0
867 -778 0
-867 778 0
868 -129 0
-868 129 0
135 -794 0
-135 794 0
133 -132 0
-133 132 0
137 -134 0
-137 134 0
138 -830 0
-138 830 0
869 283 -870 -259 0
-869 -283 0
-869 870 0
-869 259 0
871 -872 0
-871 872 0
873 218 -874 -194 0
-873 -218 0
-873 874 0
-873 194 0
875 -876 188 -165 0
-875 876 0
-875 -188 0
-875 165 0
877 -878 -531 479 0
-877 878 0
-877 531 0
-877 -479 0
879 -226 -880 249 0
-879 226 0
-879 880 0
-879 -249 0
881 -882 318 -294 0
-881 882 0
-881 -318 0
-881 294 0
883 -372 -884 396 0
-883 372 0
-883 884 0
-883 -396 0
885 437 -886 -414 0
-885 -437 0
-885 886 0
-885 414 0
887 355 -888 -332 0
-887 -355 0
-887 888 0
-887 332 0
142 -517 0
-142 517 0
143 -518 0
-143 518 0
889 -601 0
-889 601 0
890 -141 0
-890 141 0
145 -144 0
-145 144 0
147 -649 0
-147 649 0
149 -667 0
-149 667 0
150 -146 0
-150 146 0
891 -713 0
-891 713 0
892 -148 0
-892 148 0
154 -730 0
-154 730 0
152 -151 0
-152 151 0
156 -153 0
-156 153 0
157 -764 0
-157 764 0
893 -802 0
-893 802 0
894 -155 0
-894 155 0
161 -816 0
-161 816 0
159 -158 0
-159 158 0
163 -842 0
-163 842 0
164 -160 0
-164 160 0
895 -259 -896 285 0
-895 259 0
-895 896 0
-895 -285 0
897 481 -898 -531 0
-897 -481 0
-897 898 0
-897 531 0
899 -900 -194 220 0
-899 900 0
-899 194 0
-899 -220 0
901 -332 -902 357 0
-901 332 0
-901 902 0
-901 -357 0
903 398 -372 -904 0
-903 -398 0
-903 372 0
-903 904 0
905 -906 0
-905 906 0
907 -414 -908 439 0
-907 414 0
-907 908 0
-907 -439 0
909 320 -294 -910 0
-909 -320 0
-909 294 0
-909 910 0
911 251 -226 -912 0
-911 -251 0
-911 226 0
-911 912 0
168 -502 0
-168 502 0
169 -503 0
-169 503 0
913 -585 0
-913 585 0
914 -167 0
-914 167 0
173 -651 0
-173 651 0
171 -170 0
-171 170 0
176 -172 0
-176 172 0
175 -663 0
-175 663 0
915 -717 0
-915 717 0
916 -174 0
-916 174 0
178 -177 0
-178 177 0
180 -728 0
-180 728 0
182 -179 0
-182 179 0
183 -756 0
-183 756 0
917 -181 0
-917 181 0
918 -786 0
-918 786 0
187 -814 0
-187 814 0
185 -184 0
-185 184 0
189 -186 0
-189 186 0
190 -856 0
-190 856 0
192 -188 0
-192 188 0
193 -876 0
-193 876 0
919 -920 0
-919 920 0
921 -922 0
-921 922 0
923 -924 0
-923 924 0
925 -926 0
-925 926 0
927 -928 0
-927 928 0
929 -930 0
-929 930 0
931 -932 0
-931 932 0
933 -934 0
-933 934 0
198 -514 0
-198 514 0
197 -515 0
-197 515 0
200 -196 0
-200 196 0
201 -589 0
-201 589 0
935 -631 0
-935 631 0
936 -199 0
-936 199 0
203 -202 0
-203 202 0
205 -665 0
-205 665 0
208 -701 0
-208 701 0
207 -204 0
-207 204 0
937 -206 0
-937 206 0
938 -725 0
-938 725 0
210 -209 0
-210 209 0
212 -754 0
-212 754 0
214 -211 0
-214 211 0
215 -784 0
-215 784 0
939 -834 0
-939 834 0
940 -213 0
-940 213 0
217 -216 0
-217 216 0
219 -858 0
-219 858 0
221 -874 0
-221 874 0
222 -218 0
-222 218 0
224 -900 0
-224 900 0
225 -220 0
-225 220 0
941 -942 -414 444 0
-941 942 0
-941 414 0
-941 -444 0
943 -944 -332 362 0
-943 944 0
-943 332 0
-943 -362 0
945 -294 325 -946 0
-945 294 0
-945 -325 0
-945 946 0
947 290 -259 -948 0
-947 -290 0
-947 259 0
-947 948 0
949 403 -950 -372 0
-949 -403 0
-949 950 0
-949 372 0
951 -952 0
-951 952 0
953 -531 486 -954 0
-953 531 0
-953 -486 0
-953 954 0
229 -544 0
-229 544 0
230 -545 0
-230 545 0
232 -609 0
-232 609 0
233 -228 0
-233 228 0
955 -231 0
-955 231 0
956 -653 0
-956 653 0
237 -669 0
-237 669 0
235 -234 0
-235 234 0
239 -236 0
-239 236 0
240 -715 0
-240 715 0
957 -747 0
-957 747 0
958 -238 0
-958 238 0
242 -241 0
-242 241 0
244 -774 0
-244 774 0
959 -800 0
-959 800 0
960 -243 0
-960 243 0
246 -245 0
-246 245 0
248 -824 0
-248 824 0
961 -860 0
-961 860 0
962 -247 0
-962 247 0
250 -249 0
-250 249 0
252 -880 0
-252 880 0
254 -912 0
-254 912 0
255 -251 0
-255 251 0
257 -253 0
-257 253 0
258 -963 0
-258 963 0
964 -372 -965 405 0
-964 372 0
-964 965 0
-964 -405 0
966 446 -967 -414 0
-966 -446 0
-966 967 0
-966 414 0
968 -969 0
-968 969 0
970 -971 -531 488 0
-970 971 0
-970 531 0
-970 -488 0
972 364 -973 -332 0
-972 -364 0
-972 973 0
-972 332 0
974 -975 327 -294 0
-974 975 0
-974 -327 0
-974 294 0
262 -554 0
-262 554 0
263 -553 0
-263 553 0
265 -591 0
-265 591 0
266 -261 0
-266 261 0
976 -264 0
-976 264 0
977 -635 0
-977 635 0
268 -267 0
-268 267 0
270 -685 0
-270 685 0
272 -269 0
-272 269 0
273 -695 0
-273 695 0
978 -740 0
-978 740 0
979 -271 0
-979 271 0
275 -274 0
-275 274 0
277 -766 0
-277 766 0
279 -788 0
-279 788 0
280 -276 0
-280 276 0
980 -278 0
-980 278 0
981 -832 0
-981 832 0
982 -844 0
-982 844 0
282 -281 0
-282 281 0
286 -870 0
-286 870 0
284 -283 0
-284 283 0
288 -896 0
-288 896 0
289 -285 0
-289 285 0
983 -984 0
-983 984 0
985 -287 0
-985 287 0
291 -290 0
-291 290 0
293 -948 0
-293 948 0
986 -414 -987 448 0
-986 414 0
-986 987 0
-986 -448 0
988 -332 -989 366 0
-988 332 0
-988 989 0
-988 -366 0
990 407 -372 -991 0
-990 -407 0
-990 372 0
-990 991 0
992 490 -993 -531 0
-992 -490 0
-992 993 0
-992 531 0
994 -995 0
-994 995 0
298 -547 0
-298 547 0
297 -548 0
-297 548 0
300 -296 0
-300 296 0
301 -615 0
-301 615 0
996 -299 0
-996 299 0
997 -629 0
-997 629 0
303 -302 0
-303 302 0
305 -659 0
-305 659 0
308 -691 0
-308 691 0
307 -304 0
-307 304 0
998 -306 0
-998 306 0
999 -1000 0
-999 1000 0
312 -772 0
-312 772 0
310 -309 0
-310 309 0
314 -792 0
-314 792 0
315 -311 0
-315 311 0
1001 -313 0
-1001 313 0
1002 -826 0
-1002 826 0
1003 -854 0
-1003 854 0
317 -316 0
-317 316 0
321 -882 0
-321 882 0
319 -318 0
-319 318 0
323 -910 0
-323 910 0
324 -320 0
-324 320 0
1004 -1005 0
-1004 1005 0
1006 -322 0
-1006 322 0
328 -946 0
-328 946 0
326 -325 0
-326 325 0
330 -327 0
-330 327 0
331 -975 0
-331 975 0
1007 -1008 0
-1007 1008 0
1009 -1010 0
-1009 1010 0
1011 -1012 0
-1011 1012 0
1013 -1014 409 -372 0
-1013 1014 0
-1013 -409 0
-1013 372 0
335 -556 0
-335 556 0
336 -557 0
-336 557 0
1015 -334 0
-1015 334 0
1016 -605 0
-1016 605 0
340 -621 0
-340 621 0
338 -337 0
-338 337 0
343 -687 0
-343 687 0
342 -339 0
-342 339 0
1017 -697 0
-1017 697 0
1018 -341 0
-1018 341 0
347 -1019 0
-347 1019 0
345 -344 0
-345 344 0
349 -346 0
-349 346 0
350 -758 0
-350 758 0
1020 -806 0
-1020 806 0
1021 -348 0
-1021 348 0
1022 -818 0
-1022 818 0
352 -351 0
-352 351 0
354 -353 0
-354 353 0
1023 -846 0
-1023 846 0
358 -888 0
-358 888 0
356 -355 0
-356 355 0
361 -357 0
-361 357 0
360 -902 0
-360 902 0
1024 -359 0
-1024 359 0
1025 -1026 0
-1025 1026 0
365 -944 0
-365 944 0
363 -362 0
-363 362 0
367 -364 0
-367 364 0
368 -973 0
-368 973 0
371 -989 0
-371 989 0
370 -366 0
-370 366 0
1027 -531 494 -1028 0
-1027 531 0
-1027 -494 0
-1027 1028 0
1029 -1030 0
-1029 1030 0
1031 -1032 0
-1031 1032 0
375 -559 0
-375 559 0
376 -560 0
-376 560 0
378 -583 0
-378 583 0
379 -374 0
-379 374 0
1033 -633 0
-1033 633 0
1034 -377 0
-1034 377 0
383 -683 0
-383 683 0
381 -380 0
-381 380 0
385 -719 0
-385 719 0
386 -382 0
-386 382 0
1035 -1036 0
-1035 1036 0
1037 -384 0
-1037 384 0
390 -752 0
-390 752 0
388 -387 0
-388 387 0
392 -796 0
-392 796 0
393 -389 0
-393 389 0
1038 -822 0
-1038 822 0
1039 -391 0
-1039 391 0
395 -394 0
-395 394 0
1040 -850 0
-1040 850 0
399 -884 0
-399 884 0
397 -396 0
-397 396 0
401 -398 0
-401 398 0
402 -904 0
-402 904 0
1041 -400 0
-1041 400 0
1042 -1043 0
-1042 1043 0
404 -403 0
-404 403 0
406 -950 0
-406 950 0
1044 -965 0
-1044 965 0
1045 -405 0
-1045 405 0
408 -407 0
-408 407 0
410 -991 0
-410 991 0
412 -1014 0
-412 1014 0
413 -409 0
-413 409 0
1046 -1047 0
-1046 1047 0
1048 -531 496 -1049 0
-1048 531 0
-1048 -496 0
-1048 1049 0
417 -512 0
-417 512 0
418 -511 0
-418 511 0
1050 -416 0
-1050 416 0
1051 -619 0
-1051 619 0
422 -647 0
-422 647 0
420 -419 0
-420 419 0
424 -671 0
-424 671 0
425 -421 0
-425 421 0
1052 -721 0
-1052 721 0
1053 -423 0
-1053 423 0
427 -426 0
-427 426 0
429 -1054 0
-429 1054 0
431 -428 0
-431 428 0
432 -770 0
-432 770 0
1055 -804 0
-1055 804 0
1056 -430 0
-1056 430 0
1057 -812 0
-1057 812 0
434 -433 0
-434 433 0
436 -435 0
-436 435 0
1058 -862 0
-1058 862 0
440 -886 0
-440 886 0
438 -437 0
-438 437 0
442 -439 0
-442 439 0
443 -908 0
-443 908 0
1059 -441 0
-1059 441 0
1060 -1061 0
-1060 1061 0
447 -942 0
-447 942 0
445 -444 0
-445 444 0
1062 -967 0
-1062 967 0
1063 -446 0
-1063 446 0
451 -987 0
-451 987 0
449 -448 0
-449 448 0
453 -1064 0
-453 1064 0
454 -450 0
-454 450 0
456 -452 0
-456 452 0
457 -1065 0
-457 1065 0
459 -533 0
-459 533 0
460 -532 0
-460 532 0
1066 -599 0
-1066 599 0
1067 -458 0
-1067 458 0
464 -623 0
-464 623 0
462 -461 0
-462 461 0
466 -661 0
-466 661 0
467 -463 0
-467 463 0
1068 -709 0
-1068 709 0
1069 -465 0
-1069 465 0
469 -468 0
-469 468 0
471 -1070 0
-471 1070 0
473 -470 0
-473 470 0
474 -776 0
-474 776 0
1071 -472 0
-1071 472 0
1072 -798 0
-1072 798 0
1073 -828 0
-1073 828 0
476 -475 0
-476 475 0
1074 -852 0
-1074 852 0
478 -477 0
-478 477 0
482 -878 0
-482 878 0
480 -479 0
-480 479 0
484 -481 0
-484 481 0
485 -898 0
-485 898 0
1075 -1076 0
-1075 1076 0
1077 -483 0
-1077 483 0
487 -486 0
-487 486 0
489 -954 0
-489 954 0
1078 -971 0
-1078 971 0
1079 -488 0
-1079 488 0
493 -993 0
-493 993 0
491 -490 0
-491 490 0
1080 -1081 0
-1080 1081 0
1082 -492 0
-1082 492 0
495 -494 0
-495 494 0
497 -1028 0
-497 1028 0
499 -1049 0
-499 1049 0
500 -496 0
-500 496 0
-1083 935 936 0
1083 -935 0
1083 -936 0
-1084 940 939 0
1084 -940 0
1084 -939 0
-195 921 923 925 927 929 931 933 919 0
195 -921 0
195 -923 0
195 -925 0
195 -927 0
195 -929 0
195 -931 0
195 -933 0
195 -919 0
-1085 937 938 0
1085 -937 0
1085 -938 0
-1086 982 282 0
1086 -982 0
1086 -282 0
-1087 980 981 0
1087 -980 0
1087 -981 0
-1088 976 977 0
1088 -976 0
1088 -977 0
-1089 978 979 0
1089 -978 0
1089 -979 0
930 -259 287 -984 0
-930 259 0
-930 -287 0
-930 984 0
-1090 959 960 0
1090 -959 0
1090 -960 0
-1091 961 962 0
1091 -961 0
1091 -962 0
-1092 955 956 0
1092 -955 0
1092 -956 0
-1093 957 958 0
1093 -957 0
1093 -958 0
-1094 831 833 0
1094 -831 0
1094 -833 0
-1095 857 843 0
1095 -857 0
1095 -843 0
-1096 765 753 0
1096 -765 0
1096 -753 0
-1097 787 783 0
1097 -787 0
1097 -783 0
-1098 895 899 0
1098 -895 0
1098 -899 0
-1099 869 873 0
1099 -869 0
1099 -873 0
-1100 552 513 0
1100 -552 0
1100 -513 0
-1101 581 574 0
1101 -581 0
1101 -574 0
-1102 588 590 0
1102 -588 0
1102 -590 0
-1103 630 634 0
1103 -630 0
1103 -634 0
-1104 664 684 0
1104 -664 0
1104 -684 0
-1105 700 694 0
1105 -700 0
1105 -694 0
-1106 724 739 0
1106 -724 0
1106 -739 0
934 -963 253 -226 0
-934 963 0
-934 -253 0
-934 226 0
-1107 918 917 0
1107 -918 0
1107 -917 0
-1108 913 914 0
1108 -913 0
1108 -914 0
-1109 915 916 0
1109 -915 0
1109 -916 0
-1110 889 890 0
1110 -889 0
1110 -890 0
-1111 893 894 0
1111 -893 0
1111 -894 0
-1112 891 892 0
1112 -891 0
1112 -892 0
-1113 867 868 0
1113 -867 0
1113 -868 0
-1114 863 864 0
1114 -863 0
1114 -864 0
-1115 865 866 0
1115 -865 0
1115 -866 0
-1116 836 835 0
1116 -836 0
1116 -835 0
-1117 840 839 0
1117 -840 0
1117 -839 0
-1118 837 838 0
1118 -837 0
1118 -838 0
-1119 809 810 0
1119 -809 0
1119 -810 0
-1120 808 807 0
1120 -808 0
1120 -807 0
-1121 779 780 0
1121 -779 0
1121 -780 0
-1122 749 750 0
1122 -749 0
1122 -750 0
-1123 746 1106 0
1123 -746 0
1123 -1106 0
-1124 1096 773 0
1124 -1096 0
1124 -773 0
-1125 1097 799 0
1125 -1097 0
1125 -799 0
-1126 1094 823 0
1126 -1094 0
1126 -823 0
-1127 1095 859 0
1127 -1095 0
1127 -859 0
-1128 1099 879 0
1128 -1099 0
1128 -879 0
-1129 1100 543 0
1129 -1100 0
1129 -543 0
-1130 1101 579 0
1130 -1101 0
1130 -579 0
-1131 608 1102 0
1131 -608 0
1131 -1102 0
-1132 1104 668 0
1132 -1104 0
1132 -668 0
-1133 1105 714 0
1133 -1105 0
1133 -714 0
-1134 1103 652 0
1134 -1103 0
1134 -652 0
-1135 1132 662 0
1135 -1132 0
1135 -662 0
-1136 716 1133 0
1136 -716 0
1136 -1133 0
-1137 501 1129 0
1137 -501 0
1137 -1129 0
-1138 1130 571 0
1138 -1130 0
1138 -571 0
-1139 584 1131 0
1139 -584 0
1139 -1131 0
-1140 1134 650 0
1140 -1134 0
1140 -650 0
-1141 1123 727 0
1141 -1123 0
1141 -727 0
-1142 1124 755 0
1142 -1124 0
1142 -755 0
-1143 785 1125 0
1143 -785 0
1143 -1125 0
-1144 1126 813 0
1144 -1126 0
1144 -813 0
-1145 1127 855 0
1145 -1127 0
1145 -855 0
-1146 1136 712 0
1146 -1136 0
1146 -712 0
-1147 729 1141 0
1147 -729 0
1147 -1141 0
-1148 1142 763 0
1148 -1142 0
1148 -763 0
-1149 801 1143 0
1149 -801 0
1149 -1143 0
-1150 1144 815 0
1150 -1144 0
1150 -815 0
-1151 1137 516 0
1151 -1137 0
1151 -516 0
-1152 565 1138 0
1152 -565 0
1152 -1138 0
-1153 600 1139 0
1153 -600 0
1153 -1139 0
-1154 648 1140 0
1154 -648 0
1154 -1140 0
-1155 1135 666 0
1155 -1135 0
1155 -666 0
-1156 522 1151 0
1156 -522 0
1156 -1151 0
-1157 1152 580 0
1157 -1152 0
1157 -580 0
-1158 1153 602 0
1158 -1153 0
1158 -602 0
-1159 644 1154 0
1159 -644 0
1159 -1154 0
-1160 680 1155 0
1160 -680 0
1160 -1155 0
-1161 692 1146 0
1161 -692 0
1161 -1146 0
-1162 732 1147 0
1162 -732 0
1162 -1147 0
-1163 777 1148 0
1163 -777 0
1163 -1148 0
-1164 793 1149 0
1164 -793 0
1164 -1149 0
-1165 735 1162 0
1165 -735 0
1165 -1162 0
-1166 761 1163 0
1166 -761 0
1166 -1163 0
-1167 1160 672 0
1167 -1160 0
1167 -672 0
-1168 704 1161 0
1168 -704 0
1168 -1161 0
-1169 1156 540 0
1169 -1156 0
1169 -540 0
-1170 568 1157 0
1170 -568 0
1170 -1157 0
-1171 1158 610 0
1171 -1158 0
1171 -610 0
-1172 626 1159 0
1172 -626 0
1172 -1159 0
-1173 504 1169 0
1173 -504 0
1173 -1169 0
-1174 566 1170 0
1174 -566 0
1174 -1170 0
-1175 586 1171 0
1175 -586 0
1175 -1171 0
-1176 624 1172 0
1176 -624 0
1176 -1172 0
-1177 1167 688 0
1177 -1167 0
1177 -688 0
-1178 1168 706 0
1178 -1168 0
1178 -706 0
-1179 1165 744 0
1179 -1165 0
1179 -744 0
-1180 1176 638 0
1180 -1176 0
1180 -638 0
-1181 1177 676 0
1181 -1177 0
1181 -676 0
-1182 1178 698 0
1182 -1178 0
1182 -698 0
-1183 549 1173 0
1183 -549 0
1183 -1173 0
-1184 573 1174 0
1184 -573 0
1184 -1174 0
-1185 1175 616 0
1185 -1175 0
1185 -616 0
-1186 1179 741 0
1186 -1179 0
1186 -741 0
-42 737 1186 0
42 -737 0
42 -1186 0
-1187 943 945 0
1187 -943 0
1187 -945 0
-1188 972 974 0
1188 -972 0
1188 -974 0
-1189 953 1187 0
1189 -953 0
1189 -1187 0
-1190 1189 951 0
1190 -1189 0
1190 -951 0
-1191 970 1188 0
1191 -970 0
1191 -1188 0
-1192 1190 941 0
1192 -1190 0
1192 -941 0
-1193 966 1191 0
1193 -966 0
1193 -1191 0
-1194 949 1192 0
1194 -949 0
1194 -1192 0
-1195 964 1193 0
1195 -964 0
1195 -1193 0
1010 -414 450 -1064 0
-1010 414 0
-1010 -450 0
-1010 1064 0
-1196 1080 1082 0
1196 -1080 0
1196 -1082 0
-1197 986 990 0
1197 -986 0
1197 -990 0
1008 -531 -1081 492 0
-1008 531 0
-1008 1081 0
-1008 -492 0
1032 -1065 -414 452 0
-1032 1065 0
-1032 414 0
-1032 -452 0
-1198 1197 992 0
1198 -1197 0
1198 -992 0
-1199 988 1198 0
1199 -988 0
1199 -1198 0
-1200 1044 1045 0
1200 -1044 0
1200 -1045 0
-1201 1062 1063 0
1201 -1062 0
1201 -1063 0
-1202 1078 1079 0
1202 -1078 0
1202 -1079 0
-1203 1074 478 0
1203 -1074 0
1203 -478 0
-1204 1071 1072 0
1204 -1071 0
1204 -1072 0
-1205 1073 476 0
1205 -1073 0
1205 -476 0
-1206 1066 1067 0
1206 -1066 0
1206 -1067 0
-1207 1068 1069 0
1207 -1068 0
1207 -1069 0
-1208 1075 1077 0
1208 -1075 0
1208 -1077 0
-1209 354 1023 0
1209 -354 0
1209 -1023 0
-1210 1021 1020 0
1210 -1021 0
1210 -1020 0
-1211 1022 352 0
1211 -1022 0
1211 -352 0
-1212 1015 1016 0
1212 -1015 0
1212 -1016 0
-1213 1017 1018 0
1213 -1017 0
1213 -1018 0
-333 1013 1007 1009 1011 0
333 -1013 0
333 -1007 0
333 -1009 0
333 -1011 0
-1214 1024 1025 0
1214 -1024 0
1214 -1025 0
-1215 1003 317 0
1215 -1003 0
1215 -317 0
-1216 1002 1001 0
1216 -1002 0
1216 -1001 0
-1217 996 997 0
1217 -996 0
1217 -997 0
-1218 998 999 0
1218 -998 0
1218 -999 0
-1219 897 901 0
1219 -897 0
1219 -901 0
-1220 887 877 0
1220 -887 0
1220 -877 0
-1221 851 845 0
1221 -851 0
1221 -845 0
-1222 775 757 0
1222 -775 0
1222 -757 0
-1223 805 797 0
1223 -805 0
1223 -797 0
-1224 827 817 0
1224 -827 0
1224 -817 0
-1225 555 530 0
1225 -555 0
1225 -530 0
-1226 598 604 0
1226 -598 0
1226 -604 0
-1227 620 622 0
1227 -620 0
1227 -622 0
-1228 572 563 0
1228 -572 0
1228 -563 0
-1229 686 660 0
1229 -686 0
1229 -660 0
-1230 708 696 0
1230 -708 0
1230 -696 0
-295 1199 994 0
295 -1199 0
295 -994 0
-1231 1006 1004 0
1231 -1006 0
1231 -1004 0
-1232 395 1040 0
1232 -395 0
1232 -1040 0
-1233 1038 1039 0
1233 -1038 0
1233 -1039 0
-1234 1033 1034 0
1234 -1033 0
1234 -1034 0
-1235 1035 1037 0
1235 -1035 0
1235 -1037 0
-1236 1219 909 0
1236 -1219 0
1236 -909 0
-1237 881 1220 0
1237 -881 0
1237 -1220 0
-1238 853 1221 0
1238 -853 0
1238 -1221 0
-1239 825 1224 0
1239 -825 0
1239 -1224 0
-1240 1222 771 0
1240 -1222 0
1240 -771 0
-1241 791 1223 0
1241 -791 0
1241 -1223 0
-1242 546 1225 0
1242 -546 0
1242 -1225 0
-1243 567 1228 0
1243 -567 0
1243 -1228 0
-1244 614 1226 0
1244 -614 0
1244 -1226 0
-1245 1227 628 0
1245 -1227 0
1245 -628 0
-1246 1229 658 0
1246 -1229 0
1246 -658 0
-1247 690 1230 0
1247 -690 0
1247 -1230 0
-373 1027 1029 1031 0
373 -1027 0
373 -1029 0
373 -1031 0
-1248 1041 1042 0
1248 -1041 0
1248 -1042 0
-1249 436 1058 0
1249 -436 0
1249 -1058 0
-1250 1055 1056 0
1250 -1055 0
1250 -1056 0
-1251 1057 434 0
1251 -1057 0
1251 -434 0
-1252 1050 1051 0
1252 -1050 0
1252 -1051 0
-1253 1052 1053 0
1253 -1052 0
1253 -1053 0
-1254 1236 903 0
1254 -1236 0
1254 -903 0
-1255 883 1237 0
1255 -883 0
1255 -1237 0
-1256 849 1238 0
1256 -849 0
1256 -1238 0
-1257 1240 751 0
1257 -1240 0
1257 -751 0
-1258 1241 795 0
1258 -1241 0
1258 -795 0
-1259 821 1239 0
1259 -821 0
1259 -1239 0
-1260 1242 558 0
1260 -1242 0
1260 -558 0
-1261 1243 577 0
1261 -1243 0
1261 -577 0
-1262 582 1244 0
1262 -582 0
1262 -1244 0
-1263 682 1246 0
1263 -682 0
1263 -1246 0
-1264 718 1247 0
1264 -718 0
1264 -1247 0
-1265 632 1245 0
1265 -632 0
1265 -1245 0
-1266 1059 1060 0
1266 -1059 0
1266 -1060 0
-415 1046 1048 0
415 -1046 0
415 -1048 0
-1267 722 723 0
1267 -722 0
1267 -723 0
-1268 907 1254 0
1268 -907 0
1268 -1254 0
-1269 911 1098 0
1269 -911 0
1269 -1098 0
-1270 1255 885 0
1270 -1255 0
1270 -885 0
-1271 1128 875 0
1271 -1128 0
1271 -875 0
-1272 1256 861 0
1272 -1256 0
1272 -861 0
-1273 1145 841 0
1273 -1145 0
1273 -841 0
-1274 1257 769 0
1274 -1257 0
1274 -769 0
-1275 1166 767 0
1275 -1166 0
1275 -767 0
-1276 803 1258 0
1276 -803 0
1276 -1258 0
-1277 789 1164 0
1277 -789 0
1277 -1164 0
-1278 811 1259 0
1278 -811 0
1278 -1259 0
-1279 1150 829 0
1279 -1150 0
1279 -829 0
-1280 510 1260 0
1280 -510 0
1280 -1260 0
-1281 1183 507 0
1281 -1183 0
1281 -507 0
-1282 1261 562 0
1282 -1261 0
1282 -562 0
-1283 1184 561 0
1283 -1184 0
1283 -561 0
-1284 618 1262 0
1284 -618 0
1284 -1262 0
-1285 1185 592 0
1285 -1185 0
1285 -592 0
-1286 1263 670 0
1286 -1263 0
1286 -670 0
-1287 656 1181 0
1287 -656 0
1287 -1181 0
-1288 1264 720 0
1288 -1264 0
1288 -720 0
-1289 1182 702 0
1289 -1182 0
1289 -702 0
-1290 1265 646 0
1290 -1265 0
1290 -646 0
-1291 640 1180 0
1291 -640 0
1291 -1180 0
-1292 1280 1281 0
1292 -1280 0
1292 -1281 0
-1293 1282 1283 0
1293 -1282 0
1293 -1283 0
-1294 1284 1285 0
1294 -1284 0
1294 -1285 0
-1295 1290 1291 0
1295 -1290 0
1295 -1291 0
-1296 1286 1287 0
1296 -1286 0
1296 -1287 0
-1297 537 1292 0
1297 -537 0
1297 -1292 0
-1298 575 1293 0
1298 -575 0
1298 -1293 0
-1299 596 1294 0
1299 -596 0
1299 -1294 0
-1300 1295 636 0
1300 -1295 0
1300 -636 0
-1301 527 1297 0
1301 -527 0
1301 -1297 0
-1302 576 1298 0
1302 -576 0
1302 -1298 0
-1303 612 1299 0
1303 -612 0
1303 -1299 0
-1304 1303 594 0
1304 -1303 0
1304 -594 0
-1305 1276 1277 0
1305 -1276 0
1305 -1277 0
-1306 1272 1273 0
1306 -1272 0
1306 -1273 0
-1307 1274 1275 0
1307 -1274 0
1307 -1275 0
-1308 1301 519 0
1308 -1301 0
1308 -519 0
-1309 564 1302 0
1309 -564 0
1309 -1302 0
-1310 1278 1279 0
1310 -1278 0
1310 -1279 0
-1311 1296 678 0
1311 -1296 0
1311 -678 0
-1312 1268 1269 0
1312 -1268 0
1312 -1269 0
-1313 1270 1271 0
1313 -1270 0
1313 -1271 0
-1314 534 1308 0
1314 -534 0
1314 -1308 0
-1315 578 1309 0
1315 -578 0
1315 -1309 0
-1316 1288 1289 0
1316 -1288 0
1316 -1289 0
-1317 1300 654 0
1317 -1300 0
1317 -654 0
922 -1043 400 -372 0
-922 1043 0
-922 -400 0
-922 372 0
924 -294 -1005 322 0
-924 294 0
-924 1005 0
-924 -322 0
-2 525 1314 0
2 -525 0
2 -1314 0
926 -332 359 -1026 0
-926 332 0
-926 -359 0
-926 1026 0
-1318 1315 569 0
1318 -1315 0
1318 -569 0
928 -414 441 -1061 0
-928 414 0
-928 -441 0
-928 1061 0
-4 1304 606 0
4 -1304 0
4 -606 0
932 -531 -1076 483 0
-932 531 0
-932 1076 0
-932 -483 0
-9 642 1317 0
9 -642 0
9 -1317 0
-17 1311 674 0
17 -1311 0
17 -674 0
-166 1312 905 0
166 -1312 0
166 -905 0
-28 710 1316 0
28 -710 0
28 -1316 0
-60 759 1307 0
60 -759 0
60 -1307 0
726 -531 468 -1070 0
-726 531 0
-726 -468 0
-726 1070 0
731 384 -1036 -372 0
-731 -384 0
-731 1036 0
-731 372 0
734 -1019 -332 344 0
-734 1019 0
-734 332 0
-734 -344 0
-78 1305 781 0
78 -1305 0
78 -781 0
-227 947 1194 0
227 -947 0
227 -1194 0
743 -294 306 -1000 0
-743 294 0
-743 -306 0
-743 1000 0
748 -1054 -414 426 0
-748 1054 0
-748 414 0
-748 -426 0
-97 1310 819 0
97 -1310 0
97 -819 0
-260 968 1195 0
260 -968 0
260 -1195 0
-117 847 1306 0
117 -847 0
117 -1306 0
-140 1313 871 0
140 -1313 0
140 -871 0
-1319 983 985 0
1319 -983 0
1319 -985 0
-1320 198 -514 0
1320 -198 0
1320 514 0
-1321 -198 514 0
1321 198 0
1321 -514 0
-1322 197 -515 0
1322 -197 0
1322 515 0
-1323 -197 515 0
1323 197 0
1323 -515 0
-1324 200 -196 0
1324 -200 0
1324 196 0
-1325 -200 196 0
1325 200 0
1325 -196 0
-1326 201 -589 0
1326 -201 0
1326 589 0
-1327 -201 589 0
1327 201 0
1327 -589 0
-1328 935 -631 0
1328 -935 0
1328 631 0
-1329 -935 631 0
1329 935 0
1329 -631 0
-1330 936 -199 0
1330 -936 0
1330 199 0
-1331 -936 199 0
1331 936 0
1331 -199 0
-1332 203 -202 0
1332 -203 0
1332 202 0
-1333 -203 202 0
1333 203 0
1333 -202 0
-1334 205 -665 0
1334 -205 0
1334 665 0
-1335 -205 665 0
1335 205 0
1335 -665 0
-1336 208 -701 0
1336 -208 0
1336 701 0
-1337 -208 701 0
1337 208 0
1337 -701 0
-1338 207 -204 0
1338 -207 0
1338 204 0
-1339 -207 204 0
1339 207 0
1339 -204 0
-1340 937 -206 0
1340 -937 0
1340 206 0
-1341 -937 206 0
1341 937 0
1341 -206 0
-1342 938 -725 0
1342 -938 0
1342 725 0
-1343 -938 725 0
1343 938 0
1343 -725 0
-1344 -202 1083 0
1344 202 0
1344 -1083 0
-1345 202 -1083 0
1345 -202 0
1345 1083 0
-1346 217 -216 0
1346 -217 0
1346 216 0
-1347 -217 216 0
1347 217 0
1347 -216 0
-1348 219 -858 0
1348 -219 0
1348 858 0
-1349 -219 858 0
1349 219 0
1349 -858 0
-1350 221 -874 0
1350 -221 0
1350 874 0
-1351 -221 874 0
1351 221 0
1351 -874 0
-1352 222 -218 0
1352 -222 0
1352 218 0
-1353 -222 218 0
1353 222 0
1353 -218 0
-1354 224 -900 0
1354 -224 0
1354 900 0
-1355 -224 900 0
1355 224 0
1355 -900 0
-1356 225 -220 0
1356 -225 0
1356 220 0
-1357 -225 220 0
1357 225 0
1357 -220 0
-1358 210 -209 0
1358 -210 0
1358 209 0
-1359 -210 209 0
1359 210 0
1359 -209 0
-1360 212 -754 0
1360 -212 0
1360 754 0
-1361 -212 754 0
1361 212 0
1361 -754 0
-1362 214 -211 0
1362 -214 0
1362 211 0
-1363 -214 211 0
1363 214 0
1363 -211 0
-1364 939 -834 0
1364 -939 0
1364 834 0
-1365 -939 834 0
1365 939 0
1365 -834 0
-1366 940 -213 0
1366 -940 0
1366 213 0
-1367 -940 213 0
1367 940 0
1367 -213 0
-1368 215 -784 0
1368 -215 0
1368 784 0
-1369 -215 784 0
1369 215 0
1369 -784 0
-1370 -216 1084 0
1370 216 0
1370 -1084 0
-1371 216 -1084 0
1371 -216 0
1371 1084 0
-1372 919 -920 0
1372 -919 0
1372 920 0
-1373 -919 920 0
1373 919 0
1373 -920 0
-1374 -194 195 0
1374 194 0
1374 -195 0
-1375 194 -195 0
1375 -194 0
1375 195 0
-1376 -209 1085 0
1376 209 0
1376 -1085 0
-1377 209 -1085 0
1377 -209 0
1377 1085 0
-1378 286 -870 0
1378 -286 0
1378 870 0
-1379 -286 870 0
1379 286 0
1379 -870 0
-1380 284 -283 0
1380 -284 0
1380 283 0
-1381 -284 283 0
1381 284 0
1381 -283 0
-1382 288 -896 0
1382 -288 0
1382 896 0
-1383 -288 896 0
1383 288 0
1383 -896 0
-1384 289 -285 0
1384 -289 0
1384 285 0
-1385 -289 285 0
1385 289 0
1385 -285 0
-1386 983 -984 0
1386 -983 0
1386 984 0
-1387 -983 984 0
1387 983 0
1387 -984 0
-1388 985 -287 0
1388 -985 0
1388 287 0
-1389 -985 287 0
1389 985 0
1389 -287 0
-1390 982 -844 0
1390 -982 0
1390 844 0
-1391 -982 844 0
1391 982 0
1391 -844 0
-1392 282 -281 0
1392 -282 0
1392 281 0
-1393 -282 281 0
1393 282 0
1393 -281 0
-1394 -283 1086 0
1394 283 0
1394 -1086 0
-1395 283 -1086 0
1395 -283 0
1395 1086 0
-1396 275 -274 0
1396 -275 0
1396 274 0
-1397 -275 274 0
1397 275 0
1397 -274 0
-1398 277 -766 0
1398 -277 0
1398 766 0
-1399 -277 766 0
1399 277 0
1399 -766 0
-1400 279 -788 0
1400 -279 0
1400 788 0
-1401 -279 788 0
1401 279 0
1401 -788 0
-1402 280 -276 0
1402 -280 0
1402 276 0
-1403 -280 276 0
1403 280 0
1403 -276 0
-1404 980 -278 0
1404 -980 0
1404 278 0
-1405 -980 278 0
1405 980 0
1405 -278 0
-1406 981 -832 0
1406 -981 0
1406 832 0
-1407 -981 832 0
1407 981 0
1407 -832 0
-1408 -281 1087 0
1408 281 0
1408 -1087 0
-1409 281 -1087 0
1409 -281 0
1409 1087 0
-1410 262 -554 0
1410 -262 0
1410 554 0
-1411 -262 554 0
1411 262 0
1411 -554 0
-1412 263 -553 0
1412 -263 0
1412 553 0
-1413 -263 553 0
1413 263 0
1413 -553 0
-1414 265 -591 0
1414 -265 0
1414 591 0
-1415 -265 591 0
1415 265 0
1415 -591 0
-1416 266 -261 0
1416 -266 0
1416 261 0
-1417 -266 261 0
1417 266 0
1417 -261 0
-1418 976 -264 0
1418 -976 0
1418 264 0
-1419 -976 264 0
1419 976 0
1419 -264 0
-1420 977 -635 0
1420 -977 0
1420 635 0
-1421 -977 635 0
1421 977 0
1421 -635 0
-1422 268 -267 0
1422 -268 0
1422 267 0
-1423 -268 267 0
1423 268 0
1423 -267 0
-1424 270 -685 0
1424 -270 0
1424 685 0
-1425 -270 685 0
1425 270 0
1425 -685 0
-1426 272 -269 0
1426 -272 0
1426 269 0
-1427 -272 269 0
1427 272 0
1427 -269 0
-1428 273 -695 0
1428 -273 0
1428 695 0
-1429 -273 695 0
1429 273 0
1429 -695 0
-1430 978 -740 0
1430 -978 0
1430 740 0
-1431 -978 740 0
1431 978 0
1431 -740 0
-1432 979 -271 0
1432 -979 0
1432 271 0
-1433 -979 271 0
1433 979 0
1433 -271 0
-1434 -267 1088 0
1434 267 0
1434 -1088 0
-1435 267 -1088 0
1435 -267 0
1435 1088 0
-1436 -274 1089 0
1436 274 0
1436 -1089 0
-1437 274 -1089 0
1437 -274 0
1437 1089 0
-1438 929 -930 0
1438 -929 0
1438 930 0
-1439 -929 930 0
1439 929 0
1439 -930 0
-1440 246 -245 0
1440 -246 0
1440 245 0
-1441 -246 245 0
1441 246 0
1441 -245 0
-1442 248 -824 0
1442 -248 0
1442 824 0
-1443 -248 824 0
1443 248 0
1443 -824 0
-1444 961 -860 0
1444 -961 0
1444 860 0
-1445 -961 860 0
1445 961 0
1445 -860 0
-1446 962 -247 0
1446 -962 0
1446 247 0
-1447 -962 247 0
1447 962 0
1447 -247 0
-1448 242 -241 0
1448 -242 0
1448 241 0
-1449 -242 241 0
1449 242 0
1449 -241 0
-1450 244 -774 0
1450 -244 0
1450 774 0
-1451 -244 774 0
1451 244 0
1451 -774 0
-1452 959 -800 0
1452 -959 0
1452 800 0
-1453 -959 800 0
1453 959 0
1453 -800 0
-1454 960 -243 0
1454 -960 0
1454 243 0
-1455 -960 243 0
1455 960 0
1455 -243 0
-1456 -245 1090 0
1456 245 0
1456 -1090 0
-1457 245 -1090 0
1457 -245 0
1457 1090 0
-1458 250 -249 0
1458 -250 0
1458 249 0
-1459 -250 249 0
1459 250 0
1459 -249 0
-1460 252 -880 0
1460 -252 0
1460 880 0
-1461 -252 880 0
1461 252 0
1461 -880 0
-1462 254 -912 0
1462 -254 0
1462 912 0
-1463 -254 912 0
1463 254 0
1463 -912 0
-1464 255 -251 0
1464 -255 0
1464 251 0
-1465 -255 251 0
1465 255 0
1465 -251 0
-1466 257 -253 0
1466 -257 0
1466 253 0
-1467 -257 253 0
1467 257 0
1467 -253 0
-1468 258 -963 0
1468 -258 0
1468 963 0
-1469 -258 963 0
1469 258 0
1469 -963 0
-1470 -249 1091 0
1470 249 0
1470 -1091 0
-1471 249 -1091 0
1471 -249 0
1471 1091 0
-1472 229 -544 0
1472 -229 0
1472 544 0
-1473 -229 544 0
1473 229 0
1473 -544 0
-1474 230 -545 0
1474 -230 0
1474 545 0
-1475 -230 545 0
1475 230 0
1475 -545 0
-1476 232 -609 0
1476 -232 0
1476 609 0
-1477 -232 609 0
1477 232 0
1477 -609 0
-1478 233 -228 0
1478 -233 0
1478 228 0
-1479 -233 228 0
1479 233 0
1479 -228 0
-1480 955 -231 0
1480 -955 0
1480 231 0
-1481 -955 231 0
1481 955 0
1481 -231 0
-1482 956 -653 0
1482 -956 0
1482 653 0
-1483 -956 653 0
1483 956 0
1483 -653 0
-1484 237 -669 0
1484 -237 0
1484 669 0
-1485 -237 669 0
1485 237 0
1485 -669 0
-1486 235 -234 0
1486 -235 0
1486 234 0
-1487 -235 234 0
1487 235 0
1487 -234 0
-1488 239 -236 0
1488 -239 0
1488 236 0
-1489 -239 236 0
1489 239 0
1489 -236 0
-1490 240 -715 0
1490 -240 0
1490 715 0
-1491 -240 715 0
1491 240 0
1491 -715 0
-1492 957 -747 0
1492 -957 0
1492 747 0
-1493 -957 747 0
1493 957 0
1493 -747 0
-1494 958 -238 0
1494 -958 0
1494 238 0
-1495 -958 238 0
1495 958 0
1495 -238 0
-1496 -234 1092 0
1496 234 0
1496 -1092 0
-1497 234 -1092 0
1497 -234 0
1497 1092 0
-1498 -241 1093 0
1498 241 0
1498 -1093 0
-1499 241 -1093 0
1499 -241 0
1499 1093 0
-1500 933 -934 0
1500 -933 0
1500 934 0
-1501 -933 934 0
1501 933 0
1501 -934 0
-1502 178 -177 0
1502 -178 0
1502 177 0
-1503 -178 177 0
1503 178 0
1503 -177 0
-1504 180 -728 0
1504 -180 0
1504 728 0
-1505 -180 728 0
1505 180 0
1505 -728 0
-1506 182 -179 0
1506 -182 0
1506 179 0
-1507 -182 179 0
1507 182 0
1507 -179 0
-1508 183 -756 0
1508 -183 0
1508 756 0
-1509 -183 756 0
1509 183 0
1509 -756 0
-1510 917 -181 0
1510 -917 0
1510 181 0
-1511 -917 181 0
1511 917 0
1511 -181 0
-1512 918 -786 0
1512 -918 0
1512 786 0
-1513 -918 786 0
1513 918 0
1513 -786 0
-1514 187 -814 0
1514 -187 0
1514 814 0
-1515 -187 814 0
1515 187 0
1515 -814 0
-1516 185 -184 0
1516 -185 0
1516 184 0
-1517 -185 184 0
1517 185 0
1517 -184 0
-1518 189 -186 0
1518 -189 0
1518 186 0
-1519 -189 186 0
1519 189 0
1519 -186 0
-1520 190 -856 0
1520 -190 0
1520 856 0
-1521 -190 856 0
1521 190 0
1521 -856 0
-1522 192 -188 0
1522 -192 0
1522 188 0
-1523 -192 188 0
1523 192 0
1523 -188 0
-1524 193 -876 0
1524 -193 0
1524 876 0
-1525 -193 876 0
1525 193 0
1525 -876 0
-1526 -184 1107 0
1526 184 0
1526 -1107 0
-1527 184 -1107 0
1527 -184 0
1527 1107 0
-1528 168 -502 0
1528 -168 0
1528 502 0
-1529 -168 502 0
1529 168 0
1529 -502 0
-1530 169 -503 0
1530 -169 0
1530 503 0
-1531 -169 503 0
1531 169 0
1531 -503 0
-1532 913 -585 0
1532 -913 0
1532 585 0
-1533 -913 585 0
1533 913 0
1533 -585 0
-1534 914 -167 0
1534 -914 0
1534 167 0
-1535 -914 167 0
1535 914 0
1535 -167 0
-1536 171 -170 0
1536 -171 0
1536 170 0
-1537 -171 170 0
1537 171 0
1537 -170 0
-1538 176 -172 0
1538 -176 0
1538 172 0
-1539 -176 172 0
1539 176 0
1539 -172 0
-1540 175 -663 0
1540 -175 0
1540 663 0
-1541 -175 663 0
1541 175 0
1541 -663 0
-1542 915 -717 0
1542 -915 0
1542 717 0
-1543 -915 717 0
1543 915 0
1543 -717 0
-1544 916 -174 0
1544 -916 0
1544 174 0
-1545 -916 174 0
1545 916 0
1545 -174 0
-1546 173 -651 0
1546 -173 0
1546 651 0
-1547 -173 651 0
1547 173 0
1547 -651 0
-1548 -170 1108 0
1548 170 0
1548 -1108 0
-1549 170 -1108 0
1549 -170 0
1549 1108 0
-1550 -177 1109 0
1550 177 0
1550 -1109 0
-1551 177 -1109 0
1551 -177 0
1551 1109 0
-1552 145 -144 0
1552 -145 0
1552 144 0
-1553 -145 144 0
1553 145 0
1553 -144 0
-1554 147 -649 0
1554 -147 0
1554 649 0
-1555 -147 649 0
1555 147 0
1555 -649 0
-1556 149 -667 0
1556 -149 0
1556 667 0
-1557 -149 667 0
1557 149 0
1557 -667 0
-1558 150 -146 0
1558 -150 0
1558 146 0
-1559 -150 146 0
1559 150 0
1559 -146 0
-1560 891 -713 0
1560 -891 0
1560 713 0
-1561 -891 713 0
1561 891 0
1561 -713 0
-1562 892 -148 0
1562 -892 0
1562 148 0
-1563 -892 148 0
1563 892 0
1563 -148 0
-1564 142 -517 0
1564 -142 0
1564 517 0
-1565 -142 517 0
1565 142 0
1565 -517 0
-1566 143 -518 0
1566 -143 0
1566 518 0
-1567 -143 518 0
1567 143 0
1567 -518 0
-1568 889 -601 0
1568 -889 0
1568 601 0
-1569 -889 601 0
1569 889 0
1569 -601 0
-1570 890 -141 0
1570 -890 0
1570 141 0
-1571 -890 141 0
1571 890 0
1571 -141 0
-1572 -144 1110 0
1572 144 0
1572 -1110 0
-1573 144 -1110 0
1573 -144 0
1573 1110 0
-1574 154 -730 0
1574 -154 0
1574 730 0
-1575 -154 730 0
1575 154 0
1575 -730 0
-1576 156 -153 0
1576 -156 0
1576 153 0
-1577 -156 153 0
1577 156 0
1577 -153 0
-1578 152 -151 0
1578 -152 0
1578 151 0
-1579 -152 151 0
1579 152 0
1579 -151 0
-1580 893 -802 0
1580 -893 0
1580 802 0
-1581 -893 802 0
1581 893 0
1581 -802 0
-1582 157 -764 0
1582 -157 0
1582 764 0
-1583 -157 764 0
1583 157 0
1583 -764 0
-1584 894 -155 0
1584 -894 0
1584 155 0
-1585 -894 155 0
1585 894 0
1585 -155 0
-1586 161 -816 0
1586 -161 0
1586 816 0
-1587 -161 816 0
1587 161 0
1587 -816 0
-1588 159 -158 0
1588 -159 0
1588 158 0
-1589 -159 158 0
1589 159 0
1589 -158 0
-1590 163 -842 0
1590 -163 0
1590 842 0
-1591 -163 842 0
1591 163 0
1591 -842 0
-1592 164 -160 0
1592 -164 0
1592 160 0
-1593 -164 160 0
1593 164 0
1593 -160 0
-1594 -158 1111 0
1594 158 0
1594 -1111 0
-1595 158 -1111 0
1595 -158 0
1595 1111 0
-1596 -151 1112 0
1596 151 0
1596 -1112 0
-1597 151 -1112 0
1597 -151 0
1597 1112 0
-1598 126 -125 0
1598 -126 0
1598 125 0
-1599 -126 125 0
1599 126 0
1599 -125 0
-1600 128 -693 0
1600 -128 0
1600 693 0
-1601 -128 693 0
1601 128 0
1601 -693 0
-1602 130 -127 0
1602 -130 0
1602 127 0
-1603 -130 127 0
1603 130 0
1603 -127 0
-1604 131 -733 0
1604 -131 0
1604 733 0
-1605 -131 733 0
1605 131 0
1605 -733 0
-1606 867 -778 0
1606 -867 0
1606 778 0
-1607 -867 778 0
1607 867 0
1607 -778 0
-1608 868 -129 0
1608 -868 0
1608 129 0
-1609 -868 129 0
1609 868 0
1609 -129 0
-1610 135 -794 0
1610 -135 0
1610 794 0
-1611 -135 794 0
1611 135 0
1611 -794 0
-1612 133 -132 0
1612 -133 0
1612 132 0
-1613 -133 132 0
1613 133 0
1613 -132 0
-1614 137 -134 0
1614 -137 0
1614 134 0
-1615 -137 134 0
1615 137 0
1615 -134 0
-1616 138 -830 0
1616 -138 0
1616 830 0
-1617 -138 830 0
1617 138 0
1617 -830 0
-1618 -132 1113 0
1618 132 0
1618 -1113 0
-1619 132 -1113 0
1619 -132 0
1619 1113 0
-1620 119 -523 0
1620 -119 0
1620 523 0
-1621 -119 523 0
1621 119 0
1621 -523 0
-1622 120 -524 0
1622 -120 0
1622 524 0
-1623 -120 524 0
1623 120 0
1623 -524 0
-1624 863 -603 0
1624 -863 0
1624 603 0
-1625 -863 603 0
1625 863 0
1625 -603 0
-1626 864 -118 0
1626 -864 0
1626 118 0
-1627 -864 118 0
1627 864 0
1627 -118 0
-1628 122 -121 0
1628 -122 0
1628 121 0
-1629 -122 121 0
1629 122 0
1629 -121 0
-1630 124 -645 0
1630 -124 0
1630 645 0
-1631 -124 645 0
1631 124 0
1631 -645 0
-1632 865 -681 0
1632 -865 0
1632 681 0
-1633 -865 681 0
1633 865 0
1633 -681 0
-1634 866 -123 0
1634 -866 0
1634 123 0
-1635 -866 123 0
1635 866 0
1635 -123 0
-1636 -121 1114 0
1636 121 0
1636 -1114 0
-1637 121 -1114 0
1637 -121 0
1637 1114 0
-1638 -125 1115 0
1638 125 0
1638 -1115 0
-1639 125 -1115 0
1639 -125 0
1639 1115 0
-1640 99 -541 0
1640 -99 0
1640 541 0
-1641 -99 541 0
1641 99 0
1641 -541 0
-1642 100 -542 0
1642 -100 0
1642 542 0
-1643 -100 542 0
1643 100 0
1643 -542 0
-1644 835 -98 0
1644 -835 0
1644 98 0
-1645 -835 98 0
1645 835 0
1645 -98 0
-1646 836 -611 0
1646 -836 0
1646 611 0
-1647 -836 611 0
1647 836 0
1647 -611 0
-1648 104 -627 0
1648 -104 0
1648 627 0
-1649 -104 627 0
1649 104 0
1649 -627 0
-1650 102 -101 0
1650 -102 0
1650 101 0
-1651 -102 101 0
1651 102 0
1651 -101 0
-1652 837 -103 0
1652 -837 0
1652 103 0
-1653 -837 103 0
1653 837 0
1653 -103 0
-1654 838 -673 0
1654 -838 0
1654 673 0
-1655 -838 673 0
1655 838 0
1655 -673 0
-1656 -101 1116 0
1656 101 0
1656 -1116 0
-1657 101 -1116 0
1657 -101 0
1657 1116 0
-1658 108 -705 0
1658 -108 0
1658 705 0
-1659 -108 705 0
1659 108 0
1659 -705 0
-1660 106 -105 0
1660 -106 0
1660 105 0
-1661 -106 105 0
1661 106 0
1661 -105 0
-1662 839 -107 0
1662 -839 0
1662 107 0
-1663 -839 107 0
1663 839 0
1663 -107 0
-1664 840 -736 0
1664 -840 0
1664 736 0
-1665 -840 736 0
1665 840 0
1665 -736 0
-1666 112 -762 0
1666 -112 0
1666 762 0
-1667 -112 762 0
1667 112 0
1667 -762 0
-1668 110 -109 0
1668 -110 0
1668 109 0
-1669 -110 109 0
1669 110 0
1669 -109 0
-1670 114 -790 0
1670 -114 0
1670 790 0
-1671 -114 790 0
1671 114 0
1671 -790 0
-1672 115 -111 0
1672 -115 0
1672 111 0
-1673 -115 111 0
1673 115 0
1673 -111 0
-1674 -109 1117 0
1674 109 0
1674 -1117 0
-1675 109 -1117 0
1675 -109 0
1675 1117 0
-1676 -105 1118 0
1676 105 0
1676 -1118 0
-1677 105 -1118 0
1677 -105 0
1677 1118 0
-1678 90 -89 0
1678 -90 0
1678 89 0
-1679 -90 89 0
1679 90 0
1679 -89 0
-1680 92 -745 0
1680 -92 0
1680 745 0
-1681 -92 745 0
1681 92 0
1681 -745 0
-1682 95 -768 0
1682 -95 0
1682 768 0
-1683 -95 768 0
1683 95 0
1683 -768 0
-1684 94 -91 0
1684 -94 0
1684 91 0
-1685 -94 91 0
1685 94 0
1685 -91 0
-1686 86 -85 0
1686 -86 0
1686 85 0
-1687 -86 85 0
1687 86 0
1687 -85 0
-1688 88 -689 0
1688 -88 0
1688 689 0
-1689 -88 689 0
1689 88 0
1689 -689 0
-1690 809 -707 0
1690 -809 0
1690 707 0
-1691 -809 707 0
1691 809 0
1691 -707 0
-1692 810 -87 0
1692 -810 0
1692 87 0
-1693 -810 87 0
1693 810 0
1693 -87 0
-1694 -89 1119 0
1694 89 0
1694 -1119 0
-1695 89 -1119 0
1695 -89 0
1695 1119 0
-1696 808 -625 0
1696 -808 0
1696 625 0
-1697 -808 625 0
1697 808 0
1697 -625 0
-1698 81 -505 0
1698 -81 0
1698 505 0
-1699 -81 505 0
1699 81 0
1699 -505 0
-1700 80 -506 0
1700 -80 0
1700 506 0
-1701 -80 506 0
1701 80 0
1701 -506 0
-1702 83 -79 0
1702 -83 0
1702 79 0
-1703 -83 79 0
1703 83 0
1703 -79 0
-1704 84 -587 0
1704 -84 0
1704 587 0
-1705 -84 587 0
1705 84 0
1705 -587 0
-1706 807 -82 0
1706 -807 0
1706 82 0
-1707 -807 82 0
1707 807 0
1707 -82 0
-1708 -85 1120 0
1708 85 0
1708 -1120 0
-1709 85 -1120 0
1709 -85 0
1709 1120 0
-1710 62 -551 0
1710 -62 0
1710 551 0
-1711 -62 551 0
1711 62 0
1711 -551 0
-1712 63 -550 0
1712 -63 0
1712 550 0
-1713 -63 550 0
1713 63 0
1713 -550 0
-1714 65 -61 0
1714 -65 0
1714 61 0
-1715 -65 61 0
1715 65 0
1715 -61 0
-1716 66 -617 0
1716 -66 0
1716 617 0
-1717 -66 617 0
1717 66 0
1717 -617 0
-1718 779 -64 0
1718 -779 0
1718 64 0
-1719 -779 64 0
1719 779 0
1719 -64 0
-1720 780 -639 0
1720 -780 0
1720 639 0
-1721 -780 639 0
1721 780 0
1721 -639 0
-1722 70 -677 0
1722 -70 0
1722 677 0
-1723 -70 677 0
1723 70 0
1723 -677 0
-1724 68 -67 0
1724 -68 0
1724 67 0
-1725 -68 67 0
1725 68 0
1725 -67 0
-1726 72 -699 0
1726 -72 0
1726 699 0
-1727 -72 699 0
1727 72 0
1727 -699 0
-1728 73 -69 0
1728 -73 0
1728 69 0
-1729 -73 69 0
1729 73 0
1729 -69 0
-1730 75 -71 0
1730 -75 0
1730 71 0
-1731 -75 71 0
1731 75 0
1731 -71 0
-1732 76 -742 0
1732 -76 0
1732 742 0
-1733 -76 742 0
1733 76 0
1733 -742 0
-1734 -67 1121 0
1734 67 0
1734 -1121 0
-1735 67 -1121 0
1735 -67 0
1735 1121 0
-1736 52 -641 0
1736 -52 0
1736 641 0
-1737 -52 641 0
1737 52 0
1737 -641 0
-1738 50 -49 0
1738 -50 0
1738 49 0
-1739 -50 49 0
1739 50 0
1739 -49 0
-1740 54 -657 0
1740 -54 0
1740 657 0
-1741 -54 657 0
1741 54 0
1741 -657 0
-1742 55 -51 0
1742 -55 0
1742 51 0
-1743 -55 51 0
1743 55 0
1743 -51 0
-1744 57 -53 0
1744 -57 0
1744 53 0
-1745 -57 53 0
1745 57 0
1745 -53 0
-1746 58 -703 0
1746 -58 0
1746 703 0
-1747 -58 703 0
1747 58 0
1747 -703 0
-1748 47 -509 0
1748 -47 0
1748 509 0
-1749 -47 509 0
1749 47 0
1749 -509 0
-1750 48 -508 0
1750 -48 0
1750 508 0
-1751 -48 508 0
1751 48 0
1751 -508 0
-1752 749 -46 0
1752 -749 0
1752 46 0
-1753 -749 46 0
1753 749 0
1753 -46 0
-1754 750 -593 0
1754 -750 0
1754 593 0
-1755 -750 593 0
1755 750 0
1755 -593 0
-1756 -49 1122 0
1756 49 0
1756 -1122 0
-1757 49 -1122 0
1757 -49 0
1757 1122 0
-1758 737 -738 0
1758 -737 0
1758 738 0
-1759 -737 738 0
1759 737 0
1759 -738 0
-1760 365 -944 0
1760 -365 0
1760 944 0
-1761 -365 944 0
1761 365 0
1761 -944 0
-1762 363 -362 0
1762 -363 0
1762 362 0
-1763 -363 362 0
1763 363 0
1763 -362 0
-1764 367 -364 0
1764 -367 0
1764 364 0
-1765 -367 364 0
1765 367 0
1765 -364 0
-1766 368 -973 0
1766 -368 0
1766 973 0
-1767 -368 973 0
1767 368 0
1767 -973 0
-1768 371 -989 0
1768 -371 0
1768 989 0
-1769 -371 989 0
1769 371 0
1769 -989 0
-1770 370 -366 0
1770 -370 0
1770 366 0
-1771 -370 366 0
1771 370 0
1771 -366 0
-1772 328 -946 0
1772 -328 0
1772 946 0
-1773 -328 946 0
1773 328 0
1773 -946 0
-1774 326 -325 0
1774 -326 0
1774 325 0
-1775 -326 325 0
1775 326 0
1775 -325 0
-1776 330 -327 0
1776 -330 0
1776 327 0
-1777 -330 327 0
1777 330 0
1777 -327 0
-1778 331 -975 0
1778 -331 0
1778 975 0
-1779 -331 975 0
1779 331 0
1779 -975 0
-1780 487 -486 0
1780 -487 0
1780 486 0
-1781 -487 486 0
1781 487 0
1781 -486 0
-1782 489 -954 0
1782 -489 0
1782 954 0
-1783 -489 954 0
1783 489 0
1783 -954 0
-1784 1078 -971 0
1784 -1078 0
1784 971 0
-1785 -1078 971 0
1785 1078 0
1785 -971 0
-1786 1079 -488 0
1786 -1079 0
1786 488 0
-1787 -1079 488 0
1787 1079 0
1787 -488 0
-1788 951 -952 0
1788 -951 0
1788 952 0
-1789 -951 952 0
1789 951 0
1789 -952 0
-1790 447 -942 0
1790 -447 0
1790 942 0
-1791 -447 942 0
1791 447 0
1791 -942 0
-1792 445 -444 0
1792 -445 0
1792 444 0
-1793 -445 444 0
1793 445 0
1793 -444 0
-1794 1062 -967 0
1794 -1062 0
1794 967 0
-1795 -1062 967 0
1795 1062 0
1795 -967 0
-1796 1063 -446 0
1796 -1063 0
1796 446 0
-1797 -1063 446 0
1797 1063 0
1797 -446 0
-1798 404 -403 0
1798 -404 0
1798 403 0
-1799 -404 403 0
1799 404 0
1799 -403 0
-1800 406 -950 0
1800 -406 0
1800 950 0
-1801 -406 950 0
1801 406 0
1801 -950 0
-1802 1044 -965 0
1802 -1044 0
1802 965 0
-1803 -1044 965 0
1803 1044 0
1803 -965 0
-1804 1045 -405 0
1804 -1045 0
1804 405 0
-1805 -1045 405 0
1805 1045 0
1805 -405 0
-1806 293 -948 0
1806 -293 0
1806 948 0
-1807 -293 948 0
1807 293 0
1807 -948 0
-1808 291 -290 0
1808 -291 0
1808 290 0
-1809 -291 290 0
1809 291 0
1809 -290 0
-1810 968 -969 0
1810 -968 0
1810 969 0
-1811 -968 969 0
1811 968 0
1811 -969 0
-1812 451 -987 0
1812 -451 0
1812 987 0
-1813 -451 987 0
1813 451 0
1813 -987 0
-1814 449 -448 0
1814 -449 0
1814 448 0
-1815 -449 448 0
1815 449 0
1815 -448 0
-1816 453 -1064 0
1816 -453 0
1816 1064 0
-1817 -453 1064 0
1817 453 0
1817 -1064 0
-1818 454 -450 0
1818 -454 0
1818 450 0
-1819 -454 450 0
1819 454 0
1819 -450 0
-1820 456 -452 0
1820 -456 0
1820 452 0
-1821 -456 452 0
1821 456 0
1821 -452 0
-1822 457 -1065 0
1822 -457 0
1822 1065 0
-1823 -457 1065 0
1823 457 0
1823 -1065 0
-1824 1011 -1012 0
1824 -1011 0
1824 1012 0
-1825 -1011 1012 0
1825 1011 0
1825 -1012 0
-1826 408 -407 0
1826 -408 0
1826 407 0
-1827 -408 407 0
1827 408 0
1827 -407 0
-1828 410 -991 0
1828 -410 0
1828 991 0
-1829 -410 991 0
1829 410 0
1829 -991 0
-1830 412 -1014 0
1830 -412 0
1830 1014 0
-1831 -412 1014 0
1831 412 0
1831 -1014 0
-1832 413 -409 0
1832 -413 0
1832 409 0
-1833 -413 409 0
1833 413 0
1833 -409 0
-1834 1009 -1010 0
1834 -1009 0
1834 1010 0
-1835 -1009 1010 0
1835 1009 0
1835 -1010 0
-1836 495 -494 0
1836 -495 0
1836 494 0
-1837 -495 494 0
1837 495 0
1837 -494 0
-1838 497 -1028 0
1838 -497 0
1838 1028 0
-1839 -497 1028 0
1839 497 0
1839 -1028 0
-1840 499 -1049 0
1840 -499 0
1840 1049 0
-1841 -499 1049 0
1841 499 0
1841 -1049 0
-1842 500 -496 0
1842 -500 0
1842 496 0
-1843 -500 496 0
1843 500 0
1843 -496 0
-1844 1029 -1030 0
1844 -1029 0
1844 1030 0
-1845 -1029 1030 0
1845 1029 0
1845 -1030 0
-1846 1046 -1047 0
1846 -1046 0
1846 1047 0
-1847 -1046 1047 0
1847 1046 0
1847 -1047 0
-1848 493 -993 0
1848 -493 0
1848 993 0
-1849 -493 993 0
1849 493 0
1849 -993 0
-1850 491 -490 0
1850 -491 0
1850 490 0
-1851 -491 490 0
1851 491 0
1851 -490 0
-1852 1080 -1081 0
1852 -1080 0
1852 1081 0
-1853 -1080 1081 0
1853 1080 0
1853 -1081 0
-1854 1082 -492 0
1854 -1082 0
1854 492 0
-1855 -1082 492 0
1855 1082 0
1855 -492 0
-1856 -494 1196 0
1856 494 0
1856 -1196 0
-1857 494 -1196 0
1857 -494 0
1857 1196 0
-1858 1007 -1008 0
1858 -1007 0
1858 1008 0
-1859 -1007 1008 0
1859 1007 0
1859 -1008 0
-1860 1031 -1032 0
1860 -1031 0
1860 1032 0
-1861 -1031 1032 0
1861 1031 0
1861 -1032 0
-1862 994 -995 0
1862 -994 0
1862 995 0
-1863 -994 995 0
1863 994 0
1863 -995 0
-1864 -407 1200 0
1864 407 0
1864 -1200 0
-1865 407 -1200 0
1865 -407 0
1865 1200 0
-1866 -448 1201 0
1866 448 0
1866 -1201 0
-1867 448 -1201 0
1867 -448 0
1867 1201 0
-1868 -490 1202 0
1868 490 0
1868 -1202 0
-1869 490 -1202 0
1869 -490 0
1869 1202 0
-1870 482 -878 0
1870 -482 0
1870 878 0
-1871 -482 878 0
1871 482 0
1871 -878 0
-1872 480 -479 0
1872 -480 0
1872 479 0
-1873 -480 479 0
1873 480 0
1873 -479 0
-1874 484 -481 0
1874 -484 0
1874 481 0
-1875 -484 481 0
1875 484 0
1875 -481 0
-1876 485 -898 0
1876 -485 0
1876 898 0
-1877 -485 898 0
1877 485 0
1877 -898 0
-1878 1075 -1076 0
1878 -1075 0
1878 1076 0
-1879 -1075 1076 0
1879 1075 0
1879 -1076 0
-1880 1077 -483 0
1880 -1077 0
1880 483 0
-1881 -1077 483 0
1881 1077 0
1881 -483 0
-1882 478 -477 0
1882 -478 0
1882 477 0
-1883 -478 477 0
1883 478 0
1883 -477 0
-1884 1074 -852 0
1884 -1074 0
1884 852 0
-1885 -1074 852 0
1885 1074 0
1885 -852 0
-1886 -479 1203 0
1886 479 0
1886 -1203 0
-1887 479 -1203 0
1887 -479 0
1887 1203 0
-1888 473 -470 0
1888 -473 0
1888 470 0
-1889 -473 470 0
1889 473 0
1889 -470 0
-1890 474 -776 0
1890 -474 0
1890 776 0
-1891 -474 776 0
1891 474 0
1891 -776 0
-1892 1071 -472 0
1892 -1071 0
1892 472 0
-1893 -1071 472 0
1893 1071 0
1893 -472 0
-1894 1072 -798 0
1894 -1072 0
1894 798 0
-1895 -1072 798 0
1895 1072 0
1895 -798 0
-1896 469 -468 0
1896 -469 0
1896 468 0
-1897 -469 468 0
1897 469 0
1897 -468 0
-1898 471 -1070 0
1898 -471 0
1898 1070 0
-1899 -471 1070 0
1899 471 0
1899 -1070 0
-1900 476 -475 0
1900 -476 0
1900 475 0
-1901 -476 475 0
1901 476 0
1901 -475 0
-1902 1073 -828 0
1902 -1073 0
1902 828 0
-1903 -1073 828 0
1903 1073 0
1903 -828 0
-1904 -475 1204 0
1904 475 0
1904 -1204 0
-1905 475 -1204 0
1905 -475 0
1905 1204 0
-1906 -477 1205 0
1906 477 0
1906 -1205 0
-1907 477 -1205 0
1907 -477 0
1907 1205 0
-1908 459 -533 0
1908 -459 0
1908 533 0
-1909 -459 533 0
1909 459 0
1909 -533 0
-1910 460 -532 0
1910 -460 0
1910 532 0
-1911 -460 532 0
1911 460 0
1911 -532 0
-1912 1066 -599 0
1912 -1066 0
1912 599 0
-1913 -1066 599 0
1913 1066 0
1913 -599 0
-1914 1067 -458 0
1914 -1067 0
1914 458 0
-1915 -1067 458 0
1915 1067 0
1915 -458 0
-1916 462 -461 0
1916 -462 0
1916 461 0
-1917 -462 461 0
1917 462 0
1917 -461 0
-1918 466 -661 0
1918 -466 0
1918 661 0
-1919 -466 661 0
1919 466 0
1919 -661 0
-1920 467 -463 0
1920 -467 0
1920 463 0
-1921 -467 463 0
1921 467 0
1921 -463 0
-1922 1068 -709 0
1922 -1068 0
1922 709 0
-1923 -1068 709 0
1923 1068 0
1923 -709 0
-1924 1069 -465 0
1924 -1069 0
1924 465 0
-1925 -1069 465 0
1925 1069 0
1925 -465 0
-1926 -461 1206 0
1926 461 0
1926 -1206 0
-1927 461 -1206 0
1927 -461 0
1927 1206 0
-1928 464 -623 0
1928 -464 0
1928 623 0
-1929 -464 623 0
1929 464 0
1929 -623 0
-1930 -468 1207 0
1930 468 0
1930 -1207 0
-1931 468 -1207 0
1931 -468 0
1931 1207 0
-1932 -486 1208 0
1932 486 0
1932 -1208 0
-1933 486 -1208 0
1933 -486 0
1933 1208 0
-1934 358 -888 0
1934 -358 0
1934 888 0
-1935 -358 888 0
1935 358 0
1935 -888 0
-1936 356 -355 0
1936 -356 0
1936 355 0
-1937 -356 355 0
1937 356 0
1937 -355 0
-1938 361 -357 0
1938 -361 0
1938 357 0
-1939 -361 357 0
1939 361 0
1939 -357 0
-1940 360 -902 0
1940 -360 0
1940 902 0
-1941 -360 902 0
1941 360 0
1941 -902 0
-1942 1024 -359 0
1942 -1024 0
1942 359 0
-1943 -1024 359 0
1943 1024 0
1943 -359 0
-1944 1025 -1026 0
1944 -1025 0
1944 1026 0
-1945 -1025 1026 0
1945 1025 0
1945 -1026 0
-1946 354 -353 0
1946 -354 0
1946 353 0
-1947 -354 353 0
1947 354 0
1947 -353 0
-1948 1023 -846 0
1948 -1023 0
1948 846 0
-1949 -1023 846 0
1949 1023 0
1949 -846 0
-1950 -355 1209 0
1950 355 0
1950 -1209 0
-1951 355 -1209 0
1951 -355 0
1951 1209 0
-1952 1022 -818 0
1952 -1022 0
1952 818 0
-1953 -1022 818 0
1953 1022 0
1953 -818 0
-1954 352 -351 0
1954 -352 0
1954 351 0
-1955 -352 351 0
1955 352 0
1955 -351 0
-1956 347 -1019 0
1956 -347 0
1956 1019 0
-1957 -347 1019 0
1957 347 0
1957 -1019 0
-1958 345 -344 0
1958 -345 0
1958 344 0
-1959 -345 344 0
1959 345 0
1959 -344 0
-1960 349 -346 0
1960 -349 0
1960 346 0
-1961 -349 346 0
1961 349 0
1961 -346 0
-1962 350 -758 0
1962 -350 0
1962 758 0
-1963 -350 758 0
1963 350 0
1963 -758 0
-1964 1020 -806 0
1964 -1020 0
1964 806 0
-1965 -1020 806 0
1965 1020 0
1965 -806 0
-1966 1021 -348 0
1966 -1021 0
1966 348 0
-1967 -1021 348 0
1967 1021 0
1967 -348 0
-1968 -351 1210 0
1968 351 0
1968 -1210 0
-1969 351 -1210 0
1969 -351 0
1969 1210 0
-1970 -353 1211 0
1970 353 0
1970 -1211 0
-1971 353 -1211 0
1971 -353 0
1971 1211 0
-1972 338 -337 0
1972 -338 0
1972 337 0
-1973 -338 337 0
1973 338 0
1973 -337 0
-1974 343 -687 0
1974 -343 0
1974 687 0
-1975 -343 687 0
1975 343 0
1975 -687 0
-1976 342 -339 0
1976 -342 0
1976 339 0
-1977 -342 339 0
1977 342 0
1977 -339 0
-1978 1017 -697 0
1978 -1017 0
1978 697 0
-1979 -1017 697 0
1979 1017 0
1979 -697 0
-1980 1018 -341 0
1980 -1018 0
1980 341 0
-1981 -1018 341 0
1981 1018 0
1981 -341 0
-1982 335 -556 0
1982 -335 0
1982 556 0
-1983 -335 556 0
1983 335 0
1983 -556 0
-1984 336 -557 0
1984 -336 0
1984 557 0
-1985 -336 557 0
1985 336 0
1985 -557 0
-1986 1015 -334 0
1986 -1015 0
1986 334 0
-1987 -1015 334 0
1987 1015 0
1987 -334 0
-1988 1016 -605 0
1988 -1016 0
1988 605 0
-1989 -1016 605 0
1989 1016 0
1989 -605 0
-1990 -337 1212 0
1990 337 0
1990 -1212 0
-1991 337 -1212 0
1991 -337 0
1991 1212 0
-1992 340 -621 0
1992 -340 0
1992 621 0
-1993 -340 621 0
1993 340 0
1993 -621 0
-1994 -344 1213 0
1994 344 0
1994 -1213 0
-1995 344 -1213 0
1995 -344 0
1995 1213 0
-1996 -332 333 0
1996 332 0
1996 -333 0
-1997 332 -333 0
1997 -332 0
1997 333 0
-1998 -362 1214 0
1998 362 0
1998 -1214 0
-1999 362 -1214 0
1999 -362 0
1999 1214 0
-2000 1006 -322 0
2000 -1006 0
2000 322 0
-2001 -1006 322 0
2001 1006 0
2001 -322 0
-2002 321 -882 0
2002 -321 0
2002 882 0
-2003 -321 882 0
2003 321 0
2003 -882 0
-2004 319 -318 0
2004 -319 0
2004 318 0
-2005 -319 318 0
2005 319 0
2005 -318 0
-2006 323 -910 0
2006 -323 0
2006 910 0
-2007 -323 910 0
2007 323 0
2007 -910 0
-2008 324 -320 0
2008 -324 0
2008 320 0
-2009 -324 320 0
2009 324 0
2009 -320 0
-2010 1004 -1005 0
2010 -1004 0
2010 1005 0
-2011 -1004 1005 0
2011 1004 0
2011 -1005 0
-2012 1003 -854 0
2012 -1003 0
2012 854 0
-2013 -1003 854 0
2013 1003 0
2013 -854 0
-2014 317 -316 0
2014 -317 0
2014 316 0
-2015 -317 316 0
2015 317 0
2015 -316 0
-2016 -318 1215 0
2016 318 0
2016 -1215 0
-2017 318 -1215 0
2017 -318 0
2017 1215 0
-2018 1001 -313 0
2018 -1001 0
2018 313 0
-2019 -1001 313 0
2019 1001 0
2019 -313 0
-2020 312 -772 0
2020 -312 0
2020 772 0
-2021 -312 772 0
2021 312 0
2021 -772 0
-2022 310 -309 0
2022 -310 0
2022 309 0
-2023 -310 309 0
2023 310 0
2023 -309 0
-2024 314 -792 0
2024 -314 0
2024 792 0
-2025 -314 792 0
2025 314 0
2025 -792 0
-2026 315 -311 0
2026 -315 0
2026 311 0
-2027 -315 311 0
2027 315 0
2027 -311 0
-2028 1002 -826 0
2028 -1002 0
2028 826 0
-2029 -1002 826 0
2029 1002 0
2029 -826 0
-2030 -316 1216 0
2030 316 0
2030 -1216 0
-2031 316 -1216 0
2031 -316 0
2031 1216 0
-2032 298 -547 0
2032 -298 0
2032 547 0
-2033 -298 547 0
2033 298 0
2033 -547 0
-2034 297 -548 0
2034 -297 0
2034 548 0
-2035 -297 548 0
2035 297 0
2035 -548 0
-2036 300 -296 0
2036 -300 0
2036 296 0
-2037 -300 296 0
2037 300 0
2037 -296 0
-2038 301 -615 0
2038 -301 0
2038 615 0
-2039 -301 615 0
2039 301 0
2039 -615 0
-2040 996 -299 0
2040 -996 0
2040 299 0
-2041 -996 299 0
2041 996 0
2041 -299 0
-2042 997 -629 0
2042 -997 0
2042 629 0
-2043 -997 629 0
2043 997 0
2043 -629 0
-2044 303 -302 0
2044 -303 0
2044 302 0
-2045 -303 302 0
2045 303 0
2045 -302 0
-2046 305 -659 0
2046 -305 0
2046 659 0
-2047 -305 659 0
2047 305 0
2047 -659 0
-2048 308 -691 0
2048 -308 0
2048 691 0
-2049 -308 691 0
2049 308 0
2049 -691 0
-2050 307 -304 0
2050 -307 0
2050 304 0
-2051 -307 304 0
2051 307 0
2051 -304 0
-2052 998 -306 0
2052 -998 0
2052 306 0
-2053 -998 306 0
2053 998 0
2053 -306 0
-2054 999 -1000 0
2054 -999 0
2054 1000 0
-2055 -999 1000 0
2055 999 0
2055 -1000 0
-2056 -302 1217 0
2056 302 0
2056 -1217 0
-2057 302 -1217 0
2057 -302 0
2057 1217 0
-2058 -309 1218 0
2058 309 0
2058 -1218 0
-2059 309 -1218 0
2059 -309 0
2059 1218 0
-2060 -294 295 0
2060 294 0
2060 -295 0
-2061 294 -295 0
2061 -294 0
2061 295 0
-2062 -325 1231 0
2062 325 0
2062 -1231 0
-2063 325 -1231 0
2063 -325 0
2063 1231 0
-2064 399 -884 0
2064 -399 0
2064 884 0
-2065 -399 884 0
2065 399 0
2065 -884 0
-2066 397 -396 0
2066 -397 0
2066 396 0
-2067 -397 396 0
2067 397 0
2067 -396 0
-2068 401 -398 0
2068 -401 0
2068 398 0
-2069 -401 398 0
2069 401 0
2069 -398 0
-2070 402 -904 0
2070 -402 0
2070 904 0
-2071 -402 904 0
2071 402 0
2071 -904 0
-2072 1041 -400 0
2072 -1041 0
2072 400 0
-2073 -1041 400 0
2073 1041 0
2073 -400 0
-2074 1042 -1043 0
2074 -1042 0
2074 1043 0
-2075 -1042 1043 0
2075 1042 0
2075 -1043 0
-2076 395 -394 0
2076 -395 0
2076 394 0
-2077 -395 394 0
2077 395 0
2077 -394 0
-2078 1040 -850 0
2078 -1040 0
2078 850 0
-2079 -1040 850 0
2079 1040 0
2079 -850 0
-2080 -396 1232 0
2080 396 0
2080 -1232 0
-2081 396 -1232 0
2081 -396 0
2081 1232 0
-2082 390 -752 0
2082 -390 0
2082 752 0
-2083 -390 752 0
2083 390 0
2083 -752 0
-2084 388 -387 0
2084 -388 0
2084 387 0
-2085 -388 387 0
2085 388 0
2085 -387 0
-2086 392 -796 0
2086 -392 0
2086 796 0
-2087 -392 796 0
2087 392 0
2087 -796 0
-2088 393 -389 0
2088 -393 0
2088 389 0
-2089 -393 389 0
2089 393 0
2089 -389 0
-2090 1038 -822 0
2090 -1038 0
2090 822 0
-2091 -1038 822 0
2091 1038 0
2091 -822 0
-2092 1039 -391 0
2092 -1039 0
2092 391 0
-2093 -1039 391 0
2093 1039 0
2093 -391 0
-2094 -394 1233 0
2094 394 0
2094 -1233 0
-2095 394 -1233 0
2095 -394 0
2095 1233 0
-2096 375 -559 0
2096 -375 0
2096 559 0
-2097 -375 559 0
2097 375 0
2097 -559 0
-2098 376 -560 0
2098 -376 0
2098 560 0
-2099 -376 560 0
2099 376 0
2099 -560 0
-2100 378 -583 0
2100 -378 0
2100 583 0
-2101 -378 583 0
2101 378 0
2101 -583 0
-2102 379 -374 0
2102 -379 0
2102 374 0
-2103 -379 374 0
2103 379 0
2103 -374 0
-2104 1033 -633 0
2104 -1033 0
2104 633 0
-2105 -1033 633 0
2105 1033 0
2105 -633 0
-2106 1034 -377 0
2106 -1034 0
2106 377 0
-2107 -1034 377 0
2107 1034 0
2107 -377 0
-2108 383 -683 0
2108 -383 0
2108 683 0
-2109 -383 683 0
2109 383 0
2109 -683 0
-2110 381 -380 0
2110 -381 0
2110 380 0
-2111 -381 380 0
2111 381 0
2111 -380 0
-2112 385 -719 0
2112 -385 0
2112 719 0
-2113 -385 719 0
2113 385 0
2113 -719 0
-2114 386 -382 0
2114 -386 0
2114 382 0
-2115 -386 382 0
2115 386 0
2115 -382 0
-2116 1035 -1036 0
2116 -1035 0
2116 1036 0
-2117 -1035 1036 0
2117 1035 0
2117 -1036 0
-2118 1037 -384 0
2118 -1037 0
2118 384 0
-2119 -1037 384 0
2119 1037 0
2119 -384 0
-2120 -380 1234 0
2120 380 0
2120 -1234 0
-2121 380 -1234 0
2121 -380 0
2121 1234 0
-2122 -387 1235 0
2122 387 0
2122 -1235 0
-2123 387 -1235 0
2123 -387 0
2123 1235 0
-2124 -372 373 0
2124 372 0
2124 -373 0
-2125 372 -373 0
2125 -372 0
2125 373 0
-2126 -403 1248 0
2126 403 0
2126 -1248 0
-2127 403 -1248 0
2127 -403 0
2127 1248 0
-2128 440 -886 0
2128 -440 0
2128 886 0
-2129 -440 886 0
2129 440 0
2129 -886 0
-2130 438 -437 0
2130 -438 0
2130 437 0
-2131 -438 437 0
2131 438 0
2131 -437 0
-2132 442 -439 0
2132 -442 0
2132 439 0
-2133 -442 439 0
2133 442 0
2133 -439 0
-2134 443 -908 0
2134 -443 0
2134 908 0
-2135 -443 908 0
2135 443 0
2135 -908 0
-2136 1059 -441 0
2136 -1059 0
2136 441 0
-2137 -1059 441 0
2137 1059 0
2137 -441 0
-2138 1060 -1061 0
2138 -1060 0
2138 1061 0
-2139 -1060 1061 0
2139 1060 0
2139 -1061 0
-2140 436 -435 0
2140 -436 0
2140 435 0
-2141 -436 435 0
2141 436 0
2141 -435 0
-2142 1058 -862 0
2142 -1058 0
2142 862 0
-2143 -1058 862 0
2143 1058 0
2143 -862 0
-2144 -437 1249 0
2144 437 0
2144 -1249 0
-2145 437 -1249 0
2145 -437 0
2145 1249 0
-2146 427 -426 0
2146 -427 0
2146 426 0
-2147 -427 426 0
2147 427 0
2147 -426 0
-2148 429 -1054 0
2148 -429 0
2148 1054 0
-2149 -429 1054 0
2149 429 0
2149 -1054 0
-2150 431 -428 0
2150 -431 0
2150 428 0
-2151 -431 428 0
2151 431 0
2151 -428 0
-2152 432 -770 0
2152 -432 0
2152 770 0
-2153 -432 770 0
2153 432 0
2153 -770 0
-2154 1055 -804 0
2154 -1055 0
2154 804 0
-2155 -1055 804 0
2155 1055 0
2155 -804 0
-2156 1056 -430 0
2156 -1056 0
2156 430 0
-2157 -1056 430 0
2157 1056 0
2157 -430 0
-2158 1057 -812 0
2158 -1057 0
2158 812 0
-2159 -1057 812 0
2159 1057 0
2159 -812 0
-2160 434 -433 0
2160 -434 0
2160 433 0
-2161 -434 433 0
2161 434 0
2161 -433 0
-2162 -433 1250 0
2162 433 0
2162 -1250 0
-2163 433 -1250 0
2163 -433 0
2163 1250 0
-2164 -435 1251 0
2164 435 0
2164 -1251 0
-2165 435 -1251 0
2165 -435 0
2165 1251 0
-2166 417 -512 0
2166 -417 0
2166 512 0
-2167 -417 512 0
2167 417 0
2167 -512 0
-2168 418 -511 0
2168 -418 0
2168 511 0
-2169 -418 511 0
2169 418 0
2169 -511 0
-2170 1050 -416 0
2170 -1050 0
2170 416 0
-2171 -1050 416 0
2171 1050 0
2171 -416 0
-2172 1051 -619 0
2172 -1051 0
2172 619 0
-2173 -1051 619 0
2173 1051 0
2173 -619 0
-2174 420 -419 0
2174 -420 0
2174 419 0
-2175 -420 419 0
2175 420 0
2175 -419 0
-2176 424 -671 0
2176 -424 0
2176 671 0
-2177 -424 671 0
2177 424 0
2177 -671 0
-2178 425 -421 0
2178 -425 0
2178 421 0
-2179 -425 421 0
2179 425 0
2179 -421 0
-2180 1052 -721 0
2180 -1052 0
2180 721 0
-2181 -1052 721 0
2181 1052 0
2181 -721 0
-2182 1053 -423 0
2182 -1053 0
2182 423 0
-2183 -1053 423 0
2183 1053 0
2183 -423 0
-2184 -419 1252 0
2184 419 0
2184 -1252 0
-2185 419 -1252 0
2185 -419 0
2185 1252 0
-2186 422 -647 0
2186 -422 0
2186 647 0
-2187 -422 647 0
2187 422 0
2187 -647 0
-2188 -426 1253 0
2188 426 0
2188 -1253 0
-2189 426 -1253 0
2189 -426 0
2189 1253 0
-2190 -444 1266 0
2190 444 0
2190 -1266 0
-2191 444 -1266 0
2191 -444 0
2191 1266 0
-2192 -414 415 0
2192 414 0
2192 -415 0
-2193 414 -415 0
2193 -414 0
2193 415 0
-2194 30 -538 0
2194 -30 0
2194 538 0
-2195 -30 538 0
2195 30 0
2195 -538 0
-2196 31 -539 0
2196 -31 0
2196 539 0
-2197 -31 539 0
2197 31 0
2197 -539 0
-2198 722 -597 0
2198 -722 0
2198 597 0
-2199 -722 597 0
2199 722 0
2199 -597 0
-2200 723 -29 0
2200 -723 0
2200 29 0
-2201 -723 29 0
2201 723 0
2201 -29 0
-2202 33 -32 0
2202 -33 0
2202 32 0
-2203 -33 32 0
2203 33 0
2203 -32 0
-2204 35 -637 0
2204 -35 0
2204 637 0
-2205 -35 637 0
2205 35 0
2205 -637 0
-2206 37 -679 0
2206 -37 0
2206 679 0
-2207 -37 679 0
2207 37 0
2207 -679 0
-2208 38 -34 0
2208 -38 0
2208 34 0
-2209 -38 34 0
2209 38 0
2209 -34 0
-2210 -32 1267 0
2210 32 0
2210 -1267 0
-2211 32 -1267 0
2211 -32 0
2211 1267 0
-2212 19 -528 0
2212 -19 0
2212 528 0
-2213 -19 528 0
2213 19 0
2213 -528 0
-2214 20 -529 0
2214 -20 0
2214 529 0
-2215 -20 529 0
2215 20 0
2215 -529 0
-2216 23 -613 0
2216 -23 0
2216 613 0
-2217 -23 613 0
2217 23 0
2217 -613 0
-2218 22 -18 0
2218 -22 0
2218 18 0
-2219 -22 18 0
2219 22 0
2219 -18 0
-2220 25 -21 0
2220 -25 0
2220 21 0
-2221 -25 21 0
2221 25 0
2221 -21 0
-2222 26 -655 0
2222 -26 0
2222 655 0
-2223 -26 655 0
2223 26 0
2223 -655 0
-2224 11 -520 0
2224 -11 0
2224 520 0
-2225 -11 520 0
2225 11 0
2225 -520 0
-2226 12 -521 0
2226 -12 0
2226 521 0
-2227 -12 521 0
2227 12 0
2227 -521 0
-2228 14 -10 0
2228 -14 0
2228 10 0
-2229 -14 10 0
2229 14 0
2229 -10 0
-2230 15 -595 0
2230 -15 0
2230 595 0
-2231 -15 595 0
2231 15 0
2231 -595 0
-2232 606 -607 0
2232 -606 0
2232 607 0
-2233 -606 607 0
2233 606 0
2233 -607 0
-2234 781 -782 0
2234 -781 0
2234 782 0
-2235 -781 782 0
2235 781 0
2235 -782 0
-2236 847 -848 0
2236 -847 0
2236 848 0
-2237 -847 848 0
2237 847 0
2237 -848 0
-2238 759 -760 0
2238 -759 0
2238 760 0
-2239 -759 760 0
2239 759 0
2239 -760 0
-2240 6 -535 0
2240 -6 0
2240 535 0
-2241 -6 535 0
2241 6 0
2241 -535 0
-2242 7 -536 0
2242 -7 0
2242 536 0
-2243 -7 536 0
2243 7 0
2243 -536 0
-2244 819 -820 0
2244 -819 0
2244 820 0
-2245 -819 820 0
2245 819 0
2245 -820 0
-2246 674 -675 0
2246 -674 0
2246 675 0
-2247 -674 675 0
2247 674 0
2247 -675 0
-2248 905 -906 0
2248 -905 0
2248 906 0
-2249 -905 906 0
2249 905 0
2249 -906 0
-2250 871 -872 0
2250 -871 0
2250 872 0
-2251 -871 872 0
2251 871 0
2251 -872 0
-2252 525 -526 0
2252 -525 0
2252 526 0
-2253 -525 526 0
2253 525 0
2253 -526 0
-2254 710 -711 0
2254 -710 0
2254 711 0
-2255 -710 711 0
2255 710 0
2255 -711 0
-2256 642 -643 0
2256 -642 0
2256 643 0
-2257 -642 643 0
2257 642 0
2257 -643 0
-2258 921 -922 0
2258 -921 0
2258 922 0
-2259 -921 922 0
2259 921 0
2259 -922 0
-2260 923 -924 0
2260 -923 0
2260 924 0
-2261 -923 924 0
2261 923 0
2261 -924 0
-2262 -1 2 0
2262 1 0
2262 -2 0
-2263 1 -2 0
2263 -1 0
2263 2 0
-2264 925 -926 0
2264 -925 0
2264 926 0
-2265 -925 926 0
2265 925 0
2265 -926 0
-2266 -2267 1318 0
2266 2267 0
2266 -1318 0
-2268 2267 -1318 0
2268 -2267 0
2268 1318 0
-2269 927 -928 0
2269 -927 0
2269 928 0
-2270 -927 928 0
2270 927 0
2270 -928 0
-2271 -3 4 0
2271 3 0
2271 -4 0
-2272 3 -4 0
2272 -3 0
2272 4 0
-2273 931 -932 0
2273 -931 0
2273 932 0
-2274 -931 932 0
2274 931 0
2274 -932 0
-2275 -8 9 0
2275 8 0
2275 -9 0
-2276 8 -9 0
2276 -8 0
2276 9 0
-2277 -16 17 0
2277 16 0
2277 -17 0
-2278 16 -17 0
2278 -16 0
2278 17 0
-2279 -165 166 0
2279 165 0
2279 -166 0
-2280 165 -166 0
2280 -165 0
2280 166 0
-2281 -27 28 0
2281 27 0
2281 -28 0
-2282 27 -28 0
2282 -27 0
2282 28 0
-2283 -59 60 0
2283 59 0
2283 -60 0
-2284 59 -60 0
2284 -59 0
2284 60 0
-2285 44 -726 0
2285 -44 0
2285 726 0
-2286 -44 726 0
2286 44 0
2286 -726 0
-2287 45 -731 0
2287 -45 0
2287 731 0
-2288 -45 731 0
2288 45 0
2288 -731 0
-2289 40 -734 0
2289 -40 0
2289 734 0
-2290 -40 734 0
2290 40 0
2290 -734 0
-2291 -77 78 0
2291 77 0
2291 -78 0
-2292 77 -78 0
2292 -77 0
2292 78 0
-2293 -226 227 0
2293 226 0
2293 -227 0
-2294 226 -227 0
2294 -226 0
2294 227 0
-2295 41 -743 0
2295 -41 0
2295 743 0
-2296 -41 743 0
2296 41 0
2296 -743 0
-2297 43 -748 0
2297 -43 0
2297 748 0
-2298 -43 748 0
2298 43 0
2298 -748 0
-2299 -96 97 0
2299 96 0
2299 -97 0
-2300 96 -97 0
2300 -96 0
2300 97 0
-2301 -259 260 0
2301 259 0
2301 -260 0
-2302 259 -260 0
2302 -259 0
2302 260 0
-2303 -116 117 0
2303 116 0
2303 -117 0
-2304 116 -117 0
2304 -116 0
2304 117 0
-2305 -139 140 0
2305 139 0
2305 -140 0
-2306 139 -140 0
2306 -139 0
2306 140 0
-2307 -290 1319 0
2307 290 0
2307 -1319 0
-2308 290 -1319 0
2308 -290 0
2308 1319 0
1320 0
1321 0
1322 0
1323 0
1324 0
1325 0
1326 0
1327 0
1328 0
1329 0
1330 0
1331 0
1332 0
1333 0
1334 0
1335 0
1336 0
1337 0
1338 0
1339 0
1340 0
1341 0
1342 0
1343 0
1344 0
1345 0
1346 0
1347 0
1348 0
1349 0
1350 0
1351 0
1352 0
1353 0
1354 0
1355 0
1356 0
1357 0
1358 0
1359 0
1360 0
1361 0
1362 0
1363 0
1364 0
1365 0
1366 0
1367 0
1368 0
1369 0
1370 0
1371 0
1372 0
1373 0
1374 0
1375 0
1376 0
1377 0
1378 0
1379 0
1380 0
1381 0
1382 0
1383 0
1384 0
1385 0
1386 0
1387 0
1388 0
1389 0
1390 0
1391 0
1392 0
1393 0
1394 0
1395 0
1396 0
1397 0
1398 0
1399 0
1400 0
1401 0
1402 0
1403 0
1404 0
1405 0
1406 0
1407 0
1408 0
1409 0
1410 0
1411 0
1412 0
1413 0
1414 0
1415 0
1416 0
1417 0
1418 0
1419 0
1420 0
1421 0
1422 0
1423 0
1424 0
1425 0
1426 0
1427 0
1428 0
1429 0
1430 0
1431 0
1432 0
1433 0
1434 0
1435 0
1436 0
1437 0
1438 0
1439 0
1440 0
1441 0
1442 0
1443 0
1444 0
1445 0
1446 0
1447 0
1448 0
1449 0
1450 0
1451 0
1452 0
1453 0
1454 0
1455 0
1456 0
1457 0
1458 0
1459 0
1460 0
1461 0
1462 0
1463 0
1464 0
1465 0
1466 0
1467 0
1468 0
1469 0
1470 0
1471 0
1472 0
1473 0
1474 0
1475 0
1476 0
1477 0
1478 0
1479 0
1480 0
1481 0
1482 0
1483 0
1484 0
1485 0
1486 0
1487 0
1488 0
1489 0
1490 0
1491 0
1492 0
1493 0
1494 0
1495 0
1496 0
1497 0
1498 0
1499 0
1500 0
1501 0
1502 0
1503 0
1504 0
1505 0
1506 0
1507 0
1508 0
1509 0
1510 0
1511 0
1512 0
1513 0
1514 0
1515 0
1516 0
1517 0
1518 0
1519 0
1520 0
1521 0
1522 0
1523 0
1524 0
1525 0
1526 0
1527 0
1528 0
1529 0
1530 0
1531 0
1532 0
1533 0
1534 0
1535 0
1536 0
1537 0
1538 0
1539 0
1540 0
1541 0
1542 0
1543 0
1544 0
1545 0
1546 0
1547 0
1548 0
1549 0
1550 0
1551 0
1552 0
1553 0
1554 0
1555 0
1556 0
1557 0
1558 0
1559 0
1560 0
1561 0
1562 0
1563 0
1564 0
1565 0
1566 0
1567 0
1568 0
1569 0
1570 0
1571 0
1572 0
1573 0
1574 0
1575 0
1576 0
1577 0
1578 0
1579 0
1580 0
1581 0
1582 0
1583 0
1584 0
1585 0
1586 0
1587 0
1588 0
1589 0
1590 0
1591 0
1592 0
1593 0
1594 0
1595 0
1596 0
1597 0
1598 0
1599 0
1600 0
1601 0
1602 0
1603 0
1604 0
1605 0
1606 0
1607 0
1608 0
1609 0
1610 0
1611 0
1612 0
1613 0
1614 0
1615 0
1616 0
1617 0
1618 0
1619 0
1620 0
1621 0
1622 0
1623 0
1624 0
1625 0
1626 0
1627 0
1628 0
1629 0
1630 0
1631 0
1632 0
1633 0
1634 0
1635 0
1636 0
1637 0
1638 0
1639 0
1640 0
1641 0
1642 0
1643 0
1644 0
1645 0
1646 0
1647 0
1648 0
1649 0
1650 0
1651 0
1652 0
1653 0
1654 0
1655 0
1656 0
1657 0
1658 0
1659 0
1660 0
1661 0
1662 0
1663 0
1664 0
1665 0
1666 0
1667 0
1668 0
1669 0
1670 0
1671 0
1672 0
1673 0
1674 0
1675 0
1676 0
1677 0
1678 0
1679 0
1680 0
1681 0
1682 0
1683 0
1684 0
1685 0
1686 0
1687 0
1688 0
1689 0
1690 0
1691 0
1692 0
1693 0
1694 0
1695 0
1696 0
1697 0
1698 0
1699 0
1700 0
1701 0
1702 0
1703 0
1704 0
1705 0
1706 0
1707 0
1708 0
1709 0
1710 0
1711 0
1712 0
1713 0
1714 0
1715 0
1716 0
1717 0
1718 0
1719 0
1720 0
1721 0
1722 0
1723 0
1724 0
1725 0
1726 0
1727 0
1728 0
1729 0
1730 0
1731 0
1732 0
1733 0
1734 0
1735 0
1736 0
1737 0
1738 0
1739 0
1740 0
1741 0
1742 0
1743 0
1744 0
1745 0
1746 0
1747 0
1748 0
1749 0
1750 0
1751 0
1752 0
1753 0
1754 0
1755 0
1756 0
1757 0
1758 0
1759 0
1760 0
1761 0
1762 0
1763 0
1764 0
1765 0
1766 0
1767 0
1768 0
1769 0
1770 0
1771 0
1772 0
1773 0
1774 0
1775 0
1776 0
1777 0
1778 0
1779 0
1780 0
1781 0
1782 0
1783 0
1784 0
1785 0
1786 0
1787 0
1788 0
1789 0
1790 0
1791 0
1792 0
1793 0
1794 0
1795 0
1796 0
1797 0
1798 0
1799 0
1800 0
1801 0
1802 0
1803 0
1804 0
1805 0
1806 0
1807 0
1808 0
1809 0
1810 0
1811 0
1812 0
1813 0
1814 0
1815 0
1816 0
1817 0
1818 0
1819 0
1820 0
1821 0
1822 0
1823 0
1824 0
1825 0
1826 0
1827 0
1828 0
1829 0
1830 0
1831 0
1832 0
1833 0
1834 0
1835 0
1836 0
1837 0
1838 0
1839 0
1840 0
1841 0
1842 0
1843 0
1844 0
1845 0
1846 0
1847 0
1848 0
1849 0
1850 0
1851 0
1852 0
1853 0
1854 0
1855 0
1856 0
1857 0
1858 0
1859 0
1860 0
1861 0
1862 0
1863 0
1864 0
1865 0
1866 0
1867 0
1868 0
1869 0
1870 0
1871 0
1872 0
1873 0
1874 0
1875 0
1876 0
1877 0
1878 0
1879 0
1880 0
1881 0
1882 0
1883 0
1884 0
1885 0
1886 0
1887 0
1888 0
1889 0
1890 0
1891 0
1892 0
1893 0
1894 0
1895 0
1896 0
1897 0
1898 0
1899 0
1900 0
1901 0
1902 0
1903 0
1904 0
1905 0
1906 0
1907 0
1908 0
1909 0
1910 0
1911 0
1912 0
1913 0
1914 0
1915 0
1916 0
1917 0
1918 0
1919 0
1920 0
1921 0
1922 0
1923 0
1924 0
1925 0
1926 0
1927 0
1928 0
1929 0
1930 0
1931 0
1932 0
1933 0
1934 0
1935 0
1936 0
1937 0
1938 0
1939 0
1940 0
1941 0
1942 0
1943 0
1944 0
1945 0
1946 0
1947 0
1948 0
1949 0
1950 0
1951 0
1952 0
1953 0
1954 0
1955 0
1956 0
1957 0
1958 0
1959 0
1960 0
1961 0
1962 0
1963 0
1964 0
1965 0
1966 0
1967 0
1968 0
1969 0
1970 0
1971 0
1972 0
1973 0
1974 0
1975 0
1976 0
1977 0
1978 0
1979 0
1980 0
1981 0
1982 0
1983 0
1984 0
1985 0
1986 0
1987 0
1988 0
1989 0
1990 0
1991 0
1992 0
1993 0
1994 0
1995 0
1996 0
1997 0
1998 0
1999 0
2000 0
2001 0
2002 0
2003 0
2004 0
2005 0
2006 0
2007 0
2008 0
2009 0
2010 0
2011 0
2012 0
2013 0
2014 0
2015 0
2016 0
2017 0
2018 0
2019 0
2020 0
2021 0
2022 0
2023 0
2024 0
2025 0
2026 0
2027 0
2028 0
2029 0
2030 0
2031 0
2032 0
2033 0
2034 0
2035 0
2036 0
2037 0
2038 0
2039 0
2040 0
2041 0
2042 0
2043 0
2044 0
2045 0
2046 0
2047 0
2048 0
2049 0
2050 0
2051 0
2052 0
2053 0
2054 0
2055 0
2056 0
2057 0
2058 0
2059 0
2060 0
2061 0
2062 0
2063 0
2064 0
2065 0
2066 0
2067 0
2068 0
2069 0
2070 0
2071 0
2072 0
2073 0
2074 0
2075 0
2076 0
2077 0
2078 0
2079 0
2080 0
2081 0
2082 0
2083 0
2084 0
2085 0
2086 0
2087 0
2088 0
2089 0
2090 0
2091 0
2092 0
2093 0
2094 0
2095 0
2096 0
2097 0
2098 0
2099 0
2100 0
2101 0
2102 0
2103 0
2104 0
2105 0
2106 0
2107 0
2108 0
2109 0
2110 0
2111 0
2112 0
2113 0
2114 0
2115 0
2116 0
2117 0
2118 0
2119 0
2120 0
2121 0
2122 0
2123 0
2124 0
2125 0
2126 0
2127 0
2128 0
2129 0
2130 0
2131 0
2132 0
2133 0
2134 0
2135 0
2136 0
2137 0
2138 0
2139 0
2140 0
2141 0
2142 0
2143 0
2144 0
2145 0
2146 0
2147 0
2148 0
2149 0
2150 0
2151 0
2152 0
2153 0
2154 0
2155 0
2156 0
2157 0
2158 0
2159 0
2160 0
2161 0
2162 0
2163 0
2164 0
2165 0
2166 0
2167 0
2168 0
2169 0
2170 0
2171 0
2172 0
2173 0
2174 0
2175 0
2176 0
2177 0
2178 0
2179 0
2180 0
2181 0
2182 0
2183 0
2184 0
2185 0
2186 0
2187 0
2188 0
2189 0
2190 0
2191 0
2192 0
2193 0
2194 0
2195 0
2196 0
2197 0
2198 0
2199 0
2200 0
2201 0
2202 0
2203 0
2204 0
2205 0
2206 0
2207 0
2208 0
2209 0
2210 0
2211 0
2212 0
2213 0
2214 0
2215 0
2216 0
2217 0
2218 0
2219 0
2220 0
2221 0
2222 0
2223 0
2224 0
2225 0
2226 0
2227 0
2228 0
2229 0
2230 0
2231 0
2232 0
2233 0
2234 0
2235 0
2236 0
2237 0
2238 0
2239 0
2240 0
2241 0
2242 0
2243 0
2244 0
2245 0
2246 0
2247 0
2248 0
2249 0
2250 0
2251 0
2252 0
2253 0
2254 0
2255 0
2256 0
2257 0
2258 0
2259 0
2260 0
2261 0
2262 0
2263 0
2264 0
2265 0
2266 0
2268 0
2269 0
2270 0
2271 0
2272 0
2273 0
2274 0
2275 0
2276 0
2277 0
2278 0
2279 0
2280 0
2281 0
2282 0
2283 0
2284 0
2285 0
2286 0
2287 0
2288 0
2289 0
2290 0
2291 0
2292 0
2293 0
2294 0
2295 0
2296 0
2297 0
2298 0
2299 0
2300 0
2301 0
2302 0
2303 0
2304 0
2305 0
2306 0
2307 0
2308 0
