c BC-S1.2
p cnf 727 2243
1 -2 0
-1 2 0
3 -4 0
-3 4 0
5 -6 0
-5 6 0
7 -8 0
-7 8 0
9 -10 0
-9 10 0
11 -12 0
-11 12 0
13 -14 0
-13 14 0
15 -16 0
-15 16 0
17 -18 0
-17 18 0
19 -20 0
-19 20 0
21 -22 0
-21 22 0
23 -24 0
-23 24 0
25 -26 0
-25 26 0
27 -28 0
-27 28 0
29 -30 0
-29 30 0
31 -32 0
-31 32 0
33 -34 0
-33 34 0
35 -36 0
-35 36 0
37 -38 0
-37 38 0
39 -40 0
-39 40 0
41 -42 0
-41 42 0
43 -44 0
-43 44 0
45 -46 0
-45 46 0
47 -48 0
-47 48 0
49 -50 0
-49 50 0
51 -52 0
-51 52 0
53 -54 0
-53 54 0
55 -56 0
-55 56 0
57 -58 0
-57 58 0
59 -60 0
-59 60 0
61 -62 0
-61 62 0
63 -64 0
-63 64 0
65 -66 0
-65 66 0
67 -68 0
-67 68 0
69 -70 0
-69 70 0
71 -72 0
-71 72 0
73 -74 0
-73 74 0
75 -76 0
-75 76 0
77 -78 0
-77 78 0
79 -80 0
-79 80 0
81 -82 0
-81 82 0
83 -84 0
-83 84 0
85 -86 0
-85 86 0
87 -88 0
-87 88 0
89 -90 0
-89 90 0
91 -92 0
-91 92 0
93 -94 0
-93 94 0
95 -96 0
-95 96 0
97 -98 0
-97 98 0
99 -100 0
-99 100 0
101 -102 0
-101 102 0
103 -104 0
-103 104 0
105 -106 0
-105 106 0
-107 108 109 110 111 112 0
107 -108 0
107 -109 0
107 -110 0
107 -111 0
107 -112 0
-113 114 115 0
113 -114 0
113 -115 0
-116 117 118 0
116 -117 0
116 -118 0
-119 120 121 0
119 -120 0
119 -121 0
-122 123 124 125 126 0
122 -123 0
122 -124 0
122 -125 0
122 -126 0
-127 128 129 130 131 132 133 0
127 -128 0
127 -129 0
127 -130 0
127 -131 0
127 -132 0
127 -133 0
-134 135 136 137 138 139 140 0
134 -135 0
134 -136 0
134 -137 0
134 -138 0
134 -139 0
134 -140 0
-141 142 143 144 0
141 -142 0
141 -143 0
141 -144 0
-145 146 147 0
145 -146 0
145 -147 0
-148 149 150 0
148 -149 0
148 -150 0
-151 152 153 154 155 156 157 0
151 -152 0
151 -153 0
151 -154 0
151 -155 0
151 -156 0
151 -157 0
-158 159 160 161 162 163 164 165 0
158 -159 0
158 -160 0
158 -161 0
158 -162 0
158 -163 0
158 -164 0
158 -165 0
-166 167 168 0
166 -167 0
166 -168 0
-169 170 171 0
169 -170 0
169 -171 0
-172 173 174 0
172 -173 0
172 -174 0
-175 176 177 178 179 180 181 0
175 -176 0
175 -177 0
175 -178 0
175 -179 0
175 -180 0
175 -181 0
-182 183 184 185 186 187 0
182 -183 0
182 -184 0
182 -185 0
182 -186 0
182 -187 0
-188 189 190 0
188 -189 0
188 -190 0
-191 192 193 194 0
191 -192 0
191 -193 0
191 -194 0
-195 196 197 0
195 -196 0
195 -197 0
-198 199 200 0
198 -199 0
198 -200 0
-201 202 203 204 205 206 0
201 -202 0
201 -203 0
201 -204 0
201 -205 0
201 -206 0
-207 208 209 0
207 -208 0
207 -209 0
-210 211 212 0
210 -211 0
210 -212 0
-213 214 215 0
213 -214 0
213 -215 0
-216 217 218 0
216 -217 0
216 -218 0
-219 220 221 0
219 -220 0
219 -221 0
-222 223 224 225 226 227 0
222 -223 0
222 -224 0
222 -225 0
222 -226 0
222 -227 0
-228 229 230 0
228 -229 0
228 -230 0
-231 232 233 0
231 -232 0
231 -233 0
-234 235 236 237 0
234 -235 0
234 -236 0
234 -237 0
-238 239 240 0
238 -239 0
238 -240 0
-241 242 243 0
241 -242 0
241 -243 0
-244 245 246 247 0
244 -245 0
244 -246 0
244 -247 0
-248 249 250 0
248 -249 0
248 -250 0
251 -196 0
-251 196 0
252 -200 0
-252 200 0
-253 254 255 256 257 0
253 -254 0
253 -255 0
253 -256 0
253 -257 0
-258 259 260 261 262 0
258 -259 0
258 -260 0
258 -261 0
258 -262 0
-263 264 265 266 0
263 -264 0
263 -265 0
263 -266 0
-267 268 269 0
267 -268 0
267 -269 0
-270 271 272 273 274 0
270 -271 0
270 -272 0
270 -273 0
270 -274 0
-275 276 277 278 0
275 -276 0
275 -277 0
275 -278 0
-279 280 281 0
279 -280 0
279 -281 0
-282 283 284 0
282 -283 0
282 -284 0
-285 286 287 288 289 0
285 -286 0
285 -287 0
285 -288 0
285 -289 0
-290 291 292 293 294 0
290 -291 0
290 -292 0
290 -293 0
290 -294 0
-295 296 297 0
295 -296 0
295 -297 0
-298 299 300 301 0
298 -299 0
298 -300 0
298 -301 0
-302 303 304 305 0
302 -303 0
302 -304 0
302 -305 0
306 -115 0
-306 115 0
307 -117 0
-307 117 0
308 -121 0
-308 121 0
-309 310 311 0
309 -310 0
309 -311 0
2 -1 0
-2 1 0
4 -3 0
-4 3 0
6 -5 0
-6 5 0
8 -7 0
-8 7 0
10 -9 0
-10 9 0
12 -11 0
-12 11 0
14 -13 0
-14 13 0
16 -15 0
-16 15 0
18 -17 0
-18 17 0
20 -19 0
-20 19 0
22 -21 0
-22 21 0
24 -23 0
-24 23 0
26 -25 0
-26 25 0
28 -27 0
-28 27 0
30 -29 0
-30 29 0
32 -31 0
-32 31 0
34 -33 0
-34 33 0
36 -35 0
-36 35 0
38 -37 0
-38 37 0
40 -39 0
-40 39 0
42 -41 0
-42 41 0
44 -43 0
-44 43 0
46 -45 0
-46 45 0
48 -47 0
-48 47 0
50 -49 0
-50 49 0
52 -51 0
-52 51 0
54 -53 0
-54 53 0
56 -55 0
-56 55 0
58 -57 0
-58 57 0
60 -59 0
-60 59 0
62 -61 0
-62 61 0
64 -63 0
-64 63 0
66 -65 0
-66 65 0
68 -67 0
-68 67 0
70 -69 0
-70 69 0
72 -71 0
-72 71 0
74 -73 0
-74 73 0
76 -75 0
-76 75 0
78 -77 0
-78 77 0
80 -79 0
-80 79 0
82 -81 0
-82 81 0
84 -83 0
-84 83 0
86 -85 0
-86 85 0
88 -87 0
-88 87 0
90 -89 0
-90 89 0
92 -91 0
-92 91 0
94 -93 0
-94 93 0
96 -95 0
-96 95 0
98 -97 0
-98 97 0
100 -99 0
-100 99 0
102 -101 0
-102 101 0
104 -103 0
-104 103 0
106 -105 0
-106 105 0
312 -158 0
-312 158 0
313 -314 -219 0
-313 314 0
-313 219 0
315 -316 -169 0
-315 316 0
-315 169 0
317 -318 -222 0
-317 318 0
-317 222 0
319 -320 -127 0
-319 320 0
-319 127 0
321 -322 -228 0
-321 322 0
-321 228 0
323 -324 -175 0
-323 324 0
-323 175 0
325 -282 0
-325 282 0
326 -327 -328 0
-326 327 0
-326 328 0
329 -330 0
-329 330 0
331 -285 0
-331 285 0
332 -333 -334 0
-332 333 0
-332 334 0
335 -290 0
-335 290 0
336 -337 -338 0
-336 337 0
-336 338 0
339 -340 -175 0
-339 340 0
-339 175 0
341 -342 -166 0
-341 342 0
-341 166 0
343 -344 -158 0
-343 344 0
-343 158 0
345 -346 -172 0
-345 346 0
-345 172 0
347 -348 -169 0
-347 348 0
-347 169 0
349 -127 0
-349 127 0
350 -175 0
-350 175 0
351 -352 -353 0
-351 352 0
-351 353 0
354 -355 -356 0
-354 355 0
-354 356 0
357 -358 -295 0
-357 358 0
-357 295 0
359 -360 -302 0
-359 360 0
-359 302 0
361 -362 -298 0
-361 362 0
-361 298 0
363 -166 0
-363 166 0
364 -365 -290 0
-364 365 0
-364 290 0
366 -367 -356 0
-366 367 0
-366 356 0
368 -369 -231 0
-368 369 0
-368 231 0
370 -371 -228 0
-370 371 0
-370 228 0
372 -373 -222 0
-372 373 0
-372 222 0
374 -201 0
-374 201 0
375 -376 -219 0
-375 376 0
-375 219 0
377 -295 0
-377 295 0
378 -379 -380 0
-378 379 0
-378 380 0
381 -298 0
-381 298 0
382 -383 -380 0
-382 383 0
-382 380 0
384 -385 -380 0
-384 385 0
-384 380 0
386 -302 0
-386 302 0
387 -388 0
-387 388 0
108 -389 0
-108 389 0
109 -346 -119 0
-109 346 0
-109 119 0
110 -348 -116 0
-110 348 0
-110 116 0
111 -340 -122 0
-111 340 0
-111 122 0
112 -342 -113 0
-112 342 0
-112 113 0
114 -365 -191 0
-114 365 0
-114 191 0
115 -306 0
-115 306 0
117 -307 0
-117 307 0
118 -385 -122 0
-118 385 0
-118 122 0
120 -327 -188 0
-120 327 0
-120 188 0
121 -308 0
-121 308 0
123 -362 -251 0
-123 362 0
-123 251 0
124 -358 -252 0
-124 358 0
-124 252 0
125 -360 -307 0
-125 360 0
-125 307 0
126 -390 0
-126 390 0
128 -346 -148 0
-128 346 0
-128 148 0
129 -348 -145 0
-129 348 0
-129 145 0
130 -342 -141 0
-130 342 0
-130 141 0
131 -107 0
-131 107 0
132 -340 -151 0
-132 340 0
-132 151 0
133 -344 -134 0
-133 344 0
-133 134 0
135 -322 -195 0
-135 322 0
-135 195 0
136 -318 -191 0
-136 318 0
-136 191 0
137 -314 -188 0
-137 314 0
-137 188 0
138 -391 0
-138 391 0
139 -316 -116 0
-139 316 0
-139 116 0
140 -324 -122 0
-140 324 0
-140 122 0
142 -367 -107 0
-142 367 0
-142 107 0
143 -113 0
-143 113 0
144 -365 -258 0
-144 365 0
-144 258 0
146 -234 0
-146 234 0
147 -385 -151 0
-147 385 0
-147 151 0
149 -327 -207 0
-149 327 0
-149 207 0
150 -238 0
-150 238 0
152 -355 -107 0
-152 355 0
-152 107 0
153 -358 -267 0
-153 358 0
-153 267 0
154 -352 -134 0
-154 352 0
-154 134 0
155 -122 0
-155 122 0
156 -360 -234 0
-156 360 0
-156 234 0
157 -362 -263 0
-157 362 0
-157 263 0
159 -316 -145 0
-159 316 0
-159 145 0
160 -322 -213 0
-160 322 0
-160 213 0
161 -324 -151 0
-161 324 0
-161 151 0
162 -314 -207 0
-162 314 0
-162 207 0
163 -320 -107 0
-163 320 0
-163 107 0
164 -134 0
-164 134 0
165 -318 -210 0
-165 318 0
-165 210 0
167 -365 -222 0
-167 365 0
-167 222 0
168 -241 0
-168 241 0
170 -244 0
-170 244 0
171 -385 -175 0
-171 385 0
-171 175 0
173 -327 -219 0
-173 327 0
-173 219 0
174 -248 0
-174 248 0
176 -151 0
-176 151 0
177 -362 -275 0
-177 362 0
-177 275 0
178 -358 -279 0
-178 358 0
-178 279 0
179 -355 -127 0
-179 355 0
-179 127 0
180 -352 -158 0
-180 352 0
-180 158 0
181 -360 -244 0
-181 360 0
-181 244 0
183 -369 -198 0
-183 369 0
-183 198 0
184 -376 -188 0
-184 376 0
-184 188 0
185 -371 -195 0
-185 371 0
-185 195 0
186 -392 0
-186 392 0
187 -373 -191 0
-187 373 0
-187 191 0
189 -309 0
-189 309 0
190 -333 -191 0
-190 333 0
-190 191 0
192 -393 0
-192 393 0
193 -394 -309 0
-193 394 0
-193 309 0
194 -337 -306 0
-194 337 0
-194 306 0
196 -251 0
-196 251 0
197 -383 -122 0
-197 383 0
-197 122 0
199 -379 -122 0
-199 379 0
-199 122 0
200 -252 0
-200 252 0
202 -182 0
-202 182 0
203 -373 -210 0
-203 373 0
-203 210 0
204 -369 -216 0
-204 369 0
-204 216 0
205 -376 -207 0
-205 376 0
-205 207 0
206 -371 -213 0
-206 371 0
-206 213 0
208 -333 -210 0
-208 333 0
-208 210 0
209 -253 0
-209 253 0
211 -337 -141 0
-211 337 0
-211 141 0
212 -258 0
-212 258 0
214 -383 -151 0
-214 383 0
-214 151 0
215 -263 0
-215 263 0
217 -379 -151 0
-217 379 0
-217 151 0
218 -267 0
-218 267 0
220 -270 0
-220 270 0
221 -333 -222 0
-221 333 0
-221 222 0
223 -337 -241 0
-223 337 0
-223 241 0
224 -395 -158 0
-224 395 0
-224 158 0
225 -396 -201 0
-225 396 0
-225 201 0
226 -394 -270 0
-226 394 0
-226 270 0
227 -210 0
-227 210 0
229 -275 0
-229 275 0
230 -383 -175 0
-230 383 0
-230 175 0
232 -279 0
-232 279 0
233 -379 -175 0
-233 379 0
-233 175 0
235 -397 -134 0
-235 397 0
-235 134 0
236 -116 0
-236 116 0
237 -398 -107 0
-237 398 0
-237 107 0
239 -119 0
-239 119 0
240 -399 -107 0
-240 399 0
-240 107 0
242 -367 -127 0
-242 367 0
-242 127 0
243 -141 0
-243 141 0
245 -397 -158 0
-245 397 0
-245 158 0
246 -145 0
-246 145 0
247 -398 -127 0
-247 398 0
-247 127 0
249 -399 -127 0
-249 399 0
-249 127 0
250 -148 0
-250 148 0
400 -401 0
-400 401 0
402 -403 0
-402 403 0
254 -404 -238 0
-254 404 0
-254 238 0
255 -405 -182 0
-255 405 0
-255 182 0
256 -406 -134 0
-256 406 0
-256 134 0
257 -188 0
-257 188 0
259 -395 -134 0
-259 395 0
-259 134 0
260 -191 0
-260 191 0
261 -396 -182 0
-261 396 0
-261 182 0
262 -394 -253 0
-262 394 0
-262 253 0
264 -407 -182 0
-264 407 0
-264 182 0
265 -195 0
-265 195 0
266 -408 -134 0
-266 408 0
-266 134 0
268 -198 0
-268 198 0
269 -409 -182 0
-269 409 0
-269 182 0
271 -404 -248 0
-271 404 0
-271 248 0
272 -207 0
-272 207 0
273 -405 -201 0
-273 405 0
-273 201 0
274 -406 -158 0
-274 406 0
-274 158 0
276 -213 0
-276 213 0
277 -408 -158 0
-277 408 0
-277 158 0
278 -407 -201 0
-278 407 0
-278 201 0
280 -409 -201 0
-280 409 0
-280 201 0
281 -216 0
-281 216 0
283 -172 0
-283 172 0
284 -399 -356 0
-284 399 0
-284 356 0
286 -406 -353 0
-286 406 0
-286 353 0
287 -405 -410 0
-287 405 0
-287 410 0
288 -404 -282 0
-288 404 0
-288 282 0
289 -219 0
-289 219 0
291 -396 -410 0
-291 396 0
-291 410 0
292 -222 0
-292 222 0
293 -395 -353 0
-293 395 0
-293 353 0
294 -394 -285 0
-294 394 0
-294 285 0
296 -231 0
-296 231 0
297 -409 -410 0
-297 409 0
-297 410 0
299 -228 0
-299 228 0
300 -407 -410 0
-300 407 0
-300 410 0
301 -408 -353 0
-301 408 0
-301 353 0
303 -398 -356 0
-303 398 0
-303 356 0
304 -169 0
-304 169 0
305 -397 -353 0
-305 397 0
-305 353 0
411 -412 0
-411 412 0
413 -414 0
-413 414 0
415 -416 0
-415 416 0
310 -417 0
-310 417 0
311 -404 -308 0
-311 404 0
-311 308 0
-418 -1 2 0
418 1 0
418 -2 0
-419 1 -2 0
419 -1 0
419 2 0
-420 -3 4 0
420 3 0
420 -4 0
-421 3 -4 0
421 -3 0
421 4 0
-422 -5 6 0
422 5 0
422 -6 0
-423 5 -6 0
423 -5 0
423 6 0
-424 -7 8 0
424 7 0
424 -8 0
-425 7 -8 0
425 -7 0
425 8 0
-426 -9 10 0
426 9 0
426 -10 0
-427 9 -10 0
427 -9 0
427 10 0
-428 -11 12 0
428 11 0
428 -12 0
-429 11 -12 0
429 -11 0
429 12 0
-430 -13 14 0
430 13 0
430 -14 0
-431 13 -14 0
431 -13 0
431 14 0
-432 -15 16 0
432 15 0
432 -16 0
-433 15 -16 0
433 -15 0
433 16 0
-434 -17 18 0
434 17 0
434 -18 0
-435 17 -18 0
435 -17 0
435 18 0
-436 -19 20 0
436 19 0
436 -20 0
-437 19 -20 0
437 -19 0
437 20 0
-438 -21 22 0
438 21 0
438 -22 0
-439 21 -22 0
439 -21 0
439 22 0
-440 -23 24 0
440 23 0
440 -24 0
-441 23 -24 0
441 -23 0
441 24 0
-442 -25 26 0
442 25 0
442 -26 0
-443 25 -26 0
443 -25 0
443 26 0
-444 -27 28 0
444 27 0
444 -28 0
-445 27 -28 0
445 -27 0
445 28 0
-446 -29 30 0
446 29 0
446 -30 0
-447 29 -30 0
447 -29 0
447 30 0
-448 -31 32 0
448 31 0
448 -32 0
-449 31 -32 0
449 -31 0
449 32 0
-450 -33 34 0
450 33 0
450 -34 0
-451 33 -34 0
451 -33 0
451 34 0
-452 -35 36 0
452 35 0
452 -36 0
-453 35 -36 0
453 -35 0
453 36 0
-454 -37 38 0
454 37 0
454 -38 0
-455 37 -38 0
455 -37 0
455 38 0
-456 -39 40 0
456 39 0
456 -40 0
-457 39 -40 0
457 -39 0
457 40 0
-458 -41 42 0
458 41 0
458 -42 0
-459 41 -42 0
459 -41 0
459 42 0
-460 -43 44 0
460 43 0
460 -44 0
-461 43 -44 0
461 -43 0
461 44 0
-462 -45 46 0
462 45 0
462 -46 0
-463 45 -46 0
463 -45 0
463 46 0
-464 -47 48 0
464 47 0
464 -48 0
-465 47 -48 0
465 -47 0
465 48 0
-466 -49 50 0
466 49 0
466 -50 0
-467 49 -50 0
467 -49 0
467 50 0
-468 -51 52 0
468 51 0
468 -52 0
-469 51 -52 0
469 -51 0
469 52 0
-470 -53 54 0
470 53 0
470 -54 0
-471 53 -54 0
471 -53 0
471 54 0
-472 -55 56 0
472 55 0
472 -56 0
-473 55 -56 0
473 -55 0
473 56 0
-474 -57 58 0
474 57 0
474 -58 0
-475 57 -58 0
475 -57 0
475 58 0
-476 -59 60 0
476 59 0
476 -60 0
-477 59 -60 0
477 -59 0
477 60 0
-478 -61 62 0
478 61 0
478 -62 0
-479 61 -62 0
479 -61 0
479 62 0
-480 -63 64 0
480 63 0
480 -64 0
-481 63 -64 0
481 -63 0
481 64 0
-482 -65 66 0
482 65 0
482 -66 0
-483 65 -66 0
483 -65 0
483 66 0
-484 -67 68 0
484 67 0
484 -68 0
-485 67 -68 0
485 -67 0
485 68 0
-486 -69 70 0
486 69 0
486 -70 0
-487 69 -70 0
487 -69 0
487 70 0
-488 -71 72 0
488 71 0
488 -72 0
-489 71 -72 0
489 -71 0
489 72 0
-490 -73 74 0
490 73 0
490 -74 0
-491 73 -74 0
491 -73 0
491 74 0
-492 -75 76 0
492 75 0
492 -76 0
-493 75 -76 0
493 -75 0
493 76 0
-494 -77 78 0
494 77 0
494 -78 0
-495 77 -78 0
495 -77 0
495 78 0
-496 -79 80 0
496 79 0
496 -80 0
-497 79 -80 0
497 -79 0
497 80 0
-498 -81 82 0
498 81 0
498 -82 0
-499 81 -82 0
499 -81 0
499 82 0
-500 -83 84 0
500 83 0
500 -84 0
-501 83 -84 0
501 -83 0
501 84 0
-502 -85 86 0
502 85 0
502 -86 0
-503 85 -86 0
503 -85 0
503 86 0
-504 -87 88 0
504 87 0
504 -88 0
-505 87 -88 0
505 -87 0
505 88 0
-506 -89 90 0
506 89 0
506 -90 0
-507 89 -90 0
507 -89 0
507 90 0
-508 -91 92 0
508 91 0
508 -92 0
-509 91 -92 0
509 -91 0
509 92 0
-510 -93 94 0
510 93 0
510 -94 0
-511 93 -94 0
511 -93 0
511 94 0
-512 -95 96 0
512 95 0
512 -96 0
-513 95 -96 0
513 -95 0
513 96 0
-514 -97 98 0
514 97 0
514 -98 0
-515 97 -98 0
515 -97 0
515 98 0
-516 -99 100 0
516 99 0
516 -100 0
-517 99 -100 0
517 -99 0
517 100 0
-518 -101 102 0
518 101 0
518 -102 0
-519 101 -102 0
519 -101 0
519 102 0
-520 -103 104 0
520 103 0
520 -104 0
-521 103 -104 0
521 -103 0
521 104 0
-522 -105 106 0
522 105 0
522 -106 0
-523 105 -106 0
523 -105 0
523 106 0
-524 312 -158 0
524 -312 0
524 158 0
-525 -312 158 0
525 312 0
525 -158 0
-526 -353 312 313 315 317 319 321 323 0
526 353 0
526 -312 0
526 -313 0
526 -315 0
526 -317 0
526 -319 0
526 -321 0
526 -323 0
-527 353 -312 0
527 -353 0
527 312 0
-528 353 -313 0
528 -353 0
528 313 0
-529 353 -315 0
529 -353 0
529 315 0
-530 353 -317 0
530 -353 0
530 317 0
-531 353 -319 0
531 -353 0
531 319 0
-532 353 -321 0
532 -353 0
532 321 0
-533 353 -323 0
533 -353 0
533 323 0
-534 325 -282 0
534 -325 0
534 282 0
-535 -325 282 0
535 325 0
535 -282 0
-536 -537 325 326 0
536 537 0
536 -325 0
536 -326 0
-538 537 -325 0
538 -537 0
538 325 0
-539 537 -326 0
539 -537 0
539 326 0
-540 329 -330 0
540 -329 0
540 330 0
-541 -329 330 0
541 329 0
541 -330 0
-542 -543 329 0
542 543 0
542 -329 0
-544 543 -329 0
544 -543 0
544 329 0
-545 331 -285 0
545 -331 0
545 285 0
-546 -331 285 0
546 331 0
546 -285 0
-547 -328 331 332 0
547 328 0
547 -331 0
547 -332 0
-548 328 -331 0
548 -328 0
548 331 0
-549 328 -332 0
549 -328 0
549 332 0
-550 335 -290 0
550 -335 0
550 290 0
-551 -335 290 0
551 335 0
551 -290 0
-552 -334 335 336 0
552 334 0
552 -335 0
552 -336 0
-553 334 -335 0
553 -334 0
553 335 0
-554 334 -336 0
554 -334 0
554 336 0
-555 349 -127 0
555 -349 0
555 127 0
-556 -349 127 0
556 349 0
556 -127 0
-557 -356 339 341 343 345 347 349 0
557 356 0
557 -339 0
557 -341 0
557 -343 0
557 -345 0
557 -347 0
557 -349 0
-558 356 -339 0
558 -356 0
558 339 0
-559 356 -341 0
559 -356 0
559 341 0
-560 356 -343 0
560 -356 0
560 343 0
-561 356 -345 0
561 -356 0
561 345 0
-562 356 -347 0
562 -356 0
562 347 0
-563 356 -349 0
563 -356 0
563 349 0
-564 350 -175 0
564 -350 0
564 175 0
-565 -350 175 0
565 350 0
565 -175 0
-566 -380 350 351 354 357 359 361 0
566 380 0
566 -350 0
566 -351 0
566 -354 0
566 -357 0
566 -359 0
566 -361 0
-567 380 -350 0
567 -380 0
567 350 0
-568 380 -351 0
568 -380 0
568 351 0
-569 380 -354 0
569 -380 0
569 354 0
-570 380 -357 0
570 -380 0
570 357 0
-571 380 -359 0
571 -380 0
571 359 0
-572 380 -361 0
572 -380 0
572 361 0
-573 363 -166 0
573 -363 0
573 166 0
-574 -363 166 0
574 363 0
574 -166 0
-575 -338 363 364 366 0
575 338 0
575 -363 0
575 -364 0
575 -366 0
-576 338 -363 0
576 -338 0
576 363 0
-577 338 -364 0
577 -338 0
577 364 0
-578 338 -366 0
578 -338 0
578 366 0
-579 374 -201 0
579 -374 0
579 201 0
-580 -374 201 0
580 374 0
580 -201 0
-581 -410 368 370 372 374 375 0
581 410 0
581 -368 0
581 -370 0
581 -372 0
581 -374 0
581 -375 0
-582 410 -368 0
582 -410 0
582 368 0
-583 410 -370 0
583 -410 0
583 370 0
-584 410 -372 0
584 -410 0
584 372 0
-585 410 -374 0
585 -410 0
585 374 0
-586 410 -375 0
586 -410 0
586 375 0
-587 377 -295 0
587 -377 0
587 295 0
-588 -377 295 0
588 377 0
588 -295 0
-589 -590 377 378 0
589 590 0
589 -377 0
589 -378 0
-591 590 -377 0
591 -590 0
591 377 0
-592 590 -378 0
592 -590 0
592 378 0
-593 381 -298 0
593 -381 0
593 298 0
-594 -381 298 0
594 381 0
594 -298 0
-595 -596 381 382 0
595 596 0
595 -381 0
595 -382 0
-597 596 -381 0
597 -596 0
597 381 0
-598 596 -382 0
598 -596 0
598 382 0
-599 386 -302 0
599 -386 0
599 302 0
-600 -386 302 0
600 386 0
600 -302 0
-601 -602 384 386 0
601 602 0
601 -384 0
601 -386 0
-603 602 -384 0
603 -602 0
603 384 0
-604 602 -386 0
604 -602 0
604 386 0
-605 387 -388 0
605 -387 0
605 388 0
-606 -387 388 0
606 387 0
606 -388 0
-607 -608 387 0
607 608 0
607 -387 0
-609 608 -387 0
609 -608 0
609 387 0
-610 108 -389 0
610 -108 0
610 389 0
-611 -108 389 0
611 108 0
611 -389 0
-612 115 -306 0
612 -115 0
612 306 0
-613 -115 306 0
613 115 0
613 -306 0
-614 117 -307 0
614 -117 0
614 307 0
-615 -117 307 0
615 117 0
615 -307 0
-616 121 -308 0
616 -121 0
616 308 0
-617 -121 308 0
617 121 0
617 -308 0
-618 126 -390 0
618 -126 0
618 390 0
-619 -126 390 0
619 126 0
619 -390 0
-620 131 -107 0
620 -131 0
620 107 0
-621 -131 107 0
621 131 0
621 -107 0
-622 138 -391 0
622 -138 0
622 391 0
-623 -138 391 0
623 138 0
623 -391 0
-624 143 -113 0
624 -143 0
624 113 0
-625 -143 113 0
625 143 0
625 -113 0
-626 146 -234 0
626 -146 0
626 234 0
-627 -146 234 0
627 146 0
627 -234 0
-628 150 -238 0
628 -150 0
628 238 0
-629 -150 238 0
629 150 0
629 -238 0
-630 155 -122 0
630 -155 0
630 122 0
-631 -155 122 0
631 155 0
631 -122 0
-632 164 -134 0
632 -164 0
632 134 0
-633 -164 134 0
633 164 0
633 -134 0
-634 168 -241 0
634 -168 0
634 241 0
-635 -168 241 0
635 168 0
635 -241 0
-636 170 -244 0
636 -170 0
636 244 0
-637 -170 244 0
637 170 0
637 -244 0
-638 174 -248 0
638 -174 0
638 248 0
-639 -174 248 0
639 174 0
639 -248 0
-640 176 -151 0
640 -176 0
640 151 0
-641 -176 151 0
641 176 0
641 -151 0
-642 186 -392 0
642 -186 0
642 392 0
-643 -186 392 0
643 186 0
643 -392 0
-644 189 -309 0
644 -189 0
644 309 0
-645 -189 309 0
645 189 0
645 -309 0
-646 192 -393 0
646 -192 0
646 393 0
-647 -192 393 0
647 192 0
647 -393 0
-648 196 -251 0
648 -196 0
648 251 0
-649 -196 251 0
649 196 0
649 -251 0
-650 200 -252 0
650 -200 0
650 252 0
-651 -200 252 0
651 200 0
651 -252 0
-652 202 -182 0
652 -202 0
652 182 0
-653 -202 182 0
653 202 0
653 -182 0
-654 209 -253 0
654 -209 0
654 253 0
-655 -209 253 0
655 209 0
655 -253 0
-656 212 -258 0
656 -212 0
656 258 0
-657 -212 258 0
657 212 0
657 -258 0
-658 215 -263 0
658 -215 0
658 263 0
-659 -215 263 0
659 215 0
659 -263 0
-660 218 -267 0
660 -218 0
660 267 0
-661 -218 267 0
661 218 0
661 -267 0
-662 220 -270 0
662 -220 0
662 270 0
-663 -220 270 0
663 220 0
663 -270 0
-664 227 -210 0
664 -227 0
664 210 0
-665 -227 210 0
665 227 0
665 -210 0
-666 229 -275 0
666 -229 0
666 275 0
-667 -229 275 0
667 229 0
667 -275 0
-668 232 -279 0
668 -232 0
668 279 0
-669 -232 279 0
669 232 0
669 -279 0
-670 236 -116 0
670 -236 0
670 116 0
-671 -236 116 0
671 236 0
671 -116 0
-672 239 -119 0
672 -239 0
672 119 0
-673 -239 119 0
673 239 0
673 -119 0
-674 243 -141 0
674 -243 0
674 141 0
-675 -243 141 0
675 243 0
675 -141 0
-676 246 -145 0
676 -246 0
676 145 0
-677 -246 145 0
677 246 0
677 -145 0
-678 250 -148 0
678 -250 0
678 148 0
-679 -250 148 0
679 250 0
679 -148 0
-680 400 -401 0
680 -400 0
680 401 0
-681 -400 401 0
681 400 0
681 -401 0
-682 -251 400 0
682 251 0
682 -400 0
-683 251 -400 0
683 -251 0
683 400 0
-684 402 -403 0
684 -402 0
684 403 0
-685 -402 403 0
685 402 0
685 -403 0
-686 -252 402 0
686 252 0
686 -402 0
-687 252 -402 0
687 -252 0
687 402 0
-688 257 -188 0
688 -257 0
688 188 0
-689 -257 188 0
689 257 0
689 -188 0
-690 260 -191 0
690 -260 0
690 191 0
-691 -260 191 0
691 260 0
691 -191 0
-692 265 -195 0
692 -265 0
692 195 0
-693 -265 195 0
693 265 0
693 -195 0
-694 268 -198 0
694 -268 0
694 198 0
-695 -268 198 0
695 268 0
695 -198 0
-696 272 -207 0
696 -272 0
696 207 0
-697 -272 207 0
697 272 0
697 -207 0
-698 276 -213 0
698 -276 0
698 213 0
-699 -276 213 0
699 276 0
699 -213 0
-700 281 -216 0
700 -281 0
700 216 0
-701 -281 216 0
701 281 0
701 -216 0
-702 283 -172 0
702 -283 0
702 172 0
-703 -283 172 0
703 283 0
703 -172 0
-704 289 -219 0
704 -289 0
704 219 0
-705 -289 219 0
705 289 0
705 -219 0
-706 292 -222 0
706 -292 0
706 222 0
-707 -292 222 0
707 292 0
707 -222 0
-708 296 -231 0
708 -296 0
708 231 0
-709 -296 231 0
709 296 0
709 -231 0
-710 299 -228 0
710 -299 0
710 228 0
-711 -299 228 0
711 299 0
711 -228 0
-712 304 -169 0
712 -304 0
712 169 0
-713 -304 169 0
713 304 0
713 -169 0
-714 411 -412 0
714 -411 0
714 412 0
-715 -411 412 0
715 411 0
715 -412 0
-716 -306 411 0
716 306 0
716 -411 0
-717 306 -411 0
717 -306 0
717 411 0
-718 413 -414 0
718 -413 0
718 414 0
-719 -413 414 0
719 413 0
719 -414 0
-720 -307 413 0
720 307 0
720 -413 0
-721 307 -413 0
721 -307 0
721 413 0
-722 415 -416 0
722 -415 0
722 416 0
-723 -415 416 0
723 415 0
723 -416 0
-724 -308 415 0
724 308 0
724 -415 0
-725 308 -415 0
725 -308 0
725 415 0
-726 310 -417 0
726 -310 0
726 417 0
-727 -310 417 0
727 310 0
727 -417 0
418 0
419 0
420 0
421 0
422 0
423 0
424 0
425 0
426 0
427 0
428 0
429 0
430 0
431 0
432 0
433 0
434 0
435 0
436 0
437 0
438 0
439 0
440 0
441 0
442 0
443 0
444 0
445 0
446 0
447 0
448 0
449 0
450 0
451 0
452 0
453 0
454 0
455 0
456 0
457 0
458 0
459 0
460 0
461 0
462 0
463 0
464 0
465 0
466 0
467 0
468 0
469 0
470 0
471 0
472 0
473 0
474 0
475 0
476 0
477 0
478 0
479 0
480 0
481 0
482 0
483 0
484 0
485 0
486 0
487 0
488 0
489 0
490 0
491 0
492 0
493 0
494 0
495 0
496 0
497 0
498 0
499 0
500 0
501 0
502 0
503 0
504 0
505 0
506 0
507 0
508 0
509 0
510 0
511 0
512 0
513 0
514 0
515 0
516 0
517 0
518 0
519 0
520 0
521 0
522 0
523 0
524 0
525 0
526 0
527 0
528 0
529 0
530 0
531 0
532 0
533 0
534 0
535 0
536 0
538 0
539 0
540 0
541 0
542 0
544 0
545 0
546 0
547 0
548 0
549 0
550 0
551 0
552 0
553 0
554 0
555 0
556 0
557 0
558 0
559 0
560 0
561 0
562 0
563 0
564 0
565 0
566 0
567 0
568 0
569 0
570 0
571 0
572 0
573 0
574 0
575 0
576 0
577 0
578 0
579 0
580 0
581 0
582 0
583 0
584 0
585 0
586 0
587 0
588 0
589 0
591 0
592 0
593 0
594 0
595 0
597 0
598 0
599 0
600 0
601 0
603 0
604 0
605 0
606 0
607 0
609 0
610 0
611 0
612 0
613 0
614 0
615 0
616 0
617 0
618 0
619 0
620 0
621 0
622 0
623 0
624 0
625 0
626 0
627 0
628 0
629 0
630 0
631 0
632 0
633 0
634 0
635 0
636 0
637 0
638 0
639 0
640 0
641 0
642 0
643 0
644 0
645 0
646 0
647 0
648 0
649 0
650 0
651 0
652 0
653 0
654 0
655 0
656 0
657 0
658 0
659 0
660 0
661 0
662 0
663 0
664 0
665 0
666 0
667 0
668 0
669 0
670 0
671 0
672 0
673 0
674 0
675 0
676 0
677 0
678 0
679 0
680 0
681 0
682 0
683 0
684 0
685 0
686 0
687 0
688 0
689 0
690 0
691 0
692 0
693 0
694 0
695 0
696 0
697 0
698 0
699 0
700 0
701 0
702 0
703 0
704 0
705 0
706 0
707 0
708 0
709 0
710 0
711 0
712 0
713 0
714 0
715 0
716 0
717 0
718 0
719 0
720 0
721 0
722 0
723 0
724 0
725 0
726 0
727 0
2 0
4 0
6 0
8 0
10 0
12 0
14 0
16 0
18 0
20 0
22 0
24 0
26 0
28 0
30 0
32 0
34 0
36 0
38 0
40 0
42 0
44 0
46 0
48 0
50 0
52 0
54 0
56 0
58 0
60 0
62 0
64 0
66 0
68 0
70 0
72 0
74 0
76 0
78 0
80 0
82 0
84 0
86 0
88 0
90 0
92 0
94 0
96 0
98 0
100 0
102 0
104 0
106 0
