c BC-S1.2
p cnf 932 5955
-1 2 3 4 5 6 7 8 9 10 11 12 13 14 15 16 17 18 19 20 21 22 23 24 25 26 27 28 29 0
1 -2 0
1 -3 0
1 -4 0
1 -5 0
1 -6 0
1 -7 0
1 -8 0
1 -9 0
1 -10 0
1 -11 0
1 -12 0
1 -13 0
1 -14 0
1 -15 0
1 -16 0
1 -17 0
1 -18 0
1 -19 0
1 -20 0
1 -21 0
1 -22 0
1 -23 0
1 -24 0
1 -25 0
1 -26 0
1 -27 0
1 -28 0
1 -29 0
-30 31 32 33 34 35 36 37 38 39 40 41 42 43 44 45 46 47 48 49 50 51 52 53 54 55 56 57 0
30 -31 0
30 -32 0
30 -33 0
30 -34 0
30 -35 0
30 -36 0
30 -37 0
30 -38 0
30 -39 0
30 -40 0
30 -41 0
30 -42 0
30 -43 0
30 -44 0
30 -45 0
30 -46 0
30 -47 0
30 -48 0
30 -49 0
30 -50 0
30 -51 0
30 -52 0
30 -53 0
30 -54 0
30 -55 0
30 -56 0
30 -57 0
-58 59 60 61 62 63 64 65 66 67 68 69 70 71 72 73 74 75 76 77 78 79 80 81 82 83 84 0
58 -59 0
58 -60 0
58 -61 0
58 -62 0
58 -63 0
58 -64 0
58 -65 0
58 -66 0
58 -67 0
58 -68 0
58 -69 0
58 -70 0
58 -71 0
58 -72 0
58 -73 0
58 -74 0
58 -75 0
58 -76 0
58 -77 0
58 -78 0
58 -79 0
58 -80 0
58 -81 0
58 -82 0
58 -83 0
58 -84 0
-85 86 87 88 89 90 91 92 93 94 95 96 97 98 99 100 101 102 103 104 105 106 107 108 109 110 0
85 -86 0
85 -87 0
85 -88 0
85 -89 0
85 -90 0
85 -91 0
85 -92 0
85 -93 0
85 -94 0
85 -95 0
85 -96 0
85 -97 0
85 -98 0
85 -99 0
85 -100 0
85 -101 0
85 -102 0
85 -103 0
85 -104 0
85 -105 0
85 -106 0
85 -107 0
85 -108 0
85 -109 0
85 -110 0
-111 112 113 114 115 116 117 118 119 120 121 122 123 124 125 126 127 128 129 130 131 132 133 134 135 0
111 -112 0
111 -113 0
111 -114 0
111 -115 0
111 -116 0
111 -117 0
111 -118 0
111 -119 0
111 -120 0
111 -121 0
111 -122 0
111 -123 0
111 -124 0
111 -125 0
111 -126 0
111 -127 0
111 -128 0
111 -129 0
111 -130 0
111 -131 0
111 -132 0
111 -133 0
111 -134 0
111 -135 0
-136 137 138 139 140 141 142 143 144 145 146 147 148 149 150 151 152 153 154 155 156 157 158 159 0
136 -137 0
136 -138 0
136 -139 0
136 -140 0
136 -141 0
136 -142 0
136 -143 0
136 -144 0
136 -145 0
136 -146 0
136 -147 0
136 -148 0
136 -149 0
136 -150 0
136 -151 0
136 -152 0
136 -153 0
136 -154 0
136 -155 0
136 -156 0
136 -157 0
136 -158 0
136 -159 0
-160 161 162 163 164 165 166 167 168 169 170 171 172 173 174 175 176 177 178 179 180 181 182 0
160 -161 0
160 -162 0
160 -163 0
160 -164 0
160 -165 0
160 -166 0
160 -167 0
160 -168 0
160 -169 0
160 -170 0
160 -171 0
160 -172 0
160 -173 0
160 -174 0
160 -175 0
160 -176 0
160 -177 0
160 -178 0
160 -179 0
160 -180 0
160 -181 0
160 -182 0
-183 184 185 186 187 188 189 190 191 192 193 194 195 196 197 198 199 200 201 202 203 204 0
183 -184 0
183 -185 0
183 -186 0
183 -187 0
183 -188 0
183 -189 0
183 -190 0
183 -191 0
183 -192 0
183 -193 0
183 -194 0
183 -195 0
183 -196 0
183 -197 0
183 -198 0
183 -199 0
183 -200 0
183 -201 0
183 -202 0
183 -203 0
183 -204 0
-205 206 207 208 209 210 211 212 213 214 215 216 217 218 219 220 221 222 223 224 225 0
205 -206 0
205 -207 0
205 -208 0
205 -209 0
205 -210 0
205 -211 0
205 -212 0
205 -213 0
205 -214 0
205 -215 0
205 -216 0
205 -217 0
205 -218 0
205 -219 0
205 -220 0
205 -221 0
205 -222 0
205 -223 0
205 -224 0
205 -225 0
-226 227 228 229 230 231 232 233 234 235 236 237 238 239 240 241 242 243 244 245 0
226 -227 0
226 -228 0
226 -229 0
226 -230 0
226 -231 0
226 -232 0
226 -233 0
226 -234 0
226 -235 0
226 -236 0
226 -237 0
226 -238 0
226 -239 0
226 -240 0
226 -241 0
226 -242 0
226 -243 0
226 -244 0
226 -245 0
-246 247 248 249 250 251 252 253 254 255 256 257 258 259 260 261 262 263 264 0
246 -247 0
246 -248 0
246 -249 0
246 -250 0
246 -251 0
246 -252 0
246 -253 0
246 -254 0
246 -255 0
246 -256 0
246 -257 0
246 -258 0
246 -259 0
246 -260 0
246 -261 0
246 -262 0
246 -263 0
246 -264 0
-265 266 267 268 269 270 271 272 273 274 275 276 277 278 279 280 281 282 0
265 -266 0
265 -267 0
265 -268 0
265 -269 0
265 -270 0
265 -271 0
265 -272 0
265 -273 0
265 -274 0
265 -275 0
265 -276 0
265 -277 0
265 -278 0
265 -279 0
265 -280 0
265 -281 0
265 -282 0
-283 284 285 286 287 288 289 290 291 292 293 294 295 296 297 298 299 0
283 -284 0
283 -285 0
283 -286 0
283 -287 0
283 -288 0
283 -289 0
283 -290 0
283 -291 0
283 -292 0
283 -293 0
283 -294 0
283 -295 0
283 -296 0
283 -297 0
283 -298 0
283 -299 0
-300 301 302 303 304 305 306 307 308 309 310 311 312 313 314 315 0
300 -301 0
300 -302 0
300 -303 0
300 -304 0
300 -305 0
300 -306 0
300 -307 0
300 -308 0
300 -309 0
300 -310 0
300 -311 0
300 -312 0
300 -313 0
300 -314 0
300 -315 0
-316 317 318 319 320 321 322 323 324 325 326 327 328 329 330 0
316 -317 0
316 -318 0
316 -319 0
316 -320 0
316 -321 0
316 -322 0
316 -323 0
316 -324 0
316 -325 0
316 -326 0
316 -327 0
316 -328 0
316 -329 0
316 -330 0
-331 332 333 334 335 336 337 338 339 340 341 342 343 344 0
331 -332 0
331 -333 0
331 -334 0
331 -335 0
331 -336 0
331 -337 0
331 -338 0
331 -339 0
331 -340 0
331 -341 0
331 -342 0
331 -343 0
331 -344 0
-345 346 347 348 349 350 351 352 353 354 355 356 357 0
345 -346 0
345 -347 0
345 -348 0
345 -349 0
345 -350 0
345 -351 0
345 -352 0
345 -353 0
345 -354 0
345 -355 0
345 -356 0
345 -357 0
-358 359 360 361 362 363 364 365 366 367 368 369 0
358 -359 0
358 -360 0
358 -361 0
358 -362 0
358 -363 0
358 -364 0
358 -365 0
358 -366 0
358 -367 0
358 -368 0
358 -369 0
-370 371 372 373 374 375 376 377 378 379 380 0
370 -371 0
370 -372 0
370 -373 0
370 -374 0
370 -375 0
370 -376 0
370 -377 0
370 -378 0
370 -379 0
370 -380 0
-381 382 383 384 385 386 387 388 389 390 0
381 -382 0
381 -383 0
381 -384 0
381 -385 0
381 -386 0
381 -387 0
381 -388 0
381 -389 0
381 -390 0
-391 392 393 394 395 396 397 398 399 0
391 -392 0
391 -393 0
391 -394 0
391 -395 0
391 -396 0
391 -397 0
391 -398 0
391 -399 0
-400 401 402 403 404 405 406 407 0
400 -401 0
400 -402 0
400 -403 0
400 -404 0
400 -405 0
400 -406 0
400 -407 0
-408 409 410 411 412 413 414 0
408 -409 0
408 -410 0
408 -411 0
408 -412 0
408 -413 0
408 -414 0
-415 416 417 418 419 420 0
415 -416 0
415 -417 0
415 -418 0
415 -419 0
415 -420 0
-421 422 423 424 425 0
421 -422 0
421 -423 0
421 -424 0
421 -425 0
-426 427 428 429 0
426 -427 0
426 -428 0
426 -429 0
-430 431 432 0
430 -431 0
430 -432 0
433 -434 0
-433 434 0
2 -435 -30 0
-2 435 0
-2 30 0
3 -436 -85 58 30 0
-3 436 0
-3 85 0
-3 -58 0
-3 -30 0
4 -437 -345 331 316 300 283 265 246 226 205 183 160 136 111 85 58 30 0
-4 437 0
-4 345 0
-4 -331 0
-4 -316 0
-4 -300 0
-4 -283 0
-4 -265 0
-4 -246 0
-4 -226 0
-4 -205 0
-4 -183 0
-4 -160 0
-4 -136 0
-4 -111 0
-4 -85 0
-4 -58 0
-4 -30 0
5 -438 -226 205 183 160 136 111 85 58 30 0
-5 438 0
-5 226 0
-5 -205 0
-5 -183 0
-5 -160 0
-5 -136 0
-5 -111 0
-5 -85 0
-5 -58 0
-5 -30 0
6 -439 -408 400 391 381 370 358 345 331 316 300 283 265 246 226 205 183 160 136 111 85 58 30 0
-6 439 0
-6 408 0
-6 -400 0
-6 -391 0
-6 -381 0
-6 -370 0
-6 -358 0
-6 -345 0
-6 -331 0
-6 -316 0
-6 -300 0
-6 -283 0
-6 -265 0
-6 -246 0
-6 -226 0
-6 -205 0
-6 -183 0
-6 -160 0
-6 -136 0
-6 -111 0
-6 -85 0
-6 -58 0
-6 -30 0
7 -440 -331 316 300 283 265 246 226 205 183 160 136 111 85 58 30 0
-7 440 0
-7 331 0
-7 -316 0
-7 -300 0
-7 -283 0
-7 -265 0
-7 -246 0
-7 -226 0
-7 -205 0
-7 -183 0
-7 -160 0
-7 -136 0
-7 -111 0
-7 -85 0
-7 -58 0
-7 -30 0
8 -441 -136 111 85 58 30 0
-8 441 0
-8 136 0
-8 -111 0
-8 -85 0
-8 -58 0
-8 -30 0
9 -442 -381 370 358 345 331 316 300 283 265 246 226 205 183 160 136 111 85 58 30 0
-9 442 0
-9 381 0
-9 -370 0
-9 -358 0
-9 -345 0
-9 -331 0
-9 -316 0
-9 -300 0
-9 -283 0
-9 -265 0
-9 -246 0
-9 -226 0
-9 -205 0
-9 -183 0
-9 -160 0
-9 -136 0
-9 -111 0
-9 -85 0
-9 -58 0
-9 -30 0
10 -443 -265 246 226 205 183 160 136 111 85 58 30 0
-10 443 0
-10 265 0
-10 -246 0
-10 -226 0
-10 -205 0
-10 -183 0
-10 -160 0
-10 -136 0
-10 -111 0
-10 -85 0
-10 -58 0
-10 -30 0
11 -444 -160 136 111 85 58 30 0
-11 444 0
-11 160 0
-11 -136 0
-11 -111 0
-11 -85 0
-11 -58 0
-11 -30 0
12 -445 -58 30 0
-12 445 0
-12 58 0
-12 -30 0
13 -446 -433 430 426 421 415 408 400 391 381 370 358 345 331 316 300 283 265 246 226 205 183 160 136 111 85 58 30 0
-13 446 0
-13 433 0
-13 -430 0
-13 -426 0
-13 -421 0
-13 -415 0
-13 -408 0
-13 -400 0
-13 -391 0
-13 -381 0
-13 -370 0
-13 -358 0
-13 -345 0
-13 -331 0
-13 -316 0
-13 -300 0
-13 -283 0
-13 -265 0
-13 -246 0
-13 -226 0
-13 -205 0
-13 -183 0
-13 -160 0
-13 -136 0
-13 -111 0
-13 -85 0
-13 -58 0
-13 -30 0
14 -447 -183 160 136 111 85 58 30 0
-14 447 0
-14 183 0
-14 -160 0
-14 -136 0
-14 -111 0
-14 -85 0
-14 -58 0
-14 -30 0
15 -448 -205 183 160 136 111 85 58 30 0
-15 448 0
-15 205 0
-15 -183 0
-15 -160 0
-15 -136 0
-15 -111 0
-15 -85 0
-15 -58 0
-15 -30 0
16 -449 -430 426 421 415 408 400 391 381 370 358 345 331 316 300 283 265 246 226 205 183 160 136 111 85 58 30 0
-16 449 0
-16 430 0
-16 -426 0
-16 -421 0
-16 -415 0
-16 -408 0
-16 -400 0
-16 -391 0
-16 -381 0
-16 -370 0
-16 -358 0
-16 -345 0
-16 -331 0
-16 -316 0
-16 -300 0
-16 -283 0
-16 -265 0
-16 -246 0
-16 -226 0
-16 -205 0
-16 -183 0
-16 -160 0
-16 -136 0
-16 -111 0
-16 -85 0
-16 -58 0
-16 -30 0
17 -450 -415 408 400 391 381 370 358 345 331 316 300 283 265 246 226 205 183 160 136 111 85 58 30 0
-17 450 0
-17 415 0
-17 -408 0
-17 -400 0
-17 -391 0
-17 -381 0
-17 -370 0
-17 -358 0
-17 -345 0
-17 -331 0
-17 -316 0
-17 -300 0
-17 -283 0
-17 -265 0
-17 -246 0
-17 -226 0
-17 -205 0
-17 -183 0
-17 -160 0
-17 -136 0
-17 -111 0
-17 -85 0
-17 -58 0
-17 -30 0
18 -451 -358 345 331 316 300 283 265 246 226 205 183 160 136 111 85 58 30 0
-18 451 0
-18 358 0
-18 -345 0
-18 -331 0
-18 -316 0
-18 -300 0
-18 -283 0
-18 -265 0
-18 -246 0
-18 -226 0
-18 -205 0
-18 -183 0
-18 -160 0
-18 -136 0
-18 -111 0
-18 -85 0
-18 -58 0
-18 -30 0
19 -452 -421 415 408 400 391 381 370 358 345 331 316 300 283 265 246 226 205 183 160 136 111 85 58 30 0
-19 452 0
-19 421 0
-19 -415 0
-19 -408 0
-19 -400 0
-19 -391 0
-19 -381 0
-19 -370 0
-19 -358 0
-19 -345 0
-19 -331 0
-19 -316 0
-19 -300 0
-19 -283 0
-19 -265 0
-19 -246 0
-19 -226 0
-19 -205 0
-19 -183 0
-19 -160 0
-19 -136 0
-19 -111 0
-19 -85 0
-19 -58 0
-19 -30 0
20 -453 -316 300 283 265 246 226 205 183 160 136 111 85 58 30 0
-20 453 0
-20 316 0
-20 -300 0
-20 -283 0
-20 -265 0
-20 -246 0
-20 -226 0
-20 -205 0
-20 -183 0
-20 -160 0
-20 -136 0
-20 -111 0
-20 -85 0
-20 -58 0
-20 -30 0
21 -454 -283 265 246 226 205 183 160 136 111 85 58 30 0
-21 454 0
-21 283 0
-21 -265 0
-21 -246 0
-21 -226 0
-21 -205 0
-21 -183 0
-21 -160 0
-21 -136 0
-21 -111 0
-21 -85 0
-21 -58 0
-21 -30 0
22 -455 -400 391 381 370 358 345 331 316 300 283 265 246 226 205 183 160 136 111 85 58 30 0
-22 455 0
-22 400 0
-22 -391 0
-22 -381 0
-22 -370 0
-22 -358 0
-22 -345 0
-22 -331 0
-22 -316 0
-22 -300 0
-22 -283 0
-22 -265 0
-22 -246 0
-22 -226 0
-22 -205 0
-22 -183 0
-22 -160 0
-22 -136 0
-22 -111 0
-22 -85 0
-22 -58 0
-22 -30 0
23 -456 -391 381 370 358 345 331 316 300 283 265 246 226 205 183 160 136 111 85 58 30 0
-23 456 0
-23 391 0
-23 -381 0
-23 -370 0
-23 -358 0
-23 -345 0
-23 -331 0
-23 -316 0
-23 -300 0
-23 -283 0
-23 -265 0
-23 -246 0
-23 -226 0
-23 -205 0
-23 -183 0
-23 -160 0
-23 -136 0
-23 -111 0
-23 -85 0
-23 -58 0
-23 -30 0
24 -457 -426 421 415 408 400 391 381 370 358 345 331 316 300 283 265 246 226 205 183 160 136 111 85 58 30 0
-24 457 0
-24 426 0
-24 -421 0
-24 -415 0
-24 -408 0
-24 -400 0
-24 -391 0
-24 -381 0
-24 -370 0
-24 -358 0
-24 -345 0
-24 -331 0
-24 -316 0
-24 -300 0
-24 -283 0
-24 -265 0
-24 -246 0
-24 -226 0
-24 -205 0
-24 -183 0
-24 -160 0
-24 -136 0
-24 -111 0
-24 -85 0
-24 -58 0
-24 -30 0
25 -458 -111 85 58 30 0
-25 458 0
-25 111 0
-25 -85 0
-25 -58 0
-25 -30 0
26 -459 -300 283 265 246 226 205 183 160 136 111 85 58 30 0
-26 459 0
-26 300 0
-26 -283 0
-26 -265 0
-26 -246 0
-26 -226 0
-26 -205 0
-26 -183 0
-26 -160 0
-26 -136 0
-26 -111 0
-26 -85 0
-26 -58 0
-26 -30 0
27 -460 -370 358 345 331 316 300 283 265 246 226 205 183 160 136 111 85 58 30 0
-27 460 0
-27 370 0
-27 -358 0
-27 -345 0
-27 -331 0
-27 -316 0
-27 -300 0
-27 -283 0
-27 -265 0
-27 -246 0
-27 -226 0
-27 -205 0
-27 -183 0
-27 -160 0
-27 -136 0
-27 -111 0
-27 -85 0
-27 -58 0
-27 -30 0
28 -461 -462 433 430 426 421 415 408 400 391 381 370 358 345 331 316 300 283 265 246 226 205 183 160 136 111 85 58 30 0
-28 461 0
-28 462 0
-28 -433 0
-28 -430 0
-28 -426 0
-28 -421 0
-28 -415 0
-28 -408 0
-28 -400 0
-28 -391 0
-28 -381 0
-28 -370 0
-28 -358 0
-28 -345 0
-28 -331 0
-28 -316 0
-28 -300 0
-28 -283 0
-28 -265 0
-28 -246 0
-28 -226 0
-28 -205 0
-28 -183 0
-28 -160 0
-28 -136 0
-28 -111 0
-28 -85 0
-28 -58 0
-28 -30 0
29 -463 -246 226 205 183 160 136 111 85 58 30 0
-29 463 0
-29 246 0
-29 -226 0
-29 -205 0
-29 -183 0
-29 -160 0
-29 -136 0
-29 -111 0
-29 -85 0
-29 -58 0
-29 -30 0
464 -465 -421 415 408 400 391 381 370 358 345 331 316 300 283 265 246 226 205 183 160 136 111 85 58 30 1 0
-464 465 0
-464 421 0
-464 -415 0
-464 -408 0
-464 -400 0
-464 -391 0
-464 -381 0
-464 -370 0
-464 -358 0
-464 -345 0
-464 -331 0
-464 -316 0
-464 -300 0
-464 -283 0
-464 -265 0
-464 -246 0
-464 -226 0
-464 -205 0
-464 -183 0
-464 -160 0
-464 -136 0
-464 -111 0
-464 -85 0
-464 -58 0
-464 -30 0
-464 -1 0
466 -467 -408 400 391 381 370 358 345 331 316 300 283 265 246 226 205 183 160 136 111 85 58 30 1 0
-466 467 0
-466 408 0
-466 -400 0
-466 -391 0
-466 -381 0
-466 -370 0
-466 -358 0
-466 -345 0
-466 -331 0
-466 -316 0
-466 -300 0
-466 -283 0
-466 -265 0
-466 -246 0
-466 -226 0
-466 -205 0
-466 -183 0
-466 -160 0
-466 -136 0
-466 -111 0
-466 -85 0
-466 -58 0
-466 -30 0
-466 -1 0
468 -469 -462 433 430 426 421 415 408 400 391 381 370 358 345 331 316 300 283 265 246 226 205 183 160 136 111 85 58 30 1 0
-468 469 0
-468 462 0
-468 -433 0
-468 -430 0
-468 -426 0
-468 -421 0
-468 -415 0
-468 -408 0
-468 -400 0
-468 -391 0
-468 -381 0
-468 -370 0
-468 -358 0
-468 -345 0
-468 -331 0
-468 -316 0
-468 -300 0
-468 -283 0
-468 -265 0
-468 -246 0
-468 -226 0
-468 -205 0
-468 -183 0
-468 -160 0
-468 -136 0
-468 -111 0
-468 -85 0
-468 -58 0
-468 -30 0
-468 -1 0
470 -471 -226 205 183 160 136 111 85 58 30 1 0
-470 471 0
-470 226 0
-470 -205 0
-470 -183 0
-470 -160 0
-470 -136 0
-470 -111 0
-470 -85 0
-470 -58 0
-470 -30 0
-470 -1 0
472 -473 -283 265 246 226 205 183 160 136 111 85 58 30 1 0
-472 473 0
-472 283 0
-472 -265 0
-472 -246 0
-472 -226 0
-472 -205 0
-472 -183 0
-472 -160 0
-472 -136 0
-472 -111 0
-472 -85 0
-472 -58 0
-472 -30 0
-472 -1 0
474 -475 -30 1 0
-474 475 0
-474 30 0
-474 -1 0
476 -477 -58 30 1 0
-476 477 0
-476 58 0
-476 -30 0
-476 -1 0
478 -479 -370 358 345 331 316 300 283 265 246 226 205 183 160 136 111 85 58 30 1 0
-478 479 0
-478 370 0
-478 -358 0
-478 -345 0
-478 -331 0
-478 -316 0
-478 -300 0
-478 -283 0
-478 -265 0
-478 -246 0
-478 -226 0
-478 -205 0
-478 -183 0
-478 -160 0
-478 -136 0
-478 -111 0
-478 -85 0
-478 -58 0
-478 -30 0
-478 -1 0
480 -481 -358 345 331 316 300 283 265 246 226 205 183 160 136 111 85 58 30 1 0
-480 481 0
-480 358 0
-480 -345 0
-480 -331 0
-480 -316 0
-480 -300 0
-480 -283 0
-480 -265 0
-480 -246 0
-480 -226 0
-480 -205 0
-480 -183 0
-480 -160 0
-480 -136 0
-480 -111 0
-480 -85 0
-480 -58 0
-480 -30 0
-480 -1 0
482 -483 -111 85 58 30 1 0
-482 483 0
-482 111 0
-482 -85 0
-482 -58 0
-482 -30 0
-482 -1 0
484 -485 -265 246 226 205 183 160 136 111 85 58 30 1 0
-484 485 0
-484 265 0
-484 -246 0
-484 -226 0
-484 -205 0
-484 -183 0
-484 -160 0
-484 -136 0
-484 -111 0
-484 -85 0
-484 -58 0
-484 -30 0
-484 -1 0
486 -487 -426 421 415 408 400 391 381 370 358 345 331 316 300 283 265 246 226 205 183 160 136 111 85 58 30 1 0
-486 487 0
-486 426 0
-486 -421 0
-486 -415 0
-486 -408 0
-486 -400 0
-486 -391 0
-486 -381 0
-486 -370 0
-486 -358 0
-486 -345 0
-486 -331 0
-486 -316 0
-486 -300 0
-486 -283 0
-486 -265 0
-486 -246 0
-486 -226 0
-486 -205 0
-486 -183 0
-486 -160 0
-486 -136 0
-486 -111 0
-486 -85 0
-486 -58 0
-486 -30 0
-486 -1 0
488 -489 -400 391 381 370 358 345 331 316 300 283 265 246 226 205 183 160 136 111 85 58 30 1 0
-488 489 0
-488 400 0
-488 -391 0
-488 -381 0
-488 -370 0
-488 -358 0
-488 -345 0
-488 -331 0
-488 -316 0
-488 -300 0
-488 -283 0
-488 -265 0
-488 -246 0
-488 -226 0
-488 -205 0
-488 -183 0
-488 -160 0
-488 -136 0
-488 -111 0
-488 -85 0
-488 -58 0
-488 -30 0
-488 -1 0
490 -491 -316 300 283 265 246 226 205 183 160 136 111 85 58 30 1 0
-490 491 0
-490 316 0
-490 -300 0
-490 -283 0
-490 -265 0
-490 -246 0
-490 -226 0
-490 -205 0
-490 -183 0
-490 -160 0
-490 -136 0
-490 -111 0
-490 -85 0
-490 -58 0
-490 -30 0
-490 -1 0
492 -493 -381 370 358 345 331 316 300 283 265 246 226 205 183 160 136 111 85 58 30 1 0
-492 493 0
-492 381 0
-492 -370 0
-492 -358 0
-492 -345 0
-492 -331 0
-492 -316 0
-492 -300 0
-492 -283 0
-492 -265 0
-492 -246 0
-492 -226 0
-492 -205 0
-492 -183 0
-492 -160 0
-492 -136 0
-492 -111 0
-492 -85 0
-492 -58 0
-492 -30 0
-492 -1 0
494 -495 -1 0
-494 495 0
-494 1 0
496 -497 -85 58 30 1 0
-496 497 0
-496 85 0
-496 -58 0
-496 -30 0
-496 -1 0
498 -499 -430 426 421 415 408 400 391 381 370 358 345 331 316 300 283 265 246 226 205 183 160 136 111 85 58 30 1 0
-498 499 0
-498 430 0
-498 -426 0
-498 -421 0
-498 -415 0
-498 -408 0
-498 -400 0
-498 -391 0
-498 -381 0
-498 -370 0
-498 -358 0
-498 -345 0
-498 -331 0
-498 -316 0
-498 -300 0
-498 -283 0
-498 -265 0
-498 -246 0
-498 -226 0
-498 -205 0
-498 -183 0
-498 -160 0
-498 -136 0
-498 -111 0
-498 -85 0
-498 -58 0
-498 -30 0
-498 -1 0
500 -501 -300 283 265 246 226 205 183 160 136 111 85 58 30 1 0
-500 501 0
-500 300 0
-500 -283 0
-500 -265 0
-500 -246 0
-500 -226 0
-500 -205 0
-500 -183 0
-500 -160 0
-500 -136 0
-500 -111 0
-500 -85 0
-500 -58 0
-500 -30 0
-500 -1 0
502 -503 -345 331 316 300 283 265 246 226 205 183 160 136 111 85 58 30 1 0
-502 503 0
-502 345 0
-502 -331 0
-502 -316 0
-502 -300 0
-502 -283 0
-502 -265 0
-502 -246 0
-502 -226 0
-502 -205 0
-502 -183 0
-502 -160 0
-502 -136 0
-502 -111 0
-502 -85 0
-502 -58 0
-502 -30 0
-502 -1 0
504 -505 -433 430 426 421 415 408 400 391 381 370 358 345 331 316 300 283 265 246 226 205 183 160 136 111 85 58 30 1 0
-504 505 0
-504 433 0
-504 -430 0
-504 -426 0
-504 -421 0
-504 -415 0
-504 -408 0
-504 -400 0
-504 -391 0
-504 -381 0
-504 -370 0
-504 -358 0
-504 -345 0
-504 -331 0
-504 -316 0
-504 -300 0
-504 -283 0
-504 -265 0
-504 -246 0
-504 -226 0
-504 -205 0
-504 -183 0
-504 -160 0
-504 -136 0
-504 -111 0
-504 -85 0
-504 -58 0
-504 -30 0
-504 -1 0
506 -507 -246 226 205 183 160 136 111 85 58 30 1 0
-506 507 0
-506 246 0
-506 -226 0
-506 -205 0
-506 -183 0
-506 -160 0
-506 -136 0
-506 -111 0
-506 -85 0
-506 -58 0
-506 -30 0
-506 -1 0
508 -509 -136 111 85 58 30 1 0
-508 509 0
-508 136 0
-508 -111 0
-508 -85 0
-508 -58 0
-508 -30 0
-508 -1 0
510 -511 -391 381 370 358 345 331 316 300 283 265 246 226 205 183 160 136 111 85 58 30 1 0
-510 511 0
-510 391 0
-510 -381 0
-510 -370 0
-510 -358 0
-510 -345 0
-510 -331 0
-510 -316 0
-510 -300 0
-510 -283 0
-510 -265 0
-510 -246 0
-510 -226 0
-510 -205 0
-510 -183 0
-510 -160 0
-510 -136 0
-510 -111 0
-510 -85 0
-510 -58 0
-510 -30 0
-510 -1 0
512 -513 -183 160 136 111 85 58 30 1 0
-512 513 0
-512 183 0
-512 -160 0
-512 -136 0
-512 -111 0
-512 -85 0
-512 -58 0
-512 -30 0
-512 -1 0
514 -515 -160 136 111 85 58 30 1 0
-514 515 0
-514 160 0
-514 -136 0
-514 -111 0
-514 -85 0
-514 -58 0
-514 -30 0
-514 -1 0
516 -517 -205 183 160 136 111 85 58 30 1 0
-516 517 0
-516 205 0
-516 -183 0
-516 -160 0
-516 -136 0
-516 -111 0
-516 -85 0
-516 -58 0
-516 -30 0
-516 -1 0
518 -519 -415 408 400 391 381 370 358 345 331 316 300 283 265 246 226 205 183 160 136 111 85 58 30 1 0
-518 519 0
-518 415 0
-518 -408 0
-518 -400 0
-518 -391 0
-518 -381 0
-518 -370 0
-518 -358 0
-518 -345 0
-518 -331 0
-518 -316 0
-518 -300 0
-518 -283 0
-518 -265 0
-518 -246 0
-518 -226 0
-518 -205 0
-518 -183 0
-518 -160 0
-518 -136 0
-518 -111 0
-518 -85 0
-518 -58 0
-518 -30 0
-518 -1 0
520 -521 -331 316 300 283 265 246 226 205 183 160 136 111 85 58 30 1 0
-520 521 0
-520 331 0
-520 -316 0
-520 -300 0
-520 -283 0
-520 -265 0
-520 -246 0
-520 -226 0
-520 -205 0
-520 -183 0
-520 -160 0
-520 -136 0
-520 -111 0
-520 -85 0
-520 -58 0
-520 -30 0
-520 -1 0
31 -522 -85 58 0
-31 522 0
-31 85 0
-31 -58 0
32 -523 -391 381 370 358 345 331 316 300 283 265 246 226 205 183 160 136 111 85 58 0
-32 523 0
-32 391 0
-32 -381 0
-32 -370 0
-32 -358 0
-32 -345 0
-32 -331 0
-32 -316 0
-32 -300 0
-32 -283 0
-32 -265 0
-32 -246 0
-32 -226 0
-32 -205 0
-32 -183 0
-32 -160 0
-32 -136 0
-32 -111 0
-32 -85 0
-32 -58 0
33 -524 -426 421 415 408 400 391 381 370 358 345 331 316 300 283 265 246 226 205 183 160 136 111 85 58 0
-33 524 0
-33 426 0
-33 -421 0
-33 -415 0
-33 -408 0
-33 -400 0
-33 -391 0
-33 -381 0
-33 -370 0
-33 -358 0
-33 -345 0
-33 -331 0
-33 -316 0
-33 -300 0
-33 -283 0
-33 -265 0
-33 -246 0
-33 -226 0
-33 -205 0
-33 -183 0
-33 -160 0
-33 -136 0
-33 -111 0
-33 -85 0
-33 -58 0
34 -525 -400 391 381 370 358 345 331 316 300 283 265 246 226 205 183 160 136 111 85 58 0
-34 525 0
-34 400 0
-34 -391 0
-34 -381 0
-34 -370 0
-34 -358 0
-34 -345 0
-34 -331 0
-34 -316 0
-34 -300 0
-34 -283 0
-34 -265 0
-34 -246 0
-34 -226 0
-34 -205 0
-34 -183 0
-34 -160 0
-34 -136 0
-34 -111 0
-34 -85 0
-34 -58 0
35 -526 -462 433 430 426 421 415 408 400 391 381 370 358 345 331 316 300 283 265 246 226 205 183 160 136 111 85 58 0
-35 526 0
-35 462 0
-35 -433 0
-35 -430 0
-35 -426 0
-35 -421 0
-35 -415 0
-35 -408 0
-35 -400 0
-35 -391 0
-35 -381 0
-35 -370 0
-35 -358 0
-35 -345 0
-35 -331 0
-35 -316 0
-35 -300 0
-35 -283 0
-35 -265 0
-35 -246 0
-35 -226 0
-35 -205 0
-35 -183 0
-35 -160 0
-35 -136 0
-35 -111 0
-35 -85 0
-35 -58 0
36 -527 -358 345 331 316 300 283 265 246 226 205 183 160 136 111 85 58 0
-36 527 0
-36 358 0
-36 -345 0
-36 -331 0
-36 -316 0
-36 -300 0
-36 -283 0
-36 -265 0
-36 -246 0
-36 -226 0
-36 -205 0
-36 -183 0
-36 -160 0
-36 -136 0
-36 -111 0
-36 -85 0
-36 -58 0
37 -528 -283 265 246 226 205 183 160 136 111 85 58 0
-37 528 0
-37 283 0
-37 -265 0
-37 -246 0
-37 -226 0
-37 -205 0
-37 -183 0
-37 -160 0
-37 -136 0
-37 -111 0
-37 -85 0
-37 -58 0
38 -529 -433 430 426 421 415 408 400 391 381 370 358 345 331 316 300 283 265 246 226 205 183 160 136 111 85 58 0
-38 529 0
-38 433 0
-38 -430 0
-38 -426 0
-38 -421 0
-38 -415 0
-38 -408 0
-38 -400 0
-38 -391 0
-38 -381 0
-38 -370 0
-38 -358 0
-38 -345 0
-38 -331 0
-38 -316 0
-38 -300 0
-38 -283 0
-38 -265 0
-38 -246 0
-38 -226 0
-38 -205 0
-38 -183 0
-38 -160 0
-38 -136 0
-38 -111 0
-38 -85 0
-38 -58 0
39 -530 -421 415 408 400 391 381 370 358 345 331 316 300 283 265 246 226 205 183 160 136 111 85 58 0
-39 530 0
-39 421 0
-39 -415 0
-39 -408 0
-39 -400 0
-39 -391 0
-39 -381 0
-39 -370 0
-39 -358 0
-39 -345 0
-39 -331 0
-39 -316 0
-39 -300 0
-39 -283 0
-39 -265 0
-39 -246 0
-39 -226 0
-39 -205 0
-39 -183 0
-39 -160 0
-39 -136 0
-39 -111 0
-39 -85 0
-39 -58 0
40 -531 -331 316 300 283 265 246 226 205 183 160 136 111 85 58 0
-40 531 0
-40 331 0
-40 -316 0
-40 -300 0
-40 -283 0
-40 -265 0
-40 -246 0
-40 -226 0
-40 -205 0
-40 -183 0
-40 -160 0
-40 -136 0
-40 -111 0
-40 -85 0
-40 -58 0
41 -532 -381 370 358 345 331 316 300 283 265 246 226 205 183 160 136 111 85 58 0
-41 532 0
-41 381 0
-41 -370 0
-41 -358 0
-41 -345 0
-41 -331 0
-41 -316 0
-41 -300 0
-41 -283 0
-41 -265 0
-41 -246 0
-41 -226 0
-41 -205 0
-41 -183 0
-41 -160 0
-41 -136 0
-41 -111 0
-41 -85 0
-41 -58 0
42 -533 -345 331 316 300 283 265 246 226 205 183 160 136 111 85 58 0
-42 533 0
-42 345 0
-42 -331 0
-42 -316 0
-42 -300 0
-42 -283 0
-42 -265 0
-42 -246 0
-42 -226 0
-42 -205 0
-42 -183 0
-42 -160 0
-42 -136 0
-42 -111 0
-42 -85 0
-42 -58 0
43 -534 -183 160 136 111 85 58 0
-43 534 0
-43 183 0
-43 -160 0
-43 -136 0
-43 -111 0
-43 -85 0
-43 -58 0
44 -535 -246 226 205 183 160 136 111 85 58 0
-44 535 0
-44 246 0
-44 -226 0
-44 -205 0
-44 -183 0
-44 -160 0
-44 -136 0
-44 -111 0
-44 -85 0
-44 -58 0
45 -536 -370 358 345 331 316 300 283 265 246 226 205 183 160 136 111 85 58 0
-45 536 0
-45 370 0
-45 -358 0
-45 -345 0
-45 -331 0
-45 -316 0
-45 -300 0
-45 -283 0
-45 -265 0
-45 -246 0
-45 -226 0
-45 -205 0
-45 -183 0
-45 -160 0
-45 -136 0
-45 -111 0
-45 -85 0
-45 -58 0
46 -537 -265 246 226 205 183 160 136 111 85 58 0
-46 537 0
-46 265 0
-46 -246 0
-46 -226 0
-46 -205 0
-46 -183 0
-46 -160 0
-46 -136 0
-46 -111 0
-46 -85 0
-46 -58 0
47 -538 -160 136 111 85 58 0
-47 538 0
-47 160 0
-47 -136 0
-47 -111 0
-47 -85 0
-47 -58 0
48 -539 -408 400 391 381 370 358 345 331 316 300 283 265 246 226 205 183 160 136 111 85 58 0
-48 539 0
-48 408 0
-48 -400 0
-48 -391 0
-48 -381 0
-48 -370 0
-48 -358 0
-48 -345 0
-48 -331 0
-48 -316 0
-48 -300 0
-48 -283 0
-48 -265 0
-48 -246 0
-48 -226 0
-48 -205 0
-48 -183 0
-48 -160 0
-48 -136 0
-48 -111 0
-48 -85 0
-48 -58 0
49 -540 -430 426 421 415 408 400 391 381 370 358 345 331 316 300 283 265 246 226 205 183 160 136 111 85 58 0
-49 540 0
-49 430 0
-49 -426 0
-49 -421 0
-49 -415 0
-49 -408 0
-49 -400 0
-49 -391 0
-49 -381 0
-49 -370 0
-49 -358 0
-49 -345 0
-49 -331 0
-49 -316 0
-49 -300 0
-49 -283 0
-49 -265 0
-49 -246 0
-49 -226 0
-49 -205 0
-49 -183 0
-49 -160 0
-49 -136 0
-49 -111 0
-49 -85 0
-49 -58 0
50 -541 -58 0
-50 541 0
-50 58 0
51 -542 -136 111 85 58 0
-51 542 0
-51 136 0
-51 -111 0
-51 -85 0
-51 -58 0
52 -543 -226 205 183 160 136 111 85 58 0
-52 543 0
-52 226 0
-52 -205 0
-52 -183 0
-52 -160 0
-52 -136 0
-52 -111 0
-52 -85 0
-52 -58 0
53 -544 -300 283 265 246 226 205 183 160 136 111 85 58 0
-53 544 0
-53 300 0
-53 -283 0
-53 -265 0
-53 -246 0
-53 -226 0
-53 -205 0
-53 -183 0
-53 -160 0
-53 -136 0
-53 -111 0
-53 -85 0
-53 -58 0
54 -545 -415 408 400 391 381 370 358 345 331 316 300 283 265 246 226 205 183 160 136 111 85 58 0
-54 545 0
-54 415 0
-54 -408 0
-54 -400 0
-54 -391 0
-54 -381 0
-54 -370 0
-54 -358 0
-54 -345 0
-54 -331 0
-54 -316 0
-54 -300 0
-54 -283 0
-54 -265 0
-54 -246 0
-54 -226 0
-54 -205 0
-54 -183 0
-54 -160 0
-54 -136 0
-54 -111 0
-54 -85 0
-54 -58 0
55 -546 -111 85 58 0
-55 546 0
-55 111 0
-55 -85 0
-55 -58 0
56 -547 -205 183 160 136 111 85 58 0
-56 547 0
-56 205 0
-56 -183 0
-56 -160 0
-56 -136 0
-56 -111 0
-56 -85 0
-56 -58 0
57 -548 -316 300 283 265 246 226 205 183 160 136 111 85 58 0
-57 548 0
-57 316 0
-57 -300 0
-57 -283 0
-57 -265 0
-57 -246 0
-57 -226 0
-57 -205 0
-57 -183 0
-57 -160 0
-57 -136 0
-57 -111 0
-57 -85 0
-57 -58 0
59 -549 -136 111 85 0
-59 549 0
-59 136 0
-59 -111 0
-59 -85 0
60 -550 -433 430 426 421 415 408 400 391 381 370 358 345 331 316 300 283 265 246 226 205 183 160 136 111 85 0
-60 550 0
-60 433 0
-60 -430 0
-60 -426 0
-60 -421 0
-60 -415 0
-60 -408 0
-60 -400 0
-60 -391 0
-60 -381 0
-60 -370 0
-60 -358 0
-60 -345 0
-60 -331 0
-60 -316 0
-60 -300 0
-60 -283 0
-60 -265 0
-60 -246 0
-60 -226 0
-60 -205 0
-60 -183 0
-60 -160 0
-60 -136 0
-60 -111 0
-60 -85 0
61 -551 -400 391 381 370 358 345 331 316 300 283 265 246 226 205 183 160 136 111 85 0
-61 551 0
-61 400 0
-61 -391 0
-61 -381 0
-61 -370 0
-61 -358 0
-61 -345 0
-61 -331 0
-61 -316 0
-61 -300 0
-61 -283 0
-61 -265 0
-61 -246 0
-61 -226 0
-61 -205 0
-61 -183 0
-61 -160 0
-61 -136 0
-61 -111 0
-61 -85 0
62 -552 -183 160 136 111 85 0
-62 552 0
-62 183 0
-62 -160 0
-62 -136 0
-62 -111 0
-62 -85 0
63 -553 -430 426 421 415 408 400 391 381 370 358 345 331 316 300 283 265 246 226 205 183 160 136 111 85 0
-63 553 0
-63 430 0
-63 -426 0
-63 -421 0
-63 -415 0
-63 -408 0
-63 -400 0
-63 -391 0
-63 -381 0
-63 -370 0
-63 -358 0
-63 -345 0
-63 -331 0
-63 -316 0
-63 -300 0
-63 -283 0
-63 -265 0
-63 -246 0
-63 -226 0
-63 -205 0
-63 -183 0
-63 -160 0
-63 -136 0
-63 -111 0
-63 -85 0
64 -554 -426 421 415 408 400 391 381 370 358 345 331 316 300 283 265 246 226 205 183 160 136 111 85 0
-64 554 0
-64 426 0
-64 -421 0
-64 -415 0
-64 -408 0
-64 -400 0
-64 -391 0
-64 -381 0
-64 -370 0
-64 -358 0
-64 -345 0
-64 -331 0
-64 -316 0
-64 -300 0
-64 -283 0
-64 -265 0
-64 -246 0
-64 -226 0
-64 -205 0
-64 -183 0
-64 -160 0
-64 -136 0
-64 -111 0
-64 -85 0
65 -555 -462 433 430 426 421 415 408 400 391 381 370 358 345 331 316 300 283 265 246 226 205 183 160 136 111 85 0
-65 555 0
-65 462 0
-65 -433 0
-65 -430 0
-65 -426 0
-65 -421 0
-65 -415 0
-65 -408 0
-65 -400 0
-65 -391 0
-65 -381 0
-65 -370 0
-65 -358 0
-65 -345 0
-65 -331 0
-65 -316 0
-65 -300 0
-65 -283 0
-65 -265 0
-65 -246 0
-65 -226 0
-65 -205 0
-65 -183 0
-65 -160 0
-65 -136 0
-65 -111 0
-65 -85 0
66 -556 -111 85 0
-66 556 0
-66 111 0
-66 -85 0
67 -557 -345 331 316 300 283 265 246 226 205 183 160 136 111 85 0
-67 557 0
-67 345 0
-67 -331 0
-67 -316 0
-67 -300 0
-67 -283 0
-67 -265 0
-67 -246 0
-67 -226 0
-67 -205 0
-67 -183 0
-67 -160 0
-67 -136 0
-67 -111 0
-67 -85 0
68 -558 -246 226 205 183 160 136 111 85 0
-68 558 0
-68 246 0
-68 -226 0
-68 -205 0
-68 -183 0
-68 -160 0
-68 -136 0
-68 -111 0
-68 -85 0
69 -559 -415 408 400 391 381 370 358 345 331 316 300 283 265 246 226 205 183 160 136 111 85 0
-69 559 0
-69 415 0
-69 -408 0
-69 -400 0
-69 -391 0
-69 -381 0
-69 -370 0
-69 -358 0
-69 -345 0
-69 -331 0
-69 -316 0
-69 -300 0
-69 -283 0
-69 -265 0
-69 -246 0
-69 -226 0
-69 -205 0
-69 -183 0
-69 -160 0
-69 -136 0
-69 -111 0
-69 -85 0
70 -560 -408 400 391 381 370 358 345 331 316 300 283 265 246 226 205 183 160 136 111 85 0
-70 560 0
-70 408 0
-70 -400 0
-70 -391 0
-70 -381 0
-70 -370 0
-70 -358 0
-70 -345 0
-70 -331 0
-70 -316 0
-70 -300 0
-70 -283 0
-70 -265 0
-70 -246 0
-70 -226 0
-70 -205 0
-70 -183 0
-70 -160 0
-70 -136 0
-70 -111 0
-70 -85 0
71 -561 -391 381 370 358 345 331 316 300 283 265 246 226 205 183 160 136 111 85 0
-71 561 0
-71 391 0
-71 -381 0
-71 -370 0
-71 -358 0
-71 -345 0
-71 -331 0
-71 -316 0
-71 -300 0
-71 -283 0
-71 -265 0
-71 -246 0
-71 -226 0
-71 -205 0
-71 -183 0
-71 -160 0
-71 -136 0
-71 -111 0
-71 -85 0
72 -562 -421 415 408 400 391 381 370 358 345 331 316 300 283 265 246 226 205 183 160 136 111 85 0
-72 562 0
-72 421 0
-72 -415 0
-72 -408 0
-72 -400 0
-72 -391 0
-72 -381 0
-72 -370 0
-72 -358 0
-72 -345 0
-72 -331 0
-72 -316 0
-72 -300 0
-72 -283 0
-72 -265 0
-72 -246 0
-72 -226 0
-72 -205 0
-72 -183 0
-72 -160 0
-72 -136 0
-72 -111 0
-72 -85 0
73 -563 -381 370 358 345 331 316 300 283 265 246 226 205 183 160 136 111 85 0
-73 563 0
-73 381 0
-73 -370 0
-73 -358 0
-73 -345 0
-73 -331 0
-73 -316 0
-73 -300 0
-73 -283 0
-73 -265 0
-73 -246 0
-73 -226 0
-73 -205 0
-73 -183 0
-73 -160 0
-73 -136 0
-73 -111 0
-73 -85 0
74 -564 -316 300 283 265 246 226 205 183 160 136 111 85 0
-74 564 0
-74 316 0
-74 -300 0
-74 -283 0
-74 -265 0
-74 -246 0
-74 -226 0
-74 -205 0
-74 -183 0
-74 -160 0
-74 -136 0
-74 -111 0
-74 -85 0
75 -565 -300 283 265 246 226 205 183 160 136 111 85 0
-75 565 0
-75 300 0
-75 -283 0
-75 -265 0
-75 -246 0
-75 -226 0
-75 -205 0
-75 -183 0
-75 -160 0
-75 -136 0
-75 -111 0
-75 -85 0
76 -566 -358 345 331 316 300 283 265 246 226 205 183 160 136 111 85 0
-76 566 0
-76 358 0
-76 -345 0
-76 -331 0
-76 -316 0
-76 -300 0
-76 -283 0
-76 -265 0
-76 -246 0
-76 -226 0
-76 -205 0
-76 -183 0
-76 -160 0
-76 -136 0
-76 -111 0
-76 -85 0
77 -567 -226 205 183 160 136 111 85 0
-77 567 0
-77 226 0
-77 -205 0
-77 -183 0
-77 -160 0
-77 -136 0
-77 -111 0
-77 -85 0
78 -568 -370 358 345 331 316 300 283 265 246 226 205 183 160 136 111 85 0
-78 568 0
-78 370 0
-78 -358 0
-78 -345 0
-78 -331 0
-78 -316 0
-78 -300 0
-78 -283 0
-78 -265 0
-78 -246 0
-78 -226 0
-78 -205 0
-78 -183 0
-78 -160 0
-78 -136 0
-78 -111 0
-78 -85 0
79 -569 -160 136 111 85 0
-79 569 0
-79 160 0
-79 -136 0
-79 -111 0
-79 -85 0
80 -570 -265 246 226 205 183 160 136 111 85 0
-80 570 0
-80 265 0
-80 -246 0
-80 -226 0
-80 -205 0
-80 -183 0
-80 -160 0
-80 -136 0
-80 -111 0
-80 -85 0
81 -571 -283 265 246 226 205 183 160 136 111 85 0
-81 571 0
-81 283 0
-81 -265 0
-81 -246 0
-81 -226 0
-81 -205 0
-81 -183 0
-81 -160 0
-81 -136 0
-81 -111 0
-81 -85 0
82 -572 -205 183 160 136 111 85 0
-82 572 0
-82 205 0
-82 -183 0
-82 -160 0
-82 -136 0
-82 -111 0
-82 -85 0
83 -573 -331 316 300 283 265 246 226 205 183 160 136 111 85 0
-83 573 0
-83 331 0
-83 -316 0
-83 -300 0
-83 -283 0
-83 -265 0
-83 -246 0
-83 -226 0
-83 -205 0
-83 -183 0
-83 -160 0
-83 -136 0
-83 -111 0
-83 -85 0
84 -574 -85 0
-84 574 0
-84 85 0
86 -575 -160 136 111 0
-86 575 0
-86 160 0
-86 -136 0
-86 -111 0
87 -576 -205 183 160 136 111 0
-87 576 0
-87 205 0
-87 -183 0
-87 -160 0
-87 -136 0
-87 -111 0
88 -577 -462 433 430 426 421 415 408 400 391 381 370 358 345 331 316 300 283 265 246 226 205 183 160 136 111 0
-88 577 0
-88 462 0
-88 -433 0
-88 -430 0
-88 -426 0
-88 -421 0
-88 -415 0
-88 -408 0
-88 -400 0
-88 -391 0
-88 -381 0
-88 -370 0
-88 -358 0
-88 -345 0
-88 -331 0
-88 -316 0
-88 -300 0
-88 -283 0
-88 -265 0
-88 -246 0
-88 -226 0
-88 -205 0
-88 -183 0
-88 -160 0
-88 -136 0
-88 -111 0
89 -578 -426 421 415 408 400 391 381 370 358 345 331 316 300 283 265 246 226 205 183 160 136 111 0
-89 578 0
-89 426 0
-89 -421 0
-89 -415 0
-89 -408 0
-89 -400 0
-89 -391 0
-89 -381 0
-89 -370 0
-89 -358 0
-89 -345 0
-89 -331 0
-89 -316 0
-89 -300 0
-89 -283 0
-89 -265 0
-89 -246 0
-89 -226 0
-89 -205 0
-89 -183 0
-89 -160 0
-89 -136 0
-89 -111 0
90 -579 -415 408 400 391 381 370 358 345 331 316 300 283 265 246 226 205 183 160 136 111 0
-90 579 0
-90 415 0
-90 -408 0
-90 -400 0
-90 -391 0
-90 -381 0
-90 -370 0
-90 -358 0
-90 -345 0
-90 -331 0
-90 -316 0
-90 -300 0
-90 -283 0
-90 -265 0
-90 -246 0
-90 -226 0
-90 -205 0
-90 -183 0
-90 -160 0
-90 -136 0
-90 -111 0
91 -580 -226 205 183 160 136 111 0
-91 580 0
-91 226 0
-91 -205 0
-91 -183 0
-91 -160 0
-91 -136 0
-91 -111 0
92 -581 -408 400 391 381 370 358 345 331 316 300 283 265 246 226 205 183 160 136 111 0
-92 581 0
-92 408 0
-92 -400 0
-92 -391 0
-92 -381 0
-92 -370 0
-92 -358 0
-92 -345 0
-92 -331 0
-92 -316 0
-92 -300 0
-92 -283 0
-92 -265 0
-92 -246 0
-92 -226 0
-92 -205 0
-92 -183 0
-92 -160 0
-92 -136 0
-92 -111 0
93 -582 -421 415 408 400 391 381 370 358 345 331 316 300 283 265 246 226 205 183 160 136 111 0
-93 582 0
-93 421 0
-93 -415 0
-93 -408 0
-93 -400 0
-93 -391 0
-93 -381 0
-93 -370 0
-93 -358 0
-93 -345 0
-93 -331 0
-93 -316 0
-93 -300 0
-93 -283 0
-93 -265 0
-93 -246 0
-93 -226 0
-93 -205 0
-93 -183 0
-93 -160 0
-93 -136 0
-93 -111 0
94 -583 -300 283 265 246 226 205 183 160 136 111 0
-94 583 0
-94 300 0
-94 -283 0
-94 -265 0
-94 -246 0
-94 -226 0
-94 -205 0
-94 -183 0
-94 -160 0
-94 -136 0
-94 -111 0
95 -584 -370 358 345 331 316 300 283 265 246 226 205 183 160 136 111 0
-95 584 0
-95 370 0
-95 -358 0
-95 -345 0
-95 -331 0
-95 -316 0
-95 -300 0
-95 -283 0
-95 -265 0
-95 -246 0
-95 -226 0
-95 -205 0
-95 -183 0
-95 -160 0
-95 -136 0
-95 -111 0
96 -585 -345 331 316 300 283 265 246 226 205 183 160 136 111 0
-96 585 0
-96 345 0
-96 -331 0
-96 -316 0
-96 -300 0
-96 -283 0
-96 -265 0
-96 -246 0
-96 -226 0
-96 -205 0
-96 -183 0
-96 -160 0
-96 -136 0
-96 -111 0
97 -586 -246 226 205 183 160 136 111 0
-97 586 0
-97 246 0
-97 -226 0
-97 -205 0
-97 -183 0
-97 -160 0
-97 -136 0
-97 -111 0
98 -587 -358 345 331 316 300 283 265 246 226 205 183 160 136 111 0
-98 587 0
-98 358 0
-98 -345 0
-98 -331 0
-98 -316 0
-98 -300 0
-98 -283 0
-98 -265 0
-98 -246 0
-98 -226 0
-98 -205 0
-98 -183 0
-98 -160 0
-98 -136 0
-98 -111 0
99 -588 -430 426 421 415 408 400 391 381 370 358 345 331 316 300 283 265 246 226 205 183 160 136 111 0
-99 588 0
-99 430 0
-99 -426 0
-99 -421 0
-99 -415 0
-99 -408 0
-99 -400 0
-99 -391 0
-99 -381 0
-99 -370 0
-99 -358 0
-99 -345 0
-99 -331 0
-99 -316 0
-99 -300 0
-99 -283 0
-99 -265 0
-99 -246 0
-99 -226 0
-99 -205 0
-99 -183 0
-99 -160 0
-99 -136 0
-99 -111 0
100 -589 -136 111 0
-100 589 0
-100 136 0
-100 -111 0
101 -590 -111 0
-101 590 0
-101 111 0
102 -591 -331 316 300 283 265 246 226 205 183 160 136 111 0
-102 591 0
-102 331 0
-102 -316 0
-102 -300 0
-102 -283 0
-102 -265 0
-102 -246 0
-102 -226 0
-102 -205 0
-102 -183 0
-102 -160 0
-102 -136 0
-102 -111 0
103 -592 -433 430 426 421 415 408 400 391 381 370 358 345 331 316 300 283 265 246 226 205 183 160 136 111 0
-103 592 0
-103 433 0
-103 -430 0
-103 -426 0
-103 -421 0
-103 -415 0
-103 -408 0
-103 -400 0
-103 -391 0
-103 -381 0
-103 -370 0
-103 -358 0
-103 -345 0
-103 -331 0
-103 -316 0
-103 -300 0
-103 -283 0
-103 -265 0
-103 -246 0
-103 -226 0
-103 -205 0
-103 -183 0
-103 -160 0
-103 -136 0
-103 -111 0
104 -593 -265 246 226 205 183 160 136 111 0
-104 593 0
-104 265 0
-104 -246 0
-104 -226 0
-104 -205 0
-104 -183 0
-104 -160 0
-104 -136 0
-104 -111 0
105 -594 -381 370 358 345 331 316 300 283 265 246 226 205 183 160 136 111 0
-105 594 0
-105 381 0
-105 -370 0
-105 -358 0
-105 -345 0
-105 -331 0
-105 -316 0
-105 -300 0
-105 -283 0
-105 -265 0
-105 -246 0
-105 -226 0
-105 -205 0
-105 -183 0
-105 -160 0
-105 -136 0
-105 -111 0
106 -595 -183 160 136 111 0
-106 595 0
-106 183 0
-106 -160 0
-106 -136 0
-106 -111 0
107 -596 -316 300 283 265 246 226 205 183 160 136 111 0
-107 596 0
-107 316 0
-107 -300 0
-107 -283 0
-107 -265 0
-107 -246 0
-107 -226 0
-107 -205 0
-107 -183 0
-107 -160 0
-107 -136 0
-107 -111 0
108 -597 -400 391 381 370 358 345 331 316 300 283 265 246 226 205 183 160 136 111 0
-108 597 0
-108 400 0
-108 -391 0
-108 -381 0
-108 -370 0
-108 -358 0
-108 -345 0
-108 -331 0
-108 -316 0
-108 -300 0
-108 -283 0
-108 -265 0
-108 -246 0
-108 -226 0
-108 -205 0
-108 -183 0
-108 -160 0
-108 -136 0
-108 -111 0
109 -598 -283 265 246 226 205 183 160 136 111 0
-109 598 0
-109 283 0
-109 -265 0
-109 -246 0
-109 -226 0
-109 -205 0
-109 -183 0
-109 -160 0
-109 -136 0
-109 -111 0
110 -599 -391 381 370 358 345 331 316 300 283 265 246 226 205 183 160 136 111 0
-110 599 0
-110 391 0
-110 -381 0
-110 -370 0
-110 -358 0
-110 -345 0
-110 -331 0
-110 -316 0
-110 -300 0
-110 -283 0
-110 -265 0
-110 -246 0
-110 -226 0
-110 -205 0
-110 -183 0
-110 -160 0
-110 -136 0
-110 -111 0
112 -600 -283 265 246 226 205 183 160 136 0
-112 600 0
-112 283 0
-112 -265 0
-112 -246 0
-112 -226 0
-112 -205 0
-112 -183 0
-112 -160 0
-112 -136 0
113 -601 -433 430 426 421 415 408 400 391 381 370 358 345 331 316 300 283 265 246 226 205 183 160 136 0
-113 601 0
-113 433 0
-113 -430 0
-113 -426 0
-113 -421 0
-113 -415 0
-113 -408 0
-113 -400 0
-113 -391 0
-113 -381 0
-113 -370 0
-113 -358 0
-113 -345 0
-113 -331 0
-113 -316 0
-113 -300 0
-113 -283 0
-113 -265 0
-113 -246 0
-113 -226 0
-113 -205 0
-113 -183 0
-113 -160 0
-113 -136 0
114 -602 -205 183 160 136 0
-114 602 0
-114 205 0
-114 -183 0
-114 -160 0
-114 -136 0
115 -603 -183 160 136 0
-115 603 0
-115 183 0
-115 -160 0
-115 -136 0
116 -604 -381 370 358 345 331 316 300 283 265 246 226 205 183 160 136 0
-116 604 0
-116 381 0
-116 -370 0
-116 -358 0
-116 -345 0
-116 -331 0
-116 -316 0
-116 -300 0
-116 -283 0
-116 -265 0
-116 -246 0
-116 -226 0
-116 -205 0
-116 -183 0
-116 -160 0
-116 -136 0
117 -605 -370 358 345 331 316 300 283 265 246 226 205 183 160 136 0
-117 605 0
-117 370 0
-117 -358 0
-117 -345 0
-117 -331 0
-117 -316 0
-117 -300 0
-117 -283 0
-117 -265 0
-117 -246 0
-117 -226 0
-117 -205 0
-117 -183 0
-117 -160 0
-117 -136 0
118 -606 -400 391 381 370 358 345 331 316 300 283 265 246 226 205 183 160 136 0
-118 606 0
-118 400 0
-118 -391 0
-118 -381 0
-118 -370 0
-118 -358 0
-118 -345 0
-118 -331 0
-118 -316 0
-118 -300 0
-118 -283 0
-118 -265 0
-118 -246 0
-118 -226 0
-118 -205 0
-118 -183 0
-118 -160 0
-118 -136 0
119 -607 -462 433 430 426 421 415 408 400 391 381 370 358 345 331 316 300 283 265 246 226 205 183 160 136 0
-119 607 0
-119 462 0
-119 -433 0
-119 -430 0
-119 -426 0
-119 -421 0
-119 -415 0
-119 -408 0
-119 -400 0
-119 -391 0
-119 -381 0
-119 -370 0
-119 -358 0
-119 -345 0
-119 -331 0
-119 -316 0
-119 -300 0
-119 -283 0
-119 -265 0
-119 -246 0
-119 -226 0
-119 -205 0
-119 -183 0
-119 -160 0
-119 -136 0
120 -608 -160 136 0
-120 608 0
-120 160 0
-120 -136 0
121 -609 -415 408 400 391 381 370 358 345 331 316 300 283 265 246 226 205 183 160 136 0
-121 609 0
-121 415 0
-121 -408 0
-121 -400 0
-121 -391 0
-121 -381 0
-121 -370 0
-121 -358 0
-121 -345 0
-121 -331 0
-121 -316 0
-121 -300 0
-121 -283 0
-121 -265 0
-121 -246 0
-121 -226 0
-121 -205 0
-121 -183 0
-121 -160 0
-121 -136 0
122 -610 -426 421 415 408 400 391 381 370 358 345 331 316 300 283 265 246 226 205 183 160 136 0
-122 610 0
-122 426 0
-122 -421 0
-122 -415 0
-122 -408 0
-122 -400 0
-122 -391 0
-122 -381 0
-122 -370 0
-122 -358 0
-122 -345 0
-122 -331 0
-122 -316 0
-122 -300 0
-122 -283 0
-122 -265 0
-122 -246 0
-122 -226 0
-122 -205 0
-122 -183 0
-122 -160 0
-122 -136 0
123 -611 -358 345 331 316 300 283 265 246 226 205 183 160 136 0
-123 611 0
-123 358 0
-123 -345 0
-123 -331 0
-123 -316 0
-123 -300 0
-123 -283 0
-123 -265 0
-123 -246 0
-123 -226 0
-123 -205 0
-123 -183 0
-123 -160 0
-123 -136 0
124 -612 -391 381 370 358 345 331 316 300 283 265 246 226 205 183 160 136 0
-124 612 0
-124 391 0
-124 -381 0
-124 -370 0
-124 -358 0
-124 -345 0
-124 -331 0
-124 -316 0
-124 -300 0
-124 -283 0
-124 -265 0
-124 -246 0
-124 -226 0
-124 -205 0
-124 -183 0
-124 -160 0
-124 -136 0
125 -613 -136 0
-125 613 0
-125 136 0
126 -614 -345 331 316 300 283 265 246 226 205 183 160 136 0
-126 614 0
-126 345 0
-126 -331 0
-126 -316 0
-126 -300 0
-126 -283 0
-126 -265 0
-126 -246 0
-126 -226 0
-126 -205 0
-126 -183 0
-126 -160 0
-126 -136 0
127 -615 -316 300 283 265 246 226 205 183 160 136 0
-127 615 0
-127 316 0
-127 -300 0
-127 -283 0
-127 -265 0
-127 -246 0
-127 -226 0
-127 -205 0
-127 -183 0
-127 -160 0
-127 -136 0
128 -616 -226 205 183 160 136 0
-128 616 0
-128 226 0
-128 -205 0
-128 -183 0
-128 -160 0
-128 -136 0
129 -617 -246 226 205 183 160 136 0
-129 617 0
-129 246 0
-129 -226 0
-129 -205 0
-129 -183 0
-129 -160 0
-129 -136 0
130 -618 -300 283 265 246 226 205 183 160 136 0
-130 618 0
-130 300 0
-130 -283 0
-130 -265 0
-130 -246 0
-130 -226 0
-130 -205 0
-130 -183 0
-130 -160 0
-130 -136 0
131 -619 -265 246 226 205 183 160 136 0
-131 619 0
-131 265 0
-131 -246 0
-131 -226 0
-131 -205 0
-131 -183 0
-131 -160 0
-131 -136 0
132 -620 -430 426 421 415 408 400 391 381 370 358 345 331 316 300 283 265 246 226 205 183 160 136 0
-132 620 0
-132 430 0
-132 -426 0
-132 -421 0
-132 -415 0
-132 -408 0
-132 -400 0
-132 -391 0
-132 -381 0
-132 -370 0
-132 -358 0
-132 -345 0
-132 -331 0
-132 -316 0
-132 -300 0
-132 -283 0
-132 -265 0
-132 -246 0
-132 -226 0
-132 -205 0
-132 -183 0
-132 -160 0
-132 -136 0
133 -621 -421 415 408 400 391 381 370 358 345 331 316 300 283 265 246 226 205 183 160 136 0
-133 621 0
-133 421 0
-133 -415 0
-133 -408 0
-133 -400 0
-133 -391 0
-133 -381 0
-133 -370 0
-133 -358 0
-133 -345 0
-133 -331 0
-133 -316 0
-133 -300 0
-133 -283 0
-133 -265 0
-133 -246 0
-133 -226 0
-133 -205 0
-133 -183 0
-133 -160 0
-133 -136 0
134 -622 -408 400 391 381 370 358 345 331 316 300 283 265 246 226 205 183 160 136 0
-134 622 0
-134 408 0
-134 -400 0
-134 -391 0
-134 -381 0
-134 -370 0
-134 -358 0
-134 -345 0
-134 -331 0
-134 -316 0
-134 -300 0
-134 -283 0
-134 -265 0
-134 -246 0
-134 -226 0
-134 -205 0
-134 -183 0
-134 -160 0
-134 -136 0
135 -623 -331 316 300 283 265 246 226 205 183 160 136 0
-135 623 0
-135 331 0
-135 -316 0
-135 -300 0
-135 -283 0
-135 -265 0
-135 -246 0
-135 -226 0
-135 -205 0
-135 -183 0
-135 -160 0
-135 -136 0
137 -624 -415 408 400 391 381 370 358 345 331 316 300 283 265 246 226 205 183 160 0
-137 624 0
-137 415 0
-137 -408 0
-137 -400 0
-137 -391 0
-137 -381 0
-137 -370 0
-137 -358 0
-137 -345 0
-137 -331 0
-137 -316 0
-137 -300 0
-137 -283 0
-137 -265 0
-137 -246 0
-137 -226 0
-137 -205 0
-137 -183 0
-137 -160 0
138 -625 -421 415 408 400 391 381 370 358 345 331 316 300 283 265 246 226 205 183 160 0
-138 625 0
-138 421 0
-138 -415 0
-138 -408 0
-138 -400 0
-138 -391 0
-138 -381 0
-138 -370 0
-138 -358 0
-138 -345 0
-138 -331 0
-138 -316 0
-138 -300 0
-138 -283 0
-138 -265 0
-138 -246 0
-138 -226 0
-138 -205 0
-138 -183 0
-138 -160 0
139 -626 -345 331 316 300 283 265 246 226 205 183 160 0
-139 626 0
-139 345 0
-139 -331 0
-139 -316 0
-139 -300 0
-139 -283 0
-139 -265 0
-139 -246 0
-139 -226 0
-139 -205 0
-139 -183 0
-139 -160 0
140 -627 -265 246 226 205 183 160 0
-140 627 0
-140 265 0
-140 -246 0
-140 -226 0
-140 -205 0
-140 -183 0
-140 -160 0
141 -628 -300 283 265 246 226 205 183 160 0
-141 628 0
-141 300 0
-141 -283 0
-141 -265 0
-141 -246 0
-141 -226 0
-141 -205 0
-141 -183 0
-141 -160 0
142 -629 -462 433 430 426 421 415 408 400 391 381 370 358 345 331 316 300 283 265 246 226 205 183 160 0
-142 629 0
-142 462 0
-142 -433 0
-142 -430 0
-142 -426 0
-142 -421 0
-142 -415 0
-142 -408 0
-142 -400 0
-142 -391 0
-142 -381 0
-142 -370 0
-142 -358 0
-142 -345 0
-142 -331 0
-142 -316 0
-142 -300 0
-142 -283 0
-142 -265 0
-142 -246 0
-142 -226 0
-142 -205 0
-142 -183 0
-142 -160 0
143 -630 -391 381 370 358 345 331 316 300 283 265 246 226 205 183 160 0
-143 630 0
-143 391 0
-143 -381 0
-143 -370 0
-143 -358 0
-143 -345 0
-143 -331 0
-143 -316 0
-143 -300 0
-143 -283 0
-143 -265 0
-143 -246 0
-143 -226 0
-143 -205 0
-143 -183 0
-143 -160 0
144 -631 -381 370 358 345 331 316 300 283 265 246 226 205 183 160 0
-144 631 0
-144 381 0
-144 -370 0
-144 -358 0
-144 -345 0
-144 -331 0
-144 -316 0
-144 -300 0
-144 -283 0
-144 -265 0
-144 -246 0
-144 -226 0
-144 -205 0
-144 -183 0
-144 -160 0
145 -632 -226 205 183 160 0
-145 632 0
-145 226 0
-145 -205 0
-145 -183 0
-145 -160 0
146 -633 -205 183 160 0
-146 633 0
-146 205 0
-146 -183 0
-146 -160 0
147 -634 -370 358 345 331 316 300 283 265 246 226 205 183 160 0
-147 634 0
-147 370 0
-147 -358 0
-147 -345 0
-147 -331 0
-147 -316 0
-147 -300 0
-147 -283 0
-147 -265 0
-147 -246 0
-147 -226 0
-147 -205 0
-147 -183 0
-147 -160 0
148 -635 -358 345 331 316 300 283 265 246 226 205 183 160 0
-148 635 0
-148 358 0
-148 -345 0
-148 -331 0
-148 -316 0
-148 -300 0
-148 -283 0
-148 -265 0
-148 -246 0
-148 -226 0
-148 -205 0
-148 -183 0
-148 -160 0
149 -636 -408 400 391 381 370 358 345 331 316 300 283 265 246 226 205 183 160 0
-149 636 0
-149 408 0
-149 -400 0
-149 -391 0
-149 -381 0
-149 -370 0
-149 -358 0
-149 -345 0
-149 -331 0
-149 -316 0
-149 -300 0
-149 -283 0
-149 -265 0
-149 -246 0
-149 -226 0
-149 -205 0
-149 -183 0
-149 -160 0
150 -637 -430 426 421 415 408 400 391 381 370 358 345 331 316 300 283 265 246 226 205 183 160 0
-150 637 0
-150 430 0
-150 -426 0
-150 -421 0
-150 -415 0
-150 -408 0
-150 -400 0
-150 -391 0
-150 -381 0
-150 -370 0
-150 -358 0
-150 -345 0
-150 -331 0
-150 -316 0
-150 -300 0
-150 -283 0
-150 -265 0
-150 -246 0
-150 -226 0
-150 -205 0
-150 -183 0
-150 -160 0
151 -638 -426 421 415 408 400 391 381 370 358 345 331 316 300 283 265 246 226 205 183 160 0
-151 638 0
-151 426 0
-151 -421 0
-151 -415 0
-151 -408 0
-151 -400 0
-151 -391 0
-151 -381 0
-151 -370 0
-151 -358 0
-151 -345 0
-151 -331 0
-151 -316 0
-151 -300 0
-151 -283 0
-151 -265 0
-151 -246 0
-151 -226 0
-151 -205 0
-151 -183 0
-151 -160 0
152 -639 -400 391 381 370 358 345 331 316 300 283 265 246 226 205 183 160 0
-152 639 0
-152 400 0
-152 -391 0
-152 -381 0
-152 -370 0
-152 -358 0
-152 -345 0
-152 -331 0
-152 -316 0
-152 -300 0
-152 -283 0
-152 -265 0
-152 -246 0
-152 -226 0
-152 -205 0
-152 -183 0
-152 -160 0
153 -640 -331 316 300 283 265 246 226 205 183 160 0
-153 640 0
-153 331 0
-153 -316 0
-153 -300 0
-153 -283 0
-153 -265 0
-153 -246 0
-153 -226 0
-153 -205 0
-153 -183 0
-153 -160 0
154 -641 -160 0
-154 641 0
-154 160 0
155 -642 -183 160 0
-155 642 0
-155 183 0
-155 -160 0
156 -643 -316 300 283 265 246 226 205 183 160 0
-156 643 0
-156 316 0
-156 -300 0
-156 -283 0
-156 -265 0
-156 -246 0
-156 -226 0
-156 -205 0
-156 -183 0
-156 -160 0
157 -644 -246 226 205 183 160 0
-157 644 0
-157 246 0
-157 -226 0
-157 -205 0
-157 -183 0
-157 -160 0
158 -645 -433 430 426 421 415 408 400 391 381 370 358 345 331 316 300 283 265 246 226 205 183 160 0
-158 645 0
-158 433 0
-158 -430 0
-158 -426 0
-158 -421 0
-158 -415 0
-158 -408 0
-158 -400 0
-158 -391 0
-158 -381 0
-158 -370 0
-158 -358 0
-158 -345 0
-158 -331 0
-158 -316 0
-158 -300 0
-158 -283 0
-158 -265 0
-158 -246 0
-158 -226 0
-158 -205 0
-158 -183 0
-158 -160 0
159 -646 -283 265 246 226 205 183 160 0
-159 646 0
-159 283 0
-159 -265 0
-159 -246 0
-159 -226 0
-159 -205 0
-159 -183 0
-159 -160 0
161 -647 -331 316 300 283 265 246 226 205 183 0
-161 647 0
-161 331 0
-161 -316 0
-161 -300 0
-161 -283 0
-161 -265 0
-161 -246 0
-161 -226 0
-161 -205 0
-161 -183 0
162 -648 -183 0
-162 648 0
-162 183 0
163 -649 -400 391 381 370 358 345 331 316 300 283 265 246 226 205 183 0
-163 649 0
-163 400 0
-163 -391 0
-163 -381 0
-163 -370 0
-163 -358 0
-163 -345 0
-163 -331 0
-163 -316 0
-163 -300 0
-163 -283 0
-163 -265 0
-163 -246 0
-163 -226 0
-163 -205 0
-163 -183 0
164 -650 -226 205 183 0
-164 650 0
-164 226 0
-164 -205 0
-164 -183 0
165 -651 -433 430 426 421 415 408 400 391 381 370 358 345 331 316 300 283 265 246 226 205 183 0
-165 651 0
-165 433 0
-165 -430 0
-165 -426 0
-165 -421 0
-165 -415 0
-165 -408 0
-165 -400 0
-165 -391 0
-165 -381 0
-165 -370 0
-165 -358 0
-165 -345 0
-165 -331 0
-165 -316 0
-165 -300 0
-165 -283 0
-165 -265 0
-165 -246 0
-165 -226 0
-165 -205 0
-165 -183 0
166 -652 -345 331 316 300 283 265 246 226 205 183 0
-166 652 0
-166 345 0
-166 -331 0
-166 -316 0
-166 -300 0
-166 -283 0
-166 -265 0
-166 -246 0
-166 -226 0
-166 -205 0
-166 -183 0
167 -653 -265 246 226 205 183 0
-167 653 0
-167 265 0
-167 -246 0
-167 -226 0
-167 -205 0
-167 -183 0
168 -654 -391 381 370 358 345 331 316 300 283 265 246 226 205 183 0
-168 654 0
-168 391 0
-168 -381 0
-168 -370 0
-168 -358 0
-168 -345 0
-168 -331 0
-168 -316 0
-168 -300 0
-168 -283 0
-168 -265 0
-168 -246 0
-168 -226 0
-168 -205 0
-168 -183 0
169 -655 -283 265 246 226 205 183 0
-169 655 0
-169 283 0
-169 -265 0
-169 -246 0
-169 -226 0
-169 -205 0
-169 -183 0
170 -656 -358 345 331 316 300 283 265 246 226 205 183 0
-170 656 0
-170 358 0
-170 -345 0
-170 -331 0
-170 -316 0
-170 -300 0
-170 -283 0
-170 -265 0
-170 -246 0
-170 -226 0
-170 -205 0
-170 -183 0
171 -657 -370 358 345 331 316 300 283 265 246 226 205 183 0
-171 657 0
-171 370 0
-171 -358 0
-171 -345 0
-171 -331 0
-171 -316 0
-171 -300 0
-171 -283 0
-171 -265 0
-171 -246 0
-171 -226 0
-171 -205 0
-171 -183 0
172 -658 -205 183 0
-172 658 0
-172 205 0
-172 -183 0
173 -659 -300 283 265 246 226 205 183 0
-173 659 0
-173 300 0
-173 -283 0
-173 -265 0
-173 -246 0
-173 -226 0
-173 -205 0
-173 -183 0
174 -660 -415 408 400 391 381 370 358 345 331 316 300 283 265 246 226 205 183 0
-174 660 0
-174 415 0
-174 -408 0
-174 -400 0
-174 -391 0
-174 -381 0
-174 -370 0
-174 -358 0
-174 -345 0
-174 -331 0
-174 -316 0
-174 -300 0
-174 -283 0
-174 -265 0
-174 -246 0
-174 -226 0
-174 -205 0
-174 -183 0
175 -661 -462 433 430 426 421 415 408 400 391 381 370 358 345 331 316 300 283 265 246 226 205 183 0
-175 661 0
-175 462 0
-175 -433 0
-175 -430 0
-175 -426 0
-175 -421 0
-175 -415 0
-175 -408 0
-175 -400 0
-175 -391 0
-175 -381 0
-175 -370 0
-175 -358 0
-175 -345 0
-175 -331 0
-175 -316 0
-175 -300 0
-175 -283 0
-175 -265 0
-175 -246 0
-175 -226 0
-175 -205 0
-175 -183 0
176 -662 -430 426 421 415 408 400 391 381 370 358 345 331 316 300 283 265 246 226 205 183 0
-176 662 0
-176 430 0
-176 -426 0
-176 -421 0
-176 -415 0
-176 -408 0
-176 -400 0
-176 -391 0
-176 -381 0
-176 -370 0
-176 -358 0
-176 -345 0
-176 -331 0
-176 -316 0
-176 -300 0
-176 -283 0
-176 -265 0
-176 -246 0
-176 -226 0
-176 -205 0
-176 -183 0
177 -663 -408 400 391 381 370 358 345 331 316 300 283 265 246 226 205 183 0
-177 663 0
-177 408 0
-177 -400 0
-177 -391 0
-177 -381 0
-177 -370 0
-177 -358 0
-177 -345 0
-177 -331 0
-177 -316 0
-177 -300 0
-177 -283 0
-177 -265 0
-177 -246 0
-177 -226 0
-177 -205 0
-177 -183 0
178 -664 -426 421 415 408 400 391 381 370 358 345 331 316 300 283 265 246 226 205 183 0
-178 664 0
-178 426 0
-178 -421 0
-178 -415 0
-178 -408 0
-178 -400 0
-178 -391 0
-178 -381 0
-178 -370 0
-178 -358 0
-178 -345 0
-178 -331 0
-178 -316 0
-178 -300 0
-178 -283 0
-178 -265 0
-178 -246 0
-178 -226 0
-178 -205 0
-178 -183 0
179 -665 -316 300 283 265 246 226 205 183 0
-179 665 0
-179 316 0
-179 -300 0
-179 -283 0
-179 -265 0
-179 -246 0
-179 -226 0
-179 -205 0
-179 -183 0
180 -666 -381 370 358 345 331 316 300 283 265 246 226 205 183 0
-180 666 0
-180 381 0
-180 -370 0
-180 -358 0
-180 -345 0
-180 -331 0
-180 -316 0
-180 -300 0
-180 -283 0
-180 -265 0
-180 -246 0
-180 -226 0
-180 -205 0
-180 -183 0
181 -667 -246 226 205 183 0
-181 667 0
-181 246 0
-181 -226 0
-181 -205 0
-181 -183 0
182 -668 -421 415 408 400 391 381 370 358 345 331 316 300 283 265 246 226 205 183 0
-182 668 0
-182 421 0
-182 -415 0
-182 -408 0
-182 -400 0
-182 -391 0
-182 -381 0
-182 -370 0
-182 -358 0
-182 -345 0
-182 -331 0
-182 -316 0
-182 -300 0
-182 -283 0
-182 -265 0
-182 -246 0
-182 -226 0
-182 -205 0
-182 -183 0
184 -669 -381 370 358 345 331 316 300 283 265 246 226 205 0
-184 669 0
-184 381 0
-184 -370 0
-184 -358 0
-184 -345 0
-184 -331 0
-184 -316 0
-184 -300 0
-184 -283 0
-184 -265 0
-184 -246 0
-184 -226 0
-184 -205 0
185 -670 -265 246 226 205 0
-185 670 0
-185 265 0
-185 -246 0
-185 -226 0
-185 -205 0
186 -671 -205 0
-186 671 0
-186 205 0
187 -672 -415 408 400 391 381 370 358 345 331 316 300 283 265 246 226 205 0
-187 672 0
-187 415 0
-187 -408 0
-187 -400 0
-187 -391 0
-187 -381 0
-187 -370 0
-187 -358 0
-187 -345 0
-187 -331 0
-187 -316 0
-187 -300 0
-187 -283 0
-187 -265 0
-187 -246 0
-187 -226 0
-187 -205 0
188 -673 -358 345 331 316 300 283 265 246 226 205 0
-188 673 0
-188 358 0
-188 -345 0
-188 -331 0
-188 -316 0
-188 -300 0
-188 -283 0
-188 -265 0
-188 -246 0
-188 -226 0
-188 -205 0
189 -674 -331 316 300 283 265 246 226 205 0
-189 674 0
-189 331 0
-189 -316 0
-189 -300 0
-189 -283 0
-189 -265 0
-189 -246 0
-189 -226 0
-189 -205 0
190 -675 -283 265 246 226 205 0
-190 675 0
-190 283 0
-190 -265 0
-190 -246 0
-190 -226 0
-190 -205 0
191 -676 -400 391 381 370 358 345 331 316 300 283 265 246 226 205 0
-191 676 0
-191 400 0
-191 -391 0
-191 -381 0
-191 -370 0
-191 -358 0
-191 -345 0
-191 -331 0
-191 -316 0
-191 -300 0
-191 -283 0
-191 -265 0
-191 -246 0
-191 -226 0
-191 -205 0
192 -677 -300 283 265 246 226 205 0
-192 677 0
-192 300 0
-192 -283 0
-192 -265 0
-192 -246 0
-192 -226 0
-192 -205 0
193 -678 -316 300 283 265 246 226 205 0
-193 678 0
-193 316 0
-193 -300 0
-193 -283 0
-193 -265 0
-193 -246 0
-193 -226 0
-193 -205 0
194 -679 -462 433 430 426 421 415 408 400 391 381 370 358 345 331 316 300 283 265 246 226 205 0
-194 679 0
-194 462 0
-194 -433 0
-194 -430 0
-194 -426 0
-194 -421 0
-194 -415 0
-194 -408 0
-194 -400 0
-194 -391 0
-194 -381 0
-194 -370 0
-194 -358 0
-194 -345 0
-194 -331 0
-194 -316 0
-194 -300 0
-194 -283 0
-194 -265 0
-194 -246 0
-194 -226 0
-194 -205 0
195 -680 -345 331 316 300 283 265 246 226 205 0
-195 680 0
-195 345 0
-195 -331 0
-195 -316 0
-195 -300 0
-195 -283 0
-195 -265 0
-195 -246 0
-195 -226 0
-195 -205 0
196 -681 -226 205 0
-196 681 0
-196 226 0
-196 -205 0
197 -682 -246 226 205 0
-197 682 0
-197 246 0
-197 -226 0
-197 -205 0
198 -683 -391 381 370 358 345 331 316 300 283 265 246 226 205 0
-198 683 0
-198 391 0
-198 -381 0
-198 -370 0
-198 -358 0
-198 -345 0
-198 -331 0
-198 -316 0
-198 -300 0
-198 -283 0
-198 -265 0
-198 -246 0
-198 -226 0
-198 -205 0
199 -684 -408 400 391 381 370 358 345 331 316 300 283 265 246 226 205 0
-199 684 0
-199 408 0
-199 -400 0
-199 -391 0
-199 -381 0
-199 -370 0
-199 -358 0
-199 -345 0
-199 -331 0
-199 -316 0
-199 -300 0
-199 -283 0
-199 -265 0
-199 -246 0
-199 -226 0
-199 -205 0
200 -685 -421 415 408 400 391 381 370 358 345 331 316 300 283 265 246 226 205 0
-200 685 0
-200 421 0
-200 -415 0
-200 -408 0
-200 -400 0
-200 -391 0
-200 -381 0
-200 -370 0
-200 -358 0
-200 -345 0
-200 -331 0
-200 -316 0
-200 -300 0
-200 -283 0
-200 -265 0
-200 -246 0
-200 -226 0
-200 -205 0
201 -686 -430 426 421 415 408 400 391 381 370 358 345 331 316 300 283 265 246 226 205 0
-201 686 0
-201 430 0
-201 -426 0
-201 -421 0
-201 -415 0
-201 -408 0
-201 -400 0
-201 -391 0
-201 -381 0
-201 -370 0
-201 -358 0
-201 -345 0
-201 -331 0
-201 -316 0
-201 -300 0
-201 -283 0
-201 -265 0
-201 -246 0
-201 -226 0
-201 -205 0
202 -687 -433 430 426 421 415 408 400 391 381 370 358 345 331 316 300 283 265 246 226 205 0
-202 687 0
-202 433 0
-202 -430 0
-202 -426 0
-202 -421 0
-202 -415 0
-202 -408 0
-202 -400 0
-202 -391 0
-202 -381 0
-202 -370 0
-202 -358 0
-202 -345 0
-202 -331 0
-202 -316 0
-202 -300 0
-202 -283 0
-202 -265 0
-202 -246 0
-202 -226 0
-202 -205 0
203 -688 -426 421 415 408 400 391 381 370 358 345 331 316 300 283 265 246 226 205 0
-203 688 0
-203 426 0
-203 -421 0
-203 -415 0
-203 -408 0
-203 -400 0
-203 -391 0
-203 -381 0
-203 -370 0
-203 -358 0
-203 -345 0
-203 -331 0
-203 -316 0
-203 -300 0
-203 -283 0
-203 -265 0
-203 -246 0
-203 -226 0
-203 -205 0
204 -689 -370 358 345 331 316 300 283 265 246 226 205 0
-204 689 0
-204 370 0
-204 -358 0
-204 -345 0
-204 -331 0
-204 -316 0
-204 -300 0
-204 -283 0
-204 -265 0
-204 -246 0
-204 -226 0
-204 -205 0
206 -690 -265 246 226 0
-206 690 0
-206 265 0
-206 -246 0
-206 -226 0
207 -691 -433 430 426 421 415 408 400 391 381 370 358 345 331 316 300 283 265 246 226 0
-207 691 0
-207 433 0
-207 -430 0
-207 -426 0
-207 -421 0
-207 -415 0
-207 -408 0
-207 -400 0
-207 -391 0
-207 -381 0
-207 -370 0
-207 -358 0
-207 -345 0
-207 -331 0
-207 -316 0
-207 -300 0
-207 -283 0
-207 -265 0
-207 -246 0
-207 -226 0
208 -692 -300 283 265 246 226 0
-208 692 0
-208 300 0
-208 -283 0
-208 -265 0
-208 -246 0
-208 -226 0
209 -693 -370 358 345 331 316 300 283 265 246 226 0
-209 693 0
-209 370 0
-209 -358 0
-209 -345 0
-209 -331 0
-209 -316 0
-209 -300 0
-209 -283 0
-209 -265 0
-209 -246 0
-209 -226 0
210 -694 -408 400 391 381 370 358 345 331 316 300 283 265 246 226 0
-210 694 0
-210 408 0
-210 -400 0
-210 -391 0
-210 -381 0
-210 -370 0
-210 -358 0
-210 -345 0
-210 -331 0
-210 -316 0
-210 -300 0
-210 -283 0
-210 -265 0
-210 -246 0
-210 -226 0
211 -695 -316 300 283 265 246 226 0
-211 695 0
-211 316 0
-211 -300 0
-211 -283 0
-211 -265 0
-211 -246 0
-211 -226 0
212 -696 -381 370 358 345 331 316 300 283 265 246 226 0
-212 696 0
-212 381 0
-212 -370 0
-212 -358 0
-212 -345 0
-212 -331 0
-212 -316 0
-212 -300 0
-212 -283 0
-212 -265 0
-212 -246 0
-212 -226 0
213 -697 -400 391 381 370 358 345 331 316 300 283 265 246 226 0
-213 697 0
-213 400 0
-213 -391 0
-213 -381 0
-213 -370 0
-213 -358 0
-213 -345 0
-213 -331 0
-213 -316 0
-213 -300 0
-213 -283 0
-213 -265 0
-213 -246 0
-213 -226 0
214 -698 -426 421 415 408 400 391 381 370 358 345 331 316 300 283 265 246 226 0
-214 698 0
-214 426 0
-214 -421 0
-214 -415 0
-214 -408 0
-214 -400 0
-214 -391 0
-214 -381 0
-214 -370 0
-214 -358 0
-214 -345 0
-214 -331 0
-214 -316 0
-214 -300 0
-214 -283 0
-214 -265 0
-214 -246 0
-214 -226 0
215 -699 -226 0
-215 699 0
-215 226 0
216 -700 -358 345 331 316 300 283 265 246 226 0
-216 700 0
-216 358 0
-216 -345 0
-216 -331 0
-216 -316 0
-216 -300 0
-216 -283 0
-216 -265 0
-216 -246 0
-216 -226 0
217 -701 -415 408 400 391 381 370 358 345 331 316 300 283 265 246 226 0
-217 701 0
-217 415 0
-217 -408 0
-217 -400 0
-217 -391 0
-217 -381 0
-217 -370 0
-217 -358 0
-217 -345 0
-217 -331 0
-217 -316 0
-217 -300 0
-217 -283 0
-217 -265 0
-217 -246 0
-217 -226 0
218 -702 -345 331 316 300 283 265 246 226 0
-218 702 0
-218 345 0
-218 -331 0
-218 -316 0
-218 -300 0
-218 -283 0
-218 -265 0
-218 -246 0
-218 -226 0
219 -703 -283 265 246 226 0
-219 703 0
-219 283 0
-219 -265 0
-219 -246 0
-219 -226 0
220 -704 -421 415 408 400 391 381 370 358 345 331 316 300 283 265 246 226 0
-220 704 0
-220 421 0
-220 -415 0
-220 -408 0
-220 -400 0
-220 -391 0
-220 -381 0
-220 -370 0
-220 -358 0
-220 -345 0
-220 -331 0
-220 -316 0
-220 -300 0
-220 -283 0
-220 -265 0
-220 -246 0
-220 -226 0
221 -705 -246 226 0
-221 705 0
-221 246 0
-221 -226 0
222 -706 -391 381 370 358 345 331 316 300 283 265 246 226 0
-222 706 0
-222 391 0
-222 -381 0
-222 -370 0
-222 -358 0
-222 -345 0
-222 -331 0
-222 -316 0
-222 -300 0
-222 -283 0
-222 -265 0
-222 -246 0
-222 -226 0
223 -707 -430 426 421 415 408 400 391 381 370 358 345 331 316 300 283 265 246 226 0
-223 707 0
-223 430 0
-223 -426 0
-223 -421 0
-223 -415 0
-223 -408 0
-223 -400 0
-223 -391 0
-223 -381 0
-223 -370 0
-223 -358 0
-223 -345 0
-223 -331 0
-223 -316 0
-223 -300 0
-223 -283 0
-223 -265 0
-223 -246 0
-223 -226 0
224 -708 -462 433 430 426 421 415 408 400 391 381 370 358 345 331 316 300 283 265 246 226 0
-224 708 0
-224 462 0
-224 -433 0
-224 -430 0
-224 -426 0
-224 -421 0
-224 -415 0
-224 -408 0
-224 -400 0
-224 -391 0
-224 -381 0
-224 -370 0
-224 -358 0
-224 -345 0
-224 -331 0
-224 -316 0
-224 -300 0
-224 -283 0
-224 -265 0
-224 -246 0
-224 -226 0
225 -709 -331 316 300 283 265 246 226 0
-225 709 0
-225 331 0
-225 -316 0
-225 -300 0
-225 -283 0
-225 -265 0
-225 -246 0
-225 -226 0
227 -710 -400 391 381 370 358 345 331 316 300 283 265 246 0
-227 710 0
-227 400 0
-227 -391 0
-227 -381 0
-227 -370 0
-227 -358 0
-227 -345 0
-227 -331 0
-227 -316 0
-227 -300 0
-227 -283 0
-227 -265 0
-227 -246 0
228 -711 -265 246 0
-228 711 0
-228 265 0
-228 -246 0
229 -712 -430 426 421 415 408 400 391 381 370 358 345 331 316 300 283 265 246 0
-229 712 0
-229 430 0
-229 -426 0
-229 -421 0
-229 -415 0
-229 -408 0
-229 -400 0
-229 -391 0
-229 -381 0
-229 -370 0
-229 -358 0
-229 -345 0
-229 -331 0
-229 -316 0
-229 -300 0
-229 -283 0
-229 -265 0
-229 -246 0
230 -713 -331 316 300 283 265 246 0
-230 713 0
-230 331 0
-230 -316 0
-230 -300 0
-230 -283 0
-230 -265 0
-230 -246 0
231 -714 -246 0
-231 714 0
-231 246 0
232 -715 -391 381 370 358 345 331 316 300 283 265 246 0
-232 715 0
-232 391 0
-232 -381 0
-232 -370 0
-232 -358 0
-232 -345 0
-232 -331 0
-232 -316 0
-232 -300 0
-232 -283 0
-232 -265 0
-232 -246 0
233 -716 -408 400 391 381 370 358 345 331 316 300 283 265 246 0
-233 716 0
-233 408 0
-233 -400 0
-233 -391 0
-233 -381 0
-233 -370 0
-233 -358 0
-233 -345 0
-233 -331 0
-233 -316 0
-233 -300 0
-233 -283 0
-233 -265 0
-233 -246 0
234 -717 -433 430 426 421 415 408 400 391 381 370 358 345 331 316 300 283 265 246 0
-234 717 0
-234 433 0
-234 -430 0
-234 -426 0
-234 -421 0
-234 -415 0
-234 -408 0
-234 -400 0
-234 -391 0
-234 -381 0
-234 -370 0
-234 -358 0
-234 -345 0
-234 -331 0
-234 -316 0
-234 -300 0
-234 -283 0
-234 -265 0
-234 -246 0
235 -718 -345 331 316 300 283 265 246 0
-235 718 0
-235 345 0
-235 -331 0
-235 -316 0
-235 -300 0
-235 -283 0
-235 -265 0
-235 -246 0
236 -719 -358 345 331 316 300 283 265 246 0
-236 719 0
-236 358 0
-236 -345 0
-236 -331 0
-236 -316 0
-236 -300 0
-236 -283 0
-236 -265 0
-236 -246 0
237 -720 -370 358 345 331 316 300 283 265 246 0
-237 720 0
-237 370 0
-237 -358 0
-237 -345 0
-237 -331 0
-237 -316 0
-237 -300 0
-237 -283 0
-237 -265 0
-237 -246 0
238 -721 -462 433 430 426 421 415 408 400 391 381 370 358 345 331 316 300 283 265 246 0
-238 721 0
-238 462 0
-238 -433 0
-238 -430 0
-238 -426 0
-238 -421 0
-238 -415 0
-238 -408 0
-238 -400 0
-238 -391 0
-238 -381 0
-238 -370 0
-238 -358 0
-238 -345 0
-238 -331 0
-238 -316 0
-238 -300 0
-238 -283 0
-238 -265 0
-238 -246 0
239 -722 -426 421 415 408 400 391 381 370 358 345 331 316 300 283 265 246 0
-239 722 0
-239 426 0
-239 -421 0
-239 -415 0
-239 -408 0
-239 -400 0
-239 -391 0
-239 -381 0
-239 -370 0
-239 -358 0
-239 -345 0
-239 -331 0
-239 -316 0
-239 -300 0
-239 -283 0
-239 -265 0
-239 -246 0
240 -723 -381 370 358 345 331 316 300 283 265 246 0
-240 723 0
-240 381 0
-240 -370 0
-240 -358 0
-240 -345 0
-240 -331 0
-240 -316 0
-240 -300 0
-240 -283 0
-240 -265 0
-240 -246 0
241 -724 -300 283 265 246 0
-241 724 0
-241 300 0
-241 -283 0
-241 -265 0
-241 -246 0
242 -725 -415 408 400 391 381 370 358 345 331 316 300 283 265 246 0
-242 725 0
-242 415 0
-242 -408 0
-242 -400 0
-242 -391 0
-242 -381 0
-242 -370 0
-242 -358 0
-242 -345 0
-242 -331 0
-242 -316 0
-242 -300 0
-242 -283 0
-242 -265 0
-242 -246 0
243 -726 -283 265 246 0
-243 726 0
-243 283 0
-243 -265 0
-243 -246 0
244 -727 -421 415 408 400 391 381 370 358 345 331 316 300 283 265 246 0
-244 727 0
-244 421 0
-244 -415 0
-244 -408 0
-244 -400 0
-244 -391 0
-244 -381 0
-244 -370 0
-244 -358 0
-244 -345 0
-244 -331 0
-244 -316 0
-244 -300 0
-244 -283 0
-244 -265 0
-244 -246 0
245 -728 -316 300 283 265 246 0
-245 728 0
-245 316 0
-245 -300 0
-245 -283 0
-245 -265 0
-245 -246 0
247 -729 -283 265 0
-247 729 0
-247 283 0
-247 -265 0
248 -730 -433 430 426 421 415 408 400 391 381 370 358 345 331 316 300 283 265 0
-248 730 0
-248 433 0
-248 -430 0
-248 -426 0
-248 -421 0
-248 -415 0
-248 -408 0
-248 -400 0
-248 -391 0
-248 -381 0
-248 -370 0
-248 -358 0
-248 -345 0
-248 -331 0
-248 -316 0
-248 -300 0
-248 -283 0
-248 -265 0
249 -731 -415 408 400 391 381 370 358 345 331 316 300 283 265 0
-249 731 0
-249 415 0
-249 -408 0
-249 -400 0
-249 -391 0
-249 -381 0
-249 -370 0
-249 -358 0
-249 -345 0
-249 -331 0
-249 -316 0
-249 -300 0
-249 -283 0
-249 -265 0
250 -732 -300 283 265 0
-250 732 0
-250 300 0
-250 -283 0
-250 -265 0
251 -733 -421 415 408 400 391 381 370 358 345 331 316 300 283 265 0
-251 733 0
-251 421 0
-251 -415 0
-251 -408 0
-251 -400 0
-251 -391 0
-251 -381 0
-251 -370 0
-251 -358 0
-251 -345 0
-251 -331 0
-251 -316 0
-251 -300 0
-251 -283 0
-251 -265 0
252 -734 -430 426 421 415 408 400 391 381 370 358 345 331 316 300 283 265 0
-252 734 0
-252 430 0
-252 -426 0
-252 -421 0
-252 -415 0
-252 -408 0
-252 -400 0
-252 -391 0
-252 -381 0
-252 -370 0
-252 -358 0
-252 -345 0
-252 -331 0
-252 -316 0
-252 -300 0
-252 -283 0
-252 -265 0
253 -735 -462 433 430 426 421 415 408 400 391 381 370 358 345 331 316 300 283 265 0
-253 735 0
-253 462 0
-253 -433 0
-253 -430 0
-253 -426 0
-253 -421 0
-253 -415 0
-253 -408 0
-253 -400 0
-253 -391 0
-253 -381 0
-253 -370 0
-253 -358 0
-253 -345 0
-253 -331 0
-253 -316 0
-253 -300 0
-253 -283 0
-253 -265 0
254 -736 -381 370 358 345 331 316 300 283 265 0
-254 736 0
-254 381 0
-254 -370 0
-254 -358 0
-254 -345 0
-254 -331 0
-254 -316 0
-254 -300 0
-254 -283 0
-254 -265 0
255 -737 -265 0
-255 737 0
-255 265 0
256 -738 -345 331 316 300 283 265 0
-256 738 0
-256 345 0
-256 -331 0
-256 -316 0
-256 -300 0
-256 -283 0
-256 -265 0
257 -739 -370 358 345 331 316 300 283 265 0
-257 739 0
-257 370 0
-257 -358 0
-257 -345 0
-257 -331 0
-257 -316 0
-257 -300 0
-257 -283 0
-257 -265 0
258 -740 -391 381 370 358 345 331 316 300 283 265 0
-258 740 0
-258 391 0
-258 -381 0
-258 -370 0
-258 -358 0
-258 -345 0
-258 -331 0
-258 -316 0
-258 -300 0
-258 -283 0
-258 -265 0
259 -741 -408 400 391 381 370 358 345 331 316 300 283 265 0
-259 741 0
-259 408 0
-259 -400 0
-259 -391 0
-259 -381 0
-259 -370 0
-259 -358 0
-259 -345 0
-259 -331 0
-259 -316 0
-259 -300 0
-259 -283 0
-259 -265 0
260 -742 -358 345 331 316 300 283 265 0
-260 742 0
-260 358 0
-260 -345 0
-260 -331 0
-260 -316 0
-260 -300 0
-260 -283 0
-260 -265 0
261 -743 -316 300 283 265 0
-261 743 0
-261 316 0
-261 -300 0
-261 -283 0
-261 -265 0
262 -744 -331 316 300 283 265 0
-262 744 0
-262 331 0
-262 -316 0
-262 -300 0
-262 -283 0
-262 -265 0
263 -745 -426 421 415 408 400 391 381 370 358 345 331 316 300 283 265 0
-263 745 0
-263 426 0
-263 -421 0
-263 -415 0
-263 -408 0
-263 -400 0
-263 -391 0
-263 -381 0
-263 -370 0
-263 -358 0
-263 -345 0
-263 -331 0
-263 -316 0
-263 -300 0
-263 -283 0
-263 -265 0
264 -746 -400 391 381 370 358 345 331 316 300 283 265 0
-264 746 0
-264 400 0
-264 -391 0
-264 -381 0
-264 -370 0
-264 -358 0
-264 -345 0
-264 -331 0
-264 -316 0
-264 -300 0
-264 -283 0
-264 -265 0
266 -747 -345 331 316 300 283 0
-266 747 0
-266 345 0
-266 -331 0
-266 -316 0
-266 -300 0
-266 -283 0
267 -748 -381 370 358 345 331 316 300 283 0
-267 748 0
-267 381 0
-267 -370 0
-267 -358 0
-267 -345 0
-267 -331 0
-267 -316 0
-267 -300 0
-267 -283 0
268 -749 -430 426 421 415 408 400 391 381 370 358 345 331 316 300 283 0
-268 749 0
-268 430 0
-268 -426 0
-268 -421 0
-268 -415 0
-268 -408 0
-268 -400 0
-268 -391 0
-268 -381 0
-268 -370 0
-268 -358 0
-268 -345 0
-268 -331 0
-268 -316 0
-268 -300 0
-268 -283 0
269 -750 -391 381 370 358 345 331 316 300 283 0
-269 750 0
-269 391 0
-269 -381 0
-269 -370 0
-269 -358 0
-269 -345 0
-269 -331 0
-269 -316 0
-269 -300 0
-269 -283 0
270 -751 -331 316 300 283 0
-270 751 0
-270 331 0
-270 -316 0
-270 -300 0
-270 -283 0
271 -752 -300 283 0
-271 752 0
-271 300 0
-271 -283 0
272 -753 -316 300 283 0
-272 753 0
-272 316 0
-272 -300 0
-272 -283 0
273 -754 -370 358 345 331 316 300 283 0
-273 754 0
-273 370 0
-273 -358 0
-273 -345 0
-273 -331 0
-273 -316 0
-273 -300 0
-273 -283 0
274 -755 -358 345 331 316 300 283 0
-274 755 0
-274 358 0
-274 -345 0
-274 -331 0
-274 -316 0
-274 -300 0
-274 -283 0
275 -756 -408 400 391 381 370 358 345 331 316 300 283 0
-275 756 0
-275 408 0
-275 -400 0
-275 -391 0
-275 -381 0
-275 -370 0
-275 -358 0
-275 -345 0
-275 -331 0
-275 -316 0
-275 -300 0
-275 -283 0
276 -757 -415 408 400 391 381 370 358 345 331 316 300 283 0
-276 757 0
-276 415 0
-276 -408 0
-276 -400 0
-276 -391 0
-276 -381 0
-276 -370 0
-276 -358 0
-276 -345 0
-276 -331 0
-276 -316 0
-276 -300 0
-276 -283 0
277 -758 -283 0
-277 758 0
-277 283 0
278 -759 -400 391 381 370 358 345 331 316 300 283 0
-278 759 0
-278 400 0
-278 -391 0
-278 -381 0
-278 -370 0
-278 -358 0
-278 -345 0
-278 -331 0
-278 -316 0
-278 -300 0
-278 -283 0
279 -760 -462 433 430 426 421 415 408 400 391 381 370 358 345 331 316 300 283 0
-279 760 0
-279 462 0
-279 -433 0
-279 -430 0
-279 -426 0
-279 -421 0
-279 -415 0
-279 -408 0
-279 -400 0
-279 -391 0
-279 -381 0
-279 -370 0
-279 -358 0
-279 -345 0
-279 -331 0
-279 -316 0
-279 -300 0
-279 -283 0
280 -761 -421 415 408 400 391 381 370 358 345 331 316 300 283 0
-280 761 0
-280 421 0
-280 -415 0
-280 -408 0
-280 -400 0
-280 -391 0
-280 -381 0
-280 -370 0
-280 -358 0
-280 -345 0
-280 -331 0
-280 -316 0
-280 -300 0
-280 -283 0
281 -762 -433 430 426 421 415 408 400 391 381 370 358 345 331 316 300 283 0
-281 762 0
-281 433 0
-281 -430 0
-281 -426 0
-281 -421 0
-281 -415 0
-281 -408 0
-281 -400 0
-281 -391 0
-281 -381 0
-281 -370 0
-281 -358 0
-281 -345 0
-281 -331 0
-281 -316 0
-281 -300 0
-281 -283 0
282 -763 -426 421 415 408 400 391 381 370 358 345 331 316 300 283 0
-282 763 0
-282 426 0
-282 -421 0
-282 -415 0
-282 -408 0
-282 -400 0
-282 -391 0
-282 -381 0
-282 -370 0
-282 -358 0
-282 -345 0
-282 -331 0
-282 -316 0
-282 -300 0
-282 -283 0
284 -764 -421 415 408 400 391 381 370 358 345 331 316 300 0
-284 764 0
-284 421 0
-284 -415 0
-284 -408 0
-284 -400 0
-284 -391 0
-284 -381 0
-284 -370 0
-284 -358 0
-284 -345 0
-284 -331 0
-284 -316 0
-284 -300 0
285 -765 -408 400 391 381 370 358 345 331 316 300 0
-285 765 0
-285 408 0
-285 -400 0
-285 -391 0
-285 -381 0
-285 -370 0
-285 -358 0
-285 -345 0
-285 -331 0
-285 -316 0
-285 -300 0
286 -766 -462 433 430 426 421 415 408 400 391 381 370 358 345 331 316 300 0
-286 766 0
-286 462 0
-286 -433 0
-286 -430 0
-286 -426 0
-286 -421 0
-286 -415 0
-286 -408 0
-286 -400 0
-286 -391 0
-286 -381 0
-286 -370 0
-286 -358 0
-286 -345 0
-286 -331 0
-286 -316 0
-286 -300 0
287 -767 -345 331 316 300 0
-287 767 0
-287 345 0
-287 -331 0
-287 -316 0
-287 -300 0
288 -768 -370 358 345 331 316 300 0
-288 768 0
-288 370 0
-288 -358 0
-288 -345 0
-288 -331 0
-288 -316 0
-288 -300 0
289 -769 -415 408 400 391 381 370 358 345 331 316 300 0
-289 769 0
-289 415 0
-289 -408 0
-289 -400 0
-289 -391 0
-289 -381 0
-289 -370 0
-289 -358 0
-289 -345 0
-289 -331 0
-289 -316 0
-289 -300 0
290 -770 -381 370 358 345 331 316 300 0
-290 770 0
-290 381 0
-290 -370 0
-290 -358 0
-290 -345 0
-290 -331 0
-290 -316 0
-290 -300 0
291 -771 -331 316 300 0
-291 771 0
-291 331 0
-291 -316 0
-291 -300 0
292 -772 -426 421 415 408 400 391 381 370 358 345 331 316 300 0
-292 772 0
-292 426 0
-292 -421 0
-292 -415 0
-292 -408 0
-292 -400 0
-292 -391 0
-292 -381 0
-292 -370 0
-292 -358 0
-292 -345 0
-292 -331 0
-292 -316 0
-292 -300 0
293 -773 -391 381 370 358 345 331 316 300 0
-293 773 0
-293 391 0
-293 -381 0
-293 -370 0
-293 -358 0
-293 -345 0
-293 -331 0
-293 -316 0
-293 -300 0
294 -774 -300 0
-294 774 0
-294 300 0
295 -775 -430 426 421 415 408 400 391 381 370 358 345 331 316 300 0
-295 775 0
-295 430 0
-295 -426 0
-295 -421 0
-295 -415 0
-295 -408 0
-295 -400 0
-295 -391 0
-295 -381 0
-295 -370 0
-295 -358 0
-295 -345 0
-295 -331 0
-295 -316 0
-295 -300 0
296 -776 -400 391 381 370 358 345 331 316 300 0
-296 776 0
-296 400 0
-296 -391 0
-296 -381 0
-296 -370 0
-296 -358 0
-296 -345 0
-296 -331 0
-296 -316 0
-296 -300 0
297 -777 -358 345 331 316 300 0
-297 777 0
-297 358 0
-297 -345 0
-297 -331 0
-297 -316 0
-297 -300 0
298 -778 -433 430 426 421 415 408 400 391 381 370 358 345 331 316 300 0
-298 778 0
-298 433 0
-298 -430 0
-298 -426 0
-298 -421 0
-298 -415 0
-298 -408 0
-298 -400 0
-298 -391 0
-298 -381 0
-298 -370 0
-298 -358 0
-298 -345 0
-298 -331 0
-298 -316 0
-298 -300 0
299 -779 -316 300 0
-299 779 0
-299 316 0
-299 -300 0
301 -780 -433 430 426 421 415 408 400 391 381 370 358 345 331 316 0
-301 780 0
-301 433 0
-301 -430 0
-301 -426 0
-301 -421 0
-301 -415 0
-301 -408 0
-301 -400 0
-301 -391 0
-301 -381 0
-301 -370 0
-301 -358 0
-301 -345 0
-301 -331 0
-301 -316 0
302 -781 -358 345 331 316 0
-302 781 0
-302 358 0
-302 -345 0
-302 -331 0
-302 -316 0
303 -782 -370 358 345 331 316 0
-303 782 0
-303 370 0
-303 -358 0
-303 -345 0
-303 -331 0
-303 -316 0
304 -783 -316 0
-304 783 0
-304 316 0
305 -784 -331 316 0
-305 784 0
-305 331 0
-305 -316 0
306 -785 -381 370 358 345 331 316 0
-306 785 0
-306 381 0
-306 -370 0
-306 -358 0
-306 -345 0
-306 -331 0
-306 -316 0
307 -786 -345 331 316 0
-307 786 0
-307 345 0
-307 -331 0
-307 -316 0
308 -787 -462 433 430 426 421 415 408 400 391 381 370 358 345 331 316 0
-308 787 0
-308 462 0
-308 -433 0
-308 -430 0
-308 -426 0
-308 -421 0
-308 -415 0
-308 -408 0
-308 -400 0
-308 -391 0
-308 -381 0
-308 -370 0
-308 -358 0
-308 -345 0
-308 -331 0
-308 -316 0
309 -788 -391 381 370 358 345 331 316 0
-309 788 0
-309 391 0
-309 -381 0
-309 -370 0
-309 -358 0
-309 -345 0
-309 -331 0
-309 -316 0
310 -789 -415 408 400 391 381 370 358 345 331 316 0
-310 789 0
-310 415 0
-310 -408 0
-310 -400 0
-310 -391 0
-310 -381 0
-310 -370 0
-310 -358 0
-310 -345 0
-310 -331 0
-310 -316 0
311 -790 -430 426 421 415 408 400 391 381 370 358 345 331 316 0
-311 790 0
-311 430 0
-311 -426 0
-311 -421 0
-311 -415 0
-311 -408 0
-311 -400 0
-311 -391 0
-311 -381 0
-311 -370 0
-311 -358 0
-311 -345 0
-311 -331 0
-311 -316 0
312 -791 -408 400 391 381 370 358 345 331 316 0
-312 791 0
-312 408 0
-312 -400 0
-312 -391 0
-312 -381 0
-312 -370 0
-312 -358 0
-312 -345 0
-312 -331 0
-312 -316 0
313 -792 -426 421 415 408 400 391 381 370 358 345 331 316 0
-313 792 0
-313 426 0
-313 -421 0
-313 -415 0
-313 -408 0
-313 -400 0
-313 -391 0
-313 -381 0
-313 -370 0
-313 -358 0
-313 -345 0
-313 -331 0
-313 -316 0
314 -793 -400 391 381 370 358 345 331 316 0
-314 793 0
-314 400 0
-314 -391 0
-314 -381 0
-314 -370 0
-314 -358 0
-314 -345 0
-314 -331 0
-314 -316 0
315 -794 -421 415 408 400 391 381 370 358 345 331 316 0
-315 794 0
-315 421 0
-315 -415 0
-315 -408 0
-315 -400 0
-315 -391 0
-315 -381 0
-315 -370 0
-315 -358 0
-315 -345 0
-315 -331 0
-315 -316 0
317 -795 -391 381 370 358 345 331 0
-317 795 0
-317 391 0
-317 -381 0
-317 -370 0
-317 -358 0
-317 -345 0
-317 -331 0
318 -796 -400 391 381 370 358 345 331 0
-318 796 0
-318 400 0
-318 -391 0
-318 -381 0
-318 -370 0
-318 -358 0
-318 -345 0
-318 -331 0
319 -797 -345 331 0
-319 797 0
-319 345 0
-319 -331 0
320 -798 -415 408 400 391 381 370 358 345 331 0
-320 798 0
-320 415 0
-320 -408 0
-320 -400 0
-320 -391 0
-320 -381 0
-320 -370 0
-320 -358 0
-320 -345 0
-320 -331 0
321 -799 -381 370 358 345 331 0
-321 799 0
-321 381 0
-321 -370 0
-321 -358 0
-321 -345 0
-321 -331 0
322 -800 -331 0
-322 800 0
-322 331 0
323 -801 -426 421 415 408 400 391 381 370 358 345 331 0
-323 801 0
-323 426 0
-323 -421 0
-323 -415 0
-323 -408 0
-323 -400 0
-323 -391 0
-323 -381 0
-323 -370 0
-323 -358 0
-323 -345 0
-323 -331 0
324 -802 -370 358 345 331 0
-324 802 0
-324 370 0
-324 -358 0
-324 -345 0
-324 -331 0
325 -803 -462 433 430 426 421 415 408 400 391 381 370 358 345 331 0
-325 803 0
-325 462 0
-325 -433 0
-325 -430 0
-325 -426 0
-325 -421 0
-325 -415 0
-325 -408 0
-325 -400 0
-325 -391 0
-325 -381 0
-325 -370 0
-325 -358 0
-325 -345 0
-325 -331 0
326 -804 -433 430 426 421 415 408 400 391 381 370 358 345 331 0
-326 804 0
-326 433 0
-326 -430 0
-326 -426 0
-326 -421 0
-326 -415 0
-326 -408 0
-326 -400 0
-326 -391 0
-326 -381 0
-326 -370 0
-326 -358 0
-326 -345 0
-326 -331 0
327 -805 -408 400 391 381 370 358 345 331 0
-327 805 0
-327 408 0
-327 -400 0
-327 -391 0
-327 -381 0
-327 -370 0
-327 -358 0
-327 -345 0
-327 -331 0
328 -806 -358 345 331 0
-328 806 0
-328 358 0
-328 -345 0
-328 -331 0
329 -807 -430 426 421 415 408 400 391 381 370 358 345 331 0
-329 807 0
-329 430 0
-329 -426 0
-329 -421 0
-329 -415 0
-329 -408 0
-329 -400 0
-329 -391 0
-329 -381 0
-329 -370 0
-329 -358 0
-329 -345 0
-329 -331 0
330 -808 -421 415 408 400 391 381 370 358 345 331 0
-330 808 0
-330 421 0
-330 -415 0
-330 -408 0
-330 -400 0
-330 -391 0
-330 -381 0
-330 -370 0
-330 -358 0
-330 -345 0
-330 -331 0
332 -809 -426 421 415 408 400 391 381 370 358 345 0
-332 809 0
-332 426 0
-332 -421 0
-332 -415 0
-332 -408 0
-332 -400 0
-332 -391 0
-332 -381 0
-332 -370 0
-332 -358 0
-332 -345 0
333 -810 -462 433 430 426 421 415 408 400 391 381 370 358 345 0
-333 810 0
-333 462 0
-333 -433 0
-333 -430 0
-333 -426 0
-333 -421 0
-333 -415 0
-333 -408 0
-333 -400 0
-333 -391 0
-333 -381 0
-333 -370 0
-333 -358 0
-333 -345 0
334 -811 -408 400 391 381 370 358 345 0
-334 811 0
-334 408 0
-334 -400 0
-334 -391 0
-334 -381 0
-334 -370 0
-334 -358 0
-334 -345 0
335 -812 -430 426 421 415 408 400 391 381 370 358 345 0
-335 812 0
-335 430 0
-335 -426 0
-335 -421 0
-335 -415 0
-335 -408 0
-335 -400 0
-335 -391 0
-335 -381 0
-335 -370 0
-335 -358 0
-335 -345 0
336 -813 -433 430 426 421 415 408 400 391 381 370 358 345 0
-336 813 0
-336 433 0
-336 -430 0
-336 -426 0
-336 -421 0
-336 -415 0
-336 -408 0
-336 -400 0
-336 -391 0
-336 -381 0
-336 -370 0
-336 -358 0
-336 -345 0
337 -814 -421 415 408 400 391 381 370 358 345 0
-337 814 0
-337 421 0
-337 -415 0
-337 -408 0
-337 -400 0
-337 -391 0
-337 -381 0
-337 -370 0
-337 -358 0
-337 -345 0
338 -815 -391 381 370 358 345 0
-338 815 0
-338 391 0
-338 -381 0
-338 -370 0
-338 -358 0
-338 -345 0
339 -816 -415 408 400 391 381 370 358 345 0
-339 816 0
-339 415 0
-339 -408 0
-339 -400 0
-339 -391 0
-339 -381 0
-339 -370 0
-339 -358 0
-339 -345 0
340 -817 -400 391 381 370 358 345 0
-340 817 0
-340 400 0
-340 -391 0
-340 -381 0
-340 -370 0
-340 -358 0
-340 -345 0
341 -818 -345 0
-341 818 0
-341 345 0
342 -819 -358 345 0
-342 819 0
-342 358 0
-342 -345 0
343 -820 -370 358 345 0
-343 820 0
-343 370 0
-343 -358 0
-343 -345 0
344 -821 -381 370 358 345 0
-344 821 0
-344 381 0
-344 -370 0
-344 -358 0
-344 -345 0
346 -822 -391 381 370 358 0
-346 822 0
-346 391 0
-346 -381 0
-346 -370 0
-346 -358 0
347 -823 -426 421 415 408 400 391 381 370 358 0
-347 823 0
-347 426 0
-347 -421 0
-347 -415 0
-347 -408 0
-347 -400 0
-347 -391 0
-347 -381 0
-347 -370 0
-347 -358 0
348 -824 -408 400 391 381 370 358 0
-348 824 0
-348 408 0
-348 -400 0
-348 -391 0
-348 -381 0
-348 -370 0
-348 -358 0
349 -825 -415 408 400 391 381 370 358 0
-349 825 0
-349 415 0
-349 -408 0
-349 -400 0
-349 -391 0
-349 -381 0
-349 -370 0
-349 -358 0
350 -826 -358 0
-350 826 0
-350 358 0
351 -827 -381 370 358 0
-351 827 0
-351 381 0
-351 -370 0
-351 -358 0
352 -828 -400 391 381 370 358 0
-352 828 0
-352 400 0
-352 -391 0
-352 -381 0
-352 -370 0
-352 -358 0
353 -829 -370 358 0
-353 829 0
-353 370 0
-353 -358 0
354 -830 -462 433 430 426 421 415 408 400 391 381 370 358 0
-354 830 0
-354 462 0
-354 -433 0
-354 -430 0
-354 -426 0
-354 -421 0
-354 -415 0
-354 -408 0
-354 -400 0
-354 -391 0
-354 -381 0
-354 -370 0
-354 -358 0
355 -831 -430 426 421 415 408 400 391 381 370 358 0
-355 831 0
-355 430 0
-355 -426 0
-355 -421 0
-355 -415 0
-355 -408 0
-355 -400 0
-355 -391 0
-355 -381 0
-355 -370 0
-355 -358 0
356 -832 -421 415 408 400 391 381 370 358 0
-356 832 0
-356 421 0
-356 -415 0
-356 -408 0
-356 -400 0
-356 -391 0
-356 -381 0
-356 -370 0
-356 -358 0
357 -833 -433 430 426 421 415 408 400 391 381 370 358 0
-357 833 0
-357 433 0
-357 -430 0
-357 -426 0
-357 -421 0
-357 -415 0
-357 -408 0
-357 -400 0
-357 -391 0
-357 -381 0
-357 -370 0
-357 -358 0
359 -834 -462 433 430 426 421 415 408 400 391 381 370 0
-359 834 0
-359 462 0
-359 -433 0
-359 -430 0
-359 -426 0
-359 -421 0
-359 -415 0
-359 -408 0
-359 -400 0
-359 -391 0
-359 -381 0
-359 -370 0
360 -835 -408 400 391 381 370 0
-360 835 0
-360 408 0
-360 -400 0
-360 -391 0
-360 -381 0
-360 -370 0
361 -836 -430 426 421 415 408 400 391 381 370 0
-361 836 0
-361 430 0
-361 -426 0
-361 -421 0
-361 -415 0
-361 -408 0
-361 -400 0
-361 -391 0
-361 -381 0
-361 -370 0
362 -837 -400 391 381 370 0
-362 837 0
-362 400 0
-362 -391 0
-362 -381 0
-362 -370 0
363 -838 -391 381 370 0
-363 838 0
-363 391 0
-363 -381 0
-363 -370 0
364 -839 -381 370 0
-364 839 0
-364 381 0
-364 -370 0
365 -840 -426 421 415 408 400 391 381 370 0
-365 840 0
-365 426 0
-365 -421 0
-365 -415 0
-365 -408 0
-365 -400 0
-365 -391 0
-365 -381 0
-365 -370 0
366 -841 -415 408 400 391 381 370 0
-366 841 0
-366 415 0
-366 -408 0
-366 -400 0
-366 -391 0
-366 -381 0
-366 -370 0
367 -842 -421 415 408 400 391 381 370 0
-367 842 0
-367 421 0
-367 -415 0
-367 -408 0
-367 -400 0
-367 -391 0
-367 -381 0
-367 -370 0
368 -843 -370 0
-368 843 0
-368 370 0
369 -844 -433 430 426 421 415 408 400 391 381 370 0
-369 844 0
-369 433 0
-369 -430 0
-369 -426 0
-369 -421 0
-369 -415 0
-369 -408 0
-369 -400 0
-369 -391 0
-369 -381 0
-369 -370 0
371 -845 -430 426 421 415 408 400 391 381 0
-371 845 0
-371 430 0
-371 -426 0
-371 -421 0
-371 -415 0
-371 -408 0
-371 -400 0
-371 -391 0
-371 -381 0
372 -846 -462 433 430 426 421 415 408 400 391 381 0
-372 846 0
-372 462 0
-372 -433 0
-372 -430 0
-372 -426 0
-372 -421 0
-372 -415 0
-372 -408 0
-372 -400 0
-372 -391 0
-372 -381 0
373 -847 -426 421 415 408 400 391 381 0
-373 847 0
-373 426 0
-373 -421 0
-373 -415 0
-373 -408 0
-373 -400 0
-373 -391 0
-373 -381 0
374 -848 -391 381 0
-374 848 0
-374 391 0
-374 -381 0
375 -849 -415 408 400 391 381 0
-375 849 0
-375 415 0
-375 -408 0
-375 -400 0
-375 -391 0
-375 -381 0
376 -850 -381 0
-376 850 0
-376 381 0
377 -851 -421 415 408 400 391 381 0
-377 851 0
-377 421 0
-377 -415 0
-377 -408 0
-377 -400 0
-377 -391 0
-377 -381 0
378 -852 -400 391 381 0
-378 852 0
-378 400 0
-378 -391 0
-378 -381 0
379 -853 -408 400 391 381 0
-379 853 0
-379 408 0
-379 -400 0
-379 -391 0
-379 -381 0
380 -854 -433 430 426 421 415 408 400 391 381 0
-380 854 0
-380 433 0
-380 -430 0
-380 -426 0
-380 -421 0
-380 -415 0
-380 -408 0
-380 -400 0
-380 -391 0
-380 -381 0
382 -855 -462 433 430 426 421 415 408 400 391 0
-382 855 0
-382 462 0
-382 -433 0
-382 -430 0
-382 -426 0
-382 -421 0
-382 -415 0
-382 -408 0
-382 -400 0
-382 -391 0
383 -856 -430 426 421 415 408 400 391 0
-383 856 0
-383 430 0
-383 -426 0
-383 -421 0
-383 -415 0
-383 -408 0
-383 -400 0
-383 -391 0
384 -857 -391 0
-384 857 0
-384 391 0
385 -858 -421 415 408 400 391 0
-385 858 0
-385 421 0
-385 -415 0
-385 -408 0
-385 -400 0
-385 -391 0
386 -859 -433 430 426 421 415 408 400 391 0
-386 859 0
-386 433 0
-386 -430 0
-386 -426 0
-386 -421 0
-386 -415 0
-386 -408 0
-386 -400 0
-386 -391 0
387 -860 -400 391 0
-387 860 0
-387 400 0
-387 -391 0
388 -861 -415 408 400 391 0
-388 861 0
-388 415 0
-388 -408 0
-388 -400 0
-388 -391 0
389 -862 -426 421 415 408 400 391 0
-389 862 0
-389 426 0
-389 -421 0
-389 -415 0
-389 -408 0
-389 -400 0
-389 -391 0
390 -863 -408 400 391 0
-390 863 0
-390 408 0
-390 -400 0
-390 -391 0
392 -864 -400 0
-392 864 0
-392 400 0
393 -865 -426 421 415 408 400 0
-393 865 0
-393 426 0
-393 -421 0
-393 -415 0
-393 -408 0
-393 -400 0
394 -866 -408 400 0
-394 866 0
-394 408 0
-394 -400 0
395 -867 -433 430 426 421 415 408 400 0
-395 867 0
-395 433 0
-395 -430 0
-395 -426 0
-395 -421 0
-395 -415 0
-395 -408 0
-395 -400 0
396 -868 -430 426 421 415 408 400 0
-396 868 0
-396 430 0
-396 -426 0
-396 -421 0
-396 -415 0
-396 -408 0
-396 -400 0
397 -869 -462 433 430 426 421 415 408 400 0
-397 869 0
-397 462 0
-397 -433 0
-397 -430 0
-397 -426 0
-397 -421 0
-397 -415 0
-397 -408 0
-397 -400 0
398 -870 -421 415 408 400 0
-398 870 0
-398 421 0
-398 -415 0
-398 -408 0
-398 -400 0
399 -871 -415 408 400 0
-399 871 0
-399 415 0
-399 -408 0
-399 -400 0
401 -872 -462 433 430 426 421 415 408 0
-401 872 0
-401 462 0
-401 -433 0
-401 -430 0
-401 -426 0
-401 -421 0
-401 -415 0
-401 -408 0
402 -873 -415 408 0
-402 873 0
-402 415 0
-402 -408 0
403 -874 -433 430 426 421 415 408 0
-403 874 0
-403 433 0
-403 -430 0
-403 -426 0
-403 -421 0
-403 -415 0
-403 -408 0
404 -875 -408 0
-404 875 0
-404 408 0
405 -876 -426 421 415 408 0
-405 876 0
-405 426 0
-405 -421 0
-405 -415 0
-405 -408 0
406 -877 -430 426 421 415 408 0
-406 877 0
-406 430 0
-406 -426 0
-406 -421 0
-406 -415 0
-406 -408 0
407 -878 -421 415 408 0
-407 878 0
-407 421 0
-407 -415 0
-407 -408 0
409 -879 -421 415 0
-409 879 0
-409 421 0
-409 -415 0
410 -880 -430 426 421 415 0
-410 880 0
-410 430 0
-410 -426 0
-410 -421 0
-410 -415 0
411 -881 -415 0
-411 881 0
-411 415 0
412 -882 -433 430 426 421 415 0
-412 882 0
-412 433 0
-412 -430 0
-412 -426 0
-412 -421 0
-412 -415 0
413 -883 -426 421 415 0
-413 883 0
-413 426 0
-413 -421 0
-413 -415 0
414 -884 -462 433 430 426 421 415 0
-414 884 0
-414 462 0
-414 -433 0
-414 -430 0
-414 -426 0
-414 -421 0
-414 -415 0
416 -885 -426 421 0
-416 885 0
-416 426 0
-416 -421 0
417 -886 -421 0
-417 886 0
-417 421 0
418 -887 -430 426 421 0
-418 887 0
-418 430 0
-418 -426 0
-418 -421 0
419 -888 -433 430 426 421 0
-419 888 0
-419 433 0
-419 -430 0
-419 -426 0
-419 -421 0
420 -889 -462 433 430 426 421 0
-420 889 0
-420 462 0
-420 -433 0
-420 -430 0
-420 -426 0
-420 -421 0
422 -890 -426 0
-422 890 0
-422 426 0
423 -891 -433 430 426 0
-423 891 0
-423 433 0
-423 -430 0
-423 -426 0
424 -892 -430 426 0
-424 892 0
-424 430 0
-424 -426 0
425 -893 -462 433 430 426 0
-425 893 0
-425 462 0
-425 -433 0
-425 -430 0
-425 -426 0
427 -894 -430 0
-427 894 0
-427 430 0
428 -895 -462 433 430 0
-428 895 0
-428 462 0
-428 -433 0
-428 -430 0
429 -896 -433 430 0
-429 896 0
-429 433 0
-429 -430 0
431 -897 -433 0
-431 897 0
-431 433 0
432 -898 -462 433 0
-432 898 0
-432 462 0
-432 -433 0
434 -899 -462 0
-434 899 0
-434 462 0
-900 -901 464 466 468 470 472 474 476 478 480 482 484 486 488 490 492 494 496 498 500 502 504 506 508 510 512 514 516 518 520 0
900 901 0
900 -464 0
900 -466 0
900 -468 0
900 -470 0
900 -472 0
900 -474 0
900 -476 0
900 -478 0
900 -480 0
900 -482 0
900 -484 0
900 -486 0
900 -488 0
900 -490 0
900 -492 0
900 -494 0
900 -496 0
900 -498 0
900 -500 0
900 -502 0
900 -504 0
900 -506 0
900 -508 0
900 -510 0
900 -512 0
900 -514 0
900 -516 0
900 -518 0
900 -520 0
-902 901 -464 0
902 -901 0
902 464 0
-903 901 -466 0
903 -901 0
903 466 0
-904 901 -468 0
904 -901 0
904 468 0
-905 901 -470 0
905 -901 0
905 470 0
-906 901 -472 0
906 -901 0
906 472 0
-907 901 -474 0
907 -901 0
907 474 0
-908 901 -476 0
908 -901 0
908 476 0
-909 901 -478 0
909 -901 0
909 478 0
-910 901 -480 0
910 -901 0
910 480 0
-911 901 -482 0
911 -901 0
911 482 0
-912 901 -484 0
912 -901 0
912 484 0
-913 901 -486 0
913 -901 0
913 486 0
-914 901 -488 0
914 -901 0
914 488 0
-915 901 -490 0
915 -901 0
915 490 0
-916 901 -492 0
916 -901 0
916 492 0
-917 901 -494 0
917 -901 0
917 494 0
-918 901 -496 0
918 -901 0
918 496 0
-919 901 -498 0
919 -901 0
919 498 0
-920 901 -500 0
920 -901 0
920 500 0
-921 901 -502 0
921 -901 0
921 502 0
-922 901 -504 0
922 -901 0
922 504 0
-923 901 -506 0
923 -901 0
923 506 0
-924 901 -508 0
924 -901 0
924 508 0
-925 901 -510 0
925 -901 0
925 510 0
-926 901 -512 0
926 -901 0
926 512 0
-927 901 -514 0
927 -901 0
927 514 0
-928 901 -516 0
928 -901 0
928 516 0
-929 901 -518 0
929 -901 0
929 518 0
-930 901 -520 0
930 -901 0
930 520 0
-931 -433 434 0
931 433 0
931 -434 0
-932 433 -434 0
932 -433 0
932 434 0
900 0
902 0
903 0
904 0
905 0
906 0
907 0
908 0
909 0
910 0
911 0
912 0
913 0
914 0
915 0
916 0
917 0
918 0
919 0
920 0
921 0
922 0
923 0
924 0
925 0
926 0
927 0
928 0
929 0
930 0
931 0
932 0
