c BC-S1.2
p cnf 550 1700
1 -2 0
-1 2 0
3 -4 0
-3 4 0
5 -6 0
-5 6 0
7 -8 0
-7 8 0
9 -10 0
-9 10 0
11 -12 0
-11 12 0
13 -14 0
-13 14 0
15 -16 0
-15 16 0
17 -18 0
-17 18 0
19 -20 0
-19 20 0
21 -22 0
-21 22 0
23 -24 0
-23 24 0
25 -26 0
-25 26 0
27 -28 0
-27 28 0
29 -30 0
-29 30 0
31 -32 0
-31 32 0
33 -34 0
-33 34 0
35 -36 0
-35 36 0
37 -38 0
-37 38 0
39 -40 0
-39 40 0
41 -42 0
-41 42 0
43 -44 0
-43 44 0
45 -46 0
-45 46 0
47 -48 0
-47 48 0
49 -50 0
-49 50 0
51 -52 0
-51 52 0
53 -54 0
-53 54 0
55 -56 0
-55 56 0
57 -58 0
-57 58 0
59 -60 0
-59 60 0
61 -62 0
-61 62 0
63 -64 0
-63 64 0
65 -66 0
-65 66 0
67 -68 0
-67 68 0
69 -70 0
-69 70 0
71 -72 0
-71 72 0
73 -74 0
-73 74 0
75 -76 0
-75 76 0
77 -78 0
-77 78 0
79 -80 0
-79 80 0
81 -82 0
-81 82 0
83 -84 0
-83 84 0
85 -86 0
-85 86 0
87 -88 0
-87 88 0
-89 90 91 92 93 94 0
89 -90 0
89 -91 0
89 -92 0
89 -93 0
89 -94 0
-95 96 97 0
95 -96 0
95 -97 0
98 -99 0
-98 99 0
-100 101 102 0
100 -101 0
100 -102 0
-103 104 105 0
103 -104 0
103 -105 0
-106 107 108 109 110 111 112 0
106 -107 0
106 -108 0
106 -109 0
106 -110 0
106 -111 0
106 -112 0
-113 114 115 116 117 0
113 -114 0
113 -115 0
113 -116 0
113 -117 0
-118 119 120 0
118 -119 0
118 -120 0
-121 122 123 124 0
121 -122 0
121 -123 0
121 -124 0
-125 126 127 0
125 -126 0
125 -127 0
-128 129 130 0
128 -129 0
128 -130 0
-131 132 133 134 135 136 137 0
131 -132 0
131 -133 0
131 -134 0
131 -135 0
131 -136 0
131 -137 0
-138 139 140 0
138 -139 0
138 -140 0
-141 142 143 144 0
141 -142 0
141 -143 0
141 -144 0
-145 146 147 0
145 -146 0
145 -147 0
-148 149 150 0
148 -149 0
148 -150 0
-151 152 153 154 155 156 157 0
151 -152 0
151 -153 0
151 -154 0
151 -155 0
151 -156 0
151 -157 0
-158 159 160 161 162 0
158 -159 0
158 -160 0
158 -161 0
158 -162 0
-163 164 165 166 167 168 169 170 0
163 -164 0
163 -165 0
163 -166 0
163 -167 0
163 -168 0
163 -169 0
163 -170 0
-171 172 173 174 175 176 177 0
171 -172 0
171 -173 0
171 -174 0
171 -175 0
171 -176 0
171 -177 0
-178 179 180 181 182 183 184 0
178 -179 0
178 -180 0
178 -181 0
178 -182 0
178 -183 0
178 -184 0
185 -97 0
-185 97 0
186 -102 0
-186 102 0
187 -104 0
-187 104 0
-188 189 190 191 192 0
188 -189 0
188 -190 0
188 -191 0
188 -192 0
-193 194 195 196 0
193 -194 0
193 -195 0
193 -196 0
-197 198 199 200 201 0
197 -198 0
197 -199 0
197 -200 0
197 -201 0
-202 203 204 205 206 0
202 -203 0
202 -204 0
202 -205 0
202 -206 0
-207 208 209 210 211 0
207 -208 0
207 -209 0
207 -210 0
207 -211 0
-212 213 214 215 0
212 -213 0
212 -214 0
212 -215 0
-216 217 218 219 220 0
216 -217 0
216 -218 0
216 -219 0
216 -220 0
-221 222 223 224 225 0
221 -222 0
221 -223 0
221 -224 0
221 -225 0
-226 227 228 229 0
226 -227 0
226 -228 0
226 -229 0
2 -1 0
-2 1 0
4 -3 0
-4 3 0
6 -5 0
-6 5 0
8 -7 0
-8 7 0
10 -9 0
-10 9 0
12 -11 0
-12 11 0
14 -13 0
-14 13 0
16 -15 0
-16 15 0
18 -17 0
-18 17 0
20 -19 0
-20 19 0
22 -21 0
-22 21 0
24 -23 0
-24 23 0
26 -25 0
-26 25 0
28 -27 0
-28 27 0
30 -29 0
-30 29 0
32 -31 0
-32 31 0
34 -33 0
-34 33 0
36 -35 0
-36 35 0
38 -37 0
-38 37 0
40 -39 0
-40 39 0
42 -41 0
-42 41 0
44 -43 0
-44 43 0
46 -45 0
-46 45 0
48 -47 0
-48 47 0
50 -49 0
-50 49 0
52 -51 0
-52 51 0
54 -53 0
-54 53 0
56 -55 0
-56 55 0
58 -57 0
-58 57 0
60 -59 0
-60 59 0
62 -61 0
-62 61 0
64 -63 0
-64 63 0
66 -65 0
-66 65 0
68 -67 0
-68 67 0
70 -69 0
-70 69 0
72 -71 0
-72 71 0
74 -73 0
-74 73 0
76 -75 0
-76 75 0
78 -77 0
-78 77 0
80 -79 0
-80 79 0
82 -81 0
-82 81 0
84 -83 0
-84 83 0
86 -85 0
-86 85 0
88 -87 0
-88 87 0
230 -202 0
-230 202 0
231 -232 -233 0
-231 232 0
-231 233 0
234 -141 0
-234 141 0
235 -236 -237 0
-235 236 0
-235 237 0
238 -239 -240 0
-238 239 0
-238 240 0
241 -242 0
-241 242 0
243 -221 0
-243 221 0
244 -245 -233 0
-244 245 0
-244 233 0
246 -226 0
-246 226 0
247 -248 -233 0
-247 248 0
-247 233 0
249 -106 0
-249 106 0
250 -251 -145 0
-250 251 0
-250 145 0
252 -253 -131 0
-252 253 0
-252 131 0
254 -255 -138 0
-254 255 0
-254 138 0
256 -257 -148 0
-256 257 0
-256 148 0
258 -259 -141 0
-258 259 0
-258 141 0
260 -163 0
-260 163 0
261 -262 -141 0
-261 262 0
-261 141 0
263 -264 -138 0
-263 264 0
-263 138 0
265 -266 -148 0
-265 266 0
-265 148 0
267 -268 -145 0
-267 268 0
-267 145 0
269 -270 -178 0
-269 270 0
-269 178 0
271 -272 -131 0
-271 272 0
-271 131 0
273 -274 -221 0
-273 274 0
-273 221 0
275 -276 -202 0
-275 276 0
-275 202 0
277 -278 -226 0
-277 278 0
-277 226 0
279 -280 -240 0
-279 280 0
-279 240 0
281 -178 0
-281 178 0
282 -283 -284 0
-282 283 0
-282 284 0
285 -286 -106 0
-285 286 0
-285 106 0
287 -288 -178 0
-287 288 0
-287 178 0
289 -290 -148 0
-289 290 0
-289 148 0
291 -131 0
-291 131 0
292 -293 -163 0
-292 293 0
-292 163 0
294 -295 -138 0
-294 295 0
-294 138 0
296 -297 0
-296 297 0
90 -251 -100 0
-90 251 0
-90 100 0
91 -298 0
-91 298 0
92 -257 -103 0
-92 257 0
-92 103 0
93 -259 -98 0
-93 259 0
-93 98 0
94 -255 -95 0
-94 255 0
-94 95 0
96 -232 -158 0
-96 232 0
-96 158 0
97 -185 0
-97 185 0
99 -299 0
-99 299 0
101 -248 -158 0
-101 248 0
-101 158 0
102 -186 0
-102 186 0
104 -187 0
-104 187 0
105 -245 -158 0
-105 245 0
-105 158 0
107 -253 -113 0
-107 253 0
-107 113 0
108 -89 0
-108 89 0
109 -255 -118 0
-109 255 0
-109 118 0
110 -257 -128 0
-110 257 0
-110 128 0
111 -259 -121 0
-111 259 0
-111 121 0
112 -251 -125 0
-112 251 0
-112 125 0
114 -288 -158 0
-114 288 0
-114 158 0
115 -290 -103 0
-115 290 0
-115 103 0
116 -295 -95 0
-116 295 0
-116 95 0
117 -300 0
-117 300 0
119 -188 0
-119 188 0
120 -232 -171 0
-120 232 0
-120 171 0
122 -236 -89 0
-122 236 0
-122 89 0
123 -98 0
-123 98 0
124 -239 -151 0
-124 239 0
-124 151 0
126 -193 0
-126 193 0
127 -248 -171 0
-127 248 0
-127 171 0
129 -197 0
-129 197 0
130 -245 -171 0
-130 245 0
-130 171 0
132 -288 -171 0
-132 288 0
-132 171 0
133 -290 -128 0
-133 290 0
-133 128 0
134 -295 -118 0
-134 295 0
-134 118 0
135 -286 -89 0
-135 286 0
-135 89 0
136 -293 -151 0
-136 293 0
-136 151 0
137 -113 0
-137 113 0
139 -232 -178 0
-139 232 0
-139 178 0
140 -207 0
-140 207 0
142 -236 -106 0
-142 236 0
-142 106 0
143 -121 0
-143 121 0
144 -239 -163 0
-144 239 0
-144 163 0
146 -248 -178 0
-146 248 0
-146 178 0
147 -212 0
-147 212 0
149 -216 0
-149 216 0
150 -245 -178 0
-150 245 0
-150 178 0
152 -270 -158 0
-152 270 0
-152 158 0
153 -262 -98 0
-153 262 0
-153 98 0
154 -301 0
-154 301 0
155 -264 -95 0
-155 264 0
-155 95 0
156 -266 -103 0
-156 266 0
-156 103 0
157 -268 -100 0
-157 268 0
-157 100 0
159 -274 -187 0
-159 274 0
-159 187 0
160 -278 -186 0
-160 278 0
-160 186 0
161 -276 -185 0
-161 276 0
-161 185 0
162 -302 0
-162 302 0
164 -262 -121 0
-164 262 0
-164 121 0
165 -266 -128 0
-165 266 0
-165 128 0
166 -264 -118 0
-166 264 0
-166 118 0
167 -268 -125 0
-167 268 0
-167 125 0
168 -270 -171 0
-168 270 0
-168 171 0
169 -272 -113 0
-169 272 0
-169 113 0
170 -151 0
-170 151 0
172 -278 -193 0
-172 278 0
-172 193 0
173 -276 -188 0
-173 276 0
-173 188 0
174 -158 0
-174 158 0
175 -280 -151 0
-175 280 0
-175 151 0
176 -283 -113 0
-176 283 0
-176 113 0
177 -274 -197 0
-177 274 0
-177 197 0
179 -274 -216 0
-179 274 0
-179 216 0
180 -278 -212 0
-180 278 0
-180 212 0
181 -276 -207 0
-181 276 0
-181 207 0
182 -283 -131 0
-182 283 0
-182 131 0
183 -280 -163 0
-183 280 0
-183 163 0
184 -171 0
-184 171 0
303 -304 0
-303 304 0
305 -306 0
-305 306 0
307 -308 0
-307 308 0
189 -95 0
-189 95 0
190 -309 -89 0
-190 309 0
-190 89 0
191 -310 -113 0
-191 310 0
-191 113 0
192 -311 -151 0
-192 311 0
-192 151 0
194 -100 0
-194 100 0
195 -312 -89 0
-195 312 0
-195 89 0
196 -313 -151 0
-196 313 0
-196 151 0
198 -314 -89 0
-198 314 0
-198 89 0
199 -315 -113 0
-199 315 0
-199 113 0
200 -103 0
-200 103 0
201 -316 -151 0
-201 316 0
-201 151 0
203 -311 -240 0
-203 311 0
-203 240 0
204 -310 -284 0
-204 310 0
-204 284 0
205 -138 0
-205 138 0
206 -309 -237 0
-206 309 0
-206 237 0
208 -118 0
-208 118 0
209 -310 -131 0
-209 310 0
-209 131 0
210 -309 -106 0
-210 309 0
-210 106 0
211 -311 -163 0
-211 311 0
-211 163 0
213 -313 -163 0
-213 313 0
-213 163 0
214 -125 0
-214 125 0
215 -312 -106 0
-215 312 0
-215 106 0
217 -316 -163 0
-217 316 0
-217 163 0
218 -315 -131 0
-218 315 0
-218 131 0
219 -314 -106 0
-219 314 0
-219 106 0
220 -128 0
-220 128 0
222 -315 -284 0
-222 315 0
-222 284 0
223 -148 0
-223 148 0
224 -316 -240 0
-224 316 0
-224 240 0
225 -314 -237 0
-225 314 0
-225 237 0
227 -313 -240 0
-227 313 0
-227 240 0
228 -145 0
-228 145 0
229 -312 -237 0
-229 312 0
-229 237 0
-317 -1 2 0
317 1 0
317 -2 0
-318 1 -2 0
318 -1 0
318 2 0
-319 -3 4 0
319 3 0
319 -4 0
-320 3 -4 0
320 -3 0
320 4 0
-321 -5 6 0
321 5 0
321 -6 0
-322 5 -6 0
322 -5 0
322 6 0
-323 -7 8 0
323 7 0
323 -8 0
-324 7 -8 0
324 -7 0
324 8 0
-325 -9 10 0
325 9 0
325 -10 0
-326 9 -10 0
326 -9 0
326 10 0
-327 -11 12 0
327 11 0
327 -12 0
-328 11 -12 0
328 -11 0
328 12 0
-329 -13 14 0
329 13 0
329 -14 0
-330 13 -14 0
330 -13 0
330 14 0
-331 -15 16 0
331 15 0
331 -16 0
-332 15 -16 0
332 -15 0
332 16 0
-333 -17 18 0
333 17 0
333 -18 0
-334 17 -18 0
334 -17 0
334 18 0
-335 -19 20 0
335 19 0
335 -20 0
-336 19 -20 0
336 -19 0
336 20 0
-337 -21 22 0
337 21 0
337 -22 0
-338 21 -22 0
338 -21 0
338 22 0
-339 -23 24 0
339 23 0
339 -24 0
-340 23 -24 0
340 -23 0
340 24 0
-341 -25 26 0
341 25 0
341 -26 0
-342 25 -26 0
342 -25 0
342 26 0
-343 -27 28 0
343 27 0
343 -28 0
-344 27 -28 0
344 -27 0
344 28 0
-345 -29 30 0
345 29 0
345 -30 0
-346 29 -30 0
346 -29 0
346 30 0
-347 -31 32 0
347 31 0
347 -32 0
-348 31 -32 0
348 -31 0
348 32 0
-349 -33 34 0
349 33 0
349 -34 0
-350 33 -34 0
350 -33 0
350 34 0
-351 -35 36 0
351 35 0
351 -36 0
-352 35 -36 0
352 -35 0
352 36 0
-353 -37 38 0
353 37 0
353 -38 0
-354 37 -38 0
354 -37 0
354 38 0
-355 -39 40 0
355 39 0
355 -40 0
-356 39 -40 0
356 -39 0
356 40 0
-357 -41 42 0
357 41 0
357 -42 0
-358 41 -42 0
358 -41 0
358 42 0
-359 -43 44 0
359 43 0
359 -44 0
-360 43 -44 0
360 -43 0
360 44 0
-361 -45 46 0
361 45 0
361 -46 0
-362 45 -46 0
362 -45 0
362 46 0
-363 -47 48 0
363 47 0
363 -48 0
-364 47 -48 0
364 -47 0
364 48 0
-365 -49 50 0
365 49 0
365 -50 0
-366 49 -50 0
366 -49 0
366 50 0
-367 -51 52 0
367 51 0
367 -52 0
-368 51 -52 0
368 -51 0
368 52 0
-369 -53 54 0
369 53 0
369 -54 0
-370 53 -54 0
370 -53 0
370 54 0
-371 -55 56 0
371 55 0
371 -56 0
-372 55 -56 0
372 -55 0
372 56 0
-373 -57 58 0
373 57 0
373 -58 0
-374 57 -58 0
374 -57 0
374 58 0
-375 -59 60 0
375 59 0
375 -60 0
-376 59 -60 0
376 -59 0
376 60 0
-377 -61 62 0
377 61 0
377 -62 0
-378 61 -62 0
378 -61 0
378 62 0
-379 -63 64 0
379 63 0
379 -64 0
-380 63 -64 0
380 -63 0
380 64 0
-381 -65 66 0
381 65 0
381 -66 0
-382 65 -66 0
382 -65 0
382 66 0
-383 -67 68 0
383 67 0
383 -68 0
-384 67 -68 0
384 -67 0
384 68 0
-385 -69 70 0
385 69 0
385 -70 0
-386 69 -70 0
386 -69 0
386 70 0
-387 -71 72 0
387 71 0
387 -72 0
-388 71 -72 0
388 -71 0
388 72 0
-389 -73 74 0
389 73 0
389 -74 0
-390 73 -74 0
390 -73 0
390 74 0
-391 -75 76 0
391 75 0
391 -76 0
-392 75 -76 0
392 -75 0
392 76 0
-393 -77 78 0
393 77 0
393 -78 0
-394 77 -78 0
394 -77 0
394 78 0
-395 -79 80 0
395 79 0
395 -80 0
-396 79 -80 0
396 -79 0
396 80 0
-397 -81 82 0
397 81 0
397 -82 0
-398 81 -82 0
398 -81 0
398 82 0
-399 -83 84 0
399 83 0
399 -84 0
-400 83 -84 0
400 -83 0
400 84 0
-401 -85 86 0
401 85 0
401 -86 0
-402 85 -86 0
402 -85 0
402 86 0
-403 -87 88 0
403 87 0
403 -88 0
-404 87 -88 0
404 -87 0
404 88 0
-405 230 -202 0
405 -230 0
405 202 0
-406 -230 202 0
406 230 0
406 -202 0
-407 -408 230 231 0
407 408 0
407 -230 0
407 -231 0
-409 408 -230 0
409 -408 0
409 230 0
-410 408 -231 0
410 -408 0
410 231 0
-411 234 -141 0
411 -234 0
411 141 0
-412 -234 141 0
412 234 0
412 -141 0
-413 -414 234 235 238 0
413 414 0
413 -234 0
413 -235 0
413 -238 0
-415 414 -234 0
415 -414 0
415 234 0
-416 414 -235 0
416 -414 0
416 235 0
-417 414 -238 0
417 -414 0
417 238 0
-418 241 -242 0
418 -241 0
418 242 0
-419 -241 242 0
419 241 0
419 -242 0
-420 -421 241 0
420 421 0
420 -241 0
-422 421 -241 0
422 -421 0
422 241 0
-423 243 -221 0
423 -243 0
423 221 0
-424 -243 221 0
424 243 0
424 -221 0
-425 -426 243 244 0
425 426 0
425 -243 0
425 -244 0
-427 426 -243 0
427 -426 0
427 243 0
-428 426 -244 0
428 -426 0
428 244 0
-429 246 -226 0
429 -246 0
429 226 0
-430 -246 226 0
430 246 0
430 -226 0
-431 -432 246 247 0
431 432 0
431 -246 0
431 -247 0
-433 432 -246 0
433 -432 0
433 246 0
-434 432 -247 0
434 -432 0
434 247 0
-435 249 -106 0
435 -249 0
435 106 0
-436 -249 106 0
436 249 0
436 -106 0
-437 -237 249 250 252 254 256 258 0
437 237 0
437 -249 0
437 -250 0
437 -252 0
437 -254 0
437 -256 0
437 -258 0
-438 237 -249 0
438 -237 0
438 249 0
-439 237 -250 0
439 -237 0
439 250 0
-440 237 -252 0
440 -237 0
440 252 0
-441 237 -254 0
441 -237 0
441 254 0
-442 237 -256 0
442 -237 0
442 256 0
-443 237 -258 0
443 -237 0
443 258 0
-444 260 -163 0
444 -260 0
444 163 0
-445 -260 163 0
445 260 0
445 -163 0
-446 -240 260 261 263 265 267 269 271 0
446 240 0
446 -260 0
446 -261 0
446 -263 0
446 -265 0
446 -267 0
446 -269 0
446 -271 0
-447 240 -260 0
447 -240 0
447 260 0
-448 240 -261 0
448 -240 0
448 261 0
-449 240 -263 0
449 -240 0
449 263 0
-450 240 -265 0
450 -240 0
450 265 0
-451 240 -267 0
451 -240 0
451 267 0
-452 240 -269 0
452 -240 0
452 269 0
-453 240 -271 0
453 -240 0
453 271 0
-454 281 -178 0
454 -281 0
454 178 0
-455 -281 178 0
455 281 0
455 -178 0
-456 -233 273 275 277 279 281 282 0
456 233 0
456 -273 0
456 -275 0
456 -277 0
456 -279 0
456 -281 0
456 -282 0
-457 233 -273 0
457 -233 0
457 273 0
-458 233 -275 0
458 -233 0
458 275 0
-459 233 -277 0
459 -233 0
459 277 0
-460 233 -279 0
460 -233 0
460 279 0
-461 233 -281 0
461 -233 0
461 281 0
-462 233 -282 0
462 -233 0
462 282 0
-463 291 -131 0
463 -291 0
463 131 0
-464 -291 131 0
464 291 0
464 -131 0
-465 -284 285 287 289 291 292 294 0
465 284 0
465 -285 0
465 -287 0
465 -289 0
465 -291 0
465 -292 0
465 -294 0
-466 284 -285 0
466 -284 0
466 285 0
-467 284 -287 0
467 -284 0
467 287 0
-468 284 -289 0
468 -284 0
468 289 0
-469 284 -291 0
469 -284 0
469 291 0
-470 284 -292 0
470 -284 0
470 292 0
-471 284 -294 0
471 -284 0
471 294 0
-472 296 -297 0
472 -296 0
472 297 0
-473 -296 297 0
473 296 0
473 -297 0
-474 -475 296 0
474 475 0
474 -296 0
-476 475 -296 0
476 -475 0
476 296 0
-477 91 -298 0
477 -91 0
477 298 0
-478 -91 298 0
478 91 0
478 -298 0
-479 97 -185 0
479 -97 0
479 185 0
-480 -97 185 0
480 97 0
480 -185 0
-481 99 -299 0
481 -99 0
481 299 0
-482 -99 299 0
482 99 0
482 -299 0
-483 -98 99 0
483 98 0
483 -99 0
-484 98 -99 0
484 -98 0
484 99 0
-485 102 -186 0
485 -102 0
485 186 0
-486 -102 186 0
486 102 0
486 -186 0
-487 104 -187 0
487 -104 0
487 187 0
-488 -104 187 0
488 104 0
488 -187 0
-489 108 -89 0
489 -108 0
489 89 0
-490 -108 89 0
490 108 0
490 -89 0
-491 117 -300 0
491 -117 0
491 300 0
-492 -117 300 0
492 117 0
492 -300 0
-493 119 -188 0
493 -119 0
493 188 0
-494 -119 188 0
494 119 0
494 -188 0
-495 123 -98 0
495 -123 0
495 98 0
-496 -123 98 0
496 123 0
496 -98 0
-497 126 -193 0
497 -126 0
497 193 0
-498 -126 193 0
498 126 0
498 -193 0
-499 129 -197 0
499 -129 0
499 197 0
-500 -129 197 0
500 129 0
500 -197 0
-501 137 -113 0
501 -137 0
501 113 0
-502 -137 113 0
502 137 0
502 -113 0
-503 140 -207 0
503 -140 0
503 207 0
-504 -140 207 0
504 140 0
504 -207 0
-505 143 -121 0
505 -143 0
505 121 0
-506 -143 121 0
506 143 0
506 -121 0
-507 147 -212 0
507 -147 0
507 212 0
-508 -147 212 0
508 147 0
508 -212 0
-509 149 -216 0
509 -149 0
509 216 0
-510 -149 216 0
510 149 0
510 -216 0
-511 154 -301 0
511 -154 0
511 301 0
-512 -154 301 0
512 154 0
512 -301 0
-513 162 -302 0
513 -162 0
513 302 0
-514 -162 302 0
514 162 0
514 -302 0
-515 170 -151 0
515 -170 0
515 151 0
-516 -170 151 0
516 170 0
516 -151 0
-517 174 -158 0
517 -174 0
517 158 0
-518 -174 158 0
518 174 0
518 -158 0
-519 184 -171 0
519 -184 0
519 171 0
-520 -184 171 0
520 184 0
520 -171 0
-521 303 -304 0
521 -303 0
521 304 0
-522 -303 304 0
522 303 0
522 -304 0
-523 -185 303 0
523 185 0
523 -303 0
-524 185 -303 0
524 -185 0
524 303 0
-525 305 -306 0
525 -305 0
525 306 0
-526 -305 306 0
526 305 0
526 -306 0
-527 -186 305 0
527 186 0
527 -305 0
-528 186 -305 0
528 -186 0
528 305 0
-529 307 -308 0
529 -307 0
529 308 0
-530 -307 308 0
530 307 0
530 -308 0
-531 -187 307 0
531 187 0
531 -307 0
-532 187 -307 0
532 -187 0
532 307 0
-533 189 -95 0
533 -189 0
533 95 0
-534 -189 95 0
534 189 0
534 -95 0
-535 194 -100 0
535 -194 0
535 100 0
-536 -194 100 0
536 194 0
536 -100 0
-537 200 -103 0
537 -200 0
537 103 0
-538 -200 103 0
538 200 0
538 -103 0
-539 205 -138 0
539 -205 0
539 138 0
-540 -205 138 0
540 205 0
540 -138 0
-541 208 -118 0
541 -208 0
541 118 0
-542 -208 118 0
542 208 0
542 -118 0
-543 214 -125 0
543 -214 0
543 125 0
-544 -214 125 0
544 214 0
544 -125 0
-545 220 -128 0
545 -220 0
545 128 0
-546 -220 128 0
546 220 0
546 -128 0
-547 223 -148 0
547 -223 0
547 148 0
-548 -223 148 0
548 223 0
548 -148 0
-549 228 -145 0
549 -228 0
549 145 0
-550 -228 145 0
550 228 0
550 -145 0
317 0
318 0
319 0
320 0
321 0
322 0
323 0
324 0
325 0
326 0
327 0
328 0
329 0
330 0
331 0
332 0
333 0
334 0
335 0
336 0
337 0
338 0
339 0
340 0
341 0
342 0
343 0
344 0
345 0
346 0
347 0
348 0
349 0
350 0
351 0
352 0
353 0
354 0
355 0
356 0
357 0
358 0
359 0
360 0
361 0
362 0
363 0
364 0
365 0
366 0
367 0
368 0
369 0
370 0
371 0
372 0
373 0
374 0
375 0
376 0
377 0
378 0
379 0
380 0
381 0
382 0
383 0
384 0
385 0
386 0
387 0
388 0
389 0
390 0
391 0
392 0
393 0
394 0
395 0
396 0
397 0
398 0
399 0
400 0
401 0
402 0
403 0
404 0
405 0
406 0
407 0
409 0
410 0
411 0
412 0
413 0
415 0
416 0
417 0
418 0
419 0
420 0
422 0
423 0
424 0
425 0
427 0
428 0
429 0
430 0
431 0
433 0
434 0
435 0
436 0
437 0
438 0
439 0
440 0
441 0
442 0
443 0
444 0
445 0
446 0
447 0
448 0
449 0
450 0
451 0
452 0
453 0
454 0
455 0
456 0
457 0
458 0
459 0
460 0
461 0
462 0
463 0
464 0
465 0
466 0
467 0
468 0
469 0
470 0
471 0
472 0
473 0
474 0
476 0
477 0
478 0
479 0
480 0
481 0
482 0
483 0
484 0
485 0
486 0
487 0
488 0
489 0
490 0
491 0
492 0
493 0
494 0
495 0
496 0
497 0
498 0
499 0
500 0
501 0
502 0
503 0
504 0
505 0
506 0
507 0
508 0
509 0
510 0
511 0
512 0
513 0
514 0
515 0
516 0
517 0
518 0
519 0
520 0
521 0
522 0
523 0
524 0
525 0
526 0
527 0
528 0
529 0
530 0
531 0
532 0
533 0
534 0
535 0
536 0
537 0
538 0
539 0
540 0
541 0
542 0
543 0
544 0
545 0
546 0
547 0
548 0
549 0
550 0
2 0
4 0
6 0
8 0
10 0
12 0
14 0
16 0
18 0
20 0
22 0
24 0
26 0
28 0
30 0
32 0
34 0
36 0
38 0
40 0
42 0
44 0
46 0
48 0
50 0
52 0
54 0
56 0
58 0
60 0
62 0
64 0
66 0
68 0
70 0
72 0
74 0
76 0
78 0
80 0
82 0
84 0
86 0
88 0
