c BC-S1.2
p cnf 55 155
1 -2 0
-1 2 0
3 -4 0
-3 4 0
5 -6 0
-5 6 0
7 -8 0
-7 8 0
9 -10 0
-9 10 0
2 -1 0
-2 1 0
4 -3 0
-4 3 0
6 -5 0
-6 5 0
8 -7 0
-8 7 0
10 -9 0
-10 9 0
11 -12 0
-11 12 0
13 -14 0
-13 14 0
15 -16 0
-15 16 0
17 -18 0
-17 18 0
19 -20 0
-19 20 0
-21 -1 2 0
21 1 0
21 -2 0
-22 1 -2 0
22 -1 0
22 2 0
-23 -3 4 0
23 3 0
23 -4 0
-24 3 -4 0
24 -3 0
24 4 0
-25 -5 6 0
25 5 0
25 -6 0
-26 5 -6 0
26 -5 0
26 6 0
-27 -7 8 0
27 7 0
27 -8 0
-28 7 -8 0
28 -7 0
28 8 0
-29 -9 10 0
29 9 0
29 -10 0
-30 9 -10 0
30 -9 0
30 10 0
-31 11 -12 0
31 -11 0
31 12 0
-32 -11 12 0
32 11 0
32 -12 0
-33 -34 11 0
33 34 0
33 -11 0
-35 34 -11 0
35 -34 0
35 11 0
-36 13 -14 0
36 -13 0
36 14 0
-37 -13 14 0
37 13 0
37 -14 0
-38 -39 13 0
38 39 0
38 -13 0
-40 39 -13 0
40 -39 0
40 13 0
-41 15 -16 0
41 -15 0
41 16 0
-42 -15 16 0
42 15 0
42 -16 0
-43 -44 15 0
43 44 0
43 -15 0
-45 44 -15 0
45 -44 0
45 15 0
-46 17 -18 0
46 -17 0
46 18 0
-47 -17 18 0
47 17 0
47 -18 0
-48 -49 17 0
48 49 0
48 -17 0
-50 49 -17 0
50 -49 0
50 17 0
-51 19 -20 0
51 -19 0
51 20 0
-52 -19 20 0
52 19 0
52 -20 0
-53 -54 19 0
53 54 0
53 -19 0
-55 54 -19 0
55 -54 0
55 19 0
21 0
22 0
23 0
24 0
25 0
26 0
27 0
28 0
29 0
30 0
31 0
32 0
33 0
35 0
36 0
37 0
38 0
40 0
41 0
42 0
43 0
45 0
46 0
47 0
48 0
50 0
51 0
52 0
53 0
55 0
2 0
4 0
6 0
8 0
10 0
