c BC-S1.2
p cnf 144 422
1 -2 0
-1 2 0
3 -4 0
-3 4 0
5 -6 0
-5 6 0
7 -8 0
-7 8 0
9 -10 0
-9 10 0
11 -12 0
-11 12 0
13 -14 0
-13 14 0
15 -16 0
-15 16 0
17 -18 0
-17 18 0
19 -20 0
-19 20 0
21 -22 0
-21 22 0
23 -24 0
-23 24 0
25 -26 0
-25 26 0
27 -28 0
-27 28 0
29 -30 0
-29 30 0
-31 32 33 0
31 -32 0
31 -33 0
-34 35 36 0
34 -35 0
34 -36 0
-37 38 39 0
37 -38 0
37 -39 0
-40 41 42 0
40 -41 0
40 -42 0
2 -1 0
-2 1 0
4 -3 0
-4 3 0
6 -5 0
-6 5 0
8 -7 0
-8 7 0
10 -9 0
-10 9 0
12 -11 0
-12 11 0
14 -13 0
-14 13 0
16 -15 0
-16 15 0
18 -17 0
-18 17 0
20 -19 0
-20 19 0
22 -21 0
-22 21 0
24 -23 0
-24 23 0
26 -25 0
-26 25 0
28 -27 0
-28 27 0
43 -44 -31 0
-43 44 0
-43 31 0
45 -46 0
-45 46 0
47 -48 -34 0
-47 48 0
-47 34 0
49 -50 0
-49 50 0
30 -29 0
-30 29 0
51 -52 -53 0
-51 52 0
-51 53 0
54 -55 -56 0
-54 55 0
-54 56 0
57 -58 -37 0
-57 58 0
-57 37 0
59 -31 0
-59 31 0
60 -37 0
-60 37 0
61 -62 -53 0
-61 62 0
-61 53 0
63 -64 0
-63 64 0
65 -66 0
-65 66 0
32 -40 0
-32 40 0
33 -58 -34 0
-33 58 0
-33 34 0
35 -67 0
-35 67 0
36 -62 -40 0
-36 62 0
-36 40 0
38 -34 0
-38 34 0
39 -68 -56 0
-39 68 0
-39 56 0
41 -69 0
-41 69 0
42 -70 -29 0
-42 70 0
-42 29 0
-71 -1 2 0
71 1 0
71 -2 0
-72 1 -2 0
72 -1 0
72 2 0
-73 -3 4 0
73 3 0
73 -4 0
-74 3 -4 0
74 -3 0
74 4 0
-75 -5 6 0
75 5 0
75 -6 0
-76 5 -6 0
76 -5 0
76 6 0
-77 -7 8 0
77 7 0
77 -8 0
-78 7 -8 0
78 -7 0
78 8 0
-79 -9 10 0
79 9 0
79 -10 0
-80 9 -10 0
80 -9 0
80 10 0
-81 -11 12 0
81 11 0
81 -12 0
-82 11 -12 0
82 -11 0
82 12 0
-83 -13 14 0
83 13 0
83 -14 0
-84 13 -14 0
84 -13 0
84 14 0
-85 -15 16 0
85 15 0
85 -16 0
-86 15 -16 0
86 -15 0
86 16 0
-87 -17 18 0
87 17 0
87 -18 0
-88 17 -18 0
88 -17 0
88 18 0
-89 -19 20 0
89 19 0
89 -20 0
-90 19 -20 0
90 -19 0
90 20 0
-91 -21 22 0
91 21 0
91 -22 0
-92 21 -22 0
92 -21 0
92 22 0
-93 -23 24 0
93 23 0
93 -24 0
-94 23 -24 0
94 -23 0
94 24 0
-95 -25 26 0
95 25 0
95 -26 0
-96 25 -26 0
96 -25 0
96 26 0
-97 -27 28 0
97 27 0
97 -28 0
-98 27 -28 0
98 -27 0
98 28 0
-99 45 -46 0
99 -45 0
99 46 0
-100 -45 46 0
100 45 0
100 -46 0
-101 -56 43 45 47 0
101 56 0
101 -43 0
101 -45 0
101 -47 0
-102 56 -43 0
102 -56 0
102 43 0
-103 56 -45 0
103 -56 0
103 45 0
-104 56 -47 0
104 -56 0
104 47 0
-105 49 -50 0
105 -49 0
105 50 0
-106 -49 50 0
106 49 0
106 -50 0
-107 -108 49 0
107 108 0
107 -49 0
-109 108 -49 0
109 -108 0
109 49 0
-110 30 -29 0
110 -30 0
110 29 0
-111 -30 29 0
111 30 0
111 -29 0
-112 -113 30 51 0
112 113 0
112 -30 0
112 -51 0
-114 113 -30 0
114 -113 0
114 30 0
-115 113 -51 0
115 -113 0
115 51 0
-116 59 -31 0
116 -59 0
116 31 0
-117 -59 31 0
117 59 0
117 -31 0
-118 -53 54 57 59 0
118 53 0
118 -54 0
118 -57 0
118 -59 0
-119 53 -54 0
119 -53 0
119 54 0
-120 53 -57 0
120 -53 0
120 57 0
-121 53 -59 0
121 -53 0
121 59 0
-122 60 -37 0
122 -60 0
122 37 0
-123 -60 37 0
123 60 0
123 -37 0
-124 -125 60 61 0
124 125 0
124 -60 0
124 -61 0
-126 125 -60 0
126 -125 0
126 60 0
-127 125 -61 0
127 -125 0
127 61 0
-128 63 -64 0
128 -63 0
128 64 0
-129 -63 64 0
129 63 0
129 -64 0
-130 -131 63 0
130 131 0
130 -63 0
-132 131 -63 0
132 -131 0
132 63 0
-133 65 -66 0
133 -65 0
133 66 0
-134 -65 66 0
134 65 0
134 -66 0
-135 -29 65 0
135 29 0
135 -65 0
-136 29 -65 0
136 -29 0
136 65 0
-137 32 -40 0
137 -32 0
137 40 0
-138 -32 40 0
138 32 0
138 -40 0
-139 35 -67 0
139 -35 0
139 67 0
-140 -35 67 0
140 35 0
140 -67 0
-141 38 -34 0
141 -38 0
141 34 0
-142 -38 34 0
142 38 0
142 -34 0
-143 41 -69 0
143 -41 0
143 69 0
-144 -41 69 0
144 41 0
144 -69 0
71 0
72 0
73 0
74 0
75 0
76 0
77 0
78 0
79 0
80 0
81 0
82 0
83 0
84 0
85 0
86 0
87 0
88 0
89 0
90 0
91 0
92 0
93 0
94 0
95 0
96 0
97 0
98 0
99 0
100 0
101 0
102 0
103 0
104 0
105 0
106 0
107 0
109 0
110 0
111 0
112 0
114 0
115 0
116 0
117 0
118 0
119 0
120 0
121 0
122 0
123 0
124 0
126 0
127 0
128 0
129 0
130 0
132 0
133 0
134 0
135 0
136 0
137 0
138 0
139 0
140 0
141 0
142 0
143 0
144 0
2 0
4 0
6 0
8 0
10 0
12 0
14 0
16 0
18 0
20 0
22 0
24 0
26 0
28 0
