c BC-S1.2
p cnf 402 1216
1 -2 0
-1 2 0
3 -4 0
-3 4 0
5 -6 0
-5 6 0
7 -8 0
-7 8 0
9 -10 0
-9 10 0
11 -12 0
-11 12 0
13 -14 0
-13 14 0
15 -16 0
-15 16 0
17 -18 0
-17 18 0
19 -20 0
-19 20 0
21 -22 0
-21 22 0
23 -24 0
-23 24 0
25 -26 0
-25 26 0
27 -28 0
-27 28 0
29 -30 0
-29 30 0
31 -32 0
-31 32 0
33 -34 0
-33 34 0
35 -36 0
-35 36 0
37 -38 0
-37 38 0
39 -40 0
-39 40 0
41 -42 0
-41 42 0
43 -44 0
-43 44 0
45 -46 0
-45 46 0
47 -48 0
-47 48 0
49 -50 0
-49 50 0
51 -52 0
-51 52 0
53 -54 0
-53 54 0
55 -56 0
-55 56 0
57 -58 0
-57 58 0
59 -60 0
-59 60 0
61 -62 0
-61 62 0
63 -64 0
-63 64 0
65 -66 0
-65 66 0
-67 68 69 70 71 0
67 -68 0
67 -69 0
67 -70 0
67 -71 0
-72 73 74 0
72 -73 0
72 -74 0
-75 76 77 0
75 -76 0
75 -77 0
78 -79 0
-78 79 0
-80 81 82 0
80 -81 0
80 -82 0
-83 84 85 0
83 -84 0
83 -85 0
-86 87 88 89 0
86 -87 0
86 -88 0
86 -89 0
-90 91 92 93 94 95 0
90 -91 0
90 -92 0
90 -93 0
90 -94 0
90 -95 0
-96 97 98 0
96 -97 0
96 -98 0
-99 100 101 0
99 -100 0
99 -101 0
-102 103 104 0
102 -103 0
102 -104 0
-105 106 107 0
105 -106 0
105 -107 0
-108 109 110 111 0
108 -109 0
108 -110 0
108 -111 0
-112 113 114 115 0
112 -113 0
112 -114 0
112 -115 0
-116 117 118 0
116 -117 0
116 -118 0
119 -74 0
-119 74 0
-120 121 122 0
120 -121 0
120 -122 0
-123 124 125 0
123 -124 0
123 -125 0
-126 127 128 0
126 -127 0
126 -128 0
-129 130 131 0
129 -130 0
129 -131 0
-132 133 134 135 0
132 -133 0
132 -134 0
132 -135 0
136 -98 0
-136 98 0
-137 138 139 0
137 -138 0
137 -139 0
-140 141 142 0
140 -141 0
140 -142 0
-143 144 145 146 0
143 -144 0
143 -145 0
143 -146 0
-147 148 149 150 0
147 -148 0
147 -149 0
147 -150 0
2 -1 0
-2 1 0
4 -3 0
-4 3 0
6 -5 0
-6 5 0
8 -7 0
-8 7 0
10 -9 0
-10 9 0
12 -11 0
-12 11 0
14 -13 0
-14 13 0
16 -15 0
-16 15 0
18 -17 0
-18 17 0
20 -19 0
-20 19 0
22 -21 0
-22 21 0
24 -23 0
-24 23 0
26 -25 0
-26 25 0
28 -27 0
-28 27 0
30 -29 0
-30 29 0
32 -31 0
-32 31 0
34 -33 0
-34 33 0
36 -35 0
-36 35 0
38 -37 0
-38 37 0
40 -39 0
-40 39 0
42 -41 0
-42 41 0
44 -43 0
-44 43 0
46 -45 0
-46 45 0
48 -47 0
-48 47 0
50 -49 0
-50 49 0
52 -51 0
-52 51 0
54 -53 0
-54 53 0
56 -55 0
-56 55 0
58 -57 0
-58 57 0
60 -59 0
-60 59 0
62 -61 0
-62 61 0
64 -63 0
-64 63 0
151 -152 -153 0
-151 152 0
-151 153 0
154 -147 0
-154 147 0
155 -116 0
-155 116 0
156 -157 -158 0
-156 157 0
-156 158 0
159 -160 -105 0
-159 160 0
-159 105 0
161 -162 -86 0
-161 162 0
-161 86 0
163 -164 -102 0
-163 164 0
-163 102 0
165 -90 0
-165 90 0
166 -105 0
-166 105 0
167 -168 -126 0
-167 168 0
-167 126 0
169 -170 -147 0
-169 170 0
-169 147 0
171 -172 -173 0
-171 172 0
-171 173 0
66 -65 0
-66 65 0
174 -175 -173 0
-174 175 0
-174 173 0
176 -177 -83 0
-176 177 0
-176 83 0
178 -179 -80 0
-178 179 0
-178 80 0
180 -181 -86 0
-180 181 0
-180 86 0
182 -67 0
-182 67 0
183 -86 0
-183 86 0
184 -185 -173 0
-184 185 0
-184 173 0
186 -187 -188 0
-186 187 0
-186 188 0
189 -126 0
-189 126 0
190 -191 -153 0
-190 191 0
-190 153 0
192 -193 -194 0
-192 193 0
-192 194 0
195 -129 0
-195 129 0
196 -197 0
-196 197 0
198 -199 0
-198 199 0
68 -177 -75 0
-68 177 0
-68 75 0
69 -200 0
-69 200 0
70 -179 -72 0
-70 179 0
-70 72 0
71 -181 -78 0
-71 181 0
-71 78 0
73 -193 -75 0
-73 193 0
-73 75 0
74 -119 0
-74 119 0
76 -120 0
-76 120 0
77 -152 -99 0
-77 152 0
-77 99 0
79 -201 0
-79 201 0
81 -193 -83 0
-81 193 0
-81 83 0
82 -123 0
-82 123 0
84 -132 0
-84 132 0
85 -152 -105 0
-85 152 0
-85 105 0
87 -185 -90 0
-87 185 0
-87 90 0
88 -78 0
-88 78 0
89 -187 -67 0
-89 187 0
-89 67 0
91 -164 -96 0
-91 164 0
-91 96 0
92 -162 -78 0
-92 162 0
-92 78 0
93 -160 -99 0
-93 160 0
-93 99 0
94 -202 -65 0
-94 202 0
-94 65 0
95 -203 0
-95 203 0
97 -157 -108 0
-97 157 0
-97 108 0
98 -136 0
-98 136 0
100 -137 0
-100 137 0
101 -168 -108 0
-101 168 0
-101 108 0
103 -157 -112 0
-103 157 0
-103 112 0
104 -140 0
-104 140 0
106 -143 0
-106 143 0
107 -168 -112 0
-107 168 0
-107 112 0
109 -204 0
-109 204 0
110 -191 -137 0
-110 191 0
-110 137 0
111 -205 -136 0
-111 205 0
-111 136 0
113 -205 -140 0
-113 205 0
-113 140 0
114 -108 0
-114 108 0
115 -191 -143 0
-115 191 0
-115 143 0
117 -206 -173 0
-117 206 0
-117 173 0
118 -102 0
-118 102 0
207 -208 0
-207 208 0
121 -209 0
-121 209 0
122 -210 -119 0
-122 210 0
-122 119 0
124 -72 0
-124 72 0
125 -211 -67 0
-125 211 0
-125 67 0
127 -112 0
-127 112 0
128 -205 -116 0
-128 205 0
-128 116 0
130 -211 -188 0
-130 211 0
-130 188 0
131 -80 0
-131 80 0
133 -75 0
-133 75 0
134 -212 -67 0
-134 212 0
-134 67 0
135 -210 -123 0
-135 210 0
-135 123 0
213 -214 0
-213 214 0
138 -215 0
-138 215 0
139 -170 -120 0
-139 170 0
-139 120 0
141 -206 -90 0
-141 206 0
-141 90 0
142 -96 0
-142 96 0
144 -172 -90 0
-144 172 0
-144 90 0
145 -170 -132 0
-145 170 0
-145 132 0
146 -99 0
-146 99 0
148 -83 0
-148 83 0
149 -212 -188 0
-149 212 0
-149 188 0
150 -210 -129 0
-150 210 0
-150 129 0
-216 -1 2 0
216 1 0
216 -2 0
-217 1 -2 0
217 -1 0
217 2 0
-218 -3 4 0
218 3 0
218 -4 0
-219 3 -4 0
219 -3 0
219 4 0
-220 -5 6 0
220 5 0
220 -6 0
-221 5 -6 0
221 -5 0
221 6 0
-222 -7 8 0
222 7 0
222 -8 0
-223 7 -8 0
223 -7 0
223 8 0
-224 -9 10 0
224 9 0
224 -10 0
-225 9 -10 0
225 -9 0
225 10 0
-226 -11 12 0
226 11 0
226 -12 0
-227 11 -12 0
227 -11 0
227 12 0
-228 -13 14 0
228 13 0
228 -14 0
-229 13 -14 0
229 -13 0
229 14 0
-230 -15 16 0
230 15 0
230 -16 0
-231 15 -16 0
231 -15 0
231 16 0
-232 -17 18 0
232 17 0
232 -18 0
-233 17 -18 0
233 -17 0
233 18 0
-234 -19 20 0
234 19 0
234 -20 0
-235 19 -20 0
235 -19 0
235 20 0
-236 -21 22 0
236 21 0
236 -22 0
-237 21 -22 0
237 -21 0
237 22 0
-238 -23 24 0
238 23 0
238 -24 0
-239 23 -24 0
239 -23 0
239 24 0
-240 -25 26 0
240 25 0
240 -26 0
-241 25 -26 0
241 -25 0
241 26 0
-242 -27 28 0
242 27 0
242 -28 0
-243 27 -28 0
243 -27 0
243 28 0
-244 -29 30 0
244 29 0
244 -30 0
-245 29 -30 0
245 -29 0
245 30 0
-246 -31 32 0
246 31 0
246 -32 0
-247 31 -32 0
247 -31 0
247 32 0
-248 -33 34 0
248 33 0
248 -34 0
-249 33 -34 0
249 -33 0
249 34 0
-250 -35 36 0
250 35 0
250 -36 0
-251 35 -36 0
251 -35 0
251 36 0
-252 -37 38 0
252 37 0
252 -38 0
-253 37 -38 0
253 -37 0
253 38 0
-254 -39 40 0
254 39 0
254 -40 0
-255 39 -40 0
255 -39 0
255 40 0
-256 -41 42 0
256 41 0
256 -42 0
-257 41 -42 0
257 -41 0
257 42 0
-258 -43 44 0
258 43 0
258 -44 0
-259 43 -44 0
259 -43 0
259 44 0
-260 -45 46 0
260 45 0
260 -46 0
-261 45 -46 0
261 -45 0
261 46 0
-262 -47 48 0
262 47 0
262 -48 0
-263 47 -48 0
263 -47 0
263 48 0
-264 -49 50 0
264 49 0
264 -50 0
-265 49 -50 0
265 -49 0
265 50 0
-266 -51 52 0
266 51 0
266 -52 0
-267 51 -52 0
267 -51 0
267 52 0
-268 -53 54 0
268 53 0
268 -54 0
-269 53 -54 0
269 -53 0
269 54 0
-270 -55 56 0
270 55 0
270 -56 0
-271 55 -56 0
271 -55 0
271 56 0
-272 -57 58 0
272 57 0
272 -58 0
-273 57 -58 0
273 -57 0
273 58 0
-274 -59 60 0
274 59 0
274 -60 0
-275 59 -60 0
275 -59 0
275 60 0
-276 -61 62 0
276 61 0
276 -62 0
-277 61 -62 0
277 -61 0
277 62 0
-278 -63 64 0
278 63 0
278 -64 0
-279 63 -64 0
279 -63 0
279 64 0
-280 154 -147 0
280 -154 0
280 147 0
-281 -154 147 0
281 154 0
281 -147 0
-282 -194 151 154 0
282 194 0
282 -151 0
282 -154 0
-283 194 -151 0
283 -194 0
283 151 0
-284 194 -154 0
284 -194 0
284 154 0
-285 155 -116 0
285 -155 0
285 116 0
-286 -155 116 0
286 155 0
286 -116 0
-287 -288 155 156 0
287 288 0
287 -155 0
287 -156 0
-289 288 -155 0
289 -288 0
289 155 0
-290 288 -156 0
290 -288 0
290 156 0
-291 165 -90 0
291 -165 0
291 90 0
-292 -165 90 0
292 165 0
292 -90 0
-293 -173 159 161 163 165 0
293 173 0
293 -159 0
293 -161 0
293 -163 0
293 -165 0
-294 173 -159 0
294 -173 0
294 159 0
-295 173 -161 0
295 -173 0
295 161 0
-296 173 -163 0
296 -173 0
296 163 0
-297 173 -165 0
297 -173 0
297 165 0
-298 166 -105 0
298 -166 0
298 105 0
-299 -166 105 0
299 166 0
299 -105 0
-300 -153 166 167 169 171 0
300 153 0
300 -166 0
300 -167 0
300 -169 0
300 -171 0
-301 153 -166 0
301 -153 0
301 166 0
-302 153 -167 0
302 -153 0
302 167 0
-303 153 -169 0
303 -153 0
303 169 0
-304 153 -171 0
304 -153 0
304 171 0
-305 66 -65 0
305 -66 0
305 65 0
-306 -66 65 0
306 66 0
306 -65 0
-307 -308 66 174 0
307 308 0
307 -66 0
307 -174 0
-309 308 -66 0
309 -308 0
309 66 0
-310 308 -174 0
310 -308 0
310 174 0
-311 182 -67 0
311 -182 0
311 67 0
-312 -182 67 0
312 182 0
312 -67 0
-313 -188 176 178 180 182 0
313 188 0
313 -176 0
313 -178 0
313 -180 0
313 -182 0
-314 188 -176 0
314 -188 0
314 176 0
-315 188 -178 0
315 -188 0
315 178 0
-316 188 -180 0
316 -188 0
316 180 0
-317 188 -182 0
317 -188 0
317 182 0
-318 183 -86 0
318 -183 0
318 86 0
-319 -183 86 0
319 183 0
319 -86 0
-320 -321 183 184 186 0
320 321 0
320 -183 0
320 -184 0
320 -186 0
-322 321 -183 0
322 -321 0
322 183 0
-323 321 -184 0
323 -321 0
323 184 0
-324 321 -186 0
324 -321 0
324 186 0
-325 189 -126 0
325 -189 0
325 126 0
-326 -189 126 0
326 189 0
326 -126 0
-327 -158 189 190 0
327 158 0
327 -189 0
327 -190 0
-328 158 -189 0
328 -158 0
328 189 0
-329 158 -190 0
329 -158 0
329 190 0
-330 195 -129 0
330 -195 0
330 129 0
-331 -195 129 0
331 195 0
331 -129 0
-332 -333 192 195 0
332 333 0
332 -192 0
332 -195 0
-334 333 -192 0
334 -333 0
334 192 0
-335 333 -195 0
335 -333 0
335 195 0
-336 196 -197 0
336 -196 0
336 197 0
-337 -196 197 0
337 196 0
337 -197 0
-338 -339 196 0
338 339 0
338 -196 0
-340 339 -196 0
340 -339 0
340 196 0
-341 198 -199 0
341 -198 0
341 199 0
-342 -198 199 0
342 198 0
342 -199 0
-343 -65 198 0
343 65 0
343 -198 0
-344 65 -198 0
344 -65 0
344 198 0
-345 69 -200 0
345 -69 0
345 200 0
-346 -69 200 0
346 69 0
346 -200 0
-347 74 -119 0
347 -74 0
347 119 0
-348 -74 119 0
348 74 0
348 -119 0
-349 76 -120 0
349 -76 0
349 120 0
-350 -76 120 0
350 76 0
350 -120 0
-351 79 -201 0
351 -79 0
351 201 0
-352 -79 201 0
352 79 0
352 -201 0
-353 -78 79 0
353 78 0
353 -79 0
-354 78 -79 0
354 -78 0
354 79 0
-355 82 -123 0
355 -82 0
355 123 0
-356 -82 123 0
356 82 0
356 -123 0
-357 84 -132 0
357 -84 0
357 132 0
-358 -84 132 0
358 84 0
358 -132 0
-359 88 -78 0
359 -88 0
359 78 0
-360 -88 78 0
360 88 0
360 -78 0
-361 95 -203 0
361 -95 0
361 203 0
-362 -95 203 0
362 95 0
362 -203 0
-363 98 -136 0
363 -98 0
363 136 0
-364 -98 136 0
364 98 0
364 -136 0
-365 100 -137 0
365 -100 0
365 137 0
-366 -100 137 0
366 100 0
366 -137 0
-367 104 -140 0
367 -104 0
367 140 0
-368 -104 140 0
368 104 0
368 -140 0
-369 106 -143 0
369 -106 0
369 143 0
-370 -106 143 0
370 106 0
370 -143 0
-371 109 -204 0
371 -109 0
371 204 0
-372 -109 204 0
372 109 0
372 -204 0
-373 114 -108 0
373 -114 0
373 108 0
-374 -114 108 0
374 114 0
374 -108 0
-375 118 -102 0
375 -118 0
375 102 0
-376 -118 102 0
376 118 0
376 -102 0
-377 207 -208 0
377 -207 0
377 208 0
-378 -207 208 0
378 207 0
378 -208 0
-379 -119 207 0
379 119 0
379 -207 0
-380 119 -207 0
380 -119 0
380 207 0
-381 121 -209 0
381 -121 0
381 209 0
-382 -121 209 0
382 121 0
382 -209 0
-383 124 -72 0
383 -124 0
383 72 0
-384 -124 72 0
384 124 0
384 -72 0
-385 127 -112 0
385 -127 0
385 112 0
-386 -127 112 0
386 127 0
386 -112 0
-387 131 -80 0
387 -131 0
387 80 0
-388 -131 80 0
388 131 0
388 -80 0
-389 133 -75 0
389 -133 0
389 75 0
-390 -133 75 0
390 133 0
390 -75 0
-391 213 -214 0
391 -213 0
391 214 0
-392 -213 214 0
392 213 0
392 -214 0
-393 -136 213 0
393 136 0
393 -213 0
-394 136 -213 0
394 -136 0
394 213 0
-395 138 -215 0
395 -138 0
395 215 0
-396 -138 215 0
396 138 0
396 -215 0
-397 142 -96 0
397 -142 0
397 96 0
-398 -142 96 0
398 142 0
398 -96 0
-399 146 -99 0
399 -146 0
399 99 0
-400 -146 99 0
400 146 0
400 -99 0
-401 148 -83 0
401 -148 0
401 83 0
-402 -148 83 0
402 148 0
402 -83 0
216 0
217 0
218 0
219 0
220 0
221 0
222 0
223 0
224 0
225 0
226 0
227 0
228 0
229 0
230 0
231 0
232 0
233 0
234 0
235 0
236 0
237 0
238 0
239 0
240 0
241 0
242 0
243 0
244 0
245 0
246 0
247 0
248 0
249 0
250 0
251 0
252 0
253 0
254 0
255 0
256 0
257 0
258 0
259 0
260 0
261 0
262 0
263 0
264 0
265 0
266 0
267 0
268 0
269 0
270 0
271 0
272 0
273 0
274 0
275 0
276 0
277 0
278 0
279 0
280 0
281 0
282 0
283 0
284 0
285 0
286 0
287 0
289 0
290 0
291 0
292 0
293 0
294 0
295 0
296 0
297 0
298 0
299 0
300 0
301 0
302 0
303 0
304 0
305 0
306 0
307 0
309 0
310 0
311 0
312 0
313 0
314 0
315 0
316 0
317 0
318 0
319 0
320 0
322 0
323 0
324 0
325 0
326 0
327 0
328 0
329 0
330 0
331 0
332 0
334 0
335 0
336 0
337 0
338 0
340 0
341 0
342 0
343 0
344 0
345 0
346 0
347 0
348 0
349 0
350 0
351 0
352 0
353 0
354 0
355 0
356 0
357 0
358 0
359 0
360 0
361 0
362 0
363 0
364 0
365 0
366 0
367 0
368 0
369 0
370 0
371 0
372 0
373 0
374 0
375 0
376 0
377 0
378 0
379 0
380 0
381 0
382 0
383 0
384 0
385 0
386 0
387 0
388 0
389 0
390 0
391 0
392 0
393 0
394 0
395 0
396 0
397 0
398 0
399 0
400 0
401 0
402 0
2 0
4 0
6 0
8 0
10 0
12 0
14 0
16 0
18 0
20 0
22 0
24 0
26 0
28 0
30 0
32 0
34 0
36 0
38 0
40 0
42 0
44 0
46 0
48 0
50 0
52 0
54 0
56 0
58 0
60 0
62 0
64 0
