c BC-S1.2
p cnf 66 186
1 -2 0
-1 2 0
3 -4 0
-3 4 0
5 -6 0
-5 6 0
7 -8 0
-7 8 0
9 -10 0
-9 10 0
11 -12 0
-11 12 0
2 -1 0
-2 1 0
4 -3 0
-4 3 0
6 -5 0
-6 5 0
8 -7 0
-8 7 0
10 -9 0
-10 9 0
12 -11 0
-12 11 0
13 -14 0
-13 14 0
15 -16 0
-15 16 0
17 -18 0
-17 18 0
19 -20 0
-19 20 0
21 -22 0
-21 22 0
23 -24 0
-23 24 0
-25 -1 2 0
25 1 0
25 -2 0
-26 1 -2 0
26 -1 0
26 2 0
-27 -3 4 0
27 3 0
27 -4 0
-28 3 -4 0
28 -3 0
28 4 0
-29 -5 6 0
29 5 0
29 -6 0
-30 5 -6 0
30 -5 0
30 6 0
-31 -7 8 0
31 7 0
31 -8 0
-32 7 -8 0
32 -7 0
32 8 0
-33 -9 10 0
33 9 0
33 -10 0
-34 9 -10 0
34 -9 0
34 10 0
-35 -11 12 0
35 11 0
35 -12 0
-36 11 -12 0
36 -11 0
36 12 0
-37 13 -14 0
37 -13 0
37 14 0
-38 -13 14 0
38 13 0
38 -14 0
-39 -40 13 0
39 40 0
39 -13 0
-41 40 -13 0
41 -40 0
41 13 0
-42 15 -16 0
42 -15 0
42 16 0
-43 -15 16 0
43 15 0
43 -16 0
-44 -45 15 0
44 45 0
44 -15 0
-46 45 -15 0
46 -45 0
46 15 0
-47 17 -18 0
47 -17 0
47 18 0
-48 -17 18 0
48 17 0
48 -18 0
-49 -50 17 0
49 50 0
49 -17 0
-51 50 -17 0
51 -50 0
51 17 0
-52 19 -20 0
52 -19 0
52 20 0
-53 -19 20 0
53 19 0
53 -20 0
-54 -55 19 0
54 55 0
54 -19 0
-56 55 -19 0
56 -55 0
56 19 0
-57 21 -22 0
57 -21 0
57 22 0
-58 -21 22 0
58 21 0
58 -22 0
-59 -60 21 0
59 60 0
59 -21 0
-61 60 -21 0
61 -60 0
61 21 0
-62 23 -24 0
62 -23 0
62 24 0
-63 -23 24 0
63 23 0
63 -24 0
-64 -65 23 0
64 65 0
64 -23 0
-66 65 -23 0
66 -65 0
66 23 0
25 0
26 0
27 0
28 0
29 0
30 0
31 0
32 0
33 0
34 0
35 0
36 0
37 0
38 0
39 0
41 0
42 0
43 0
44 0
46 0
47 0
48 0
49 0
51 0
52 0
53 0
54 0
56 0
57 0
58 0
59 0
61 0
62 0
63 0
64 0
66 0
2 0
4 0
6 0
8 0
10 0
12 0
