c BC-S1.2
p cnf 64 186
1 -2 0
-1 2 0
3 -4 0
-3 4 0
5 -6 0
-5 6 0
7 -8 0
-7 8 0
9 -10 0
-9 10 0
11 -12 0
-11 12 0
13 -14 0
-13 14 0
2 -1 0
-2 1 0
4 -3 0
-4 3 0
6 -5 0
-6 5 0
8 -7 0
-8 7 0
10 -9 0
-10 9 0
12 -11 0
-12 11 0
15 -16 0
-15 16 0
14 -13 0
-14 13 0
17 -18 -19 0
-17 18 0
-17 19 0
20 -21 0
-20 21 0
22 -23 -13 0
-22 23 0
-22 13 0
24 -25 0
-24 25 0
26 -27 0
-26 27 0
-28 -1 2 0
28 1 0
28 -2 0
-29 1 -2 0
29 -1 0
29 2 0
-30 -3 4 0
30 3 0
30 -4 0
-31 3 -4 0
31 -3 0
31 4 0
-32 -5 6 0
32 5 0
32 -6 0
-33 5 -6 0
33 -5 0
33 6 0
-34 -7 8 0
34 7 0
34 -8 0
-35 7 -8 0
35 -7 0
35 8 0
-36 -9 10 0
36 9 0
36 -10 0
-37 9 -10 0
37 -9 0
37 10 0
-38 -11 12 0
38 11 0
38 -12 0
-39 11 -12 0
39 -11 0
39 12 0
-40 15 -16 0
40 -15 0
40 16 0
-41 -15 16 0
41 15 0
41 -16 0
-42 -43 15 0
42 43 0
42 -15 0
-44 43 -15 0
44 -43 0
44 15 0
-45 14 -13 0
45 -14 0
45 13 0
-46 -14 13 0
46 14 0
46 -13 0
-47 -48 14 17 0
47 48 0
47 -14 0
47 -17 0
-49 48 -14 0
49 -48 0
49 14 0
-50 48 -17 0
50 -48 0
50 17 0
-51 20 -21 0
51 -20 0
51 21 0
-52 -20 21 0
52 20 0
52 -21 0
-53 -19 20 22 0
53 19 0
53 -20 0
53 -22 0
-54 19 -20 0
54 -19 0
54 20 0
-55 19 -22 0
55 -19 0
55 22 0
-56 24 -25 0
56 -24 0
56 25 0
-57 -24 25 0
57 24 0
57 -25 0
-58 -59 24 0
58 59 0
58 -24 0
-60 59 -24 0
60 -59 0
60 24 0
-61 26 -27 0
61 -26 0
61 27 0
-62 -26 27 0
62 26 0
62 -27 0
-63 -13 26 0
63 13 0
63 -26 0
-64 13 -26 0
64 -13 0
64 26 0
28 0
29 0
30 0
31 0
32 0
33 0
34 0
35 0
36 0
37 0
38 0
39 0
40 0
41 0
42 0
44 0
45 0
46 0
47 0
49 0
50 0
51 0
52 0
53 0
54 0
55 0
56 0
57 0
58 0
60 0
61 0
62 0
63 0
64 0
2 0
4 0
6 0
8 0
10 0
12 0
