c BC-S1.2
p cnf 11602 39254
1 -2 0
-1 2 0
3 -4 0
-3 4 0
5 -6 0
-5 6 0
7 -8 0
-7 8 0
9 -10 0
-9 10 0
11 -12 0
-11 12 0
13 -14 0
-13 14 0
15 -16 0
-15 16 0
17 -18 0
-17 18 0
19 -20 0
-19 20 0
21 -22 0
-21 22 0
23 -24 0
-23 24 0
25 -26 0
-25 26 0
27 -28 0
-27 28 0
29 -30 0
-29 30 0
31 -32 0
-31 32 0
33 -34 0
-33 34 0
35 -36 0
-35 36 0
37 -38 0
-37 38 0
39 -40 0
-39 40 0
41 -42 0
-41 42 0
43 -44 0
-43 44 0
45 -46 0
-45 46 0
47 -48 0
-47 48 0
49 -50 0
-49 50 0
51 -52 0
-51 52 0
53 -54 0
-53 54 0
55 -56 0
-55 56 0
57 -58 0
-57 58 0
59 -60 0
-59 60 0
61 -62 0
-61 62 0
63 -64 0
-63 64 0
65 -66 0
-65 66 0
67 -68 0
-67 68 0
69 -70 0
-69 70 0
71 -72 0
-71 72 0
73 -74 0
-73 74 0
75 -76 0
-75 76 0
77 -78 0
-77 78 0
79 -80 0
-79 80 0
81 -82 0
-81 82 0
83 -84 0
-83 84 0
85 -86 0
-85 86 0
87 -88 0
-87 88 0
89 -90 0
-89 90 0
91 -92 0
-91 92 0
93 -94 0
-93 94 0
95 -96 0
-95 96 0
97 -98 0
-97 98 0
99 -100 0
-99 100 0
101 -102 0
-101 102 0
103 -104 0
-103 104 0
105 -106 0
-105 106 0
107 -108 0
-107 108 0
109 -110 0
-109 110 0
111 -112 0
-111 112 0
113 -114 0
-113 114 0
115 -116 0
-115 116 0
117 -118 0
-117 118 0
119 -120 0
-119 120 0
121 -122 0
-121 122 0
123 -124 0
-123 124 0
125 -126 0
-125 126 0
127 -128 0
-127 128 0
129 -130 0
-129 130 0
131 -132 0
-131 132 0
133 -134 0
-133 134 0
135 -136 0
-135 136 0
137 -138 0
-137 138 0
139 -140 0
-139 140 0
141 -142 0
-141 142 0
143 -144 0
-143 144 0
145 -146 0
-145 146 0
147 -148 0
-147 148 0
149 -150 0
-149 150 0
151 -152 0
-151 152 0
153 -154 0
-153 154 0
155 -156 0
-155 156 0
157 -158 0
-157 158 0
159 -160 0
-159 160 0
161 -162 0
-161 162 0
163 -164 0
-163 164 0
165 -166 0
-165 166 0
167 -168 0
-167 168 0
169 -170 0
-169 170 0
171 -172 0
-171 172 0
173 -174 0
-173 174 0
175 -176 0
-175 176 0
177 -178 0
-177 178 0
179 -180 0
-179 180 0
181 -182 0
-181 182 0
183 -184 0
-183 184 0
185 -186 0
-185 186 0
187 -188 0
-187 188 0
189 -190 0
-189 190 0
191 -192 0
-191 192 0
193 -194 0
-193 194 0
195 -196 0
-195 196 0
197 -198 0
-197 198 0
199 -200 0
-199 200 0
201 -202 0
-201 202 0
203 -204 0
-203 204 0
205 -206 0
-205 206 0
207 -208 0
-207 208 0
209 -210 0
-209 210 0
211 -212 0
-211 212 0
213 -214 0
-213 214 0
215 -216 0
-215 216 0
217 -218 0
-217 218 0
219 -220 0
-219 220 0
221 -222 0
-221 222 0
223 -224 0
-223 224 0
225 -226 0
-225 226 0
227 -228 0
-227 228 0
229 -230 0
-229 230 0
231 -232 0
-231 232 0
233 -234 0
-233 234 0
235 -236 0
-235 236 0
237 -238 0
-237 238 0
239 -240 0
-239 240 0
241 -242 0
-241 242 0
243 -244 0
-243 244 0
245 -246 0
-245 246 0
247 -248 0
-247 248 0
249 -250 0
-249 250 0
251 -252 0
-251 252 0
253 -254 0
-253 254 0
255 -256 0
-255 256 0
257 -258 0
-257 258 0
259 -260 0
-259 260 0
261 -262 0
-261 262 0
263 -264 0
-263 264 0
265 -266 0
-265 266 0
267 -268 0
-267 268 0
269 -270 0
-269 270 0
271 -272 0
-271 272 0
273 -274 0
-273 274 0
275 -276 0
-275 276 0
277 -278 0
-277 278 0
279 -280 0
-279 280 0
281 -282 0
-281 282 0
283 -284 0
-283 284 0
285 -286 0
-285 286 0
287 -288 0
-287 288 0
289 -290 0
-289 290 0
291 -292 0
-291 292 0
293 -294 0
-293 294 0
295 -296 0
-295 296 0
297 -298 0
-297 298 0
299 -300 0
-299 300 0
301 -302 0
-301 302 0
303 -304 0
-303 304 0
305 -306 0
-305 306 0
307 -308 0
-307 308 0
309 -310 0
-309 310 0
311 -312 0
-311 312 0
313 -314 0
-313 314 0
315 -316 0
-315 316 0
317 -318 0
-317 318 0
319 -320 0
-319 320 0
321 -322 0
-321 322 0
323 -324 0
-323 324 0
325 -326 0
-325 326 0
327 -328 0
-327 328 0
329 -330 0
-329 330 0
331 -332 0
-331 332 0
333 -334 0
-333 334 0
335 -336 0
-335 336 0
337 -338 0
-337 338 0
339 -340 0
-339 340 0
341 -342 0
-341 342 0
343 -344 0
-343 344 0
345 -346 0
-345 346 0
347 -348 0
-347 348 0
349 -350 0
-349 350 0
351 -352 0
-351 352 0
353 -354 0
-353 354 0
355 -356 0
-355 356 0
357 -358 0
-357 358 0
359 -360 0
-359 360 0
361 -362 0
-361 362 0
363 -364 0
-363 364 0
365 -366 0
-365 366 0
367 -368 0
-367 368 0
369 -370 0
-369 370 0
371 -372 0
-371 372 0
373 -374 0
-373 374 0
375 -376 0
-375 376 0
377 -378 0
-377 378 0
379 -380 0
-379 380 0
381 -382 0
-381 382 0
383 -384 0
-383 384 0
385 -386 0
-385 386 0
387 -388 0
-387 388 0
389 -390 0
-389 390 0
391 -392 0
-391 392 0
393 -394 0
-393 394 0
395 -396 0
-395 396 0
397 -398 0
-397 398 0
399 -400 0
-399 400 0
401 -402 0
-401 402 0
403 -404 0
-403 404 0
405 -406 0
-405 406 0
407 -408 0
-407 408 0
409 -410 0
-409 410 0
411 -412 0
-411 412 0
413 -414 0
-413 414 0
415 -416 0
-415 416 0
417 -418 0
-417 418 0
419 -420 0
-419 420 0
421 -422 0
-421 422 0
423 -424 0
-423 424 0
425 -426 0
-425 426 0
427 -428 0
-427 428 0
429 -430 0
-429 430 0
431 -432 0
-431 432 0
433 -434 0
-433 434 0
435 -436 0
-435 436 0
437 -438 0
-437 438 0
439 -440 0
-439 440 0
441 -442 0
-441 442 0
443 -444 0
-443 444 0
445 -446 0
-445 446 0
447 -448 0
-447 448 0
449 -450 0
-449 450 0
451 -452 0
-451 452 0
453 -454 0
-453 454 0
455 -456 0
-455 456 0
457 -458 0
-457 458 0
459 -460 0
-459 460 0
461 -462 0
-461 462 0
463 -464 0
-463 464 0
465 -466 0
-465 466 0
467 -468 0
-467 468 0
469 -470 0
-469 470 0
471 -472 0
-471 472 0
473 -474 0
-473 474 0
475 -476 0
-475 476 0
477 -478 0
-477 478 0
479 -480 0
-479 480 0
481 -482 0
-481 482 0
483 -484 0
-483 484 0
485 -486 0
-485 486 0
487 -488 0
-487 488 0
489 -490 0
-489 490 0
491 -492 0
-491 492 0
493 -494 0
-493 494 0
495 -496 0
-495 496 0
497 -498 0
-497 498 0
499 -500 0
-499 500 0
501 -502 0
-501 502 0
503 -504 0
-503 504 0
505 -506 0
-505 506 0
507 -508 0
-507 508 0
509 -510 0
-509 510 0
511 -512 0
-511 512 0
513 -514 0
-513 514 0
515 -516 0
-515 516 0
517 -518 0
-517 518 0
519 -520 0
-519 520 0
521 -522 0
-521 522 0
523 -524 0
-523 524 0
525 -526 0
-525 526 0
527 -528 0
-527 528 0
529 -530 0
-529 530 0
531 -532 0
-531 532 0
533 -534 0
-533 534 0
535 -536 0
-535 536 0
537 -538 0
-537 538 0
539 -540 0
-539 540 0
541 -542 0
-541 542 0
543 -544 0
-543 544 0
545 -546 0
-545 546 0
547 -548 0
-547 548 0
549 -550 0
-549 550 0
551 -552 0
-551 552 0
553 -554 0
-553 554 0
555 -556 0
-555 556 0
557 -558 0
-557 558 0
559 -560 0
-559 560 0
561 -562 0
-561 562 0
563 -564 0
-563 564 0
565 -566 0
-565 566 0
567 -568 0
-567 568 0
569 -570 0
-569 570 0
571 -572 0
-571 572 0
573 -574 0
-573 574 0
575 -576 0
-575 576 0
577 -578 0
-577 578 0
579 -580 0
-579 580 0
581 -582 0
-581 582 0
583 -584 0
-583 584 0
585 -586 0
-585 586 0
587 -588 0
-587 588 0
589 -590 0
-589 590 0
591 -592 0
-591 592 0
593 -594 0
-593 594 0
595 -596 0
-595 596 0
597 -598 0
-597 598 0
599 -600 0
-599 600 0
601 -602 0
-601 602 0
603 -604 0
-603 604 0
605 -606 0
-605 606 0
607 -608 0
-607 608 0
609 -610 0
-609 610 0
611 -612 0
-611 612 0
613 -614 0
-613 614 0
615 -616 0
-615 616 0
617 -618 0
-617 618 0
619 -620 0
-619 620 0
621 -622 0
-621 622 0
623 -624 0
-623 624 0
625 -626 0
-625 626 0
627 -628 0
-627 628 0
629 -630 0
-629 630 0
631 -632 0
-631 632 0
633 -634 0
-633 634 0
635 -636 0
-635 636 0
637 -638 0
-637 638 0
639 -640 0
-639 640 0
641 -642 0
-641 642 0
643 -644 0
-643 644 0
645 -646 0
-645 646 0
647 -648 0
-647 648 0
649 -650 0
-649 650 0
651 -652 0
-651 652 0
653 -654 0
-653 654 0
655 -656 0
-655 656 0
657 -658 0
-657 658 0
659 -660 0
-659 660 0
661 -662 0
-661 662 0
663 -664 0
-663 664 0
665 -666 0
-665 666 0
667 -668 0
-667 668 0
669 -670 0
-669 670 0
671 -672 0
-671 672 0
673 -674 0
-673 674 0
675 -676 0
-675 676 0
677 -678 0
-677 678 0
679 -680 0
-679 680 0
681 -682 0
-681 682 0
683 -684 0
-683 684 0
685 -686 0
-685 686 0
687 -688 0
-687 688 0
689 -690 0
-689 690 0
691 -692 0
-691 692 0
693 -694 0
-693 694 0
695 -696 0
-695 696 0
697 -698 0
-697 698 0
699 -700 0
-699 700 0
701 -702 0
-701 702 0
703 -704 0
-703 704 0
705 -706 0
-705 706 0
707 -708 0
-707 708 0
709 -710 0
-709 710 0
711 -712 0
-711 712 0
713 -714 0
-713 714 0
715 -716 0
-715 716 0
717 -718 0
-717 718 0
719 -720 0
-719 720 0
721 -722 0
-721 722 0
723 -724 0
-723 724 0
725 -726 0
-725 726 0
727 -728 0
-727 728 0
729 -730 0
-729 730 0
731 -732 0
-731 732 0
733 -734 0
-733 734 0
735 -736 0
-735 736 0
737 -738 0
-737 738 0
739 -740 0
-739 740 0
741 -742 0
-741 742 0
743 -744 0
-743 744 0
745 -746 0
-745 746 0
747 -748 0
-747 748 0
749 -750 0
-749 750 0
751 -752 0
-751 752 0
753 -754 0
-753 754 0
755 -756 0
-755 756 0
757 -758 0
-757 758 0
759 -760 0
-759 760 0
761 -762 0
-761 762 0
763 -764 0
-763 764 0
765 -766 0
-765 766 0
767 -768 0
-767 768 0
769 -770 0
-769 770 0
771 -772 0
-771 772 0
773 -774 0
-773 774 0
775 -776 0
-775 776 0
777 -778 0
-777 778 0
779 -780 0
-779 780 0
781 -782 0
-781 782 0
783 -784 0
-783 784 0
785 -786 0
-785 786 0
787 -788 0
-787 788 0
789 -790 0
-789 790 0
791 -792 0
-791 792 0
793 -794 0
-793 794 0
795 -796 0
-795 796 0
797 -798 0
-797 798 0
799 -800 0
-799 800 0
801 -802 0
-801 802 0
803 -804 0
-803 804 0
805 -806 0
-805 806 0
807 -808 0
-807 808 0
809 -810 0
-809 810 0
811 -812 0
-811 812 0
813 -814 0
-813 814 0
815 -816 0
-815 816 0
817 -818 0
-817 818 0
819 -820 0
-819 820 0
821 -822 0
-821 822 0
823 -824 0
-823 824 0
825 -826 0
-825 826 0
827 -828 0
-827 828 0
829 -830 0
-829 830 0
831 -832 0
-831 832 0
833 -834 0
-833 834 0
835 -836 0
-835 836 0
837 -838 0
-837 838 0
839 -840 0
-839 840 0
841 -842 0
-841 842 0
843 -844 0
-843 844 0
845 -846 0
-845 846 0
847 -848 0
-847 848 0
849 -850 0
-849 850 0
851 -852 0
-851 852 0
853 -854 0
-853 854 0
855 -856 0
-855 856 0
857 -858 0
-857 858 0
859 -860 0
-859 860 0
861 -862 0
-861 862 0
863 -864 0
-863 864 0
865 -866 0
-865 866 0
867 -868 0
-867 868 0
869 -870 0
-869 870 0
871 -872 0
-871 872 0
873 -874 0
-873 874 0
875 -876 0
-875 876 0
877 -878 0
-877 878 0
879 -880 0
-879 880 0
881 -882 0
-881 882 0
883 -884 0
-883 884 0
885 -886 0
-885 886 0
887 -888 0
-887 888 0
889 -890 0
-889 890 0
891 -892 0
-891 892 0
893 -894 0
-893 894 0
895 -896 0
-895 896 0
897 -898 0
-897 898 0
899 -900 0
-899 900 0
901 -902 0
-901 902 0
903 -904 0
-903 904 0
905 -906 0
-905 906 0
907 -908 0
-907 908 0
909 -910 0
-909 910 0
911 -912 0
-911 912 0
913 -914 0
-913 914 0
915 -916 0
-915 916 0
917 -918 0
-917 918 0
919 -920 0
-919 920 0
921 -922 0
-921 922 0
923 -924 0
-923 924 0
925 -926 0
-925 926 0
927 -928 0
-927 928 0
929 -930 0
-929 930 0
931 -932 0
-931 932 0
933 -934 0
-933 934 0
935 -936 0
-935 936 0
937 -938 0
-937 938 0
939 -940 0
-939 940 0
941 -942 0
-941 942 0
943 -944 0
-943 944 0
945 -946 0
-945 946 0
947 -948 0
-947 948 0
949 -950 0
-949 950 0
951 -952 0
-951 952 0
953 -954 0
-953 954 0
955 -956 0
-955 956 0
957 -958 0
-957 958 0
959 -960 0
-959 960 0
961 -962 0
-961 962 0
963 -964 0
-963 964 0
965 -966 0
-965 966 0
967 -968 0
-967 968 0
969 -970 0
-969 970 0
971 -972 0
-971 972 0
973 -974 0
-973 974 0
975 -976 0
-975 976 0
977 -978 0
-977 978 0
979 -980 0
-979 980 0
981 -982 0
-981 982 0
983 -984 0
-983 984 0
985 -986 0
-985 986 0
987 -988 0
-987 988 0
989 -990 0
-989 990 0
991 -992 0
-991 992 0
993 -994 0
-993 994 0
995 -996 0
-995 996 0
997 -998 0
-997 998 0
999 -1000 0
-999 1000 0
1001 -1002 0
-1001 1002 0
1003 -1004 0
-1003 1004 0
1005 -1006 0
-1005 1006 0
1007 -1008 0
-1007 1008 0
1009 -1010 0
-1009 1010 0
1011 -1012 0
-1011 1012 0
1013 -1014 0
-1013 1014 0
1015 -1016 0
-1015 1016 0
1017 -1018 0
-1017 1018 0
1019 -1020 0
-1019 1020 0
1021 -1022 0
-1021 1022 0
1023 -1024 0
-1023 1024 0
1025 -1026 0
-1025 1026 0
1027 -1028 0
-1027 1028 0
1029 -1030 0
-1029 1030 0
1031 -1032 0
-1031 1032 0
1033 -1034 0
-1033 1034 0
1035 -1036 0
-1035 1036 0
1037 -1038 0
-1037 1038 0
1039 -1040 0
-1039 1040 0
1041 -1042 0
-1041 1042 0
1043 -1044 0
-1043 1044 0
1045 -1046 0
-1045 1046 0
1047 -1048 0
-1047 1048 0
1049 -1050 0
-1049 1050 0
1051 -1052 0
-1051 1052 0
1053 -1054 0
-1053 1054 0
1055 -1056 0
-1055 1056 0
1057 -1058 0
-1057 1058 0
1059 -1060 0
-1059 1060 0
1061 -1062 0
-1061 1062 0
1063 -1064 0
-1063 1064 0
1065 -1066 0
-1065 1066 0
1067 -1068 0
-1067 1068 0
1069 -1070 0
-1069 1070 0
1071 -1072 0
-1071 1072 0
1073 -1074 0
-1073 1074 0
1075 -1076 0
-1075 1076 0
1077 -1078 0
-1077 1078 0
1079 -1080 0
-1079 1080 0
1081 -1082 0
-1081 1082 0
1083 -1084 0
-1083 1084 0
1085 -1086 0
-1085 1086 0
1087 -1088 0
-1087 1088 0
1089 -1090 0
-1089 1090 0
1091 -1092 0
-1091 1092 0
1093 -1094 0
-1093 1094 0
1095 -1096 0
-1095 1096 0
1097 -1098 0
-1097 1098 0
1099 -1100 0
-1099 1100 0
1101 -1102 0
-1101 1102 0
1103 -1104 0
-1103 1104 0
1105 -1106 0
-1105 1106 0
1107 -1108 0
-1107 1108 0
1109 -1110 0
-1109 1110 0
1111 -1112 0
-1111 1112 0
1113 -1114 0
-1113 1114 0
1115 -1116 0
-1115 1116 0
1117 -1118 0
-1117 1118 0
1119 -1120 0
-1119 1120 0
1121 -1122 0
-1121 1122 0
1123 -1124 0
-1123 1124 0
1125 -1126 0
-1125 1126 0
1127 -1128 0
-1127 1128 0
1129 -1130 0
-1129 1130 0
1131 -1132 0
-1131 1132 0
1133 -1134 0
-1133 1134 0
1135 -1136 0
-1135 1136 0
1137 -1138 0
-1137 1138 0
1139 -1140 0
-1139 1140 0
1141 -1142 0
-1141 1142 0
1143 -1144 0
-1143 1144 0
1145 -1146 0
-1145 1146 0
1147 -1148 0
-1147 1148 0
1149 -1150 0
-1149 1150 0
1151 -1152 0
-1151 1152 0
1153 -1154 0
-1153 1154 0
1155 -1156 0
-1155 1156 0
1157 -1158 0
-1157 1158 0
1159 -1160 0
-1159 1160 0
1161 -1162 0
-1161 1162 0
1163 -1164 0
-1163 1164 0
1165 -1166 0
-1165 1166 0
1167 -1168 0
-1167 1168 0
1169 -1170 0
-1169 1170 0
1171 -1172 0
-1171 1172 0
1173 -1174 0
-1173 1174 0
1175 -1176 0
-1175 1176 0
1177 -1178 0
-1177 1178 0
1179 -1180 0
-1179 1180 0
1181 -1182 0
-1181 1182 0
1183 -1184 0
-1183 1184 0
1185 -1186 0
-1185 1186 0
1187 -1188 0
-1187 1188 0
1189 -1190 0
-1189 1190 0
1191 -1192 0
-1191 1192 0
1193 -1194 0
-1193 1194 0
1195 -1196 0
-1195 1196 0
1197 -1198 0
-1197 1198 0
1199 -1200 0
-1199 1200 0
1201 -1202 0
-1201 1202 0
1203 -1204 0
-1203 1204 0
1205 -1206 0
-1205 1206 0
1207 -1208 0
-1207 1208 0
1209 -1210 0
-1209 1210 0
1211 -1212 0
-1211 1212 0
1213 -1214 0
-1213 1214 0
1215 -1216 0
-1215 1216 0
1217 -1218 0
-1217 1218 0
1219 -1220 0
-1219 1220 0
1221 -1222 0
-1221 1222 0
1223 -1224 0
-1223 1224 0
1225 -1226 0
-1225 1226 0
1227 -1228 0
-1227 1228 0
1229 -1230 0
-1229 1230 0
1231 -1232 0
-1231 1232 0
1233 -1234 0
-1233 1234 0
1235 -1236 0
-1235 1236 0
1237 -1238 0
-1237 1238 0
1239 -1240 0
-1239 1240 0
1241 -1242 0
-1241 1242 0
1243 -1244 0
-1243 1244 0
1245 -1246 0
-1245 1246 0
1247 -1248 0
-1247 1248 0
1249 -1250 0
-1249 1250 0
1251 -1252 0
-1251 1252 0
1253 -1254 0
-1253 1254 0
1255 -1256 0
-1255 1256 0
1257 -1258 0
-1257 1258 0
1259 -1260 0
-1259 1260 0
1261 -1262 0
-1261 1262 0
1263 -1264 0
-1263 1264 0
1265 -1266 0
-1265 1266 0
1267 -1268 0
-1267 1268 0
1269 -1270 0
-1269 1270 0
1271 -1272 0
-1271 1272 0
1273 -1274 0
-1273 1274 0
1275 -1276 0
-1275 1276 0
1277 -1278 0
-1277 1278 0
1279 -1280 0
-1279 1280 0
1281 -1282 0
-1281 1282 0
1283 -1284 0
-1283 1284 0
1285 -1286 0
-1285 1286 0
1287 -1288 0
-1287 1288 0
1289 -1290 0
-1289 1290 0
1291 -1292 0
-1291 1292 0
1293 -1294 0
-1293 1294 0
1295 -1296 0
-1295 1296 0
1297 -1298 0
-1297 1298 0
1299 -1300 0
-1299 1300 0
1301 -1302 0
-1301 1302 0
1303 -1304 0
-1303 1304 0
1305 -1306 0
-1305 1306 0
1307 -1308 0
-1307 1308 0
1309 -1310 0
-1309 1310 0
1311 -1312 0
-1311 1312 0
1313 -1314 0
-1313 1314 0
1315 -1316 0
-1315 1316 0
1317 -1318 0
-1317 1318 0
1319 -1320 0
-1319 1320 0
1321 -1322 0
-1321 1322 0
1323 -1324 0
-1323 1324 0
1325 -1326 0
-1325 1326 0
1327 -1328 0
-1327 1328 0
1329 -1330 0
-1329 1330 0
1331 -1332 0
-1331 1332 0
1333 -1334 0
-1333 1334 0
1335 -1336 0
-1335 1336 0
1337 -1338 0
-1337 1338 0
1339 -1340 0
-1339 1340 0
1341 -1342 0
-1341 1342 0
1343 -1344 0
-1343 1344 0
1345 -1346 0
-1345 1346 0
1347 -1348 0
-1347 1348 0
1349 -1350 0
-1349 1350 0
1351 -1352 0
-1351 1352 0
1353 -1354 0
-1353 1354 0
1355 -1356 0
-1355 1356 0
1357 -1358 0
-1357 1358 0
1359 -1360 0
-1359 1360 0
1361 -1362 0
-1361 1362 0
1363 -1364 0
-1363 1364 0
1365 -1366 0
-1365 1366 0
1367 -1368 0
-1367 1368 0
1369 -1370 0
-1369 1370 0
1371 -1372 0
-1371 1372 0
1373 -1374 0
-1373 1374 0
1375 -1376 0
-1375 1376 0
1377 -1378 0
-1377 1378 0
1379 -1380 0
-1379 1380 0
1381 -1382 0
-1381 1382 0
1383 -1384 0
-1383 1384 0
1385 -1386 0
-1385 1386 0
1387 -1388 0
-1387 1388 0
1389 -1390 0
-1389 1390 0
1391 -1392 0
-1391 1392 0
1393 -1394 0
-1393 1394 0
1395 -1396 0
-1395 1396 0
1397 -1398 0
-1397 1398 0
1399 -1400 0
-1399 1400 0
1401 -1402 0
-1401 1402 0
1403 -1404 0
-1403 1404 0
1405 -1406 0
-1405 1406 0
1407 -1408 0
-1407 1408 0
1409 -1410 0
-1409 1410 0
1411 -1412 0
-1411 1412 0
1413 -1414 0
-1413 1414 0
1415 -1416 0
-1415 1416 0
1417 -1418 0
-1417 1418 0
1419 -1420 0
-1419 1420 0
1421 -1422 0
-1421 1422 0
1423 -1424 0
-1423 1424 0
1425 -1426 0
-1425 1426 0
1427 -1428 0
-1427 1428 0
1429 -1430 0
-1429 1430 0
1431 -1432 0
-1431 1432 0
1433 -1434 0
-1433 1434 0
1435 -1436 0
-1435 1436 0
1437 -1438 0
-1437 1438 0
1439 -1440 0
-1439 1440 0
1441 -1442 0
-1441 1442 0
1443 -1444 0
-1443 1444 0
1445 -1446 0
-1445 1446 0
1447 -1448 0
-1447 1448 0
1449 -1450 0
-1449 1450 0
1451 -1452 0
-1451 1452 0
1453 -1454 0
-1453 1454 0
1455 -1456 0
-1455 1456 0
1457 -1458 0
-1457 1458 0
1459 -1460 0
-1459 1460 0
1461 -1462 0
-1461 1462 0
1463 -1464 0
-1463 1464 0
1465 -1466 0
-1465 1466 0
1467 -1468 0
-1467 1468 0
1469 -1470 0
-1469 1470 0
1471 -1472 0
-1471 1472 0
1473 -1474 0
-1473 1474 0
1475 -1476 0
-1475 1476 0
1477 -1478 0
-1477 1478 0
1479 -1480 0
-1479 1480 0
1481 -1482 0
-1481 1482 0
1483 -1484 0
-1483 1484 0
1485 -1486 0
-1485 1486 0
1487 -1488 0
-1487 1488 0
1489 -1490 0
-1489 1490 0
1491 -1492 0
-1491 1492 0
1493 -1494 0
-1493 1494 0
1495 -1496 0
-1495 1496 0
1497 -1498 0
-1497 1498 0
1499 -1500 0
-1499 1500 0
1501 -1502 0
-1501 1502 0
1503 -1504 0
-1503 1504 0
1505 -1506 0
-1505 1506 0
1507 -1508 0
-1507 1508 0
1509 -1510 0
-1509 1510 0
1511 -1512 0
-1511 1512 0
1513 -1514 0
-1513 1514 0
1515 -1516 0
-1515 1516 0
1517 -1518 0
-1517 1518 0
1519 -1520 0
-1519 1520 0
1521 -1522 0
-1521 1522 0
1523 -1524 0
-1523 1524 0
1525 -1526 0
-1525 1526 0
1527 -1528 0
-1527 1528 0
1529 -1530 0
-1529 1530 0
1531 -1532 0
-1531 1532 0
1533 -1534 0
-1533 1534 0
1535 -1536 0
-1535 1536 0
1537 -1538 0
-1537 1538 0
1539 -1540 0
-1539 1540 0
1541 -1542 0
-1541 1542 0
1543 -1544 0
-1543 1544 0
1545 -1546 0
-1545 1546 0
1547 -1548 0
-1547 1548 0
1549 -1550 0
-1549 1550 0
1551 -1552 0
-1551 1552 0
1553 -1554 0
-1553 1554 0
1555 -1556 0
-1555 1556 0
1557 -1558 0
-1557 1558 0
1559 -1560 0
-1559 1560 0
1561 -1562 0
-1561 1562 0
1563 -1564 0
-1563 1564 0
1565 -1566 0
-1565 1566 0
1567 -1568 0
-1567 1568 0
1569 -1570 0
-1569 1570 0
1571 -1572 0
-1571 1572 0
1573 -1574 0
-1573 1574 0
1575 -1576 0
-1575 1576 0
1577 -1578 0
-1577 1578 0
1579 -1580 0
-1579 1580 0
1581 -1582 0
-1581 1582 0
1583 -1584 0
-1583 1584 0
1585 -1586 0
-1585 1586 0
1587 -1588 0
-1587 1588 0
1589 -1590 0
-1589 1590 0
1591 -1592 0
-1591 1592 0
1593 -1594 0
-1593 1594 0
1595 -1596 0
-1595 1596 0
1597 -1598 0
-1597 1598 0
1599 -1600 0
-1599 1600 0
1601 -1602 0
-1601 1602 0
1603 -1604 0
-1603 1604 0
1605 -1606 0
-1605 1606 0
1607 -1608 0
-1607 1608 0
1609 -1610 0
-1609 1610 0
1611 -1612 0
-1611 1612 0
1613 -1614 0
-1613 1614 0
1615 -1616 0
-1615 1616 0
1617 -1618 0
-1617 1618 0
1619 -1620 0
-1619 1620 0
1621 -1622 0
-1621 1622 0
1623 -1624 0
-1623 1624 0
1625 -1626 0
-1625 1626 0
1627 -1628 0
-1627 1628 0
1629 -1630 0
-1629 1630 0
1631 -1632 0
-1631 1632 0
1633 -1634 0
-1633 1634 0
1635 -1636 0
-1635 1636 0
1637 -1638 0
-1637 1638 0
1639 -1640 0
-1639 1640 0
1641 -1642 0
-1641 1642 0
1643 -1644 0
-1643 1644 0
1645 -1646 0
-1645 1646 0
1647 -1648 0
-1647 1648 0
1649 -1650 0
-1649 1650 0
1651 -1652 0
-1651 1652 0
1653 -1654 0
-1653 1654 0
1655 -1656 0
-1655 1656 0
1657 -1658 0
-1657 1658 0
1659 -1660 0
-1659 1660 0
1661 -1662 0
-1661 1662 0
1663 -1664 0
-1663 1664 0
1665 -1666 0
-1665 1666 0
1667 -1668 0
-1667 1668 0
1669 -1670 0
-1669 1670 0
1671 -1672 0
-1671 1672 0
1673 -1674 0
-1673 1674 0
1675 -1676 0
-1675 1676 0
1677 -1678 0
-1677 1678 0
1679 -1680 0
-1679 1680 0
1681 -1682 0
-1681 1682 0
1683 -1684 0
-1683 1684 0
1685 -1686 0
-1685 1686 0
1687 -1688 0
-1687 1688 0
1689 -1690 0
-1689 1690 0
1691 -1692 0
-1691 1692 0
1693 -1694 0
-1693 1694 0
1695 -1696 0
-1695 1696 0
1697 -1698 0
-1697 1698 0
1699 -1700 0
-1699 1700 0
1701 -1702 0
-1701 1702 0
1703 -1704 0
-1703 1704 0
1705 -1706 0
-1705 1706 0
1707 -1708 0
-1707 1708 0
1709 -1710 0
-1709 1710 0
1711 -1712 0
-1711 1712 0
1713 -1714 0
-1713 1714 0
1715 -1716 0
-1715 1716 0
1717 -1718 0
-1717 1718 0
1719 -1720 0
-1719 1720 0
1721 -1722 0
-1721 1722 0
1723 -1724 0
-1723 1724 0
1725 -1726 0
-1725 1726 0
1727 -1728 0
-1727 1728 0
1729 -1730 0
-1729 1730 0
1731 -1732 0
-1731 1732 0
1733 -1734 0
-1733 1734 0
1735 -1736 0
-1735 1736 0
1737 -1738 0
-1737 1738 0
1739 -1740 0
-1739 1740 0
1741 -1742 0
-1741 1742 0
1743 -1744 0
-1743 1744 0
1745 -1746 0
-1745 1746 0
1747 -1748 0
-1747 1748 0
1749 -1750 0
-1749 1750 0
1751 -1752 0
-1751 1752 0
1753 -1754 0
-1753 1754 0
1755 -1756 0
-1755 1756 0
1757 -1758 0
-1757 1758 0
1759 -1760 0
-1759 1760 0
1761 -1762 0
-1761 1762 0
1763 -1764 0
-1763 1764 0
1765 -1766 0
-1765 1766 0
1767 -1768 0
-1767 1768 0
1769 -1770 0
-1769 1770 0
1771 -1772 0
-1771 1772 0
1773 -1774 0
-1773 1774 0
1775 -1776 0
-1775 1776 0
1777 -1778 0
-1777 1778 0
1779 -1780 0
-1779 1780 0
1781 -1782 0
-1781 1782 0
1783 -1784 0
-1783 1784 0
1785 -1786 0
-1785 1786 0
1787 -1788 0
-1787 1788 0
1789 -1790 0
-1789 1790 0
1791 -1792 0
-1791 1792 0
1793 -1794 0
-1793 1794 0
1795 -1796 0
-1795 1796 0
1797 -1798 0
-1797 1798 0
1799 -1800 0
-1799 1800 0
1801 -1802 0
-1801 1802 0
1803 -1804 0
-1803 1804 0
1805 -1806 0
-1805 1806 0
1807 -1808 0
-1807 1808 0
1809 -1810 0
-1809 1810 0
1811 -1812 0
-1811 1812 0
1813 -1814 0
-1813 1814 0
1815 -1816 0
-1815 1816 0
1817 -1818 0
-1817 1818 0
1819 -1820 0
-1819 1820 0
1821 -1822 0
-1821 1822 0
1823 -1824 0
-1823 1824 0
1825 -1826 0
-1825 1826 0
1827 -1828 0
-1827 1828 0
1829 -1830 0
-1829 1830 0
1831 -1832 0
-1831 1832 0
1833 -1834 0
-1833 1834 0
1835 -1836 0
-1835 1836 0
1837 -1838 0
-1837 1838 0
1839 -1840 0
-1839 1840 0
1841 -1842 0
-1841 1842 0
1843 -1844 0
-1843 1844 0
1845 -1846 0
-1845 1846 0
1847 -1848 0
-1847 1848 0
1849 -1850 0
-1849 1850 0
1851 -1852 0
-1851 1852 0
1853 -1854 0
-1853 1854 0
1855 -1856 0
-1855 1856 0
1857 -1858 0
-1857 1858 0
1859 -1860 0
-1859 1860 0
1861 -1862 0
-1861 1862 0
1863 -1864 0
-1863 1864 0
1865 -1866 0
-1865 1866 0
1867 -1868 0
-1867 1868 0
1869 -1870 0
-1869 1870 0
1871 -1872 0
-1871 1872 0
1873 -1874 0
-1873 1874 0
1875 -1876 0
-1875 1876 0
1877 -1878 0
-1877 1878 0
1879 -1880 0
-1879 1880 0
1881 -1882 0
-1881 1882 0
1883 -1884 0
-1883 1884 0
1885 -1886 0
-1885 1886 0
1887 -1888 0
-1887 1888 0
1889 -1890 0
-1889 1890 0
1891 -1892 0
-1891 1892 0
1893 -1894 0
-1893 1894 0
1895 -1896 0
-1895 1896 0
1897 -1898 0
-1897 1898 0
1899 -1900 0
-1899 1900 0
1901 -1902 0
-1901 1902 0
1903 -1904 0
-1903 1904 0
1905 -1906 0
-1905 1906 0
1907 -1908 0
-1907 1908 0
1909 -1910 0
-1909 1910 0
1911 -1912 0
-1911 1912 0
1913 -1914 0
-1913 1914 0
1915 -1916 0
-1915 1916 0
1917 -1918 0
-1917 1918 0
1919 -1920 0
-1919 1920 0
1921 -1922 0
-1921 1922 0
1923 -1924 0
-1923 1924 0
1925 -1926 0
-1925 1926 0
1927 -1928 0
-1927 1928 0
1929 -1930 0
-1929 1930 0
1931 -1932 0
-1931 1932 0
1933 -1934 0
-1933 1934 0
1935 -1936 0
-1935 1936 0
1937 -1938 0
-1937 1938 0
1939 -1940 0
-1939 1940 0
1941 -1942 0
-1941 1942 0
1943 -1944 0
-1943 1944 0
1945 -1946 0
-1945 1946 0
1947 -1948 0
-1947 1948 0
1949 -1950 0
-1949 1950 0
1951 -1952 0
-1951 1952 0
1953 -1954 0
-1953 1954 0
1955 -1956 0
-1955 1956 0
1957 -1958 0
-1957 1958 0
1959 -1960 0
-1959 1960 0
1961 -1962 0
-1961 1962 0
1963 -1964 0
-1963 1964 0
1965 -1966 0
-1965 1966 0
1967 -1968 0
-1967 1968 0
1969 -1970 0
-1969 1970 0
1971 -1972 0
-1971 1972 0
1973 -1974 0
-1973 1974 0
1975 -1976 0
-1975 1976 0
1977 -1978 0
-1977 1978 0
1979 -1980 0
-1979 1980 0
1981 -1982 0
-1981 1982 0
1983 -1984 0
-1983 1984 0
1985 -1986 0
-1985 1986 0
1987 -1988 0
-1987 1988 0
1989 -1990 0
-1989 1990 0
1991 -1992 0
-1991 1992 0
1993 -1994 0
-1993 1994 0
1995 -1996 0
-1995 1996 0
1997 -1998 0
-1997 1998 0
1999 -2000 0
-1999 2000 0
2001 -2002 0
-2001 2002 0
2003 -2004 0
-2003 2004 0
2005 -2006 0
-2005 2006 0
2007 -2008 0
-2007 2008 0
2009 -2010 0
-2009 2010 0
2011 -2012 0
-2011 2012 0
2013 -2014 0
-2013 2014 0
2015 -2016 0
-2015 2016 0
2017 -2018 0
-2017 2018 0
2019 -2020 0
-2019 2020 0
2021 -2022 0
-2021 2022 0
2023 -2024 0
-2023 2024 0
2025 -2026 0
-2025 2026 0
2027 -2028 0
-2027 2028 0
2029 -2030 0
-2029 2030 0
2031 -2032 0
-2031 2032 0
2033 -2034 0
-2033 2034 0
2035 -2036 0
-2035 2036 0
2037 -2038 0
-2037 2038 0
2039 -2040 0
-2039 2040 0
2041 -2042 0
-2041 2042 0
2043 -2044 0
-2043 2044 0
2045 -2046 0
-2045 2046 0
2047 -2048 0
-2047 2048 0
2049 -2050 0
-2049 2050 0
2051 -2052 0
-2051 2052 0
2053 -2054 0
-2053 2054 0
2055 -2056 0
-2055 2056 0
2057 -2058 0
-2057 2058 0
2059 -2060 0
-2059 2060 0
2061 -2062 0
-2061 2062 0
2063 -2064 0
-2063 2064 0
2065 -2066 0
-2065 2066 0
2067 -2068 0
-2067 2068 0
2069 -2070 0
-2069 2070 0
2071 -2072 0
-2071 2072 0
2073 -2074 0
-2073 2074 0
2075 -2076 0
-2075 2076 0
2077 -2078 0
-2077 2078 0
2079 -2080 0
-2079 2080 0
2081 -2082 0
-2081 2082 0
2083 -2084 0
-2083 2084 0
2085 -2086 0
-2085 2086 0
2087 -2088 0
-2087 2088 0
2089 -2090 0
-2089 2090 0
2091 -2092 0
-2091 2092 0
2 -1 0
-2 1 0
2093 -2094 2095 2096 -1421 0
-2093 2094 0
-2093 -2095 0
-2093 -2096 0
-2093 1421 0
2097 -2098 2099 -1457 0
-2097 2098 0
-2097 -2099 0
-2097 1457 0
2100 -2101 2102 -1409 0
-2100 2101 0
-2100 -2102 0
-2100 1409 0
2103 -2104 2105 -1407 0
-2103 2104 0
-2103 -2105 0
-2103 1407 0
2106 -2107 2108 2109 -1413 0
-2106 2107 0
-2106 -2108 0
-2106 -2109 0
-2106 1413 0
2110 -2111 2112 2113 -1425 0
-2110 2111 0
-2110 -2112 0
-2110 -2113 0
-2110 1425 0
2114 -2115 2116 -1443 0
-2114 2115 0
-2114 -2116 0
-2114 1443 0
1544 -1543 0
-1544 1543 0
2117 -2118 2119 2120 -1495 0
-2117 2118 0
-2117 -2119 0
-2117 -2120 0
-2117 1495 0
2121 -2122 2123 2124 -1469 0
-2121 2122 0
-2121 -2123 0
-2121 -2124 0
-2121 1469 0
2125 -2126 2127 -1509 0
-2125 2126 0
-2125 -2127 0
-2125 1509 0
2128 -2129 2130 -1505 0
-2128 2129 0
-2128 -2130 0
-2128 1505 0
2131 -2132 2133 -1519 0
-2131 2132 0
-2131 -2133 0
-2131 1519 0
2134 -2135 2136 -1423 0
-2134 2135 0
-2134 -2136 0
-2134 1423 0
2137 -2138 2139 2140 -1479 0
-2137 2138 0
-2137 -2139 0
-2137 -2140 0
-2137 1479 0
2141 -2142 2143 2144 -1471 0
-2141 2142 0
-2141 -2143 0
-2141 -2144 0
-2141 1471 0
2145 -2146 2147 -1501 0
-2145 2146 0
-2145 -2147 0
-2145 1501 0
2148 -2149 2150 -1463 0
-2148 2149 0
-2148 -2150 0
-2148 1463 0
2151 -2152 2153 2154 -1517 0
-2151 2152 0
-2151 -2153 0
-2151 -2154 0
-2151 1517 0
2155 -2156 2157 -1427 0
-2155 2156 0
-2155 -2157 0
-2155 1427 0
2158 -2159 2160 2161 -1527 0
-2158 2159 0
-2158 -2160 0
-2158 -2161 0
-2158 1527 0
2162 -2163 2164 2165 -1487 0
-2162 2163 0
-2162 -2164 0
-2162 -2165 0
-2162 1487 0
2166 -2167 2168 2169 -1419 0
-2166 2167 0
-2166 -2168 0
-2166 -2169 0
-2166 1419 0
2170 -2171 2172 -1507 0
-2170 2171 0
-2170 -2172 0
-2170 1507 0
2173 -2174 2175 2176 -1529 0
-2173 2174 0
-2173 -2175 0
-2173 -2176 0
-2173 1529 0
2177 -2178 2179 -1467 0
-2177 2178 0
-2177 -2179 0
-2177 1467 0
2180 -2181 2182 2183 -1449 0
-2180 2181 0
-2180 -2182 0
-2180 -2183 0
-2180 1449 0
2184 -2185 2186 2187 -1511 0
-2184 2185 0
-2184 -2186 0
-2184 -2187 0
-2184 1511 0
2188 -2189 2190 2191 -1411 0
-2188 2189 0
-2188 -2190 0
-2188 -2191 0
-2188 1411 0
2192 -2193 2194 -1429 0
-2192 2193 0
-2192 -2194 0
-2192 1429 0
2195 -2196 2197 2198 -1481 0
-2195 2196 0
-2195 -2197 0
-2195 -2198 0
-2195 1481 0
2199 -2200 2201 -1485 0
-2199 2200 0
-2199 -2201 0
-2199 1485 0
2202 -2203 2204 2205 -1513 0
-2202 2203 0
-2202 -2204 0
-2202 -2205 0
-2202 1513 0
2206 -2207 2208 2209 -1503 0
-2206 2207 0
-2206 -2208 0
-2206 -2209 0
-2206 1503 0
2210 -2211 2212 -1525 0
-2210 2211 0
-2210 -2212 0
-2210 1525 0
2213 -2214 2215 2216 -1531 0
-2213 2214 0
-2213 -2215 0
-2213 -2216 0
-2213 1531 0
2217 -2218 2219 -1451 0
-2217 2218 0
-2217 -2219 0
-2217 1451 0
2220 -2221 2222 2223 -1493 0
-2220 2221 0
-2220 -2222 0
-2220 -2223 0
-2220 1493 0
2224 -2225 2226 -1417 0
-2224 2225 0
-2224 -2226 0
-2224 1417 0
2227 -2228 2229 2230 -1497 0
-2227 2228 0
-2227 -2229 0
-2227 -2230 0
-2227 1497 0
2231 -2232 2233 -1477 0
-2231 2232 0
-2231 -2233 0
-2231 1477 0
2234 -2235 2236 -1439 0
-2234 2235 0
-2234 -2236 0
-2234 1439 0
2237 -2238 2239 -1491 0
-2237 2238 0
-2237 -2239 0
-2237 1491 0
2240 -2241 2242 -1465 0
-2240 2241 0
-2240 -2242 0
-2240 1465 0
2243 -2244 2245 -1445 0
-2243 2244 0
-2243 -2245 0
-2243 1445 0
2246 -2247 2248 -1453 0
-2246 2247 0
-2246 -2248 0
-2246 1453 0
2249 -2250 2251 2252 -1435 0
-2249 2250 0
-2249 -2251 0
-2249 -2252 0
-2249 1435 0
2253 -2254 2255 2256 -1431 0
-2253 2254 0
-2253 -2255 0
-2253 -2256 0
-2253 1431 0
2257 -2258 2259 -1483 0
-2257 2258 0
-2257 -2259 0
-2257 1483 0
2260 -2261 2262 2263 -1537 0
-2260 2261 0
-2260 -2262 0
-2260 -2263 0
-2260 1537 0
2264 -2265 2266 2267 -1515 0
-2264 2265 0
-2264 -2266 0
-2264 -2267 0
-2264 1515 0
2268 -2269 2270 2271 -1533 0
-2268 2269 0
-2268 -2270 0
-2268 -2271 0
-2268 1533 0
2272 -2273 2274 -1459 0
-2272 2273 0
-2272 -2274 0
-2272 1459 0
2275 -2276 2277 2278 -1489 0
-2275 2276 0
-2275 -2277 0
-2275 -2278 0
-2275 1489 0
2279 -2280 2281 -1455 0
-2279 2280 0
-2279 -2281 0
-2279 1455 0
2282 -2283 2284 2285 -1473 0
-2282 2283 0
-2282 -2284 0
-2282 -2285 0
-2282 1473 0
2286 -2287 2288 2289 -1433 0
-2286 2287 0
-2286 -2288 0
-2286 -2289 0
-2286 1433 0
2290 -2291 2292 2293 -1475 0
-2290 2291 0
-2290 -2292 0
-2290 -2293 0
-2290 1475 0
2294 -2295 2296 -1403 0
-2294 2295 0
-2294 -2296 0
-2294 1403 0
2297 -2298 2299 2300 -1499 0
-2297 2298 0
-2297 -2299 0
-2297 -2300 0
-2297 1499 0
2301 -2302 2303 2304 -1523 0
-2301 2302 0
-2301 -2303 0
-2301 -2304 0
-2301 1523 0
2305 -2306 2307 2308 -1461 0
-2305 2306 0
-2305 -2307 0
-2305 -2308 0
-2305 1461 0
2309 -2310 2311 -1437 0
-2309 2310 0
-2309 -2311 0
-2309 1437 0
2312 -2313 2314 2315 -1415 0
-2312 2313 0
-2312 -2314 0
-2312 -2315 0
-2312 1415 0
2316 -2317 2318 2319 -1535 0
-2316 2317 0
-2316 -2318 0
-2316 -2319 0
-2316 1535 0
2320 -2321 2322 2323 -1539 0
-2320 2321 0
-2320 -2322 0
-2320 -2323 0
-2320 1539 0
2324 -2325 2326 2327 -1447 0
-2324 2325 0
-2324 -2326 0
-2324 -2327 0
-2324 1447 0
2328 -2329 2330 2331 -1405 0
-2328 2329 0
-2328 -2330 0
-2328 -2331 0
-2328 1405 0
2332 -2333 2334 2335 -1441 0
-2332 2333 0
-2332 -2334 0
-2332 -2335 0
-2332 1441 0
2336 -2337 2338 2339 -1521 0
-2336 2337 0
-2336 -2338 0
-2336 -2339 0
-2336 1521 0
2340 -2341 0
-2340 2341 0
2342 -2343 0
-2342 2343 0
2344 -2345 975 2323 -1539 0
-2344 2345 0
-2344 -975 0
-2344 -2323 0
-2344 1539 0
2346 -2347 1105 2205 -1513 0
-2346 2347 0
-2346 -1105 0
-2346 -2205 0
-2346 1513 0
2348 -2349 2126 2127 -1509 0
-2348 2349 0
-2348 -2126 0
-2348 -2127 0
-2348 1509 0
2350 -2351 1111 2289 -1433 0
-2350 2351 0
-2350 -1111 0
-2350 -2289 0
-2350 1433 0
2352 -2353 2247 2248 -1453 0
-2352 2353 0
-2352 -2247 0
-2352 -2248 0
-2352 1453 0
2354 -2355 2156 2157 -1427 0
-2354 2355 0
-2354 -2156 0
-2354 -2157 0
-2354 1427 0
2356 -2357 2218 2219 -1451 0
-2356 2357 0
-2356 -2218 0
-2356 -2219 0
-2356 1451 0
2358 -2359 2132 2133 -1519 0
-2358 2359 0
-2358 -2132 0
-2358 -2133 0
-2358 1519 0
2360 -2361 2258 2259 -1483 0
-2360 2361 0
-2360 -2258 0
-2360 -2259 0
-2360 1483 0
2362 -2363 2178 2179 -1467 0
-2362 2363 0
-2362 -2178 0
-2362 -2179 0
-2362 1467 0
2364 -2365 855 2315 -1415 0
-2364 2365 0
-2364 -855 0
-2364 -2315 0
-2364 1415 0
2366 -2367 2295 2296 -1403 0
-2366 2367 0
-2366 -2295 0
-2366 -2296 0
-2366 1403 0
2368 -2369 849 2300 -1499 0
-2368 2369 0
-2368 -849 0
-2368 -2300 0
-2368 1499 0
2370 -2371 661 2169 -1419 0
-2370 2371 0
-2370 -661 0
-2370 -2169 0
-2370 1419 0
2372 -2373 863 2335 -1441 0
-2372 2373 0
-2372 -863 0
-2372 -2335 0
-2372 1441 0
2374 -2375 1033 2319 -1535 0
-2374 2375 0
-2374 -1033 0
-2374 -2319 0
-2374 1535 0
2376 -2377 743 2124 -1469 0
-2376 2377 0
-2376 -743 0
-2376 -2124 0
-2376 1469 0
2378 -2379 765 2154 -1517 0
-2378 2379 0
-2378 -765 0
-2378 -2154 0
-2378 1517 0
2380 -2381 817 2339 -1521 0
-2380 2381 0
-2380 -817 0
-2380 -2339 0
-2380 1521 0
2382 -2383 717 2187 -1511 0
-2382 2383 0
-2382 -717 0
-2382 -2187 0
-2382 1511 0
2384 -2385 2238 2239 -1491 0
-2384 2385 0
-2384 -2238 0
-2384 -2239 0
-2384 1491 0
2386 -2387 2280 2281 -1455 0
-2386 2387 0
-2386 -2280 0
-2386 -2281 0
-2386 1455 0
2388 -2389 823 2256 -1431 0
-2388 2389 0
-2388 -823 0
-2388 -2256 0
-2388 1431 0
2390 -2391 601 2165 -1487 0
-2390 2391 0
-2390 -601 0
-2390 -2165 0
-2390 1487 0
2392 -2393 2104 2105 -1407 0
-2392 2393 0
-2392 -2104 0
-2392 -2105 0
-2392 1407 0
2394 -2395 2200 2201 -1485 0
-2394 2395 0
-2394 -2200 0
-2394 -2201 0
-2394 1485 0
2396 -2397 2149 2150 -1463 0
-2396 2397 0
-2396 -2149 0
-2396 -2150 0
-2396 1463 0
2398 -2399 655 2252 -1435 0
-2398 2399 0
-2398 -655 0
-2398 -2252 0
-2398 1435 0
2400 -2401 711 2176 -1529 0
-2400 2401 0
-2400 -711 0
-2400 -2176 0
-2400 1529 0
2402 -2403 749 2293 -1475 0
-2402 2403 0
-2402 -749 0
-2402 -2293 0
-2402 1475 0
2404 -2405 2244 2245 -1445 0
-2404 2405 0
-2404 -2244 0
-2404 -2245 0
-2404 1445 0
2406 -2407 1071 2140 -1479 0
-2406 2407 0
-2406 -1071 0
-2406 -2140 0
-2406 1479 0
2408 -2409 783 2161 -1527 0
-2408 2409 0
-2408 -783 0
-2408 -2161 0
-2408 1527 0
2410 -2411 2146 2147 -1501 0
-2410 2411 0
-2410 -2146 0
-2410 -2147 0
-2410 1501 0
2412 -2413 2101 2102 -1409 0
-2412 2413 0
-2412 -2101 0
-2412 -2102 0
-2412 1409 0
2414 -2415 997 2308 -1461 0
-2414 2415 0
-2414 -997 0
-2414 -2308 0
-2414 1461 0
2416 -2417 685 2327 -1447 0
-2416 2417 0
-2416 -685 0
-2416 -2327 0
-2416 1447 0
1548 -1547 0
-1548 1547 0
2418 -2419 623 2113 -1425 0
-2418 2419 0
-2418 -623 0
-2418 -2113 0
-2418 1425 0
2420 -2421 981 2216 -1531 0
-2420 2421 0
-2420 -981 0
-2420 -2216 0
-2420 1531 0
2422 -2423 2235 2236 -1439 0
-2422 2423 0
-2422 -2235 0
-2422 -2236 0
-2422 1439 0
2424 -2425 705 2267 -1515 0
-2424 2425 0
-2424 -705 0
-2424 -2267 0
-2424 1515 0
2426 -2427 1079 2331 -1405 0
-2426 2427 0
-2426 -1079 0
-2426 -2331 0
-2426 1405 0
2428 -2429 2135 2136 -1423 0
-2428 2429 0
-2428 -2135 0
-2428 -2136 0
-2428 1423 0
2430 -2431 955 2120 -1495 0
-2430 2431 0
-2430 -955 0
-2430 -2120 0
-2430 1495 0
2432 -2433 889 2209 -1503 0
-2432 2433 0
-2432 -889 0
-2432 -2209 0
-2432 1503 0
2434 -2435 789 2223 -1493 0
-2434 2435 0
-2434 -789 0
-2434 -2223 0
-2434 1493 0
2436 -2437 963 2263 -1537 0
-2436 2437 0
-2436 -963 0
-2436 -2263 0
-2436 1537 0
2438 -2439 2193 2194 -1429 0
-2438 2439 0
-2438 -2193 0
-2438 -2194 0
-2438 1429 0
2440 -2441 2241 2242 -1465 0
-2440 2441 0
-2440 -2241 0
-2440 -2242 0
-2440 1465 0
2442 -2443 811 2198 -1481 0
-2442 2443 0
-2442 -811 0
-2442 -2198 0
-2442 1481 0
2444 -2445 2098 2099 -1457 0
-2444 2445 0
-2444 -2098 0
-2444 -2099 0
-2444 1457 0
2446 -2447 2225 2226 -1417 0
-2446 2447 0
-2446 -2225 0
-2446 -2226 0
-2446 1417 0
2448 -2449 573 2285 -1473 0
-2448 2449 0
-2448 -573 0
-2448 -2285 0
-2448 1473 0
2450 -2451 1015 2271 -1533 0
-2450 2451 0
-2450 -1015 0
-2450 -2271 0
-2450 1533 0
2452 -2453 2129 2130 -1505 0
-2452 2453 0
-2452 -2129 0
-2452 -2130 0
-2452 1505 0
2454 -2455 2232 2233 -1477 0
-2454 2455 0
-2454 -2232 0
-2454 -2233 0
-2454 1477 0
2456 -2457 1117 2278 -1489 0
-2456 2457 0
-2456 -1117 0
-2456 -2278 0
-2456 1489 0
2458 -2459 2171 2172 -1507 0
-2458 2459 0
-2458 -2171 0
-2458 -2172 0
-2458 1507 0
2460 -2461 2211 2212 -1525 0
-2460 2461 0
-2460 -2211 0
-2460 -2212 0
-2460 1525 0
2462 -2463 607 2230 -1497 0
-2462 2463 0
-2462 -607 0
-2462 -2230 0
-2462 1497 0
2464 -2465 1041 2191 -1411 0
-2464 2465 0
-2464 -1041 0
-2464 -2191 0
-2464 1411 0
2466 -2467 1063 2304 -1523 0
-2466 2467 0
-2466 -1063 0
-2466 -2304 0
-2466 1523 0
2468 -2469 883 2144 -1471 0
-2468 2469 0
-2468 -883 0
-2468 -2144 0
-2468 1471 0
2470 -2471 2310 2311 -1437 0
-2470 2471 0
-2470 -2310 0
-2470 -2311 0
-2470 1437 0
2472 -2473 2273 2274 -1459 0
-2472 2473 0
-2472 -2273 0
-2472 -2274 0
-2472 1459 0
2474 -2475 921 2096 -1421 0
-2474 2475 0
-2474 -921 0
-2474 -2096 0
-2474 1421 0
2476 -2477 987 2183 -1449 0
-2476 2477 0
-2476 -987 0
-2476 -2183 0
-2476 1449 0
2478 -2479 2115 2116 -1443 0
-2478 2479 0
-2478 -2115 0
-2478 -2116 0
-2478 1443 0
2480 -2481 929 2109 -1413 0
-2480 2481 0
-2480 -929 0
-2480 -2109 0
-2480 1413 0
2482 -2483 0
-2482 2483 0
6 -5 0
-6 5 0
2484 -2485 923 2096 -1421 0
-2484 2485 0
-2484 -923 0
-2484 -2096 0
-2484 1421 0
2486 -2487 707 2267 -1515 0
-2486 2487 0
-2486 -707 0
-2486 -2267 0
-2486 1515 0
2488 -2489 1113 2289 -1433 0
-2488 2489 0
-2488 -1113 0
-2488 -2289 0
-2488 1433 0
2490 -2491 871 2239 -1491 0
-2490 2491 0
-2490 -871 0
-2490 -2239 0
-2490 1491 0
2492 -2493 645 2259 -1483 0
-2492 2493 0
-2492 -645 0
-2492 -2259 0
-2492 1483 0
2494 -2495 751 2293 -1475 0
-2494 2495 0
-2494 -751 0
-2494 -2293 0
-2494 1475 0
2496 -2497 813 2198 -1481 0
-2496 2497 0
-2496 -813 0
-2496 -2198 0
-2496 1481 0
2498 -2499 699 2281 -1455 0
-2498 2499 0
-2498 -699 0
-2498 -2281 0
-2498 1455 0
2500 -2501 729 2226 -1417 0
-2500 2501 0
-2500 -729 0
-2500 -2226 0
-2500 1417 0
2502 -2503 1043 2191 -1411 0
-2502 2503 0
-2502 -1043 0
-2502 -2191 0
-2502 1411 0
2504 -2505 835 2219 -1451 0
-2504 2505 0
-2504 -835 0
-2504 -2219 0
-2504 1451 0
2506 -2507 937 2127 -1509 0
-2506 2507 0
-2506 -937 0
-2506 -2127 0
-2506 1509 0
2508 -2509 677 2242 -1465 0
-2508 2509 0
-2508 -677 0
-2508 -2242 0
-2508 1465 0
2510 -2511 625 2113 -1425 0
-2510 2511 0
-2510 -625 0
-2510 -2113 0
-2510 1425 0
2512 -2513 633 2136 -1423 0
-2512 2513 0
-2512 -633 0
-2512 -2136 0
-2512 1423 0
2514 -2515 931 2109 -1413 0
-2514 2515 0
-2514 -931 0
-2514 -2109 0
-2514 1413 0
2516 -2517 825 2256 -1431 0
-2516 2517 0
-2516 -825 0
-2516 -2256 0
-2516 1431 0
2518 -2519 977 2323 -1539 0
-2518 2519 0
-2518 -977 0
-2518 -2323 0
-2518 1539 0
2520 -2521 905 2233 -1477 0
-2520 2521 0
-2520 -905 0
-2520 -2233 0
-2520 1477 0
2522 -2523 945 2179 -1467 0
-2522 2523 0
-2522 -945 0
-2522 -2179 0
-2522 1467 0
2524 -2525 999 2308 -1461 0
-2524 2525 0
-2524 -999 0
-2524 -2308 0
-2524 1461 0
2526 -2527 1055 2201 -1485 0
-2526 2527 0
-2526 -1055 0
-2526 -2201 0
-2526 1485 0
2528 -2529 687 2327 -1447 0
-2528 2529 0
-2528 -687 0
-2528 -2327 0
-2528 1447 0
2530 -2531 1065 2304 -1523 0
-2530 2531 0
-2530 -1065 0
-2530 -2304 0
-2530 1523 0
2532 -2533 1007 2130 -1505 0
-2532 2533 0
-2532 -1007 0
-2532 -2130 0
-2532 1505 0
2534 -2535 791 2223 -1493 0
-2534 2535 0
-2534 -791 0
-2534 -2223 0
-2534 1493 0
2536 -2537 671 2116 -1443 0
-2536 2537 0
-2536 -671 0
-2536 -2116 0
-2536 1443 0
2538 -2539 897 2172 -1507 0
-2538 2539 0
-2538 -897 0
-2538 -2172 0
-2538 1507 0
2540 -2541 851 2300 -1499 0
-2540 2541 0
-2540 -851 0
-2540 -2300 0
-2540 1499 0
2542 -2543 585 2248 -1453 0
-2542 2543 0
-2542 -585 0
-2542 -2248 0
-2542 1453 0
2544 -2545 745 2124 -1469 0
-2544 2545 0
-2544 -745 0
-2544 -2124 0
-2544 1469 0
2546 -2547 767 2154 -1517 0
-2546 2547 0
-2546 -767 0
-2546 -2154 0
-2546 1517 0
2548 -2549 819 2339 -1521 0
-2548 2549 0
-2548 -819 0
-2548 -2339 0
-2548 1521 0
2550 -2551 911 2157 -1427 0
-2550 2551 0
-2550 -911 0
-2550 -2157 0
-2550 1427 0
2552 -2553 691 2102 -1409 0
-2552 2553 0
-2552 -691 0
-2552 -2102 0
-2552 1409 0
2554 -2555 575 2285 -1473 0
-2554 2555 0
-2554 -575 0
-2554 -2285 0
-2554 1473 0
2556 -2557 957 2120 -1495 0
-2556 2557 0
-2556 -957 0
-2556 -2120 0
-2556 1495 0
2558 -2559 865 2335 -1441 0
-2558 2559 0
-2558 -865 0
-2558 -2335 0
-2558 1441 0
2560 -2561 803 2150 -1463 0
-2560 2561 0
-2560 -803 0
-2560 -2150 0
-2560 1463 0
2562 -2563 1023 2274 -1459 0
-2562 2563 0
-2562 -1023 0
-2562 -2274 0
-2562 1459 0
2564 -2565 797 2194 -1429 0
-2564 2565 0
-2564 -797 0
-2564 -2194 0
-2564 1429 0
2566 -2567 615 2212 -1525 0
-2566 2567 0
-2566 -615 0
-2566 -2212 0
-2566 1525 0
2568 -2569 609 2230 -1497 0
-2568 2569 0
-2568 -609 0
-2568 -2230 0
-2568 1497 0
2570 -2571 1047 2296 -1403 0
-2570 2571 0
-2570 -1047 0
-2570 -2296 0
-2570 1403 0
2572 -2573 591 2147 -1501 0
-2572 2573 0
-2572 -591 0
-2572 -2147 0
-2572 1501 0
2574 -2575 1073 2140 -1479 0
-2574 2575 0
-2574 -1073 0
-2574 -2140 0
-2574 1479 0
2576 -2577 785 2161 -1527 0
-2576 2577 0
-2576 -785 0
-2576 -2161 0
-2576 1527 0
2578 -2579 1089 2099 -1457 0
-2578 2579 0
-2578 -1089 0
-2578 -2099 0
-2578 1457 0
2580 -2581 857 2315 -1415 0
-2580 2581 0
-2580 -857 0
-2580 -2315 0
-2580 1415 0
2582 -2583 773 2133 -1519 0
-2582 2583 0
-2582 -773 0
-2582 -2133 0
-2582 1519 0
2584 -2585 1107 2205 -1513 0
-2584 2585 0
-2584 -1107 0
-2584 -2205 0
-2584 1513 0
2586 -2587 639 2311 -1437 0
-2586 2587 0
-2586 -639 0
-2586 -2311 0
-2586 1437 0
2588 -2589 657 2252 -1435 0
-2588 2589 0
-2588 -657 0
-2588 -2252 0
-2588 1435 0
2590 -2591 885 2144 -1471 0
-2590 2591 0
-2590 -885 0
-2590 -2144 0
-2590 1471 0
1264 -1263 0
-1264 1263 0
2592 -2593 1081 2331 -1405 0
-2592 2593 0
-2592 -1081 0
-2592 -2331 0
-2592 1405 0
2594 -2595 1097 2105 -1407 0
-2594 2595 0
-2594 -1097 0
-2594 -2105 0
-2594 1407 0
2596 -2597 757 2236 -1439 0
-2596 2597 0
-2596 -757 0
-2596 -2236 0
-2596 1439 0
2598 -2599 969 2245 -1445 0
-2598 2599 0
-2598 -969 0
-2598 -2245 0
-2598 1445 0
2600 -2601 713 2176 -1529 0
-2600 2601 0
-2600 -713 0
-2600 -2176 0
-2600 1529 0
2602 -2603 891 2209 -1503 0
-2602 2603 0
-2602 -891 0
-2602 -2209 0
-2602 1503 0
2604 -2605 663 2169 -1419 0
-2604 2605 0
-2604 -663 0
-2604 -2169 0
-2604 1419 0
2606 -2607 1119 2278 -1489 0
-2606 2607 0
-2606 -1119 0
-2606 -2278 0
-2606 1489 0
2608 -2609 1035 2319 -1535 0
-2608 2609 0
-2608 -1035 0
-2608 -2319 0
-2608 1535 0
2610 -2611 719 2187 -1511 0
-2610 2611 0
-2610 -719 0
-2610 -2187 0
-2610 1511 0
2612 -2613 603 2165 -1487 0
-2612 2613 0
-2612 -603 0
-2612 -2165 0
-2612 1487 0
2614 -2615 989 2183 -1449 0
-2614 2615 0
-2614 -989 0
-2614 -2183 0
-2614 1449 0
2616 -2617 965 2263 -1537 0
-2616 2617 0
-2616 -965 0
-2616 -2263 0
-2616 1537 0
2618 -2619 1017 2271 -1533 0
-2618 2619 0
-2618 -1017 0
-2618 -2271 0
-2618 1533 0
2620 -2621 983 2216 -1531 0
-2620 2621 0
-2620 -983 0
-2620 -2216 0
-2620 1531 0
2622 -2623 0
-2622 2623 0
10 -9 0
-10 9 0
1834 -1833 0
-1834 1833 0
2624 -2186 2187 -217 0
-2624 2186 0
-2624 -2187 0
-2624 217 0
2625 -2626 0
-2625 2626 0
2627 -2628 0
-2627 2628 0
1550 -1549 0
-1550 1549 0
2629 -2630 947 2179 -133 0
-2629 2630 0
-2629 -947 0
-2629 -2179 0
-2629 133 0
2631 -2632 0
-2631 2632 0
18 -17 0
-18 17 0
1922 -1921 0
-1922 1921 0
2633 -2634 841 2219 -89 0
-2633 2634 0
-2633 -841 0
-2633 -2219 0
-2633 89 0
2635 -2636 0
-2635 2636 0
22 -21 0
-22 21 0
2637 -2112 2113 -85 0
-2637 2112 0
-2637 -2113 0
-2637 85 0
1992 -1991 0
-1992 1991 0
26 -25 0
-26 25 0
2638 -2639 0
-2638 2639 0
1552 -1551 0
-1552 1551 0
2640 -2641 693 2102 -51 0
-2640 2641 0
-2640 -693 0
-2640 -2102 0
-2640 51 0
2642 -2643 0
-2642 2643 0
30 -29 0
-30 29 0
2644 -2645 899 2172 -101 0
-2644 2645 0
-2644 -899 0
-2644 -2172 0
-2644 101 0
1554 -1553 0
-1554 1553 0
2646 -2647 0
-2646 2647 0
34 -33 0
-34 33 0
2648 -2649 877 2239 -97 0
-2648 2649 0
-2648 -877 0
-2648 -2239 0
-2648 97 0
1924 -1923 0
-1924 1923 0
38 -37 0
-38 37 0
2650 -2651 0
-2650 2651 0
2652 -2653 1037 2319 -205 0
-2652 2653 0
-2652 -1037 0
-2652 -2319 0
-2652 205 0
1556 -1555 0
-1556 1555 0
2654 -2655 0
-2654 2655 0
42 -41 0
-42 41 0
1836 -1835 0
-1836 1835 0
2656 -2657 733 2226 -65 0
-2656 2657 0
-2656 -733 0
-2656 -2226 0
-2656 65 0
46 -45 0
-46 45 0
2658 -2659 0
-2658 2659 0
1558 -1557 0
-1558 1557 0
2660 -2661 1099 2105 -209 0
-2660 2661 0
-2660 -1099 0
-2660 -2105 0
-2660 209 0
2662 -2663 0
-2662 2663 0
50 -49 0
-50 49 0
1560 -1559 0
-1560 1559 0
2664 -2665 593 2147 -23 0
-2664 2665 0
-2664 -593 0
-2664 -2147 0
-2664 23 0
2666 -2667 0
-2666 2667 0
54 -53 0
-54 53 0
2668 -2669 731 2226 -65 0
-2668 2669 0
-2668 -731 0
-2668 -2226 0
-2668 65 0
1562 -1561 0
-1562 1561 0
58 -57 0
-58 57 0
2670 -2671 0
-2670 2671 0
2672 -2673 0
-2672 2673 0
62 -61 0
-62 61 0
1928 -1927 0
-1928 1927 0
2674 -2675 839 2219 -89 0
-2674 2675 0
-2674 -839 0
-2674 -2219 0
-2674 89 0
64 -63 0
-64 63 0
2676 -2677 0
-2676 2677 0
2678 -2679 939 2127 -125 0
-2678 2679 0
-2678 -939 0
-2678 -2127 0
-2678 125 0
1996 -1995 0
-1996 1995 0
68 -67 0
-68 67 0
2680 -2681 0
-2680 2681 0
2034 -2033 0
-2034 2033 0
2682 -2683 1049 2296 -165 0
-2682 2683 0
-2682 -1049 0
-2682 -2296 0
-2682 165 0
72 -71 0
-72 71 0
2684 -2685 0
-2684 2685 0
2686 -2687 867 2335 -261 0
-2686 2687 0
-2686 -867 0
-2686 -2335 0
-2686 261 0
1564 -1563 0
-1564 1563 0
2688 -2689 0
-2688 2689 0
76 -75 0
-76 75 0
1838 -1837 0
-1838 1837 0
2690 -2691 991 2183 -177 0
-2690 2691 0
-2690 -991 0
-2690 -2183 0
-2690 177 0
80 -79 0
-80 79 0
2692 -2693 0
-2692 2693 0
1998 -1997 0
-1998 1997 0
2694 -2255 2256 -149 0
-2694 2255 0
-2694 -2256 0
-2694 149 0
84 -83 0
-84 83 0
2695 -2696 0
-2695 2696 0
2697 -2314 2315 -181 0
-2697 2314 0
-2697 -2315 0
-2697 181 0
2060 -2059 0
-2060 2059 0
88 -87 0
-88 87 0
2698 -2699 0
-2698 2699 0
2700 -2701 737 2226 -65 0
-2700 2701 0
-2700 -737 0
-2700 -2226 0
-2700 65 0
1842 -1841 0
-1842 1841 0
2702 -2703 0
-2702 2703 0
92 -91 0
-92 91 0
2704 -2705 1085 2331 -241 0
-2704 2705 0
-2704 -1085 0
-2704 -2331 0
-2704 241 0
2062 -2061 0
-2062 2061 0
96 -95 0
-96 95 0
2706 -2707 0
-2706 2707 0
1566 -1565 0
-1566 1565 0
2708 -2709 665 2169 -137 0
-2708 2709 0
-2708 -665 0
-2708 -2169 0
-2708 137 0
2710 -2711 0
-2710 2711 0
100 -99 0
-100 99 0
2712 -2713 1019 2271 -169 0
-2712 2713 0
-2712 -1019 0
-2712 -2271 0
-2712 169 0
1568 -1567 0
-1568 1567 0
104 -103 0
-104 103 0
2714 -2715 0
-2714 2715 0
2716 -2717 769 2154 -161 0
-2716 2717 0
-2716 -769 0
-2716 -2154 0
-2716 161 0
1930 -1929 0
-1930 1929 0
2718 -2719 0
-2718 2719 0
108 -107 0
-108 107 0
1570 -1569 0
-1570 1569 0
2720 -2721 873 2239 -97 0
-2720 2721 0
-2720 -873 0
-2720 -2239 0
-2720 97 0
2722 -2723 0
-2722 2723 0
112 -111 0
-112 111 0
1572 -1571 0
-1572 1571 0
2724 -2725 577 2285 -15 0
-2724 2725 0
-2724 -577 0
-2724 -2285 0
-2724 15 0
2726 -2727 0
-2726 2727 0
116 -115 0
-116 115 0
2728 -2729 775 2133 -73 0
-2728 2729 0
-2728 -775 0
-2728 -2133 0
-2728 73 0
1574 -1573 0
-1574 1573 0
2730 -2731 0
-2730 2731 0
120 -119 0
-120 119 0
2732 -2733 793 2223 -265 0
-2732 2733 0
-2732 -793 0
-2732 -2223 0
-2732 265 0
2000 -1999 0
-2000 1999 0
2734 -2735 0
-2734 2735 0
124 -123 0
-124 123 0
2736 -2737 837 2219 -89 0
-2736 2737 0
-2736 -837 0
-2736 -2219 0
-2736 89 0
1576 -1575 0
-1576 1575 0
2738 -2739 0
-2738 2739 0
128 -127 0
-128 127 0
2740 -2741 723 2187 -217 0
-2740 2741 0
-2740 -723 0
-2740 -2187 0
-2740 217 0
1934 -1933 0
-1934 1933 0
2742 -2743 0
-2742 2743 0
132 -131 0
-132 131 0
1844 -1843 0
-1844 1843 0
2744 -2745 649 2259 -39 0
-2744 2745 0
-2744 -649 0
-2744 -2259 0
-2744 39 0
136 -135 0
-136 135 0
2746 -2747 0
-2746 2747 0
2748 -2749 1075 2140 -281 0
-2748 2749 0
-2748 -1075 0
-2748 -2140 0
-2748 281 0
1578 -1577 0
-1578 1577 0
2750 -2751 0
-2750 2751 0
140 -139 0
-140 139 0
1846 -1845 0
-1846 1845 0
2752 -2753 913 2157 -109 0
-2752 2753 0
-2752 -913 0
-2752 -2157 0
-2752 109 0
144 -143 0
-144 143 0
2754 -2755 0
-2754 2755 0
2756 -2307 2308 -189 0
-2756 2307 0
-2756 -2308 0
-2756 189 0
2002 -2001 0
-2002 2001 0
2757 -2758 0
-2757 2758 0
148 -147 0
-148 147 0
2759 -2760 721 2187 -217 0
-2759 2760 0
-2759 -721 0
-2759 -2187 0
-2759 217 0
1848 -1847 0
-1848 1847 0
152 -151 0
-152 151 0
2761 -2762 0
-2761 2762 0
2763 -2764 959 2120 -233 0
-2763 2764 0
-2763 -959 0
-2763 -2120 0
-2763 233 0
1850 -1849 0
-1850 1849 0
156 -155 0
-156 155 0
2765 -2766 0
-2765 2766 0
1936 -1935 0
-1936 1935 0
2767 -2768 759 2236 -69 0
-2767 2768 0
-2767 -759 0
-2767 -2236 0
-2767 69 0
160 -159 0
-160 159 0
2769 -2770 0
-2769 2770 0
2771 -2772 893 2209 -249 0
-2771 2772 0
-2771 -893 0
-2771 -2209 0
-2771 249 0
2038 -2037 0
-2038 2037 0
2773 -2774 0
-2773 2774 0
164 -163 0
-164 163 0
1580 -1579 0
-1580 1579 0
2775 -2776 1009 2130 -153 0
-2775 2776 0
-2775 -1009 0
-2775 -2130 0
-2775 153 0
2777 -2778 0
-2777 2778 0
168 -167 0
-168 167 0
2779 -2780 1001 2308 -189 0
-2779 2780 0
-2779 -1001 0
-2779 -2308 0
-2779 189 0
1938 -1937 0
-1938 1937 0
2781 -2782 0
-2781 2782 0
172 -171 0
-172 171 0
2783 -2784 829 2256 -149 0
-2783 2784 0
-2783 -829 0
-2783 -2256 0
-2783 149 0
1852 -1851 0
-1852 1851 0
176 -175 0
-176 175 0
2785 -2786 0
-2785 2786 0
2787 -2330 2331 -241 0
-2787 2330 0
-2787 -2331 0
-2787 241 0
2064 -2063 0
-2064 2063 0
2788 -2789 0
-2788 2789 0
180 -179 0
-180 179 0
2790 -2791 845 2219 -89 0
-2790 2791 0
-2790 -845 0
-2790 -2219 0
-2790 89 0
2040 -2039 0
-2040 2039 0
2792 -2793 0
-2792 2793 0
184 -183 0
-184 183 0
2794 -2795 1093 2099 -185 0
-2794 2795 0
-2794 -1093 0
-2794 -2099 0
-2794 185 0
2004 -2003 0
-2004 2003 0
2796 -2797 0
-2796 2797 0
188 -187 0
-188 187 0
2798 -2799 679 2242 -47 0
-2798 2799 0
-2798 -679 0
-2798 -2242 0
-2798 47 0
1582 -1581 0
-1582 1581 0
192 -191 0
-192 191 0
2800 -2801 0
-2800 2801 0
1584 -1583 0
-1584 1583 0
2802 -2803 827 2256 -149 0
-2802 2803 0
-2802 -827 0
-2802 -2256 0
-2802 149 0
2804 -2805 0
-2804 2805 0
196 -195 0
-196 195 0
2806 -2807 735 2226 -65 0
-2806 2807 0
-2806 -735 0
-2806 -2226 0
-2806 65 0
1586 -1585 0
-1586 1585 0
2808 -2809 0
-2808 2809 0
200 -199 0
-200 199 0
2810 -2811 1025 2274 -157 0
-2810 2811 0
-2810 -1025 0
-2810 -2274 0
-2810 157 0
1588 -1587 0
-1588 1587 0
2812 -2813 0
-2812 2813 0
204 -203 0
-204 203 0
2814 -2815 933 2109 -257 0
-2814 2815 0
-2814 -933 0
-2814 -2109 0
-2814 257 0
1590 -1589 0
-1590 1589 0
208 -207 0
-208 207 0
2816 -2817 0
-2816 2817 0
2818 -2819 627 2113 -85 0
-2818 2819 0
-2818 -627 0
-2818 -2113 0
-2818 85 0
1592 -1591 0
-1592 1591 0
212 -211 0
-212 211 0
2820 -2821 0
-2820 2821 0
1940 -1939 0
-1940 1939 0
2822 -2823 619 2212 -27 0
-2822 2823 0
-2822 -619 0
-2822 -2212 0
-2822 27 0
216 -215 0
-216 215 0
2824 -2825 0
-2824 2825 0
1854 -1853 0
-1854 1853 0
2826 -2827 1057 2201 -173 0
-2826 2827 0
-2826 -1057 0
-2826 -2201 0
-2826 173 0
2828 -2829 0
-2828 2829 0
220 -219 0
-220 219 0
1594 -1593 0
-1594 1593 0
2830 -2831 805 2150 -81 0
-2830 2831 0
-2830 -805 0
-2830 -2150 0
-2830 81 0
2832 -2833 0
-2832 2833 0
224 -223 0
-224 223 0
2834 -2835 647 2259 -39 0
-2834 2835 0
-2834 -647 0
-2834 -2259 0
-2834 39 0
1596 -1595 0
-1596 1595 0
228 -227 0
-228 227 0
2836 -2837 0
-2836 2837 0
2838 -2839 949 2179 -133 0
-2838 2839 0
-2838 -949 0
-2838 -2179 0
-2838 133 0
1858 -1857 0
-1858 1857 0
232 -231 0
-232 231 0
2840 -2841 0
-2840 2841 0
2842 -2843 1027 2274 -157 0
-2842 2843 0
-2842 -1027 0
-2842 -2274 0
-2842 157 0
1600 -1599 0
-1600 1599 0
2844 -2845 0
-2844 2845 0
236 -235 0
-236 235 0
2846 -2847 543 2848 -11 0
-2846 2847 0
-2846 -543 0
-2846 -2848 0
-2846 11 0
2849 -2845 235 2850 -3 0
-2849 2845 0
-2849 -235 0
-2849 -2850 0
-2849 3 0
2851 -2288 2289 -1637 0
-2851 2288 0
-2851 -2289 0
-2851 1637 0
2852 -2853 403 2854 -7 0
-2852 2853 0
-2852 -403 0
-2852 -2854 0
-2852 7 0
1406 -1405 0
-1406 1405 0
2855 -2856 859 2315 -2063 0
-2855 2856 0
-2855 -859 0
-2855 -2315 0
-2855 2063 0
2857 -2858 879 2239 -2061 0
-2857 2858 0
-2857 -879 0
-2857 -2239 0
-2857 2061 0
2859 -2860 0
-2859 2860 0
240 -239 0
-240 239 0
2861 -2862 925 2096 -145 0
-2861 2862 0
-2861 -925 0
-2861 -2096 0
-2861 145 0
1606 -1605 0
-1606 1605 0
2863 -2864 0
-2863 2864 0
244 -243 0
-244 243 0
2865 -2866 875 2239 -97 0
-2865 2866 0
-2865 -875 0
-2865 -2239 0
-2865 97 0
2056 -2055 0
-2056 2055 0
248 -247 0
-248 247 0
2867 -2868 0
-2867 2868 0
2869 -2870 595 2147 -23 0
-2869 2870 0
-2869 -595 0
-2869 -2147 0
-2869 23 0
1866 -1865 0
-1866 1865 0
2871 -2872 0
-2871 2872 0
252 -251 0
-252 251 0
1622 -1621 0
-1622 1621 0
2873 -2874 915 2157 -109 0
-2873 2874 0
-2873 -915 0
-2873 -2157 0
-2873 109 0
2875 -2876 0
-2875 2876 0
256 -255 0
-256 255 0
1628 -1627 0
-1628 1627 0
2877 -2878 753 2293 -93 0
-2877 2878 0
-2877 -753 0
-2877 -2293 0
-2877 93 0
2879 -2880 0
-2879 2880 0
260 -259 0
-260 259 0
2881 -2882 777 2133 -73 0
-2881 2882 0
-2881 -777 0
-2881 -2133 0
-2881 73 0
2030 -2029 0
-2030 2029 0
264 -263 0
-264 263 0
2883 -2884 0
-2883 2884 0
1630 -1629 0
-1630 1629 0
2885 -2886 579 2285 -15 0
-2885 2886 0
-2885 -579 0
-2885 -2285 0
-2885 15 0
268 -267 0
-268 267 0
2887 -2888 0
-2887 2888 0
1638 -1637 0
-1638 1637 0
2889 -2890 1083 2331 -241 0
-2889 2890 0
-2889 -1083 0
-2889 -2331 0
-2889 241 0
2891 -2892 0
-2891 2892 0
272 -271 0
-272 271 0
2893 -2894 611 2230 -253 0
-2893 2894 0
-2893 -611 0
-2893 -2230 0
-2893 253 0
1644 -1643 0
-1644 1643 0
2895 -2896 0
-2895 2896 0
276 -275 0
-276 275 0
1648 -1647 0
-1648 1647 0
2897 -2898 993 2183 -177 0
-2897 2898 0
-2897 -993 0
-2897 -2183 0
-2897 177 0
280 -279 0
-280 279 0
2899 -2900 0
-2899 2900 0
2901 -2902 1067 2304 -221 0
-2901 2902 0
-2901 -1067 0
-2901 -2304 0
-2901 221 0
1656 -1655 0
-1656 1655 0
2903 -2904 0
-2903 2904 0
284 -283 0
-284 283 0
1658 -1657 0
-1658 1657 0
2905 -2906 667 2169 -137 0
-2905 2906 0
-2905 -667 0
-2905 -2169 0
-2905 137 0
288 -287 0
-288 287 0
2907 -2908 0
-2907 2908 0
2909 -2908 287 2850 -3 0
-2909 2908 0
-2909 -287 0
-2909 -2850 0
-2909 3 0
2910 -2911 429 2854 -7 0
-2910 2911 0
-2910 -429 0
-2910 -2854 0
-2910 7 0
2912 -2913 569 2848 -11 0
-2912 2913 0
-2912 -569 0
-2912 -2848 0
-2912 11 0
2914 -2915 0
-2914 2915 0
2916 -2917 0
-2916 2917 0
2918 -2919 0
-2918 2919 0
294 -293 0
-294 293 0
2920 -2921 0
-2920 2921 0
296 -295 0
-296 295 0
298 -297 0
-298 297 0
2922 -2923 0
-2922 2923 0
300 -299 0
-300 299 0
2924 -2925 0
-2924 2925 0
302 -301 0
-302 301 0
2926 -2927 0
-2926 2927 0
2928 -2929 0
-2928 2929 0
304 -303 0
-304 303 0
306 -305 0
-306 305 0
2930 -2931 0
-2930 2931 0
2932 -2933 0
-2932 2933 0
308 -307 0
-308 307 0
310 -309 0
-310 309 0
2934 -2935 0
-2934 2935 0
2936 -2937 0
-2936 2937 0
312 -311 0
-312 311 0
2938 -2939 0
-2938 2939 0
314 -313 0
-314 313 0
2940 -2941 0
-2940 2941 0
316 -315 0
-316 315 0
2942 -2943 0
-2942 2943 0
318 -317 0
-318 317 0
2944 -2945 0
-2944 2945 0
320 -319 0
-320 319 0
2946 -2947 0
-2946 2947 0
322 -321 0
-322 321 0
324 -323 0
-324 323 0
2948 -2949 0
-2948 2949 0
2950 -2951 0
-2950 2951 0
326 -325 0
-326 325 0
2952 -2953 0
-2952 2953 0
328 -327 0
-328 327 0
2954 -2955 0
-2954 2955 0
330 -329 0
-330 329 0
2956 -2957 0
-2956 2957 0
332 -331 0
-332 331 0
2958 -2959 0
-2958 2959 0
334 -333 0
-334 333 0
336 -335 0
-336 335 0
2960 -2961 0
-2960 2961 0
2962 -2963 0
-2962 2963 0
338 -337 0
-338 337 0
340 -339 0
-340 339 0
2964 -2965 0
-2964 2965 0
2966 -2967 0
-2966 2967 0
342 -341 0
-342 341 0
344 -343 0
-344 343 0
2968 -2969 0
-2968 2969 0
2970 -2971 0
-2970 2971 0
346 -345 0
-346 345 0
348 -347 0
-348 347 0
2972 -2973 0
-2972 2973 0
2974 -2975 0
-2974 2975 0
350 -349 0
-350 349 0
352 -351 0
-352 351 0
2976 -2977 0
-2976 2977 0
2978 -2979 0
-2978 2979 0
354 -353 0
-354 353 0
2980 -2981 0
-2980 2981 0
356 -355 0
-356 355 0
358 -357 0
-358 357 0
2982 -2983 0
-2982 2983 0
360 -359 0
-360 359 0
2984 -2985 0
-2984 2985 0
2986 -2987 0
-2986 2987 0
362 -361 0
-362 361 0
2988 -2989 0
-2988 2989 0
364 -363 0
-364 363 0
2990 -2991 0
-2990 2991 0
366 -365 0
-366 365 0
2992 -2993 0
-2992 2993 0
368 -367 0
-368 367 0
370 -369 0
-370 369 0
2994 -2995 0
-2994 2995 0
2996 -2997 0
-2996 2997 0
372 -371 0
-372 371 0
2998 -2999 0
-2998 2999 0
374 -373 0
-374 373 0
3000 -3001 0
-3000 3001 0
376 -375 0
-376 375 0
3002 -3003 0
-3002 3003 0
378 -377 0
-378 377 0
380 -379 0
-380 379 0
3004 -3005 0
-3004 3005 0
382 -381 0
-382 381 0
3006 -3007 0
-3006 3007 0
3008 -3009 0
-3008 3009 0
384 -383 0
-384 383 0
386 -385 0
-386 385 0
3010 -3011 0
-3010 3011 0
3012 -3013 0
-3012 3013 0
388 -387 0
-388 387 0
3014 -3015 0
-3014 3015 0
390 -389 0
-390 389 0
3016 -3017 0
-3016 3017 0
392 -391 0
-392 391 0
394 -393 0
-394 393 0
3018 -3019 0
-3018 3019 0
3020 -3021 0
-3020 3021 0
396 -395 0
-396 395 0
398 -397 0
-398 397 0
3022 -3023 0
-3022 3023 0
3024 -3025 0
-3024 3025 0
400 -399 0
-400 399 0
402 -401 0
-402 401 0
3026 -3027 0
-3026 3027 0
404 -403 0
-404 403 0
3028 -2853 0
-3028 2853 0
406 -405 0
-406 405 0
3029 -3030 0
-3029 3030 0
3031 -3032 0
-3031 3032 0
408 -407 0
-408 407 0
3033 -3034 0
-3033 3034 0
410 -409 0
-410 409 0
3035 -3036 0
-3035 3036 0
412 -411 0
-412 411 0
414 -413 0
-414 413 0
3037 -3038 0
-3037 3038 0
3039 -3040 0
-3039 3040 0
416 -415 0
-416 415 0
3041 -3042 0
-3041 3042 0
418 -417 0
-418 417 0
3043 -3044 0
-3043 3044 0
420 -419 0
-420 419 0
422 -421 0
-422 421 0
3045 -3046 0
-3045 3046 0
424 -423 0
-424 423 0
3047 -3048 0
-3047 3048 0
3049 -3050 0
-3049 3050 0
426 -425 0
-426 425 0
3051 -3052 0
-3051 3052 0
428 -427 0
-428 427 0
3053 -2911 0
-3053 2911 0
430 -429 0
-430 429 0
3054 -3055 0
-3054 3055 0
3056 -3057 0
-3056 3057 0
3058 -3059 0
-3058 3059 0
434 -433 0
-434 433 0
3060 -3061 0
-3060 3061 0
436 -435 0
-436 435 0
438 -437 0
-438 437 0
3062 -3063 0
-3062 3063 0
440 -439 0
-440 439 0
3064 -3065 0
-3064 3065 0
3066 -3067 0
-3066 3067 0
442 -441 0
-442 441 0
3068 -3069 0
-3068 3069 0
444 -443 0
-444 443 0
446 -445 0
-446 445 0
3070 -3071 0
-3070 3071 0
3072 -3073 0
-3072 3073 0
448 -447 0
-448 447 0
450 -449 0
-450 449 0
3074 -3075 0
-3074 3075 0
452 -451 0
-452 451 0
3076 -3077 0
-3076 3077 0
3078 -3079 0
-3078 3079 0
454 -453 0
-454 453 0
3080 -3081 0
-3080 3081 0
456 -455 0
-456 455 0
3082 -3083 0
-3082 3083 0
458 -457 0
-458 457 0
3084 -3085 0
-3084 3085 0
460 -459 0
-460 459 0
462 -461 0
-462 461 0
3086 -3087 0
-3086 3087 0
3088 -3089 0
-3088 3089 0
464 -463 0
-464 463 0
3090 -3091 0
-3090 3091 0
466 -465 0
-466 465 0
3092 -3093 0
-3092 3093 0
468 -467 0
-468 467 0
3094 -3095 0
-3094 3095 0
470 -469 0
-470 469 0
3096 -3097 0
-3096 3097 0
472 -471 0
-472 471 0
3098 -3099 0
-3098 3099 0
474 -473 0
-474 473 0
476 -475 0
-476 475 0
3100 -3101 0
-3100 3101 0
3102 -3103 0
-3102 3103 0
478 -477 0
-478 477 0
480 -479 0
-480 479 0
3104 -3105 0
-3104 3105 0
3106 -3107 0
-3106 3107 0
482 -481 0
-482 481 0
3108 -3109 0
-3108 3109 0
484 -483 0
-484 483 0
3110 -3111 0
-3110 3111 0
486 -485 0
-486 485 0
488 -487 0
-488 487 0
3112 -3113 0
-3112 3113 0
3114 -3115 0
-3114 3115 0
490 -489 0
-490 489 0
492 -491 0
-492 491 0
3116 -3117 0
-3116 3117 0
3118 -3119 0
-3118 3119 0
494 -493 0
-494 493 0
3120 -3121 0
-3120 3121 0
496 -495 0
-496 495 0
3122 -3123 0
-3122 3123 0
498 -497 0
-498 497 0
500 -499 0
-500 499 0
3124 -3125 0
-3124 3125 0
3126 -3127 0
-3126 3127 0
502 -501 0
-502 501 0
3128 -3129 0
-3128 3129 0
504 -503 0
-504 503 0
506 -505 0
-506 505 0
3130 -3131 0
-3130 3131 0
508 -507 0
-508 507 0
3132 -3133 0
-3132 3133 0
3134 -3135 0
-3134 3135 0
510 -509 0
-510 509 0
3136 -3137 0
-3136 3137 0
512 -511 0
-512 511 0
3138 -3139 0
-3138 3139 0
514 -513 0
-514 513 0
516 -515 0
-516 515 0
3140 -3141 0
-3140 3141 0
3142 -3143 0
-3142 3143 0
518 -517 0
-518 517 0
3144 -3145 0
-3144 3145 0
520 -519 0
-520 519 0
522 -521 0
-522 521 0
3146 -3147 0
-3146 3147 0
3148 -3149 0
-3148 3149 0
524 -523 0
-524 523 0
526 -525 0
-526 525 0
3150 -3151 0
-3150 3151 0
3152 -3153 0
-3152 3153 0
528 -527 0
-528 527 0
530 -529 0
-530 529 0
3154 -3155 0
-3154 3155 0
3156 -3157 0
-3156 3157 0
532 -531 0
-532 531 0
534 -533 0
-534 533 0
3158 -3159 0
-3158 3159 0
3160 -3161 0
-3160 3161 0
536 -535 0
-536 535 0
538 -537 0
-538 537 0
3162 -3163 0
-3162 3163 0
3164 -3165 0
-3164 3165 0
540 -539 0
-540 539 0
542 -541 0
-542 541 0
3166 -3167 0
-3166 3167 0
3168 -2847 0
-3168 2847 0
544 -543 0
-544 543 0
546 -545 0
-546 545 0
3169 -3170 0
-3169 3170 0
3171 -3172 0
-3171 3172 0
548 -547 0
-548 547 0
550 -549 0
-550 549 0
3173 -3174 0
-3173 3174 0
3175 -3176 0
-3175 3176 0
552 -551 0
-552 551 0
3177 -3178 0
-3177 3178 0
554 -553 0
-554 553 0
3179 -3180 0
-3179 3180 0
556 -555 0
-556 555 0
558 -557 0
-558 557 0
3181 -3182 0
-3181 3182 0
560 -559 0
-560 559 0
3183 -3184 0
-3183 3184 0
3185 -3186 0
-3185 3186 0
562 -561 0
-562 561 0
3187 -3188 0
-3187 3188 0
564 -563 0
-564 563 0
3189 -3190 0
-3189 3190 0
566 -565 0
-566 565 0
3191 -3192 0
-3191 3192 0
568 -567 0
-568 567 0
570 -569 0
-570 569 0
3193 -2913 0
-3193 2913 0
3194 -2284 0
-3194 2284 0
3195 -2283 0
-3195 2283 0
574 -573 0
-574 573 0
3196 -2449 0
-3196 2449 0
3197 -2555 0
-3197 2555 0
576 -575 0
-576 575 0
3198 -2725 0
-3198 2725 0
578 -577 0
-578 577 0
3199 -2886 0
-3199 2886 0
580 -579 0
-580 579 0
582 -581 0
-582 581 0
3200 -3201 0
-3200 3201 0
3202 -2247 0
-3202 2247 0
3203 -2353 0
-3203 2353 0
586 -585 0
-586 585 0
3204 -2543 0
-3204 2543 0
588 -587 0
-588 587 0
3205 -3206 0
-3205 3206 0
3207 -2146 0
-3207 2146 0
3208 -2411 0
-3208 2411 0
3209 -2573 0
-3209 2573 0
592 -591 0
-592 591 0
3210 -2665 0
-3210 2665 0
594 -593 0
-594 593 0
3211 -2870 0
-3211 2870 0
596 -595 0
-596 595 0
3212 -3213 0
-3212 3213 0
598 -597 0
-598 597 0
3214 -2163 0
-3214 2163 0
3215 -2164 0
-3215 2164 0
3216 -2391 0
-3216 2391 0
602 -601 0
-602 601 0
3217 -2613 0
-3217 2613 0
604 -603 0
-604 603 0
3218 -2229 0
-3218 2229 0
3219 -2228 0
-3219 2228 0
608 -607 0
-608 607 0
3220 -2463 0
-3220 2463 0
610 -609 0
-610 609 0
3221 -2569 0
-3221 2569 0
612 -611 0
-612 611 0
3222 -2894 0
-3222 2894 0
3223 -2211 0
-3223 2211 0
3224 -2461 0
-3224 2461 0
3225 -2567 0
-3225 2567 0
616 -615 0
-616 615 0
618 -617 0
-618 617 0
3226 -3227 0
-3226 3227 0
620 -619 0
-620 619 0
3228 -2823 0
-3228 2823 0
3229 -2112 0
-3229 2112 0
3230 -2111 0
-3230 2111 0
624 -623 0
-624 623 0
3231 -2419 0
-3231 2419 0
3232 -2511 0
-3232 2511 0
626 -625 0
-626 625 0
628 -627 0
-628 627 0
3233 -2819 0
-3233 2819 0
630 -629 0
-630 629 0
3234 -3235 0
-3234 3235 0
3236 -2135 0
-3236 2135 0
3237 -2429 0
-3237 2429 0
3238 -2513 0
-3238 2513 0
634 -633 0
-634 633 0
636 -635 0
-636 635 0
3239 -3240 0
-3239 3240 0
3241 -2310 0
-3241 2310 0
3242 -2471 0
-3242 2471 0
3243 -2587 0
-3243 2587 0
640 -639 0
-640 639 0
3244 -3245 0
-3244 3245 0
642 -641 0
-642 641 0
3246 -2361 0
-3246 2361 0
3247 -2258 0
-3247 2258 0
3248 -2493 0
-3248 2493 0
646 -645 0
-646 645 0
3249 -2835 0
-3249 2835 0
648 -647 0
-648 647 0
3250 -2745 0
-3250 2745 0
650 -649 0
-650 649 0
652 -651 0
-652 651 0
3251 -3252 0
-3251 3252 0
3253 -2250 0
-3253 2250 0
3254 -2251 0
-3254 2251 0
656 -655 0
-656 655 0
3255 -2399 0
-3255 2399 0
658 -657 0
-658 657 0
3256 -2589 0
-3256 2589 0
3257 -2168 0
-3257 2168 0
3258 -2167 0
-3258 2167 0
662 -661 0
-662 661 0
3259 -2371 0
-3259 2371 0
3260 -2605 0
-3260 2605 0
664 -663 0
-664 663 0
666 -665 0
-666 665 0
3261 -2709 0
-3261 2709 0
3262 -2906 0
-3262 2906 0
668 -667 0
-668 667 0
3263 -2479 0
-3263 2479 0
3264 -2115 0
-3264 2115 0
3265 -2537 0
-3265 2537 0
672 -671 0
-672 671 0
674 -673 0
-674 673 0
3266 -3267 0
-3266 3267 0
3268 -2241 0
-3268 2241 0
3269 -2441 0
-3269 2441 0
3270 -2509 0
-3270 2509 0
678 -677 0
-678 677 0
3271 -2799 0
-3271 2799 0
680 -679 0
-680 679 0
3272 -3273 0
-3272 3273 0
682 -681 0
-682 681 0
3274 -2326 0
-3274 2326 0
3275 -2325 0
-3275 2325 0
3276 -2417 0
-3276 2417 0
686 -685 0
-686 685 0
3277 -2529 0
-3277 2529 0
688 -687 0
-688 687 0
3278 -2101 0
-3278 2101 0
3279 -2413 0
-3279 2413 0
3280 -2553 0
-3280 2553 0
692 -691 0
-692 691 0
694 -693 0
-694 693 0
3281 -2641 0
-3281 2641 0
3282 -3283 0
-3282 3283 0
696 -695 0
-696 695 0
3284 -2280 0
-3284 2280 0
3285 -2387 0
-3285 2387 0
700 -699 0
-700 699 0
3286 -2499 0
-3286 2499 0
3287 -3288 0
-3287 3288 0
702 -701 0
-702 701 0
3289 -2266 0
-3289 2266 0
3290 -2265 0
-3290 2265 0
3291 -2425 0
-3291 2425 0
706 -705 0
-706 705 0
3292 -2487 0
-3292 2487 0
708 -707 0
-708 707 0
3293 -2175 0
-3293 2175 0
3294 -2174 0
-3294 2174 0
3295 -2401 0
-3295 2401 0
712 -711 0
-712 711 0
714 -713 0
-714 713 0
3296 -2601 0
-3296 2601 0
3297 -2186 0
-3297 2186 0
3298 -2185 0
-3298 2185 0
3299 -2383 0
-3299 2383 0
718 -717 0
-718 717 0
720 -719 0
-720 719 0
3300 -2611 0
-3300 2611 0
722 -721 0
-722 721 0
3301 -2760 0
-3301 2760 0
3302 -2741 0
-3302 2741 0
724 -723 0
-724 723 0
3303 -3304 0
-3303 3304 0
726 -725 0
-726 725 0
3305 -2447 0
-3305 2447 0
3306 -2225 0
-3306 2225 0
730 -729 0
-730 729 0
3307 -2501 0
-3307 2501 0
3308 -2669 0
-3308 2669 0
732 -731 0
-732 731 0
734 -733 0
-734 733 0
3309 -2657 0
-3309 2657 0
3310 -2807 0
-3310 2807 0
736 -735 0
-736 735 0
738 -737 0
-738 737 0
3311 -2701 0
-3311 2701 0
3312 -3313 0
-3312 3313 0
740 -739 0
-740 739 0
3314 -2123 0
-3314 2123 0
3315 -2122 0
-3315 2122 0
3316 -2377 0
-3316 2377 0
744 -743 0
-744 743 0
746 -745 0
-746 745 0
3317 -2545 0
-3317 2545 0
3318 -2292 0
-3318 2292 0
3319 -2291 0
-3319 2291 0
3320 -2403 0
-3320 2403 0
750 -749 0
-750 749 0
3321 -2495 0
-3321 2495 0
752 -751 0
-752 751 0
3322 -2878 0
-3322 2878 0
754 -753 0
-754 753 0
3323 -2423 0
-3323 2423 0
3324 -2235 0
-3324 2235 0
3325 -2597 0
-3325 2597 0
758 -757 0
-758 757 0
3326 -2768 0
-3326 2768 0
760 -759 0
-760 759 0
762 -761 0
-762 761 0
3327 -3328 0
-3327 3328 0
3329 -2153 0
-3329 2153 0
3330 -2152 0
-3330 2152 0
3331 -2379 0
-3331 2379 0
766 -765 0
-766 765 0
768 -767 0
-768 767 0
3332 -2547 0
-3332 2547 0
3333 -2717 0
-3333 2717 0
770 -769 0
-770 769 0
3334 -2359 0
-3334 2359 0
3335 -2132 0
-3335 2132 0
3336 -2583 0
-3336 2583 0
774 -773 0
-774 773 0
3337 -2729 0
-3337 2729 0
776 -775 0
-776 775 0
778 -777 0
-778 777 0
3338 -2882 0
-3338 2882 0
780 -779 0
-780 779 0
3339 -3340 0
-3339 3340 0
3341 -2160 0
-3341 2160 0
3342 -2159 0
-3342 2159 0
3343 -2409 0
-3343 2409 0
784 -783 0
-784 783 0
3344 -2577 0
-3344 2577 0
786 -785 0
-786 785 0
3345 -2222 0
-3345 2222 0
3346 -2221 0
-3346 2221 0
3347 -2435 0
-3347 2435 0
790 -789 0
-790 789 0
792 -791 0
-792 791 0
3348 -2535 0
-3348 2535 0
3349 -2733 0
-3349 2733 0
794 -793 0
-794 793 0
3350 -2439 0
-3350 2439 0
3351 -2193 0
-3351 2193 0
798 -797 0
-798 797 0
3352 -2565 0
-3352 2565 0
3353 -3354 0
-3353 3354 0
800 -799 0
-800 799 0
3355 -2149 0
-3355 2149 0
3356 -2397 0
-3356 2397 0
804 -803 0
-804 803 0
3357 -2561 0
-3357 2561 0
3358 -2831 0
-3358 2831 0
806 -805 0
-806 805 0
3359 -3360 0
-3359 3360 0
808 -807 0
-808 807 0
3361 -2196 0
-3361 2196 0
3362 -2197 0
-3362 2197 0
3363 -2443 0
-3363 2443 0
812 -811 0
-812 811 0
814 -813 0
-814 813 0
3364 -2497 0
-3364 2497 0
3365 -2337 0
-3365 2337 0
3366 -2338 0
-3366 2338 0
818 -817 0
-818 817 0
3367 -2381 0
-3367 2381 0
3368 -2549 0
-3368 2549 0
820 -819 0
-820 819 0
3369 -2254 0
-3369 2254 0
3370 -2255 0
-3370 2255 0
3371 -2389 0
-3371 2389 0
824 -823 0
-824 823 0
826 -825 0
-826 825 0
3372 -2517 0
-3372 2517 0
3373 -2803 0
-3373 2803 0
828 -827 0
-828 827 0
3374 -2784 0
-3374 2784 0
830 -829 0
-830 829 0
832 -831 0
-832 831 0
3375 -3376 0
-3375 3376 0
3377 -2357 0
-3377 2357 0
3378 -2218 0
-3378 2218 0
3379 -2505 0
-3379 2505 0
836 -835 0
-836 835 0
838 -837 0
-838 837 0
3380 -2737 0
-3380 2737 0
3381 -2675 0
-3381 2675 0
840 -839 0
-840 839 0
842 -841 0
-842 841 0
3382 -2634 0
-3382 2634 0
844 -843 0
-844 843 0
3383 -3384 0
-3383 3384 0
846 -845 0
-846 845 0
3385 -2791 0
-3385 2791 0
3386 -2299 0
-3386 2299 0
3387 -2298 0
-3387 2298 0
3388 -2369 0
-3388 2369 0
850 -849 0
-850 849 0
852 -851 0
-852 851 0
3389 -2541 0
-3389 2541 0
3390 -2314 0
-3390 2314 0
3391 -2313 0
-3391 2313 0
3392 -2365 0
-3392 2365 0
856 -855 0
-856 855 0
3393 -2581 0
-3393 2581 0
858 -857 0
-858 857 0
3394 -2856 0
-3394 2856 0
860 -859 0
-860 859 0
3395 -2333 0
-3395 2333 0
3396 -2334 0
-3396 2334 0
3397 -2373 0
-3397 2373 0
864 -863 0
-864 863 0
3398 -2559 0
-3398 2559 0
866 -865 0
-866 865 0
3399 -2687 0
-3399 2687 0
868 -867 0
-868 867 0
3400 -2385 0
-3400 2385 0
3401 -2238 0
-3401 2238 0
3402 -2491 0
-3402 2491 0
872 -871 0
-872 871 0
3403 -2721 0
-3403 2721 0
874 -873 0
-874 873 0
876 -875 0
-876 875 0
3404 -2866 0
-3404 2866 0
3405 -2649 0
-3405 2649 0
878 -877 0
-878 877 0
3406 -2858 0
-3406 2858 0
880 -879 0
-880 879 0
3407 -2143 0
-3407 2143 0
3408 -2142 0
-3408 2142 0
3409 -2469 0
-3409 2469 0
884 -883 0
-884 883 0
886 -885 0
-886 885 0
3410 -2591 0
-3410 2591 0
3411 -2207 0
-3411 2207 0
3412 -2208 0
-3412 2208 0
3413 -2433 0
-3413 2433 0
890 -889 0
-890 889 0
892 -891 0
-892 891 0
3414 -2603 0
-3414 2603 0
894 -893 0
-894 893 0
3415 -2772 0
-3415 2772 0
3416 -2171 0
-3416 2171 0
3417 -2459 0
-3417 2459 0
3418 -2539 0
-3418 2539 0
898 -897 0
-898 897 0
3419 -2645 0
-3419 2645 0
900 -899 0
-900 899 0
3420 -3421 0
-3420 3421 0
902 -901 0
-902 901 0
3422 -2232 0
-3422 2232 0
3423 -2455 0
-3423 2455 0
3424 -2521 0
-3424 2521 0
906 -905 0
-906 905 0
3425 -3426 0
-3425 3426 0
908 -907 0
-908 907 0
3427 -2355 0
-3427 2355 0
3428 -2156 0
-3428 2156 0
912 -911 0
-912 911 0
3429 -2551 0
-3429 2551 0
914 -913 0
-914 913 0
3430 -2753 0
-3430 2753 0
916 -915 0
-916 915 0
3431 -2874 0
-3431 2874 0
3432 -3433 0
-3432 3433 0
918 -917 0
-918 917 0
3434 -2094 0
-3434 2094 0
3435 -2095 0
-3435 2095 0
922 -921 0
-922 921 0
3436 -2475 0
-3436 2475 0
3437 -2485 0
-3437 2485 0
924 -923 0
-924 923 0
926 -925 0
-926 925 0
3438 -2862 0
-3438 2862 0
3439 -2107 0
-3439 2107 0
3440 -2108 0
-3440 2108 0
3441 -2481 0
-3441 2481 0
930 -929 0
-930 929 0
932 -931 0
-932 931 0
3442 -2515 0
-3442 2515 0
3443 -2815 0
-3443 2815 0
934 -933 0
-934 933 0
3444 -2126 0
-3444 2126 0
3445 -2349 0
-3445 2349 0
938 -937 0
-938 937 0
3446 -2507 0
-3446 2507 0
940 -939 0
-940 939 0
3447 -2679 0
-3447 2679 0
942 -941 0
-942 941 0
3448 -3449 0
-3448 3449 0
3450 -2363 0
-3450 2363 0
3451 -2178 0
-3451 2178 0
3452 -2523 0
-3452 2523 0
946 -945 0
-946 945 0
3453 -2630 0
-3453 2630 0
948 -947 0
-948 947 0
950 -949 0
-950 949 0
3454 -2839 0
-3454 2839 0
3455 -3456 0
-3455 3456 0
952 -951 0
-952 951 0
3457 -2119 0
-3457 2119 0
3458 -2118 0
-3458 2118 0
956 -955 0
-956 955 0
3459 -2431 0
-3459 2431 0
3460 -2557 0
-3460 2557 0
958 -957 0
-958 957 0
960 -959 0
-960 959 0
3461 -2764 0
-3461 2764 0
3462 -2261 0
-3462 2261 0
3463 -2262 0
-3463 2262 0
964 -963 0
-964 963 0
3464 -2437 0
-3464 2437 0
3465 -2617 0
-3465 2617 0
966 -965 0
-966 965 0
3466 -2244 0
-3466 2244 0
3467 -2405 0
-3467 2405 0
3468 -2599 0
-3468 2599 0
970 -969 0
-970 969 0
3469 -3470 0
-3469 3470 0
972 -971 0
-972 971 0
3471 -2322 0
-3471 2322 0
3472 -2321 0
-3472 2321 0
3473 -2345 0
-3473 2345 0
976 -975 0
-976 975 0
3474 -2519 0
-3474 2519 0
978 -977 0
-978 977 0
3475 -2214 0
-3475 2214 0
3476 -2215 0
-3476 2215 0
3477 -2421 0
-3477 2421 0
982 -981 0
-982 981 0
984 -983 0
-984 983 0
3478 -2621 0
-3478 2621 0
3479 -2181 0
-3479 2181 0
3480 -2182 0
-3480 2182 0
988 -987 0
-988 987 0
3481 -2477 0
-3481 2477 0
3482 -2615 0
-3482 2615 0
990 -989 0
-990 989 0
992 -991 0
-992 991 0
3483 -2691 0
-3483 2691 0
3484 -2898 0
-3484 2898 0
994 -993 0
-994 993 0
3485 -2307 0
-3485 2307 0
3486 -2306 0
-3486 2306 0
3487 -2415 0
-3487 2415 0
998 -997 0
-998 997 0
3488 -2525 0
-3488 2525 0
1000 -999 0
-1000 999 0
1002 -1001 0
-1002 1001 0
3489 -2780 0
-3489 2780 0
1004 -1003 0
-1004 1003 0
3490 -3491 0
-3490 3491 0
3492 -2129 0
-3492 2129 0
3493 -2453 0
-3493 2453 0
3494 -2533 0
-3494 2533 0
1008 -1007 0
-1008 1007 0
3495 -2776 0
-3495 2776 0
1010 -1009 0
-1010 1009 0
3496 -3497 0
-3496 3497 0
1012 -1011 0
-1012 1011 0
3498 -2269 0
-3498 2269 0
3499 -2270 0
-3499 2270 0
3500 -2451 0
-3500 2451 0
1016 -1015 0
-1016 1015 0
3501 -2619 0
-3501 2619 0
1018 -1017 0
-1018 1017 0
1020 -1019 0
-1020 1019 0
3502 -2713 0
-3502 2713 0
3503 -2473 0
-3503 2473 0
3504 -2273 0
-3504 2273 0
3505 -2563 0
-3505 2563 0
1024 -1023 0
-1024 1023 0
1026 -1025 0
-1026 1025 0
3506 -2811 0
-3506 2811 0
3507 -2843 0
-3507 2843 0
1028 -1027 0
-1028 1027 0
1030 -1029 0
-1030 1029 0
3508 -3509 0
-3508 3509 0
3510 -2317 0
-3510 2317 0
3511 -2318 0
-3511 2318 0
1034 -1033 0
-1034 1033 0
3512 -2375 0
-3512 2375 0
1036 -1035 0
-1036 1035 0
3513 -2609 0
-3513 2609 0
3514 -2653 0
-3514 2653 0
1038 -1037 0
-1038 1037 0
3515 -2189 0
-3515 2189 0
3516 -2190 0
-3516 2190 0
3517 -2465 0
-3517 2465 0
1042 -1041 0
-1042 1041 0
3518 -2503 0
-3518 2503 0
1044 -1043 0
-1044 1043 0
3519 -2295 0
-3519 2295 0
3520 -2367 0
-3520 2367 0
3521 -2571 0
-3521 2571 0
1048 -1047 0
-1048 1047 0
3522 -2683 0
-3522 2683 0
1050 -1049 0
-1050 1049 0
1052 -1051 0
-1052 1051 0
3523 -3524 0
-3523 3524 0
3525 -2200 0
-3525 2200 0
3526 -2395 0
-3526 2395 0
3527 -2527 0
-3527 2527 0
1056 -1055 0
-1056 1055 0
3528 -2827 0
-3528 2827 0
1058 -1057 0
-1058 1057 0
3529 -3530 0
-3529 3530 0
1060 -1059 0
-1060 1059 0
3531 -2303 0
-3531 2303 0
3532 -2302 0
-3532 2302 0
3533 -2467 0
-3533 2467 0
1064 -1063 0
-1064 1063 0
1066 -1065 0
-1066 1065 0
3534 -2531 0
-3534 2531 0
1068 -1067 0
-1068 1067 0
3535 -2902 0
-3535 2902 0
3536 -2139 0
-3536 2139 0
3537 -2138 0
-3537 2138 0
1072 -1071 0
-1072 1071 0
3538 -2407 0
-3538 2407 0
1074 -1073 0
-1074 1073 0
3539 -2575 0
-3539 2575 0
1076 -1075 0
-1076 1075 0
3540 -2749 0
-3540 2749 0
3541 -2330 0
-3541 2330 0
3542 -2329 0
-3542 2329 0
3543 -2427 0
-3543 2427 0
1080 -1079 0
-1080 1079 0
1082 -1081 0
-1082 1081 0
3544 -2593 0
-3544 2593 0
3545 -2890 0
-3545 2890 0
1084 -1083 0
-1084 1083 0
3546 -2705 0
-3546 2705 0
1086 -1085 0
-1086 1085 0
3547 -2098 0
-3547 2098 0
3548 -2445 0
-3548 2445 0
3549 -2579 0
-3549 2579 0
1090 -1089 0
-1090 1089 0
3550 -3551 0
-3550 3551 0
1092 -1091 0
-1092 1091 0
3552 -2795 0
-3552 2795 0
1094 -1093 0
-1094 1093 0
3553 -2104 0
-3553 2104 0
3554 -2393 0
-3554 2393 0
3555 -2595 0
-3555 2595 0
1098 -1097 0
-1098 1097 0
3556 -2661 0
-3556 2661 0
1100 -1099 0
-1100 1099 0
1102 -1101 0
-1102 1101 0
3557 -3558 0
-3557 3558 0
3559 -2204 0
-3559 2204 0
3560 -2203 0
-3560 2203 0
1106 -1105 0
-1106 1105 0
3561 -2347 0
-3561 2347 0
3562 -2585 0
-3562 2585 0
1108 -1107 0
-1108 1107 0
3563 -2288 0
-3563 2288 0
3564 -2287 0
-3564 2287 0
1112 -1111 0
-1112 1111 0
3565 -2351 0
-3565 2351 0
3566 -2489 0
-3566 2489 0
1114 -1113 0
-1114 1113 0
3567 -2276 0
-3567 2276 0
3568 -2277 0
-3568 2277 0
3569 -2457 0
-3569 2457 0
1118 -1117 0
-1118 1117 0
3570 -2607 0
-3570 2607 0
1120 -1119 0
-1120 1119 0
3571 -2597 757 2236 -1161 0
-3571 2597 0
-3571 -757 0
-3571 -2236 0
-3571 1161 0
3572 -2587 639 2311 -1159 0
-3572 2587 0
-3572 -639 0
-3572 -2311 0
-3572 1159 0
3573 -2589 657 2252 -1157 0
-3573 2589 0
-3573 -657 0
-3573 -2252 0
-3573 1157 0
3574 -2593 1081 2331 -1127 0
-3574 2593 0
-3574 -1081 0
-3574 -2331 0
-3574 1127 0
3575 -2601 713 2176 -1251 0
-3575 2601 0
-3575 -713 0
-3575 -2176 0
-3575 1251 0
3576 -2603 891 2209 -1225 0
-3576 2603 0
-3576 -891 0
-3576 -2209 0
-3576 1225 0
3577 -2513 633 2136 -1145 0
-3577 2513 0
-3577 -633 0
-3577 -2136 0
-3577 1145 0
3578 -2507 937 2127 -1231 0
-3578 2507 0
-3578 -937 0
-3578 -2127 0
-3578 1231 0
3579 -2607 1119 2278 -1211 0
-3579 2607 0
-3579 -1119 0
-3579 -2278 0
-3579 1211 0
3580 -2609 1035 2319 -1257 0
-3580 2609 0
-3580 -1035 0
-3580 -2319 0
-3580 1257 0
3581 -2503 1043 2191 -1133 0
-3581 2503 0
-3581 -1043 0
-3581 -2191 0
-3581 1133 0
3582 -2619 1017 2271 -1255 0
-3582 2619 0
-3582 -1017 0
-3582 -2271 0
-3582 1255 0
3583 -2615 989 2183 -1171 0
-3583 2615 0
-3583 -989 0
-3583 -2183 0
-3583 1171 0
3584 -2617 965 2263 -1259 0
-3584 2617 0
-3584 -965 0
-3584 -2263 0
-3584 1259 0
3585 -2487 707 2267 -1237 0
-3585 2487 0
-3585 -707 0
-3585 -2267 0
-3585 1237 0
3586 -2489 1113 2289 -1155 0
-3586 2489 0
-3586 -1113 0
-3586 -2289 0
-3586 1155 0
3587 -2521 905 2233 -1199 0
-3587 2521 0
-3587 -905 0
-3587 -2233 0
-3587 1199 0
3588 -2537 671 2116 -1165 0
-3588 2537 0
-3588 -671 0
-3588 -2116 0
-3588 1165 0
3589 -2491 871 2239 -1213 0
-3589 2491 0
-3589 -871 0
-3589 -2239 0
-3589 1213 0
3590 -2595 1097 2105 -1129 0
-3590 2595 0
-3590 -1097 0
-3590 -2105 0
-3590 1129 0
3591 -2501 729 2226 -1139 0
-3591 2501 0
-3591 -729 0
-3591 -2226 0
-3591 1139 0
3592 -2539 897 2172 -1229 0
-3592 2539 0
-3592 -897 0
-3592 -2172 0
-3592 1229 0
3593 -2493 645 2259 -1205 0
-3593 2493 0
-3593 -645 0
-3593 -2259 0
-3593 1205 0
3594 -2497 813 2198 -1203 0
-3594 2497 0
-3594 -813 0
-3594 -2198 0
-3594 1203 0
3595 -2495 751 2293 -1197 0
-3595 2495 0
-3595 -751 0
-3595 -2293 0
-3595 1197 0
3596 -2499 699 2281 -1177 0
-3596 2499 0
-3596 -699 0
-3596 -2281 0
-3596 1177 0
3597 -2541 851 2300 -1221 0
-3597 2541 0
-3597 -851 0
-3597 -2300 0
-3597 1221 0
3598 -2505 835 2219 -1173 0
-3598 2505 0
-3598 -835 0
-3598 -2219 0
-3598 1173 0
3599 -2511 625 2113 -1147 0
-3599 2511 0
-3599 -625 0
-3599 -2113 0
-3599 1147 0
3600 -2509 677 2242 -1187 0
-3600 2509 0
-3600 -677 0
-3600 -2242 0
-3600 1187 0
3601 -2517 825 2256 -1153 0
-3601 2517 0
-3601 -825 0
-3601 -2256 0
-3601 1153 0
3602 -2519 977 2323 -1261 0
-3602 2519 0
-3602 -977 0
-3602 -2323 0
-3602 1261 0
3603 -2553 691 2102 -1131 0
-3603 2553 0
-3603 -691 0
-3603 -2102 0
-3603 1131 0
3604 -2515 931 2109 -1135 0
-3604 2515 0
-3604 -931 0
-3604 -2109 0
-3604 1135 0
3605 -2559 865 2335 -1163 0
-3605 2559 0
-3605 -865 0
-3605 -2335 0
-3605 1163 0
3606 -2529 687 2327 -1169 0
-3606 2529 0
-3606 -687 0
-3606 -2327 0
-3606 1169 0
3607 -2523 945 2179 -1189 0
-3607 2523 0
-3607 -945 0
-3607 -2179 0
-3607 1189 0
3608 -2527 1055 2201 -1207 0
-3608 2527 0
-3608 -1055 0
-3608 -2201 0
-3608 1207 0
3609 -2535 791 2223 -1215 0
-3609 2535 0
-3609 -791 0
-3609 -2223 0
-3609 1215 0
3610 -2557 957 2120 -1217 0
-3610 2557 0
-3610 -957 0
-3610 -2120 0
-3610 1217 0
3611 -2531 1065 2304 -1245 0
-3611 2531 0
-3611 -1065 0
-3611 -2304 0
-3611 1245 0
3612 -2525 999 2308 -1183 0
-3612 2525 0
-3612 -999 0
-3612 -2308 0
-3612 1183 0
3613 -2581 857 2315 -1137 0
-3613 2581 0
-3613 -857 0
-3613 -2315 0
-3613 1137 0
3614 -2577 785 2161 -1249 0
-3614 2577 0
-3614 -785 0
-3614 -2161 0
-3614 1249 0
3615 -2533 1007 2130 -1227 0
-3615 2533 0
-3615 -1007 0
-3615 -2130 0
-3615 1227 0
3616 -2567 615 2212 -1247 0
-3616 2567 0
-3616 -615 0
-3616 -2212 0
-3616 1247 0
3617 -2569 609 2230 -1219 0
-3617 2569 0
-3617 -609 0
-3617 -2230 0
-3617 1219 0
3618 -2579 1089 2099 -1179 0
-3618 2579 0
-3618 -1089 0
-3618 -2099 0
-3618 1179 0
3619 -2483 5 3620 0
-3619 2483 0
-3619 -5 0
-3619 -3620 0
3621 -2565 797 2194 -1151 0
-3621 2565 0
-3621 -797 0
-3621 -2194 0
-3621 1151 0
3622 -2543 585 2248 -1175 0
-3622 2543 0
-3622 -585 0
-3622 -2248 0
-3622 1175 0
3623 -2551 911 2157 -1149 0
-3623 2551 0
-3623 -911 0
-3623 -2157 0
-3623 1149 0
3624 -2545 745 2124 -1191 0
-3624 2545 0
-3624 -745 0
-3624 -2124 0
-3624 1191 0
3625 -2605 663 2169 -1141 0
-3625 2605 0
-3625 -663 0
-3625 -2169 0
-3625 1141 0
3626 -2547 767 2154 -1239 0
-3626 2547 0
-3626 -767 0
-3626 -2154 0
-3626 1239 0
3627 -2599 969 2245 -1167 0
-3627 2599 0
-3627 -969 0
-3627 -2245 0
-3627 1167 0
3628 -2549 819 2339 -1243 0
-3628 2549 0
-3628 -819 0
-3628 -2339 0
-3628 1243 0
3629 -2613 603 2165 -1209 0
-3629 2613 0
-3629 -603 0
-3629 -2165 0
-3629 1209 0
3630 -2555 575 2285 -1195 0
-3630 2555 0
-3630 -575 0
-3630 -2285 0
-3630 1195 0
3631 -2621 983 2216 -1253 0
-3631 2621 0
-3631 -983 0
-3631 -2216 0
-3631 1253 0
3632 -2611 719 2187 -1233 0
-3632 2611 0
-3632 -719 0
-3632 -2187 0
-3632 1233 0
3633 -2485 923 2096 -1143 0
-3633 2485 0
-3633 -923 0
-3633 -2096 0
-3633 1143 0
3634 -2561 803 2150 -1185 0
-3634 2561 0
-3634 -803 0
-3634 -2150 0
-3634 1185 0
3635 -2585 1107 2205 -1235 0
-3635 2585 0
-3635 -1107 0
-3635 -2205 0
-3635 1235 0
3636 -2573 591 2147 -1223 0
-3636 2573 0
-3636 -591 0
-3636 -2147 0
-3636 1223 0
3637 -2591 885 2144 -1193 0
-3637 2591 0
-3637 -885 0
-3637 -2144 0
-3637 1193 0
3638 -2571 1047 2296 -1125 0
-3638 2571 0
-3638 -1047 0
-3638 -2296 0
-3638 1125 0
3639 -2575 1073 2140 -1201 0
-3639 2575 0
-3639 -1073 0
-3639 -2140 0
-3639 1201 0
3640 -2563 1023 2274 -1181 0
-3640 2563 0
-3640 -1023 0
-3640 -2274 0
-3640 1181 0
3641 -2583 773 2133 -1241 0
-3641 2583 0
-3641 -773 0
-3641 -2133 0
-3641 1241 0
3642 -2772 893 2209 -1225 0
-3642 2772 0
-3642 -893 0
-3642 -2209 0
-3642 1225 0
2066 -2065 0
-2066 2065 0
3643 -2858 879 2239 -1213 0
-3643 2858 0
-3643 -879 0
-3643 -2239 0
-3643 1213 0
2092 -2091 0
-2092 2091 0
1942 -1941 0
-1942 1941 0
3644 -2815 933 2109 -1135 0
-3644 2815 0
-3644 -933 0
-3644 -2109 0
-3644 1135 0
3645 -2661 1099 2105 -1129 0
-3645 2661 0
-3645 -1099 0
-3645 -2105 0
-3645 1129 0
1856 -1855 0
-1856 1855 0
3646 -2843 1027 2274 -1181 0
-3646 2843 0
-3646 -1027 0
-3646 -2274 0
-3646 1181 0
1598 -1597 0
-1598 1597 0
1944 -1943 0
-1944 1943 0
3647 -2874 915 2157 -1149 0
-3647 2874 0
-3647 -915 0
-3647 -2157 0
-3647 1149 0
3648 -2330 2331 -1127 0
-3648 2330 0
-3648 -2331 0
-3648 1127 0
2080 -2079 0
-2080 2079 0
1860 -1859 0
-1860 1859 0
3649 -2675 839 2219 -1173 0
-3649 2675 0
-3649 -839 0
-3649 -2219 0
-3649 1173 0
1862 -1861 0
-1862 1861 0
3650 -2745 649 2259 -1205 0
-3650 2745 0
-3650 -649 0
-3650 -2259 0
-3650 1205 0
3651 -2753 913 2157 -1149 0
-3651 2753 0
-3651 -913 0
-3651 -2157 0
-3651 1149 0
1864 -1863 0
-1864 1863 0
1602 -1601 0
-1602 1601 0
3652 -2641 693 2102 -1131 0
-3652 2641 0
-3652 -693 0
-3652 -2102 0
-3652 1131 0
1988 -1987 0
-1988 1987 0
3653 -2255 2256 -1153 0
-3653 2255 0
-3653 -2256 0
-3653 1153 0
3654 -2717 769 2154 -1239 0
-3654 2717 0
-3654 -769 0
-3654 -2154 0
-3654 1239 0
1946 -1945 0
-1946 1945 0
1604 -1603 0
-1604 1603 0
3655 -2687 867 2335 -1163 0
-3655 2687 0
-3655 -867 0
-3655 -2335 0
-3655 1163 0
3656 -2307 2308 -1183 0
-3656 2307 0
-3656 -2308 0
-3656 1183 0
1990 -1989 0
-1990 1989 0
3657 -2890 1083 2331 -1127 0
-3657 2890 0
-3657 -1083 0
-3657 -2331 0
-3657 1127 0
1608 -1607 0
-1608 1607 0
1610 -1609 0
-1610 1609 0
3658 -2835 647 2259 -1205 0
-3658 2835 0
-3658 -647 0
-3658 -2259 0
-3658 1205 0
3659 -2645 899 2172 -1229 0
-3659 2645 0
-3659 -899 0
-3659 -2172 0
-3659 1229 0
1612 -1611 0
-1612 1611 0
3660 -2679 939 2127 -1231 0
-3660 2679 0
-3660 -939 0
-3660 -2127 0
-3660 1231 0
2006 -2005 0
-2006 2005 0
3661 -2878 753 2293 -1197 0
-3661 2878 0
-3661 -753 0
-3661 -2293 0
-3661 1197 0
1614 -1613 0
-1614 1613 0
3662 -2653 1037 2319 -1257 0
-3662 2653 0
-3662 -1037 0
-3662 -2319 0
-3662 1257 0
1616 -1615 0
-1616 1615 0
1618 -1617 0
-1618 1617 0
3663 -2749 1075 2140 -1201 0
-3663 2749 0
-3663 -1075 0
-3663 -2140 0
-3663 1201 0
1620 -1619 0
-1620 1619 0
3664 -2799 679 2242 -1187 0
-3664 2799 0
-3664 -679 0
-3664 -2242 0
-3664 1187 0
3665 -2784 829 2256 -1153 0
-3665 2784 0
-3665 -829 0
-3665 -2256 0
-3665 1153 0
1948 -1947 0
-1948 1947 0
2058 -2057 0
-2058 2057 0
3666 -2314 2315 -1137 0
-3666 2314 0
-3666 -2315 0
-3666 1137 0
1624 -1623 0
-1624 1623 0
3667 -2630 947 2179 -1189 0
-3667 2630 0
-3667 -947 0
-3667 -2179 0
-3667 1189 0
1626 -1625 0
-1626 1625 0
3668 -2669 731 2226 -1139 0
-3668 2669 0
-3668 -731 0
-3668 -2226 0
-3668 1139 0
2032 -2031 0
-2032 2031 0
3669 -2791 845 2219 -1173 0
-3669 2791 0
-3669 -845 0
-3669 -2219 0
-3669 1173 0
1868 -1867 0
-1868 1867 0
3670 -2764 959 2120 -1217 0
-3670 2764 0
-3670 -959 0
-3670 -2120 0
-3670 1217 0
1994 -1993 0
-1994 1993 0
3671 -2795 1093 2099 -1179 0
-3671 2795 0
-3671 -1093 0
-3671 -2099 0
-3671 1179 0
1870 -1869 0
-1870 1869 0
3672 -2691 991 2183 -1171 0
-3672 2691 0
-3672 -991 0
-3672 -2183 0
-3672 1171 0
3673 -2657 733 2226 -1139 0
-3673 2657 0
-3673 -733 0
-3673 -2226 0
-3673 1139 0
1632 -1631 0
-1632 1631 0
3674 -2741 723 2187 -1233 0
-3674 2741 0
-3674 -723 0
-3674 -2187 0
-3674 1233 0
1926 -1925 0
-1926 1925 0
3675 -2807 735 2226 -1139 0
-3675 2807 0
-3675 -735 0
-3675 -2226 0
-3675 1139 0
1634 -1633 0
-1634 1633 0
1636 -1635 0
-1636 1635 0
3676 -2721 873 2239 -1213 0
-3676 2721 0
-3676 -873 0
-3676 -2239 0
-3676 1213 0
3677 -2186 2187 -1233 0
-3677 2186 0
-3677 -2187 0
-3677 1233 0
1840 -1839 0
-1840 1839 0
1640 -1639 0
-1640 1639 0
3678 -2701 737 2226 -1139 0
-3678 2701 0
-3678 -737 0
-3678 -2226 0
-3678 1139 0
1642 -1641 0
-1642 1641 0
3679 -2713 1019 2271 -1255 0
-3679 2713 0
-3679 -1019 0
-3679 -2271 0
-3679 1255 0
1650 -1649 0
-1650 1649 0
3680 -2898 993 2183 -1171 0
-3680 2898 0
-3680 -993 0
-3680 -2183 0
-3680 1171 0
1646 -1645 0
-1646 1645 0
3681 -2831 805 2150 -1185 0
-3681 2831 0
-3681 -805 0
-3681 -2150 0
-3681 1185 0
3682 -2649 877 2239 -1213 0
-3682 2649 0
-3682 -877 0
-3682 -2239 0
-3682 1213 0
1932 -1931 0
-1932 1931 0
1872 -1871 0
-1872 1871 0
3683 -2780 1001 2308 -1183 0
-3683 2780 0
-3683 -1001 0
-3683 -2308 0
-3683 1183 0
3684 -2665 593 2147 -1223 0
-3684 2665 0
-3684 -593 0
-3684 -2147 0
-3684 1223 0
1652 -1651 0
-1652 1651 0
3685 -2894 611 2230 -1219 0
-3685 2894 0
-3685 -611 0
-3685 -2230 0
-3685 1219 0
1654 -1653 0
-1654 1653 0
3686 -2143 2144 -1635 0
-3686 2143 0
-3686 -2144 0
-3686 1635 0
3687 -2705 1085 2331 -2091 0
-3687 2705 0
-3687 -1085 0
-3687 -2331 0
-3687 2091 0
3688 -2208 2209 -2081 0
-3688 2208 0
-3688 -2209 0
-3688 2081 0
3689 -3252 651 2259 -1931 0
-3689 3252 0
-3689 -651 0
-3689 -2259 0
-3689 1931 0
3690 -2882 777 2133 -1241 0
-3690 2882 0
-3690 -777 0
-3690 -2133 0
-3690 1241 0
2036 -2035 0
-2036 2035 0
1874 -1873 0
-1874 1873 0
3691 -2839 949 2179 -1189 0
-3691 2839 0
-3691 -949 0
-3691 -2179 0
-3691 1189 0
1660 -1659 0
-1660 1659 0
3692 -2870 595 2147 -1223 0
-3692 2870 0
-3692 -595 0
-3692 -2147 0
-3692 1223 0
1662 -1661 0
-1662 1661 0
3693 -2737 837 2219 -1173 0
-3693 2737 0
-3693 -837 0
-3693 -2219 0
-3693 1173 0
1664 -1663 0
-1664 1663 0
3694 -2634 841 2219 -1173 0
-3694 2634 0
-3694 -841 0
-3694 -2219 0
-3694 1173 0
3695 -2866 875 2239 -1213 0
-3695 2866 0
-3695 -875 0
-3695 -2239 0
-3695 1213 0
2082 -2081 0
-2082 2081 0
3696 -2760 721 2187 -1233 0
-3696 2760 0
-3696 -721 0
-3696 -2187 0
-3696 1233 0
1876 -1875 0
-1876 1875 0
3697 -2709 665 2169 -1141 0
-3697 2709 0
-3697 -665 0
-3697 -2169 0
-3697 1141 0
1666 -1665 0
-1666 1665 0
2008 -2007 0
-2008 2007 0
3698 -2733 793 2223 -1215 0
-3698 2733 0
-3698 -793 0
-3698 -2223 0
-3698 1215 0
1950 -1949 0
-1950 1949 0
3699 -2823 619 2212 -1247 0
-3699 2823 0
-3699 -619 0
-3699 -2212 0
-3699 1247 0
1668 -1667 0
-1668 1667 0
3700 -2902 1067 2304 -1245 0
-3700 2902 0
-3700 -1067 0
-3700 -2304 0
-3700 1245 0
1670 -1669 0
-1670 1669 0
3701 -2725 577 2285 -1195 0
-3701 2725 0
-3701 -577 0
-3701 -2285 0
-3701 1195 0
1952 -1951 0
-1952 1951 0
3702 -2768 759 2236 -1161 0
-3702 2768 0
-3702 -759 0
-3702 -2236 0
-3702 1161 0
2042 -2041 0
-2042 2041 0
3703 -2683 1049 2296 -1125 0
-3703 2683 0
-3703 -1049 0
-3703 -2296 0
-3703 1125 0
3704 -2819 627 2113 -1147 0
-3704 2819 0
-3704 -627 0
-3704 -2113 0
-3704 1147 0
1672 -1671 0
-1672 1671 0
3705 -2827 1057 2201 -1207 0
-3705 2827 0
-3705 -1057 0
-3705 -2201 0
-3705 1207 0
1674 -1673 0
-1674 1673 0
1954 -1953 0
-1954 1953 0
3706 -2112 2113 -1147 0
-3706 2112 0
-3706 -2113 0
-3706 1147 0
3707 -2729 775 2133 -1241 0
-3707 2729 0
-3707 -775 0
-3707 -2133 0
-3707 1241 0
1676 -1675 0
-1676 1675 0
3708 -2886 579 2285 -1195 0
-3708 2886 0
-3708 -579 0
-3708 -2285 0
-3708 1195 0
1678 -1677 0
-1678 1677 0
1680 -1679 0
-1680 1679 0
3709 -2803 827 2256 -1153 0
-3709 2803 0
-3709 -827 0
-3709 -2256 0
-3709 1153 0
1682 -1681 0
-1682 1681 0
3710 -2776 1009 2130 -1227 0
-3710 2776 0
-3710 -1009 0
-3710 -2130 0
-3710 1227 0
3711 -2811 1025 2274 -1181 0
-3711 2811 0
-3711 -1025 0
-3711 -2274 0
-3711 1181 0
1684 -1683 0
-1684 1683 0
3712 -2906 667 2169 -1141 0
-3712 2906 0
-3712 -667 0
-3712 -2169 0
-3712 1141 0
1686 -1685 0
-1686 1685 0
1688 -1687 0
-1688 1687 0
3713 -2862 925 2096 -1143 0
-3713 2862 0
-3713 -925 0
-3713 -2096 0
-3713 1143 0
3714 -2559 865 2335 -1303 0
-3714 2559 0
-3714 -865 0
-3714 -2335 0
-3714 1303 0
1124 -1123 0
-1124 1123 0
3715 -2555 575 2285 -1335 0
-3715 2555 0
-3715 -575 0
-3715 -2285 0
-3715 1335 0
3716 -2567 615 2212 -1387 0
-3716 2567 0
-3716 -615 0
-3716 -2212 0
-3716 1387 0
3717 -2569 609 2230 -1359 0
-3717 2569 0
-3717 -609 0
-3717 -2230 0
-3717 1359 0
3718 -2527 1055 2201 -1347 0
-3718 2527 0
-3718 -1055 0
-3718 -2201 0
-3718 1347 0
3719 -2535 791 2223 -1355 0
-3719 2535 0
-3719 -791 0
-3719 -2223 0
-3719 1355 0
3720 -2557 957 2120 -1357 0
-3720 2557 0
-3720 -957 0
-3720 -2120 0
-3720 1357 0
3721 -2577 785 2161 -1389 0
-3721 2577 0
-3721 -785 0
-3721 -2161 0
-3721 1389 0
3722 -2579 1089 2099 -1319 0
-3722 2579 0
-3722 -1089 0
-3722 -2099 0
-3722 1319 0
3723 -2591 885 2144 -1333 0
-3723 2591 0
-3723 -885 0
-3723 -2144 0
-3723 1333 0
3724 -2565 797 2194 -1291 0
-3724 2565 0
-3724 -797 0
-3724 -2194 0
-3724 1291 0
3725 -2581 857 2315 -1277 0
-3725 2581 0
-3725 -857 0
-3725 -2315 0
-3725 1277 0
3726 -2583 773 2133 -1381 0
-3726 2583 0
-3726 -773 0
-3726 -2133 0
-3726 1381 0
3727 -2547 767 2154 -1379 0
-3727 2547 0
-3727 -767 0
-3727 -2154 0
-3727 1379 0
3728 -2549 819 2339 -1383 0
-3728 2549 0
-3728 -819 0
-3728 -2339 0
-3728 1383 0
3729 -2599 969 2245 -1307 0
-3729 2599 0
-3729 -969 0
-3729 -2245 0
-3729 1307 0
3730 -2601 713 2176 -1391 0
-3730 2601 0
-3730 -713 0
-3730 -2176 0
-3730 1391 0
3731 -2551 911 2157 -1289 0
-3731 2551 0
-3731 -911 0
-3731 -2157 0
-3731 1289 0
3732 -2605 663 2169 -1281 0
-3732 2605 0
-3732 -663 0
-3732 -2169 0
-3732 1281 0
3733 -2607 1119 2278 -1351 0
-3733 2607 0
-3733 -1119 0
-3733 -2278 0
-3733 1351 0
3734 -2609 1035 2319 -1397 0
-3734 2609 0
-3734 -1035 0
-3734 -2319 0
-3734 1397 0
3735 -2611 719 2187 -1373 0
-3735 2611 0
-3735 -719 0
-3735 -2187 0
-3735 1373 0
3736 -2613 603 2165 -1349 0
-3736 2613 0
-3736 -603 0
-3736 -2165 0
-3736 1349 0
3737 -2617 965 2263 -1399 0
-3737 2617 0
-3737 -965 0
-3737 -2263 0
-3737 1399 0
3738 -2621 983 2216 -1393 0
-3738 2621 0
-3738 -983 0
-3738 -2216 0
-3738 1393 0
3739 -2485 923 2096 -1283 0
-3739 2485 0
-3739 -923 0
-3739 -2096 0
-3739 1283 0
3740 -2561 803 2150 -1325 0
-3740 2561 0
-3740 -803 0
-3740 -2150 0
-3740 1325 0
3741 -2585 1107 2205 -1375 0
-3741 2585 0
-3741 -1107 0
-3741 -2205 0
-3741 1375 0
3742 -2573 591 2147 -1363 0
-3742 2573 0
-3742 -591 0
-3742 -2147 0
-3742 1363 0
3743 -2563 1023 2274 -1321 0
-3743 2563 0
-3743 -1023 0
-3743 -2274 0
-3743 1321 0
3744 -2595 1097 2105 -1269 0
-3744 2595 0
-3744 -1097 0
-3744 -2105 0
-3744 1269 0
3745 -2571 1047 2296 -1265 0
-3745 2571 0
-3745 -1047 0
-3745 -2296 0
-3745 1265 0
3746 -2575 1073 2140 -1341 0
-3746 2575 0
-3746 -1073 0
-3746 -2140 0
-3746 1341 0
3747 -2587 639 2311 -1299 0
-3747 2587 0
-3747 -639 0
-3747 -2311 0
-3747 1299 0
3748 -2593 1081 2331 -1267 0
-3748 2593 0
-3748 -1081 0
-3748 -2331 0
-3748 1267 0
3749 -2597 757 2236 -1301 0
-3749 2597 0
-3749 -757 0
-3749 -2236 0
-3749 1301 0
3750 -2589 657 2252 -1297 0
-3750 2589 0
-3750 -657 0
-3750 -2252 0
-3750 1297 0
3751 -2603 891 2209 -1365 0
-3751 2603 0
-3751 -891 0
-3751 -2209 0
-3751 1365 0
3752 -2507 937 2127 -1371 0
-3752 2507 0
-3752 -937 0
-3752 -2127 0
-3752 1371 0
3753 -2509 677 2242 -1327 0
-3753 2509 0
-3753 -677 0
-3753 -2242 0
-3753 1327 0
3754 -2615 989 2183 -1311 0
-3754 2615 0
-3754 -989 0
-3754 -2183 0
-3754 1311 0
3755 -2513 633 2136 -1285 0
-3755 2513 0
-3755 -633 0
-3755 -2136 0
-3755 1285 0
3756 -2511 625 2113 -1287 0
-3756 2511 0
-3756 -625 0
-3756 -2113 0
-3756 1287 0
3757 -2503 1043 2191 -1273 0
-3757 2503 0
-3757 -1043 0
-3757 -2191 0
-3757 1273 0
3758 -2619 1017 2271 -1395 0
-3758 2619 0
-3758 -1017 0
-3758 -2271 0
-3758 1395 0
3759 -2515 931 2109 -1275 0
-3759 2515 0
-3759 -931 0
-3759 -2109 0
-3759 1275 0
3760 -2487 707 2267 -1377 0
-3760 2487 0
-3760 -707 0
-3760 -2267 0
-3760 1377 0
3761 -2521 905 2233 -1339 0
-3761 2521 0
-3761 -905 0
-3761 -2233 0
-3761 1339 0
3762 -2489 1113 2289 -1295 0
-3762 2489 0
-3762 -1113 0
-3762 -2289 0
-3762 1295 0
3763 -2523 945 2179 -1329 0
-3763 2523 0
-3763 -945 0
-3763 -2179 0
-3763 1329 0
3764 -2525 999 2308 -1323 0
-3764 2525 0
-3764 -999 0
-3764 -2308 0
-3764 1323 0
3765 -2529 687 2327 -1309 0
-3765 2529 0
-3765 -687 0
-3765 -2327 0
-3765 1309 0
3766 -2531 1065 2304 -1385 0
-3766 2531 0
-3766 -1065 0
-3766 -2304 0
-3766 1385 0
3767 -2493 645 2259 -1345 0
-3767 2493 0
-3767 -645 0
-3767 -2259 0
-3767 1345 0
3768 -2537 671 2116 -1305 0
-3768 2537 0
-3768 -671 0
-3768 -2116 0
-3768 1305 0
3769 -2495 751 2293 -1337 0
-3769 2495 0
-3769 -751 0
-3769 -2293 0
-3769 1337 0
3770 -2501 729 2226 -1279 0
-3770 2501 0
-3770 -729 0
-3770 -2226 0
-3770 1279 0
3771 -2499 699 2281 -1317 0
-3771 2499 0
-3771 -699 0
-3771 -2281 0
-3771 1317 0
3772 -2533 1007 2130 -1367 0
-3772 2533 0
-3772 -1007 0
-3772 -2130 0
-3772 1367 0
3773 -2539 897 2172 -1369 0
-3773 2539 0
-3773 -897 0
-3773 -2172 0
-3773 1369 0
3774 -2541 851 2300 -1361 0
-3774 2541 0
-3774 -851 0
-3774 -2300 0
-3774 1361 0
3775 -2497 813 2198 -1343 0
-3775 2497 0
-3775 -813 0
-3775 -2198 0
-3775 1343 0
3776 -2505 835 2219 -1313 0
-3776 2505 0
-3776 -835 0
-3776 -2219 0
-3776 1313 0
3777 -2491 871 2239 -1353 0
-3777 2491 0
-3777 -871 0
-3777 -2239 0
-3777 1353 0
3778 -2543 585 2248 -1315 0
-3778 2543 0
-3778 -585 0
-3778 -2248 0
-3778 1315 0
3779 -2545 745 2124 -1331 0
-3779 2545 0
-3779 -745 0
-3779 -2124 0
-3779 1331 0
3780 -2517 825 2256 -1293 0
-3780 2517 0
-3780 -825 0
-3780 -2256 0
-3780 1293 0
3781 -2519 977 2323 -1401 0
-3781 2519 0
-3781 -977 0
-3781 -2323 0
-3781 1401 0
3782 -2553 691 2102 -1271 0
-3782 2553 0
-3782 -691 0
-3782 -2102 0
-3782 1271 0
3783 -2772 893 2209 -1365 0
-3783 2772 0
-3783 -893 0
-3783 -2209 0
-3783 1365 0
2068 -2067 0
-2068 2067 0
3784 -2858 879 2239 -2085 0
-3784 2858 0
-3784 -879 0
-3784 -2239 0
-3784 2085 0
3785 -2856 859 2315 -2083 0
-3785 2856 0
-3785 -859 0
-3785 -2315 0
-3785 2083 0
3786 -2847 543 2848 -1123 0
-3786 2847 0
-3786 -543 0
-3786 -2848 0
-3786 1123 0
3787 -2845 235 2850 -1541 0
-3787 2845 0
-3787 -235 0
-3787 -2850 0
-3787 1541 0
3788 -2288 2289 -1695 0
-3788 2288 0
-3788 -2289 0
-3788 1695 0
1128 -1127 0
-1128 1127 0
3789 -2853 403 2854 -1545 0
-3789 2853 0
-3789 -403 0
-3789 -2854 0
-3789 1545 0
1956 -1955 0
-1956 1955 0
3790 -2815 933 2109 -1275 0
-3790 2815 0
-3790 -933 0
-3790 -2109 0
-3790 1275 0
1878 -1877 0
-1878 1877 0
3791 -2661 1099 2105 -1269 0
-3791 2661 0
-3791 -1099 0
-3791 -2105 0
-3791 1269 0
1690 -1689 0
-1690 1689 0
3792 -2843 1027 2274 -1321 0
-3792 2843 0
-3792 -1027 0
-3792 -2274 0
-3792 1321 0
1958 -1957 0
-1958 1957 0
3793 -2874 915 2157 -1289 0
-3793 2874 0
-3793 -915 0
-3793 -2157 0
-3793 1289 0
3794 -2330 2331 -1267 0
-3794 2330 0
-3794 -2331 0
-3794 1267 0
2084 -2083 0
-2084 2083 0
3795 -2675 839 2219 -1313 0
-3795 2675 0
-3795 -839 0
-3795 -2219 0
-3795 1313 0
1880 -1879 0
-1880 1879 0
1882 -1881 0
-1882 1881 0
3796 -2745 649 2259 -1345 0
-3796 2745 0
-3796 -649 0
-3796 -2259 0
-3796 1345 0
3797 -2753 913 2157 -1289 0
-3797 2753 0
-3797 -913 0
-3797 -2157 0
-3797 1289 0
1884 -1883 0
-1884 1883 0
3798 -2641 693 2102 -1271 0
-3798 2641 0
-3798 -693 0
-3798 -2102 0
-3798 1271 0
1692 -1691 0
-1692 1691 0
3799 -2255 2256 -1293 0
-3799 2255 0
-3799 -2256 0
-3799 1293 0
2010 -2009 0
-2010 2009 0
1960 -1959 0
-1960 1959 0
3800 -2717 769 2154 -1379 0
-3800 2717 0
-3800 -769 0
-3800 -2154 0
-3800 1379 0
1694 -1693 0
-1694 1693 0
3801 -2687 867 2335 -1303 0
-3801 2687 0
-3801 -867 0
-3801 -2335 0
-3801 1303 0
3802 -2307 2308 -1323 0
-3802 2307 0
-3802 -2308 0
-3802 1323 0
2012 -2011 0
-2012 2011 0
3803 -2890 1083 2331 -1267 0
-3803 2890 0
-3803 -1083 0
-3803 -2331 0
-3803 1267 0
1696 -1695 0
-1696 1695 0
3804 -2835 647 2259 -1345 0
-3804 2835 0
-3804 -647 0
-3804 -2259 0
-3804 1345 0
1698 -1697 0
-1698 1697 0
1700 -1699 0
-1700 1699 0
3805 -2645 899 2172 -1369 0
-3805 2645 0
-3805 -899 0
-3805 -2172 0
-3805 1369 0
2014 -2013 0
-2014 2013 0
3806 -2679 939 2127 -1371 0
-3806 2679 0
-3806 -939 0
-3806 -2127 0
-3806 1371 0
3807 -2878 753 2293 -1337 0
-3807 2878 0
-3807 -753 0
-3807 -2293 0
-3807 1337 0
1702 -1701 0
-1702 1701 0
3808 -2653 1037 2319 -1397 0
-3808 2653 0
-3808 -1037 0
-3808 -2319 0
-3808 1397 0
1704 -1703 0
-1704 1703 0
3809 -2749 1075 2140 -1341 0
-3809 2749 0
-3809 -1075 0
-3809 -2140 0
-3809 1341 0
1706 -1705 0
-1706 1705 0
3810 -2799 679 2242 -1327 0
-3810 2799 0
-3810 -679 0
-3810 -2242 0
-3810 1327 0
1708 -1707 0
-1708 1707 0
1962 -1961 0
-1962 1961 0
3811 -2784 829 2256 -1293 0
-3811 2784 0
-3811 -829 0
-3811 -2256 0
-3811 1293 0
3812 -2314 2315 -1277 0
-3812 2314 0
-3812 -2315 0
-3812 1277 0
2070 -2069 0
-2070 2069 0
3813 -2630 947 2179 -1329 0
-3813 2630 0
-3813 -947 0
-3813 -2179 0
-3813 1329 0
1710 -1709 0
-1710 1709 0
3814 -2669 731 2226 -1279 0
-3814 2669 0
-3814 -731 0
-3814 -2226 0
-3814 1279 0
1712 -1711 0
-1712 1711 0
2044 -2043 0
-2044 2043 0
3815 -2791 845 2219 -1313 0
-3815 2791 0
-3815 -845 0
-3815 -2219 0
-3815 1313 0
3816 -2764 959 2120 -1357 0
-3816 2764 0
-3816 -959 0
-3816 -2120 0
-3816 1357 0
1886 -1885 0
-1886 1885 0
3817 -2795 1093 2099 -1319 0
-3817 2795 0
-3817 -1093 0
-3817 -2099 0
-3817 1319 0
2016 -2015 0
-2016 2015 0
3818 -2691 991 2183 -1311 0
-3818 2691 0
-3818 -991 0
-3818 -2183 0
-3818 1311 0
1888 -1887 0
-1888 1887 0
3819 -2657 733 2226 -1279 0
-3819 2657 0
-3819 -733 0
-3819 -2226 0
-3819 1279 0
1714 -1713 0
-1714 1713 0
1964 -1963 0
-1964 1963 0
3820 -2741 723 2187 -1373 0
-3820 2741 0
-3820 -723 0
-3820 -2187 0
-3820 1373 0
3821 -2807 735 2226 -1279 0
-3821 2807 0
-3821 -735 0
-3821 -2226 0
-3821 1279 0
1716 -1715 0
-1716 1715 0
1718 -1717 0
-1718 1717 0
3822 -2721 873 2239 -1353 0
-3822 2721 0
-3822 -873 0
-3822 -2239 0
-3822 1353 0
1890 -1889 0
-1890 1889 0
3823 -2186 2187 -1373 0
-3823 2186 0
-3823 -2187 0
-3823 1373 0
1720 -1719 0
-1720 1719 0
3824 -2701 737 2226 -1279 0
-3824 2701 0
-3824 -737 0
-3824 -2226 0
-3824 1279 0
1722 -1721 0
-1722 1721 0
3825 -2713 1019 2271 -1395 0
-3825 2713 0
-3825 -1019 0
-3825 -2271 0
-3825 1395 0
1724 -1723 0
-1724 1723 0
3826 -2898 993 2183 -1311 0
-3826 2898 0
-3826 -993 0
-3826 -2183 0
-3826 1311 0
1726 -1725 0
-1726 1725 0
3827 -2831 805 2150 -1325 0
-3827 2831 0
-3827 -805 0
-3827 -2150 0
-3827 1325 0
3828 -2649 877 2239 -1353 0
-3828 2649 0
-3828 -877 0
-3828 -2239 0
-3828 1353 0
1892 -1891 0
-1892 1891 0
3829 -2780 1001 2308 -1323 0
-3829 2780 0
-3829 -1001 0
-3829 -2308 0
-3829 1323 0
1894 -1893 0
-1894 1893 0
1728 -1727 0
-1728 1727 0
3830 -2665 593 2147 -1363 0
-3830 2665 0
-3830 -593 0
-3830 -2147 0
-3830 1363 0
3831 -2894 611 2230 -1359 0
-3831 2894 0
-3831 -611 0
-3831 -2230 0
-3831 1359 0
1730 -1729 0
-1730 1729 0
2086 -2085 0
-2086 2085 0
3832 -2705 1085 2331 -1267 0
-3832 2705 0
-3832 -1085 0
-3832 -2331 0
-3832 1267 0
2046 -2045 0
-2046 2045 0
3833 -2882 777 2133 -1381 0
-3833 2882 0
-3833 -777 0
-3833 -2133 0
-3833 1381 0
3834 -2839 949 2179 -1329 0
-3834 2839 0
-3834 -949 0
-3834 -2179 0
-3834 1329 0
1896 -1895 0
-1896 1895 0
3835 -2870 595 2147 -1363 0
-3835 2870 0
-3835 -595 0
-3835 -2147 0
-3835 1363 0
1732 -1731 0
-1732 1731 0
1734 -1733 0
-1734 1733 0
3836 -2737 837 2219 -1313 0
-3836 2737 0
-3836 -837 0
-3836 -2219 0
-3836 1313 0
3837 -2634 841 2219 -1313 0
-3837 2634 0
-3837 -841 0
-3837 -2219 0
-3837 1313 0
1736 -1735 0
-1736 1735 0
3838 -2866 875 2239 -1353 0
-3838 2866 0
-3838 -875 0
-3838 -2239 0
-3838 1353 0
2072 -2071 0
-2072 2071 0
1898 -1897 0
-1898 1897 0
3839 -2760 721 2187 -1373 0
-3839 2760 0
-3839 -721 0
-3839 -2187 0
-3839 1373 0
1738 -1737 0
-1738 1737 0
3840 -2709 665 2169 -1281 0
-3840 2709 0
-3840 -665 0
-3840 -2169 0
-3840 1281 0
2018 -2017 0
-2018 2017 0
3841 -2733 793 2223 -1355 0
-3841 2733 0
-3841 -793 0
-3841 -2223 0
-3841 1355 0
1966 -1965 0
-1966 1965 0
3842 -2823 619 2212 -1387 0
-3842 2823 0
-3842 -619 0
-3842 -2212 0
-3842 1387 0
1740 -1739 0
-1740 1739 0
3843 -2902 1067 2304 -1385 0
-3843 2902 0
-3843 -1067 0
-3843 -2304 0
-3843 1385 0
1742 -1741 0
-1742 1741 0
3844 -2725 577 2285 -1335 0
-3844 2725 0
-3844 -577 0
-3844 -2285 0
-3844 1335 0
1968 -1967 0
-1968 1967 0
3845 -2768 759 2236 -1301 0
-3845 2768 0
-3845 -759 0
-3845 -2236 0
-3845 1301 0
2048 -2047 0
-2048 2047 0
3846 -2683 1049 2296 -1265 0
-3846 2683 0
-3846 -1049 0
-3846 -2296 0
-3846 1265 0
3847 -2819 627 2113 -1287 0
-3847 2819 0
-3847 -627 0
-3847 -2113 0
-3847 1287 0
1744 -1743 0
-1744 1743 0
1746 -1745 0
-1746 1745 0
3848 -2827 1057 2201 -1347 0
-3848 2827 0
-3848 -1057 0
-3848 -2201 0
-3848 1347 0
1970 -1969 0
-1970 1969 0
3849 -2112 2113 -1287 0
-3849 2112 0
-3849 -2113 0
-3849 1287 0
3850 -2729 775 2133 -1381 0
-3850 2729 0
-3850 -775 0
-3850 -2133 0
-3850 1381 0
1748 -1747 0
-1748 1747 0
3851 -2886 579 2285 -1335 0
-3851 2886 0
-3851 -579 0
-3851 -2285 0
-3851 1335 0
1750 -1749 0
-1750 1749 0
3852 -2803 827 2256 -1293 0
-3852 2803 0
-3852 -827 0
-3852 -2256 0
-3852 1293 0
1752 -1751 0
-1752 1751 0
1754 -1753 0
-1754 1753 0
3853 -2776 1009 2130 -1367 0
-3853 2776 0
-3853 -1009 0
-3853 -2130 0
-3853 1367 0
3854 -2811 1025 2274 -1321 0
-3854 2811 0
-3854 -1025 0
-3854 -2274 0
-3854 1321 0
1756 -1755 0
-1756 1755 0
1758 -1757 0
-1758 1757 0
3855 -2906 667 2169 -1281 0
-3855 2906 0
-3855 -667 0
-3855 -2169 0
-3855 1281 0
1760 -1759 0
-1760 1759 0
3856 -2862 925 2096 -1283 0
-3856 2862 0
-3856 -925 0
-3856 -2096 0
-3856 1283 0
3857 -2772 893 2209 -1503 0
-3857 2772 0
-3857 -893 0
-3857 -2209 0
-3857 1503 0
2074 -2073 0
-2074 2073 0
3858 -2847 543 2848 -1263 0
-3858 2847 0
-3858 -543 0
-3858 -2848 0
-3858 1263 0
3859 -2845 235 2850 -1543 0
-3859 2845 0
-3859 -235 0
-3859 -2850 0
-3859 1543 0
3860 -2288 2289 -1767 0
-3860 2288 0
-3860 -2289 0
-3860 1767 0
3861 -2856 859 2315 -2087 0
-3861 2856 0
-3861 -859 0
-3861 -2315 0
-3861 2087 0
1268 -1267 0
-1268 1267 0
3862 -2858 879 2239 -2089 0
-3862 2858 0
-3862 -879 0
-3862 -2239 0
-3862 2089 0
3863 -2853 403 2854 -1547 0
-3863 2853 0
-3863 -403 0
-3863 -2854 0
-3863 1547 0
3864 -2815 933 2109 -1413 0
-3864 2815 0
-3864 -933 0
-3864 -2109 0
-3864 1413 0
1972 -1971 0
-1972 1971 0
1900 -1899 0
-1900 1899 0
3865 -2661 1099 2105 -1407 0
-3865 2661 0
-3865 -1099 0
-3865 -2105 0
-3865 1407 0
1762 -1761 0
-1762 1761 0
3866 -2843 1027 2274 -1459 0
-3866 2843 0
-3866 -1027 0
-3866 -2274 0
-3866 1459 0
3867 -2874 915 2157 -1427 0
-3867 2874 0
-3867 -915 0
-3867 -2157 0
-3867 1427 0
1974 -1973 0
-1974 1973 0
3868 -2330 2331 -1405 0
-3868 2330 0
-3868 -2331 0
-3868 1405 0
2088 -2087 0
-2088 2087 0
3869 -2675 839 2219 -1451 0
-3869 2675 0
-3869 -839 0
-3869 -2219 0
-3869 1451 0
1902 -1901 0
-1902 1901 0
3870 -2745 649 2259 -1483 0
-3870 2745 0
-3870 -649 0
-3870 -2259 0
-3870 1483 0
1904 -1903 0
-1904 1903 0
3871 -2753 913 2157 -1427 0
-3871 2753 0
-3871 -913 0
-3871 -2157 0
-3871 1427 0
1906 -1905 0
-1906 1905 0
1764 -1763 0
-1764 1763 0
3872 -2641 693 2102 -1409 0
-3872 2641 0
-3872 -693 0
-3872 -2102 0
-3872 1409 0
2020 -2019 0
-2020 2019 0
3873 -2255 2256 -1431 0
-3873 2255 0
-3873 -2256 0
-3873 1431 0
3874 -2717 769 2154 -1517 0
-3874 2717 0
-3874 -769 0
-3874 -2154 0
-3874 1517 0
1976 -1975 0
-1976 1975 0
3875 -2687 867 2335 -1441 0
-3875 2687 0
-3875 -867 0
-3875 -2335 0
-3875 1441 0
1766 -1765 0
-1766 1765 0
2022 -2021 0
-2022 2021 0
3876 -2307 2308 -1461 0
-3876 2307 0
-3876 -2308 0
-3876 1461 0
3877 -2890 1083 2331 -1405 0
-3877 2890 0
-3877 -1083 0
-3877 -2331 0
-3877 1405 0
1768 -1767 0
-1768 1767 0
3878 -2835 647 2259 -1483 0
-3878 2835 0
-3878 -647 0
-3878 -2259 0
-3878 1483 0
1770 -1769 0
-1770 1769 0
3879 -2645 899 2172 -1507 0
-3879 2645 0
-3879 -899 0
-3879 -2172 0
-3879 1507 0
1772 -1771 0
-1772 1771 0
3880 -2679 939 2127 -1509 0
-3880 2679 0
-3880 -939 0
-3880 -2127 0
-3880 1509 0
2024 -2023 0
-2024 2023 0
1774 -1773 0
-1774 1773 0
3881 -2878 753 2293 -1475 0
-3881 2878 0
-3881 -753 0
-3881 -2293 0
-3881 1475 0
1776 -1775 0
-1776 1775 0
3882 -2653 1037 2319 -1535 0
-3882 2653 0
-3882 -1037 0
-3882 -2319 0
-3882 1535 0
3883 -2749 1075 2140 -1479 0
-3883 2749 0
-3883 -1075 0
-3883 -2140 0
-3883 1479 0
1778 -1777 0
-1778 1777 0
1780 -1779 0
-1780 1779 0
3884 -2799 679 2242 -1465 0
-3884 2799 0
-3884 -679 0
-3884 -2242 0
-3884 1465 0
3885 -2784 829 2256 -1431 0
-3885 2784 0
-3885 -829 0
-3885 -2256 0
-3885 1431 0
1978 -1977 0
-1978 1977 0
3886 -2314 2315 -1415 0
-3886 2314 0
-3886 -2315 0
-3886 1415 0
2076 -2075 0
-2076 2075 0
1782 -1781 0
-1782 1781 0
3887 -2630 947 2179 -1467 0
-3887 2630 0
-3887 -947 0
-3887 -2179 0
-3887 1467 0
1784 -1783 0
-1784 1783 0
3888 -2669 731 2226 -1417 0
-3888 2669 0
-3888 -731 0
-3888 -2226 0
-3888 1417 0
2050 -2049 0
-2050 2049 0
3889 -2791 845 2219 -1451 0
-3889 2791 0
-3889 -845 0
-3889 -2219 0
-3889 1451 0
3890 -2764 959 2120 -1495 0
-3890 2764 0
-3890 -959 0
-3890 -2120 0
-3890 1495 0
1908 -1907 0
-1908 1907 0
3891 -2795 1093 2099 -1457 0
-3891 2795 0
-3891 -1093 0
-3891 -2099 0
-3891 1457 0
2026 -2025 0
-2026 2025 0
1910 -1909 0
-1910 1909 0
3892 -2691 991 2183 -1449 0
-3892 2691 0
-3892 -991 0
-3892 -2183 0
-3892 1449 0
3893 -2657 733 2226 -1417 0
-3893 2657 0
-3893 -733 0
-3893 -2226 0
-3893 1417 0
1786 -1785 0
-1786 1785 0
1980 -1979 0
-1980 1979 0
3894 -2741 723 2187 -1511 0
-3894 2741 0
-3894 -723 0
-3894 -2187 0
-3894 1511 0
1788 -1787 0
-1788 1787 0
3895 -2807 735 2226 -1417 0
-3895 2807 0
-3895 -735 0
-3895 -2226 0
-3895 1417 0
1790 -1789 0
-1790 1789 0
3896 -2721 873 2239 -1491 0
-3896 2721 0
-3896 -873 0
-3896 -2239 0
-3896 1491 0
1912 -1911 0
-1912 1911 0
3897 -2186 2187 -1511 0
-3897 2186 0
-3897 -2187 0
-3897 1511 0
1792 -1791 0
-1792 1791 0
3898 -2701 737 2226 -1417 0
-3898 2701 0
-3898 -737 0
-3898 -2226 0
-3898 1417 0
1794 -1793 0
-1794 1793 0
3899 -2713 1019 2271 -1533 0
-3899 2713 0
-3899 -1019 0
-3899 -2271 0
-3899 1533 0
3900 -2898 993 2183 -1449 0
-3900 2898 0
-3900 -993 0
-3900 -2183 0
-3900 1449 0
1796 -1795 0
-1796 1795 0
3901 -2831 805 2150 -1463 0
-3901 2831 0
-3901 -805 0
-3901 -2150 0
-3901 1463 0
1798 -1797 0
-1798 1797 0
3902 -2649 877 2239 -1491 0
-3902 2649 0
-3902 -877 0
-3902 -2239 0
-3902 1491 0
1914 -1913 0
-1914 1913 0
1916 -1915 0
-1916 1915 0
3903 -2780 1001 2308 -1461 0
-3903 2780 0
-3903 -1001 0
-3903 -2308 0
-3903 1461 0
1800 -1799 0
-1800 1799 0
3904 -2665 593 2147 -1501 0
-3904 2665 0
-3904 -593 0
-3904 -2147 0
-3904 1501 0
3905 -2894 611 2230 -1497 0
-3905 2894 0
-3905 -611 0
-3905 -2230 0
-3905 1497 0
1802 -1801 0
-1802 1801 0
2090 -2089 0
-2090 2089 0
3906 -2705 1085 2331 -1405 0
-3906 2705 0
-3906 -1085 0
-3906 -2331 0
-3906 1405 0
2052 -2051 0
-2052 2051 0
3907 -2882 777 2133 -1519 0
-3907 2882 0
-3907 -777 0
-3907 -2133 0
-3907 1519 0
1918 -1917 0
-1918 1917 0
3908 -2839 949 2179 -1467 0
-3908 2839 0
-3908 -949 0
-3908 -2179 0
-3908 1467 0
1804 -1803 0
-1804 1803 0
3909 -2870 595 2147 -1501 0
-3909 2870 0
-3909 -595 0
-3909 -2147 0
-3909 1501 0
3910 -2737 837 2219 -1451 0
-3910 2737 0
-3910 -837 0
-3910 -2219 0
-3910 1451 0
1806 -1805 0
-1806 1805 0
1808 -1807 0
-1808 1807 0
3911 -2634 841 2219 -1451 0
-3911 2634 0
-3911 -841 0
-3911 -2219 0
-3911 1451 0
3912 -2866 875 2239 -1491 0
-3912 2866 0
-3912 -875 0
-3912 -2239 0
-3912 1491 0
2078 -2077 0
-2078 2077 0
1920 -1919 0
-1920 1919 0
3913 -2760 721 2187 -1511 0
-3913 2760 0
-3913 -721 0
-3913 -2187 0
-3913 1511 0
1810 -1809 0
-1810 1809 0
3914 -2709 665 2169 -1419 0
-3914 2709 0
-3914 -665 0
-3914 -2169 0
-3914 1419 0
3915 -2733 793 2223 -1493 0
-3915 2733 0
-3915 -793 0
-3915 -2223 0
-3915 1493 0
2028 -2027 0
-2028 2027 0
1982 -1981 0
-1982 1981 0
3916 -2823 619 2212 -1525 0
-3916 2823 0
-3916 -619 0
-3916 -2212 0
-3916 1525 0
1812 -1811 0
-1812 1811 0
3917 -2902 1067 2304 -1523 0
-3917 2902 0
-3917 -1067 0
-3917 -2304 0
-3917 1523 0
3918 -2725 577 2285 -1473 0
-3918 2725 0
-3918 -577 0
-3918 -2285 0
-3918 1473 0
1814 -1813 0
-1814 1813 0
1984 -1983 0
-1984 1983 0
3919 -2768 759 2236 -1439 0
-3919 2768 0
-3919 -759 0
-3919 -2236 0
-3919 1439 0
2054 -2053 0
-2054 2053 0
3920 -2683 1049 2296 -1403 0
-3920 2683 0
-3920 -1049 0
-3920 -2296 0
-3920 1403 0
1816 -1815 0
-1816 1815 0
3921 -2819 627 2113 -1425 0
-3921 2819 0
-3921 -627 0
-3921 -2113 0
-3921 1425 0
1818 -1817 0
-1818 1817 0
3922 -2827 1057 2201 -1485 0
-3922 2827 0
-3922 -1057 0
-3922 -2201 0
-3922 1485 0
1986 -1985 0
-1986 1985 0
3923 -2112 2113 -1425 0
-3923 2112 0
-3923 -2113 0
-3923 1425 0
3924 -2729 775 2133 -1519 0
-3924 2729 0
-3924 -775 0
-3924 -2133 0
-3924 1519 0
1820 -1819 0
-1820 1819 0
3925 -2886 579 2285 -1473 0
-3925 2886 0
-3925 -579 0
-3925 -2285 0
-3925 1473 0
1822 -1821 0
-1822 1821 0
3926 -2803 827 2256 -1431 0
-3926 2803 0
-3926 -827 0
-3926 -2256 0
-3926 1431 0
1824 -1823 0
-1824 1823 0
3927 -2776 1009 2130 -1505 0
-3927 2776 0
-3927 -1009 0
-3927 -2130 0
-3927 1505 0
1826 -1825 0
-1826 1825 0
3928 -2811 1025 2274 -1459 0
-3928 2811 0
-3928 -1025 0
-3928 -2274 0
-3928 1459 0
1828 -1827 0
-1828 1827 0
1830 -1829 0
-1830 1829 0
3929 -2906 667 2169 -1419 0
-3929 2906 0
-3929 -667 0
-3929 -2169 0
-3929 1419 0
3930 -2862 925 2096 -1421 0
-3930 2862 0
-3930 -925 0
-3930 -2096 0
-3930 1421 0
1832 -1831 0
-1832 1831 0
3931 -2203 2204 2205 -1235 0
-3931 2203 0
-3931 -2204 0
-3931 -2205 0
-3931 1235 0
3932 -2280 2281 -1177 0
-3932 2280 0
-3932 -2281 0
-3932 1177 0
3933 -2214 2215 2216 -1253 0
-3933 2214 0
-3933 -2215 0
-3933 -2216 0
-3933 1253 0
3934 -2291 2292 2293 -1197 0
-3934 2291 0
-3934 -2292 0
-3934 -2293 0
-3934 1197 0
3935 -2218 2219 -1173 0
-3935 2218 0
-3935 -2219 0
-3935 1173 0
3936 -2221 2222 2223 -1215 0
-3936 2221 0
-3936 -2222 0
-3936 -2223 0
-3936 1215 0
3937 -2225 2226 -1139 0
-3937 2225 0
-3937 -2226 0
-3937 1139 0
3938 -2310 2311 -1159 0
-3938 2310 0
-3938 -2311 0
-3938 1159 0
3939 -2241 2242 -1187 0
-3939 2241 0
-3939 -2242 0
-3939 1187 0
3940 -2228 2229 2230 -1219 0
-3940 2228 0
-3940 -2229 0
-3940 -2230 0
-3940 1219 0
3941 -2232 2233 -1199 0
-3941 2232 0
-3941 -2233 0
-3941 1199 0
3942 -2247 2248 -1175 0
-3942 2247 0
-3942 -2248 0
-3942 1175 0
3943 -2269 2270 2271 -1255 0
-3943 2269 0
-3943 -2270 0
-3943 -2271 0
-3943 1255 0
3944 -2235 2236 -1161 0
-3944 2235 0
-3944 -2236 0
-3944 1161 0
3945 -2254 2255 2256 -1153 0
-3945 2254 0
-3945 -2255 0
-3945 -2256 0
-3945 1153 0
3946 -2238 2239 -1213 0
-3946 2238 0
-3946 -2239 0
-3946 1213 0
3947 -2250 2251 2252 -1157 0
-3947 2250 0
-3947 -2251 0
-3947 -2252 0
-3947 1157 0
3948 -2094 2095 2096 -1143 0
-3948 2094 0
-3948 -2095 0
-3948 -2096 0
-3948 1143 0
3949 -2258 2259 -1205 0
-3949 2258 0
-3949 -2259 0
-3949 1205 0
3950 -2287 2288 2289 -1155 0
-3950 2287 0
-3950 -2288 0
-3950 -2289 0
-3950 1155 0
3951 -2276 2277 2278 -1211 0
-3951 2276 0
-3951 -2277 0
-3951 -2278 0
-3951 1211 0
3952 -2283 2284 2285 -1195 0
-3952 2283 0
-3952 -2284 0
-3952 -2285 0
-3952 1195 0
3953 -2107 2108 2109 -1135 0
-3953 2107 0
-3953 -2108 0
-3953 -2109 0
-3953 1135 0
3954 -2295 2296 -1125 0
-3954 2295 0
-3954 -2296 0
-3954 1125 0
3955 -2261 2262 2263 -1259 0
-3955 2261 0
-3955 -2262 0
-3955 -2263 0
-3955 1259 0
3956 -2306 2307 2308 -1183 0
-3956 2306 0
-3956 -2307 0
-3956 -2308 0
-3956 1183 0
3957 -2298 2299 2300 -1221 0
-3957 2298 0
-3957 -2299 0
-3957 -2300 0
-3957 1221 0
3958 -2152 2153 2154 -1239 0
-3958 2152 0
-3958 -2153 0
-3958 -2154 0
-3958 1239 0
3959 -2156 2157 -1149 0
-3959 2156 0
-3959 -2157 0
-3959 1149 0
3960 -2343 3620 0
-3960 2343 0
-3960 -3620 0
3961 -2302 2303 2304 -1245 0
-3961 2302 0
-3961 -2303 0
-3961 -2304 0
-3961 1245 0
3962 -2313 2314 2315 -1137 0
-3962 2313 0
-3962 -2314 0
-3962 -2315 0
-3962 1137 0
3963 -2167 2168 2169 -1141 0
-3963 2167 0
-3963 -2168 0
-3963 -2169 0
-3963 1141 0
3964 -2098 2099 -1179 0
-3964 2098 0
-3964 -2099 0
-3964 1179 0
3965 -2325 2326 2327 -1169 0
-3965 2325 0
-3965 -2326 0
-3965 -2327 0
-3965 1169 0
3966 -2329 2330 2331 -1127 0
-3966 2329 0
-3966 -2330 0
-3966 -2331 0
-3966 1127 0
3967 -2317 2318 2319 -1257 0
-3967 2317 0
-3967 -2318 0
-3967 -2319 0
-3967 1257 0
3968 -2337 2338 2339 -1243 0
-3968 2337 0
-3968 -2338 0
-3968 -2339 0
-3968 1243 0
3969 -2321 2322 2323 -1261 0
-3969 2321 0
-3969 -2322 0
-3969 -2323 0
-3969 1261 0
3970 -2181 2182 2183 -1171 0
-3970 2181 0
-3970 -2182 0
-3970 -2183 0
-3970 1171 0
3971 -2101 2102 -1131 0
-3971 2101 0
-3971 -2102 0
-3971 1131 0
3972 -2104 2105 -1129 0
-3972 2104 0
-3972 -2105 0
-3972 1129 0
3973 -2333 2334 2335 -1163 0
-3973 2333 0
-3973 -2334 0
-3973 -2335 0
-3973 1163 0
3974 -2200 2201 -1207 0
-3974 2200 0
-3974 -2201 0
-3974 1207 0
3975 -2115 2116 -1165 0
-3975 2115 0
-3975 -2116 0
-3975 1165 0
3976 -2126 2127 -1231 0
-3976 2126 0
-3976 -2127 0
-3976 1231 0
3977 -2118 2119 2120 -1217 0
-3977 2118 0
-3977 -2119 0
-3977 -2120 0
-3977 1217 0
3978 -2122 2123 2124 -1191 0
-3978 2122 0
-3978 -2123 0
-3978 -2124 0
-3978 1191 0
3979 -2111 2112 2113 -1147 0
-3979 2111 0
-3979 -2112 0
-3979 -2113 0
-3979 1147 0
3980 -2132 2133 -1241 0
-3980 2132 0
-3980 -2133 0
-3980 1241 0
3981 -2211 2212 -1247 0
-3981 2211 0
-3981 -2212 0
-3981 1247 0
3982 -2138 2139 2140 -1201 0
-3982 2138 0
-3982 -2139 0
-3982 -2140 0
-3982 1201 0
3983 -2129 2130 -1227 0
-3983 2129 0
-3983 -2130 0
-3983 1227 0
3984 -2146 2147 -1223 0
-3984 2146 0
-3984 -2147 0
-3984 1223 0
3985 -2149 2150 -1185 0
-3985 2149 0
-3985 -2150 0
-3985 1185 0
3986 -2135 2136 -1145 0
-3986 2135 0
-3986 -2136 0
-3986 1145 0
3987 -2142 2143 2144 -1193 0
-3987 2142 0
-3987 -2143 0
-3987 -2144 0
-3987 1193 0
3988 -2171 2172 -1229 0
-3988 2171 0
-3988 -2172 0
-3988 1229 0
3989 -2244 2245 -1167 0
-3989 2244 0
-3989 -2245 0
-3989 1167 0
3990 -2174 2175 2176 -1251 0
-3990 2174 0
-3990 -2175 0
-3990 -2176 0
-3990 1251 0
3991 -2159 2160 2161 -1249 0
-3991 2159 0
-3991 -2160 0
-3991 -2161 0
-3991 1249 0
3992 -2163 2164 2165 -1209 0
-3992 2163 0
-3992 -2164 0
-3992 -2165 0
-3992 1209 0
3993 -2185 2186 2187 -1233 0
-3993 2185 0
-3993 -2186 0
-3993 -2187 0
-3993 1233 0
3994 -2189 2190 2191 -1133 0
-3994 2189 0
-3994 -2190 0
-3994 -2191 0
-3994 1133 0
3995 -2193 2194 -1151 0
-3995 2193 0
-3995 -2194 0
-3995 1151 0
3996 -2178 2179 -1189 0
-3996 2178 0
-3996 -2179 0
-3996 1189 0
3997 -2265 2266 2267 -1237 0
-3997 2265 0
-3997 -2266 0
-3997 -2267 0
-3997 1237 0
3998 -2207 2208 2209 -1225 0
-3998 2207 0
-3998 -2208 0
-3998 -2209 0
-3998 1225 0
3999 -2273 2274 -1181 0
-3999 2273 0
-3999 -2274 0
-3999 1181 0
4000 -2196 2197 2198 -1203 0
-4000 2196 0
-4000 -2197 0
-4000 -2198 0
-4000 1203 0
4001 -2129 2130 -1367 0
-4001 2129 0
-4001 -2130 0
-4001 1367 0
4002 -2298 2299 2300 -1361 0
-4002 2298 0
-4002 -2299 0
-4002 -2300 0
-4002 1361 0
4003 -2302 2303 2304 -1385 0
-4003 2302 0
-4003 -2303 0
-4003 -2304 0
-4003 1385 0
4004 -2135 2136 -1285 0
-4004 2135 0
-4004 -2136 0
-4004 1285 0
4005 -2152 2153 2154 -1379 0
-4005 2152 0
-4005 -2153 0
-4005 -2154 0
-4005 1379 0
4006 -2156 2157 -1289 0
-4006 2156 0
-4006 -2157 0
-4006 1289 0
4007 -2171 2172 -1369 0
-4007 2171 0
-4007 -2172 0
-4007 1369 0
4008 -2325 2326 2327 -1309 0
-4008 2325 0
-4008 -2326 0
-4008 -2327 0
-4008 1309 0
4009 -2167 2168 2169 -1281 0
-4009 2167 0
-4009 -2168 0
-4009 -2169 0
-4009 1281 0
4010 -2313 2314 2315 -1277 0
-4010 2313 0
-4010 -2314 0
-4010 -2315 0
-4010 1277 0
4011 -2333 2334 2335 -1303 0
-4011 2333 0
-4011 -2334 0
-4011 -2335 0
-4011 1303 0
4012 -2337 2338 2339 -1383 0
-4012 2337 0
-4012 -2338 0
-4012 -2339 0
-4012 1383 0
4013 -2321 2322 2323 -1401 0
-4013 2321 0
-4013 -2322 0
-4013 -2323 0
-4013 1401 0
4014 -2181 2182 2183 -1311 0
-4014 2181 0
-4014 -2182 0
-4014 -2183 0
-4014 1311 0
4015 -2126 2127 -1371 0
-4015 2126 0
-4015 -2127 0
-4015 1371 0
4016 -2200 2201 -1347 0
-4016 2200 0
-4016 -2201 0
-4016 1347 0
4017 -2203 2204 2205 -1375 0
-4017 2203 0
-4017 -2204 0
-4017 -2205 0
-4017 1375 0
4018 -2118 2119 2120 -1357 0
-4018 2118 0
-4018 -2119 0
-4018 -2120 0
-4018 1357 0
4019 -2104 2105 -1269 0
-4019 2104 0
-4019 -2105 0
-4019 1269 0
4020 -2111 2112 2113 -1287 0
-4020 2111 0
-4020 -2112 0
-4020 -2113 0
-4020 1287 0
1542 -1541 0
-1542 1541 0
4021 -2132 2133 -1381 0
-4021 2132 0
-4021 -2133 0
-4021 1381 0
4022 -2122 2123 2124 -1331 0
-4022 2122 0
-4022 -2123 0
-4022 -2124 0
-4022 1331 0
4023 -2211 2212 -1387 0
-4023 2211 0
-4023 -2212 0
-4023 1387 0
4024 -2138 2139 2140 -1341 0
-4024 2138 0
-4024 -2139 0
-4024 -2140 0
-4024 1341 0
4025 -2214 2215 2216 -1393 0
-4025 2214 0
-4025 -2215 0
-4025 -2216 0
-4025 1393 0
4026 -2146 2147 -1363 0
-4026 2146 0
-4026 -2147 0
-4026 1363 0
4027 -2149 2150 -1325 0
-4027 2149 0
-4027 -2150 0
-4027 1325 0
4028 -2225 2226 -1279 0
-4028 2225 0
-4028 -2226 0
-4028 1279 0
4029 -2159 2160 2161 -1389 0
-4029 2159 0
-4029 -2160 0
-4029 -2161 0
-4029 1389 0
4030 -2142 2143 2144 -1333 0
-4030 2142 0
-4030 -2143 0
-4030 -2144 0
-4030 1333 0
4031 -2238 2239 -1353 0
-4031 2238 0
-4031 -2239 0
-4031 1353 0
4032 -2174 2175 2176 -1391 0
-4032 2174 0
-4032 -2175 0
-4032 -2176 0
-4032 1391 0
4033 -2235 2236 -1301 0
-4033 2235 0
-4033 -2236 0
-4033 1301 0
4034 -2244 2245 -1307 0
-4034 2244 0
-4034 -2245 0
-4034 1307 0
4035 -2163 2164 2165 -1349 0
-4035 2163 0
-4035 -2164 0
-4035 -2165 0
-4035 1349 0
4036 -2189 2190 2191 -1273 0
-4036 2189 0
-4036 -2190 0
-4036 -2191 0
-4036 1273 0
4037 -2241 2242 -1327 0
-4037 2241 0
-4037 -2242 0
-4037 1327 0
4038 -2185 2186 2187 -1373 0
-4038 2185 0
-4038 -2186 0
-4038 -2187 0
-4038 1373 0
4039 -2178 2179 -1329 0
-4039 2178 0
-4039 -2179 0
-4039 1329 0
4040 -2261 2262 2263 -1399 0
-4040 2261 0
-4040 -2262 0
-4040 -2263 0
-4040 1399 0
4041 -2254 2255 2256 -1293 0
-4041 2254 0
-4041 -2255 0
-4041 -2256 0
-4041 1293 0
4042 -2269 2270 2271 -1395 0
-4042 2269 0
-4042 -2270 0
-4042 -2271 0
-4042 1395 0
4043 -2273 2274 -1321 0
-4043 2273 0
-4043 -2274 0
-4043 1321 0
4044 -2265 2266 2267 -1377 0
-4044 2265 0
-4044 -2266 0
-4044 -2267 0
-4044 1377 0
4045 -2193 2194 -1291 0
-4045 2193 0
-4045 -2194 0
-4045 1291 0
4046 -2196 2197 2198 -1343 0
-4046 2196 0
-4046 -2197 0
-4046 -2198 0
-4046 1343 0
4047 -2207 2208 2209 -1365 0
-4047 2207 0
-4047 -2208 0
-4047 -2209 0
-4047 1365 0
4048 -2280 2281 -1317 0
-4048 2280 0
-4048 -2281 0
-4048 1317 0
4049 -2287 2288 2289 -1295 0
-4049 2287 0
-4049 -2288 0
-4049 -2289 0
-4049 1295 0
4050 -2291 2292 2293 -1337 0
-4050 2291 0
-4050 -2292 0
-4050 -2293 0
-4050 1337 0
4051 -2218 2219 -1313 0
-4051 2218 0
-4051 -2219 0
-4051 1313 0
4052 -2295 2296 -1265 0
-4052 2295 0
-4052 -2296 0
-4052 1265 0
4053 -2221 2222 2223 -1355 0
-4053 2221 0
-4053 -2222 0
-4053 -2223 0
-4053 1355 0
4054 -2310 2311 -1299 0
-4054 2310 0
-4054 -2311 0
-4054 1299 0
4055 -2306 2307 2308 -1323 0
-4055 2306 0
-4055 -2307 0
-4055 -2308 0
-4055 1323 0
4056 -2228 2229 2230 -1359 0
-4056 2228 0
-4056 -2229 0
-4056 -2230 0
-4056 1359 0
4057 -2232 2233 -1339 0
-4057 2232 0
-4057 -2233 0
-4057 1339 0
4058 -2247 2248 -1315 0
-4058 2247 0
-4058 -2248 0
-4058 1315 0
4059 -2250 2251 2252 -1297 0
-4059 2250 0
-4059 -2251 0
-4059 -2252 0
-4059 1297 0
4060 -2258 2259 -1345 0
-4060 2258 0
-4060 -2259 0
-4060 1345 0
4061 -2329 2330 2331 -1267 0
-4061 2329 0
-4061 -2330 0
-4061 -2331 0
-4061 1267 0
4062 -2317 2318 2319 -1397 0
-4062 2317 0
-4062 -2318 0
-4062 -2319 0
-4062 1397 0
4063 -2283 2284 2285 -1335 0
-4063 2283 0
-4063 -2284 0
-4063 -2285 0
-4063 1335 0
4064 -2276 2277 2278 -1351 0
-4064 2276 0
-4064 -2277 0
-4064 -2278 0
-4064 1351 0
4065 -2098 2099 -1319 0
-4065 2098 0
-4065 -2099 0
-4065 1319 0
4066 -2094 2095 2096 -1283 0
-4066 2094 0
-4066 -2095 0
-4066 -2096 0
-4066 1283 0
4067 -2101 2102 -1271 0
-4067 2101 0
-4067 -2102 0
-4067 1271 0
4068 -2107 2108 2109 -1275 0
-4068 2107 0
-4068 -2108 0
-4068 -2109 0
-4068 1275 0
4069 -2115 2116 -1305 0
-4069 2115 0
-4069 -2116 0
-4069 1305 0
4070 -2447 2225 2226 -1139 0
-4070 2447 0
-4070 -2225 0
-4070 -2226 0
-4070 1139 0
4071 -2403 749 2293 -1197 0
-4071 2403 0
-4071 -749 0
-4071 -2293 0
-4071 1197 0
4072 -2401 711 2176 -1251 0
-4072 2401 0
-4072 -711 0
-4072 -2176 0
-4072 1251 0
4073 -2407 1071 2140 -1201 0
-4073 2407 0
-4073 -1071 0
-4073 -2140 0
-4073 1201 0
4074 -2449 573 2285 -1195 0
-4074 2449 0
-4074 -573 0
-4074 -2285 0
-4074 1195 0
4075 -2411 2146 2147 -1223 0
-4075 2411 0
-4075 -2146 0
-4075 -2147 0
-4075 1223 0
4076 -2415 997 2308 -1183 0
-4076 2415 0
-4076 -997 0
-4076 -2308 0
-4076 1183 0
4077 -2419 623 2113 -1147 0
-4077 2419 0
-4077 -623 0
-4077 -2113 0
-4077 1147 0
4078 -2417 685 2327 -1169 0
-4078 2417 0
-4078 -685 0
-4078 -2327 0
-4078 1169 0
4079 -2425 705 2267 -1237 0
-4079 2425 0
-4079 -705 0
-4079 -2267 0
-4079 1237 0
4080 -2421 981 2216 -1253 0
-4080 2421 0
-4080 -981 0
-4080 -2216 0
-4080 1253 0
4081 -2427 1079 2331 -1127 0
-4081 2427 0
-4081 -1079 0
-4081 -2331 0
-4081 1127 0
4082 -2345 975 2323 -1261 0
-4082 2345 0
-4082 -975 0
-4082 -2323 0
-4082 1261 0
4083 -2439 2193 2194 -1151 0
-4083 2439 0
-4083 -2193 0
-4083 -2194 0
-4083 1151 0
4084 -2357 2218 2219 -1173 0
-4084 2357 0
-4084 -2218 0
-4084 -2219 0
-4084 1173 0
4085 -2441 2241 2242 -1187 0
-4085 2441 0
-4085 -2241 0
-4085 -2242 0
-4085 1187 0
4086 -2375 1033 2319 -1257 0
-4086 2375 0
-4086 -1033 0
-4086 -2319 0
-4086 1257 0
4087 -2471 2310 2311 -1159 0
-4087 2471 0
-4087 -2310 0
-4087 -2311 0
-4087 1159 0
4088 -2379 765 2154 -1239 0
-4088 2379 0
-4088 -765 0
-4088 -2154 0
-4088 1239 0
4089 -2433 889 2209 -1225 0
-4089 2433 0
-4089 -889 0
-4089 -2209 0
-4089 1225 0
4090 -2451 1015 2271 -1255 0
-4090 2451 0
-4090 -1015 0
-4090 -2271 0
-4090 1255 0
4091 -2429 2135 2136 -1145 0
-4091 2429 0
-4091 -2135 0
-4091 -2136 0
-4091 1145 0
4092 -2481 929 2109 -1135 0
-4092 2481 0
-4092 -929 0
-4092 -2109 0
-4092 1135 0
4093 -2455 2232 2233 -1199 0
-4093 2455 0
-4093 -2232 0
-4093 -2233 0
-4093 1199 0
4094 -2443 811 2198 -1203 0
-4094 2443 0
-4094 -811 0
-4094 -2198 0
-4094 1203 0
4095 -2445 2098 2099 -1179 0
-4095 2445 0
-4095 -2098 0
-4095 -2099 0
-4095 1179 0
4096 -2457 1117 2278 -1211 0
-4096 2457 0
-4096 -1117 0
-4096 -2278 0
-4096 1211 0
4097 -2459 2171 2172 -1229 0
-4097 2459 0
-4097 -2171 0
-4097 -2172 0
-4097 1229 0
4098 -2453 2129 2130 -1227 0
-4098 2453 0
-4098 -2129 0
-4098 -2130 0
-4098 1227 0
4099 -2461 2211 2212 -1247 0
-4099 2461 0
-4099 -2211 0
-4099 -2212 0
-4099 1247 0
4100 -2467 1063 2304 -1245 0
-4100 2467 0
-4100 -1063 0
-4100 -2304 0
-4100 1245 0
4101 -2463 607 2230 -1219 0
-4101 2463 0
-4101 -607 0
-4101 -2230 0
-4101 1219 0
4102 -2465 1041 2191 -1133 0
-4102 2465 0
-4102 -1041 0
-4102 -2191 0
-4102 1133 0
4103 -2469 883 2144 -1193 0
-4103 2469 0
-4103 -883 0
-4103 -2144 0
-4103 1193 0
4104 -2473 2273 2274 -1181 0
-4104 2473 0
-4104 -2273 0
-4104 -2274 0
-4104 1181 0
4105 -2385 2238 2239 -1213 0
-4105 2385 0
-4105 -2238 0
-4105 -2239 0
-4105 1213 0
4106 -2369 849 2300 -1221 0
-4106 2369 0
-4106 -849 0
-4106 -2300 0
-4106 1221 0
4107 -2477 987 2183 -1171 0
-4107 2477 0
-4107 -987 0
-4107 -2183 0
-4107 1171 0
4108 -2387 2280 2281 -1177 0
-4108 2387 0
-4108 -2280 0
-4108 -2281 0
-4108 1177 0
4109 -2475 921 2096 -1143 0
-4109 2475 0
-4109 -921 0
-4109 -2096 0
-4109 1143 0
4110 -2395 2200 2201 -1207 0
-4110 2395 0
-4110 -2200 0
-4110 -2201 0
-4110 1207 0
4111 -2383 717 2187 -1233 0
-4111 2383 0
-4111 -717 0
-4111 -2187 0
-4111 1233 0
4112 -2479 2115 2116 -1165 0
-4112 2479 0
-4112 -2115 0
-4112 -2116 0
-4112 1165 0
4113 -2351 1111 2289 -1155 0
-4113 2351 0
-4113 -1111 0
-4113 -2289 0
-4113 1155 0
4114 -2341 2343 3620 0
-4114 2341 0
-4114 -2343 0
-4114 -3620 0
4115 -2347 1105 2205 -1235 0
-4115 2347 0
-4115 -1105 0
-4115 -2205 0
-4115 1235 0
4116 -2355 2156 2157 -1149 0
-4116 2355 0
-4116 -2156 0
-4116 -2157 0
-4116 1149 0
4117 -2353 2247 2248 -1175 0
-4117 2353 0
-4117 -2247 0
-4117 -2248 0
-4117 1175 0
4118 -2349 2126 2127 -1231 0
-4118 2349 0
-4118 -2126 0
-4118 -2127 0
-4118 1231 0
4119 -2391 601 2165 -1209 0
-4119 2391 0
-4119 -601 0
-4119 -2165 0
-4119 1209 0
4120 -2389 823 2256 -1153 0
-4120 2389 0
-4120 -823 0
-4120 -2256 0
-4120 1153 0
4121 -2405 2244 2245 -1167 0
-4121 2405 0
-4121 -2244 0
-4121 -2245 0
-4121 1167 0
4122 -2409 783 2161 -1249 0
-4122 2409 0
-4122 -783 0
-4122 -2161 0
-4122 1249 0
4123 -2413 2101 2102 -1131 0
-4123 2413 0
-4123 -2101 0
-4123 -2102 0
-4123 1131 0
4124 -2363 2178 2179 -1189 0
-4124 2363 0
-4124 -2178 0
-4124 -2179 0
-4124 1189 0
4125 -2359 2132 2133 -1241 0
-4125 2359 0
-4125 -2132 0
-4125 -2133 0
-4125 1241 0
4126 -2437 963 2263 -1259 0
-4126 2437 0
-4126 -963 0
-4126 -2263 0
-4126 1259 0
4127 -2361 2258 2259 -1205 0
-4127 2361 0
-4127 -2258 0
-4127 -2259 0
-4127 1205 0
4128 -2365 855 2315 -1137 0
-4128 2365 0
-4128 -855 0
-4128 -2315 0
-4128 1137 0
4129 -2423 2235 2236 -1161 0
-4129 2423 0
-4129 -2235 0
-4129 -2236 0
-4129 1161 0
4130 -2381 817 2339 -1243 0
-4130 2381 0
-4130 -817 0
-4130 -2339 0
-4130 1243 0
4131 -2377 743 2124 -1191 0
-4131 2377 0
-4131 -743 0
-4131 -2124 0
-4131 1191 0
4132 -2367 2295 2296 -1125 0
-4132 2367 0
-4132 -2295 0
-4132 -2296 0
-4132 1125 0
4133 -2393 2104 2105 -1129 0
-4133 2393 0
-4133 -2104 0
-4133 -2105 0
-4133 1129 0
4134 -2431 955 2120 -1217 0
-4134 2431 0
-4134 -955 0
-4134 -2120 0
-4134 1217 0
4135 -2371 661 2169 -1141 0
-4135 2371 0
-4135 -661 0
-4135 -2169 0
-4135 1141 0
4136 -2373 863 2335 -1163 0
-4136 2373 0
-4136 -863 0
-4136 -2335 0
-4136 1163 0
4137 -2435 789 2223 -1215 0
-4137 2435 0
-4137 -789 0
-4137 -2223 0
-4137 1215 0
4138 -2397 2149 2150 -1185 0
-4138 2397 0
-4138 -2149 0
-4138 -2150 0
-4138 1185 0
4139 -2399 655 2252 -1157 0
-4139 2399 0
-4139 -655 0
-4139 -2252 0
-4139 1157 0
4140 -2461 2211 2212 -1387 0
-4140 2461 0
-4140 -2211 0
-4140 -2212 0
-4140 1387 0
4141 -2465 1041 2191 -1273 0
-4141 2465 0
-4141 -1041 0
-4141 -2191 0
-4141 1273 0
4142 -2415 997 2308 -1323 0
-4142 2415 0
-4142 -997 0
-4142 -2308 0
-4142 1323 0
4143 -2421 981 2216 -1393 0
-4143 2421 0
-4143 -981 0
-4143 -2216 0
-4143 1393 0
4144 -2417 685 2327 -1309 0
-4144 2417 0
-4144 -685 0
-4144 -2327 0
-4144 1309 0
4145 -2427 1079 2331 -1267 0
-4145 2427 0
-4145 -1079 0
-4145 -2331 0
-4145 1267 0
4146 -2429 2135 2136 -1285 0
-4146 2429 0
-4146 -2135 0
-4146 -2136 0
-4146 1285 0
4147 -2471 2310 2311 -1299 0
-4147 2471 0
-4147 -2310 0
-4147 -2311 0
-4147 1299 0
4148 -2473 2273 2274 -1321 0
-4148 2473 0
-4148 -2273 0
-4148 -2274 0
-4148 1321 0
4149 -2433 889 2209 -1365 0
-4149 2433 0
-4149 -889 0
-4149 -2209 0
-4149 1365 0
4150 -2439 2193 2194 -1291 0
-4150 2439 0
-4150 -2193 0
-4150 -2194 0
-4150 1291 0
4151 -2441 2241 2242 -1327 0
-4151 2441 0
-4151 -2241 0
-4151 -2242 0
-4151 1327 0
4152 -2357 2218 2219 -1313 0
-4152 2357 0
-4152 -2218 0
-4152 -2219 0
-4152 1313 0
4153 -2477 987 2183 -1311 0
-4153 2477 0
-4153 -987 0
-4153 -2183 0
-4153 1311 0
4154 -2481 929 2109 -1275 0
-4154 2481 0
-4154 -929 0
-4154 -2109 0
-4154 1275 0
4155 -2445 2098 2099 -1319 0
-4155 2445 0
-4155 -2098 0
-4155 -2099 0
-4155 1319 0
4156 -2443 811 2198 -1343 0
-4156 2443 0
-4156 -811 0
-4156 -2198 0
-4156 1343 0
4157 -2345 975 2323 -1401 0
-4157 2345 0
-4157 -975 0
-4157 -2323 0
-4157 1401 0
4158 -2455 2232 2233 -1339 0
-4158 2455 0
-4158 -2232 0
-4158 -2233 0
-4158 1339 0
4159 -2453 2129 2130 -1367 0
-4159 2453 0
-4159 -2129 0
-4159 -2130 0
-4159 1367 0
4160 -2457 1117 2278 -1351 0
-4160 2457 0
-4160 -1117 0
-4160 -2278 0
-4160 1351 0
4161 -2353 2247 2248 -1315 0
-4161 2353 0
-4161 -2247 0
-4161 -2248 0
-4161 1315 0
4162 -2363 2178 2179 -1329 0
-4162 2363 0
-4162 -2178 0
-4162 -2179 0
-4162 1329 0
4163 -2467 1063 2304 -1385 0
-4163 2467 0
-4163 -1063 0
-4163 -2304 0
-4163 1385 0
1546 -1545 0
-1546 1545 0
4164 -2463 607 2230 -1359 0
-4164 2463 0
-4164 -607 0
-4164 -2230 0
-4164 1359 0
4165 -2365 855 2315 -1277 0
-4165 2365 0
-4165 -855 0
-4165 -2315 0
-4165 1277 0
4166 -2469 883 2144 -1333 0
-4166 2469 0
-4166 -883 0
-4166 -2144 0
-4166 1333 0
4167 -2369 849 2300 -1361 0
-4167 2369 0
-4167 -849 0
-4167 -2300 0
-4167 1361 0
4168 -2475 921 2096 -1283 0
-4168 2475 0
-4168 -921 0
-4168 -2096 0
-4168 1283 0
4169 -2375 1033 2319 -1397 0
-4169 2375 0
-4169 -1033 0
-4169 -2319 0
-4169 1397 0
4170 -2383 717 2187 -1373 0
-4170 2383 0
-4170 -717 0
-4170 -2187 0
-4170 1373 0
4171 -2479 2115 2116 -1305 0
-4171 2479 0
-4171 -2115 0
-4171 -2116 0
-4171 1305 0
4172 -2395 2200 2201 -1347 0
-4172 2395 0
-4172 -2200 0
-4172 -2201 0
-4172 1347 0
4173 -2385 2238 2239 -1353 0
-4173 2385 0
-4173 -2238 0
-4173 -2239 0
-4173 1353 0
4174 -2347 1105 2205 -1375 0
-4174 2347 0
-4174 -1105 0
-4174 -2205 0
-4174 1375 0
4175 -2389 823 2256 -1293 0
-4175 2389 0
-4175 -823 0
-4175 -2256 0
-4175 1293 0
4176 -2351 1111 2289 -1295 0
-4176 2351 0
-4176 -1111 0
-4176 -2289 0
-4176 1295 0
4177 -2387 2280 2281 -1317 0
-4177 2387 0
-4177 -2280 0
-4177 -2281 0
-4177 1317 0
4178 -2397 2149 2150 -1325 0
-4178 2397 0
-4178 -2149 0
-4178 -2150 0
-4178 1325 0
4179 -2405 2244 2245 -1307 0
-4179 2405 0
-4179 -2244 0
-4179 -2245 0
-4179 1307 0
4180 -2349 2126 2127 -1371 0
-4180 2349 0
-4180 -2126 0
-4180 -2127 0
-4180 1371 0
4181 -2409 783 2161 -1389 0
-4181 2409 0
-4181 -783 0
-4181 -2161 0
-4181 1389 0
4182 -2355 2156 2157 -1289 0
-4182 2355 0
-4182 -2156 0
-4182 -2157 0
-4182 1289 0
4183 -2359 2132 2133 -1381 0
-4183 2359 0
-4183 -2132 0
-4183 -2133 0
-4183 1381 0
4184 -2413 2101 2102 -1271 0
-4184 2413 0
-4184 -2101 0
-4184 -2102 0
-4184 1271 0
4185 -2411 2146 2147 -1363 0
-4185 2411 0
-4185 -2146 0
-4185 -2147 0
-4185 1363 0
4186 -2361 2258 2259 -1345 0
-4186 2361 0
-4186 -2258 0
-4186 -2259 0
-4186 1345 0
4187 -2425 705 2267 -1377 0
-4187 2425 0
-4187 -705 0
-4187 -2267 0
-4187 1377 0
4188 -2367 2295 2296 -1265 0
-4188 2367 0
-4188 -2295 0
-4188 -2296 0
-4188 1265 0
4189 -2419 623 2113 -1287 0
-4189 2419 0
-4189 -623 0
-4189 -2113 0
-4189 1287 0
4190 -2379 765 2154 -1379 0
-4190 2379 0
-4190 -765 0
-4190 -2154 0
-4190 1379 0
4191 -2423 2235 2236 -1301 0
-4191 2423 0
-4191 -2235 0
-4191 -2236 0
-4191 1301 0
4192 -2381 817 2339 -1383 0
-4192 2381 0
-4192 -817 0
-4192 -2339 0
-4192 1383 0
4193 -2377 743 2124 -1331 0
-4193 2377 0
-4193 -743 0
-4193 -2124 0
-4193 1331 0
4194 -2371 661 2169 -1281 0
-4194 2371 0
-4194 -661 0
-4194 -2169 0
-4194 1281 0
4195 -2373 863 2335 -1303 0
-4195 2373 0
-4195 -863 0
-4195 -2335 0
-4195 1303 0
4196 -2431 955 2120 -1357 0
-4196 2431 0
-4196 -955 0
-4196 -2120 0
-4196 1357 0
4197 -2391 601 2165 -1349 0
-4197 2391 0
-4197 -601 0
-4197 -2165 0
-4197 1349 0
4198 -2393 2104 2105 -1269 0
-4198 2393 0
-4198 -2104 0
-4198 -2105 0
-4198 1269 0
4199 -2435 789 2223 -1355 0
-4199 2435 0
-4199 -789 0
-4199 -2223 0
-4199 1355 0
4200 -2437 963 2263 -1399 0
-4200 2437 0
-4200 -963 0
-4200 -2263 0
-4200 1399 0
4201 -2399 655 2252 -1297 0
-4201 2399 0
-4201 -655 0
-4201 -2252 0
-4201 1297 0
4202 -2451 1015 2271 -1395 0
-4202 2451 0
-4202 -1015 0
-4202 -2271 0
-4202 1395 0
4203 -2449 573 2285 -1335 0
-4203 2449 0
-4203 -573 0
-4203 -2285 0
-4203 1335 0
4204 -2447 2225 2226 -1279 0
-4204 2447 0
-4204 -2225 0
-4204 -2226 0
-4204 1279 0
4205 -2403 749 2293 -1337 0
-4205 2403 0
-4205 -749 0
-4205 -2293 0
-4205 1337 0
4206 -2401 711 2176 -1391 0
-4206 2401 0
-4206 -711 0
-4206 -2176 0
-4206 1391 0
4207 -2407 1071 2140 -1341 0
-4207 2407 0
-4207 -1071 0
-4207 -2140 0
-4207 1341 0
4208 -2459 2171 2172 -1369 0
-4208 2459 0
-4208 -2171 0
-4208 -2172 0
-4208 1369 0
4209 -3057 3055 2848 -11 0
-4209 3057 0
-4209 -3055 0
-4209 -2848 0
-4209 11 0
4210 -2628 2626 2850 -3 0
-4210 2628 0
-4210 -2626 0
-4210 -2850 0
-4210 3 0
1454 -1453 0
-1454 1453 0
4211 -2915 2917 2854 -7 0
-4211 2915 0
-4211 -2917 0
-4211 -2854 0
-4211 7 0
4212 -2923 297 2854 -7 0
-4212 2923 0
-4212 -297 0
-4212 -2854 0
-4212 7 0
4213 -3063 437 2848 -11 0
-4213 3063 0
-4213 -437 0
-4213 -2848 0
-4213 11 0
4214 -2639 25 2850 -3 0
-4214 2639 0
-4214 -25 0
-4214 -2850 0
-4214 3 0
1424 -1423 0
-1424 1423 0
1438 -1437 0
-1438 1437 0
4215 -2925 299 2854 -7 0
-4215 2925 0
-4215 -299 0
-4215 -2854 0
-4215 7 0
4216 -3065 439 2848 -11 0
-4216 3065 0
-4216 -439 0
-4216 -2848 0
-4216 11 0
4217 -2643 29 2850 -3 0
-4217 2643 0
-4217 -29 0
-4217 -2850 0
-4217 3 0
4218 -3069 443 2848 -11 0
-4218 3069 0
-4218 -443 0
-4218 -2848 0
-4218 11 0
4219 -2929 303 2854 -7 0
-4219 2929 0
-4219 -303 0
-4219 -2854 0
-4219 7 0
1444 -1443 0
-1444 1443 0
4220 -2651 37 2850 -3 0
-4220 2651 0
-4220 -37 0
-4220 -2850 0
-4220 3 0
4221 -3240 635 2136 -1551 0
-4221 3240 0
-4221 -635 0
-4221 -2136 0
-4221 1551 0
1410 -1409 0
-1410 1409 0
4222 -2933 307 2854 -7 0
-4222 2933 0
-4222 -307 0
-4222 -2854 0
-4222 7 0
4223 -2659 45 2850 -3 0
-4223 2659 0
-4223 -45 0
-4223 -2850 0
-4223 3 0
4224 -3073 447 2848 -11 0
-4224 3073 0
-4224 -447 0
-4224 -2848 0
-4224 11 0
4225 -2935 309 2854 -7 0
-4225 2935 0
-4225 -309 0
-4225 -2854 0
-4225 7 0
4226 -3075 449 2848 -11 0
-4226 3075 0
-4226 -449 0
-4226 -2848 0
-4226 11 0
4227 -2663 49 2850 -3 0
-4227 2663 0
-4227 -49 0
-4227 -2850 0
-4227 3 0
1488 -1487 0
-1488 1487 0
4228 -3077 451 2848 -11 0
-4228 3077 0
-4228 -451 0
-4228 -2848 0
-4228 11 0
4229 -2937 311 2854 -7 0
-4229 2937 0
-4229 -311 0
-4229 -2854 0
-4229 7 0
4230 -2667 53 2850 -3 0
-4230 2667 0
-4230 -53 0
-4230 -2850 0
-4230 3 0
1456 -1455 0
-1456 1455 0
4231 -2685 71 2850 -3 0
-4231 2685 0
-4231 -71 0
-4231 -2850 0
-4231 3 0
4232 -2947 321 2854 -7 0
-4232 2947 0
-4232 -321 0
-4232 -2854 0
-4232 7 0
1430 -1429 0
-1430 1429 0
4233 -3087 461 2848 -11 0
-4233 3087 0
-4233 -461 0
-4233 -2848 0
-4233 11 0
1508 -1507 0
-1508 1507 0
4234 -3245 641 2311 -1553 0
-4234 3245 0
-4234 -641 0
-4234 -2311 0
-4234 1553 0
4235 -2707 95 2850 -3 0
-4235 2707 0
-4235 -95 0
-4235 -2850 0
-4235 3 0
4236 -2959 333 2854 -7 0
-4236 2959 0
-4236 -333 0
-4236 -2854 0
-4236 7 0
4237 -3099 473 2848 -11 0
-4237 3099 0
-4237 -473 0
-4237 -2848 0
-4237 11 0
4238 -3101 475 2848 -11 0
-4238 3101 0
-4238 -475 0
-4238 -2848 0
-4238 11 0
1478 -1477 0
-1478 1477 0
4239 -2961 335 2854 -7 0
-4239 2961 0
-4239 -335 0
-4239 -2854 0
-4239 7 0
4240 -2711 99 2850 -3 0
-4240 2711 0
-4240 -99 0
-4240 -2850 0
-4240 3 0
1472 -1471 0
-1472 1471 0
4241 -2965 339 2854 -7 0
-4241 2965 0
-4241 -339 0
-4241 -2854 0
-4241 7 0
4242 -2719 107 2850 -3 0
-4242 2719 0
-4242 -107 0
-4242 -2850 0
-4242 3 0
4243 -3105 479 2848 -11 0
-4243 3105 0
-4243 -479 0
-4243 -2848 0
-4243 11 0
1516 -1515 0
-1516 1515 0
4244 -2723 111 2850 -3 0
-4244 2723 0
-4244 -111 0
-4244 -2850 0
-4244 3 0
4245 -2967 341 2854 -7 0
-4245 2967 0
-4245 -341 0
-4245 -2854 0
-4245 7 0
4246 -3107 481 2848 -11 0
-4246 3107 0
-4246 -481 0
-4246 -2848 0
-4246 11 0
4247 -2727 115 2850 -3 0
-4247 2727 0
-4247 -115 0
-4247 -2850 0
-4247 3 0
4248 -3109 483 2848 -11 0
-4248 3109 0
-4248 -483 0
-4248 -2848 0
-4248 11 0
4249 -2969 343 2854 -7 0
-4249 2969 0
-4249 -343 0
-4249 -2854 0
-4249 7 0
1528 -1527 0
-1528 1527 0
1500 -1499 0
-1500 1499 0
4250 -3113 487 2848 -11 0
-4250 3113 0
-4250 -487 0
-4250 -2848 0
-4250 11 0
4251 -2735 123 2850 -3 0
-4251 2735 0
-4251 -123 0
-4251 -2850 0
-4251 3 0
4252 -2973 347 2854 -7 0
-4252 2973 0
-4252 -347 0
-4252 -2854 0
-4252 7 0
4253 -2979 353 2854 -7 0
-4253 2979 0
-4253 -353 0
-4253 -2854 0
-4253 7 0
4254 -3119 493 2848 -11 0
-4254 3119 0
-4254 -493 0
-4254 -2848 0
-4254 11 0
1446 -1445 0
-1446 1445 0
4255 -2747 135 2850 -3 0
-4255 2747 0
-4255 -135 0
-4255 -2850 0
-4255 3 0
4256 -3133 507 2848 -11 0
-4256 3133 0
-4256 -507 0
-4256 -2848 0
-4256 11 0
4257 -2774 163 2850 -3 0
-4257 2774 0
-4257 -163 0
-4257 -2850 0
-4257 3 0
1534 -1533 0
-1534 1533 0
4258 -3426 907 2233 -1567 0
-4258 3426 0
-4258 -907 0
-4258 -2233 0
-4258 1567 0
4259 -2993 367 2854 -7 0
-4259 2993 0
-4259 -367 0
-4259 -2854 0
-4259 7 0
4260 -3145 519 2848 -11 0
-4260 3145 0
-4260 -519 0
-4260 -2848 0
-4260 11 0
4261 -2797 187 2850 -3 0
-4261 2797 0
-4261 -187 0
-4261 -2850 0
-4261 3 0
1448 -1447 0
-1448 1447 0
4262 -3005 379 2854 -7 0
-4262 3005 0
-4262 -379 0
-4262 -2854 0
-4262 7 0
4263 -2801 191 2850 -3 0
-4263 2801 0
-4263 -191 0
-4263 -2850 0
-4263 3 0
4264 -3007 381 2854 -7 0
-4264 3007 0
-4264 -381 0
-4264 -2854 0
-4264 7 0
4265 -3147 521 2848 -11 0
-4265 3147 0
-4265 -521 0
-4265 -2848 0
-4265 11 0
1532 -1531 0
-1532 1531 0
4266 -3149 523 2848 -11 0
-4266 3149 0
-4266 -523 0
-4266 -2848 0
-4266 11 0
1470 -1469 0
-1470 1469 0
4267 -3009 383 2854 -7 0
-4267 3009 0
-4267 -383 0
-4267 -2854 0
-4267 7 0
4268 -2805 195 2850 -3 0
-4268 2805 0
-4268 -195 0
-4268 -2850 0
-4268 3 0
4269 -2809 199 2850 -3 0
-4269 2809 0
-4269 -199 0
-4269 -2850 0
-4269 3 0
4270 -3267 673 2116 -1555 0
-4270 3267 0
-4270 -673 0
-4270 -2116 0
-4270 1555 0
4271 -3011 385 2854 -7 0
-4271 3011 0
-4271 -385 0
-4271 -2854 0
-4271 7 0
4272 -3151 525 2848 -11 0
-4272 3151 0
-4272 -525 0
-4272 -2848 0
-4272 11 0
1536 -1535 0
-1536 1535 0
4273 -3153 527 2848 -11 0
-4273 3153 0
-4273 -527 0
-4273 -2848 0
-4273 11 0
4274 -2813 203 2850 -3 0
-4274 2813 0
-4274 -203 0
-4274 -2850 0
-4274 3 0
1408 -1407 0
-1408 1407 0
4275 -3013 387 2854 -7 0
-4275 3013 0
-4275 -387 0
-4275 -2854 0
-4275 7 0
4276 -3283 695 2102 -1557 0
-4276 3283 0
-4276 -695 0
-4276 -2102 0
-4276 1557 0
1522 -1521 0
-1522 1521 0
4277 -3015 389 2854 -7 0
-4277 3015 0
-4277 -389 0
-4277 -2854 0
-4277 7 0
4278 -3155 529 2848 -11 0
-4278 3155 0
-4278 -529 0
-4278 -2848 0
-4278 11 0
4279 -2817 207 2850 -3 0
-4279 2817 0
-4279 -207 0
-4279 -2850 0
-4279 3 0
4280 -3161 535 2848 -11 0
-4280 3161 0
-4280 -535 0
-4280 -2848 0
-4280 11 0
4281 -3021 395 2854 -7 0
-4281 3021 0
-4281 -395 0
-4281 -2854 0
-4281 7 0
4282 -2829 219 2850 -3 0
-4282 2829 0
-4282 -219 0
-4282 -2850 0
-4282 3 0
1482 -1481 0
-1482 1481 0
4283 -3023 397 2854 -7 0
-4283 3023 0
-4283 -397 0
-4283 -2854 0
-4283 7 0
1436 -1435 0
-1436 1435 0
4284 -3163 537 2848 -11 0
-4284 3163 0
-4284 -537 0
-4284 -2848 0
-4284 11 0
4285 -2833 223 2850 -3 0
-4285 2833 0
-4285 -223 0
-4285 -2850 0
-4285 3 0
1412 -1411 0
-1412 1411 0
4286 -3167 541 2848 -11 0
-4286 3167 0
-4286 -541 0
-4286 -2848 0
-4286 11 0
4287 -2841 231 2850 -3 0
-4287 2841 0
-4287 -231 0
-4287 -2850 0
-4287 3 0
4288 -3027 401 2854 -7 0
-4288 3027 0
-4288 -401 0
-4288 -2854 0
-4288 7 0
1540 -1539 0
-1540 1539 0
4289 -2860 239 2850 -3 0
-4289 2860 0
-4289 -239 0
-4289 -2850 0
-4289 3 0
4290 -3170 545 2848 -11 0
-4290 3170 0
-4290 -545 0
-4290 -2848 0
-4290 11 0
4291 -3030 405 2854 -7 0
-4291 3030 0
-4291 -405 0
-4291 -2854 0
-4291 7 0
4292 -3354 799 2194 -1603 0
-4292 3354 0
-4292 -799 0
-4292 -2194 0
-4292 1603 0
4293 -3558 1101 2105 -1589 0
-4293 3558 0
-4293 -1101 0
-4293 -2105 0
-4293 1589 0
1414 -1413 0
-1414 1413 0
4294 -3176 551 2848 -11 0
-4294 3176 0
-4294 -551 0
-4294 -2848 0
-4294 11 0
4295 -2872 251 2850 -3 0
-4295 2872 0
-4295 -251 0
-4295 -2850 0
-4295 3 0
4296 -3036 411 2854 -7 0
-4296 3036 0
-4296 -411 0
-4296 -2854 0
-4296 7 0
4297 -3038 413 2854 -7 0
-4297 3038 0
-4297 -413 0
-4297 -2854 0
-4297 7 0
1442 -1441 0
-1442 1441 0
4298 -3354 799 2194 -1563 0
-4298 3354 0
-4298 -799 0
-4298 -2194 0
-4298 1563 0
4299 -3178 553 2848 -11 0
-4299 3178 0
-4299 -553 0
-4299 -2848 0
-4299 11 0
4300 -2876 255 2850 -3 0
-4300 2876 0
-4300 -255 0
-4300 -2850 0
-4300 3 0
4301 -2884 263 2850 -3 0
-4301 2884 0
-4301 -263 0
-4301 -2850 0
-4301 3 0
4302 -3182 557 2848 -11 0
-4302 3182 0
-4302 -557 0
-4302 -2848 0
-4302 11 0
4303 -3042 417 2854 -7 0
-4303 3042 0
-4303 -417 0
-4303 -2854 0
-4303 7 0
1530 -1529 0
-1530 1529 0
4304 -2326 2327 -1619 0
-4304 2326 0
-4304 -2327 0
-4304 1619 0
4305 -3044 419 2854 -7 0
-4305 3044 0
-4305 -419 0
-4305 -2854 0
-4305 7 0
4306 -2888 267 2850 -3 0
-4306 2888 0
-4306 -267 0
-4306 -2850 0
-4306 3 0
1434 -1433 0
-1434 1433 0
4307 -3184 559 2848 -11 0
-4307 3184 0
-4307 -559 0
-4307 -2848 0
-4307 11 0
4308 -2334 2335 -1613 0
-4308 2334 0
-4308 -2335 0
-4308 1613 0
1490 -1489 0
-1490 1489 0
4309 -3186 561 2848 -11 0
-4309 3186 0
-4309 -561 0
-4309 -2848 0
-4309 11 0
4310 -2892 271 2850 -3 0
-4310 2892 0
-4310 -271 0
-4310 -2850 0
-4310 3 0
4311 -3046 421 2854 -7 0
-4311 3046 0
-4311 -421 0
-4311 -2854 0
-4311 7 0
1480 -1479 0
-1480 1479 0
4312 -3188 563 2848 -11 0
-4312 3188 0
-4312 -563 0
-4312 -2848 0
-4312 11 0
4313 -2896 275 2850 -3 0
-4313 2896 0
-4313 -275 0
-4313 -2850 0
-4313 3 0
4314 -3470 971 2245 -1577 0
-4314 3470 0
-4314 -971 0
-4314 -2245 0
-4314 1577 0
4315 -3048 423 2854 -7 0
-4315 3048 0
-4315 -423 0
-4315 -2854 0
-4315 7 0
4316 -3470 971 2245 -1617 0
-4316 3470 0
-4316 -971 0
-4316 -2245 0
-4316 1617 0
4317 -2900 279 2850 -3 0
-4317 2900 0
-4317 -279 0
-4317 -2850 0
-4317 3 0
1514 -1513 0
-1514 1513 0
4318 -3050 425 2854 -7 0
-4318 3050 0
-4318 -425 0
-4318 -2854 0
-4318 7 0
4319 -3190 565 2848 -11 0
-4319 3190 0
-4319 -565 0
-4319 -2848 0
-4319 11 0
4320 -3192 567 2848 -11 0
-4320 3192 0
-4320 -567 0
-4320 -2848 0
-4320 11 0
4321 -2904 283 2850 -3 0
-4321 2904 0
-4321 -283 0
-4321 -2850 0
-4321 3 0
4322 -3052 427 2854 -7 0
-4322 3052 0
-4322 -427 0
-4322 -2854 0
-4322 7 0
1538 -1537 0
-1538 1537 0
4323 -2277 2278 -1653 0
-4323 2277 0
-4323 -2278 0
-4323 1653 0
4324 -2229 2230 -1659 0
-4324 2229 0
-4324 -2230 0
-4324 1659 0
4325 -2164 2165 -1651 0
-4325 2164 0
-4325 -2165 0
-4325 1651 0
4326 -3245 641 2311 -1611 0
-4326 3245 0
-4326 -641 0
-4326 -2311 0
-4326 1611 0
4327 -2204 2205 -1667 0
-4327 2204 0
-4327 -2205 0
-4327 1667 0
4328 -3426 907 2233 -1641 0
-4328 3426 0
-4328 -907 0
-4328 -2233 0
-4328 1641 0
4329 -3267 673 2116 -1615 0
-4329 3267 0
-4329 -673 0
-4329 -2116 0
-4329 1615 0
1134 -1133 0
-1134 1133 0
4330 -3167 541 2848 -1123 0
-4330 3167 0
-4330 -541 0
-4330 -2848 0
-4330 1123 0
4331 -2841 231 2850 -1541 0
-4331 2841 0
-4331 -231 0
-4331 -2850 0
-4331 1541 0
4332 -3027 401 2854 -1545 0
-4332 3027 0
-4332 -401 0
-4332 -2854 0
-4332 1545 0
4333 -3063 437 2848 -1123 0
-4333 3063 0
-4333 -437 0
-4333 -2848 0
-4333 1123 0
1146 -1145 0
-1146 1145 0
4334 -2923 297 2854 -1545 0
-4334 2923 0
-4334 -297 0
-4334 -2854 0
-4334 1545 0
4335 -2639 25 2850 -1541 0
-4335 2639 0
-4335 -25 0
-4335 -2850 0
-4335 1541 0
4336 -2947 321 2854 -1545 0
-4336 2947 0
-4336 -321 0
-4336 -2854 0
-4336 1545 0
4337 -3087 461 2848 -1123 0
-4337 3087 0
-4337 -461 0
-4337 -2848 0
-4337 1123 0
4338 -2685 71 2850 -1541 0
-4338 2685 0
-4338 -71 0
-4338 -2850 0
-4338 1541 0
1152 -1151 0
-1152 1151 0
4339 -3184 559 2848 -1123 0
-4339 3184 0
-4339 -559 0
-4339 -2848 0
-4339 1123 0
4340 -3044 419 2854 -1545 0
-4340 3044 0
-4340 -419 0
-4340 -2854 0
-4340 1545 0
4341 -2888 267 2850 -1541 0
-4341 2888 0
-4341 -267 0
-4341 -2850 0
-4341 1541 0
1156 -1155 0
-1156 1155 0
1158 -1157 0
-1158 1157 0
4342 -3163 537 2848 -1123 0
-4342 3163 0
-4342 -537 0
-4342 -2848 0
-4342 1123 0
4343 -2833 223 2850 -1541 0
-4343 2833 0
-4343 -223 0
-4343 -2850 0
-4343 1541 0
4344 -3023 397 2854 -1545 0
-4344 3023 0
-4344 -397 0
-4344 -2854 0
-4344 1545 0
4345 -2643 29 2850 -1541 0
-4345 2643 0
-4345 -29 0
-4345 -2850 0
-4345 1541 0
4346 -2925 299 2854 -1545 0
-4346 2925 0
-4346 -299 0
-4346 -2854 0
-4346 1545 0
1160 -1159 0
-1160 1159 0
4347 -3065 439 2848 -1123 0
-4347 3065 0
-4347 -439 0
-4347 -2848 0
-4347 1123 0
4348 -3354 799 2194 -1693 0
-4348 3354 0
-4348 -799 0
-4348 -2194 0
-4348 1693 0
4349 -3178 553 2848 -1123 0
-4349 3178 0
-4349 -553 0
-4349 -2848 0
-4349 1123 0
1164 -1163 0
-1164 1163 0
4350 -3038 413 2854 -1545 0
-4350 3038 0
-4350 -413 0
-4350 -2854 0
-4350 1545 0
4351 -2876 255 2850 -1541 0
-4351 2876 0
-4351 -255 0
-4351 -2850 0
-4351 1541 0
1166 -1165 0
-1166 1165 0
4352 -2929 303 2854 -1545 0
-4352 2929 0
-4352 -303 0
-4352 -2854 0
-4352 1545 0
4353 -3069 443 2848 -1123 0
-4353 3069 0
-4353 -443 0
-4353 -2848 0
-4353 1123 0
4354 -2651 37 2850 -1541 0
-4354 2651 0
-4354 -37 0
-4354 -2850 0
-4354 1541 0
4355 -2979 353 2854 -1545 0
-4355 2979 0
-4355 -353 0
-4355 -2854 0
-4355 1545 0
4356 -3119 493 2848 -1123 0
-4356 3119 0
-4356 -493 0
-4356 -2848 0
-4356 1123 0
4357 -2747 135 2850 -1541 0
-4357 2747 0
-4357 -135 0
-4357 -2850 0
-4357 1541 0
1168 -1167 0
-1168 1167 0
4358 -3145 519 2848 -1123 0
-4358 3145 0
-4358 -519 0
-4358 -2848 0
-4358 1123 0
4359 -2797 187 2850 -1541 0
-4359 2797 0
-4359 -187 0
-4359 -2850 0
-4359 1541 0
4360 -3005 379 2854 -1545 0
-4360 3005 0
-4360 -379 0
-4360 -2854 0
-4360 1545 0
1170 -1169 0
-1170 1169 0
4361 -2915 2917 2854 -1545 0
-4361 2915 0
-4361 -2917 0
-4361 -2854 0
-4361 1545 0
4362 -3057 3055 2848 -1123 0
-4362 3057 0
-4362 -3055 0
-4362 -2848 0
-4362 1123 0
1176 -1175 0
-1176 1175 0
4363 -2628 2626 2850 -1541 0
-4363 2628 0
-4363 -2626 0
-4363 -2850 0
-4363 1541 0
1178 -1177 0
-1178 1177 0
4364 -2937 311 2854 -1545 0
-4364 2937 0
-4364 -311 0
-4364 -2854 0
-4364 1545 0
4365 -3077 451 2848 -1123 0
-4365 3077 0
-4365 -451 0
-4365 -2848 0
-4365 1123 0
4366 -2667 53 2850 -1541 0
-4366 2667 0
-4366 -53 0
-4366 -2850 0
-4366 1541 0
4367 -3071 445 2848 -1123 0
-4367 3071 0
-4367 -445 0
-4367 -2848 0
-4367 1123 0
4368 -2655 41 2850 -1541 0
-4368 2655 0
-4368 -41 0
-4368 -2850 0
-4368 1541 0
4369 -2326 2327 -1707 0
-4369 2326 0
-4369 -2327 0
-4369 1707 0
4370 -2931 305 2854 -1545 0
-4370 2931 0
-4370 -305 0
-4370 -2854 0
-4370 1545 0
1188 -1187 0
-1188 1187 0
4371 -2805 195 2850 -1541 0
-4371 2805 0
-4371 -195 0
-4371 -2850 0
-4371 1541 0
1192 -1191 0
-1192 1191 0
4372 -3009 383 2854 -1545 0
-4372 3009 0
-4372 -383 0
-4372 -2854 0
-4372 1545 0
4373 -3149 523 2848 -1123 0
-4373 3149 0
-4373 -523 0
-4373 -2848 0
-4373 1123 0
4374 -2965 339 2854 -1545 0
-4374 2965 0
-4374 -339 0
-4374 -2854 0
-4374 1545 0
1194 -1193 0
-1194 1193 0
4375 -3105 479 2848 -1123 0
-4375 3105 0
-4375 -479 0
-4375 -2848 0
-4375 1123 0
4376 -2719 107 2850 -1541 0
-4376 2719 0
-4376 -107 0
-4376 -2850 0
-4376 1541 0
4377 -3095 469 2848 -1123 0
-4377 3095 0
-4377 -469 0
-4377 -2848 0
-4377 1123 0
1198 -1197 0
-1198 1197 0
4378 -2955 329 2854 -1545 0
-4378 2955 0
-4378 -329 0
-4378 -2854 0
-4378 1545 0
4379 -2699 87 2850 -1541 0
-4379 2699 0
-4379 -87 0
-4379 -2850 0
-4379 1541 0
4380 -2334 2335 -1701 0
-4380 2334 0
-4380 -2335 0
-4380 1701 0
1200 -1199 0
-1200 1199 0
4381 -3101 475 2848 -1123 0
-4381 3101 0
-4381 -475 0
-4381 -2848 0
-4381 1123 0
4382 -2961 335 2854 -1545 0
-4382 2961 0
-4382 -335 0
-4382 -2854 0
-4382 1545 0
4383 -2711 99 2850 -1541 0
-4383 2711 0
-4383 -99 0
-4383 -2850 0
-4383 1541 0
4384 -3048 423 2854 -1545 0
-4384 3048 0
-4384 -423 0
-4384 -2854 0
-4384 1545 0
1202 -1201 0
-1202 1201 0
4385 -2896 275 2850 -1541 0
-4385 2896 0
-4385 -275 0
-4385 -2850 0
-4385 1541 0
4386 -3470 971 2245 -1705 0
-4386 3470 0
-4386 -971 0
-4386 -2245 0
-4386 1705 0
4387 -3188 563 2848 -1123 0
-4387 3188 0
-4387 -563 0
-4387 -2848 0
-4387 1123 0
4388 -3021 395 2854 -1545 0
-4388 3021 0
-4388 -395 0
-4388 -2854 0
-4388 1545 0
4389 -3161 535 2848 -1123 0
-4389 3161 0
-4389 -535 0
-4389 -2848 0
-4389 1123 0
4390 -2829 219 2850 -1541 0
-4390 2829 0
-4390 -219 0
-4390 -2850 0
-4390 1541 0
1204 -1203 0
-1204 1203 0
4391 -2935 309 2854 -1545 0
-4391 2935 0
-4391 -309 0
-4391 -2854 0
-4391 1545 0
4392 -2663 49 2850 -1541 0
-4392 2663 0
-4392 -49 0
-4392 -2850 0
-4392 1541 0
4393 -3075 449 2848 -1123 0
-4393 3075 0
-4393 -449 0
-4393 -2848 0
-4393 1123 0
1210 -1209 0
-1210 1209 0
4394 -3186 561 2848 -1123 0
-4394 3186 0
-4394 -561 0
-4394 -2848 0
-4394 1123 0
4395 -3046 421 2854 -1545 0
-4395 3046 0
-4395 -421 0
-4395 -2854 0
-4395 1545 0
4396 -2892 271 2850 -1541 0
-4396 2892 0
-4396 -271 0
-4396 -2850 0
-4396 1541 0
1212 -1211 0
-1212 1211 0
1220 -1219 0
-1220 1219 0
4397 -2277 2278 -1729 0
-4397 2277 0
-4397 -2278 0
-4397 1729 0
4398 -2868 247 2850 -1541 0
-4398 2868 0
-4398 -247 0
-4398 -2850 0
-4398 1541 0
4399 -3034 409 2854 -1545 0
-4399 3034 0
-4399 -409 0
-4399 -2854 0
-4399 1545 0
4400 -3174 549 2848 -1123 0
-4400 3174 0
-4400 -549 0
-4400 -2848 0
-4400 1123 0
4401 -2973 347 2854 -1545 0
-4401 2973 0
-4401 -347 0
-4401 -2854 0
-4401 1545 0
4402 -3113 487 2848 -1123 0
-4402 3113 0
-4402 -487 0
-4402 -2848 0
-4402 1123 0
4403 -2735 123 2850 -1541 0
-4403 2735 0
-4403 -123 0
-4403 -2850 0
-4403 1541 0
1222 -1221 0
-1222 1221 0
4404 -2919 293 2854 -1545 0
-4404 2919 0
-4404 -293 0
-4404 -2854 0
-4404 1545 0
1224 -1223 0
-1224 1223 0
4405 -3059 433 2848 -1123 0
-4405 3059 0
-4405 -433 0
-4405 -2848 0
-4405 1123 0
4406 -2164 2165 -1727 0
-4406 2164 0
-4406 -2165 0
-4406 1727 0
4407 -2229 2230 -1731 0
-4407 2229 0
-4407 -2230 0
-4407 1731 0
4408 -2632 17 2850 -1541 0
-4408 2632 0
-4408 -17 0
-4408 -2850 0
-4408 1541 0
4409 -3099 473 2848 -1123 0
-4409 3099 0
-4409 -473 0
-4409 -2848 0
-4409 1123 0
1230 -1229 0
-1230 1229 0
4410 -2707 95 2850 -1541 0
-4410 2707 0
-4410 -95 0
-4410 -2850 0
-4410 1541 0
4411 -3245 641 2311 -1699 0
-4411 3245 0
-4411 -641 0
-4411 -2311 0
-4411 1699 0
4412 -2959 333 2854 -1545 0
-4412 2959 0
-4412 -333 0
-4412 -2854 0
-4412 1545 0
4413 -2900 279 2850 -1541 0
-4413 2900 0
-4413 -279 0
-4413 -2850 0
-4413 1541 0
4414 -3050 425 2854 -1545 0
-4414 3050 0
-4414 -425 0
-4414 -2854 0
-4414 1545 0
1236 -1235 0
-1236 1235 0
4415 -3190 565 2848 -1123 0
-4415 3190 0
-4415 -565 0
-4415 -2848 0
-4415 1123 0
4416 -3107 481 2848 -1123 0
-4416 3107 0
-4416 -481 0
-4416 -2848 0
-4416 1123 0
1238 -1237 0
-1238 1237 0
4417 -2723 111 2850 -1541 0
-4417 2723 0
-4417 -111 0
-4417 -2850 0
-4417 1541 0
4418 -2967 341 2854 -1545 0
-4418 2967 0
-4418 -341 0
-4418 -2854 0
-4418 1545 0
1244 -1243 0
-1244 1243 0
4419 -2817 207 2850 -1541 0
-4419 2817 0
-4419 -207 0
-4419 -2850 0
-4419 1541 0
4420 -3155 529 2848 -1123 0
-4420 3155 0
-4420 -529 0
-4420 -2848 0
-4420 1123 0
4421 -3015 389 2854 -1545 0
-4421 3015 0
-4421 -389 0
-4421 -2854 0
-4421 1545 0
4422 -3159 533 2848 -1123 0
-4422 3159 0
-4422 -533 0
-4422 -2848 0
-4422 1123 0
4423 -2825 215 2850 -1541 0
-4423 2825 0
-4423 -215 0
-4423 -2850 0
-4423 1541 0
4424 -3019 393 2854 -1545 0
-4424 3019 0
-4424 -393 0
-4424 -2854 0
-4424 1545 0
1246 -1245 0
-1246 1245 0
4425 -2204 2205 -1739 0
-4425 2204 0
-4425 -2205 0
-4425 1739 0
1250 -1249 0
-1250 1249 0
4426 -2727 115 2850 -1541 0
-4426 2727 0
-4426 -115 0
-4426 -2850 0
-4426 1541 0
4427 -3109 483 2848 -1123 0
-4427 3109 0
-4427 -483 0
-4427 -2848 0
-4427 1123 0
4428 -2969 343 2854 -1545 0
-4428 2969 0
-4428 -343 0
-4428 -2854 0
-4428 1545 0
4429 -3182 557 2848 -1123 0
-4429 3182 0
-4429 -557 0
-4429 -2848 0
-4429 1123 0
1252 -1251 0
-1252 1251 0
4430 -2884 263 2850 -1541 0
-4430 2884 0
-4430 -263 0
-4430 -2850 0
-4430 1541 0
4431 -3042 417 2854 -1545 0
-4431 3042 0
-4431 -417 0
-4431 -2854 0
-4431 1545 0
1254 -1253 0
-1254 1253 0
4432 -2801 191 2850 -1541 0
-4432 2801 0
-4432 -191 0
-4432 -2850 0
-4432 1541 0
4433 -3007 381 2854 -1545 0
-4433 3007 0
-4433 -381 0
-4433 -2854 0
-4433 1545 0
4434 -3147 521 2848 -1123 0
-4434 3147 0
-4434 -521 0
-4434 -2848 0
-4434 1123 0
4435 -3133 507 2848 -1123 0
-4435 3133 0
-4435 -507 0
-4435 -2848 0
-4435 1123 0
4436 -2993 367 2854 -1545 0
-4436 2993 0
-4436 -367 0
-4436 -2854 0
-4436 1545 0
4437 -2774 163 2850 -1541 0
-4437 2774 0
-4437 -163 0
-4437 -2850 0
-4437 1541 0
1256 -1255 0
-1256 1255 0
4438 -3426 907 2233 -1721 0
-4438 3426 0
-4438 -907 0
-4438 -2233 0
-4438 1721 0
4439 -3267 673 2116 -1703 0
-4439 3267 0
-4439 -673 0
-4439 -2116 0
-4439 1703 0
4440 -3011 385 2854 -1545 0
-4440 3011 0
-4440 -385 0
-4440 -2854 0
-4440 1545 0
1258 -1257 0
-1258 1257 0
4441 -2809 199 2850 -1541 0
-4441 2809 0
-4441 -199 0
-4441 -2850 0
-4441 1541 0
4442 -3151 525 2848 -1123 0
-4442 3151 0
-4442 -525 0
-4442 -2848 0
-4442 1123 0
4443 -2904 283 2850 -1541 0
-4443 2904 0
-4443 -283 0
-4443 -2850 0
-4443 1541 0
1260 -1259 0
-1260 1259 0
4444 -3052 427 2854 -1545 0
-4444 3052 0
-4444 -427 0
-4444 -2854 0
-4444 1545 0
4445 -3192 567 2848 -1123 0
-4445 3192 0
-4445 -567 0
-4445 -2848 0
-4445 1123 0
4446 -3030 405 2854 -1545 0
-4446 3030 0
-4446 -405 0
-4446 -2854 0
-4446 1545 0
4447 -3170 545 2848 -1123 0
-4447 3170 0
-4447 -545 0
-4447 -2848 0
-4447 1123 0
1262 -1261 0
-1262 1261 0
4448 -2860 239 2850 -1541 0
-4448 2860 0
-4448 -239 0
-4448 -2850 0
-4448 1541 0
4449 -2841 231 2850 -1543 0
-4449 2841 0
-4449 -231 0
-4449 -2850 0
-4449 1543 0
4450 -3167 541 2848 -1263 0
-4450 3167 0
-4450 -541 0
-4450 -2848 0
-4450 1263 0
4451 -3027 401 2854 -1547 0
-4451 3027 0
-4451 -401 0
-4451 -2854 0
-4451 1547 0
1274 -1273 0
-1274 1273 0
4452 -2639 25 2850 -1543 0
-4452 2639 0
-4452 -25 0
-4452 -2850 0
-4452 1543 0
4453 -3063 437 2848 -1263 0
-4453 3063 0
-4453 -437 0
-4453 -2848 0
-4453 1263 0
1286 -1285 0
-1286 1285 0
4454 -2923 297 2854 -1547 0
-4454 2923 0
-4454 -297 0
-4454 -2854 0
-4454 1547 0
4455 -2947 321 2854 -1547 0
-4455 2947 0
-4455 -321 0
-4455 -2854 0
-4455 1547 0
4456 -3087 461 2848 -1263 0
-4456 3087 0
-4456 -461 0
-4456 -2848 0
-4456 1263 0
4457 -2685 71 2850 -1543 0
-4457 2685 0
-4457 -71 0
-4457 -2850 0
-4457 1543 0
1292 -1291 0
-1292 1291 0
4458 -3044 419 2854 -1547 0
-4458 3044 0
-4458 -419 0
-4458 -2854 0
-4458 1547 0
4459 -3184 559 2848 -1263 0
-4459 3184 0
-4459 -559 0
-4459 -2848 0
-4459 1263 0
4460 -2888 267 2850 -1543 0
-4460 2888 0
-4460 -267 0
-4460 -2850 0
-4460 1543 0
1296 -1295 0
-1296 1295 0
4461 -3163 537 2848 -1263 0
-4461 3163 0
-4461 -537 0
-4461 -2848 0
-4461 1263 0
4462 -2833 223 2850 -1543 0
-4462 2833 0
-4462 -223 0
-4462 -2850 0
-4462 1543 0
4463 -3023 397 2854 -1547 0
-4463 3023 0
-4463 -397 0
-4463 -2854 0
-4463 1547 0
1298 -1297 0
-1298 1297 0
4464 -2925 299 2854 -1547 0
-4464 2925 0
-4464 -299 0
-4464 -2854 0
-4464 1547 0
4465 -2643 29 2850 -1543 0
-4465 2643 0
-4465 -29 0
-4465 -2850 0
-4465 1543 0
1300 -1299 0
-1300 1299 0
4466 -3065 439 2848 -1263 0
-4466 3065 0
-4466 -439 0
-4466 -2848 0
-4466 1263 0
4467 -2876 255 2850 -1543 0
-4467 2876 0
-4467 -255 0
-4467 -2850 0
-4467 1543 0
4468 -3178 553 2848 -1263 0
-4468 3178 0
-4468 -553 0
-4468 -2848 0
-4468 1263 0
4469 -3354 799 2194 -1765 0
-4469 3354 0
-4469 -799 0
-4469 -2194 0
-4469 1765 0
4470 -3038 413 2854 -1547 0
-4470 3038 0
-4470 -413 0
-4470 -2854 0
-4470 1547 0
1304 -1303 0
-1304 1303 0
4471 -2929 303 2854 -1547 0
-4471 2929 0
-4471 -303 0
-4471 -2854 0
-4471 1547 0
4472 -3069 443 2848 -1263 0
-4472 3069 0
-4472 -443 0
-4472 -2848 0
-4472 1263 0
4473 -2651 37 2850 -1543 0
-4473 2651 0
-4473 -37 0
-4473 -2850 0
-4473 1543 0
1306 -1305 0
-1306 1305 0
4474 -3119 493 2848 -1263 0
-4474 3119 0
-4474 -493 0
-4474 -2848 0
-4474 1263 0
1308 -1307 0
-1308 1307 0
4475 -2747 135 2850 -1543 0
-4475 2747 0
-4475 -135 0
-4475 -2850 0
-4475 1543 0
4476 -2979 353 2854 -1547 0
-4476 2979 0
-4476 -353 0
-4476 -2854 0
-4476 1547 0
4477 -3005 379 2854 -1547 0
-4477 3005 0
-4477 -379 0
-4477 -2854 0
-4477 1547 0
4478 -3145 519 2848 -1263 0
-4478 3145 0
-4478 -519 0
-4478 -2848 0
-4478 1263 0
1310 -1309 0
-1310 1309 0
4479 -2797 187 2850 -1543 0
-4479 2797 0
-4479 -187 0
-4479 -2850 0
-4479 1543 0
4480 -2915 2917 2854 -1547 0
-4480 2915 0
-4480 -2917 0
-4480 -2854 0
-4480 1547 0
4481 -3057 3055 2848 -1263 0
-4481 3057 0
-4481 -3055 0
-4481 -2848 0
-4481 1263 0
1316 -1315 0
-1316 1315 0
4482 -2628 2626 2850 -1543 0
-4482 2628 0
-4482 -2626 0
-4482 -2850 0
-4482 1543 0
4483 -2667 53 2850 -1543 0
-4483 2667 0
-4483 -53 0
-4483 -2850 0
-4483 1543 0
4484 -3077 451 2848 -1263 0
-4484 3077 0
-4484 -451 0
-4484 -2848 0
-4484 1263 0
4485 -2937 311 2854 -1547 0
-4485 2937 0
-4485 -311 0
-4485 -2854 0
-4485 1547 0
1318 -1317 0
-1318 1317 0
1328 -1327 0
-1328 1327 0
4486 -2655 41 2850 -1543 0
-4486 2655 0
-4486 -41 0
-4486 -2850 0
-4486 1543 0
4487 -2326 2327 -1779 0
-4487 2326 0
-4487 -2327 0
-4487 1779 0
4488 -3071 445 2848 -1263 0
-4488 3071 0
-4488 -445 0
-4488 -2848 0
-4488 1263 0
4489 -2931 305 2854 -1547 0
-4489 2931 0
-4489 -305 0
-4489 -2854 0
-4489 1547 0
4490 -2805 195 2850 -1543 0
-4490 2805 0
-4490 -195 0
-4490 -2850 0
-4490 1543 0
4491 -3009 383 2854 -1547 0
-4491 3009 0
-4491 -383 0
-4491 -2854 0
-4491 1547 0
1332 -1331 0
-1332 1331 0
4492 -3149 523 2848 -1263 0
-4492 3149 0
-4492 -523 0
-4492 -2848 0
-4492 1263 0
4493 -2965 339 2854 -1547 0
-4493 2965 0
-4493 -339 0
-4493 -2854 0
-4493 1547 0
4494 -3105 479 2848 -1263 0
-4494 3105 0
-4494 -479 0
-4494 -2848 0
-4494 1263 0
1334 -1333 0
-1334 1333 0
4495 -2719 107 2850 -1543 0
-4495 2719 0
-4495 -107 0
-4495 -2850 0
-4495 1543 0
4496 -2699 87 2850 -1543 0
-4496 2699 0
-4496 -87 0
-4496 -2850 0
-4496 1543 0
4497 -2955 329 2854 -1547 0
-4497 2955 0
-4497 -329 0
-4497 -2854 0
-4497 1547 0
4498 -3095 469 2848 -1263 0
-4498 3095 0
-4498 -469 0
-4498 -2848 0
-4498 1263 0
4499 -2334 2335 -1773 0
-4499 2334 0
-4499 -2335 0
-4499 1773 0
1338 -1337 0
-1338 1337 0
1340 -1339 0
-1340 1339 0
4500 -2711 99 2850 -1543 0
-4500 2711 0
-4500 -99 0
-4500 -2850 0
-4500 1543 0
4501 -2961 335 2854 -1547 0
-4501 2961 0
-4501 -335 0
-4501 -2854 0
-4501 1547 0
4502 -3101 475 2848 -1263 0
-4502 3101 0
-4502 -475 0
-4502 -2848 0
-4502 1263 0
1342 -1341 0
-1342 1341 0
4503 -3048 423 2854 -1547 0
-4503 3048 0
-4503 -423 0
-4503 -2854 0
-4503 1547 0
4504 -3470 971 2245 -1777 0
-4504 3470 0
-4504 -971 0
-4504 -2245 0
-4504 1777 0
4505 -2896 275 2850 -1543 0
-4505 2896 0
-4505 -275 0
-4505 -2850 0
-4505 1543 0
4506 -3188 563 2848 -1263 0
-4506 3188 0
-4506 -563 0
-4506 -2848 0
-4506 1263 0
4507 -3161 535 2848 -1263 0
-4507 3161 0
-4507 -535 0
-4507 -2848 0
-4507 1263 0
1344 -1343 0
-1344 1343 0
4508 -2829 219 2850 -1543 0
-4508 2829 0
-4508 -219 0
-4508 -2850 0
-4508 1543 0
4509 -3021 395 2854 -1547 0
-4509 3021 0
-4509 -395 0
-4509 -2854 0
-4509 1547 0
4510 -2935 309 2854 -1547 0
-4510 2935 0
-4510 -309 0
-4510 -2854 0
-4510 1547 0
4511 -2663 49 2850 -1543 0
-4511 2663 0
-4511 -49 0
-4511 -2850 0
-4511 1543 0
1350 -1349 0
-1350 1349 0
4512 -3075 449 2848 -1263 0
-4512 3075 0
-4512 -449 0
-4512 -2848 0
-4512 1263 0
4513 -3186 561 2848 -1263 0
-4513 3186 0
-4513 -561 0
-4513 -2848 0
-4513 1263 0
4514 -3046 421 2854 -1547 0
-4514 3046 0
-4514 -421 0
-4514 -2854 0
-4514 1547 0
1352 -1351 0
-1352 1351 0
4515 -2892 271 2850 -1543 0
-4515 2892 0
-4515 -271 0
-4515 -2850 0
-4515 1543 0
1360 -1359 0
-1360 1359 0
4516 -2868 247 2850 -1543 0
-4516 2868 0
-4516 -247 0
-4516 -2850 0
-4516 1543 0
4517 -2277 2278 -1801 0
-4517 2277 0
-4517 -2278 0
-4517 1801 0
4518 -3034 409 2854 -1547 0
-4518 3034 0
-4518 -409 0
-4518 -2854 0
-4518 1547 0
4519 -3174 549 2848 -1263 0
-4519 3174 0
-4519 -549 0
-4519 -2848 0
-4519 1263 0
4520 -3113 487 2848 -1263 0
-4520 3113 0
-4520 -487 0
-4520 -2848 0
-4520 1263 0
4521 -2973 347 2854 -1547 0
-4521 2973 0
-4521 -347 0
-4521 -2854 0
-4521 1547 0
1362 -1361 0
-1362 1361 0
4522 -2735 123 2850 -1543 0
-4522 2735 0
-4522 -123 0
-4522 -2850 0
-4522 1543 0
4523 -2164 2165 -1799 0
-4523 2164 0
-4523 -2165 0
-4523 1799 0
4524 -2919 293 2854 -1547 0
-4524 2919 0
-4524 -293 0
-4524 -2854 0
-4524 1547 0
1364 -1363 0
-1364 1363 0
4525 -2229 2230 -1803 0
-4525 2229 0
-4525 -2230 0
-4525 1803 0
4526 -3059 433 2848 -1263 0
-4526 3059 0
-4526 -433 0
-4526 -2848 0
-4526 1263 0
4527 -2632 17 2850 -1543 0
-4527 2632 0
-4527 -17 0
-4527 -2850 0
-4527 1543 0
4528 -2707 95 2850 -1543 0
-4528 2707 0
-4528 -95 0
-4528 -2850 0
-4528 1543 0
4529 -3245 641 2311 -1771 0
-4529 3245 0
-4529 -641 0
-4529 -2311 0
-4529 1771 0
4530 -3099 473 2848 -1263 0
-4530 3099 0
-4530 -473 0
-4530 -2848 0
-4530 1263 0
1370 -1369 0
-1370 1369 0
4531 -2959 333 2854 -1547 0
-4531 2959 0
-4531 -333 0
-4531 -2854 0
-4531 1547 0
4532 -2900 279 2850 -1543 0
-4532 2900 0
-4532 -279 0
-4532 -2850 0
-4532 1543 0
1376 -1375 0
-1376 1375 0
4533 -3050 425 2854 -1547 0
-4533 3050 0
-4533 -425 0
-4533 -2854 0
-4533 1547 0
4534 -3190 565 2848 -1263 0
-4534 3190 0
-4534 -565 0
-4534 -2848 0
-4534 1263 0
4535 -2723 111 2850 -1543 0
-4535 2723 0
-4535 -111 0
-4535 -2850 0
-4535 1543 0
4536 -3107 481 2848 -1263 0
-4536 3107 0
-4536 -481 0
-4536 -2848 0
-4536 1263 0
1378 -1377 0
-1378 1377 0
4537 -2967 341 2854 -1547 0
-4537 2967 0
-4537 -341 0
-4537 -2854 0
-4537 1547 0
4538 -3155 529 2848 -1263 0
-4538 3155 0
-4538 -529 0
-4538 -2848 0
-4538 1263 0
4539 -2817 207 2850 -1543 0
-4539 2817 0
-4539 -207 0
-4539 -2850 0
-4539 1543 0
4540 -3015 389 2854 -1547 0
-4540 3015 0
-4540 -389 0
-4540 -2854 0
-4540 1547 0
1384 -1383 0
-1384 1383 0
4541 -3159 533 2848 -1263 0
-4541 3159 0
-4541 -533 0
-4541 -2848 0
-4541 1263 0
4542 -3019 393 2854 -1547 0
-4542 3019 0
-4542 -393 0
-4542 -2854 0
-4542 1547 0
4543 -2204 2205 -1811 0
-4543 2204 0
-4543 -2205 0
-4543 1811 0
1386 -1385 0
-1386 1385 0
4544 -2825 215 2850 -1543 0
-4544 2825 0
-4544 -215 0
-4544 -2850 0
-4544 1543 0
4545 -2727 115 2850 -1543 0
-4545 2727 0
-4545 -115 0
-4545 -2850 0
-4545 1543 0
4546 -2969 343 2854 -1547 0
-4546 2969 0
-4546 -343 0
-4546 -2854 0
-4546 1547 0
4547 -3109 483 2848 -1263 0
-4547 3109 0
-4547 -483 0
-4547 -2848 0
-4547 1263 0
1390 -1389 0
-1390 1389 0
4548 -3182 557 2848 -1263 0
-4548 3182 0
-4548 -557 0
-4548 -2848 0
-4548 1263 0
1392 -1391 0
-1392 1391 0
4549 -2884 263 2850 -1543 0
-4549 2884 0
-4549 -263 0
-4549 -2850 0
-4549 1543 0
4550 -3042 417 2854 -1547 0
-4550 3042 0
-4550 -417 0
-4550 -2854 0
-4550 1547 0
1394 -1393 0
-1394 1393 0
4551 -2801 191 2850 -1543 0
-4551 2801 0
-4551 -191 0
-4551 -2850 0
-4551 1543 0
4552 -3147 521 2848 -1263 0
-4552 3147 0
-4552 -521 0
-4552 -2848 0
-4552 1263 0
4553 -3007 381 2854 -1547 0
-4553 3007 0
-4553 -381 0
-4553 -2854 0
-4553 1547 0
4554 -2774 163 2850 -1543 0
-4554 2774 0
-4554 -163 0
-4554 -2850 0
-4554 1543 0
1396 -1395 0
-1396 1395 0
4555 -3133 507 2848 -1263 0
-4555 3133 0
-4555 -507 0
-4555 -2848 0
-4555 1263 0
4556 -3426 907 2233 -1793 0
-4556 3426 0
-4556 -907 0
-4556 -2233 0
-4556 1793 0
4557 -2993 367 2854 -1547 0
-4557 2993 0
-4557 -367 0
-4557 -2854 0
-4557 1547 0
1398 -1397 0
-1398 1397 0
4558 -2809 199 2850 -1543 0
-4558 2809 0
-4558 -199 0
-4558 -2850 0
-4558 1543 0
4559 -3267 673 2116 -1775 0
-4559 3267 0
-4559 -673 0
-4559 -2116 0
-4559 1775 0
4560 -3151 525 2848 -1263 0
-4560 3151 0
-4560 -525 0
-4560 -2848 0
-4560 1263 0
4561 -3011 385 2854 -1547 0
-4561 3011 0
-4561 -385 0
-4561 -2854 0
-4561 1547 0
4562 -3052 427 2854 -1547 0
-4562 3052 0
-4562 -427 0
-4562 -2854 0
-4562 1547 0
4563 -3192 567 2848 -1263 0
-4563 3192 0
-4563 -567 0
-4563 -2848 0
-4563 1263 0
4564 -2904 283 2850 -1543 0
-4564 2904 0
-4564 -283 0
-4564 -2850 0
-4564 1543 0
1400 -1399 0
-1400 1399 0
4565 -3030 405 2854 -1547 0
-4565 3030 0
-4565 -405 0
-4565 -2854 0
-4565 1547 0
1402 -1401 0
-1402 1401 0
4566 -3170 545 2848 -1263 0
-4566 3170 0
-4566 -545 0
-4566 -2848 0
-4566 1263 0
4567 -2860 239 2850 -1543 0
-4567 2860 0
-4567 -239 0
-4567 -2850 0
-4567 1543 0
4568 -3079 453 2848 -11 0
-4568 3079 0
-4568 -453 0
-4568 -2848 0
-4568 11 0
4569 -2939 313 2854 -7 0
-4569 2939 0
-4569 -313 0
-4569 -2854 0
-4569 7 0
4570 -2175 2176 -1629 0
-4570 2175 0
-4570 -2176 0
-4570 1629 0
4571 -2671 57 2850 -3 0
-4571 2671 0
-4571 -57 0
-4571 -2850 0
-4571 3 0
1474 -1473 0
-1474 1473 0
4572 -2266 2267 -1571 0
-4572 2266 0
-4572 -2267 0
-4572 1571 0
1466 -1465 0
-1466 1465 0
4573 -2655 41 2850 -3 0
-4573 2655 0
-4573 -41 0
-4573 -2850 0
-4573 3 0
4574 -3071 445 2848 -11 0
-4574 3071 0
-4574 -445 0
-4574 -2848 0
-4574 11 0
4575 -2931 305 2854 -7 0
-4575 2931 0
-4575 -305 0
-4575 -2854 0
-4575 7 0
4576 -2326 2327 -1581 0
-4576 2326 0
-4576 -2327 0
-4576 1581 0
4577 -2949 323 2854 -7 0
-4577 2949 0
-4577 -323 0
-4577 -2854 0
-4577 7 0
4578 -3089 463 2848 -11 0
-4578 3089 0
-4578 -463 0
-4578 -2848 0
-4578 11 0
4579 -2689 75 2850 -3 0
-4579 2689 0
-4579 -75 0
-4579 -2850 0
-4579 3 0
4580 -2197 2198 -1593 0
-4580 2197 0
-4580 -2198 0
-4580 1593 0
1464 -1463 0
-1464 1463 0
4581 -2175 2176 -1677 0
-4581 2175 0
-4581 -2176 0
-4581 1677 0
4582 -2623 9 3620 0
-4582 2623 0
-4582 -9 0
-4582 -3620 0
4583 -2266 2267 -1669 0
-4583 2266 0
-4583 -2267 0
-4583 1669 0
4584 -3095 469 2848 -11 0
-4584 3095 0
-4584 -469 0
-4584 -2848 0
-4584 11 0
4585 -2699 87 2850 -3 0
-4585 2699 0
-4585 -87 0
-4585 -2850 0
-4585 3 0
4586 -2334 2335 -1627 0
-4586 2334 0
-4586 -2335 0
-4586 1627 0
1476 -1475 0
-1476 1475 0
4587 -2955 329 2854 -7 0
-4587 2955 0
-4587 -329 0
-4587 -2854 0
-4587 7 0
4588 -2743 131 2850 -3 0
-4588 2743 0
-4588 -131 0
-4588 -2850 0
-4588 3 0
1420 -1419 0
-1420 1419 0
4589 -2977 351 2854 -7 0
-4589 2977 0
-4589 -351 0
-4589 -2854 0
-4589 7 0
4590 -3117 491 2848 -11 0
-4590 3117 0
-4590 -491 0
-4590 -2848 0
-4590 11 0
4591 -2262 2263 -1657 0
-4591 2262 0
-4591 -2263 0
-4591 1657 0
4592 -3421 901 2172 -1565 0
-4592 3421 0
-4592 -901 0
-4592 -2172 0
-4592 1565 0
4593 -2751 139 2850 -3 0
-4593 2751 0
-4593 -139 0
-4593 -2850 0
-4593 3 0
4594 -2322 2323 -1605 0
-4594 2322 0
-4594 -2323 0
-4594 1605 0
4595 -2981 355 2854 -7 0
-4595 2981 0
-4595 -355 0
-4595 -2854 0
-4595 7 0
1422 -1421 0
-1422 1421 0
4596 -3121 495 2848 -11 0
-4596 3121 0
-4596 -495 0
-4596 -2848 0
-4596 11 0
1506 -1505 0
-1506 1505 0
4597 -2985 359 2854 -7 0
-4597 2985 0
-4597 -359 0
-4597 -2854 0
-4597 7 0
4598 -3125 499 2848 -11 0
-4598 3125 0
-4598 -499 0
-4598 -2848 0
-4598 11 0
4599 -2758 147 2850 -3 0
-4599 2758 0
-4599 -147 0
-4599 -2850 0
-4599 3 0
4600 -2270 2271 -1579 0
-4600 2270 0
-4600 -2271 0
-4600 1579 0
4601 -3127 501 2848 -11 0
-4601 3127 0
-4601 -501 0
-4601 -2848 0
-4601 11 0
4602 -2190 2191 -1599 0
-4602 2190 0
-4602 -2191 0
-4602 1599 0
4603 -2762 151 2850 -3 0
-4603 2762 0
-4603 -151 0
-4603 -2850 0
-4603 3 0
4604 -2987 361 2854 -7 0
-4604 2987 0
-4604 -361 0
-4604 -2854 0
-4604 7 0
1460 -1459 0
-1460 1459 0
4605 -2318 2319 -1587 0
-4605 2318 0
-4605 -2319 0
-4605 1587 0
4606 -3137 511 2848 -11 0
-4606 3137 0
-4606 -511 0
-4606 -2848 0
-4606 11 0
1450 -1449 0
-1450 1449 0
4607 -2782 171 2850 -3 0
-4607 2782 0
-4607 -171 0
-4607 -2850 0
-4607 3 0
4608 -3360 807 2150 -1837 0
-4608 3360 0
-4608 -807 0
-4608 -2150 0
-4608 1837 0
4609 -2997 371 2854 -7 0
-4609 2997 0
-4609 -371 0
-4609 -2854 0
-4609 7 0
4610 -2139 2140 -1647 0
-4610 2139 0
-4610 -2140 0
-4610 1647 0
4611 -2204 2205 -1655 0
-4611 2204 0
-4611 -2205 0
-4611 1655 0
4612 -3159 533 2848 -11 0
-4612 3159 0
-4612 -533 0
-4612 -2848 0
-4612 11 0
1524 -1523 0
-1524 1523 0
4613 -3019 393 2854 -7 0
-4613 3019 0
-4613 -393 0
-4613 -2854 0
-4613 7 0
4614 -2825 215 2850 -3 0
-4614 2825 0
-4614 -215 0
-4614 -2850 0
-4614 3 0
4615 -3240 635 2136 -1601 0
-4615 3240 0
-4615 -635 0
-4615 -2136 0
-4615 1601 0
4616 -3025 399 2854 -7 0
-4616 3025 0
-4616 -399 0
-4616 -2854 0
-4616 7 0
4617 -3165 539 2848 -11 0
-4617 3165 0
-4617 -539 0
-4617 -2848 0
-4617 11 0
1496 -1495 0
-1496 1495 0
4618 -3509 1029 2274 -1849 0
-4618 3509 0
-4618 -1029 0
-4618 -2274 0
-4618 1849 0
4619 -2837 227 2850 -3 0
-4619 2837 0
-4619 -227 0
-4619 -2850 0
-4619 3 0
4620 -2123 2124 -1633 0
-4620 2123 0
-4620 -2124 0
-4620 1633 0
4621 -3288 701 2281 -1625 0
-4621 3288 0
-4621 -701 0
-4621 -2281 0
-4621 1625 0
4622 -2292 2293 -1639 0
-4622 2292 0
-4622 -2293 0
-4622 1639 0
4623 -3273 681 2242 -1631 0
-4623 3273 0
-4623 -681 0
-4623 -2242 0
-4623 1631 0
4624 -2262 2263 -1685 0
-4624 2262 0
-4624 -2263 0
-4624 1685 0
4625 -3421 901 2172 -1665 0
-4625 3421 0
-4625 -901 0
-4625 -2172 0
-4625 1665 0
4626 -2322 2323 -1687 0
-4626 2322 0
-4626 -2323 0
-4626 1687 0
4627 -2277 2278 -1643 0
-4627 2277 0
-4627 -2278 0
-4627 1643 0
1498 -1497 0
-1498 1497 0
4628 -3174 549 2848 -11 0
-4628 3174 0
-4628 -549 0
-4628 -2848 0
-4628 11 0
4629 -2868 247 2850 -3 0
-4629 2868 0
-4629 -247 0
-4629 -2850 0
-4629 3 0
4630 -3034 409 2854 -7 0
-4630 3034 0
-4630 -409 0
-4630 -2854 0
-4630 7 0
4631 -2318 2319 -1683 0
-4631 2318 0
-4631 -2319 0
-4631 1683 0
4632 -2190 2191 -1597 0
-4632 2190 0
-4632 -2191 0
-4632 1597 0
4633 -2197 2198 -1645 0
-4633 2197 0
-4633 -2198 0
-4633 1645 0
4634 -2303 2304 -1673 0
-4634 2303 0
-4634 -2304 0
-4634 1673 0
4635 -3509 1029 2274 -1867 0
-4635 3509 0
-4635 -1029 0
-4635 -2274 0
-4635 1867 0
4636 -2270 2271 -1681 0
-4636 2270 0
-4636 -2271 0
-4636 1681 0
1132 -1131 0
-1132 1131 0
4637 -3073 447 2848 -1123 0
-4637 3073 0
-4637 -447 0
-4637 -2848 0
-4637 1123 0
4638 -2659 45 2850 -1541 0
-4638 2659 0
-4638 -45 0
-4638 -2850 0
-4638 1541 0
4639 -3240 635 2136 -1691 0
-4639 3240 0
-4639 -635 0
-4639 -2136 0
-4639 1691 0
4640 -2933 307 2854 -1545 0
-4640 2933 0
-4640 -307 0
-4640 -2854 0
-4640 1545 0
4641 -3273 681 2242 -1713 0
-4641 3273 0
-4641 -681 0
-4641 -2242 0
-4641 1713 0
4642 -3081 455 2848 -1123 0
-4642 3081 0
-4642 -455 0
-4642 -2848 0
-4642 1123 0
4643 -2292 2293 -1719 0
-4643 2292 0
-4643 -2293 0
-4643 1719 0
1140 -1139 0
-1140 1139 0
4644 -2941 315 2854 -1545 0
-4644 2941 0
-4644 -315 0
-4644 -2854 0
-4644 1545 0
4645 -2673 61 2850 -1541 0
-4645 2673 0
-4645 -61 0
-4645 -2850 0
-4645 1541 0
4646 -2123 2124 -1715 0
-4646 2123 0
-4646 -2124 0
-4646 1715 0
4647 -3288 701 2281 -1711 0
-4647 3288 0
-4647 -701 0
-4647 -2281 0
-4647 1711 0
4648 -3117 491 2848 -1123 0
-4648 3117 0
-4648 -491 0
-4648 -2848 0
-4648 1123 0
4649 -2977 351 2854 -1545 0
-4649 2977 0
-4649 -351 0
-4649 -2854 0
-4649 1545 0
4650 -3421 901 2172 -1737 0
-4650 3421 0
-4650 -901 0
-4650 -2172 0
-4650 1737 0
4651 -2262 2263 -1757 0
-4651 2262 0
-4651 -2263 0
-4651 1757 0
1142 -1141 0
-1142 1141 0
4652 -2743 131 2850 -1541 0
-4652 2743 0
-4652 -131 0
-4652 -2850 0
-4652 1541 0
4653 -2322 2323 -1759 0
-4653 2322 0
-4653 -2323 0
-4653 1759 0
4654 -3121 495 2848 -1123 0
-4654 3121 0
-4654 -495 0
-4654 -2848 0
-4654 1123 0
4655 -2751 139 2850 -1541 0
-4655 2751 0
-4655 -139 0
-4655 -2850 0
-4655 1541 0
4656 -2981 355 2854 -1545 0
-4656 2981 0
-4656 -355 0
-4656 -2854 0
-4656 1545 0
1144 -1143 0
-1144 1143 0
4657 -3127 501 2848 -1123 0
-4657 3127 0
-4657 -501 0
-4657 -2848 0
-4657 1123 0
4658 -2318 2319 -1755 0
-4658 2318 0
-4658 -2319 0
-4658 1755 0
4659 -2190 2191 -1689 0
-4659 2190 0
-4659 -2191 0
-4659 1689 0
1182 -1181 0
-1182 1181 0
4660 -2987 361 2854 -1545 0
-4660 2987 0
-4660 -361 0
-4660 -2854 0
-4660 1545 0
4661 -2762 151 2850 -1541 0
-4661 2762 0
-4661 -151 0
-4661 -2850 0
-4661 1541 0
4662 -2689 75 2850 -1541 0
-4662 2689 0
-4662 -75 0
-4662 -2850 0
-4662 1541 0
4663 -2197 2198 -1725 0
-4663 2197 0
-4663 -2198 0
-4663 1725 0
4664 -2949 323 2854 -1545 0
-4664 2949 0
-4664 -323 0
-4664 -2854 0
-4664 1545 0
1186 -1185 0
-1186 1185 0
4665 -3089 463 2848 -1123 0
-4665 3089 0
-4665 -463 0
-4665 -2848 0
-4665 1123 0
4666 -2266 2267 -1741 0
-4666 2266 0
-4666 -2267 0
-4666 1741 0
4667 -2939 313 2854 -1545 0
-4667 2939 0
-4667 -313 0
-4667 -2854 0
-4667 1545 0
4668 -2175 2176 -1749 0
-4668 2175 0
-4668 -2176 0
-4668 1749 0
4669 -3079 453 2848 -1123 0
-4669 3079 0
-4669 -453 0
-4669 -2848 0
-4669 1123 0
4670 -2671 57 2850 -1541 0
-4670 2671 0
-4670 -57 0
-4670 -2850 0
-4670 1541 0
1196 -1195 0
-1196 1195 0
4671 -2927 301 2854 -1545 0
-4671 2927 0
-4671 -301 0
-4671 -2854 0
-4671 1545 0
4672 -2251 2252 -1697 0
-4672 2251 0
-4672 -2252 0
-4672 1697 0
4673 -2168 2169 -1881 0
-4673 2168 0
-4673 -2169 0
-4673 1881 0
4674 -3067 441 2848 -1123 0
-4674 3067 0
-4674 -441 0
-4674 -2848 0
-4674 1123 0
4675 -2647 33 2850 -1541 0
-4675 2647 0
-4675 -33 0
-4675 -2850 0
-4675 1541 0
1206 -1205 0
-1206 1205 0
4676 -2995 369 2854 -1545 0
-4676 2995 0
-4676 -369 0
-4676 -2854 0
-4676 1545 0
4677 -3135 509 2848 -1123 0
-4677 3135 0
-4677 -509 0
-4677 -2848 0
-4677 1123 0
1208 -1207 0
-1208 1207 0
4678 -2778 167 2850 -1541 0
-4678 2778 0
-4678 -167 0
-4678 -2850 0
-4678 1541 0
4679 -2303 2304 -1745 0
-4679 2303 0
-4679 -2304 0
-4679 1745 0
1218 -1217 0
-1218 1217 0
4680 -3509 1029 2274 -1885 0
-4680 3509 0
-4680 -1029 0
-4680 -2274 0
-4680 1885 0
4681 -3025 399 2854 -1545 0
-4681 3025 0
-4681 -399 0
-4681 -2854 0
-4681 1545 0
4682 -2837 227 2850 -1541 0
-4682 2837 0
-4682 -227 0
-4682 -2850 0
-4682 1541 0
4683 -3165 539 2848 -1123 0
-4683 3165 0
-4683 -539 0
-4683 -2848 0
-4683 1123 0
1228 -1227 0
-1228 1227 0
4684 -2270 2271 -1753 0
-4684 2270 0
-4684 -2271 0
-4684 1753 0
4685 -2985 359 2854 -1545 0
-4685 2985 0
-4685 -359 0
-4685 -2854 0
-4685 1545 0
4686 -2758 147 2850 -1541 0
-4686 2758 0
-4686 -147 0
-4686 -2850 0
-4686 1541 0
4687 -3125 499 2848 -1123 0
-4687 3125 0
-4687 -499 0
-4687 -2848 0
-4687 1123 0
1272 -1271 0
-1272 1271 0
4688 -3240 635 2136 -1763 0
-4688 3240 0
-4688 -635 0
-4688 -2136 0
-4688 1763 0
4689 -3073 447 2848 -1263 0
-4689 3073 0
-4689 -447 0
-4689 -2848 0
-4689 1263 0
4690 -2659 45 2850 -1543 0
-4690 2659 0
-4690 -45 0
-4690 -2850 0
-4690 1543 0
4691 -2933 307 2854 -1547 0
-4691 2933 0
-4691 -307 0
-4691 -2854 0
-4691 1547 0
4692 -3273 681 2242 -1785 0
-4692 3273 0
-4692 -681 0
-4692 -2242 0
-4692 1785 0
4693 -2673 61 2850 -1543 0
-4693 2673 0
-4693 -61 0
-4693 -2850 0
-4693 1543 0
1280 -1279 0
-1280 1279 0
4694 -2941 315 2854 -1547 0
-4694 2941 0
-4694 -315 0
-4694 -2854 0
-4694 1547 0
4695 -2292 2293 -1791 0
-4695 2292 0
-4695 -2293 0
-4695 1791 0
4696 -3288 701 2281 -1783 0
-4696 3288 0
-4696 -701 0
-4696 -2281 0
-4696 1783 0
4697 -2123 2124 -1787 0
-4697 2123 0
-4697 -2124 0
-4697 1787 0
4698 -3081 455 2848 -1263 0
-4698 3081 0
-4698 -455 0
-4698 -2848 0
-4698 1263 0
4699 -2262 2263 -1829 0
-4699 2262 0
-4699 -2263 0
-4699 1829 0
4700 -2977 351 2854 -1547 0
-4700 2977 0
-4700 -351 0
-4700 -2854 0
-4700 1547 0
4701 -3117 491 2848 -1263 0
-4701 3117 0
-4701 -491 0
-4701 -2848 0
-4701 1263 0
4702 -2743 131 2850 -1543 0
-4702 2743 0
-4702 -131 0
-4702 -2850 0
-4702 1543 0
1282 -1281 0
-1282 1281 0
4703 -3421 901 2172 -1809 0
-4703 3421 0
-4703 -901 0
-4703 -2172 0
-4703 1809 0
4704 -2751 139 2850 -1543 0
-4704 2751 0
-4704 -139 0
-4704 -2850 0
-4704 1543 0
4705 -3121 495 2848 -1263 0
-4705 3121 0
-4705 -495 0
-4705 -2848 0
-4705 1263 0
1284 -1283 0
-1284 1283 0
4706 -2981 355 2854 -1547 0
-4706 2981 0
-4706 -355 0
-4706 -2854 0
-4706 1547 0
4707 -2322 2323 -1831 0
-4707 2322 0
-4707 -2323 0
-4707 1831 0
4708 -2190 2191 -1761 0
-4708 2190 0
-4708 -2191 0
-4708 1761 0
4709 -2318 2319 -1827 0
-4709 2318 0
-4709 -2319 0
-4709 1827 0
4710 -2987 361 2854 -1547 0
-4710 2987 0
-4710 -361 0
-4710 -2854 0
-4710 1547 0
1322 -1321 0
-1322 1321 0
4711 -2762 151 2850 -1543 0
-4711 2762 0
-4711 -151 0
-4711 -2850 0
-4711 1543 0
4712 -3127 501 2848 -1263 0
-4712 3127 0
-4712 -501 0
-4712 -2848 0
-4712 1263 0
4713 -2689 75 2850 -1543 0
-4713 2689 0
-4713 -75 0
-4713 -2850 0
-4713 1543 0
1326 -1325 0
-1326 1325 0
4714 -2197 2198 -1797 0
-4714 2197 0
-4714 -2198 0
-4714 1797 0
4715 -2949 323 2854 -1547 0
-4715 2949 0
-4715 -323 0
-4715 -2854 0
-4715 1547 0
4716 -3089 463 2848 -1263 0
-4716 3089 0
-4716 -463 0
-4716 -2848 0
-4716 1263 0
4717 -3079 453 2848 -1263 0
-4717 3079 0
-4717 -453 0
-4717 -2848 0
-4717 1263 0
4718 -2939 313 2854 -1547 0
-4718 2939 0
-4718 -313 0
-4718 -2854 0
-4718 1547 0
4719 -2266 2267 -1813 0
-4719 2266 0
-4719 -2267 0
-4719 1813 0
4720 -2175 2176 -1821 0
-4720 2175 0
-4720 -2176 0
-4720 1821 0
4721 -2671 57 2850 -1543 0
-4721 2671 0
-4721 -57 0
-4721 -2850 0
-4721 1543 0
1336 -1335 0
-1336 1335 0
4722 -2927 301 2854 -1547 0
-4722 2927 0
-4722 -301 0
-4722 -2854 0
-4722 1547 0
4723 -2647 33 2850 -1543 0
-4723 2647 0
-4723 -33 0
-4723 -2850 0
-4723 1543 0
4724 -3067 441 2848 -1263 0
-4724 3067 0
-4724 -441 0
-4724 -2848 0
-4724 1263 0
4725 -2168 2169 -1903 0
-4725 2168 0
-4725 -2169 0
-4725 1903 0
4726 -2251 2252 -1769 0
-4726 2251 0
-4726 -2252 0
-4726 1769 0
1346 -1345 0
-1346 1345 0
4727 -2995 369 2854 -1547 0
-4727 2995 0
-4727 -369 0
-4727 -2854 0
-4727 1547 0
4728 -2303 2304 -1817 0
-4728 2303 0
-4728 -2304 0
-4728 1817 0
4729 -3135 509 2848 -1263 0
-4729 3135 0
-4729 -509 0
-4729 -2848 0
-4729 1263 0
4730 -2778 167 2850 -1543 0
-4730 2778 0
-4730 -167 0
-4730 -2850 0
-4730 1543 0
1348 -1347 0
-1348 1347 0
4731 -3025 399 2854 -1547 0
-4731 3025 0
-4731 -399 0
-4731 -2854 0
-4731 1547 0
4732 -2837 227 2850 -1543 0
-4732 2837 0
-4732 -227 0
-4732 -2850 0
-4732 1543 0
4733 -3509 1029 2274 -1907 0
-4733 3509 0
-4733 -1029 0
-4733 -2274 0
-4733 1907 0
4734 -3165 539 2848 -1263 0
-4734 3165 0
-4734 -539 0
-4734 -2848 0
-4734 1263 0
1358 -1357 0
-1358 1357 0
4735 -2270 2271 -1825 0
-4735 2270 0
-4735 -2271 0
-4735 1825 0
4736 -2985 359 2854 -1547 0
-4736 2985 0
-4736 -359 0
-4736 -2854 0
-4736 1547 0
4737 -2758 147 2850 -1543 0
-4737 2758 0
-4737 -147 0
-4737 -2850 0
-4737 1543 0
4738 -3125 499 2848 -1263 0
-4738 3125 0
-4738 -499 0
-4738 -2848 0
-4738 1263 0
1368 -1367 0
-1368 1367 0
4739 -2919 293 2854 -7 0
-4739 2919 0
-4739 -293 0
-4739 -2854 0
-4739 7 0
4740 -2229 2230 -1865 0
-4740 2229 0
-4740 -2230 0
-4740 1865 0
4741 -2632 17 2850 -3 0
-4741 2632 0
-4741 -17 0
-4741 -2850 0
-4741 3 0
4742 -3059 433 2848 -11 0
-4742 3059 0
-4742 -433 0
-4742 -2848 0
-4742 11 0
1502 -1501 0
-1502 1501 0
4743 -2164 2165 -1559 0
-4743 2164 0
-4743 -2165 0
-4743 1559 0
4744 -2251 2252 -1595 0
-4744 2251 0
-4744 -2252 0
-4744 1595 0
4745 -2927 301 2854 -7 0
-4745 2927 0
-4745 -301 0
-4745 -2854 0
-4745 7 0
4746 -2647 33 2850 -3 0
-4746 2647 0
-4746 -33 0
-4746 -2850 0
-4746 3 0
4747 -2168 2169 -1843 0
-4747 2168 0
-4747 -2169 0
-4747 1843 0
4748 -3067 441 2848 -11 0
-4748 3067 0
-4748 -441 0
-4748 -2848 0
-4748 11 0
1484 -1483 0
-1484 1483 0
4749 -2119 2120 -1873 0
-4749 2119 0
-4749 -2120 0
-4749 1873 0
4750 -3206 587 2248 -1623 0
-4750 3206 0
-4750 -587 0
-4750 -2248 0
-4750 1623 0
4751 -2292 2293 -1841 0
-4751 2292 0
-4751 -2293 0
-4751 1841 0
1418 -1417 0
-1418 1417 0
4752 -2123 2124 -1585 0
-4752 2123 0
-4752 -2124 0
-4752 1585 0
4753 -2673 61 2850 -3 0
-4753 2673 0
-4753 -61 0
-4753 -2850 0
-4753 3 0
4754 -3081 455 2848 -11 0
-4754 3081 0
-4754 -455 0
-4754 -2848 0
-4754 11 0
4755 -3288 701 2281 -1561 0
-4755 3288 0
-4755 -701 0
-4755 -2281 0
-4755 1561 0
4756 -3273 681 2242 -1835 0
-4756 3273 0
-4756 -681 0
-4756 -2242 0
-4756 1835 0
4757 -2941 315 2854 -7 0
-4757 2941 0
-4757 -315 0
-4757 -2854 0
-4757 7 0
1428 -1427 0
-1428 1427 0
4758 -3103 477 2848 -11 0
-4758 3103 0
-4758 -477 0
-4758 -2848 0
-4758 11 0
4759 -2715 103 2850 -3 0
-4759 2715 0
-4759 -103 0
-4759 -2850 0
-4759 3 0
4760 -2108 2109 -1621 0
-4760 2108 0
-4760 -2109 0
-4760 1621 0
4761 -2095 2096 -1845 0
-4761 2095 0
-4761 -2096 0
-4761 1845 0
4762 -2963 337 2854 -7 0
-4762 2963 0
-4762 -337 0
-4762 -2854 0
-4762 7 0
4763 -2251 2252 -1609 0
-4763 2251 0
-4763 -2252 0
-4763 1609 0
4764 -2168 2169 -1861 0
-4764 2168 0
-4764 -2169 0
-4764 1861 0
4765 -2975 349 2854 -7 0
-4765 2975 0
-4765 -349 0
-4765 -2854 0
-4765 7 0
4766 -2119 2120 -1857 0
-4766 2119 0
-4766 -2120 0
-4766 1857 0
4767 -2739 127 2850 -3 0
-4767 2739 0
-4767 -127 0
-4767 -2850 0
-4767 3 0
1468 -1467 0
-1468 1467 0
4768 -3206 587 2248 -1549 0
-4768 3206 0
-4768 -587 0
-4768 -2248 0
-4768 1549 0
4769 -3115 489 2848 -11 0
-4769 3115 0
-4769 -489 0
-4769 -2848 0
-4769 11 0
4770 -3129 503 2848 -11 0
-4770 3129 0
-4770 -503 0
-4770 -2848 0
-4770 11 0
4771 -3433 917 2157 -1929 0
-4771 3433 0
-4771 -917 0
-4771 -2157 0
-4771 1929 0
1518 -1517 0
-1518 1517 0
4772 -2766 155 2850 -3 0
-4772 2766 0
-4772 -155 0
-4772 -2850 0
-4772 3 0
4773 -2989 363 2854 -7 0
-4773 2989 0
-4773 -363 0
-4773 -2854 0
-4773 7 0
4774 -2995 369 2854 -7 0
-4774 2995 0
-4774 -369 0
-4774 -2854 0
-4774 7 0
4775 -2778 167 2850 -3 0
-4775 2778 0
-4775 -167 0
-4775 -2850 0
-4775 3 0
1486 -1485 0
-1486 1485 0
4776 -3135 509 2848 -11 0
-4776 3135 0
-4776 -509 0
-4776 -2848 0
-4776 11 0
4777 -2303 2304 -1853 0
-4777 2303 0
-4777 -2304 0
-4777 1853 0
4778 -3201 581 2285 -1833 0
-4778 3201 0
-4778 -581 0
-4778 -2285 0
-4778 1833 0
4779 -3497 1011 2130 -1847 0
-4779 3497 0
-4779 -1011 0
-4779 -2130 0
-4779 1847 0
4780 -3017 391 2854 -7 0
-4780 3017 0
-4780 -391 0
-4780 -2854 0
-4780 7 0
4781 -2821 211 2850 -3 0
-4781 2821 0
-4781 -211 0
-4781 -2850 0
-4781 3 0
4782 -3157 531 2848 -11 0
-4782 3157 0
-4782 -531 0
-4782 -2848 0
-4782 11 0
1512 -1511 0
-1512 1511 0
4783 -3456 951 2179 -1933 0
-4783 3456 0
-4783 -951 0
-4783 -2179 0
-4783 1933 0
4784 -3283 695 2102 -1855 0
-4784 3283 0
-4784 -695 0
-4784 -2102 0
-4784 1855 0
4785 -3558 1101 2105 -1941 0
-4785 3558 0
-4785 -1101 0
-4785 -2105 0
-4785 1941 0
4786 -2095 2096 -1863 0
-4786 2095 0
-4786 -2096 0
-4786 1863 0
4787 -2108 2109 -1943 0
-4787 2108 0
-4787 -2109 0
-4787 1943 0
4788 -2139 2140 -1649 0
-4788 2139 0
-4788 -2140 0
-4788 1649 0
4789 -3360 807 2150 -1869 0
-4789 3360 0
-4789 -807 0
-4789 -2150 0
-4789 1869 0
4790 -3201 581 2285 -1839 0
-4790 3201 0
-4790 -581 0
-4790 -2285 0
-4790 1839 0
4791 -3497 1011 2130 -1875 0
-4791 3497 0
-4791 -1011 0
-4791 -2130 0
-4791 1875 0
4792 -3456 951 2179 -1925 0
-4792 3456 0
-4792 -951 0
-4792 -2179 0
-4792 1925 0
4793 -3433 917 2157 -1945 0
-4793 3433 0
-4793 -917 0
-4793 -2157 0
-4793 1945 0
4794 -3304 725 2187 -1949 0
-4794 3304 0
-4794 -725 0
-4794 -2187 0
-4794 1949 0
4795 -3013 387 2854 -1545 0
-4795 3013 0
-4795 -387 0
-4795 -2854 0
-4795 1545 0
4796 -3153 527 2848 -1123 0
-4796 3153 0
-4796 -527 0
-4796 -2848 0
-4796 1123 0
4797 -3283 695 2102 -1877 0
-4797 3283 0
-4797 -695 0
-4797 -2102 0
-4797 1877 0
1130 -1129 0
-1130 1129 0
4798 -2813 203 2850 -1541 0
-4798 2813 0
-4798 -203 0
-4798 -2850 0
-4798 1541 0
4799 -2872 251 2850 -1541 0
-4799 2872 0
-4799 -251 0
-4799 -2850 0
-4799 1541 0
1136 -1135 0
-1136 1135 0
4800 -3036 411 2854 -1545 0
-4800 3036 0
-4800 -411 0
-4800 -2854 0
-4800 1545 0
4801 -3558 1101 2105 -1955 0
-4801 3558 0
-4801 -1101 0
-4801 -2105 0
-4801 1955 0
4802 -3176 551 2848 -1123 0
-4802 3176 0
-4802 -551 0
-4802 -2848 0
-4802 1123 0
4803 -3103 477 2848 -1123 0
-4803 3103 0
-4803 -477 0
-4803 -2848 0
-4803 1123 0
4804 -2108 2109 -1957 0
-4804 2108 0
-4804 -2109 0
-4804 1957 0
4805 -2095 2096 -1883 0
-4805 2095 0
-4805 -2096 0
-4805 1883 0
1150 -1149 0
-1150 1149 0
4806 -2963 337 2854 -1545 0
-4806 2963 0
-4806 -337 0
-4806 -2854 0
-4806 1545 0
4807 -2715 103 2850 -1541 0
-4807 2715 0
-4807 -103 0
-4807 -2850 0
-4807 1541 0
4808 -2782 171 2850 -1541 0
-4808 2782 0
-4808 -171 0
-4808 -2850 0
-4808 1541 0
1172 -1171 0
-1172 1171 0
4809 -3137 511 2848 -1123 0
-4809 3137 0
-4809 -511 0
-4809 -2848 0
-4809 1123 0
4810 -2997 371 2854 -1545 0
-4810 2997 0
-4810 -371 0
-4810 -2854 0
-4810 1545 0
4811 -2139 2140 -1723 0
-4811 2139 0
-4811 -2140 0
-4811 1723 0
4812 -3360 807 2150 -1887 0
-4812 3360 0
-4812 -807 0
-4812 -2150 0
-4812 1887 0
4813 -2119 2120 -1895 0
-4813 2119 0
-4813 -2120 0
-4813 1895 0
4814 -2739 127 2850 -1541 0
-4814 2739 0
-4814 -127 0
-4814 -2850 0
-4814 1541 0
4815 -2975 349 2854 -1545 0
-4815 2975 0
-4815 -349 0
-4815 -2854 0
-4815 1545 0
4816 -3115 489 2848 -1123 0
-4816 3115 0
-4816 -489 0
-4816 -2848 0
-4816 1123 0
4817 -3206 587 2248 -1709 0
-4817 3206 0
-4817 -587 0
-4817 -2248 0
-4817 1709 0
1190 -1189 0
-1190 1189 0
4818 -3157 531 2848 -1123 0
-4818 3157 0
-4818 -531 0
-4818 -2848 0
-4818 1123 0
4819 -2821 211 2850 -1541 0
-4819 2821 0
-4819 -211 0
-4819 -2850 0
-4819 1541 0
1234 -1233 0
-1234 1233 0
4820 -3456 951 2179 -1963 0
-4820 3456 0
-4820 -951 0
-4820 -2179 0
-4820 1963 0
4821 -3017 391 2854 -1545 0
-4821 3017 0
-4821 -391 0
-4821 -2854 0
-4821 1545 0
4822 -3497 1011 2130 -1897 0
-4822 3497 0
-4822 -1011 0
-4822 -2130 0
-4822 1897 0
4823 -3201 581 2285 -1889 0
-4823 3201 0
-4823 -581 0
-4823 -2285 0
-4823 1889 0
1240 -1239 0
-1240 1239 0
4824 -2766 155 2850 -1541 0
-4824 2766 0
-4824 -155 0
-4824 -2850 0
-4824 1541 0
4825 -2989 363 2854 -1545 0
-4825 2989 0
-4825 -363 0
-4825 -2854 0
-4825 1545 0
4826 -3433 917 2157 -1959 0
-4826 3433 0
-4826 -917 0
-4826 -2157 0
-4826 1959 0
4827 -3129 503 2848 -1123 0
-4827 3129 0
-4827 -503 0
-4827 -2848 0
-4827 1123 0
4828 -2636 21 2850 -1541 0
-4828 2636 0
-4828 -21 0
-4828 -2850 0
-4828 1541 0
4829 -2921 295 2854 -1545 0
-4829 2921 0
-4829 -295 0
-4829 -2854 0
-4829 1545 0
1248 -1247 0
-1248 1247 0
4830 -3304 725 2187 -1965 0
-4830 3304 0
-4830 -725 0
-4830 -2187 0
-4830 1965 0
4831 -3061 435 2848 -1123 0
-4831 3061 0
-4831 -435 0
-4831 -2848 0
-4831 1123 0
4832 -2813 203 2850 -1543 0
-4832 2813 0
-4832 -203 0
-4832 -2850 0
-4832 1543 0
4833 -3013 387 2854 -1547 0
-4833 3013 0
-4833 -387 0
-4833 -2854 0
-4833 1547 0
4834 -3283 695 2102 -1899 0
-4834 3283 0
-4834 -695 0
-4834 -2102 0
-4834 1899 0
4835 -3153 527 2848 -1263 0
-4835 3153 0
-4835 -527 0
-4835 -2848 0
-4835 1263 0
1270 -1269 0
-1270 1269 0
4836 -3176 551 2848 -1263 0
-4836 3176 0
-4836 -551 0
-4836 -2848 0
-4836 1263 0
1276 -1275 0
-1276 1275 0
4837 -3036 411 2854 -1547 0
-4837 3036 0
-4837 -411 0
-4837 -2854 0
-4837 1547 0
4838 -3558 1101 2105 -1971 0
-4838 3558 0
-4838 -1101 0
-4838 -2105 0
-4838 1971 0
4839 -2872 251 2850 -1543 0
-4839 2872 0
-4839 -251 0
-4839 -2850 0
-4839 1543 0
4840 -2108 2109 -1973 0
-4840 2108 0
-4840 -2109 0
-4840 1973 0
4841 -2963 337 2854 -1547 0
-4841 2963 0
-4841 -337 0
-4841 -2854 0
-4841 1547 0
1290 -1289 0
-1290 1289 0
4842 -2095 2096 -1905 0
-4842 2095 0
-4842 -2096 0
-4842 1905 0
4843 -2715 103 2850 -1543 0
-4843 2715 0
-4843 -103 0
-4843 -2850 0
-4843 1543 0
4844 -3103 477 2848 -1263 0
-4844 3103 0
-4844 -477 0
-4844 -2848 0
-4844 1263 0
4845 -2997 371 2854 -1547 0
-4845 2997 0
-4845 -371 0
-4845 -2854 0
-4845 1547 0
4846 -2782 171 2850 -1543 0
-4846 2782 0
-4846 -171 0
-4846 -2850 0
-4846 1543 0
4847 -2139 2140 -1795 0
-4847 2139 0
-4847 -2140 0
-4847 1795 0
4848 -3360 807 2150 -1909 0
-4848 3360 0
-4848 -807 0
-4848 -2150 0
-4848 1909 0
1312 -1311 0
-1312 1311 0
4849 -3137 511 2848 -1263 0
-4849 3137 0
-4849 -511 0
-4849 -2848 0
-4849 1263 0
4850 -2975 349 2854 -1547 0
-4850 2975 0
-4850 -349 0
-4850 -2854 0
-4850 1547 0
4851 -2739 127 2850 -1543 0
-4851 2739 0
-4851 -127 0
-4851 -2850 0
-4851 1543 0
4852 -3115 489 2848 -1263 0
-4852 3115 0
-4852 -489 0
-4852 -2848 0
-4852 1263 0
1330 -1329 0
-1330 1329 0
4853 -3206 587 2248 -1781 0
-4853 3206 0
-4853 -587 0
-4853 -2248 0
-4853 1781 0
4854 -2119 2120 -1917 0
-4854 2119 0
-4854 -2120 0
-4854 1917 0
4855 -3017 391 2854 -1547 0
-4855 3017 0
-4855 -391 0
-4855 -2854 0
-4855 1547 0
4856 -3497 1011 2130 -1919 0
-4856 3497 0
-4856 -1011 0
-4856 -2130 0
-4856 1919 0
4857 -3456 951 2179 -1979 0
-4857 3456 0
-4857 -951 0
-4857 -2179 0
-4857 1979 0
4858 -3201 581 2285 -1911 0
-4858 3201 0
-4858 -581 0
-4858 -2285 0
-4858 1911 0
4859 -2821 211 2850 -1543 0
-4859 2821 0
-4859 -211 0
-4859 -2850 0
-4859 1543 0
1374 -1373 0
-1374 1373 0
4860 -3157 531 2848 -1263 0
-4860 3157 0
-4860 -531 0
-4860 -2848 0
-4860 1263 0
4861 -3129 503 2848 -1263 0
-4861 3129 0
-4861 -503 0
-4861 -2848 0
-4861 1263 0
1380 -1379 0
-1380 1379 0
4862 -2766 155 2850 -1543 0
-4862 2766 0
-4862 -155 0
-4862 -2850 0
-4862 1543 0
4863 -2989 363 2854 -1547 0
-4863 2989 0
-4863 -363 0
-4863 -2854 0
-4863 1547 0
4864 -3433 917 2157 -1975 0
-4864 3433 0
-4864 -917 0
-4864 -2157 0
-4864 1975 0
4865 -3061 435 2848 -1263 0
-4865 3061 0
-4865 -435 0
-4865 -2848 0
-4865 1263 0
4866 -2636 21 2850 -1543 0
-4866 2636 0
-4866 -21 0
-4866 -2850 0
-4866 1543 0
4867 -2921 295 2854 -1547 0
-4867 2921 0
-4867 -295 0
-4867 -2854 0
-4867 1547 0
4868 -3304 725 2187 -1981 0
-4868 3304 0
-4868 -725 0
-4868 -2187 0
-4868 1981 0
1388 -1387 0
-1388 1387 0
4869 -2338 2339 -1671 0
-4869 2338 0
-4869 -2339 0
-4869 1671 0
4870 -3227 617 2212 -1953 0
-4870 3227 0
-4870 -617 0
-4870 -2212 0
-4870 1953 0
4871 -2215 2216 -1679 0
-4871 2215 0
-4871 -2216 0
-4871 1679 0
4872 -3235 629 2113 -1987 0
-4872 3235 0
-4872 -629 0
-4872 -2113 0
-4872 1987 0
4873 -2182 2183 -1947 0
-4873 2182 0
-4873 -2183 0
-4873 1947 0
4874 -3304 725 2187 -1939 0
-4874 3304 0
-4874 -725 0
-4874 -2187 0
-4874 1939 0
4875 -2921 295 2854 -7 0
-4875 2921 0
-4875 -295 0
-4875 -2854 0
-4875 7 0
4876 -3061 435 2848 -11 0
-4876 3061 0
-4876 -435 0
-4876 -2848 0
-4876 11 0
1526 -1525 0
-1526 1525 0
4877 -2636 21 2850 -3 0
-4877 2636 0
-4877 -21 0
-4877 -2850 0
-4877 3 0
4878 -3530 1059 2201 -1871 0
-4878 3530 0
-4878 -1059 0
-4878 -2201 0
-4878 1871 0
4879 -3376 831 2256 -1989 0
-4879 3376 0
-4879 -831 0
-4879 -2256 0
-4879 1989 0
4880 -2677 63 2850 -3 0
-4880 2677 0
-4880 -63 0
-4880 -2850 0
-4880 3 0
4881 -3083 457 2848 -11 0
-4881 3083 0
-4881 -457 0
-4881 -2848 0
-4881 11 0
1440 -1439 0
-1440 1439 0
4882 -2943 317 2854 -7 0
-4882 2943 0
-4882 -317 0
-4882 -2854 0
-4882 7 0
4883 -2153 2154 -1935 0
-4883 2153 0
-4883 -2154 0
-4883 1935 0
4884 -2693 79 2850 -3 0
-4884 2693 0
-4884 -79 0
-4884 -2850 0
-4884 3 0
4885 -2338 2339 -1591 0
-4885 2338 0
-4885 -2339 0
-4885 1591 0
4886 -3091 465 2848 -11 0
-4886 3091 0
-4886 -465 0
-4886 -2848 0
-4886 11 0
4887 -2951 325 2854 -7 0
-4887 2951 0
-4887 -325 0
-4887 -2854 0
-4887 7 0
1426 -1425 0
-1426 1425 0
4888 -3227 617 2212 -1991 0
-4888 3227 0
-4888 -617 0
-4888 -2212 0
-4888 1991 0
4889 -3328 761 2236 -1995 0
-4889 3328 0
-4889 -761 0
-4889 -2236 0
-4889 1995 0
4890 -2731 119 2850 -3 0
-4890 2731 0
-4890 -119 0
-4890 -2850 0
-4890 3 0
4891 -2971 345 2854 -7 0
-4891 2971 0
-4891 -345 0
-4891 -2854 0
-4891 7 0
4892 -3111 485 2848 -11 0
-4892 3111 0
-4892 -485 0
-4892 -2848 0
-4892 11 0
1510 -1509 0
-1510 1509 0
4893 -3123 497 2848 -11 0
-4893 3123 0
-4893 -497 0
-4893 -2848 0
-4893 11 0
4894 -2755 143 2850 -3 0
-4894 2755 0
-4894 -143 0
-4894 -2850 0
-4894 3 0
4895 -2182 2183 -1851 0
-4895 2182 0
-4895 -2183 0
-4895 1851 0
4896 -2983 357 2854 -7 0
-4896 2983 0
-4896 -357 0
-4896 -2854 0
-4896 7 0
4897 -3235 629 2113 -1997 0
-4897 3235 0
-4897 -629 0
-4897 -2113 0
-4897 1997 0
4898 -2215 2216 -1583 0
-4898 2215 0
-4898 -2216 0
-4898 1583 0
1432 -1431 0
-1432 1431 0
4899 -3376 831 2256 -2001 0
-4899 3376 0
-4899 -831 0
-4899 -2256 0
-4899 2001 0
4900 -3530 1059 2201 -1937 0
-4900 3530 0
-4900 -1059 0
-4900 -2201 0
-4900 1937 0
4901 -3143 517 2848 -11 0
-4901 3143 0
-4901 -517 0
-4901 -2848 0
-4901 11 0
4902 -2793 183 2850 -3 0
-4902 2793 0
-4902 -183 0
-4902 -2850 0
-4902 3 0
1462 -1461 0
-1462 1461 0
4903 -3003 377 2854 -7 0
-4903 3003 0
-4903 -377 0
-4903 -2854 0
-4903 7 0
4904 -2153 2154 -1951 0
-4904 2153 0
-4904 -2154 0
-4904 1951 0
4905 -3328 761 2236 -2005 0
-4905 3328 0
-4905 -761 0
-4905 -2236 0
-4905 2005 0
1148 -1147 0
-1148 1147 0
4906 -2951 325 2854 -1545 0
-4906 2951 0
-4906 -325 0
-4906 -2854 0
-4906 1545 0
4907 -2693 79 2850 -1541 0
-4907 2693 0
-4907 -79 0
-4907 -2850 0
-4907 1541 0
4908 -3227 617 2212 -1969 0
-4908 3227 0
-4908 -617 0
-4908 -2212 0
-4908 1969 0
4909 -3091 465 2848 -1123 0
-4909 3091 0
-4909 -465 0
-4909 -2848 0
-4909 1123 0
4910 -2338 2339 -1743 0
-4910 2338 0
-4910 -2339 0
-4910 1743 0
1154 -1153 0
-1154 1153 0
4911 -2983 357 2854 -1545 0
-4911 2983 0
-4911 -357 0
-4911 -2854 0
-4911 1545 0
4912 -2182 2183 -1961 0
-4912 2182 0
-4912 -2183 0
-4912 1961 0
4913 -3235 629 2113 -2009 0
-4913 3235 0
-4913 -629 0
-4913 -2113 0
-4913 2009 0
4914 -2755 143 2850 -1541 0
-4914 2755 0
-4914 -143 0
-4914 -2850 0
-4914 1541 0
4915 -2215 2216 -1751 0
-4915 2215 0
-4915 -2216 0
-4915 1751 0
4916 -3123 497 2848 -1123 0
-4916 3123 0
-4916 -497 0
-4916 -2848 0
-4916 1123 0
4917 -2943 317 2854 -1545 0
-4917 2943 0
-4917 -317 0
-4917 -2854 0
-4917 1545 0
4918 -2677 63 2850 -1541 0
-4918 2677 0
-4918 -63 0
-4918 -2850 0
-4918 1541 0
1162 -1161 0
-1162 1161 0
4919 -2153 2154 -1967 0
-4919 2153 0
-4919 -2154 0
-4919 1967 0
4920 -3083 457 2848 -1123 0
-4920 3083 0
-4920 -457 0
-4920 -2848 0
-4920 1123 0
4921 -3143 517 2848 -1123 0
-4921 3143 0
-4921 -517 0
-4921 -2848 0
-4921 1123 0
4922 -3003 377 2854 -1545 0
-4922 3003 0
-4922 -377 0
-4922 -2854 0
-4922 1545 0
4923 -3376 831 2256 -2011 0
-4923 3376 0
-4923 -831 0
-4923 -2256 0
-4923 2011 0
1184 -1183 0
-1184 1183 0
4924 -2793 183 2850 -1541 0
-4924 2793 0
-4924 -183 0
-4924 -2850 0
-4924 1541 0
4925 -3530 1059 2201 -1893 0
-4925 3530 0
-4925 -1059 0
-4925 -2201 0
-4925 1893 0
4926 -3111 485 2848 -1123 0
-4926 3111 0
-4926 -485 0
-4926 -2848 0
-4926 1123 0
4927 -2731 119 2850 -1541 0
-4927 2731 0
-4927 -119 0
-4927 -2850 0
-4927 1541 0
4928 -3328 761 2236 -2013 0
-4928 3328 0
-4928 -761 0
-4928 -2236 0
-4928 2013 0
1232 -1231 0
-1232 1231 0
4929 -2971 345 2854 -1545 0
-4929 2971 0
-4929 -345 0
-4929 -2854 0
-4929 1545 0
4930 -3227 617 2212 -1985 0
-4930 3227 0
-4930 -617 0
-4930 -2212 0
-4930 1985 0
4931 -2338 2339 -1815 0
-4931 2338 0
-4931 -2339 0
-4931 1815 0
1288 -1287 0
-1288 1287 0
4932 -2951 325 2854 -1547 0
-4932 2951 0
-4932 -325 0
-4932 -2854 0
-4932 1547 0
4933 -3091 465 2848 -1263 0
-4933 3091 0
-4933 -465 0
-4933 -2848 0
-4933 1263 0
4934 -2693 79 2850 -1543 0
-4934 2693 0
-4934 -79 0
-4934 -2850 0
-4934 1543 0
4935 -2182 2183 -1977 0
-4935 2182 0
-4935 -2183 0
-4935 1977 0
4936 -2755 143 2850 -1543 0
-4936 2755 0
-4936 -143 0
-4936 -2850 0
-4936 1543 0
4937 -3235 629 2113 -2019 0
-4937 3235 0
-4937 -629 0
-4937 -2113 0
-4937 2019 0
4938 -2983 357 2854 -1547 0
-4938 2983 0
-4938 -357 0
-4938 -2854 0
-4938 1547 0
4939 -3123 497 2848 -1263 0
-4939 3123 0
-4939 -497 0
-4939 -2848 0
-4939 1263 0
4940 -2215 2216 -1823 0
-4940 2215 0
-4940 -2216 0
-4940 1823 0
1294 -1293 0
-1294 1293 0
4941 -2943 317 2854 -1547 0
-4941 2943 0
-4941 -317 0
-4941 -2854 0
-4941 1547 0
1302 -1301 0
-1302 1301 0
4942 -3083 457 2848 -1263 0
-4942 3083 0
-4942 -457 0
-4942 -2848 0
-4942 1263 0
4943 -2153 2154 -1983 0
-4943 2153 0
-4943 -2154 0
-4943 1983 0
4944 -2677 63 2850 -1543 0
-4944 2677 0
-4944 -63 0
-4944 -2850 0
-4944 1543 0
4945 -3376 831 2256 -2021 0
-4945 3376 0
-4945 -831 0
-4945 -2256 0
-4945 2021 0
4946 -3530 1059 2201 -1915 0
-4946 3530 0
-4946 -1059 0
-4946 -2201 0
-4946 1915 0
4947 -2793 183 2850 -1543 0
-4947 2793 0
-4947 -183 0
-4947 -2850 0
-4947 1543 0
1324 -1323 0
-1324 1323 0
4948 -3143 517 2848 -1263 0
-4948 3143 0
-4948 -517 0
-4948 -2848 0
-4948 1263 0
4949 -3003 377 2854 -1547 0
-4949 3003 0
-4949 -377 0
-4949 -2854 0
-4949 1547 0
4950 -2731 119 2850 -1543 0
-4950 2731 0
-4950 -119 0
-4950 -2850 0
-4950 1543 0
1372 -1371 0
-1372 1371 0
4951 -2971 345 2854 -1547 0
-4951 2971 0
-4951 -345 0
-4951 -2854 0
-4951 1547 0
4952 -3328 761 2236 -2023 0
-4952 3328 0
-4952 -761 0
-4952 -2236 0
-4952 2023 0
4953 -3111 485 2848 -1263 0
-4953 3111 0
-4953 -485 0
-4953 -2848 0
-4953 1263 0
4954 -3040 415 2854 -7 0
-4954 3040 0
-4954 -415 0
-4954 -2854 0
-4954 7 0
1494 -1493 0
-1494 1493 0
4955 -3180 555 2848 -11 0
-4955 3180 0
-4955 -555 0
-4955 -2848 0
-4955 11 0
4956 -2880 259 2850 -3 0
-4956 2880 0
-4956 -259 0
-4956 -2850 0
-4956 3 0
4957 -3449 941 2127 -1999 0
-4957 3449 0
-4957 -941 0
-4957 -2127 0
-4957 1999 0
4958 -3491 1003 2308 -1993 0
-4958 3491 0
-4958 -1003 0
-4958 -2308 0
-4958 1993 0
4959 -2681 67 2850 -3 0
-4959 2681 0
-4959 -67 0
-4959 -2850 0
-4959 3 0
4960 -2160 2161 -1573 0
-4960 2160 0
-4960 -2161 0
-4960 1573 0
1520 -1519 0
-1520 1519 0
4961 -2222 2223 -2029 0
-4961 2222 0
-4961 -2223 0
-4961 2029 0
4962 -2945 319 2854 -7 0
-4962 2945 0
-4962 -319 0
-4962 -2854 0
-4962 7 0
4963 -3085 459 2848 -11 0
-4963 3085 0
-4963 -459 0
-4963 -2848 0
-4963 11 0
4964 -3449 941 2127 -2007 0
-4964 3449 0
-4964 -941 0
-4964 -2127 0
-4964 2007 0
4965 -3131 505 2848 -11 0
-4965 3131 0
-4965 -505 0
-4965 -2848 0
-4965 11 0
1404 -1403 0
-1404 1403 0
4966 -2770 159 2850 -3 0
-4966 2770 0
-4966 -159 0
-4966 -2850 0
-4966 3 0
4967 -3340 779 2133 -2033 0
-4967 3340 0
-4967 -779 0
-4967 -2133 0
-4967 2033 0
4968 -2991 365 2854 -7 0
-4968 2991 0
-4968 -365 0
-4968 -2854 0
-4968 7 0
1458 -1457 0
-1458 1457 0
4969 -3141 515 2848 -11 0
-4969 3141 0
-4969 -515 0
-4969 -2848 0
-4969 11 0
4970 -2789 179 2850 -3 0
-4970 2789 0
-4970 -179 0
-4970 -2850 0
-4970 3 0
4971 -3001 375 2854 -7 0
-4971 3001 0
-4971 -375 0
-4971 -2854 0
-4971 7 0
4972 -3491 1003 2308 -2003 0
-4972 3491 0
-4972 -1003 0
-4972 -2308 0
-4972 2003 0
4973 -2160 2161 -1675 0
-4973 2160 0
-4973 -2161 0
-4973 1675 0
4974 -2222 2223 -2035 0
-4974 2222 0
-4974 -2223 0
-4974 2035 0
4975 -3141 515 2848 -1123 0
-4975 3141 0
-4975 -515 0
-4975 -2848 0
-4975 1123 0
4976 -3001 375 2854 -1545 0
-4976 3001 0
-4976 -375 0
-4976 -2854 0
-4976 1545 0
1180 -1179 0
-1180 1179 0
4977 -2789 179 2850 -1541 0
-4977 2789 0
-4977 -179 0
-4977 -2850 0
-4977 1541 0
4978 -3491 1003 2308 -2015 0
-4978 3491 0
-4978 -1003 0
-4978 -2308 0
-4978 2015 0
4979 -3449 941 2127 -2017 0
-4979 3449 0
-4979 -941 0
-4979 -2127 0
-4979 2017 0
4980 -3180 555 2848 -1123 0
-4980 3180 0
-4980 -555 0
-4980 -2848 0
-4980 1123 0
1216 -1215 0
-1216 1215 0
4981 -3040 415 2854 -1545 0
-4981 3040 0
-4981 -415 0
-4981 -2854 0
-4981 1545 0
4982 -2880 259 2850 -1541 0
-4982 2880 0
-4982 -259 0
-4982 -2850 0
-4982 1541 0
4983 -2945 319 2854 -1545 0
-4983 2945 0
-4983 -319 0
-4983 -2854 0
-4983 1545 0
4984 -2681 67 2850 -1541 0
-4984 2681 0
-4984 -67 0
-4984 -2850 0
-4984 1541 0
1242 -1241 0
-1242 1241 0
4985 -3085 459 2848 -1123 0
-4985 3085 0
-4985 -459 0
-4985 -2848 0
-4985 1123 0
4986 -2222 2223 -2045 0
-4986 2222 0
-4986 -2223 0
-4986 2045 0
4987 -2160 2161 -1747 0
-4987 2160 0
-4987 -2161 0
-4987 1747 0
4988 -3141 515 2848 -1263 0
-4988 3141 0
-4988 -515 0
-4988 -2848 0
-4988 1263 0
4989 -3491 1003 2308 -2025 0
-4989 3491 0
-4989 -1003 0
-4989 -2308 0
-4989 2025 0
4990 -3001 375 2854 -1547 0
-4990 3001 0
-4990 -375 0
-4990 -2854 0
-4990 1547 0
1320 -1319 0
-1320 1319 0
4991 -2789 179 2850 -1543 0
-4991 2789 0
-4991 -179 0
-4991 -2850 0
-4991 1543 0
4992 -2880 259 2850 -1543 0
-4992 2880 0
-4992 -259 0
-4992 -2850 0
-4992 1543 0
4993 -3180 555 2848 -1263 0
-4993 3180 0
-4993 -555 0
-4993 -2848 0
-4993 1263 0
1356 -1355 0
-1356 1355 0
4994 -3040 415 2854 -1547 0
-4994 3040 0
-4994 -415 0
-4994 -2854 0
-4994 1547 0
4995 -3449 941 2127 -2027 0
-4995 3449 0
-4995 -941 0
-4995 -2127 0
-4995 2027 0
1382 -1381 0
-1382 1381 0
4996 -2160 2161 -1819 0
-4996 2160 0
-4996 -2161 0
-4996 1819 0
4997 -2222 2223 -2051 0
-4997 2222 0
-4997 -2223 0
-4997 2051 0
4998 -2945 319 2854 -1547 0
-4998 2945 0
-4998 -319 0
-4998 -2854 0
-4998 1547 0
4999 -3085 459 2848 -1263 0
-4999 3085 0
-4999 -459 0
-4999 -2848 0
-4999 1263 0
5000 -2681 67 2850 -1543 0
-5000 2681 0
-5000 -67 0
-5000 -2850 0
-5000 1543 0
5001 -3524 1051 2296 -2037 0
-5001 3524 0
-5001 -1051 0
-5001 -2296 0
-5001 2037 0
5002 -3032 407 2854 -7 0
-5002 3032 0
-5002 -407 0
-5002 -2854 0
-5002 7 0
5003 -3172 547 2848 -11 0
-5003 3172 0
-5003 -547 0
-5003 -2848 0
-5003 11 0
1504 -1503 0
-1504 1503 0
5004 -2864 243 2850 -3 0
-5004 2864 0
-5004 -243 0
-5004 -2850 0
-5004 3 0
5005 -3313 739 2226 -1859 0
-5005 3313 0
-5005 -739 0
-5005 -2226 0
-5005 1859 0
5006 -3551 1091 2099 -2031 0
-5006 3551 0
-5006 -1091 0
-5006 -2099 0
-5006 2031 0
5007 -3213 597 2147 -1663 0
-5007 3213 0
-5007 -597 0
-5007 -2147 0
-5007 1663 0
5008 -2299 2300 -1661 0
-5008 2299 0
-5008 -2300 0
-5008 1661 0
5009 -2953 327 2854 -7 0
-5009 2953 0
-5009 -327 0
-5009 -2854 0
-5009 7 0
5010 -3551 1091 2099 -2039 0
-5010 3551 0
-5010 -1091 0
-5010 -2099 0
-5010 2039 0
1452 -1451 0
-1452 1451 0
5011 -3213 597 2147 -1921 0
-5011 3213 0
-5011 -597 0
-5011 -2147 0
-5011 1921 0
5012 -3093 467 2848 -11 0
-5012 3093 0
-5012 -467 0
-5012 -2848 0
-5012 11 0
5013 -3313 739 2226 -1927 0
-5013 3313 0
-5013 -739 0
-5013 -2226 0
-5013 1927 0
5014 -2299 2300 -1575 0
-5014 2299 0
-5014 -2300 0
-5014 1575 0
5015 -2696 83 2850 -3 0
-5015 2696 0
-5015 -83 0
-5015 -2850 0
-5015 3 0
1492 -1491 0
-1492 1491 0
5016 -2208 2209 -2055 0
-5016 2208 0
-5016 -2209 0
-5016 2055 0
5017 -3252 651 2259 -1923 0
-5017 3252 0
-5017 -651 0
-5017 -2259 0
-5017 1923 0
5018 -2703 91 2850 -3 0
-5018 2703 0
-5018 -91 0
-5018 -2850 0
-5018 3 0
5019 -2957 331 2854 -7 0
-5019 2957 0
-5019 -331 0
-5019 -2854 0
-5019 7 0
5020 -3097 471 2848 -11 0
-5020 3097 0
-5020 -471 0
-5020 -2848 0
-5020 11 0
5021 -2143 2144 -1569 0
-5021 2143 0
-5021 -2144 0
-5021 1569 0
1416 -1415 0
-1416 1415 0
5022 -3384 843 2219 -2059 0
-5022 3384 0
-5022 -843 0
-5022 -2219 0
-5022 2059 0
5023 -2999 373 2854 -7 0
-5023 2999 0
-5023 -373 0
-5023 -2854 0
-5023 7 0
5024 -3139 513 2848 -11 0
-5024 3139 0
-5024 -513 0
-5024 -2848 0
-5024 11 0
5025 -2786 175 2850 -3 0
-5025 2786 0
-5025 -175 0
-5025 -2850 0
-5025 3 0
5026 -3340 779 2133 -2041 0
-5026 3340 0
-5026 -779 0
-5026 -2133 0
-5026 2041 0
5027 -3131 505 2848 -1123 0
-5027 3131 0
-5027 -505 0
-5027 -2848 0
-5027 1123 0
5028 -3340 779 2133 -2047 0
-5028 3340 0
-5028 -779 0
-5028 -2133 0
-5028 2047 0
5029 -2770 159 2850 -1541 0
-5029 2770 0
-5029 -159 0
-5029 -2850 0
-5029 1541 0
5030 -2991 365 2854 -1545 0
-5030 2991 0
-5030 -365 0
-5030 -2854 0
-5030 1545 0
1126 -1125 0
-1126 1125 0
5031 -2299 2300 -1733 0
-5031 2299 0
-5031 -2300 0
-5031 1733 0
1174 -1173 0
-1174 1173 0
5032 -2953 327 2854 -1545 0
-5032 2953 0
-5032 -327 0
-5032 -2854 0
-5032 1545 0
5033 -3213 597 2147 -1735 0
-5033 3213 0
-5033 -597 0
-5033 -2147 0
-5033 1735 0
5034 -2696 83 2850 -1541 0
-5034 2696 0
-5034 -83 0
-5034 -2850 0
-5034 1541 0
5035 -3313 739 2226 -1879 0
-5035 3313 0
-5035 -739 0
-5035 -2226 0
-5035 1879 0
5036 -3551 1091 2099 -2043 0
-5036 3551 0
-5036 -1091 0
-5036 -2099 0
-5036 2043 0
5037 -3093 467 2848 -1123 0
-5037 3093 0
-5037 -467 0
-5037 -2848 0
-5037 1123 0
5038 -3172 547 2848 -1123 0
-5038 3172 0
-5038 -547 0
-5038 -2848 0
-5038 1123 0
1226 -1225 0
-1226 1225 0
5039 -2864 243 2850 -1541 0
-5039 2864 0
-5039 -243 0
-5039 -2850 0
-5039 1541 0
5040 -3032 407 2854 -1545 0
-5040 3032 0
-5040 -407 0
-5040 -2854 0
-5040 1545 0
5041 -3524 1051 2296 -2067 0
-5041 3524 0
-5041 -1051 0
-5041 -2296 0
-5041 2067 0
5042 -3340 779 2133 -2053 0
-5042 3340 0
-5042 -779 0
-5042 -2133 0
-5042 2053 0
5043 -2991 365 2854 -1547 0
-5043 2991 0
-5043 -365 0
-5043 -2854 0
-5043 1547 0
5044 -2770 159 2850 -1543 0
-5044 2770 0
-5044 -159 0
-5044 -2850 0
-5044 1543 0
1266 -1265 0
-1266 1265 0
5045 -3131 505 2848 -1263 0
-5045 3131 0
-5045 -505 0
-5045 -2848 0
-5045 1263 0
1314 -1313 0
-1314 1313 0
5046 -2953 327 2854 -1547 0
-5046 2953 0
-5046 -327 0
-5046 -2854 0
-5046 1547 0
5047 -3313 739 2226 -1901 0
-5047 3313 0
-5047 -739 0
-5047 -2226 0
-5047 1901 0
5048 -3213 597 2147 -1807 0
-5048 3213 0
-5048 -597 0
-5048 -2147 0
-5048 1807 0
5049 -2696 83 2850 -1543 0
-5049 2696 0
-5049 -83 0
-5049 -2850 0
-5049 1543 0
5050 -2299 2300 -1805 0
-5050 2299 0
-5050 -2300 0
-5050 1805 0
5051 -3551 1091 2099 -2049 0
-5051 3551 0
-5051 -1091 0
-5051 -2099 0
-5051 2049 0
5052 -3093 467 2848 -1263 0
-5052 3093 0
-5052 -467 0
-5052 -2848 0
-5052 1263 0
5053 -3524 1051 2296 -2073 0
-5053 3524 0
-5053 -1051 0
-5053 -2296 0
-5053 2073 0
1366 -1365 0
-1366 1365 0
5054 -2864 243 2850 -1543 0
-5054 2864 0
-5054 -243 0
-5054 -2850 0
-5054 1543 0
5055 -3032 407 2854 -1547 0
-5055 3032 0
-5055 -407 0
-5055 -2854 0
-5055 1547 0
5056 -3172 547 2848 -1263 0
-5056 3172 0
-5056 -547 0
-5056 -2848 0
-5056 1263 0
5057 -3384 843 2219 -2057 0
-5057 3384 0
-5057 -843 0
-5057 -2219 0
-5057 2057 0
5058 -3524 1051 2296 -2065 0
-5058 3524 0
-5058 -1051 0
-5058 -2296 0
-5058 2065 0
1138 -1137 0
-1138 1137 0
5059 -2999 373 2854 -1545 0
-5059 2999 0
-5059 -373 0
-5059 -2854 0
-5059 1545 0
5060 -2786 175 2850 -1541 0
-5060 2786 0
-5060 -175 0
-5060 -2850 0
-5060 1541 0
5061 -3384 843 2219 -2069 0
-5061 3384 0
-5061 -843 0
-5061 -2219 0
-5061 2069 0
5062 -3139 513 2848 -1123 0
-5062 3139 0
-5062 -513 0
-5062 -2848 0
-5062 1123 0
5063 -2703 91 2850 -1541 0
-5063 2703 0
-5063 -91 0
-5063 -2850 0
-5063 1541 0
5064 -2208 2209 -2071 0
-5064 2208 0
-5064 -2209 0
-5064 2071 0
5065 -3252 651 2259 -1891 0
-5065 3252 0
-5065 -651 0
-5065 -2259 0
-5065 1891 0
5066 -3097 471 2848 -1123 0
-5066 3097 0
-5066 -471 0
-5066 -2848 0
-5066 1123 0
1214 -1213 0
-1214 1213 0
5067 -2957 331 2854 -1545 0
-5067 2957 0
-5067 -331 0
-5067 -2854 0
-5067 1545 0
5068 -2143 2144 -1717 0
-5068 2143 0
-5068 -2144 0
-5068 1717 0
5069 -2999 373 2854 -1547 0
-5069 2999 0
-5069 -373 0
-5069 -2854 0
-5069 1547 0
5070 -2786 175 2850 -1543 0
-5070 2786 0
-5070 -175 0
-5070 -2850 0
-5070 1543 0
1278 -1277 0
-1278 1277 0
5071 -3139 513 2848 -1263 0
-5071 3139 0
-5071 -513 0
-5071 -2848 0
-5071 1263 0
5072 -3384 843 2219 -2075 0
-5072 3384 0
-5072 -843 0
-5072 -2219 0
-5072 2075 0
5073 -3097 471 2848 -1263 0
-5073 3097 0
-5073 -471 0
-5073 -2848 0
-5073 1263 0
5074 -2208 2209 -2077 0
-5074 2208 0
-5074 -2209 0
-5074 2077 0
5075 -3252 651 2259 -1913 0
-5075 3252 0
-5075 -651 0
-5075 -2259 0
-5075 1913 0
1354 -1353 0
-1354 1353 0
5076 -2957 331 2854 -1547 0
-5076 2957 0
-5076 -331 0
-5076 -2854 0
-5076 1547 0
5077 -2703 91 2850 -1543 0
-5077 2703 0
-5077 -91 0
-5077 -2850 0
-5077 1543 0
5078 -2143 2144 -1789 0
-5078 2143 0
-5078 -2144 0
-5078 1789 0
5079 -2856 859 2315 -2079 0
-5079 2856 0
-5079 -859 0
-5079 -2315 0
-5079 2079 0
5080 -2288 2289 -1607 0
-5080 2288 0
-5080 -2289 0
-5080 1607 0
-5081 574 3196 0
5081 -574 0
5081 -3196 0
-5082 2340 2342 0
5082 -2340 0
5082 -2342 0
-5083 3197 576 0
5083 -3197 0
5083 -576 0
-5084 2482 6 0
5084 -2482 0
5084 -6 0
-14 2622 10 0
14 -2622 0
14 -10 0
-16 1834 2624 0
16 -1834 0
16 -2624 0
-5085 3198 578 0
5085 -3198 0
5085 -578 0
-5086 3199 580 0
5086 -3199 0
5086 -580 0
-584 582 3200 0
584 -582 0
584 -3200 0
-5087 4548 1392 4549 4550 0
5087 -4548 0
5087 -1392 0
5087 -4549 0
5087 -4550 0
-5088 4581 4582 4583 0
5088 -4581 0
5088 -4582 0
5088 -4583 0
-5089 2173 2264 2282 0
5089 -2173 0
5089 -2264 0
5089 -2282 0
-5090 4570 1474 4572 0
5090 -4570 0
5090 -1474 0
5090 -4572 0
-5091 1890 3823 0
5091 -1890 0
5091 -3823 0
-5092 2400 2424 2448 0
5092 -2400 0
5092 -2424 0
5092 -2448 0
-5093 4666 4668 1196 0
5093 -4666 0
5093 -4668 0
5093 -1196 0
-5094 1742 3844 0
5094 -1742 0
5094 -3844 0
-5095 2486 2554 2600 0
5095 -2486 0
5095 -2554 0
5095 -2600 0
-5096 3851 1750 0
5096 -3851 0
5096 -1750 0
-5097 4719 4720 1336 0
5097 -4719 0
5097 -4720 0
5097 -1336 0
-118 1572 2724 0
118 -1572 0
118 -2724 0
-5098 1912 3897 0
5098 -1912 0
5098 -3897 0
-5099 3918 1814 0
5099 -3918 0
5099 -1814 0
-5100 3925 1822 0
5100 -3925 0
5100 -1822 0
-5101 3952 3960 3990 3997 0
5101 -3952 0
5101 -3960 0
5101 -3990 0
5101 -3997 0
-5102 4032 4044 4063 0
5102 -4032 0
5102 -4044 0
5102 -4063 0
-5103 4072 4074 4079 4114 0
5103 -4072 0
5103 -4074 0
5103 -4079 0
5103 -4114 0
-5104 4187 4203 4206 0
5104 -4187 0
5104 -4203 0
5104 -4206 0
-5105 4301 4302 4303 1530 0
5105 -4301 0
5105 -4302 0
5105 -4303 0
5105 -1530 0
-5106 3289 3290 0
5106 -3289 0
5106 -3290 0
-5107 3291 706 0
5107 -3291 0
5107 -706 0
-710 3292 708 0
710 -3292 0
710 -708 0
-5108 3293 3294 0
5108 -3293 0
5108 -3294 0
-5109 3295 712 0
5109 -3295 0
5109 -712 0
-716 714 3296 0
716 -714 0
716 -3296 0
-5110 3575 3585 3619 3630 0
5110 -3575 0
5110 -3585 0
5110 -3619 0
5110 -3630 0
-270 1630 2885 0
270 -1630 0
270 -2885 0
-5111 3677 1840 0
5111 -3677 0
5111 -1840 0
-5112 1670 3701 0
5112 -1670 0
5112 -3701 0
-5113 4429 1252 4430 4431 0
5113 -4429 0
5113 -1252 0
5113 -4430 0
5113 -4431 0
-5114 3708 1678 0
5114 -3708 0
5114 -1678 0
-5115 3715 3730 3760 0
5115 -3715 0
5115 -3730 0
5115 -3760 0
-5116 3194 3195 0
5116 -3194 0
5116 -3195 0
-5117 3072 448 0
5117 -3072 0
5117 -448 0
-5118 450 3074 0
5118 -450 0
5118 -3074 0
-5119 452 3076 0
5119 -452 0
5119 -3076 0
-5120 3078 454 0
5120 -3078 0
5120 -454 0
-5121 3080 456 0
5121 -3080 0
5121 -456 0
-5122 446 3070 0
5122 -446 0
5122 -3070 0
-5123 2654 42 0
5123 -2654 0
5123 -42 0
-5124 46 2658 0
5124 -46 0
5124 -2658 0
-5125 2662 50 0
5125 -2662 0
5125 -50 0
-5126 2666 54 0
5126 -2666 0
5126 -54 0
-5127 58 2670 0
5127 -58 0
5127 -2670 0
-5128 2672 62 0
5128 -2672 0
5128 -62 0
-5129 306 2930 0
5129 -306 0
5129 -2930 0
-5130 2932 308 0
5130 -2932 0
5130 -308 0
-5131 310 2934 0
5131 -310 0
5131 -2934 0
-5132 2936 312 0
5132 -2936 0
5132 -312 0
-5133 2938 314 0
5133 -2938 0
5133 -314 0
-5134 2940 316 0
5134 -2940 0
5134 -316 0
-5135 4512 4511 4510 0
5135 -4512 0
5135 -4511 0
5135 -4510 0
-5136 4224 4223 4222 0
5136 -4224 0
5136 -4223 0
5136 -4222 0
-5137 4228 4230 4229 0
5137 -4228 0
5137 -4230 0
5137 -4229 0
-5138 4226 4227 4225 0
5138 -4226 0
5138 -4227 0
5138 -4225 0
-5139 5090 4568 4571 4569 0
5139 -5090 0
5139 -4568 0
5139 -4571 0
5139 -4569 0
-5140 4574 4573 4575 0
5140 -4574 0
5140 -4573 0
5140 -4575 0
-5141 4637 4638 4640 0
5141 -4637 0
5141 -4638 0
5141 -4640 0
-5142 4642 4645 4644 0
5142 -4642 0
5142 -4645 0
5142 -4644 0
-5143 5093 4669 4670 4667 0
5143 -5093 0
5143 -4669 0
5143 -4670 0
5143 -4667 0
-5144 4689 4690 4691 0
5144 -4689 0
5144 -4690 0
5144 -4691 0
-5145 4698 4693 4694 0
5145 -4698 0
5145 -4693 0
5145 -4694 0
-5146 5097 4717 4721 4718 0
5146 -5097 0
5146 -4717 0
5146 -4721 0
5146 -4718 0
-5147 4754 4753 4757 0
5147 -4754 0
5147 -4753 0
5147 -4757 0
-5148 4365 4366 4364 0
5148 -4365 0
5148 -4366 0
5148 -4364 0
-5149 4367 4368 4370 0
5149 -4367 0
5149 -4368 0
5149 -4370 0
-5150 4393 4392 4391 0
5150 -4393 0
5150 -4392 0
5150 -4391 0
-5151 4484 4483 4485 0
5151 -4484 0
5151 -4483 0
5151 -4485 0
-5152 4488 4486 4489 0
5152 -4488 0
5152 -4486 0
5152 -4489 0
-5153 1360 4517 0
5153 -1360 0
5153 -4517 0
-5154 2145 2162 2227 2275 0
5154 -2145 0
5154 -2162 0
5154 -2227 0
5154 -2275 0
-5155 4523 1364 4525 0
5155 -4523 0
5155 -1364 0
5155 -4525 0
-5156 2390 2410 2456 2462 0
5156 -2390 0
5156 -2410 0
5156 -2456 0
5156 -2462 0
-5157 2568 2572 2606 2612 0
5157 -2568 0
5157 -2572 0
5157 -2606 0
5157 -2612 0
-24 1922 2633 0
24 -1922 0
24 -2633 0
-5158 3207 3208 0
5158 -3207 0
5158 -3208 0
-5159 3209 592 0
5159 -3209 0
5159 -592 0
-5160 3210 594 0
5160 -3210 0
5160 -594 0
-5161 3211 596 0
5161 -3211 0
5161 -596 0
-600 3212 598 0
600 -3212 0
600 -598 0
-5162 3214 3215 0
5162 -3214 0
5162 -3215 0
-5163 3216 602 0
5163 -3216 0
5163 -602 0
-606 3217 604 0
606 -3217 0
606 -604 0
-5164 3218 3219 0
5164 -3218 0
5164 -3219 0
-5165 608 3220 0
5165 -608 0
5165 -3220 0
-56 1560 2664 0
56 -1560 0
56 -2664 0
-5166 610 3221 0
5166 -610 0
5166 -3221 0
-614 612 3222 0
614 -612 0
614 -3222 0
-5167 4740 1502 4743 0
5167 -4740 0
5167 -1502 0
5167 -4743 0
-5168 1800 3904 0
5168 -1800 0
5168 -3904 0
-5169 3905 1802 0
5169 -3905 0
5169 -1802 0
-5170 1804 3909 0
5170 -1804 0
5170 -3909 0
-5171 1808 3911 0
5171 -1808 0
5171 -3911 0
-5172 3940 3951 3984 3992 0
5172 -3940 0
5172 -3951 0
5172 -3984 0
5172 -3992 0
-5173 4026 4035 4056 4064 0
5173 -4026 0
5173 -4035 0
5173 -4056 0
5173 -4064 0
-5174 4075 4096 4101 4119 0
5174 -4075 0
5174 -4096 0
5174 -4101 0
5174 -4119 0
-5175 4160 4164 4185 4197 0
5175 -4160 0
5175 -4164 0
5175 -4185 0
5175 -4197 0
-5176 3567 3568 0
5176 -3567 0
5176 -3568 0
-5177 3569 1118 0
5177 -3569 0
5177 -1118 0
-1122 3570 1120 0
1122 -3570 0
1122 -1120 0
-5178 3579 3617 3629 3636 0
5178 -3579 0
5178 -3617 0
5178 -3629 0
5178 -3636 0
-5179 4324 4325 0
5179 -4324 0
5179 -4325 0
-254 2869 1866 0
254 -2869 0
254 -1866 0
-5180 1728 3830 0
5180 -1728 0
5180 -3830 0
-5181 3831 1730 0
5181 -3831 0
5181 -1730 0
-278 2893 1644 0
278 -2893 0
278 -1644 0
-5182 4627 1498 0
5182 -4627 0
5182 -1498 0
-5183 3684 1652 0
5183 -3684 0
5183 -1652 0
-5184 3685 1654 0
5184 -3685 0
5184 -1654 0
-5185 1660 3692 0
5185 -1660 0
5185 -3692 0
-5186 3835 1732 0
5186 -3835 0
5186 -1732 0
-5187 1664 3694 0
5187 -1664 0
5187 -3694 0
-5188 1220 4397 0
5188 -1220 0
5188 -4397 0
-5189 1224 4406 4407 0
5189 -1224 0
5189 -4406 0
5189 -4407 0
-5190 3837 1736 0
5190 -3837 0
5190 -1736 0
-5191 3717 3733 3736 3742 0
5191 -3717 0
5191 -3733 0
5191 -3736 0
5191 -3742 0
-5192 4513 4514 4515 0
5192 -4513 0
5192 -4514 0
5192 -4515 0
-5193 3803 1696 0
5193 -3803 0
5193 -1696 0
-5194 3563 3564 0
5194 -3563 0
5194 -3564 0
-5195 1112 3565 0
5195 -1112 0
5195 -3565 0
-1116 3566 1114 0
1116 -3566 0
1116 -1114 0
-5196 4305 4306 1434 4307 0
5196 -4305 0
5196 -4306 0
5196 -1434 0
5196 -4307 0
-5197 4309 4310 4311 0
5197 -4309 0
5197 -4310 0
5197 -4311 0
-5198 3657 1608 0
5198 -3657 0
5198 -1608 0
-5199 3877 1768 0
5199 -3877 0
5199 -1768 0
-5200 264 2883 0
5200 -264 0
5200 -2883 0
-5201 4339 4340 4341 1156 0
5201 -4339 0
5201 -4340 0
5201 -4341 0
5201 -1156 0
-5202 268 2887 0
5202 -268 0
5202 -2887 0
-274 1638 2889 0
274 -1638 0
274 -2889 0
-5203 2891 272 0
5203 -2891 0
5203 -272 0
-5204 4394 4395 4396 0
5204 -4394 0
5204 -4395 0
5204 -4396 0
-5205 3041 418 0
5205 -3041 0
5205 -418 0
-5206 3043 420 0
5206 -3043 0
5206 -420 0
-5207 422 3045 0
5207 -422 0
5207 -3045 0
-5208 558 3181 0
5208 -558 0
5208 -3181 0
-5209 4458 4459 4460 1296 0
5209 -4458 0
5209 -4459 0
5209 -4460 0
5209 -1296 0
-5210 560 3183 0
5210 -560 0
5210 -3183 0
-5211 3185 562 0
5211 -3185 0
5211 -562 0
-5212 5173 4049 0
5212 -5173 0
5212 -4049 0
-5213 1352 5192 0
5213 -1352 0
5213 -5192 0
-5214 5174 4113 0
5214 -5174 0
5214 -4113 0
-5215 5175 4176 0
5215 -5175 0
5215 -4176 0
-5216 5154 2286 0
5216 -5154 0
5216 -2286 0
-5217 5156 2350 0
5217 -5156 0
5217 -2350 0
-5218 5157 2488 0
5218 -5157 0
5218 -2488 0
-5219 5178 3586 0
5219 -5178 0
5219 -3586 0
-5220 1490 5197 0
5220 -1490 0
5220 -5197 0
-5221 1212 5204 0
5221 -1212 0
5221 -5204 0
-5222 5191 3762 0
5222 -5191 0
5222 -3762 0
-5223 5172 3950 0
5223 -5172 0
5223 -3950 0
-5224 5135 1350 0
5224 -5135 0
5224 -1350 0
-5225 5089 5216 0
5225 -5089 0
5225 -5216 0
-5226 5092 5217 0
5226 -5092 0
5226 -5217 0
-5227 5095 5218 0
5227 -5095 0
5227 -5218 0
-5228 5101 5223 0
5228 -5101 0
5228 -5223 0
-5229 5102 5212 0
5229 -5102 0
5229 -5212 0
-5230 5103 5214 0
5230 -5103 0
5230 -5214 0
-5231 5104 5215 0
5231 -5104 0
5231 -5215 0
-5232 5138 1488 0
5232 -5138 0
5232 -1488 0
-5233 5110 5219 0
5233 -5110 0
5233 -5219 0
-5234 5150 1210 0
5234 -5150 0
5234 -1210 0
-5235 5115 5222 0
5235 -5115 0
5235 -5222 0
-5236 2946 322 0
5236 -2946 0
5236 -322 0
-5237 324 2948 0
5237 -324 0
5237 -2948 0
-5238 2950 326 0
5238 -2950 0
5238 -326 0
-5239 2952 328 0
5239 -2952 0
5239 -328 0
-5240 2954 330 0
5240 -2954 0
5240 -330 0
-5241 4577 4578 4579 0
5241 -4577 0
5241 -4578 0
5241 -4579 0
-5242 4584 4585 4586 1476 4587 0
5242 -4584 0
5242 -4585 0
5242 -4586 0
5242 -1476 0
5242 -4587 0
-5243 4662 4664 4665 0
5243 -4662 0
5243 -4664 0
5243 -4665 0
-5244 4713 4715 4716 0
5244 -4713 0
5244 -4715 0
5244 -4716 0
-5245 72 2684 0
5245 -72 0
5245 -2684 0
-5246 2688 76 0
5246 -2688 0
5246 -76 0
-5247 80 2692 0
5247 -80 0
5247 -2692 0
-5248 84 2695 0
5248 -84 0
5248 -2695 0
-5249 88 2698 0
5249 -88 0
5249 -2698 0
-5250 4884 4886 4887 0
5250 -4884 0
5250 -4886 0
5250 -4887 0
-5251 4906 4907 4909 0
5251 -4906 0
5251 -4907 0
5251 -4909 0
-5252 4932 4933 4934 0
5252 -4932 0
5252 -4933 0
5252 -4934 0
-5253 5009 5012 5015 0
5253 -5009 0
5253 -5012 0
5253 -5015 0
-5254 5032 5034 5037 0
5254 -5032 0
5254 -5034 0
5254 -5037 0
-5255 4231 4232 4233 0
5255 -4231 0
5255 -4232 0
5255 -4233 0
-5256 5046 5049 5052 0
5256 -5046 0
5256 -5049 0
5256 -5052 0
-5257 462 3086 0
5257 -462 0
5257 -3086 0
-5258 3088 464 0
5258 -3088 0
5258 -464 0
-5259 3090 466 0
5259 -3090 0
5259 -466 0
-5260 3092 468 0
5260 -3092 0
5260 -468 0
-5261 3094 470 0
5261 -3094 0
5261 -470 0
-5262 4336 4337 4338 0
5262 -4336 0
5262 -4337 0
5262 -4338 0
-5263 4377 1198 4378 4379 4380 0
5263 -4377 0
5263 -1198 0
5263 -4378 0
5263 -4379 0
5263 -4380 0
-5264 4455 4456 4457 0
5264 -4455 0
5264 -4456 0
5264 -4457 0
-5265 4496 4497 4498 4499 1338 0
5265 -4496 0
5265 -4497 0
5265 -4498 0
5265 -4499 0
5265 -1338 0
-5266 2875 256 0
5266 -2875 0
5266 -256 0
-5267 2879 260 0
5267 -2879 0
5267 -260 0
-5268 3177 554 0
5268 -3177 0
5268 -554 0
-5269 3179 556 0
5269 -3179 0
5269 -556 0
-5270 4011 4045 4050 0
5270 -4011 0
5270 -4045 0
5270 -4050 0
-5271 4071 4083 4136 0
5271 -4071 0
5271 -4083 0
5271 -4136 0
-5272 1694 3801 0
5272 -1694 0
5272 -3801 0
-5273 4150 4195 4205 0
5273 -4150 0
5273 -4195 0
5273 -4205 0
-5274 2192 2290 2332 0
5274 -2192 0
5274 -2290 0
5274 -2332 0
-5275 2372 2402 2438 0
5275 -2372 0
5275 -2402 0
5275 -2438 0
-5276 3807 1702 0
5276 -3807 0
5276 -1702 0
-5277 2494 2558 2564 0
5277 -2494 0
5277 -2558 0
5277 -2564 0
-5278 3350 3351 0
5278 -3350 0
5278 -3351 0
-5279 798 3352 0
5279 -798 0
5279 -3352 0
-802 3353 800 0
802 -3353 0
802 -800 0
-5280 1442 4298 0
5280 -1442 0
5280 -4298 0
-5281 3595 3605 3621 0
5281 -3595 0
5281 -3605 0
5281 -3621 0
-5282 1604 3655 0
5282 -1604 0
5282 -3655 0
-78 2686 1564 0
78 -2686 0
78 -1564 0
-5283 3661 1614 0
5283 -3661 0
5283 -1614 0
-5284 3875 1766 0
5284 -3875 0
5284 -1766 0
-262 1628 2877 0
262 -1628 0
262 -2877 0
-5285 1774 3881 0
5285 -1774 0
5285 -3881 0
-5286 4348 1164 0
5286 -4348 0
5286 -1164 0
-5287 3318 3319 0
5287 -3318 0
5287 -3319 0
-5288 3320 750 0
5288 -3320 0
5288 -750 0
-5289 3321 752 0
5289 -3321 0
5289 -752 0
-756 3322 754 0
756 -3322 0
756 -754 0
-5290 3395 3396 0
5290 -3395 0
5290 -3396 0
-5291 3397 864 0
5291 -3397 0
5291 -864 0
-5292 3398 866 0
5292 -3398 0
5292 -866 0
-870 3399 868 0
870 -3399 0
870 -868 0
-5293 4469 1304 0
5293 -4469 0
5293 -1304 0
-5294 3714 3724 3769 0
5294 -3714 0
5294 -3724 0
5294 -3769 0
-5295 3934 3973 3995 0
5295 -3934 0
5295 -3973 0
5295 -3995 0
-5296 414 3037 0
5296 -414 0
5296 -3037 0
-5297 3039 416 0
5297 -3039 0
5297 -416 0
-5298 5255 1430 0
5298 -5255 0
5298 -1430 0
-5299 4300 4299 5280 4297 0
5299 -4300 0
5299 -4299 0
5299 -5280 0
5299 -4297 0
-5300 5262 1152 0
5300 -5262 0
5300 -1152 0
-5301 4351 4349 5286 4350 0
5301 -4351 0
5301 -4349 0
5301 -5286 0
5301 -4350 0
-5302 5264 1292 0
5302 -5264 0
5302 -1292 0
-5303 4467 4468 5293 4470 0
5303 -4467 0
5303 -4468 0
5303 -5293 0
5303 -4470 0
-5304 4956 4955 4954 0
5304 -4956 0
5304 -4955 0
5304 -4954 0
-5305 4982 4980 4981 0
5305 -4982 0
5305 -4980 0
5305 -4981 0
-5306 4992 4993 4994 0
5306 -4992 0
5306 -4993 0
5306 -4994 0
-5307 2121 2224 2240 2279 2324 0
5307 -2121 0
5307 -2224 0
5307 -2240 0
5307 -2279 0
5307 -2324 0
-5308 2376 2386 2416 2440 2446 0
5308 -2376 0
5308 -2386 0
5308 -2416 0
5308 -2440 0
5308 -2446 0
-5309 2498 2500 2508 2528 2544 0
5309 -2498 0
5309 -2500 0
5309 -2508 0
5309 -2528 0
5309 -2544 0
-5310 3810 1708 0
5310 -3810 0
5310 -1708 0
-5311 3814 1712 0
5311 -3814 0
5311 -1712 0
-5312 1466 4576 0
5312 -1466 0
5312 -4576 0
-5313 3819 1714 0
5313 -3819 0
5313 -1714 0
-5314 3821 1716 0
5314 -3821 0
5314 -1716 0
-5315 4620 4621 4623 0
5315 -4620 0
5315 -4621 0
5315 -4623 0
-48 1836 2656 0
48 -1836 0
48 -2656 0
-5316 4641 1140 4646 4647 0
5316 -4641 0
5316 -1140 0
5316 -4646 0
5316 -4647 0
-60 2668 1562 0
60 -2668 0
60 -1562 0
-5317 4692 1280 4696 4697 0
5317 -4692 0
5317 -1280 0
5317 -4696 0
5317 -4697 0
-66 1928 2674 0
66 -1928 0
66 -2674 0
-5318 1418 4752 4755 4756 0
5318 -1418 0
5318 -4752 0
5318 -4755 0
5318 -4756 0
-5319 3869 1902 0
5319 -3869 0
5319 -1902 0
-5320 1780 3884 0
5320 -1780 0
5320 -3884 0
-5321 1784 3888 0
5321 -1784 0
5321 -3888 0
-5322 4369 1188 0
5322 -4369 0
5322 -1188 0
-5323 3893 1786 0
5323 -3893 0
5323 -1786 0
-5324 1788 3895 0
5324 -1788 0
5324 -3895 0
-5325 3268 3269 0
5325 -3268 0
5325 -3269 0
-5326 3270 678 0
5326 -3270 0
5326 -678 0
-5327 3271 680 0
5327 -3271 0
5327 -680 0
-684 3272 682 0
684 -3272 0
684 -682 0
-5328 3274 3275 0
5328 -3274 0
5328 -3275 0
-5329 3276 686 0
5329 -3276 0
5329 -686 0
-690 3277 688 0
690 -3277 0
690 -688 0
-194 2798 1582 0
194 -2798 0
194 -1582 0
-202 2806 1586 0
202 -2806 0
202 -1586 0
-5330 3284 3285 0
5330 -3284 0
5330 -3285 0
-5331 700 3286 0
5331 -700 0
5331 -3286 0
-704 3287 702 0
704 -3287 0
704 -702 0
-5332 3932 3937 3939 3965 3978 0
5332 -3932 0
5332 -3937 0
5332 -3939 0
5332 -3965 0
5332 -3978 0
-5333 4008 4022 4028 4037 4048 0
5333 -4008 0
5333 -4022 0
5333 -4028 0
5333 -4037 0
5333 -4048 0
-5334 3591 3596 3600 3606 3624 0
5334 -3591 0
5334 -3596 0
5334 -3600 0
5334 -3606 0
5334 -3624 0
-5335 4070 4078 4085 4108 4131 0
5335 -4070 0
5335 -4078 0
5335 -4085 0
5335 -4108 0
5335 -4131 0
-5336 1860 3649 0
5336 -1860 0
5336 -3649 0
-5337 4144 4151 4177 4193 4204 0
5337 -4144 0
5337 -4151 0
5337 -4177 0
5337 -4193 0
5337 -4204 0
-5338 3305 3306 0
5338 -3305 0
5338 -3306 0
-5339 1620 3664 0
5339 -1620 0
5339 -3664 0
-5340 730 3307 0
5340 -730 0
5340 -3307 0
-5341 3308 732 0
5341 -3308 0
5341 -732 0
-5342 1626 3668 0
5342 -1626 0
5342 -3668 0
-5343 734 3309 0
5343 -734 0
5343 -3309 0
-5344 3310 736 0
5344 -3310 0
5344 -736 0
-5345 3673 1632 0
5345 -3673 0
5345 -1632 0
-5346 3675 1634 0
5346 -3675 0
5346 -1634 0
-5347 738 3311 0
5347 -738 0
5347 -3311 0
-742 3312 740 0
742 -3312 0
742 -740 0
-5348 3314 3315 0
5348 -3314 0
5348 -3315 0
-5349 3316 744 0
5349 -3316 0
5349 -744 0
-748 746 3317 0
748 -746 0
748 -3317 0
-5350 3753 3765 3770 3771 3779 0
5350 -3753 0
5350 -3765 0
5350 -3770 0
5350 -3771 0
5350 -3779 0
-5351 1328 4487 0
5351 -1328 0
5351 -4487 0
-5352 3795 1880 0
5352 -3795 0
5352 -1880 0
-5353 5274 5307 0
5353 -5274 0
5353 -5307 0
-5354 5275 5308 0
5354 -5275 0
5354 -5308 0
-5355 5277 5309 0
5355 -5277 0
5355 -5309 0
-5356 1720 3824 0
5356 -1720 0
5356 -3824 0
-5357 4622 5315 0
5357 -4622 0
5357 -5315 0
-5358 4643 5316 0
5358 -4643 0
5358 -5316 0
-5359 4695 5317 0
5359 -4695 0
5359 -5317 0
-5360 4751 5318 0
5360 -4751 0
5360 -5318 0
-94 1842 2700 0
94 -1842 0
94 -2700 0
-5361 1792 3898 0
5361 -1792 0
5361 -3898 0
-5362 5295 5332 0
5362 -5295 0
5362 -5332 0
-5363 5270 5333 0
5363 -5270 0
5363 -5333 0
-5364 5271 5335 0
5364 -5271 0
5364 -5335 0
-5365 5273 5337 0
5365 -5273 0
5365 -5337 0
-5366 5253 5013 0
5366 -5253 0
5366 -5013 0
-5367 5254 5035 0
5367 -5254 0
5367 -5035 0
-5368 5256 5047 0
5368 -5256 0
5368 -5047 0
-5369 5281 5334 0
5369 -5281 0
5369 -5334 0
-5370 1640 3678 0
5370 -1640 0
5370 -3678 0
-5371 5294 5350 0
5371 -5294 0
5371 -5350 0
-5372 4002 4051 0
5372 -4002 0
5372 -4051 0
-5373 4084 4106 0
5373 -4084 0
5373 -4106 0
-5374 4152 4167 0
5374 -4152 0
5374 -4167 0
-5375 2217 2297 0
5375 -2217 0
5375 -2297 0
-5376 2356 2368 0
5376 -2356 0
5376 -2368 0
-5377 2504 2540 0
5377 -2504 0
5377 -2540 0
-5378 1734 3836 0
5378 -1734 0
5378 -3836 0
-5379 3597 3598 0
5379 -3597 0
5379 -3598 0
-5380 3377 3378 0
5380 -3377 0
5380 -3378 0
-5381 3379 836 0
5381 -3379 0
5381 -836 0
-5382 838 3380 0
5382 -838 0
5382 -3380 0
-5383 3386 3387 0
5383 -3386 0
5383 -3387 0
-5384 3388 850 0
5384 -3388 0
5384 -850 0
-854 852 3389 0
854 -852 0
854 -3389 0
-5385 1662 3693 0
5385 -1662 0
5385 -3693 0
-130 2736 1576 0
130 -2736 0
130 -1576 0
-5386 3910 1806 0
5386 -3910 0
5386 -1806 0
-5387 3774 3776 0
5387 -3774 0
5387 -3776 0
-5388 3935 3957 0
5388 -3935 0
5388 -3957 0
-5389 5363 5372 0
5389 -5363 0
5389 -5372 0
-5390 5364 5373 0
5390 -5364 0
5390 -5373 0
-5391 5365 5374 0
5391 -5365 0
5391 -5374 0
-5392 5353 5375 0
5392 -5353 0
5392 -5375 0
-5393 5005 5008 0
5393 -5005 0
5393 -5008 0
-5394 5354 5376 0
5394 -5354 0
5394 -5376 0
-5395 5366 5014 0
5395 -5366 0
5395 -5014 0
-5396 5355 5377 0
5396 -5355 0
5396 -5377 0
-5397 5367 5031 0
5397 -5367 0
5397 -5031 0
-5398 5368 5050 0
5398 -5368 0
5398 -5050 0
-5399 5369 5379 0
5399 -5369 0
5399 -5379 0
-5400 3381 840 0
5400 -3381 0
5400 -840 0
-5401 5371 5387 0
5401 -5371 0
5401 -5387 0
-5402 5362 5388 0
5402 -5362 0
5402 -5388 0
-5403 5225 5392 0
5403 -5225 0
5403 -5392 0
-5404 5226 5394 0
5404 -5226 0
5404 -5394 0
-5405 5227 5396 0
5405 -5227 0
5405 -5396 0
-5406 5140 5312 0
5406 -5140 0
5406 -5312 0
-5407 5142 5358 0
5407 -5142 0
5407 -5358 0
-5408 5145 5359 0
5408 -5145 0
5408 -5359 0
-5409 5147 5360 0
5409 -5147 0
5409 -5360 0
-5410 3382 842 0
5410 -3382 0
5410 -842 0
-5411 5228 5402 0
5411 -5228 0
5411 -5402 0
-5412 5007 5393 0
5412 -5007 0
5412 -5393 0
-5413 5011 5395 0
5413 -5011 0
5413 -5395 0
-5414 5229 5389 0
5414 -5229 0
5414 -5389 0
-5415 5230 5390 0
5415 -5230 0
5415 -5390 0
-5416 5231 5391 0
5416 -5231 0
5416 -5391 0
-5417 5033 5397 0
5417 -5033 0
5417 -5397 0
-5418 5137 1456 0
5418 -5137 0
5418 -1456 0
-5419 5048 5398 0
5419 -5048 0
5419 -5398 0
-5420 5233 5399 0
5420 -5233 0
5420 -5399 0
-5421 5148 1178 0
5421 -5148 0
5421 -1178 0
-5422 5149 5322 0
5422 -5149 0
5422 -5322 0
-5423 5235 5401 0
5423 -5235 0
5423 -5401 0
-5424 5151 1318 0
5424 -5151 0
5424 -1318 0
-5425 5152 5351 0
5425 -5152 0
5425 -5351 0
-5426 2097 2305 0
5426 -2097 0
5426 -2305 0
-5427 2414 2444 0
5427 -2414 0
5427 -2444 0
-5428 2524 2578 0
5428 -2524 0
5428 -2578 0
-5429 3485 3486 0
5429 -3485 0
5429 -3486 0
-5430 3487 998 0
5430 -3487 0
5430 -998 0
-5431 3488 1000 0
5431 -3488 0
5431 -1000 0
-5432 1002 3489 0
5432 -1002 0
5432 -3489 0
-1006 1004 3490 0
1006 -1004 0
1006 -3490 0
-5433 3817 2016 0
5433 -3817 0
5433 -2016 0
-5434 3000 376 0
5434 -3000 0
5434 -376 0
-5435 3002 378 0
5435 -3002 0
5435 -378 0
-848 846 3385 0
848 -846 0
848 -3385 0
-5436 2050 3889 0
5436 -2050 0
5436 -3889 0
-5437 3891 2026 0
5437 -3891 0
5437 -2026 0
-5438 4901 4902 1462 4903 0
5438 -4901 0
5438 -4902 0
5438 -1462 0
5438 -4903 0
-5439 4921 4922 1184 4924 0
5439 -4921 0
5439 -4922 0
5439 -1184 0
5439 -4924 0
-5440 4947 1324 4948 4949 0
5440 -4947 0
5440 -1324 0
5440 -4948 0
5440 -4949 0
-5441 1458 4969 4970 4971 4972 0
5441 -1458 0
5441 -4969 0
5441 -4970 0
5441 -4971 0
5441 -4972 0
-5442 2044 3815 0
5442 -2044 0
5442 -3815 0
-5443 4975 4976 1180 4977 4978 0
5443 -4975 0
5443 -4976 0
5443 -1180 0
5443 -4977 0
5443 -4978 0
-5444 4988 4989 4990 1320 4991 0
5444 -4988 0
5444 -4989 0
5444 -4990 0
5444 -1320 0
5444 -4991 0
-5445 3956 3964 0
5445 -3956 0
5445 -3964 0
-5446 4055 4065 0
5446 -4055 0
5446 -4065 0
-5447 3547 3548 0
5447 -3547 0
5447 -3548 0
-5448 3549 1090 0
5448 -3549 0
5448 -1090 0
-5449 3550 1092 0
5449 -3550 0
5449 -1092 0
-1096 3552 1094 0
1096 -3552 0
1096 -1094 0
-5450 2788 180 0
5450 -2788 0
5450 -180 0
-186 2790 2040 0
186 -2790 0
186 -2040 0
-5451 2792 184 0
5451 -2792 0
5451 -184 0
-190 2794 2004 0
190 -2794 0
190 -2004 0
-5452 3612 3618 0
5452 -3612 0
5452 -3618 0
-5453 4076 4095 0
5453 -4076 0
5453 -4095 0
-5454 4142 4155 0
5454 -4142 0
5454 -4155 0
-5455 516 3140 0
5455 -516 0
5455 -3140 0
-5456 3142 518 0
5456 -3142 0
5456 -518 0
-5457 2032 3669 0
5457 -2032 0
5457 -3669 0
-5458 1994 3671 0
5458 -1994 0
5458 -3671 0
-5459 3722 3764 0
5459 -3722 0
5459 -3764 0
-834 832 3375 0
834 -832 0
834 -3375 0
-5460 2199 2202 2301 0
5460 -2199 0
5460 -2202 0
5460 -2301 0
-5461 2346 2394 2466 0
5461 -2346 0
5461 -2394 0
5461 -2466 0
-5462 4543 1386 0
5462 -4543 0
5462 -1386 0
-5463 2526 2530 2584 0
5463 -2526 0
5463 -2530 0
5463 -2584 0
-5464 4611 1524 0
5464 -4611 0
5464 -1524 0
-5465 1740 3843 0
5465 -1740 0
5465 -3843 0
-5466 1746 3848 0
5466 -1746 0
5466 -3848 0
-5467 3525 3526 0
5467 -3525 0
5467 -3526 0
-5468 3527 1056 0
5468 -3527 0
5468 -1056 0
-5469 3528 1058 0
5469 -3528 0
5469 -1058 0
-1062 3529 1060 0
1062 -3529 0
1062 -1060 0
-5470 3531 3532 0
5470 -3531 0
5470 -3532 0
-5471 3533 1064 0
5471 -3533 0
5471 -1064 0
-5472 1066 3534 0
5472 -1066 0
5472 -3534 0
-1070 1068 3535 0
1070 -1068 0
1070 -3535 0
-5473 1812 3917 0
5473 -1812 0
5473 -3917 0
-5474 1818 3922 0
5474 -1818 0
5474 -3922 0
-5475 3931 3961 3974 0
5475 -3931 0
5475 -3961 0
5475 -3974 0
-5476 4003 4016 4017 0
5476 -4003 0
5476 -4016 0
5476 -4017 0
-5477 4100 4110 4115 0
5477 -4100 0
5477 -4110 0
5477 -4115 0
-5478 4163 4172 4174 0
5478 -4163 0
5478 -4172 0
5478 -4174 0
-5479 3559 3560 0
5479 -3559 0
5479 -3560 0
-5480 1106 3561 0
5480 -1106 0
5480 -3561 0
-1110 3562 1108 0
1110 -3562 0
1110 -1108 0
-222 1854 2826 0
222 -1854 0
222 -2826 0
-5481 3608 3611 3635 0
5481 -3608 0
5481 -3611 0
5481 -3635 0
-286 2901 1656 0
286 -2901 0
286 -1656 0
-5482 1246 4425 0
5482 -1246 0
5482 -4425 0
-5483 1668 3700 0
5483 -1668 0
5483 -3700 0
-5484 3705 1674 0
5484 -3705 0
5484 -1674 0
-5485 3718 3741 3766 0
5485 -3718 0
5485 -3741 0
5485 -3766 0
-5486 5446 5476 0
5486 -5446 0
5486 -5476 0
-5487 5453 5477 0
5487 -5453 0
5487 -5477 0
-5488 5454 5478 0
5488 -5454 0
5488 -5478 0
-5489 5426 5460 0
5489 -5426 0
5489 -5460 0
-174 2779 1938 0
174 -2779 0
174 -1938 0
-5490 5427 5461 0
5490 -5427 0
5490 -5461 0
-5491 5428 5463 0
5491 -5428 0
5491 -5463 0
-5492 3829 1894 0
5492 -3829 0
5492 -1894 0
-5493 5452 5481 0
5493 -5452 0
5493 -5481 0
-5494 4679 1208 0
5494 -4679 0
5494 -1208 0
-5495 4728 1348 0
5495 -4728 0
5495 -1348 0
-5496 4777 1486 0
5496 -4777 0
5496 -1486 0
-5497 3683 1872 0
5497 -3683 0
5497 -1872 0
-5498 4879 4878 0
5498 -4879 0
5498 -4878 0
-5499 3903 1916 0
5499 -3903 0
5499 -1916 0
-5500 5438 4899 4900 0
5500 -5438 0
5500 -4899 0
5500 -4900 0
-5501 5439 4923 4925 0
5501 -5439 0
5501 -4923 0
5501 -4925 0
-5502 5440 4945 4946 0
5502 -5440 0
5502 -4945 0
5502 -4946 0
-5503 5459 5485 0
5503 -5459 0
5503 -5485 0
-5504 5445 5475 0
5504 -5445 0
5504 -5475 0
-5505 2312 2328 0
5505 -2312 0
5505 -2328 0
-5506 2364 2426 0
5506 -2364 0
5506 -2426 0
-5507 2580 2592 0
5507 -2580 0
5507 -2592 0
-5508 4606 4607 4609 0
5508 -4606 0
5508 -4607 0
5508 -4609 0
-5509 4676 4677 4678 0
5509 -4676 0
5509 -4677 0
5509 -4678 0
-5510 370 2994 0
5510 -370 0
5510 -2994 0
-5511 2996 372 0
5511 -2996 0
5511 -372 0
-5512 2998 374 0
5512 -2998 0
5512 -374 0
-5513 4727 4729 4730 0
5513 -4727 0
5513 -4729 0
5513 -4730 0
-5514 3868 2088 0
5514 -3868 0
5514 -2088 0
-5515 4774 4775 4776 0
5515 -4774 0
5515 -4775 0
5515 -4776 0
-5516 4808 4809 4810 0
5516 -4808 0
5516 -4809 0
5516 -4810 0
-5517 4845 4846 4849 0
5517 -4845 0
5517 -4846 0
5517 -4849 0
-5518 3390 3391 0
5518 -3390 0
5518 -3391 0
-5519 3392 856 0
5519 -3392 0
5519 -856 0
-5520 3393 858 0
5520 -3393 0
5520 -858 0
-862 3394 860 0
862 -3394 0
862 -860 0
-5521 3541 3542 0
5521 -3541 0
5521 -3542 0
-5522 3543 1080 0
5522 -3543 0
5522 -1080 0
-5523 1082 3544 0
5523 -1082 0
5523 -3544 0
-5524 3962 3966 0
5524 -3962 0
5524 -3966 0
-5525 4010 4061 0
5525 -4010 0
5525 -4061 0
-5526 2777 168 0
5526 -2777 0
5526 -168 0
-5527 1416 5022 5023 5024 5025 0
5527 -1416 0
5527 -5022 0
5527 -5023 0
5527 -5024 0
5527 -5025 0
-5528 2781 172 0
5528 -2781 0
5528 -172 0
-5529 176 2785 0
5529 -176 0
5529 -2785 0
-182 2787 2064 0
182 -2787 0
182 -2064 0
-5530 1138 5059 5060 5061 5062 0
5530 -1138 0
5530 -5059 0
5530 -5060 0
5530 -5061 0
5530 -5062 0
-5531 5069 5070 1278 5071 5072 0
5531 -5069 0
5531 -5070 0
5531 -1278 0
5531 -5071 0
5531 -5072 0
-5532 3574 3613 0
5532 -3574 0
5532 -3613 0
-5533 4081 4128 0
5533 -4081 0
5533 -4128 0
-5534 3648 2080 0
5534 -3648 0
5534 -2080 0
-5535 4145 4165 0
5535 -4145 0
5535 -4165 0
-5536 3134 510 0
5536 -3134 0
5536 -510 0
-5537 3136 512 0
5537 -3136 0
5537 -512 0
-5538 3138 514 0
5538 -3138 0
5538 -514 0
-5539 3725 3748 0
5539 -3725 0
5539 -3748 0
-5540 3794 2084 0
5540 -3794 0
5540 -2084 0
-5541 5486 5525 0
5541 -5486 0
5541 -5525 0
-5542 5487 5533 0
5542 -5487 0
5542 -5533 0
-5543 5488 5535 0
5543 -5488 0
5543 -5535 0
-5544 5489 5505 0
5544 -5489 0
5544 -5505 0
-5545 5490 5506 0
5545 -5490 0
5545 -5506 0
-5546 5491 5507 0
5546 -5491 0
5546 -5507 0
-5547 5493 5532 0
5547 -5493 0
5547 -5532 0
-5548 5494 5509 0
5548 -5494 0
5548 -5509 0
-5549 5495 5513 0
5549 -5495 0
5549 -5513 0
-5550 5496 5515 0
5550 -5496 0
5550 -5515 0
-5551 3383 844 0
5551 -3383 0
5551 -844 0
-5552 5503 5539 0
5552 -5503 0
5552 -5539 0
-5553 5504 5524 0
5553 -5504 0
5553 -5524 0
-5554 3479 3480 0
5554 -3479 0
5554 -3480 0
-5555 988 3481 0
5555 -988 0
5555 -3481 0
-5556 3482 990 0
5556 -3482 0
5556 -990 0
-5557 992 3483 0
5557 -992 0
5557 -3483 0
-996 3484 994 0
996 -3484 0
996 -994 0
-5558 2496 2560 2614 0
5558 -2496 0
5558 -2560 0
5558 -2614 0
-5559 4541 4542 4544 0
5559 -4541 0
5559 -4542 0
5559 -4544 0
-5560 1962 3811 0
5560 -1962 0
5560 -3811 0
-5561 4580 1464 0
5561 -4580 0
5561 -1464 0
-5562 3818 1888 0
5562 -3818 0
5562 -1888 0
-5563 2148 2180 2195 0
5563 -2148 0
5563 -2180 0
5563 -2195 0
-5564 1450 4608 0
5564 -1450 0
5564 -4608 0
-5565 4612 4613 4614 0
5565 -4612 0
5565 -4613 0
5565 -4614 0
-5566 1726 3827 0
5566 -1726 0
5566 -3827 0
-5567 3355 3356 0
5567 -3355 0
5567 -3356 0
-5568 804 3357 0
5568 -804 0
5568 -3357 0
-5569 2396 2442 2476 0
5569 -2396 0
5569 -2442 0
5569 -2476 0
-5570 3358 806 0
5570 -3358 0
5570 -806 0
-810 3359 808 0
810 -3359 0
810 -808 0
-5571 4663 1186 0
5571 -4663 0
5571 -1186 0
-5572 3361 3362 0
5572 -3361 0
5572 -3362 0
-5573 3363 812 0
5573 -3363 0
5573 -812 0
-816 814 3364 0
816 -814 0
816 -3364 0
-5574 1326 4714 0
5574 -1326 0
5574 -4714 0
-82 1838 2690 0
82 -1838 0
82 -2690 0
-5575 394 3018 0
5575 -394 0
5575 -3018 0
-5576 3020 396 0
5576 -3020 0
5576 -396 0
-5577 1172 4812 0
5577 -1172 0
5577 -4812 0
-5578 3885 1978 0
5578 -3885 0
5578 -1978 0
-5579 1910 3892 0
5579 -1910 0
5579 -3892 0
-5580 4848 1312 0
5580 -4848 0
5580 -1312 0
-5581 3901 1798 0
5581 -3901 0
5581 -1798 0
-5582 3970 3985 4000 0
5582 -3970 0
5582 -3985 0
5582 -4000 0
-5583 4014 4027 4046 0
5583 -4014 0
5583 -4027 0
5583 -4046 0
-5584 4094 4107 4138 0
5584 -4094 0
5584 -4107 0
5584 -4138 0
-5585 4153 4156 4178 0
5585 -4153 0
5585 -4156 0
5585 -4178 0
-178 2783 1852 0
178 -2783 0
178 -1852 0
-5586 4280 4281 4282 1482 0
5586 -4280 0
5586 -4281 0
5586 -4282 0
5586 -1482 0
-5587 216 2824 0
5587 -216 0
5587 -2824 0
-5588 2828 220 0
5588 -2828 0
5588 -220 0
-226 1594 2830 0
226 -1594 0
226 -2830 0
-5589 3583 3594 3634 0
5589 -3583 0
5589 -3594 0
5589 -3634 0
-5590 3665 1948 0
5590 -3665 0
5590 -1948 0
-5591 1870 3672 0
5591 -1870 0
5591 -3672 0
-5592 1646 3681 0
5592 -1646 0
5592 -3681 0
-5593 534 3158 0
5593 -534 0
5593 -3158 0
-5594 3160 536 0
5594 -3160 0
5594 -536 0
-5595 4388 4389 4390 1204 0
5595 -4388 0
5595 -4389 0
5595 -4390 0
5595 -1204 0
-5596 4422 4423 4424 0
5596 -4422 0
5596 -4423 0
5596 -4424 0
-5597 3740 3754 3775 0
5597 -3740 0
5597 -3754 0
5597 -3775 0
-5598 4507 1344 4508 4509 0
5598 -4507 0
5598 -1344 0
5598 -4508 0
5598 -4509 0
-5599 2137 2243 0
5599 -2137 0
5599 -2243 0
-5600 4532 4533 4534 0
5600 -4532 0
5600 -4533 0
5600 -4534 0
-5601 2404 2406 0
5601 -2404 0
5601 -2406 0
-5602 3809 1706 0
5602 -3809 0
5602 -1706 0
-5603 2574 2598 0
5603 -2574 0
5603 -2598 0
-5604 3883 1778 0
5604 -3883 0
5604 -1778 0
-5605 424 3047 0
5605 -424 0
5605 -3047 0
-5606 3049 426 0
5606 -3049 0
5606 -426 0
-5607 3536 3537 0
5607 -3536 0
5607 -3537 0
-142 2748 1578 0
142 -2748 0
142 -1578 0
-5608 1072 3538 0
5608 -1072 0
5608 -3538 0
-5609 1074 3539 0
5609 -1074 0
5609 -3539 0
-1078 1076 3540 0
1078 -1076 0
1078 -3540 0
-5610 3982 3989 0
5610 -3982 0
5610 -3989 0
-5611 4024 4034 0
5611 -4024 0
5611 -4034 0
-5612 4073 4121 0
5612 -4073 0
5612 -4121 0
-5613 4179 4207 0
5613 -4179 0
5613 -4207 0
-5614 3627 3639 0
5614 -3627 0
5614 -3639 0
-5615 1480 4312 4313 4314 4315 0
5615 -1480 0
5615 -4312 0
5615 -4313 0
5615 -4314 0
5615 -4315 0
-5616 4317 4318 4319 0
5616 -4317 0
5616 -4318 0
5616 -4319 0
-5617 1618 3663 0
5617 -1618 0
5617 -3663 0
-5618 2895 276 0
5618 -2895 0
5618 -276 0
-5619 280 2899 0
5619 -280 0
5619 -2899 0
-5620 4384 1202 4385 4386 4387 0
5620 -4384 0
5620 -1202 0
5620 -4385 0
5620 -4386 0
5620 -4387 0
-5621 4413 4414 4415 0
5621 -4413 0
5621 -4414 0
5621 -4415 0
-5622 3466 3467 0
5622 -3466 0
5622 -3467 0
-5623 3468 970 0
5623 -3468 0
5623 -970 0
-974 3469 972 0
974 -3469 0
974 -972 0
-5624 3729 3746 0
5624 -3729 0
5624 -3746 0
-5625 3187 564 0
5625 -3187 0
5625 -564 0
-5626 3189 566 0
5626 -3189 0
5626 -566 0
-5627 1342 4503 4504 4505 4506 0
5627 -1342 0
5627 -4503 0
5627 -4504 0
5627 -4505 0
5627 -4506 0
-5628 5583 5611 0
5628 -5583 0
5628 -5611 0
-5629 5584 5612 0
5629 -5584 0
5629 -5612 0
-5630 5585 5613 0
5630 -5585 0
5630 -5613 0
-5631 5563 5599 0
5631 -5563 0
5631 -5599 0
-5632 5569 5601 0
5632 -5569 0
5632 -5601 0
-5633 5558 5603 0
5633 -5558 0
5633 -5603 0
-5634 5564 4610 0
5634 -5564 0
5634 -4610 0
-5635 3826 1724 0
5635 -3826 0
5635 -1724 0
-5636 5589 5614 0
5636 -5589 0
5636 -5614 0
-5637 4789 4788 0
5637 -4789 0
5637 -4788 0
-5638 5577 4811 0
5638 -5577 0
5638 -4811 0
-5639 3680 1650 0
5639 -3680 0
5639 -1650 0
-282 2897 1648 0
282 -2897 0
282 -1648 0
-5640 5580 4847 0
5640 -5580 0
5640 -4847 0
-5641 3900 1796 0
5641 -3900 0
5641 -1796 0
-5642 5597 5624 0
5642 -5597 0
5642 -5624 0
-5643 5582 5610 0
5643 -5582 0
5643 -5610 0
-5644 5544 5631 0
5644 -5544 0
5644 -5631 0
-5645 1376 5600 0
5645 -1376 0
5645 -5600 0
-5646 5545 5632 0
5646 -5545 0
5646 -5632 0
-5647 5462 5559 0
5647 -5462 0
5647 -5559 0
-5648 5546 5633 0
5648 -5546 0
5648 -5633 0
-5649 5508 5634 0
5649 -5508 0
5649 -5634 0
-5650 5464 5565 0
5650 -5464 0
5650 -5565 0
-5651 3374 830 0
5651 -3374 0
5651 -830 0
-5652 5516 5638 0
5652 -5516 0
5652 -5638 0
-5653 5517 5640 0
5653 -5517 0
5653 -5640 0
-5654 5553 5643 0
5654 -5553 0
5654 -5643 0
-5655 5541 5628 0
5655 -5541 0
5655 -5628 0
-5656 5542 5629 0
5656 -5542 0
5656 -5629 0
-5657 5543 5630 0
5657 -5543 0
5657 -5630 0
-5658 5547 5636 0
5658 -5547 0
5658 -5636 0
-5659 1514 5616 0
5659 -1514 0
5659 -5616 0
-5660 1236 5621 0
5660 -1236 0
5660 -5621 0
-5661 5482 5596 0
5661 -5482 0
5661 -5596 0
-5662 5552 5642 0
5662 -5552 0
5662 -5642 0
-5663 3799 2010 0
5663 -3799 0
5663 -2010 0
-5664 2110 2210 2253 2336 0
5664 -2110 0
5664 -2210 0
5664 -2253 0
5664 -2336 0
-5665 4524 4526 4527 0
5665 -4524 0
5665 -4526 0
5665 -4527 0
-5666 2380 2418 2460 0
5666 -2380 0
5666 -2418 0
5666 -2460 0
-5667 2510 2548 2566 0
5667 -2510 0
5667 -2548 0
5667 -2566 0
-5668 3365 3366 0
5668 -3365 0
5668 -3366 0
-5669 2631 18 0
5669 -2631 0
5669 -18 0
-5670 2635 22 0
5670 -2635 0
5670 -22 0
-28 2637 1992 0
28 -2637 0
28 -1992 0
-5671 818 3367 0
5671 -818 0
5671 -3367 0
-5672 3369 3370 0
5672 -3369 0
5672 -3370 0
-822 3368 820 0
822 -3368 0
822 -820 0
-5673 1970 3849 0
5673 -1970 0
5673 -3849 0
-5674 3847 1744 0
5674 -3847 0
5674 -1744 0
-5675 3223 3224 0
5675 -3223 0
5675 -3224 0
-5676 3225 616 0
5676 -3225 0
5676 -616 0
-5677 618 3226 0
5677 -618 0
5677 -3226 0
-622 620 3228 0
622 -620 0
622 -3228 0
-5678 3229 3230 0
5678 -3229 0
5678 -3230 0
-5679 624 3231 0
5679 -624 0
5679 -3231 0
-5680 3232 626 0
5680 -3232 0
5680 -626 0
-5681 628 3233 0
5681 -628 0
5681 -3233 0
-86 1998 2694 0
86 -1998 0
86 -2694 0
-632 630 3234 0
632 -630 0
632 -3234 0
-5682 2020 3873 0
5682 -2020 0
5682 -3873 0
-5683 4828 4829 1248 4830 4831 0
5683 -4828 0
5683 -4829 0
5683 -1248 0
5683 -4830 0
5683 -4831 0
-5684 4865 4866 4867 4868 1388 0
5684 -4865 0
5684 -4866 0
5684 -4867 0
5684 -4868 0
5684 -1388 0
-5685 4869 4870 0
5685 -4869 0
5685 -4870 0
-5686 4874 4875 4876 1526 4877 0
5686 -4874 0
5686 -4875 0
5686 -4876 0
5686 -1526 0
5686 -4877 0
-5687 4885 1426 4888 0
5687 -4885 0
5687 -1426 0
5687 -4888 0
-5688 4739 4741 4742 0
5688 -4739 0
5688 -4741 0
5688 -4742 0
-5689 1148 4908 4910 0
5689 -1148 0
5689 -4908 0
5689 -4910 0
-5690 4930 4931 1288 0
5690 -4930 0
5690 -4931 0
5690 -1288 0
-5691 3058 434 0
5691 -3058 0
5691 -434 0
-5692 1816 3921 0
5692 -1816 0
5692 -3921 0
-5693 1986 3923 0
5693 -1986 0
5693 -3923 0
-5694 3060 436 0
5694 -3060 0
5694 -436 0
-5695 3945 3968 3979 3981 0
5695 -3945 0
5695 -3968 0
5695 -3979 0
5695 -3981 0
-5696 4012 4020 4023 4041 0
5696 -4012 0
5696 -4020 0
5696 -4023 0
5696 -4041 0
-5697 4077 4099 4130 0
5697 -4077 0
5697 -4099 0
5697 -4130 0
-5698 4140 4189 4192 0
5698 -4140 0
5698 -4189 0
5698 -4192 0
-214 2818 1592 0
214 -2818 0
214 -1592 0
-5699 3599 3616 3628 0
5699 -3599 0
5699 -3616 0
5699 -3628 0
-5700 1988 3653 0
5700 -1988 0
5700 -3653 0
-728 3303 726 0
728 -3303 0
728 -726 0
-5701 4404 4405 4408 0
5701 -4404 0
5701 -4405 0
5701 -4408 0
-5702 2918 294 0
5702 -2918 0
5702 -294 0
-5703 2920 296 0
5703 -2920 0
5703 -296 0
-5704 3704 1672 0
5704 -3704 0
5704 -1672 0
-5705 1954 3706 0
5705 -1954 0
5705 -3706 0
-5706 3716 3728 3756 0
5706 -3716 0
5706 -3728 0
5706 -3756 0
-986 984 3478 0
986 -984 0
986 -3478 0
-5707 2388 2420 0
5707 -2388 0
5707 -2420 0
-5708 4538 4539 4540 0
5708 -4538 0
5708 -4539 0
5708 -4540 0
-5709 2516 2620 0
5709 -2516 0
5709 -2620 0
-5710 1394 4551 4552 4553 0
5710 -1394 0
5710 -4551 0
5710 -4552 0
5710 -4553 0
-5711 4558 4560 4561 0
5711 -4558 0
5711 -4560 0
5711 -4561 0
-5712 4269 4271 4272 0
5712 -4269 0
5712 -4271 0
5712 -4272 0
-5713 4273 4274 4275 0
5713 -4273 0
5713 -4274 0
5713 -4275 0
-5714 3852 1752 0
5714 -3852 0
5714 -1752 0
-5715 3371 824 0
5715 -3371 0
5715 -824 0
-5716 826 3372 0
5716 -826 0
5716 -3372 0
-5717 380 3004 0
5717 -380 0
5717 -3004 0
-5718 3373 828 0
5718 -3373 0
5718 -828 0
-5719 382 3006 0
5719 -382 0
5719 -3006 0
-5720 3008 384 0
5720 -3008 0
5720 -384 0
-5721 386 3010 0
5721 -386 0
5721 -3010 0
-5722 4780 4781 4782 0
5722 -4780 0
5722 -4781 0
5722 -4782 0
-5723 3012 388 0
5723 -3012 0
5723 -388 0
-5724 3014 390 0
5724 -3014 0
5724 -390 0
-5725 3016 392 0
5725 -3016 0
5725 -392 0
-5726 4795 4796 4798 0
5726 -4795 0
5726 -4796 0
5726 -4798 0
-5727 4818 4819 4821 0
5727 -4818 0
5727 -4819 0
5727 -4821 0
-5728 4832 4833 4835 0
5728 -4832 0
5728 -4833 0
5728 -4835 0
-5729 4855 4859 4860 0
5729 -4855 0
5729 -4859 0
5729 -4860 0
-5730 3926 1824 0
5730 -3926 0
5730 -1824 0
-5731 4080 4120 0
5731 -4080 0
5731 -4120 0
-5732 4143 4175 0
5732 -4143 0
5732 -4175 0
-5733 2796 188 0
5733 -2796 0
5733 -188 0
-5734 4260 4261 4262 0
5734 -4260 0
5734 -4261 0
5734 -4262 0
-5735 192 2800 0
5735 -192 0
5735 -2800 0
-198 1584 2802 0
198 -1584 0
198 -2802 0
-5736 2804 196 0
5736 -2804 0
5736 -196 0
-5737 4263 4264 4265 1532 0
5737 -4263 0
5737 -4264 0
5737 -4265 0
5737 -1532 0
-5738 2808 200 0
5738 -2808 0
5738 -200 0
-5739 4266 4267 4268 0
5739 -4266 0
5739 -4267 0
5739 -4268 0
-5740 2812 204 0
5740 -2812 0
5740 -204 0
-5741 4277 4278 4279 0
5741 -4277 0
5741 -4278 0
5741 -4279 0
-5742 208 2816 0
5742 -208 0
5742 -2816 0
-5743 212 2820 0
5743 -212 0
5743 -2820 0
-5744 3601 3631 0
5744 -3601 0
5744 -3631 0
-5745 3144 520 0
5745 -3144 0
5745 -520 0
-5746 522 3146 0
5746 -522 0
5746 -3146 0
-5747 3148 524 0
5747 -3148 0
5747 -524 0
-5748 526 3150 0
5748 -526 0
5748 -3150 0
-5749 3152 528 0
5749 -3152 0
5749 -528 0
-5750 530 3154 0
5750 -530 0
5750 -3154 0
-5751 4358 4359 4360 0
5751 -4358 0
5751 -4359 0
5751 -4360 0
-5752 4371 4372 4373 0
5752 -4371 0
5752 -4372 0
5752 -4373 0
-5753 3156 532 0
5753 -3156 0
5753 -532 0
-5754 4419 4420 4421 0
5754 -4419 0
5754 -4420 0
5754 -4421 0
-5755 1254 4432 4433 4434 0
5755 -1254 0
5755 -4432 0
5755 -4433 0
5755 -4434 0
-5756 4440 4441 4442 0
5756 -4440 0
5756 -4441 0
5756 -4442 0
-5757 1680 3709 0
5757 -1680 0
5757 -3709 0
-5758 3738 3780 0
5758 -3738 0
5758 -3780 0
-5759 4477 4478 4479 0
5759 -4477 0
5759 -4478 0
5759 -4479 0
-5760 4490 4491 4492 0
5760 -4490 0
5760 -4491 0
5760 -4492 0
-5761 3475 3476 0
5761 -3475 0
5761 -3476 0
-5762 3477 982 0
5762 -3477 0
5762 -982 0
-5763 5664 2213 0
5763 -5664 0
5763 -2213 0
-5764 5666 5707 0
5764 -5666 0
5764 -5707 0
-5765 1384 5708 0
5765 -1384 0
5765 -5708 0
-5766 5667 5709 0
5766 -5667 0
5766 -5709 0
-5767 4872 4871 0
5767 -4872 0
5767 -4871 0
-5768 4897 4898 0
5768 -4897 0
5768 -4898 0
-5769 4913 4915 0
5769 -4913 0
5769 -4915 0
-5770 4937 4940 0
5770 -4937 0
5770 -4940 0
-5771 5695 3933 0
5771 -5695 0
5771 -3933 0
-5772 5696 4025 0
5772 -5696 0
5772 -4025 0
-5773 5697 5731 0
5773 -5697 0
5773 -5731 0
-5774 5698 5732 0
5774 -5698 0
5774 -5732 0
-5775 1522 5741 0
5775 -1522 0
5775 -5741 0
-5776 5699 5744 0
5776 -5699 0
5776 -5744 0
-5777 1244 5754 0
5777 -1244 0
5777 -5754 0
-5778 5706 5758 0
5778 -5706 0
5778 -5758 0
-5779 3802 2012 0
5779 -3802 0
5779 -2012 0
-5780 5644 5763 0
5780 -5644 0
5780 -5763 0
-5781 5646 5764 0
5781 -5646 0
5781 -5764 0
-5782 5648 5766 0
5782 -5648 0
5782 -5766 0
-5783 3876 2022 0
5783 -3876 0
5783 -2022 0
-5784 4873 5767 0
5784 -4873 0
5784 -5767 0
-5785 4895 5768 1432 0
5785 -4895 0
5785 -5768 0
5785 -1432 0
-5786 4912 5769 1154 0
5786 -4912 0
5786 -5769 0
5786 -1154 0
-5787 4935 5770 1294 0
5787 -4935 0
5787 -5770 0
5787 -1294 0
-150 2756 2002 0
150 -2756 0
150 -2002 0
-5788 5654 5771 0
5788 -5654 0
5788 -5771 0
-5789 5655 5772 0
5789 -5655 0
5789 -5772 0
-5790 5656 5773 0
5790 -5656 0
5790 -5773 0
-5791 5657 5774 0
5791 -5657 0
5791 -5774 0
-5792 5658 5776 0
5792 -5658 0
5792 -5776 0
-5793 3656 1990 0
5793 -3656 0
5793 -1990 0
-5794 5662 5778 0
5794 -5662 0
5794 -5778 0
-5795 5155 5665 0
5795 -5155 0
5795 -5665 0
-5796 5403 5780 0
5796 -5403 0
5796 -5780 0
-5797 5404 5781 0
5797 -5404 0
5797 -5781 0
-5798 5405 5782 0
5798 -5405 0
5798 -5782 0
-5799 3812 2070 0
5799 -3812 0
5799 -2070 0
-5800 5241 5561 0
5800 -5241 0
5800 -5561 0
-5801 5243 5571 0
5801 -5243 0
5801 -5571 0
-5802 5244 5574 0
5802 -5244 0
5802 -5574 0
-5803 3860 3861 0
5803 -3860 0
5803 -3861 0
-5804 5167 5688 0
5804 -5167 0
5804 -5688 0
-5805 4778 5722 0
5805 -4778 0
5805 -5722 0
-90 2697 2060 0
90 -2697 0
90 -2060 0
-5806 3886 2076 0
5806 -3886 0
5806 -2076 0
-5807 4823 5727 0
5807 -4823 0
5807 -5727 0
-5808 4858 5729 0
5808 -4858 0
5808 -5729 0
-5809 5250 5687 0
5809 -5250 0
5809 -5687 0
-5810 5251 5689 0
5810 -5251 0
5810 -5689 0
-5811 5252 5690 0
5811 -5252 0
5811 -5690 0
-5812 5411 5788 0
5812 -5411 0
5812 -5788 0
-5813 5412 5006 0
5813 -5412 0
5813 -5006 0
-5814 5413 5010 1452 0
5814 -5413 0
5814 -5010 0
5814 -1452 0
-5815 5414 5789 0
5815 -5414 0
5815 -5789 0
-5816 5415 5790 0
5816 -5415 0
5816 -5790 0
-5817 5416 5791 0
5817 -5416 0
5817 -5791 0
-5818 5417 5036 1174 0
5818 -5417 0
5818 -5036 0
5818 -1174 0
-5819 5419 5051 1314 0
5819 -5419 0
5819 -5051 0
5819 -1314 0
-5820 5080 5079 0
5820 -5080 0
5820 -5079 0
-5821 1448 5734 0
5821 -1448 0
5821 -5734 0
-5822 1470 5739 0
5822 -1470 0
5822 -5739 0
-5823 5420 5792 0
5823 -5420 0
5823 -5792 0
-5824 2851 2855 0
5824 -2851 0
5824 -2855 0
-5825 3666 2058 0
5825 -3666 0
5825 -2058 0
-5826 1170 5751 0
5826 -1170 0
5826 -5751 0
-5827 1192 5752 0
5827 -1192 0
5827 -5752 0
-5828 5189 5701 0
5828 -5189 0
5828 -5701 0
-5829 5423 5794 0
5829 -5423 0
5829 -5794 0
-5830 3788 3785 0
5830 -3788 0
5830 -3785 0
-5831 1310 5759 0
5831 -1310 0
5831 -5759 0
-5832 1332 5760 0
5832 -1332 0
5832 -5760 0
-5833 1960 3800 0
5833 -1960 0
5833 -3800 0
-5834 2093 2151 2155 2320 0
5834 -2093 0
5834 -2151 0
5834 -2155 0
5834 -2320 0
-5835 2344 2354 2378 2474 0
5835 -2344 0
5835 -2354 0
5835 -2378 0
5835 -2474 0
-5836 2484 2518 2546 2550 0
5836 -2484 0
5836 -2518 0
5836 -2546 0
5836 -2550 0
-5837 4594 1422 0
5837 -4594 0
5837 -1422 0
-5838 4653 1144 0
5838 -4653 0
5838 -1144 0
-5839 1284 4707 0
5839 -1284 0
5839 -4707 0
-5840 1760 3856 0
5840 -1760 0
5840 -3856 0
-5841 1428 4761 0
5841 -1428 0
5841 -4761 0
-5842 3871 1906 0
5842 -3871 0
5842 -1906 0
-5843 3874 1976 0
5843 -3874 0
5843 -1976 0
-5844 4805 1150 0
5844 -4805 0
5844 -1150 0
-110 2716 1930 0
110 -2716 0
110 -1930 0
-5845 1290 4842 0
5845 -1290 0
5845 -4842 0
-146 1846 2752 0
146 -1846 0
146 -2752 0
-5846 3930 1832 0
5846 -3930 0
5846 -1832 0
-5847 3948 3958 3959 3969 0
5847 -3948 0
5847 -3958 0
5847 -3959 0
5847 -3969 0
-5848 4005 4006 4013 4066 0
5848 -4005 0
5848 -4006 0
5848 -4013 0
5848 -4066 0
-5849 4082 4088 4109 4116 0
5849 -4082 0
5849 -4088 0
5849 -4109 0
5849 -4116 0
-5850 4157 4168 4182 4190 0
5850 -4157 0
5850 -4168 0
5850 -4182 0
5850 -4190 0
-5851 3427 3428 0
5851 -3427 0
5851 -3428 0
-5852 912 3429 0
5852 -912 0
5852 -3429 0
-5853 914 3430 0
5853 -914 0
5853 -3430 0
-5854 916 3431 0
5854 -916 0
5854 -3431 0
-920 3432 918 0
920 -3432 0
920 -918 0
-5855 3602 3623 3626 3633 0
5855 -3602 0
5855 -3623 0
5855 -3626 0
5855 -3633 0
-5856 3434 3435 0
5856 -3434 0
5856 -3435 0
-5857 922 3436 0
5857 -922 0
5857 -3436 0
-5858 3437 924 0
5858 -3437 0
5858 -924 0
-5859 3651 1864 0
5859 -3651 0
5859 -1864 0
-928 926 3438 0
928 -926 0
928 -3438 0
-5860 3654 1946 0
5860 -3654 0
5860 -1946 0
-246 2861 1606 0
246 -2861 0
246 -1606 0
-980 3474 978 0
980 -3474 0
980 -978 0
-5861 3473 976 0
5861 -3473 0
5861 -976 0
-5862 3329 3330 0
5862 -3329 0
5862 -3330 0
-5863 3331 766 0
5863 -3331 0
5863 -766 0
-5864 1688 3713 0
5864 -1688 0
5864 -3713 0
-5865 3727 3731 3739 3781 0
5865 -3727 0
5865 -3731 0
5865 -3739 0
5865 -3781 0
-5866 768 3332 0
5866 -768 0
5866 -3332 0
-772 3333 770 0
772 -3333 0
772 -770 0
-5867 3471 3472 0
5867 -3471 0
5867 -3472 0
-5868 3797 1884 0
5868 -3797 0
5868 -1884 0
-5869 4516 4518 4519 0
5869 -4516 0
5869 -4518 0
5869 -4519 0
-5870 2103 2106 0
5870 -2103 0
5870 -2106 0
-5871 2392 2480 0
5871 -2392 0
5871 -2480 0
-5872 2514 2594 0
5872 -2514 0
5872 -2594 0
-5873 4565 4566 4567 0
5873 -4565 0
5873 -4566 0
5873 -4567 0
-5874 4628 4629 4630 0
5874 -4628 0
5874 -4629 0
5874 -4630 0
-5875 3864 1972 0
5875 -3864 0
5875 -1972 0
-5876 4799 1136 4800 4801 4802 0
5876 -4799 0
5876 -1136 0
5876 -4800 0
5876 -4801 0
5876 -4802 0
-5877 406 3029 0
5877 -406 0
5877 -3029 0
-5878 4836 1276 4837 4838 4839 0
5878 -4836 0
5878 -1276 0
5878 -4837 0
5878 -4838 0
5878 -4839 0
-5879 3031 408 0
5879 -3031 0
5879 -408 0
-5880 3033 410 0
5880 -3033 0
5880 -410 0
-5881 3035 412 0
5881 -3035 0
5881 -412 0
-5882 3953 3972 0
5882 -3953 0
5882 -3972 0
-5883 5002 5003 5004 0
5883 -5002 0
5883 -5003 0
5883 -5004 0
-5884 4019 4068 0
5884 -4019 0
5884 -4068 0
-5885 4092 4133 0
5885 -4092 0
5885 -4133 0
-5886 4154 4198 0
5886 -4154 0
5886 -4198 0
-5887 5038 5039 5040 0
5887 -5038 0
5887 -5039 0
5887 -5040 0
-5888 3553 3554 0
5888 -3553 0
5888 -3554 0
-5889 3555 1098 0
5889 -3555 0
5889 -1098 0
-5890 3556 1100 0
5890 -3556 0
5890 -1100 0
-1104 1102 3557 0
1104 -1102 0
1104 -3557 0
-5891 4289 4290 4291 0
5891 -4289 0
5891 -4290 0
5891 -4291 0
-210 2814 1590 0
210 -2814 0
210 -1590 0
-5892 4293 1414 4294 4295 4296 0
5892 -4293 0
5892 -1414 0
5892 -4294 0
5892 -4295 0
5892 -4296 0
-5893 3590 3604 0
5893 -3590 0
5893 -3604 0
-5894 1942 3644 0
5894 -1942 0
5894 -3644 0
-5895 2859 240 0
5895 -2859 0
5895 -240 0
-5896 2863 244 0
5896 -2863 0
5896 -244 0
-5897 3439 3440 0
5897 -3439 0
5897 -3440 0
-5898 248 2867 0
5898 -248 0
5898 -2867 0
-5899 2871 252 0
5899 -2871 0
5899 -252 0
-5900 3441 930 0
5900 -3441 0
5900 -930 0
-5901 932 3442 0
5901 -932 0
5901 -3442 0
-936 3443 934 0
936 -3443 0
936 -934 0
-5902 4398 4399 4400 0
5902 -4398 0
5902 -4399 0
5902 -4400 0
-5903 546 3169 0
5903 -546 0
5903 -3169 0
-5904 3171 548 0
5904 -3171 0
5904 -548 0
-5905 550 3173 0
5905 -550 0
5905 -3173 0
-5906 3175 552 0
5906 -3175 0
5906 -552 0
-5907 5054 5055 5056 0
5907 -5054 0
5907 -5055 0
5907 -5056 0
-5908 4446 4447 4448 0
5908 -4446 0
5908 -4447 0
5908 -4448 0
-5909 3744 3759 0
5909 -3744 0
5909 -3759 0
-5910 1956 3790 0
5910 -1956 0
5910 -3790 0
-5911 5848 5884 0
5911 -5848 0
5911 -5884 0
-5912 5849 5885 0
5912 -5849 0
5912 -5885 0
-5913 5850 5886 0
5913 -5850 0
5913 -5886 0
-5914 5834 5870 0
5914 -5834 0
5914 -5870 0
-5915 5835 5871 0
5915 -5835 0
5915 -5871 0
-5916 5836 5872 0
5916 -5836 0
5916 -5872 0
-5917 1402 5873 0
5917 -1402 0
5917 -5873 0
-5918 1540 5891 0
5918 -1540 0
5918 -5891 0
-5919 5855 5893 0
5919 -5855 0
5919 -5893 0
-5920 3647 1944 0
5920 -3647 0
5920 -1944 0
-5921 3867 1974 0
5921 -3867 0
5921 -1974 0
-5922 5841 4760 0
5922 -5841 0
5922 -4760 0
-258 2873 1622 0
258 -2873 0
258 -1622 0
-5923 4786 4787 0
5923 -4786 0
5923 -4787 0
-5924 5844 4804 0
5924 -5844 0
5924 -4804 0
-5925 5845 4840 0
5925 -5845 0
5925 -4840 0
-5926 1262 5908 0
5926 -1262 0
5926 -5908 0
-5927 5865 5909 0
5927 -5865 0
5927 -5909 0
-5928 3793 1958 0
5928 -3793 0
5928 -1958 0
-5929 5847 5882 0
5929 -5847 0
5929 -5882 0
-5930 4554 4555 4557 0
5930 -4554 0
5930 -4555 0
5930 -4557 0
-5931 4593 4595 4596 0
5931 -4593 0
5931 -4595 0
5931 -4596 0
-5932 1506 4597 4598 4599 4600 0
5932 -1506 0
5932 -4597 0
5932 -4598 0
5932 -4599 0
5932 -4600 0
-5933 4601 4603 4604 0
5933 -4601 0
5933 -4603 0
5933 -4604 0
-1014 3496 1012 0
1014 -3496 0
1014 -1012 0
-5934 2980 356 0
5934 -2980 0
5934 -356 0
-5935 4654 4655 4656 0
5935 -4654 0
5935 -4655 0
5935 -4656 0
-5936 4657 4660 4661 0
5936 -4657 0
5936 -4660 0
5936 -4661 0
-5937 358 2982 0
5937 -358 0
5937 -2982 0
-5938 360 2984 0
5938 -360 0
5938 -2984 0
-5939 2986 362 0
5939 -2986 0
5939 -362 0
-5940 1228 4684 4685 4686 4687 0
5940 -1228 0
5940 -4684 0
5940 -4685 0
5940 -4686 0
5940 -4687 0
-5941 2988 364 0
5941 -2988 0
5941 -364 0
-5942 4704 4705 4706 0
5942 -4704 0
5942 -4705 0
5942 -4706 0
-5943 4710 4711 4712 0
5943 -4710 0
5943 -4711 0
5943 -4712 0
-5944 2992 368 0
5944 -2992 0
5944 -368 0
-5945 4735 4736 4737 4738 1368 0
5945 -4735 0
5945 -4736 0
5945 -4737 0
5945 -4738 0
5945 -1368 0
-5946 4770 4772 4773 0
5946 -4770 0
5946 -4772 0
5946 -4773 0
-5947 4824 4825 4827 0
5947 -4824 0
5947 -4825 0
5947 -4827 0
-5948 4861 4862 4863 0
5948 -4861 0
5948 -4862 0
5948 -4863 0
-5949 4893 4894 4896 0
5949 -4893 0
5949 -4894 0
5949 -4896 0
-5950 4911 4914 4916 0
5950 -4911 0
5950 -4914 0
5950 -4916 0
-5951 4936 4938 4939 0
5951 -4936 0
5951 -4938 0
5951 -4939 0
-5952 2750 140 0
5952 -2750 0
5952 -140 0
-5953 144 2754 0
5953 -144 0
5953 -2754 0
-5954 2757 148 0
5954 -2757 0
5954 -148 0
-5955 4965 4966 4968 0
5955 -4965 0
5955 -4966 0
5955 -4968 0
-5956 152 2761 0
5956 -152 0
5956 -2761 0
-5957 156 2765 0
5957 -156 0
5957 -2765 0
-5958 160 2769 0
5958 -160 0
5958 -2769 0
-5959 2773 164 0
5959 -2773 0
5959 -164 0
-5960 5027 5029 5030 0
5960 -5027 0
5960 -5029 0
5960 -5030 0
-5961 5043 5044 5045 0
5961 -5043 0
5961 -5044 0
5961 -5045 0
-5962 4256 4257 4259 0
5962 -4256 0
5962 -4257 0
5962 -4259 0
-5963 3120 496 0
5963 -3120 0
5963 -496 0
-5964 3122 498 0
5964 -3122 0
5964 -498 0
-5965 500 3124 0
5965 -500 0
5965 -3124 0
-5966 3126 502 0
5966 -3126 0
5966 -502 0
-5967 3128 504 0
5967 -3128 0
5967 -504 0
-5968 506 3130 0
5968 -506 0
5968 -3130 0
-5969 508 3132 0
5969 -508 0
5969 -3132 0
-5970 4435 4436 4437 0
5970 -4435 0
5970 -4436 0
5970 -4437 0
-5971 2990 366 0
5971 -2990 0
5971 -366 0
-5972 2128 2231 2268 0
5972 -2128 0
5972 -2231 0
5972 -2268 0
-5973 2450 2452 2454 0
5973 -2450 0
5973 -2452 0
5973 -2454 0
-5974 2520 2532 2618 0
5974 -2520 0
5974 -2532 0
5974 -2618 0
-5975 1396 4556 0
5975 -1396 0
5975 -4556 0
-5976 336 2960 0
5976 -336 0
5976 -2960 0
-5977 2962 338 0
5977 -2962 0
5977 -338 0
-5978 1722 3825 0
5978 -1722 0
5978 -3825 0
-5979 3492 3493 0
5979 -3492 0
5979 -3493 0
-5980 3494 1008 0
5980 -3494 0
5980 -1008 0
-5981 3495 1010 0
5981 -3495 0
5981 -1010 0
-5982 3498 3499 0
5982 -3498 0
5982 -3499 0
-5983 3500 1016 0
5983 -3500 0
5983 -1016 0
-5984 3501 1018 0
5984 -3501 0
5984 -1018 0
-1022 1020 3502 0
1022 -1020 0
1022 -3502 0
-5985 1754 3853 0
5985 -1754 0
5985 -3853 0
-5986 4758 4759 4762 0
5986 -4758 0
5986 -4759 0
5986 -4762 0
-5987 4803 4806 4807 0
5987 -4803 0
5987 -4806 0
5987 -4807 0
-5988 2710 100 0
5988 -2710 0
5988 -100 0
-106 2712 1568 0
106 -2712 0
106 -1568 0
-5989 104 2714 0
5989 -104 0
5989 -2714 0
-5990 4841 4843 4844 0
5990 -4841 0
5990 -4843 0
5990 -4844 0
-5991 1794 3899 0
5991 -1794 0
5991 -3899 0
-5992 3927 1826 0
5992 -3927 0
5992 -1826 0
-5993 3941 3943 3983 0
5993 -3941 0
5993 -3943 0
5993 -3983 0
-5994 4001 4042 4057 0
5994 -4001 0
5994 -4042 0
5994 -4057 0
-5995 4090 4093 4098 0
5995 -4090 0
5995 -4093 0
5995 -4098 0
-5996 4158 4159 4202 0
5996 -4158 0
5996 -4159 0
5996 -4202 0
-170 1580 2775 0
170 -1580 0
170 -2775 0
-5997 4238 1478 4239 4240 0
5997 -4238 0
5997 -1478 0
5997 -4239 0
5997 -4240 0
-5998 1534 4258 0
5998 -1534 0
5998 -4258 0
-5999 3422 3423 0
5999 -3422 0
5999 -3423 0
-6000 476 3100 0
6000 -476 0
6000 -3100 0
-910 3425 908 0
910 -3425 0
910 -908 0
-6001 3424 906 0
6001 -3424 0
6001 -906 0
-6002 3102 478 0
6002 -3102 0
6002 -478 0
-6003 3582 3587 3615 0
6003 -3582 0
6003 -3587 0
6003 -3615 0
-6004 1642 3679 0
6004 -1642 0
6004 -3679 0
-6005 1200 4381 4382 4383 0
6005 -1200 0
6005 -4381 0
6005 -4382 0
6005 -4383 0
-6006 1256 4438 0
6006 -1256 0
6006 -4438 0
-6007 1682 3710 0
6007 -1682 0
6007 -3710 0
-6008 3758 3761 3772 0
6008 -3758 0
6008 -3761 0
6008 -3772 0
-6009 1340 4500 4501 4502 0
6009 -1340 0
6009 -4500 0
6009 -4501 0
6009 -4502 0
-6010 3297 3298 0
6010 -3297 0
6010 -3298 0
-6011 3299 718 0
6011 -3299 0
6011 -718 0
-6012 720 3300 0
6012 -720 0
6012 -3300 0
-6013 722 3301 0
6013 -722 0
6013 -3301 0
-6014 5972 2184 0
6014 -5972 0
6014 -2184 0
-6015 5973 2382 0
6015 -5973 0
6015 -2382 0
-6016 5974 2610 0
6016 -5974 0
6016 -2610 0
-6017 5930 5975 0
6017 -5930 0
6017 -5975 0
-6018 1898 3839 0
6018 -1898 0
6018 -3839 0
-6019 1920 3913 0
6019 -1920 0
6019 -3913 0
-154 1848 2759 0
154 -1848 0
154 -2759 0
-6020 5993 3993 0
6020 -5993 0
6020 -3993 0
-6021 5994 4038 0
6021 -5994 0
6021 -4038 0
-6022 5995 4111 0
6022 -5995 0
6022 -4111 0
-6023 5996 4170 0
6023 -5996 0
6023 -4170 0
-6024 5962 5998 0
6024 -5962 0
6024 -5998 0
-6025 6003 3632 0
6025 -6003 0
6025 -3632 0
-6026 3696 1876 0
6026 -3696 0
6026 -1876 0
-6027 5970 6006 0
6027 -5970 0
6027 -6006 0
-6028 6008 3735 0
6028 -6008 0
6028 -3735 0
-6029 5914 6014 0
6029 -5914 0
6029 -6014 0
-6030 5915 6015 0
6030 -5915 0
6030 -6015 0
-6031 5916 6016 0
6031 -5916 0
6031 -6016 0
-6032 5837 5931 0
6032 -5837 0
6032 -5931 0
-6033 5838 5935 0
6033 -5838 0
6033 -5935 0
-6034 5839 5942 0
6034 -5839 0
6034 -5942 0
-6035 5922 5986 0
6035 -5922 0
6035 -5986 0
-6036 4771 5946 1518 0
6036 -4771 0
6036 -5946 0
6036 -1518 0
-6037 5924 5987 0
6037 -5924 0
6037 -5987 0
-6038 4826 5947 1240 0
6038 -4826 0
6038 -5947 0
6038 -1240 0
-6039 5925 5990 0
6039 -5925 0
6039 -5990 0
-6040 4864 5948 1380 0
6040 -4864 0
6040 -5948 0
6040 -1380 0
-6041 5929 6020 0
6041 -5929 0
6041 -6020 0
-6042 5911 6021 0
6042 -5911 0
6042 -6021 0
-6043 5912 6022 0
6043 -5912 0
6043 -6022 0
-6044 5913 6023 0
6044 -5913 0
6044 -6023 0
-6045 5919 6025 0
6045 -5919 0
6045 -6025 0
-6046 5927 6028 0
6046 -5927 0
6046 -6028 0
-6047 2944 320 0
6047 -2944 0
6047 -320 0
-6048 2131 2158 2220 0
6048 -2131 0
6048 -2158 0
6048 -2220 0
-782 780 3339 0
782 -780 0
782 -3339 0
-6049 2358 2408 2434 0
6049 -2358 0
6049 -2408 0
6049 -2434 0
-6050 3341 3342 0
6050 -3341 0
6050 -3342 0
-6051 2534 2576 2582 0
6051 -2534 0
6051 -2576 0
6051 -2582 0
-6052 3343 784 0
6052 -3343 0
6052 -784 0
-788 3344 786 0
788 -3344 0
788 -786 0
-6053 3345 3346 0
6053 -3345 0
6053 -3346 0
-6054 3347 790 0
6054 -3347 0
6054 -790 0
-6055 792 3348 0
6055 -792 0
6055 -3348 0
-796 3349 794 0
796 -3349 0
796 -794 0
-6056 778 3338 0
6056 -778 0
6056 -3338 0
-6057 2046 3833 0
6057 -2046 0
6057 -3833 0
-6058 3337 776 0
6058 -3337 0
6058 -776 0
-6059 3850 1748 0
6059 -3850 0
6059 -1748 0
-6060 64 2676 0
6060 -64 0
6060 -2676 0
-6061 68 2680 0
6061 -68 0
6061 -2680 0
-122 2728 1574 0
122 -2728 0
122 -1574 0
-6062 4880 4881 4882 0
6062 -4880 0
6062 -4881 0
6062 -4882 0
-6063 2052 3907 0
6063 -2052 0
6063 -3907 0
-6064 4917 4918 4920 0
6064 -4917 0
6064 -4918 0
6064 -4920 0
-6065 4941 4942 4944 0
6065 -4941 0
6065 -4942 0
6065 -4944 0
-6066 4959 4960 1520 4961 4962 4963 0
6066 -4959 0
6066 -4960 0
6066 -1520 0
6066 -4961 0
6066 -4962 0
6066 -4963 0
-6067 3924 1820 0
6067 -3924 0
6067 -1820 0
-6068 4973 4974 0
6068 -4973 0
6068 -4974 0
-6069 4983 4984 1242 4985 4986 4987 0
6069 -4983 0
6069 -4984 0
6069 -1242 0
6069 -4985 0
6069 -4986 0
6069 -4987 0
-6070 1382 4996 4997 4998 4999 5000 0
6070 -1382 0
6070 -4996 0
6070 -4997 0
6070 -4998 0
6070 -4999 0
6070 -5000 0
-6071 3936 3980 3991 0
6071 -3936 0
6071 -3980 0
6071 -3991 0
-6072 4021 4029 4053 0
6072 -4021 0
6072 -4029 0
6072 -4053 0
-6073 4122 4125 4137 0
6073 -4122 0
6073 -4125 0
6073 -4137 0
-6074 4181 4183 4199 0
6074 -4181 0
6074 -4183 0
6074 -4199 0
-6075 3082 458 0
6075 -3082 0
6075 -458 0
-6076 3084 460 0
6076 -3084 0
6076 -460 0
-6077 3609 3614 3641 0
6077 -3609 0
6077 -3614 0
6077 -3641 0
-266 2881 2030 0
266 -2881 0
266 -2030 0
-6078 3690 2036 0
6078 -3690 0
6078 -2036 0
-6079 3707 1676 0
6079 -3707 0
6079 -1676 0
-6080 3719 3721 3726 0
6080 -3719 0
6080 -3721 0
6080 -3726 0
-6081 3334 3335 0
6081 -3334 0
6081 -3335 0
-6082 2942 318 0
6082 -2942 0
6082 -318 0
-6083 3336 774 0
6083 -3336 0
6083 -774 0
-6084 4520 4521 4522 0
6084 -4520 0
6084 -4521 0
6084 -4522 0
-6085 2125 2234 0
6085 -2125 0
6085 -2234 0
-6086 2348 2422 0
6086 -2348 0
6086 -2422 0
-6087 2014 3806 0
6087 -2014 0
6087 -3806 0
-6088 2506 2596 0
6088 -2506 0
6088 -2596 0
-6089 4545 4546 4547 0
6089 -4545 0
6089 -4546 0
6089 -4547 0
-6090 344 2968 0
6090 -344 0
6090 -2968 0
-6091 2970 346 0
6091 -2970 0
6091 -346 0
-6092 348 2972 0
6092 -348 0
6092 -2972 0
-70 2678 1996 0
70 -2678 0
70 -1996 0
-6093 3880 2024 0
6093 -3880 0
6093 -2024 0
-6094 2726 116 0
6094 -2726 0
6094 -116 0
-6095 2730 120 0
6095 -2730 0
6095 -120 0
-6096 4889 4890 4891 4892 1510 0
6096 -4889 0
6096 -4890 0
6096 -4891 0
6096 -4892 0
6096 -1510 0
-6097 2734 124 0
6097 -2734 0
6097 -124 0
-6098 4926 4927 4928 1232 4929 0
6098 -4926 0
6098 -4927 0
6098 -4928 0
6098 -1232 0
6098 -4929 0
-6099 4950 1372 4951 4952 4953 0
6099 -4950 0
6099 -1372 0
6099 -4951 0
6099 -4952 0
6099 -4953 0
-6100 3944 3976 0
6100 -3944 0
6100 -3976 0
-6101 4015 4033 0
6101 -4015 0
6101 -4033 0
-6102 4118 4129 0
6102 -4118 0
6102 -4129 0
-6103 4180 4191 0
6103 -4180 0
6103 -4191 0
-6104 4247 4248 4249 0
6104 -4247 0
6104 -4248 0
6104 -4249 0
-6105 4250 4251 4252 0
6105 -4250 0
6105 -4251 0
6105 -4252 0
-6106 3108 484 0
6106 -3108 0
6106 -484 0
-6107 3110 486 0
6107 -3110 0
6107 -486 0
-6108 488 3112 0
6108 -488 0
6108 -3112 0
-6109 3571 3578 0
6109 -3571 0
6109 -3578 0
-6110 3660 2006 0
6110 -3660 0
6110 -2006 0
-6111 3444 3445 0
6111 -3444 0
6111 -3445 0
-6112 938 3446 0
6112 -938 0
6112 -3446 0
-6113 940 3447 0
6113 -940 0
6113 -3447 0
-944 942 3448 0
944 -942 0
944 -3448 0
-6114 4401 4402 4403 0
6114 -4401 0
6114 -4402 0
6114 -4403 0
-6115 3323 3324 0
6115 -3323 0
6115 -3324 0
-6116 3325 758 0
6116 -3325 0
6116 -758 0
-6117 3326 760 0
6117 -3326 0
6117 -760 0
-764 762 3327 0
764 -762 0
764 -3327 0
-6118 4426 4427 4428 0
6118 -4426 0
6118 -4427 0
6118 -4428 0
-6119 3749 3752 0
6119 -3749 0
6119 -3752 0
-6120 6072 6101 0
6120 -6072 0
6120 -6101 0
-6121 6073 6102 0
6121 -6073 0
6121 -6102 0
-6122 6074 6103 0
6122 -6074 0
6122 -6103 0
-6123 6048 6085 0
6123 -6048 0
6123 -6085 0
-6124 6049 6086 0
6124 -6049 0
6124 -6086 0
-6125 1390 6089 0
6125 -1390 0
6125 -6089 0
-6126 6051 6088 0
6126 -6051 0
6126 -6088 0
-6127 1528 6104 0
6127 -1528 0
6127 -6104 0
-6128 1216 4979 0
6128 -1216 0
6128 -4979 0
-6129 6071 6100 0
6129 -6071 0
6129 -6100 0
-6130 3841 2018 0
6130 -3841 0
6130 -2018 0
-6131 6077 6109 0
6131 -6077 0
6131 -6109 0
-126 2732 2000 0
126 -2732 0
126 -2000 0
-6132 3698 2008 0
6132 -3698 0
6132 -2008 0
-6133 6062 1440 0
6133 -6062 0
6133 -1440 0
-6134 1250 6118 0
6134 -1250 0
6134 -6118 0
-6135 6064 1162 0
6135 -6064 0
6135 -1162 0
-6136 3915 2028 0
6136 -3915 0
6136 -2028 0
-6137 6065 1302 0
6137 -6065 0
6137 -1302 0
-6138 1494 4957 0
6138 -1494 0
6138 -4957 0
-6139 6080 6119 0
6139 -6080 0
6139 -6119 0
-6140 1356 4995 0
6140 -1356 0
6140 -4995 0
-6141 2141 2237 0
6141 -2141 0
6141 -2237 0
-6142 2384 2468 0
6142 -2384 0
6142 -2468 0
-6143 4535 4536 4537 0
6143 -4535 0
6143 -4536 0
6143 -4537 0
-6144 2490 2590 0
6144 -2490 0
6144 -2590 0
-6145 340 2964 0
6145 -340 0
6145 -2964 0
-6146 2966 342 0
6146 -2966 0
6146 -342 0
-6147 1718 3822 0
6147 -1718 0
6147 -3822 0
-6148 2086 3832 0
6148 -2086 0
6148 -3832 0
-98 2704 2062 0
98 -2704 0
98 -2062 0
-6149 2718 108 0
6149 -2718 0
6149 -108 0
-114 1570 2720 0
114 -1570 0
114 -2720 0
-6150 2722 112 0
6150 -2722 0
6150 -112 0
-6151 1790 3896 0
6151 -1790 0
6151 -3896 0
-6152 2090 3906 0
6152 -2090 0
6152 -3906 0
-6153 3400 3401 0
6153 -3400 0
6153 -3401 0
-6154 3402 872 0
6154 -3402 0
6154 -872 0
-6155 3403 874 0
6155 -3403 0
6155 -874 0
-6156 876 3404 0
6156 -876 0
6156 -3404 0
-6157 3545 1084 0
6157 -3545 0
6157 -1084 0
-1088 3546 1086 0
1088 -3546 0
1088 -1086 0
-6158 3405 878 0
6158 -3405 0
6158 -878 0
-6159 1492 5021 0
6159 -1492 0
6159 -5021 0
-882 3406 880 0
882 -3406 0
882 -880 0
-6160 3946 3987 0
6160 -3946 0
6160 -3987 0
-6161 3407 3408 0
6161 -3407 0
6161 -3408 0
-6162 3409 884 0
6162 -3409 0
6162 -884 0
-888 886 3410 0
888 -886 0
888 -3410 0
-6163 1472 4241 4242 4243 0
6163 -1472 0
6163 -4241 0
6163 -4242 0
6163 -4243 0
-6164 4244 4245 4246 0
6164 -4244 0
6164 -4245 0
6164 -4246 0
-6165 1354 5078 0
6165 -1354 0
6165 -5078 0
-6166 480 3104 0
6166 -480 0
6166 -3104 0
-6167 3106 482 0
6167 -3106 0
6167 -482 0
-6168 4030 4031 0
6168 -4030 0
6168 -4031 0
-6169 3589 3637 0
6169 -3589 0
6169 -3637 0
-6170 4103 4105 0
6170 -4103 0
6170 -4105 0
-6171 4166 4173 0
6171 -4166 0
6171 -4173 0
-6172 1636 3676 0
6172 -1636 0
6172 -3676 0
-6173 4374 1194 4375 4376 0
6173 -4374 0
6173 -1194 0
6173 -4375 0
6173 -4376 0
-6174 3686 3687 0
6174 -3686 0
6174 -3687 0
-6175 4416 4417 4418 0
6175 -4416 0
6175 -4417 0
6175 -4418 0
-6176 3723 3777 0
6176 -3723 0
6176 -3777 0
-6177 4493 4494 1334 4495 0
6177 -4493 0
6177 -4494 0
6177 -1334 0
6177 -4495 0
-166 2771 2038 0
166 -2771 0
166 -2038 0
-6178 4047 4052 0
6178 -4047 0
6178 -4052 0
-6179 4089 4132 0
6179 -4089 0
6179 -4132 0
-6180 4149 4188 0
6180 -4149 0
6180 -4188 0
-6181 2206 2294 0
6181 -2206 0
6181 -2294 0
-6182 3411 3412 0
6182 -3411 0
6182 -3412 0
-6183 3413 890 0
6183 -3413 0
6183 -890 0
-6184 892 3414 0
6184 -892 0
6184 -3414 0
-896 894 3415 0
896 -894 0
896 -3415 0
-6185 2570 2602 0
6185 -2570 0
6185 -2602 0
-6186 2366 2432 0
6186 -2366 0
6186 -2432 0
-6187 3576 3638 0
6187 -3576 0
6187 -3638 0
-6188 3642 2066 0
6188 -3642 0
6188 -2066 0
-6189 3857 2074 0
6189 -3857 0
6189 -2074 0
-6190 3519 3520 0
6190 -3519 0
6190 -3520 0
-6191 3521 1048 0
6191 -3521 0
6191 -1048 0
-6192 3522 1050 0
6192 -3522 0
6192 -1050 0
-1054 1052 3523 0
1054 -1052 0
1054 -3523 0
-6193 3745 3751 0
6193 -3745 0
6193 -3751 0
-6194 3783 2068 0
6194 -3783 0
6194 -2068 0
-6195 3954 3998 0
6195 -3954 0
6195 -3998 0
-6196 6168 6178 0
6196 -6168 0
6196 -6178 0
-6197 6170 6179 0
6197 -6170 0
6197 -6179 0
-6198 6171 6180 0
6198 -6171 0
6198 -6180 0
-6199 6159 5016 0
6199 -6159 0
6199 -5016 0
-6200 6141 6181 0
6200 -6141 0
6200 -6181 0
-6201 5001 1504 0
6201 -5001 0
6201 -1504 0
-6202 6142 6186 0
6202 -6142 0
6202 -6186 0
-6203 5041 1226 0
6203 -5041 0
6203 -1226 0
-6204 6144 6185 0
6204 -6144 0
6204 -6185 0
-6205 5053 1366 0
6205 -5053 0
6205 -1366 0
-6206 5068 5064 0
6206 -5068 0
6206 -5064 0
-6207 6165 5074 0
6207 -6165 0
6207 -5074 0
-6208 3838 2072 0
6208 -3838 0
6208 -2072 0
-6209 6169 6187 0
6209 -6169 0
6209 -6187 0
-250 2865 2056 0
250 -2865 0
250 -2056 0
-6210 6174 3688 0
6210 -6174 0
6210 -3688 0
-6211 3695 2082 0
6211 -3695 0
6211 -2082 0
-6212 3912 2078 0
6212 -3912 0
6212 -2078 0
-6213 6176 6193 0
6213 -6176 0
6213 -6193 0
-6214 6160 6195 0
6214 -6160 0
6214 -6195 0
-6215 6123 6200 0
6215 -6123 0
6215 -6200 0
-6216 6124 6202 0
6216 -6124 0
6216 -6202 0
-6217 6126 6204 0
6217 -6126 0
6217 -6204 0
-6218 2048 3846 0
6218 -2048 0
6218 -3846 0
-74 2034 2682 0
74 -2034 0
74 -2682 0
-6219 2054 3920 0
6219 -2054 0
6219 -3920 0
-6220 4967 1404 0
6220 -4967 0
6220 -1404 0
-6221 6129 6214 0
6221 -6129 0
6221 -6214 0
-6222 6120 6196 0
6222 -6120 0
6222 -6196 0
-6223 6121 6197 0
6223 -6121 0
6223 -6197 0
-6224 6122 6198 0
6224 -6122 0
6224 -6198 0
-6225 5028 1126 0
6225 -5028 0
6225 -1126 0
-6226 5042 1266 0
6226 -5042 0
6226 -1266 0
-6227 6131 6209 0
6227 -6131 0
6227 -6209 0
-6228 2042 3703 0
6228 -2042 0
6228 -3703 0
-6229 6139 6213 0
6229 -6139 0
6229 -6213 0
-6230 6029 6215 0
6230 -6029 0
6230 -6215 0
-6231 6030 6216 0
6231 -6030 0
6231 -6216 0
-6232 6031 6217 0
6232 -6031 0
6232 -6217 0
-6233 1968 3845 0
6233 -1968 0
6233 -3845 0
-6234 4883 6133 0
6234 -4883 0
6234 -6133 0
-6235 4919 6135 0
6235 -4919 0
6235 -6135 0
-6236 4943 6137 0
6236 -4943 0
6236 -6137 0
-6237 1984 3919 0
6237 -1984 0
6237 -3919 0
-6238 5955 6220 0
6238 -5955 0
6238 -6220 0
-162 1936 2767 0
162 -1936 0
162 -2767 0
-6239 5883 6201 0
6239 -5883 0
6239 -6201 0
-6240 6041 6221 0
6240 -6041 0
6240 -6221 0
-6241 6042 6222 0
6241 -6042 0
6241 -6222 0
-6242 6043 6223 0
6242 -6043 0
6242 -6223 0
-6243 5960 6225 0
6243 -5960 0
6243 -6225 0
-6244 6044 6224 0
6244 -6044 0
6244 -6224 0
-6245 5887 6203 0
6245 -5887 0
6245 -6203 0
-6246 5961 6226 0
6246 -5961 0
6246 -6226 0
-6247 5907 6205 0
6247 -5907 0
6247 -6205 0
-6248 6045 6227 0
6248 -6045 0
6248 -6227 0
-6249 1952 3702 0
6249 -1952 0
6249 -3702 0
-6250 6046 6229 0
6250 -6046 0
6250 -6229 0
-6251 4616 4617 4618 4619 0
6251 -4616 0
6251 -4617 0
6251 -4618 0
6251 -4619 0
-6252 4680 4681 4682 4683 0
6252 -4680 0
6252 -4681 0
6252 -4682 0
6252 -4683 0
-6253 3507 1028 0
6253 -3507 0
6253 -1028 0
-1032 1030 3508 0
1032 -1030 0
1032 -3508 0
-6254 4731 4732 4733 4734 0
6254 -4731 0
6254 -4732 0
6254 -4733 0
6254 -4734 0
-6255 3858 3859 3863 0
6255 -3858 0
6255 -3859 0
6255 -3863 0
-6256 1762 3866 0
6256 -1762 0
6256 -3866 0
-6257 3515 3516 0
6257 -3515 0
6257 -3516 0
-6258 3517 1042 0
6258 -3517 0
6258 -1042 0
-1046 3518 1044 0
1046 -3518 0
1046 -1044 0
-6259 398 3022 0
6259 -398 0
6259 -3022 0
-6260 3024 400 0
6260 -3024 0
6260 -400 0
-6261 402 3026 0
6261 -402 0
6261 -3026 0
-6262 404 3028 0
6262 -404 0
6262 -3028 0
-6263 4283 4284 4285 0
6263 -4283 0
6263 -4284 0
6263 -4285 0
-6264 1412 4286 4287 4288 0
6264 -1412 0
6264 -4286 0
6264 -4287 0
6264 -4288 0
-6265 2832 224 0
6265 -2832 0
6265 -224 0
-6266 228 2836 0
6266 -228 0
6266 -2836 0
-6267 3646 1598 0
6267 -3646 0
6267 -1598 0
-6268 232 2840 0
6268 -232 0
6268 -2840 0
-238 2842 1600 0
238 -2842 0
238 -1600 0
-6269 2844 236 0
6269 -2844 0
6269 -236 0
-6270 2846 2849 2852 0
6270 -2846 0
6270 -2849 0
6270 -2852 0
-6271 1134 4330 4331 4332 0
6271 -1134 0
6271 -4330 0
6271 -4331 0
6271 -4332 0
-6272 4342 4343 4344 0
6272 -4342 0
6272 -4343 0
6272 -4344 0
-6273 538 3162 0
6273 -538 0
6273 -3162 0
-6274 3164 540 0
6274 -3164 0
6274 -540 0
-6275 542 3166 0
6275 -542 0
6275 -3166 0
-6276 3168 544 0
6276 -3168 0
6276 -544 0
-6277 4449 4450 4451 1274 0
6277 -4449 0
6277 -4450 0
6277 -4451 0
6277 -1274 0
-6278 4461 4462 4463 0
6278 -4461 0
6278 -4462 0
6278 -4463 0
-6279 3786 3787 3789 0
6279 -3786 0
6279 -3787 0
6279 -3789 0
-6280 1690 3792 0
6280 -1690 0
6280 -3792 0
-6281 2114 2272 2316 0
6281 -2114 0
6281 -2272 0
6281 -2316 0
-6282 2374 2472 2478 0
6282 -2374 0
6282 -2472 0
6282 -2478 0
-6283 3808 1704 0
6283 -3808 0
6283 -1704 0
-6284 2536 2562 2608 0
6284 -2536 0
6284 -2562 0
6284 -2608 0
-6285 1398 4559 0
6285 -1398 0
6285 -4559 0
-44 2652 1556 0
44 -2652 0
44 -1556 0
-6286 3503 3504 0
6286 -3503 0
6286 -3504 0
-6287 3505 1024 0
6287 -3505 0
6287 -1024 0
-6288 1026 3506 0
6288 -1026 0
6288 -3506 0
-6289 3854 1756 0
6289 -3854 0
6289 -1756 0
-6290 3510 3511 0
6290 -3510 0
6290 -3511 0
-6291 1034 3512 0
6291 -1034 0
6291 -3512 0
-6292 1036 3513 0
6292 -1036 0
6292 -3513 0
-1040 3514 1038 0
1040 -3514 0
1040 -1038 0
-6293 1776 3882 0
6293 -1776 0
6293 -3882 0
-6294 3263 3264 0
6294 -3263 0
6294 -3264 0
-6295 3928 1828 0
6295 -3928 0
6295 -1828 0
-6296 4043 4062 4069 0
6296 -4043 0
6296 -4062 0
6296 -4069 0
-6297 4086 4104 4112 0
6297 -4086 0
6297 -4104 0
6297 -4112 0
-6298 4148 4169 4171 0
6298 -4148 0
6298 -4169 0
6298 -4171 0
-6299 3265 672 0
6299 -3265 0
6299 -672 0
-676 674 3266 0
676 -674 0
676 -3266 0
-6300 4218 4219 1444 4220 0
6300 -4218 0
6300 -4219 0
6300 -1444 0
6300 -4220 0
-6301 3967 3975 3999 0
6301 -3967 0
6301 -3975 0
6301 -3999 0
-6302 4270 1536 0
6302 -4270 0
6302 -1536 0
-206 2810 1588 0
206 -2810 0
206 -1588 0
-6303 3580 3588 3640 0
6303 -3580 0
6303 -3588 0
6303 -3640 0
-6304 3662 1616 0
6304 -3662 0
6304 -1616 0
-6305 1166 4352 4353 4354 0
6305 -1166 0
6305 -4352 0
6305 -4353 0
6305 -4354 0
-6306 4439 1258 0
6306 -4439 0
6306 -1258 0
-6307 3711 1684 0
6307 -3711 0
6307 -1684 0
-6308 4471 4472 4473 1306 0
6308 -4471 0
6308 -4472 0
6308 -4473 0
6308 -1306 0
-6309 3734 3743 3768 0
6309 -3734 0
6309 -3743 0
6309 -3768 0
-6310 4036 6296 0
6310 -4036 0
6310 -6296 0
-6311 4102 6297 0
6311 -4102 0
6311 -6297 0
-6312 4141 6298 0
6312 -4141 0
6312 -6298 0
-6313 2188 6281 0
6313 -2188 0
6313 -6281 0
-6314 2464 6282 0
6314 -2464 0
6314 -6282 0
-6315 2502 6284 0
6315 -2502 0
6315 -6284 0
-6316 4602 4605 0
6316 -4602 0
6316 -4605 0
-6317 4632 4631 0
6317 -4632 0
6317 -4631 0
-6318 4659 4658 0
6318 -4659 0
6318 -4658 0
-6319 3581 6303 0
6319 -3581 0
6319 -6303 0
-6320 4708 4709 0
6320 -4708 0
6320 -4709 0
-6321 3757 6309 0
6321 -3757 0
6321 -6309 0
-6322 3994 6301 0
6322 -3994 0
6322 -6301 0
-6323 3114 490 0
6323 -3114 0
6323 -490 0
-6324 492 3116 0
6324 -492 0
6324 -3116 0
-6325 3118 494 0
6325 -3118 0
6325 -494 0
-6326 4039 4058 0
6326 -4039 0
6326 -4058 0
-6327 4117 4124 0
6327 -4117 0
6327 -4124 0
-6328 4161 4162 0
6328 -4161 0
6328 -4162 0
-6329 4209 4210 1454 4211 0
6329 -4209 0
6329 -4210 0
6329 -1454 0
6329 -4211 0
-6330 2177 2246 0
6330 -2177 0
6330 -2246 0
-6331 2352 2362 0
6331 -2352 0
6331 -2362 0
-6332 2522 2542 0
6332 -2522 0
6332 -2542 0
-6333 3202 3203 0
6333 -3202 0
6333 -3203 0
-6334 586 3204 0
6334 -586 0
6334 -3204 0
-20 1550 2629 0
20 -1550 0
20 -2629 0
-590 588 3205 0
590 -588 0
590 -3205 0
-6335 3813 1710 0
6335 -3813 0
6335 -1710 0
-6336 2625 2627 0
6336 -2625 0
6336 -2627 0
-6337 3607 3622 0
6337 -3607 0
6337 -3622 0
-6338 1624 3667 0
6338 -1624 0
6338 -3667 0
-6339 3450 3451 0
6339 -3450 0
6339 -3451 0
-6340 3452 946 0
6340 -3452 0
6340 -946 0
-6341 1782 3887 0
6341 -1782 0
6341 -3887 0
-6342 4361 4362 1176 4363 0
6342 -4361 0
6342 -4362 0
6342 -1176 0
6342 -4363 0
-6343 3453 948 0
6343 -3453 0
6343 -948 0
-6344 2914 2916 0
6344 -2914 0
6344 -2916 0
-6345 3054 3056 0
6345 -3054 0
6345 -3056 0
-6346 3763 3778 0
6346 -3763 0
6346 -3778 0
-6347 4480 4481 1316 4482 0
6347 -4480 0
6347 -4481 0
6347 -1316 0
6347 -4482 0
-6348 3942 3996 0
6348 -3942 0
6348 -3996 0
-6349 2738 128 0
6349 -2738 0
6349 -128 0
-6350 2742 132 0
6350 -2742 0
6350 -132 0
-6351 136 2746 0
6351 -136 0
6351 -2746 0
-6352 3834 1896 0
6352 -3834 0
6352 -1896 0
-234 2838 1858 0
234 -2838 0
234 -1858 0
-6353 950 3454 0
6353 -950 0
6353 -3454 0
-954 3455 952 0
954 -3455 0
954 -952 0
-6354 3457 3458 0
6354 -3457 0
6354 -3458 0
-6355 1874 3691 0
6355 -1874 0
6355 -3691 0
-6356 956 3459 0
6356 -956 0
6356 -3459 0
-962 960 3461 0
962 -960 0
962 -3461 0
-6357 3460 958 0
6357 -3460 0
6357 -958 0
-6358 1918 3908 0
6358 -1918 0
6358 -3908 0
-6359 2974 350 0
6359 -2974 0
6359 -350 0
-6360 352 2976 0
6360 -352 0
6360 -2976 0
-6361 2978 354 0
6361 -2978 0
6361 -354 0
-6362 6326 4018 0
6362 -6326 0
6362 -4018 0
-6363 6327 4134 0
6363 -6327 0
6363 -4134 0
-6364 6328 4196 0
6364 -6328 0
6364 -4196 0
-6365 6330 2117 0
6365 -6330 0
6365 -2117 0
-6366 6331 2430 0
6366 -6331 0
6366 -2430 0
-6367 6332 2556 0
6367 -6332 0
6367 -2556 0
-6368 4254 4255 4253 0
6368 -4254 0
6368 -4255 0
6368 -4253 0
-6369 3820 1964 0
6369 -3820 0
6369 -1964 0
-6370 4590 4588 4589 0
6370 -4590 0
6370 -4588 0
6370 -4589 0
-6371 4648 4652 4649 0
6371 -4648 0
6371 -4652 0
6371 -4649 0
-6372 6337 3610 0
6372 -6337 0
6372 -3610 0
-6373 4701 4702 4700 0
6373 -4701 0
6373 -4702 0
6373 -4700 0
-6374 4750 4749 0
6374 -4750 0
6374 -4749 0
-6375 4769 4768 4767 4766 4765 1468 0
6375 -4769 0
6375 -4768 0
6375 -4767 0
6375 -4766 0
6375 -4765 0
6375 -1468 0
-6376 3674 1926 0
6376 -3674 0
6376 -1926 0
-6377 4356 4357 4355 0
6377 -4356 0
6377 -4357 0
6377 -4355 0
-6378 4816 4817 4814 4813 4815 1190 0
6378 -4816 0
6378 -4817 0
6378 -4814 0
6378 -4813 0
6378 -4815 0
6378 -1190 0
-6379 4852 4853 4851 4854 4850 1330 0
6379 -4852 0
6379 -4853 0
6379 -4851 0
6379 -4854 0
6379 -4850 0
6379 -1330 0
-6380 3894 1980 0
6380 -3894 0
6380 -1980 0
-134 2740 1934 0
134 -2740 0
134 -1934 0
-6381 6346 3720 0
6381 -6346 0
6381 -3720 0
-6382 4474 4475 4476 0
6382 -4474 0
6382 -4475 0
6382 -4476 0
-6383 6348 3977 0
6383 -6348 0
6383 -3977 0
-6384 6313 6365 0
6384 -6313 0
6384 -6365 0
-6385 6314 6366 0
6385 -6314 0
6385 -6366 0
-6386 6315 6367 0
6386 -6315 0
6386 -6367 0
-6387 3816 1886 0
6387 -3816 0
6387 -1886 0
-6388 6316 1460 0
6388 -6316 0
6388 -1460 0
-6389 6251 1496 0
6389 -6251 0
6389 -1496 0
-6390 6318 1182 0
6390 -6318 0
6390 -1182 0
-6391 6252 1218 0
6391 -6252 0
6391 -1218 0
-6392 6320 1322 0
6392 -6320 0
6392 -1322 0
-6393 6254 1358 0
6393 -6254 0
6393 -1358 0
-6394 3890 1908 0
6394 -3890 0
6394 -1908 0
-158 2763 1850 0
158 -2763 0
158 -1850 0
-6395 6322 6383 0
6395 -6322 0
6395 -6383 0
-6396 6310 6362 0
6396 -6310 0
6396 -6362 0
-6397 6311 6363 0
6397 -6311 0
6397 -6363 0
-6398 6312 6364 0
6398 -6312 0
6398 -6364 0
-6399 6319 6372 0
6399 -6319 0
6399 -6372 0
-6400 1868 3670 0
6400 -1868 0
6400 -3670 0
-6401 6321 6381 0
6401 -6321 0
6401 -6381 0
-6402 2166 2249 2257 2260 0
6402 -2166 0
6402 -2249 0
6402 -2257 0
6402 -2260 0
-6403 3804 1698 0
6403 -3804 0
6403 -1698 0
-6404 2360 2370 2398 2436 0
6404 -2360 0
6404 -2370 0
6404 -2398 0
6404 -2436 0
-6405 2492 2588 2604 2616 0
6405 -2492 0
6405 -2588 0
6405 -2604 0
6405 -2616 0
-6406 4562 4563 4564 1400 0
6406 -4562 0
6406 -4563 0
6406 -4564 0
6406 -1400 0
-6407 1420 4591 0
6407 -1420 0
6407 -4591 0
-6408 3051 428 0
6408 -3051 0
6408 -428 0
-6409 4651 1142 0
6409 -4651 0
6409 -1142 0
-6410 4672 4673 0
6410 -4672 0
6410 -4673 0
-432 3053 430 0
432 -3053 0
432 -430 0
-6411 4699 1282 0
6411 -4699 0
6411 -1282 0
-6412 1758 3855 0
6412 -1758 0
6412 -3855 0
-6413 4725 4726 0
6413 -4725 0
6413 -4726 0
-6414 4744 4747 0
6414 -4744 0
6414 -4747 0
-6415 4763 4764 0
6415 -4763 0
6415 -4764 0
-6416 3870 1904 0
6416 -3870 0
6416 -1904 0
-6417 3878 1770 0
6417 -3878 0
6417 -1770 0
-6418 3246 3247 0
6418 -3246 0
6418 -3247 0
-6419 3248 646 0
6419 -3248 0
6419 -646 0
-6420 3249 648 0
6420 -3249 0
6420 -648 0
-6421 3250 650 0
6421 -3250 0
6421 -650 0
-654 652 3251 0
654 -652 0
654 -3251 0
-6422 3253 3254 0
6422 -3253 0
6422 -3254 0
-6423 656 3255 0
6423 -656 0
6423 -3255 0
-660 658 3256 0
660 -658 0
660 -3256 0
-138 1844 2744 0
138 -1844 0
138 -2744 0
-6424 3257 3258 0
6424 -3257 0
6424 -3258 0
-6425 3260 664 0
6425 -3260 0
6425 -664 0
-6426 666 3261 0
6426 -666 0
6426 -3261 0
-6427 662 3259 0
6427 -662 0
6427 -3259 0
-670 3262 668 0
670 -3262 0
670 -668 0
-6428 1830 3929 0
6428 -1830 0
6428 -3929 0
-6429 3947 3949 3955 3963 0
6429 -3947 0
6429 -3949 0
6429 -3955 0
6429 -3963 0
-6430 4009 4040 4059 4060 0
6430 -4009 0
6430 -4040 0
6430 -4059 0
6430 -4060 0
-6431 4126 4127 4135 4139 0
6431 -4126 0
6431 -4127 0
6431 -4135 0
6431 -4139 0
-6432 4186 4194 4200 4201 0
6432 -4186 0
6432 -4194 0
6432 -4200 0
6432 -4201 0
-6433 3573 3584 3593 3625 0
6433 -3573 0
6433 -3584 0
6433 -3593 0
6433 -3625 0
-230 2834 1596 0
230 -2834 0
230 -1596 0
-6434 1862 3650 0
6434 -1862 0
6434 -3650 0
-6435 4320 4321 4322 1538 0
6435 -4320 0
6435 -4321 0
6435 -4322 0
6435 -1538 0
-6436 1610 3658 0
6436 -1610 0
6436 -3658 0
-6437 2903 284 0
6437 -2903 0
6437 -284 0
-290 1658 2905 0
290 -1658 0
290 -2905 0
-292 288 2907 0
292 -288 0
292 -2907 0
-6438 2909 2910 2912 0
6438 -2909 0
6438 -2910 0
6438 -2912 0
-6439 3462 3463 0
6439 -3462 0
6439 -3463 0
-6440 964 3464 0
6440 -964 0
6440 -3464 0
-968 3465 966 0
968 -3465 0
968 -966 0
-6441 4443 1260 4444 4445 0
6441 -4443 0
6441 -1260 0
6441 -4444 0
6441 -4445 0
-6442 3712 1686 0
6442 -3712 0
6442 -1686 0
-6443 3732 3737 3750 3767 0
6443 -3732 0
6443 -3737 0
6443 -3750 0
6443 -3767 0
-6444 3191 568 0
6444 -3191 0
6444 -568 0
-572 570 3193 0
572 -570 0
572 -3193 0
-6445 1882 3796 0
6445 -1882 0
6445 -3796 0
-6446 2170 2309 0
6446 -2170 0
6446 -2309 0
-6447 4528 4529 4530 1370 4531 0
6447 -4528 0
6447 -4529 0
6447 -4530 0
6447 -1370 0
6447 -4531 0
-6448 1700 3805 0
6448 -1700 0
6448 -3805 0
-6449 2458 2470 0
6449 -2458 0
6449 -2470 0
-6450 2538 2586 0
6450 -2538 0
6450 -2586 0
-6451 2956 332 0
6451 -2956 0
6451 -332 0
-6452 2958 334 0
6452 -2958 0
6452 -334 0
-6453 2642 30 0
6453 -2642 0
6453 -30 0
-36 2644 1554 0
36 -2644 0
36 -1554 0
-6454 2646 34 0
6454 -2646 0
6454 -34 0
-6455 4671 4674 4675 0
6455 -4671 0
6455 -4674 0
6455 -4675 0
-6456 4722 4723 4724 0
6456 -4722 0
6456 -4723 0
6456 -4724 0
-6457 4745 4746 4748 0
6457 -4745 0
6457 -4746 0
6457 -4748 0
-6458 2702 92 0
6458 -2702 0
6458 -92 0
-6459 3879 1772 0
6459 -3879 0
6459 -1772 0
-6460 96 2706 0
6460 -96 0
6460 -2706 0
-6461 3241 3242 0
6461 -3241 0
6461 -3242 0
-6462 3243 640 0
6462 -3243 0
6462 -640 0
-644 3244 642 0
644 -3244 0
644 -642 0
-6463 440 3064 0
6463 -440 0
6463 -3064 0
-6464 3066 442 0
6464 -3066 0
6464 -442 0
-6465 3938 3988 0
6465 -3938 0
6465 -3988 0
-6466 4007 4054 0
6466 -4007 0
6466 -4054 0
-6467 4087 4097 0
6467 -4087 0
6467 -4097 0
-6468 4147 4208 0
6468 -4147 0
6468 -4208 0
-6469 5018 5019 5020 0
6469 -5018 0
6469 -5019 0
6469 -5020 0
-6470 1438 4215 4216 4217 0
6470 -1438 0
6470 -4215 0
6470 -4216 0
6470 -4217 0
-6471 1508 4234 4235 4236 4237 0
6471 -1508 0
6471 -4234 0
6471 -4235 0
6471 -4236 0
6471 -4237 0
-6472 5063 5066 5067 0
6472 -5063 0
6472 -5066 0
6472 -5067 0
-6473 5073 5076 5077 0
6473 -5073 0
6473 -5076 0
6473 -5077 0
-6474 3416 3417 0
6474 -3416 0
6474 -3417 0
-6475 3418 898 0
6475 -3418 0
6475 -898 0
-6476 3419 900 0
6476 -3419 0
6476 -900 0
-6477 3096 472 0
6477 -3096 0
6477 -472 0
-904 3420 902 0
904 -3420 0
904 -902 0
-6478 3098 474 0
6478 -3098 0
6478 -474 0
-6479 3572 3592 0
6479 -3572 0
6479 -3592 0
-6480 3659 1612 0
6480 -3659 0
6480 -1612 0
-6481 4345 4346 1160 4347 0
6481 -4345 0
6481 -4346 0
6481 -1160 0
6481 -4347 0
-6482 4409 1230 4410 4411 4412 0
6482 -4409 0
6482 -1230 0
6482 -4410 0
6482 -4411 0
6482 -4412 0
-6483 300 2924 0
6483 -300 0
6483 -2924 0
-6484 302 2926 0
6484 -302 0
6484 -2926 0
-6485 4464 4465 1300 4466 0
6485 -4464 0
6485 -4465 0
6485 -1300 0
6485 -4466 0
-6486 3747 3773 0
6486 -3747 0
6486 -3773 0
-6487 6430 6466 0
6487 -6430 0
6487 -6466 0
-6488 6431 6467 0
6488 -6431 0
6488 -6467 0
-6489 6432 6468 0
6489 -6432 0
6489 -6468 0
-6490 5017 6469 0
6490 -5017 0
6490 -6469 0
-6491 6402 6446 0
6491 -6402 0
6491 -6446 0
-6492 6404 6449 0
6492 -6404 0
6492 -6449 0
-6493 6405 6450 0
6493 -6405 0
6493 -6450 0
-6494 5065 6472 0
6494 -5065 0
6494 -6472 0
-6495 5075 6473 0
6495 -5075 0
6495 -6473 0
-6496 6407 4592 0
6496 -6407 0
6496 -4592 0
-6497 4624 4625 0
6497 -4624 0
6497 -4625 0
-6498 3840 1738 0
6498 -3840 0
6498 -1738 0
-6499 6409 4650 0
6499 -6409 0
6499 -4650 0
-6500 6410 6455 1206 0
6500 -6410 0
6500 -6455 0
6500 -1206 0
-6501 6433 6479 0
6501 -6433 0
6501 -6479 0
-6502 6411 4703 0
6502 -6411 0
6502 -4703 0
-6503 6413 6456 1346 0
6503 -6413 0
6503 -6456 0
6503 -1346 0
-6504 6414 6457 1484 0
6504 -6414 0
6504 -6457 0
6504 -1484 0
-102 2708 1566 0
102 -2708 0
102 -1566 0
-6505 3697 1666 0
6505 -3697 0
6505 -1666 0
-6506 3914 1810 0
6506 -3914 0
6506 -1810 0
-6507 6443 6486 0
6507 -6443 0
6507 -6486 0
-6508 6429 6465 0
6508 -6429 0
6508 -6465 0
-6509 4004 4067 0
6509 -4004 0
6509 -4067 0
-6510 4091 4123 0
6510 -4091 0
6510 -4123 0
-6511 4146 4184 0
6511 -4146 0
6511 -4184 0
-6512 4212 4213 4214 1424 0
6512 -4212 0
6512 -4213 0
6512 -4214 0
6512 -1424 0
-6513 2100 2134 0
6513 -2100 0
6513 -2134 0
-6514 2412 2428 0
6514 -2412 0
6514 -2428 0
-6515 2512 2552 0
6515 -2512 0
6515 -2552 0
-6516 3278 3279 0
6516 -3278 0
6516 -3279 0
-6517 3280 692 0
6517 -3280 0
6517 -692 0
-6518 694 3281 0
6518 -694 0
6518 -3281 0
-32 1552 2640 0
32 -1552 0
32 -2640 0
-698 3282 696 0
698 -3282 0
698 -696 0
-6519 3971 3986 0
6519 -3971 0
6519 -3986 0
-6520 3577 3603 0
6520 -3577 0
6520 -3603 0
-6521 1602 3652 0
6521 -1602 0
6521 -3652 0
-6522 1764 3872 0
6522 -1764 0
6522 -3872 0
-6523 3236 3237 0
6523 -3236 0
6523 -3237 0
-6524 3238 634 0
6524 -3238 0
6524 -634 0
-638 636 3239 0
638 -636 0
638 -3239 0
-6525 4333 1146 4334 4335 0
6525 -4333 0
6525 -1146 0
6525 -4334 0
6525 -4335 0
-6526 4452 4453 1286 4454 0
6526 -4452 0
6526 -4453 0
6526 -1286 0
6526 -4454 0
-6527 3755 3782 0
6527 -3755 0
6527 -3782 0
-6528 3798 1692 0
6528 -3798 0
6528 -1692 0
-6529 6487 6509 0
6529 -6487 0
6529 -6509 0
-6530 6488 6510 0
6530 -6488 0
6530 -6510 0
-6531 6489 6511 0
6531 -6489 0
6531 -6511 0
-6532 6491 6513 0
6532 -6491 0
6532 -6513 0
-6533 6492 6514 0
6533 -6492 0
6533 -6514 0
-6534 6493 6515 0
6534 -6493 0
6534 -6515 0
-6535 2638 26 0
6535 -2638 0
6535 -26 0
-6536 6501 6520 0
6536 -6501 0
6536 -6520 0
-6537 3062 438 0
6537 -3062 0
6537 -438 0
-6538 2922 298 0
6538 -2922 0
6538 -298 0
-6539 6507 6527 0
6539 -6507 0
6539 -6527 0
-6540 6508 6519 0
6540 -6508 0
6540 -6519 0
-6541 6384 6532 0
6541 -6384 0
6541 -6532 0
-6542 6385 6533 0
6542 -6385 0
6542 -6533 0
-6543 6386 6534 0
6543 -6386 0
6543 -6534 0
-6544 6370 6496 0
6544 -6370 0
6544 -6496 0
-6545 2650 38 0
6545 -2650 0
6545 -38 0
-6546 6371 6499 0
6546 -6371 0
6546 -6499 0
-6547 6373 6502 0
6547 -6373 0
6547 -6502 0
-6548 3068 444 0
6548 -3068 0
6548 -444 0
-6549 6395 6540 0
6549 -6395 0
6549 -6540 0
-6550 6396 6529 0
6550 -6396 0
6550 -6529 0
-6551 6397 6530 0
6551 -6397 0
6551 -6530 0
-6552 6398 6531 0
6552 -6398 0
6552 -6531 0
-6553 6263 1436 0
6553 -6263 0
6553 -1436 0
-6554 6399 6536 0
6554 -6399 0
6554 -6536 0
-6555 6272 1158 0
6555 -6272 0
6555 -1158 0
-6556 2928 304 0
6556 -2928 0
6556 -304 0
-6557 6278 1298 0
6557 -6278 0
6557 -1298 0
-6558 6401 6539 0
6558 -6401 0
6558 -6539 0
-6559 6230 6541 0
6559 -6230 0
6559 -6541 0
-6560 6231 6542 0
6560 -6231 0
6560 -6542 0
-6561 6232 6543 0
6561 -6232 0
6561 -6543 0
-6562 5933 6388 0
6562 -5933 0
6562 -6388 0
-6563 3828 1892 0
6563 -3828 0
6563 -1892 0
-40 2648 1924 0
40 -2648 0
40 -1924 0
-6564 4639 1132 0
6564 -4639 0
6564 -1132 0
-52 2660 1558 0
52 -2660 0
52 -1558 0
-6565 5936 6390 0
6565 -5936 0
6565 -6390 0
-6566 4688 1272 0
6566 -4688 0
6566 -1272 0
-6567 5943 6392 0
6567 -5943 0
6567 -6392 0
-6568 3862 6255 0
6568 -3862 0
6568 -6255 0
-6569 3865 1900 0
6569 -3865 0
6569 -1900 0
-6570 4779 4783 0
6570 -4779 0
6570 -4783 0
-6571 4791 4792 0
6571 -4791 0
6571 -4792 0
-6572 1130 4797 0
6572 -1130 0
6572 -4797 0
-6573 4822 4820 0
6573 -4822 0
6573 -4820 0
-6574 1270 4834 0
6574 -1270 0
6574 -4834 0
-6575 4856 4857 0
6575 -4856 0
6575 -4857 0
-6576 3902 1914 0
6576 -3902 0
6576 -1914 0
-6577 6240 6549 0
6577 -6240 0
6577 -6549 0
-6578 6241 6550 0
6578 -6241 0
6578 -6550 0
-6579 6199 6490 0
6579 -6199 0
6579 -6490 0
-6580 6242 6551 0
6580 -6242 0
6580 -6551 0
-6581 6244 6552 0
6581 -6244 0
6581 -6552 0
-6582 4221 1410 0
6582 -4221 0
6582 -1410 0
-6583 6206 6494 1214 0
6583 -6206 0
6583 -6494 0
6583 -1214 0
-6584 6207 6495 0
6584 -6207 0
6584 -6495 0
-6585 1408 4276 0
6585 -1408 0
6585 -4276 0
-6586 6248 6554 0
6586 -6248 0
6586 -6554 0
-6587 3645 1856 0
6587 -3645 0
6587 -1856 0
-6588 2857 6270 0
6588 -2857 0
6588 -6270 0
-6589 3302 724 0
6589 -3302 0
6589 -724 0
-6590 3682 1932 0
6590 -3682 0
6590 -1932 0
-6591 6210 3689 0
6591 -6210 0
6591 -3689 0
-6592 6250 6558 0
6592 -6250 0
6592 -6558 0
-6593 3784 6279 0
6593 -3784 0
6593 -6279 0
-6594 3791 1878 0
6594 -3791 0
6594 -1878 0
-6595 5153 5869 0
6595 -5153 0
6595 -5869 0
-6596 1362 6084 0
6596 -1362 0
6596 -6084 0
-4 5796 6559 1544 0
4 -5796 0
4 -6559 0
4 -1544 0
-8 5797 6560 1548 0
8 -5797 0
8 -6560 0
8 -1548 0
-6597 1378 6143 0
6597 -1378 0
6597 -6143 0
-12 5798 6561 1264 0
12 -5798 0
12 -6561 0
12 -1264 0
-6598 5711 6285 0
6598 -5711 0
6598 -6285 0
-6599 5182 5874 0
6599 -5182 0
6599 -5874 0
-6600 5141 6564 0
6600 -5141 0
6600 -6564 0
-6601 3842 1966 0
6601 -3842 0
6601 -1966 0
-6602 5144 6566 0
6602 -5144 0
6602 -6566 0
-6603 5803 6568 1268 0
6603 -5803 0
6603 -6568 0
6603 -1268 0
-6604 5805 6570 1512 0
6604 -5805 0
6604 -6570 0
6604 -1512 0
-6605 4790 6571 0
6605 -4790 0
6605 -6571 0
-6606 5726 6572 0
6606 -5726 0
6606 -6572 0
-6607 5807 6573 1234 0
6607 -5807 0
6607 -6573 0
6607 -1234 0
-6608 5728 6574 0
6608 -5728 0
6608 -6574 0
-6609 5808 6575 1374 0
6609 -5808 0
6609 -6575 0
6609 -1374 0
-6610 5785 5949 0
6610 -5785 0
6610 -5949 0
-6611 5786 5950 0
6611 -5786 0
6611 -5950 0
-6612 5787 5951 0
6612 -5787 0
6612 -5951 0
-6613 3916 1982 0
6613 -3916 0
6613 -1982 0
-6614 5304 6138 0
6614 -5304 0
6614 -6138 0
-6615 5305 6128 0
6615 -5305 0
6615 -6128 0
-6616 5306 6140 0
6616 -5306 0
6616 -6140 0
-6617 5812 6577 0
6617 -5812 0
6617 -6577 0
-6618 5815 6578 1542 0
6618 -5815 0
6618 -6578 0
6618 -1542 0
-6619 5816 6580 0
6619 -5816 0
6619 -6580 0
-6620 5817 6581 1546 0
6620 -5817 0
6620 -6581 0
6620 -1546 0
-6621 5136 6582 0
6621 -5136 0
6621 -6582 0
-6622 1516 6164 0
6622 -1516 0
6622 -6164 0
-6623 1500 6105 0
6623 -1500 0
6623 -6105 0
-6624 1446 6368 0
6624 -1446 0
6624 -6368 0
-6625 5712 6302 0
6625 -5712 0
6625 -6302 0
-6626 5713 6585 0
6626 -5713 0
6626 -6585 0
-218 2822 1940 0
218 -2822 0
218 -1940 0
-6627 5823 6586 0
6627 -5823 0
6627 -6586 0
-6628 3643 2092 0
6628 -3643 0
6628 -2092 0
-242 5824 6588 1406 0
242 -5824 0
242 -6588 0
242 -1406 0
-6629 1168 6377 0
6629 -1168 0
6629 -6377 0
-6630 5188 5902 0
6630 -5188 0
6630 -5902 0
-6631 1222 6114 0
6631 -1222 0
6631 -6114 0
-6632 1238 6175 0
6632 -1238 0
6632 -6175 0
-6633 3699 1950 0
6633 -3699 0
6633 -1950 0
-6634 5756 6306 0
6634 -5756 0
6634 -6306 0
-6635 5829 6592 1124 0
6635 -5829 0
6635 -6592 0
6635 -1124 0
-6636 1308 6382 0
6636 -1308 0
6636 -6382 0
-6637 5830 6593 1128 0
6637 -5830 0
6637 -6593 0
6637 -1128 0
-6638 1544 -1543 0
6638 -1544 0
6638 1543 0
-6639 -1544 1543 0
6639 1544 0
6639 -1543 0
-6640 2340 -2341 0
6640 -2340 0
6640 2341 0
-6641 -2340 2341 0
6641 2340 0
6641 -2341 0
-6642 2342 -2343 0
6642 -2342 0
6642 2343 0
-6643 -2342 2343 0
6643 2342 0
6643 -2343 0
-6644 1548 -1547 0
6644 -1548 0
6644 1547 0
-6645 -1548 1547 0
6645 1548 0
6645 -1547 0
-6646 2482 -2483 0
6646 -2482 0
6646 2483 0
-6647 -2482 2483 0
6647 2482 0
6647 -2483 0
-6648 6 -5 0
6648 -6 0
6648 5 0
-6649 -6 5 0
6649 6 0
6649 -5 0
-6650 1264 -1263 0
6650 -1264 0
6650 1263 0
-6651 -1264 1263 0
6651 1264 0
6651 -1263 0
-6652 2622 -2623 0
6652 -2622 0
6652 2623 0
-6653 -2622 2623 0
6653 2622 0
6653 -2623 0
-6654 10 -9 0
6654 -10 0
6654 9 0
-6655 -10 9 0
6655 10 0
6655 -9 0
-6656 1834 -1833 0
6656 -1834 0
6656 1833 0
-6657 -1834 1833 0
6657 1834 0
6657 -1833 0
-6658 2625 -2626 0
6658 -2625 0
6658 2626 0
-6659 -2625 2626 0
6659 2625 0
6659 -2626 0
-6660 2627 -2628 0
6660 -2627 0
6660 2628 0
-6661 -2627 2628 0
6661 2627 0
6661 -2628 0
-6662 1550 -1549 0
6662 -1550 0
6662 1549 0
-6663 -1550 1549 0
6663 1550 0
6663 -1549 0
-6664 2631 -2632 0
6664 -2631 0
6664 2632 0
-6665 -2631 2632 0
6665 2631 0
6665 -2632 0
-6666 18 -17 0
6666 -18 0
6666 17 0
-6667 -18 17 0
6667 18 0
6667 -17 0
-6668 1922 -1921 0
6668 -1922 0
6668 1921 0
-6669 -1922 1921 0
6669 1922 0
6669 -1921 0
-6670 2635 -2636 0
6670 -2635 0
6670 2636 0
-6671 -2635 2636 0
6671 2635 0
6671 -2636 0
-6672 22 -21 0
6672 -22 0
6672 21 0
-6673 -22 21 0
6673 22 0
6673 -21 0
-6674 1992 -1991 0
6674 -1992 0
6674 1991 0
-6675 -1992 1991 0
6675 1992 0
6675 -1991 0
-6676 26 -25 0
6676 -26 0
6676 25 0
-6677 -26 25 0
6677 26 0
6677 -25 0
-6678 2638 -2639 0
6678 -2638 0
6678 2639 0
-6679 -2638 2639 0
6679 2638 0
6679 -2639 0
-6680 1552 -1551 0
6680 -1552 0
6680 1551 0
-6681 -1552 1551 0
6681 1552 0
6681 -1551 0
-6682 2642 -2643 0
6682 -2642 0
6682 2643 0
-6683 -2642 2643 0
6683 2642 0
6683 -2643 0
-6684 30 -29 0
6684 -30 0
6684 29 0
-6685 -30 29 0
6685 30 0
6685 -29 0
-6686 1554 -1553 0
6686 -1554 0
6686 1553 0
-6687 -1554 1553 0
6687 1554 0
6687 -1553 0
-6688 2646 -2647 0
6688 -2646 0
6688 2647 0
-6689 -2646 2647 0
6689 2646 0
6689 -2647 0
-6690 34 -33 0
6690 -34 0
6690 33 0
-6691 -34 33 0
6691 34 0
6691 -33 0
-6692 1924 -1923 0
6692 -1924 0
6692 1923 0
-6693 -1924 1923 0
6693 1924 0
6693 -1923 0
-6694 38 -37 0
6694 -38 0
6694 37 0
-6695 -38 37 0
6695 38 0
6695 -37 0
-6696 2650 -2651 0
6696 -2650 0
6696 2651 0
-6697 -2650 2651 0
6697 2650 0
6697 -2651 0
-6698 1556 -1555 0
6698 -1556 0
6698 1555 0
-6699 -1556 1555 0
6699 1556 0
6699 -1555 0
-6700 2654 -2655 0
6700 -2654 0
6700 2655 0
-6701 -2654 2655 0
6701 2654 0
6701 -2655 0
-6702 42 -41 0
6702 -42 0
6702 41 0
-6703 -42 41 0
6703 42 0
6703 -41 0
-6704 1836 -1835 0
6704 -1836 0
6704 1835 0
-6705 -1836 1835 0
6705 1836 0
6705 -1835 0
-6706 46 -45 0
6706 -46 0
6706 45 0
-6707 -46 45 0
6707 46 0
6707 -45 0
-6708 2658 -2659 0
6708 -2658 0
6708 2659 0
-6709 -2658 2659 0
6709 2658 0
6709 -2659 0
-6710 1558 -1557 0
6710 -1558 0
6710 1557 0
-6711 -1558 1557 0
6711 1558 0
6711 -1557 0
-6712 2662 -2663 0
6712 -2662 0
6712 2663 0
-6713 -2662 2663 0
6713 2662 0
6713 -2663 0
-6714 50 -49 0
6714 -50 0
6714 49 0
-6715 -50 49 0
6715 50 0
6715 -49 0
-6716 1560 -1559 0
6716 -1560 0
6716 1559 0
-6717 -1560 1559 0
6717 1560 0
6717 -1559 0
-6718 2666 -2667 0
6718 -2666 0
6718 2667 0
-6719 -2666 2667 0
6719 2666 0
6719 -2667 0
-6720 54 -53 0
6720 -54 0
6720 53 0
-6721 -54 53 0
6721 54 0
6721 -53 0
-6722 1562 -1561 0
6722 -1562 0
6722 1561 0
-6723 -1562 1561 0
6723 1562 0
6723 -1561 0
-6724 58 -57 0
6724 -58 0
6724 57 0
-6725 -58 57 0
6725 58 0
6725 -57 0
-6726 2670 -2671 0
6726 -2670 0
6726 2671 0
-6727 -2670 2671 0
6727 2670 0
6727 -2671 0
-6728 2672 -2673 0
6728 -2672 0
6728 2673 0
-6729 -2672 2673 0
6729 2672 0
6729 -2673 0
-6730 62 -61 0
6730 -62 0
6730 61 0
-6731 -62 61 0
6731 62 0
6731 -61 0
-6732 1928 -1927 0
6732 -1928 0
6732 1927 0
-6733 -1928 1927 0
6733 1928 0
6733 -1927 0
-6734 64 -63 0
6734 -64 0
6734 63 0
-6735 -64 63 0
6735 64 0
6735 -63 0
-6736 2676 -2677 0
6736 -2676 0
6736 2677 0
-6737 -2676 2677 0
6737 2676 0
6737 -2677 0
-6738 1996 -1995 0
6738 -1996 0
6738 1995 0
-6739 -1996 1995 0
6739 1996 0
6739 -1995 0
-6740 68 -67 0
6740 -68 0
6740 67 0
-6741 -68 67 0
6741 68 0
6741 -67 0
-6742 2680 -2681 0
6742 -2680 0
6742 2681 0
-6743 -2680 2681 0
6743 2680 0
6743 -2681 0
-6744 2034 -2033 0
6744 -2034 0
6744 2033 0
-6745 -2034 2033 0
6745 2034 0
6745 -2033 0
-6746 72 -71 0
6746 -72 0
6746 71 0
-6747 -72 71 0
6747 72 0
6747 -71 0
-6748 2684 -2685 0
6748 -2684 0
6748 2685 0
-6749 -2684 2685 0
6749 2684 0
6749 -2685 0
-6750 1564 -1563 0
6750 -1564 0
6750 1563 0
-6751 -1564 1563 0
6751 1564 0
6751 -1563 0
-6752 2688 -2689 0
6752 -2688 0
6752 2689 0
-6753 -2688 2689 0
6753 2688 0
6753 -2689 0
-6754 76 -75 0
6754 -76 0
6754 75 0
-6755 -76 75 0
6755 76 0
6755 -75 0
-6756 1838 -1837 0
6756 -1838 0
6756 1837 0
-6757 -1838 1837 0
6757 1838 0
6757 -1837 0
-6758 80 -79 0
6758 -80 0
6758 79 0
-6759 -80 79 0
6759 80 0
6759 -79 0
-6760 2692 -2693 0
6760 -2692 0
6760 2693 0
-6761 -2692 2693 0
6761 2692 0
6761 -2693 0
-6762 1998 -1997 0
6762 -1998 0
6762 1997 0
-6763 -1998 1997 0
6763 1998 0
6763 -1997 0
-6764 84 -83 0
6764 -84 0
6764 83 0
-6765 -84 83 0
6765 84 0
6765 -83 0
-6766 2695 -2696 0
6766 -2695 0
6766 2696 0
-6767 -2695 2696 0
6767 2695 0
6767 -2696 0
-6768 2060 -2059 0
6768 -2060 0
6768 2059 0
-6769 -2060 2059 0
6769 2060 0
6769 -2059 0
-6770 88 -87 0
6770 -88 0
6770 87 0
-6771 -88 87 0
6771 88 0
6771 -87 0
-6772 2698 -2699 0
6772 -2698 0
6772 2699 0
-6773 -2698 2699 0
6773 2698 0
6773 -2699 0
-6774 1842 -1841 0
6774 -1842 0
6774 1841 0
-6775 -1842 1841 0
6775 1842 0
6775 -1841 0
-6776 2702 -2703 0
6776 -2702 0
6776 2703 0
-6777 -2702 2703 0
6777 2702 0
6777 -2703 0
-6778 92 -91 0
6778 -92 0
6778 91 0
-6779 -92 91 0
6779 92 0
6779 -91 0
-6780 2062 -2061 0
6780 -2062 0
6780 2061 0
-6781 -2062 2061 0
6781 2062 0
6781 -2061 0
-6782 96 -95 0
6782 -96 0
6782 95 0
-6783 -96 95 0
6783 96 0
6783 -95 0
-6784 2706 -2707 0
6784 -2706 0
6784 2707 0
-6785 -2706 2707 0
6785 2706 0
6785 -2707 0
-6786 1566 -1565 0
6786 -1566 0
6786 1565 0
-6787 -1566 1565 0
6787 1566 0
6787 -1565 0
-6788 2710 -2711 0
6788 -2710 0
6788 2711 0
-6789 -2710 2711 0
6789 2710 0
6789 -2711 0
-6790 100 -99 0
6790 -100 0
6790 99 0
-6791 -100 99 0
6791 100 0
6791 -99 0
-6792 1568 -1567 0
6792 -1568 0
6792 1567 0
-6793 -1568 1567 0
6793 1568 0
6793 -1567 0
-6794 104 -103 0
6794 -104 0
6794 103 0
-6795 -104 103 0
6795 104 0
6795 -103 0
-6796 2714 -2715 0
6796 -2714 0
6796 2715 0
-6797 -2714 2715 0
6797 2714 0
6797 -2715 0
-6798 1930 -1929 0
6798 -1930 0
6798 1929 0
-6799 -1930 1929 0
6799 1930 0
6799 -1929 0
-6800 2718 -2719 0
6800 -2718 0
6800 2719 0
-6801 -2718 2719 0
6801 2718 0
6801 -2719 0
-6802 108 -107 0
6802 -108 0
6802 107 0
-6803 -108 107 0
6803 108 0
6803 -107 0
-6804 1570 -1569 0
6804 -1570 0
6804 1569 0
-6805 -1570 1569 0
6805 1570 0
6805 -1569 0
-6806 2722 -2723 0
6806 -2722 0
6806 2723 0
-6807 -2722 2723 0
6807 2722 0
6807 -2723 0
-6808 112 -111 0
6808 -112 0
6808 111 0
-6809 -112 111 0
6809 112 0
6809 -111 0
-6810 1572 -1571 0
6810 -1572 0
6810 1571 0
-6811 -1572 1571 0
6811 1572 0
6811 -1571 0
-6812 2726 -2727 0
6812 -2726 0
6812 2727 0
-6813 -2726 2727 0
6813 2726 0
6813 -2727 0
-6814 116 -115 0
6814 -116 0
6814 115 0
-6815 -116 115 0
6815 116 0
6815 -115 0
-6816 1574 -1573 0
6816 -1574 0
6816 1573 0
-6817 -1574 1573 0
6817 1574 0
6817 -1573 0
-6818 2730 -2731 0
6818 -2730 0
6818 2731 0
-6819 -2730 2731 0
6819 2730 0
6819 -2731 0
-6820 120 -119 0
6820 -120 0
6820 119 0
-6821 -120 119 0
6821 120 0
6821 -119 0
-6822 2000 -1999 0
6822 -2000 0
6822 1999 0
-6823 -2000 1999 0
6823 2000 0
6823 -1999 0
-6824 2734 -2735 0
6824 -2734 0
6824 2735 0
-6825 -2734 2735 0
6825 2734 0
6825 -2735 0
-6826 124 -123 0
6826 -124 0
6826 123 0
-6827 -124 123 0
6827 124 0
6827 -123 0
-6828 1576 -1575 0
6828 -1576 0
6828 1575 0
-6829 -1576 1575 0
6829 1576 0
6829 -1575 0
-6830 2738 -2739 0
6830 -2738 0
6830 2739 0
-6831 -2738 2739 0
6831 2738 0
6831 -2739 0
-6832 128 -127 0
6832 -128 0
6832 127 0
-6833 -128 127 0
6833 128 0
6833 -127 0
-6834 1934 -1933 0
6834 -1934 0
6834 1933 0
-6835 -1934 1933 0
6835 1934 0
6835 -1933 0
-6836 2742 -2743 0
6836 -2742 0
6836 2743 0
-6837 -2742 2743 0
6837 2742 0
6837 -2743 0
-6838 132 -131 0
6838 -132 0
6838 131 0
-6839 -132 131 0
6839 132 0
6839 -131 0
-6840 1844 -1843 0
6840 -1844 0
6840 1843 0
-6841 -1844 1843 0
6841 1844 0
6841 -1843 0
-6842 136 -135 0
6842 -136 0
6842 135 0
-6843 -136 135 0
6843 136 0
6843 -135 0
-6844 2746 -2747 0
6844 -2746 0
6844 2747 0
-6845 -2746 2747 0
6845 2746 0
6845 -2747 0
-6846 1578 -1577 0
6846 -1578 0
6846 1577 0
-6847 -1578 1577 0
6847 1578 0
6847 -1577 0
-6848 2750 -2751 0
6848 -2750 0
6848 2751 0
-6849 -2750 2751 0
6849 2750 0
6849 -2751 0
-6850 140 -139 0
6850 -140 0
6850 139 0
-6851 -140 139 0
6851 140 0
6851 -139 0
-6852 1846 -1845 0
6852 -1846 0
6852 1845 0
-6853 -1846 1845 0
6853 1846 0
6853 -1845 0
-6854 144 -143 0
6854 -144 0
6854 143 0
-6855 -144 143 0
6855 144 0
6855 -143 0
-6856 2754 -2755 0
6856 -2754 0
6856 2755 0
-6857 -2754 2755 0
6857 2754 0
6857 -2755 0
-6858 2002 -2001 0
6858 -2002 0
6858 2001 0
-6859 -2002 2001 0
6859 2002 0
6859 -2001 0
-6860 2757 -2758 0
6860 -2757 0
6860 2758 0
-6861 -2757 2758 0
6861 2757 0
6861 -2758 0
-6862 148 -147 0
6862 -148 0
6862 147 0
-6863 -148 147 0
6863 148 0
6863 -147 0
-6864 1848 -1847 0
6864 -1848 0
6864 1847 0
-6865 -1848 1847 0
6865 1848 0
6865 -1847 0
-6866 152 -151 0
6866 -152 0
6866 151 0
-6867 -152 151 0
6867 152 0
6867 -151 0
-6868 2761 -2762 0
6868 -2761 0
6868 2762 0
-6869 -2761 2762 0
6869 2761 0
6869 -2762 0
-6870 1850 -1849 0
6870 -1850 0
6870 1849 0
-6871 -1850 1849 0
6871 1850 0
6871 -1849 0
-6872 156 -155 0
6872 -156 0
6872 155 0
-6873 -156 155 0
6873 156 0
6873 -155 0
-6874 2765 -2766 0
6874 -2765 0
6874 2766 0
-6875 -2765 2766 0
6875 2765 0
6875 -2766 0
-6876 1936 -1935 0
6876 -1936 0
6876 1935 0
-6877 -1936 1935 0
6877 1936 0
6877 -1935 0
-6878 160 -159 0
6878 -160 0
6878 159 0
-6879 -160 159 0
6879 160 0
6879 -159 0
-6880 2769 -2770 0
6880 -2769 0
6880 2770 0
-6881 -2769 2770 0
6881 2769 0
6881 -2770 0
-6882 2038 -2037 0
6882 -2038 0
6882 2037 0
-6883 -2038 2037 0
6883 2038 0
6883 -2037 0
-6884 2773 -2774 0
6884 -2773 0
6884 2774 0
-6885 -2773 2774 0
6885 2773 0
6885 -2774 0
-6886 164 -163 0
6886 -164 0
6886 163 0
-6887 -164 163 0
6887 164 0
6887 -163 0
-6888 1580 -1579 0
6888 -1580 0
6888 1579 0
-6889 -1580 1579 0
6889 1580 0
6889 -1579 0
-6890 2777 -2778 0
6890 -2777 0
6890 2778 0
-6891 -2777 2778 0
6891 2777 0
6891 -2778 0
-6892 168 -167 0
6892 -168 0
6892 167 0
-6893 -168 167 0
6893 168 0
6893 -167 0
-6894 1938 -1937 0
6894 -1938 0
6894 1937 0
-6895 -1938 1937 0
6895 1938 0
6895 -1937 0
-6896 2781 -2782 0
6896 -2781 0
6896 2782 0
-6897 -2781 2782 0
6897 2781 0
6897 -2782 0
-6898 172 -171 0
6898 -172 0
6898 171 0
-6899 -172 171 0
6899 172 0
6899 -171 0
-6900 1852 -1851 0
6900 -1852 0
6900 1851 0
-6901 -1852 1851 0
6901 1852 0
6901 -1851 0
-6902 176 -175 0
6902 -176 0
6902 175 0
-6903 -176 175 0
6903 176 0
6903 -175 0
-6904 2785 -2786 0
6904 -2785 0
6904 2786 0
-6905 -2785 2786 0
6905 2785 0
6905 -2786 0
-6906 2064 -2063 0
6906 -2064 0
6906 2063 0
-6907 -2064 2063 0
6907 2064 0
6907 -2063 0
-6908 2788 -2789 0
6908 -2788 0
6908 2789 0
-6909 -2788 2789 0
6909 2788 0
6909 -2789 0
-6910 180 -179 0
6910 -180 0
6910 179 0
-6911 -180 179 0
6911 180 0
6911 -179 0
-6912 2040 -2039 0
6912 -2040 0
6912 2039 0
-6913 -2040 2039 0
6913 2040 0
6913 -2039 0
-6914 2792 -2793 0
6914 -2792 0
6914 2793 0
-6915 -2792 2793 0
6915 2792 0
6915 -2793 0
-6916 184 -183 0
6916 -184 0
6916 183 0
-6917 -184 183 0
6917 184 0
6917 -183 0
-6918 2004 -2003 0
6918 -2004 0
6918 2003 0
-6919 -2004 2003 0
6919 2004 0
6919 -2003 0
-6920 2796 -2797 0
6920 -2796 0
6920 2797 0
-6921 -2796 2797 0
6921 2796 0
6921 -2797 0
-6922 188 -187 0
6922 -188 0
6922 187 0
-6923 -188 187 0
6923 188 0
6923 -187 0
-6924 1582 -1581 0
6924 -1582 0
6924 1581 0
-6925 -1582 1581 0
6925 1582 0
6925 -1581 0
-6926 192 -191 0
6926 -192 0
6926 191 0
-6927 -192 191 0
6927 192 0
6927 -191 0
-6928 2800 -2801 0
6928 -2800 0
6928 2801 0
-6929 -2800 2801 0
6929 2800 0
6929 -2801 0
-6930 1584 -1583 0
6930 -1584 0
6930 1583 0
-6931 -1584 1583 0
6931 1584 0
6931 -1583 0
-6932 2804 -2805 0
6932 -2804 0
6932 2805 0
-6933 -2804 2805 0
6933 2804 0
6933 -2805 0
-6934 196 -195 0
6934 -196 0
6934 195 0
-6935 -196 195 0
6935 196 0
6935 -195 0
-6936 1586 -1585 0
6936 -1586 0
6936 1585 0
-6937 -1586 1585 0
6937 1586 0
6937 -1585 0
-6938 2808 -2809 0
6938 -2808 0
6938 2809 0
-6939 -2808 2809 0
6939 2808 0
6939 -2809 0
-6940 200 -199 0
6940 -200 0
6940 199 0
-6941 -200 199 0
6941 200 0
6941 -199 0
-6942 1588 -1587 0
6942 -1588 0
6942 1587 0
-6943 -1588 1587 0
6943 1588 0
6943 -1587 0
-6944 2812 -2813 0
6944 -2812 0
6944 2813 0
-6945 -2812 2813 0
6945 2812 0
6945 -2813 0
-6946 204 -203 0
6946 -204 0
6946 203 0
-6947 -204 203 0
6947 204 0
6947 -203 0
-6948 1590 -1589 0
6948 -1590 0
6948 1589 0
-6949 -1590 1589 0
6949 1590 0
6949 -1589 0
-6950 208 -207 0
6950 -208 0
6950 207 0
-6951 -208 207 0
6951 208 0
6951 -207 0
-6952 2816 -2817 0
6952 -2816 0
6952 2817 0
-6953 -2816 2817 0
6953 2816 0
6953 -2817 0
-6954 1592 -1591 0
6954 -1592 0
6954 1591 0
-6955 -1592 1591 0
6955 1592 0
6955 -1591 0
-6956 212 -211 0
6956 -212 0
6956 211 0
-6957 -212 211 0
6957 212 0
6957 -211 0
-6958 2820 -2821 0
6958 -2820 0
6958 2821 0
-6959 -2820 2821 0
6959 2820 0
6959 -2821 0
-6960 1940 -1939 0
6960 -1940 0
6960 1939 0
-6961 -1940 1939 0
6961 1940 0
6961 -1939 0
-6962 216 -215 0
6962 -216 0
6962 215 0
-6963 -216 215 0
6963 216 0
6963 -215 0
-6964 2824 -2825 0
6964 -2824 0
6964 2825 0
-6965 -2824 2825 0
6965 2824 0
6965 -2825 0
-6966 1854 -1853 0
6966 -1854 0
6966 1853 0
-6967 -1854 1853 0
6967 1854 0
6967 -1853 0
-6968 2828 -2829 0
6968 -2828 0
6968 2829 0
-6969 -2828 2829 0
6969 2828 0
6969 -2829 0
-6970 220 -219 0
6970 -220 0
6970 219 0
-6971 -220 219 0
6971 220 0
6971 -219 0
-6972 1594 -1593 0
6972 -1594 0
6972 1593 0
-6973 -1594 1593 0
6973 1594 0
6973 -1593 0
-6974 2832 -2833 0
6974 -2832 0
6974 2833 0
-6975 -2832 2833 0
6975 2832 0
6975 -2833 0
-6976 224 -223 0
6976 -224 0
6976 223 0
-6977 -224 223 0
6977 224 0
6977 -223 0
-6978 1596 -1595 0
6978 -1596 0
6978 1595 0
-6979 -1596 1595 0
6979 1596 0
6979 -1595 0
-6980 228 -227 0
6980 -228 0
6980 227 0
-6981 -228 227 0
6981 228 0
6981 -227 0
-6982 2836 -2837 0
6982 -2836 0
6982 2837 0
-6983 -2836 2837 0
6983 2836 0
6983 -2837 0
-6984 1858 -1857 0
6984 -1858 0
6984 1857 0
-6985 -1858 1857 0
6985 1858 0
6985 -1857 0
-6986 232 -231 0
6986 -232 0
6986 231 0
-6987 -232 231 0
6987 232 0
6987 -231 0
-6988 2840 -2841 0
6988 -2840 0
6988 2841 0
-6989 -2840 2841 0
6989 2840 0
6989 -2841 0
-6990 1600 -1599 0
6990 -1600 0
6990 1599 0
-6991 -1600 1599 0
6991 1600 0
6991 -1599 0
-6992 2844 -2845 0
6992 -2844 0
6992 2845 0
-6993 -2844 2845 0
6993 2844 0
6993 -2845 0
-6994 236 -235 0
6994 -236 0
6994 235 0
-6995 -236 235 0
6995 236 0
6995 -235 0
-6996 1406 -1405 0
6996 -1406 0
6996 1405 0
-6997 -1406 1405 0
6997 1406 0
6997 -1405 0
-6998 2859 -2860 0
6998 -2859 0
6998 2860 0
-6999 -2859 2860 0
6999 2859 0
6999 -2860 0
-7000 240 -239 0
7000 -240 0
7000 239 0
-7001 -240 239 0
7001 240 0
7001 -239 0
-7002 1606 -1605 0
7002 -1606 0
7002 1605 0
-7003 -1606 1605 0
7003 1606 0
7003 -1605 0
-7004 2863 -2864 0
7004 -2863 0
7004 2864 0
-7005 -2863 2864 0
7005 2863 0
7005 -2864 0
-7006 244 -243 0
7006 -244 0
7006 243 0
-7007 -244 243 0
7007 244 0
7007 -243 0
-7008 2056 -2055 0
7008 -2056 0
7008 2055 0
-7009 -2056 2055 0
7009 2056 0
7009 -2055 0
-7010 248 -247 0
7010 -248 0
7010 247 0
-7011 -248 247 0
7011 248 0
7011 -247 0
-7012 2867 -2868 0
7012 -2867 0
7012 2868 0
-7013 -2867 2868 0
7013 2867 0
7013 -2868 0
-7014 1866 -1865 0
7014 -1866 0
7014 1865 0
-7015 -1866 1865 0
7015 1866 0
7015 -1865 0
-7016 2871 -2872 0
7016 -2871 0
7016 2872 0
-7017 -2871 2872 0
7017 2871 0
7017 -2872 0
-7018 252 -251 0
7018 -252 0
7018 251 0
-7019 -252 251 0
7019 252 0
7019 -251 0
-7020 1622 -1621 0
7020 -1622 0
7020 1621 0
-7021 -1622 1621 0
7021 1622 0
7021 -1621 0
-7022 2875 -2876 0
7022 -2875 0
7022 2876 0
-7023 -2875 2876 0
7023 2875 0
7023 -2876 0
-7024 256 -255 0
7024 -256 0
7024 255 0
-7025 -256 255 0
7025 256 0
7025 -255 0
-7026 1628 -1627 0
7026 -1628 0
7026 1627 0
-7027 -1628 1627 0
7027 1628 0
7027 -1627 0
-7028 2879 -2880 0
7028 -2879 0
7028 2880 0
-7029 -2879 2880 0
7029 2879 0
7029 -2880 0
-7030 260 -259 0
7030 -260 0
7030 259 0
-7031 -260 259 0
7031 260 0
7031 -259 0
-7032 2030 -2029 0
7032 -2030 0
7032 2029 0
-7033 -2030 2029 0
7033 2030 0
7033 -2029 0
-7034 264 -263 0
7034 -264 0
7034 263 0
-7035 -264 263 0
7035 264 0
7035 -263 0
-7036 2883 -2884 0
7036 -2883 0
7036 2884 0
-7037 -2883 2884 0
7037 2883 0
7037 -2884 0
-7038 1630 -1629 0
7038 -1630 0
7038 1629 0
-7039 -1630 1629 0
7039 1630 0
7039 -1629 0
-7040 268 -267 0
7040 -268 0
7040 267 0
-7041 -268 267 0
7041 268 0
7041 -267 0
-7042 2887 -2888 0
7042 -2887 0
7042 2888 0
-7043 -2887 2888 0
7043 2887 0
7043 -2888 0
-7044 1638 -1637 0
7044 -1638 0
7044 1637 0
-7045 -1638 1637 0
7045 1638 0
7045 -1637 0
-7046 2891 -2892 0
7046 -2891 0
7046 2892 0
-7047 -2891 2892 0
7047 2891 0
7047 -2892 0
-7048 272 -271 0
7048 -272 0
7048 271 0
-7049 -272 271 0
7049 272 0
7049 -271 0
-7050 1644 -1643 0
7050 -1644 0
7050 1643 0
-7051 -1644 1643 0
7051 1644 0
7051 -1643 0
-7052 2895 -2896 0
7052 -2895 0
7052 2896 0
-7053 -2895 2896 0
7053 2895 0
7053 -2896 0
-7054 276 -275 0
7054 -276 0
7054 275 0
-7055 -276 275 0
7055 276 0
7055 -275 0
-7056 1648 -1647 0
7056 -1648 0
7056 1647 0
-7057 -1648 1647 0
7057 1648 0
7057 -1647 0
-7058 280 -279 0
7058 -280 0
7058 279 0
-7059 -280 279 0
7059 280 0
7059 -279 0
-7060 2899 -2900 0
7060 -2899 0
7060 2900 0
-7061 -2899 2900 0
7061 2899 0
7061 -2900 0
-7062 1656 -1655 0
7062 -1656 0
7062 1655 0
-7063 -1656 1655 0
7063 1656 0
7063 -1655 0
-7064 2903 -2904 0
7064 -2903 0
7064 2904 0
-7065 -2903 2904 0
7065 2903 0
7065 -2904 0
-7066 284 -283 0
7066 -284 0
7066 283 0
-7067 -284 283 0
7067 284 0
7067 -283 0
-7068 1658 -1657 0
7068 -1658 0
7068 1657 0
-7069 -1658 1657 0
7069 1658 0
7069 -1657 0
-7070 288 -287 0
7070 -288 0
7070 287 0
-7071 -288 287 0
7071 288 0
7071 -287 0
-7072 2907 -2908 0
7072 -2907 0
7072 2908 0
-7073 -2907 2908 0
7073 2907 0
7073 -2908 0
-7074 2914 -2915 0
7074 -2914 0
7074 2915 0
-7075 -2914 2915 0
7075 2914 0
7075 -2915 0
-7076 2916 -2917 0
7076 -2916 0
7076 2917 0
-7077 -2916 2917 0
7077 2916 0
7077 -2917 0
-7078 2918 -2919 0
7078 -2918 0
7078 2919 0
-7079 -2918 2919 0
7079 2918 0
7079 -2919 0
-7080 294 -293 0
7080 -294 0
7080 293 0
-7081 -294 293 0
7081 294 0
7081 -293 0
-7082 2920 -2921 0
7082 -2920 0
7082 2921 0
-7083 -2920 2921 0
7083 2920 0
7083 -2921 0
-7084 296 -295 0
7084 -296 0
7084 295 0
-7085 -296 295 0
7085 296 0
7085 -295 0
-7086 298 -297 0
7086 -298 0
7086 297 0
-7087 -298 297 0
7087 298 0
7087 -297 0
-7088 2922 -2923 0
7088 -2922 0
7088 2923 0
-7089 -2922 2923 0
7089 2922 0
7089 -2923 0
-7090 300 -299 0
7090 -300 0
7090 299 0
-7091 -300 299 0
7091 300 0
7091 -299 0
-7092 2924 -2925 0
7092 -2924 0
7092 2925 0
-7093 -2924 2925 0
7093 2924 0
7093 -2925 0
-7094 302 -301 0
7094 -302 0
7094 301 0
-7095 -302 301 0
7095 302 0
7095 -301 0
-7096 2926 -2927 0
7096 -2926 0
7096 2927 0
-7097 -2926 2927 0
7097 2926 0
7097 -2927 0
-7098 2928 -2929 0
7098 -2928 0
7098 2929 0
-7099 -2928 2929 0
7099 2928 0
7099 -2929 0
-7100 304 -303 0
7100 -304 0
7100 303 0
-7101 -304 303 0
7101 304 0
7101 -303 0
-7102 306 -305 0
7102 -306 0
7102 305 0
-7103 -306 305 0
7103 306 0
7103 -305 0
-7104 2930 -2931 0
7104 -2930 0
7104 2931 0
-7105 -2930 2931 0
7105 2930 0
7105 -2931 0
-7106 2932 -2933 0
7106 -2932 0
7106 2933 0
-7107 -2932 2933 0
7107 2932 0
7107 -2933 0
-7108 308 -307 0
7108 -308 0
7108 307 0
-7109 -308 307 0
7109 308 0
7109 -307 0
-7110 310 -309 0
7110 -310 0
7110 309 0
-7111 -310 309 0
7111 310 0
7111 -309 0
-7112 2934 -2935 0
7112 -2934 0
7112 2935 0
-7113 -2934 2935 0
7113 2934 0
7113 -2935 0
-7114 2936 -2937 0
7114 -2936 0
7114 2937 0
-7115 -2936 2937 0
7115 2936 0
7115 -2937 0
-7116 312 -311 0
7116 -312 0
7116 311 0
-7117 -312 311 0
7117 312 0
7117 -311 0
-7118 2938 -2939 0
7118 -2938 0
7118 2939 0
-7119 -2938 2939 0
7119 2938 0
7119 -2939 0
-7120 314 -313 0
7120 -314 0
7120 313 0
-7121 -314 313 0
7121 314 0
7121 -313 0
-7122 2940 -2941 0
7122 -2940 0
7122 2941 0
-7123 -2940 2941 0
7123 2940 0
7123 -2941 0
-7124 316 -315 0
7124 -316 0
7124 315 0
-7125 -316 315 0
7125 316 0
7125 -315 0
-7126 2942 -2943 0
7126 -2942 0
7126 2943 0
-7127 -2942 2943 0
7127 2942 0
7127 -2943 0
-7128 318 -317 0
7128 -318 0
7128 317 0
-7129 -318 317 0
7129 318 0
7129 -317 0
-7130 2944 -2945 0
7130 -2944 0
7130 2945 0
-7131 -2944 2945 0
7131 2944 0
7131 -2945 0
-7132 320 -319 0
7132 -320 0
7132 319 0
-7133 -320 319 0
7133 320 0
7133 -319 0
-7134 2946 -2947 0
7134 -2946 0
7134 2947 0
-7135 -2946 2947 0
7135 2946 0
7135 -2947 0
-7136 322 -321 0
7136 -322 0
7136 321 0
-7137 -322 321 0
7137 322 0
7137 -321 0
-7138 324 -323 0
7138 -324 0
7138 323 0
-7139 -324 323 0
7139 324 0
7139 -323 0
-7140 2948 -2949 0
7140 -2948 0
7140 2949 0
-7141 -2948 2949 0
7141 2948 0
7141 -2949 0
-7142 2950 -2951 0
7142 -2950 0
7142 2951 0
-7143 -2950 2951 0
7143 2950 0
7143 -2951 0
-7144 326 -325 0
7144 -326 0
7144 325 0
-7145 -326 325 0
7145 326 0
7145 -325 0
-7146 2952 -2953 0
7146 -2952 0
7146 2953 0
-7147 -2952 2953 0
7147 2952 0
7147 -2953 0
-7148 328 -327 0
7148 -328 0
7148 327 0
-7149 -328 327 0
7149 328 0
7149 -327 0
-7150 2954 -2955 0
7150 -2954 0
7150 2955 0
-7151 -2954 2955 0
7151 2954 0
7151 -2955 0
-7152 330 -329 0
7152 -330 0
7152 329 0
-7153 -330 329 0
7153 330 0
7153 -329 0
-7154 2956 -2957 0
7154 -2956 0
7154 2957 0
-7155 -2956 2957 0
7155 2956 0
7155 -2957 0
-7156 332 -331 0
7156 -332 0
7156 331 0
-7157 -332 331 0
7157 332 0
7157 -331 0
-7158 2958 -2959 0
7158 -2958 0
7158 2959 0
-7159 -2958 2959 0
7159 2958 0
7159 -2959 0
-7160 334 -333 0
7160 -334 0
7160 333 0
-7161 -334 333 0
7161 334 0
7161 -333 0
-7162 336 -335 0
7162 -336 0
7162 335 0
-7163 -336 335 0
7163 336 0
7163 -335 0
-7164 2960 -2961 0
7164 -2960 0
7164 2961 0
-7165 -2960 2961 0
7165 2960 0
7165 -2961 0
-7166 2962 -2963 0
7166 -2962 0
7166 2963 0
-7167 -2962 2963 0
7167 2962 0
7167 -2963 0
-7168 338 -337 0
7168 -338 0
7168 337 0
-7169 -338 337 0
7169 338 0
7169 -337 0
-7170 340 -339 0
7170 -340 0
7170 339 0
-7171 -340 339 0
7171 340 0
7171 -339 0
-7172 2964 -2965 0
7172 -2964 0
7172 2965 0
-7173 -2964 2965 0
7173 2964 0
7173 -2965 0
-7174 2966 -2967 0
7174 -2966 0
7174 2967 0
-7175 -2966 2967 0
7175 2966 0
7175 -2967 0
-7176 342 -341 0
7176 -342 0
7176 341 0
-7177 -342 341 0
7177 342 0
7177 -341 0
-7178 344 -343 0
7178 -344 0
7178 343 0
-7179 -344 343 0
7179 344 0
7179 -343 0
-7180 2968 -2969 0
7180 -2968 0
7180 2969 0
-7181 -2968 2969 0
7181 2968 0
7181 -2969 0
-7182 2970 -2971 0
7182 -2970 0
7182 2971 0
-7183 -2970 2971 0
7183 2970 0
7183 -2971 0
-7184 346 -345 0
7184 -346 0
7184 345 0
-7185 -346 345 0
7185 346 0
7185 -345 0
-7186 348 -347 0
7186 -348 0
7186 347 0
-7187 -348 347 0
7187 348 0
7187 -347 0
-7188 2972 -2973 0
7188 -2972 0
7188 2973 0
-7189 -2972 2973 0
7189 2972 0
7189 -2973 0
-7190 2974 -2975 0
7190 -2974 0
7190 2975 0
-7191 -2974 2975 0
7191 2974 0
7191 -2975 0
-7192 350 -349 0
7192 -350 0
7192 349 0
-7193 -350 349 0
7193 350 0
7193 -349 0
-7194 352 -351 0
7194 -352 0
7194 351 0
-7195 -352 351 0
7195 352 0
7195 -351 0
-7196 2976 -2977 0
7196 -2976 0
7196 2977 0
-7197 -2976 2977 0
7197 2976 0
7197 -2977 0
-7198 2978 -2979 0
7198 -2978 0
7198 2979 0
-7199 -2978 2979 0
7199 2978 0
7199 -2979 0
-7200 354 -353 0
7200 -354 0
7200 353 0
-7201 -354 353 0
7201 354 0
7201 -353 0
-7202 2980 -2981 0
7202 -2980 0
7202 2981 0
-7203 -2980 2981 0
7203 2980 0
7203 -2981 0
-7204 356 -355 0
7204 -356 0
7204 355 0
-7205 -356 355 0
7205 356 0
7205 -355 0
-7206 358 -357 0
7206 -358 0
7206 357 0
-7207 -358 357 0
7207 358 0
7207 -357 0
-7208 2982 -2983 0
7208 -2982 0
7208 2983 0
-7209 -2982 2983 0
7209 2982 0
7209 -2983 0
-7210 360 -359 0
7210 -360 0
7210 359 0
-7211 -360 359 0
7211 360 0
7211 -359 0
-7212 2984 -2985 0
7212 -2984 0
7212 2985 0
-7213 -2984 2985 0
7213 2984 0
7213 -2985 0
-7214 2986 -2987 0
7214 -2986 0
7214 2987 0
-7215 -2986 2987 0
7215 2986 0
7215 -2987 0
-7216 362 -361 0
7216 -362 0
7216 361 0
-7217 -362 361 0
7217 362 0
7217 -361 0
-7218 2988 -2989 0
7218 -2988 0
7218 2989 0
-7219 -2988 2989 0
7219 2988 0
7219 -2989 0
-7220 364 -363 0
7220 -364 0
7220 363 0
-7221 -364 363 0
7221 364 0
7221 -363 0
-7222 2990 -2991 0
7222 -2990 0
7222 2991 0
-7223 -2990 2991 0
7223 2990 0
7223 -2991 0
-7224 366 -365 0
7224 -366 0
7224 365 0
-7225 -366 365 0
7225 366 0
7225 -365 0
-7226 2992 -2993 0
7226 -2992 0
7226 2993 0
-7227 -2992 2993 0
7227 2992 0
7227 -2993 0
-7228 368 -367 0
7228 -368 0
7228 367 0
-7229 -368 367 0
7229 368 0
7229 -367 0
-7230 370 -369 0
7230 -370 0
7230 369 0
-7231 -370 369 0
7231 370 0
7231 -369 0
-7232 2994 -2995 0
7232 -2994 0
7232 2995 0
-7233 -2994 2995 0
7233 2994 0
7233 -2995 0
-7234 2996 -2997 0
7234 -2996 0
7234 2997 0
-7235 -2996 2997 0
7235 2996 0
7235 -2997 0
-7236 372 -371 0
7236 -372 0
7236 371 0
-7237 -372 371 0
7237 372 0
7237 -371 0
-7238 2998 -2999 0
7238 -2998 0
7238 2999 0
-7239 -2998 2999 0
7239 2998 0
7239 -2999 0
-7240 374 -373 0
7240 -374 0
7240 373 0
-7241 -374 373 0
7241 374 0
7241 -373 0
-7242 3000 -3001 0
7242 -3000 0
7242 3001 0
-7243 -3000 3001 0
7243 3000 0
7243 -3001 0
-7244 376 -375 0
7244 -376 0
7244 375 0
-7245 -376 375 0
7245 376 0
7245 -375 0
-7246 3002 -3003 0
7246 -3002 0
7246 3003 0
-7247 -3002 3003 0
7247 3002 0
7247 -3003 0
-7248 378 -377 0
7248 -378 0
7248 377 0
-7249 -378 377 0
7249 378 0
7249 -377 0
-7250 380 -379 0
7250 -380 0
7250 379 0
-7251 -380 379 0
7251 380 0
7251 -379 0
-7252 3004 -3005 0
7252 -3004 0
7252 3005 0
-7253 -3004 3005 0
7253 3004 0
7253 -3005 0
-7254 382 -381 0
7254 -382 0
7254 381 0
-7255 -382 381 0
7255 382 0
7255 -381 0
-7256 3006 -3007 0
7256 -3006 0
7256 3007 0
-7257 -3006 3007 0
7257 3006 0
7257 -3007 0
-7258 3008 -3009 0
7258 -3008 0
7258 3009 0
-7259 -3008 3009 0
7259 3008 0
7259 -3009 0
-7260 384 -383 0
7260 -384 0
7260 383 0
-7261 -384 383 0
7261 384 0
7261 -383 0
-7262 386 -385 0
7262 -386 0
7262 385 0
-7263 -386 385 0
7263 386 0
7263 -385 0
-7264 3010 -3011 0
7264 -3010 0
7264 3011 0
-7265 -3010 3011 0
7265 3010 0
7265 -3011 0
-7266 3012 -3013 0
7266 -3012 0
7266 3013 0
-7267 -3012 3013 0
7267 3012 0
7267 -3013 0
-7268 388 -387 0
7268 -388 0
7268 387 0
-7269 -388 387 0
7269 388 0
7269 -387 0
-7270 3014 -3015 0
7270 -3014 0
7270 3015 0
-7271 -3014 3015 0
7271 3014 0
7271 -3015 0
-7272 390 -389 0
7272 -390 0
7272 389 0
-7273 -390 389 0
7273 390 0
7273 -389 0
-7274 3016 -3017 0
7274 -3016 0
7274 3017 0
-7275 -3016 3017 0
7275 3016 0
7275 -3017 0
-7276 392 -391 0
7276 -392 0
7276 391 0
-7277 -392 391 0
7277 392 0
7277 -391 0
-7278 394 -393 0
7278 -394 0
7278 393 0
-7279 -394 393 0
7279 394 0
7279 -393 0
-7280 3018 -3019 0
7280 -3018 0
7280 3019 0
-7281 -3018 3019 0
7281 3018 0
7281 -3019 0
-7282 3020 -3021 0
7282 -3020 0
7282 3021 0
-7283 -3020 3021 0
7283 3020 0
7283 -3021 0
-7284 396 -395 0
7284 -396 0
7284 395 0
-7285 -396 395 0
7285 396 0
7285 -395 0
-7286 398 -397 0
7286 -398 0
7286 397 0
-7287 -398 397 0
7287 398 0
7287 -397 0
-7288 3022 -3023 0
7288 -3022 0
7288 3023 0
-7289 -3022 3023 0
7289 3022 0
7289 -3023 0
-7290 3024 -3025 0
7290 -3024 0
7290 3025 0
-7291 -3024 3025 0
7291 3024 0
7291 -3025 0
-7292 400 -399 0
7292 -400 0
7292 399 0
-7293 -400 399 0
7293 400 0
7293 -399 0
-7294 402 -401 0
7294 -402 0
7294 401 0
-7295 -402 401 0
7295 402 0
7295 -401 0
-7296 3026 -3027 0
7296 -3026 0
7296 3027 0
-7297 -3026 3027 0
7297 3026 0
7297 -3027 0
-7298 404 -403 0
7298 -404 0
7298 403 0
-7299 -404 403 0
7299 404 0
7299 -403 0
-7300 3028 -2853 0
7300 -3028 0
7300 2853 0
-7301 -3028 2853 0
7301 3028 0
7301 -2853 0
-7302 406 -405 0
7302 -406 0
7302 405 0
-7303 -406 405 0
7303 406 0
7303 -405 0
-7304 3029 -3030 0
7304 -3029 0
7304 3030 0
-7305 -3029 3030 0
7305 3029 0
7305 -3030 0
-7306 3031 -3032 0
7306 -3031 0
7306 3032 0
-7307 -3031 3032 0
7307 3031 0
7307 -3032 0
-7308 408 -407 0
7308 -408 0
7308 407 0
-7309 -408 407 0
7309 408 0
7309 -407 0
-7310 3033 -3034 0
7310 -3033 0
7310 3034 0
-7311 -3033 3034 0
7311 3033 0
7311 -3034 0
-7312 410 -409 0
7312 -410 0
7312 409 0
-7313 -410 409 0
7313 410 0
7313 -409 0
-7314 3035 -3036 0
7314 -3035 0
7314 3036 0
-7315 -3035 3036 0
7315 3035 0
7315 -3036 0
-7316 412 -411 0
7316 -412 0
7316 411 0
-7317 -412 411 0
7317 412 0
7317 -411 0
-7318 414 -413 0
7318 -414 0
7318 413 0
-7319 -414 413 0
7319 414 0
7319 -413 0
-7320 3037 -3038 0
7320 -3037 0
7320 3038 0
-7321 -3037 3038 0
7321 3037 0
7321 -3038 0
-7322 3039 -3040 0
7322 -3039 0
7322 3040 0
-7323 -3039 3040 0
7323 3039 0
7323 -3040 0
-7324 416 -415 0
7324 -416 0
7324 415 0
-7325 -416 415 0
7325 416 0
7325 -415 0
-7326 3041 -3042 0
7326 -3041 0
7326 3042 0
-7327 -3041 3042 0
7327 3041 0
7327 -3042 0
-7328 418 -417 0
7328 -418 0
7328 417 0
-7329 -418 417 0
7329 418 0
7329 -417 0
-7330 3043 -3044 0
7330 -3043 0
7330 3044 0
-7331 -3043 3044 0
7331 3043 0
7331 -3044 0
-7332 420 -419 0
7332 -420 0
7332 419 0
-7333 -420 419 0
7333 420 0
7333 -419 0
-7334 422 -421 0
7334 -422 0
7334 421 0
-7335 -422 421 0
7335 422 0
7335 -421 0
-7336 3045 -3046 0
7336 -3045 0
7336 3046 0
-7337 -3045 3046 0
7337 3045 0
7337 -3046 0
-7338 424 -423 0
7338 -424 0
7338 423 0
-7339 -424 423 0
7339 424 0
7339 -423 0
-7340 3047 -3048 0
7340 -3047 0
7340 3048 0
-7341 -3047 3048 0
7341 3047 0
7341 -3048 0
-7342 3049 -3050 0
7342 -3049 0
7342 3050 0
-7343 -3049 3050 0
7343 3049 0
7343 -3050 0
-7344 426 -425 0
7344 -426 0
7344 425 0
-7345 -426 425 0
7345 426 0
7345 -425 0
-7346 3051 -3052 0
7346 -3051 0
7346 3052 0
-7347 -3051 3052 0
7347 3051 0
7347 -3052 0
-7348 428 -427 0
7348 -428 0
7348 427 0
-7349 -428 427 0
7349 428 0
7349 -427 0
-7350 3053 -2911 0
7350 -3053 0
7350 2911 0
-7351 -3053 2911 0
7351 3053 0
7351 -2911 0
-7352 430 -429 0
7352 -430 0
7352 429 0
-7353 -430 429 0
7353 430 0
7353 -429 0
-7354 3054 -3055 0
7354 -3054 0
7354 3055 0
-7355 -3054 3055 0
7355 3054 0
7355 -3055 0
-7356 3056 -3057 0
7356 -3056 0
7356 3057 0
-7357 -3056 3057 0
7357 3056 0
7357 -3057 0
-7358 3058 -3059 0
7358 -3058 0
7358 3059 0
-7359 -3058 3059 0
7359 3058 0
7359 -3059 0
-7360 434 -433 0
7360 -434 0
7360 433 0
-7361 -434 433 0
7361 434 0
7361 -433 0
-7362 3060 -3061 0
7362 -3060 0
7362 3061 0
-7363 -3060 3061 0
7363 3060 0
7363 -3061 0
-7364 436 -435 0
7364 -436 0
7364 435 0
-7365 -436 435 0
7365 436 0
7365 -435 0
-7366 438 -437 0
7366 -438 0
7366 437 0
-7367 -438 437 0
7367 438 0
7367 -437 0
-7368 3062 -3063 0
7368 -3062 0
7368 3063 0
-7369 -3062 3063 0
7369 3062 0
7369 -3063 0
-7370 440 -439 0
7370 -440 0
7370 439 0
-7371 -440 439 0
7371 440 0
7371 -439 0
-7372 3064 -3065 0
7372 -3064 0
7372 3065 0
-7373 -3064 3065 0
7373 3064 0
7373 -3065 0
-7374 3066 -3067 0
7374 -3066 0
7374 3067 0
-7375 -3066 3067 0
7375 3066 0
7375 -3067 0
-7376 442 -441 0
7376 -442 0
7376 441 0
-7377 -442 441 0
7377 442 0
7377 -441 0
-7378 3068 -3069 0
7378 -3068 0
7378 3069 0
-7379 -3068 3069 0
7379 3068 0
7379 -3069 0
-7380 444 -443 0
7380 -444 0
7380 443 0
-7381 -444 443 0
7381 444 0
7381 -443 0
-7382 446 -445 0
7382 -446 0
7382 445 0
-7383 -446 445 0
7383 446 0
7383 -445 0
-7384 3070 -3071 0
7384 -3070 0
7384 3071 0
-7385 -3070 3071 0
7385 3070 0
7385 -3071 0
-7386 3072 -3073 0
7386 -3072 0
7386 3073 0
-7387 -3072 3073 0
7387 3072 0
7387 -3073 0
-7388 448 -447 0
7388 -448 0
7388 447 0
-7389 -448 447 0
7389 448 0
7389 -447 0
-7390 450 -449 0
7390 -450 0
7390 449 0
-7391 -450 449 0
7391 450 0
7391 -449 0
-7392 3074 -3075 0
7392 -3074 0
7392 3075 0
-7393 -3074 3075 0
7393 3074 0
7393 -3075 0
-7394 452 -451 0
7394 -452 0
7394 451 0
-7395 -452 451 0
7395 452 0
7395 -451 0
-7396 3076 -3077 0
7396 -3076 0
7396 3077 0
-7397 -3076 3077 0
7397 3076 0
7397 -3077 0
-7398 3078 -3079 0
7398 -3078 0
7398 3079 0
-7399 -3078 3079 0
7399 3078 0
7399 -3079 0
-7400 454 -453 0
7400 -454 0
7400 453 0
-7401 -454 453 0
7401 454 0
7401 -453 0
-7402 3080 -3081 0
7402 -3080 0
7402 3081 0
-7403 -3080 3081 0
7403 3080 0
7403 -3081 0
-7404 456 -455 0
7404 -456 0
7404 455 0
-7405 -456 455 0
7405 456 0
7405 -455 0
-7406 3082 -3083 0
7406 -3082 0
7406 3083 0
-7407 -3082 3083 0
7407 3082 0
7407 -3083 0
-7408 458 -457 0
7408 -458 0
7408 457 0
-7409 -458 457 0
7409 458 0
7409 -457 0
-7410 3084 -3085 0
7410 -3084 0
7410 3085 0
-7411 -3084 3085 0
7411 3084 0
7411 -3085 0
-7412 460 -459 0
7412 -460 0
7412 459 0
-7413 -460 459 0
7413 460 0
7413 -459 0
-7414 462 -461 0
7414 -462 0
7414 461 0
-7415 -462 461 0
7415 462 0
7415 -461 0
-7416 3086 -3087 0
7416 -3086 0
7416 3087 0
-7417 -3086 3087 0
7417 3086 0
7417 -3087 0
-7418 3088 -3089 0
7418 -3088 0
7418 3089 0
-7419 -3088 3089 0
7419 3088 0
7419 -3089 0
-7420 464 -463 0
7420 -464 0
7420 463 0
-7421 -464 463 0
7421 464 0
7421 -463 0
-7422 3090 -3091 0
7422 -3090 0
7422 3091 0
-7423 -3090 3091 0
7423 3090 0
7423 -3091 0
-7424 466 -465 0
7424 -466 0
7424 465 0
-7425 -466 465 0
7425 466 0
7425 -465 0
-7426 3092 -3093 0
7426 -3092 0
7426 3093 0
-7427 -3092 3093 0
7427 3092 0
7427 -3093 0
-7428 468 -467 0
7428 -468 0
7428 467 0
-7429 -468 467 0
7429 468 0
7429 -467 0
-7430 3094 -3095 0
7430 -3094 0
7430 3095 0
-7431 -3094 3095 0
7431 3094 0
7431 -3095 0
-7432 470 -469 0
7432 -470 0
7432 469 0
-7433 -470 469 0
7433 470 0
7433 -469 0
-7434 3096 -3097 0
7434 -3096 0
7434 3097 0
-7435 -3096 3097 0
7435 3096 0
7435 -3097 0
-7436 472 -471 0
7436 -472 0
7436 471 0
-7437 -472 471 0
7437 472 0
7437 -471 0
-7438 3098 -3099 0
7438 -3098 0
7438 3099 0
-7439 -3098 3099 0
7439 3098 0
7439 -3099 0
-7440 474 -473 0
7440 -474 0
7440 473 0
-7441 -474 473 0
7441 474 0
7441 -473 0
-7442 476 -475 0
7442 -476 0
7442 475 0
-7443 -476 475 0
7443 476 0
7443 -475 0
-7444 3100 -3101 0
7444 -3100 0
7444 3101 0
-7445 -3100 3101 0
7445 3100 0
7445 -3101 0
-7446 3102 -3103 0
7446 -3102 0
7446 3103 0
-7447 -3102 3103 0
7447 3102 0
7447 -3103 0
-7448 478 -477 0
7448 -478 0
7448 477 0
-7449 -478 477 0
7449 478 0
7449 -477 0
-7450 480 -479 0
7450 -480 0
7450 479 0
-7451 -480 479 0
7451 480 0
7451 -479 0
-7452 3104 -3105 0
7452 -3104 0
7452 3105 0
-7453 -3104 3105 0
7453 3104 0
7453 -3105 0
-7454 3106 -3107 0
7454 -3106 0
7454 3107 0
-7455 -3106 3107 0
7455 3106 0
7455 -3107 0
-7456 482 -481 0
7456 -482 0
7456 481 0
-7457 -482 481 0
7457 482 0
7457 -481 0
-7458 3108 -3109 0
7458 -3108 0
7458 3109 0
-7459 -3108 3109 0
7459 3108 0
7459 -3109 0
-7460 484 -483 0
7460 -484 0
7460 483 0
-7461 -484 483 0
7461 484 0
7461 -483 0
-7462 3110 -3111 0
7462 -3110 0
7462 3111 0
-7463 -3110 3111 0
7463 3110 0
7463 -3111 0
-7464 486 -485 0
7464 -486 0
7464 485 0
-7465 -486 485 0
7465 486 0
7465 -485 0
-7466 488 -487 0
7466 -488 0
7466 487 0
-7467 -488 487 0
7467 488 0
7467 -487 0
-7468 3112 -3113 0
7468 -3112 0
7468 3113 0
-7469 -3112 3113 0
7469 3112 0
7469 -3113 0
-7470 3114 -3115 0
7470 -3114 0
7470 3115 0
-7471 -3114 3115 0
7471 3114 0
7471 -3115 0
-7472 490 -489 0
7472 -490 0
7472 489 0
-7473 -490 489 0
7473 490 0
7473 -489 0
-7474 492 -491 0
7474 -492 0
7474 491 0
-7475 -492 491 0
7475 492 0
7475 -491 0
-7476 3116 -3117 0
7476 -3116 0
7476 3117 0
-7477 -3116 3117 0
7477 3116 0
7477 -3117 0
-7478 3118 -3119 0
7478 -3118 0
7478 3119 0
-7479 -3118 3119 0
7479 3118 0
7479 -3119 0
-7480 494 -493 0
7480 -494 0
7480 493 0
-7481 -494 493 0
7481 494 0
7481 -493 0
-7482 3120 -3121 0
7482 -3120 0
7482 3121 0
-7483 -3120 3121 0
7483 3120 0
7483 -3121 0
-7484 496 -495 0
7484 -496 0
7484 495 0
-7485 -496 495 0
7485 496 0
7485 -495 0
-7486 3122 -3123 0
7486 -3122 0
7486 3123 0
-7487 -3122 3123 0
7487 3122 0
7487 -3123 0
-7488 498 -497 0
7488 -498 0
7488 497 0
-7489 -498 497 0
7489 498 0
7489 -497 0
-7490 500 -499 0
7490 -500 0
7490 499 0
-7491 -500 499 0
7491 500 0
7491 -499 0
-7492 3124 -3125 0
7492 -3124 0
7492 3125 0
-7493 -3124 3125 0
7493 3124 0
7493 -3125 0
-7494 3126 -3127 0
7494 -3126 0
7494 3127 0
-7495 -3126 3127 0
7495 3126 0
7495 -3127 0
-7496 502 -501 0
7496 -502 0
7496 501 0
-7497 -502 501 0
7497 502 0
7497 -501 0
-7498 3128 -3129 0
7498 -3128 0
7498 3129 0
-7499 -3128 3129 0
7499 3128 0
7499 -3129 0
-7500 504 -503 0
7500 -504 0
7500 503 0
-7501 -504 503 0
7501 504 0
7501 -503 0
-7502 506 -505 0
7502 -506 0
7502 505 0
-7503 -506 505 0
7503 506 0
7503 -505 0
-7504 3130 -3131 0
7504 -3130 0
7504 3131 0
-7505 -3130 3131 0
7505 3130 0
7505 -3131 0
-7506 508 -507 0
7506 -508 0
7506 507 0
-7507 -508 507 0
7507 508 0
7507 -507 0
-7508 3132 -3133 0
7508 -3132 0
7508 3133 0
-7509 -3132 3133 0
7509 3132 0
7509 -3133 0
-7510 3134 -3135 0
7510 -3134 0
7510 3135 0
-7511 -3134 3135 0
7511 3134 0
7511 -3135 0
-7512 510 -509 0
7512 -510 0
7512 509 0
-7513 -510 509 0
7513 510 0
7513 -509 0
-7514 3136 -3137 0
7514 -3136 0
7514 3137 0
-7515 -3136 3137 0
7515 3136 0
7515 -3137 0
-7516 512 -511 0
7516 -512 0
7516 511 0
-7517 -512 511 0
7517 512 0
7517 -511 0
-7518 3138 -3139 0
7518 -3138 0
7518 3139 0
-7519 -3138 3139 0
7519 3138 0
7519 -3139 0
-7520 514 -513 0
7520 -514 0
7520 513 0
-7521 -514 513 0
7521 514 0
7521 -513 0
-7522 516 -515 0
7522 -516 0
7522 515 0
-7523 -516 515 0
7523 516 0
7523 -515 0
-7524 3140 -3141 0
7524 -3140 0
7524 3141 0
-7525 -3140 3141 0
7525 3140 0
7525 -3141 0
-7526 3142 -3143 0
7526 -3142 0
7526 3143 0
-7527 -3142 3143 0
7527 3142 0
7527 -3143 0
-7528 518 -517 0
7528 -518 0
7528 517 0
-7529 -518 517 0
7529 518 0
7529 -517 0
-7530 3144 -3145 0
7530 -3144 0
7530 3145 0
-7531 -3144 3145 0
7531 3144 0
7531 -3145 0
-7532 520 -519 0
7532 -520 0
7532 519 0
-7533 -520 519 0
7533 520 0
7533 -519 0
-7534 522 -521 0
7534 -522 0
7534 521 0
-7535 -522 521 0
7535 522 0
7535 -521 0
-7536 3146 -3147 0
7536 -3146 0
7536 3147 0
-7537 -3146 3147 0
7537 3146 0
7537 -3147 0
-7538 3148 -3149 0
7538 -3148 0
7538 3149 0
-7539 -3148 3149 0
7539 3148 0
7539 -3149 0
-7540 524 -523 0
7540 -524 0
7540 523 0
-7541 -524 523 0
7541 524 0
7541 -523 0
-7542 526 -525 0
7542 -526 0
7542 525 0
-7543 -526 525 0
7543 526 0
7543 -525 0
-7544 3150 -3151 0
7544 -3150 0
7544 3151 0
-7545 -3150 3151 0
7545 3150 0
7545 -3151 0
-7546 3152 -3153 0
7546 -3152 0
7546 3153 0
-7547 -3152 3153 0
7547 3152 0
7547 -3153 0
-7548 528 -527 0
7548 -528 0
7548 527 0
-7549 -528 527 0
7549 528 0
7549 -527 0
-7550 530 -529 0
7550 -530 0
7550 529 0
-7551 -530 529 0
7551 530 0
7551 -529 0
-7552 3154 -3155 0
7552 -3154 0
7552 3155 0
-7553 -3154 3155 0
7553 3154 0
7553 -3155 0
-7554 3156 -3157 0
7554 -3156 0
7554 3157 0
-7555 -3156 3157 0
7555 3156 0
7555 -3157 0
-7556 532 -531 0
7556 -532 0
7556 531 0
-7557 -532 531 0
7557 532 0
7557 -531 0
-7558 534 -533 0
7558 -534 0
7558 533 0
-7559 -534 533 0
7559 534 0
7559 -533 0
-7560 3158 -3159 0
7560 -3158 0
7560 3159 0
-7561 -3158 3159 0
7561 3158 0
7561 -3159 0
-7562 3160 -3161 0
7562 -3160 0
7562 3161 0
-7563 -3160 3161 0
7563 3160 0
7563 -3161 0
-7564 536 -535 0
7564 -536 0
7564 535 0
-7565 -536 535 0
7565 536 0
7565 -535 0
-7566 538 -537 0
7566 -538 0
7566 537 0
-7567 -538 537 0
7567 538 0
7567 -537 0
-7568 3162 -3163 0
7568 -3162 0
7568 3163 0
-7569 -3162 3163 0
7569 3162 0
7569 -3163 0
-7570 3164 -3165 0
7570 -3164 0
7570 3165 0
-7571 -3164 3165 0
7571 3164 0
7571 -3165 0
-7572 540 -539 0
7572 -540 0
7572 539 0
-7573 -540 539 0
7573 540 0
7573 -539 0
-7574 542 -541 0
7574 -542 0
7574 541 0
-7575 -542 541 0
7575 542 0
7575 -541 0
-7576 3166 -3167 0
7576 -3166 0
7576 3167 0
-7577 -3166 3167 0
7577 3166 0
7577 -3167 0
-7578 3168 -2847 0
7578 -3168 0
7578 2847 0
-7579 -3168 2847 0
7579 3168 0
7579 -2847 0
-7580 544 -543 0
7580 -544 0
7580 543 0
-7581 -544 543 0
7581 544 0
7581 -543 0
-7582 546 -545 0
7582 -546 0
7582 545 0
-7583 -546 545 0
7583 546 0
7583 -545 0
-7584 3169 -3170 0
7584 -3169 0
7584 3170 0
-7585 -3169 3170 0
7585 3169 0
7585 -3170 0
-7586 3171 -3172 0
7586 -3171 0
7586 3172 0
-7587 -3171 3172 0
7587 3171 0
7587 -3172 0
-7588 548 -547 0
7588 -548 0
7588 547 0
-7589 -548 547 0
7589 548 0
7589 -547 0
-7590 550 -549 0
7590 -550 0
7590 549 0
-7591 -550 549 0
7591 550 0
7591 -549 0
-7592 3173 -3174 0
7592 -3173 0
7592 3174 0
-7593 -3173 3174 0
7593 3173 0
7593 -3174 0
-7594 3175 -3176 0
7594 -3175 0
7594 3176 0
-7595 -3175 3176 0
7595 3175 0
7595 -3176 0
-7596 552 -551 0
7596 -552 0
7596 551 0
-7597 -552 551 0
7597 552 0
7597 -551 0
-7598 3177 -3178 0
7598 -3177 0
7598 3178 0
-7599 -3177 3178 0
7599 3177 0
7599 -3178 0
-7600 554 -553 0
7600 -554 0
7600 553 0
-7601 -554 553 0
7601 554 0
7601 -553 0
-7602 3179 -3180 0
7602 -3179 0
7602 3180 0
-7603 -3179 3180 0
7603 3179 0
7603 -3180 0
-7604 556 -555 0
7604 -556 0
7604 555 0
-7605 -556 555 0
7605 556 0
7605 -555 0
-7606 558 -557 0
7606 -558 0
7606 557 0
-7607 -558 557 0
7607 558 0
7607 -557 0
-7608 3181 -3182 0
7608 -3181 0
7608 3182 0
-7609 -3181 3182 0
7609 3181 0
7609 -3182 0
-7610 560 -559 0
7610 -560 0
7610 559 0
-7611 -560 559 0
7611 560 0
7611 -559 0
-7612 3183 -3184 0
7612 -3183 0
7612 3184 0
-7613 -3183 3184 0
7613 3183 0
7613 -3184 0
-7614 3185 -3186 0
7614 -3185 0
7614 3186 0
-7615 -3185 3186 0
7615 3185 0
7615 -3186 0
-7616 562 -561 0
7616 -562 0
7616 561 0
-7617 -562 561 0
7617 562 0
7617 -561 0
-7618 3187 -3188 0
7618 -3187 0
7618 3188 0
-7619 -3187 3188 0
7619 3187 0
7619 -3188 0
-7620 564 -563 0
7620 -564 0
7620 563 0
-7621 -564 563 0
7621 564 0
7621 -563 0
-7622 3189 -3190 0
7622 -3189 0
7622 3190 0
-7623 -3189 3190 0
7623 3189 0
7623 -3190 0
-7624 566 -565 0
7624 -566 0
7624 565 0
-7625 -566 565 0
7625 566 0
7625 -565 0
-7626 3191 -3192 0
7626 -3191 0
7626 3192 0
-7627 -3191 3192 0
7627 3191 0
7627 -3192 0
-7628 568 -567 0
7628 -568 0
7628 567 0
-7629 -568 567 0
7629 568 0
7629 -567 0
-7630 570 -569 0
7630 -570 0
7630 569 0
-7631 -570 569 0
7631 570 0
7631 -569 0
-7632 3193 -2913 0
7632 -3193 0
7632 2913 0
-7633 -3193 2913 0
7633 3193 0
7633 -2913 0
-7634 3194 -2284 0
7634 -3194 0
7634 2284 0
-7635 -3194 2284 0
7635 3194 0
7635 -2284 0
-7636 3195 -2283 0
7636 -3195 0
7636 2283 0
-7637 -3195 2283 0
7637 3195 0
7637 -2283 0
-7638 574 -573 0
7638 -574 0
7638 573 0
-7639 -574 573 0
7639 574 0
7639 -573 0
-7640 3196 -2449 0
7640 -3196 0
7640 2449 0
-7641 -3196 2449 0
7641 3196 0
7641 -2449 0
-7642 3197 -2555 0
7642 -3197 0
7642 2555 0
-7643 -3197 2555 0
7643 3197 0
7643 -2555 0
-7644 576 -575 0
7644 -576 0
7644 575 0
-7645 -576 575 0
7645 576 0
7645 -575 0
-7646 3198 -2725 0
7646 -3198 0
7646 2725 0
-7647 -3198 2725 0
7647 3198 0
7647 -2725 0
-7648 578 -577 0
7648 -578 0
7648 577 0
-7649 -578 577 0
7649 578 0
7649 -577 0
-7650 3199 -2886 0
7650 -3199 0
7650 2886 0
-7651 -3199 2886 0
7651 3199 0
7651 -2886 0
-7652 580 -579 0
7652 -580 0
7652 579 0
-7653 -580 579 0
7653 580 0
7653 -579 0
-7654 582 -581 0
7654 -582 0
7654 581 0
-7655 -582 581 0
7655 582 0
7655 -581 0
-7656 3200 -3201 0
7656 -3200 0
7656 3201 0
-7657 -3200 3201 0
7657 3200 0
7657 -3201 0
-7658 3202 -2247 0
7658 -3202 0
7658 2247 0
-7659 -3202 2247 0
7659 3202 0
7659 -2247 0
-7660 3203 -2353 0
7660 -3203 0
7660 2353 0
-7661 -3203 2353 0
7661 3203 0
7661 -2353 0
-7662 586 -585 0
7662 -586 0
7662 585 0
-7663 -586 585 0
7663 586 0
7663 -585 0
-7664 3204 -2543 0
7664 -3204 0
7664 2543 0
-7665 -3204 2543 0
7665 3204 0
7665 -2543 0
-7666 588 -587 0
7666 -588 0
7666 587 0
-7667 -588 587 0
7667 588 0
7667 -587 0
-7668 3205 -3206 0
7668 -3205 0
7668 3206 0
-7669 -3205 3206 0
7669 3205 0
7669 -3206 0
-7670 3207 -2146 0
7670 -3207 0
7670 2146 0
-7671 -3207 2146 0
7671 3207 0
7671 -2146 0
-7672 3208 -2411 0
7672 -3208 0
7672 2411 0
-7673 -3208 2411 0
7673 3208 0
7673 -2411 0
-7674 3209 -2573 0
7674 -3209 0
7674 2573 0
-7675 -3209 2573 0
7675 3209 0
7675 -2573 0
-7676 592 -591 0
7676 -592 0
7676 591 0
-7677 -592 591 0
7677 592 0
7677 -591 0
-7678 3210 -2665 0
7678 -3210 0
7678 2665 0
-7679 -3210 2665 0
7679 3210 0
7679 -2665 0
-7680 594 -593 0
7680 -594 0
7680 593 0
-7681 -594 593 0
7681 594 0
7681 -593 0
-7682 3211 -2870 0
7682 -3211 0
7682 2870 0
-7683 -3211 2870 0
7683 3211 0
7683 -2870 0
-7684 596 -595 0
7684 -596 0
7684 595 0
-7685 -596 595 0
7685 596 0
7685 -595 0
-7686 3212 -3213 0
7686 -3212 0
7686 3213 0
-7687 -3212 3213 0
7687 3212 0
7687 -3213 0
-7688 598 -597 0
7688 -598 0
7688 597 0
-7689 -598 597 0
7689 598 0
7689 -597 0
-7690 3214 -2163 0
7690 -3214 0
7690 2163 0
-7691 -3214 2163 0
7691 3214 0
7691 -2163 0
-7692 3215 -2164 0
7692 -3215 0
7692 2164 0
-7693 -3215 2164 0
7693 3215 0
7693 -2164 0
-7694 3216 -2391 0
7694 -3216 0
7694 2391 0
-7695 -3216 2391 0
7695 3216 0
7695 -2391 0
-7696 602 -601 0
7696 -602 0
7696 601 0
-7697 -602 601 0
7697 602 0
7697 -601 0
-7698 3217 -2613 0
7698 -3217 0
7698 2613 0
-7699 -3217 2613 0
7699 3217 0
7699 -2613 0
-7700 604 -603 0
7700 -604 0
7700 603 0
-7701 -604 603 0
7701 604 0
7701 -603 0
-7702 3218 -2229 0
7702 -3218 0
7702 2229 0
-7703 -3218 2229 0
7703 3218 0
7703 -2229 0
-7704 3219 -2228 0
7704 -3219 0
7704 2228 0
-7705 -3219 2228 0
7705 3219 0
7705 -2228 0
-7706 608 -607 0
7706 -608 0
7706 607 0
-7707 -608 607 0
7707 608 0
7707 -607 0
-7708 3220 -2463 0
7708 -3220 0
7708 2463 0
-7709 -3220 2463 0
7709 3220 0
7709 -2463 0
-7710 610 -609 0
7710 -610 0
7710 609 0
-7711 -610 609 0
7711 610 0
7711 -609 0
-7712 3221 -2569 0
7712 -3221 0
7712 2569 0
-7713 -3221 2569 0
7713 3221 0
7713 -2569 0
-7714 612 -611 0
7714 -612 0
7714 611 0
-7715 -612 611 0
7715 612 0
7715 -611 0
-7716 3222 -2894 0
7716 -3222 0
7716 2894 0
-7717 -3222 2894 0
7717 3222 0
7717 -2894 0
-7718 3223 -2211 0
7718 -3223 0
7718 2211 0
-7719 -3223 2211 0
7719 3223 0
7719 -2211 0
-7720 3224 -2461 0
7720 -3224 0
7720 2461 0
-7721 -3224 2461 0
7721 3224 0
7721 -2461 0
-7722 3225 -2567 0
7722 -3225 0
7722 2567 0
-7723 -3225 2567 0
7723 3225 0
7723 -2567 0
-7724 616 -615 0
7724 -616 0
7724 615 0
-7725 -616 615 0
7725 616 0
7725 -615 0
-7726 618 -617 0
7726 -618 0
7726 617 0
-7727 -618 617 0
7727 618 0
7727 -617 0
-7728 3226 -3227 0
7728 -3226 0
7728 3227 0
-7729 -3226 3227 0
7729 3226 0
7729 -3227 0
-7730 620 -619 0
7730 -620 0
7730 619 0
-7731 -620 619 0
7731 620 0
7731 -619 0
-7732 3228 -2823 0
7732 -3228 0
7732 2823 0
-7733 -3228 2823 0
7733 3228 0
7733 -2823 0
-7734 3229 -2112 0
7734 -3229 0
7734 2112 0
-7735 -3229 2112 0
7735 3229 0
7735 -2112 0
-7736 3230 -2111 0
7736 -3230 0
7736 2111 0
-7737 -3230 2111 0
7737 3230 0
7737 -2111 0
-7738 624 -623 0
7738 -624 0
7738 623 0
-7739 -624 623 0
7739 624 0
7739 -623 0
-7740 3231 -2419 0
7740 -3231 0
7740 2419 0
-7741 -3231 2419 0
7741 3231 0
7741 -2419 0
-7742 3232 -2511 0
7742 -3232 0
7742 2511 0
-7743 -3232 2511 0
7743 3232 0
7743 -2511 0
-7744 626 -625 0
7744 -626 0
7744 625 0
-7745 -626 625 0
7745 626 0
7745 -625 0
-7746 628 -627 0
7746 -628 0
7746 627 0
-7747 -628 627 0
7747 628 0
7747 -627 0
-7748 3233 -2819 0
7748 -3233 0
7748 2819 0
-7749 -3233 2819 0
7749 3233 0
7749 -2819 0
-7750 630 -629 0
7750 -630 0
7750 629 0
-7751 -630 629 0
7751 630 0
7751 -629 0
-7752 3234 -3235 0
7752 -3234 0
7752 3235 0
-7753 -3234 3235 0
7753 3234 0
7753 -3235 0
-7754 3236 -2135 0
7754 -3236 0
7754 2135 0
-7755 -3236 2135 0
7755 3236 0
7755 -2135 0
-7756 3237 -2429 0
7756 -3237 0
7756 2429 0
-7757 -3237 2429 0
7757 3237 0
7757 -2429 0
-7758 3238 -2513 0
7758 -3238 0
7758 2513 0
-7759 -3238 2513 0
7759 3238 0
7759 -2513 0
-7760 634 -633 0
7760 -634 0
7760 633 0
-7761 -634 633 0
7761 634 0
7761 -633 0
-7762 636 -635 0
7762 -636 0
7762 635 0
-7763 -636 635 0
7763 636 0
7763 -635 0
-7764 3239 -3240 0
7764 -3239 0
7764 3240 0
-7765 -3239 3240 0
7765 3239 0
7765 -3240 0
-7766 3241 -2310 0
7766 -3241 0
7766 2310 0
-7767 -3241 2310 0
7767 3241 0
7767 -2310 0
-7768 3242 -2471 0
7768 -3242 0
7768 2471 0
-7769 -3242 2471 0
7769 3242 0
7769 -2471 0
-7770 3243 -2587 0
7770 -3243 0
7770 2587 0
-7771 -3243 2587 0
7771 3243 0
7771 -2587 0
-7772 640 -639 0
7772 -640 0
7772 639 0
-7773 -640 639 0
7773 640 0
7773 -639 0
-7774 3244 -3245 0
7774 -3244 0
7774 3245 0
-7775 -3244 3245 0
7775 3244 0
7775 -3245 0
-7776 642 -641 0
7776 -642 0
7776 641 0
-7777 -642 641 0
7777 642 0
7777 -641 0
-7778 3246 -2361 0
7778 -3246 0
7778 2361 0
-7779 -3246 2361 0
7779 3246 0
7779 -2361 0
-7780 3247 -2258 0
7780 -3247 0
7780 2258 0
-7781 -3247 2258 0
7781 3247 0
7781 -2258 0
-7782 3248 -2493 0
7782 -3248 0
7782 2493 0
-7783 -3248 2493 0
7783 3248 0
7783 -2493 0
-7784 646 -645 0
7784 -646 0
7784 645 0
-7785 -646 645 0
7785 646 0
7785 -645 0
-7786 3249 -2835 0
7786 -3249 0
7786 2835 0
-7787 -3249 2835 0
7787 3249 0
7787 -2835 0
-7788 648 -647 0
7788 -648 0
7788 647 0
-7789 -648 647 0
7789 648 0
7789 -647 0
-7790 3250 -2745 0
7790 -3250 0
7790 2745 0
-7791 -3250 2745 0
7791 3250 0
7791 -2745 0
-7792 650 -649 0
7792 -650 0
7792 649 0
-7793 -650 649 0
7793 650 0
7793 -649 0
-7794 652 -651 0
7794 -652 0
7794 651 0
-7795 -652 651 0
7795 652 0
7795 -651 0
-7796 3251 -3252 0
7796 -3251 0
7796 3252 0
-7797 -3251 3252 0
7797 3251 0
7797 -3252 0
-7798 3253 -2250 0
7798 -3253 0
7798 2250 0
-7799 -3253 2250 0
7799 3253 0
7799 -2250 0
-7800 3254 -2251 0
7800 -3254 0
7800 2251 0
-7801 -3254 2251 0
7801 3254 0
7801 -2251 0
-7802 656 -655 0
7802 -656 0
7802 655 0
-7803 -656 655 0
7803 656 0
7803 -655 0
-7804 3255 -2399 0
7804 -3255 0
7804 2399 0
-7805 -3255 2399 0
7805 3255 0
7805 -2399 0
-7806 658 -657 0
7806 -658 0
7806 657 0
-7807 -658 657 0
7807 658 0
7807 -657 0
-7808 3256 -2589 0
7808 -3256 0
7808 2589 0
-7809 -3256 2589 0
7809 3256 0
7809 -2589 0
-7810 3257 -2168 0
7810 -3257 0
7810 2168 0
-7811 -3257 2168 0
7811 3257 0
7811 -2168 0
-7812 3258 -2167 0
7812 -3258 0
7812 2167 0
-7813 -3258 2167 0
7813 3258 0
7813 -2167 0
-7814 662 -661 0
7814 -662 0
7814 661 0
-7815 -662 661 0
7815 662 0
7815 -661 0
-7816 3259 -2371 0
7816 -3259 0
7816 2371 0
-7817 -3259 2371 0
7817 3259 0
7817 -2371 0
-7818 3260 -2605 0
7818 -3260 0
7818 2605 0
-7819 -3260 2605 0
7819 3260 0
7819 -2605 0
-7820 664 -663 0
7820 -664 0
7820 663 0
-7821 -664 663 0
7821 664 0
7821 -663 0
-7822 666 -665 0
7822 -666 0
7822 665 0
-7823 -666 665 0
7823 666 0
7823 -665 0
-7824 3261 -2709 0
7824 -3261 0
7824 2709 0
-7825 -3261 2709 0
7825 3261 0
7825 -2709 0
-7826 3262 -2906 0
7826 -3262 0
7826 2906 0
-7827 -3262 2906 0
7827 3262 0
7827 -2906 0
-7828 668 -667 0
7828 -668 0
7828 667 0
-7829 -668 667 0
7829 668 0
7829 -667 0
-7830 3263 -2479 0
7830 -3263 0
7830 2479 0
-7831 -3263 2479 0
7831 3263 0
7831 -2479 0
-7832 3264 -2115 0
7832 -3264 0
7832 2115 0
-7833 -3264 2115 0
7833 3264 0
7833 -2115 0
-7834 3265 -2537 0
7834 -3265 0
7834 2537 0
-7835 -3265 2537 0
7835 3265 0
7835 -2537 0
-7836 672 -671 0
7836 -672 0
7836 671 0
-7837 -672 671 0
7837 672 0
7837 -671 0
-7838 674 -673 0
7838 -674 0
7838 673 0
-7839 -674 673 0
7839 674 0
7839 -673 0
-7840 3266 -3267 0
7840 -3266 0
7840 3267 0
-7841 -3266 3267 0
7841 3266 0
7841 -3267 0
-7842 3268 -2241 0
7842 -3268 0
7842 2241 0
-7843 -3268 2241 0
7843 3268 0
7843 -2241 0
-7844 3269 -2441 0
7844 -3269 0
7844 2441 0
-7845 -3269 2441 0
7845 3269 0
7845 -2441 0
-7846 3270 -2509 0
7846 -3270 0
7846 2509 0
-7847 -3270 2509 0
7847 3270 0
7847 -2509 0
-7848 678 -677 0
7848 -678 0
7848 677 0
-7849 -678 677 0
7849 678 0
7849 -677 0
-7850 3271 -2799 0
7850 -3271 0
7850 2799 0
-7851 -3271 2799 0
7851 3271 0
7851 -2799 0
-7852 680 -679 0
7852 -680 0
7852 679 0
-7853 -680 679 0
7853 680 0
7853 -679 0
-7854 3272 -3273 0
7854 -3272 0
7854 3273 0
-7855 -3272 3273 0
7855 3272 0
7855 -3273 0
-7856 682 -681 0
7856 -682 0
7856 681 0
-7857 -682 681 0
7857 682 0
7857 -681 0
-7858 3274 -2326 0
7858 -3274 0
7858 2326 0
-7859 -3274 2326 0
7859 3274 0
7859 -2326 0
-7860 3275 -2325 0
7860 -3275 0
7860 2325 0
-7861 -3275 2325 0
7861 3275 0
7861 -2325 0
-7862 3276 -2417 0
7862 -3276 0
7862 2417 0
-7863 -3276 2417 0
7863 3276 0
7863 -2417 0
-7864 686 -685 0
7864 -686 0
7864 685 0
-7865 -686 685 0
7865 686 0
7865 -685 0
-7866 3277 -2529 0
7866 -3277 0
7866 2529 0
-7867 -3277 2529 0
7867 3277 0
7867 -2529 0
-7868 688 -687 0
7868 -688 0
7868 687 0
-7869 -688 687 0
7869 688 0
7869 -687 0
-7870 3278 -2101 0
7870 -3278 0
7870 2101 0
-7871 -3278 2101 0
7871 3278 0
7871 -2101 0
-7872 3279 -2413 0
7872 -3279 0
7872 2413 0
-7873 -3279 2413 0
7873 3279 0
7873 -2413 0
-7874 3280 -2553 0
7874 -3280 0
7874 2553 0
-7875 -3280 2553 0
7875 3280 0
7875 -2553 0
-7876 692 -691 0
7876 -692 0
7876 691 0
-7877 -692 691 0
7877 692 0
7877 -691 0
-7878 694 -693 0
7878 -694 0
7878 693 0
-7879 -694 693 0
7879 694 0
7879 -693 0
-7880 3281 -2641 0
7880 -3281 0
7880 2641 0
-7881 -3281 2641 0
7881 3281 0
7881 -2641 0
-7882 3282 -3283 0
7882 -3282 0
7882 3283 0
-7883 -3282 3283 0
7883 3282 0
7883 -3283 0
-7884 696 -695 0
7884 -696 0
7884 695 0
-7885 -696 695 0
7885 696 0
7885 -695 0
-7886 3284 -2280 0
7886 -3284 0
7886 2280 0
-7887 -3284 2280 0
7887 3284 0
7887 -2280 0
-7888 3285 -2387 0
7888 -3285 0
7888 2387 0
-7889 -3285 2387 0
7889 3285 0
7889 -2387 0
-7890 700 -699 0
7890 -700 0
7890 699 0
-7891 -700 699 0
7891 700 0
7891 -699 0
-7892 3286 -2499 0
7892 -3286 0
7892 2499 0
-7893 -3286 2499 0
7893 3286 0
7893 -2499 0
-7894 3287 -3288 0
7894 -3287 0
7894 3288 0
-7895 -3287 3288 0
7895 3287 0
7895 -3288 0
-7896 702 -701 0
7896 -702 0
7896 701 0
-7897 -702 701 0
7897 702 0
7897 -701 0
-7898 3289 -2266 0
7898 -3289 0
7898 2266 0
-7899 -3289 2266 0
7899 3289 0
7899 -2266 0
-7900 3290 -2265 0
7900 -3290 0
7900 2265 0
-7901 -3290 2265 0
7901 3290 0
7901 -2265 0
-7902 3291 -2425 0
7902 -3291 0
7902 2425 0
-7903 -3291 2425 0
7903 3291 0
7903 -2425 0
-7904 706 -705 0
7904 -706 0
7904 705 0
-7905 -706 705 0
7905 706 0
7905 -705 0
-7906 3292 -2487 0
7906 -3292 0
7906 2487 0
-7907 -3292 2487 0
7907 3292 0
7907 -2487 0
-7908 708 -707 0
7908 -708 0
7908 707 0
-7909 -708 707 0
7909 708 0
7909 -707 0
-7910 3293 -2175 0
7910 -3293 0
7910 2175 0
-7911 -3293 2175 0
7911 3293 0
7911 -2175 0
-7912 3294 -2174 0
7912 -3294 0
7912 2174 0
-7913 -3294 2174 0
7913 3294 0
7913 -2174 0
-7914 3295 -2401 0
7914 -3295 0
7914 2401 0
-7915 -3295 2401 0
7915 3295 0
7915 -2401 0
-7916 712 -711 0
7916 -712 0
7916 711 0
-7917 -712 711 0
7917 712 0
7917 -711 0
-7918 714 -713 0
7918 -714 0
7918 713 0
-7919 -714 713 0
7919 714 0
7919 -713 0
-7920 3296 -2601 0
7920 -3296 0
7920 2601 0
-7921 -3296 2601 0
7921 3296 0
7921 -2601 0
-7922 3297 -2186 0
7922 -3297 0
7922 2186 0
-7923 -3297 2186 0
7923 3297 0
7923 -2186 0
-7924 3298 -2185 0
7924 -3298 0
7924 2185 0
-7925 -3298 2185 0
7925 3298 0
7925 -2185 0
-7926 3299 -2383 0
7926 -3299 0
7926 2383 0
-7927 -3299 2383 0
7927 3299 0
7927 -2383 0
-7928 718 -717 0
7928 -718 0
7928 717 0
-7929 -718 717 0
7929 718 0
7929 -717 0
-7930 720 -719 0
7930 -720 0
7930 719 0
-7931 -720 719 0
7931 720 0
7931 -719 0
-7932 3300 -2611 0
7932 -3300 0
7932 2611 0
-7933 -3300 2611 0
7933 3300 0
7933 -2611 0
-7934 722 -721 0
7934 -722 0
7934 721 0
-7935 -722 721 0
7935 722 0
7935 -721 0
-7936 3301 -2760 0
7936 -3301 0
7936 2760 0
-7937 -3301 2760 0
7937 3301 0
7937 -2760 0
-7938 3302 -2741 0
7938 -3302 0
7938 2741 0
-7939 -3302 2741 0
7939 3302 0
7939 -2741 0
-7940 724 -723 0
7940 -724 0
7940 723 0
-7941 -724 723 0
7941 724 0
7941 -723 0
-7942 3303 -3304 0
7942 -3303 0
7942 3304 0
-7943 -3303 3304 0
7943 3303 0
7943 -3304 0
-7944 726 -725 0
7944 -726 0
7944 725 0
-7945 -726 725 0
7945 726 0
7945 -725 0
-7946 3305 -2447 0
7946 -3305 0
7946 2447 0
-7947 -3305 2447 0
7947 3305 0
7947 -2447 0
-7948 3306 -2225 0
7948 -3306 0
7948 2225 0
-7949 -3306 2225 0
7949 3306 0
7949 -2225 0
-7950 730 -729 0
7950 -730 0
7950 729 0
-7951 -730 729 0
7951 730 0
7951 -729 0
-7952 3307 -2501 0
7952 -3307 0
7952 2501 0
-7953 -3307 2501 0
7953 3307 0
7953 -2501 0
-7954 3308 -2669 0
7954 -3308 0
7954 2669 0
-7955 -3308 2669 0
7955 3308 0
7955 -2669 0
-7956 732 -731 0
7956 -732 0
7956 731 0
-7957 -732 731 0
7957 732 0
7957 -731 0
-7958 734 -733 0
7958 -734 0
7958 733 0
-7959 -734 733 0
7959 734 0
7959 -733 0
-7960 3309 -2657 0
7960 -3309 0
7960 2657 0
-7961 -3309 2657 0
7961 3309 0
7961 -2657 0
-7962 3310 -2807 0
7962 -3310 0
7962 2807 0
-7963 -3310 2807 0
7963 3310 0
7963 -2807 0
-7964 736 -735 0
7964 -736 0
7964 735 0
-7965 -736 735 0
7965 736 0
7965 -735 0
-7966 738 -737 0
7966 -738 0
7966 737 0
-7967 -738 737 0
7967 738 0
7967 -737 0
-7968 3311 -2701 0
7968 -3311 0
7968 2701 0
-7969 -3311 2701 0
7969 3311 0
7969 -2701 0
-7970 3312 -3313 0
7970 -3312 0
7970 3313 0
-7971 -3312 3313 0
7971 3312 0
7971 -3313 0
-7972 740 -739 0
7972 -740 0
7972 739 0
-7973 -740 739 0
7973 740 0
7973 -739 0
-7974 3314 -2123 0
7974 -3314 0
7974 2123 0
-7975 -3314 2123 0
7975 3314 0
7975 -2123 0
-7976 3315 -2122 0
7976 -3315 0
7976 2122 0
-7977 -3315 2122 0
7977 3315 0
7977 -2122 0
-7978 3316 -2377 0
7978 -3316 0
7978 2377 0
-7979 -3316 2377 0
7979 3316 0
7979 -2377 0
-7980 744 -743 0
7980 -744 0
7980 743 0
-7981 -744 743 0
7981 744 0
7981 -743 0
-7982 746 -745 0
7982 -746 0
7982 745 0
-7983 -746 745 0
7983 746 0
7983 -745 0
-7984 3317 -2545 0
7984 -3317 0
7984 2545 0
-7985 -3317 2545 0
7985 3317 0
7985 -2545 0
-7986 3318 -2292 0
7986 -3318 0
7986 2292 0
-7987 -3318 2292 0
7987 3318 0
7987 -2292 0
-7988 3319 -2291 0
7988 -3319 0
7988 2291 0
-7989 -3319 2291 0
7989 3319 0
7989 -2291 0
-7990 3320 -2403 0
7990 -3320 0
7990 2403 0
-7991 -3320 2403 0
7991 3320 0
7991 -2403 0
-7992 750 -749 0
7992 -750 0
7992 749 0
-7993 -750 749 0
7993 750 0
7993 -749 0
-7994 3321 -2495 0
7994 -3321 0
7994 2495 0
-7995 -3321 2495 0
7995 3321 0
7995 -2495 0
-7996 752 -751 0
7996 -752 0
7996 751 0
-7997 -752 751 0
7997 752 0
7997 -751 0
-7998 3322 -2878 0
7998 -3322 0
7998 2878 0
-7999 -3322 2878 0
7999 3322 0
7999 -2878 0
-8000 754 -753 0
8000 -754 0
8000 753 0
-8001 -754 753 0
8001 754 0
8001 -753 0
-8002 3323 -2423 0
8002 -3323 0
8002 2423 0
-8003 -3323 2423 0
8003 3323 0
8003 -2423 0
-8004 3324 -2235 0
8004 -3324 0
8004 2235 0
-8005 -3324 2235 0
8005 3324 0
8005 -2235 0
-8006 3325 -2597 0
8006 -3325 0
8006 2597 0
-8007 -3325 2597 0
8007 3325 0
8007 -2597 0
-8008 758 -757 0
8008 -758 0
8008 757 0
-8009 -758 757 0
8009 758 0
8009 -757 0
-8010 3326 -2768 0
8010 -3326 0
8010 2768 0
-8011 -3326 2768 0
8011 3326 0
8011 -2768 0
-8012 760 -759 0
8012 -760 0
8012 759 0
-8013 -760 759 0
8013 760 0
8013 -759 0
-8014 762 -761 0
8014 -762 0
8014 761 0
-8015 -762 761 0
8015 762 0
8015 -761 0
-8016 3327 -3328 0
8016 -3327 0
8016 3328 0
-8017 -3327 3328 0
8017 3327 0
8017 -3328 0
-8018 3329 -2153 0
8018 -3329 0
8018 2153 0
-8019 -3329 2153 0
8019 3329 0
8019 -2153 0
-8020 3330 -2152 0
8020 -3330 0
8020 2152 0
-8021 -3330 2152 0
8021 3330 0
8021 -2152 0
-8022 3331 -2379 0
8022 -3331 0
8022 2379 0
-8023 -3331 2379 0
8023 3331 0
8023 -2379 0
-8024 766 -765 0
8024 -766 0
8024 765 0
-8025 -766 765 0
8025 766 0
8025 -765 0
-8026 768 -767 0
8026 -768 0
8026 767 0
-8027 -768 767 0
8027 768 0
8027 -767 0
-8028 3332 -2547 0
8028 -3332 0
8028 2547 0
-8029 -3332 2547 0
8029 3332 0
8029 -2547 0
-8030 3333 -2717 0
8030 -3333 0
8030 2717 0
-8031 -3333 2717 0
8031 3333 0
8031 -2717 0
-8032 770 -769 0
8032 -770 0
8032 769 0
-8033 -770 769 0
8033 770 0
8033 -769 0
-8034 3334 -2359 0
8034 -3334 0
8034 2359 0
-8035 -3334 2359 0
8035 3334 0
8035 -2359 0
-8036 3335 -2132 0
8036 -3335 0
8036 2132 0
-8037 -3335 2132 0
8037 3335 0
8037 -2132 0
-8038 3336 -2583 0
8038 -3336 0
8038 2583 0
-8039 -3336 2583 0
8039 3336 0
8039 -2583 0
-8040 774 -773 0
8040 -774 0
8040 773 0
-8041 -774 773 0
8041 774 0
8041 -773 0
-8042 3337 -2729 0
8042 -3337 0
8042 2729 0
-8043 -3337 2729 0
8043 3337 0
8043 -2729 0
-8044 776 -775 0
8044 -776 0
8044 775 0
-8045 -776 775 0
8045 776 0
8045 -775 0
-8046 778 -777 0
8046 -778 0
8046 777 0
-8047 -778 777 0
8047 778 0
8047 -777 0
-8048 3338 -2882 0
8048 -3338 0
8048 2882 0
-8049 -3338 2882 0
8049 3338 0
8049 -2882 0
-8050 780 -779 0
8050 -780 0
8050 779 0
-8051 -780 779 0
8051 780 0
8051 -779 0
-8052 3339 -3340 0
8052 -3339 0
8052 3340 0
-8053 -3339 3340 0
8053 3339 0
8053 -3340 0
-8054 3341 -2160 0
8054 -3341 0
8054 2160 0
-8055 -3341 2160 0
8055 3341 0
8055 -2160 0
-8056 3342 -2159 0
8056 -3342 0
8056 2159 0
-8057 -3342 2159 0
8057 3342 0
8057 -2159 0
-8058 3343 -2409 0
8058 -3343 0
8058 2409 0
-8059 -3343 2409 0
8059 3343 0
8059 -2409 0
-8060 784 -783 0
8060 -784 0
8060 783 0
-8061 -784 783 0
8061 784 0
8061 -783 0
-8062 3344 -2577 0
8062 -3344 0
8062 2577 0
-8063 -3344 2577 0
8063 3344 0
8063 -2577 0
-8064 786 -785 0
8064 -786 0
8064 785 0
-8065 -786 785 0
8065 786 0
8065 -785 0
-8066 3345 -2222 0
8066 -3345 0
8066 2222 0
-8067 -3345 2222 0
8067 3345 0
8067 -2222 0
-8068 3346 -2221 0
8068 -3346 0
8068 2221 0
-8069 -3346 2221 0
8069 3346 0
8069 -2221 0
-8070 3347 -2435 0
8070 -3347 0
8070 2435 0
-8071 -3347 2435 0
8071 3347 0
8071 -2435 0
-8072 790 -789 0
8072 -790 0
8072 789 0
-8073 -790 789 0
8073 790 0
8073 -789 0
-8074 792 -791 0
8074 -792 0
8074 791 0
-8075 -792 791 0
8075 792 0
8075 -791 0
-8076 3348 -2535 0
8076 -3348 0
8076 2535 0
-8077 -3348 2535 0
8077 3348 0
8077 -2535 0
-8078 3349 -2733 0
8078 -3349 0
8078 2733 0
-8079 -3349 2733 0
8079 3349 0
8079 -2733 0
-8080 794 -793 0
8080 -794 0
8080 793 0
-8081 -794 793 0
8081 794 0
8081 -793 0
-8082 3350 -2439 0
8082 -3350 0
8082 2439 0
-8083 -3350 2439 0
8083 3350 0
8083 -2439 0
-8084 3351 -2193 0
8084 -3351 0
8084 2193 0
-8085 -3351 2193 0
8085 3351 0
8085 -2193 0
-8086 798 -797 0
8086 -798 0
8086 797 0
-8087 -798 797 0
8087 798 0
8087 -797 0
-8088 3352 -2565 0
8088 -3352 0
8088 2565 0
-8089 -3352 2565 0
8089 3352 0
8089 -2565 0
-8090 3353 -3354 0
8090 -3353 0
8090 3354 0
-8091 -3353 3354 0
8091 3353 0
8091 -3354 0
-8092 800 -799 0
8092 -800 0
8092 799 0
-8093 -800 799 0
8093 800 0
8093 -799 0
-8094 3355 -2149 0
8094 -3355 0
8094 2149 0
-8095 -3355 2149 0
8095 3355 0
8095 -2149 0
-8096 3356 -2397 0
8096 -3356 0
8096 2397 0
-8097 -3356 2397 0
8097 3356 0
8097 -2397 0
-8098 804 -803 0
8098 -804 0
8098 803 0
-8099 -804 803 0
8099 804 0
8099 -803 0
-8100 3357 -2561 0
8100 -3357 0
8100 2561 0
-8101 -3357 2561 0
8101 3357 0
8101 -2561 0
-8102 3358 -2831 0
8102 -3358 0
8102 2831 0
-8103 -3358 2831 0
8103 3358 0
8103 -2831 0
-8104 806 -805 0
8104 -806 0
8104 805 0
-8105 -806 805 0
8105 806 0
8105 -805 0
-8106 3359 -3360 0
8106 -3359 0
8106 3360 0
-8107 -3359 3360 0
8107 3359 0
8107 -3360 0
-8108 808 -807 0
8108 -808 0
8108 807 0
-8109 -808 807 0
8109 808 0
8109 -807 0
-8110 3361 -2196 0
8110 -3361 0
8110 2196 0
-8111 -3361 2196 0
8111 3361 0
8111 -2196 0
-8112 3362 -2197 0
8112 -3362 0
8112 2197 0
-8113 -3362 2197 0
8113 3362 0
8113 -2197 0
-8114 3363 -2443 0
8114 -3363 0
8114 2443 0
-8115 -3363 2443 0
8115 3363 0
8115 -2443 0
-8116 812 -811 0
8116 -812 0
8116 811 0
-8117 -812 811 0
8117 812 0
8117 -811 0
-8118 814 -813 0
8118 -814 0
8118 813 0
-8119 -814 813 0
8119 814 0
8119 -813 0
-8120 3364 -2497 0
8120 -3364 0
8120 2497 0
-8121 -3364 2497 0
8121 3364 0
8121 -2497 0
-8122 3365 -2337 0
8122 -3365 0
8122 2337 0
-8123 -3365 2337 0
8123 3365 0
8123 -2337 0
-8124 3366 -2338 0
8124 -3366 0
8124 2338 0
-8125 -3366 2338 0
8125 3366 0
8125 -2338 0
-8126 818 -817 0
8126 -818 0
8126 817 0
-8127 -818 817 0
8127 818 0
8127 -817 0
-8128 3367 -2381 0
8128 -3367 0
8128 2381 0
-8129 -3367 2381 0
8129 3367 0
8129 -2381 0
-8130 3368 -2549 0
8130 -3368 0
8130 2549 0
-8131 -3368 2549 0
8131 3368 0
8131 -2549 0
-8132 820 -819 0
8132 -820 0
8132 819 0
-8133 -820 819 0
8133 820 0
8133 -819 0
-8134 3369 -2254 0
8134 -3369 0
8134 2254 0
-8135 -3369 2254 0
8135 3369 0
8135 -2254 0
-8136 3370 -2255 0
8136 -3370 0
8136 2255 0
-8137 -3370 2255 0
8137 3370 0
8137 -2255 0
-8138 3371 -2389 0
8138 -3371 0
8138 2389 0
-8139 -3371 2389 0
8139 3371 0
8139 -2389 0
-8140 824 -823 0
8140 -824 0
8140 823 0
-8141 -824 823 0
8141 824 0
8141 -823 0
-8142 826 -825 0
8142 -826 0
8142 825 0
-8143 -826 825 0
8143 826 0
8143 -825 0
-8144 3372 -2517 0
8144 -3372 0
8144 2517 0
-8145 -3372 2517 0
8145 3372 0
8145 -2517 0
-8146 3373 -2803 0
8146 -3373 0
8146 2803 0
-8147 -3373 2803 0
8147 3373 0
8147 -2803 0
-8148 828 -827 0
8148 -828 0
8148 827 0
-8149 -828 827 0
8149 828 0
8149 -827 0
-8150 3374 -2784 0
8150 -3374 0
8150 2784 0
-8151 -3374 2784 0
8151 3374 0
8151 -2784 0
-8152 830 -829 0
8152 -830 0
8152 829 0
-8153 -830 829 0
8153 830 0
8153 -829 0
-8154 832 -831 0
8154 -832 0
8154 831 0
-8155 -832 831 0
8155 832 0
8155 -831 0
-8156 3375 -3376 0
8156 -3375 0
8156 3376 0
-8157 -3375 3376 0
8157 3375 0
8157 -3376 0
-8158 3377 -2357 0
8158 -3377 0
8158 2357 0
-8159 -3377 2357 0
8159 3377 0
8159 -2357 0
-8160 3378 -2218 0
8160 -3378 0
8160 2218 0
-8161 -3378 2218 0
8161 3378 0
8161 -2218 0
-8162 3379 -2505 0
8162 -3379 0
8162 2505 0
-8163 -3379 2505 0
8163 3379 0
8163 -2505 0
-8164 836 -835 0
8164 -836 0
8164 835 0
-8165 -836 835 0
8165 836 0
8165 -835 0
-8166 838 -837 0
8166 -838 0
8166 837 0
-8167 -838 837 0
8167 838 0
8167 -837 0
-8168 3380 -2737 0
8168 -3380 0
8168 2737 0
-8169 -3380 2737 0
8169 3380 0
8169 -2737 0
-8170 3381 -2675 0
8170 -3381 0
8170 2675 0
-8171 -3381 2675 0
8171 3381 0
8171 -2675 0
-8172 840 -839 0
8172 -840 0
8172 839 0
-8173 -840 839 0
8173 840 0
8173 -839 0
-8174 842 -841 0
8174 -842 0
8174 841 0
-8175 -842 841 0
8175 842 0
8175 -841 0
-8176 3382 -2634 0
8176 -3382 0
8176 2634 0
-8177 -3382 2634 0
8177 3382 0
8177 -2634 0
-8178 844 -843 0
8178 -844 0
8178 843 0
-8179 -844 843 0
8179 844 0
8179 -843 0
-8180 3383 -3384 0
8180 -3383 0
8180 3384 0
-8181 -3383 3384 0
8181 3383 0
8181 -3384 0
-8182 846 -845 0
8182 -846 0
8182 845 0
-8183 -846 845 0
8183 846 0
8183 -845 0
-8184 3385 -2791 0
8184 -3385 0
8184 2791 0
-8185 -3385 2791 0
8185 3385 0
8185 -2791 0
-8186 3386 -2299 0
8186 -3386 0
8186 2299 0
-8187 -3386 2299 0
8187 3386 0
8187 -2299 0
-8188 3387 -2298 0
8188 -3387 0
8188 2298 0
-8189 -3387 2298 0
8189 3387 0
8189 -2298 0
-8190 3388 -2369 0
8190 -3388 0
8190 2369 0
-8191 -3388 2369 0
8191 3388 0
8191 -2369 0
-8192 850 -849 0
8192 -850 0
8192 849 0
-8193 -850 849 0
8193 850 0
8193 -849 0
-8194 852 -851 0
8194 -852 0
8194 851 0
-8195 -852 851 0
8195 852 0
8195 -851 0
-8196 3389 -2541 0
8196 -3389 0
8196 2541 0
-8197 -3389 2541 0
8197 3389 0
8197 -2541 0
-8198 3390 -2314 0
8198 -3390 0
8198 2314 0
-8199 -3390 2314 0
8199 3390 0
8199 -2314 0
-8200 3391 -2313 0
8200 -3391 0
8200 2313 0
-8201 -3391 2313 0
8201 3391 0
8201 -2313 0
-8202 3392 -2365 0
8202 -3392 0
8202 2365 0
-8203 -3392 2365 0
8203 3392 0
8203 -2365 0
-8204 856 -855 0
8204 -856 0
8204 855 0
-8205 -856 855 0
8205 856 0
8205 -855 0
-8206 3393 -2581 0
8206 -3393 0
8206 2581 0
-8207 -3393 2581 0
8207 3393 0
8207 -2581 0
-8208 858 -857 0
8208 -858 0
8208 857 0
-8209 -858 857 0
8209 858 0
8209 -857 0
-8210 3394 -2856 0
8210 -3394 0
8210 2856 0
-8211 -3394 2856 0
8211 3394 0
8211 -2856 0
-8212 860 -859 0
8212 -860 0
8212 859 0
-8213 -860 859 0
8213 860 0
8213 -859 0
-8214 3395 -2333 0
8214 -3395 0
8214 2333 0
-8215 -3395 2333 0
8215 3395 0
8215 -2333 0
-8216 3396 -2334 0
8216 -3396 0
8216 2334 0
-8217 -3396 2334 0
8217 3396 0
8217 -2334 0
-8218 3397 -2373 0
8218 -3397 0
8218 2373 0
-8219 -3397 2373 0
8219 3397 0
8219 -2373 0
-8220 864 -863 0
8220 -864 0
8220 863 0
-8221 -864 863 0
8221 864 0
8221 -863 0
-8222 3398 -2559 0
8222 -3398 0
8222 2559 0
-8223 -3398 2559 0
8223 3398 0
8223 -2559 0
-8224 866 -865 0
8224 -866 0
8224 865 0
-8225 -866 865 0
8225 866 0
8225 -865 0
-8226 3399 -2687 0
8226 -3399 0
8226 2687 0
-8227 -3399 2687 0
8227 3399 0
8227 -2687 0
-8228 868 -867 0
8228 -868 0
8228 867 0
-8229 -868 867 0
8229 868 0
8229 -867 0
-8230 3400 -2385 0
8230 -3400 0
8230 2385 0
-8231 -3400 2385 0
8231 3400 0
8231 -2385 0
-8232 3401 -2238 0
8232 -3401 0
8232 2238 0
-8233 -3401 2238 0
8233 3401 0
8233 -2238 0
-8234 3402 -2491 0
8234 -3402 0
8234 2491 0
-8235 -3402 2491 0
8235 3402 0
8235 -2491 0
-8236 872 -871 0
8236 -872 0
8236 871 0
-8237 -872 871 0
8237 872 0
8237 -871 0
-8238 3403 -2721 0
8238 -3403 0
8238 2721 0
-8239 -3403 2721 0
8239 3403 0
8239 -2721 0
-8240 874 -873 0
8240 -874 0
8240 873 0
-8241 -874 873 0
8241 874 0
8241 -873 0
-8242 876 -875 0
8242 -876 0
8242 875 0
-8243 -876 875 0
8243 876 0
8243 -875 0
-8244 3404 -2866 0
8244 -3404 0
8244 2866 0
-8245 -3404 2866 0
8245 3404 0
8245 -2866 0
-8246 3405 -2649 0
8246 -3405 0
8246 2649 0
-8247 -3405 2649 0
8247 3405 0
8247 -2649 0
-8248 878 -877 0
8248 -878 0
8248 877 0
-8249 -878 877 0
8249 878 0
8249 -877 0
-8250 3406 -2858 0
8250 -3406 0
8250 2858 0
-8251 -3406 2858 0
8251 3406 0
8251 -2858 0
-8252 880 -879 0
8252 -880 0
8252 879 0
-8253 -880 879 0
8253 880 0
8253 -879 0
-8254 3407 -2143 0
8254 -3407 0
8254 2143 0
-8255 -3407 2143 0
8255 3407 0
8255 -2143 0
-8256 3408 -2142 0
8256 -3408 0
8256 2142 0
-8257 -3408 2142 0
8257 3408 0
8257 -2142 0
-8258 3409 -2469 0
8258 -3409 0
8258 2469 0
-8259 -3409 2469 0
8259 3409 0
8259 -2469 0
-8260 884 -883 0
8260 -884 0
8260 883 0
-8261 -884 883 0
8261 884 0
8261 -883 0
-8262 886 -885 0
8262 -886 0
8262 885 0
-8263 -886 885 0
8263 886 0
8263 -885 0
-8264 3410 -2591 0
8264 -3410 0
8264 2591 0
-8265 -3410 2591 0
8265 3410 0
8265 -2591 0
-8266 3411 -2207 0
8266 -3411 0
8266 2207 0
-8267 -3411 2207 0
8267 3411 0
8267 -2207 0
-8268 3412 -2208 0
8268 -3412 0
8268 2208 0
-8269 -3412 2208 0
8269 3412 0
8269 -2208 0
-8270 3413 -2433 0
8270 -3413 0
8270 2433 0
-8271 -3413 2433 0
8271 3413 0
8271 -2433 0
-8272 890 -889 0
8272 -890 0
8272 889 0
-8273 -890 889 0
8273 890 0
8273 -889 0
-8274 892 -891 0
8274 -892 0
8274 891 0
-8275 -892 891 0
8275 892 0
8275 -891 0
-8276 3414 -2603 0
8276 -3414 0
8276 2603 0
-8277 -3414 2603 0
8277 3414 0
8277 -2603 0
-8278 894 -893 0
8278 -894 0
8278 893 0
-8279 -894 893 0
8279 894 0
8279 -893 0
-8280 3415 -2772 0
8280 -3415 0
8280 2772 0
-8281 -3415 2772 0
8281 3415 0
8281 -2772 0
-8282 3416 -2171 0
8282 -3416 0
8282 2171 0
-8283 -3416 2171 0
8283 3416 0
8283 -2171 0
-8284 3417 -2459 0
8284 -3417 0
8284 2459 0
-8285 -3417 2459 0
8285 3417 0
8285 -2459 0
-8286 3418 -2539 0
8286 -3418 0
8286 2539 0
-8287 -3418 2539 0
8287 3418 0
8287 -2539 0
-8288 898 -897 0
8288 -898 0
8288 897 0
-8289 -898 897 0
8289 898 0
8289 -897 0
-8290 3419 -2645 0
8290 -3419 0
8290 2645 0
-8291 -3419 2645 0
8291 3419 0
8291 -2645 0
-8292 900 -899 0
8292 -900 0
8292 899 0
-8293 -900 899 0
8293 900 0
8293 -899 0
-8294 3420 -3421 0
8294 -3420 0
8294 3421 0
-8295 -3420 3421 0
8295 3420 0
8295 -3421 0
-8296 902 -901 0
8296 -902 0
8296 901 0
-8297 -902 901 0
8297 902 0
8297 -901 0
-8298 3422 -2232 0
8298 -3422 0
8298 2232 0
-8299 -3422 2232 0
8299 3422 0
8299 -2232 0
-8300 3423 -2455 0
8300 -3423 0
8300 2455 0
-8301 -3423 2455 0
8301 3423 0
8301 -2455 0
-8302 3424 -2521 0
8302 -3424 0
8302 2521 0
-8303 -3424 2521 0
8303 3424 0
8303 -2521 0
-8304 906 -905 0
8304 -906 0
8304 905 0
-8305 -906 905 0
8305 906 0
8305 -905 0
-8306 3425 -3426 0
8306 -3425 0
8306 3426 0
-8307 -3425 3426 0
8307 3425 0
8307 -3426 0
-8308 908 -907 0
8308 -908 0
8308 907 0
-8309 -908 907 0
8309 908 0
8309 -907 0
-8310 3427 -2355 0
8310 -3427 0
8310 2355 0
-8311 -3427 2355 0
8311 3427 0
8311 -2355 0
-8312 3428 -2156 0
8312 -3428 0
8312 2156 0
-8313 -3428 2156 0
8313 3428 0
8313 -2156 0
-8314 912 -911 0
8314 -912 0
8314 911 0
-8315 -912 911 0
8315 912 0
8315 -911 0
-8316 3429 -2551 0
8316 -3429 0
8316 2551 0
-8317 -3429 2551 0
8317 3429 0
8317 -2551 0
-8318 914 -913 0
8318 -914 0
8318 913 0
-8319 -914 913 0
8319 914 0
8319 -913 0
-8320 3430 -2753 0
8320 -3430 0
8320 2753 0
-8321 -3430 2753 0
8321 3430 0
8321 -2753 0
-8322 916 -915 0
8322 -916 0
8322 915 0
-8323 -916 915 0
8323 916 0
8323 -915 0
-8324 3431 -2874 0
8324 -3431 0
8324 2874 0
-8325 -3431 2874 0
8325 3431 0
8325 -2874 0
-8326 3432 -3433 0
8326 -3432 0
8326 3433 0
-8327 -3432 3433 0
8327 3432 0
8327 -3433 0
-8328 918 -917 0
8328 -918 0
8328 917 0
-8329 -918 917 0
8329 918 0
8329 -917 0
-8330 3434 -2094 0
8330 -3434 0
8330 2094 0
-8331 -3434 2094 0
8331 3434 0
8331 -2094 0
-8332 3435 -2095 0
8332 -3435 0
8332 2095 0
-8333 -3435 2095 0
8333 3435 0
8333 -2095 0
-8334 922 -921 0
8334 -922 0
8334 921 0
-8335 -922 921 0
8335 922 0
8335 -921 0
-8336 3436 -2475 0
8336 -3436 0
8336 2475 0
-8337 -3436 2475 0
8337 3436 0
8337 -2475 0
-8338 3437 -2485 0
8338 -3437 0
8338 2485 0
-8339 -3437 2485 0
8339 3437 0
8339 -2485 0
-8340 924 -923 0
8340 -924 0
8340 923 0
-8341 -924 923 0
8341 924 0
8341 -923 0
-8342 926 -925 0
8342 -926 0
8342 925 0
-8343 -926 925 0
8343 926 0
8343 -925 0
-8344 3438 -2862 0
8344 -3438 0
8344 2862 0
-8345 -3438 2862 0
8345 3438 0
8345 -2862 0
-8346 3439 -2107 0
8346 -3439 0
8346 2107 0
-8347 -3439 2107 0
8347 3439 0
8347 -2107 0
-8348 3440 -2108 0
8348 -3440 0
8348 2108 0
-8349 -3440 2108 0
8349 3440 0
8349 -2108 0
-8350 3441 -2481 0
8350 -3441 0
8350 2481 0
-8351 -3441 2481 0
8351 3441 0
8351 -2481 0
-8352 930 -929 0
8352 -930 0
8352 929 0
-8353 -930 929 0
8353 930 0
8353 -929 0
-8354 932 -931 0
8354 -932 0
8354 931 0
-8355 -932 931 0
8355 932 0
8355 -931 0
-8356 3442 -2515 0
8356 -3442 0
8356 2515 0
-8357 -3442 2515 0
8357 3442 0
8357 -2515 0
-8358 3443 -2815 0
8358 -3443 0
8358 2815 0
-8359 -3443 2815 0
8359 3443 0
8359 -2815 0
-8360 934 -933 0
8360 -934 0
8360 933 0
-8361 -934 933 0
8361 934 0
8361 -933 0
-8362 3444 -2126 0
8362 -3444 0
8362 2126 0
-8363 -3444 2126 0
8363 3444 0
8363 -2126 0
-8364 3445 -2349 0
8364 -3445 0
8364 2349 0
-8365 -3445 2349 0
8365 3445 0
8365 -2349 0
-8366 938 -937 0
8366 -938 0
8366 937 0
-8367 -938 937 0
8367 938 0
8367 -937 0
-8368 3446 -2507 0
8368 -3446 0
8368 2507 0
-8369 -3446 2507 0
8369 3446 0
8369 -2507 0
-8370 940 -939 0
8370 -940 0
8370 939 0
-8371 -940 939 0
8371 940 0
8371 -939 0
-8372 3447 -2679 0
8372 -3447 0
8372 2679 0
-8373 -3447 2679 0
8373 3447 0
8373 -2679 0
-8374 942 -941 0
8374 -942 0
8374 941 0
-8375 -942 941 0
8375 942 0
8375 -941 0
-8376 3448 -3449 0
8376 -3448 0
8376 3449 0
-8377 -3448 3449 0
8377 3448 0
8377 -3449 0
-8378 3450 -2363 0
8378 -3450 0
8378 2363 0
-8379 -3450 2363 0
8379 3450 0
8379 -2363 0
-8380 3451 -2178 0
8380 -3451 0
8380 2178 0
-8381 -3451 2178 0
8381 3451 0
8381 -2178 0
-8382 3452 -2523 0
8382 -3452 0
8382 2523 0
-8383 -3452 2523 0
8383 3452 0
8383 -2523 0
-8384 946 -945 0
8384 -946 0
8384 945 0
-8385 -946 945 0
8385 946 0
8385 -945 0
-8386 3453 -2630 0
8386 -3453 0
8386 2630 0
-8387 -3453 2630 0
8387 3453 0
8387 -2630 0
-8388 948 -947 0
8388 -948 0
8388 947 0
-8389 -948 947 0
8389 948 0
8389 -947 0
-8390 950 -949 0
8390 -950 0
8390 949 0
-8391 -950 949 0
8391 950 0
8391 -949 0
-8392 3454 -2839 0
8392 -3454 0
8392 2839 0
-8393 -3454 2839 0
8393 3454 0
8393 -2839 0
-8394 3455 -3456 0
8394 -3455 0
8394 3456 0
-8395 -3455 3456 0
8395 3455 0
8395 -3456 0
-8396 952 -951 0
8396 -952 0
8396 951 0
-8397 -952 951 0
8397 952 0
8397 -951 0
-8398 3457 -2119 0
8398 -3457 0
8398 2119 0
-8399 -3457 2119 0
8399 3457 0
8399 -2119 0
-8400 3458 -2118 0
8400 -3458 0
8400 2118 0
-8401 -3458 2118 0
8401 3458 0
8401 -2118 0
-8402 956 -955 0
8402 -956 0
8402 955 0
-8403 -956 955 0
8403 956 0
8403 -955 0
-8404 3459 -2431 0
8404 -3459 0
8404 2431 0
-8405 -3459 2431 0
8405 3459 0
8405 -2431 0
-8406 3460 -2557 0
8406 -3460 0
8406 2557 0
-8407 -3460 2557 0
8407 3460 0
8407 -2557 0
-8408 958 -957 0
8408 -958 0
8408 957 0
-8409 -958 957 0
8409 958 0
8409 -957 0
-8410 960 -959 0
8410 -960 0
8410 959 0
-8411 -960 959 0
8411 960 0
8411 -959 0
-8412 3461 -2764 0
8412 -3461 0
8412 2764 0
-8413 -3461 2764 0
8413 3461 0
8413 -2764 0
-8414 3462 -2261 0
8414 -3462 0
8414 2261 0
-8415 -3462 2261 0
8415 3462 0
8415 -2261 0
-8416 3463 -2262 0
8416 -3463 0
8416 2262 0
-8417 -3463 2262 0
8417 3463 0
8417 -2262 0
-8418 964 -963 0
8418 -964 0
8418 963 0
-8419 -964 963 0
8419 964 0
8419 -963 0
-8420 3464 -2437 0
8420 -3464 0
8420 2437 0
-8421 -3464 2437 0
8421 3464 0
8421 -2437 0
-8422 3465 -2617 0
8422 -3465 0
8422 2617 0
-8423 -3465 2617 0
8423 3465 0
8423 -2617 0
-8424 966 -965 0
8424 -966 0
8424 965 0
-8425 -966 965 0
8425 966 0
8425 -965 0
-8426 3466 -2244 0
8426 -3466 0
8426 2244 0
-8427 -3466 2244 0
8427 3466 0
8427 -2244 0
-8428 3467 -2405 0
8428 -3467 0
8428 2405 0
-8429 -3467 2405 0
8429 3467 0
8429 -2405 0
-8430 3468 -2599 0
8430 -3468 0
8430 2599 0
-8431 -3468 2599 0
8431 3468 0
8431 -2599 0
-8432 970 -969 0
8432 -970 0
8432 969 0
-8433 -970 969 0
8433 970 0
8433 -969 0
-8434 3469 -3470 0
8434 -3469 0
8434 3470 0
-8435 -3469 3470 0
8435 3469 0
8435 -3470 0
-8436 972 -971 0
8436 -972 0
8436 971 0
-8437 -972 971 0
8437 972 0
8437 -971 0
-8438 3471 -2322 0
8438 -3471 0
8438 2322 0
-8439 -3471 2322 0
8439 3471 0
8439 -2322 0
-8440 3472 -2321 0
8440 -3472 0
8440 2321 0
-8441 -3472 2321 0
8441 3472 0
8441 -2321 0
-8442 3473 -2345 0
8442 -3473 0
8442 2345 0
-8443 -3473 2345 0
8443 3473 0
8443 -2345 0
-8444 976 -975 0
8444 -976 0
8444 975 0
-8445 -976 975 0
8445 976 0
8445 -975 0
-8446 3474 -2519 0
8446 -3474 0
8446 2519 0
-8447 -3474 2519 0
8447 3474 0
8447 -2519 0
-8448 978 -977 0
8448 -978 0
8448 977 0
-8449 -978 977 0
8449 978 0
8449 -977 0
-8450 3475 -2214 0
8450 -3475 0
8450 2214 0
-8451 -3475 2214 0
8451 3475 0
8451 -2214 0
-8452 3476 -2215 0
8452 -3476 0
8452 2215 0
-8453 -3476 2215 0
8453 3476 0
8453 -2215 0
-8454 3477 -2421 0
8454 -3477 0
8454 2421 0
-8455 -3477 2421 0
8455 3477 0
8455 -2421 0
-8456 982 -981 0
8456 -982 0
8456 981 0
-8457 -982 981 0
8457 982 0
8457 -981 0
-8458 984 -983 0
8458 -984 0
8458 983 0
-8459 -984 983 0
8459 984 0
8459 -983 0
-8460 3478 -2621 0
8460 -3478 0
8460 2621 0
-8461 -3478 2621 0
8461 3478 0
8461 -2621 0
-8462 3479 -2181 0
8462 -3479 0
8462 2181 0
-8463 -3479 2181 0
8463 3479 0
8463 -2181 0
-8464 3480 -2182 0
8464 -3480 0
8464 2182 0
-8465 -3480 2182 0
8465 3480 0
8465 -2182 0
-8466 988 -987 0
8466 -988 0
8466 987 0
-8467 -988 987 0
8467 988 0
8467 -987 0
-8468 3481 -2477 0
8468 -3481 0
8468 2477 0
-8469 -3481 2477 0
8469 3481 0
8469 -2477 0
-8470 3482 -2615 0
8470 -3482 0
8470 2615 0
-8471 -3482 2615 0
8471 3482 0
8471 -2615 0
-8472 990 -989 0
8472 -990 0
8472 989 0
-8473 -990 989 0
8473 990 0
8473 -989 0
-8474 992 -991 0
8474 -992 0
8474 991 0
-8475 -992 991 0
8475 992 0
8475 -991 0
-8476 3483 -2691 0
8476 -3483 0
8476 2691 0
-8477 -3483 2691 0
8477 3483 0
8477 -2691 0
-8478 3484 -2898 0
8478 -3484 0
8478 2898 0
-8479 -3484 2898 0
8479 3484 0
8479 -2898 0
-8480 994 -993 0
8480 -994 0
8480 993 0
-8481 -994 993 0
8481 994 0
8481 -993 0
-8482 3485 -2307 0
8482 -3485 0
8482 2307 0
-8483 -3485 2307 0
8483 3485 0
8483 -2307 0
-8484 3486 -2306 0
8484 -3486 0
8484 2306 0
-8485 -3486 2306 0
8485 3486 0
8485 -2306 0
-8486 3487 -2415 0
8486 -3487 0
8486 2415 0
-8487 -3487 2415 0
8487 3487 0
8487 -2415 0
-8488 998 -997 0
8488 -998 0
8488 997 0
-8489 -998 997 0
8489 998 0
8489 -997 0
-8490 3488 -2525 0
8490 -3488 0
8490 2525 0
-8491 -3488 2525 0
8491 3488 0
8491 -2525 0
-8492 1000 -999 0
8492 -1000 0
8492 999 0
-8493 -1000 999 0
8493 1000 0
8493 -999 0
-8494 1002 -1001 0
8494 -1002 0
8494 1001 0
-8495 -1002 1001 0
8495 1002 0
8495 -1001 0
-8496 3489 -2780 0
8496 -3489 0
8496 2780 0
-8497 -3489 2780 0
8497 3489 0
8497 -2780 0
-8498 1004 -1003 0
8498 -1004 0
8498 1003 0
-8499 -1004 1003 0
8499 1004 0
8499 -1003 0
-8500 3490 -3491 0
8500 -3490 0
8500 3491 0
-8501 -3490 3491 0
8501 3490 0
8501 -3491 0
-8502 3492 -2129 0
8502 -3492 0
8502 2129 0
-8503 -3492 2129 0
8503 3492 0
8503 -2129 0
-8504 3493 -2453 0
8504 -3493 0
8504 2453 0
-8505 -3493 2453 0
8505 3493 0
8505 -2453 0
-8506 3494 -2533 0
8506 -3494 0
8506 2533 0
-8507 -3494 2533 0
8507 3494 0
8507 -2533 0
-8508 1008 -1007 0
8508 -1008 0
8508 1007 0
-8509 -1008 1007 0
8509 1008 0
8509 -1007 0
-8510 3495 -2776 0
8510 -3495 0
8510 2776 0
-8511 -3495 2776 0
8511 3495 0
8511 -2776 0
-8512 1010 -1009 0
8512 -1010 0
8512 1009 0
-8513 -1010 1009 0
8513 1010 0
8513 -1009 0
-8514 3496 -3497 0
8514 -3496 0
8514 3497 0
-8515 -3496 3497 0
8515 3496 0
8515 -3497 0
-8516 1012 -1011 0
8516 -1012 0
8516 1011 0
-8517 -1012 1011 0
8517 1012 0
8517 -1011 0
-8518 3498 -2269 0
8518 -3498 0
8518 2269 0
-8519 -3498 2269 0
8519 3498 0
8519 -2269 0
-8520 3499 -2270 0
8520 -3499 0
8520 2270 0
-8521 -3499 2270 0
8521 3499 0
8521 -2270 0
-8522 3500 -2451 0
8522 -3500 0
8522 2451 0
-8523 -3500 2451 0
8523 3500 0
8523 -2451 0
-8524 1016 -1015 0
8524 -1016 0
8524 1015 0
-8525 -1016 1015 0
8525 1016 0
8525 -1015 0
-8526 3501 -2619 0
8526 -3501 0
8526 2619 0
-8527 -3501 2619 0
8527 3501 0
8527 -2619 0
-8528 1018 -1017 0
8528 -1018 0
8528 1017 0
-8529 -1018 1017 0
8529 1018 0
8529 -1017 0
-8530 1020 -1019 0
8530 -1020 0
8530 1019 0
-8531 -1020 1019 0
8531 1020 0
8531 -1019 0
-8532 3502 -2713 0
8532 -3502 0
8532 2713 0
-8533 -3502 2713 0
8533 3502 0
8533 -2713 0
-8534 3503 -2473 0
8534 -3503 0
8534 2473 0
-8535 -3503 2473 0
8535 3503 0
8535 -2473 0
-8536 3504 -2273 0
8536 -3504 0
8536 2273 0
-8537 -3504 2273 0
8537 3504 0
8537 -2273 0
-8538 3505 -2563 0
8538 -3505 0
8538 2563 0
-8539 -3505 2563 0
8539 3505 0
8539 -2563 0
-8540 1024 -1023 0
8540 -1024 0
8540 1023 0
-8541 -1024 1023 0
8541 1024 0
8541 -1023 0
-8542 1026 -1025 0
8542 -1026 0
8542 1025 0
-8543 -1026 1025 0
8543 1026 0
8543 -1025 0
-8544 3506 -2811 0
8544 -3506 0
8544 2811 0
-8545 -3506 2811 0
8545 3506 0
8545 -2811 0
-8546 3507 -2843 0
8546 -3507 0
8546 2843 0
-8547 -3507 2843 0
8547 3507 0
8547 -2843 0
-8548 1028 -1027 0
8548 -1028 0
8548 1027 0
-8549 -1028 1027 0
8549 1028 0
8549 -1027 0
-8550 1030 -1029 0
8550 -1030 0
8550 1029 0
-8551 -1030 1029 0
8551 1030 0
8551 -1029 0
-8552 3508 -3509 0
8552 -3508 0
8552 3509 0
-8553 -3508 3509 0
8553 3508 0
8553 -3509 0
-8554 3510 -2317 0
8554 -3510 0
8554 2317 0
-8555 -3510 2317 0
8555 3510 0
8555 -2317 0
-8556 3511 -2318 0
8556 -3511 0
8556 2318 0
-8557 -3511 2318 0
8557 3511 0
8557 -2318 0
-8558 1034 -1033 0
8558 -1034 0
8558 1033 0
-8559 -1034 1033 0
8559 1034 0
8559 -1033 0
-8560 3512 -2375 0
8560 -3512 0
8560 2375 0
-8561 -3512 2375 0
8561 3512 0
8561 -2375 0
-8562 1036 -1035 0
8562 -1036 0
8562 1035 0
-8563 -1036 1035 0
8563 1036 0
8563 -1035 0
-8564 3513 -2609 0
8564 -3513 0
8564 2609 0
-8565 -3513 2609 0
8565 3513 0
8565 -2609 0
-8566 3514 -2653 0
8566 -3514 0
8566 2653 0
-8567 -3514 2653 0
8567 3514 0
8567 -2653 0
-8568 1038 -1037 0
8568 -1038 0
8568 1037 0
-8569 -1038 1037 0
8569 1038 0
8569 -1037 0
-8570 3515 -2189 0
8570 -3515 0
8570 2189 0
-8571 -3515 2189 0
8571 3515 0
8571 -2189 0
-8572 3516 -2190 0
8572 -3516 0
8572 2190 0
-8573 -3516 2190 0
8573 3516 0
8573 -2190 0
-8574 3517 -2465 0
8574 -3517 0
8574 2465 0
-8575 -3517 2465 0
8575 3517 0
8575 -2465 0
-8576 1042 -1041 0
8576 -1042 0
8576 1041 0
-8577 -1042 1041 0
8577 1042 0
8577 -1041 0
-8578 3518 -2503 0
8578 -3518 0
8578 2503 0
-8579 -3518 2503 0
8579 3518 0
8579 -2503 0
-8580 1044 -1043 0
8580 -1044 0
8580 1043 0
-8581 -1044 1043 0
8581 1044 0
8581 -1043 0
-8582 3519 -2295 0
8582 -3519 0
8582 2295 0
-8583 -3519 2295 0
8583 3519 0
8583 -2295 0
-8584 3520 -2367 0
8584 -3520 0
8584 2367 0
-8585 -3520 2367 0
8585 3520 0
8585 -2367 0
-8586 3521 -2571 0
8586 -3521 0
8586 2571 0
-8587 -3521 2571 0
8587 3521 0
8587 -2571 0
-8588 1048 -1047 0
8588 -1048 0
8588 1047 0
-8589 -1048 1047 0
8589 1048 0
8589 -1047 0
-8590 3522 -2683 0
8590 -3522 0
8590 2683 0
-8591 -3522 2683 0
8591 3522 0
8591 -2683 0
-8592 1050 -1049 0
8592 -1050 0
8592 1049 0
-8593 -1050 1049 0
8593 1050 0
8593 -1049 0
-8594 1052 -1051 0
8594 -1052 0
8594 1051 0
-8595 -1052 1051 0
8595 1052 0
8595 -1051 0
-8596 3523 -3524 0
8596 -3523 0
8596 3524 0
-8597 -3523 3524 0
8597 3523 0
8597 -3524 0
-8598 3525 -2200 0
8598 -3525 0
8598 2200 0
-8599 -3525 2200 0
8599 3525 0
8599 -2200 0
-8600 3526 -2395 0
8600 -3526 0
8600 2395 0
-8601 -3526 2395 0
8601 3526 0
8601 -2395 0
-8602 3527 -2527 0
8602 -3527 0
8602 2527 0
-8603 -3527 2527 0
8603 3527 0
8603 -2527 0
-8604 1056 -1055 0
8604 -1056 0
8604 1055 0
-8605 -1056 1055 0
8605 1056 0
8605 -1055 0
-8606 3528 -2827 0
8606 -3528 0
8606 2827 0
-8607 -3528 2827 0
8607 3528 0
8607 -2827 0
-8608 1058 -1057 0
8608 -1058 0
8608 1057 0
-8609 -1058 1057 0
8609 1058 0
8609 -1057 0
-8610 3529 -3530 0
8610 -3529 0
8610 3530 0
-8611 -3529 3530 0
8611 3529 0
8611 -3530 0
-8612 1060 -1059 0
8612 -1060 0
8612 1059 0
-8613 -1060 1059 0
8613 1060 0
8613 -1059 0
-8614 3531 -2303 0
8614 -3531 0
8614 2303 0
-8615 -3531 2303 0
8615 3531 0
8615 -2303 0
-8616 3532 -2302 0
8616 -3532 0
8616 2302 0
-8617 -3532 2302 0
8617 3532 0
8617 -2302 0
-8618 3533 -2467 0
8618 -3533 0
8618 2467 0
-8619 -3533 2467 0
8619 3533 0
8619 -2467 0
-8620 1064 -1063 0
8620 -1064 0
8620 1063 0
-8621 -1064 1063 0
8621 1064 0
8621 -1063 0
-8622 1066 -1065 0
8622 -1066 0
8622 1065 0
-8623 -1066 1065 0
8623 1066 0
8623 -1065 0
-8624 3534 -2531 0
8624 -3534 0
8624 2531 0
-8625 -3534 2531 0
8625 3534 0
8625 -2531 0
-8626 1068 -1067 0
8626 -1068 0
8626 1067 0
-8627 -1068 1067 0
8627 1068 0
8627 -1067 0
-8628 3535 -2902 0
8628 -3535 0
8628 2902 0
-8629 -3535 2902 0
8629 3535 0
8629 -2902 0
-8630 3536 -2139 0
8630 -3536 0
8630 2139 0
-8631 -3536 2139 0
8631 3536 0
8631 -2139 0
-8632 3537 -2138 0
8632 -3537 0
8632 2138 0
-8633 -3537 2138 0
8633 3537 0
8633 -2138 0
-8634 1072 -1071 0
8634 -1072 0
8634 1071 0
-8635 -1072 1071 0
8635 1072 0
8635 -1071 0
-8636 3538 -2407 0
8636 -3538 0
8636 2407 0
-8637 -3538 2407 0
8637 3538 0
8637 -2407 0
-8638 1074 -1073 0
8638 -1074 0
8638 1073 0
-8639 -1074 1073 0
8639 1074 0
8639 -1073 0
-8640 3539 -2575 0
8640 -3539 0
8640 2575 0
-8641 -3539 2575 0
8641 3539 0
8641 -2575 0
-8642 1076 -1075 0
8642 -1076 0
8642 1075 0
-8643 -1076 1075 0
8643 1076 0
8643 -1075 0
-8644 3540 -2749 0
8644 -3540 0
8644 2749 0
-8645 -3540 2749 0
8645 3540 0
8645 -2749 0
-8646 3541 -2330 0
8646 -3541 0
8646 2330 0
-8647 -3541 2330 0
8647 3541 0
8647 -2330 0
-8648 3542 -2329 0
8648 -3542 0
8648 2329 0
-8649 -3542 2329 0
8649 3542 0
8649 -2329 0
-8650 3543 -2427 0
8650 -3543 0
8650 2427 0
-8651 -3543 2427 0
8651 3543 0
8651 -2427 0
-8652 1080 -1079 0
8652 -1080 0
8652 1079 0
-8653 -1080 1079 0
8653 1080 0
8653 -1079 0
-8654 1082 -1081 0
8654 -1082 0
8654 1081 0
-8655 -1082 1081 0
8655 1082 0
8655 -1081 0
-8656 3544 -2593 0
8656 -3544 0
8656 2593 0
-8657 -3544 2593 0
8657 3544 0
8657 -2593 0
-8658 3545 -2890 0
8658 -3545 0
8658 2890 0
-8659 -3545 2890 0
8659 3545 0
8659 -2890 0
-8660 1084 -1083 0
8660 -1084 0
8660 1083 0
-8661 -1084 1083 0
8661 1084 0
8661 -1083 0
-8662 3546 -2705 0
8662 -3546 0
8662 2705 0
-8663 -3546 2705 0
8663 3546 0
8663 -2705 0
-8664 1086 -1085 0
8664 -1086 0
8664 1085 0
-8665 -1086 1085 0
8665 1086 0
8665 -1085 0
-8666 3547 -2098 0
8666 -3547 0
8666 2098 0
-8667 -3547 2098 0
8667 3547 0
8667 -2098 0
-8668 3548 -2445 0
8668 -3548 0
8668 2445 0
-8669 -3548 2445 0
8669 3548 0
8669 -2445 0
-8670 3549 -2579 0
8670 -3549 0
8670 2579 0
-8671 -3549 2579 0
8671 3549 0
8671 -2579 0
-8672 1090 -1089 0
8672 -1090 0
8672 1089 0
-8673 -1090 1089 0
8673 1090 0
8673 -1089 0
-8674 3550 -3551 0
8674 -3550 0
8674 3551 0
-8675 -3550 3551 0
8675 3550 0
8675 -3551 0
-8676 1092 -1091 0
8676 -1092 0
8676 1091 0
-8677 -1092 1091 0
8677 1092 0
8677 -1091 0
-8678 3552 -2795 0
8678 -3552 0
8678 2795 0
-8679 -3552 2795 0
8679 3552 0
8679 -2795 0
-8680 1094 -1093 0
8680 -1094 0
8680 1093 0
-8681 -1094 1093 0
8681 1094 0
8681 -1093 0
-8682 3553 -2104 0
8682 -3553 0
8682 2104 0
-8683 -3553 2104 0
8683 3553 0
8683 -2104 0
-8684 3554 -2393 0
8684 -3554 0
8684 2393 0
-8685 -3554 2393 0
8685 3554 0
8685 -2393 0
-8686 3555 -2595 0
8686 -3555 0
8686 2595 0
-8687 -3555 2595 0
8687 3555 0
8687 -2595 0
-8688 1098 -1097 0
8688 -1098 0
8688 1097 0
-8689 -1098 1097 0
8689 1098 0
8689 -1097 0
-8690 3556 -2661 0
8690 -3556 0
8690 2661 0
-8691 -3556 2661 0
8691 3556 0
8691 -2661 0
-8692 1100 -1099 0
8692 -1100 0
8692 1099 0
-8693 -1100 1099 0
8693 1100 0
8693 -1099 0
-8694 1102 -1101 0
8694 -1102 0
8694 1101 0
-8695 -1102 1101 0
8695 1102 0
8695 -1101 0
-8696 3557 -3558 0
8696 -3557 0
8696 3558 0
-8697 -3557 3558 0
8697 3557 0
8697 -3558 0
-8698 3559 -2204 0
8698 -3559 0
8698 2204 0
-8699 -3559 2204 0
8699 3559 0
8699 -2204 0
-8700 3560 -2203 0
8700 -3560 0
8700 2203 0
-8701 -3560 2203 0
8701 3560 0
8701 -2203 0
-8702 1106 -1105 0
8702 -1106 0
8702 1105 0
-8703 -1106 1105 0
8703 1106 0
8703 -1105 0
-8704 3561 -2347 0
8704 -3561 0
8704 2347 0
-8705 -3561 2347 0
8705 3561 0
8705 -2347 0
-8706 3562 -2585 0
8706 -3562 0
8706 2585 0
-8707 -3562 2585 0
8707 3562 0
8707 -2585 0
-8708 1108 -1107 0
8708 -1108 0
8708 1107 0
-8709 -1108 1107 0
8709 1108 0
8709 -1107 0
-8710 3563 -2288 0
8710 -3563 0
8710 2288 0
-8711 -3563 2288 0
8711 3563 0
8711 -2288 0
-8712 3564 -2287 0
8712 -3564 0
8712 2287 0
-8713 -3564 2287 0
8713 3564 0
8713 -2287 0
-8714 1112 -1111 0
8714 -1112 0
8714 1111 0
-8715 -1112 1111 0
8715 1112 0
8715 -1111 0
-8716 3565 -2351 0
8716 -3565 0
8716 2351 0
-8717 -3565 2351 0
8717 3565 0
8717 -2351 0
-8718 3566 -2489 0
8718 -3566 0
8718 2489 0
-8719 -3566 2489 0
8719 3566 0
8719 -2489 0
-8720 1114 -1113 0
8720 -1114 0
8720 1113 0
-8721 -1114 1113 0
8721 1114 0
8721 -1113 0
-8722 3567 -2276 0
8722 -3567 0
8722 2276 0
-8723 -3567 2276 0
8723 3567 0
8723 -2276 0
-8724 3568 -2277 0
8724 -3568 0
8724 2277 0
-8725 -3568 2277 0
8725 3568 0
8725 -2277 0
-8726 3569 -2457 0
8726 -3569 0
8726 2457 0
-8727 -3569 2457 0
8727 3569 0
8727 -2457 0
-8728 1118 -1117 0
8728 -1118 0
8728 1117 0
-8729 -1118 1117 0
8729 1118 0
8729 -1117 0
-8730 3570 -2607 0
8730 -3570 0
8730 2607 0
-8731 -3570 2607 0
8731 3570 0
8731 -2607 0
-8732 1120 -1119 0
8732 -1120 0
8732 1119 0
-8733 -1120 1119 0
8733 1120 0
8733 -1119 0
-8734 2066 -2065 0
8734 -2066 0
8734 2065 0
-8735 -2066 2065 0
8735 2066 0
8735 -2065 0
-8736 2092 -2091 0
8736 -2092 0
8736 2091 0
-8737 -2092 2091 0
8737 2092 0
8737 -2091 0
-8738 1942 -1941 0
8738 -1942 0
8738 1941 0
-8739 -1942 1941 0
8739 1942 0
8739 -1941 0
-8740 1856 -1855 0
8740 -1856 0
8740 1855 0
-8741 -1856 1855 0
8741 1856 0
8741 -1855 0
-8742 1598 -1597 0
8742 -1598 0
8742 1597 0
-8743 -1598 1597 0
8743 1598 0
8743 -1597 0
-8744 1944 -1943 0
8744 -1944 0
8744 1943 0
-8745 -1944 1943 0
8745 1944 0
8745 -1943 0
-8746 2080 -2079 0
8746 -2080 0
8746 2079 0
-8747 -2080 2079 0
8747 2080 0
8747 -2079 0
-8748 1860 -1859 0
8748 -1860 0
8748 1859 0
-8749 -1860 1859 0
8749 1860 0
8749 -1859 0
-8750 1862 -1861 0
8750 -1862 0
8750 1861 0
-8751 -1862 1861 0
8751 1862 0
8751 -1861 0
-8752 1864 -1863 0
8752 -1864 0
8752 1863 0
-8753 -1864 1863 0
8753 1864 0
8753 -1863 0
-8754 1602 -1601 0
8754 -1602 0
8754 1601 0
-8755 -1602 1601 0
8755 1602 0
8755 -1601 0
-8756 1988 -1987 0
8756 -1988 0
8756 1987 0
-8757 -1988 1987 0
8757 1988 0
8757 -1987 0
-8758 1946 -1945 0
8758 -1946 0
8758 1945 0
-8759 -1946 1945 0
8759 1946 0
8759 -1945 0
-8760 1604 -1603 0
8760 -1604 0
8760 1603 0
-8761 -1604 1603 0
8761 1604 0
8761 -1603 0
-8762 1990 -1989 0
8762 -1990 0
8762 1989 0
-8763 -1990 1989 0
8763 1990 0
8763 -1989 0
-8764 1608 -1607 0
8764 -1608 0
8764 1607 0
-8765 -1608 1607 0
8765 1608 0
8765 -1607 0
-8766 1610 -1609 0
8766 -1610 0
8766 1609 0
-8767 -1610 1609 0
8767 1610 0
8767 -1609 0
-8768 1612 -1611 0
8768 -1612 0
8768 1611 0
-8769 -1612 1611 0
8769 1612 0
8769 -1611 0
-8770 2006 -2005 0
8770 -2006 0
8770 2005 0
-8771 -2006 2005 0
8771 2006 0
8771 -2005 0
-8772 1614 -1613 0
8772 -1614 0
8772 1613 0
-8773 -1614 1613 0
8773 1614 0
8773 -1613 0
-8774 1616 -1615 0
8774 -1616 0
8774 1615 0
-8775 -1616 1615 0
8775 1616 0
8775 -1615 0
-8776 1618 -1617 0
8776 -1618 0
8776 1617 0
-8777 -1618 1617 0
8777 1618 0
8777 -1617 0
-8778 1620 -1619 0
8778 -1620 0
8778 1619 0
-8779 -1620 1619 0
8779 1620 0
8779 -1619 0
-8780 1948 -1947 0
8780 -1948 0
8780 1947 0
-8781 -1948 1947 0
8781 1948 0
8781 -1947 0
-8782 2058 -2057 0
8782 -2058 0
8782 2057 0
-8783 -2058 2057 0
8783 2058 0
8783 -2057 0
-8784 1624 -1623 0
8784 -1624 0
8784 1623 0
-8785 -1624 1623 0
8785 1624 0
8785 -1623 0
-8786 1626 -1625 0
8786 -1626 0
8786 1625 0
-8787 -1626 1625 0
8787 1626 0
8787 -1625 0
-8788 2032 -2031 0
8788 -2032 0
8788 2031 0
-8789 -2032 2031 0
8789 2032 0
8789 -2031 0
-8790 1868 -1867 0
8790 -1868 0
8790 1867 0
-8791 -1868 1867 0
8791 1868 0
8791 -1867 0
-8792 1994 -1993 0
8792 -1994 0
8792 1993 0
-8793 -1994 1993 0
8793 1994 0
8793 -1993 0
-8794 1870 -1869 0
8794 -1870 0
8794 1869 0
-8795 -1870 1869 0
8795 1870 0
8795 -1869 0
-8796 1632 -1631 0
8796 -1632 0
8796 1631 0
-8797 -1632 1631 0
8797 1632 0
8797 -1631 0
-8798 1926 -1925 0
8798 -1926 0
8798 1925 0
-8799 -1926 1925 0
8799 1926 0
8799 -1925 0
-8800 1634 -1633 0
8800 -1634 0
8800 1633 0
-8801 -1634 1633 0
8801 1634 0
8801 -1633 0
-8802 1636 -1635 0
8802 -1636 0
8802 1635 0
-8803 -1636 1635 0
8803 1636 0
8803 -1635 0
-8804 1840 -1839 0
8804 -1840 0
8804 1839 0
-8805 -1840 1839 0
8805 1840 0
8805 -1839 0
-8806 1640 -1639 0
8806 -1640 0
8806 1639 0
-8807 -1640 1639 0
8807 1640 0
8807 -1639 0
-8808 1642 -1641 0
8808 -1642 0
8808 1641 0
-8809 -1642 1641 0
8809 1642 0
8809 -1641 0
-8810 1650 -1649 0
8810 -1650 0
8810 1649 0
-8811 -1650 1649 0
8811 1650 0
8811 -1649 0
-8812 1646 -1645 0
8812 -1646 0
8812 1645 0
-8813 -1646 1645 0
8813 1646 0
8813 -1645 0
-8814 1932 -1931 0
8814 -1932 0
8814 1931 0
-8815 -1932 1931 0
8815 1932 0
8815 -1931 0
-8816 1872 -1871 0
8816 -1872 0
8816 1871 0
-8817 -1872 1871 0
8817 1872 0
8817 -1871 0
-8818 1652 -1651 0
8818 -1652 0
8818 1651 0
-8819 -1652 1651 0
8819 1652 0
8819 -1651 0
-8820 1654 -1653 0
8820 -1654 0
8820 1653 0
-8821 -1654 1653 0
8821 1654 0
8821 -1653 0
-8822 2036 -2035 0
8822 -2036 0
8822 2035 0
-8823 -2036 2035 0
8823 2036 0
8823 -2035 0
-8824 1874 -1873 0
8824 -1874 0
8824 1873 0
-8825 -1874 1873 0
8825 1874 0
8825 -1873 0
-8826 1660 -1659 0
8826 -1660 0
8826 1659 0
-8827 -1660 1659 0
8827 1660 0
8827 -1659 0
-8828 1662 -1661 0
8828 -1662 0
8828 1661 0
-8829 -1662 1661 0
8829 1662 0
8829 -1661 0
-8830 1664 -1663 0
8830 -1664 0
8830 1663 0
-8831 -1664 1663 0
8831 1664 0
8831 -1663 0
-8832 2082 -2081 0
8832 -2082 0
8832 2081 0
-8833 -2082 2081 0
8833 2082 0
8833 -2081 0
-8834 1876 -1875 0
8834 -1876 0
8834 1875 0
-8835 -1876 1875 0
8835 1876 0
8835 -1875 0
-8836 1666 -1665 0
8836 -1666 0
8836 1665 0
-8837 -1666 1665 0
8837 1666 0
8837 -1665 0
-8838 2008 -2007 0
8838 -2008 0
8838 2007 0
-8839 -2008 2007 0
8839 2008 0
8839 -2007 0
-8840 1950 -1949 0
8840 -1950 0
8840 1949 0
-8841 -1950 1949 0
8841 1950 0
8841 -1949 0
-8842 1668 -1667 0
8842 -1668 0
8842 1667 0
-8843 -1668 1667 0
8843 1668 0
8843 -1667 0
-8844 1670 -1669 0
8844 -1670 0
8844 1669 0
-8845 -1670 1669 0
8845 1670 0
8845 -1669 0
-8846 1952 -1951 0
8846 -1952 0
8846 1951 0
-8847 -1952 1951 0
8847 1952 0
8847 -1951 0
-8848 2042 -2041 0
8848 -2042 0
8848 2041 0
-8849 -2042 2041 0
8849 2042 0
8849 -2041 0
-8850 1672 -1671 0
8850 -1672 0
8850 1671 0
-8851 -1672 1671 0
8851 1672 0
8851 -1671 0
-8852 1674 -1673 0
8852 -1674 0
8852 1673 0
-8853 -1674 1673 0
8853 1674 0
8853 -1673 0
-8854 1954 -1953 0
8854 -1954 0
8854 1953 0
-8855 -1954 1953 0
8855 1954 0
8855 -1953 0
-8856 1676 -1675 0
8856 -1676 0
8856 1675 0
-8857 -1676 1675 0
8857 1676 0
8857 -1675 0
-8858 1678 -1677 0
8858 -1678 0
8858 1677 0
-8859 -1678 1677 0
8859 1678 0
8859 -1677 0
-8860 1680 -1679 0
8860 -1680 0
8860 1679 0
-8861 -1680 1679 0
8861 1680 0
8861 -1679 0
-8862 1682 -1681 0
8862 -1682 0
8862 1681 0
-8863 -1682 1681 0
8863 1682 0
8863 -1681 0
-8864 1684 -1683 0
8864 -1684 0
8864 1683 0
-8865 -1684 1683 0
8865 1684 0
8865 -1683 0
-8866 1686 -1685 0
8866 -1686 0
8866 1685 0
-8867 -1686 1685 0
8867 1686 0
8867 -1685 0
-8868 1688 -1687 0
8868 -1688 0
8868 1687 0
-8869 -1688 1687 0
8869 1688 0
8869 -1687 0
-8870 1124 -1123 0
8870 -1124 0
8870 1123 0
-8871 -1124 1123 0
8871 1124 0
8871 -1123 0
-8872 2068 -2067 0
8872 -2068 0
8872 2067 0
-8873 -2068 2067 0
8873 2068 0
8873 -2067 0
-8874 1128 -1127 0
8874 -1128 0
8874 1127 0
-8875 -1128 1127 0
8875 1128 0
8875 -1127 0
-8876 1956 -1955 0
8876 -1956 0
8876 1955 0
-8877 -1956 1955 0
8877 1956 0
8877 -1955 0
-8878 1878 -1877 0
8878 -1878 0
8878 1877 0
-8879 -1878 1877 0
8879 1878 0
8879 -1877 0
-8880 1690 -1689 0
8880 -1690 0
8880 1689 0
-8881 -1690 1689 0
8881 1690 0
8881 -1689 0
-8882 1958 -1957 0
8882 -1958 0
8882 1957 0
-8883 -1958 1957 0
8883 1958 0
8883 -1957 0
-8884 2084 -2083 0
8884 -2084 0
8884 2083 0
-8885 -2084 2083 0
8885 2084 0
8885 -2083 0
-8886 1880 -1879 0
8886 -1880 0
8886 1879 0
-8887 -1880 1879 0
8887 1880 0
8887 -1879 0
-8888 1882 -1881 0
8888 -1882 0
8888 1881 0
-8889 -1882 1881 0
8889 1882 0
8889 -1881 0
-8890 1884 -1883 0
8890 -1884 0
8890 1883 0
-8891 -1884 1883 0
8891 1884 0
8891 -1883 0
-8892 1692 -1691 0
8892 -1692 0
8892 1691 0
-8893 -1692 1691 0
8893 1692 0
8893 -1691 0
-8894 2010 -2009 0
8894 -2010 0
8894 2009 0
-8895 -2010 2009 0
8895 2010 0
8895 -2009 0
-8896 1960 -1959 0
8896 -1960 0
8896 1959 0
-8897 -1960 1959 0
8897 1960 0
8897 -1959 0
-8898 1694 -1693 0
8898 -1694 0
8898 1693 0
-8899 -1694 1693 0
8899 1694 0
8899 -1693 0
-8900 2012 -2011 0
8900 -2012 0
8900 2011 0
-8901 -2012 2011 0
8901 2012 0
8901 -2011 0
-8902 1696 -1695 0
8902 -1696 0
8902 1695 0
-8903 -1696 1695 0
8903 1696 0
8903 -1695 0
-8904 1698 -1697 0
8904 -1698 0
8904 1697 0
-8905 -1698 1697 0
8905 1698 0
8905 -1697 0
-8906 1700 -1699 0
8906 -1700 0
8906 1699 0
-8907 -1700 1699 0
8907 1700 0
8907 -1699 0
-8908 2014 -2013 0
8908 -2014 0
8908 2013 0
-8909 -2014 2013 0
8909 2014 0
8909 -2013 0
-8910 1702 -1701 0
8910 -1702 0
8910 1701 0
-8911 -1702 1701 0
8911 1702 0
8911 -1701 0
-8912 1704 -1703 0
8912 -1704 0
8912 1703 0
-8913 -1704 1703 0
8913 1704 0
8913 -1703 0
-8914 1706 -1705 0
8914 -1706 0
8914 1705 0
-8915 -1706 1705 0
8915 1706 0
8915 -1705 0
-8916 1708 -1707 0
8916 -1708 0
8916 1707 0
-8917 -1708 1707 0
8917 1708 0
8917 -1707 0
-8918 1962 -1961 0
8918 -1962 0
8918 1961 0
-8919 -1962 1961 0
8919 1962 0
8919 -1961 0
-8920 2070 -2069 0
8920 -2070 0
8920 2069 0
-8921 -2070 2069 0
8921 2070 0
8921 -2069 0
-8922 1710 -1709 0
8922 -1710 0
8922 1709 0
-8923 -1710 1709 0
8923 1710 0
8923 -1709 0
-8924 1712 -1711 0
8924 -1712 0
8924 1711 0
-8925 -1712 1711 0
8925 1712 0
8925 -1711 0
-8926 2044 -2043 0
8926 -2044 0
8926 2043 0
-8927 -2044 2043 0
8927 2044 0
8927 -2043 0
-8928 1886 -1885 0
8928 -1886 0
8928 1885 0
-8929 -1886 1885 0
8929 1886 0
8929 -1885 0
-8930 2016 -2015 0
8930 -2016 0
8930 2015 0
-8931 -2016 2015 0
8931 2016 0
8931 -2015 0
-8932 1888 -1887 0
8932 -1888 0
8932 1887 0
-8933 -1888 1887 0
8933 1888 0
8933 -1887 0
-8934 1714 -1713 0
8934 -1714 0
8934 1713 0
-8935 -1714 1713 0
8935 1714 0
8935 -1713 0
-8936 1964 -1963 0
8936 -1964 0
8936 1963 0
-8937 -1964 1963 0
8937 1964 0
8937 -1963 0
-8938 1716 -1715 0
8938 -1716 0
8938 1715 0
-8939 -1716 1715 0
8939 1716 0
8939 -1715 0
-8940 1718 -1717 0
8940 -1718 0
8940 1717 0
-8941 -1718 1717 0
8941 1718 0
8941 -1717 0
-8942 1890 -1889 0
8942 -1890 0
8942 1889 0
-8943 -1890 1889 0
8943 1890 0
8943 -1889 0
-8944 1720 -1719 0
8944 -1720 0
8944 1719 0
-8945 -1720 1719 0
8945 1720 0
8945 -1719 0
-8946 1722 -1721 0
8946 -1722 0
8946 1721 0
-8947 -1722 1721 0
8947 1722 0
8947 -1721 0
-8948 1724 -1723 0
8948 -1724 0
8948 1723 0
-8949 -1724 1723 0
8949 1724 0
8949 -1723 0
-8950 1726 -1725 0
8950 -1726 0
8950 1725 0
-8951 -1726 1725 0
8951 1726 0
8951 -1725 0
-8952 1892 -1891 0
8952 -1892 0
8952 1891 0
-8953 -1892 1891 0
8953 1892 0
8953 -1891 0
-8954 1894 -1893 0
8954 -1894 0
8954 1893 0
-8955 -1894 1893 0
8955 1894 0
8955 -1893 0
-8956 1728 -1727 0
8956 -1728 0
8956 1727 0
-8957 -1728 1727 0
8957 1728 0
8957 -1727 0
-8958 1730 -1729 0
8958 -1730 0
8958 1729 0
-8959 -1730 1729 0
8959 1730 0
8959 -1729 0
-8960 2086 -2085 0
8960 -2086 0
8960 2085 0
-8961 -2086 2085 0
8961 2086 0
8961 -2085 0
-8962 2046 -2045 0
8962 -2046 0
8962 2045 0
-8963 -2046 2045 0
8963 2046 0
8963 -2045 0
-8964 1896 -1895 0
8964 -1896 0
8964 1895 0
-8965 -1896 1895 0
8965 1896 0
8965 -1895 0
-8966 1732 -1731 0
8966 -1732 0
8966 1731 0
-8967 -1732 1731 0
8967 1732 0
8967 -1731 0
-8968 1734 -1733 0
8968 -1734 0
8968 1733 0
-8969 -1734 1733 0
8969 1734 0
8969 -1733 0
-8970 1736 -1735 0
8970 -1736 0
8970 1735 0
-8971 -1736 1735 0
8971 1736 0
8971 -1735 0
-8972 2072 -2071 0
8972 -2072 0
8972 2071 0
-8973 -2072 2071 0
8973 2072 0
8973 -2071 0
-8974 1898 -1897 0
8974 -1898 0
8974 1897 0
-8975 -1898 1897 0
8975 1898 0
8975 -1897 0
-8976 1738 -1737 0
8976 -1738 0
8976 1737 0
-8977 -1738 1737 0
8977 1738 0
8977 -1737 0
-8978 2018 -2017 0
8978 -2018 0
8978 2017 0
-8979 -2018 2017 0
8979 2018 0
8979 -2017 0
-8980 1966 -1965 0
8980 -1966 0
8980 1965 0
-8981 -1966 1965 0
8981 1966 0
8981 -1965 0
-8982 1740 -1739 0
8982 -1740 0
8982 1739 0
-8983 -1740 1739 0
8983 1740 0
8983 -1739 0
-8984 1742 -1741 0
8984 -1742 0
8984 1741 0
-8985 -1742 1741 0
8985 1742 0
8985 -1741 0
-8986 1968 -1967 0
8986 -1968 0
8986 1967 0
-8987 -1968 1967 0
8987 1968 0
8987 -1967 0
-8988 2048 -2047 0
8988 -2048 0
8988 2047 0
-8989 -2048 2047 0
8989 2048 0
8989 -2047 0
-8990 1744 -1743 0
8990 -1744 0
8990 1743 0
-8991 -1744 1743 0
8991 1744 0
8991 -1743 0
-8992 1746 -1745 0
8992 -1746 0
8992 1745 0
-8993 -1746 1745 0
8993 1746 0
8993 -1745 0
-8994 1970 -1969 0
8994 -1970 0
8994 1969 0
-8995 -1970 1969 0
8995 1970 0
8995 -1969 0
-8996 1748 -1747 0
8996 -1748 0
8996 1747 0
-8997 -1748 1747 0
8997 1748 0
8997 -1747 0
-8998 1750 -1749 0
8998 -1750 0
8998 1749 0
-8999 -1750 1749 0
8999 1750 0
8999 -1749 0
-9000 1752 -1751 0
9000 -1752 0
9000 1751 0
-9001 -1752 1751 0
9001 1752 0
9001 -1751 0
-9002 1754 -1753 0
9002 -1754 0
9002 1753 0
-9003 -1754 1753 0
9003 1754 0
9003 -1753 0
-9004 1756 -1755 0
9004 -1756 0
9004 1755 0
-9005 -1756 1755 0
9005 1756 0
9005 -1755 0
-9006 1758 -1757 0
9006 -1758 0
9006 1757 0
-9007 -1758 1757 0
9007 1758 0
9007 -1757 0
-9008 1760 -1759 0
9008 -1760 0
9008 1759 0
-9009 -1760 1759 0
9009 1760 0
9009 -1759 0
-9010 2074 -2073 0
9010 -2074 0
9010 2073 0
-9011 -2074 2073 0
9011 2074 0
9011 -2073 0
-9012 1268 -1267 0
9012 -1268 0
9012 1267 0
-9013 -1268 1267 0
9013 1268 0
9013 -1267 0
-9014 1972 -1971 0
9014 -1972 0
9014 1971 0
-9015 -1972 1971 0
9015 1972 0
9015 -1971 0
-9016 1900 -1899 0
9016 -1900 0
9016 1899 0
-9017 -1900 1899 0
9017 1900 0
9017 -1899 0
-9018 1762 -1761 0
9018 -1762 0
9018 1761 0
-9019 -1762 1761 0
9019 1762 0
9019 -1761 0
-9020 1974 -1973 0
9020 -1974 0
9020 1973 0
-9021 -1974 1973 0
9021 1974 0
9021 -1973 0
-9022 2088 -2087 0
9022 -2088 0
9022 2087 0
-9023 -2088 2087 0
9023 2088 0
9023 -2087 0
-9024 1902 -1901 0
9024 -1902 0
9024 1901 0
-9025 -1902 1901 0
9025 1902 0
9025 -1901 0
-9026 1904 -1903 0
9026 -1904 0
9026 1903 0
-9027 -1904 1903 0
9027 1904 0
9027 -1903 0
-9028 1906 -1905 0
9028 -1906 0
9028 1905 0
-9029 -1906 1905 0
9029 1906 0
9029 -1905 0
-9030 1764 -1763 0
9030 -1764 0
9030 1763 0
-9031 -1764 1763 0
9031 1764 0
9031 -1763 0
-9032 2020 -2019 0
9032 -2020 0
9032 2019 0
-9033 -2020 2019 0
9033 2020 0
9033 -2019 0
-9034 1976 -1975 0
9034 -1976 0
9034 1975 0
-9035 -1976 1975 0
9035 1976 0
9035 -1975 0
-9036 1766 -1765 0
9036 -1766 0
9036 1765 0
-9037 -1766 1765 0
9037 1766 0
9037 -1765 0
-9038 2022 -2021 0
9038 -2022 0
9038 2021 0
-9039 -2022 2021 0
9039 2022 0
9039 -2021 0
-9040 1768 -1767 0
9040 -1768 0
9040 1767 0
-9041 -1768 1767 0
9041 1768 0
9041 -1767 0
-9042 1770 -1769 0
9042 -1770 0
9042 1769 0
-9043 -1770 1769 0
9043 1770 0
9043 -1769 0
-9044 1772 -1771 0
9044 -1772 0
9044 1771 0
-9045 -1772 1771 0
9045 1772 0
9045 -1771 0
-9046 2024 -2023 0
9046 -2024 0
9046 2023 0
-9047 -2024 2023 0
9047 2024 0
9047 -2023 0
-9048 1774 -1773 0
9048 -1774 0
9048 1773 0
-9049 -1774 1773 0
9049 1774 0
9049 -1773 0
-9050 1776 -1775 0
9050 -1776 0
9050 1775 0
-9051 -1776 1775 0
9051 1776 0
9051 -1775 0
-9052 1778 -1777 0
9052 -1778 0
9052 1777 0
-9053 -1778 1777 0
9053 1778 0
9053 -1777 0
-9054 1780 -1779 0
9054 -1780 0
9054 1779 0
-9055 -1780 1779 0
9055 1780 0
9055 -1779 0
-9056 1978 -1977 0
9056 -1978 0
9056 1977 0
-9057 -1978 1977 0
9057 1978 0
9057 -1977 0
-9058 2076 -2075 0
9058 -2076 0
9058 2075 0
-9059 -2076 2075 0
9059 2076 0
9059 -2075 0
-9060 1782 -1781 0
9060 -1782 0
9060 1781 0
-9061 -1782 1781 0
9061 1782 0
9061 -1781 0
-9062 1784 -1783 0
9062 -1784 0
9062 1783 0
-9063 -1784 1783 0
9063 1784 0
9063 -1783 0
-9064 2050 -2049 0
9064 -2050 0
9064 2049 0
-9065 -2050 2049 0
9065 2050 0
9065 -2049 0
-9066 1908 -1907 0
9066 -1908 0
9066 1907 0
-9067 -1908 1907 0
9067 1908 0
9067 -1907 0
-9068 2026 -2025 0
9068 -2026 0
9068 2025 0
-9069 -2026 2025 0
9069 2026 0
9069 -2025 0
-9070 1910 -1909 0
9070 -1910 0
9070 1909 0
-9071 -1910 1909 0
9071 1910 0
9071 -1909 0
-9072 1786 -1785 0
9072 -1786 0
9072 1785 0
-9073 -1786 1785 0
9073 1786 0
9073 -1785 0
-9074 1980 -1979 0
9074 -1980 0
9074 1979 0
-9075 -1980 1979 0
9075 1980 0
9075 -1979 0
-9076 1788 -1787 0
9076 -1788 0
9076 1787 0
-9077 -1788 1787 0
9077 1788 0
9077 -1787 0
-9078 1790 -1789 0
9078 -1790 0
9078 1789 0
-9079 -1790 1789 0
9079 1790 0
9079 -1789 0
-9080 1912 -1911 0
9080 -1912 0
9080 1911 0
-9081 -1912 1911 0
9081 1912 0
9081 -1911 0
-9082 1792 -1791 0
9082 -1792 0
9082 1791 0
-9083 -1792 1791 0
9083 1792 0
9083 -1791 0
-9084 1794 -1793 0
9084 -1794 0
9084 1793 0
-9085 -1794 1793 0
9085 1794 0
9085 -1793 0
-9086 1796 -1795 0
9086 -1796 0
9086 1795 0
-9087 -1796 1795 0
9087 1796 0
9087 -1795 0
-9088 1798 -1797 0
9088 -1798 0
9088 1797 0
-9089 -1798 1797 0
9089 1798 0
9089 -1797 0
-9090 1914 -1913 0
9090 -1914 0
9090 1913 0
-9091 -1914 1913 0
9091 1914 0
9091 -1913 0
-9092 1916 -1915 0
9092 -1916 0
9092 1915 0
-9093 -1916 1915 0
9093 1916 0
9093 -1915 0
-9094 1800 -1799 0
9094 -1800 0
9094 1799 0
-9095 -1800 1799 0
9095 1800 0
9095 -1799 0
-9096 1802 -1801 0
9096 -1802 0
9096 1801 0
-9097 -1802 1801 0
9097 1802 0
9097 -1801 0
-9098 2090 -2089 0
9098 -2090 0
9098 2089 0
-9099 -2090 2089 0
9099 2090 0
9099 -2089 0
-9100 2052 -2051 0
9100 -2052 0
9100 2051 0
-9101 -2052 2051 0
9101 2052 0
9101 -2051 0
-9102 1918 -1917 0
9102 -1918 0
9102 1917 0
-9103 -1918 1917 0
9103 1918 0
9103 -1917 0
-9104 1804 -1803 0
9104 -1804 0
9104 1803 0
-9105 -1804 1803 0
9105 1804 0
9105 -1803 0
-9106 1806 -1805 0
9106 -1806 0
9106 1805 0
-9107 -1806 1805 0
9107 1806 0
9107 -1805 0
-9108 1808 -1807 0
9108 -1808 0
9108 1807 0
-9109 -1808 1807 0
9109 1808 0
9109 -1807 0
-9110 2078 -2077 0
9110 -2078 0
9110 2077 0
-9111 -2078 2077 0
9111 2078 0
9111 -2077 0
-9112 1920 -1919 0
9112 -1920 0
9112 1919 0
-9113 -1920 1919 0
9113 1920 0
9113 -1919 0
-9114 1810 -1809 0
9114 -1810 0
9114 1809 0
-9115 -1810 1809 0
9115 1810 0
9115 -1809 0
-9116 2028 -2027 0
9116 -2028 0
9116 2027 0
-9117 -2028 2027 0
9117 2028 0
9117 -2027 0
-9118 1982 -1981 0
9118 -1982 0
9118 1981 0
-9119 -1982 1981 0
9119 1982 0
9119 -1981 0
-9120 1812 -1811 0
9120 -1812 0
9120 1811 0
-9121 -1812 1811 0
9121 1812 0
9121 -1811 0
-9122 1814 -1813 0
9122 -1814 0
9122 1813 0
-9123 -1814 1813 0
9123 1814 0
9123 -1813 0
-9124 1984 -1983 0
9124 -1984 0
9124 1983 0
-9125 -1984 1983 0
9125 1984 0
9125 -1983 0
-9126 2054 -2053 0
9126 -2054 0
9126 2053 0
-9127 -2054 2053 0
9127 2054 0
9127 -2053 0
-9128 1816 -1815 0
9128 -1816 0
9128 1815 0
-9129 -1816 1815 0
9129 1816 0
9129 -1815 0
-9130 1818 -1817 0
9130 -1818 0
9130 1817 0
-9131 -1818 1817 0
9131 1818 0
9131 -1817 0
-9132 1986 -1985 0
9132 -1986 0
9132 1985 0
-9133 -1986 1985 0
9133 1986 0
9133 -1985 0
-9134 1820 -1819 0
9134 -1820 0
9134 1819 0
-9135 -1820 1819 0
9135 1820 0
9135 -1819 0
-9136 1822 -1821 0
9136 -1822 0
9136 1821 0
-9137 -1822 1821 0
9137 1822 0
9137 -1821 0
-9138 1824 -1823 0
9138 -1824 0
9138 1823 0
-9139 -1824 1823 0
9139 1824 0
9139 -1823 0
-9140 1826 -1825 0
9140 -1826 0
9140 1825 0
-9141 -1826 1825 0
9141 1826 0
9141 -1825 0
-9142 1828 -1827 0
9142 -1828 0
9142 1827 0
-9143 -1828 1827 0
9143 1828 0
9143 -1827 0
-9144 1830 -1829 0
9144 -1830 0
9144 1829 0
-9145 -1830 1829 0
9145 1830 0
9145 -1829 0
-9146 1832 -1831 0
9146 -1832 0
9146 1831 0
-9147 -1832 1831 0
9147 1832 0
9147 -1831 0
-9148 1542 -1541 0
9148 -1542 0
9148 1541 0
-9149 -1542 1541 0
9149 1542 0
9149 -1541 0
-9150 1546 -1545 0
9150 -1546 0
9150 1545 0
-9151 -1546 1545 0
9151 1546 0
9151 -1545 0
-9152 1454 -1453 0
9152 -1454 0
9152 1453 0
-9153 -1454 1453 0
9153 1454 0
9153 -1453 0
-9154 1424 -1423 0
9154 -1424 0
9154 1423 0
-9155 -1424 1423 0
9155 1424 0
9155 -1423 0
-9156 1438 -1437 0
9156 -1438 0
9156 1437 0
-9157 -1438 1437 0
9157 1438 0
9157 -1437 0
-9158 1444 -1443 0
9158 -1444 0
9158 1443 0
-9159 -1444 1443 0
9159 1444 0
9159 -1443 0
-9160 1410 -1409 0
9160 -1410 0
9160 1409 0
-9161 -1410 1409 0
9161 1410 0
9161 -1409 0
-9162 1488 -1487 0
9162 -1488 0
9162 1487 0
-9163 -1488 1487 0
9163 1488 0
9163 -1487 0
-9164 1456 -1455 0
9164 -1456 0
9164 1455 0
-9165 -1456 1455 0
9165 1456 0
9165 -1455 0
-9166 1430 -1429 0
9166 -1430 0
9166 1429 0
-9167 -1430 1429 0
9167 1430 0
9167 -1429 0
-9168 1508 -1507 0
9168 -1508 0
9168 1507 0
-9169 -1508 1507 0
9169 1508 0
9169 -1507 0
-9170 1478 -1477 0
9170 -1478 0
9170 1477 0
-9171 -1478 1477 0
9171 1478 0
9171 -1477 0
-9172 1472 -1471 0
9172 -1472 0
9172 1471 0
-9173 -1472 1471 0
9173 1472 0
9173 -1471 0
-9174 1516 -1515 0
9174 -1516 0
9174 1515 0
-9175 -1516 1515 0
9175 1516 0
9175 -1515 0
-9176 1528 -1527 0
9176 -1528 0
9176 1527 0
-9177 -1528 1527 0
9177 1528 0
9177 -1527 0
-9178 1500 -1499 0
9178 -1500 0
9178 1499 0
-9179 -1500 1499 0
9179 1500 0
9179 -1499 0
-9180 1446 -1445 0
9180 -1446 0
9180 1445 0
-9181 -1446 1445 0
9181 1446 0
9181 -1445 0
-9182 1534 -1533 0
9182 -1534 0
9182 1533 0
-9183 -1534 1533 0
9183 1534 0
9183 -1533 0
-9184 1448 -1447 0
9184 -1448 0
9184 1447 0
-9185 -1448 1447 0
9185 1448 0
9185 -1447 0
-9186 1532 -1531 0
9186 -1532 0
9186 1531 0
-9187 -1532 1531 0
9187 1532 0
9187 -1531 0
-9188 1470 -1469 0
9188 -1470 0
9188 1469 0
-9189 -1470 1469 0
9189 1470 0
9189 -1469 0
-9190 1536 -1535 0
9190 -1536 0
9190 1535 0
-9191 -1536 1535 0
9191 1536 0
9191 -1535 0
-9192 1408 -1407 0
9192 -1408 0
9192 1407 0
-9193 -1408 1407 0
9193 1408 0
9193 -1407 0
-9194 1522 -1521 0
9194 -1522 0
9194 1521 0
-9195 -1522 1521 0
9195 1522 0
9195 -1521 0
-9196 1482 -1481 0
9196 -1482 0
9196 1481 0
-9197 -1482 1481 0
9197 1482 0
9197 -1481 0
-9198 1436 -1435 0
9198 -1436 0
9198 1435 0
-9199 -1436 1435 0
9199 1436 0
9199 -1435 0
-9200 1412 -1411 0
9200 -1412 0
9200 1411 0
-9201 -1412 1411 0
9201 1412 0
9201 -1411 0
-9202 1540 -1539 0
9202 -1540 0
9202 1539 0
-9203 -1540 1539 0
9203 1540 0
9203 -1539 0
-9204 1414 -1413 0
9204 -1414 0
9204 1413 0
-9205 -1414 1413 0
9205 1414 0
9205 -1413 0
-9206 1442 -1441 0
9206 -1442 0
9206 1441 0
-9207 -1442 1441 0
9207 1442 0
9207 -1441 0
-9208 1530 -1529 0
9208 -1530 0
9208 1529 0
-9209 -1530 1529 0
9209 1530 0
9209 -1529 0
-9210 1434 -1433 0
9210 -1434 0
9210 1433 0
-9211 -1434 1433 0
9211 1434 0
9211 -1433 0
-9212 1490 -1489 0
9212 -1490 0
9212 1489 0
-9213 -1490 1489 0
9213 1490 0
9213 -1489 0
-9214 1480 -1479 0
9214 -1480 0
9214 1479 0
-9215 -1480 1479 0
9215 1480 0
9215 -1479 0
-9216 1514 -1513 0
9216 -1514 0
9216 1513 0
-9217 -1514 1513 0
9217 1514 0
9217 -1513 0
-9218 1538 -1537 0
9218 -1538 0
9218 1537 0
-9219 -1538 1537 0
9219 1538 0
9219 -1537 0
-9220 1134 -1133 0
9220 -1134 0
9220 1133 0
-9221 -1134 1133 0
9221 1134 0
9221 -1133 0
-9222 1146 -1145 0
9222 -1146 0
9222 1145 0
-9223 -1146 1145 0
9223 1146 0
9223 -1145 0
-9224 1152 -1151 0
9224 -1152 0
9224 1151 0
-9225 -1152 1151 0
9225 1152 0
9225 -1151 0
-9226 1156 -1155 0
9226 -1156 0
9226 1155 0
-9227 -1156 1155 0
9227 1156 0
9227 -1155 0
-9228 1158 -1157 0
9228 -1158 0
9228 1157 0
-9229 -1158 1157 0
9229 1158 0
9229 -1157 0
-9230 1160 -1159 0
9230 -1160 0
9230 1159 0
-9231 -1160 1159 0
9231 1160 0
9231 -1159 0
-9232 1164 -1163 0
9232 -1164 0
9232 1163 0
-9233 -1164 1163 0
9233 1164 0
9233 -1163 0
-9234 1166 -1165 0
9234 -1166 0
9234 1165 0
-9235 -1166 1165 0
9235 1166 0
9235 -1165 0
-9236 1168 -1167 0
9236 -1168 0
9236 1167 0
-9237 -1168 1167 0
9237 1168 0
9237 -1167 0
-9238 1170 -1169 0
9238 -1170 0
9238 1169 0
-9239 -1170 1169 0
9239 1170 0
9239 -1169 0
-9240 1176 -1175 0
9240 -1176 0
9240 1175 0
-9241 -1176 1175 0
9241 1176 0
9241 -1175 0
-9242 1178 -1177 0
9242 -1178 0
9242 1177 0
-9243 -1178 1177 0
9243 1178 0
9243 -1177 0
-9244 1188 -1187 0
9244 -1188 0
9244 1187 0
-9245 -1188 1187 0
9245 1188 0
9245 -1187 0
-9246 1192 -1191 0
9246 -1192 0
9246 1191 0
-9247 -1192 1191 0
9247 1192 0
9247 -1191 0
-9248 1194 -1193 0
9248 -1194 0
9248 1193 0
-9249 -1194 1193 0
9249 1194 0
9249 -1193 0
-9250 1198 -1197 0
9250 -1198 0
9250 1197 0
-9251 -1198 1197 0
9251 1198 0
9251 -1197 0
-9252 1200 -1199 0
9252 -1200 0
9252 1199 0
-9253 -1200 1199 0
9253 1200 0
9253 -1199 0
-9254 1202 -1201 0
9254 -1202 0
9254 1201 0
-9255 -1202 1201 0
9255 1202 0
9255 -1201 0
-9256 1204 -1203 0
9256 -1204 0
9256 1203 0
-9257 -1204 1203 0
9257 1204 0
9257 -1203 0
-9258 1210 -1209 0
9258 -1210 0
9258 1209 0
-9259 -1210 1209 0
9259 1210 0
9259 -1209 0
-9260 1212 -1211 0
9260 -1212 0
9260 1211 0
-9261 -1212 1211 0
9261 1212 0
9261 -1211 0
-9262 1220 -1219 0
9262 -1220 0
9262 1219 0
-9263 -1220 1219 0
9263 1220 0
9263 -1219 0
-9264 1222 -1221 0
9264 -1222 0
9264 1221 0
-9265 -1222 1221 0
9265 1222 0
9265 -1221 0
-9266 1224 -1223 0
9266 -1224 0
9266 1223 0
-9267 -1224 1223 0
9267 1224 0
9267 -1223 0
-9268 1230 -1229 0
9268 -1230 0
9268 1229 0
-9269 -1230 1229 0
9269 1230 0
9269 -1229 0
-9270 1236 -1235 0
9270 -1236 0
9270 1235 0
-9271 -1236 1235 0
9271 1236 0
9271 -1235 0
-9272 1238 -1237 0
9272 -1238 0
9272 1237 0
-9273 -1238 1237 0
9273 1238 0
9273 -1237 0
-9274 1244 -1243 0
9274 -1244 0
9274 1243 0
-9275 -1244 1243 0
9275 1244 0
9275 -1243 0
-9276 1246 -1245 0
9276 -1246 0
9276 1245 0
-9277 -1246 1245 0
9277 1246 0
9277 -1245 0
-9278 1250 -1249 0
9278 -1250 0
9278 1249 0
-9279 -1250 1249 0
9279 1250 0
9279 -1249 0
-9280 1252 -1251 0
9280 -1252 0
9280 1251 0
-9281 -1252 1251 0
9281 1252 0
9281 -1251 0
-9282 1254 -1253 0
9282 -1254 0
9282 1253 0
-9283 -1254 1253 0
9283 1254 0
9283 -1253 0
-9284 1256 -1255 0
9284 -1256 0
9284 1255 0
-9285 -1256 1255 0
9285 1256 0
9285 -1255 0
-9286 1258 -1257 0
9286 -1258 0
9286 1257 0
-9287 -1258 1257 0
9287 1258 0
9287 -1257 0
-9288 1260 -1259 0
9288 -1260 0
9288 1259 0
-9289 -1260 1259 0
9289 1260 0
9289 -1259 0
-9290 1262 -1261 0
9290 -1262 0
9290 1261 0
-9291 -1262 1261 0
9291 1262 0
9291 -1261 0
-9292 1274 -1273 0
9292 -1274 0
9292 1273 0
-9293 -1274 1273 0
9293 1274 0
9293 -1273 0
-9294 1286 -1285 0
9294 -1286 0
9294 1285 0
-9295 -1286 1285 0
9295 1286 0
9295 -1285 0
-9296 1292 -1291 0
9296 -1292 0
9296 1291 0
-9297 -1292 1291 0
9297 1292 0
9297 -1291 0
-9298 1296 -1295 0
9298 -1296 0
9298 1295 0
-9299 -1296 1295 0
9299 1296 0
9299 -1295 0
-9300 1298 -1297 0
9300 -1298 0
9300 1297 0
-9301 -1298 1297 0
9301 1298 0
9301 -1297 0
-9302 1300 -1299 0
9302 -1300 0
9302 1299 0
-9303 -1300 1299 0
9303 1300 0
9303 -1299 0
-9304 1304 -1303 0
9304 -1304 0
9304 1303 0
-9305 -1304 1303 0
9305 1304 0
9305 -1303 0
-9306 1306 -1305 0
9306 -1306 0
9306 1305 0
-9307 -1306 1305 0
9307 1306 0
9307 -1305 0
-9308 1308 -1307 0
9308 -1308 0
9308 1307 0
-9309 -1308 1307 0
9309 1308 0
9309 -1307 0
-9310 1310 -1309 0
9310 -1310 0
9310 1309 0
-9311 -1310 1309 0
9311 1310 0
9311 -1309 0
-9312 1316 -1315 0
9312 -1316 0
9312 1315 0
-9313 -1316 1315 0
9313 1316 0
9313 -1315 0
-9314 1318 -1317 0
9314 -1318 0
9314 1317 0
-9315 -1318 1317 0
9315 1318 0
9315 -1317 0
-9316 1328 -1327 0
9316 -1328 0
9316 1327 0
-9317 -1328 1327 0
9317 1328 0
9317 -1327 0
-9318 1332 -1331 0
9318 -1332 0
9318 1331 0
-9319 -1332 1331 0
9319 1332 0
9319 -1331 0
-9320 1334 -1333 0
9320 -1334 0
9320 1333 0
-9321 -1334 1333 0
9321 1334 0
9321 -1333 0
-9322 1338 -1337 0
9322 -1338 0
9322 1337 0
-9323 -1338 1337 0
9323 1338 0
9323 -1337 0
-9324 1340 -1339 0
9324 -1340 0
9324 1339 0
-9325 -1340 1339 0
9325 1340 0
9325 -1339 0
-9326 1342 -1341 0
9326 -1342 0
9326 1341 0
-9327 -1342 1341 0
9327 1342 0
9327 -1341 0
-9328 1344 -1343 0
9328 -1344 0
9328 1343 0
-9329 -1344 1343 0
9329 1344 0
9329 -1343 0
-9330 1350 -1349 0
9330 -1350 0
9330 1349 0
-9331 -1350 1349 0
9331 1350 0
9331 -1349 0
-9332 1352 -1351 0
9332 -1352 0
9332 1351 0
-9333 -1352 1351 0
9333 1352 0
9333 -1351 0
-9334 1360 -1359 0
9334 -1360 0
9334 1359 0
-9335 -1360 1359 0
9335 1360 0
9335 -1359 0
-9336 1362 -1361 0
9336 -1362 0
9336 1361 0
-9337 -1362 1361 0
9337 1362 0
9337 -1361 0
-9338 1364 -1363 0
9338 -1364 0
9338 1363 0
-9339 -1364 1363 0
9339 1364 0
9339 -1363 0
-9340 1370 -1369 0
9340 -1370 0
9340 1369 0
-9341 -1370 1369 0
9341 1370 0
9341 -1369 0
-9342 1376 -1375 0
9342 -1376 0
9342 1375 0
-9343 -1376 1375 0
9343 1376 0
9343 -1375 0
-9344 1378 -1377 0
9344 -1378 0
9344 1377 0
-9345 -1378 1377 0
9345 1378 0
9345 -1377 0
-9346 1384 -1383 0
9346 -1384 0
9346 1383 0
-9347 -1384 1383 0
9347 1384 0
9347 -1383 0
-9348 1386 -1385 0
9348 -1386 0
9348 1385 0
-9349 -1386 1385 0
9349 1386 0
9349 -1385 0
-9350 1390 -1389 0
9350 -1390 0
9350 1389 0
-9351 -1390 1389 0
9351 1390 0
9351 -1389 0
-9352 1392 -1391 0
9352 -1392 0
9352 1391 0
-9353 -1392 1391 0
9353 1392 0
9353 -1391 0
-9354 1394 -1393 0
9354 -1394 0
9354 1393 0
-9355 -1394 1393 0
9355 1394 0
9355 -1393 0
-9356 1396 -1395 0
9356 -1396 0
9356 1395 0
-9357 -1396 1395 0
9357 1396 0
9357 -1395 0
-9358 1398 -1397 0
9358 -1398 0
9358 1397 0
-9359 -1398 1397 0
9359 1398 0
9359 -1397 0
-9360 1400 -1399 0
9360 -1400 0
9360 1399 0
-9361 -1400 1399 0
9361 1400 0
9361 -1399 0
-9362 1402 -1401 0
9362 -1402 0
9362 1401 0
-9363 -1402 1401 0
9363 1402 0
9363 -1401 0
-9364 1474 -1473 0
9364 -1474 0
9364 1473 0
-9365 -1474 1473 0
9365 1474 0
9365 -1473 0
-9366 1466 -1465 0
9366 -1466 0
9366 1465 0
-9367 -1466 1465 0
9367 1466 0
9367 -1465 0
-9368 1464 -1463 0
9368 -1464 0
9368 1463 0
-9369 -1464 1463 0
9369 1464 0
9369 -1463 0
-9370 1476 -1475 0
9370 -1476 0
9370 1475 0
-9371 -1476 1475 0
9371 1476 0
9371 -1475 0
-9372 1420 -1419 0
9372 -1420 0
9372 1419 0
-9373 -1420 1419 0
9373 1420 0
9373 -1419 0
-9374 1422 -1421 0
9374 -1422 0
9374 1421 0
-9375 -1422 1421 0
9375 1422 0
9375 -1421 0
-9376 1506 -1505 0
9376 -1506 0
9376 1505 0
-9377 -1506 1505 0
9377 1506 0
9377 -1505 0
-9378 1460 -1459 0
9378 -1460 0
9378 1459 0
-9379 -1460 1459 0
9379 1460 0
9379 -1459 0
-9380 1450 -1449 0
9380 -1450 0
9380 1449 0
-9381 -1450 1449 0
9381 1450 0
9381 -1449 0
-9382 1524 -1523 0
9382 -1524 0
9382 1523 0
-9383 -1524 1523 0
9383 1524 0
9383 -1523 0
-9384 1496 -1495 0
9384 -1496 0
9384 1495 0
-9385 -1496 1495 0
9385 1496 0
9385 -1495 0
-9386 1498 -1497 0
9386 -1498 0
9386 1497 0
-9387 -1498 1497 0
9387 1498 0
9387 -1497 0
-9388 1132 -1131 0
9388 -1132 0
9388 1131 0
-9389 -1132 1131 0
9389 1132 0
9389 -1131 0
-9390 1140 -1139 0
9390 -1140 0
9390 1139 0
-9391 -1140 1139 0
9391 1140 0
9391 -1139 0
-9392 1142 -1141 0
9392 -1142 0
9392 1141 0
-9393 -1142 1141 0
9393 1142 0
9393 -1141 0
-9394 1144 -1143 0
9394 -1144 0
9394 1143 0
-9395 -1144 1143 0
9395 1144 0
9395 -1143 0
-9396 1182 -1181 0
9396 -1182 0
9396 1181 0
-9397 -1182 1181 0
9397 1182 0
9397 -1181 0
-9398 1186 -1185 0
9398 -1186 0
9398 1185 0
-9399 -1186 1185 0
9399 1186 0
9399 -1185 0
-9400 1196 -1195 0
9400 -1196 0
9400 1195 0
-9401 -1196 1195 0
9401 1196 0
9401 -1195 0
-9402 1206 -1205 0
9402 -1206 0
9402 1205 0
-9403 -1206 1205 0
9403 1206 0
9403 -1205 0
-9404 1208 -1207 0
9404 -1208 0
9404 1207 0
-9405 -1208 1207 0
9405 1208 0
9405 -1207 0
-9406 1218 -1217 0
9406 -1218 0
9406 1217 0
-9407 -1218 1217 0
9407 1218 0
9407 -1217 0
-9408 1228 -1227 0
9408 -1228 0
9408 1227 0
-9409 -1228 1227 0
9409 1228 0
9409 -1227 0
-9410 1272 -1271 0
9410 -1272 0
9410 1271 0
-9411 -1272 1271 0
9411 1272 0
9411 -1271 0
-9412 1280 -1279 0
9412 -1280 0
9412 1279 0
-9413 -1280 1279 0
9413 1280 0
9413 -1279 0
-9414 1282 -1281 0
9414 -1282 0
9414 1281 0
-9415 -1282 1281 0
9415 1282 0
9415 -1281 0
-9416 1284 -1283 0
9416 -1284 0
9416 1283 0
-9417 -1284 1283 0
9417 1284 0
9417 -1283 0
-9418 1322 -1321 0
9418 -1322 0
9418 1321 0
-9419 -1322 1321 0
9419 1322 0
9419 -1321 0
-9420 1326 -1325 0
9420 -1326 0
9420 1325 0
-9421 -1326 1325 0
9421 1326 0
9421 -1325 0
-9422 1336 -1335 0
9422 -1336 0
9422 1335 0
-9423 -1336 1335 0
9423 1336 0
9423 -1335 0
-9424 1346 -1345 0
9424 -1346 0
9424 1345 0
-9425 -1346 1345 0
9425 1346 0
9425 -1345 0
-9426 1348 -1347 0
9426 -1348 0
9426 1347 0
-9427 -1348 1347 0
9427 1348 0
9427 -1347 0
-9428 1358 -1357 0
9428 -1358 0
9428 1357 0
-9429 -1358 1357 0
9429 1358 0
9429 -1357 0
-9430 1368 -1367 0
9430 -1368 0
9430 1367 0
-9431 -1368 1367 0
9431 1368 0
9431 -1367 0
-9432 1502 -1501 0
9432 -1502 0
9432 1501 0
-9433 -1502 1501 0
9433 1502 0
9433 -1501 0
-9434 1484 -1483 0
9434 -1484 0
9434 1483 0
-9435 -1484 1483 0
9435 1484 0
9435 -1483 0
-9436 1418 -1417 0
9436 -1418 0
9436 1417 0
-9437 -1418 1417 0
9437 1418 0
9437 -1417 0
-9438 1428 -1427 0
9438 -1428 0
9438 1427 0
-9439 -1428 1427 0
9439 1428 0
9439 -1427 0
-9440 1468 -1467 0
9440 -1468 0
9440 1467 0
-9441 -1468 1467 0
9441 1468 0
9441 -1467 0
-9442 1518 -1517 0
9442 -1518 0
9442 1517 0
-9443 -1518 1517 0
9443 1518 0
9443 -1517 0
-9444 1486 -1485 0
9444 -1486 0
9444 1485 0
-9445 -1486 1485 0
9445 1486 0
9445 -1485 0
-9446 1512 -1511 0
9446 -1512 0
9446 1511 0
-9447 -1512 1511 0
9447 1512 0
9447 -1511 0
-9448 1130 -1129 0
9448 -1130 0
9448 1129 0
-9449 -1130 1129 0
9449 1130 0
9449 -1129 0
-9450 1136 -1135 0
9450 -1136 0
9450 1135 0
-9451 -1136 1135 0
9451 1136 0
9451 -1135 0
-9452 1150 -1149 0
9452 -1150 0
9452 1149 0
-9453 -1150 1149 0
9453 1150 0
9453 -1149 0
-9454 1172 -1171 0
9454 -1172 0
9454 1171 0
-9455 -1172 1171 0
9455 1172 0
9455 -1171 0
-9456 1190 -1189 0
9456 -1190 0
9456 1189 0
-9457 -1190 1189 0
9457 1190 0
9457 -1189 0
-9458 1234 -1233 0
9458 -1234 0
9458 1233 0
-9459 -1234 1233 0
9459 1234 0
9459 -1233 0
-9460 1240 -1239 0
9460 -1240 0
9460 1239 0
-9461 -1240 1239 0
9461 1240 0
9461 -1239 0
-9462 1248 -1247 0
9462 -1248 0
9462 1247 0
-9463 -1248 1247 0
9463 1248 0
9463 -1247 0
-9464 1270 -1269 0
9464 -1270 0
9464 1269 0
-9465 -1270 1269 0
9465 1270 0
9465 -1269 0
-9466 1276 -1275 0
9466 -1276 0
9466 1275 0
-9467 -1276 1275 0
9467 1276 0
9467 -1275 0
-9468 1290 -1289 0
9468 -1290 0
9468 1289 0
-9469 -1290 1289 0
9469 1290 0
9469 -1289 0
-9470 1312 -1311 0
9470 -1312 0
9470 1311 0
-9471 -1312 1311 0
9471 1312 0
9471 -1311 0
-9472 1330 -1329 0
9472 -1330 0
9472 1329 0
-9473 -1330 1329 0
9473 1330 0
9473 -1329 0
-9474 1374 -1373 0
9474 -1374 0
9474 1373 0
-9475 -1374 1373 0
9475 1374 0
9475 -1373 0
-9476 1380 -1379 0
9476 -1380 0
9476 1379 0
-9477 -1380 1379 0
9477 1380 0
9477 -1379 0
-9478 1388 -1387 0
9478 -1388 0
9478 1387 0
-9479 -1388 1387 0
9479 1388 0
9479 -1387 0
-9480 1526 -1525 0
9480 -1526 0
9480 1525 0
-9481 -1526 1525 0
9481 1526 0
9481 -1525 0
-9482 1440 -1439 0
9482 -1440 0
9482 1439 0
-9483 -1440 1439 0
9483 1440 0
9483 -1439 0
-9484 1426 -1425 0
9484 -1426 0
9484 1425 0
-9485 -1426 1425 0
9485 1426 0
9485 -1425 0
-9486 1510 -1509 0
9486 -1510 0
9486 1509 0
-9487 -1510 1509 0
9487 1510 0
9487 -1509 0
-9488 1432 -1431 0
9488 -1432 0
9488 1431 0
-9489 -1432 1431 0
9489 1432 0
9489 -1431 0
-9490 1462 -1461 0
9490 -1462 0
9490 1461 0
-9491 -1462 1461 0
9491 1462 0
9491 -1461 0
-9492 1148 -1147 0
9492 -1148 0
9492 1147 0
-9493 -1148 1147 0
9493 1148 0
9493 -1147 0
-9494 1154 -1153 0
9494 -1154 0
9494 1153 0
-9495 -1154 1153 0
9495 1154 0
9495 -1153 0
-9496 1162 -1161 0
9496 -1162 0
9496 1161 0
-9497 -1162 1161 0
9497 1162 0
9497 -1161 0
-9498 1184 -1183 0
9498 -1184 0
9498 1183 0
-9499 -1184 1183 0
9499 1184 0
9499 -1183 0
-9500 1232 -1231 0
9500 -1232 0
9500 1231 0
-9501 -1232 1231 0
9501 1232 0
9501 -1231 0
-9502 1288 -1287 0
9502 -1288 0
9502 1287 0
-9503 -1288 1287 0
9503 1288 0
9503 -1287 0
-9504 1294 -1293 0
9504 -1294 0
9504 1293 0
-9505 -1294 1293 0
9505 1294 0
9505 -1293 0
-9506 1302 -1301 0
9506 -1302 0
9506 1301 0
-9507 -1302 1301 0
9507 1302 0
9507 -1301 0
-9508 1324 -1323 0
9508 -1324 0
9508 1323 0
-9509 -1324 1323 0
9509 1324 0
9509 -1323 0
-9510 1372 -1371 0
9510 -1372 0
9510 1371 0
-9511 -1372 1371 0
9511 1372 0
9511 -1371 0
-9512 1494 -1493 0
9512 -1494 0
9512 1493 0
-9513 -1494 1493 0
9513 1494 0
9513 -1493 0
-9514 1520 -1519 0
9514 -1520 0
9514 1519 0
-9515 -1520 1519 0
9515 1520 0
9515 -1519 0
-9516 1404 -1403 0
9516 -1404 0
9516 1403 0
-9517 -1404 1403 0
9517 1404 0
9517 -1403 0
-9518 1458 -1457 0
9518 -1458 0
9518 1457 0
-9519 -1458 1457 0
9519 1458 0
9519 -1457 0
-9520 1180 -1179 0
9520 -1180 0
9520 1179 0
-9521 -1180 1179 0
9521 1180 0
9521 -1179 0
-9522 1216 -1215 0
9522 -1216 0
9522 1215 0
-9523 -1216 1215 0
9523 1216 0
9523 -1215 0
-9524 1242 -1241 0
9524 -1242 0
9524 1241 0
-9525 -1242 1241 0
9525 1242 0
9525 -1241 0
-9526 1320 -1319 0
9526 -1320 0
9526 1319 0
-9527 -1320 1319 0
9527 1320 0
9527 -1319 0
-9528 1356 -1355 0
9528 -1356 0
9528 1355 0
-9529 -1356 1355 0
9529 1356 0
9529 -1355 0
-9530 1382 -1381 0
9530 -1382 0
9530 1381 0
-9531 -1382 1381 0
9531 1382 0
9531 -1381 0
-9532 1504 -1503 0
9532 -1504 0
9532 1503 0
-9533 -1504 1503 0
9533 1504 0
9533 -1503 0
-9534 1452 -1451 0
9534 -1452 0
9534 1451 0
-9535 -1452 1451 0
9535 1452 0
9535 -1451 0
-9536 1492 -1491 0
9536 -1492 0
9536 1491 0
-9537 -1492 1491 0
9537 1492 0
9537 -1491 0
-9538 1416 -1415 0
9538 -1416 0
9538 1415 0
-9539 -1416 1415 0
9539 1416 0
9539 -1415 0
-9540 1126 -1125 0
9540 -1126 0
9540 1125 0
-9541 -1126 1125 0
9541 1126 0
9541 -1125 0
-9542 1174 -1173 0
9542 -1174 0
9542 1173 0
-9543 -1174 1173 0
9543 1174 0
9543 -1173 0
-9544 1226 -1225 0
9544 -1226 0
9544 1225 0
-9545 -1226 1225 0
9545 1226 0
9545 -1225 0
-9546 1266 -1265 0
9546 -1266 0
9546 1265 0
-9547 -1266 1265 0
9547 1266 0
9547 -1265 0
-9548 1314 -1313 0
9548 -1314 0
9548 1313 0
-9549 -1314 1313 0
9549 1314 0
9549 -1313 0
-9550 1366 -1365 0
9550 -1366 0
9550 1365 0
-9551 -1366 1365 0
9551 1366 0
9551 -1365 0
-9552 1138 -1137 0
9552 -1138 0
9552 1137 0
-9553 -1138 1137 0
9553 1138 0
9553 -1137 0
-9554 1214 -1213 0
9554 -1214 0
9554 1213 0
-9555 -1214 1213 0
9555 1214 0
9555 -1213 0
-9556 1278 -1277 0
9556 -1278 0
9556 1277 0
-9557 -1278 1277 0
9557 1278 0
9557 -1277 0
-9558 1354 -1353 0
9558 -1354 0
9558 1353 0
-9559 -1354 1353 0
9559 1354 0
9559 -1353 0
-9560 -575 5081 0
9560 575 0
9560 -5081 0
-9561 575 -5081 0
9561 -575 0
9561 5081 0
-9562 -5 5082 0
9562 5 0
9562 -5082 0
-9563 5 -5082 0
9563 -5 0
9563 5082 0
-9564 -577 5083 0
9564 577 0
9564 -5083 0
-9565 577 -5083 0
9565 -577 0
9565 5083 0
-9566 -9 5084 0
9566 9 0
9566 -5084 0
-9567 9 -5084 0
9567 -9 0
9567 5084 0
-9568 -13 14 0
9568 13 0
9568 -14 0
-9569 13 -14 0
9569 -13 0
9569 14 0
-9570 -15 16 0
9570 15 0
9570 -16 0
-9571 15 -16 0
9571 -15 0
9571 16 0
-9572 -579 5085 0
9572 579 0
9572 -5085 0
-9573 579 -5085 0
9573 -579 0
9573 5085 0
-9574 -581 5086 0
9574 581 0
9574 -5086 0
-9575 581 -5086 0
9575 -581 0
9575 5086 0
-9576 -583 584 0
9576 583 0
9576 -584 0
-9577 583 -584 0
9577 -583 0
9577 584 0
-9578 -1821 5087 0
9578 1821 0
9578 -5087 0
-9579 1821 -5087 0
9579 -1821 0
9579 5087 0
-9580 -1839 5088 0
9580 1839 0
9580 -5088 0
-9581 1839 -5088 0
9581 -1839 0
9581 5088 0
-9582 -1335 5091 0
9582 1335 0
9582 -5091 0
-9583 1335 -5091 0
9583 -1335 0
9583 5091 0
-9584 -705 5106 0
9584 705 0
9584 -5106 0
-9585 705 -5106 0
9585 -705 0
9585 5106 0
-9586 -707 5107 0
9586 707 0
9586 -5107 0
-9587 707 -5107 0
9587 -707 0
9587 5107 0
-9588 -709 710 0
9588 709 0
9588 -710 0
-9589 709 -710 0
9589 -709 0
9589 710 0
-9590 -1629 5105 0
9590 1629 0
9590 -5105 0
-9591 1629 -5105 0
9591 -1629 0
9591 5105 0
-9592 -1377 5094 0
9592 1377 0
9592 -5094 0
-9593 1377 -5094 0
9593 -1377 0
9593 5094 0
-9594 -711 5108 0
9594 711 0
9594 -5108 0
-9595 711 -5108 0
9595 -711 0
9595 5108 0
-9596 -713 5109 0
9596 713 0
9596 -5109 0
-9597 713 -5109 0
9597 -713 0
9597 5109 0
-9598 -1391 5096 0
9598 1391 0
9598 -5096 0
-9599 1391 -5096 0
9599 -1391 0
9599 5096 0
-9600 -715 716 0
9600 715 0
9600 -716 0
-9601 715 -716 0
9601 -715 0
9601 716 0
-9602 -269 270 0
9602 269 0
9602 -270 0
-9603 269 -270 0
9603 -269 0
9603 270 0
-9604 -1195 5111 0
9604 1195 0
9604 -5111 0
-9605 1195 -5111 0
9605 -1195 0
9605 5111 0
-9606 -117 118 0
9606 117 0
9606 -118 0
-9607 117 -118 0
9607 -117 0
9607 118 0
-9608 -1473 5098 0
9608 1473 0
9608 -5098 0
-9609 1473 -5098 0
9609 -1473 0
9609 5098 0
-9610 -1237 5112 0
9610 1237 0
9610 -5112 0
-9611 1237 -5112 0
9611 -1237 0
9611 5112 0
-9612 -1749 5113 0
9612 1749 0
9612 -5113 0
-9613 1749 -5113 0
9613 -1749 0
9613 5113 0
-9614 -1251 5114 0
9614 1251 0
9614 -5114 0
-9615 1251 -5114 0
9615 -1251 0
9615 5114 0
-9616 -1515 5099 0
9616 1515 0
9616 -5099 0
-9617 1515 -5099 0
9617 -1515 0
9617 5099 0
-9618 -1529 5100 0
9618 1529 0
9618 -5100 0
-9619 1529 -5100 0
9619 -1529 0
9619 5100 0
-9620 -573 5116 0
9620 573 0
9620 -5116 0
-9621 573 -5116 0
9621 -573 0
9621 5116 0
-9622 -449 5117 0
9622 449 0
9622 -5117 0
-9623 449 -5117 0
9623 -449 0
9623 5117 0
-9624 -451 5118 0
9624 451 0
9624 -5118 0
-9625 451 -5118 0
9625 -451 0
9625 5118 0
-9626 -453 5119 0
9626 453 0
9626 -5119 0
-9627 453 -5119 0
9627 -453 0
9627 5119 0
-9628 -455 5120 0
9628 455 0
9628 -5120 0
-9629 455 -5120 0
9629 -455 0
9629 5120 0
-9630 -447 5122 0
9630 447 0
9630 -5122 0
-9631 447 -5122 0
9631 -447 0
9631 5122 0
-9632 -45 5123 0
9632 45 0
9632 -5123 0
-9633 45 -5123 0
9633 -45 0
9633 5123 0
-9634 -49 5124 0
9634 49 0
9634 -5124 0
-9635 49 -5124 0
9635 -49 0
9635 5124 0
-9636 -53 5125 0
9636 53 0
9636 -5125 0
-9637 53 -5125 0
9637 -53 0
9637 5125 0
-9638 -57 5126 0
9638 57 0
9638 -5126 0
-9639 57 -5126 0
9639 -57 0
9639 5126 0
-9640 -61 5127 0
9640 61 0
9640 -5127 0
-9641 61 -5127 0
9641 -61 0
9641 5127 0
-9642 -307 5129 0
9642 307 0
9642 -5129 0
-9643 307 -5129 0
9643 -307 0
9643 5129 0
-9644 -309 5130 0
9644 309 0
9644 -5130 0
-9645 309 -5130 0
9645 -309 0
9645 5130 0
-9646 -311 5131 0
9646 311 0
9646 -5131 0
-9647 311 -5131 0
9647 -311 0
9647 5131 0
-9648 -313 5132 0
9648 313 0
9648 -5132 0
-9649 313 -5132 0
9649 -313 0
9649 5132 0
-9650 -315 5133 0
9650 315 0
9650 -5133 0
-9651 315 -5133 0
9651 -315 0
9651 5133 0
-9652 -591 5158 0
9652 591 0
9652 -5158 0
-9653 591 -5158 0
9653 -591 0
9653 5158 0
-9654 -23 24 0
9654 23 0
9654 -24 0
-9655 23 -24 0
9655 -23 0
9655 24 0
-9656 -593 5159 0
9656 593 0
9656 -5159 0
-9657 593 -5159 0
9657 -593 0
9657 5159 0
-9658 -595 5160 0
9658 595 0
9658 -5160 0
-9659 595 -5160 0
9659 -595 0
9659 5160 0
-9660 -597 5161 0
9660 597 0
9660 -5161 0
-9661 597 -5161 0
9661 -597 0
9661 5161 0
-9662 -599 600 0
9662 599 0
9662 -600 0
-9663 599 -600 0
9663 -599 0
9663 600 0
-9664 -601 5162 0
9664 601 0
9664 -5162 0
-9665 601 -5162 0
9665 -601 0
9665 5162 0
-9666 -603 5163 0
9666 603 0
9666 -5163 0
-9667 603 -5163 0
9667 -603 0
9667 5163 0
-9668 -605 606 0
9668 605 0
9668 -606 0
-9669 605 -606 0
9669 -605 0
9669 606 0
-9670 -607 5164 0
9670 607 0
9670 -5164 0
-9671 607 -5164 0
9671 -607 0
9671 5164 0
-9672 -609 5165 0
9672 609 0
9672 -5165 0
-9673 609 -5165 0
9673 -609 0
9673 5165 0
-9674 -55 56 0
9674 55 0
9674 -56 0
-9675 55 -56 0
9675 -55 0
9675 56 0
-9676 -611 5166 0
9676 611 0
9676 -5166 0
-9677 611 -5166 0
9677 -611 0
9677 5166 0
-9678 -613 614 0
9678 613 0
9678 -614 0
-9679 613 -614 0
9679 -613 0
9679 614 0
-9680 -1121 1122 0
9680 1121 0
9680 -1122 0
-9681 1121 -1122 0
9681 -1121 0
9681 1122 0
-9682 -1659 4323 0
9682 1659 0
9682 -4323 0
-9683 1659 -4323 0
9683 -1659 0
9683 4323 0
-9684 -1663 5179 0
9684 1663 0
9684 -5179 0
-9685 1663 -5179 0
9685 -1663 0
9685 5179 0
-9686 -253 254 0
9686 253 0
9686 -254 0
-9687 253 -254 0
9687 -253 0
9687 254 0
-9688 -1349 5180 0
9688 1349 0
9688 -5180 0
-9689 1349 -5180 0
9689 -1349 0
9689 5180 0
-9690 -1351 5181 0
9690 1351 0
9690 -5181 0
-9691 1351 -5181 0
9691 -1351 0
9691 5181 0
-9692 -277 278 0
9692 277 0
9692 -278 0
-9693 277 -278 0
9693 -277 0
9693 278 0
-9694 -1209 5183 0
9694 1209 0
9694 -5183 0
-9695 1209 -5183 0
9695 -1209 0
9695 5183 0
-9696 -1211 5184 0
9696 1211 0
9696 -5184 0
-9697 1211 -5184 0
9697 -1211 0
9697 5184 0
-9698 -1219 5185 0
9698 1219 0
9698 -5185 0
-9699 1219 -5185 0
9699 -1219 0
9699 5185 0
-9700 -1359 5186 0
9700 1359 0
9700 -5186 0
-9701 1359 -5186 0
9701 -1359 0
9701 5186 0
-9702 -1223 5187 0
9702 1223 0
9702 -5187 0
-9703 1223 -5187 0
9703 -1223 0
9703 5187 0
-9704 -1487 5168 0
9704 1487 0
9704 -5168 0
-9705 1487 -5168 0
9705 -1487 0
9705 5168 0
-9706 -1489 5169 0
9706 1489 0
9706 -5169 0
-9707 1489 -5169 0
9707 -1489 0
9707 5169 0
-9708 -1363 5190 0
9708 1363 0
9708 -5190 0
-9709 1363 -5190 0
9709 -1363 0
9709 5190 0
-9710 -1497 5170 0
9710 1497 0
9710 -5170 0
-9711 1497 -5170 0
9711 -1497 0
9711 5170 0
-9712 -1117 5176 0
9712 1117 0
9712 -5176 0
-9713 1117 -5176 0
9713 -1117 0
9713 5176 0
-9714 -1501 5171 0
9714 1501 0
9714 -5171 0
-9715 1501 -5171 0
9715 -1501 0
9715 5171 0
-9716 -1119 5177 0
9716 1119 0
9716 -5177 0
-9717 1119 -5177 0
9717 -1119 0
9717 5177 0
-9718 -1295 5193 0
9718 1295 0
9718 -5193 0
-9719 1295 -5193 0
9719 -1295 0
9719 5193 0
-9720 -1111 5194 0
9720 1111 0
9720 -5194 0
-9721 1111 -5194 0
9721 -1111 0
9721 5194 0
-9722 -1113 5195 0
9722 1113 0
9722 -5195 0
-9723 1113 -5195 0
9723 -1113 0
9723 5195 0
-9724 -1115 1116 0
9724 1115 0
9724 -1116 0
-9725 1115 -1116 0
9725 -1115 0
9725 1116 0
-9726 -1637 5196 0
9726 1637 0
9726 -5196 0
-9727 1637 -5196 0
9727 -1637 0
9727 5196 0
-9728 -1155 5198 0
9728 1155 0
9728 -5198 0
-9729 1155 -5198 0
9729 -1155 0
9729 5198 0
-9730 -1433 5199 0
9730 1433 0
9730 -5199 0
-9731 1433 -5199 0
9731 -1433 0
9731 5199 0
-9732 -267 5200 0
9732 267 0
9732 -5200 0
-9733 267 -5200 0
9733 -267 0
9733 5200 0
-9734 -1695 5201 0
9734 1695 0
9734 -5201 0
-9735 1695 -5201 0
9735 -1695 0
9735 5201 0
-9736 -271 5202 0
9736 271 0
9736 -5202 0
-9737 271 -5202 0
9737 -271 0
9737 5202 0
-9738 -273 274 0
9738 273 0
9738 -274 0
-9739 273 -274 0
9739 -273 0
9739 274 0
-9740 -419 5205 0
9740 419 0
9740 -5205 0
-9741 419 -5205 0
9741 -419 0
9741 5205 0
-9742 -421 5206 0
9742 421 0
9742 -5206 0
-9743 421 -5206 0
9743 -421 0
9743 5206 0
-9744 -559 5208 0
9744 559 0
9744 -5208 0
-9745 559 -5208 0
9745 -559 0
9745 5208 0
-9746 -1767 5209 0
9746 1767 0
9746 -5209 0
-9747 1767 -5209 0
9747 -1767 0
9747 5209 0
-9748 -561 5210 0
9748 561 0
9748 -5210 0
-9749 561 -5210 0
9749 -561 0
9749 5210 0
-9750 -1911 5146 0
9750 1911 0
9750 -5146 0
-9751 1911 -5146 0
9751 -1911 0
9751 5146 0
-9752 -1833 5139 0
9752 1833 0
9752 -5139 0
-9753 1833 -5139 0
9753 -1833 0
9753 5139 0
-9754 -1889 5143 0
9754 1889 0
9754 -5143 0
-9755 1889 -5143 0
9755 -1889 0
9755 5143 0
-9756 -1801 5213 0
9756 1801 0
9756 -5213 0
-9757 1801 -5213 0
9757 -1801 0
9757 5213 0
-9758 -1643 5220 0
9758 1643 0
9758 -5220 0
-9759 1643 -5220 0
9759 -1643 0
9759 5220 0
-9760 -1729 5221 0
9760 1729 0
9760 -5221 0
-9761 1729 -5221 0
9761 -1729 0
9761 5221 0
-9762 -323 5236 0
9762 323 0
9762 -5236 0
-9763 323 -5236 0
9763 -323 0
9763 5236 0
-9764 -325 5237 0
9764 325 0
9764 -5237 0
-9765 325 -5237 0
9765 -325 0
9765 5237 0
-9766 -327 5238 0
9766 327 0
9766 -5238 0
-9767 327 -5238 0
9767 -327 0
9767 5238 0
-9768 -329 5239 0
9768 329 0
9768 -5239 0
-9769 329 -5239 0
9769 -329 0
9769 5239 0
-9770 -463 5257 0
9770 463 0
9770 -5257 0
-9771 463 -5257 0
9771 -463 0
9771 5257 0
-9772 -465 5258 0
9772 465 0
9772 -5258 0
-9773 465 -5258 0
9773 -465 0
9773 5258 0
-9774 -467 5259 0
9774 467 0
9774 -5259 0
-9775 467 -5259 0
9775 -467 0
9775 5259 0
-9776 -1841 5242 0
9776 1841 0
9776 -5242 0
-9777 1841 -5242 0
9777 -1841 0
9777 5242 0
-9778 -469 5260 0
9778 469 0
9778 -5260 0
-9779 469 -5260 0
9779 -469 0
9779 5260 0
-9780 -75 5245 0
9780 75 0
9780 -5245 0
-9781 75 -5245 0
9781 -75 0
9781 5245 0
-9782 -79 5246 0
9782 79 0
9782 -5246 0
-9783 79 -5246 0
9783 -79 0
9783 5246 0
-9784 -83 5247 0
9784 83 0
9784 -5247 0
-9785 83 -5247 0
9785 -83 0
9785 5247 0
-9786 -87 5248 0
9786 87 0
9786 -5248 0
-9787 87 -5248 0
9787 -87 0
9787 5248 0
-9788 -1719 5263 0
9788 1719 0
9788 -5263 0
-9789 1719 -5263 0
9789 -1719 0
9789 5263 0
-9790 -1791 5265 0
9790 1791 0
9790 -5265 0
-9791 1791 -5265 0
9791 -1791 0
9791 5265 0
-9792 -259 5266 0
9792 259 0
9792 -5266 0
-9793 259 -5266 0
9793 -259 0
9793 5266 0
-9794 -555 5268 0
9794 555 0
9794 -5268 0
-9795 555 -5268 0
9795 -555 0
9795 5268 0
-9796 -1291 5272 0
9796 1291 0
9796 -5272 0
-9797 1291 -5272 0
9797 -1291 0
9797 5272 0
-9798 -1303 5276 0
9798 1303 0
9798 -5276 0
-9799 1303 -5276 0
9799 -1303 0
9799 5276 0
-9800 -797 5278 0
9800 797 0
9800 -5278 0
-9801 797 -5278 0
9801 -797 0
9801 5278 0
-9802 -799 5279 0
9802 799 0
9802 -5279 0
-9803 799 -5279 0
9803 -799 0
9803 5279 0
-9804 -801 802 0
9804 801 0
9804 -802 0
-9805 801 -802 0
9805 -801 0
9805 802 0
-9806 -1613 4292 0
9806 1613 0
9806 -4292 0
-9807 1613 -4292 0
9807 -1613 0
9807 4292 0
-9808 -1639 4308 0
9808 1639 0
9808 -4308 0
-9809 1639 -4308 0
9809 -1639 0
9809 4308 0
-9810 -1151 5282 0
9810 1151 0
9810 -5282 0
-9811 1151 -5282 0
9811 -1151 0
9811 5282 0
-9812 -77 78 0
9812 77 0
9812 -78 0
-9813 77 -78 0
9813 -77 0
9813 78 0
-9814 -1163 5283 0
9814 1163 0
9814 -5283 0
-9815 1163 -5283 0
9815 -1163 0
9815 5283 0
-9816 -1429 5284 0
9816 1429 0
9816 -5284 0
-9817 1429 -5284 0
9817 -1429 0
9817 5284 0
-9818 -261 262 0
9818 261 0
9818 -262 0
-9819 261 -262 0
9819 -261 0
9819 262 0
-9820 -1441 5285 0
9820 1441 0
9820 -5285 0
-9821 1441 -5285 0
9821 -1441 0
9821 5285 0
-9822 -749 5287 0
9822 749 0
9822 -5287 0
-9823 749 -5287 0
9823 -749 0
9823 5287 0
-9824 -751 5288 0
9824 751 0
9824 -5288 0
-9825 751 -5288 0
9825 -751 0
9825 5288 0
-9826 -753 5289 0
9826 753 0
9826 -5289 0
-9827 753 -5289 0
9827 -753 0
9827 5289 0
-9828 -755 756 0
9828 755 0
9828 -756 0
-9829 755 -756 0
9829 -755 0
9829 756 0
-9830 -863 5290 0
9830 863 0
9830 -5290 0
-9831 863 -5290 0
9831 -863 0
9831 5290 0
-9832 -865 5291 0
9832 865 0
9832 -5291 0
-9833 865 -5291 0
9833 -865 0
9833 5291 0
-9834 -867 5292 0
9834 867 0
9834 -5292 0
-9835 867 -5292 0
9835 -867 0
9835 5292 0
-9836 -869 870 0
9836 869 0
9836 -870 0
-9837 869 -870 0
9837 -869 0
9837 870 0
-9838 -415 5296 0
9838 415 0
9838 -5296 0
-9839 415 -5296 0
9839 -415 0
9839 5296 0
-9840 -1627 5299 0
9840 1627 0
9840 -5299 0
-9841 1627 -5299 0
9841 -1627 0
9841 5299 0
-9842 -1563 5298 0
9842 1563 0
9842 -5298 0
-9843 1563 -5298 0
9843 -1563 0
9843 5298 0
-9844 -1693 5300 0
9844 1693 0
9844 -5300 0
-9845 1693 -5300 0
9845 -1693 0
9845 5300 0
-9846 -1701 5301 0
9846 1701 0
9846 -5301 0
-9847 1701 -5301 0
9847 -1701 0
9847 5301 0
-9848 -1765 5302 0
9848 1765 0
9848 -5302 0
-9849 1765 -5302 0
9849 -1765 0
9849 5302 0
-9850 -1773 5303 0
9850 1773 0
9850 -5303 0
-9851 1773 -5303 0
9851 -1773 0
9851 5303 0
-9852 -677 5325 0
9852 677 0
9852 -5325 0
-9853 677 -5325 0
9853 -677 0
9853 5325 0
-9854 -679 5326 0
9854 679 0
9854 -5326 0
-9855 679 -5326 0
9855 -679 0
9855 5326 0
-9856 -681 5327 0
9856 681 0
9856 -5327 0
-9857 681 -5327 0
9857 -681 0
9857 5327 0
-9858 -683 684 0
9858 683 0
9858 -684 0
-9859 683 -684 0
9859 -683 0
9859 684 0
-9860 -1309 5310 0
9860 1309 0
9860 -5310 0
-9861 1309 -5310 0
9861 -1309 0
9861 5310 0
-9862 -685 5328 0
9862 685 0
9862 -5328 0
-9863 685 -5328 0
9863 -685 0
9863 5328 0
-9864 -687 5329 0
9864 687 0
9864 -5329 0
-9865 687 -5329 0
9865 -687 0
9865 5329 0
-9866 -1317 5311 0
9866 1317 0
9866 -5311 0
-9867 1317 -5311 0
9867 -1317 0
9867 5311 0
-9868 -689 690 0
9868 689 0
9868 -690 0
-9869 689 -690 0
9869 -689 0
9869 690 0
-9870 -1327 5313 0
9870 1327 0
9870 -5313 0
-9871 1327 -5313 0
9871 -1327 0
9871 5313 0
-9872 -193 194 0
9872 193 0
9872 -194 0
-9873 193 -194 0
9873 -193 0
9873 194 0
-9874 -1331 5314 0
9874 1331 0
9874 -5314 0
-9875 1331 -5314 0
9875 -1331 0
9875 5314 0
-9876 -201 202 0
9876 201 0
9876 -202 0
-9877 201 -202 0
9877 -201 0
9877 202 0
-9878 -699 5330 0
9878 699 0
9878 -5330 0
-9879 699 -5330 0
9879 -699 0
9879 5330 0
-9880 -701 5331 0
9880 701 0
9880 -5331 0
-9881 701 -5331 0
9881 -701 0
9881 5331 0
-9882 -703 704 0
9882 703 0
9882 -704 0
-9883 703 -704 0
9883 -703 0
9883 704 0
-9884 -47 48 0
9884 47 0
9884 -48 0
-9885 47 -48 0
9885 -47 0
9885 48 0
-9886 -1631 4304 0
9886 1631 0
9886 -4304 0
-9887 1631 -4304 0
9887 -1631 0
9887 4304 0
-9888 -59 60 0
9888 59 0
9888 -60 0
-9889 59 -60 0
9889 -59 0
9889 60 0
-9890 -65 66 0
9890 65 0
9890 -66 0
-9891 65 -66 0
9891 -65 0
9891 66 0
-9892 -1139 5336 0
9892 1139 0
9892 -5336 0
-9893 1139 -5336 0
9893 -1139 0
9893 5336 0
-9894 -1417 5319 0
9894 1417 0
9894 -5319 0
-9895 1417 -5319 0
9895 -1417 0
9895 5319 0
-9896 -729 5338 0
9896 729 0
9896 -5338 0
-9897 729 -5338 0
9897 -729 0
9897 5338 0
-9898 -1169 5339 0
9898 1169 0
9898 -5339 0
-9899 1169 -5339 0
9899 -1169 0
9899 5339 0
-9900 -731 5340 0
9900 731 0
9900 -5340 0
-9901 731 -5340 0
9901 -731 0
9901 5340 0
-9902 -733 5341 0
9902 733 0
9902 -5341 0
-9903 733 -5341 0
9903 -733 0
9903 5341 0
-9904 -1177 5342 0
9904 1177 0
9904 -5342 0
-9905 1177 -5342 0
9905 -1177 0
9905 5342 0
-9906 -735 5343 0
9906 735 0
9906 -5343 0
-9907 735 -5343 0
9907 -735 0
9907 5343 0
-9908 -737 5344 0
9908 737 0
9908 -5344 0
-9909 737 -5344 0
9909 -737 0
9909 5344 0
-9910 -1447 5320 0
9910 1447 0
9910 -5320 0
-9911 1447 -5320 0
9911 -1447 0
9911 5320 0
-9912 -1187 5345 0
9912 1187 0
9912 -5345 0
-9913 1187 -5345 0
9913 -1187 0
9913 5345 0
-9914 -1191 5346 0
9914 1191 0
9914 -5346 0
-9915 1191 -5346 0
9915 -1191 0
9915 5346 0
-9916 -1455 5321 0
9916 1455 0
9916 -5321 0
-9917 1455 -5321 0
9917 -1455 0
9917 5321 0
-9918 -739 5347 0
9918 739 0
9918 -5347 0
-9919 739 -5347 0
9919 -739 0
9919 5347 0
-9920 -741 742 0
9920 741 0
9920 -742 0
-9921 741 -742 0
9921 -741 0
9921 742 0
-9922 -1465 5323 0
9922 1465 0
9922 -5323 0
-9923 1465 -5323 0
9923 -1465 0
9923 5323 0
-9924 -1469 5324 0
9924 1469 0
9924 -5324 0
-9925 1469 -5324 0
9925 -1469 0
9925 5324 0
-9926 -743 5348 0
9926 743 0
9926 -5348 0
-9927 743 -5348 0
9927 -743 0
9927 5348 0
-9928 -745 5349 0
9928 745 0
9928 -5349 0
-9929 745 -5349 0
9929 -745 0
9929 5349 0
-9930 -747 748 0
9930 747 0
9930 -748 0
-9931 747 -748 0
9931 -747 0
9931 748 0
-9932 -1279 5352 0
9932 1279 0
9932 -5352 0
-9933 1279 -5352 0
9933 -1279 0
9933 5352 0
-9934 -1475 5361 0
9934 1475 0
9934 -5361 0
-9935 1475 -5361 0
9935 -1475 0
9935 5361 0
-9936 -93 94 0
9936 93 0
9936 -94 0
-9937 93 -94 0
9937 -93 0
9937 94 0
-9938 -1197 5370 0
9938 1197 0
9938 -5370 0
-9939 1197 -5370 0
9939 -1197 0
9939 5370 0
-9940 -1337 5356 0
9940 1337 0
9940 -5356 0
-9941 1337 -5356 0
9941 -1337 0
9941 5356 0
-9942 -1859 5357 0
9942 1859 0
9942 -5357 0
-9943 1859 -5357 0
9943 -1859 0
9943 5357 0
-9944 -1361 5378 0
9944 1361 0
9944 -5378 0
-9945 1361 -5378 0
9945 -1361 0
9945 5378 0
-9946 -835 5380 0
9946 835 0
9946 -5380 0
-9947 835 -5380 0
9947 -835 0
9947 5380 0
-9948 -837 5381 0
9948 837 0
9948 -5381 0
-9949 837 -5381 0
9949 -837 0
9949 5381 0
-9950 -849 5383 0
9950 849 0
9950 -5383 0
-9951 849 -5383 0
9951 -849 0
9951 5383 0
-9952 -851 5384 0
9952 851 0
9952 -5384 0
-9953 851 -5384 0
9953 -851 0
9953 5384 0
-9954 -853 854 0
9954 853 0
9954 -854 0
-9955 853 -854 0
9955 -853 0
9955 854 0
-9956 -1221 5385 0
9956 1221 0
9956 -5385 0
-9957 1221 -5385 0
9957 -1221 0
9957 5385 0
-9958 -129 130 0
9958 129 0
9958 -130 0
-9959 129 -130 0
9959 -129 0
9959 130 0
-9960 -1499 5386 0
9960 1499 0
9960 -5386 0
-9961 1499 -5386 0
9961 -1499 0
9961 5386 0
-9962 -1799 5224 0
9962 1799 0
9962 -5224 0
-9963 1799 -5224 0
9963 -1799 0
9963 5224 0
-9964 -1559 5232 0
9964 1559 0
9964 -5232 0
-9965 1559 -5232 0
9965 -1559 0
9965 5232 0
-9966 -1727 5234 0
9966 1727 0
9966 -5234 0
-9967 1727 -5234 0
9967 -1727 0
9967 5234 0
-9968 -839 5382 0
9968 839 0
9968 -5382 0
-9969 839 -5382 0
9969 -839 0
9969 5382 0
-9970 -1089 5447 0
9970 1089 0
9970 -5447 0
-9971 1089 -5447 0
9971 -1089 0
9971 5447 0
-9972 -1091 5448 0
9972 1091 0
9972 -5448 0
-9973 1091 -5448 0
9973 -1091 0
9973 5448 0
-9974 -1093 5449 0
9974 1093 0
9974 -5449 0
-9975 1093 -5449 0
9975 -1093 0
9975 5449 0
-9976 -1095 1096 0
9976 1095 0
9976 -1096 0
-9977 1095 -1096 0
9977 -1095 0
9977 1096 0
-9978 -183 5450 0
9978 183 0
9978 -5450 0
-9979 183 -5450 0
9979 -183 0
9979 5450 0
-9980 -997 5429 0
9980 997 0
9980 -5429 0
-9981 997 -5429 0
9981 -997 0
9981 5429 0
-9982 -999 5430 0
9982 999 0
9982 -5430 0
-9983 999 -5430 0
9983 -999 0
9983 5430 0
-9984 -1001 5431 0
9984 1001 0
9984 -5431 0
-9985 1001 -5431 0
9985 -1001 0
9985 5431 0
-9986 -1003 5432 0
9986 1003 0
9986 -5432 0
-9987 1003 -5432 0
9987 -1003 0
9987 5432 0
-9988 -1005 1006 0
9988 1005 0
9988 -1006 0
-9989 1005 -1006 0
9989 -1005 0
9989 1006 0
-9990 -1323 5433 0
9990 1323 0
9990 -5433 0
-9991 1323 -5433 0
9991 -1323 0
9991 5433 0
-9992 -377 5434 0
9992 377 0
9992 -5434 0
-9993 377 -5434 0
9993 -377 0
9993 5434 0
-9994 -517 5455 0
9994 517 0
9994 -5455 0
-9995 517 -5455 0
9995 -517 0
9995 5455 0
-9996 -1179 5457 0
9996 1179 0
9996 -5457 0
-9997 1179 -5457 0
9997 -1179 0
9997 5457 0
-9998 -1183 5458 0
9998 1183 0
9998 -5458 0
-9999 1183 -5458 0
9999 -1183 0
9999 5458 0
-10000 -185 186 0
10000 185 0
10000 -186 0
-10001 185 -186 0
10001 -185 0
10001 186 0
-10002 -847 848 0
10002 847 0
10002 -848 0
-10003 847 -848 0
10003 -847 0
10003 848 0
-10004 -1457 5436 0
10004 1457 0
10004 -5436 0
-10005 1457 -5436 0
10005 -1457 0
10005 5436 0
-10006 -1461 5437 0
10006 1461 0
10006 -5437 0
-10007 1461 -5437 0
10007 -1461 0
10007 5437 0
-10008 -189 190 0
10008 189 0
10008 -190 0
-10009 189 -190 0
10009 -189 0
10009 190 0
-10010 -2031 4958 0
10010 2031 0
10010 -4958 0
-10011 2031 -4958 0
10011 -2031 0
10011 4958 0
-10012 -2039 5441 0
10012 2039 0
10012 -5441 0
-10013 2039 -5441 0
10013 -2039 0
10013 5441 0
-10014 -1319 5442 0
10014 1319 0
10014 -5442 0
-10015 1319 -5442 0
10015 -1319 0
10015 5442 0
-10016 -2043 5443 0
10016 2043 0
10016 -5443 0
-10017 2043 -5443 0
10017 -2043 0
10017 5443 0
-10018 -2049 5444 0
10018 2049 0
10018 -5444 0
-10019 2049 -5444 0
10019 -2049 0
10019 5444 0
-10020 -833 834 0
10020 833 0
10020 -834 0
-10021 833 -834 0
10021 -833 0
10021 834 0
-10022 -1105 5479 0
10022 1105 0
10022 -5479 0
-10023 1105 -5479 0
10023 -1105 0
10023 5479 0
-10024 -1107 5480 0
10024 1107 0
10024 -5480 0
-10025 1107 -5480 0
10025 -1107 0
10025 5480 0
-10026 -1109 1110 0
10026 1109 0
10026 -1110 0
-10027 1109 -1110 0
10027 -1109 0
10027 1110 0
-10028 -1871 4634 0
10028 1871 0
10028 -4634 0
-10029 1871 -4634 0
10029 -1871 0
10029 4634 0
-10030 -221 222 0
10030 221 0
10030 -222 0
-10031 221 -222 0
10031 -221 0
10031 222 0
-10032 -1375 5465 0
10032 1375 0
10032 -5465 0
-10033 1375 -5465 0
10033 -1375 0
10033 5465 0
-10034 -1385 5466 0
10034 1385 0
10034 -5466 0
-10035 1385 -5466 0
10035 -1385 0
10035 5466 0
-10036 -1673 4327 0
10036 1673 0
10036 -4327 0
-10037 1673 -4327 0
10037 -1673 0
10037 4327 0
-10038 -285 286 0
10038 285 0
10038 -286 0
-10039 285 -286 0
10039 -285 0
10039 286 0
-10040 -1055 5467 0
10040 1055 0
10040 -5467 0
-10041 1055 -5467 0
10041 -1055 0
10041 5467 0
-10042 -1057 5468 0
10042 1057 0
10042 -5468 0
-10043 1057 -5468 0
10043 -1057 0
10043 5468 0
-10044 -1059 5469 0
10044 1059 0
10044 -5469 0
-10045 1059 -5469 0
10045 -1059 0
10045 5469 0
-10046 -1061 1062 0
10046 1061 0
10046 -1062 0
-10047 1061 -1062 0
10047 -1061 0
10047 1062 0
-10048 -1063 5470 0
10048 1063 0
10048 -5470 0
-10049 1063 -5470 0
10049 -1063 0
10049 5470 0
-10050 -1065 5471 0
10050 1065 0
10050 -5471 0
-10051 1065 -5471 0
10051 -1065 0
10051 5471 0
-10052 -1067 5472 0
10052 1067 0
10052 -5472 0
-10053 1067 -5472 0
10053 -1067 0
10053 5472 0
-10054 -1069 1070 0
10054 1069 0
10054 -1070 0
-10055 1069 -1070 0
10055 -1069 0
10055 1070 0
-10056 -1235 5483 0
10056 1235 0
10056 -5483 0
-10057 1235 -5483 0
10057 -1235 0
10057 5483 0
-10058 -1245 5484 0
10058 1245 0
10058 -5484 0
-10059 1245 -5484 0
10059 -1245 0
10059 5484 0
-10060 -1513 5473 0
10060 1513 0
10060 -5473 0
-10061 1513 -5473 0
10061 -1513 0
10061 5473 0
-10062 -1523 5474 0
10062 1523 0
10062 -5474 0
-10063 1523 -5474 0
10063 -1523 0
10063 5474 0
-10064 -1993 5498 0
10064 1993 0
10064 -5498 0
-10065 1993 -5498 0
10065 -1993 0
10065 5498 0
-10066 -1485 5499 0
10066 1485 0
10066 -5499 0
-10067 1485 -5499 0
10067 -1485 0
10067 5499 0
-10068 -173 174 0
10068 173 0
10068 -174 0
-10069 173 -174 0
10069 -173 0
10069 174 0
-10070 -2003 5500 0
10070 2003 0
10070 -5500 0
-10071 2003 -5500 0
10071 -2003 0
10071 5500 0
-10072 -2015 5501 0
10072 2015 0
10072 -5501 0
-10073 2015 -5501 0
10073 -2015 0
10073 5501 0
-10074 -2025 5502 0
10074 2025 0
10074 -5502 0
-10075 2025 -5502 0
10075 -2025 0
10075 5502 0
-10076 -1207 5497 0
10076 1207 0
10076 -5497 0
-10077 1207 -5497 0
10077 -1207 0
10077 5497 0
-10078 -1347 5492 0
10078 1347 0
10078 -5492 0
-10079 1347 -5492 0
10079 -1347 0
10079 5492 0
-10080 -171 5526 0
10080 171 0
10080 -5526 0
-10081 171 -5526 0
10081 -171 0
10081 5526 0
-10082 -2063 5527 0
10082 2063 0
10082 -5527 0
-10083 2063 -5527 0
10083 -2063 0
10083 5527 0
-10084 -175 5528 0
10084 175 0
10084 -5528 0
-10085 175 -5528 0
10085 -175 0
10085 5528 0
-10086 -181 182 0
10086 181 0
10086 -182 0
-10087 181 -182 0
10087 -181 0
10087 182 0
-10088 -2079 5057 0
10088 2079 0
10088 -5057 0
-10089 2079 -5057 0
10089 -2079 0
10089 5057 0
-10090 -2083 5530 0
10090 2083 0
10090 -5530 0
-10091 2083 -5530 0
10091 -2083 0
10091 5530 0
-10092 -2087 5531 0
10092 2087 0
10092 -5531 0
-10093 2087 -5531 0
10093 -2087 0
10093 5531 0
-10094 -371 5510 0
10094 371 0
10094 -5510 0
-10095 371 -5510 0
10095 -371 0
10095 5510 0
-10096 -373 5511 0
10096 373 0
10096 -5511 0
-10097 373 -5511 0
10097 -373 0
10097 5511 0
-10098 -1137 5534 0
10098 1137 0
10098 -5534 0
-10099 1137 -5534 0
10099 -1137 0
10099 5534 0
-10100 -511 5536 0
10100 511 0
10100 -5536 0
-10101 511 -5536 0
10101 -511 0
10101 5536 0
-10102 -1415 5514 0
10102 1415 0
10102 -5514 0
-10103 1415 -5514 0
10103 -1415 0
10103 5514 0
-10104 -513 5537 0
10104 513 0
10104 -5537 0
-10105 513 -5537 0
10105 -513 0
10105 5537 0
-10106 -855 5518 0
10106 855 0
10106 -5518 0
-10107 855 -5518 0
10107 -855 0
10107 5518 0
-10108 -857 5519 0
10108 857 0
10108 -5519 0
-10109 857 -5519 0
10109 -857 0
10109 5519 0
-10110 -859 5520 0
10110 859 0
10110 -5520 0
-10111 859 -5520 0
10111 -859 0
10111 5520 0
-10112 -861 862 0
10112 861 0
10112 -862 0
-10113 861 -862 0
10113 -861 0
10113 862 0
-10114 -1079 5521 0
10114 1079 0
10114 -5521 0
-10115 1079 -5521 0
10115 -1079 0
10115 5521 0
-10116 -1081 5522 0
10116 1081 0
10116 -5522 0
-10117 1081 -5522 0
10117 -1081 0
10117 5522 0
-10118 -1277 5540 0
10118 1277 0
10118 -5540 0
-10119 1277 -5540 0
10119 -1277 0
10119 5540 0
-10120 -987 5554 0
10120 987 0
10120 -5554 0
-10121 987 -5554 0
10121 -987 0
10121 5554 0
-10122 -989 5555 0
10122 989 0
10122 -5555 0
-10123 989 -5555 0
10123 -989 0
10123 5555 0
-10124 -991 5556 0
10124 991 0
10124 -5556 0
-10125 991 -5556 0
10125 -991 0
10125 5556 0
-10126 -993 5557 0
10126 993 0
10126 -5557 0
-10127 993 -5557 0
10127 -993 0
10127 5557 0
-10128 -995 996 0
10128 995 0
10128 -996 0
-10129 995 -996 0
10129 -995 0
10129 996 0
-10130 -1311 5560 0
10130 1311 0
10130 -5560 0
-10131 1311 -5560 0
10131 -1311 0
10131 5560 0
-10132 -177 178 0
10132 177 0
10132 -178 0
-10133 177 -178 0
10133 -177 0
10133 178 0
-10134 -1325 5562 0
10134 1325 0
10134 -5562 0
-10135 1325 -5562 0
10135 -1325 0
10135 5562 0
-10136 -1593 5586 0
10136 1593 0
10136 -5586 0
-10137 1593 -5586 0
10137 -1593 0
10137 5586 0
-10138 -1343 5566 0
10138 1343 0
10138 -5566 0
-10139 1343 -5566 0
10139 -1343 0
10139 5566 0
-10140 -803 5567 0
10140 803 0
10140 -5567 0
-10141 803 -5567 0
10141 -803 0
10141 5567 0
-10142 -805 5568 0
10142 805 0
10142 -5568 0
-10143 805 -5568 0
10143 -805 0
10143 5568 0
-10144 -1869 4633 0
10144 1869 0
10144 -4633 0
-10145 1869 -4633 0
10145 -1869 0
10145 4633 0
-10146 -807 5570 0
10146 807 0
10146 -5570 0
-10147 807 -5570 0
10147 -807 0
10147 5570 0
-10148 -809 810 0
10148 809 0
10148 -810 0
-10149 809 -810 0
10149 -809 0
10149 810 0
-10150 -811 5572 0
10150 811 0
10150 -5572 0
-10151 811 -5572 0
10151 -811 0
10151 5572 0
-10152 -813 5573 0
10152 813 0
10152 -5573 0
-10153 813 -5573 0
10153 -813 0
10153 5573 0
-10154 -815 816 0
10154 815 0
10154 -816 0
-10155 815 -816 0
10155 -815 0
10155 816 0
-10156 -219 5587 0
10156 219 0
10156 -5587 0
-10157 219 -5587 0
10157 -219 0
10157 5587 0
-10158 -225 226 0
10158 225 0
10158 -226 0
-10159 225 -226 0
10159 -225 0
10159 226 0
-10160 -81 82 0
10160 81 0
10160 -82 0
-10161 81 -82 0
10161 -81 0
10161 82 0
-10162 -1171 5590 0
10162 1171 0
10162 -5590 0
-10163 1171 -5590 0
10163 -1171 0
10163 5590 0
-10164 -395 5575 0
10164 395 0
10164 -5575 0
-10165 395 -5575 0
10165 -395 0
10165 5575 0
-10166 -1185 5591 0
10166 1185 0
10166 -5591 0
-10167 1185 -5591 0
10167 -1185 0
10167 5591 0
-10168 -1449 5578 0
10168 1449 0
10168 -5578 0
-10169 1449 -5578 0
10169 -1449 0
10169 5578 0
-10170 -1203 5592 0
10170 1203 0
10170 -5592 0
-10171 1203 -5592 0
10171 -1203 0
10171 5592 0
-10172 -535 5593 0
10172 535 0
10172 -5593 0
-10173 535 -5593 0
10173 -535 0
10173 5593 0
-10174 -1463 5579 0
10174 1463 0
10174 -5579 0
-10175 1463 -5579 0
10175 -1463 0
10175 5579 0
-10176 -1725 5595 0
10176 1725 0
10176 -5595 0
-10177 1725 -5595 0
10177 -1725 0
10177 5595 0
-10178 -1481 5581 0
10178 1481 0
10178 -5581 0
-10179 1481 -5581 0
10179 -1481 0
10179 5581 0
-10180 -1797 5598 0
10180 1797 0
10180 -5598 0
-10181 1797 -5598 0
10181 -1797 0
10181 5598 0
-10182 -1307 5602 0
10182 1307 0
10182 -5602 0
-10183 1307 -5602 0
10183 -1307 0
10183 5602 0
-10184 -1647 5615 0
10184 1647 0
10184 -5615 0
-10185 1647 -5615 0
10185 -1647 0
10185 5615 0
-10186 -1649 4316 0
10186 1649 0
10186 -4316 0
-10187 1649 -4316 0
10187 -1649 0
10187 4316 0
-10188 -1167 5617 0
10188 1167 0
10188 -5617 0
-10189 1167 -5617 0
10189 -1167 0
10189 5617 0
-10190 -971 5623 0
10190 971 0
10190 -5623 0
-10191 971 -5623 0
10191 -971 0
10191 5623 0
-10192 -1445 5604 0
10192 1445 0
10192 -5604 0
-10193 1445 -5604 0
10193 -1445 0
10193 5604 0
-10194 -279 5618 0
10194 279 0
10194 -5618 0
-10195 279 -5618 0
10195 -279 0
10195 5618 0
-10196 -1723 5620 0
10196 1723 0
10196 -5620 0
-10197 1723 -5620 0
10197 -1723 0
10197 5620 0
-10198 -425 5605 0
10198 425 0
10198 -5605 0
-10199 425 -5605 0
10199 -425 0
10199 5605 0
-10200 -1071 5607 0
10200 1071 0
10200 -5607 0
-10201 1071 -5607 0
10201 -1071 0
10201 5607 0
-10202 -141 142 0
10202 141 0
10202 -142 0
-10203 141 -142 0
10203 -141 0
10203 142 0
-10204 -1073 5608 0
10204 1073 0
10204 -5608 0
-10205 1073 -5608 0
10205 -1073 0
10205 5608 0
-10206 -1075 5609 0
10206 1075 0
10206 -5609 0
-10207 1075 -5609 0
10207 -1075 0
10207 5609 0
-10208 -1077 1078 0
10208 1077 0
10208 -1078 0
-10209 1077 -1078 0
10209 -1077 0
10209 1078 0
-10210 -969 5622 0
10210 969 0
10210 -5622 0
-10211 969 -5622 0
10211 -969 0
10211 5622 0
-10212 -973 974 0
10212 973 0
10212 -974 0
-10213 973 -974 0
10213 -973 0
10213 974 0
-10214 -565 5625 0
10214 565 0
10214 -5625 0
-10215 565 -5625 0
10215 -565 0
10215 5625 0
-10216 -1795 5627 0
10216 1795 0
10216 -5627 0
-10217 1795 -5627 0
10217 -1795 0
10217 5627 0
-10218 -515 5538 0
10218 515 0
10218 -5538 0
-10219 515 -5538 0
10219 -515 0
10219 5538 0
-10220 -1937 5550 0
10220 1937 0
10220 -5550 0
-10221 1937 -5550 0
10221 -1937 0
10221 5550 0
-10222 -179 5529 0
10222 179 0
10222 -5529 0
-10223 179 -5529 0
10223 -179 0
10223 5529 0
-10224 -1893 5548 0
10224 1893 0
10224 -5548 0
-10225 1893 -5548 0
10225 -1893 0
10225 5548 0
-10226 -845 5551 0
10226 845 0
10226 -5551 0
-10227 845 -5551 0
10227 -845 0
10227 5551 0
-10228 -375 5512 0
10228 375 0
10228 -5512 0
-10229 375 -5512 0
10229 -375 0
10229 5512 0
-10230 -1915 5549 0
10230 1915 0
10230 -5549 0
-10231 1915 -5549 0
10231 -1915 0
10231 5549 0
-10232 -1479 5641 0
10232 1479 0
10232 -5641 0
-10233 1479 -5641 0
10233 -1479 0
10233 5641 0
-10234 -1947 5637 0
10234 1947 0
10234 -5637 0
-10235 1947 -5637 0
10235 -1947 0
10235 5637 0
-10236 -1201 5639 0
10236 1201 0
10236 -5639 0
-10237 1201 -5639 0
10237 -1201 0
10237 5639 0
-10238 -281 282 0
10238 281 0
10238 -282 0
-10239 281 -282 0
10239 -281 0
10239 282 0
-10240 -1341 5635 0
10240 1341 0
10240 -5635 0
-10241 1341 -5635 0
10241 -1341 0
10241 5635 0
-10242 -1287 5663 0
10242 1287 0
10242 -5663 0
-10243 1287 -5663 0
10243 -1287 0
10243 5663 0
-10244 -1425 5682 0
10244 1425 0
10244 -5682 0
-10245 1425 -5682 0
10245 -1425 0
10245 5682 0
-10246 -21 5669 0
10246 21 0
10246 -5669 0
-10247 21 -5669 0
10247 -21 0
10247 5669 0
-10248 -27 28 0
10248 27 0
10248 -28 0
-10249 27 -28 0
10249 -27 0
10249 28 0
-10250 -213 214 0
10250 213 0
10250 -214 0
-10251 213 -214 0
10251 -213 0
10251 214 0
-10252 -1383 5674 0
10252 1383 0
10252 -5674 0
-10253 1383 -5674 0
10253 -1383 0
10253 5674 0
-10254 -817 5668 0
10254 817 0
10254 -5668 0
-10255 817 -5668 0
10255 -817 0
10255 5668 0
-10256 -819 5671 0
10256 819 0
10256 -5671 0
-10257 819 -5671 0
10257 -819 0
10257 5671 0
-10258 -821 822 0
10258 821 0
10258 -822 0
-10259 821 -822 0
10259 -821 0
10259 822 0
-10260 -1387 5673 0
10260 1387 0
10260 -5673 0
-10261 1387 -5673 0
10261 -1387 0
10261 5673 0
-10262 -615 5675 0
10262 615 0
10262 -5675 0
-10263 615 -5675 0
10263 -615 0
10263 5675 0
-10264 -617 5676 0
10264 617 0
10264 -5676 0
-10265 617 -5676 0
10265 -617 0
10265 5676 0
-10266 -619 5677 0
10266 619 0
10266 -5677 0
-10267 619 -5677 0
10267 -619 0
10267 5677 0
-10268 -621 622 0
10268 621 0
10268 -622 0
-10269 621 -622 0
10269 -621 0
10269 622 0
-10270 -623 5678 0
10270 623 0
10270 -5678 0
-10271 623 -5678 0
10271 -623 0
10271 5678 0
-10272 -625 5679 0
10272 625 0
10272 -5679 0
-10273 625 -5679 0
10273 -625 0
10273 5679 0
-10274 -627 5680 0
10274 627 0
10274 -5680 0
-10275 627 -5680 0
10275 -627 0
10275 5680 0
-10276 -629 5681 0
10276 629 0
10276 -5681 0
-10277 629 -5681 0
10277 -629 0
10277 5681 0
-10278 -85 86 0
10278 85 0
10278 -86 0
-10279 85 -86 0
10279 -85 0
10279 86 0
-10280 -631 632 0
10280 631 0
10280 -632 0
-10281 631 -632 0
10281 -631 0
10281 632 0
-10282 -1953 4794 0
10282 1953 0
10282 -4794 0
-10283 1953 -4794 0
10283 -1953 0
10283 4794 0
-10284 -1147 5700 0
10284 1147 0
10284 -5700 0
-10285 1147 -5700 0
10285 -1147 0
10285 5700 0
-10286 -727 728 0
10286 727 0
10286 -728 0
-10287 727 -728 0
10287 -727 0
10287 728 0
-10288 -1969 5683 0
10288 1969 0
10288 -5683 0
-10289 1969 -5683 0
10289 -1969 0
10289 5683 0
-10290 -1985 5684 0
10290 1985 0
10290 -5684 0
-10291 1985 -5684 0
10291 -1985 0
10291 5684 0
-10292 -1987 5685 0
10292 1987 0
10292 -5685 0
-10293 1987 -5685 0
10293 -1987 0
10293 5685 0
-10294 -1991 5686 0
10294 1991 0
10294 -5686 0
-10295 1991 -5686 0
10295 -1991 0
10295 5686 0
-10296 -295 5702 0
10296 295 0
10296 -5702 0
-10297 295 -5702 0
10297 -295 0
10297 5702 0
-10298 -1243 5704 0
10298 1243 0
10298 -5704 0
-10299 1243 -5704 0
10299 -1243 0
10299 5704 0
-10300 -1247 5705 0
10300 1247 0
10300 -5705 0
-10301 1247 -5705 0
10301 -1247 0
10301 5705 0
-10302 -435 5691 0
10302 435 0
10302 -5691 0
-10303 435 -5691 0
10303 -435 0
10303 5691 0
-10304 -1521 5692 0
10304 1521 0
10304 -5692 0
-10305 1521 -5692 0
10305 -1521 0
10305 5692 0
-10306 -1525 5693 0
10306 1525 0
10306 -5693 0
-10307 1525 -5693 0
10307 -1525 0
10307 5693 0
-10308 -985 986 0
10308 985 0
10308 -986 0
-10309 985 -986 0
10309 -985 0
10309 986 0
-10310 -1823 5710 0
10310 1823 0
10310 -5710 0
-10311 1823 -5710 0
10311 -1823 0
10311 5710 0
-10312 -191 5733 0
10312 191 0
10312 -5733 0
-10313 191 -5733 0
10313 -191 0
10313 5733 0
-10314 -1583 5737 0
10314 1583 0
10314 -5737 0
-10315 1583 -5737 0
10315 -1583 0
10315 5737 0
-10316 -195 5735 0
10316 195 0
10316 -5735 0
-10317 195 -5735 0
10317 -195 0
10317 5735 0
-10318 -197 198 0
10318 197 0
10318 -198 0
-10319 197 -198 0
10319 -197 0
10319 198 0
-10320 -199 5736 0
10320 199 0
10320 -5736 0
-10321 199 -5736 0
10321 -199 0
10321 5736 0
-10322 -203 5738 0
10322 203 0
10322 -5738 0
-10323 203 -5738 0
10323 -203 0
10323 5738 0
-10324 -207 5740 0
10324 207 0
10324 -5740 0
-10325 207 -5740 0
10325 -207 0
10325 5740 0
-10326 -211 5742 0
10326 211 0
10326 -5742 0
-10327 211 -5742 0
10327 -211 0
10327 5742 0
-10328 -1393 5714 0
10328 1393 0
10328 -5714 0
-10329 1393 -5714 0
10329 -1393 0
10329 5714 0
-10330 -381 5717 0
10330 381 0
10330 -5717 0
-10331 381 -5717 0
10331 -381 0
10331 5717 0
-10332 -383 5719 0
10332 383 0
10332 -5719 0
-10333 383 -5719 0
10333 -383 0
10333 5719 0
-10334 -825 5715 0
10334 825 0
10334 -5715 0
-10335 825 -5715 0
10335 -825 0
10335 5715 0
-10336 -387 5721 0
10336 387 0
10336 -5721 0
-10337 387 -5721 0
10337 -387 0
10337 5721 0
-10338 -389 5723 0
10338 389 0
10338 -5723 0
-10339 389 -5723 0
10339 -389 0
10339 5723 0
-10340 -391 5724 0
10340 391 0
10340 -5724 0
-10341 391 -5724 0
10341 -391 0
10341 5724 0
-10342 -827 5716 0
10342 827 0
10342 -5716 0
-10343 827 -5716 0
10343 -827 0
10343 5716 0
-10344 -385 5720 0
10344 385 0
10344 -5720 0
-10345 385 -5720 0
10345 -385 0
10345 5720 0
-10346 -521 5745 0
10346 521 0
10346 -5745 0
-10347 521 -5745 0
10347 -521 0
10347 5745 0
-10348 -523 5746 0
10348 523 0
10348 -5746 0
-10349 523 -5746 0
10349 -523 0
10349 5746 0
-10350 -525 5747 0
10350 525 0
10350 -5747 0
-10351 525 -5747 0
10351 -525 0
10351 5747 0
-10352 -527 5748 0
10352 527 0
10352 -5748 0
-10353 527 -5748 0
10353 -527 0
10353 5748 0
-10354 -529 5749 0
10354 529 0
10354 -5749 0
-10355 529 -5749 0
10355 -529 0
10355 5749 0
-10356 -531 5750 0
10356 531 0
10356 -5750 0
-10357 531 -5750 0
10357 -531 0
10357 5750 0
-10358 -1751 5755 0
10358 1751 0
10358 -5755 0
-10359 1751 -5755 0
10359 -1751 0
10359 5755 0
-10360 -1253 5757 0
10360 1253 0
10360 -5757 0
-10361 1253 -5757 0
10361 -1253 0
10361 5757 0
-10362 -1531 5730 0
10362 1531 0
10362 -5730 0
-10363 1531 -5730 0
10363 -1531 0
10363 5730 0
-10364 -981 5761 0
10364 981 0
10364 -5761 0
-10365 981 -5761 0
10365 -981 0
10365 5761 0
-10366 -983 5762 0
10366 983 0
10366 -5762 0
-10367 983 -5762 0
10367 -983 0
10367 5762 0
-10368 -831 5651 0
10368 831 0
10368 -5651 0
-10369 831 -5651 0
10369 -831 0
10369 5651 0
-10370 -1739 5660 0
10370 1739 0
10370 -5660 0
-10371 1739 -5660 0
10371 -1739 0
10371 5660 0
-10372 -1745 5661 0
10372 1745 0
10372 -5661 0
-10373 1745 -5661 0
10373 -1745 0
10373 5661 0
-10374 -1811 5645 0
10374 1811 0
10374 -5645 0
-10375 1811 -5645 0
10375 -1811 0
10375 5645 0
-10376 -1817 5647 0
10376 1817 0
10376 -5647 0
-10377 1817 -5647 0
10377 -1817 0
10377 5647 0
-10378 -1961 5652 0
10378 1961 0
10378 -5652 0
-10379 1961 -5652 0
10379 -1961 0
10379 5652 0
-10380 -1655 5659 0
10380 1655 0
10380 -5659 0
-10381 1655 -5659 0
10381 -1655 0
10381 5659 0
-10382 -1977 5653 0
10382 1977 0
10382 -5653 0
-10383 1977 -5653 0
10383 -1977 0
10383 5653 0
-10384 -1851 5649 0
10384 1851 0
10384 -5649 0
-10385 1851 -5649 0
10385 -1851 0
10385 5649 0
-10386 -1853 5650 0
10386 1853 0
10386 -5650 0
-10387 1853 -5650 0
10387 -1853 0
10387 5650 0
-10388 -1815 5765 0
10388 1815 0
10388 -5765 0
-10389 1815 -5765 0
10389 -1815 0
10389 5765 0
-10390 -823 5672 0
10390 823 0
10390 -5672 0
-10391 823 -5672 0
10391 -823 0
10391 5672 0
-10392 -1743 5777 0
10392 1743 0
10392 -5777 0
-10393 1743 -5777 0
10393 -1743 0
10393 5777 0
-10394 -1591 5775 0
10394 1591 0
10394 -5775 0
-10395 1591 -5775 0
10395 -1591 0
10395 5775 0
-10396 -1927 5409 0
10396 1927 0
10396 -5409 0
-10397 1927 -5409 0
10397 -1927 0
10397 5409 0
-10398 -1879 5407 0
10398 1879 0
10398 -5407 0
-10399 1879 -5407 0
10399 -1879 0
10399 5407 0
-10400 -1561 5418 0
10400 1561 0
10400 -5418 0
-10401 1561 -5418 0
10401 -1561 0
10401 5418 0
-10402 -263 5267 0
10402 263 0
10402 -5267 0
-10403 263 -5267 0
10403 -263 0
10403 5267 0
-10404 -841 5400 0
10404 841 0
10404 -5400 0
-10405 841 -5400 0
10405 -841 0
10405 5400 0
-10406 -557 5269 0
10406 557 0
10406 -5269 0
-10407 557 -5269 0
10407 -557 0
10407 5269 0
-10408 -1835 5406 0
10408 1835 0
10408 -5406 0
-10409 1835 -5406 0
10409 -1835 0
10409 5406 0
-10410 -1901 5408 0
10410 1901 0
10410 -5408 0
-10411 1901 -5408 0
10411 -1901 0
10411 5408 0
-10412 -1711 5421 0
10412 1711 0
10412 -5421 0
-10413 1711 -5421 0
10413 -1711 0
10413 5421 0
-10414 -1713 5422 0
10414 1713 0
10414 -5422 0
-10415 1713 -5422 0
10415 -1713 0
10415 5422 0
-10416 -1783 5424 0
10416 1783 0
10416 -5424 0
-10417 1783 -5424 0
10417 -1783 0
10417 5424 0
-10418 -1785 5425 0
10418 1785 0
10418 -5425 0
-10419 1785 -5425 0
10419 -1785 0
10419 5425 0
-10420 -417 5297 0
10420 417 0
10420 -5297 0
-10421 417 -5297 0
10421 -417 0
10421 5297 0
-10422 -1293 5779 0
10422 1293 0
10422 -5779 0
-10423 1293 -5779 0
10423 -1293 0
10423 5779 0
-10424 -215 5743 0
10424 215 0
10424 -5743 0
-10425 215 -5743 0
10425 -215 0
10425 5743 0
-10426 -393 5725 0
10426 393 0
10426 -5725 0
-10427 393 -5725 0
10427 -393 0
10427 5725 0
-10428 -1431 5783 0
10428 1431 0
10428 -5783 0
-10429 1431 -5783 0
10429 -1431 0
10429 5783 0
-10430 -519 5456 0
10430 519 0
10430 -5456 0
-10431 519 -5456 0
10431 -519 0
10431 5456 0
-10432 -1989 5784 0
10432 1989 0
10432 -5784 0
-10433 1989 -5784 0
10433 -1989 0
10433 5784 0
-10434 -187 5451 0
10434 187 0
10434 -5451 0
-10435 187 -5451 0
10435 -187 0
10435 5451 0
-10436 -149 150 0
10436 149 0
10436 -150 0
-10437 149 -150 0
10437 -149 0
10437 150 0
-10438 -533 5753 0
10438 533 0
10438 -5753 0
-10439 533 -5753 0
10439 -533 0
10439 5753 0
-10440 -379 5435 0
10440 379 0
10440 -5435 0
-10441 379 -5435 0
10441 -379 0
10441 5435 0
-10442 -1153 5793 0
10442 1153 0
10442 -5793 0
-10443 1153 -5793 0
10443 -1153 0
10443 5793 0
-10444 -829 5718 0
10444 829 0
10444 -5718 0
-10445 829 -5718 0
10445 -829 0
10445 5718 0
-10446 -1289 5833 0
10446 1289 0
10446 -5833 0
-10447 1289 -5833 0
10447 -1289 0
10447 5833 0
-10448 -1283 5868 0
10448 1283 0
10448 -5868 0
-10449 1283 -5868 0
10449 -1283 0
10449 5868 0
-10450 -1863 4626 0
10450 1863 0
10450 -4626 0
-10451 1863 -4626 0
10451 -1863 0
10451 4626 0
-10452 -911 5851 0
10452 911 0
10452 -5851 0
-10453 911 -5851 0
10453 -911 0
10453 5851 0
-10454 -913 5852 0
10454 913 0
10454 -5852 0
-10455 913 -5852 0
10455 -913 0
10455 5852 0
-10456 -915 5853 0
10456 915 0
10456 -5853 0
-10457 915 -5853 0
10457 -915 0
10457 5853 0
-10458 -917 5854 0
10458 917 0
10458 -5854 0
-10459 917 -5854 0
10459 -917 0
10459 5854 0
-10460 -919 920 0
10460 919 0
10460 -920 0
-10461 919 -920 0
10461 -919 0
10461 920 0
-10462 -921 5856 0
10462 921 0
10462 -5856 0
-10463 921 -5856 0
10463 -921 0
10463 5856 0
-10464 -923 5857 0
10464 923 0
10464 -5857 0
-10465 923 -5857 0
10465 -923 0
10465 5857 0
-10466 -925 5858 0
10466 925 0
10466 -5858 0
-10467 925 -5858 0
10467 -925 0
10467 5858 0
-10468 -927 928 0
10468 927 0
10468 -928 0
-10469 927 -928 0
10469 -927 0
10469 928 0
-10470 -1143 5859 0
10470 1143 0
10470 -5859 0
-10471 1143 -5859 0
10471 -1143 0
10471 5859 0
-10472 -1401 5840 0
10472 1401 0
10472 -5840 0
-10473 1401 -5840 0
10473 -1401 0
10473 5840 0
-10474 -1149 5860 0
10474 1149 0
10474 -5860 0
-10475 1149 -5860 0
10475 -1149 0
10475 5860 0
-10476 -245 246 0
10476 245 0
10476 -246 0
-10477 245 -246 0
10477 -245 0
10477 246 0
-10478 -1421 5842 0
10478 1421 0
10478 -5842 0
-10479 1421 -5842 0
10479 -1421 0
10479 5842 0
-10480 -1427 5843 0
10480 1427 0
10480 -5843 0
-10481 1427 -5843 0
10481 -1427 0
10481 5843 0
-10482 -1951 4793 0
10482 1951 0
10482 -4793 0
-10483 1951 -4793 0
10483 -1951 0
10483 4793 0
-10484 -109 110 0
10484 109 0
10484 -110 0
-10485 109 -110 0
10485 -109 0
10485 110 0
-10486 -975 5867 0
10486 975 0
10486 -5867 0
-10487 975 -5867 0
10487 -975 0
10487 5867 0
-10488 -765 5862 0
10488 765 0
10488 -5862 0
-10489 765 -5862 0
10489 -765 0
10489 5862 0
-10490 -145 146 0
10490 145 0
10490 -146 0
-10491 145 -146 0
10491 -145 0
10491 146 0
-10492 -767 5863 0
10492 767 0
10492 -5863 0
-10493 767 -5863 0
10493 -767 0
10493 5863 0
-10494 -1261 5864 0
10494 1261 0
10494 -5864 0
-10495 1261 -5864 0
10495 -1261 0
10495 5864 0
-10496 -769 5866 0
10496 769 0
10496 -5866 0
-10497 769 -5866 0
10497 -769 0
10497 5866 0
-10498 -977 5861 0
10498 977 0
10498 -5861 0
-10499 977 -5861 0
10499 -977 0
10499 5861 0
-10500 -979 980 0
10500 979 0
10500 -980 0
-10501 979 -980 0
10501 -979 0
10501 980 0
-10502 -771 772 0
10502 771 0
10502 -772 0
-10503 771 -772 0
10503 -771 0
10503 772 0
-10504 -1539 5846 0
10504 1539 0
10504 -5846 0
-10505 1539 -5846 0
10505 -1539 0
10505 5846 0
-10506 -1097 5888 0
10506 1097 0
10506 -5888 0
-10507 1097 -5888 0
10507 -1097 0
10507 5888 0
-10508 -1099 5889 0
10508 1099 0
10508 -5889 0
-10509 1099 -5889 0
10509 -1099 0
10509 5889 0
-10510 -1101 5890 0
10510 1101 0
10510 -5890 0
-10511 1101 -5890 0
10511 -1101 0
10511 5890 0
-10512 -1103 1104 0
10512 1103 0
10512 -1104 0
-10513 1103 -1104 0
10513 -1103 0
10513 1104 0
-10514 -209 210 0
10514 209 0
10514 -210 0
-10515 209 -210 0
10515 -209 0
10515 210 0
-10516 -1621 5892 0
10516 1621 0
10516 -5892 0
-10517 1621 -5892 0
10517 -1621 0
10517 5892 0
-10518 -1129 5894 0
10518 1129 0
10518 -5894 0
-10519 1129 -5894 0
10519 -1129 0
10519 5894 0
-10520 -243 5895 0
10520 243 0
10520 -5895 0
-10521 243 -5895 0
10521 -243 0
10521 5895 0
-10522 -1407 5875 0
10522 1407 0
10522 -5875 0
-10523 1407 -5875 0
10523 -1407 0
10523 5875 0
-10524 -247 5896 0
10524 247 0
10524 -5896 0
-10525 247 -5896 0
10525 -247 0
10525 5896 0
-10526 -929 5897 0
10526 929 0
10526 -5897 0
-10527 929 -5897 0
10527 -929 0
10527 5897 0
-10528 -251 5898 0
10528 251 0
10528 -5898 0
-10529 251 -5898 0
10529 -251 0
10529 5898 0
-10530 -931 5900 0
10530 931 0
10530 -5900 0
-10531 931 -5900 0
10531 -931 0
10531 5900 0
-10532 -933 5901 0
10532 933 0
10532 -5901 0
-10533 933 -5901 0
10533 -933 0
10533 5901 0
-10534 -1943 4785 0
10534 1943 0
10534 -4785 0
-10535 1943 -4785 0
10535 -1943 0
10535 4785 0
-10536 -935 936 0
10536 935 0
10536 -936 0
-10537 935 -936 0
10537 -935 0
10537 936 0
-10538 -1957 5876 0
10538 1957 0
10538 -5876 0
-10539 1957 -5876 0
10539 -1957 0
10539 5876 0
-10540 -407 5877 0
10540 407 0
10540 -5877 0
-10541 407 -5877 0
10541 -407 0
10541 5877 0
-10542 -1973 5878 0
10542 1973 0
10542 -5878 0
-10543 1973 -5878 0
10543 -1973 0
10543 5878 0
-10544 -411 5880 0
10544 411 0
10544 -5880 0
-10545 411 -5880 0
10545 -411 0
10545 5880 0
-10546 -409 5879 0
10546 409 0
10546 -5879 0
-10547 409 -5879 0
10547 -409 0
10547 5879 0
-10548 -547 5903 0
10548 547 0
10548 -5903 0
-10549 547 -5903 0
10549 -547 0
10549 5903 0
-10550 -549 5904 0
10550 549 0
10550 -5904 0
-10551 549 -5904 0
10551 -549 0
10551 5904 0
-10552 -551 5905 0
10552 551 0
10552 -5905 0
-10553 551 -5905 0
10553 -551 0
10553 5905 0
-10554 -1269 5910 0
10554 1269 0
10554 -5910 0
-10555 1269 -5910 0
10555 -1269 0
10555 5910 0
-10556 -1847 5932 0
10556 1847 0
10556 -5932 0
-10557 1847 -5932 0
10557 -1847 0
10557 5932 0
-10558 -357 5934 0
10558 357 0
10558 -5934 0
-10559 357 -5934 0
10559 -357 0
10559 5934 0
-10560 -1013 1014 0
10560 1013 0
10560 -1014 0
-10561 1013 -1014 0
10561 -1013 0
10561 1014 0
-10562 -359 5937 0
10562 359 0
10562 -5937 0
-10563 359 -5937 0
10563 -359 0
10563 5937 0
-10564 -361 5938 0
10564 361 0
10564 -5938 0
-10565 361 -5938 0
10565 -361 0
10565 5938 0
-10566 -363 5939 0
10566 363 0
10566 -5939 0
-10567 363 -5939 0
10567 -363 0
10567 5939 0
-10568 -365 5941 0
10568 365 0
10568 -5941 0
-10569 365 -5941 0
10569 -365 0
10569 5941 0
-10570 -1897 5940 0
10570 1897 0
10570 -5940 0
-10571 1897 -5940 0
10571 -1897 0
10571 5940 0
-10572 -497 5963 0
10572 497 0
10572 -5963 0
-10573 497 -5963 0
10573 -497 0
10573 5963 0
-10574 -499 5964 0
10574 499 0
10574 -5964 0
-10575 499 -5964 0
10575 -499 0
10575 5964 0
-10576 -501 5965 0
10576 501 0
10576 -5965 0
-10577 501 -5965 0
10577 -501 0
10577 5965 0
-10578 -503 5966 0
10578 503 0
10578 -5966 0
-10579 503 -5966 0
10579 -503 0
10579 5966 0
-10580 -505 5967 0
10580 505 0
10580 -5967 0
-10581 505 -5967 0
10581 -505 0
10581 5967 0
-10582 -1919 5945 0
10582 1919 0
10582 -5945 0
-10583 1919 -5945 0
10583 -1919 0
10583 5945 0
-10584 -507 5968 0
10584 507 0
10584 -5968 0
-10585 507 -5968 0
10585 -507 0
10585 5968 0
-10586 -367 5971 0
10586 367 0
10586 -5971 0
-10587 367 -5971 0
10587 -367 0
10587 5971 0
-10588 -143 5952 0
10588 143 0
10588 -5952 0
-10589 143 -5952 0
10589 -143 0
10589 5952 0
-10590 -147 5953 0
10590 147 0
10590 -5953 0
-10591 147 -5953 0
10591 -147 0
10591 5953 0
-10592 -151 5954 0
10592 151 0
10592 -5954 0
-10593 151 -5954 0
10593 -151 0
10593 5954 0
-10594 -155 5956 0
10594 155 0
10594 -5956 0
-10595 155 -5956 0
10595 -155 0
10595 5956 0
-10596 -159 5957 0
10596 159 0
10596 -5957 0
-10597 159 -5957 0
10597 -159 0
10597 5957 0
-10598 -163 5958 0
10598 163 0
10598 -5958 0
-10599 163 -5958 0
10599 -163 0
10599 5958 0
-10600 -169 170 0
10600 169 0
10600 -170 0
-10601 169 -170 0
10601 -169 0
10601 170 0
-10602 -1567 5997 0
10602 1567 0
10602 -5997 0
-10603 1567 -5997 0
10603 -1567 0
10603 5997 0
-10604 -337 5976 0
10604 337 0
10604 -5976 0
-10605 337 -5976 0
10605 -337 0
10605 5976 0
-10606 -1339 5978 0
10606 1339 0
10606 -5978 0
-10607 1339 -5978 0
10607 -1339 0
10607 5978 0
-10608 -1007 5979 0
10608 1007 0
10608 -5979 0
-10609 1007 -5979 0
10609 -1007 0
10609 5979 0
-10610 -1009 5980 0
10610 1009 0
10610 -5980 0
-10611 1009 -5980 0
10611 -1009 0
10611 5980 0
-10612 -905 5999 0
10612 905 0
10612 -5999 0
-10613 905 -5999 0
10613 -905 0
10613 5999 0
-10614 -477 6000 0
10614 477 0
10614 -6000 0
-10615 477 -6000 0
10615 -477 0
10615 6000 0
-10616 -1015 5982 0
10616 1015 0
10616 -5982 0
-10617 1015 -5982 0
10617 -1015 0
10617 5982 0
-10618 -1017 5983 0
10618 1017 0
10618 -5983 0
-10619 1017 -5983 0
10619 -1017 0
10619 5983 0
-10620 -1019 5984 0
10620 1019 0
10620 -5984 0
-10621 1019 -5984 0
10621 -1019 0
10621 5984 0
-10622 -1021 1022 0
10622 1021 0
10622 -1022 0
-10623 1021 -1022 0
10623 -1021 0
10623 1022 0
-10624 -1395 5985 0
10624 1395 0
10624 -5985 0
-10625 1395 -5985 0
10625 -1395 0
10625 5985 0
-10626 -907 6001 0
10626 907 0
10626 -6001 0
-10627 907 -6001 0
10627 -907 0
10627 6001 0
-10628 -909 910 0
10628 909 0
10628 -910 0
-10629 909 -910 0
10629 -909 0
10629 910 0
-10630 -1681 4328 0
10630 1681 0
10630 -4328 0
-10631 1681 -4328 0
10631 -1681 0
10631 4328 0
-10632 -103 5988 0
10632 103 0
10632 -5988 0
-10633 103 -5988 0
10633 -103 0
10633 5988 0
-10634 -105 106 0
10634 105 0
10634 -106 0
-10635 105 -106 0
10635 -105 0
10635 106 0
-10636 -1199 6004 0
10636 1199 0
10636 -6004 0
-10637 1199 -6004 0
10637 -1199 0
10637 6004 0
-10638 -1721 6005 0
10638 1721 0
10638 -6005 0
-10639 1721 -6005 0
10639 -1721 0
10639 6005 0
-10640 -1477 5991 0
10640 1477 0
10640 -5991 0
-10641 1477 -5991 0
10641 -1477 0
10641 5991 0
-10642 -1255 6007 0
10642 1255 0
10642 -6007 0
-10643 1255 -6007 0
10643 -1255 0
10643 6007 0
-10644 -1533 5992 0
10644 1533 0
10644 -5992 0
-10645 1533 -5992 0
10645 -1533 0
10645 5992 0
-10646 -1793 6009 0
10646 1793 0
10646 -6009 0
-10647 1793 -6009 0
10647 -1793 0
10647 6009 0
-10648 -717 6010 0
10648 717 0
10648 -6010 0
-10649 717 -6010 0
10649 -717 0
10649 6010 0
-10650 -719 6011 0
10650 719 0
10650 -6011 0
-10651 719 -6011 0
10651 -719 0
10651 6011 0
-10652 -721 6012 0
10652 721 0
10652 -6012 0
-10653 721 -6012 0
10653 -721 0
10653 6012 0
-10654 -257 258 0
10654 257 0
10654 -258 0
-10655 257 -258 0
10655 -257 0
10655 258 0
-10656 -1605 5918 0
10656 1605 0
10656 -5918 0
-10657 1605 -5918 0
10657 -1605 0
10657 5918 0
-10658 -1945 5923 0
10658 1945 0
10658 -5923 0
-10659 1945 -5923 0
10659 -1945 0
10659 5923 0
-10660 -1759 5926 0
10660 1759 0
10660 -5926 0
-10661 1759 -5926 0
10661 -1759 0
10661 5926 0
-10662 -1831 5917 0
10662 1831 0
10662 -5917 0
-10663 1831 -5917 0
10663 -1831 0
10663 5917 0
-10664 -1135 5920 0
10664 1135 0
10664 -5920 0
-10665 1135 -5920 0
10665 -1135 0
10665 5920 0
-10666 -1275 5928 0
10666 1275 0
10666 -5928 0
-10667 1275 -5928 0
10667 -1275 0
10667 5928 0
-10668 -1413 5921 0
10668 1413 0
10668 -5921 0
-10669 1413 -5921 0
10669 -1413 0
10669 5921 0
-10670 -1011 5981 0
10670 1011 0
10670 -5981 0
-10671 1011 -5981 0
10671 -1011 0
10671 5981 0
-10672 -1227 6026 0
10672 1227 0
10672 -6026 0
-10673 1227 -6026 0
10673 -1227 0
10673 6026 0
-10674 -1875 4636 0
10674 1875 0
10674 -4636 0
-10675 1875 -4636 0
10675 -1875 0
10675 4636 0
-10676 -1367 6018 0
10676 1367 0
10676 -6018 0
-10677 1367 -6018 0
10677 -1367 0
10677 6018 0
-10678 -1753 6027 0
10678 1753 0
10678 -6027 0
-10679 1753 -6027 0
10679 -1753 0
10679 6027 0
-10680 -1825 6017 0
10680 1825 0
10680 -6017 0
-10681 1825 -6017 0
10681 -1825 0
10681 6017 0
-10682 -1505 6019 0
10682 1505 0
10682 -6019 0
-10683 1505 -6019 0
10683 -1505 0
10683 6019 0
-10684 -1579 6024 0
10684 1579 0
10684 -6024 0
-10685 1579 -6024 0
10685 -1579 0
10685 6024 0
-10686 -153 154 0
10686 153 0
10686 -154 0
-10687 153 -154 0
10687 -153 0
10687 154 0
-10688 -781 782 0
10688 781 0
10688 -782 0
-10689 781 -782 0
10689 -781 0
10689 782 0
-10690 -783 6050 0
10690 783 0
10690 -6050 0
-10691 783 -6050 0
10691 -783 0
10691 6050 0
-10692 -785 6052 0
10692 785 0
10692 -6052 0
-10693 785 -6052 0
10693 -785 0
10693 6052 0
-10694 -787 788 0
10694 787 0
10694 -788 0
-10695 787 -788 0
10695 -787 0
10695 788 0
-10696 -789 6053 0
10696 789 0
10696 -6053 0
-10697 789 -6053 0
10697 -789 0
10697 6053 0
-10698 -791 6054 0
10698 791 0
10698 -6054 0
-10699 791 -6054 0
10699 -791 0
10699 6054 0
-10700 -793 6055 0
10700 793 0
10700 -6055 0
-10701 793 -6055 0
10701 -793 0
10701 6055 0
-10702 -795 796 0
10702 795 0
10702 -796 0
-10703 795 -796 0
10703 -795 0
10703 796 0
-10704 -1355 6057 0
10704 1355 0
10704 -6057 0
-10705 1355 -6057 0
10705 -1355 0
10705 6057 0
-10706 -2053 6070 0
10706 2053 0
10706 -6070 0
-10707 2053 -6070 0
10707 -2053 0
10707 6070 0
-10708 -1389 6059 0
10708 1389 0
10708 -6059 0
-10709 1389 -6059 0
10709 -1389 0
10709 6059 0
-10710 -67 6060 0
10710 67 0
10710 -6060 0
-10711 67 -6060 0
10711 -67 0
10711 6060 0
-10712 -459 6075 0
10712 459 0
10712 -6075 0
-10713 459 -6075 0
10713 -459 0
10713 6075 0
-10714 -265 266 0
10714 265 0
10714 -266 0
-10715 265 -266 0
10715 -265 0
10715 266 0
-10716 -1215 6078 0
10716 1215 0
10716 -6078 0
-10717 1215 -6078 0
10717 -1215 0
10717 6078 0
-10718 -319 6082 0
10718 319 0
10718 -6082 0
-10719 319 -6082 0
10719 -319 0
10719 6082 0
-10720 -121 122 0
10720 121 0
10720 -122 0
-10721 121 -122 0
10721 -121 0
10721 122 0
-10722 -1493 6063 0
10722 1493 0
10722 -6063 0
-10723 1493 -6063 0
10723 -1493 0
10723 6063 0
-10724 -1249 6079 0
10724 1249 0
10724 -6079 0
-10725 1249 -6079 0
10725 -1249 0
10725 6079 0
-10726 -2033 6066 0
10726 2033 0
10726 -6066 0
-10727 2033 -6066 0
10727 -2033 0
10727 6066 0
-10728 -773 6081 0
10728 773 0
10728 -6081 0
-10729 773 -6081 0
10729 -773 0
10729 6081 0
-10730 -1527 6067 0
10730 1527 0
10730 -6067 0
-10731 1527 -6067 0
10731 -1527 0
10731 6067 0
-10732 -2041 6068 0
10732 2041 0
10732 -6068 0
-10733 2041 -6068 0
10733 -2041 0
10733 6068 0
-10734 -775 6083 0
10734 775 0
10734 -6083 0
-10735 775 -6083 0
10735 -775 0
10735 6083 0
-10736 -2047 6069 0
10736 2047 0
10736 -6069 0
-10737 2047 -6069 0
10737 -2047 0
10737 6069 0
-10738 -777 6058 0
10738 777 0
10738 -6058 0
-10739 777 -6058 0
10739 -777 0
10739 6058 0
-10740 -779 6056 0
10740 779 0
10740 -6056 0
-10741 779 -6056 0
10741 -779 0
10741 6056 0
-10742 -1301 6087 0
10742 1301 0
10742 -6087 0
-10743 1301 -6087 0
10743 -1301 0
10743 6087 0
-10744 -345 6090 0
10744 345 0
10744 -6090 0
-10745 345 -6090 0
10745 -345 0
10745 6090 0
-10746 -347 6091 0
10746 347 0
10746 -6091 0
-10747 347 -6091 0
10747 -347 0
10747 6091 0
-10748 -485 6106 0
10748 485 0
10748 -6106 0
-10749 485 -6106 0
10749 -485 0
10749 6106 0
-10750 -487 6107 0
10750 487 0
10750 -6107 0
-10751 487 -6107 0
10751 -487 0
10751 6107 0
-10752 -69 70 0
10752 69 0
10752 -70 0
-10753 69 -70 0
10753 -69 0
10753 70 0
-10754 -1161 6110 0
10754 1161 0
10754 -6110 0
-10755 1161 -6110 0
10755 -1161 0
10755 6110 0
-10756 -937 6111 0
10756 937 0
10756 -6111 0
-10757 937 -6111 0
10757 -937 0
10757 6111 0
-10758 -939 6112 0
10758 939 0
10758 -6112 0
-10759 939 -6112 0
10759 -939 0
10759 6112 0
-10760 -941 6113 0
10760 941 0
10760 -6113 0
-10761 941 -6113 0
10761 -941 0
10761 6113 0
-10762 -1439 6093 0
10762 1439 0
10762 -6093 0
-10763 1439 -6093 0
10763 -1439 0
10763 6093 0
-10764 -943 944 0
10764 943 0
10764 -944 0
-10765 943 -944 0
10765 -943 0
10765 944 0
-10766 -119 6094 0
10766 119 0
10766 -6094 0
-10767 119 -6094 0
10767 -119 0
10767 6094 0
-10768 -123 6095 0
10768 123 0
10768 -6095 0
-10769 123 -6095 0
10769 -123 0
10769 6095 0
-10770 -1999 6096 0
10770 1999 0
10770 -6096 0
-10771 1999 -6096 0
10771 -1999 0
10771 6096 0
-10772 -757 6115 0
10772 757 0
10772 -6115 0
-10773 757 -6115 0
10773 -757 0
10773 6115 0
-10774 -2007 4905 0
10774 2007 0
10774 -4905 0
-10775 2007 -4905 0
10775 -2007 0
10775 4905 0
-10776 -759 6116 0
10776 759 0
10776 -6116 0
-10777 759 -6116 0
10777 -759 0
10777 6116 0
-10778 -761 6117 0
10778 761 0
10778 -6117 0
-10779 761 -6117 0
10779 -761 0
10779 6117 0
-10780 -2017 6098 0
10780 2017 0
10780 -6098 0
-10781 2017 -6098 0
10781 -2017 0
10781 6098 0
-10782 -763 764 0
10782 763 0
10782 -764 0
-10783 763 -764 0
10783 -763 0
10783 764 0
-10784 -2027 6099 0
10784 2027 0
10784 -6099 0
-10785 2027 -6099 0
10785 -2027 0
10785 6099 0
-10786 -1087 1088 0
10786 1087 0
10786 -1088 0
-10787 1087 -1088 0
10787 -1087 0
10787 1088 0
-10788 -883 6161 0
10788 883 0
10788 -6161 0
-10789 883 -6161 0
10789 -883 0
10789 6161 0
-10790 -885 6162 0
10790 885 0
10790 -6162 0
-10791 885 -6162 0
10791 -885 0
10791 6162 0
-10792 -887 888 0
10792 887 0
10792 -888 0
-10793 887 -888 0
10793 -887 0
10793 888 0
-10794 -1569 6163 0
10794 1569 0
10794 -6163 0
-10795 1569 -6163 0
10795 -1569 0
10795 6163 0
-10796 -341 6145 0
10796 341 0
10796 -6145 0
-10797 341 -6145 0
10797 -341 0
10797 6145 0
-10798 -1333 6147 0
10798 1333 0
10798 -6147 0
-10799 1333 -6147 0
10799 -1333 0
10799 6147 0
-10800 -1789 6177 0
10800 1789 0
10800 -6177 0
-10801 1789 -6177 0
10801 -1789 0
10801 6177 0
-10802 -1353 6148 0
10802 1353 0
10802 -6148 0
-10803 1353 -6148 0
10803 -1353 0
10803 6148 0
-10804 -481 6166 0
10804 481 0
10804 -6166 0
-10805 481 -6166 0
10805 -481 0
10805 6166 0
-10806 -97 98 0
10806 97 0
10806 -98 0
-10807 97 -98 0
10807 -97 0
10807 98 0
-10808 -1193 6172 0
10808 1193 0
10808 -6172 0
-10809 1193 -6172 0
10809 -1193 0
10809 6172 0
-10810 -111 6149 0
10810 111 0
10810 -6149 0
-10811 111 -6149 0
10811 -111 0
10811 6149 0
-10812 -113 114 0
10812 113 0
10812 -114 0
-10813 113 -114 0
10813 -113 0
10813 114 0
-10814 -1717 6173 0
10814 1717 0
10814 -6173 0
-10815 1717 -6173 0
10815 -1717 0
10815 6173 0
-10816 -1471 6151 0
10816 1471 0
10816 -6151 0
-10817 1471 -6151 0
10817 -1471 0
10817 6151 0
-10818 -1491 6152 0
10818 1491 0
10818 -6152 0
-10819 1491 -6152 0
10819 -1491 0
10819 6152 0
-10820 -871 6153 0
10820 871 0
10820 -6153 0
-10821 871 -6153 0
10821 -871 0
10821 6153 0
-10822 -873 6154 0
10822 873 0
10822 -6154 0
-10823 873 -6154 0
10823 -873 0
10823 6154 0
-10824 -875 6155 0
10824 875 0
10824 -6155 0
-10825 875 -6155 0
10825 -875 0
10825 6155 0
-10826 -877 6156 0
10826 877 0
10826 -6156 0
-10827 877 -6156 0
10827 -877 0
10827 6156 0
-10828 -879 6158 0
10828 879 0
10828 -6158 0
-10829 879 -6158 0
10829 -879 0
10829 6158 0
-10830 -1085 6157 0
10830 1085 0
10830 -6157 0
-10831 1085 -6157 0
10831 -1085 0
10831 6157 0
-10832 -881 882 0
10832 881 0
10832 -882 0
-10833 881 -882 0
10833 -881 0
10833 882 0
-10834 -165 166 0
10834 165 0
10834 -166 0
-10835 165 -166 0
10835 -165 0
10835 166 0
-10836 -889 6182 0
10836 889 0
10836 -6182 0
-10837 889 -6182 0
10837 -889 0
10837 6182 0
-10838 -891 6183 0
10838 891 0
10838 -6183 0
-10839 891 -6183 0
10839 -891 0
10839 6183 0
-10840 -893 6184 0
10840 893 0
10840 -6184 0
-10841 893 -6184 0
10841 -893 0
10841 6184 0
-10842 -895 896 0
10842 895 0
10842 -896 0
-10843 895 -896 0
10843 -895 0
10843 896 0
-10844 -2081 5058 0
10844 2081 0
10844 -5058 0
-10845 2081 -5058 0
10845 -2081 0
10845 5058 0
-10846 -1125 6188 0
10846 1125 0
10846 -6188 0
-10847 1125 -6188 0
10847 -1125 0
10847 6188 0
-10848 -1403 6189 0
10848 1403 0
10848 -6189 0
-10849 1403 -6189 0
10849 -1403 0
10849 6189 0
-10850 -1047 6190 0
10850 1047 0
10850 -6190 0
-10851 1047 -6190 0
10851 -1047 0
10851 6190 0
-10852 -1049 6191 0
10852 1049 0
10852 -6191 0
-10853 1049 -6191 0
10853 -1049 0
10853 6191 0
-10854 -1051 6192 0
10854 1051 0
10854 -6192 0
-10855 1051 -6192 0
10855 -1051 0
10855 6192 0
-10856 -1053 1054 0
10856 1053 0
10856 -1054 0
-10857 1053 -1054 0
10857 -1053 0
10857 1054 0
-10858 -1265 6194 0
10858 1265 0
10858 -6194 0
-10859 1265 -6194 0
10859 -1265 0
10859 6194 0
-10860 -125 126 0
10860 125 0
10860 -126 0
-10861 125 -126 0
10861 -125 0
10861 126 0
-10862 -1231 6132 0
10862 1231 0
10862 -6132 0
-10863 1231 -6132 0
10863 -1231 0
10863 6132 0
-10864 -1747 6134 0
10864 1747 0
10864 -6134 0
-10865 1747 -6134 0
10865 -1747 0
10865 6134 0
-10866 -1819 6125 0
10866 1819 0
10866 -6125 0
-10867 1819 -6125 0
10867 -1819 0
10867 6125 0
-10868 -1371 6130 0
10868 1371 0
10868 -6130 0
-10869 1371 -6130 0
10869 -1371 0
10869 6130 0
-10870 -1573 6127 0
10870 1573 0
10870 -6127 0
-10871 1573 -6127 0
10871 -1573 0
10871 6127 0
-10872 -1509 6136 0
10872 1509 0
10872 -6136 0
-10873 1509 -6136 0
10873 -1509 0
10873 6136 0
-10874 -2035 4964 0
10874 2035 0
10874 -4964 0
-10875 2035 -4964 0
10875 -2035 0
10875 4964 0
-10876 -249 250 0
10876 249 0
10876 -250 0
-10877 249 -250 0
10877 -249 0
10877 250 0
-10878 -1503 6212 0
10878 1503 0
10878 -6212 0
-10879 1503 -6212 0
10879 -1503 0
10879 6212 0
-10880 -1225 6211 0
10880 1225 0
10880 -6211 0
-10881 1225 -6211 0
10881 -1225 0
10881 6211 0
-10882 -1365 6208 0
10882 1365 0
10882 -6208 0
-10883 1365 -6208 0
10883 -1365 0
10883 6208 0
-10884 -1929 6035 0
10884 1929 0
10884 -6035 0
-10885 1929 -6035 0
10885 -1929 0
10885 6035 0
-10886 -1935 6036 0
10886 1935 0
10886 -6036 0
-10887 1935 -6036 0
10887 -1935 0
10887 6036 0
-10888 -1883 6033 0
10888 1883 0
10888 -6033 0
-10889 1883 -6033 0
10889 -1883 0
10889 6033 0
-10890 -1959 6037 0
10890 1959 0
10890 -6037 0
-10891 1959 -6037 0
10891 -1959 0
10891 6037 0
-10892 -1967 6038 0
10892 1967 0
10892 -6038 0
-10893 1967 -6038 0
10893 -1967 0
10893 6038 0
-10894 -1905 6034 0
10894 1905 0
10894 -6034 0
-10895 1905 -6034 0
10895 -1905 0
10895 6034 0
-10896 -1845 6032 0
10896 1845 0
10896 -6032 0
-10897 1845 -6032 0
10897 -1845 0
10897 6032 0
-10898 -1975 6039 0
10898 1975 0
10898 -6039 0
-10899 1975 -6039 0
10899 -1975 0
10899 6039 0
-10900 -1983 6040 0
10900 1983 0
10900 -6040 0
-10901 1983 -6040 0
10901 -1983 0
10901 6040 0
-10902 -483 6167 0
10902 483 0
10902 -6167 0
-10903 483 -6167 0
10903 -483 0
10903 6167 0
-10904 -2065 5026 0
10904 2065 0
10904 -5026 0
-10905 2065 -5026 0
10905 -2065 0
10905 5026 0
-10906 -1241 6228 0
10906 1241 0
10906 -6228 0
-10907 1241 -6228 0
10907 -1241 0
10907 6228 0
-10908 -1381 6218 0
10908 1381 0
10908 -6218 0
-10909 1381 -6218 0
10909 -1381 0
10909 6218 0
-10910 -1519 6219 0
10910 1519 0
10910 -6219 0
-10911 1519 -6219 0
10911 -1519 0
10911 6219 0
-10912 -343 6146 0
10912 343 0
10912 -6146 0
-10913 343 -6146 0
10913 -343 0
10913 6146 0
-10914 -115 6150 0
10914 115 0
10914 -6150 0
-10915 115 -6150 0
10915 -115 0
10915 6150 0
-10916 -73 74 0
10916 73 0
10916 -74 0
-10917 73 -74 0
10917 -73 0
10917 74 0
-10918 -1599 6264 0
10918 1599 0
10918 -6264 0
-10919 1599 -6264 0
10919 -1599 0
10919 6264 0
-10920 -1689 6271 0
10920 1689 0
10920 -6271 0
-10921 1689 -6271 0
10921 -1689 0
10921 6271 0
-10922 -227 6265 0
10922 227 0
10922 -6265 0
-10923 227 -6265 0
10923 -227 0
10923 6265 0
-10924 -231 6266 0
10924 231 0
10924 -6266 0
-10925 231 -6266 0
10925 -231 0
10925 6266 0
-10926 -1133 6267 0
10926 1133 0
10926 -6267 0
-10927 1133 -6267 0
10927 -1133 0
10927 6267 0
-10928 -235 6268 0
10928 235 0
10928 -6268 0
-10929 235 -6268 0
10929 -235 0
10929 6268 0
-10930 -237 238 0
10930 237 0
10930 -238 0
-10931 237 -238 0
10931 -237 0
10931 238 0
-10932 -1029 6253 0
10932 1029 0
10932 -6253 0
-10933 1029 -6253 0
10933 -1029 0
10933 6253 0
-10934 -1031 1032 0
10934 1031 0
10934 -1032 0
-10935 1031 -1032 0
10935 -1031 0
10935 1032 0
-10936 -1411 6256 0
10936 1411 0
10936 -6256 0
-10937 1411 -6256 0
10937 -1411 0
10937 6256 0
-10938 -1041 6257 0
10938 1041 0
10938 -6257 0
-10939 1041 -6257 0
10939 -1041 0
10939 6257 0
-10940 -1043 6258 0
10940 1043 0
10940 -6258 0
-10941 1043 -6258 0
10941 -1043 0
10941 6258 0
-10942 -1045 1046 0
10942 1045 0
10942 -1046 0
-10943 1045 -1046 0
10943 -1045 0
10943 1046 0
-10944 -399 6259 0
10944 399 0
10944 -6259 0
-10945 399 -6259 0
10945 -399 0
10945 6259 0
-10946 -401 6260 0
10946 401 0
10946 -6260 0
-10947 401 -6260 0
10947 -401 0
10947 6260 0
-10948 -403 6261 0
10948 403 0
10948 -6261 0
-10949 403 -6261 0
10949 -403 0
10949 6261 0
-10950 -539 6273 0
10950 539 0
10950 -6273 0
-10951 539 -6273 0
10951 -539 0
10951 6273 0
-10952 -541 6274 0
10952 541 0
10952 -6274 0
-10953 541 -6274 0
10953 -541 0
10953 6274 0
-10954 -543 6275 0
10954 543 0
10954 -6275 0
-10955 543 -6275 0
10955 -543 0
10955 6275 0
-10956 -1761 6277 0
10956 1761 0
10956 -6277 0
-10957 1761 -6277 0
10957 -1761 0
10957 6277 0
-10958 -1273 6280 0
10958 1273 0
10958 -6280 0
-10959 1273 -6280 0
10959 -1273 0
10959 6280 0
-10960 -1555 6300 0
10960 1555 0
10960 -6300 0
-10961 1555 -6300 0
10961 -1555 0
10961 6300 0
-10962 -1305 6283 0
10962 1305 0
10962 -6283 0
-10963 1305 -6283 0
10963 -1305 0
10963 6283 0
-10964 -205 206 0
10964 205 0
10964 -206 0
-10965 205 -206 0
10965 -205 0
10965 206 0
-10966 -43 44 0
10966 43 0
10966 -44 0
-10967 43 -44 0
10967 -43 0
10967 44 0
-10968 -1023 6286 0
10968 1023 0
10968 -6286 0
-10969 1023 -6286 0
10969 -1023 0
10969 6286 0
-10970 -1025 6287 0
10970 1025 0
10970 -6287 0
-10971 1025 -6287 0
10971 -1025 0
10971 6287 0
-10972 -1397 6289 0
10972 1397 0
10972 -6289 0
-10973 1397 -6289 0
10973 -1397 0
10973 6289 0
-10974 -1033 6290 0
10974 1033 0
10974 -6290 0
-10975 1033 -6290 0
10975 -1033 0
10975 6290 0
-10976 -1035 6291 0
10976 1035 0
10976 -6291 0
-10977 1035 -6291 0
10977 -1035 0
10977 6291 0
-10978 -1037 6292 0
10978 1037 0
10978 -6292 0
-10979 1037 -6292 0
10979 -1037 0
10979 6292 0
-10980 -1039 1040 0
10980 1039 0
10980 -1040 0
-10981 1039 -1040 0
10981 -1039 0
10981 1040 0
-10982 -1165 6304 0
10982 1165 0
10982 -6304 0
-10983 1165 -6304 0
10983 -1165 0
10983 6304 0
-10984 -1683 4329 0
10984 1683 0
10984 -4329 0
-10985 1683 -4329 0
10985 -1683 0
10985 4329 0
-10986 -1443 6293 0
10986 1443 0
10986 -6293 0
-10987 1443 -6293 0
10987 -1443 0
10987 6293 0
-10988 -1703 6305 0
10988 1703 0
10988 -6305 0
-10989 1703 -6305 0
10989 -1703 0
10989 6305 0
-10990 -1257 6307 0
10990 1257 0
10990 -6307 0
-10991 1257 -6307 0
10991 -1257 0
10991 6307 0
-10992 -1775 6308 0
10992 1775 0
10992 -6308 0
-10993 1775 -6308 0
10993 -1775 0
10993 6308 0
-10994 -671 6294 0
10994 671 0
10994 -6294 0
-10995 671 -6294 0
10995 -671 0
10995 6294 0
-10996 -673 6299 0
10996 673 0
10996 -6299 0
-10997 673 -6299 0
10997 -673 0
10997 6299 0
-10998 -1535 6295 0
10998 1535 0
10998 -6295 0
-10999 1535 -6295 0
10999 -1535 0
10999 6295 0
-11000 -675 676 0
11000 675 0
11000 -676 0
-11001 675 -676 0
11001 -675 0
11001 676 0
-11002 -491 6323 0
11002 491 0
11002 -6323 0
-11003 491 -6323 0
11003 -491 0
11003 6323 0
-11004 -493 6324 0
11004 493 0
11004 -6324 0
-11005 493 -6324 0
11005 -493 0
11005 6324 0
-11006 -1549 6329 0
11006 1549 0
11006 -6329 0
-11007 1549 -6329 0
11007 -1549 0
11007 6329 0
-11008 -585 6333 0
11008 585 0
11008 -6333 0
-11009 585 -6333 0
11009 -585 0
11009 6333 0
-11010 -587 6334 0
11010 587 0
11010 -6334 0
-11011 587 -6334 0
11011 -587 0
11011 6334 0
-11012 -19 20 0
11012 19 0
11012 -20 0
-11013 19 -20 0
11013 -19 0
11013 20 0
-11014 -589 590 0
11014 589 0
11014 -590 0
-11015 589 -590 0
11015 -589 0
11015 590 0
-11016 -1315 6335 0
11016 1315 0
11016 -6335 0
-11017 1315 -6335 0
11017 -1315 0
11017 6335 0
-11018 -1175 6338 0
11018 1175 0
11018 -6338 0
-11019 1175 -6338 0
11019 -1175 0
11019 6338 0
-11020 -945 6339 0
11020 945 0
11020 -6339 0
-11021 945 -6339 0
11021 -945 0
11021 6339 0
-11022 -947 6340 0
11022 947 0
11022 -6340 0
-11023 947 -6340 0
11023 -947 0
11023 6340 0
-11024 -1453 6341 0
11024 1453 0
11024 -6341 0
-11025 1453 -6341 0
11025 -1453 0
11025 6341 0
-11026 -1709 6342 0
11026 1709 0
11026 -6342 0
-11027 1709 -6342 0
11027 -1709 0
11027 6342 0
-11028 -1781 6347 0
11028 1781 0
11028 -6347 0
-11029 1781 -6347 0
11029 -1781 0
11029 6347 0
-11030 -131 6349 0
11030 131 0
11030 -6349 0
-11031 131 -6349 0
11031 -131 0
11031 6349 0
-11032 -135 6350 0
11032 135 0
11032 -6350 0
-11033 135 -6350 0
11033 -135 0
11033 6350 0
-11034 -961 962 0
11034 961 0
11034 -962 0
-11035 961 -962 0
11035 -961 0
11035 962 0
-11036 -1357 6352 0
11036 1357 0
11036 -6352 0
-11037 1357 -6352 0
11037 -1357 0
11037 6352 0
-11038 -1495 6358 0
11038 1495 0
11038 -6358 0
-11039 1495 -6358 0
11039 -1495 0
11039 6358 0
-11040 -957 6356 0
11040 957 0
11040 -6356 0
-11041 957 -6356 0
11041 -957 0
11041 6356 0
-11042 -233 234 0
11042 233 0
11042 -234 0
-11043 233 -234 0
11043 -233 0
11043 234 0
-11044 -951 6353 0
11044 951 0
11044 -6353 0
-11045 951 -6353 0
11045 -951 0
11045 6353 0
-11046 -953 954 0
11046 953 0
11046 -954 0
-11047 953 -954 0
11047 -953 0
11047 954 0
-11048 -955 6354 0
11048 955 0
11048 -6354 0
-11049 955 -6354 0
11049 -955 0
11049 6354 0
-11050 -1217 6355 0
11050 1217 0
11050 -6355 0
-11051 1217 -6355 0
11051 -1217 0
11051 6355 0
-11052 -959 6357 0
11052 959 0
11052 -6357 0
-11053 959 -6357 0
11053 -959 0
11053 6357 0
-11054 -351 6359 0
11054 351 0
11054 -6359 0
-11055 351 -6359 0
11055 -351 0
11055 6359 0
-11056 -353 6360 0
11056 353 0
11056 -6360 0
-11057 353 -6360 0
11057 -353 0
11057 6360 0
-11058 -1867 6317 0
11058 1867 0
11058 -6317 0
-11059 1867 -6317 0
11059 -1867 0
11059 6317 0
-11060 -1027 6288 0
11060 1027 0
11060 -6288 0
-11061 1027 -6288 0
11061 -1027 0
11061 6288 0
-11062 -1933 6375 0
11062 1933 0
11062 -6375 0
-11063 1933 -6375 0
11063 -1933 0
11063 6375 0
-11064 -133 134 0
11064 133 0
11064 -134 0
-11065 133 -134 0
11065 -133 0
11065 134 0
-11066 -1467 6380 0
11066 1467 0
11066 -6380 0
-11067 1467 -6380 0
11067 -1467 0
11067 6380 0
-11068 -1189 6376 0
11068 1189 0
11068 -6376 0
-11069 1189 -6376 0
11069 -1189 0
11069 6376 0
-11070 -1963 6378 0
11070 1963 0
11070 -6378 0
-11071 1963 -6378 0
11071 -1963 0
11071 6378 0
-11072 -949 6343 0
11072 949 0
11072 -6343 0
-11073 949 -6343 0
11073 -949 0
11073 6343 0
-11074 -1329 6369 0
11074 1329 0
11074 -6369 0
-11075 1329 -6369 0
11075 -1329 0
11075 6369 0
-11076 -1979 6379 0
11076 1979 0
11076 -6379 0
-11077 1979 -6379 0
11077 -1979 0
11077 6379 0
-11078 -1925 6374 0
11078 1925 0
11078 -6374 0
-11079 1925 -6374 0
11079 -1925 0
11079 6374 0
-11080 -1297 6403 0
11080 1297 0
11080 -6403 0
-11081 1297 -6403 0
11081 -1297 0
11081 6403 0
-11082 -11083 6438 0
11082 11083 0
11082 -6438 0
-11084 11083 -6438 0
11084 -11083 0
11084 6438 0
-11085 -1829 6406 0
11085 1829 0
11085 -6406 0
-11086 1829 -6406 0
11086 -1829 0
11086 6406 0
-11087 -291 292 0
11087 291 0
11087 -292 0
-11088 291 -292 0
11088 -291 0
11088 292 0
-11089 -963 6439 0
11089 963 0
11089 -6439 0
-11090 963 -6439 0
11090 -963 0
11090 6439 0
-11091 -1281 6445 0
11091 1281 0
11091 -6445 0
-11092 1281 -6445 0
11092 -1281 0
11092 6445 0
-11093 -1259 6442 0
11093 1259 0
11093 -6442 0
-11094 1259 -6442 0
11094 -1259 0
11094 6442 0
-11095 -569 6444 0
11095 569 0
11095 -6444 0
-11096 569 -6444 0
11096 -569 0
11096 6444 0
-11097 -965 6440 0
11097 965 0
11097 -6440 0
-11098 965 -6440 0
11098 -965 0
11098 6440 0
-11099 -967 968 0
11099 967 0
11099 -968 0
-11100 967 -968 0
11100 -967 0
11100 968 0
-11101 -229 230 0
11101 229 0
11101 -230 0
-11102 229 -230 0
11102 -229 0
11102 230 0
-11103 -1141 6434 0
11103 1141 0
11103 -6434 0
-11104 1141 -6434 0
11104 -1141 0
11104 6434 0
-11105 -1399 6412 0
11105 1399 0
11105 -6412 0
-11106 1399 -6412 0
11106 -1399 0
11106 6412 0
-11107 -1657 6435 0
11107 1657 0
11107 -6435 0
-11108 1657 -6435 0
11108 -1657 0
11108 6435 0
-11109 -289 290 0
11109 289 0
11109 -290 0
-11110 289 -290 0
11110 -289 0
11110 290 0
-11111 -1157 6436 0
11111 1157 0
11111 -6436 0
-11112 1157 -6436 0
11112 -1157 0
11112 6436 0
-11113 -1931 6415 0
11113 1931 0
11113 -6415 0
-11114 1931 -6415 0
11114 -1931 0
11114 6415 0
-11115 -1419 6416 0
11115 1419 0
11115 -6416 0
-11116 1419 -6416 0
11116 -1419 0
11116 6416 0
-11117 -1757 6441 0
11117 1757 0
11117 -6441 0
-11118 1757 -6441 0
11118 -1757 0
11118 6441 0
-11119 -1435 6417 0
11119 1435 0
11119 -6417 0
-11120 1435 -6417 0
11120 -1435 0
11120 6417 0
-11121 -287 6437 0
11121 287 0
11121 -6437 0
-11122 287 -6437 0
11122 -287 0
11122 6437 0
-11123 -645 6418 0
11123 645 0
11123 -6418 0
-11124 645 -6418 0
11124 -645 0
11124 6418 0
-11125 -647 6419 0
11125 647 0
11125 -6419 0
-11126 647 -6419 0
11126 -647 0
11126 6419 0
-11127 -649 6420 0
11127 649 0
11127 -6420 0
-11128 649 -6420 0
11128 -649 0
11128 6420 0
-11129 -651 6421 0
11129 651 0
11129 -6421 0
-11130 651 -6421 0
11130 -651 0
11130 6421 0
-11131 -653 654 0
11131 653 0
11131 -654 0
-11132 653 -654 0
11132 -653 0
11132 654 0
-11133 -655 6422 0
11133 655 0
11133 -6422 0
-11134 655 -6422 0
11134 -655 0
11134 6422 0
-11135 -657 6423 0
11135 657 0
11135 -6423 0
-11136 657 -6423 0
11136 -657 0
11136 6423 0
-11137 -659 660 0
11137 659 0
11137 -660 0
-11138 659 -660 0
11138 -659 0
11138 660 0
-11139 -429 6408 0
11139 429 0
11139 -6408 0
-11140 429 -6408 0
11140 -429 0
11140 6408 0
-11141 -431 432 0
11141 431 0
11141 -432 0
-11142 431 -432 0
11142 -431 0
11142 432 0
-11143 -137 138 0
11143 137 0
11143 -138 0
-11144 137 -138 0
11144 -137 0
11144 138 0
-11145 -661 6424 0
11145 661 0
11145 -6424 0
-11146 661 -6424 0
11146 -661 0
11146 6424 0
-11147 -665 6425 0
11147 665 0
11147 -6425 0
-11148 665 -6425 0
11148 -665 0
11148 6425 0
-11149 -667 6426 0
11149 667 0
11149 -6426 0
-11150 667 -6426 0
11150 -667 0
11150 6426 0
-11151 -663 6427 0
11151 663 0
11151 -6427 0
-11152 663 -6427 0
11152 -663 0
11152 6427 0
-11153 -669 670 0
11153 669 0
11153 -670 0
-11154 669 -670 0
11154 -669 0
11154 670 0
-11155 -571 572 0
11155 571 0
11155 -572 0
-11156 571 -572 0
11156 -571 0
11156 572 0
-11157 -1537 6428 0
11157 1537 0
11157 -6428 0
-11158 1537 -6428 0
11158 -1537 0
11158 6428 0
-11159 -1809 6447 0
11159 1809 0
11159 -6447 0
-11160 1809 -6447 0
11160 -1809 0
11160 6447 0
-11161 -1299 6448 0
11161 1299 0
11161 -6448 0
-11162 1299 -6448 0
11162 -1299 0
11162 6448 0
-11163 -1553 6470 0
11163 1553 0
11163 -6470 0
-11164 1553 -6470 0
11164 -1553 0
11164 6470 0
-11165 -333 6451 0
11165 333 0
11165 -6451 0
-11166 333 -6451 0
11166 -333 0
11166 6451 0
-11167 -1565 6471 0
11167 1565 0
11167 -6471 0
-11168 1565 -6471 0
11168 -1565 0
11168 6471 0
-11169 -897 6474 0
11169 897 0
11169 -6474 0
-11170 897 -6474 0
11170 -897 0
11170 6474 0
-11171 -899 6475 0
11171 899 0
11171 -6475 0
-11172 899 -6475 0
11172 -899 0
11172 6475 0
-11173 -901 6476 0
11173 901 0
11173 -6476 0
-11174 901 -6476 0
11174 -901 0
11174 6476 0
-11175 -473 6477 0
11175 473 0
11175 -6477 0
-11176 473 -6477 0
11176 -473 0
11176 6477 0
-11177 -903 904 0
11177 903 0
11177 -904 0
-11178 903 -904 0
11178 -903 0
11178 904 0
-11179 -33 6453 0
11179 33 0
11179 -6453 0
-11180 33 -6453 0
11180 -33 0
11180 6453 0
-11181 -35 36 0
11181 35 0
11181 -36 0
-11182 35 -36 0
11182 -35 0
11182 36 0
-11183 -1665 4326 0
11183 1665 0
11183 -4326 0
-11184 1665 -4326 0
11184 -1665 0
11184 4326 0
-11185 -1159 6480 0
11185 1159 0
11185 -6480 0
-11186 1159 -6480 0
11186 -1159 0
11186 6480 0
-11187 -95 6458 0
11187 95 0
11187 -6458 0
-11188 95 -6458 0
11188 -95 0
11188 6458 0
-11189 -1437 6459 0
11189 1437 0
11189 -6459 0
-11190 1437 -6459 0
11190 -1437 0
11190 6459 0
-11191 -1699 6481 0
11191 1699 0
11191 -6481 0
-11192 1699 -6481 0
11192 -1699 0
11192 6481 0
-11193 -639 6461 0
11193 639 0
11193 -6461 0
-11194 639 -6461 0
11194 -639 0
11194 6461 0
-11195 -641 6462 0
11195 641 0
11195 -6462 0
-11196 641 -6462 0
11196 -641 0
11196 6462 0
-11197 -643 644 0
11197 643 0
11197 -644 0
-11198 643 -644 0
11198 -643 0
11198 644 0
-11199 -1737 6482 0
11199 1737 0
11199 -6482 0
-11200 1737 -6482 0
11200 -1737 0
11200 6482 0
-11201 -301 6483 0
11201 301 0
11201 -6483 0
-11202 301 -6483 0
11202 -301 0
11202 6483 0
-11203 -1771 6485 0
11203 1771 0
11203 -6485 0
-11204 1771 -6485 0
11204 -1771 0
11204 6485 0
-11205 -441 6463 0
11205 441 0
11205 -6463 0
-11206 441 -6463 0
11206 -441 0
11206 6463 0
-11207 -1229 6505 0
11207 1229 0
11207 -6505 0
-11208 1229 -6505 0
11208 -1229 0
11208 6505 0
-11209 -1369 6498 0
11209 1369 0
11209 -6498 0
-11210 1369 -6498 0
11210 -1369 0
11210 6498 0
-11211 -1891 6500 0
11211 1891 0
11211 -6500 0
-11212 1891 -6500 0
11212 -1891 0
11212 6500 0
-11213 -1507 6506 0
11213 1507 0
11213 -6506 0
-11214 1507 -6506 0
11214 -1507 0
11214 6506 0
-11215 -101 102 0
11215 101 0
11215 -102 0
-11216 101 -102 0
11216 -101 0
11216 102 0
-11217 -1913 6503 0
11217 1913 0
11217 -6503 0
-11218 1913 -6503 0
11218 -1913 0
11218 6503 0
-11219 -1923 6504 0
11219 1923 0
11219 -6504 0
-11220 1923 -6504 0
11220 -1923 0
11220 6504 0
-11221 -1861 6497 0
11221 1861 0
11221 -6497 0
-11222 1861 -6497 0
11222 -1861 0
11222 6497 0
-11223 -1551 6512 0
11223 1551 0
11223 -6512 0
-11224 1551 -6512 0
11224 -1551 0
11224 6512 0
-11225 -691 6516 0
11225 691 0
11225 -6516 0
-11226 691 -6516 0
11226 -691 0
11226 6516 0
-11227 -693 6517 0
11227 693 0
11227 -6517 0
-11228 693 -6517 0
11228 -693 0
11228 6517 0
-11229 -695 6518 0
11229 695 0
11229 -6518 0
-11230 695 -6518 0
11230 -695 0
11230 6518 0
-11231 -31 32 0
11231 31 0
11231 -32 0
-11232 31 -32 0
11232 -31 0
11232 32 0
-11233 -1855 4615 0
11233 1855 0
11233 -4615 0
-11234 1855 -4615 0
11234 -1855 0
11234 4615 0
-11235 -697 698 0
11235 697 0
11235 -698 0
-11236 697 -698 0
11236 -697 0
11236 698 0
-11237 -1145 6521 0
11237 1145 0
11237 -6521 0
-11238 1145 -6521 0
11238 -1145 0
11238 6521 0
-11239 -1423 6522 0
11239 1423 0
11239 -6522 0
-11240 1423 -6522 0
11240 -1423 0
11240 6522 0
-11241 -633 6523 0
11241 633 0
11241 -6523 0
-11242 633 -6523 0
11242 -633 0
11242 6523 0
-11243 -635 6524 0
11243 635 0
11243 -6524 0
-11244 635 -6524 0
11244 -635 0
11244 6524 0
-11245 -637 638 0
11245 637 0
11245 -638 0
-11246 637 -638 0
11246 -637 0
11246 638 0
-11247 -1691 6525 0
11247 1691 0
11247 -6525 0
-11248 1691 -6525 0
11248 -1691 0
11248 6525 0
-11249 -1763 6526 0
11249 1763 0
11249 -6526 0
-11250 1763 -6526 0
11250 -1763 0
11250 6526 0
-11251 -1285 6528 0
11251 1285 0
11251 -6528 0
-11252 1285 -6528 0
11252 -1285 0
11252 6528 0
-11253 -1873 4635 0
11253 1873 0
11253 -4635 0
-11254 1873 -4635 0
11254 -1873 0
11254 4635 0
-11255 -1181 6400 0
11255 1181 0
11255 -6400 0
-11256 1181 -6400 0
11256 -1181 0
11256 6400 0
-11257 -1895 6391 0
11257 1895 0
11257 -6391 0
-11258 1895 -6391 0
11258 -1895 0
11258 6391 0
-11259 -1321 6387 0
11259 1321 0
11259 -6387 0
-11260 1321 -6387 0
11260 -1321 0
11260 6387 0
-11261 -1459 6394 0
11261 1459 0
11261 -6394 0
-11262 1459 -6394 0
11262 -1459 0
11262 6394 0
-11263 -157 158 0
11263 157 0
11263 -158 0
-11264 157 -158 0
11264 -157 0
11264 158 0
-11265 -1917 6393 0
11265 1917 0
11265 -6393 0
-11266 1917 -6393 0
11266 -1917 0
11266 6393 0
-11267 -1857 6389 0
11267 1857 0
11267 -6389 0
-11268 1857 -6389 0
11268 -1857 0
11268 6389 0
-11269 -29 6535 0
11269 29 0
11269 -6535 0
-11270 29 -6535 0
11270 -29 0
11270 6535 0
-11271 -299 6538 0
11271 299 0
11271 -6538 0
-11272 299 -6538 0
11272 -299 0
11272 6538 0
-11273 -439 6537 0
11273 439 0
11273 -6537 0
-11274 439 -6537 0
11274 -439 0
11274 6537 0
-11275 -2055 6239 0
11275 2055 0
11275 -6239 0
-11276 2055 -6239 0
11276 -2055 0
11276 6239 0
-11277 -1995 6234 0
11277 1995 0
11277 -6234 0
-11278 1995 -6234 0
11278 -1995 0
11278 6234 0
-11279 -2067 6243 0
11279 2067 0
11279 -6243 0
-11280 2067 -6243 0
11280 -2067 0
11280 6243 0
-11281 -2005 4904 0
11281 2005 0
11281 -4904 0
-11282 2005 -4904 0
11282 -2005 0
11282 4904 0
-11283 -2071 6245 0
11283 2071 0
11283 -6245 0
-11284 2071 -6245 0
11284 -2071 0
11284 6245 0
-11285 -2073 6246 0
11285 2073 0
11285 -6246 0
-11286 2073 -6246 0
11286 -2073 0
11286 6246 0
-11287 -1239 6249 0
11287 1239 0
11287 -6249 0
-11288 1239 -6249 0
11288 -1239 0
11288 6249 0
-11289 -2013 6235 0
11289 2013 0
11289 -6235 0
-11290 2013 -6235 0
11290 -2013 0
11290 6235 0
-11291 -2077 6247 0
11291 2077 0
11291 -6247 0
-11292 2077 -6247 0
11292 -2077 0
11292 6247 0
-11293 -1379 6233 0
11293 1379 0
11293 -6233 0
-11294 1379 -6233 0
11294 -1379 0
11294 6233 0
-11295 -2023 6236 0
11295 2023 0
11295 -6236 0
-11296 2023 -6236 0
11296 -2023 0
11296 6236 0
-11297 -339 5977 0
11297 339 0
11297 -5977 0
-11298 339 -5977 0
11298 -339 0
11298 5977 0
-11299 -1517 6237 0
11299 1517 0
11299 -6237 0
-11300 1517 -6237 0
11300 -1517 0
11300 6237 0
-11301 -107 5989 0
11301 107 0
11301 -5989 0
-11302 107 -5989 0
11302 -107 0
11302 5989 0
-11303 -2037 6238 0
11303 2037 0
11303 -6238 0
-11304 2037 -6238 0
11304 -2037 0
11304 6238 0
-11305 -161 162 0
11305 161 0
11305 -162 0
-11306 161 -162 0
11306 -161 0
11306 162 0
-11307 -479 6002 0
11307 479 0
11307 -6002 0
-11308 479 -6002 0
11308 -479 0
11308 6002 0
-11309 -1881 6546 0
11309 1881 0
11309 -6546 0
-11310 1881 -6546 0
11310 -1881 0
11310 6546 0
-11311 -1697 6555 0
11311 1697 0
11311 -6555 0
-11312 1697 -6555 0
11312 -1697 0
11312 6555 0
-11313 -303 6484 0
11313 303 0
11313 -6484 0
-11314 303 -6484 0
11314 -303 0
11314 6484 0
-11315 -1769 6557 0
11315 1769 0
11315 -6557 0
-11316 1769 -6557 0
11316 -1769 0
11316 6557 0
-11317 -1903 6547 0
11317 1903 0
11317 -6547 0
-11318 1903 -6547 0
11318 -1903 0
11318 6547 0
-11319 -1843 6544 0
11319 1843 0
11319 -6544 0
-11320 1843 -6544 0
11320 -1843 0
11320 6544 0
-11321 -1595 6553 0
11321 1595 0
11321 -6553 0
-11322 1595 -6553 0
11322 -1595 0
11322 6553 0
-11323 -443 6464 0
11323 443 0
11323 -6464 0
-11324 443 -6464 0
11324 -443 0
11324 6464 0
-11325 -37 6454 0
11325 37 0
11325 -6454 0
-11326 37 -6454 0
11326 -37 0
11326 6454 0
-11327 -2057 5813 0
11327 2057 0
11327 -5813 0
-11328 2057 -5813 0
11328 -2057 0
11328 5813 0
-11329 -2059 5814 0
11329 2059 0
11329 -5814 0
-11330 2059 -5814 0
11330 -2059 0
11330 5814 0
-11331 -1807 5795 0
11331 1807 0
11331 -5795 0
-11332 1807 -5795 0
11332 -1807 0
11332 5795 0
-11333 -2069 5818 0
11333 2069 0
11333 -5818 0
-11334 2069 -5818 0
11334 -2069 0
11334 5818 0
-11335 -2075 5819 0
11335 2075 0
11335 -5819 0
-11336 2075 -5819 0
11336 -2075 0
11336 5819 0
-11337 -1313 5799 0
11337 1313 0
11337 -5799 0
-11338 1313 -5799 0
11338 -1313 0
11338 5799 0
-11339 -1837 5800 0
11339 1837 0
11339 -5800 0
-11340 1837 -5800 0
11340 -1837 0
11340 5800 0
-11341 -1581 5821 0
11341 1581 0
11341 -5821 0
-11342 1581 -5821 0
11342 -1581 0
11342 5821 0
-11343 -1585 5822 0
11343 1585 0
11343 -5822 0
-11344 1585 -5822 0
11344 -1585 0
11344 5822 0
-11345 -1887 5801 0
11345 1887 0
11345 -5801 0
-11346 1887 -5801 0
11346 -1887 0
11346 5801 0
-11347 -1909 5802 0
11347 1909 0
11347 -5802 0
-11348 1909 -5802 0
11348 -1909 0
11348 5802 0
-11349 -1921 5804 0
11349 1921 0
11349 -5804 0
-11350 1921 -5804 0
11350 -1921 0
11350 5804 0
-11351 -89 90 0
11351 89 0
11351 -90 0
-11352 89 -90 0
11352 -89 0
11352 90 0
-11353 -1173 5825 0
11353 1173 0
11353 -5825 0
-11354 1173 -5825 0
11354 -1173 0
11354 5825 0
-11355 -843 5410 0
11355 843 0
11355 -5410 0
-11356 843 -5410 0
11356 -843 0
11356 5410 0
-11357 -1451 5806 0
11357 1451 0
11357 -5806 0
-11358 1451 -5806 0
11358 -1451 0
11358 5806 0
-11359 -275 5203 0
11359 275 0
11359 -5203 0
-11360 275 -5203 0
11360 -275 0
11360 5203 0
-11361 -1707 5826 0
11361 1707 0
11361 -5826 0
-11362 1707 -5826 0
11362 -1707 0
11362 5826 0
-11363 -1715 5827 0
11363 1715 0
11363 -5827 0
-11364 1715 -5827 0
11364 -1715 0
11364 5827 0
-11365 -1735 5828 0
11365 1735 0
11365 -5828 0
-11366 1735 -5828 0
11366 -1735 0
11366 5828 0
-11367 -1997 5809 0
11367 1997 0
11367 -5809 0
-11368 1997 -5809 0
11368 -1997 0
11368 5809 0
-11369 -423 5207 0
11369 423 0
11369 -5207 0
-11370 423 -5207 0
11370 -423 0
11370 5207 0
-11371 -2009 5810 0
11371 2009 0
11371 -5810 0
-11372 2009 -5810 0
11372 -2009 0
11372 5810 0
-11373 -2019 5811 0
11373 2019 0
11373 -5811 0
-11374 2019 -5811 0
11374 -2019 0
11374 5811 0
-11375 -563 5211 0
11375 563 0
11375 -5211 0
-11376 563 -5211 0
11376 -563 0
11376 5211 0
-11377 -1779 5831 0
11377 1779 0
11377 -5831 0
-11378 1779 -5831 0
11378 -1779 0
11378 5831 0
-11379 -1787 5832 0
11379 1787 0
11379 -5832 0
-11380 1787 -5832 0
11380 -1787 0
11380 5832 0
-11381 -2061 6579 0
11381 2061 0
11381 -6579 0
-11382 2061 -6579 0
11382 -2061 0
11382 6579 0
-11383 -335 6452 0
11383 335 0
11383 -6452 0
-11384 335 -6452 0
11384 -335 0
11384 6452 0
-11385 -2085 6583 0
11385 2085 0
11385 -6583 0
-11386 2085 -6583 0
11386 -2085 0
11386 6583 0
-11387 -2089 6584 0
11387 2089 0
11387 -6584 0
-11388 2089 -6584 0
11388 -2089 0
11388 6584 0
-11389 -1849 6562 0
11389 1849 0
11389 -6562 0
-11390 1849 -6562 0
11390 -1849 0
11390 6562 0
-11391 -349 6092 0
11391 349 0
11391 -6092 0
-11392 349 -6092 0
11392 -349 0
11392 6092 0
-11393 -475 6478 0
11393 475 0
11393 -6478 0
-11394 475 -6478 0
11394 -475 0
11394 6478 0
-11395 -1345 6563 0
11395 1345 0
11395 -6563 0
-11396 1345 -6563 0
11396 -1345 0
11396 6563 0
-11397 -39 40 0
11397 39 0
11397 -40 0
-11398 39 -40 0
11398 -39 0
11398 40 0
-11399 -355 6361 0
11399 355 0
11399 -6361 0
-11400 355 -6361 0
11400 -355 0
11400 6361 0
-11401 -489 6108 0
11401 489 0
11401 -6108 0
-11402 489 -6108 0
11402 -489 0
11402 6108 0
-11403 -51 52 0
11403 51 0
11403 -52 0
-11404 51 -52 0
11404 -51 0
11404 52 0
-11405 -1885 6565 0
11405 1885 0
11405 -6565 0
-11406 1885 -6565 0
11406 -1885 0
11406 6565 0
-11407 -495 6325 0
11407 495 0
11407 -6325 0
-11408 495 -6325 0
11408 -495 0
11408 6325 0
-11409 -1131 6587 0
11409 1131 0
11409 -6587 0
-11410 1131 -6587 0
11410 -1131 0
11410 6587 0
-11411 -1907 6567 0
11411 1907 0
11411 -6567 0
-11412 1907 -6567 0
11412 -1907 0
11412 6567 0
-11413 -239 6269 0
11413 239 0
11413 -6269 0
-11414 239 -6269 0
11414 -239 0
11414 6269 0
-11415 -723 6013 0
11415 723 0
11415 -6013 0
-11416 723 -6013 0
11416 -723 0
11416 6013 0
-11417 -1409 6569 0
11417 1409 0
11417 -6569 0
-11418 1409 -6569 0
11418 -1409 0
11418 6569 0
-11419 -1941 4784 0
11419 1941 0
11419 -4784 0
-11420 1941 -4784 0
11420 -1941 0
11420 4784 0
-11421 -99 6460 0
11421 99 0
11421 -6460 0
-11422 99 -6460 0
11422 -99 0
11422 6460 0
-11423 -405 6262 0
11423 405 0
11423 -6262 0
-11424 405 -6262 0
11424 -405 0
11424 6262 0
-11425 -1205 6590 0
11425 1205 0
11425 -6590 0
-11426 1205 -6590 0
11426 -1205 0
11426 6590 0
-11427 -1213 6591 0
11427 1213 0
11427 -6591 0
-11428 1213 -6591 0
11428 -1213 0
11428 6591 0
-11429 -545 6276 0
11429 545 0
11429 -6276 0
-11430 545 -6276 0
11430 -545 0
11430 6276 0
-11431 -1483 6576 0
11431 1483 0
11431 -6576 0
-11432 1483 -6576 0
11432 -1483 0
11432 6576 0
-11433 -127 6097 0
11433 127 0
11433 -6097 0
-11434 127 -6097 0
11434 -127 0
11434 6097 0
-11435 -139 6351 0
11435 139 0
11435 -6351 0
-11436 139 -6351 0
11436 -139 0
11436 6351 0
-11437 -1271 6594 0
11437 1271 0
11437 -6594 0
-11438 1271 -6594 0
11438 -1271 0
11438 6594 0
-11439 -1803 6595 0
11439 1803 0
11439 -6595 0
-11440 1803 -6595 0
11440 -1803 0
11440 6595 0
-11441 -1805 6596 0
11441 1805 0
11441 -6596 0
-11442 1805 -6596 0
11442 -1805 0
11442 6596 0
-11443 -3 4 0
11443 3 0
11443 -4 0
-11444 3 -4 0
11444 -3 0
11444 4 0
-11445 -7 8 0
11445 7 0
11445 -8 0
-11446 7 -8 0
11446 -7 0
11446 8 0
-11447 -1813 6597 0
11447 1813 0
11447 -6597 0
-11448 1813 -6597 0
11448 -1813 0
11448 6597 0
-11449 -331 5240 0
11449 331 0
11449 -5240 0
-11450 331 -5240 0
11450 -331 0
11450 5240 0
-11451 -11 12 0
11451 11 0
11451 -12 0
-11452 11 -12 0
11452 -11 0
11452 12 0
-11453 -1827 6598 0
11453 1827 0
11453 -6598 0
-11454 1827 -6598 0
11454 -1827 0
11454 6598 0
-11455 -17 6336 0
11455 17 0
11455 -6336 0
-11456 17 -6336 0
11456 -17 0
11456 6336 0
-11457 -25 5670 0
11457 25 0
11457 -5670 0
-11458 25 -5670 0
11458 -25 0
11458 5670 0
-11459 -1865 6599 0
11459 1865 0
11459 -6599 0
-11460 1865 -6599 0
11460 -1865 0
11460 6599 0
-11461 -41 6545 0
11461 41 0
11461 -6545 0
-11462 41 -6545 0
11462 -41 0
11462 6545 0
-11463 -1877 6600 0
11463 1877 0
11463 -6600 0
-11464 1877 -6600 0
11464 -1877 0
11464 6600 0
-11465 -1373 6601 0
11465 1373 0
11465 -6601 0
-11466 1373 -6601 0
11466 -1373 0
11466 6601 0
-11467 -369 5944 0
11467 369 0
11467 -5944 0
-11468 369 -5944 0
11468 -369 0
11468 5944 0
-11469 -1899 6602 0
11469 1899 0
11469 -6602 0
-11470 1899 -6602 0
11470 -1899 0
11470 6602 0
-11471 -63 5128 0
11471 63 0
11471 -5128 0
-11472 63 -5128 0
11472 -63 0
11472 5128 0
-11473 -71 6061 0
11473 71 0
11473 -6061 0
-11474 71 -6061 0
11474 -71 0
11474 6061 0
-11475 -1405 6603 0
11475 1405 0
11475 -6603 0
-11476 1405 -6603 0
11476 -1405 0
11476 6603 0
-11477 -1939 6604 0
11477 1939 0
11477 -6604 0
-11478 1939 -6604 0
11478 -1939 0
11478 6604 0
-11479 -91 5249 0
11479 91 0
11479 -5249 0
-11480 91 -5249 0
11480 -91 0
11480 5249 0
-11481 -1949 6605 0
11481 1949 0
11481 -6605 0
-11482 1949 -6605 0
11482 -1949 0
11482 6605 0
-11483 -397 5576 0
11483 397 0
11483 -5576 0
-11484 397 -5576 0
11484 -397 0
11484 5576 0
-11485 -1955 6606 0
11485 1955 0
11485 -6606 0
-11486 1955 -6606 0
11486 -1955 0
11486 6606 0
-11487 -1965 6607 0
11487 1965 0
11487 -6607 0
-11488 1965 -6607 0
11488 -1965 0
11488 6607 0
-11489 -1971 6608 0
11489 1971 0
11489 -6608 0
-11490 1971 -6608 0
11490 -1971 0
11490 6608 0
-11491 -1981 6609 0
11491 1981 0
11491 -6609 0
-11492 1981 -6609 0
11492 -1981 0
11492 6609 0
-11493 -413 5881 0
11493 413 0
11493 -5881 0
-11494 413 -5881 0
11494 -413 0
11494 5881 0
-11495 -2001 6610 0
11495 2001 0
11495 -6610 0
-11496 2001 -6610 0
11496 -2001 0
11496 6610 0
-11497 -427 5606 0
11497 427 0
11497 -5606 0
-11498 427 -5606 0
11498 -427 0
11498 5606 0
-11499 -2011 6611 0
11499 2011 0
11499 -6611 0
-11500 2011 -6611 0
11500 -2011 0
11500 6611 0
-11501 -2021 6612 0
11501 2021 0
11501 -6612 0
-11502 2021 -6612 0
11502 -2021 0
11502 6612 0
-11503 -1511 6613 0
11503 1511 0
11503 -6613 0
-11504 1511 -6613 0
11504 -1511 0
11504 6613 0
-11505 -433 6345 0
11505 433 0
11505 -6345 0
-11506 433 -6345 0
11506 -433 0
11506 6345 0
-11507 -2029 6614 0
11507 2029 0
11507 -6614 0
-11508 2029 -6614 0
11508 -2029 0
11508 6614 0
-11509 -437 5694 0
11509 437 0
11509 -5694 0
-11510 437 -5694 0
11510 -437 0
11510 5694 0
-11511 -1083 5523 0
11511 1083 0
11511 -5523 0
-11512 1083 -5523 0
11512 -1083 0
11512 5523 0
-11513 -2045 6615 0
11513 2045 0
11513 -6615 0
-11514 2045 -6615 0
11514 -2045 0
11514 6615 0
-11515 -445 6548 0
11515 445 0
11515 -6548 0
-11516 445 -6548 0
11516 -445 0
11516 6548 0
-11517 -2051 6616 0
11517 2051 0
11517 -6616 0
-11518 2051 -6616 0
11518 -2051 0
11518 6616 0
-11519 -1541 6617 0
11519 1541 0
11519 -6617 0
-11520 1541 -6617 0
11520 -1541 0
11520 6617 0
-11521 -167 5959 0
11521 167 0
11521 -5959 0
-11522 167 -5959 0
11522 -167 0
11522 5959 0
-11523 -1543 6618 0
11523 1543 0
11523 -6618 0
-11524 1543 -6618 0
11524 -1543 0
11524 6618 0
-11525 -1545 6619 0
11525 1545 0
11525 -6619 0
-11526 1545 -6619 0
11526 -1545 0
11526 6619 0
-11527 -1547 6620 0
11527 1547 0
11527 -6620 0
-11528 1547 -6620 0
11528 -1547 0
11528 6620 0
-11529 -1557 6621 0
11529 1557 0
11529 -6621 0
-11530 1557 -6621 0
11530 -1557 0
11530 6621 0
-11531 -457 5121 0
11531 457 0
11531 -5121 0
-11532 457 -5121 0
11532 -457 0
11532 5121 0
-11533 -461 6076 0
11533 461 0
11533 -6076 0
-11534 461 -6076 0
11534 -461 0
11534 6076 0
-11535 -1571 6622 0
11535 1571 0
11535 -6622 0
-11536 1571 -6622 0
11536 -1571 0
11536 6622 0
-11537 -1575 6623 0
11537 1575 0
11537 -6623 0
-11538 1575 -6623 0
11538 -1575 0
11538 6623 0
-11539 -1577 6624 0
11539 1577 0
11539 -6624 0
-11540 1577 -6624 0
11540 -1577 0
11540 6624 0
-11541 -2091 5820 0
11541 2091 0
11541 -5820 0
-11542 2091 -5820 0
11542 -2091 0
11542 5820 0
-11543 -1587 6625 0
11543 1587 0
11543 -6625 0
-11544 1587 -6625 0
11544 -1587 0
11544 6625 0
-11545 -471 5261 0
11545 471 0
11545 -5261 0
-11546 471 -5261 0
11546 -471 0
11546 5261 0
-11547 -1589 6626 0
11547 1589 0
11547 -6626 0
-11548 1589 -6626 0
11548 -1589 0
11548 6626 0
-11549 -217 218 0
11549 217 0
11549 -218 0
-11550 217 -218 0
11550 -217 0
11550 218 0
-11551 -223 5588 0
11551 223 0
11551 -5588 0
-11552 223 -5588 0
11552 -223 0
11552 5588 0
-11553 -1123 6627 0
11553 1123 0
11553 -6627 0
-11554 1123 -6627 0
11554 -1123 0
11554 6627 0
-11555 -1127 6628 0
11555 1127 0
11555 -6628 0
-11556 1127 -6628 0
11556 -1127 0
11556 6628 0
-11557 -241 242 0
11557 241 0
11557 -242 0
-11558 241 -242 0
11558 -241 0
11558 242 0
-11559 -725 6589 0
11559 725 0
11559 -6589 0
-11560 725 -6589 0
11560 -725 0
11560 6589 0
-11561 -509 5969 0
11561 509 0
11561 -5969 0
-11562 509 -5969 0
11562 -509 0
11562 5969 0
-11563 -255 5899 0
11563 255 0
11563 -5899 0
-11564 255 -5899 0
11564 -255 0
11564 5899 0
-11565 -1705 6629 0
11565 1705 0
11565 -6629 0
-11566 1705 -6629 0
11566 -1705 0
11566 6629 0
-11567 -283 5619 0
11567 283 0
11567 -5619 0
-11568 283 -5619 0
11568 -283 0
11568 5619 0
-11569 -537 5594 0
11569 537 0
11569 -5594 0
-11570 537 -5594 0
11570 -537 0
11570 5594 0
-11571 -1731 6630 0
11571 1731 0
11571 -6630 0
-11572 1731 -6630 0
11572 -1731 0
11572 6630 0
-11573 -1733 6631 0
11573 1733 0
11573 -6631 0
-11574 1733 -6631 0
11574 -1733 0
11574 6631 0
-11575 -293 6344 0
11575 293 0
11575 -6344 0
-11576 293 -6344 0
11576 -293 0
11576 6344 0
-11577 -1741 6632 0
11577 1741 0
11577 -6632 0
-11578 1741 -6632 0
11578 -1741 0
11578 6632 0
-11579 -1233 6633 0
11579 1233 0
11579 -6633 0
-11580 1233 -6633 0
11580 -1233 0
11580 6633 0
-11581 -297 5703 0
11581 297 0
11581 -5703 0
-11582 297 -5703 0
11582 -297 0
11582 5703 0
-11583 -553 5906 0
11583 553 0
11583 -5906 0
-11584 553 -5906 0
11584 -553 0
11584 5906 0
-11585 -1755 6634 0
11585 1755 0
11585 -6634 0
-11586 1755 -6634 0
11586 -1755 0
11586 6634 0
-11587 -305 6556 0
11587 305 0
11587 -6556 0
-11588 305 -6556 0
11588 -305 0
11588 6556 0
-11589 -1263 6635 0
11589 1263 0
11589 -6635 0
-11590 1263 -6635 0
11590 -1263 0
11590 6635 0
-11591 -1777 6636 0
11591 1777 0
11591 -6636 0
-11592 1777 -6636 0
11592 -1777 0
11592 6636 0
-11593 -1267 6637 0
11593 1267 0
11593 -6637 0
-11594 1267 -6637 0
11594 -1267 0
11594 6637 0
-11595 -567 5626 0
11595 567 0
11595 -5626 0
-11596 567 -5626 0
11596 -567 0
11596 5626 0
-11597 -317 5134 0
11597 317 0
11597 -5134 0
-11598 317 -5134 0
11598 -317 0
11598 5134 0
-11599 -321 6047 0
11599 321 0
11599 -6047 0
-11600 321 -6047 0
11600 -321 0
11600 6047 0
-11601 -1 2 0
11601 1 0
11601 -2 0
-11602 1 -2 0
11602 -1 0
11602 2 0
6638 0
6639 0
6640 0
6641 0
6642 0
6643 0
6644 0
6645 0
6646 0
6647 0
6648 0
6649 0
6650 0
6651 0
6652 0
6653 0
6654 0
6655 0
6656 0
6657 0
6658 0
6659 0
6660 0
6661 0
6662 0
6663 0
6664 0
6665 0
6666 0
6667 0
6668 0
6669 0
6670 0
6671 0
6672 0
6673 0
6674 0
6675 0
6676 0
6677 0
6678 0
6679 0
6680 0
6681 0
6682 0
6683 0
6684 0
6685 0
6686 0
6687 0
6688 0
6689 0
6690 0
6691 0
6692 0
6693 0
6694 0
6695 0
6696 0
6697 0
6698 0
6699 0
6700 0
6701 0
6702 0
6703 0
6704 0
6705 0
6706 0
6707 0
6708 0
6709 0
6710 0
6711 0
6712 0
6713 0
6714 0
6715 0
6716 0
6717 0
6718 0
6719 0
6720 0
6721 0
6722 0
6723 0
6724 0
6725 0
6726 0
6727 0
6728 0
6729 0
6730 0
6731 0
6732 0
6733 0
6734 0
6735 0
6736 0
6737 0
6738 0
6739 0
6740 0
6741 0
6742 0
6743 0
6744 0
6745 0
6746 0
6747 0
6748 0
6749 0
6750 0
6751 0
6752 0
6753 0
6754 0
6755 0
6756 0
6757 0
6758 0
6759 0
6760 0
6761 0
6762 0
6763 0
6764 0
6765 0
6766 0
6767 0
6768 0
6769 0
6770 0
6771 0
6772 0
6773 0
6774 0
6775 0
6776 0
6777 0
6778 0
6779 0
6780 0
6781 0
6782 0
6783 0
6784 0
6785 0
6786 0
6787 0
6788 0
6789 0
6790 0
6791 0
6792 0
6793 0
6794 0
6795 0
6796 0
6797 0
6798 0
6799 0
6800 0
6801 0
6802 0
6803 0
6804 0
6805 0
6806 0
6807 0
6808 0
6809 0
6810 0
6811 0
6812 0
6813 0
6814 0
6815 0
6816 0
6817 0
6818 0
6819 0
6820 0
6821 0
6822 0
6823 0
6824 0
6825 0
6826 0
6827 0
6828 0
6829 0
6830 0
6831 0
6832 0
6833 0
6834 0
6835 0
6836 0
6837 0
6838 0
6839 0
6840 0
6841 0
6842 0
6843 0
6844 0
6845 0
6846 0
6847 0
6848 0
6849 0
6850 0
6851 0
6852 0
6853 0
6854 0
6855 0
6856 0
6857 0
6858 0
6859 0
6860 0
6861 0
6862 0
6863 0
6864 0
6865 0
6866 0
6867 0
6868 0
6869 0
6870 0
6871 0
6872 0
6873 0
6874 0
6875 0
6876 0
6877 0
6878 0
6879 0
6880 0
6881 0
6882 0
6883 0
6884 0
6885 0
6886 0
6887 0
6888 0
6889 0
6890 0
6891 0
6892 0
6893 0
6894 0
6895 0
6896 0
6897 0
6898 0
6899 0
6900 0
6901 0
6902 0
6903 0
6904 0
6905 0
6906 0
6907 0
6908 0
6909 0
6910 0
6911 0
6912 0
6913 0
6914 0
6915 0
6916 0
6917 0
6918 0
6919 0
6920 0
6921 0
6922 0
6923 0
6924 0
6925 0
6926 0
6927 0
6928 0
6929 0
6930 0
6931 0
6932 0
6933 0
6934 0
6935 0
6936 0
6937 0
6938 0
6939 0
6940 0
6941 0
6942 0
6943 0
6944 0
6945 0
6946 0
6947 0
6948 0
6949 0
6950 0
6951 0
6952 0
6953 0
6954 0
6955 0
6956 0
6957 0
6958 0
6959 0
6960 0
6961 0
6962 0
6963 0
6964 0
6965 0
6966 0
6967 0
6968 0
6969 0
6970 0
6971 0
6972 0
6973 0
6974 0
6975 0
6976 0
6977 0
6978 0
6979 0
6980 0
6981 0
6982 0
6983 0
6984 0
6985 0
6986 0
6987 0
6988 0
6989 0
6990 0
6991 0
6992 0
6993 0
6994 0
6995 0
6996 0
6997 0
6998 0
6999 0
7000 0
7001 0
7002 0
7003 0
7004 0
7005 0
7006 0
7007 0
7008 0
7009 0
7010 0
7011 0
7012 0
7013 0
7014 0
7015 0
7016 0
7017 0
7018 0
7019 0
7020 0
7021 0
7022 0
7023 0
7024 0
7025 0
7026 0
7027 0
7028 0
7029 0
7030 0
7031 0
7032 0
7033 0
7034 0
7035 0
7036 0
7037 0
7038 0
7039 0
7040 0
7041 0
7042 0
7043 0
7044 0
7045 0
7046 0
7047 0
7048 0
7049 0
7050 0
7051 0
7052 0
7053 0
7054 0
7055 0
7056 0
7057 0
7058 0
7059 0
7060 0
7061 0
7062 0
7063 0
7064 0
7065 0
7066 0
7067 0
7068 0
7069 0
7070 0
7071 0
7072 0
7073 0
7074 0
7075 0
7076 0
7077 0
7078 0
7079 0
7080 0
7081 0
7082 0
7083 0
7084 0
7085 0
7086 0
7087 0
7088 0
7089 0
7090 0
7091 0
7092 0
7093 0
7094 0
7095 0
7096 0
7097 0
7098 0
7099 0
7100 0
7101 0
7102 0
7103 0
7104 0
7105 0
7106 0
7107 0
7108 0
7109 0
7110 0
7111 0
7112 0
7113 0
7114 0
7115 0
7116 0
7117 0
7118 0
7119 0
7120 0
7121 0
7122 0
7123 0
7124 0
7125 0
7126 0
7127 0
7128 0
7129 0
7130 0
7131 0
7132 0
7133 0
7134 0
7135 0
7136 0
7137 0
7138 0
7139 0
7140 0
7141 0
7142 0
7143 0
7144 0
7145 0
7146 0
7147 0
7148 0
7149 0
7150 0
7151 0
7152 0
7153 0
7154 0
7155 0
7156 0
7157 0
7158 0
7159 0
7160 0
7161 0
7162 0
7163 0
7164 0
7165 0
7166 0
7167 0
7168 0
7169 0
7170 0
7171 0
7172 0
7173 0
7174 0
7175 0
7176 0
7177 0
7178 0
7179 0
7180 0
7181 0
7182 0
7183 0
7184 0
7185 0
7186 0
7187 0
7188 0
7189 0
7190 0
7191 0
7192 0
7193 0
7194 0
7195 0
7196 0
7197 0
7198 0
7199 0
7200 0
7201 0
7202 0
7203 0
7204 0
7205 0
7206 0
7207 0
7208 0
7209 0
7210 0
7211 0
7212 0
7213 0
7214 0
7215 0
7216 0
7217 0
7218 0
7219 0
7220 0
7221 0
7222 0
7223 0
7224 0
7225 0
7226 0
7227 0
7228 0
7229 0
7230 0
7231 0
7232 0
7233 0
7234 0
7235 0
7236 0
7237 0
7238 0
7239 0
7240 0
7241 0
7242 0
7243 0
7244 0
7245 0
7246 0
7247 0
7248 0
7249 0
7250 0
7251 0
7252 0
7253 0
7254 0
7255 0
7256 0
7257 0
7258 0
7259 0
7260 0
7261 0
7262 0
7263 0
7264 0
7265 0
7266 0
7267 0
7268 0
7269 0
7270 0
7271 0
7272 0
7273 0
7274 0
7275 0
7276 0
7277 0
7278 0
7279 0
7280 0
7281 0
7282 0
7283 0
7284 0
7285 0
7286 0
7287 0
7288 0
7289 0
7290 0
7291 0
7292 0
7293 0
7294 0
7295 0
7296 0
7297 0
7298 0
7299 0
7300 0
7301 0
7302 0
7303 0
7304 0
7305 0
7306 0
7307 0
7308 0
7309 0
7310 0
7311 0
7312 0
7313 0
7314 0
7315 0
7316 0
7317 0
7318 0
7319 0
7320 0
7321 0
7322 0
7323 0
7324 0
7325 0
7326 0
7327 0
7328 0
7329 0
7330 0
7331 0
7332 0
7333 0
7334 0
7335 0
7336 0
7337 0
7338 0
7339 0
7340 0
7341 0
7342 0
7343 0
7344 0
7345 0
7346 0
7347 0
7348 0
7349 0
7350 0
7351 0
7352 0
7353 0
7354 0
7355 0
7356 0
7357 0
7358 0
7359 0
7360 0
7361 0
7362 0
7363 0
7364 0
7365 0
7366 0
7367 0
7368 0
7369 0
7370 0
7371 0
7372 0
7373 0
7374 0
7375 0
7376 0
7377 0
7378 0
7379 0
7380 0
7381 0
7382 0
7383 0
7384 0
7385 0
7386 0
7387 0
7388 0
7389 0
7390 0
7391 0
7392 0
7393 0
7394 0
7395 0
7396 0
7397 0
7398 0
7399 0
7400 0
7401 0
7402 0
7403 0
7404 0
7405 0
7406 0
7407 0
7408 0
7409 0
7410 0
7411 0
7412 0
7413 0
7414 0
7415 0
7416 0
7417 0
7418 0
7419 0
7420 0
7421 0
7422 0
7423 0
7424 0
7425 0
7426 0
7427 0
7428 0
7429 0
7430 0
7431 0
7432 0
7433 0
7434 0
7435 0
7436 0
7437 0
7438 0
7439 0
7440 0
7441 0
7442 0
7443 0
7444 0
7445 0
7446 0
7447 0
7448 0
7449 0
7450 0
7451 0
7452 0
7453 0
7454 0
7455 0
7456 0
7457 0
7458 0
7459 0
7460 0
7461 0
7462 0
7463 0
7464 0
7465 0
7466 0
7467 0
7468 0
7469 0
7470 0
7471 0
7472 0
7473 0
7474 0
7475 0
7476 0
7477 0
7478 0
7479 0
7480 0
7481 0
7482 0
7483 0
7484 0
7485 0
7486 0
7487 0
7488 0
7489 0
7490 0
7491 0
7492 0
7493 0
7494 0
7495 0
7496 0
7497 0
7498 0
7499 0
7500 0
7501 0
7502 0
7503 0
7504 0
7505 0
7506 0
7507 0
7508 0
7509 0
7510 0
7511 0
7512 0
7513 0
7514 0
7515 0
7516 0
7517 0
7518 0
7519 0
7520 0
7521 0
7522 0
7523 0
7524 0
7525 0
7526 0
7527 0
7528 0
7529 0
7530 0
7531 0
7532 0
7533 0
7534 0
7535 0
7536 0
7537 0
7538 0
7539 0
7540 0
7541 0
7542 0
7543 0
7544 0
7545 0
7546 0
7547 0
7548 0
7549 0
7550 0
7551 0
7552 0
7553 0
7554 0
7555 0
7556 0
7557 0
7558 0
7559 0
7560 0
7561 0
7562 0
7563 0
7564 0
7565 0
7566 0
7567 0
7568 0
7569 0
7570 0
7571 0
7572 0
7573 0
7574 0
7575 0
7576 0
7577 0
7578 0
7579 0
7580 0
7581 0
7582 0
7583 0
7584 0
7585 0
7586 0
7587 0
7588 0
7589 0
7590 0
7591 0
7592 0
7593 0
7594 0
7595 0
7596 0
7597 0
7598 0
7599 0
7600 0
7601 0
7602 0
7603 0
7604 0
7605 0
7606 0
7607 0
7608 0
7609 0
7610 0
7611 0
7612 0
7613 0
7614 0
7615 0
7616 0
7617 0
7618 0
7619 0
7620 0
7621 0
7622 0
7623 0
7624 0
7625 0
7626 0
7627 0
7628 0
7629 0
7630 0
7631 0
7632 0
7633 0
7634 0
7635 0
7636 0
7637 0
7638 0
7639 0
7640 0
7641 0
7642 0
7643 0
7644 0
7645 0
7646 0
7647 0
7648 0
7649 0
7650 0
7651 0
7652 0
7653 0
7654 0
7655 0
7656 0
7657 0
7658 0
7659 0
7660 0
7661 0
7662 0
7663 0
7664 0
7665 0
7666 0
7667 0
7668 0
7669 0
7670 0
7671 0
7672 0
7673 0
7674 0
7675 0
7676 0
7677 0
7678 0
7679 0
7680 0
7681 0
7682 0
7683 0
7684 0
7685 0
7686 0
7687 0
7688 0
7689 0
7690 0
7691 0
7692 0
7693 0
7694 0
7695 0
7696 0
7697 0
7698 0
7699 0
7700 0
7701 0
7702 0
7703 0
7704 0
7705 0
7706 0
7707 0
7708 0
7709 0
7710 0
7711 0
7712 0
7713 0
7714 0
7715 0
7716 0
7717 0
7718 0
7719 0
7720 0
7721 0
7722 0
7723 0
7724 0
7725 0
7726 0
7727 0
7728 0
7729 0
7730 0
7731 0
7732 0
7733 0
7734 0
7735 0
7736 0
7737 0
7738 0
7739 0
7740 0
7741 0
7742 0
7743 0
7744 0
7745 0
7746 0
7747 0
7748 0
7749 0
7750 0
7751 0
7752 0
7753 0
7754 0
7755 0
7756 0
7757 0
7758 0
7759 0
7760 0
7761 0
7762 0
7763 0
7764 0
7765 0
7766 0
7767 0
7768 0
7769 0
7770 0
7771 0
7772 0
7773 0
7774 0
7775 0
7776 0
7777 0
7778 0
7779 0
7780 0
7781 0
7782 0
7783 0
7784 0
7785 0
7786 0
7787 0
7788 0
7789 0
7790 0
7791 0
7792 0
7793 0
7794 0
7795 0
7796 0
7797 0
7798 0
7799 0
7800 0
7801 0
7802 0
7803 0
7804 0
7805 0
7806 0
7807 0
7808 0
7809 0
7810 0
7811 0
7812 0
7813 0
7814 0
7815 0
7816 0
7817 0
7818 0
7819 0
7820 0
7821 0
7822 0
7823 0
7824 0
7825 0
7826 0
7827 0
7828 0
7829 0
7830 0
7831 0
7832 0
7833 0
7834 0
7835 0
7836 0
7837 0
7838 0
7839 0
7840 0
7841 0
7842 0
7843 0
7844 0
7845 0
7846 0
7847 0
7848 0
7849 0
7850 0
7851 0
7852 0
7853 0
7854 0
7855 0
7856 0
7857 0
7858 0
7859 0
7860 0
7861 0
7862 0
7863 0
7864 0
7865 0
7866 0
7867 0
7868 0
7869 0
7870 0
7871 0
7872 0
7873 0
7874 0
7875 0
7876 0
7877 0
7878 0
7879 0
7880 0
7881 0
7882 0
7883 0
7884 0
7885 0
7886 0
7887 0
7888 0
7889 0
7890 0
7891 0
7892 0
7893 0
7894 0
7895 0
7896 0
7897 0
7898 0
7899 0
7900 0
7901 0
7902 0
7903 0
7904 0
7905 0
7906 0
7907 0
7908 0
7909 0
7910 0
7911 0
7912 0
7913 0
7914 0
7915 0
7916 0
7917 0
7918 0
7919 0
7920 0
7921 0
7922 0
7923 0
7924 0
7925 0
7926 0
7927 0
7928 0
7929 0
7930 0
7931 0
7932 0
7933 0
7934 0
7935 0
7936 0
7937 0
7938 0
7939 0
7940 0
7941 0
7942 0
7943 0
7944 0
7945 0
7946 0
7947 0
7948 0
7949 0
7950 0
7951 0
7952 0
7953 0
7954 0
7955 0
7956 0
7957 0
7958 0
7959 0
7960 0
7961 0
7962 0
7963 0
7964 0
7965 0
7966 0
7967 0
7968 0
7969 0
7970 0
7971 0
7972 0
7973 0
7974 0
7975 0
7976 0
7977 0
7978 0
7979 0
7980 0
7981 0
7982 0
7983 0
7984 0
7985 0
7986 0
7987 0
7988 0
7989 0
7990 0
7991 0
7992 0
7993 0
7994 0
7995 0
7996 0
7997 0
7998 0
7999 0
8000 0
8001 0
8002 0
8003 0
8004 0
8005 0
8006 0
8007 0
8008 0
8009 0
8010 0
8011 0
8012 0
8013 0
8014 0
8015 0
8016 0
8017 0
8018 0
8019 0
8020 0
8021 0
8022 0
8023 0
8024 0
8025 0
8026 0
8027 0
8028 0
8029 0
8030 0
8031 0
8032 0
8033 0
8034 0
8035 0
8036 0
8037 0
8038 0
8039 0
8040 0
8041 0
8042 0
8043 0
8044 0
8045 0
8046 0
8047 0
8048 0
8049 0
8050 0
8051 0
8052 0
8053 0
8054 0
8055 0
8056 0
8057 0
8058 0
8059 0
8060 0
8061 0
8062 0
8063 0
8064 0
8065 0
8066 0
8067 0
8068 0
8069 0
8070 0
8071 0
8072 0
8073 0
8074 0
8075 0
8076 0
8077 0
8078 0
8079 0
8080 0
8081 0
8082 0
8083 0
8084 0
8085 0
8086 0
8087 0
8088 0
8089 0
8090 0
8091 0
8092 0
8093 0
8094 0
8095 0
8096 0
8097 0
8098 0
8099 0
8100 0
8101 0
8102 0
8103 0
8104 0
8105 0
8106 0
8107 0
8108 0
8109 0
8110 0
8111 0
8112 0
8113 0
8114 0
8115 0
8116 0
8117 0
8118 0
8119 0
8120 0
8121 0
8122 0
8123 0
8124 0
8125 0
8126 0
8127 0
8128 0
8129 0
8130 0
8131 0
8132 0
8133 0
8134 0
8135 0
8136 0
8137 0
8138 0
8139 0
8140 0
8141 0
8142 0
8143 0
8144 0
8145 0
8146 0
8147 0
8148 0
8149 0
8150 0
8151 0
8152 0
8153 0
8154 0
8155 0
8156 0
8157 0
8158 0
8159 0
8160 0
8161 0
8162 0
8163 0
8164 0
8165 0
8166 0
8167 0
8168 0
8169 0
8170 0
8171 0
8172 0
8173 0
8174 0
8175 0
8176 0
8177 0
8178 0
8179 0
8180 0
8181 0
8182 0
8183 0
8184 0
8185 0
8186 0
8187 0
8188 0
8189 0
8190 0
8191 0
8192 0
8193 0
8194 0
8195 0
8196 0
8197 0
8198 0
8199 0
8200 0
8201 0
8202 0
8203 0
8204 0
8205 0
8206 0
8207 0
8208 0
8209 0
8210 0
8211 0
8212 0
8213 0
8214 0
8215 0
8216 0
8217 0
8218 0
8219 0
8220 0
8221 0
8222 0
8223 0
8224 0
8225 0
8226 0
8227 0
8228 0
8229 0
8230 0
8231 0
8232 0
8233 0
8234 0
8235 0
8236 0
8237 0
8238 0
8239 0
8240 0
8241 0
8242 0
8243 0
8244 0
8245 0
8246 0
8247 0
8248 0
8249 0
8250 0
8251 0
8252 0
8253 0
8254 0
8255 0
8256 0
8257 0
8258 0
8259 0
8260 0
8261 0
8262 0
8263 0
8264 0
8265 0
8266 0
8267 0
8268 0
8269 0
8270 0
8271 0
8272 0
8273 0
8274 0
8275 0
8276 0
8277 0
8278 0
8279 0
8280 0
8281 0
8282 0
8283 0
8284 0
8285 0
8286 0
8287 0
8288 0
8289 0
8290 0
8291 0
8292 0
8293 0
8294 0
8295 0
8296 0
8297 0
8298 0
8299 0
8300 0
8301 0
8302 0
8303 0
8304 0
8305 0
8306 0
8307 0
8308 0
8309 0
8310 0
8311 0
8312 0
8313 0
8314 0
8315 0
8316 0
8317 0
8318 0
8319 0
8320 0
8321 0
8322 0
8323 0
8324 0
8325 0
8326 0
8327 0
8328 0
8329 0
8330 0
8331 0
8332 0
8333 0
8334 0
8335 0
8336 0
8337 0
8338 0
8339 0
8340 0
8341 0
8342 0
8343 0
8344 0
8345 0
8346 0
8347 0
8348 0
8349 0
8350 0
8351 0
8352 0
8353 0
8354 0
8355 0
8356 0
8357 0
8358 0
8359 0
8360 0
8361 0
8362 0
8363 0
8364 0
8365 0
8366 0
8367 0
8368 0
8369 0
8370 0
8371 0
8372 0
8373 0
8374 0
8375 0
8376 0
8377 0
8378 0
8379 0
8380 0
8381 0
8382 0
8383 0
8384 0
8385 0
8386 0
8387 0
8388 0
8389 0
8390 0
8391 0
8392 0
8393 0
8394 0
8395 0
8396 0
8397 0
8398 0
8399 0
8400 0
8401 0
8402 0
8403 0
8404 0
8405 0
8406 0
8407 0
8408 0
8409 0
8410 0
8411 0
8412 0
8413 0
8414 0
8415 0
8416 0
8417 0
8418 0
8419 0
8420 0
8421 0
8422 0
8423 0
8424 0
8425 0
8426 0
8427 0
8428 0
8429 0
8430 0
8431 0
8432 0
8433 0
8434 0
8435 0
8436 0
8437 0
8438 0
8439 0
8440 0
8441 0
8442 0
8443 0
8444 0
8445 0
8446 0
8447 0
8448 0
8449 0
8450 0
8451 0
8452 0
8453 0
8454 0
8455 0
8456 0
8457 0
8458 0
8459 0
8460 0
8461 0
8462 0
8463 0
8464 0
8465 0
8466 0
8467 0
8468 0
8469 0
8470 0
8471 0
8472 0
8473 0
8474 0
8475 0
8476 0
8477 0
8478 0
8479 0
8480 0
8481 0
8482 0
8483 0
8484 0
8485 0
8486 0
8487 0
8488 0
8489 0
8490 0
8491 0
8492 0
8493 0
8494 0
8495 0
8496 0
8497 0
8498 0
8499 0
8500 0
8501 0
8502 0
8503 0
8504 0
8505 0
8506 0
8507 0
8508 0
8509 0
8510 0
8511 0
8512 0
8513 0
8514 0
8515 0
8516 0
8517 0
8518 0
8519 0
8520 0
8521 0
8522 0
8523 0
8524 0
8525 0
8526 0
8527 0
8528 0
8529 0
8530 0
8531 0
8532 0
8533 0
8534 0
8535 0
8536 0
8537 0
8538 0
8539 0
8540 0
8541 0
8542 0
8543 0
8544 0
8545 0
8546 0
8547 0
8548 0
8549 0
8550 0
8551 0
8552 0
8553 0
8554 0
8555 0
8556 0
8557 0
8558 0
8559 0
8560 0
8561 0
8562 0
8563 0
8564 0
8565 0
8566 0
8567 0
8568 0
8569 0
8570 0
8571 0
8572 0
8573 0
8574 0
8575 0
8576 0
8577 0
8578 0
8579 0
8580 0
8581 0
8582 0
8583 0
8584 0
8585 0
8586 0
8587 0
8588 0
8589 0
8590 0
8591 0
8592 0
8593 0
8594 0
8595 0
8596 0
8597 0
8598 0
8599 0
8600 0
8601 0
8602 0
8603 0
8604 0
8605 0
8606 0
8607 0
8608 0
8609 0
8610 0
8611 0
8612 0
8613 0
8614 0
8615 0
8616 0
8617 0
8618 0
8619 0
8620 0
8621 0
8622 0
8623 0
8624 0
8625 0
8626 0
8627 0
8628 0
8629 0
8630 0
8631 0
8632 0
8633 0
8634 0
8635 0
8636 0
8637 0
8638 0
8639 0
8640 0
8641 0
8642 0
8643 0
8644 0
8645 0
8646 0
8647 0
8648 0
8649 0
8650 0
8651 0
8652 0
8653 0
8654 0
8655 0
8656 0
8657 0
8658 0
8659 0
8660 0
8661 0
8662 0
8663 0
8664 0
8665 0
8666 0
8667 0
8668 0
8669 0
8670 0
8671 0
8672 0
8673 0
8674 0
8675 0
8676 0
8677 0
8678 0
8679 0
8680 0
8681 0
8682 0
8683 0
8684 0
8685 0
8686 0
8687 0
8688 0
8689 0
8690 0
8691 0
8692 0
8693 0
8694 0
8695 0
8696 0
8697 0
8698 0
8699 0
8700 0
8701 0
8702 0
8703 0
8704 0
8705 0
8706 0
8707 0
8708 0
8709 0
8710 0
8711 0
8712 0
8713 0
8714 0
8715 0
8716 0
8717 0
8718 0
8719 0
8720 0
8721 0
8722 0
8723 0
8724 0
8725 0
8726 0
8727 0
8728 0
8729 0
8730 0
8731 0
8732 0
8733 0
8734 0
8735 0
8736 0
8737 0
8738 0
8739 0
8740 0
8741 0
8742 0
8743 0
8744 0
8745 0
8746 0
8747 0
8748 0
8749 0
8750 0
8751 0
8752 0
8753 0
8754 0
8755 0
8756 0
8757 0
8758 0
8759 0
8760 0
8761 0
8762 0
8763 0
8764 0
8765 0
8766 0
8767 0
8768 0
8769 0
8770 0
8771 0
8772 0
8773 0
8774 0
8775 0
8776 0
8777 0
8778 0
8779 0
8780 0
8781 0
8782 0
8783 0
8784 0
8785 0
8786 0
8787 0
8788 0
8789 0
8790 0
8791 0
8792 0
8793 0
8794 0
8795 0
8796 0
8797 0
8798 0
8799 0
8800 0
8801 0
8802 0
8803 0
8804 0
8805 0
8806 0
8807 0
8808 0
8809 0
8810 0
8811 0
8812 0
8813 0
8814 0
8815 0
8816 0
8817 0
8818 0
8819 0
8820 0
8821 0
8822 0
8823 0
8824 0
8825 0
8826 0
8827 0
8828 0
8829 0
8830 0
8831 0
8832 0
8833 0
8834 0
8835 0
8836 0
8837 0
8838 0
8839 0
8840 0
8841 0
8842 0
8843 0
8844 0
8845 0
8846 0
8847 0
8848 0
8849 0
8850 0
8851 0
8852 0
8853 0
8854 0
8855 0
8856 0
8857 0
8858 0
8859 0
8860 0
8861 0
8862 0
8863 0
8864 0
8865 0
8866 0
8867 0
8868 0
8869 0
8870 0
8871 0
8872 0
8873 0
8874 0
8875 0
8876 0
8877 0
8878 0
8879 0
8880 0
8881 0
8882 0
8883 0
8884 0
8885 0
8886 0
8887 0
8888 0
8889 0
8890 0
8891 0
8892 0
8893 0
8894 0
8895 0
8896 0
8897 0
8898 0
8899 0
8900 0
8901 0
8902 0
8903 0
8904 0
8905 0
8906 0
8907 0
8908 0
8909 0
8910 0
8911 0
8912 0
8913 0
8914 0
8915 0
8916 0
8917 0
8918 0
8919 0
8920 0
8921 0
8922 0
8923 0
8924 0
8925 0
8926 0
8927 0
8928 0
8929 0
8930 0
8931 0
8932 0
8933 0
8934 0
8935 0
8936 0
8937 0
8938 0
8939 0
8940 0
8941 0
8942 0
8943 0
8944 0
8945 0
8946 0
8947 0
8948 0
8949 0
8950 0
8951 0
8952 0
8953 0
8954 0
8955 0
8956 0
8957 0
8958 0
8959 0
8960 0
8961 0
8962 0
8963 0
8964 0
8965 0
8966 0
8967 0
8968 0
8969 0
8970 0
8971 0
8972 0
8973 0
8974 0
8975 0
8976 0
8977 0
8978 0
8979 0
8980 0
8981 0
8982 0
8983 0
8984 0
8985 0
8986 0
8987 0
8988 0
8989 0
8990 0
8991 0
8992 0
8993 0
8994 0
8995 0
8996 0
8997 0
8998 0
8999 0
9000 0
9001 0
9002 0
9003 0
9004 0
9005 0
9006 0
9007 0
9008 0
9009 0
9010 0
9011 0
9012 0
9013 0
9014 0
9015 0
9016 0
9017 0
9018 0
9019 0
9020 0
9021 0
9022 0
9023 0
9024 0
9025 0
9026 0
9027 0
9028 0
9029 0
9030 0
9031 0
9032 0
9033 0
9034 0
9035 0
9036 0
9037 0
9038 0
9039 0
9040 0
9041 0
9042 0
9043 0
9044 0
9045 0
9046 0
9047 0
9048 0
9049 0
9050 0
9051 0
9052 0
9053 0
9054 0
9055 0
9056 0
9057 0
9058 0
9059 0
9060 0
9061 0
9062 0
9063 0
9064 0
9065 0
9066 0
9067 0
9068 0
9069 0
9070 0
9071 0
9072 0
9073 0
9074 0
9075 0
9076 0
9077 0
9078 0
9079 0
9080 0
9081 0
9082 0
9083 0
9084 0
9085 0
9086 0
9087 0
9088 0
9089 0
9090 0
9091 0
9092 0
9093 0
9094 0
9095 0
9096 0
9097 0
9098 0
9099 0
9100 0
9101 0
9102 0
9103 0
9104 0
9105 0
9106 0
9107 0
9108 0
9109 0
9110 0
9111 0
9112 0
9113 0
9114 0
9115 0
9116 0
9117 0
9118 0
9119 0
9120 0
9121 0
9122 0
9123 0
9124 0
9125 0
9126 0
9127 0
9128 0
9129 0
9130 0
9131 0
9132 0
9133 0
9134 0
9135 0
9136 0
9137 0
9138 0
9139 0
9140 0
9141 0
9142 0
9143 0
9144 0
9145 0
9146 0
9147 0
9148 0
9149 0
9150 0
9151 0
9152 0
9153 0
9154 0
9155 0
9156 0
9157 0
9158 0
9159 0
9160 0
9161 0
9162 0
9163 0
9164 0
9165 0
9166 0
9167 0
9168 0
9169 0
9170 0
9171 0
9172 0
9173 0
9174 0
9175 0
9176 0
9177 0
9178 0
9179 0
9180 0
9181 0
9182 0
9183 0
9184 0
9185 0
9186 0
9187 0
9188 0
9189 0
9190 0
9191 0
9192 0
9193 0
9194 0
9195 0
9196 0
9197 0
9198 0
9199 0
9200 0
9201 0
9202 0
9203 0
9204 0
9205 0
9206 0
9207 0
9208 0
9209 0
9210 0
9211 0
9212 0
9213 0
9214 0
9215 0
9216 0
9217 0
9218 0
9219 0
9220 0
9221 0
9222 0
9223 0
9224 0
9225 0
9226 0
9227 0
9228 0
9229 0
9230 0
9231 0
9232 0
9233 0
9234 0
9235 0
9236 0
9237 0
9238 0
9239 0
9240 0
9241 0
9242 0
9243 0
9244 0
9245 0
9246 0
9247 0
9248 0
9249 0
9250 0
9251 0
9252 0
9253 0
9254 0
9255 0
9256 0
9257 0
9258 0
9259 0
9260 0
9261 0
9262 0
9263 0
9264 0
9265 0
9266 0
9267 0
9268 0
9269 0
9270 0
9271 0
9272 0
9273 0
9274 0
9275 0
9276 0
9277 0
9278 0
9279 0
9280 0
9281 0
9282 0
9283 0
9284 0
9285 0
9286 0
9287 0
9288 0
9289 0
9290 0
9291 0
9292 0
9293 0
9294 0
9295 0
9296 0
9297 0
9298 0
9299 0
9300 0
9301 0
9302 0
9303 0
9304 0
9305 0
9306 0
9307 0
9308 0
9309 0
9310 0
9311 0
9312 0
9313 0
9314 0
9315 0
9316 0
9317 0
9318 0
9319 0
9320 0
9321 0
9322 0
9323 0
9324 0
9325 0
9326 0
9327 0
9328 0
9329 0
9330 0
9331 0
9332 0
9333 0
9334 0
9335 0
9336 0
9337 0
9338 0
9339 0
9340 0
9341 0
9342 0
9343 0
9344 0
9345 0
9346 0
9347 0
9348 0
9349 0
9350 0
9351 0
9352 0
9353 0
9354 0
9355 0
9356 0
9357 0
9358 0
9359 0
9360 0
9361 0
9362 0
9363 0
9364 0
9365 0
9366 0
9367 0
9368 0
9369 0
9370 0
9371 0
9372 0
9373 0
9374 0
9375 0
9376 0
9377 0
9378 0
9379 0
9380 0
9381 0
9382 0
9383 0
9384 0
9385 0
9386 0
9387 0
9388 0
9389 0
9390 0
9391 0
9392 0
9393 0
9394 0
9395 0
9396 0
9397 0
9398 0
9399 0
9400 0
9401 0
9402 0
9403 0
9404 0
9405 0
9406 0
9407 0
9408 0
9409 0
9410 0
9411 0
9412 0
9413 0
9414 0
9415 0
9416 0
9417 0
9418 0
9419 0
9420 0
9421 0
9422 0
9423 0
9424 0
9425 0
9426 0
9427 0
9428 0
9429 0
9430 0
9431 0
9432 0
9433 0
9434 0
9435 0
9436 0
9437 0
9438 0
9439 0
9440 0
9441 0
9442 0
9443 0
9444 0
9445 0
9446 0
9447 0
9448 0
9449 0
9450 0
9451 0
9452 0
9453 0
9454 0
9455 0
9456 0
9457 0
9458 0
9459 0
9460 0
9461 0
9462 0
9463 0
9464 0
9465 0
9466 0
9467 0
9468 0
9469 0
9470 0
9471 0
9472 0
9473 0
9474 0
9475 0
9476 0
9477 0
9478 0
9479 0
9480 0
9481 0
9482 0
9483 0
9484 0
9485 0
9486 0
9487 0
9488 0
9489 0
9490 0
9491 0
9492 0
9493 0
9494 0
9495 0
9496 0
9497 0
9498 0
9499 0
9500 0
9501 0
9502 0
9503 0
9504 0
9505 0
9506 0
9507 0
9508 0
9509 0
9510 0
9511 0
9512 0
9513 0
9514 0
9515 0
9516 0
9517 0
9518 0
9519 0
9520 0
9521 0
9522 0
9523 0
9524 0
9525 0
9526 0
9527 0
9528 0
9529 0
9530 0
9531 0
9532 0
9533 0
9534 0
9535 0
9536 0
9537 0
9538 0
9539 0
9540 0
9541 0
9542 0
9543 0
9544 0
9545 0
9546 0
9547 0
9548 0
9549 0
9550 0
9551 0
9552 0
9553 0
9554 0
9555 0
9556 0
9557 0
9558 0
9559 0
9560 0
9561 0
9562 0
9563 0
9564 0
9565 0
9566 0
9567 0
9568 0
9569 0
9570 0
9571 0
9572 0
9573 0
9574 0
9575 0
9576 0
9577 0
9578 0
9579 0
9580 0
9581 0
9582 0
9583 0
9584 0
9585 0
9586 0
9587 0
9588 0
9589 0
9590 0
9591 0
9592 0
9593 0
9594 0
9595 0
9596 0
9597 0
9598 0
9599 0
9600 0
9601 0
9602 0
9603 0
9604 0
9605 0
9606 0
9607 0
9608 0
9609 0
9610 0
9611 0
9612 0
9613 0
9614 0
9615 0
9616 0
9617 0
9618 0
9619 0
9620 0
9621 0
9622 0
9623 0
9624 0
9625 0
9626 0
9627 0
9628 0
9629 0
9630 0
9631 0
9632 0
9633 0
9634 0
9635 0
9636 0
9637 0
9638 0
9639 0
9640 0
9641 0
9642 0
9643 0
9644 0
9645 0
9646 0
9647 0
9648 0
9649 0
9650 0
9651 0
9652 0
9653 0
9654 0
9655 0
9656 0
9657 0
9658 0
9659 0
9660 0
9661 0
9662 0
9663 0
9664 0
9665 0
9666 0
9667 0
9668 0
9669 0
9670 0
9671 0
9672 0
9673 0
9674 0
9675 0
9676 0
9677 0
9678 0
9679 0
9680 0
9681 0
9682 0
9683 0
9684 0
9685 0
9686 0
9687 0
9688 0
9689 0
9690 0
9691 0
9692 0
9693 0
9694 0
9695 0
9696 0
9697 0
9698 0
9699 0
9700 0
9701 0
9702 0
9703 0
9704 0
9705 0
9706 0
9707 0
9708 0
9709 0
9710 0
9711 0
9712 0
9713 0
9714 0
9715 0
9716 0
9717 0
9718 0
9719 0
9720 0
9721 0
9722 0
9723 0
9724 0
9725 0
9726 0
9727 0
9728 0
9729 0
9730 0
9731 0
9732 0
9733 0
9734 0
9735 0
9736 0
9737 0
9738 0
9739 0
9740 0
9741 0
9742 0
9743 0
9744 0
9745 0
9746 0
9747 0
9748 0
9749 0
9750 0
9751 0
9752 0
9753 0
9754 0
9755 0
9756 0
9757 0
9758 0
9759 0
9760 0
9761 0
9762 0
9763 0
9764 0
9765 0
9766 0
9767 0
9768 0
9769 0
9770 0
9771 0
9772 0
9773 0
9774 0
9775 0
9776 0
9777 0
9778 0
9779 0
9780 0
9781 0
9782 0
9783 0
9784 0
9785 0
9786 0
9787 0
9788 0
9789 0
9790 0
9791 0
9792 0
9793 0
9794 0
9795 0
9796 0
9797 0
9798 0
9799 0
9800 0
9801 0
9802 0
9803 0
9804 0
9805 0
9806 0
9807 0
9808 0
9809 0
9810 0
9811 0
9812 0
9813 0
9814 0
9815 0
9816 0
9817 0
9818 0
9819 0
9820 0
9821 0
9822 0
9823 0
9824 0
9825 0
9826 0
9827 0
9828 0
9829 0
9830 0
9831 0
9832 0
9833 0
9834 0
9835 0
9836 0
9837 0
9838 0
9839 0
9840 0
9841 0
9842 0
9843 0
9844 0
9845 0
9846 0
9847 0
9848 0
9849 0
9850 0
9851 0
9852 0
9853 0
9854 0
9855 0
9856 0
9857 0
9858 0
9859 0
9860 0
9861 0
9862 0
9863 0
9864 0
9865 0
9866 0
9867 0
9868 0
9869 0
9870 0
9871 0
9872 0
9873 0
9874 0
9875 0
9876 0
9877 0
9878 0
9879 0
9880 0
9881 0
9882 0
9883 0
9884 0
9885 0
9886 0
9887 0
9888 0
9889 0
9890 0
9891 0
9892 0
9893 0
9894 0
9895 0
9896 0
9897 0
9898 0
9899 0
9900 0
9901 0
9902 0
9903 0
9904 0
9905 0
9906 0
9907 0
9908 0
9909 0
9910 0
9911 0
9912 0
9913 0
9914 0
9915 0
9916 0
9917 0
9918 0
9919 0
9920 0
9921 0
9922 0
9923 0
9924 0
9925 0
9926 0
9927 0
9928 0
9929 0
9930 0
9931 0
9932 0
9933 0
9934 0
9935 0
9936 0
9937 0
9938 0
9939 0
9940 0
9941 0
9942 0
9943 0
9944 0
9945 0
9946 0
9947 0
9948 0
9949 0
9950 0
9951 0
9952 0
9953 0
9954 0
9955 0
9956 0
9957 0
9958 0
9959 0
9960 0
9961 0
9962 0
9963 0
9964 0
9965 0
9966 0
9967 0
9968 0
9969 0
9970 0
9971 0
9972 0
9973 0
9974 0
9975 0
9976 0
9977 0
9978 0
9979 0
9980 0
9981 0
9982 0
9983 0
9984 0
9985 0
9986 0
9987 0
9988 0
9989 0
9990 0
9991 0
9992 0
9993 0
9994 0
9995 0
9996 0
9997 0
9998 0
9999 0
10000 0
10001 0
10002 0
10003 0
10004 0
10005 0
10006 0
10007 0
10008 0
10009 0
10010 0
10011 0
10012 0
10013 0
10014 0
10015 0
10016 0
10017 0
10018 0
10019 0
10020 0
10021 0
10022 0
10023 0
10024 0
10025 0
10026 0
10027 0
10028 0
10029 0
10030 0
10031 0
10032 0
10033 0
10034 0
10035 0
10036 0
10037 0
10038 0
10039 0
10040 0
10041 0
10042 0
10043 0
10044 0
10045 0
10046 0
10047 0
10048 0
10049 0
10050 0
10051 0
10052 0
10053 0
10054 0
10055 0
10056 0
10057 0
10058 0
10059 0
10060 0
10061 0
10062 0
10063 0
10064 0
10065 0
10066 0
10067 0
10068 0
10069 0
10070 0
10071 0
10072 0
10073 0
10074 0
10075 0
10076 0
10077 0
10078 0
10079 0
10080 0
10081 0
10082 0
10083 0
10084 0
10085 0
10086 0
10087 0
10088 0
10089 0
10090 0
10091 0
10092 0
10093 0
10094 0
10095 0
10096 0
10097 0
10098 0
10099 0
10100 0
10101 0
10102 0
10103 0
10104 0
10105 0
10106 0
10107 0
10108 0
10109 0
10110 0
10111 0
10112 0
10113 0
10114 0
10115 0
10116 0
10117 0
10118 0
10119 0
10120 0
10121 0
10122 0
10123 0
10124 0
10125 0
10126 0
10127 0
10128 0
10129 0
10130 0
10131 0
10132 0
10133 0
10134 0
10135 0
10136 0
10137 0
10138 0
10139 0
10140 0
10141 0
10142 0
10143 0
10144 0
10145 0
10146 0
10147 0
10148 0
10149 0
10150 0
10151 0
10152 0
10153 0
10154 0
10155 0
10156 0
10157 0
10158 0
10159 0
10160 0
10161 0
10162 0
10163 0
10164 0
10165 0
10166 0
10167 0
10168 0
10169 0
10170 0
10171 0
10172 0
10173 0
10174 0
10175 0
10176 0
10177 0
10178 0
10179 0
10180 0
10181 0
10182 0
10183 0
10184 0
10185 0
10186 0
10187 0
10188 0
10189 0
10190 0
10191 0
10192 0
10193 0
10194 0
10195 0
10196 0
10197 0
10198 0
10199 0
10200 0
10201 0
10202 0
10203 0
10204 0
10205 0
10206 0
10207 0
10208 0
10209 0
10210 0
10211 0
10212 0
10213 0
10214 0
10215 0
10216 0
10217 0
10218 0
10219 0
10220 0
10221 0
10222 0
10223 0
10224 0
10225 0
10226 0
10227 0
10228 0
10229 0
10230 0
10231 0
10232 0
10233 0
10234 0
10235 0
10236 0
10237 0
10238 0
10239 0
10240 0
10241 0
10242 0
10243 0
10244 0
10245 0
10246 0
10247 0
10248 0
10249 0
10250 0
10251 0
10252 0
10253 0
10254 0
10255 0
10256 0
10257 0
10258 0
10259 0
10260 0
10261 0
10262 0
10263 0
10264 0
10265 0
10266 0
10267 0
10268 0
10269 0
10270 0
10271 0
10272 0
10273 0
10274 0
10275 0
10276 0
10277 0
10278 0
10279 0
10280 0
10281 0
10282 0
10283 0
10284 0
10285 0
10286 0
10287 0
10288 0
10289 0
10290 0
10291 0
10292 0
10293 0
10294 0
10295 0
10296 0
10297 0
10298 0
10299 0
10300 0
10301 0
10302 0
10303 0
10304 0
10305 0
10306 0
10307 0
10308 0
10309 0
10310 0
10311 0
10312 0
10313 0
10314 0
10315 0
10316 0
10317 0
10318 0
10319 0
10320 0
10321 0
10322 0
10323 0
10324 0
10325 0
10326 0
10327 0
10328 0
10329 0
10330 0
10331 0
10332 0
10333 0
10334 0
10335 0
10336 0
10337 0
10338 0
10339 0
10340 0
10341 0
10342 0
10343 0
10344 0
10345 0
10346 0
10347 0
10348 0
10349 0
10350 0
10351 0
10352 0
10353 0
10354 0
10355 0
10356 0
10357 0
10358 0
10359 0
10360 0
10361 0
10362 0
10363 0
10364 0
10365 0
10366 0
10367 0
10368 0
10369 0
10370 0
10371 0
10372 0
10373 0
10374 0
10375 0
10376 0
10377 0
10378 0
10379 0
10380 0
10381 0
10382 0
10383 0
10384 0
10385 0
10386 0
10387 0
10388 0
10389 0
10390 0
10391 0
10392 0
10393 0
10394 0
10395 0
10396 0
10397 0
10398 0
10399 0
10400 0
10401 0
10402 0
10403 0
10404 0
10405 0
10406 0
10407 0
10408 0
10409 0
10410 0
10411 0
10412 0
10413 0
10414 0
10415 0
10416 0
10417 0
10418 0
10419 0
10420 0
10421 0
10422 0
10423 0
10424 0
10425 0
10426 0
10427 0
10428 0
10429 0
10430 0
10431 0
10432 0
10433 0
10434 0
10435 0
10436 0
10437 0
10438 0
10439 0
10440 0
10441 0
10442 0
10443 0
10444 0
10445 0
10446 0
10447 0
10448 0
10449 0
10450 0
10451 0
10452 0
10453 0
10454 0
10455 0
10456 0
10457 0
10458 0
10459 0
10460 0
10461 0
10462 0
10463 0
10464 0
10465 0
10466 0
10467 0
10468 0
10469 0
10470 0
10471 0
10472 0
10473 0
10474 0
10475 0
10476 0
10477 0
10478 0
10479 0
10480 0
10481 0
10482 0
10483 0
10484 0
10485 0
10486 0
10487 0
10488 0
10489 0
10490 0
10491 0
10492 0
10493 0
10494 0
10495 0
10496 0
10497 0
10498 0
10499 0
10500 0
10501 0
10502 0
10503 0
10504 0
10505 0
10506 0
10507 0
10508 0
10509 0
10510 0
10511 0
10512 0
10513 0
10514 0
10515 0
10516 0
10517 0
10518 0
10519 0
10520 0
10521 0
10522 0
10523 0
10524 0
10525 0
10526 0
10527 0
10528 0
10529 0
10530 0
10531 0
10532 0
10533 0
10534 0
10535 0
10536 0
10537 0
10538 0
10539 0
10540 0
10541 0
10542 0
10543 0
10544 0
10545 0
10546 0
10547 0
10548 0
10549 0
10550 0
10551 0
10552 0
10553 0
10554 0
10555 0
10556 0
10557 0
10558 0
10559 0
10560 0
10561 0
10562 0
10563 0
10564 0
10565 0
10566 0
10567 0
10568 0
10569 0
10570 0
10571 0
10572 0
10573 0
10574 0
10575 0
10576 0
10577 0
10578 0
10579 0
10580 0
10581 0
10582 0
10583 0
10584 0
10585 0
10586 0
10587 0
10588 0
10589 0
10590 0
10591 0
10592 0
10593 0
10594 0
10595 0
10596 0
10597 0
10598 0
10599 0
10600 0
10601 0
10602 0
10603 0
10604 0
10605 0
10606 0
10607 0
10608 0
10609 0
10610 0
10611 0
10612 0
10613 0
10614 0
10615 0
10616 0
10617 0
10618 0
10619 0
10620 0
10621 0
10622 0
10623 0
10624 0
10625 0
10626 0
10627 0
10628 0
10629 0
10630 0
10631 0
10632 0
10633 0
10634 0
10635 0
10636 0
10637 0
10638 0
10639 0
10640 0
10641 0
10642 0
10643 0
10644 0
10645 0
10646 0
10647 0
10648 0
10649 0
10650 0
10651 0
10652 0
10653 0
10654 0
10655 0
10656 0
10657 0
10658 0
10659 0
10660 0
10661 0
10662 0
10663 0
10664 0
10665 0
10666 0
10667 0
10668 0
10669 0
10670 0
10671 0
10672 0
10673 0
10674 0
10675 0
10676 0
10677 0
10678 0
10679 0
10680 0
10681 0
10682 0
10683 0
10684 0
10685 0
10686 0
10687 0
10688 0
10689 0
10690 0
10691 0
10692 0
10693 0
10694 0
10695 0
10696 0
10697 0
10698 0
10699 0
10700 0
10701 0
10702 0
10703 0
10704 0
10705 0
10706 0
10707 0
10708 0
10709 0
10710 0
10711 0
10712 0
10713 0
10714 0
10715 0
10716 0
10717 0
10718 0
10719 0
10720 0
10721 0
10722 0
10723 0
10724 0
10725 0
10726 0
10727 0
10728 0
10729 0
10730 0
10731 0
10732 0
10733 0
10734 0
10735 0
10736 0
10737 0
10738 0
10739 0
10740 0
10741 0
10742 0
10743 0
10744 0
10745 0
10746 0
10747 0
10748 0
10749 0
10750 0
10751 0
10752 0
10753 0
10754 0
10755 0
10756 0
10757 0
10758 0
10759 0
10760 0
10761 0
10762 0
10763 0
10764 0
10765 0
10766 0
10767 0
10768 0
10769 0
10770 0
10771 0
10772 0
10773 0
10774 0
10775 0
10776 0
10777 0
10778 0
10779 0
10780 0
10781 0
10782 0
10783 0
10784 0
10785 0
10786 0
10787 0
10788 0
10789 0
10790 0
10791 0
10792 0
10793 0
10794 0
10795 0
10796 0
10797 0
10798 0
10799 0
10800 0
10801 0
10802 0
10803 0
10804 0
10805 0
10806 0
10807 0
10808 0
10809 0
10810 0
10811 0
10812 0
10813 0
10814 0
10815 0
10816 0
10817 0
10818 0
10819 0
10820 0
10821 0
10822 0
10823 0
10824 0
10825 0
10826 0
10827 0
10828 0
10829 0
10830 0
10831 0
10832 0
10833 0
10834 0
10835 0
10836 0
10837 0
10838 0
10839 0
10840 0
10841 0
10842 0
10843 0
10844 0
10845 0
10846 0
10847 0
10848 0
10849 0
10850 0
10851 0
10852 0
10853 0
10854 0
10855 0
10856 0
10857 0
10858 0
10859 0
10860 0
10861 0
10862 0
10863 0
10864 0
10865 0
10866 0
10867 0
10868 0
10869 0
10870 0
10871 0
10872 0
10873 0
10874 0
10875 0
10876 0
10877 0
10878 0
10879 0
10880 0
10881 0
10882 0
10883 0
10884 0
10885 0
10886 0
10887 0
10888 0
10889 0
10890 0
10891 0
10892 0
10893 0
10894 0
10895 0
10896 0
10897 0
10898 0
10899 0
10900 0
10901 0
10902 0
10903 0
10904 0
10905 0
10906 0
10907 0
10908 0
10909 0
10910 0
10911 0
10912 0
10913 0
10914 0
10915 0
10916 0
10917 0
10918 0
10919 0
10920 0
10921 0
10922 0
10923 0
10924 0
10925 0
10926 0
10927 0
10928 0
10929 0
10930 0
10931 0
10932 0
10933 0
10934 0
10935 0
10936 0
10937 0
10938 0
10939 0
10940 0
10941 0
10942 0
10943 0
10944 0
10945 0
10946 0
10947 0
10948 0
10949 0
10950 0
10951 0
10952 0
10953 0
10954 0
10955 0
10956 0
10957 0
10958 0
10959 0
10960 0
10961 0
10962 0
10963 0
10964 0
10965 0
10966 0
10967 0
10968 0
10969 0
10970 0
10971 0
10972 0
10973 0
10974 0
10975 0
10976 0
10977 0
10978 0
10979 0
10980 0
10981 0
10982 0
10983 0
10984 0
10985 0
10986 0
10987 0
10988 0
10989 0
10990 0
10991 0
10992 0
10993 0
10994 0
10995 0
10996 0
10997 0
10998 0
10999 0
11000 0
11001 0
11002 0
11003 0
11004 0
11005 0
11006 0
11007 0
11008 0
11009 0
11010 0
11011 0
11012 0
11013 0
11014 0
11015 0
11016 0
11017 0
11018 0
11019 0
11020 0
11021 0
11022 0
11023 0
11024 0
11025 0
11026 0
11027 0
11028 0
11029 0
11030 0
11031 0
11032 0
11033 0
11034 0
11035 0
11036 0
11037 0
11038 0
11039 0
11040 0
11041 0
11042 0
11043 0
11044 0
11045 0
11046 0
11047 0
11048 0
11049 0
11050 0
11051 0
11052 0
11053 0
11054 0
11055 0
11056 0
11057 0
11058 0
11059 0
11060 0
11061 0
11062 0
11063 0
11064 0
11065 0
11066 0
11067 0
11068 0
11069 0
11070 0
11071 0
11072 0
11073 0
11074 0
11075 0
11076 0
11077 0
11078 0
11079 0
11080 0
11081 0
11082 0
11084 0
11085 0
11086 0
11087 0
11088 0
11089 0
11090 0
11091 0
11092 0
11093 0
11094 0
11095 0
11096 0
11097 0
11098 0
11099 0
11100 0
11101 0
11102 0
11103 0
11104 0
11105 0
11106 0
11107 0
11108 0
11109 0
11110 0
11111 0
11112 0
11113 0
11114 0
11115 0
11116 0
11117 0
11118 0
11119 0
11120 0
11121 0
11122 0
11123 0
11124 0
11125 0
11126 0
11127 0
11128 0
11129 0
11130 0
11131 0
11132 0
11133 0
11134 0
11135 0
11136 0
11137 0
11138 0
11139 0
11140 0
11141 0
11142 0
11143 0
11144 0
11145 0
11146 0
11147 0
11148 0
11149 0
11150 0
11151 0
11152 0
11153 0
11154 0
11155 0
11156 0
11157 0
11158 0
11159 0
11160 0
11161 0
11162 0
11163 0
11164 0
11165 0
11166 0
11167 0
11168 0
11169 0
11170 0
11171 0
11172 0
11173 0
11174 0
11175 0
11176 0
11177 0
11178 0
11179 0
11180 0
11181 0
11182 0
11183 0
11184 0
11185 0
11186 0
11187 0
11188 0
11189 0
11190 0
11191 0
11192 0
11193 0
11194 0
11195 0
11196 0
11197 0
11198 0
11199 0
11200 0
11201 0
11202 0
11203 0
11204 0
11205 0
11206 0
11207 0
11208 0
11209 0
11210 0
11211 0
11212 0
11213 0
11214 0
11215 0
11216 0
11217 0
11218 0
11219 0
11220 0
11221 0
11222 0
11223 0
11224 0
11225 0
11226 0
11227 0
11228 0
11229 0
11230 0
11231 0
11232 0
11233 0
11234 0
11235 0
11236 0
11237 0
11238 0
11239 0
11240 0
11241 0
11242 0
11243 0
11244 0
11245 0
11246 0
11247 0
11248 0
11249 0
11250 0
11251 0
11252 0
11253 0
11254 0
11255 0
11256 0
11257 0
11258 0
11259 0
11260 0
11261 0
11262 0
11263 0
11264 0
11265 0
11266 0
11267 0
11268 0
11269 0
11270 0
11271 0
11272 0
11273 0
11274 0
11275 0
11276 0
11277 0
11278 0
11279 0
11280 0
11281 0
11282 0
11283 0
11284 0
11285 0
11286 0
11287 0
11288 0
11289 0
11290 0
11291 0
11292 0
11293 0
11294 0
11295 0
11296 0
11297 0
11298 0
11299 0
11300 0
11301 0
11302 0
11303 0
11304 0
11305 0
11306 0
11307 0
11308 0
11309 0
11310 0
11311 0
11312 0
11313 0
11314 0
11315 0
11316 0
11317 0
11318 0
11319 0
11320 0
11321 0
11322 0
11323 0
11324 0
11325 0
11326 0
11327 0
11328 0
11329 0
11330 0
11331 0
11332 0
11333 0
11334 0
11335 0
11336 0
11337 0
11338 0
11339 0
11340 0
11341 0
11342 0
11343 0
11344 0
11345 0
11346 0
11347 0
11348 0
11349 0
11350 0
11351 0
11352 0
11353 0
11354 0
11355 0
11356 0
11357 0
11358 0
11359 0
11360 0
11361 0
11362 0
11363 0
11364 0
11365 0
11366 0
11367 0
11368 0
11369 0
11370 0
11371 0
11372 0
11373 0
11374 0
11375 0
11376 0
11377 0
11378 0
11379 0
11380 0
11381 0
11382 0
11383 0
11384 0
11385 0
11386 0
11387 0
11388 0
11389 0
11390 0
11391 0
11392 0
11393 0
11394 0
11395 0
11396 0
11397 0
11398 0
11399 0
11400 0
11401 0
11402 0
11403 0
11404 0
11405 0
11406 0
11407 0
11408 0
11409 0
11410 0
11411 0
11412 0
11413 0
11414 0
11415 0
11416 0
11417 0
11418 0
11419 0
11420 0
11421 0
11422 0
11423 0
11424 0
11425 0
11426 0
11427 0
11428 0
11429 0
11430 0
11431 0
11432 0
11433 0
11434 0
11435 0
11436 0
11437 0
11438 0
11439 0
11440 0
11441 0
11442 0
11443 0
11444 0
11445 0
11446 0
11447 0
11448 0
11449 0
11450 0
11451 0
11452 0
11453 0
11454 0
11455 0
11456 0
11457 0
11458 0
11459 0
11460 0
11461 0
11462 0
11463 0
11464 0
11465 0
11466 0
11467 0
11468 0
11469 0
11470 0
11471 0
11472 0
11473 0
11474 0
11475 0
11476 0
11477 0
11478 0
11479 0
11480 0
11481 0
11482 0
11483 0
11484 0
11485 0
11486 0
11487 0
11488 0
11489 0
11490 0
11491 0
11492 0
11493 0
11494 0
11495 0
11496 0
11497 0
11498 0
11499 0
11500 0
11501 0
11502 0
11503 0
11504 0
11505 0
11506 0
11507 0
11508 0
11509 0
11510 0
11511 0
11512 0
11513 0
11514 0
11515 0
11516 0
11517 0
11518 0
11519 0
11520 0
11521 0
11522 0
11523 0
11524 0
11525 0
11526 0
11527 0
11528 0
11529 0
11530 0
11531 0
11532 0
11533 0
11534 0
11535 0
11536 0
11537 0
11538 0
11539 0
11540 0
11541 0
11542 0
11543 0
11544 0
11545 0
11546 0
11547 0
11548 0
11549 0
11550 0
11551 0
11552 0
11553 0
11554 0
11555 0
11556 0
11557 0
11558 0
11559 0
11560 0
11561 0
11562 0
11563 0
11564 0
11565 0
11566 0
11567 0
11568 0
11569 0
11570 0
11571 0
11572 0
11573 0
11574 0
11575 0
11576 0
11577 0
11578 0
11579 0
11580 0
11581 0
11582 0
11583 0
11584 0
11585 0
11586 0
11587 0
11588 0
11589 0
11590 0
11591 0
11592 0
11593 0
11594 0
11595 0
11596 0
11597 0
11598 0
11599 0
11600 0
11601 0
11602 0
2 0
-1669 0
-1677 0
-1651 0
-1653 0
-1607 0
-1603 0
-1619 0
-1625 0
-1633 0
-1661 0
-1667 0
-1645 0
-1617 0
-1671 0
-1679 0
-1687 0
-1641 0
-1675 0
-1635 0
-1597 0
-1615 0
-1623 0
-1609 0
-1685 0
-1611 0
-1601 0
