c BC-S1.2
p cnf 1019 3191
1 -2 0
-1 2 0
3 -4 0
-3 4 0
5 -6 0
-5 6 0
7 -8 0
-7 8 0
9 -10 0
-9 10 0
11 -12 0
-11 12 0
13 -14 0
-13 14 0
15 -16 0
-15 16 0
17 -18 0
-17 18 0
19 -20 0
-19 20 0
21 -22 0
-21 22 0
23 -24 0
-23 24 0
25 -26 0
-25 26 0
27 -28 0
-27 28 0
29 -30 0
-29 30 0
31 -32 0
-31 32 0
33 -34 0
-33 34 0
35 -36 0
-35 36 0
37 -38 0
-37 38 0
39 -40 0
-39 40 0
41 -42 0
-41 42 0
43 -44 0
-43 44 0
45 -46 0
-45 46 0
47 -48 0
-47 48 0
49 -50 0
-49 50 0
51 -52 0
-51 52 0
53 -54 0
-53 54 0
55 -56 0
-55 56 0
57 -58 0
-57 58 0
59 -60 0
-59 60 0
61 -62 0
-61 62 0
63 -64 0
-63 64 0
65 -66 0
-65 66 0
67 -68 0
-67 68 0
69 -70 0
-69 70 0
71 -72 0
-71 72 0
73 -74 0
-73 74 0
75 -76 0
-75 76 0
77 -78 0
-77 78 0
79 -80 0
-79 80 0
81 -82 0
-81 82 0
83 -84 0
-83 84 0
85 -86 0
-85 86 0
87 -88 0
-87 88 0
89 -90 0
-89 90 0
91 -92 0
-91 92 0
93 -94 0
-93 94 0
95 -96 0
-95 96 0
97 -98 0
-97 98 0
99 -100 0
-99 100 0
101 -102 0
-101 102 0
103 -104 0
-103 104 0
105 -106 0
-105 106 0
107 -108 0
-107 108 0
109 -110 0
-109 110 0
111 -112 0
-111 112 0
113 -114 0
-113 114 0
115 -116 0
-115 116 0
117 -118 0
-117 118 0
119 -120 0
-119 120 0
121 -122 0
-121 122 0
123 -124 0
-123 124 0
125 -126 0
-125 126 0
127 -128 0
-127 128 0
129 -130 0
-129 130 0
131 -132 0
-131 132 0
133 -134 0
-133 134 0
135 -136 0
-135 136 0
137 -138 0
-137 138 0
-139 140 141 142 143 144 0
139 -140 0
139 -141 0
139 -142 0
139 -143 0
139 -144 0
-145 146 147 0
145 -146 0
145 -147 0
-148 149 150 0
148 -149 0
148 -150 0
151 -152 0
-151 152 0
-153 154 155 0
153 -154 0
153 -155 0
-156 157 158 159 160 161 162 163 0
156 -157 0
156 -158 0
156 -159 0
156 -160 0
156 -161 0
156 -162 0
156 -163 0
-164 165 166 0
164 -165 0
164 -166 0
-167 168 169 0
167 -168 0
167 -169 0
-170 171 172 173 174 175 176 177 0
170 -171 0
170 -172 0
170 -173 0
170 -174 0
170 -175 0
170 -176 0
170 -177 0
-178 179 180 181 0
178 -179 0
178 -180 0
178 -181 0
-182 183 184 185 186 0
182 -183 0
182 -184 0
182 -185 0
182 -186 0
-187 188 189 190 191 192 193 0
187 -188 0
187 -189 0
187 -190 0
187 -191 0
187 -192 0
187 -193 0
-194 195 196 197 198 199 200 201 0
194 -195 0
194 -196 0
194 -197 0
194 -198 0
194 -199 0
194 -200 0
194 -201 0
-202 203 204 0
202 -203 0
202 -204 0
-205 206 207 0
205 -206 0
205 -207 0
-208 209 210 211 212 213 214 215 216 217 0
208 -209 0
208 -210 0
208 -211 0
208 -212 0
208 -213 0
208 -214 0
208 -215 0
208 -216 0
208 -217 0
-218 219 220 221 0
218 -219 0
218 -220 0
218 -221 0
-222 223 224 225 226 0
222 -223 0
222 -224 0
222 -225 0
222 -226 0
-227 228 229 230 231 232 233 234 235 0
227 -228 0
227 -229 0
227 -230 0
227 -231 0
227 -232 0
227 -233 0
227 -234 0
227 -235 0
-236 237 238 0
236 -237 0
236 -238 0
-239 240 241 0
239 -240 0
239 -241 0
-242 243 244 245 246 247 248 249 250 251 0
242 -243 0
242 -244 0
242 -245 0
242 -246 0
242 -247 0
242 -248 0
242 -249 0
242 -250 0
242 -251 0
-252 253 254 255 0
252 -253 0
252 -254 0
252 -255 0
-256 257 258 259 260 0
256 -257 0
256 -258 0
256 -259 0
256 -260 0
-261 262 263 264 265 266 267 268 269 0
261 -262 0
261 -263 0
261 -264 0
261 -265 0
261 -266 0
261 -267 0
261 -268 0
261 -269 0
-270 271 272 273 274 0
270 -271 0
270 -272 0
270 -273 0
270 -274 0
-275 276 277 0
275 -276 0
275 -277 0
-278 279 280 281 0
278 -279 0
278 -280 0
278 -281 0
-282 283 284 285 286 0
282 -283 0
282 -284 0
282 -285 0
282 -286 0
-287 288 289 0
287 -288 0
287 -289 0
-290 291 292 293 294 295 296 0
290 -291 0
290 -292 0
290 -293 0
290 -294 0
290 -295 0
290 -296 0
-297 298 299 300 301 0
297 -298 0
297 -299 0
297 -300 0
297 -301 0
-302 303 304 0
302 -303 0
302 -304 0
-305 306 307 308 309 310 311 0
305 -306 0
305 -307 0
305 -308 0
305 -309 0
305 -310 0
305 -311 0
-312 313 314 0
312 -313 0
312 -314 0
-315 316 317 318 319 320 321 0
315 -316 0
315 -317 0
315 -318 0
315 -319 0
315 -320 0
315 -321 0
-322 323 324 0
322 -323 0
322 -324 0
-325 326 327 0
325 -326 0
325 -327 0
-328 329 330 0
328 -329 0
328 -330 0
-331 332 333 0
331 -332 0
331 -333 0
-334 335 336 0
334 -335 0
334 -336 0
-337 338 339 0
337 -338 0
337 -339 0
-340 341 342 0
340 -341 0
340 -342 0
-343 344 345 0
343 -344 0
343 -345 0
-346 347 348 0
346 -347 0
346 -348 0
-349 350 351 0
349 -350 0
349 -351 0
-352 353 354 0
352 -353 0
352 -354 0
-355 356 357 0
355 -356 0
355 -357 0
358 -147 0
-358 147 0
359 -149 0
-359 149 0
-360 361 362 363 364 0
360 -361 0
360 -362 0
360 -363 0
360 -364 0
-365 366 367 368 0
365 -366 0
365 -367 0
365 -368 0
-369 370 371 372 373 0
369 -370 0
369 -371 0
369 -372 0
369 -373 0
-374 375 376 377 0
374 -375 0
374 -376 0
374 -377 0
-378 379 380 381 382 0
378 -379 0
378 -380 0
378 -381 0
378 -382 0
-383 384 385 386 0
383 -384 0
383 -385 0
383 -386 0
387 -324 0
-387 324 0
388 -326 0
-388 326 0
-389 390 391 392 0
389 -390 0
389 -391 0
389 -392 0
-393 394 395 0
393 -394 0
393 -395 0
-396 397 398 399 0
396 -397 0
396 -398 0
396 -399 0
-400 401 402 0
400 -401 0
400 -402 0
-403 404 405 406 0
403 -404 0
403 -405 0
403 -406 0
-407 408 409 0
407 -408 0
407 -409 0
-410 411 412 0
410 -411 0
410 -412 0
-413 414 415 416 0
413 -414 0
413 -415 0
413 -416 0
-417 418 419 420 0
417 -418 0
417 -419 0
417 -420 0
-421 422 423 424 0
421 -422 0
421 -423 0
421 -424 0
-425 426 427 428 429 0
425 -426 0
425 -427 0
425 -428 0
425 -429 0
-430 431 432 433 0
430 -431 0
430 -432 0
430 -433 0
-434 435 436 437 0
434 -435 0
434 -436 0
434 -437 0
-438 439 440 441 0
438 -439 0
438 -440 0
438 -441 0
-442 443 444 0
442 -443 0
442 -444 0
-445 446 447 448 0
445 -446 0
445 -447 0
445 -448 0
-449 450 451 452 453 454 0
449 -450 0
449 -451 0
449 -452 0
449 -453 0
449 -454 0
-455 456 457 458 459 460 0
455 -456 0
455 -457 0
455 -458 0
455 -459 0
455 -460 0
-461 462 463 464 465 466 0
461 -462 0
461 -463 0
461 -464 0
461 -465 0
461 -466 0
-467 468 469 470 471 472 0
467 -468 0
467 -469 0
467 -470 0
467 -471 0
467 -472 0
2 -1 0
-2 1 0
4 -3 0
-4 3 0
6 -5 0
-6 5 0
8 -7 0
-8 7 0
10 -9 0
-10 9 0
12 -11 0
-12 11 0
14 -13 0
-14 13 0
16 -15 0
-16 15 0
18 -17 0
-18 17 0
20 -19 0
-20 19 0
22 -21 0
-22 21 0
24 -23 0
-24 23 0
26 -25 0
-26 25 0
28 -27 0
-28 27 0
30 -29 0
-30 29 0
32 -31 0
-32 31 0
34 -33 0
-34 33 0
36 -35 0
-36 35 0
38 -37 0
-38 37 0
40 -39 0
-40 39 0
42 -41 0
-42 41 0
44 -43 0
-44 43 0
46 -45 0
-46 45 0
48 -47 0
-48 47 0
50 -49 0
-50 49 0
52 -51 0
-52 51 0
54 -53 0
-54 53 0
56 -55 0
-56 55 0
58 -57 0
-58 57 0
60 -59 0
-60 59 0
62 -61 0
-62 61 0
64 -63 0
-64 63 0
66 -65 0
-66 65 0
68 -67 0
-68 67 0
70 -69 0
-70 69 0
72 -71 0
-72 71 0
74 -73 0
-74 73 0
76 -75 0
-76 75 0
78 -77 0
-78 77 0
80 -79 0
-80 79 0
82 -81 0
-82 81 0
84 -83 0
-84 83 0
86 -85 0
-86 85 0
88 -87 0
-88 87 0
90 -89 0
-90 89 0
92 -91 0
-92 91 0
94 -93 0
-94 93 0
96 -95 0
-96 95 0
98 -97 0
-98 97 0
100 -99 0
-100 99 0
102 -101 0
-102 101 0
104 -103 0
-104 103 0
106 -105 0
-106 105 0
108 -107 0
-108 107 0
110 -109 0
-110 109 0
112 -111 0
-112 111 0
114 -113 0
-114 113 0
116 -115 0
-116 115 0
118 -117 0
-118 117 0
120 -119 0
-120 119 0
122 -121 0
-122 121 0
124 -123 0
-124 123 0
126 -125 0
-126 125 0
128 -127 0
-128 127 0
130 -129 0
-130 129 0
132 -131 0
-132 131 0
134 -133 0
-134 133 0
136 -135 0
-136 135 0
138 -137 0
-138 137 0
473 -474 -315 0
-473 474 0
-473 315 0
475 -476 -194 0
-475 476 0
-475 194 0
477 -478 -340 0
-477 478 0
-477 340 0
479 -480 -242 0
-479 480 0
-479 242 0
481 -482 -312 0
-481 482 0
-481 312 0
483 -484 -355 0
-483 484 0
-483 355 0
485 -261 0
-485 261 0
486 -487 -239 0
-486 487 0
-486 239 0
488 -489 0
-488 489 0
490 -425 0
-490 425 0
491 -492 -493 0
-491 492 0
-491 493 0
494 -495 -340 0
-494 495 0
-494 340 0
496 -497 -194 0
-496 497 0
-496 194 0
498 -499 -261 0
-498 499 0
-498 261 0
500 -501 -252 0
-500 501 0
-500 252 0
502 -242 0
-502 242 0
503 -504 -343 0
-503 504 0
-503 343 0
505 -506 -256 0
-505 506 0
-505 256 0
507 -508 -315 0
-507 508 0
-507 315 0
509 -510 -236 0
-509 510 0
-509 236 0
511 -467 0
-511 467 0
512 -513 -493 0
-512 513 0
-512 493 0
514 -515 -261 0
-514 515 0
-514 261 0
516 -194 0
-516 194 0
517 -518 -239 0
-517 518 0
-517 239 0
519 -520 -242 0
-519 520 0
-519 242 0
521 -522 -256 0
-521 522 0
-521 256 0
523 -524 -252 0
-523 524 0
-523 252 0
525 -526 -236 0
-525 526 0
-525 236 0
527 -430 0
-527 430 0
528 -529 -530 0
-528 529 0
-528 530 0
531 -532 -533 0
-531 532 0
-531 533 0
534 -434 0
-534 434 0
535 -312 0
-535 312 0
536 -537 -538 0
-536 537 0
-536 538 0
539 -540 -467 0
-539 540 0
-539 467 0
541 -542 -543 0
-541 542 0
-541 543 0
544 -545 -425 0
-544 545 0
-544 425 0
546 -547 -442 0
-546 547 0
-546 442 0
548 -549 -550 0
-548 549 0
-548 550 0
551 -438 0
-551 438 0
552 -553 -554 0
-552 553 0
-552 554 0
555 -239 0
-555 239 0
556 -557 -538 0
-556 557 0
-556 538 0
558 -559 -438 0
-558 559 0
-558 438 0
560 -561 -236 0
-560 561 0
-560 236 0
562 -297 0
-562 297 0
563 -564 -312 0
-563 564 0
-563 312 0
565 -566 -315 0
-565 566 0
-565 315 0
567 -442 0
-567 442 0
568 -569 -493 0
-568 569 0
-568 493 0
570 -252 0
-570 252 0
571 -572 -554 0
-571 572 0
-571 554 0
573 -574 -575 0
-573 574 0
-573 575 0
576 -577 0
-576 577 0
140 -578 0
-140 578 0
141 -518 -148 0
-141 518 0
-141 148 0
142 -526 -145 0
-142 526 0
-142 145 0
143 -522 -153 0
-143 522 0
-143 153 0
144 -524 -151 0
-144 524 0
-144 151 0
146 -492 -275 0
-146 492 0
-146 275 0
147 -358 0
-147 358 0
149 -359 0
-149 359 0
150 -559 -153 0
-150 559 0
-150 153 0
152 -579 0
-152 579 0
154 -580 0
-154 580 0
155 -549 -359 0
-155 549 0
-155 359 0
157 -518 -167 0
-157 518 0
-157 167 0
158 -524 -178 0
-158 524 0
-158 178 0
159 -139 0
-159 139 0
160 -526 -164 0
-160 526 0
-160 164 0
161 -515 -187 0
-161 515 0
-161 187 0
162 -520 -170 0
-162 520 0
-162 170 0
163 -522 -182 0
-163 522 0
-163 182 0
165 -492 -287 0
-165 492 0
-165 287 0
166 -360 0
-166 360 0
168 -365 0
-168 365 0
169 -559 -182 0
-169 559 0
-169 182 0
171 -495 -322 0
-171 495 0
-171 322 0
172 -501 -151 0
-172 501 0
-172 151 0
173 -510 -145 0
-173 510 0
-173 145 0
174 -504 -325 0
-174 504 0
-174 325 0
175 -506 -153 0
-175 506 0
-175 153 0
176 -581 0
-176 581 0
177 -508 -278 0
-177 508 0
-177 278 0
179 -151 0
-179 151 0
180 -574 -170 0
-180 574 0
-180 170 0
181 -572 -139 0
-181 572 0
-181 139 0
183 -582 -170 0
-183 582 0
-183 170 0
184 -583 -139 0
-184 583 0
-184 139 0
185 -153 0
-185 153 0
186 -549 -365 0
-186 549 0
-186 365 0
188 -474 -278 0
-188 474 0
-188 278 0
189 -584 0
-189 584 0
190 -478 -322 0
-190 478 0
-190 322 0
191 -487 -148 0
-191 487 0
-191 148 0
192 -482 -275 0
-192 482 0
-192 275 0
193 -484 -346 0
-193 484 0
-193 346 0
195 -515 -227 0
-195 515 0
-195 227 0
196 -522 -222 0
-196 522 0
-196 222 0
197 -156 0
-197 156 0
198 -520 -208 0
-198 520 0
-198 208 0
199 -518 -205 0
-199 518 0
-199 205 0
200 -524 -218 0
-200 524 0
-200 218 0
201 -526 -202 0
-201 526 0
-201 202 0
203 -492 -302 0
-203 492 0
-203 302 0
204 -369 0
-204 369 0
206 -559 -222 0
-206 559 0
-206 222 0
207 -374 0
-207 374 0
209 -508 -290 0
-209 508 0
-209 290 0
210 -506 -182 0
-210 506 0
-210 182 0
211 -504 -331 0
-211 504 0
-211 331 0
212 -499 -187 0
-212 499 0
-212 187 0
213 -501 -178 0
-213 501 0
-213 178 0
214 -510 -164 0
-214 510 0
-214 164 0
215 -170 0
-215 170 0
216 -495 -328 0
-216 495 0
-216 328 0
217 -497 -139 0
-217 497 0
-217 139 0
219 -574 -208 0
-219 574 0
-219 208 0
220 -572 -156 0
-220 572 0
-220 156 0
221 -178 0
-221 178 0
223 -549 -374 0
-223 549 0
-223 374 0
224 -583 -156 0
-224 583 0
-224 156 0
225 -582 -208 0
-225 582 0
-225 208 0
226 -182 0
-226 182 0
228 -478 -328 0
-228 478 0
-228 328 0
229 -187 0
-229 187 0
230 -476 -139 0
-230 476 0
-230 139 0
231 -487 -167 0
-231 487 0
-231 167 0
232 -484 -349 0
-232 484 0
-232 349 0
233 -480 -170 0
-233 480 0
-233 170 0
234 -482 -287 0
-234 482 0
-234 287 0
235 -474 -290 0
-235 474 0
-235 290 0
237 -492 -312 0
-237 492 0
-237 312 0
238 -378 0
-238 378 0
240 -559 -256 0
-240 559 0
-240 256 0
241 -383 0
-241 383 0
243 -510 -202 0
-243 510 0
-243 202 0
244 -508 -305 0
-244 508 0
-244 305 0
245 -208 0
-245 208 0
246 -495 -334 0
-246 495 0
-246 334 0
247 -499 -227 0
-247 499 0
-247 227 0
248 -501 -218 0
-248 501 0
-248 218 0
249 -506 -222 0
-249 506 0
-249 222 0
250 -504 -337 0
-250 504 0
-250 337 0
251 -497 -156 0
-251 497 0
-251 156 0
253 -572 -194 0
-253 572 0
-253 194 0
254 -218 0
-254 218 0
255 -574 -242 0
-255 574 0
-255 242 0
257 -549 -383 0
-257 549 0
-257 383 0
258 -222 0
-258 222 0
259 -582 -242 0
-259 582 0
-259 242 0
260 -583 -194 0
-260 583 0
-260 194 0
262 -484 -352 0
-262 484 0
-262 352 0
263 -478 -334 0
-263 478 0
-263 334 0
264 -476 -156 0
-264 476 0
-264 156 0
265 -227 0
-265 227 0
266 -482 -302 0
-266 482 0
-266 302 0
267 -487 -205 0
-267 487 0
-267 205 0
268 -474 -305 0
-268 474 0
-268 305 0
269 -480 -208 0
-269 480 0
-269 208 0
271 -561 -145 0
-271 561 0
-271 145 0
272 -585 0
-272 585 0
273 -564 -275 0
-273 564 0
-273 275 0
274 -566 -278 0
-274 566 0
-274 278 0
276 -445 0
-276 445 0
277 -540 -278 0
-277 540 0
-277 278 0
279 -586 0
-279 586 0
280 -513 -445 0
-280 513 0
-280 445 0
281 -587 -410 0
-281 587 0
-281 410 0
283 -566 -290 0
-283 566 0
-283 290 0
284 -270 0
-284 270 0
285 -561 -164 0
-285 561 0
-285 164 0
286 -564 -287 0
-286 564 0
-286 287 0
288 -540 -290 0
-288 540 0
-288 290 0
289 -449 0
-289 449 0
291 -588 -270 0
-291 588 0
-291 270 0
292 -513 -449 0
-292 513 0
-292 449 0
293 -589 -170 0
-293 589 0
-293 170 0
294 -590 -187 0
-294 590 0
-294 187 0
295 -278 0
-295 278 0
296 -587 -413 0
-296 587 0
-296 413 0
298 -561 -202 0
-298 561 0
-298 202 0
299 -566 -305 0
-299 566 0
-299 305 0
300 -282 0
-300 282 0
301 -564 -302 0
-301 564 0
-301 302 0
303 -540 -305 0
-303 540 0
-303 305 0
304 -455 0
-304 455 0
306 -590 -227 0
-306 590 0
-306 227 0
307 -588 -282 0
-307 588 0
-307 282 0
308 -513 -455 0
-308 513 0
-308 455 0
309 -290 0
-309 290 0
310 -589 -208 0
-310 589 0
-310 208 0
311 -587 -417 0
-311 587 0
-311 417 0
313 -540 -315 0
-313 540 0
-313 315 0
314 -461 0
-314 461 0
316 -588 -297 0
-316 588 0
-316 297 0
317 -589 -242 0
-317 589 0
-317 242 0
318 -305 0
-318 305 0
319 -590 -261 0
-319 590 0
-319 261 0
320 -513 -461 0
-320 513 0
-320 461 0
321 -587 -421 0
-321 587 0
-321 421 0
323 -529 -346 0
-323 529 0
-323 346 0
324 -387 0
-324 387 0
326 -388 0
-326 388 0
327 -569 -275 0
-327 569 0
-327 275 0
329 -389 0
-329 389 0
330 -529 -349 0
-330 529 0
-330 349 0
332 -569 -287 0
-332 569 0
-332 287 0
333 -393 0
-333 393 0
335 -529 -352 0
-335 529 0
-335 352 0
336 -396 0
-336 396 0
338 -400 0
-338 400 0
339 -569 -302 0
-339 569 0
-339 302 0
341 -529 -355 0
-341 529 0
-341 355 0
342 -403 0
-342 403 0
344 -407 0
-344 407 0
345 -569 -312 0
-345 569 0
-345 312 0
347 -532 -278 0
-347 532 0
-347 278 0
348 -410 0
-348 410 0
350 -413 0
-350 413 0
351 -532 -290 0
-351 532 0
-351 290 0
353 -532 -305 0
-353 532 0
-353 305 0
354 -417 0
-354 417 0
356 -421 0
-356 421 0
357 -532 -315 0
-357 532 0
-357 315 0
591 -592 0
-591 592 0
593 -594 0
-593 594 0
361 -595 -139 0
-361 595 0
-361 139 0
362 -145 0
-362 145 0
363 -596 -170 0
-363 596 0
-363 170 0
364 -597 -270 0
-364 597 0
-364 270 0
366 -557 -187 0
-366 557 0
-366 187 0
367 -553 -139 0
-367 553 0
-367 139 0
368 -148 0
-368 148 0
370 -597 -282 0
-370 597 0
-370 282 0
371 -596 -208 0
-371 596 0
-371 208 0
372 -164 0
-372 164 0
373 -595 -156 0
-373 595 0
-373 156 0
375 -557 -227 0
-375 557 0
-375 227 0
376 -167 0
-376 167 0
377 -553 -156 0
-377 553 0
-377 156 0
379 -595 -194 0
-379 595 0
-379 194 0
380 -202 0
-380 202 0
381 -596 -242 0
-381 596 0
-381 242 0
382 -597 -297 0
-382 597 0
-382 297 0
384 -553 -194 0
-384 553 0
-384 194 0
385 -557 -261 0
-385 557 0
-385 261 0
386 -205 0
-386 205 0
598 -599 0
-598 599 0
600 -601 0
-600 601 0
390 -602 -170 0
-390 602 0
-390 170 0
391 -603 -187 0
-391 603 0
-391 187 0
392 -322 0
-392 322 0
394 -325 0
-394 325 0
395 -604 -170 0
-395 604 0
-395 170 0
397 -602 -208 0
-397 602 0
-397 208 0
398 -603 -227 0
-398 603 0
-398 227 0
399 -328 0
-399 328 0
401 -331 0
-401 331 0
402 -604 -208 0
-402 604 0
-402 208 0
404 -603 -261 0
-404 603 0
-404 261 0
405 -334 0
-405 334 0
406 -602 -242 0
-406 602 0
-406 242 0
408 -604 -242 0
-408 604 0
-408 242 0
409 -337 0
-409 337 0
411 -605 -387 0
-411 605 0
-411 387 0
412 -606 0
-412 606 0
414 -605 -389 0
-414 605 0
-414 389 0
415 -607 -187 0
-415 607 0
-415 187 0
416 -346 0
-416 346 0
418 -349 0
-418 349 0
419 -605 -396 0
-419 605 0
-419 396 0
420 -607 -227 0
-420 607 0
-420 227 0
422 -352 0
-422 352 0
423 -607 -261 0
-423 607 0
-423 261 0
424 -605 -403 0
-424 605 0
-424 403 0
426 -597 -543 0
-426 597 0
-426 543 0
427 -236 0
-427 236 0
428 -595 -554 0
-428 595 0
-428 554 0
429 -596 -575 0
-429 596 0
-429 575 0
431 -603 -538 0
-431 603 0
-431 538 0
432 -340 0
-432 340 0
433 -602 -575 0
-433 602 0
-433 575 0
435 -355 0
-435 355 0
436 -607 -538 0
-436 607 0
-436 538 0
437 -605 -430 0
-437 605 0
-437 430 0
439 -256 0
-439 256 0
440 -583 -554 0
-440 583 0
-440 554 0
441 -582 -575 0
-441 582 0
-441 575 0
443 -604 -575 0
-443 604 0
-443 575 0
444 -343 0
-444 343 0
446 -547 -388 0
-446 547 0
-446 388 0
447 -545 -358 0
-447 545 0
-447 358 0
448 -608 0
-448 608 0
450 -542 -270 0
-450 542 0
-450 270 0
451 -537 -187 0
-451 537 0
-451 187 0
452 -547 -393 0
-452 547 0
-452 393 0
453 -545 -360 0
-453 545 0
-453 360 0
454 -275 0
-454 275 0
456 -537 -227 0
-456 537 0
-456 227 0
457 -287 0
-457 287 0
458 -542 -282 0
-458 542 0
-458 282 0
459 -545 -369 0
-459 545 0
-459 369 0
460 -547 -400 0
-460 547 0
-460 400 0
462 -545 -378 0
-462 545 0
-462 378 0
463 -542 -297 0
-463 542 0
-463 297 0
464 -302 0
-464 302 0
465 -537 -261 0
-465 537 0
-465 261 0
466 -547 -407 0
-466 547 0
-466 407 0
468 -587 -434 0
-468 587 0
-468 434 0
469 -589 -575 0
-469 589 0
-469 575 0
470 -315 0
-470 315 0
471 -588 -543 0
-471 588 0
-471 543 0
472 -590 -538 0
-472 590 0
-472 538 0
-609 -1 2 0
609 1 0
609 -2 0
-610 1 -2 0
610 -1 0
610 2 0
-611 -3 4 0
611 3 0
611 -4 0
-612 3 -4 0
612 -3 0
612 4 0
-613 -5 6 0
613 5 0
613 -6 0
-614 5 -6 0
614 -5 0
614 6 0
-615 -7 8 0
615 7 0
615 -8 0
-616 7 -8 0
616 -7 0
616 8 0
-617 -9 10 0
617 9 0
617 -10 0
-618 9 -10 0
618 -9 0
618 10 0
-619 -11 12 0
619 11 0
619 -12 0
-620 11 -12 0
620 -11 0
620 12 0
-621 -13 14 0
621 13 0
621 -14 0
-622 13 -14 0
622 -13 0
622 14 0
-623 -15 16 0
623 15 0
623 -16 0
-624 15 -16 0
624 -15 0
624 16 0
-625 -17 18 0
625 17 0
625 -18 0
-626 17 -18 0
626 -17 0
626 18 0
-627 -19 20 0
627 19 0
627 -20 0
-628 19 -20 0
628 -19 0
628 20 0
-629 -21 22 0
629 21 0
629 -22 0
-630 21 -22 0
630 -21 0
630 22 0
-631 -23 24 0
631 23 0
631 -24 0
-632 23 -24 0
632 -23 0
632 24 0
-633 -25 26 0
633 25 0
633 -26 0
-634 25 -26 0
634 -25 0
634 26 0
-635 -27 28 0
635 27 0
635 -28 0
-636 27 -28 0
636 -27 0
636 28 0
-637 -29 30 0
637 29 0
637 -30 0
-638 29 -30 0
638 -29 0
638 30 0
-639 -31 32 0
639 31 0
639 -32 0
-640 31 -32 0
640 -31 0
640 32 0
-641 -33 34 0
641 33 0
641 -34 0
-642 33 -34 0
642 -33 0
642 34 0
-643 -35 36 0
643 35 0
643 -36 0
-644 35 -36 0
644 -35 0
644 36 0
-645 -37 38 0
645 37 0
645 -38 0
-646 37 -38 0
646 -37 0
646 38 0
-647 -39 40 0
647 39 0
647 -40 0
-648 39 -40 0
648 -39 0
648 40 0
-649 -41 42 0
649 41 0
649 -42 0
-650 41 -42 0
650 -41 0
650 42 0
-651 -43 44 0
651 43 0
651 -44 0
-652 43 -44 0
652 -43 0
652 44 0
-653 -45 46 0
653 45 0
653 -46 0
-654 45 -46 0
654 -45 0
654 46 0
-655 -47 48 0
655 47 0
655 -48 0
-656 47 -48 0
656 -47 0
656 48 0
-657 -49 50 0
657 49 0
657 -50 0
-658 49 -50 0
658 -49 0
658 50 0
-659 -51 52 0
659 51 0
659 -52 0
-660 51 -52 0
660 -51 0
660 52 0
-661 -53 54 0
661 53 0
661 -54 0
-662 53 -54 0
662 -53 0
662 54 0
-663 -55 56 0
663 55 0
663 -56 0
-664 55 -56 0
664 -55 0
664 56 0
-665 -57 58 0
665 57 0
665 -58 0
-666 57 -58 0
666 -57 0
666 58 0
-667 -59 60 0
667 59 0
667 -60 0
-668 59 -60 0
668 -59 0
668 60 0
-669 -61 62 0
669 61 0
669 -62 0
-670 61 -62 0
670 -61 0
670 62 0
-671 -63 64 0
671 63 0
671 -64 0
-672 63 -64 0
672 -63 0
672 64 0
-673 -65 66 0
673 65 0
673 -66 0
-674 65 -66 0
674 -65 0
674 66 0
-675 -67 68 0
675 67 0
675 -68 0
-676 67 -68 0
676 -67 0
676 68 0
-677 -69 70 0
677 69 0
677 -70 0
-678 69 -70 0
678 -69 0
678 70 0
-679 -71 72 0
679 71 0
679 -72 0
-680 71 -72 0
680 -71 0
680 72 0
-681 -73 74 0
681 73 0
681 -74 0
-682 73 -74 0
682 -73 0
682 74 0
-683 -75 76 0
683 75 0
683 -76 0
-684 75 -76 0
684 -75 0
684 76 0
-685 -77 78 0
685 77 0
685 -78 0
-686 77 -78 0
686 -77 0
686 78 0
-687 -79 80 0
687 79 0
687 -80 0
-688 79 -80 0
688 -79 0
688 80 0
-689 -81 82 0
689 81 0
689 -82 0
-690 81 -82 0
690 -81 0
690 82 0
-691 -83 84 0
691 83 0
691 -84 0
-692 83 -84 0
692 -83 0
692 84 0
-693 -85 86 0
693 85 0
693 -86 0
-694 85 -86 0
694 -85 0
694 86 0
-695 -87 88 0
695 87 0
695 -88 0
-696 87 -88 0
696 -87 0
696 88 0
-697 -89 90 0
697 89 0
697 -90 0
-698 89 -90 0
698 -89 0
698 90 0
-699 -91 92 0
699 91 0
699 -92 0
-700 91 -92 0
700 -91 0
700 92 0
-701 -93 94 0
701 93 0
701 -94 0
-702 93 -94 0
702 -93 0
702 94 0
-703 -95 96 0
703 95 0
703 -96 0
-704 95 -96 0
704 -95 0
704 96 0
-705 -97 98 0
705 97 0
705 -98 0
-706 97 -98 0
706 -97 0
706 98 0
-707 -99 100 0
707 99 0
707 -100 0
-708 99 -100 0
708 -99 0
708 100 0
-709 -101 102 0
709 101 0
709 -102 0
-710 101 -102 0
710 -101 0
710 102 0
-711 -103 104 0
711 103 0
711 -104 0
-712 103 -104 0
712 -103 0
712 104 0
-713 -105 106 0
713 105 0
713 -106 0
-714 105 -106 0
714 -105 0
714 106 0
-715 -107 108 0
715 107 0
715 -108 0
-716 107 -108 0
716 -107 0
716 108 0
-717 -109 110 0
717 109 0
717 -110 0
-718 109 -110 0
718 -109 0
718 110 0
-719 -111 112 0
719 111 0
719 -112 0
-720 111 -112 0
720 -111 0
720 112 0
-721 -113 114 0
721 113 0
721 -114 0
-722 113 -114 0
722 -113 0
722 114 0
-723 -115 116 0
723 115 0
723 -116 0
-724 115 -116 0
724 -115 0
724 116 0
-725 -117 118 0
725 117 0
725 -118 0
-726 117 -118 0
726 -117 0
726 118 0
-727 -119 120 0
727 119 0
727 -120 0
-728 119 -120 0
728 -119 0
728 120 0
-729 -121 122 0
729 121 0
729 -122 0
-730 121 -122 0
730 -121 0
730 122 0
-731 -123 124 0
731 123 0
731 -124 0
-732 123 -124 0
732 -123 0
732 124 0
-733 -125 126 0
733 125 0
733 -126 0
-734 125 -126 0
734 -125 0
734 126 0
-735 -127 128 0
735 127 0
735 -128 0
-736 127 -128 0
736 -127 0
736 128 0
-737 -129 130 0
737 129 0
737 -130 0
-738 129 -130 0
738 -129 0
738 130 0
-739 -131 132 0
739 131 0
739 -132 0
-740 131 -132 0
740 -131 0
740 132 0
-741 -133 134 0
741 133 0
741 -134 0
-742 133 -134 0
742 -133 0
742 134 0
-743 -135 136 0
743 135 0
743 -136 0
-744 135 -136 0
744 -135 0
744 136 0
-745 -137 138 0
745 137 0
745 -138 0
-746 137 -138 0
746 -137 0
746 138 0
-747 485 -261 0
747 -485 0
747 261 0
-748 -485 261 0
748 485 0
748 -261 0
-749 -538 473 475 477 479 481 483 485 486 0
749 538 0
749 -473 0
749 -475 0
749 -477 0
749 -479 0
749 -481 0
749 -483 0
749 -485 0
749 -486 0
-750 538 -473 0
750 -538 0
750 473 0
-751 538 -475 0
751 -538 0
751 475 0
-752 538 -477 0
752 -538 0
752 477 0
-753 538 -479 0
753 -538 0
753 479 0
-754 538 -481 0
754 -538 0
754 481 0
-755 538 -483 0
755 -538 0
755 483 0
-756 538 -485 0
756 -538 0
756 485 0
-757 538 -486 0
757 -538 0
757 486 0
-758 488 -489 0
758 -488 0
758 489 0
-759 -488 489 0
759 488 0
759 -489 0
-760 -761 488 0
760 761 0
760 -488 0
-762 761 -488 0
762 -761 0
762 488 0
-763 490 -425 0
763 -490 0
763 425 0
-764 -490 425 0
764 490 0
764 -425 0
-765 -766 490 491 0
765 766 0
765 -490 0
765 -491 0
-767 766 -490 0
767 -766 0
767 490 0
-768 766 -491 0
768 -766 0
768 491 0
-769 502 -242 0
769 -502 0
769 242 0
-770 -502 242 0
770 502 0
770 -242 0
-771 -575 494 496 498 500 502 503 505 507 509 0
771 575 0
771 -494 0
771 -496 0
771 -498 0
771 -500 0
771 -502 0
771 -503 0
771 -505 0
771 -507 0
771 -509 0
-772 575 -494 0
772 -575 0
772 494 0
-773 575 -496 0
773 -575 0
773 496 0
-774 575 -498 0
774 -575 0
774 498 0
-775 575 -500 0
775 -575 0
775 500 0
-776 575 -502 0
776 -575 0
776 502 0
-777 575 -503 0
777 -575 0
777 503 0
-778 575 -505 0
778 -575 0
778 505 0
-779 575 -507 0
779 -575 0
779 507 0
-780 575 -509 0
780 -575 0
780 509 0
-781 511 -467 0
781 -511 0
781 467 0
-782 -511 467 0
782 511 0
782 -467 0
-783 -533 511 512 0
783 533 0
783 -511 0
783 -512 0
-784 533 -511 0
784 -533 0
784 511 0
-785 533 -512 0
785 -533 0
785 512 0
-786 516 -194 0
786 -516 0
786 194 0
-787 -516 194 0
787 516 0
787 -194 0
-788 -554 514 516 517 519 521 523 525 0
788 554 0
788 -514 0
788 -516 0
788 -517 0
788 -519 0
788 -521 0
788 -523 0
788 -525 0
-789 554 -514 0
789 -554 0
789 514 0
-790 554 -516 0
790 -554 0
790 516 0
-791 554 -517 0
791 -554 0
791 517 0
-792 554 -519 0
792 -554 0
792 519 0
-793 554 -521 0
793 -554 0
793 521 0
-794 554 -523 0
794 -554 0
794 523 0
-795 554 -525 0
795 -554 0
795 525 0
-796 527 -430 0
796 -527 0
796 430 0
-797 -527 430 0
797 527 0
797 -430 0
-798 -799 527 528 0
798 799 0
798 -527 0
798 -528 0
-800 799 -527 0
800 -799 0
800 527 0
-801 799 -528 0
801 -799 0
801 528 0
-802 534 -434 0
802 -534 0
802 434 0
-803 -534 434 0
803 534 0
803 -434 0
-804 -530 531 534 0
804 530 0
804 -531 0
804 -534 0
-805 530 -531 0
805 -530 0
805 531 0
-806 530 -534 0
806 -530 0
806 534 0
-807 535 -312 0
807 -535 0
807 312 0
-808 -535 312 0
808 535 0
808 -312 0
-809 -493 535 536 539 541 544 546 0
809 493 0
809 -535 0
809 -536 0
809 -539 0
809 -541 0
809 -544 0
809 -546 0
-810 493 -535 0
810 -493 0
810 535 0
-811 493 -536 0
811 -493 0
811 536 0
-812 493 -539 0
812 -493 0
812 539 0
-813 493 -541 0
813 -493 0
813 541 0
-814 493 -544 0
814 -493 0
814 544 0
-815 493 -546 0
815 -493 0
815 546 0
-816 551 -438 0
816 -551 0
816 438 0
-817 -551 438 0
817 551 0
817 -438 0
-818 -819 548 551 0
818 819 0
818 -548 0
818 -551 0
-820 819 -548 0
820 -819 0
820 548 0
-821 819 -551 0
821 -819 0
821 551 0
-822 555 -239 0
822 -555 0
822 239 0
-823 -555 239 0
823 555 0
823 -239 0
-824 -550 552 555 556 558 0
824 550 0
824 -552 0
824 -555 0
824 -556 0
824 -558 0
-825 550 -552 0
825 -550 0
825 552 0
-826 550 -555 0
826 -550 0
826 555 0
-827 550 -556 0
827 -550 0
827 556 0
-828 550 -558 0
828 -550 0
828 558 0
-829 562 -297 0
829 -562 0
829 297 0
-830 -562 297 0
830 562 0
830 -297 0
-831 -543 560 562 563 565 0
831 543 0
831 -560 0
831 -562 0
831 -563 0
831 -565 0
-832 543 -560 0
832 -543 0
832 560 0
-833 543 -562 0
833 -543 0
833 562 0
-834 543 -563 0
834 -543 0
834 563 0
-835 543 -565 0
835 -543 0
835 565 0
-836 567 -442 0
836 -567 0
836 442 0
-837 -567 442 0
837 567 0
837 -442 0
-838 -839 567 568 0
838 839 0
838 -567 0
838 -568 0
-840 839 -567 0
840 -839 0
840 567 0
-841 839 -568 0
841 -839 0
841 568 0
-842 570 -252 0
842 -570 0
842 252 0
-843 -570 252 0
843 570 0
843 -252 0
-844 -845 570 571 573 0
844 845 0
844 -570 0
844 -571 0
844 -573 0
-846 845 -570 0
846 -845 0
846 570 0
-847 845 -571 0
847 -845 0
847 571 0
-848 845 -573 0
848 -845 0
848 573 0
-849 576 -577 0
849 -576 0
849 577 0
-850 -576 577 0
850 576 0
850 -577 0
-851 -852 576 0
851 852 0
851 -576 0
-853 852 -576 0
853 -852 0
853 576 0
-854 140 -578 0
854 -140 0
854 578 0
-855 -140 578 0
855 140 0
855 -578 0
-856 147 -358 0
856 -147 0
856 358 0
-857 -147 358 0
857 147 0
857 -358 0
-858 149 -359 0
858 -149 0
858 359 0
-859 -149 359 0
859 149 0
859 -359 0
-860 152 -579 0
860 -152 0
860 579 0
-861 -152 579 0
861 152 0
861 -579 0
-862 -151 152 0
862 151 0
862 -152 0
-863 151 -152 0
863 -151 0
863 152 0
-864 154 -580 0
864 -154 0
864 580 0
-865 -154 580 0
865 154 0
865 -580 0
-866 159 -139 0
866 -159 0
866 139 0
-867 -159 139 0
867 159 0
867 -139 0
-868 166 -360 0
868 -166 0
868 360 0
-869 -166 360 0
869 166 0
869 -360 0
-870 168 -365 0
870 -168 0
870 365 0
-871 -168 365 0
871 168 0
871 -365 0
-872 176 -581 0
872 -176 0
872 581 0
-873 -176 581 0
873 176 0
873 -581 0
-874 179 -151 0
874 -179 0
874 151 0
-875 -179 151 0
875 179 0
875 -151 0
-876 185 -153 0
876 -185 0
876 153 0
-877 -185 153 0
877 185 0
877 -153 0
-878 189 -584 0
878 -189 0
878 584 0
-879 -189 584 0
879 189 0
879 -584 0
-880 197 -156 0
880 -197 0
880 156 0
-881 -197 156 0
881 197 0
881 -156 0
-882 204 -369 0
882 -204 0
882 369 0
-883 -204 369 0
883 204 0
883 -369 0
-884 207 -374 0
884 -207 0
884 374 0
-885 -207 374 0
885 207 0
885 -374 0
-886 215 -170 0
886 -215 0
886 170 0
-887 -215 170 0
887 215 0
887 -170 0
-888 221 -178 0
888 -221 0
888 178 0
-889 -221 178 0
889 221 0
889 -178 0
-890 226 -182 0
890 -226 0
890 182 0
-891 -226 182 0
891 226 0
891 -182 0
-892 229 -187 0
892 -229 0
892 187 0
-893 -229 187 0
893 229 0
893 -187 0
-894 238 -378 0
894 -238 0
894 378 0
-895 -238 378 0
895 238 0
895 -378 0
-896 241 -383 0
896 -241 0
896 383 0
-897 -241 383 0
897 241 0
897 -383 0
-898 245 -208 0
898 -245 0
898 208 0
-899 -245 208 0
899 245 0
899 -208 0
-900 254 -218 0
900 -254 0
900 218 0
-901 -254 218 0
901 254 0
901 -218 0
-902 258 -222 0
902 -258 0
902 222 0
-903 -258 222 0
903 258 0
903 -222 0
-904 265 -227 0
904 -265 0
904 227 0
-905 -265 227 0
905 265 0
905 -227 0
-906 272 -585 0
906 -272 0
906 585 0
-907 -272 585 0
907 272 0
907 -585 0
-908 276 -445 0
908 -276 0
908 445 0
-909 -276 445 0
909 276 0
909 -445 0
-910 279 -586 0
910 -279 0
910 586 0
-911 -279 586 0
911 279 0
911 -586 0
-912 284 -270 0
912 -284 0
912 270 0
-913 -284 270 0
913 284 0
913 -270 0
-914 289 -449 0
914 -289 0
914 449 0
-915 -289 449 0
915 289 0
915 -449 0
-916 295 -278 0
916 -295 0
916 278 0
-917 -295 278 0
917 295 0
917 -278 0
-918 300 -282 0
918 -300 0
918 282 0
-919 -300 282 0
919 300 0
919 -282 0
-920 304 -455 0
920 -304 0
920 455 0
-921 -304 455 0
921 304 0
921 -455 0
-922 309 -290 0
922 -309 0
922 290 0
-923 -309 290 0
923 309 0
923 -290 0
-924 314 -461 0
924 -314 0
924 461 0
-925 -314 461 0
925 314 0
925 -461 0
-926 318 -305 0
926 -318 0
926 305 0
-927 -318 305 0
927 318 0
927 -305 0
-928 324 -387 0
928 -324 0
928 387 0
-929 -324 387 0
929 324 0
929 -387 0
-930 326 -388 0
930 -326 0
930 388 0
-931 -326 388 0
931 326 0
931 -388 0
-932 329 -389 0
932 -329 0
932 389 0
-933 -329 389 0
933 329 0
933 -389 0
-934 333 -393 0
934 -333 0
934 393 0
-935 -333 393 0
935 333 0
935 -393 0
-936 336 -396 0
936 -336 0
936 396 0
-937 -336 396 0
937 336 0
937 -396 0
-938 338 -400 0
938 -338 0
938 400 0
-939 -338 400 0
939 338 0
939 -400 0
-940 342 -403 0
940 -342 0
940 403 0
-941 -342 403 0
941 342 0
941 -403 0
-942 344 -407 0
942 -344 0
942 407 0
-943 -344 407 0
943 344 0
943 -407 0
-944 348 -410 0
944 -348 0
944 410 0
-945 -348 410 0
945 348 0
945 -410 0
-946 350 -413 0
946 -350 0
946 413 0
-947 -350 413 0
947 350 0
947 -413 0
-948 354 -417 0
948 -354 0
948 417 0
-949 -354 417 0
949 354 0
949 -417 0
-950 356 -421 0
950 -356 0
950 421 0
-951 -356 421 0
951 356 0
951 -421 0
-952 591 -592 0
952 -591 0
952 592 0
-953 -591 592 0
953 591 0
953 -592 0
-954 -358 591 0
954 358 0
954 -591 0
-955 358 -591 0
955 -358 0
955 591 0
-956 593 -594 0
956 -593 0
956 594 0
-957 -593 594 0
957 593 0
957 -594 0
-958 -359 593 0
958 359 0
958 -593 0
-959 359 -593 0
959 -359 0
959 593 0
-960 362 -145 0
960 -362 0
960 145 0
-961 -362 145 0
961 362 0
961 -145 0
-962 368 -148 0
962 -368 0
962 148 0
-963 -368 148 0
963 368 0
963 -148 0
-964 372 -164 0
964 -372 0
964 164 0
-965 -372 164 0
965 372 0
965 -164 0
-966 376 -167 0
966 -376 0
966 167 0
-967 -376 167 0
967 376 0
967 -167 0
-968 380 -202 0
968 -380 0
968 202 0
-969 -380 202 0
969 380 0
969 -202 0
-970 386 -205 0
970 -386 0
970 205 0
-971 -386 205 0
971 386 0
971 -205 0
-972 598 -599 0
972 -598 0
972 599 0
-973 -598 599 0
973 598 0
973 -599 0
-974 -387 598 0
974 387 0
974 -598 0
-975 387 -598 0
975 -387 0
975 598 0
-976 600 -601 0
976 -600 0
976 601 0
-977 -600 601 0
977 600 0
977 -601 0
-978 -388 600 0
978 388 0
978 -600 0
-979 388 -600 0
979 -388 0
979 600 0
-980 392 -322 0
980 -392 0
980 322 0
-981 -392 322 0
981 392 0
981 -322 0
-982 394 -325 0
982 -394 0
982 325 0
-983 -394 325 0
983 394 0
983 -325 0
-984 399 -328 0
984 -399 0
984 328 0
-985 -399 328 0
985 399 0
985 -328 0
-986 401 -331 0
986 -401 0
986 331 0
-987 -401 331 0
987 401 0
987 -331 0
-988 405 -334 0
988 -405 0
988 334 0
-989 -405 334 0
989 405 0
989 -334 0
-990 409 -337 0
990 -409 0
990 337 0
-991 -409 337 0
991 409 0
991 -337 0
-992 412 -606 0
992 -412 0
992 606 0
-993 -412 606 0
993 412 0
993 -606 0
-994 416 -346 0
994 -416 0
994 346 0
-995 -416 346 0
995 416 0
995 -346 0
-996 418 -349 0
996 -418 0
996 349 0
-997 -418 349 0
997 418 0
997 -349 0
-998 422 -352 0
998 -422 0
998 352 0
-999 -422 352 0
999 422 0
999 -352 0
-1000 427 -236 0
1000 -427 0
1000 236 0
-1001 -427 236 0
1001 427 0
1001 -236 0
-1002 432 -340 0
1002 -432 0
1002 340 0
-1003 -432 340 0
1003 432 0
1003 -340 0
-1004 435 -355 0
1004 -435 0
1004 355 0
-1005 -435 355 0
1005 435 0
1005 -355 0
-1006 439 -256 0
1006 -439 0
1006 256 0
-1007 -439 256 0
1007 439 0
1007 -256 0
-1008 444 -343 0
1008 -444 0
1008 343 0
-1009 -444 343 0
1009 444 0
1009 -343 0
-1010 448 -608 0
1010 -448 0
1010 608 0
-1011 -448 608 0
1011 448 0
1011 -608 0
-1012 454 -275 0
1012 -454 0
1012 275 0
-1013 -454 275 0
1013 454 0
1013 -275 0
-1014 457 -287 0
1014 -457 0
1014 287 0
-1015 -457 287 0
1015 457 0
1015 -287 0
-1016 464 -302 0
1016 -464 0
1016 302 0
-1017 -464 302 0
1017 464 0
1017 -302 0
-1018 470 -315 0
1018 -470 0
1018 315 0
-1019 -470 315 0
1019 470 0
1019 -315 0
609 0
610 0
611 0
612 0
613 0
614 0
615 0
616 0
617 0
618 0
619 0
620 0
621 0
622 0
623 0
624 0
625 0
626 0
627 0
628 0
629 0
630 0
631 0
632 0
633 0
634 0
635 0
636 0
637 0
638 0
639 0
640 0
641 0
642 0
643 0
644 0
645 0
646 0
647 0
648 0
649 0
650 0
651 0
652 0
653 0
654 0
655 0
656 0
657 0
658 0
659 0
660 0
661 0
662 0
663 0
664 0
665 0
666 0
667 0
668 0
669 0
670 0
671 0
672 0
673 0
674 0
675 0
676 0
677 0
678 0
679 0
680 0
681 0
682 0
683 0
684 0
685 0
686 0
687 0
688 0
689 0
690 0
691 0
692 0
693 0
694 0
695 0
696 0
697 0
698 0
699 0
700 0
701 0
702 0
703 0
704 0
705 0
706 0
707 0
708 0
709 0
710 0
711 0
712 0
713 0
714 0
715 0
716 0
717 0
718 0
719 0
720 0
721 0
722 0
723 0
724 0
725 0
726 0
727 0
728 0
729 0
730 0
731 0
732 0
733 0
734 0
735 0
736 0
737 0
738 0
739 0
740 0
741 0
742 0
743 0
744 0
745 0
746 0
747 0
748 0
749 0
750 0
751 0
752 0
753 0
754 0
755 0
756 0
757 0
758 0
759 0
760 0
762 0
763 0
764 0
765 0
767 0
768 0
769 0
770 0
771 0
772 0
773 0
774 0
775 0
776 0
777 0
778 0
779 0
780 0
781 0
782 0
783 0
784 0
785 0
786 0
787 0
788 0
789 0
790 0
791 0
792 0
793 0
794 0
795 0
796 0
797 0
798 0
800 0
801 0
802 0
803 0
804 0
805 0
806 0
807 0
808 0
809 0
810 0
811 0
812 0
813 0
814 0
815 0
816 0
817 0
818 0
820 0
821 0
822 0
823 0
824 0
825 0
826 0
827 0
828 0
829 0
830 0
831 0
832 0
833 0
834 0
835 0
836 0
837 0
838 0
840 0
841 0
842 0
843 0
844 0
846 0
847 0
848 0
849 0
850 0
851 0
853 0
854 0
855 0
856 0
857 0
858 0
859 0
860 0
861 0
862 0
863 0
864 0
865 0
866 0
867 0
868 0
869 0
870 0
871 0
872 0
873 0
874 0
875 0
876 0
877 0
878 0
879 0
880 0
881 0
882 0
883 0
884 0
885 0
886 0
887 0
888 0
889 0
890 0
891 0
892 0
893 0
894 0
895 0
896 0
897 0
898 0
899 0
900 0
901 0
902 0
903 0
904 0
905 0
906 0
907 0
908 0
909 0
910 0
911 0
912 0
913 0
914 0
915 0
916 0
917 0
918 0
919 0
920 0
921 0
922 0
923 0
924 0
925 0
926 0
927 0
928 0
929 0
930 0
931 0
932 0
933 0
934 0
935 0
936 0
937 0
938 0
939 0
940 0
941 0
942 0
943 0
944 0
945 0
946 0
947 0
948 0
949 0
950 0
951 0
952 0
953 0
954 0
955 0
956 0
957 0
958 0
959 0
960 0
961 0
962 0
963 0
964 0
965 0
966 0
967 0
968 0
969 0
970 0
971 0
972 0
973 0
974 0
975 0
976 0
977 0
978 0
979 0
980 0
981 0
982 0
983 0
984 0
985 0
986 0
987 0
988 0
989 0
990 0
991 0
992 0
993 0
994 0
995 0
996 0
997 0
998 0
999 0
1000 0
1001 0
1002 0
1003 0
1004 0
1005 0
1006 0
1007 0
1008 0
1009 0
1010 0
1011 0
1012 0
1013 0
1014 0
1015 0
1016 0
1017 0
1018 0
1019 0
2 0
4 0
6 0
8 0
10 0
12 0
14 0
16 0
18 0
20 0
22 0
24 0
26 0
28 0
30 0
32 0
34 0
36 0
38 0
40 0
42 0
44 0
46 0
48 0
50 0
52 0
54 0
56 0
58 0
60 0
62 0
64 0
66 0
68 0
70 0
72 0
74 0
76 0
78 0
80 0
82 0
84 0
86 0
88 0
90 0
92 0
94 0
96 0
98 0
100 0
102 0
104 0
106 0
108 0
110 0
112 0
114 0
116 0
118 0
120 0
122 0
124 0
126 0
128 0
130 0
132 0
134 0
136 0
138 0
