c BC-S1.2
p cnf 848 2656
1 -2 0
-1 2 0
3 -4 0
-3 4 0
5 -6 0
-5 6 0
7 -8 0
-7 8 0
9 -10 0
-9 10 0
11 -12 0
-11 12 0
13 -14 0
-13 14 0
15 -16 0
-15 16 0
17 -18 0
-17 18 0
19 -20 0
-19 20 0
21 -22 0
-21 22 0
23 -24 0
-23 24 0
25 -26 0
-25 26 0
27 -28 0
-27 28 0
29 -30 0
-29 30 0
31 -32 0
-31 32 0
33 -34 0
-33 34 0
35 -36 0
-35 36 0
37 -38 0
-37 38 0
39 -40 0
-39 40 0
41 -42 0
-41 42 0
43 -44 0
-43 44 0
45 -46 0
-45 46 0
47 -48 0
-47 48 0
49 -50 0
-49 50 0
51 -52 0
-51 52 0
53 -54 0
-53 54 0
55 -56 0
-55 56 0
57 -58 0
-57 58 0
59 -60 0
-59 60 0
61 -62 0
-61 62 0
63 -64 0
-63 64 0
65 -66 0
-65 66 0
67 -68 0
-67 68 0
69 -70 0
-69 70 0
71 -72 0
-71 72 0
73 -74 0
-73 74 0
75 -76 0
-75 76 0
77 -78 0
-77 78 0
79 -80 0
-79 80 0
81 -82 0
-81 82 0
83 -84 0
-83 84 0
85 -86 0
-85 86 0
87 -88 0
-87 88 0
89 -90 0
-89 90 0
91 -92 0
-91 92 0
93 -94 0
-93 94 0
95 -96 0
-95 96 0
97 -98 0
-97 98 0
99 -100 0
-99 100 0
101 -102 0
-101 102 0
103 -104 0
-103 104 0
105 -106 0
-105 106 0
107 -108 0
-107 108 0
109 -110 0
-109 110 0
111 -112 0
-111 112 0
113 -114 0
-113 114 0
115 -116 0
-115 116 0
117 -118 0
-117 118 0
119 -120 0
-119 120 0
121 -122 0
-121 122 0
123 -124 0
-123 124 0
125 -126 0
-125 126 0
127 -128 0
-127 128 0
129 -130 0
-129 130 0
131 -132 0
-131 132 0
-133 134 135 136 137 0
133 -134 0
133 -135 0
133 -136 0
133 -137 0
-138 139 140 0
138 -139 0
138 -140 0
-141 142 143 0
141 -142 0
141 -143 0
-144 145 146 0
144 -145 0
144 -146 0
-147 148 149 150 151 152 153 154 0
147 -148 0
147 -149 0
147 -150 0
147 -151 0
147 -152 0
147 -153 0
147 -154 0
-155 156 157 158 159 160 161 162 0
155 -156 0
155 -157 0
155 -158 0
155 -159 0
155 -160 0
155 -161 0
155 -162 0
-163 164 165 0
163 -164 0
163 -165 0
-166 167 168 169 170 171 0
166 -167 0
166 -168 0
166 -169 0
166 -170 0
166 -171 0
-172 173 174 175 176 177 178 0
172 -173 0
172 -174 0
172 -175 0
172 -176 0
172 -177 0
172 -178 0
-179 180 181 182 183 184 0
179 -180 0
179 -181 0
179 -182 0
179 -183 0
179 -184 0
-185 186 187 0
185 -186 0
185 -187 0
-188 189 190 191 192 193 194 195 0
188 -189 0
188 -190 0
188 -191 0
188 -192 0
188 -193 0
188 -194 0
188 -195 0
-196 197 198 199 200 201 202 203 204 205 0
196 -197 0
196 -198 0
196 -199 0
196 -200 0
196 -201 0
196 -202 0
196 -203 0
196 -204 0
196 -205 0
-206 207 208 0
206 -207 0
206 -208 0
-209 210 211 212 213 214 215 216 0
209 -210 0
209 -211 0
209 -212 0
209 -213 0
209 -214 0
209 -215 0
209 -216 0
-217 218 219 0
217 -218 0
217 -219 0
-220 221 222 223 224 225 226 0
220 -221 0
220 -222 0
220 -223 0
220 -224 0
220 -225 0
220 -226 0
-227 228 229 0
227 -228 0
227 -229 0
-230 231 232 233 234 235 236 237 238 239 0
230 -231 0
230 -232 0
230 -233 0
230 -234 0
230 -235 0
230 -236 0
230 -237 0
230 -238 0
230 -239 0
-240 241 242 0
240 -241 0
240 -242 0
-243 244 245 246 247 248 249 250 0
243 -244 0
243 -245 0
243 -246 0
243 -247 0
243 -248 0
243 -249 0
243 -250 0
-251 252 253 254 255 256 257 0
251 -252 0
251 -253 0
251 -254 0
251 -255 0
251 -256 0
251 -257 0
-258 259 260 261 262 263 264 0
258 -259 0
258 -260 0
258 -261 0
258 -262 0
258 -263 0
258 -264 0
-265 266 267 0
265 -266 0
265 -267 0
-268 269 270 0
268 -269 0
268 -270 0
-271 272 273 274 0
271 -272 0
271 -273 0
271 -274 0
-275 276 277 0
275 -276 0
275 -277 0
-278 279 280 0
278 -279 0
278 -280 0
-281 282 283 0
281 -282 0
281 -283 0
-284 285 286 287 288 289 290 0
284 -285 0
284 -286 0
284 -287 0
284 -288 0
284 -289 0
284 -290 0
-291 292 293 0
291 -292 0
291 -293 0
-294 295 296 0
294 -295 0
294 -296 0
-297 298 299 300 301 302 0
297 -298 0
297 -299 0
297 -300 0
297 -301 0
297 -302 0
-303 304 305 306 307 308 0
303 -304 0
303 -305 0
303 -306 0
303 -307 0
303 -308 0
-309 310 311 312 0
309 -310 0
309 -311 0
309 -312 0
-313 314 315 316 317 318 0
313 -314 0
313 -315 0
313 -316 0
313 -317 0
313 -318 0
319 -270 0
-319 270 0
-320 321 322 323 324 325 0
320 -321 0
320 -322 0
320 -323 0
320 -324 0
320 -325 0
-326 327 328 329 0
326 -327 0
326 -328 0
326 -329 0
-330 331 332 333 334 335 0
330 -331 0
330 -332 0
330 -333 0
330 -334 0
330 -335 0
-336 337 338 339 0
336 -337 0
336 -338 0
336 -339 0
340 -140 0
-340 140 0
-341 342 343 344 345 346 0
341 -342 0
341 -343 0
341 -344 0
341 -345 0
341 -346 0
347 -145 0
-347 145 0
-348 349 350 351 0
348 -349 0
348 -350 0
348 -351 0
-352 353 354 355 356 357 0
352 -353 0
352 -354 0
352 -355 0
352 -356 0
352 -357 0
-358 359 360 361 362 363 0
358 -359 0
358 -360 0
358 -361 0
358 -362 0
358 -363 0
-364 365 366 367 368 369 0
364 -365 0
364 -366 0
364 -367 0
364 -368 0
364 -369 0
-370 371 372 373 374 375 0
370 -371 0
370 -372 0
370 -373 0
370 -374 0
370 -375 0
-376 377 378 379 380 381 0
376 -377 0
376 -378 0
376 -379 0
376 -380 0
376 -381 0
-382 383 384 385 0
382 -383 0
382 -384 0
382 -385 0
-386 387 388 389 390 391 0
386 -387 0
386 -388 0
386 -389 0
386 -390 0
386 -391 0
2 -1 0
-2 1 0
4 -3 0
-4 3 0
6 -5 0
-6 5 0
8 -7 0
-8 7 0
10 -9 0
-10 9 0
12 -11 0
-12 11 0
14 -13 0
-14 13 0
16 -15 0
-16 15 0
18 -17 0
-18 17 0
20 -19 0
-20 19 0
22 -21 0
-22 21 0
24 -23 0
-24 23 0
26 -25 0
-26 25 0
28 -27 0
-28 27 0
30 -29 0
-30 29 0
32 -31 0
-32 31 0
34 -33 0
-34 33 0
36 -35 0
-36 35 0
38 -37 0
-38 37 0
40 -39 0
-40 39 0
42 -41 0
-42 41 0
44 -43 0
-44 43 0
46 -45 0
-46 45 0
48 -47 0
-48 47 0
50 -49 0
-50 49 0
52 -51 0
-52 51 0
54 -53 0
-54 53 0
56 -55 0
-56 55 0
58 -57 0
-58 57 0
60 -59 0
-60 59 0
62 -61 0
-62 61 0
64 -63 0
-64 63 0
66 -65 0
-66 65 0
68 -67 0
-68 67 0
70 -69 0
-70 69 0
72 -71 0
-72 71 0
74 -73 0
-74 73 0
76 -75 0
-76 75 0
78 -77 0
-78 77 0
80 -79 0
-80 79 0
82 -81 0
-82 81 0
84 -83 0
-84 83 0
86 -85 0
-86 85 0
88 -87 0
-88 87 0
90 -89 0
-90 89 0
92 -91 0
-92 91 0
94 -93 0
-94 93 0
96 -95 0
-96 95 0
98 -97 0
-98 97 0
100 -99 0
-100 99 0
102 -101 0
-102 101 0
104 -103 0
-104 103 0
106 -105 0
-106 105 0
108 -107 0
-108 107 0
110 -109 0
-110 109 0
112 -111 0
-112 111 0
114 -113 0
-114 113 0
116 -115 0
-116 115 0
118 -117 0
-118 117 0
120 -119 0
-120 119 0
122 -121 0
-122 121 0
124 -123 0
-124 123 0
126 -125 0
-126 125 0
128 -127 0
-128 127 0
392 -393 -394 0
-392 393 0
-392 394 0
130 -129 0
-130 129 0
395 -396 -397 0
-395 396 0
-395 397 0
398 -309 0
-398 309 0
399 -400 -401 0
-399 400 0
-399 401 0
132 -131 0
-132 131 0
402 -403 -404 0
-402 403 0
-402 404 0
405 -320 0
-405 320 0
406 -330 0
-406 330 0
407 -408 -397 0
-407 408 0
-407 397 0
409 -410 -243 0
-409 410 0
-409 243 0
411 -412 -240 0
-411 412 0
-411 240 0
413 -414 -258 0
-413 414 0
-413 258 0
415 -230 0
-415 230 0
416 -417 -294 0
-416 417 0
-416 294 0
418 -419 -251 0
-418 419 0
-418 251 0
420 -421 -291 0
-420 421 0
-420 291 0
422 -423 -188 0
-422 423 0
-422 188 0
424 -425 -265 0
-424 425 0
-424 265 0
426 -427 -188 0
-426 427 0
-426 188 0
428 -429 -240 0
-428 429 0
-428 240 0
430 -431 -230 0
-430 431 0
-430 230 0
432 -433 -294 0
-432 433 0
-432 294 0
434 -435 -265 0
-434 435 0
-434 265 0
436 -243 0
-436 243 0
437 -438 -291 0
-437 438 0
-437 291 0
439 -440 -294 0
-439 440 0
-439 294 0
441 -442 -265 0
-441 442 0
-441 265 0
443 -444 -188 0
-443 444 0
-443 188 0
445 -446 -240 0
-445 446 0
-445 240 0
447 -258 0
-447 258 0
448 -449 -230 0
-448 449 0
-448 230 0
450 -341 0
-450 341 0
451 -452 -397 0
-451 452 0
-451 397 0
453 -454 -265 0
-453 454 0
-453 265 0
455 -456 -240 0
-455 456 0
-455 240 0
457 -458 -251 0
-457 458 0
-457 251 0
459 -460 -243 0
-459 460 0
-459 243 0
461 -188 0
-461 188 0
462 -463 -258 0
-462 463 0
-462 258 0
464 -465 -230 0
-464 465 0
-464 230 0
466 -467 -309 0
-466 467 0
-466 309 0
468 -469 -341 0
-468 469 0
-468 341 0
470 -471 -472 0
-470 471 0
-470 472 0
473 -474 -401 0
-473 474 0
-473 401 0
475 -476 -330 0
-475 476 0
-475 330 0
477 -251 0
-477 251 0
478 -479 0
-478 479 0
480 -481 0
-480 481 0
482 -483 0
-482 483 0
134 -454 -144 0
-134 454 0
-134 144 0
135 -458 -141 0
-135 458 0
-135 141 0
136 -456 -138 0
-136 456 0
-136 138 0
137 -484 0
-137 484 0
139 -403 -271 0
-139 403 0
-139 271 0
140 -340 0
-140 340 0
142 -348 0
-142 348 0
143 -469 -271 0
-143 469 0
-143 271 0
145 -347 0
-145 347 0
146 -408 -141 0
-146 408 0
-146 141 0
148 -454 -185 0
-148 454 0
-148 185 0
149 -456 -163 0
-149 456 0
-149 163 0
150 -458 -172 0
-150 458 0
-150 172 0
151 -465 -155 0
-151 465 0
-151 155 0
152 -460 -166 0
-152 460 0
-152 166 0
153 -463 -179 0
-153 463 0
-153 179 0
154 -133 0
-154 133 0
156 -485 -131 0
-156 485 0
-156 131 0
157 -425 -144 0
-157 425 0
-157 144 0
158 -486 0
-158 486 0
159 -419 -141 0
-159 419 0
-159 141 0
160 -417 -271 0
-160 417 0
-160 271 0
161 -421 -268 0
-161 421 0
-161 268 0
162 -412 -138 0
-162 412 0
-162 138 0
164 -352 0
-164 352 0
165 -403 -278 0
-165 403 0
-165 278 0
167 -429 -138 0
-167 429 0
-167 138 0
168 -433 -271 0
-168 433 0
-168 271 0
169 -438 -268 0
-169 438 0
-169 268 0
170 -435 -144 0
-170 435 0
-170 144 0
171 -487 0
-171 487 0
173 -467 -326 0
-173 467 0
-173 326 0
174 -141 0
-174 141 0
175 -469 -376 0
-175 469 0
-175 376 0
176 -471 -133 0
-176 471 0
-176 133 0
177 -474 -155 0
-177 474 0
-177 155 0
178 -476 -358 0
-178 476 0
-178 358 0
180 -488 -129 0
-180 488 0
-180 129 0
181 -446 -138 0
-181 446 0
-181 138 0
182 -489 0
-182 489 0
183 -440 -271 0
-183 440 0
-183 271 0
184 -442 -144 0
-184 442 0
-184 144 0
186 -408 -172 0
-186 408 0
-186 172 0
187 -358 0
-187 358 0
189 -454 -227 0
-189 454 0
-189 227 0
190 -147 0
-190 147 0
191 -456 -206 0
-191 456 0
-191 206 0
192 -463 -220 0
-192 463 0
-192 220 0
193 -458 -217 0
-193 458 0
-193 217 0
194 -465 -196 0
-194 465 0
-194 196 0
195 -460 -209 0
-195 460 0
-195 209 0
197 -421 -275 0
-197 421 0
-197 275 0
198 -155 0
-198 155 0
199 -417 -278 0
-199 417 0
-199 278 0
200 -414 -179 0
-200 414 0
-200 179 0
201 -425 -185 0
-201 425 0
-201 185 0
202 -419 -172 0
-202 419 0
-202 172 0
203 -423 -133 0
-203 423 0
-203 133 0
204 -410 -166 0
-204 410 0
-204 166 0
205 -412 -163 0
-205 412 0
-205 163 0
207 -364 0
-207 364 0
208 -403 -284 0
-208 403 0
-208 284 0
210 -431 -155 0
-210 431 0
-210 155 0
211 -433 -278 0
-211 433 0
-211 278 0
212 -438 -275 0
-212 438 0
-212 275 0
213 -435 -185 0
-213 435 0
-213 185 0
214 -166 0
-214 166 0
215 -429 -163 0
-215 429 0
-215 163 0
216 -427 -133 0
-216 427 0
-216 133 0
218 -370 0
-218 370 0
219 -469 -284 0
-219 469 0
-219 284 0
221 -446 -163 0
-221 446 0
-221 163 0
222 -179 0
-222 179 0
223 -442 -185 0
-223 442 0
-223 185 0
224 -440 -278 0
-224 440 0
-224 278 0
225 -449 -155 0
-225 449 0
-225 155 0
226 -444 -133 0
-226 444 0
-226 133 0
228 -297 0
-228 297 0
229 -408 -217 0
-229 408 0
-229 217 0
231 -425 -227 0
-231 425 0
-231 227 0
232 -410 -209 0
-232 410 0
-232 209 0
233 -412 -206 0
-233 412 0
-233 206 0
234 -423 -147 0
-234 423 0
-234 147 0
235 -196 0
-235 196 0
236 -419 -217 0
-236 419 0
-236 217 0
237 -417 -284 0
-237 417 0
-237 284 0
238 -414 -220 0
-238 414 0
-238 220 0
239 -421 -281 0
-239 421 0
-239 281 0
241 -303 0
-241 303 0
242 -403 -294 0
-242 403 0
-242 294 0
244 -438 -281 0
-244 438 0
-244 281 0
245 -433 -284 0
-245 433 0
-245 284 0
246 -209 0
-246 209 0
247 -429 -206 0
-247 429 0
-247 206 0
248 -431 -196 0
-248 431 0
-248 196 0
249 -427 -147 0
-249 427 0
-249 147 0
250 -435 -227 0
-250 435 0
-250 227 0
252 -469 -386 0
-252 469 0
-252 386 0
253 -474 -230 0
-253 474 0
-253 230 0
254 -217 0
-254 217 0
255 -476 -313 0
-255 476 0
-255 313 0
256 -471 -188 0
-256 471 0
-256 188 0
257 -467 -382 0
-257 467 0
-257 382 0
259 -444 -147 0
-259 444 0
-259 147 0
260 -442 -227 0
-260 442 0
-260 227 0
261 -449 -196 0
-261 449 0
-261 196 0
262 -440 -284 0
-262 440 0
-262 284 0
263 -220 0
-263 220 0
264 -446 -206 0
-264 446 0
-264 206 0
266 -313 0
-266 313 0
267 -408 -251 0
-267 408 0
-267 251 0
269 -396 -141 0
-269 396 0
-269 141 0
270 -319 0
-270 319 0
272 -490 -340 0
-272 490 0
-272 340 0
273 -491 0
-273 491 0
274 -452 -348 0
-274 452 0
-274 348 0
276 -326 0
-276 326 0
277 -396 -172 0
-277 396 0
-277 172 0
279 -376 0
-279 376 0
280 -452 -172 0
-280 452 0
-280 172 0
282 -396 -217 0
-282 396 0
-282 217 0
283 -336 0
-283 336 0
285 -490 -364 0
-285 490 0
-285 364 0
286 -452 -370 0
-286 452 0
-286 370 0
287 -492 -220 0
-287 492 0
-287 220 0
288 -493 -196 0
-288 493 0
-288 196 0
289 -278 0
-289 278 0
290 -494 -209 0
-290 494 0
-290 209 0
292 -396 -251 0
-292 396 0
-292 251 0
293 -382 0
-293 382 0
295 -452 -251 0
-295 452 0
-295 251 0
296 -386 0
-296 386 0
298 -185 0
-298 185 0
299 -495 -196 0
-299 495 0
-299 196 0
300 -496 -147 0
-300 496 0
-300 147 0
301 -497 -220 0
-301 497 0
-301 220 0
302 -498 -209 0
-302 498 0
-302 209 0
304 -499 -243 0
-304 499 0
-304 243 0
305 -206 0
-305 206 0
306 -500 -230 0
-306 500 0
-306 230 0
307 -501 -258 0
-307 501 0
-307 258 0
308 -502 -188 0
-308 502 0
-308 188 0
310 -503 -504 0
-310 503 0
-310 504 0
311 -291 0
-311 291 0
312 -505 -401 0
-312 505 0
-312 401 0
314 -495 -230 0
-314 495 0
-314 230 0
315 -498 -243 0
-315 498 0
-315 243 0
316 -227 0
-316 227 0
317 -496 -188 0
-317 496 0
-317 188 0
318 -497 -258 0
-318 497 0
-318 258 0
506 -507 0
-506 507 0
321 -499 -504 0
-321 499 0
-321 504 0
322 -501 -394 0
-322 501 0
-322 394 0
323 -240 0
-323 240 0
324 -500 -401 0
-324 500 0
-324 401 0
325 -502 -472 0
-325 502 0
-325 472 0
327 -505 -155 0
-327 505 0
-327 155 0
328 -268 0
-328 268 0
329 -503 -166 0
-329 503 0
-329 166 0
331 -496 -472 0
-331 496 0
-331 472 0
332 -265 0
-332 265 0
333 -498 -504 0
-333 498 0
-333 504 0
334 -495 -401 0
-334 495 0
-334 401 0
335 -497 -394 0
-335 497 0
-335 394 0
337 -503 -209 0
-337 503 0
-337 209 0
338 -275 0
-338 275 0
339 -505 -196 0
-339 505 0
-339 196 0
508 -509 0
-508 509 0
342 -294 0
-342 294 0
343 -493 -401 0
-343 493 0
-343 401 0
344 -494 -504 0
-344 494 0
-344 504 0
345 -492 -394 0
-345 492 0
-345 394 0
346 -490 -320 0
-346 490 0
-346 320 0
510 -511 0
-510 511 0
349 -467 -319 0
-349 467 0
-349 319 0
350 -512 0
-350 512 0
351 -476 -347 0
-351 476 0
-351 347 0
353 -499 -166 0
-353 499 0
-353 166 0
354 -500 -155 0
-354 500 0
-354 155 0
355 -138 0
-355 138 0
356 -502 -133 0
-356 502 0
-356 133 0
357 -501 -179 0
-357 501 0
-357 179 0
359 -497 -179 0
-359 497 0
-359 179 0
360 -144 0
-360 144 0
361 -496 -133 0
-361 496 0
-361 133 0
362 -498 -166 0
-362 498 0
-362 166 0
363 -495 -155 0
-363 495 0
-363 155 0
365 -502 -147 0
-365 502 0
-365 147 0
366 -500 -196 0
-366 500 0
-366 196 0
367 -499 -209 0
-367 499 0
-367 209 0
368 -163 0
-368 163 0
369 -501 -220 0
-369 501 0
-369 220 0
371 -471 -147 0
-371 471 0
-371 147 0
372 -467 -336 0
-372 467 0
-372 336 0
373 -476 -297 0
-373 476 0
-373 297 0
374 -474 -196 0
-374 474 0
-374 196 0
375 -172 0
-375 172 0
377 -271 0
-377 271 0
378 -492 -179 0
-378 492 0
-378 179 0
379 -490 -352 0
-379 490 0
-379 352 0
380 -493 -155 0
-380 493 0
-380 155 0
381 -494 -166 0
-381 494 0
-381 166 0
383 -281 0
-383 281 0
384 -503 -243 0
-384 503 0
-384 243 0
385 -505 -230 0
-385 505 0
-385 230 0
387 -494 -243 0
-387 494 0
-387 243 0
388 -490 -303 0
-388 490 0
-388 303 0
389 -493 -230 0
-389 493 0
-389 230 0
390 -492 -258 0
-390 492 0
-390 258 0
391 -284 0
-391 284 0
-513 -1 2 0
513 1 0
513 -2 0
-514 1 -2 0
514 -1 0
514 2 0
-515 -3 4 0
515 3 0
515 -4 0
-516 3 -4 0
516 -3 0
516 4 0
-517 -5 6 0
517 5 0
517 -6 0
-518 5 -6 0
518 -5 0
518 6 0
-519 -7 8 0
519 7 0
519 -8 0
-520 7 -8 0
520 -7 0
520 8 0
-521 -9 10 0
521 9 0
521 -10 0
-522 9 -10 0
522 -9 0
522 10 0
-523 -11 12 0
523 11 0
523 -12 0
-524 11 -12 0
524 -11 0
524 12 0
-525 -13 14 0
525 13 0
525 -14 0
-526 13 -14 0
526 -13 0
526 14 0
-527 -15 16 0
527 15 0
527 -16 0
-528 15 -16 0
528 -15 0
528 16 0
-529 -17 18 0
529 17 0
529 -18 0
-530 17 -18 0
530 -17 0
530 18 0
-531 -19 20 0
531 19 0
531 -20 0
-532 19 -20 0
532 -19 0
532 20 0
-533 -21 22 0
533 21 0
533 -22 0
-534 21 -22 0
534 -21 0
534 22 0
-535 -23 24 0
535 23 0
535 -24 0
-536 23 -24 0
536 -23 0
536 24 0
-537 -25 26 0
537 25 0
537 -26 0
-538 25 -26 0
538 -25 0
538 26 0
-539 -27 28 0
539 27 0
539 -28 0
-540 27 -28 0
540 -27 0
540 28 0
-541 -29 30 0
541 29 0
541 -30 0
-542 29 -30 0
542 -29 0
542 30 0
-543 -31 32 0
543 31 0
543 -32 0
-544 31 -32 0
544 -31 0
544 32 0
-545 -33 34 0
545 33 0
545 -34 0
-546 33 -34 0
546 -33 0
546 34 0
-547 -35 36 0
547 35 0
547 -36 0
-548 35 -36 0
548 -35 0
548 36 0
-549 -37 38 0
549 37 0
549 -38 0
-550 37 -38 0
550 -37 0
550 38 0
-551 -39 40 0
551 39 0
551 -40 0
-552 39 -40 0
552 -39 0
552 40 0
-553 -41 42 0
553 41 0
553 -42 0
-554 41 -42 0
554 -41 0
554 42 0
-555 -43 44 0
555 43 0
555 -44 0
-556 43 -44 0
556 -43 0
556 44 0
-557 -45 46 0
557 45 0
557 -46 0
-558 45 -46 0
558 -45 0
558 46 0
-559 -47 48 0
559 47 0
559 -48 0
-560 47 -48 0
560 -47 0
560 48 0
-561 -49 50 0
561 49 0
561 -50 0
-562 49 -50 0
562 -49 0
562 50 0
-563 -51 52 0
563 51 0
563 -52 0
-564 51 -52 0
564 -51 0
564 52 0
-565 -53 54 0
565 53 0
565 -54 0
-566 53 -54 0
566 -53 0
566 54 0
-567 -55 56 0
567 55 0
567 -56 0
-568 55 -56 0
568 -55 0
568 56 0
-569 -57 58 0
569 57 0
569 -58 0
-570 57 -58 0
570 -57 0
570 58 0
-571 -59 60 0
571 59 0
571 -60 0
-572 59 -60 0
572 -59 0
572 60 0
-573 -61 62 0
573 61 0
573 -62 0
-574 61 -62 0
574 -61 0
574 62 0
-575 -63 64 0
575 63 0
575 -64 0
-576 63 -64 0
576 -63 0
576 64 0
-577 -65 66 0
577 65 0
577 -66 0
-578 65 -66 0
578 -65 0
578 66 0
-579 -67 68 0
579 67 0
579 -68 0
-580 67 -68 0
580 -67 0
580 68 0
-581 -69 70 0
581 69 0
581 -70 0
-582 69 -70 0
582 -69 0
582 70 0
-583 -71 72 0
583 71 0
583 -72 0
-584 71 -72 0
584 -71 0
584 72 0
-585 -73 74 0
585 73 0
585 -74 0
-586 73 -74 0
586 -73 0
586 74 0
-587 -75 76 0
587 75 0
587 -76 0
-588 75 -76 0
588 -75 0
588 76 0
-589 -77 78 0
589 77 0
589 -78 0
-590 77 -78 0
590 -77 0
590 78 0
-591 -79 80 0
591 79 0
591 -80 0
-592 79 -80 0
592 -79 0
592 80 0
-593 -81 82 0
593 81 0
593 -82 0
-594 81 -82 0
594 -81 0
594 82 0
-595 -83 84 0
595 83 0
595 -84 0
-596 83 -84 0
596 -83 0
596 84 0
-597 -85 86 0
597 85 0
597 -86 0
-598 85 -86 0
598 -85 0
598 86 0
-599 -87 88 0
599 87 0
599 -88 0
-600 87 -88 0
600 -87 0
600 88 0
-601 -89 90 0
601 89 0
601 -90 0
-602 89 -90 0
602 -89 0
602 90 0
-603 -91 92 0
603 91 0
603 -92 0
-604 91 -92 0
604 -91 0
604 92 0
-605 -93 94 0
605 93 0
605 -94 0
-606 93 -94 0
606 -93 0
606 94 0
-607 -95 96 0
607 95 0
607 -96 0
-608 95 -96 0
608 -95 0
608 96 0
-609 -97 98 0
609 97 0
609 -98 0
-610 97 -98 0
610 -97 0
610 98 0
-611 -99 100 0
611 99 0
611 -100 0
-612 99 -100 0
612 -99 0
612 100 0
-613 -101 102 0
613 101 0
613 -102 0
-614 101 -102 0
614 -101 0
614 102 0
-615 -103 104 0
615 103 0
615 -104 0
-616 103 -104 0
616 -103 0
616 104 0
-617 -105 106 0
617 105 0
617 -106 0
-618 105 -106 0
618 -105 0
618 106 0
-619 -107 108 0
619 107 0
619 -108 0
-620 107 -108 0
620 -107 0
620 108 0
-621 -109 110 0
621 109 0
621 -110 0
-622 109 -110 0
622 -109 0
622 110 0
-623 -111 112 0
623 111 0
623 -112 0
-624 111 -112 0
624 -111 0
624 112 0
-625 -113 114 0
625 113 0
625 -114 0
-626 113 -114 0
626 -113 0
626 114 0
-627 -115 116 0
627 115 0
627 -116 0
-628 115 -116 0
628 -115 0
628 116 0
-629 -117 118 0
629 117 0
629 -118 0
-630 117 -118 0
630 -117 0
630 118 0
-631 -119 120 0
631 119 0
631 -120 0
-632 119 -120 0
632 -119 0
632 120 0
-633 -121 122 0
633 121 0
633 -122 0
-634 121 -122 0
634 -121 0
634 122 0
-635 -123 124 0
635 123 0
635 -124 0
-636 123 -124 0
636 -123 0
636 124 0
-637 -125 126 0
637 125 0
637 -126 0
-638 125 -126 0
638 -125 0
638 126 0
-639 -127 128 0
639 127 0
639 -128 0
-640 127 -128 0
640 -127 0
640 128 0
-641 130 -129 0
641 -130 0
641 129 0
-642 -130 129 0
642 130 0
642 -129 0
-643 -644 392 130 0
643 644 0
643 -392 0
643 -130 0
-645 644 -392 0
645 -644 0
645 392 0
-646 644 -130 0
646 -644 0
646 130 0
-647 398 -309 0
647 -398 0
647 309 0
-648 -398 309 0
648 398 0
648 -309 0
-649 -650 395 398 0
649 650 0
649 -395 0
649 -398 0
-651 650 -395 0
651 -650 0
651 395 0
-652 650 -398 0
652 -650 0
652 398 0
-653 132 -131 0
653 -132 0
653 131 0
-654 -132 131 0
654 132 0
654 -131 0
-655 -656 399 132 0
655 656 0
655 -399 0
655 -132 0
-657 656 -399 0
657 -656 0
657 399 0
-658 656 -132 0
658 -656 0
658 132 0
-659 405 -320 0
659 -405 0
659 320 0
-660 -405 320 0
660 405 0
660 -320 0
-661 -662 402 405 0
661 662 0
661 -402 0
661 -405 0
-663 662 -402 0
663 -662 0
663 402 0
-664 662 -405 0
664 -662 0
664 405 0
-665 406 -330 0
665 -406 0
665 330 0
-666 -406 330 0
666 406 0
666 -330 0
-667 -668 406 407 0
667 668 0
667 -406 0
667 -407 0
-669 668 -406 0
669 -668 0
669 406 0
-670 668 -407 0
670 -668 0
670 407 0
-671 415 -230 0
671 -415 0
671 230 0
-672 -415 230 0
672 415 0
672 -230 0
-673 -401 409 411 413 415 416 418 420 422 424 0
673 401 0
673 -409 0
673 -411 0
673 -413 0
673 -415 0
673 -416 0
673 -418 0
673 -420 0
673 -422 0
673 -424 0
-674 401 -409 0
674 -401 0
674 409 0
-675 401 -411 0
675 -401 0
675 411 0
-676 401 -413 0
676 -401 0
676 413 0
-677 401 -415 0
677 -401 0
677 415 0
-678 401 -416 0
678 -401 0
678 416 0
-679 401 -418 0
679 -401 0
679 418 0
-680 401 -420 0
680 -401 0
680 420 0
-681 401 -422 0
681 -401 0
681 422 0
-682 401 -424 0
682 -401 0
682 424 0
-683 436 -243 0
683 -436 0
683 243 0
-684 -436 243 0
684 436 0
684 -243 0
-685 -504 426 428 430 432 434 436 437 0
685 504 0
685 -426 0
685 -428 0
685 -430 0
685 -432 0
685 -434 0
685 -436 0
685 -437 0
-686 504 -426 0
686 -504 0
686 426 0
-687 504 -428 0
687 -504 0
687 428 0
-688 504 -430 0
688 -504 0
688 430 0
-689 504 -432 0
689 -504 0
689 432 0
-690 504 -434 0
690 -504 0
690 434 0
-691 504 -436 0
691 -504 0
691 436 0
-692 504 -437 0
692 -504 0
692 437 0
-693 447 -258 0
693 -447 0
693 258 0
-694 -447 258 0
694 447 0
694 -258 0
-695 -394 439 441 443 445 447 448 0
695 394 0
695 -439 0
695 -441 0
695 -443 0
695 -445 0
695 -447 0
695 -448 0
-696 394 -439 0
696 -394 0
696 439 0
-697 394 -441 0
697 -394 0
697 441 0
-698 394 -443 0
698 -394 0
698 443 0
-699 394 -445 0
699 -394 0
699 445 0
-700 394 -447 0
700 -394 0
700 447 0
-701 394 -448 0
701 -394 0
701 448 0
-702 450 -341 0
702 -450 0
702 341 0
-703 -450 341 0
703 450 0
703 -341 0
-704 -404 450 451 0
704 404 0
704 -450 0
704 -451 0
-705 404 -450 0
705 -404 0
705 450 0
-706 404 -451 0
706 -404 0
706 451 0
-707 461 -188 0
707 -461 0
707 188 0
-708 -461 188 0
708 461 0
708 -188 0
-709 -472 453 455 457 459 461 462 464 0
709 472 0
709 -453 0
709 -455 0
709 -457 0
709 -459 0
709 -461 0
709 -462 0
709 -464 0
-710 472 -453 0
710 -472 0
710 453 0
-711 472 -455 0
711 -472 0
711 455 0
-712 472 -457 0
712 -472 0
712 457 0
-713 472 -459 0
713 -472 0
713 459 0
-714 472 -461 0
714 -472 0
714 461 0
-715 472 -462 0
715 -472 0
715 462 0
-716 472 -464 0
716 -472 0
716 464 0
-717 477 -251 0
717 -477 0
717 251 0
-718 -477 251 0
718 477 0
718 -251 0
-719 -397 466 468 470 473 475 477 0
719 397 0
719 -466 0
719 -468 0
719 -470 0
719 -473 0
719 -475 0
719 -477 0
-720 397 -466 0
720 -397 0
720 466 0
-721 397 -468 0
721 -397 0
721 468 0
-722 397 -470 0
722 -397 0
722 470 0
-723 397 -473 0
723 -397 0
723 473 0
-724 397 -475 0
724 -397 0
724 475 0
-725 397 -477 0
725 -397 0
725 477 0
-726 478 -479 0
726 -478 0
726 479 0
-727 -478 479 0
727 478 0
727 -479 0
-728 -729 478 0
728 729 0
728 -478 0
-730 729 -478 0
730 -729 0
730 478 0
-731 480 -481 0
731 -480 0
731 481 0
-732 -480 481 0
732 480 0
732 -481 0
-733 -129 480 0
733 129 0
733 -480 0
-734 129 -480 0
734 -129 0
734 480 0
-735 482 -483 0
735 -482 0
735 483 0
-736 -482 483 0
736 482 0
736 -483 0
-737 -131 482 0
737 131 0
737 -482 0
-738 131 -482 0
738 -131 0
738 482 0
-739 137 -484 0
739 -137 0
739 484 0
-740 -137 484 0
740 137 0
740 -484 0
-741 140 -340 0
741 -140 0
741 340 0
-742 -140 340 0
742 140 0
742 -340 0
-743 142 -348 0
743 -142 0
743 348 0
-744 -142 348 0
744 142 0
744 -348 0
-745 145 -347 0
745 -145 0
745 347 0
-746 -145 347 0
746 145 0
746 -347 0
-747 154 -133 0
747 -154 0
747 133 0
-748 -154 133 0
748 154 0
748 -133 0
-749 158 -486 0
749 -158 0
749 486 0
-750 -158 486 0
750 158 0
750 -486 0
-751 164 -352 0
751 -164 0
751 352 0
-752 -164 352 0
752 164 0
752 -352 0
-753 171 -487 0
753 -171 0
753 487 0
-754 -171 487 0
754 171 0
754 -487 0
-755 174 -141 0
755 -174 0
755 141 0
-756 -174 141 0
756 174 0
756 -141 0
-757 182 -489 0
757 -182 0
757 489 0
-758 -182 489 0
758 182 0
758 -489 0
-759 187 -358 0
759 -187 0
759 358 0
-760 -187 358 0
760 187 0
760 -358 0
-761 190 -147 0
761 -190 0
761 147 0
-762 -190 147 0
762 190 0
762 -147 0
-763 198 -155 0
763 -198 0
763 155 0
-764 -198 155 0
764 198 0
764 -155 0
-765 207 -364 0
765 -207 0
765 364 0
-766 -207 364 0
766 207 0
766 -364 0
-767 214 -166 0
767 -214 0
767 166 0
-768 -214 166 0
768 214 0
768 -166 0
-769 218 -370 0
769 -218 0
769 370 0
-770 -218 370 0
770 218 0
770 -370 0
-771 222 -179 0
771 -222 0
771 179 0
-772 -222 179 0
772 222 0
772 -179 0
-773 228 -297 0
773 -228 0
773 297 0
-774 -228 297 0
774 228 0
774 -297 0
-775 235 -196 0
775 -235 0
775 196 0
-776 -235 196 0
776 235 0
776 -196 0
-777 241 -303 0
777 -241 0
777 303 0
-778 -241 303 0
778 241 0
778 -303 0
-779 246 -209 0
779 -246 0
779 209 0
-780 -246 209 0
780 246 0
780 -209 0
-781 254 -217 0
781 -254 0
781 217 0
-782 -254 217 0
782 254 0
782 -217 0
-783 263 -220 0
783 -263 0
783 220 0
-784 -263 220 0
784 263 0
784 -220 0
-785 266 -313 0
785 -266 0
785 313 0
-786 -266 313 0
786 266 0
786 -313 0
-787 270 -319 0
787 -270 0
787 319 0
-788 -270 319 0
788 270 0
788 -319 0
-789 273 -491 0
789 -273 0
789 491 0
-790 -273 491 0
790 273 0
790 -491 0
-791 276 -326 0
791 -276 0
791 326 0
-792 -276 326 0
792 276 0
792 -326 0
-793 279 -376 0
793 -279 0
793 376 0
-794 -279 376 0
794 279 0
794 -376 0
-795 283 -336 0
795 -283 0
795 336 0
-796 -283 336 0
796 283 0
796 -336 0
-797 289 -278 0
797 -289 0
797 278 0
-798 -289 278 0
798 289 0
798 -278 0
-799 293 -382 0
799 -293 0
799 382 0
-800 -293 382 0
800 293 0
800 -382 0
-801 296 -386 0
801 -296 0
801 386 0
-802 -296 386 0
802 296 0
802 -386 0
-803 298 -185 0
803 -298 0
803 185 0
-804 -298 185 0
804 298 0
804 -185 0
-805 305 -206 0
805 -305 0
805 206 0
-806 -305 206 0
806 305 0
806 -206 0
-807 311 -291 0
807 -311 0
807 291 0
-808 -311 291 0
808 311 0
808 -291 0
-809 316 -227 0
809 -316 0
809 227 0
-810 -316 227 0
810 316 0
810 -227 0
-811 506 -507 0
811 -506 0
811 507 0
-812 -506 507 0
812 506 0
812 -507 0
-813 -319 506 0
813 319 0
813 -506 0
-814 319 -506 0
814 -319 0
814 506 0
-815 323 -240 0
815 -323 0
815 240 0
-816 -323 240 0
816 323 0
816 -240 0
-817 328 -268 0
817 -328 0
817 268 0
-818 -328 268 0
818 328 0
818 -268 0
-819 332 -265 0
819 -332 0
819 265 0
-820 -332 265 0
820 332 0
820 -265 0
-821 338 -275 0
821 -338 0
821 275 0
-822 -338 275 0
822 338 0
822 -275 0
-823 508 -509 0
823 -508 0
823 509 0
-824 -508 509 0
824 508 0
824 -509 0
-825 -340 508 0
825 340 0
825 -508 0
-826 340 -508 0
826 -340 0
826 508 0
-827 342 -294 0
827 -342 0
827 294 0
-828 -342 294 0
828 342 0
828 -294 0
-829 510 -511 0
829 -510 0
829 511 0
-830 -510 511 0
830 510 0
830 -511 0
-831 -347 510 0
831 347 0
831 -510 0
-832 347 -510 0
832 -347 0
832 510 0
-833 350 -512 0
833 -350 0
833 512 0
-834 -350 512 0
834 350 0
834 -512 0
-835 355 -138 0
835 -355 0
835 138 0
-836 -355 138 0
836 355 0
836 -138 0
-837 360 -144 0
837 -360 0
837 144 0
-838 -360 144 0
838 360 0
838 -144 0
-839 368 -163 0
839 -368 0
839 163 0
-840 -368 163 0
840 368 0
840 -163 0
-841 375 -172 0
841 -375 0
841 172 0
-842 -375 172 0
842 375 0
842 -172 0
-843 377 -271 0
843 -377 0
843 271 0
-844 -377 271 0
844 377 0
844 -271 0
-845 383 -281 0
845 -383 0
845 281 0
-846 -383 281 0
846 383 0
846 -281 0
-847 391 -284 0
847 -391 0
847 284 0
-848 -391 284 0
848 391 0
848 -284 0
513 0
514 0
515 0
516 0
517 0
518 0
519 0
520 0
521 0
522 0
523 0
524 0
525 0
526 0
527 0
528 0
529 0
530 0
531 0
532 0
533 0
534 0
535 0
536 0
537 0
538 0
539 0
540 0
541 0
542 0
543 0
544 0
545 0
546 0
547 0
548 0
549 0
550 0
551 0
552 0
553 0
554 0
555 0
556 0
557 0
558 0
559 0
560 0
561 0
562 0
563 0
564 0
565 0
566 0
567 0
568 0
569 0
570 0
571 0
572 0
573 0
574 0
575 0
576 0
577 0
578 0
579 0
580 0
581 0
582 0
583 0
584 0
585 0
586 0
587 0
588 0
589 0
590 0
591 0
592 0
593 0
594 0
595 0
596 0
597 0
598 0
599 0
600 0
601 0
602 0
603 0
604 0
605 0
606 0
607 0
608 0
609 0
610 0
611 0
612 0
613 0
614 0
615 0
616 0
617 0
618 0
619 0
620 0
621 0
622 0
623 0
624 0
625 0
626 0
627 0
628 0
629 0
630 0
631 0
632 0
633 0
634 0
635 0
636 0
637 0
638 0
639 0
640 0
641 0
642 0
643 0
645 0
646 0
647 0
648 0
649 0
651 0
652 0
653 0
654 0
655 0
657 0
658 0
659 0
660 0
661 0
663 0
664 0
665 0
666 0
667 0
669 0
670 0
671 0
672 0
673 0
674 0
675 0
676 0
677 0
678 0
679 0
680 0
681 0
682 0
683 0
684 0
685 0
686 0
687 0
688 0
689 0
690 0
691 0
692 0
693 0
694 0
695 0
696 0
697 0
698 0
699 0
700 0
701 0
702 0
703 0
704 0
705 0
706 0
707 0
708 0
709 0
710 0
711 0
712 0
713 0
714 0
715 0
716 0
717 0
718 0
719 0
720 0
721 0
722 0
723 0
724 0
725 0
726 0
727 0
728 0
730 0
731 0
732 0
733 0
734 0
735 0
736 0
737 0
738 0
739 0
740 0
741 0
742 0
743 0
744 0
745 0
746 0
747 0
748 0
749 0
750 0
751 0
752 0
753 0
754 0
755 0
756 0
757 0
758 0
759 0
760 0
761 0
762 0
763 0
764 0
765 0
766 0
767 0
768 0
769 0
770 0
771 0
772 0
773 0
774 0
775 0
776 0
777 0
778 0
779 0
780 0
781 0
782 0
783 0
784 0
785 0
786 0
787 0
788 0
789 0
790 0
791 0
792 0
793 0
794 0
795 0
796 0
797 0
798 0
799 0
800 0
801 0
802 0
803 0
804 0
805 0
806 0
807 0
808 0
809 0
810 0
811 0
812 0
813 0
814 0
815 0
816 0
817 0
818 0
819 0
820 0
821 0
822 0
823 0
824 0
825 0
826 0
827 0
828 0
829 0
830 0
831 0
832 0
833 0
834 0
835 0
836 0
837 0
838 0
839 0
840 0
841 0
842 0
843 0
844 0
845 0
846 0
847 0
848 0
2 0
4 0
6 0
8 0
10 0
12 0
14 0
16 0
18 0
20 0
22 0
24 0
26 0
28 0
30 0
32 0
34 0
36 0
38 0
40 0
42 0
44 0
46 0
48 0
50 0
52 0
54 0
56 0
58 0
60 0
62 0
64 0
66 0
68 0
70 0
72 0
74 0
76 0
78 0
80 0
82 0
84 0
86 0
88 0
90 0
92 0
94 0
96 0
98 0
100 0
102 0
104 0
106 0
108 0
110 0
112 0
114 0
116 0
118 0
120 0
122 0
124 0
126 0
128 0
