c BC-S1.2
p cnf 95 279
1 -2 0
-1 2 0
3 -4 0
-3 4 0
5 -6 0
-5 6 0
7 -8 0
-7 8 0
9 -10 0
-9 10 0
11 -12 0
-11 12 0
13 -14 0
-13 14 0
15 -16 0
-15 16 0
17 -18 0
-17 18 0
19 -20 0
-19 20 0
21 -22 0
-21 22 0
2 -1 0
-2 1 0
4 -3 0
-4 3 0
6 -5 0
-6 5 0
8 -7 0
-8 7 0
10 -9 0
-10 9 0
12 -11 0
-12 11 0
14 -13 0
-14 13 0
16 -15 0
-16 15 0
18 -17 0
-18 17 0
23 -24 0
-23 24 0
20 -19 0
-20 19 0
25 -26 -27 0
-25 26 0
-25 27 0
22 -21 0
-22 21 0
28 -29 -27 0
-28 29 0
-28 27 0
30 -31 -19 0
-30 31 0
-30 19 0
32 -33 0
-32 33 0
34 -35 -21 0
-34 35 0
-34 21 0
36 -37 0
-36 37 0
38 -39 0
-38 39 0
40 -41 0
-40 41 0
-42 -1 2 0
42 1 0
42 -2 0
-43 1 -2 0
43 -1 0
43 2 0
-44 -3 4 0
44 3 0
44 -4 0
-45 3 -4 0
45 -3 0
45 4 0
-46 -5 6 0
46 5 0
46 -6 0
-47 5 -6 0
47 -5 0
47 6 0
-48 -7 8 0
48 7 0
48 -8 0
-49 7 -8 0
49 -7 0
49 8 0
-50 -9 10 0
50 9 0
50 -10 0
-51 9 -10 0
51 -9 0
51 10 0
-52 -11 12 0
52 11 0
52 -12 0
-53 11 -12 0
53 -11 0
53 12 0
-54 -13 14 0
54 13 0
54 -14 0
-55 13 -14 0
55 -13 0
55 14 0
-56 -15 16 0
56 15 0
56 -16 0
-57 15 -16 0
57 -15 0
57 16 0
-58 -17 18 0
58 17 0
58 -18 0
-59 17 -18 0
59 -17 0
59 18 0
-60 23 -24 0
60 -23 0
60 24 0
-61 -23 24 0
61 23 0
61 -24 0
-62 -63 23 0
62 63 0
62 -23 0
-64 63 -23 0
64 -63 0
64 23 0
-65 20 -19 0
65 -20 0
65 19 0
-66 -20 19 0
66 20 0
66 -19 0
-67 -68 20 25 0
67 68 0
67 -20 0
67 -25 0
-69 68 -20 0
69 -68 0
69 20 0
-70 68 -25 0
70 -68 0
70 25 0
-71 22 -21 0
71 -22 0
71 21 0
-72 -22 21 0
72 22 0
72 -21 0
-73 -74 22 28 0
73 74 0
73 -22 0
73 -28 0
-75 74 -22 0
75 -74 0
75 22 0
-76 74 -28 0
76 -74 0
76 28 0
-77 32 -33 0
77 -32 0
77 33 0
-78 -32 33 0
78 32 0
78 -33 0
-79 -27 30 32 34 0
79 27 0
79 -30 0
79 -32 0
79 -34 0
-80 27 -30 0
80 -27 0
80 30 0
-81 27 -32 0
81 -27 0
81 32 0
-82 27 -34 0
82 -27 0
82 34 0
-83 36 -37 0
83 -36 0
83 37 0
-84 -36 37 0
84 36 0
84 -37 0
-85 -86 36 0
85 86 0
85 -36 0
-87 86 -36 0
87 -86 0
87 36 0
-88 38 -39 0
88 -38 0
88 39 0
-89 -38 39 0
89 38 0
89 -39 0
-90 -19 38 0
90 19 0
90 -38 0
-91 19 -38 0
91 -19 0
91 38 0
-92 40 -41 0
92 -40 0
92 41 0
-93 -40 41 0
93 40 0
93 -41 0
-94 -21 40 0
94 21 0
94 -40 0
-95 21 -40 0
95 -21 0
95 40 0
42 0
43 0
44 0
45 0
46 0
47 0
48 0
49 0
50 0
51 0
52 0
53 0
54 0
55 0
56 0
57 0
58 0
59 0
60 0
61 0
62 0
64 0
65 0
66 0
67 0
69 0
70 0
71 0
72 0
73 0
75 0
76 0
77 0
78 0
79 0
80 0
81 0
82 0
83 0
84 0
85 0
87 0
88 0
89 0
90 0
91 0
92 0
93 0
94 0
95 0
2 0
4 0
6 0
8 0
10 0
12 0
14 0
16 0
18 0
