c BC-S1.2
p cnf 1088 3608
1 -2 0
-1 2 0
3 -4 0
-3 4 0
5 -6 0
-5 6 0
7 -8 0
-7 8 0
9 -10 0
-9 10 0
11 -12 0
-11 12 0
13 -14 0
-13 14 0
15 -16 0
-15 16 0
17 -18 0
-17 18 0
19 -20 0
-19 20 0
21 -22 0
-21 22 0
23 -24 0
-23 24 0
25 -26 0
-25 26 0
27 -28 0
-27 28 0
29 -30 0
-29 30 0
31 -32 0
-31 32 0
33 -34 0
-33 34 0
35 -36 0
-35 36 0
37 -38 0
-37 38 0
39 -40 0
-39 40 0
41 -42 0
-41 42 0
43 -44 0
-43 44 0
45 -46 0
-45 46 0
47 -48 0
-47 48 0
49 -50 0
-49 50 0
51 -52 0
-51 52 0
53 -54 0
-53 54 0
55 -56 0
-55 56 0
57 -58 0
-57 58 0
59 -60 0
-59 60 0
61 -62 0
-61 62 0
63 -64 0
-63 64 0
65 -66 0
-65 66 0
67 -68 0
-67 68 0
69 -70 0
-69 70 0
71 -72 0
-71 72 0
73 -74 0
-73 74 0
75 -76 0
-75 76 0
77 -78 0
-77 78 0
79 -80 0
-79 80 0
81 -82 0
-81 82 0
83 -84 0
-83 84 0
85 -86 0
-85 86 0
87 -88 0
-87 88 0
89 -90 0
-89 90 0
91 -92 0
-91 92 0
93 -94 0
-93 94 0
95 -96 0
-95 96 0
97 -98 0
-97 98 0
99 -100 0
-99 100 0
101 -102 0
-101 102 0
103 -104 0
-103 104 0
105 -106 0
-105 106 0
107 -108 0
-107 108 0
109 -110 0
-109 110 0
111 -112 0
-111 112 0
113 -114 0
-113 114 0
115 -116 0
-115 116 0
117 -118 0
-117 118 0
119 -120 0
-119 120 0
121 -122 0
-121 122 0
123 -124 0
-123 124 0
125 -126 0
-125 126 0
127 -128 0
-127 128 0
129 -130 0
-129 130 0
131 -132 0
-131 132 0
133 -134 0
-133 134 0
135 -136 0
-135 136 0
137 -138 0
-137 138 0
139 -140 0
-139 140 0
141 -142 0
-141 142 0
143 -144 0
-143 144 0
145 -146 0
-145 146 0
-147 148 149 150 151 152 153 154 155 0
147 -148 0
147 -149 0
147 -150 0
147 -151 0
147 -152 0
147 -153 0
147 -154 0
147 -155 0
156 -157 0
-156 157 0
158 -159 0
-158 159 0
160 -161 0
-160 161 0
162 -163 0
-162 163 0
164 -165 0
-164 165 0
166 -167 0
-166 167 0
168 -169 0
-168 169 0
-170 171 172 173 174 175 176 177 178 0
170 -171 0
170 -172 0
170 -173 0
170 -174 0
170 -175 0
170 -176 0
170 -177 0
170 -178 0
-179 180 181 182 183 184 185 186 187 0
179 -180 0
179 -181 0
179 -182 0
179 -183 0
179 -184 0
179 -185 0
179 -186 0
179 -187 0
-188 189 190 191 192 193 194 195 196 0
188 -189 0
188 -190 0
188 -191 0
188 -192 0
188 -193 0
188 -194 0
188 -195 0
188 -196 0
-197 198 199 200 201 202 203 204 205 0
197 -198 0
197 -199 0
197 -200 0
197 -201 0
197 -202 0
197 -203 0
197 -204 0
197 -205 0
-206 207 208 209 210 211 212 213 214 0
206 -207 0
206 -208 0
206 -209 0
206 -210 0
206 -211 0
206 -212 0
206 -213 0
206 -214 0
-215 216 217 218 219 220 221 222 223 0
215 -216 0
215 -217 0
215 -218 0
215 -219 0
215 -220 0
215 -221 0
215 -222 0
215 -223 0
-224 225 226 227 228 229 230 231 232 0
224 -225 0
224 -226 0
224 -227 0
224 -228 0
224 -229 0
224 -230 0
224 -231 0
224 -232 0
-233 234 235 236 237 238 239 240 241 0
233 -234 0
233 -235 0
233 -236 0
233 -237 0
233 -238 0
233 -239 0
233 -240 0
233 -241 0
-242 243 244 245 246 247 248 249 250 0
242 -243 0
242 -244 0
242 -245 0
242 -246 0
242 -247 0
242 -248 0
242 -249 0
242 -250 0
-251 252 253 254 255 256 257 258 259 0
251 -252 0
251 -253 0
251 -254 0
251 -255 0
251 -256 0
251 -257 0
251 -258 0
251 -259 0
-260 261 262 263 264 265 266 267 268 0
260 -261 0
260 -262 0
260 -263 0
260 -264 0
260 -265 0
260 -266 0
260 -267 0
260 -268 0
-269 270 271 272 273 274 275 276 277 0
269 -270 0
269 -271 0
269 -272 0
269 -273 0
269 -274 0
269 -275 0
269 -276 0
269 -277 0
-278 279 280 281 282 283 284 285 286 0
278 -279 0
278 -280 0
278 -281 0
278 -282 0
278 -283 0
278 -284 0
278 -285 0
278 -286 0
-287 288 289 290 291 292 293 294 295 0
287 -288 0
287 -289 0
287 -290 0
287 -291 0
287 -292 0
287 -293 0
287 -294 0
287 -295 0
-296 297 298 299 300 301 302 303 304 0
296 -297 0
296 -298 0
296 -299 0
296 -300 0
296 -301 0
296 -302 0
296 -303 0
296 -304 0
-305 306 307 308 309 310 311 312 313 0
305 -306 0
305 -307 0
305 -308 0
305 -309 0
305 -310 0
305 -311 0
305 -312 0
305 -313 0
-314 315 316 317 318 319 320 321 322 0
314 -315 0
314 -316 0
314 -317 0
314 -318 0
314 -319 0
314 -320 0
314 -321 0
314 -322 0
-323 324 325 326 327 328 329 330 331 0
323 -324 0
323 -325 0
323 -326 0
323 -327 0
323 -328 0
323 -329 0
323 -330 0
323 -331 0
-332 333 334 335 336 337 338 339 340 0
332 -333 0
332 -334 0
332 -335 0
332 -336 0
332 -337 0
332 -338 0
332 -339 0
332 -340 0
-341 342 343 344 345 346 347 348 349 0
341 -342 0
341 -343 0
341 -344 0
341 -345 0
341 -346 0
341 -347 0
341 -348 0
341 -349 0
-350 351 352 353 354 355 356 357 358 0
350 -351 0
350 -352 0
350 -353 0
350 -354 0
350 -355 0
350 -356 0
350 -357 0
350 -358 0
-359 360 361 362 363 364 365 366 367 0
359 -360 0
359 -361 0
359 -362 0
359 -363 0
359 -364 0
359 -365 0
359 -366 0
359 -367 0
-368 369 370 371 372 373 374 375 376 0
368 -369 0
368 -370 0
368 -371 0
368 -372 0
368 -373 0
368 -374 0
368 -375 0
368 -376 0
-377 378 379 380 381 382 383 384 385 0
377 -378 0
377 -379 0
377 -380 0
377 -381 0
377 -382 0
377 -383 0
377 -384 0
377 -385 0
-386 387 388 389 390 391 392 393 394 0
386 -387 0
386 -388 0
386 -389 0
386 -390 0
386 -391 0
386 -392 0
386 -393 0
386 -394 0
-395 396 397 398 399 400 401 402 403 0
395 -396 0
395 -397 0
395 -398 0
395 -399 0
395 -400 0
395 -401 0
395 -402 0
395 -403 0
-404 405 406 407 408 409 410 411 412 0
404 -405 0
404 -406 0
404 -407 0
404 -408 0
404 -409 0
404 -410 0
404 -411 0
404 -412 0
-413 414 415 416 417 418 419 420 421 0
413 -414 0
413 -415 0
413 -416 0
413 -417 0
413 -418 0
413 -419 0
413 -420 0
413 -421 0
-422 423 424 425 426 427 428 429 430 0
422 -423 0
422 -424 0
422 -425 0
422 -426 0
422 -427 0
422 -428 0
422 -429 0
422 -430 0
-431 432 433 434 435 436 437 438 439 0
431 -432 0
431 -433 0
431 -434 0
431 -435 0
431 -436 0
431 -437 0
431 -438 0
431 -439 0
-440 441 442 443 444 445 446 447 448 0
440 -441 0
440 -442 0
440 -443 0
440 -444 0
440 -445 0
440 -446 0
440 -447 0
440 -448 0
-449 450 451 452 453 454 455 456 457 0
449 -450 0
449 -451 0
449 -452 0
449 -453 0
449 -454 0
449 -455 0
449 -456 0
449 -457 0
-458 459 460 461 462 463 464 465 466 0
458 -459 0
458 -460 0
458 -461 0
458 -462 0
458 -463 0
458 -464 0
458 -465 0
458 -466 0
-467 468 469 470 471 472 473 474 475 0
467 -468 0
467 -469 0
467 -470 0
467 -471 0
467 -472 0
467 -473 0
467 -474 0
467 -475 0
-476 477 478 479 480 481 482 483 484 0
476 -477 0
476 -478 0
476 -479 0
476 -480 0
476 -481 0
476 -482 0
476 -483 0
476 -484 0
-485 486 487 488 489 490 491 492 493 0
485 -486 0
485 -487 0
485 -488 0
485 -489 0
485 -490 0
485 -491 0
485 -492 0
485 -493 0
-494 495 496 497 498 499 500 501 502 0
494 -495 0
494 -496 0
494 -497 0
494 -498 0
494 -499 0
494 -500 0
494 -501 0
494 -502 0
-503 504 505 506 507 508 509 510 511 0
503 -504 0
503 -505 0
503 -506 0
503 -507 0
503 -508 0
503 -509 0
503 -510 0
503 -511 0
-512 513 514 515 516 517 518 519 520 0
512 -513 0
512 -514 0
512 -515 0
512 -516 0
512 -517 0
512 -518 0
512 -519 0
512 -520 0
-521 522 523 524 525 526 527 528 529 0
521 -522 0
521 -523 0
521 -524 0
521 -525 0
521 -526 0
521 -527 0
521 -528 0
521 -529 0
-530 531 532 533 534 535 536 537 538 0
530 -531 0
530 -532 0
530 -533 0
530 -534 0
530 -535 0
530 -536 0
530 -537 0
530 -538 0
-539 540 541 542 543 544 545 546 547 0
539 -540 0
539 -541 0
539 -542 0
539 -543 0
539 -544 0
539 -545 0
539 -546 0
539 -547 0
-548 549 550 551 552 553 554 555 556 0
548 -549 0
548 -550 0
548 -551 0
548 -552 0
548 -553 0
548 -554 0
548 -555 0
548 -556 0
-557 558 559 560 561 562 563 564 565 0
557 -558 0
557 -559 0
557 -560 0
557 -561 0
557 -562 0
557 -563 0
557 -564 0
557 -565 0
-566 567 568 569 570 571 572 573 574 0
566 -567 0
566 -568 0
566 -569 0
566 -570 0
566 -571 0
566 -572 0
566 -573 0
566 -574 0
-575 576 577 578 579 580 581 582 583 0
575 -576 0
575 -577 0
575 -578 0
575 -579 0
575 -580 0
575 -581 0
575 -582 0
575 -583 0
-584 585 586 587 588 589 590 591 592 0
584 -585 0
584 -586 0
584 -587 0
584 -588 0
584 -589 0
584 -590 0
584 -591 0
584 -592 0
2 -1 0
-2 1 0
4 -3 0
-4 3 0
6 -5 0
-6 5 0
8 -7 0
-8 7 0
10 -9 0
-10 9 0
12 -11 0
-12 11 0
14 -13 0
-14 13 0
16 -15 0
-16 15 0
18 -17 0
-18 17 0
20 -19 0
-20 19 0
22 -21 0
-22 21 0
24 -23 0
-24 23 0
26 -25 0
-26 25 0
28 -27 0
-28 27 0
30 -29 0
-30 29 0
32 -31 0
-32 31 0
34 -33 0
-34 33 0
36 -35 0
-36 35 0
38 -37 0
-38 37 0
40 -39 0
-40 39 0
42 -41 0
-42 41 0
44 -43 0
-44 43 0
46 -45 0
-46 45 0
48 -47 0
-48 47 0
50 -49 0
-50 49 0
52 -51 0
-52 51 0
54 -53 0
-54 53 0
56 -55 0
-56 55 0
58 -57 0
-58 57 0
60 -59 0
-60 59 0
62 -61 0
-62 61 0
64 -63 0
-64 63 0
66 -65 0
-66 65 0
68 -67 0
-68 67 0
70 -69 0
-70 69 0
72 -71 0
-72 71 0
74 -73 0
-74 73 0
76 -75 0
-76 75 0
78 -77 0
-78 77 0
80 -79 0
-80 79 0
82 -81 0
-82 81 0
84 -83 0
-84 83 0
86 -85 0
-86 85 0
88 -87 0
-88 87 0
90 -89 0
-90 89 0
92 -91 0
-92 91 0
94 -93 0
-94 93 0
96 -95 0
-96 95 0
98 -97 0
-98 97 0
100 -99 0
-100 99 0
102 -101 0
-102 101 0
104 -103 0
-104 103 0
106 -105 0
-106 105 0
108 -107 0
-108 107 0
110 -109 0
-110 109 0
112 -111 0
-112 111 0
114 -113 0
-114 113 0
116 -115 0
-116 115 0
118 -117 0
-118 117 0
120 -119 0
-120 119 0
122 -121 0
-122 121 0
124 -123 0
-124 123 0
126 -125 0
-126 125 0
128 -127 0
-128 127 0
130 -129 0
-130 129 0
132 -131 0
-132 131 0
134 -133 0
-134 133 0
136 -135 0
-136 135 0
138 -137 0
-138 137 0
140 -139 0
-140 139 0
142 -141 0
-142 141 0
144 -143 0
-144 143 0
593 -594 -539 0
-593 594 0
-593 539 0
595 -596 -566 0
-595 596 0
-595 566 0
597 -598 -557 0
-597 598 0
-597 557 0
599 -600 -575 0
-599 600 0
-599 575 0
601 -602 -548 0
-601 602 0
-601 548 0
603 -458 0
-603 458 0
604 -605 -584 0
-604 605 0
-604 584 0
606 -607 -530 0
-606 607 0
-606 530 0
608 -609 -548 0
-608 609 0
-608 548 0
610 -611 -458 0
-610 611 0
-610 458 0
612 -613 -557 0
-612 613 0
-612 557 0
614 -615 -566 0
-614 615 0
-614 566 0
616 -530 0
-616 530 0
617 -618 -539 0
-617 618 0
-617 539 0
619 -620 -584 0
-619 620 0
-619 584 0
621 -622 -575 0
-621 622 0
-621 575 0
623 -624 -530 0
-623 624 0
-623 530 0
625 -626 -458 0
-625 626 0
-625 458 0
627 -628 -557 0
-627 628 0
-627 557 0
629 -575 0
-629 575 0
630 -631 -548 0
-630 631 0
-630 548 0
632 -633 -566 0
-632 633 0
-632 566 0
634 -635 -539 0
-634 635 0
-634 539 0
636 -637 -584 0
-636 637 0
-636 584 0
638 -639 -575 0
-638 639 0
-638 575 0
640 -557 0
-640 557 0
641 -642 -458 0
-641 642 0
-641 458 0
643 -644 -566 0
-643 644 0
-643 566 0
645 -646 -530 0
-645 646 0
-645 530 0
647 -648 -539 0
-647 648 0
-647 539 0
649 -650 -584 0
-649 650 0
-649 584 0
651 -652 -548 0
-651 652 0
-651 548 0
653 -654 -539 0
-653 654 0
-653 539 0
655 -656 -575 0
-655 656 0
-655 575 0
657 -658 -530 0
-657 658 0
-657 530 0
659 -660 -557 0
-659 660 0
-659 557 0
661 -584 0
-661 584 0
662 -663 -458 0
-662 663 0
-662 458 0
664 -665 -548 0
-664 665 0
-664 548 0
666 -667 -566 0
-666 667 0
-666 566 0
668 -669 -458 0
-668 669 0
-668 458 0
670 -671 -584 0
-670 671 0
-670 584 0
672 -548 0
-672 548 0
673 -674 -566 0
-673 674 0
-673 566 0
675 -676 -530 0
-675 676 0
-675 530 0
677 -678 -557 0
-677 678 0
-677 557 0
679 -680 -539 0
-679 680 0
-679 539 0
681 -682 -575 0
-681 682 0
-681 575 0
683 -566 0
-683 566 0
684 -685 -584 0
-684 685 0
-684 584 0
686 -687 -557 0
-686 687 0
-686 557 0
688 -689 -575 0
-688 689 0
-688 575 0
690 -691 -539 0
-690 691 0
-690 539 0
692 -693 -530 0
-692 693 0
-692 530 0
694 -695 -458 0
-694 695 0
-694 458 0
696 -697 -548 0
-696 697 0
-696 548 0
698 -699 -557 0
-698 699 0
-698 557 0
700 -701 -575 0
-700 701 0
-700 575 0
702 -703 -566 0
-702 703 0
-702 566 0
704 -705 -584 0
-704 705 0
-704 584 0
706 -707 -530 0
-706 707 0
-706 530 0
708 -709 -458 0
-708 709 0
-708 458 0
710 -539 0
-710 539 0
711 -712 -548 0
-711 712 0
-711 548 0
146 -713 0
-146 713 0
148 -605 -168 0
-148 605 0
-148 168 0
149 -607 -156 0
-149 607 0
-149 156 0
150 -598 -162 0
-150 598 0
-150 162 0
151 -594 -158 0
-151 594 0
-151 158 0
152 -602 -160 0
-152 602 0
-152 160 0
153 -596 -164 0
-153 596 0
-153 164 0
154 -600 -166 0
-154 600 0
-154 166 0
155 -145 0
-155 145 0
157 -714 0
-157 714 0
159 -715 0
-159 715 0
161 -716 0
-161 716 0
163 -717 0
-163 717 0
165 -718 0
-165 718 0
167 -719 0
-167 719 0
169 -720 0
-169 720 0
171 -607 -179 0
-171 607 0
-171 179 0
172 -598 -206 0
-172 598 0
-172 206 0
173 -594 -188 0
-173 594 0
-173 188 0
174 -602 -197 0
-174 602 0
-174 197 0
175 -147 0
-175 147 0
176 -600 -224 0
-176 600 0
-176 224 0
177 -605 -233 0
-177 605 0
-177 233 0
178 -596 -215 0
-178 596 0
-178 215 0
180 -156 0
-180 156 0
181 -613 -162 0
-181 613 0
-181 162 0
182 -618 -158 0
-182 618 0
-182 158 0
183 -622 -166 0
-183 622 0
-183 166 0
184 -609 -160 0
-184 609 0
-184 160 0
185 -615 -164 0
-185 615 0
-185 164 0
186 -611 -145 0
-186 611 0
-186 145 0
187 -620 -168 0
-187 620 0
-187 168 0
189 -709 -145 0
-189 709 0
-189 145 0
190 -707 -156 0
-190 707 0
-190 156 0
191 -158 0
-191 158 0
192 -699 -162 0
-192 699 0
-192 162 0
193 -701 -166 0
-193 701 0
-193 166 0
194 -712 -160 0
-194 712 0
-194 160 0
195 -703 -164 0
-195 703 0
-195 164 0
196 -705 -168 0
-196 705 0
-196 168 0
198 -682 -166 0
-198 682 0
-198 166 0
199 -674 -164 0
-199 674 0
-199 164 0
200 -669 -145 0
-200 669 0
-200 145 0
201 -671 -168 0
-201 671 0
-201 168 0
202 -160 0
-202 160 0
203 -680 -158 0
-203 680 0
-203 158 0
204 -676 -156 0
-204 676 0
-204 156 0
205 -678 -162 0
-205 678 0
-205 162 0
207 -648 -158 0
-207 648 0
-207 158 0
208 -162 0
-208 162 0
209 -652 -160 0
-209 652 0
-209 160 0
210 -644 -164 0
-210 644 0
-210 164 0
211 -642 -145 0
-211 642 0
-211 145 0
212 -646 -156 0
-212 646 0
-212 156 0
213 -650 -168 0
-213 650 0
-213 168 0
214 -639 -166 0
-214 639 0
-214 166 0
216 -691 -158 0
-216 691 0
-216 158 0
217 -697 -160 0
-217 697 0
-217 160 0
218 -695 -145 0
-218 695 0
-218 145 0
219 -164 0
-219 164 0
220 -685 -168 0
-220 685 0
-220 168 0
221 -687 -162 0
-221 687 0
-221 162 0
222 -689 -166 0
-222 689 0
-222 166 0
223 -693 -156 0
-223 693 0
-223 156 0
225 -631 -160 0
-225 631 0
-225 160 0
226 -633 -164 0
-226 633 0
-226 164 0
227 -637 -168 0
-227 637 0
-227 168 0
228 -624 -156 0
-228 624 0
-228 156 0
229 -166 0
-229 166 0
230 -626 -145 0
-230 626 0
-230 145 0
231 -628 -162 0
-231 628 0
-231 162 0
232 -635 -158 0
-232 635 0
-232 158 0
234 -658 -156 0
-234 658 0
-234 156 0
235 -667 -164 0
-235 667 0
-235 164 0
236 -168 0
-236 168 0
237 -660 -162 0
-237 660 0
-237 162 0
238 -665 -160 0
-238 665 0
-238 160 0
239 -663 -145 0
-239 663 0
-239 145 0
240 -654 -158 0
-240 654 0
-240 158 0
241 -656 -166 0
-241 656 0
-241 166 0
243 -600 -296 0
-243 600 0
-243 296 0
244 -607 -251 0
-244 607 0
-244 251 0
245 -170 0
-245 170 0
246 -605 -305 0
-246 605 0
-246 305 0
247 -596 -287 0
-247 596 0
-247 287 0
248 -598 -278 0
-248 598 0
-248 278 0
249 -594 -260 0
-249 594 0
-249 260 0
250 -602 -269 0
-250 602 0
-250 269 0
252 -179 0
-252 179 0
253 -609 -197 0
-253 609 0
-253 197 0
254 -622 -224 0
-254 622 0
-254 224 0
255 -615 -215 0
-255 615 0
-255 215 0
256 -613 -206 0
-256 613 0
-256 206 0
257 -618 -188 0
-257 618 0
-257 188 0
258 -611 -147 0
-258 611 0
-258 147 0
259 -620 -233 0
-259 620 0
-259 233 0
261 -701 -224 0
-261 701 0
-261 224 0
262 -712 -197 0
-262 712 0
-262 197 0
263 -703 -215 0
-263 703 0
-263 215 0
264 -699 -206 0
-264 699 0
-264 206 0
265 -705 -233 0
-265 705 0
-265 233 0
266 -707 -179 0
-266 707 0
-266 179 0
267 -188 0
-267 188 0
268 -709 -147 0
-268 709 0
-268 147 0
270 -678 -206 0
-270 678 0
-270 206 0
271 -682 -224 0
-271 682 0
-271 224 0
272 -674 -215 0
-272 674 0
-272 215 0
273 -680 -188 0
-273 680 0
-273 188 0
274 -671 -233 0
-274 671 0
-274 233 0
275 -669 -147 0
-275 669 0
-275 147 0
276 -197 0
-276 197 0
277 -676 -179 0
-277 676 0
-277 179 0
279 -646 -179 0
-279 646 0
-279 179 0
280 -652 -197 0
-280 652 0
-280 197 0
281 -206 0
-281 206 0
282 -644 -215 0
-282 644 0
-282 215 0
283 -648 -188 0
-283 648 0
-283 188 0
284 -650 -233 0
-284 650 0
-284 233 0
285 -642 -147 0
-285 642 0
-285 147 0
286 -639 -224 0
-286 639 0
-286 224 0
288 -685 -233 0
-288 685 0
-288 233 0
289 -687 -206 0
-289 687 0
-289 206 0
290 -689 -224 0
-290 689 0
-290 224 0
291 -691 -188 0
-291 691 0
-291 188 0
292 -693 -179 0
-292 693 0
-292 179 0
293 -697 -197 0
-293 697 0
-293 197 0
294 -215 0
-294 215 0
295 -695 -147 0
-295 695 0
-295 147 0
297 -635 -188 0
-297 635 0
-297 188 0
298 -631 -197 0
-298 631 0
-298 197 0
299 -626 -147 0
-299 626 0
-299 147 0
300 -633 -215 0
-300 633 0
-300 215 0
301 -628 -206 0
-301 628 0
-301 206 0
302 -637 -233 0
-302 637 0
-302 233 0
303 -224 0
-303 224 0
304 -624 -179 0
-304 624 0
-304 179 0
306 -658 -179 0
-306 658 0
-306 179 0
307 -667 -215 0
-307 667 0
-307 215 0
308 -660 -206 0
-308 660 0
-308 206 0
309 -233 0
-309 233 0
310 -665 -197 0
-310 665 0
-310 197 0
311 -654 -188 0
-311 654 0
-311 188 0
312 -656 -224 0
-312 656 0
-312 224 0
313 -663 -147 0
-313 663 0
-313 147 0
315 -600 -368 0
-315 600 0
-315 368 0
316 -605 -377 0
-316 605 0
-316 377 0
317 -242 0
-317 242 0
318 -607 -323 0
-318 607 0
-318 323 0
319 -596 -359 0
-319 596 0
-319 359 0
320 -598 -350 0
-320 598 0
-320 350 0
321 -594 -332 0
-321 594 0
-321 332 0
322 -602 -341 0
-322 602 0
-322 341 0
324 -609 -269 0
-324 609 0
-324 269 0
325 -615 -287 0
-325 615 0
-325 287 0
326 -613 -278 0
-326 613 0
-326 278 0
327 -618 -260 0
-327 618 0
-327 260 0
328 -611 -170 0
-328 611 0
-328 170 0
329 -620 -305 0
-329 620 0
-329 305 0
330 -251 0
-330 251 0
331 -622 -296 0
-331 622 0
-331 296 0
333 -260 0
-333 260 0
334 -709 -170 0
-334 709 0
-334 170 0
335 -712 -269 0
-335 712 0
-335 269 0
336 -703 -287 0
-336 703 0
-336 287 0
337 -699 -278 0
-337 699 0
-337 278 0
338 -701 -296 0
-338 701 0
-338 296 0
339 -705 -305 0
-339 705 0
-339 305 0
340 -707 -251 0
-340 707 0
-340 251 0
342 -671 -305 0
-342 671 0
-342 305 0
343 -674 -287 0
-343 674 0
-343 287 0
344 -269 0
-344 269 0
345 -680 -260 0
-345 680 0
-345 260 0
346 -676 -251 0
-346 676 0
-346 251 0
347 -669 -170 0
-347 669 0
-347 170 0
348 -678 -278 0
-348 678 0
-348 278 0
349 -682 -296 0
-349 682 0
-349 296 0
351 -652 -269 0
-351 652 0
-351 269 0
352 -642 -170 0
-352 642 0
-352 170 0
353 -650 -305 0
-353 650 0
-353 305 0
354 -639 -296 0
-354 639 0
-354 296 0
355 -648 -260 0
-355 648 0
-355 260 0
356 -646 -251 0
-356 646 0
-356 251 0
357 -644 -287 0
-357 644 0
-357 287 0
358 -278 0
-358 278 0
360 -685 -305 0
-360 685 0
-360 305 0
361 -689 -296 0
-361 689 0
-361 296 0
362 -691 -260 0
-362 691 0
-362 260 0
363 -693 -251 0
-363 693 0
-363 251 0
364 -697 -269 0
-364 697 0
-364 269 0
365 -287 0
-365 287 0
366 -695 -170 0
-366 695 0
-366 170 0
367 -687 -278 0
-367 687 0
-367 278 0
369 -624 -251 0
-369 624 0
-369 251 0
370 -626 -170 0
-370 626 0
-370 170 0
371 -628 -278 0
-371 628 0
-371 278 0
372 -631 -269 0
-372 631 0
-372 269 0
373 -633 -287 0
-373 633 0
-373 287 0
374 -635 -260 0
-374 635 0
-374 260 0
375 -637 -305 0
-375 637 0
-375 305 0
376 -296 0
-376 296 0
378 -667 -287 0
-378 667 0
-378 287 0
379 -305 0
-379 305 0
380 -660 -278 0
-380 660 0
-380 278 0
381 -654 -260 0
-381 654 0
-381 260 0
382 -656 -296 0
-382 656 0
-382 296 0
383 -665 -269 0
-383 665 0
-383 269 0
384 -663 -170 0
-384 663 0
-384 170 0
385 -658 -251 0
-385 658 0
-385 251 0
387 -602 -413 0
-387 602 0
-387 413 0
388 -314 0
-388 314 0
389 -600 -440 0
-389 600 0
-389 440 0
390 -605 -449 0
-390 605 0
-390 449 0
391 -607 -395 0
-391 607 0
-391 395 0
392 -598 -422 0
-392 598 0
-392 422 0
393 -594 -404 0
-393 594 0
-393 404 0
394 -596 -431 0
-394 596 0
-394 431 0
396 -609 -341 0
-396 609 0
-396 341 0
397 -615 -359 0
-397 615 0
-397 359 0
398 -613 -350 0
-398 613 0
-398 350 0
399 -618 -332 0
-399 618 0
-399 332 0
400 -622 -368 0
-400 622 0
-400 368 0
401 -611 -242 0
-401 611 0
-401 242 0
402 -620 -377 0
-402 620 0
-402 377 0
403 -323 0
-403 323 0
405 -703 -359 0
-405 703 0
-405 359 0
406 -705 -377 0
-406 705 0
-406 377 0
407 -707 -323 0
-407 707 0
-407 323 0
408 -332 0
-408 332 0
409 -709 -242 0
-409 709 0
-409 242 0
410 -712 -341 0
-410 712 0
-410 341 0
411 -699 -350 0
-411 699 0
-411 350 0
412 -701 -368 0
-412 701 0
-412 368 0
414 -669 -242 0
-414 669 0
-414 242 0
415 -678 -350 0
-415 678 0
-415 350 0
416 -341 0
-416 341 0
417 -682 -368 0
-417 682 0
-417 368 0
418 -671 -377 0
-418 671 0
-418 377 0
419 -676 -323 0
-419 676 0
-419 323 0
420 -674 -359 0
-420 674 0
-420 359 0
421 -680 -332 0
-421 680 0
-421 332 0
423 -350 0
-423 350 0
424 -652 -341 0
-424 652 0
-424 341 0
425 -642 -242 0
-425 642 0
-425 242 0
426 -650 -377 0
-426 650 0
-426 377 0
427 -646 -323 0
-427 646 0
-427 323 0
428 -639 -368 0
-428 639 0
-428 368 0
429 -644 -359 0
-429 644 0
-429 359 0
430 -648 -332 0
-430 648 0
-430 332 0
432 -693 -323 0
-432 693 0
-432 323 0
433 -697 -341 0
-433 697 0
-433 341 0
434 -691 -332 0
-434 691 0
-434 332 0
435 -359 0
-435 359 0
436 -689 -368 0
-436 689 0
-436 368 0
437 -695 -242 0
-437 695 0
-437 242 0
438 -687 -350 0
-438 687 0
-438 350 0
439 -685 -377 0
-439 685 0
-439 377 0
441 -637 -377 0
-441 637 0
-441 377 0
442 -368 0
-442 368 0
443 -624 -323 0
-443 624 0
-443 323 0
444 -633 -359 0
-444 633 0
-444 359 0
445 -631 -341 0
-445 631 0
-445 341 0
446 -626 -242 0
-446 626 0
-446 242 0
447 -628 -350 0
-447 628 0
-447 350 0
448 -635 -332 0
-448 635 0
-448 332 0
450 -377 0
-450 377 0
451 -667 -359 0
-451 667 0
-451 359 0
452 -660 -350 0
-452 660 0
-452 350 0
453 -665 -341 0
-453 665 0
-453 341 0
454 -654 -332 0
-454 654 0
-454 332 0
455 -656 -368 0
-455 656 0
-455 368 0
456 -663 -242 0
-456 663 0
-456 242 0
457 -658 -323 0
-457 658 0
-457 323 0
459 -594 -476 0
-459 594 0
-459 476 0
460 -596 -503 0
-460 596 0
-460 503 0
461 -602 -485 0
-461 602 0
-461 485 0
462 -600 -512 0
-462 600 0
-462 512 0
463 -386 0
-463 386 0
464 -605 -521 0
-464 605 0
-464 521 0
465 -607 -467 0
-465 607 0
-465 467 0
466 -598 -494 0
-466 598 0
-466 494 0
468 -622 -440 0
-468 622 0
-468 440 0
469 -611 -314 0
-469 611 0
-469 314 0
470 -620 -449 0
-470 620 0
-470 449 0
471 -395 0
-471 395 0
472 -613 -422 0
-472 613 0
-472 422 0
473 -618 -404 0
-473 618 0
-473 404 0
474 -609 -413 0
-474 609 0
-474 413 0
475 -615 -431 0
-475 615 0
-475 431 0
477 -404 0
-477 404 0
478 -709 -314 0
-478 709 0
-478 314 0
479 -703 -431 0
-479 703 0
-479 431 0
480 -699 -422 0
-480 699 0
-480 422 0
481 -705 -449 0
-481 705 0
-481 449 0
482 -712 -413 0
-482 712 0
-482 413 0
483 -701 -440 0
-483 701 0
-483 440 0
484 -707 -395 0
-484 707 0
-484 395 0
486 -680 -404 0
-486 680 0
-486 404 0
487 -676 -395 0
-487 676 0
-487 395 0
488 -678 -422 0
-488 678 0
-488 422 0
489 -674 -431 0
-489 674 0
-489 431 0
490 -413 0
-490 413 0
491 -669 -314 0
-491 669 0
-491 314 0
492 -682 -440 0
-492 682 0
-492 440 0
493 -671 -449 0
-493 671 0
-493 449 0
495 -650 -449 0
-495 650 0
-495 449 0
496 -639 -440 0
-496 639 0
-496 440 0
497 -644 -431 0
-497 644 0
-497 431 0
498 -648 -404 0
-498 648 0
-498 404 0
499 -646 -395 0
-499 646 0
-499 395 0
500 -652 -413 0
-500 652 0
-500 413 0
501 -422 0
-501 422 0
502 -642 -314 0
-502 642 0
-502 314 0
504 -697 -413 0
-504 697 0
-504 413 0
505 -691 -404 0
-505 691 0
-505 404 0
506 -431 0
-506 431 0
507 -693 -395 0
-507 693 0
-507 395 0
508 -689 -440 0
-508 689 0
-508 440 0
509 -695 -314 0
-509 695 0
-509 314 0
510 -687 -422 0
-510 687 0
-510 422 0
511 -685 -449 0
-511 685 0
-511 449 0
513 -631 -413 0
-513 631 0
-513 413 0
514 -637 -449 0
-514 637 0
-514 449 0
515 -440 0
-515 440 0
516 -628 -422 0
-516 628 0
-516 422 0
517 -624 -395 0
-517 624 0
-517 395 0
518 -626 -314 0
-518 626 0
-518 314 0
519 -633 -431 0
-519 633 0
-519 431 0
520 -635 -404 0
-520 635 0
-520 404 0
522 -667 -431 0
-522 667 0
-522 431 0
523 -449 0
-523 449 0
524 -665 -413 0
-524 665 0
-524 413 0
525 -660 -422 0
-525 660 0
-525 422 0
526 -654 -404 0
-526 654 0
-526 404 0
527 -656 -440 0
-527 656 0
-527 440 0
528 -663 -314 0
-528 663 0
-528 314 0
529 -658 -395 0
-529 658 0
-529 395 0
531 -467 0
-531 467 0
532 -622 -512 0
-532 622 0
-532 512 0
533 -609 -485 0
-533 609 0
-533 485 0
534 -615 -503 0
-534 615 0
-534 503 0
535 -613 -494 0
-535 613 0
-535 494 0
536 -618 -476 0
-536 618 0
-536 476 0
537 -611 -386 0
-537 611 0
-537 386 0
538 -620 -521 0
-538 620 0
-538 521 0
540 -707 -467 0
-540 707 0
-540 467 0
541 -476 0
-541 476 0
542 -699 -494 0
-542 699 0
-542 494 0
543 -712 -485 0
-543 712 0
-543 485 0
544 -703 -503 0
-544 703 0
-544 503 0
545 -709 -386 0
-545 709 0
-545 386 0
546 -701 -512 0
-546 701 0
-546 512 0
547 -705 -521 0
-547 705 0
-547 521 0
549 -669 -386 0
-549 669 0
-549 386 0
550 -682 -512 0
-550 682 0
-550 512 0
551 -671 -521 0
-551 671 0
-551 521 0
552 -676 -467 0
-552 676 0
-552 467 0
553 -678 -494 0
-553 678 0
-553 494 0
554 -674 -503 0
-554 674 0
-554 503 0
555 -485 0
-555 485 0
556 -680 -476 0
-556 680 0
-556 476 0
558 -639 -512 0
-558 639 0
-558 512 0
559 -648 -476 0
-559 648 0
-559 476 0
560 -494 0
-560 494 0
561 -646 -467 0
-561 646 0
-561 467 0
562 -644 -503 0
-562 644 0
-562 503 0
563 -652 -485 0
-563 652 0
-563 485 0
564 -642 -386 0
-564 642 0
-564 386 0
565 -650 -521 0
-565 650 0
-565 521 0
567 -691 -476 0
-567 691 0
-567 476 0
568 -697 -485 0
-568 697 0
-568 485 0
569 -503 0
-569 503 0
570 -695 -386 0
-570 695 0
-570 386 0
571 -687 -494 0
-571 687 0
-571 494 0
572 -689 -512 0
-572 689 0
-572 512 0
573 -685 -521 0
-573 685 0
-573 521 0
574 -693 -467 0
-574 693 0
-574 467 0
576 -631 -485 0
-576 631 0
-576 485 0
577 -626 -386 0
-577 626 0
-577 386 0
578 -633 -503 0
-578 633 0
-578 503 0
579 -635 -476 0
-579 635 0
-579 476 0
580 -637 -521 0
-580 637 0
-580 521 0
581 -624 -467 0
-581 624 0
-581 467 0
582 -628 -494 0
-582 628 0
-582 494 0
583 -512 0
-583 512 0
585 -658 -467 0
-585 658 0
-585 467 0
586 -521 0
-586 521 0
587 -667 -503 0
-587 667 0
-587 503 0
588 -665 -485 0
-588 665 0
-588 485 0
589 -663 -386 0
-589 663 0
-589 386 0
590 -660 -494 0
-590 660 0
-590 494 0
591 -654 -476 0
-591 654 0
-591 476 0
592 -656 -512 0
-592 656 0
-592 512 0
-721 -1 2 0
721 1 0
721 -2 0
-722 1 -2 0
722 -1 0
722 2 0
-723 -3 4 0
723 3 0
723 -4 0
-724 3 -4 0
724 -3 0
724 4 0
-725 -5 6 0
725 5 0
725 -6 0
-726 5 -6 0
726 -5 0
726 6 0
-727 -7 8 0
727 7 0
727 -8 0
-728 7 -8 0
728 -7 0
728 8 0
-729 -9 10 0
729 9 0
729 -10 0
-730 9 -10 0
730 -9 0
730 10 0
-731 -11 12 0
731 11 0
731 -12 0
-732 11 -12 0
732 -11 0
732 12 0
-733 -13 14 0
733 13 0
733 -14 0
-734 13 -14 0
734 -13 0
734 14 0
-735 -15 16 0
735 15 0
735 -16 0
-736 15 -16 0
736 -15 0
736 16 0
-737 -17 18 0
737 17 0
737 -18 0
-738 17 -18 0
738 -17 0
738 18 0
-739 -19 20 0
739 19 0
739 -20 0
-740 19 -20 0
740 -19 0
740 20 0
-741 -21 22 0
741 21 0
741 -22 0
-742 21 -22 0
742 -21 0
742 22 0
-743 -23 24 0
743 23 0
743 -24 0
-744 23 -24 0
744 -23 0
744 24 0
-745 -25 26 0
745 25 0
745 -26 0
-746 25 -26 0
746 -25 0
746 26 0
-747 -27 28 0
747 27 0
747 -28 0
-748 27 -28 0
748 -27 0
748 28 0
-749 -29 30 0
749 29 0
749 -30 0
-750 29 -30 0
750 -29 0
750 30 0
-751 -31 32 0
751 31 0
751 -32 0
-752 31 -32 0
752 -31 0
752 32 0
-753 -33 34 0
753 33 0
753 -34 0
-754 33 -34 0
754 -33 0
754 34 0
-755 -35 36 0
755 35 0
755 -36 0
-756 35 -36 0
756 -35 0
756 36 0
-757 -37 38 0
757 37 0
757 -38 0
-758 37 -38 0
758 -37 0
758 38 0
-759 -39 40 0
759 39 0
759 -40 0
-760 39 -40 0
760 -39 0
760 40 0
-761 -41 42 0
761 41 0
761 -42 0
-762 41 -42 0
762 -41 0
762 42 0
-763 -43 44 0
763 43 0
763 -44 0
-764 43 -44 0
764 -43 0
764 44 0
-765 -45 46 0
765 45 0
765 -46 0
-766 45 -46 0
766 -45 0
766 46 0
-767 -47 48 0
767 47 0
767 -48 0
-768 47 -48 0
768 -47 0
768 48 0
-769 -49 50 0
769 49 0
769 -50 0
-770 49 -50 0
770 -49 0
770 50 0
-771 -51 52 0
771 51 0
771 -52 0
-772 51 -52 0
772 -51 0
772 52 0
-773 -53 54 0
773 53 0
773 -54 0
-774 53 -54 0
774 -53 0
774 54 0
-775 -55 56 0
775 55 0
775 -56 0
-776 55 -56 0
776 -55 0
776 56 0
-777 -57 58 0
777 57 0
777 -58 0
-778 57 -58 0
778 -57 0
778 58 0
-779 -59 60 0
779 59 0
779 -60 0
-780 59 -60 0
780 -59 0
780 60 0
-781 -61 62 0
781 61 0
781 -62 0
-782 61 -62 0
782 -61 0
782 62 0
-783 -63 64 0
783 63 0
783 -64 0
-784 63 -64 0
784 -63 0
784 64 0
-785 -65 66 0
785 65 0
785 -66 0
-786 65 -66 0
786 -65 0
786 66 0
-787 -67 68 0
787 67 0
787 -68 0
-788 67 -68 0
788 -67 0
788 68 0
-789 -69 70 0
789 69 0
789 -70 0
-790 69 -70 0
790 -69 0
790 70 0
-791 -71 72 0
791 71 0
791 -72 0
-792 71 -72 0
792 -71 0
792 72 0
-793 -73 74 0
793 73 0
793 -74 0
-794 73 -74 0
794 -73 0
794 74 0
-795 -75 76 0
795 75 0
795 -76 0
-796 75 -76 0
796 -75 0
796 76 0
-797 -77 78 0
797 77 0
797 -78 0
-798 77 -78 0
798 -77 0
798 78 0
-799 -79 80 0
799 79 0
799 -80 0
-800 79 -80 0
800 -79 0
800 80 0
-801 -81 82 0
801 81 0
801 -82 0
-802 81 -82 0
802 -81 0
802 82 0
-803 -83 84 0
803 83 0
803 -84 0
-804 83 -84 0
804 -83 0
804 84 0
-805 -85 86 0
805 85 0
805 -86 0
-806 85 -86 0
806 -85 0
806 86 0
-807 -87 88 0
807 87 0
807 -88 0
-808 87 -88 0
808 -87 0
808 88 0
-809 -89 90 0
809 89 0
809 -90 0
-810 89 -90 0
810 -89 0
810 90 0
-811 -91 92 0
811 91 0
811 -92 0
-812 91 -92 0
812 -91 0
812 92 0
-813 -93 94 0
813 93 0
813 -94 0
-814 93 -94 0
814 -93 0
814 94 0
-815 -95 96 0
815 95 0
815 -96 0
-816 95 -96 0
816 -95 0
816 96 0
-817 -97 98 0
817 97 0
817 -98 0
-818 97 -98 0
818 -97 0
818 98 0
-819 -99 100 0
819 99 0
819 -100 0
-820 99 -100 0
820 -99 0
820 100 0
-821 -101 102 0
821 101 0
821 -102 0
-822 101 -102 0
822 -101 0
822 102 0
-823 -103 104 0
823 103 0
823 -104 0
-824 103 -104 0
824 -103 0
824 104 0
-825 -105 106 0
825 105 0
825 -106 0
-826 105 -106 0
826 -105 0
826 106 0
-827 -107 108 0
827 107 0
827 -108 0
-828 107 -108 0
828 -107 0
828 108 0
-829 -109 110 0
829 109 0
829 -110 0
-830 109 -110 0
830 -109 0
830 110 0
-831 -111 112 0
831 111 0
831 -112 0
-832 111 -112 0
832 -111 0
832 112 0
-833 -113 114 0
833 113 0
833 -114 0
-834 113 -114 0
834 -113 0
834 114 0
-835 -115 116 0
835 115 0
835 -116 0
-836 115 -116 0
836 -115 0
836 116 0
-837 -117 118 0
837 117 0
837 -118 0
-838 117 -118 0
838 -117 0
838 118 0
-839 -119 120 0
839 119 0
839 -120 0
-840 119 -120 0
840 -119 0
840 120 0
-841 -121 122 0
841 121 0
841 -122 0
-842 121 -122 0
842 -121 0
842 122 0
-843 -123 124 0
843 123 0
843 -124 0
-844 123 -124 0
844 -123 0
844 124 0
-845 -125 126 0
845 125 0
845 -126 0
-846 125 -126 0
846 -125 0
846 126 0
-847 -127 128 0
847 127 0
847 -128 0
-848 127 -128 0
848 -127 0
848 128 0
-849 -129 130 0
849 129 0
849 -130 0
-850 129 -130 0
850 -129 0
850 130 0
-851 -131 132 0
851 131 0
851 -132 0
-852 131 -132 0
852 -131 0
852 132 0
-853 -133 134 0
853 133 0
853 -134 0
-854 133 -134 0
854 -133 0
854 134 0
-855 -135 136 0
855 135 0
855 -136 0
-856 135 -136 0
856 -135 0
856 136 0
-857 -137 138 0
857 137 0
857 -138 0
-858 137 -138 0
858 -137 0
858 138 0
-859 -139 140 0
859 139 0
859 -140 0
-860 139 -140 0
860 -139 0
860 140 0
-861 -141 142 0
861 141 0
861 -142 0
-862 141 -142 0
862 -141 0
862 142 0
-863 -143 144 0
863 143 0
863 -144 0
-864 143 -144 0
864 -143 0
864 144 0
-865 603 -458 0
865 -603 0
865 458 0
-866 -603 458 0
866 603 0
866 -458 0
-867 -868 593 595 597 599 601 603 604 606 0
867 868 0
867 -593 0
867 -595 0
867 -597 0
867 -599 0
867 -601 0
867 -603 0
867 -604 0
867 -606 0
-869 868 -593 0
869 -868 0
869 593 0
-870 868 -595 0
870 -868 0
870 595 0
-871 868 -597 0
871 -868 0
871 597 0
-872 868 -599 0
872 -868 0
872 599 0
-873 868 -601 0
873 -868 0
873 601 0
-874 868 -603 0
874 -868 0
874 603 0
-875 868 -604 0
875 -868 0
875 604 0
-876 868 -606 0
876 -868 0
876 606 0
-877 616 -530 0
877 -616 0
877 530 0
-878 -616 530 0
878 616 0
878 -530 0
-879 -880 608 610 612 614 616 617 619 621 0
879 880 0
879 -608 0
879 -610 0
879 -612 0
879 -614 0
879 -616 0
879 -617 0
879 -619 0
879 -621 0
-881 880 -608 0
881 -880 0
881 608 0
-882 880 -610 0
882 -880 0
882 610 0
-883 880 -612 0
883 -880 0
883 612 0
-884 880 -614 0
884 -880 0
884 614 0
-885 880 -616 0
885 -880 0
885 616 0
-886 880 -617 0
886 -880 0
886 617 0
-887 880 -619 0
887 -880 0
887 619 0
-888 880 -621 0
888 -880 0
888 621 0
-889 629 -575 0
889 -629 0
889 575 0
-890 -629 575 0
890 629 0
890 -575 0
-891 -892 623 625 627 629 630 632 634 636 0
891 892 0
891 -623 0
891 -625 0
891 -627 0
891 -629 0
891 -630 0
891 -632 0
891 -634 0
891 -636 0
-893 892 -623 0
893 -892 0
893 623 0
-894 892 -625 0
894 -892 0
894 625 0
-895 892 -627 0
895 -892 0
895 627 0
-896 892 -629 0
896 -892 0
896 629 0
-897 892 -630 0
897 -892 0
897 630 0
-898 892 -632 0
898 -892 0
898 632 0
-899 892 -634 0
899 -892 0
899 634 0
-900 892 -636 0
900 -892 0
900 636 0
-901 640 -557 0
901 -640 0
901 557 0
-902 -640 557 0
902 640 0
902 -557 0
-903 -904 638 640 641 643 645 647 649 651 0
903 904 0
903 -638 0
903 -640 0
903 -641 0
903 -643 0
903 -645 0
903 -647 0
903 -649 0
903 -651 0
-905 904 -638 0
905 -904 0
905 638 0
-906 904 -640 0
906 -904 0
906 640 0
-907 904 -641 0
907 -904 0
907 641 0
-908 904 -643 0
908 -904 0
908 643 0
-909 904 -645 0
909 -904 0
909 645 0
-910 904 -647 0
910 -904 0
910 647 0
-911 904 -649 0
911 -904 0
911 649 0
-912 904 -651 0
912 -904 0
912 651 0
-913 661 -584 0
913 -661 0
913 584 0
-914 -661 584 0
914 661 0
914 -584 0
-915 -916 653 655 657 659 661 662 664 666 0
915 916 0
915 -653 0
915 -655 0
915 -657 0
915 -659 0
915 -661 0
915 -662 0
915 -664 0
915 -666 0
-917 916 -653 0
917 -916 0
917 653 0
-918 916 -655 0
918 -916 0
918 655 0
-919 916 -657 0
919 -916 0
919 657 0
-920 916 -659 0
920 -916 0
920 659 0
-921 916 -661 0
921 -916 0
921 661 0
-922 916 -662 0
922 -916 0
922 662 0
-923 916 -664 0
923 -916 0
923 664 0
-924 916 -666 0
924 -916 0
924 666 0
-925 672 -548 0
925 -672 0
925 548 0
-926 -672 548 0
926 672 0
926 -548 0
-927 -928 668 670 672 673 675 677 679 681 0
927 928 0
927 -668 0
927 -670 0
927 -672 0
927 -673 0
927 -675 0
927 -677 0
927 -679 0
927 -681 0
-929 928 -668 0
929 -928 0
929 668 0
-930 928 -670 0
930 -928 0
930 670 0
-931 928 -672 0
931 -928 0
931 672 0
-932 928 -673 0
932 -928 0
932 673 0
-933 928 -675 0
933 -928 0
933 675 0
-934 928 -677 0
934 -928 0
934 677 0
-935 928 -679 0
935 -928 0
935 679 0
-936 928 -681 0
936 -928 0
936 681 0
-937 683 -566 0
937 -683 0
937 566 0
-938 -683 566 0
938 683 0
938 -566 0
-939 -940 683 684 686 688 690 692 694 696 0
939 940 0
939 -683 0
939 -684 0
939 -686 0
939 -688 0
939 -690 0
939 -692 0
939 -694 0
939 -696 0
-941 940 -683 0
941 -940 0
941 683 0
-942 940 -684 0
942 -940 0
942 684 0
-943 940 -686 0
943 -940 0
943 686 0
-944 940 -688 0
944 -940 0
944 688 0
-945 940 -690 0
945 -940 0
945 690 0
-946 940 -692 0
946 -940 0
946 692 0
-947 940 -694 0
947 -940 0
947 694 0
-948 940 -696 0
948 -940 0
948 696 0
-949 710 -539 0
949 -710 0
949 539 0
-950 -710 539 0
950 710 0
950 -539 0
-951 -952 698 700 702 704 706 708 710 711 0
951 952 0
951 -698 0
951 -700 0
951 -702 0
951 -704 0
951 -706 0
951 -708 0
951 -710 0
951 -711 0
-953 952 -698 0
953 -952 0
953 698 0
-954 952 -700 0
954 -952 0
954 700 0
-955 952 -702 0
955 -952 0
955 702 0
-956 952 -704 0
956 -952 0
956 704 0
-957 952 -706 0
957 -952 0
957 706 0
-958 952 -708 0
958 -952 0
958 708 0
-959 952 -710 0
959 -952 0
959 710 0
-960 952 -711 0
960 -952 0
960 711 0
-961 146 -713 0
961 -146 0
961 713 0
-962 -146 713 0
962 146 0
962 -713 0
-963 -145 146 0
963 145 0
963 -146 0
-964 145 -146 0
964 -145 0
964 146 0
-965 155 -145 0
965 -155 0
965 145 0
-966 -155 145 0
966 155 0
966 -145 0
-967 157 -714 0
967 -157 0
967 714 0
-968 -157 714 0
968 157 0
968 -714 0
-969 -156 157 0
969 156 0
969 -157 0
-970 156 -157 0
970 -156 0
970 157 0
-971 159 -715 0
971 -159 0
971 715 0
-972 -159 715 0
972 159 0
972 -715 0
-973 -158 159 0
973 158 0
973 -159 0
-974 158 -159 0
974 -158 0
974 159 0
-975 161 -716 0
975 -161 0
975 716 0
-976 -161 716 0
976 161 0
976 -716 0
-977 -160 161 0
977 160 0
977 -161 0
-978 160 -161 0
978 -160 0
978 161 0
-979 163 -717 0
979 -163 0
979 717 0
-980 -163 717 0
980 163 0
980 -717 0
-981 -162 163 0
981 162 0
981 -163 0
-982 162 -163 0
982 -162 0
982 163 0
-983 165 -718 0
983 -165 0
983 718 0
-984 -165 718 0
984 165 0
984 -718 0
-985 -164 165 0
985 164 0
985 -165 0
-986 164 -165 0
986 -164 0
986 165 0
-987 167 -719 0
987 -167 0
987 719 0
-988 -167 719 0
988 167 0
988 -719 0
-989 -166 167 0
989 166 0
989 -167 0
-990 166 -167 0
990 -166 0
990 167 0
-991 169 -720 0
991 -169 0
991 720 0
-992 -169 720 0
992 169 0
992 -720 0
-993 -168 169 0
993 168 0
993 -169 0
-994 168 -169 0
994 -168 0
994 169 0
-995 175 -147 0
995 -175 0
995 147 0
-996 -175 147 0
996 175 0
996 -147 0
-997 180 -156 0
997 -180 0
997 156 0
-998 -180 156 0
998 180 0
998 -156 0
-999 191 -158 0
999 -191 0
999 158 0
-1000 -191 158 0
1000 191 0
1000 -158 0
-1001 202 -160 0
1001 -202 0
1001 160 0
-1002 -202 160 0
1002 202 0
1002 -160 0
-1003 208 -162 0
1003 -208 0
1003 162 0
-1004 -208 162 0
1004 208 0
1004 -162 0
-1005 219 -164 0
1005 -219 0
1005 164 0
-1006 -219 164 0
1006 219 0
1006 -164 0
-1007 229 -166 0
1007 -229 0
1007 166 0
-1008 -229 166 0
1008 229 0
1008 -166 0
-1009 236 -168 0
1009 -236 0
1009 168 0
-1010 -236 168 0
1010 236 0
1010 -168 0
-1011 245 -170 0
1011 -245 0
1011 170 0
-1012 -245 170 0
1012 245 0
1012 -170 0
-1013 252 -179 0
1013 -252 0
1013 179 0
-1014 -252 179 0
1014 252 0
1014 -179 0
-1015 267 -188 0
1015 -267 0
1015 188 0
-1016 -267 188 0
1016 267 0
1016 -188 0
-1017 276 -197 0
1017 -276 0
1017 197 0
-1018 -276 197 0
1018 276 0
1018 -197 0
-1019 281 -206 0
1019 -281 0
1019 206 0
-1020 -281 206 0
1020 281 0
1020 -206 0
-1021 294 -215 0
1021 -294 0
1021 215 0
-1022 -294 215 0
1022 294 0
1022 -215 0
-1023 303 -224 0
1023 -303 0
1023 224 0
-1024 -303 224 0
1024 303 0
1024 -224 0
-1025 309 -233 0
1025 -309 0
1025 233 0
-1026 -309 233 0
1026 309 0
1026 -233 0
-1027 317 -242 0
1027 -317 0
1027 242 0
-1028 -317 242 0
1028 317 0
1028 -242 0
-1029 330 -251 0
1029 -330 0
1029 251 0
-1030 -330 251 0
1030 330 0
1030 -251 0
-1031 333 -260 0
1031 -333 0
1031 260 0
-1032 -333 260 0
1032 333 0
1032 -260 0
-1033 344 -269 0
1033 -344 0
1033 269 0
-1034 -344 269 0
1034 344 0
1034 -269 0
-1035 358 -278 0
1035 -358 0
1035 278 0
-1036 -358 278 0
1036 358 0
1036 -278 0
-1037 365 -287 0
1037 -365 0
1037 287 0
-1038 -365 287 0
1038 365 0
1038 -287 0
-1039 376 -296 0
1039 -376 0
1039 296 0
-1040 -376 296 0
1040 376 0
1040 -296 0
-1041 379 -305 0
1041 -379 0
1041 305 0
-1042 -379 305 0
1042 379 0
1042 -305 0
-1043 388 -314 0
1043 -388 0
1043 314 0
-1044 -388 314 0
1044 388 0
1044 -314 0
-1045 403 -323 0
1045 -403 0
1045 323 0
-1046 -403 323 0
1046 403 0
1046 -323 0
-1047 408 -332 0
1047 -408 0
1047 332 0
-1048 -408 332 0
1048 408 0
1048 -332 0
-1049 416 -341 0
1049 -416 0
1049 341 0
-1050 -416 341 0
1050 416 0
1050 -341 0
-1051 423 -350 0
1051 -423 0
1051 350 0
-1052 -423 350 0
1052 423 0
1052 -350 0
-1053 435 -359 0
1053 -435 0
1053 359 0
-1054 -435 359 0
1054 435 0
1054 -359 0
-1055 442 -368 0
1055 -442 0
1055 368 0
-1056 -442 368 0
1056 442 0
1056 -368 0
-1057 450 -377 0
1057 -450 0
1057 377 0
-1058 -450 377 0
1058 450 0
1058 -377 0
-1059 463 -386 0
1059 -463 0
1059 386 0
-1060 -463 386 0
1060 463 0
1060 -386 0
-1061 471 -395 0
1061 -471 0
1061 395 0
-1062 -471 395 0
1062 471 0
1062 -395 0
-1063 477 -404 0
1063 -477 0
1063 404 0
-1064 -477 404 0
1064 477 0
1064 -404 0
-1065 490 -413 0
1065 -490 0
1065 413 0
-1066 -490 413 0
1066 490 0
1066 -413 0
-1067 501 -422 0
1067 -501 0
1067 422 0
-1068 -501 422 0
1068 501 0
1068 -422 0
-1069 506 -431 0
1069 -506 0
1069 431 0
-1070 -506 431 0
1070 506 0
1070 -431 0
-1071 515 -440 0
1071 -515 0
1071 440 0
-1072 -515 440 0
1072 515 0
1072 -440 0
-1073 523 -449 0
1073 -523 0
1073 449 0
-1074 -523 449 0
1074 523 0
1074 -449 0
-1075 531 -467 0
1075 -531 0
1075 467 0
-1076 -531 467 0
1076 531 0
1076 -467 0
-1077 541 -476 0
1077 -541 0
1077 476 0
-1078 -541 476 0
1078 541 0
1078 -476 0
-1079 555 -485 0
1079 -555 0
1079 485 0
-1080 -555 485 0
1080 555 0
1080 -485 0
-1081 560 -494 0
1081 -560 0
1081 494 0
-1082 -560 494 0
1082 560 0
1082 -494 0
-1083 569 -503 0
1083 -569 0
1083 503 0
-1084 -569 503 0
1084 569 0
1084 -503 0
-1085 583 -512 0
1085 -583 0
1085 512 0
-1086 -583 512 0
1086 583 0
1086 -512 0
-1087 586 -521 0
1087 -586 0
1087 521 0
-1088 -586 521 0
1088 586 0
1088 -521 0
721 0
722 0
723 0
724 0
725 0
726 0
727 0
728 0
729 0
730 0
731 0
732 0
733 0
734 0
735 0
736 0
737 0
738 0
739 0
740 0
741 0
742 0
743 0
744 0
745 0
746 0
747 0
748 0
749 0
750 0
751 0
752 0
753 0
754 0
755 0
756 0
757 0
758 0
759 0
760 0
761 0
762 0
763 0
764 0
765 0
766 0
767 0
768 0
769 0
770 0
771 0
772 0
773 0
774 0
775 0
776 0
777 0
778 0
779 0
780 0
781 0
782 0
783 0
784 0
785 0
786 0
787 0
788 0
789 0
790 0
791 0
792 0
793 0
794 0
795 0
796 0
797 0
798 0
799 0
800 0
801 0
802 0
803 0
804 0
805 0
806 0
807 0
808 0
809 0
810 0
811 0
812 0
813 0
814 0
815 0
816 0
817 0
818 0
819 0
820 0
821 0
822 0
823 0
824 0
825 0
826 0
827 0
828 0
829 0
830 0
831 0
832 0
833 0
834 0
835 0
836 0
837 0
838 0
839 0
840 0
841 0
842 0
843 0
844 0
845 0
846 0
847 0
848 0
849 0
850 0
851 0
852 0
853 0
854 0
855 0
856 0
857 0
858 0
859 0
860 0
861 0
862 0
863 0
864 0
865 0
866 0
867 0
869 0
870 0
871 0
872 0
873 0
874 0
875 0
876 0
877 0
878 0
879 0
881 0
882 0
883 0
884 0
885 0
886 0
887 0
888 0
889 0
890 0
891 0
893 0
894 0
895 0
896 0
897 0
898 0
899 0
900 0
901 0
902 0
903 0
905 0
906 0
907 0
908 0
909 0
910 0
911 0
912 0
913 0
914 0
915 0
917 0
918 0
919 0
920 0
921 0
922 0
923 0
924 0
925 0
926 0
927 0
929 0
930 0
931 0
932 0
933 0
934 0
935 0
936 0
937 0
938 0
939 0
941 0
942 0
943 0
944 0
945 0
946 0
947 0
948 0
949 0
950 0
951 0
953 0
954 0
955 0
956 0
957 0
958 0
959 0
960 0
961 0
962 0
963 0
964 0
965 0
966 0
967 0
968 0
969 0
970 0
971 0
972 0
973 0
974 0
975 0
976 0
977 0
978 0
979 0
980 0
981 0
982 0
983 0
984 0
985 0
986 0
987 0
988 0
989 0
990 0
991 0
992 0
993 0
994 0
995 0
996 0
997 0
998 0
999 0
1000 0
1001 0
1002 0
1003 0
1004 0
1005 0
1006 0
1007 0
1008 0
1009 0
1010 0
1011 0
1012 0
1013 0
1014 0
1015 0
1016 0
1017 0
1018 0
1019 0
1020 0
1021 0
1022 0
1023 0
1024 0
1025 0
1026 0
1027 0
1028 0
1029 0
1030 0
1031 0
1032 0
1033 0
1034 0
1035 0
1036 0
1037 0
1038 0
1039 0
1040 0
1041 0
1042 0
1043 0
1044 0
1045 0
1046 0
1047 0
1048 0
1049 0
1050 0
1051 0
1052 0
1053 0
1054 0
1055 0
1056 0
1057 0
1058 0
1059 0
1060 0
1061 0
1062 0
1063 0
1064 0
1065 0
1066 0
1067 0
1068 0
1069 0
1070 0
1071 0
1072 0
1073 0
1074 0
1075 0
1076 0
1077 0
1078 0
1079 0
1080 0
1081 0
1082 0
1083 0
1084 0
1085 0
1086 0
1087 0
1088 0
2 0
4 0
6 0
8 0
10 0
12 0
14 0
16 0
18 0
20 0
22 0
24 0
26 0
28 0
30 0
32 0
34 0
36 0
38 0
40 0
42 0
44 0
46 0
48 0
50 0
52 0
54 0
56 0
58 0
60 0
62 0
64 0
66 0
68 0
70 0
72 0
74 0
76 0
78 0
80 0
82 0
84 0
86 0
88 0
90 0
92 0
94 0
96 0
98 0
100 0
102 0
104 0
106 0
108 0
110 0
112 0
114 0
116 0
118 0
120 0
122 0
124 0
126 0
128 0
130 0
132 0
134 0
136 0
138 0
140 0
142 0
144 0
