c BC-S1.2
p cnf 1624 5401
1 -2 0
-1 2 0
3 -4 0
-3 4 0
5 -6 0
-5 6 0
7 -8 0
-7 8 0
9 -10 0
-9 10 0
11 -12 0
-11 12 0
13 -14 0
-13 14 0
15 -16 0
-15 16 0
17 -18 0
-17 18 0
19 -20 0
-19 20 0
21 -22 0
-21 22 0
23 -24 0
-23 24 0
25 -26 0
-25 26 0
27 -28 0
-27 28 0
29 -30 0
-29 30 0
31 -32 0
-31 32 0
33 -34 0
-33 34 0
35 -36 0
-35 36 0
37 -38 0
-37 38 0
39 -40 0
-39 40 0
41 -42 0
-41 42 0
43 -44 0
-43 44 0
45 -46 0
-45 46 0
47 -48 0
-47 48 0
49 -50 0
-49 50 0
51 -52 0
-51 52 0
53 -54 0
-53 54 0
55 -56 0
-55 56 0
57 -58 0
-57 58 0
59 -60 0
-59 60 0
61 -62 0
-61 62 0
63 -64 0
-63 64 0
65 -66 0
-65 66 0
67 -68 0
-67 68 0
69 -70 0
-69 70 0
71 -72 0
-71 72 0
73 -74 0
-73 74 0
75 -76 0
-75 76 0
77 -78 0
-77 78 0
79 -80 0
-79 80 0
81 -82 0
-81 82 0
83 -84 0
-83 84 0
85 -86 0
-85 86 0
87 -88 0
-87 88 0
89 -90 0
-89 90 0
91 -92 0
-91 92 0
93 -94 0
-93 94 0
95 -96 0
-95 96 0
97 -98 0
-97 98 0
99 -100 0
-99 100 0
101 -102 0
-101 102 0
103 -104 0
-103 104 0
105 -106 0
-105 106 0
107 -108 0
-107 108 0
109 -110 0
-109 110 0
111 -112 0
-111 112 0
113 -114 0
-113 114 0
115 -116 0
-115 116 0
117 -118 0
-117 118 0
119 -120 0
-119 120 0
121 -122 0
-121 122 0
123 -124 0
-123 124 0
125 -126 0
-125 126 0
127 -128 0
-127 128 0
129 -130 0
-129 130 0
131 -132 0
-131 132 0
133 -134 0
-133 134 0
135 -136 0
-135 136 0
137 -138 0
-137 138 0
139 -140 0
-139 140 0
141 -142 0
-141 142 0
143 -144 0
-143 144 0
145 -146 0
-145 146 0
147 -148 0
-147 148 0
149 -150 0
-149 150 0
151 -152 0
-151 152 0
153 -154 0
-153 154 0
155 -156 0
-155 156 0
157 -158 0
-157 158 0
159 -160 0
-159 160 0
161 -162 0
-161 162 0
163 -164 0
-163 164 0
165 -166 0
-165 166 0
167 -168 0
-167 168 0
169 -170 0
-169 170 0
171 -172 0
-171 172 0
173 -174 0
-173 174 0
175 -176 0
-175 176 0
177 -178 0
-177 178 0
179 -180 0
-179 180 0
181 -182 0
-181 182 0
183 -184 0
-183 184 0
185 -186 0
-185 186 0
187 -188 0
-187 188 0
189 -190 0
-189 190 0
191 -192 0
-191 192 0
193 -194 0
-193 194 0
195 -196 0
-195 196 0
197 -198 0
-197 198 0
199 -200 0
-199 200 0
201 -202 0
-201 202 0
203 -204 0
-203 204 0
205 -206 0
-205 206 0
207 -208 0
-207 208 0
209 -210 0
-209 210 0
211 -212 0
-211 212 0
213 -214 0
-213 214 0
215 -216 0
-215 216 0
217 -218 0
-217 218 0
219 -220 0
-219 220 0
221 -222 0
-221 222 0
223 -224 0
-223 224 0
225 -226 0
-225 226 0
227 -228 0
-227 228 0
229 -230 0
-229 230 0
231 -232 0
-231 232 0
233 -234 0
-233 234 0
235 -236 0
-235 236 0
237 -238 0
-237 238 0
239 -240 0
-239 240 0
241 -242 0
-241 242 0
243 -244 0
-243 244 0
245 -246 0
-245 246 0
247 -248 0
-247 248 0
249 -250 0
-249 250 0
251 -252 0
-251 252 0
253 -254 0
-253 254 0
255 -256 0
-255 256 0
257 -258 0
-257 258 0
259 -260 0
-259 260 0
261 -262 0
-261 262 0
263 -264 0
-263 264 0
265 -266 0
-265 266 0
267 -268 0
-267 268 0
269 -270 0
-269 270 0
271 -272 0
-271 272 0
273 -274 0
-273 274 0
275 -276 0
-275 276 0
277 -278 0
-277 278 0
279 -280 0
-279 280 0
281 -282 0
-281 282 0
283 -284 0
-283 284 0
285 -286 0
-285 286 0
287 -288 0
-287 288 0
289 -290 0
-289 290 0
291 -292 0
-291 292 0
2 -1 0
-2 1 0
293 -294 295 296 -209 0
-293 294 0
-293 -295 0
-293 -296 0
-293 209 0
297 -298 299 -203 0
-297 298 0
-297 -299 0
-297 203 0
224 -223 0
-224 223 0
300 -301 302 -213 0
-300 301 0
-300 -302 0
-300 213 0
303 -304 305 -219 0
-303 304 0
-303 -305 0
-303 219 0
306 -307 308 -217 0
-306 307 0
-306 -308 0
-306 217 0
309 -310 311 312 -207 0
-309 310 0
-309 -311 0
-309 -312 0
-309 207 0
313 -314 315 316 -215 0
-313 314 0
-313 -315 0
-313 -316 0
-313 215 0
317 -318 319 320 -205 0
-317 318 0
-317 -319 0
-317 -320 0
-317 205 0
321 -322 323 324 -211 0
-321 322 0
-321 -323 0
-321 -324 0
-321 211 0
325 -326 0
-325 326 0
327 -328 0
-327 328 0
329 -330 155 316 -215 0
-329 330 0
-329 -155 0
-329 -316 0
-329 215 0
331 -332 307 308 -217 0
-331 332 0
-331 -307 0
-331 -308 0
-331 217 0
333 -334 117 320 -205 0
-333 334 0
-333 -117 0
-333 -320 0
-333 205 0
335 -336 304 305 -219 0
-335 336 0
-335 -304 0
-335 -305 0
-335 219 0
228 -227 0
-228 227 0
337 -338 111 324 -211 0
-337 338 0
-337 -111 0
-337 -324 0
-337 211 0
339 -340 301 302 -213 0
-339 340 0
-339 -301 0
-339 -302 0
-339 213 0
341 -342 298 299 -203 0
-341 342 0
-341 -298 0
-341 -299 0
-341 203 0
343 -344 93 312 -207 0
-343 344 0
-343 -93 0
-343 -312 0
-343 207 0
345 -346 147 296 -209 0
-345 346 0
-345 -147 0
-345 -296 0
-345 209 0
6 -5 0
-6 5 0
347 -348 0
-347 348 0
349 -350 95 312 -207 0
-349 350 0
-349 -95 0
-349 -312 0
-349 207 0
351 -352 101 305 -219 0
-351 352 0
-351 -101 0
-351 -305 0
-351 219 0
353 -354 157 316 -215 0
-353 354 0
-353 -157 0
-353 -316 0
-353 215 0
355 -356 139 302 -213 0
-355 356 0
-355 -139 0
-355 -302 0
-355 213 0
357 -358 113 324 -211 0
-357 358 0
-357 -113 0
-357 -324 0
-357 211 0
359 -360 149 296 -209 0
-359 360 0
-359 -149 0
-359 -296 0
-359 209 0
184 -183 0
-184 183 0
361 -362 119 320 -205 0
-361 362 0
-361 -119 0
-361 -320 0
-361 205 0
363 -364 133 299 -203 0
-363 364 0
-363 -133 0
-363 -299 0
-363 203 0
365 -366 125 308 -217 0
-365 366 0
-365 -125 0
-365 -308 0
-365 217 0
367 -368 0
-367 368 0
10 -9 0
-10 9 0
369 -315 316 -49 0
-369 315 0
-369 -316 0
-369 49 0
242 -241 0
-242 241 0
370 -371 0
-370 371 0
372 -373 0
-372 373 0
280 -279 0
-280 279 0
374 -375 127 308 -23 0
-374 375 0
-374 -127 0
-374 -308 0
-374 23 0
376 -377 0
-376 377 0
18 -17 0
-18 17 0
378 -379 151 296 -41 0
-378 379 0
-378 -151 0
-378 -296 0
-378 41 0
282 -281 0
-282 281 0
380 -381 0
-380 381 0
22 -21 0
-22 21 0
248 -247 0
-248 247 0
382 -383 121 320 -45 0
-382 383 0
-382 -121 0
-382 -320 0
-382 45 0
26 -25 0
-26 25 0
384 -385 0
-384 385 0
284 -283 0
-284 283 0
386 -295 296 -41 0
-386 295 0
-386 -296 0
-386 41 0
387 -388 0
-387 388 0
30 -29 0
-30 29 0
389 -390 103 305 -19 0
-389 390 0
-389 -103 0
-389 -305 0
-389 19 0
250 -249 0
-250 249 0
391 -392 0
-391 392 0
34 -33 0
-34 33 0
38 -37 0
-38 37 0
393 -394 0
-393 394 0
395 -396 129 308 -281 0
-395 396 0
-395 -129 0
-395 -308 0
-395 281 0
397 -398 141 302 -283 0
-397 398 0
-397 -141 0
-397 -302 0
-397 283 0
399 -394 37 400 -3 0
-399 394 0
-399 -37 0
-399 -400 0
-399 3 0
401 -402 63 403 -7 0
-401 402 0
-401 -63 0
-401 -403 0
-401 7 0
210 -209 0
-210 209 0
404 -405 83 406 -11 0
-404 405 0
-404 -83 0
-404 -406 0
-404 11 0
407 -408 0
-407 408 0
40 -39 0
-40 39 0
409 -410 105 305 -19 0
-409 410 0
-409 -105 0
-409 -305 0
-409 19 0
252 -251 0
-252 251 0
411 -412 0
-411 412 0
44 -43 0
-44 43 0
413 -414 143 302 -31 0
-413 414 0
-413 -143 0
-413 -302 0
-413 31 0
254 -253 0
-254 253 0
48 -47 0
-48 47 0
415 -416 0
-415 416 0
417 -416 47 400 -3 0
-417 416 0
-417 -47 0
-417 -400 0
-417 3 0
418 -419 89 406 -11 0
-418 419 0
-418 -89 0
-418 -406 0
-418 11 0
420 -421 69 403 -7 0
-420 421 0
-420 -69 0
-420 -403 0
-420 7 0
422 -423 0
-422 423 0
424 -425 0
-424 425 0
54 -53 0
-54 53 0
426 -427 0
-426 427 0
428 -429 0
-428 429 0
56 -55 0
-56 55 0
58 -57 0
-58 57 0
430 -431 0
-430 431 0
60 -59 0
-60 59 0
432 -433 0
-432 433 0
62 -61 0
-62 61 0
434 -435 0
-434 435 0
436 -402 0
-436 402 0
64 -63 0
-64 63 0
437 -438 0
-437 438 0
66 -65 0
-66 65 0
439 -440 0
-439 440 0
68 -67 0
-68 67 0
70 -69 0
-70 69 0
441 -421 0
-441 421 0
442 -443 0
-442 443 0
444 -445 0
-444 445 0
446 -447 0
-446 447 0
74 -73 0
-74 73 0
448 -449 0
-448 449 0
76 -75 0
-76 75 0
450 -451 0
-450 451 0
78 -77 0
-78 77 0
80 -79 0
-80 79 0
452 -453 0
-452 453 0
454 -455 0
-454 455 0
82 -81 0
-82 81 0
84 -83 0
-84 83 0
456 -405 0
-456 405 0
86 -85 0
-86 85 0
457 -458 0
-457 458 0
459 -460 0
-459 460 0
88 -87 0
-88 87 0
461 -419 0
-461 419 0
90 -89 0
-90 89 0
462 -311 0
-462 311 0
463 -310 0
-463 310 0
464 -344 0
-464 344 0
94 -93 0
-94 93 0
96 -95 0
-96 95 0
465 -350 0
-465 350 0
466 -467 0
-466 467 0
98 -97 0
-98 97 0
468 -304 0
-468 304 0
469 -336 0
-469 336 0
102 -101 0
-102 101 0
470 -352 0
-470 352 0
471 -390 0
-471 390 0
104 -103 0
-104 103 0
472 -410 0
-472 410 0
106 -105 0
-106 105 0
473 -474 0
-473 474 0
108 -107 0
-108 107 0
475 -323 0
-475 323 0
476 -322 0
-476 322 0
477 -338 0
-477 338 0
112 -111 0
-112 111 0
478 -358 0
-478 358 0
114 -113 0
-114 113 0
479 -319 0
-479 319 0
480 -318 0
-480 318 0
481 -334 0
-481 334 0
118 -117 0
-118 117 0
482 -362 0
-482 362 0
120 -119 0
-120 119 0
483 -383 0
-483 383 0
122 -121 0
-122 121 0
484 -307 0
-484 307 0
485 -332 0
-485 332 0
486 -366 0
-486 366 0
126 -125 0
-126 125 0
487 -375 0
-487 375 0
128 -127 0
-128 127 0
130 -129 0
-130 129 0
488 -396 0
-488 396 0
489 -342 0
-489 342 0
490 -298 0
-490 298 0
491 -364 0
-491 364 0
134 -133 0
-134 133 0
136 -135 0
-136 135 0
492 -493 0
-492 493 0
494 -301 0
-494 301 0
495 -340 0
-495 340 0
140 -139 0
-140 139 0
496 -356 0
-496 356 0
142 -141 0
-142 141 0
497 -398 0
-497 398 0
144 -143 0
-144 143 0
498 -414 0
-498 414 0
499 -295 0
-499 295 0
500 -294 0
-500 294 0
501 -346 0
-501 346 0
148 -147 0
-148 147 0
502 -360 0
-502 360 0
150 -149 0
-150 149 0
152 -151 0
-152 151 0
503 -379 0
-503 379 0
504 -315 0
-504 315 0
505 -314 0
-505 314 0
506 -330 0
-506 330 0
156 -155 0
-156 155 0
158 -157 0
-158 157 0
507 -354 0
-507 354 0
160 -159 0
-160 159 0
508 -509 0
-508 509 0
510 -348 5 511 0
-510 348 0
-510 -5 0
-510 -511 0
512 -366 125 308 -179 0
-512 366 0
-512 -125 0
-512 -308 0
-512 179 0
513 -354 157 316 -177 0
-513 354 0
-513 -157 0
-513 -316 0
-513 177 0
514 -352 101 305 -181 0
-514 352 0
-514 -101 0
-514 -305 0
-514 181 0
515 -350 95 312 -169 0
-515 350 0
-515 -95 0
-515 -312 0
-515 169 0
516 -356 139 302 -175 0
-516 356 0
-516 -139 0
-516 -302 0
-516 175 0
517 -358 113 324 -173 0
-517 358 0
-517 -113 0
-517 -324 0
-517 173 0
518 -362 119 320 -167 0
-518 362 0
-518 -119 0
-518 -320 0
-518 167 0
519 -364 133 299 -165 0
-519 364 0
-519 -133 0
-519 -299 0
-519 165 0
520 -360 149 296 -171 0
-520 360 0
-520 -149 0
-520 -296 0
-520 171 0
521 -383 121 320 -167 0
-521 383 0
-521 -121 0
-521 -320 0
-521 167 0
256 -255 0
-256 255 0
522 -410 105 305 -181 0
-522 410 0
-522 -105 0
-522 -305 0
-522 181 0
258 -257 0
-258 257 0
523 -315 316 -177 0
-523 315 0
-523 -316 0
-523 177 0
260 -259 0
-260 259 0
524 -396 129 308 -287 0
-524 396 0
-524 -129 0
-524 -308 0
-524 287 0
525 -398 141 302 -285 0
-525 398 0
-525 -141 0
-525 -302 0
-525 285 0
262 -261 0
-262 261 0
526 -390 103 305 -181 0
-526 390 0
-526 -103 0
-526 -305 0
-526 181 0
527 -295 296 -171 0
-527 295 0
-527 -296 0
-527 171 0
286 -285 0
-286 285 0
528 -414 143 302 -175 0
-528 414 0
-528 -143 0
-528 -302 0
-528 175 0
264 -263 0
-264 263 0
529 -379 151 296 -171 0
-529 379 0
-529 -151 0
-529 -296 0
-529 171 0
288 -287 0
-288 287 0
530 -375 127 308 -179 0
-530 375 0
-530 -127 0
-530 -308 0
-530 179 0
266 -265 0
-266 265 0
531 -364 133 299 -185 0
-531 364 0
-531 -133 0
-531 -299 0
-531 185 0
532 -362 119 320 -187 0
-532 362 0
-532 -119 0
-532 -320 0
-532 187 0
533 -366 125 308 -199 0
-533 366 0
-533 -125 0
-533 -308 0
-533 199 0
534 -350 95 312 -189 0
-534 350 0
-534 -95 0
-534 -312 0
-534 189 0
164 -163 0
-164 163 0
535 -354 157 316 -197 0
-535 354 0
-535 -157 0
-535 -316 0
-535 197 0
536 -352 101 305 -201 0
-536 352 0
-536 -101 0
-536 -305 0
-536 201 0
537 -356 139 302 -195 0
-537 356 0
-537 -139 0
-537 -302 0
-537 195 0
538 -358 113 324 -193 0
-538 358 0
-538 -113 0
-538 -324 0
-538 193 0
539 -360 149 296 -191 0
-539 360 0
-539 -149 0
-539 -296 0
-539 191 0
268 -267 0
-268 267 0
540 -383 121 320 -187 0
-540 383 0
-540 -121 0
-540 -320 0
-540 187 0
541 -410 105 305 -201 0
-541 410 0
-541 -105 0
-541 -305 0
-541 201 0
270 -269 0
-270 269 0
542 -315 316 -197 0
-542 315 0
-542 -316 0
-542 197 0
272 -271 0
-272 271 0
543 -405 83 406 -163 0
-543 405 0
-543 -83 0
-543 -406 0
-543 163 0
172 -171 0
-172 171 0
544 -396 129 308 -291 0
-544 396 0
-544 -129 0
-544 -308 0
-544 291 0
545 -402 63 403 -225 0
-545 402 0
-545 -63 0
-545 -403 0
-545 225 0
546 -398 141 302 -289 0
-546 398 0
-546 -141 0
-546 -302 0
-546 289 0
547 -394 37 400 -221 0
-547 394 0
-547 -37 0
-547 -400 0
-547 221 0
548 -390 103 305 -201 0
-548 390 0
-548 -103 0
-548 -305 0
-548 201 0
230 -229 0
-230 229 0
549 -295 296 -191 0
-549 295 0
-549 -296 0
-549 191 0
290 -289 0
-290 289 0
274 -273 0
-274 273 0
550 -414 143 302 -195 0
-550 414 0
-550 -143 0
-550 -302 0
-550 195 0
292 -291 0
-292 291 0
551 -379 151 296 -191 0
-551 379 0
-551 -151 0
-551 -296 0
-551 191 0
276 -275 0
-276 275 0
552 -375 127 308 -199 0
-552 375 0
-552 -127 0
-552 -308 0
-552 199 0
553 -383 121 320 -205 0
-553 383 0
-553 -121 0
-553 -320 0
-553 205 0
232 -231 0
-232 231 0
554 -410 105 305 -219 0
-554 410 0
-554 -105 0
-554 -305 0
-554 219 0
234 -233 0
-234 233 0
236 -235 0
-236 235 0
555 -315 316 -215 0
-555 315 0
-555 -316 0
-555 215 0
556 -398 141 302 -213 0
-556 398 0
-556 -141 0
-556 -302 0
-556 213 0
278 -277 0
-278 277 0
238 -237 0
-238 237 0
557 -390 103 305 -219 0
-557 390 0
-557 -103 0
-557 -305 0
-557 219 0
196 -195 0
-196 195 0
558 -451 77 406 -183 0
-558 451 0
-558 -77 0
-558 -406 0
-558 183 0
559 -295 296 -277 0
-559 295 0
-559 -296 0
-559 277 0
560 -509 159 316 -239 0
-560 509 0
-560 -159 0
-560 -316 0
-560 239 0
561 -431 57 403 -227 0
-561 431 0
-561 -57 0
-561 -403 0
-561 227 0
562 -385 25 400 -223 0
-562 385 0
-562 -25 0
-562 -400 0
-562 223 0
240 -239 0
-240 239 0
563 -414 143 302 -213 0
-563 414 0
-563 -143 0
-563 -302 0
-563 213 0
564 -379 151 296 -209 0
-564 379 0
-564 -151 0
-564 -296 0
-564 209 0
246 -245 0
-246 245 0
565 -375 127 308 -217 0
-565 375 0
-565 -127 0
-565 -308 0
-565 217 0
244 -243 0
-244 243 0
566 -322 323 324 -173 0
-566 322 0
-566 -323 0
-566 -324 0
-566 173 0
567 -310 311 312 -169 0
-567 310 0
-567 -311 0
-567 -312 0
-567 169 0
568 -294 295 296 -171 0
-568 294 0
-568 -295 0
-568 -296 0
-568 171 0
569 -307 308 -179 0
-569 307 0
-569 -308 0
-569 179 0
570 -298 299 -165 0
-570 298 0
-570 -299 0
-570 165 0
571 -304 305 -181 0
-571 304 0
-571 -305 0
-571 181 0
572 -318 319 320 -167 0
-572 318 0
-572 -319 0
-572 -320 0
-572 167 0
573 -314 315 316 -177 0
-573 314 0
-573 -315 0
-573 -316 0
-573 177 0
574 -301 302 -175 0
-574 301 0
-574 -302 0
-574 175 0
575 -328 511 0
-575 328 0
-575 -511 0
576 -298 299 -185 0
-576 298 0
-576 -299 0
-576 185 0
577 -294 295 296 -191 0
-577 294 0
-577 -295 0
-577 -296 0
-577 191 0
578 -304 305 -201 0
-578 304 0
-578 -305 0
-578 201 0
579 -307 308 -199 0
-579 307 0
-579 -308 0
-579 199 0
580 -310 311 312 -189 0
-580 310 0
-580 -311 0
-580 -312 0
-580 189 0
581 -314 315 316 -197 0
-581 314 0
-581 -315 0
-581 -316 0
-581 197 0
582 -301 302 -195 0
-582 301 0
-582 -302 0
-582 195 0
583 -318 319 320 -187 0
-583 318 0
-583 -319 0
-583 -320 0
-583 187 0
584 -322 323 324 -193 0
-584 322 0
-584 -323 0
-584 -324 0
-584 193 0
222 -221 0
-222 221 0
585 -342 298 299 -165 0
-585 342 0
-585 -298 0
-585 -299 0
-585 165 0
586 -344 93 312 -169 0
-586 344 0
-586 -93 0
-586 -312 0
-586 169 0
587 -332 307 308 -179 0
-587 332 0
-587 -307 0
-587 -308 0
-587 179 0
588 -346 147 296 -171 0
-588 346 0
-588 -147 0
-588 -296 0
-588 171 0
589 -326 328 511 0
-589 326 0
-589 -328 0
-589 -511 0
590 -330 155 316 -177 0
-590 330 0
-590 -155 0
-590 -316 0
-590 177 0
591 -336 304 305 -181 0
-591 336 0
-591 -304 0
-591 -305 0
-591 181 0
592 -334 117 320 -167 0
-592 334 0
-592 -117 0
-592 -320 0
-592 167 0
593 -340 301 302 -175 0
-593 340 0
-593 -301 0
-593 -302 0
-593 175 0
594 -338 111 324 -173 0
-594 338 0
-594 -111 0
-594 -324 0
-594 173 0
226 -225 0
-226 225 0
595 -340 301 302 -195 0
-595 340 0
-595 -301 0
-595 -302 0
-595 195 0
596 -342 298 299 -185 0
-596 342 0
-596 -298 0
-596 -299 0
-596 185 0
597 -344 93 312 -189 0
-597 344 0
-597 -93 0
-597 -312 0
-597 189 0
598 -346 147 296 -191 0
-598 346 0
-598 -147 0
-598 -296 0
-598 191 0
599 -332 307 308 -199 0
-599 332 0
-599 -307 0
-599 -308 0
-599 199 0
600 -330 155 316 -197 0
-600 330 0
-600 -155 0
-600 -316 0
-600 197 0
601 -336 304 305 -201 0
-601 336 0
-601 -304 0
-601 -305 0
-601 201 0
602 -338 111 324 -193 0
-602 338 0
-602 -111 0
-602 -324 0
-602 193 0
603 -334 117 320 -187 0
-603 334 0
-603 -117 0
-603 -320 0
-603 187 0
604 -453 79 406 -163 0
-604 453 0
-604 -79 0
-604 -406 0
-604 163 0
174 -173 0
-174 173 0
605 -388 29 400 -221 0
-605 388 0
-605 -29 0
-605 -400 0
-605 221 0
606 -433 59 403 -225 0
-606 433 0
-606 -59 0
-606 -403 0
-606 225 0
186 -185 0
-186 185 0
607 -381 21 400 -223 0
-607 381 0
-607 -21 0
-607 -400 0
-607 223 0
608 -429 55 403 -227 0
-608 429 0
-608 -55 0
-608 -403 0
-608 227 0
609 -449 75 406 -183 0
-609 449 0
-609 -75 0
-609 -406 0
-609 183 0
610 -438 65 403 -227 0
-610 438 0
-610 -65 0
-610 -403 0
-610 227 0
611 -493 135 299 -231 0
-611 493 0
-611 -135 0
-611 -299 0
-611 231 0
612 -408 39 400 -223 0
-612 408 0
-612 -39 0
-612 -400 0
-612 223 0
613 -458 85 406 -183 0
-613 458 0
-613 -85 0
-613 -406 0
-613 183 0
188 -187 0
-188 187 0
614 -435 61 403 -227 0
-614 435 0
-614 -61 0
-614 -403 0
-614 227 0
615 -392 33 400 -223 0
-615 392 0
-615 -33 0
-615 -400 0
-615 223 0
616 -455 81 406 -183 0
-616 455 0
-616 -81 0
-616 -406 0
-616 183 0
190 -189 0
-190 189 0
194 -193 0
-194 193 0
617 -433 59 403 -227 0
-617 433 0
-617 -59 0
-617 -403 0
-617 227 0
618 -388 29 400 -223 0
-618 388 0
-618 -29 0
-618 -400 0
-618 223 0
619 -453 79 406 -183 0
-619 453 0
-619 -79 0
-619 -406 0
-619 183 0
620 -412 43 400 -223 0
-620 412 0
-620 -43 0
-620 -400 0
-620 223 0
198 -197 0
-198 197 0
621 -467 97 312 -235 0
-621 467 0
-621 -97 0
-621 -312 0
-621 235 0
622 -440 67 403 -227 0
-622 440 0
-622 -67 0
-622 -403 0
-622 227 0
623 -460 87 406 -183 0
-623 460 0
-623 -87 0
-623 -406 0
-623 183 0
624 -392 33 400 -3 0
-624 392 0
-624 -33 0
-624 -400 0
-624 3 0
625 -455 81 406 -11 0
-625 455 0
-625 -81 0
-625 -406 0
-625 11 0
208 -207 0
-208 207 0
626 -435 61 403 -7 0
-626 435 0
-626 -61 0
-626 -403 0
-626 7 0
627 -445 443 406 -183 0
-627 445 0
-627 -443 0
-627 -406 0
-627 183 0
202 -201 0
-202 201 0
628 -319 320 -233 0
-628 319 0
-628 -320 0
-628 233 0
629 -373 371 400 -223 0
-629 373 0
-629 -371 0
-629 -400 0
-629 223 0
630 -323 324 -237 0
-630 323 0
-630 -324 0
-630 237 0
631 -425 423 403 -227 0
-631 425 0
-631 -423 0
-631 -403 0
-631 227 0
200 -199 0
-200 199 0
632 -474 107 305 -243 0
-632 474 0
-632 -107 0
-632 -305 0
-632 243 0
633 -377 17 400 -223 0
-633 377 0
-633 -17 0
-633 -400 0
-633 223 0
634 -447 73 406 -183 0
-634 447 0
-634 -73 0
-634 -406 0
-634 183 0
635 -427 53 403 -227 0
-635 427 0
-635 -53 0
-635 -403 0
-635 227 0
636 -449 75 406 -11 0
-636 449 0
-636 -75 0
-636 -406 0
-636 11 0
637 -381 21 400 -3 0
-637 381 0
-637 -21 0
-637 -400 0
-637 3 0
638 -429 55 403 -7 0
-638 429 0
-638 -55 0
-638 -403 0
-638 7 0
204 -203 0
-204 203 0
639 -388 29 400 -3 0
-639 388 0
-639 -29 0
-639 -400 0
-639 3 0
640 -453 79 406 -11 0
-640 453 0
-640 -79 0
-640 -406 0
-640 11 0
212 -211 0
-212 211 0
641 -433 59 403 -7 0
-641 433 0
-641 -59 0
-641 -403 0
-641 7 0
642 -458 85 406 -11 0
-642 458 0
-642 -85 0
-642 -406 0
-642 11 0
206 -205 0
-206 205 0
643 -438 65 403 -7 0
-643 438 0
-643 -65 0
-643 -403 0
-643 7 0
644 -493 135 299 -247 0
-644 493 0
-644 -135 0
-644 -299 0
-644 247 0
645 -408 39 400 -3 0
-645 408 0
-645 -39 0
-645 -400 0
-645 3 0
646 -460 87 406 -11 0
-646 460 0
-646 -87 0
-646 -406 0
-646 11 0
647 -440 67 403 -7 0
-647 440 0
-647 -67 0
-647 -403 0
-647 7 0
648 -412 43 400 -3 0
-648 412 0
-648 -43 0
-648 -400 0
-648 3 0
649 -467 97 312 -241 0
-649 467 0
-649 -97 0
-649 -312 0
-649 241 0
216 -215 0
-216 215 0
650 -493 135 299 -255 0
-650 493 0
-650 -135 0
-650 -299 0
-650 255 0
651 -368 9 511 0
-651 368 0
-651 -9 0
-651 -511 0
652 -467 97 312 -259 0
-652 467 0
-652 -97 0
-652 -312 0
-652 259 0
653 -323 324 -261 0
-653 323 0
-653 -324 0
-653 261 0
654 -319 320 -257 0
-654 319 0
-654 -320 0
-654 257 0
655 -429 55 403 -225 0
-655 429 0
-655 -55 0
-655 -403 0
-655 225 0
656 -449 75 406 -163 0
-656 449 0
-656 -75 0
-656 -406 0
-656 163 0
166 -165 0
-166 165 0
657 -381 21 400 -221 0
-657 381 0
-657 -21 0
-657 -400 0
-657 221 0
658 -458 85 406 -163 0
-658 458 0
-658 -85 0
-658 -406 0
-658 163 0
659 -408 39 400 -221 0
-659 408 0
-659 -39 0
-659 -400 0
-659 221 0
168 -167 0
-168 167 0
660 -493 135 299 -267 0
-660 493 0
-660 -135 0
-660 -299 0
-660 267 0
661 -438 65 403 -225 0
-661 438 0
-661 -65 0
-661 -403 0
-661 225 0
662 -455 81 406 -163 0
-662 455 0
-662 -81 0
-662 -406 0
-662 163 0
170 -169 0
-170 169 0
663 -392 33 400 -221 0
-663 392 0
-663 -33 0
-663 -400 0
-663 221 0
664 -435 61 403 -225 0
-664 435 0
-664 -61 0
-664 -403 0
-664 225 0
665 -467 97 312 -271 0
-665 467 0
-665 -97 0
-665 -312 0
-665 271 0
178 -177 0
-178 177 0
666 -440 67 403 -225 0
-666 440 0
-666 -67 0
-666 -403 0
-666 225 0
667 -412 43 400 -221 0
-667 412 0
-667 -43 0
-667 -400 0
-667 221 0
668 -460 87 406 -163 0
-668 460 0
-668 -87 0
-668 -406 0
-668 163 0
669 -373 371 400 -221 0
-669 373 0
-669 -371 0
-669 -400 0
-669 221 0
670 -425 423 403 -225 0
-670 425 0
-670 -423 0
-670 -403 0
-670 225 0
671 -323 324 -229 0
-671 323 0
-671 -324 0
-671 229 0
672 -445 443 406 -163 0
-672 445 0
-672 -443 0
-672 -406 0
-672 163 0
673 -319 320 -269 0
-673 319 0
-673 -320 0
-673 269 0
182 -181 0
-182 181 0
674 -396 129 308 -245 0
-674 396 0
-674 -129 0
-674 -308 0
-674 245 0
192 -191 0
-192 191 0
675 -405 83 406 -183 0
-675 405 0
-675 -83 0
-675 -406 0
-675 183 0
676 -402 63 403 -227 0
-676 402 0
-676 -63 0
-676 -403 0
-676 227 0
677 -394 37 400 -223 0
-677 394 0
-677 -37 0
-677 -400 0
-677 223 0
678 -319 320 -251 0
-678 319 0
-678 -320 0
-678 251 0
679 -425 423 403 -7 0
-679 425 0
-679 -423 0
-679 -403 0
-679 7 0
680 -323 324 -249 0
-680 323 0
-680 -324 0
-680 249 0
681 -445 443 406 -11 0
-681 445 0
-681 -443 0
-681 -406 0
-681 11 0
220 -219 0
-220 219 0
682 -373 371 400 -3 0
-682 373 0
-682 -371 0
-682 -400 0
-682 3 0
683 -377 17 400 -3 0
-683 377 0
-683 -17 0
-683 -400 0
-683 3 0
684 -447 73 406 -11 0
-684 447 0
-684 -73 0
-684 -406 0
-684 11 0
685 -427 53 403 -7 0
-685 427 0
-685 -53 0
-685 -403 0
-685 7 0
686 -474 107 305 -279 0
-686 474 0
-686 -107 0
-686 -305 0
-686 279 0
218 -217 0
-218 217 0
687 -509 159 316 -253 0
-687 509 0
-687 -159 0
-687 -316 0
-687 253 0
214 -213 0
-214 213 0
688 -451 77 406 -11 0
-688 451 0
-688 -77 0
-688 -406 0
-688 11 0
689 -431 57 403 -7 0
-689 431 0
-689 -57 0
-689 -403 0
-689 7 0
690 -385 25 400 -3 0
-690 385 0
-690 -25 0
-690 -400 0
-690 3 0
691 -509 159 316 -263 0
-691 509 0
-691 -159 0
-691 -316 0
-691 263 0
692 -474 107 305 -265 0
-692 474 0
-692 -107 0
-692 -305 0
-692 265 0
176 -175 0
-176 175 0
693 -385 25 400 -221 0
-693 385 0
-693 -25 0
-693 -400 0
-693 221 0
694 -451 77 406 -163 0
-694 451 0
-694 -77 0
-694 -406 0
-694 163 0
695 -509 159 316 -273 0
-695 509 0
-695 -159 0
-695 -316 0
-695 273 0
696 -431 57 403 -225 0
-696 431 0
-696 -57 0
-696 -403 0
-696 225 0
697 -474 107 305 -275 0
-697 474 0
-697 -107 0
-697 -305 0
-697 275 0
698 -447 73 406 -163 0
-698 447 0
-698 -73 0
-698 -406 0
-698 163 0
699 -377 17 400 -221 0
-699 377 0
-699 -17 0
-699 -400 0
-699 221 0
700 -427 53 403 -225 0
-700 427 0
-700 -53 0
-700 -403 0
-700 225 0
180 -179 0
-180 179 0
-16 369 242 0
16 -369 0
16 -242 0
-701 624 625 208 626 0
701 -624 0
701 -625 0
701 -208 0
701 -626 0
-100 466 98 0
100 -466 0
100 -98 0
-702 462 463 0
702 -462 0
702 -463 0
-703 464 94 0
703 -464 0
703 -94 0
-704 96 465 0
704 -96 0
704 -465 0
-705 523 260 0
705 -523 0
705 -260 0
-706 542 272 0
706 -542 0
706 -272 0
-707 236 555 0
707 -236 0
707 -555 0
-708 190 614 615 616 0
708 -190 0
708 -614 0
708 -615 0
708 -616 0
-709 170 662 663 664 0
709 -170 0
709 -662 0
709 -663 0
709 -664 0
-710 504 505 0
710 -504 0
710 -505 0
-711 506 156 0
711 -506 0
711 -156 0
-712 158 507 0
712 -158 0
712 -507 0
-162 160 508 0
162 -160 0
162 -508 0
-713 309 313 0
713 -309 0
713 -313 0
-714 343 329 0
714 -343 0
714 -329 0
-715 349 353 0
715 -349 0
715 -353 0
-716 515 513 0
716 -515 0
716 -513 0
-717 534 535 0
717 -534 0
717 -535 0
-718 567 573 0
718 -567 0
718 -573 0
-719 580 581 0
719 -580 0
719 -581 0
-720 586 590 0
720 -586 0
720 -590 0
-721 597 600 0
721 -597 0
721 -600 0
-722 391 34 0
722 -391 0
722 -34 0
-723 38 393 0
723 -38 0
723 -393 0
-724 407 40 0
724 -407 0
724 -40 0
-725 411 44 0
725 -411 0
725 -44 0
-726 621 620 0
726 -621 0
726 -620 0
-727 649 648 0
727 -649 0
727 -648 0
-728 665 667 0
728 -665 0
728 -667 0
-729 325 327 0
729 -325 0
729 -327 0
-730 6 347 0
730 -6 0
730 -347 0
-14 367 10 0
14 -367 0
14 -10 0
-731 716 510 0
731 -716 0
731 -510 0
-732 718 575 0
732 -718 0
732 -575 0
-733 720 589 0
733 -720 0
733 -589 0
-734 454 82 0
734 -454 0
734 -82 0
-735 84 456 0
735 -84 0
735 -456 0
-736 86 457 0
736 -86 0
736 -457 0
-737 459 88 0
737 -459 0
737 -88 0
-92 461 90 0
92 -461 0
92 -90 0
-72 70 441 0
72 -70 0
72 -441 0
-738 62 434 0
738 -62 0
738 -434 0
-739 436 64 0
739 -436 0
739 -64 0
-740 437 66 0
740 -437 0
740 -66 0
-741 439 68 0
741 -439 0
741 -68 0
-52 48 415 0
52 -48 0
52 -415 0
-742 543 545 0
742 -543 0
742 -545 0
-743 613 610 0
743 -613 0
743 -610 0
-744 623 622 0
744 -623 0
744 -622 0
-745 642 643 0
745 -642 0
745 -643 0
-746 646 647 0
746 -646 0
746 -647 0
-747 404 401 0
747 -404 0
747 -401 0
-748 658 661 0
748 -658 0
748 -661 0
-749 668 666 0
749 -668 0
749 -666 0
-750 675 676 0
750 -675 0
750 -676 0
-751 418 420 417 0
751 -418 0
751 -420 0
751 -417 0
-752 399 747 0
752 -399 0
752 -747 0
-753 547 742 0
753 -547 0
753 -742 0
-754 612 743 0
754 -612 0
754 -743 0
-755 726 744 198 0
755 -726 0
755 -744 0
755 -198 0
-756 645 745 0
756 -645 0
756 -745 0
-757 727 746 216 0
757 -727 0
757 -746 0
757 -216 0
-758 659 748 0
758 -659 0
758 -748 0
-759 728 749 178 0
759 -728 0
759 -749 0
759 -178 0
-760 677 750 0
760 -677 0
760 -750 0
-761 484 485 0
761 -484 0
761 -485 0
-762 486 126 0
762 -486 0
762 -126 0
-763 487 128 0
763 -487 0
763 -128 0
-132 130 488 0
132 -130 0
132 -488 0
-154 152 503 0
154 -152 0
154 -503 0
-764 551 292 0
764 -551 0
764 -292 0
-765 564 246 0
765 -564 0
765 -246 0
-24 378 282 0
24 -378 0
24 -282 0
-766 529 288 0
766 -529 0
766 -288 0
-767 499 500 0
767 -499 0
767 -500 0
-768 501 148 0
768 -501 0
768 -148 0
-769 502 150 0
769 -502 0
769 -150 0
-770 306 293 0
770 -306 0
770 -293 0
-771 331 345 0
771 -331 0
771 -345 0
-772 365 359 0
772 -365 0
772 -359 0
-773 569 568 0
773 -569 0
773 -568 0
-774 579 577 0
774 -579 0
774 -577 0
-775 587 588 0
775 -587 0
775 -588 0
-776 599 598 0
776 -599 0
776 -598 0
-777 512 520 0
777 -512 0
777 -520 0
-778 533 539 0
778 -533 0
778 -539 0
-779 494 495 0
779 -494 0
779 -495 0
-780 140 496 0
780 -140 0
780 -496 0
-781 142 497 0
781 -142 0
781 -497 0
-32 284 386 0
32 -284 0
32 -386 0
-146 144 498 0
146 -144 0
146 -498 0
-782 527 286 0
782 -527 0
782 -286 0
-783 549 290 0
783 -549 0
783 -290 0
-784 770 300 0
784 -770 0
784 -300 0
-785 771 339 0
785 -771 0
785 -339 0
-786 772 355 0
786 -772 0
786 -355 0
-787 395 397 210 0
787 -395 0
787 -397 0
787 -210 0
-788 777 516 0
788 -777 0
788 -516 0
-789 524 525 0
789 -524 0
789 -525 0
-790 778 537 0
790 -778 0
790 -537 0
-791 544 546 172 0
791 -544 0
791 -546 0
791 -172 0
-792 556 278 0
792 -556 0
792 -278 0
-793 196 559 0
793 -196 0
793 -559 0
-794 773 574 0
794 -773 0
794 -574 0
-795 774 582 0
795 -774 0
795 -582 0
-796 775 593 0
796 -775 0
796 -593 0
-797 776 595 0
797 -776 0
797 -595 0
-798 713 784 0
798 -713 0
798 -784 0
-799 714 785 0
799 -714 0
799 -785 0
-800 715 786 0
800 -715 0
800 -786 0
-42 752 787 0
42 -752 0
42 -787 0
-50 254 413 0
50 -254 0
50 -413 0
-801 731 788 0
801 -731 0
801 -788 0
-802 264 528 0
802 -264 0
802 -528 0
-803 717 790 0
803 -717 0
803 -790 0
-804 753 791 0
804 -753 0
804 -791 0
-805 274 550 0
805 -274 0
805 -550 0
-806 560 793 0
806 -560 0
806 -793 0
-807 240 563 0
807 -240 0
807 -563 0
-808 732 794 0
808 -732 0
808 -794 0
-809 719 795 0
809 -719 0
809 -795 0
-810 733 796 0
810 -733 0
810 -796 0
-811 721 797 0
811 -721 0
811 -797 0
-812 760 674 192 0
812 -760 0
812 -674 0
812 -192 0
-813 695 176 0
813 -695 0
813 -176 0
-138 136 492 0
138 -136 0
138 -492 0
-814 370 372 0
814 -370 0
814 -372 0
-815 376 18 0
815 -376 0
815 -18 0
-816 380 22 0
816 -380 0
816 -22 0
-817 422 424 0
817 -422 0
817 -424 0
-818 54 426 0
818 -54 0
818 -426 0
-819 56 428 0
819 -56 0
819 -428 0
-820 607 608 609 186 0
820 -607 0
820 -608 0
820 -609 0
820 -186 0
-821 629 631 0
821 -629 0
821 -631 0
-822 633 635 0
822 -633 0
822 -635 0
-823 637 638 636 0
823 -637 0
823 -638 0
823 -636 0
-824 657 655 656 166 0
824 -657 0
824 -655 0
824 -656 0
824 -166 0
-825 669 670 0
825 -669 0
825 -670 0
-826 682 679 0
826 -682 0
826 -679 0
-827 683 685 0
827 -683 0
827 -685 0
-828 699 700 0
828 -699 0
828 -700 0
-829 442 444 0
829 -442 0
829 -444 0
-830 446 74 0
830 -446 0
830 -74 0
-831 448 76 0
831 -448 0
831 -76 0
-832 821 627 0
832 -821 0
832 -627 0
-833 822 634 0
833 -822 0
833 -634 0
-834 825 672 0
834 -825 0
834 -672 0
-835 826 681 0
835 -826 0
835 -681 0
-836 827 684 0
836 -827 0
836 -684 0
-837 828 698 0
837 -828 0
837 -698 0
-28 248 382 0
28 -248 0
28 -382 0
-46 409 252 0
46 -409 0
46 -252 0
-838 472 106 0
838 -472 0
838 -106 0
-110 473 108 0
110 -473 0
110 -108 0
-124 483 122 0
124 -483 0
124 -122 0
-839 479 480 0
839 -479 0
839 -480 0
-840 481 118 0
840 -481 0
840 -118 0
-841 482 120 0
841 -482 0
841 -120 0
-842 522 258 0
842 -522 0
842 -258 0
-843 541 270 0
843 -541 0
843 -270 0
-844 554 234 0
844 -554 0
844 -234 0
-845 489 490 0
845 -489 0
845 -490 0
-846 491 134 0
846 -491 0
846 -134 0
-847 317 297 0
847 -317 0
847 -297 0
-848 333 341 0
848 -333 0
848 -341 0
-849 361 363 0
849 -361 0
849 -363 0
-850 518 519 0
850 -518 0
850 -519 0
-851 256 521 0
851 -256 0
851 -521 0
-852 532 531 0
852 -532 0
852 -531 0
-853 268 540 0
853 -268 0
853 -540 0
-854 232 553 0
854 -232 0
854 -553 0
-855 572 570 0
855 -572 0
855 -570 0
-856 583 576 0
856 -583 0
856 -576 0
-857 592 585 0
857 -592 0
857 -585 0
-858 603 596 0
858 -603 0
858 -596 0
-859 611 188 0
859 -611 0
859 -188 0
-860 832 628 0
860 -832 0
860 -628 0
-861 833 632 0
861 -833 0
861 -632 0
-862 823 204 0
862 -823 0
862 -204 0
-863 644 206 0
863 -644 0
863 -206 0
-864 660 168 0
864 -660 0
864 -168 0
-865 834 673 0
865 -834 0
865 -673 0
-866 835 678 0
866 -835 0
866 -678 0
-867 836 686 0
867 -836 0
867 -686 0
-868 837 697 0
868 -837 0
868 -697 0
-869 58 430 0
869 -58 0
869 -430 0
-870 60 432 0
870 -60 0
870 -432 0
-871 604 174 605 606 0
871 -604 0
871 -174 0
871 -605 0
871 -606 0
-872 194 617 618 619 0
872 -194 0
872 -617 0
872 -618 0
872 -619 0
-873 639 640 212 641 0
873 -639 0
873 -640 0
873 -212 0
873 -641 0
-874 561 562 0
874 -561 0
874 -562 0
-875 384 26 0
875 -384 0
875 -26 0
-876 387 30 0
876 -387 0
876 -30 0
-877 689 690 0
877 -689 0
877 -690 0
-878 696 693 0
878 -696 0
878 -693 0
-879 450 78 0
879 -450 0
879 -78 0
-880 874 558 0
880 -874 0
880 -558 0
-881 452 80 0
881 -452 0
881 -80 0
-882 877 688 0
882 -877 0
882 -688 0
-883 878 694 0
883 -878 0
883 -694 0
-884 468 469 0
884 -468 0
884 -469 0
-885 102 470 0
885 -102 0
885 -470 0
-886 471 104 0
886 -471 0
886 -104 0
-887 475 476 0
887 -475 0
887 -476 0
-888 477 112 0
888 -477 0
888 -112 0
-116 478 114 0
116 -478 0
116 -114 0
-889 303 321 0
889 -303 0
889 -321 0
-890 335 337 0
890 -335 0
890 -337 0
-891 351 357 0
891 -351 0
891 -357 0
-36 250 389 0
36 -250 0
36 -389 0
-892 514 517 0
892 -514 0
892 -517 0
-893 526 262 0
893 -526 0
893 -262 0
-894 536 538 0
894 -536 0
894 -538 0
-895 230 548 0
895 -230 0
895 -548 0
-896 238 557 0
896 -238 0
896 -557 0
-897 571 566 0
897 -571 0
897 -566 0
-898 578 584 0
898 -578 0
898 -584 0
-899 591 594 0
899 -591 0
899 -594 0
-900 601 602 0
900 -601 0
900 -602 0
-901 847 889 0
901 -847 0
901 -889 0
-902 848 890 0
902 -848 0
902 -890 0
-903 849 891 0
903 -849 0
903 -891 0
-904 850 892 0
904 -850 0
904 -892 0
-905 852 894 0
905 -852 0
905 -894 0
-906 855 897 0
906 -855 0
906 -897 0
-907 856 898 0
907 -856 0
907 -898 0
-908 857 899 0
908 -857 0
908 -899 0
-909 858 900 0
909 -858 0
909 -900 0
-910 860 630 202 0
910 -860 0
910 -630 0
910 -202 0
-911 654 653 0
911 -654 0
911 -653 0
-912 865 671 182 0
912 -865 0
912 -671 0
912 -182 0
-913 866 680 220 0
913 -866 0
913 -680 0
913 -220 0
-4 798 901 224 0
4 -798 0
4 -901 0
4 -224 0
-914 552 276 0
914 -552 0
914 -276 0
-8 799 902 228 0
8 -799 0
8 -902 0
8 -228 0
-12 800 903 184 0
12 -800 0
12 -903 0
12 -184 0
-915 806 880 0
915 -806 0
915 -880 0
-916 565 244 0
916 -565 0
916 -244 0
-917 808 906 0
917 -808 0
917 -906 0
-918 809 907 222 0
918 -809 0
918 -907 0
918 -222 0
-20 374 280 0
20 -374 0
20 -280 0
-919 810 908 0
919 -810 0
919 -908 0
-920 811 909 226 0
920 -811 0
920 -909 0
920 -226 0
-921 754 859 0
921 -754 0
921 -859 0
-922 200 861 0
922 -200 0
922 -861 0
-923 756 863 0
923 -756 0
923 -863 0
-924 758 864 0
924 -758 0
924 -864 0
-925 218 867 0
925 -218 0
925 -867 0
-926 687 882 214 0
926 -687 0
926 -882 0
926 -214 0
-927 813 883 0
927 -813 0
927 -883 0
-928 801 904 0
928 -801 0
928 -904 0
-929 180 868 0
929 -180 0
929 -868 0
-930 530 266 0
930 -530 0
930 -266 0
-931 803 905 164 0
931 -803 0
931 -905 0
931 -164 0
-932 224 -223 0
932 -224 0
932 223 0
-933 -224 223 0
933 224 0
933 -223 0
-934 325 -326 0
934 -325 0
934 326 0
-935 -325 326 0
935 325 0
935 -326 0
-936 327 -328 0
936 -327 0
936 328 0
-937 -327 328 0
937 327 0
937 -328 0
-938 228 -227 0
938 -228 0
938 227 0
-939 -228 227 0
939 228 0
939 -227 0
-940 6 -5 0
940 -6 0
940 5 0
-941 -6 5 0
941 6 0
941 -5 0
-942 347 -348 0
942 -347 0
942 348 0
-943 -347 348 0
943 347 0
943 -348 0
-944 184 -183 0
944 -184 0
944 183 0
-945 -184 183 0
945 184 0
945 -183 0
-946 367 -368 0
946 -367 0
946 368 0
-947 -367 368 0
947 367 0
947 -368 0
-948 10 -9 0
948 -10 0
948 9 0
-949 -10 9 0
949 10 0
949 -9 0
-950 242 -241 0
950 -242 0
950 241 0
-951 -242 241 0
951 242 0
951 -241 0
-952 370 -371 0
952 -370 0
952 371 0
-953 -370 371 0
953 370 0
953 -371 0
-954 372 -373 0
954 -372 0
954 373 0
-955 -372 373 0
955 372 0
955 -373 0
-956 280 -279 0
956 -280 0
956 279 0
-957 -280 279 0
957 280 0
957 -279 0
-958 376 -377 0
958 -376 0
958 377 0
-959 -376 377 0
959 376 0
959 -377 0
-960 18 -17 0
960 -18 0
960 17 0
-961 -18 17 0
961 18 0
961 -17 0
-962 282 -281 0
962 -282 0
962 281 0
-963 -282 281 0
963 282 0
963 -281 0
-964 380 -381 0
964 -380 0
964 381 0
-965 -380 381 0
965 380 0
965 -381 0
-966 22 -21 0
966 -22 0
966 21 0
-967 -22 21 0
967 22 0
967 -21 0
-968 248 -247 0
968 -248 0
968 247 0
-969 -248 247 0
969 248 0
969 -247 0
-970 26 -25 0
970 -26 0
970 25 0
-971 -26 25 0
971 26 0
971 -25 0
-972 384 -385 0
972 -384 0
972 385 0
-973 -384 385 0
973 384 0
973 -385 0
-974 284 -283 0
974 -284 0
974 283 0
-975 -284 283 0
975 284 0
975 -283 0
-976 387 -388 0
976 -387 0
976 388 0
-977 -387 388 0
977 387 0
977 -388 0
-978 30 -29 0
978 -30 0
978 29 0
-979 -30 29 0
979 30 0
979 -29 0
-980 250 -249 0
980 -250 0
980 249 0
-981 -250 249 0
981 250 0
981 -249 0
-982 391 -392 0
982 -391 0
982 392 0
-983 -391 392 0
983 391 0
983 -392 0
-984 34 -33 0
984 -34 0
984 33 0
-985 -34 33 0
985 34 0
985 -33 0
-986 38 -37 0
986 -38 0
986 37 0
-987 -38 37 0
987 38 0
987 -37 0
-988 393 -394 0
988 -393 0
988 394 0
-989 -393 394 0
989 393 0
989 -394 0
-990 210 -209 0
990 -210 0
990 209 0
-991 -210 209 0
991 210 0
991 -209 0
-992 407 -408 0
992 -407 0
992 408 0
-993 -407 408 0
993 407 0
993 -408 0
-994 40 -39 0
994 -40 0
994 39 0
-995 -40 39 0
995 40 0
995 -39 0
-996 252 -251 0
996 -252 0
996 251 0
-997 -252 251 0
997 252 0
997 -251 0
-998 411 -412 0
998 -411 0
998 412 0
-999 -411 412 0
999 411 0
999 -412 0
-1000 44 -43 0
1000 -44 0
1000 43 0
-1001 -44 43 0
1001 44 0
1001 -43 0
-1002 254 -253 0
1002 -254 0
1002 253 0
-1003 -254 253 0
1003 254 0
1003 -253 0
-1004 48 -47 0
1004 -48 0
1004 47 0
-1005 -48 47 0
1005 48 0
1005 -47 0
-1006 415 -416 0
1006 -415 0
1006 416 0
-1007 -415 416 0
1007 415 0
1007 -416 0
-1008 422 -423 0
1008 -422 0
1008 423 0
-1009 -422 423 0
1009 422 0
1009 -423 0
-1010 424 -425 0
1010 -424 0
1010 425 0
-1011 -424 425 0
1011 424 0
1011 -425 0
-1012 54 -53 0
1012 -54 0
1012 53 0
-1013 -54 53 0
1013 54 0
1013 -53 0
-1014 426 -427 0
1014 -426 0
1014 427 0
-1015 -426 427 0
1015 426 0
1015 -427 0
-1016 428 -429 0
1016 -428 0
1016 429 0
-1017 -428 429 0
1017 428 0
1017 -429 0
-1018 56 -55 0
1018 -56 0
1018 55 0
-1019 -56 55 0
1019 56 0
1019 -55 0
-1020 58 -57 0
1020 -58 0
1020 57 0
-1021 -58 57 0
1021 58 0
1021 -57 0
-1022 430 -431 0
1022 -430 0
1022 431 0
-1023 -430 431 0
1023 430 0
1023 -431 0
-1024 60 -59 0
1024 -60 0
1024 59 0
-1025 -60 59 0
1025 60 0
1025 -59 0
-1026 432 -433 0
1026 -432 0
1026 433 0
-1027 -432 433 0
1027 432 0
1027 -433 0
-1028 62 -61 0
1028 -62 0
1028 61 0
-1029 -62 61 0
1029 62 0
1029 -61 0
-1030 434 -435 0
1030 -434 0
1030 435 0
-1031 -434 435 0
1031 434 0
1031 -435 0
-1032 436 -402 0
1032 -436 0
1032 402 0
-1033 -436 402 0
1033 436 0
1033 -402 0
-1034 64 -63 0
1034 -64 0
1034 63 0
-1035 -64 63 0
1035 64 0
1035 -63 0
-1036 437 -438 0
1036 -437 0
1036 438 0
-1037 -437 438 0
1037 437 0
1037 -438 0
-1038 66 -65 0
1038 -66 0
1038 65 0
-1039 -66 65 0
1039 66 0
1039 -65 0
-1040 439 -440 0
1040 -439 0
1040 440 0
-1041 -439 440 0
1041 439 0
1041 -440 0
-1042 68 -67 0
1042 -68 0
1042 67 0
-1043 -68 67 0
1043 68 0
1043 -67 0
-1044 70 -69 0
1044 -70 0
1044 69 0
-1045 -70 69 0
1045 70 0
1045 -69 0
-1046 441 -421 0
1046 -441 0
1046 421 0
-1047 -441 421 0
1047 441 0
1047 -421 0
-1048 442 -443 0
1048 -442 0
1048 443 0
-1049 -442 443 0
1049 442 0
1049 -443 0
-1050 444 -445 0
1050 -444 0
1050 445 0
-1051 -444 445 0
1051 444 0
1051 -445 0
-1052 446 -447 0
1052 -446 0
1052 447 0
-1053 -446 447 0
1053 446 0
1053 -447 0
-1054 74 -73 0
1054 -74 0
1054 73 0
-1055 -74 73 0
1055 74 0
1055 -73 0
-1056 448 -449 0
1056 -448 0
1056 449 0
-1057 -448 449 0
1057 448 0
1057 -449 0
-1058 76 -75 0
1058 -76 0
1058 75 0
-1059 -76 75 0
1059 76 0
1059 -75 0
-1060 450 -451 0
1060 -450 0
1060 451 0
-1061 -450 451 0
1061 450 0
1061 -451 0
-1062 78 -77 0
1062 -78 0
1062 77 0
-1063 -78 77 0
1063 78 0
1063 -77 0
-1064 80 -79 0
1064 -80 0
1064 79 0
-1065 -80 79 0
1065 80 0
1065 -79 0
-1066 452 -453 0
1066 -452 0
1066 453 0
-1067 -452 453 0
1067 452 0
1067 -453 0
-1068 454 -455 0
1068 -454 0
1068 455 0
-1069 -454 455 0
1069 454 0
1069 -455 0
-1070 82 -81 0
1070 -82 0
1070 81 0
-1071 -82 81 0
1071 82 0
1071 -81 0
-1072 84 -83 0
1072 -84 0
1072 83 0
-1073 -84 83 0
1073 84 0
1073 -83 0
-1074 456 -405 0
1074 -456 0
1074 405 0
-1075 -456 405 0
1075 456 0
1075 -405 0
-1076 86 -85 0
1076 -86 0
1076 85 0
-1077 -86 85 0
1077 86 0
1077 -85 0
-1078 457 -458 0
1078 -457 0
1078 458 0
-1079 -457 458 0
1079 457 0
1079 -458 0
-1080 459 -460 0
1080 -459 0
1080 460 0
-1081 -459 460 0
1081 459 0
1081 -460 0
-1082 88 -87 0
1082 -88 0
1082 87 0
-1083 -88 87 0
1083 88 0
1083 -87 0
-1084 461 -419 0
1084 -461 0
1084 419 0
-1085 -461 419 0
1085 461 0
1085 -419 0
-1086 90 -89 0
1086 -90 0
1086 89 0
-1087 -90 89 0
1087 90 0
1087 -89 0
-1088 462 -311 0
1088 -462 0
1088 311 0
-1089 -462 311 0
1089 462 0
1089 -311 0
-1090 463 -310 0
1090 -463 0
1090 310 0
-1091 -463 310 0
1091 463 0
1091 -310 0
-1092 464 -344 0
1092 -464 0
1092 344 0
-1093 -464 344 0
1093 464 0
1093 -344 0
-1094 94 -93 0
1094 -94 0
1094 93 0
-1095 -94 93 0
1095 94 0
1095 -93 0
-1096 96 -95 0
1096 -96 0
1096 95 0
-1097 -96 95 0
1097 96 0
1097 -95 0
-1098 465 -350 0
1098 -465 0
1098 350 0
-1099 -465 350 0
1099 465 0
1099 -350 0
-1100 466 -467 0
1100 -466 0
1100 467 0
-1101 -466 467 0
1101 466 0
1101 -467 0
-1102 98 -97 0
1102 -98 0
1102 97 0
-1103 -98 97 0
1103 98 0
1103 -97 0
-1104 468 -304 0
1104 -468 0
1104 304 0
-1105 -468 304 0
1105 468 0
1105 -304 0
-1106 469 -336 0
1106 -469 0
1106 336 0
-1107 -469 336 0
1107 469 0
1107 -336 0
-1108 102 -101 0
1108 -102 0
1108 101 0
-1109 -102 101 0
1109 102 0
1109 -101 0
-1110 470 -352 0
1110 -470 0
1110 352 0
-1111 -470 352 0
1111 470 0
1111 -352 0
-1112 471 -390 0
1112 -471 0
1112 390 0
-1113 -471 390 0
1113 471 0
1113 -390 0
-1114 104 -103 0
1114 -104 0
1114 103 0
-1115 -104 103 0
1115 104 0
1115 -103 0
-1116 472 -410 0
1116 -472 0
1116 410 0
-1117 -472 410 0
1117 472 0
1117 -410 0
-1118 106 -105 0
1118 -106 0
1118 105 0
-1119 -106 105 0
1119 106 0
1119 -105 0
-1120 473 -474 0
1120 -473 0
1120 474 0
-1121 -473 474 0
1121 473 0
1121 -474 0
-1122 108 -107 0
1122 -108 0
1122 107 0
-1123 -108 107 0
1123 108 0
1123 -107 0
-1124 475 -323 0
1124 -475 0
1124 323 0
-1125 -475 323 0
1125 475 0
1125 -323 0
-1126 476 -322 0
1126 -476 0
1126 322 0
-1127 -476 322 0
1127 476 0
1127 -322 0
-1128 477 -338 0
1128 -477 0
1128 338 0
-1129 -477 338 0
1129 477 0
1129 -338 0
-1130 112 -111 0
1130 -112 0
1130 111 0
-1131 -112 111 0
1131 112 0
1131 -111 0
-1132 478 -358 0
1132 -478 0
1132 358 0
-1133 -478 358 0
1133 478 0
1133 -358 0
-1134 114 -113 0
1134 -114 0
1134 113 0
-1135 -114 113 0
1135 114 0
1135 -113 0
-1136 479 -319 0
1136 -479 0
1136 319 0
-1137 -479 319 0
1137 479 0
1137 -319 0
-1138 480 -318 0
1138 -480 0
1138 318 0
-1139 -480 318 0
1139 480 0
1139 -318 0
-1140 481 -334 0
1140 -481 0
1140 334 0
-1141 -481 334 0
1141 481 0
1141 -334 0
-1142 118 -117 0
1142 -118 0
1142 117 0
-1143 -118 117 0
1143 118 0
1143 -117 0
-1144 482 -362 0
1144 -482 0
1144 362 0
-1145 -482 362 0
1145 482 0
1145 -362 0
-1146 120 -119 0
1146 -120 0
1146 119 0
-1147 -120 119 0
1147 120 0
1147 -119 0
-1148 483 -383 0
1148 -483 0
1148 383 0
-1149 -483 383 0
1149 483 0
1149 -383 0
-1150 122 -121 0
1150 -122 0
1150 121 0
-1151 -122 121 0
1151 122 0
1151 -121 0
-1152 484 -307 0
1152 -484 0
1152 307 0
-1153 -484 307 0
1153 484 0
1153 -307 0
-1154 485 -332 0
1154 -485 0
1154 332 0
-1155 -485 332 0
1155 485 0
1155 -332 0
-1156 486 -366 0
1156 -486 0
1156 366 0
-1157 -486 366 0
1157 486 0
1157 -366 0
-1158 126 -125 0
1158 -126 0
1158 125 0
-1159 -126 125 0
1159 126 0
1159 -125 0
-1160 487 -375 0
1160 -487 0
1160 375 0
-1161 -487 375 0
1161 487 0
1161 -375 0
-1162 128 -127 0
1162 -128 0
1162 127 0
-1163 -128 127 0
1163 128 0
1163 -127 0
-1164 130 -129 0
1164 -130 0
1164 129 0
-1165 -130 129 0
1165 130 0
1165 -129 0
-1166 488 -396 0
1166 -488 0
1166 396 0
-1167 -488 396 0
1167 488 0
1167 -396 0
-1168 489 -342 0
1168 -489 0
1168 342 0
-1169 -489 342 0
1169 489 0
1169 -342 0
-1170 490 -298 0
1170 -490 0
1170 298 0
-1171 -490 298 0
1171 490 0
1171 -298 0
-1172 491 -364 0
1172 -491 0
1172 364 0
-1173 -491 364 0
1173 491 0
1173 -364 0
-1174 134 -133 0
1174 -134 0
1174 133 0
-1175 -134 133 0
1175 134 0
1175 -133 0
-1176 136 -135 0
1176 -136 0
1176 135 0
-1177 -136 135 0
1177 136 0
1177 -135 0
-1178 492 -493 0
1178 -492 0
1178 493 0
-1179 -492 493 0
1179 492 0
1179 -493 0
-1180 494 -301 0
1180 -494 0
1180 301 0
-1181 -494 301 0
1181 494 0
1181 -301 0
-1182 495 -340 0
1182 -495 0
1182 340 0
-1183 -495 340 0
1183 495 0
1183 -340 0
-1184 140 -139 0
1184 -140 0
1184 139 0
-1185 -140 139 0
1185 140 0
1185 -139 0
-1186 496 -356 0
1186 -496 0
1186 356 0
-1187 -496 356 0
1187 496 0
1187 -356 0
-1188 142 -141 0
1188 -142 0
1188 141 0
-1189 -142 141 0
1189 142 0
1189 -141 0
-1190 497 -398 0
1190 -497 0
1190 398 0
-1191 -497 398 0
1191 497 0
1191 -398 0
-1192 144 -143 0
1192 -144 0
1192 143 0
-1193 -144 143 0
1193 144 0
1193 -143 0
-1194 498 -414 0
1194 -498 0
1194 414 0
-1195 -498 414 0
1195 498 0
1195 -414 0
-1196 499 -295 0
1196 -499 0
1196 295 0
-1197 -499 295 0
1197 499 0
1197 -295 0
-1198 500 -294 0
1198 -500 0
1198 294 0
-1199 -500 294 0
1199 500 0
1199 -294 0
-1200 501 -346 0
1200 -501 0
1200 346 0
-1201 -501 346 0
1201 501 0
1201 -346 0
-1202 148 -147 0
1202 -148 0
1202 147 0
-1203 -148 147 0
1203 148 0
1203 -147 0
-1204 502 -360 0
1204 -502 0
1204 360 0
-1205 -502 360 0
1205 502 0
1205 -360 0
-1206 150 -149 0
1206 -150 0
1206 149 0
-1207 -150 149 0
1207 150 0
1207 -149 0
-1208 152 -151 0
1208 -152 0
1208 151 0
-1209 -152 151 0
1209 152 0
1209 -151 0
-1210 503 -379 0
1210 -503 0
1210 379 0
-1211 -503 379 0
1211 503 0
1211 -379 0
-1212 504 -315 0
1212 -504 0
1212 315 0
-1213 -504 315 0
1213 504 0
1213 -315 0
-1214 505 -314 0
1214 -505 0
1214 314 0
-1215 -505 314 0
1215 505 0
1215 -314 0
-1216 506 -330 0
1216 -506 0
1216 330 0
-1217 -506 330 0
1217 506 0
1217 -330 0
-1218 156 -155 0
1218 -156 0
1218 155 0
-1219 -156 155 0
1219 156 0
1219 -155 0
-1220 158 -157 0
1220 -158 0
1220 157 0
-1221 -158 157 0
1221 158 0
1221 -157 0
-1222 507 -354 0
1222 -507 0
1222 354 0
-1223 -507 354 0
1223 507 0
1223 -354 0
-1224 160 -159 0
1224 -160 0
1224 159 0
-1225 -160 159 0
1225 160 0
1225 -159 0
-1226 508 -509 0
1226 -508 0
1226 509 0
-1227 -508 509 0
1227 508 0
1227 -509 0
-1228 256 -255 0
1228 -256 0
1228 255 0
-1229 -256 255 0
1229 256 0
1229 -255 0
-1230 258 -257 0
1230 -258 0
1230 257 0
-1231 -258 257 0
1231 258 0
1231 -257 0
-1232 260 -259 0
1232 -260 0
1232 259 0
-1233 -260 259 0
1233 260 0
1233 -259 0
-1234 262 -261 0
1234 -262 0
1234 261 0
-1235 -262 261 0
1235 262 0
1235 -261 0
-1236 286 -285 0
1236 -286 0
1236 285 0
-1237 -286 285 0
1237 286 0
1237 -285 0
-1238 264 -263 0
1238 -264 0
1238 263 0
-1239 -264 263 0
1239 264 0
1239 -263 0
-1240 288 -287 0
1240 -288 0
1240 287 0
-1241 -288 287 0
1241 288 0
1241 -287 0
-1242 266 -265 0
1242 -266 0
1242 265 0
-1243 -266 265 0
1243 266 0
1243 -265 0
-1244 164 -163 0
1244 -164 0
1244 163 0
-1245 -164 163 0
1245 164 0
1245 -163 0
-1246 268 -267 0
1246 -268 0
1246 267 0
-1247 -268 267 0
1247 268 0
1247 -267 0
-1248 270 -269 0
1248 -270 0
1248 269 0
-1249 -270 269 0
1249 270 0
1249 -269 0
-1250 272 -271 0
1250 -272 0
1250 271 0
-1251 -272 271 0
1251 272 0
1251 -271 0
-1252 172 -171 0
1252 -172 0
1252 171 0
-1253 -172 171 0
1253 172 0
1253 -171 0
-1254 230 -229 0
1254 -230 0
1254 229 0
-1255 -230 229 0
1255 230 0
1255 -229 0
-1256 290 -289 0
1256 -290 0
1256 289 0
-1257 -290 289 0
1257 290 0
1257 -289 0
-1258 274 -273 0
1258 -274 0
1258 273 0
-1259 -274 273 0
1259 274 0
1259 -273 0
-1260 292 -291 0
1260 -292 0
1260 291 0
-1261 -292 291 0
1261 292 0
1261 -291 0
-1262 276 -275 0
1262 -276 0
1262 275 0
-1263 -276 275 0
1263 276 0
1263 -275 0
-1264 232 -231 0
1264 -232 0
1264 231 0
-1265 -232 231 0
1265 232 0
1265 -231 0
-1266 234 -233 0
1266 -234 0
1266 233 0
-1267 -234 233 0
1267 234 0
1267 -233 0
-1268 236 -235 0
1268 -236 0
1268 235 0
-1269 -236 235 0
1269 236 0
1269 -235 0
-1270 278 -277 0
1270 -278 0
1270 277 0
-1271 -278 277 0
1271 278 0
1271 -277 0
-1272 238 -237 0
1272 -238 0
1272 237 0
-1273 -238 237 0
1273 238 0
1273 -237 0
-1274 196 -195 0
1274 -196 0
1274 195 0
-1275 -196 195 0
1275 196 0
1275 -195 0
-1276 240 -239 0
1276 -240 0
1276 239 0
-1277 -240 239 0
1277 240 0
1277 -239 0
-1278 246 -245 0
1278 -246 0
1278 245 0
-1279 -246 245 0
1279 246 0
1279 -245 0
-1280 244 -243 0
1280 -244 0
1280 243 0
-1281 -244 243 0
1281 244 0
1281 -243 0
-1282 222 -221 0
1282 -222 0
1282 221 0
-1283 -222 221 0
1283 222 0
1283 -221 0
-1284 226 -225 0
1284 -226 0
1284 225 0
-1285 -226 225 0
1285 226 0
1285 -225 0
-1286 174 -173 0
1286 -174 0
1286 173 0
-1287 -174 173 0
1287 174 0
1287 -173 0
-1288 186 -185 0
1288 -186 0
1288 185 0
-1289 -186 185 0
1289 186 0
1289 -185 0
-1290 188 -187 0
1290 -188 0
1290 187 0
-1291 -188 187 0
1291 188 0
1291 -187 0
-1292 190 -189 0
1292 -190 0
1292 189 0
-1293 -190 189 0
1293 190 0
1293 -189 0
-1294 194 -193 0
1294 -194 0
1294 193 0
-1295 -194 193 0
1295 194 0
1295 -193 0
-1296 198 -197 0
1296 -198 0
1296 197 0
-1297 -198 197 0
1297 198 0
1297 -197 0
-1298 208 -207 0
1298 -208 0
1298 207 0
-1299 -208 207 0
1299 208 0
1299 -207 0
-1300 202 -201 0
1300 -202 0
1300 201 0
-1301 -202 201 0
1301 202 0
1301 -201 0
-1302 200 -199 0
1302 -200 0
1302 199 0
-1303 -200 199 0
1303 200 0
1303 -199 0
-1304 204 -203 0
1304 -204 0
1304 203 0
-1305 -204 203 0
1305 204 0
1305 -203 0
-1306 212 -211 0
1306 -212 0
1306 211 0
-1307 -212 211 0
1307 212 0
1307 -211 0
-1308 206 -205 0
1308 -206 0
1308 205 0
-1309 -206 205 0
1309 206 0
1309 -205 0
-1310 216 -215 0
1310 -216 0
1310 215 0
-1311 -216 215 0
1311 216 0
1311 -215 0
-1312 166 -165 0
1312 -166 0
1312 165 0
-1313 -166 165 0
1313 166 0
1313 -165 0
-1314 168 -167 0
1314 -168 0
1314 167 0
-1315 -168 167 0
1315 168 0
1315 -167 0
-1316 170 -169 0
1316 -170 0
1316 169 0
-1317 -170 169 0
1317 170 0
1317 -169 0
-1318 178 -177 0
1318 -178 0
1318 177 0
-1319 -178 177 0
1319 178 0
1319 -177 0
-1320 182 -181 0
1320 -182 0
1320 181 0
-1321 -182 181 0
1321 182 0
1321 -181 0
-1322 192 -191 0
1322 -192 0
1322 191 0
-1323 -192 191 0
1323 192 0
1323 -191 0
-1324 220 -219 0
1324 -220 0
1324 219 0
-1325 -220 219 0
1325 220 0
1325 -219 0
-1326 218 -217 0
1326 -218 0
1326 217 0
-1327 -218 217 0
1327 218 0
1327 -217 0
-1328 214 -213 0
1328 -214 0
1328 213 0
-1329 -214 213 0
1329 214 0
1329 -213 0
-1330 176 -175 0
1330 -176 0
1330 175 0
-1331 -176 175 0
1331 176 0
1331 -175 0
-1332 180 -179 0
1332 -180 0
1332 179 0
-1333 -180 179 0
1333 180 0
1333 -179 0
-1334 -241 701 0
1334 241 0
1334 -701 0
-1335 241 -701 0
1335 -241 0
1335 701 0
-1336 -15 16 0
1336 15 0
1336 -16 0
-1337 15 -16 0
1337 -15 0
1337 16 0
-1338 -99 100 0
1338 99 0
1338 -100 0
-1339 99 -100 0
1339 -99 0
1339 100 0
-1340 -169 705 0
1340 169 0
1340 -705 0
-1341 169 -705 0
1341 -169 0
1341 705 0
-1342 -93 702 0
1342 93 0
1342 -702 0
-1343 93 -702 0
1343 -93 0
1343 702 0
-1344 -95 703 0
1344 95 0
1344 -703 0
-1345 95 -703 0
1345 -95 0
1345 703 0
-1346 -189 706 0
1346 189 0
1346 -706 0
-1347 189 -706 0
1347 -189 0
1347 706 0
-1348 -207 707 0
1348 207 0
1348 -707 0
-1349 207 -707 0
1349 -207 0
1349 707 0
-1350 -271 709 0
1350 271 0
1350 -709 0
-1351 271 -709 0
1351 -271 0
1351 709 0
-1352 -235 708 0
1352 235 0
1352 -708 0
-1353 235 -708 0
1353 -235 0
1353 708 0
-1354 -97 704 0
1354 97 0
1354 -704 0
-1355 97 -704 0
1355 -97 0
1355 704 0
-1356 -155 710 0
1356 155 0
1356 -710 0
-1357 155 -710 0
1357 -155 0
1357 710 0
-1358 -157 711 0
1358 157 0
1358 -711 0
-1359 157 -711 0
1359 -157 0
1359 711 0
-1360 -159 712 0
1360 159 0
1360 -712 0
-1361 159 -712 0
1361 -159 0
1361 712 0
-1362 -161 162 0
1362 161 0
1362 -162 0
-1363 161 -162 0
1363 -161 0
1363 162 0
-1364 -263 652 0
1364 263 0
1364 -652 0
-1365 263 -652 0
1365 -263 0
1365 652 0
-1366 -39 723 0
1366 39 0
1366 -723 0
-1367 39 -723 0
1367 -39 0
1367 723 0
-1368 -43 724 0
1368 43 0
1368 -724 0
-1369 43 -724 0
1369 -43 0
1369 724 0
-1370 -37 722 0
1370 37 0
1370 -722 0
-1371 37 -722 0
1371 -37 0
1371 722 0
-1372 -5 729 0
1372 5 0
1372 -729 0
-1373 5 -729 0
1373 -5 0
1373 729 0
-1374 -9 730 0
1374 9 0
1374 -730 0
-1375 9 -730 0
1375 -9 0
1375 730 0
-1376 -13 14 0
1376 13 0
1376 -14 0
-1377 13 -14 0
1377 -13 0
1377 14 0
-1378 -83 734 0
1378 83 0
1378 -734 0
-1379 83 -734 0
1379 -83 0
1379 734 0
-1380 -85 735 0
1380 85 0
1380 -735 0
-1381 85 -735 0
1381 -85 0
1381 735 0
-1382 -87 736 0
1382 87 0
1382 -736 0
-1383 87 -736 0
1383 -87 0
1383 736 0
-1384 -89 737 0
1384 89 0
1384 -737 0
-1385 89 -737 0
1385 -89 0
1385 737 0
-1386 -91 92 0
1386 91 0
1386 -92 0
-1387 91 -92 0
1387 -91 0
1387 92 0
-1388 -71 72 0
1388 71 0
1388 -72 0
-1389 71 -72 0
1389 -71 0
1389 72 0
-1390 -63 738 0
1390 63 0
1390 -738 0
-1391 63 -738 0
1391 -63 0
1391 738 0
-1392 -65 739 0
1392 65 0
1392 -739 0
-1393 65 -739 0
1393 -65 0
1393 739 0
-1394 -67 740 0
1394 67 0
1394 -740 0
-1395 67 -740 0
1395 -67 0
1395 740 0
-1396 -69 741 0
1396 69 0
1396 -741 0
-1397 69 -741 0
1397 -69 0
1397 741 0
-1398 -51 52 0
1398 51 0
1398 -52 0
-1399 51 -52 0
1399 -51 0
1399 52 0
-1400 -259 651 0
1400 259 0
1400 -651 0
-1401 259 -651 0
1401 -259 0
1401 651 0
-1402 -1403 751 0
1402 1403 0
1402 -751 0
-1404 1403 -751 0
1404 -1403 0
1404 751 0
-1405 -125 761 0
1405 125 0
1405 -761 0
-1406 125 -761 0
1406 -125 0
1406 761 0
-1407 -127 762 0
1407 127 0
1407 -762 0
-1408 127 -762 0
1408 -127 0
1408 762 0
-1409 -129 763 0
1409 129 0
1409 -763 0
-1410 129 -763 0
1410 -129 0
1410 763 0
-1411 -131 132 0
1411 131 0
1411 -132 0
-1412 131 -132 0
1412 -131 0
1412 132 0
-1413 -153 154 0
1413 153 0
1413 -154 0
-1414 153 -154 0
1414 -153 0
1414 154 0
-1415 -179 766 0
1415 179 0
1415 -766 0
-1416 179 -766 0
1416 -179 0
1416 766 0
-1417 -23 24 0
1417 23 0
1417 -24 0
-1418 23 -24 0
1418 -23 0
1418 24 0
-1419 -199 764 0
1419 199 0
1419 -764 0
-1420 199 -764 0
1420 -199 0
1420 764 0
-1421 -217 765 0
1421 217 0
1421 -765 0
-1422 217 -765 0
1422 -217 0
1422 765 0
-1423 -149 768 0
1423 149 0
1423 -768 0
-1424 149 -768 0
1424 -149 0
1424 768 0
-1425 -147 767 0
1425 147 0
1425 -767 0
-1426 147 -767 0
1426 -147 0
1426 767 0
-1427 -151 769 0
1427 151 0
1427 -769 0
-1428 151 -769 0
1428 -151 0
1428 769 0
-1429 -195 783 0
1429 195 0
1429 -783 0
-1430 195 -783 0
1430 -195 0
1430 783 0
-1431 -31 32 0
1431 31 0
1431 -32 0
-1432 31 -32 0
1432 -31 0
1432 32 0
-1433 -139 779 0
1433 139 0
1433 -779 0
-1434 139 -779 0
1434 -139 0
1434 779 0
-1435 -141 780 0
1435 141 0
1435 -780 0
-1436 141 -780 0
1436 -141 0
1436 780 0
-1437 -143 781 0
1437 143 0
1437 -781 0
-1438 143 -781 0
1438 -143 0
1438 781 0
-1439 -145 146 0
1439 145 0
1439 -146 0
-1440 145 -146 0
1440 -145 0
1440 146 0
-1441 -175 782 0
1441 175 0
1441 -782 0
-1442 175 -782 0
1442 -175 0
1442 782 0
-1443 -47 725 0
1443 47 0
1443 -725 0
-1444 47 -725 0
1444 -47 0
1444 725 0
-1445 -273 759 0
1445 273 0
1445 -759 0
-1446 273 -759 0
1446 -273 0
1446 759 0
-1447 -239 755 0
1447 239 0
1447 -755 0
-1448 239 -755 0
1448 -239 0
1448 755 0
-1449 -253 757 0
1449 253 0
1449 -757 0
-1450 253 -757 0
1450 -253 0
1450 757 0
-1451 -209 792 0
1451 209 0
1451 -792 0
-1452 209 -792 0
1452 -209 0
1452 792 0
-1453 -171 789 0
1453 171 0
1453 -789 0
-1454 171 -789 0
1454 -171 0
1454 789 0
-1455 -137 138 0
1455 137 0
1455 -138 0
-1456 137 -138 0
1456 -137 0
1456 138 0
-1457 -17 814 0
1457 17 0
1457 -814 0
-1458 17 -814 0
1458 -17 0
1458 814 0
-1459 -21 815 0
1459 21 0
1459 -815 0
-1460 21 -815 0
1460 -21 0
1460 815 0
-1461 -53 817 0
1461 53 0
1461 -817 0
-1462 53 -817 0
1462 -53 0
1462 817 0
-1463 -55 818 0
1463 55 0
1463 -818 0
-1464 55 -818 0
1464 -55 0
1464 818 0
-1465 -231 820 0
1465 231 0
1465 -820 0
-1466 231 -820 0
1466 -231 0
1466 820 0
-1467 -267 824 0
1467 267 0
1467 -824 0
-1468 267 -824 0
1468 -267 0
1468 824 0
-1469 -73 829 0
1469 73 0
1469 -829 0
-1470 73 -829 0
1470 -73 0
1470 829 0
-1471 -45 46 0
1471 45 0
1471 -46 0
-1472 45 -46 0
1472 -45 0
1472 46 0
-1473 -107 838 0
1473 107 0
1473 -838 0
-1474 107 -838 0
1474 -107 0
1474 838 0
-1475 -109 110 0
1475 109 0
1475 -110 0
-1476 109 -110 0
1476 -109 0
1476 110 0
-1477 -27 28 0
1477 27 0
1477 -28 0
-1478 27 -28 0
1478 -27 0
1478 28 0
-1479 -123 124 0
1479 123 0
1479 -124 0
-1480 123 -124 0
1480 -123 0
1480 124 0
-1481 -117 839 0
1481 117 0
1481 -839 0
-1482 117 -839 0
1482 -117 0
1482 839 0
-1483 -119 840 0
1483 119 0
1483 -840 0
-1484 119 -840 0
1484 -119 0
1484 840 0
-1485 -75 830 0
1485 75 0
1485 -830 0
-1486 75 -830 0
1486 -75 0
1486 830 0
-1487 -205 844 0
1487 205 0
1487 -844 0
-1488 205 -844 0
1488 -205 0
1488 844 0
-1489 -167 842 0
1489 167 0
1489 -842 0
-1490 167 -842 0
1490 -167 0
1490 842 0
-1491 -121 841 0
1491 121 0
1491 -841 0
-1492 121 -841 0
1492 -121 0
1492 841 0
-1493 -187 843 0
1493 187 0
1493 -843 0
-1494 187 -843 0
1494 -187 0
1494 843 0
-1495 -133 845 0
1495 133 0
1495 -845 0
-1496 133 -845 0
1496 -133 0
1496 845 0
-1497 -229 871 0
1497 229 0
1497 -871 0
-1498 229 -871 0
1498 -229 0
1498 871 0
-1499 -59 869 0
1499 59 0
1499 -869 0
-1500 59 -869 0
1500 -59 0
1500 869 0
-1501 -237 872 0
1501 237 0
1501 -872 0
-1502 237 -872 0
1502 -237 0
1502 872 0
-1503 -249 873 0
1503 249 0
1503 -873 0
-1504 249 -873 0
1504 -249 0
1504 873 0
-1505 -29 875 0
1505 29 0
1505 -875 0
-1506 29 -875 0
1506 -29 0
1506 875 0
-1507 -79 879 0
1507 79 0
1507 -879 0
-1508 79 -879 0
1508 -79 0
1508 879 0
-1509 -101 884 0
1509 101 0
1509 -884 0
-1510 101 -884 0
1510 -101 0
1510 884 0
-1511 -103 885 0
1511 103 0
1511 -885 0
-1512 103 -885 0
1512 -103 0
1512 885 0
-1513 -111 887 0
1513 111 0
1513 -887 0
-1514 111 -887 0
1514 -111 0
1514 887 0
-1515 -113 888 0
1515 113 0
1515 -888 0
-1516 113 -888 0
1516 -113 0
1516 888 0
-1517 -115 116 0
1517 115 0
1517 -116 0
-1518 115 -116 0
1518 -115 0
1518 116 0
-1519 -257 650 0
1519 257 0
1519 -650 0
-1520 257 -650 0
1520 -257 0
1520 650 0
-1521 -203 854 0
1521 203 0
1521 -854 0
-1522 203 -854 0
1522 -203 0
1522 854 0
-1523 -135 846 0
1523 135 0
1523 -846 0
-1524 135 -846 0
1524 -135 0
1524 846 0
-1525 -165 851 0
1525 165 0
1525 -851 0
-1526 165 -851 0
1526 -165 0
1526 851 0
-1527 -247 862 0
1527 247 0
1527 -862 0
-1528 247 -862 0
1528 -247 0
1528 862 0
-1529 -185 853 0
1529 185 0
1529 -853 0
-1530 185 -853 0
1530 -185 0
1530 853 0
-1531 -193 895 0
1531 193 0
1531 -895 0
-1532 193 -895 0
1532 -193 0
1532 895 0
-1533 -211 896 0
1533 211 0
1533 -896 0
-1534 211 -896 0
1534 -211 0
1534 896 0
-1535 -173 893 0
1535 173 0
1535 -893 0
-1536 173 -893 0
1536 -173 0
1536 893 0
-1537 -35 36 0
1537 35 0
1537 -36 0
-1538 35 -36 0
1538 -35 0
1538 36 0
-1539 -191 804 0
1539 191 0
1539 -804 0
-1540 191 -804 0
1540 -191 0
1540 804 0
-1541 -41 42 0
1541 41 0
1541 -42 0
-1542 41 -42 0
1542 -41 0
1542 42 0
-1543 -197 805 0
1543 197 0
1543 -805 0
-1544 197 -805 0
1544 -197 0
1544 805 0
-1545 -49 50 0
1545 49 0
1545 -50 0
-1546 49 -50 0
1546 -49 0
1546 50 0
-1547 -277 812 0
1547 277 0
1547 -812 0
-1548 277 -812 0
1548 -277 0
1548 812 0
-1549 -215 807 0
1549 215 0
1549 -807 0
-1550 215 -807 0
1550 -215 0
1550 807 0
-1551 -285 691 0
1551 285 0
1551 -691 0
-1552 285 -691 0
1552 -285 0
1552 691 0
-1553 -177 802 0
1553 177 0
1553 -802 0
-1554 177 -802 0
1554 -177 0
1554 802 0
-1555 -265 911 0
1555 265 0
1555 -911 0
-1556 265 -911 0
1556 -265 0
1556 911 0
-1557 -77 831 0
1557 77 0
1557 -831 0
-1558 77 -831 0
1558 -77 0
1558 831 0
-1559 -105 886 0
1559 105 0
1559 -886 0
-1560 105 -886 0
1560 -105 0
1560 886 0
-1561 -275 912 0
1561 275 0
1561 -912 0
-1562 275 -912 0
1562 -275 0
1562 912 0
-1563 -279 913 0
1563 279 0
1563 -913 0
-1564 279 -913 0
1564 -279 0
1564 913 0
-1565 -57 819 0
1565 57 0
1565 -819 0
-1566 57 -819 0
1566 -57 0
1566 819 0
-1567 -25 816 0
1567 25 0
1567 -816 0
-1568 25 -816 0
1568 -25 0
1568 816 0
-1569 -243 910 0
1569 243 0
1569 -910 0
-1570 243 -910 0
1570 -243 0
1570 910 0
-1571 -3 4 0
1571 3 0
1571 -4 0
-1572 3 -4 0
1572 -3 0
1572 4 0
-1573 -201 914 0
1573 201 0
1573 -914 0
-1574 201 -914 0
1574 -201 0
1574 914 0
-1575 -7 8 0
1575 7 0
1575 -8 0
-1576 7 -8 0
1576 -7 0
1576 8 0
-1577 -11 12 0
1577 11 0
1577 -12 0
-1578 11 -12 0
1578 -11 0
1578 12 0
-1579 -213 915 0
1579 213 0
1579 -915 0
-1580 213 -915 0
1580 -213 0
1580 915 0
-1581 -81 881 0
1581 81 0
1581 -881 0
-1582 81 -881 0
1582 -81 0
1582 881 0
-1583 -219 916 0
1583 219 0
1583 -916 0
-1584 219 -916 0
1584 -219 0
1584 916 0
-1585 -221 917 0
1585 221 0
1585 -917 0
-1586 221 -917 0
1586 -221 0
1586 917 0
-1587 -223 918 0
1587 223 0
1587 -918 0
-1588 223 -918 0
1588 -223 0
1588 918 0
-1589 -19 20 0
1589 19 0
1589 -20 0
-1590 19 -20 0
1590 -19 0
1590 20 0
-1591 -225 919 0
1591 225 0
1591 -919 0
-1592 225 -919 0
1592 -225 0
1592 919 0
-1593 -227 920 0
1593 227 0
1593 -920 0
-1594 227 -920 0
1594 -227 0
1594 920 0
-1595 -233 921 0
1595 233 0
1595 -921 0
-1596 233 -921 0
1596 -233 0
1596 921 0
-1597 -245 922 0
1597 245 0
1597 -922 0
-1598 245 -922 0
1598 -245 0
1598 922 0
-1599 -33 876 0
1599 33 0
1599 -876 0
-1600 33 -876 0
1600 -33 0
1600 876 0
-1601 -251 923 0
1601 251 0
1601 -923 0
-1602 251 -923 0
1602 -251 0
1602 923 0
-1603 -269 924 0
1603 269 0
1603 -924 0
-1604 269 -924 0
1604 -269 0
1604 924 0
-1605 -281 925 0
1605 281 0
1605 -925 0
-1606 281 -925 0
1606 -281 0
1606 925 0
-1607 -283 926 0
1607 283 0
1607 -926 0
-1608 283 -926 0
1608 -283 0
1608 926 0
-1609 -287 692 0
1609 287 0
1609 -692 0
-1610 287 -692 0
1610 -287 0
1610 692 0
-1611 -289 927 0
1611 289 0
1611 -927 0
-1612 289 -927 0
1612 -289 0
1612 927 0
-1613 -163 928 0
1613 163 0
1613 -928 0
-1614 163 -928 0
1614 -163 0
1614 928 0
-1615 -291 929 0
1615 291 0
1615 -929 0
-1616 291 -929 0
1616 -291 0
1616 929 0
-1617 -61 870 0
1617 61 0
1617 -870 0
-1618 61 -870 0
1618 -61 0
1618 870 0
-1619 -181 930 0
1619 181 0
1619 -930 0
-1620 181 -930 0
1620 -181 0
1620 930 0
-1621 -183 931 0
1621 183 0
1621 -931 0
-1622 183 -931 0
1622 -183 0
1622 931 0
-1623 -1 2 0
1623 1 0
1623 -2 0
-1624 1 -2 0
1624 -1 0
1624 2 0
932 0
933 0
934 0
935 0
936 0
937 0
938 0
939 0
940 0
941 0
942 0
943 0
944 0
945 0
946 0
947 0
948 0
949 0
950 0
951 0
952 0
953 0
954 0
955 0
956 0
957 0
958 0
959 0
960 0
961 0
962 0
963 0
964 0
965 0
966 0
967 0
968 0
969 0
970 0
971 0
972 0
973 0
974 0
975 0
976 0
977 0
978 0
979 0
980 0
981 0
982 0
983 0
984 0
985 0
986 0
987 0
988 0
989 0
990 0
991 0
992 0
993 0
994 0
995 0
996 0
997 0
998 0
999 0
1000 0
1001 0
1002 0
1003 0
1004 0
1005 0
1006 0
1007 0
1008 0
1009 0
1010 0
1011 0
1012 0
1013 0
1014 0
1015 0
1016 0
1017 0
1018 0
1019 0
1020 0
1021 0
1022 0
1023 0
1024 0
1025 0
1026 0
1027 0
1028 0
1029 0
1030 0
1031 0
1032 0
1033 0
1034 0
1035 0
1036 0
1037 0
1038 0
1039 0
1040 0
1041 0
1042 0
1043 0
1044 0
1045 0
1046 0
1047 0
1048 0
1049 0
1050 0
1051 0
1052 0
1053 0
1054 0
1055 0
1056 0
1057 0
1058 0
1059 0
1060 0
1061 0
1062 0
1063 0
1064 0
1065 0
1066 0
1067 0
1068 0
1069 0
1070 0
1071 0
1072 0
1073 0
1074 0
1075 0
1076 0
1077 0
1078 0
1079 0
1080 0
1081 0
1082 0
1083 0
1084 0
1085 0
1086 0
1087 0
1088 0
1089 0
1090 0
1091 0
1092 0
1093 0
1094 0
1095 0
1096 0
1097 0
1098 0
1099 0
1100 0
1101 0
1102 0
1103 0
1104 0
1105 0
1106 0
1107 0
1108 0
1109 0
1110 0
1111 0
1112 0
1113 0
1114 0
1115 0
1116 0
1117 0
1118 0
1119 0
1120 0
1121 0
1122 0
1123 0
1124 0
1125 0
1126 0
1127 0
1128 0
1129 0
1130 0
1131 0
1132 0
1133 0
1134 0
1135 0
1136 0
1137 0
1138 0
1139 0
1140 0
1141 0
1142 0
1143 0
1144 0
1145 0
1146 0
1147 0
1148 0
1149 0
1150 0
1151 0
1152 0
1153 0
1154 0
1155 0
1156 0
1157 0
1158 0
1159 0
1160 0
1161 0
1162 0
1163 0
1164 0
1165 0
1166 0
1167 0
1168 0
1169 0
1170 0
1171 0
1172 0
1173 0
1174 0
1175 0
1176 0
1177 0
1178 0
1179 0
1180 0
1181 0
1182 0
1183 0
1184 0
1185 0
1186 0
1187 0
1188 0
1189 0
1190 0
1191 0
1192 0
1193 0
1194 0
1195 0
1196 0
1197 0
1198 0
1199 0
1200 0
1201 0
1202 0
1203 0
1204 0
1205 0
1206 0
1207 0
1208 0
1209 0
1210 0
1211 0
1212 0
1213 0
1214 0
1215 0
1216 0
1217 0
1218 0
1219 0
1220 0
1221 0
1222 0
1223 0
1224 0
1225 0
1226 0
1227 0
1228 0
1229 0
1230 0
1231 0
1232 0
1233 0
1234 0
1235 0
1236 0
1237 0
1238 0
1239 0
1240 0
1241 0
1242 0
1243 0
1244 0
1245 0
1246 0
1247 0
1248 0
1249 0
1250 0
1251 0
1252 0
1253 0
1254 0
1255 0
1256 0
1257 0
1258 0
1259 0
1260 0
1261 0
1262 0
1263 0
1264 0
1265 0
1266 0
1267 0
1268 0
1269 0
1270 0
1271 0
1272 0
1273 0
1274 0
1275 0
1276 0
1277 0
1278 0
1279 0
1280 0
1281 0
1282 0
1283 0
1284 0
1285 0
1286 0
1287 0
1288 0
1289 0
1290 0
1291 0
1292 0
1293 0
1294 0
1295 0
1296 0
1297 0
1298 0
1299 0
1300 0
1301 0
1302 0
1303 0
1304 0
1305 0
1306 0
1307 0
1308 0
1309 0
1310 0
1311 0
1312 0
1313 0
1314 0
1315 0
1316 0
1317 0
1318 0
1319 0
1320 0
1321 0
1322 0
1323 0
1324 0
1325 0
1326 0
1327 0
1328 0
1329 0
1330 0
1331 0
1332 0
1333 0
1334 0
1335 0
1336 0
1337 0
1338 0
1339 0
1340 0
1341 0
1342 0
1343 0
1344 0
1345 0
1346 0
1347 0
1348 0
1349 0
1350 0
1351 0
1352 0
1353 0
1354 0
1355 0
1356 0
1357 0
1358 0
1359 0
1360 0
1361 0
1362 0
1363 0
1364 0
1365 0
1366 0
1367 0
1368 0
1369 0
1370 0
1371 0
1372 0
1373 0
1374 0
1375 0
1376 0
1377 0
1378 0
1379 0
1380 0
1381 0
1382 0
1383 0
1384 0
1385 0
1386 0
1387 0
1388 0
1389 0
1390 0
1391 0
1392 0
1393 0
1394 0
1395 0
1396 0
1397 0
1398 0
1399 0
1400 0
1401 0
1402 0
1404 0
1405 0
1406 0
1407 0
1408 0
1409 0
1410 0
1411 0
1412 0
1413 0
1414 0
1415 0
1416 0
1417 0
1418 0
1419 0
1420 0
1421 0
1422 0
1423 0
1424 0
1425 0
1426 0
1427 0
1428 0
1429 0
1430 0
1431 0
1432 0
1433 0
1434 0
1435 0
1436 0
1437 0
1438 0
1439 0
1440 0
1441 0
1442 0
1443 0
1444 0
1445 0
1446 0
1447 0
1448 0
1449 0
1450 0
1451 0
1452 0
1453 0
1454 0
1455 0
1456 0
1457 0
1458 0
1459 0
1460 0
1461 0
1462 0
1463 0
1464 0
1465 0
1466 0
1467 0
1468 0
1469 0
1470 0
1471 0
1472 0
1473 0
1474 0
1475 0
1476 0
1477 0
1478 0
1479 0
1480 0
1481 0
1482 0
1483 0
1484 0
1485 0
1486 0
1487 0
1488 0
1489 0
1490 0
1491 0
1492 0
1493 0
1494 0
1495 0
1496 0
1497 0
1498 0
1499 0
1500 0
1501 0
1502 0
1503 0
1504 0
1505 0
1506 0
1507 0
1508 0
1509 0
1510 0
1511 0
1512 0
1513 0
1514 0
1515 0
1516 0
1517 0
1518 0
1519 0
1520 0
1521 0
1522 0
1523 0
1524 0
1525 0
1526 0
1527 0
1528 0
1529 0
1530 0
1531 0
1532 0
1533 0
1534 0
1535 0
1536 0
1537 0
1538 0
1539 0
1540 0
1541 0
1542 0
1543 0
1544 0
1545 0
1546 0
1547 0
1548 0
1549 0
1550 0
1551 0
1552 0
1553 0
1554 0
1555 0
1556 0
1557 0
1558 0
1559 0
1560 0
1561 0
1562 0
1563 0
1564 0
1565 0
1566 0
1567 0
1568 0
1569 0
1570 0
1571 0
1572 0
1573 0
1574 0
1575 0
1576 0
1577 0
1578 0
1579 0
1580 0
1581 0
1582 0
1583 0
1584 0
1585 0
1586 0
1587 0
1588 0
1589 0
1590 0
1591 0
1592 0
1593 0
1594 0
1595 0
1596 0
1597 0
1598 0
1599 0
1600 0
1601 0
1602 0
1603 0
1604 0
1605 0
1606 0
1607 0
1608 0
1609 0
1610 0
1611 0
1612 0
1613 0
1614 0
1615 0
1616 0
1617 0
1618 0
1619 0
1620 0
1621 0
1622 0
1623 0
1624 0
2 0
-255 0
-261 0
