c BC-S1.2
p cnf 157 449
1 -2 0
-1 2 0
3 -4 0
-3 4 0
5 -6 0
-5 6 0
7 -8 0
-7 8 0
9 -10 0
-9 10 0
11 -12 0
-11 12 0
13 -14 0
-13 14 0
15 -16 0
-15 16 0
17 -18 0
-17 18 0
19 -20 0
-19 20 0
21 -22 0
-21 22 0
23 -24 0
-23 24 0
25 -26 0
-25 26 0
27 -28 0
-27 28 0
29 -30 0
-29 30 0
31 -32 0
-31 32 0
33 -34 0
-33 34 0
35 -36 0
-35 36 0
37 -38 0
-37 38 0
2 -1 0
-2 1 0
4 -3 0
-4 3 0
6 -5 0
-6 5 0
8 -7 0
-8 7 0
10 -9 0
-10 9 0
12 -11 0
-12 11 0
14 -13 0
-14 13 0
16 -15 0
-16 15 0
18 -17 0
-18 17 0
20 -19 0
-20 19 0
22 -21 0
-22 21 0
24 -23 0
-24 23 0
26 -25 0
-26 25 0
28 -27 0
-28 27 0
30 -29 0
-30 29 0
39 -40 -41 0
-39 40 0
-39 41 0
32 -31 0
-32 31 0
36 -35 0
-36 35 0
42 -43 -41 0
-42 43 0
-42 41 0
44 -45 -41 0
-44 45 0
-44 41 0
38 -37 0
-38 37 0
46 -47 0
-46 47 0
34 -33 0
-34 33 0
48 -49 -41 0
-48 49 0
-48 41 0
50 -51 0
-50 51 0
52 -53 -31 0
-52 53 0
-52 31 0
54 -55 -37 0
-54 55 0
-54 37 0
56 -57 -35 0
-56 57 0
-56 35 0
58 -59 -33 0
-58 59 0
-58 33 0
60 -61 0
-60 61 0
62 -63 0
-62 63 0
64 -65 0
-64 65 0
66 -67 0
-66 67 0
68 -69 0
-68 69 0
-70 44 38 0
70 -44 0
70 -38 0
-71 54 56 0
71 -54 0
71 -56 0
-72 36 42 0
72 -36 0
72 -42 0
-73 39 32 0
73 -39 0
73 -32 0
-74 50 52 0
74 -50 0
74 -52 0
-75 71 74 0
75 -71 0
75 -74 0
-76 48 34 0
76 -48 0
76 -34 0
-77 75 58 0
77 -75 0
77 -58 0
-78 32 -31 0
78 -32 0
78 31 0
-79 -32 31 0
79 32 0
79 -31 0
-80 36 -35 0
80 -36 0
80 35 0
-81 -36 35 0
81 36 0
81 -35 0
-82 38 -37 0
82 -38 0
82 37 0
-83 -38 37 0
83 38 0
83 -37 0
-84 46 -47 0
84 -46 0
84 47 0
-85 -46 47 0
85 46 0
85 -47 0
-86 34 -33 0
86 -34 0
86 33 0
-87 -34 33 0
87 34 0
87 -33 0
-88 50 -51 0
88 -50 0
88 51 0
-89 -50 51 0
89 50 0
89 -51 0
-90 60 -61 0
90 -60 0
90 61 0
-91 -60 61 0
91 60 0
91 -61 0
-92 62 -63 0
92 -62 0
92 63 0
-93 -62 63 0
93 62 0
93 -63 0
-94 64 -65 0
94 -64 0
94 65 0
-95 -64 65 0
95 64 0
95 -65 0
-96 66 -67 0
96 -66 0
96 67 0
-97 -66 67 0
97 66 0
97 -67 0
-98 68 -69 0
98 -68 0
98 69 0
-99 -68 69 0
99 68 0
99 -69 0
-100 -37 68 0
100 37 0
100 -68 0
-101 37 -68 0
101 -37 0
101 68 0
-102 -103 70 0
102 103 0
102 -70 0
-104 103 -70 0
104 -103 0
104 70 0
-105 -35 66 0
105 35 0
105 -66 0
-106 35 -66 0
106 -35 0
106 66 0
-107 -108 73 0
107 108 0
107 -73 0
-109 108 -73 0
109 -108 0
109 73 0
-110 -111 72 0
110 111 0
110 -72 0
-112 111 -72 0
112 -111 0
112 72 0
-113 -31 62 0
113 31 0
113 -62 0
-114 31 -62 0
114 -31 0
114 62 0
-115 -116 76 0
115 116 0
115 -76 0
-117 116 -76 0
117 -116 0
117 76 0
-118 -41 77 0
118 41 0
118 -77 0
-119 41 -77 0
119 -41 0
119 77 0
-120 -33 64 0
120 33 0
120 -64 0
-121 33 -64 0
121 -33 0
121 64 0
-122 -123 60 0
122 123 0
122 -60 0
-124 123 -60 0
124 -123 0
124 60 0
-125 -1 2 0
125 1 0
125 -2 0
-126 1 -2 0
126 -1 0
126 2 0
-127 -3 4 0
127 3 0
127 -4 0
-128 3 -4 0
128 -3 0
128 4 0
-129 -11 12 0
129 11 0
129 -12 0
-130 11 -12 0
130 -11 0
130 12 0
-131 -13 14 0
131 13 0
131 -14 0
-132 13 -14 0
132 -13 0
132 14 0
-133 -15 16 0
133 15 0
133 -16 0
-134 15 -16 0
134 -15 0
134 16 0
-135 -17 18 0
135 17 0
135 -18 0
-136 17 -18 0
136 -17 0
136 18 0
-137 -5 6 0
137 5 0
137 -6 0
-138 5 -6 0
138 -5 0
138 6 0
-139 -19 20 0
139 19 0
139 -20 0
-140 19 -20 0
140 -19 0
140 20 0
-141 -21 22 0
141 21 0
141 -22 0
-142 21 -22 0
142 -21 0
142 22 0
-143 -23 24 0
143 23 0
143 -24 0
-144 23 -24 0
144 -23 0
144 24 0
-145 -25 26 0
145 25 0
145 -26 0
-146 25 -26 0
146 -25 0
146 26 0
-147 -7 8 0
147 7 0
147 -8 0
-148 7 -8 0
148 -7 0
148 8 0
-149 -27 28 0
149 27 0
149 -28 0
-150 27 -28 0
150 -27 0
150 28 0
-151 -29 30 0
151 29 0
151 -30 0
-152 29 -30 0
152 -29 0
152 30 0
-153 -9 10 0
153 9 0
153 -10 0
-154 9 -10 0
154 -9 0
154 10 0
-155 -156 46 0
155 156 0
155 -46 0
-157 156 -46 0
157 -156 0
157 46 0
78 0
79 0
80 0
81 0
82 0
83 0
84 0
85 0
86 0
87 0
88 0
89 0
90 0
91 0
92 0
93 0
94 0
95 0
96 0
97 0
98 0
99 0
100 0
101 0
102 0
104 0
105 0
106 0
107 0
109 0
110 0
112 0
113 0
114 0
115 0
117 0
118 0
119 0
120 0
121 0
122 0
124 0
125 0
126 0
127 0
128 0
129 0
130 0
131 0
132 0
133 0
134 0
135 0
136 0
137 0
138 0
139 0
140 0
141 0
142 0
143 0
144 0
145 0
146 0
147 0
148 0
149 0
150 0
151 0
152 0
153 0
154 0
155 0
157 0
2 0
4 0
6 0
8 0
10 0
12 0
14 0
16 0
18 0
20 0
22 0
24 0
26 0
28 0
30 0
