c BC-S1.2
p cnf 1439 4577
1 -2 0
-1 2 0
3 -4 0
-3 4 0
5 -6 0
-5 6 0
7 -8 0
-7 8 0
9 -10 0
-9 10 0
11 -12 0
-11 12 0
13 -14 0
-13 14 0
15 -16 0
-15 16 0
17 -18 0
-17 18 0
19 -20 0
-19 20 0
21 -22 0
-21 22 0
23 -24 0
-23 24 0
25 -26 0
-25 26 0
27 -28 0
-27 28 0
29 -30 0
-29 30 0
31 -32 0
-31 32 0
33 -34 0
-33 34 0
35 -36 0
-35 36 0
37 -38 0
-37 38 0
39 -40 0
-39 40 0
41 -42 0
-41 42 0
43 -44 0
-43 44 0
45 -46 0
-45 46 0
47 -48 0
-47 48 0
49 -50 0
-49 50 0
51 -52 0
-51 52 0
53 -54 0
-53 54 0
55 -56 0
-55 56 0
57 -58 0
-57 58 0
59 -60 0
-59 60 0
61 -62 0
-61 62 0
63 -64 0
-63 64 0
65 -66 0
-65 66 0
67 -68 0
-67 68 0
69 -70 0
-69 70 0
71 -72 0
-71 72 0
73 -74 0
-73 74 0
75 -76 0
-75 76 0
77 -78 0
-77 78 0
79 -80 0
-79 80 0
81 -82 0
-81 82 0
83 -84 0
-83 84 0
85 -86 0
-85 86 0
87 -88 0
-87 88 0
89 -90 0
-89 90 0
91 -92 0
-91 92 0
93 -94 0
-93 94 0
95 -96 0
-95 96 0
97 -98 0
-97 98 0
99 -100 0
-99 100 0
101 -102 0
-101 102 0
103 -104 0
-103 104 0
105 -106 0
-105 106 0
107 -108 0
-107 108 0
109 -110 0
-109 110 0
111 -112 0
-111 112 0
113 -114 0
-113 114 0
115 -116 0
-115 116 0
117 -118 0
-117 118 0
119 -120 0
-119 120 0
121 -122 0
-121 122 0
123 -124 0
-123 124 0
125 -126 0
-125 126 0
127 -128 0
-127 128 0
129 -130 0
-129 130 0
131 -132 0
-131 132 0
133 -134 0
-133 134 0
135 -136 0
-135 136 0
137 -138 0
-137 138 0
139 -140 0
-139 140 0
141 -142 0
-141 142 0
143 -144 0
-143 144 0
145 -146 0
-145 146 0
147 -148 0
-147 148 0
149 -150 0
-149 150 0
151 -152 0
-151 152 0
153 -154 0
-153 154 0
155 -156 0
-155 156 0
157 -158 0
-157 158 0
159 -160 0
-159 160 0
161 -162 0
-161 162 0
163 -164 0
-163 164 0
165 -166 0
-165 166 0
167 -168 0
-167 168 0
169 -170 0
-169 170 0
171 -172 0
-171 172 0
173 -174 0
-173 174 0
175 -176 0
-175 176 0
177 -178 0
-177 178 0
179 -180 0
-179 180 0
181 -182 0
-181 182 0
-183 184 185 186 187 188 189 190 0
183 -184 0
183 -185 0
183 -186 0
183 -187 0
183 -188 0
183 -189 0
183 -190 0
-191 192 193 0
191 -192 0
191 -193 0
-194 195 196 0
194 -195 0
194 -196 0
-197 198 199 0
197 -198 0
197 -199 0
-200 201 202 0
200 -201 0
200 -202 0
-203 204 205 0
203 -204 0
203 -205 0
-206 207 208 0
206 -207 0
206 -208 0
-209 210 211 212 213 214 215 216 217 218 0
209 -210 0
209 -211 0
209 -212 0
209 -213 0
209 -214 0
209 -215 0
209 -216 0
209 -217 0
209 -218 0
-219 220 221 0
219 -220 0
219 -221 0
-222 223 224 0
222 -223 0
222 -224 0
-225 226 227 0
225 -226 0
225 -227 0
-228 229 230 231 232 233 234 235 0
228 -229 0
228 -230 0
228 -231 0
228 -232 0
228 -233 0
228 -234 0
228 -235 0
-236 237 238 0
236 -237 0
236 -238 0
-239 240 241 0
239 -240 0
239 -241 0
-242 243 244 245 246 247 248 0
242 -243 0
242 -244 0
242 -245 0
242 -246 0
242 -247 0
242 -248 0
-249 250 251 0
249 -250 0
249 -251 0
-252 253 254 255 256 257 258 259 260 261 0
252 -253 0
252 -254 0
252 -255 0
252 -256 0
252 -257 0
252 -258 0
252 -259 0
252 -260 0
252 -261 0
-262 263 264 0
262 -263 0
262 -264 0
-265 266 267 0
265 -266 0
265 -267 0
-268 269 270 0
268 -269 0
268 -270 0
-271 272 273 274 275 276 277 278 279 280 0
271 -272 0
271 -273 0
271 -274 0
271 -275 0
271 -276 0
271 -277 0
271 -278 0
271 -279 0
271 -280 0
-281 282 283 0
281 -282 0
281 -283 0
-284 285 286 0
284 -285 0
284 -286 0
-287 288 289 290 291 292 293 294 0
287 -288 0
287 -289 0
287 -290 0
287 -291 0
287 -292 0
287 -293 0
287 -294 0
-295 296 297 0
295 -296 0
295 -297 0
-298 299 300 301 302 303 304 305 306 307 0
298 -299 0
298 -300 0
298 -301 0
298 -302 0
298 -303 0
298 -304 0
298 -305 0
298 -306 0
298 -307 0
-308 309 310 0
308 -309 0
308 -310 0
-311 312 313 0
311 -312 0
311 -313 0
-314 315 316 317 318 319 320 321 0
314 -315 0
314 -316 0
314 -317 0
314 -318 0
314 -319 0
314 -320 0
314 -321 0
-322 323 324 325 326 327 328 329 330 331 0
322 -323 0
322 -324 0
322 -325 0
322 -326 0
322 -327 0
322 -328 0
322 -329 0
322 -330 0
322 -331 0
-332 333 334 0
332 -333 0
332 -334 0
-335 336 337 0
335 -336 0
335 -337 0
-338 339 340 341 342 343 344 345 0
338 -339 0
338 -340 0
338 -341 0
338 -342 0
338 -343 0
338 -344 0
338 -345 0
-346 347 348 0
346 -347 0
346 -348 0
-349 350 351 0
349 -350 0
349 -351 0
-352 353 354 0
352 -353 0
352 -354 0
-355 356 357 0
355 -356 0
355 -357 0
-358 359 360 361 362 363 364 365 366 367 0
358 -359 0
358 -360 0
358 -361 0
358 -362 0
358 -363 0
358 -364 0
358 -365 0
358 -366 0
358 -367 0
-368 369 370 0
368 -369 0
368 -370 0
-371 372 373 0
371 -372 0
371 -373 0
-374 375 376 377 378 379 380 381 0
374 -375 0
374 -376 0
374 -377 0
374 -378 0
374 -379 0
374 -380 0
374 -381 0
-382 383 384 0
382 -383 0
382 -384 0
-385 386 387 0
385 -386 0
385 -387 0
-388 389 390 391 392 393 394 0
388 -389 0
388 -390 0
388 -391 0
388 -392 0
388 -393 0
388 -394 0
-395 396 397 0
395 -396 0
395 -397 0
-398 399 400 401 402 403 404 405 406 0
398 -399 0
398 -400 0
398 -401 0
398 -402 0
398 -403 0
398 -404 0
398 -405 0
398 -406 0
-407 408 409 0
407 -408 0
407 -409 0
-410 411 412 413 414 415 416 417 418 0
410 -411 0
410 -412 0
410 -413 0
410 -414 0
410 -415 0
410 -416 0
410 -417 0
410 -418 0
-419 420 421 0
419 -420 0
419 -421 0
-422 423 424 425 426 427 428 429 430 0
422 -423 0
422 -424 0
422 -425 0
422 -426 0
422 -427 0
422 -428 0
422 -429 0
422 -430 0
-431 432 433 0
431 -432 0
431 -433 0
-434 435 436 0
434 -435 0
434 -436 0
-437 438 439 440 441 0
437 -438 0
437 -439 0
437 -440 0
437 -441 0
-442 443 444 445 446 447 0
442 -443 0
442 -444 0
442 -445 0
442 -446 0
442 -447 0
-448 449 450 0
448 -449 0
448 -450 0
-451 452 453 454 455 456 0
451 -452 0
451 -453 0
451 -454 0
451 -455 0
451 -456 0
-457 458 459 460 461 462 463 0
457 -458 0
457 -459 0
457 -460 0
457 -461 0
457 -462 0
457 -463 0
-464 465 466 0
464 -465 0
464 -466 0
-467 468 469 470 471 472 0
467 -468 0
467 -469 0
467 -470 0
467 -471 0
467 -472 0
-473 474 475 476 477 478 479 0
473 -474 0
473 -475 0
473 -476 0
473 -477 0
473 -478 0
473 -479 0
-480 481 482 0
480 -481 0
480 -482 0
-483 484 485 0
483 -484 0
483 -485 0
-486 487 488 489 490 491 492 0
486 -487 0
486 -488 0
486 -489 0
486 -490 0
486 -491 0
486 -492 0
-493 494 495 0
493 -494 0
493 -495 0
-496 497 498 499 500 501 0
496 -497 0
496 -498 0
496 -499 0
496 -500 0
496 -501 0
502 -193 0
-502 193 0
503 -204 0
-503 204 0
504 -208 0
-504 208 0
-505 506 507 508 0
505 -506 0
505 -507 0
505 -508 0
-509 510 511 512 513 514 0
509 -510 0
509 -511 0
509 -512 0
509 -513 0
509 -514 0
-515 516 517 518 519 0
515 -516 0
515 -517 0
515 -518 0
515 -519 0
-520 521 522 523 0
520 -521 0
520 -522 0
520 -523 0
-524 525 526 527 528 529 0
524 -525 0
524 -526 0
524 -527 0
524 -528 0
524 -529 0
-530 531 532 533 0
530 -531 0
530 -532 0
530 -533 0
-534 535 536 537 538 0
534 -535 0
534 -536 0
534 -537 0
534 -538 0
-539 540 541 542 0
539 -540 0
539 -541 0
539 -542 0
-543 544 545 546 547 0
543 -544 0
543 -545 0
543 -546 0
543 -547 0
-548 549 550 551 552 553 0
548 -549 0
548 -550 0
548 -551 0
548 -552 0
548 -553 0
-554 555 556 557 558 559 0
554 -555 0
554 -556 0
554 -557 0
554 -558 0
554 -559 0
-560 561 562 563 564 565 0
560 -561 0
560 -562 0
560 -563 0
560 -564 0
560 -565 0
-566 567 568 569 570 0
566 -567 0
566 -568 0
566 -569 0
566 -570 0
-571 572 573 574 0
571 -572 0
571 -573 0
571 -574 0
-575 576 577 578 579 580 0
575 -576 0
575 -577 0
575 -578 0
575 -579 0
575 -580 0
-581 582 583 584 585 0
581 -582 0
581 -583 0
581 -584 0
581 -585 0
586 -387 0
-586 387 0
-587 588 589 590 591 0
587 -588 0
587 -589 0
587 -590 0
587 -591 0
-592 593 594 595 596 597 0
592 -593 0
592 -594 0
592 -595 0
592 -596 0
592 -597 0
-598 599 600 601 602 0
598 -599 0
598 -600 0
598 -601 0
598 -602 0
-603 604 605 606 607 0
603 -604 0
603 -605 0
603 -606 0
603 -607 0
-608 609 610 611 612 0
608 -609 0
608 -610 0
608 -611 0
608 -612 0
-613 614 615 616 617 0
613 -614 0
613 -615 0
613 -616 0
613 -617 0
-618 619 620 621 622 0
618 -619 0
618 -620 0
618 -621 0
618 -622 0
-623 624 625 626 627 0
623 -624 0
623 -625 0
623 -626 0
623 -627 0
-628 629 630 0
628 -629 0
628 -630 0
-631 632 633 634 0
631 -632 0
631 -633 0
631 -634 0
-635 636 637 0
635 -636 0
635 -637 0
-638 639 640 641 642 643 644 645 0
638 -639 0
638 -640 0
638 -641 0
638 -642 0
638 -643 0
638 -644 0
638 -645 0
-646 647 648 649 650 651 652 0
646 -647 0
646 -648 0
646 -649 0
646 -650 0
646 -651 0
646 -652 0
-653 654 655 656 657 658 0
653 -654 0
653 -655 0
653 -656 0
653 -657 0
653 -658 0
-659 660 661 662 663 664 665 666 0
659 -660 0
659 -661 0
659 -662 0
659 -663 0
659 -664 0
659 -665 0
659 -666 0
-667 668 669 670 671 672 673 0
667 -668 0
667 -669 0
667 -670 0
667 -671 0
667 -672 0
667 -673 0
-674 675 676 677 678 679 0
674 -675 0
674 -676 0
674 -677 0
674 -678 0
674 -679 0
-680 681 682 683 684 685 686 687 0
680 -681 0
680 -682 0
680 -683 0
680 -684 0
680 -685 0
680 -686 0
680 -687 0
-688 689 690 691 692 0
688 -689 0
688 -690 0
688 -691 0
688 -692 0
-693 694 695 696 697 698 699 700 0
693 -694 0
693 -695 0
693 -696 0
693 -697 0
693 -698 0
693 -699 0
693 -700 0
-701 702 703 704 705 706 707 708 0
701 -702 0
701 -703 0
701 -704 0
701 -705 0
701 -706 0
701 -707 0
701 -708 0
-709 710 711 712 713 714 715 0
709 -710 0
709 -711 0
709 -712 0
709 -713 0
709 -714 0
709 -715 0
-716 717 718 719 720 721 0
716 -717 0
716 -718 0
716 -719 0
716 -720 0
716 -721 0
-722 723 724 725 726 727 728 0
722 -723 0
722 -724 0
722 -725 0
722 -726 0
722 -727 0
722 -728 0
-729 730 731 0
729 -730 0
729 -731 0
-732 733 734 735 736 0
732 -733 0
732 -734 0
732 -735 0
732 -736 0
-737 738 739 740 741 0
737 -738 0
737 -739 0
737 -740 0
737 -741 0
-742 743 744 745 746 0
742 -743 0
742 -744 0
742 -745 0
742 -746 0
2 -1 0
-2 1 0
4 -3 0
-4 3 0
6 -5 0
-6 5 0
8 -7 0
-8 7 0
10 -9 0
-10 9 0
12 -11 0
-12 11 0
14 -13 0
-14 13 0
16 -15 0
-16 15 0
18 -17 0
-18 17 0
20 -19 0
-20 19 0
22 -21 0
-22 21 0
24 -23 0
-24 23 0
26 -25 0
-26 25 0
28 -27 0
-28 27 0
30 -29 0
-30 29 0
32 -31 0
-32 31 0
34 -33 0
-34 33 0
36 -35 0
-36 35 0
38 -37 0
-38 37 0
40 -39 0
-40 39 0
42 -41 0
-42 41 0
44 -43 0
-44 43 0
46 -45 0
-46 45 0
48 -47 0
-48 47 0
50 -49 0
-50 49 0
52 -51 0
-52 51 0
54 -53 0
-54 53 0
56 -55 0
-56 55 0
58 -57 0
-58 57 0
60 -59 0
-60 59 0
62 -61 0
-62 61 0
64 -63 0
-64 63 0
66 -65 0
-66 65 0
68 -67 0
-68 67 0
70 -69 0
-70 69 0
72 -71 0
-72 71 0
74 -73 0
-74 73 0
76 -75 0
-76 75 0
78 -77 0
-78 77 0
80 -79 0
-80 79 0
82 -81 0
-82 81 0
84 -83 0
-84 83 0
86 -85 0
-86 85 0
88 -87 0
-88 87 0
90 -89 0
-90 89 0
92 -91 0
-92 91 0
94 -93 0
-94 93 0
96 -95 0
-96 95 0
98 -97 0
-98 97 0
100 -99 0
-100 99 0
102 -101 0
-102 101 0
104 -103 0
-104 103 0
106 -105 0
-106 105 0
108 -107 0
-108 107 0
110 -109 0
-110 109 0
112 -111 0
-112 111 0
114 -113 0
-114 113 0
116 -115 0
-116 115 0
118 -117 0
-118 117 0
120 -119 0
-120 119 0
122 -121 0
-122 121 0
124 -123 0
-124 123 0
126 -125 0
-126 125 0
128 -127 0
-128 127 0
130 -129 0
-130 129 0
132 -131 0
-132 131 0
134 -133 0
-134 133 0
136 -135 0
-136 135 0
138 -137 0
-138 137 0
140 -139 0
-140 139 0
142 -141 0
-142 141 0
144 -143 0
-144 143 0
146 -145 0
-146 145 0
148 -147 0
-148 147 0
150 -149 0
-150 149 0
152 -151 0
-152 151 0
154 -153 0
-154 153 0
156 -155 0
-156 155 0
158 -157 0
-158 157 0
160 -159 0
-160 159 0
162 -161 0
-162 161 0
164 -163 0
-164 163 0
166 -165 0
-166 165 0
168 -167 0
-168 167 0
170 -169 0
-170 169 0
172 -171 0
-172 171 0
174 -173 0
-174 173 0
176 -175 0
-176 175 0
178 -177 0
-178 177 0
180 -179 0
-180 179 0
182 -181 0
-182 181 0
747 -748 -749 0
-747 748 0
-747 749 0
750 -530 0
-750 530 0
751 -680 0
-751 680 0
752 -753 -749 0
-752 753 0
-752 749 0
754 -755 -756 0
-754 755 0
-754 756 0
757 -543 0
-757 543 0
758 -688 0
-758 688 0
759 -760 -756 0
-759 760 0
-759 756 0
761 -762 -763 0
-761 762 0
-761 763 0
764 -548 0
-764 548 0
765 -766 -371 0
-765 766 0
-765 371 0
767 -768 -349 0
-767 768 0
-767 349 0
769 -770 -368 0
-769 770 0
-769 368 0
771 -772 -374 0
-771 772 0
-771 374 0
773 -774 -355 0
-773 774 0
-773 355 0
775 -776 -352 0
-775 776 0
-775 352 0
777 -778 -358 0
-777 778 0
-777 358 0
779 -780 -382 0
-779 780 0
-779 382 0
781 -298 0
-781 298 0
782 -783 -382 0
-782 783 0
-782 382 0
784 -785 -368 0
-784 785 0
-784 368 0
786 -787 -355 0
-786 787 0
-786 355 0
788 -789 -371 0
-788 789 0
-788 371 0
790 -791 -422 0
-790 791 0
-790 422 0
792 -793 -298 0
-792 793 0
-792 298 0
794 -795 -431 0
-794 795 0
-794 431 0
796 -797 -352 0
-796 797 0
-796 352 0
798 -358 0
-798 358 0
799 -709 0
-799 709 0
800 -801 -756 0
-800 801 0
-800 756 0
802 -803 -431 0
-802 803 0
-802 431 0
804 -805 -355 0
-804 805 0
-804 355 0
806 -807 -352 0
-806 807 0
-806 352 0
808 -809 -349 0
-808 809 0
-808 349 0
810 -374 0
-810 374 0
811 -812 -368 0
-811 812 0
-811 368 0
813 -814 -298 0
-813 814 0
-813 298 0
815 -422 0
-815 422 0
816 -817 -496 0
-816 817 0
-816 496 0
818 -819 -358 0
-818 819 0
-818 358 0
820 -821 -352 0
-820 821 0
-820 352 0
822 -823 -371 0
-822 823 0
-822 371 0
824 -825 -486 0
-824 825 0
-824 486 0
826 -827 -431 0
-826 827 0
-826 431 0
828 -829 -493 0
-828 829 0
-828 493 0
830 -831 -688 0
-830 831 0
-830 688 0
832 -496 0
-832 496 0
833 -834 -835 0
-833 834 0
-833 835 0
836 -837 -709 0
-836 837 0
-836 709 0
838 -839 -543 0
-838 839 0
-838 543 0
840 -592 0
-840 592 0
841 -842 -843 0
-841 842 0
-841 843 0
844 -845 -846 0
-844 845 0
-844 846 0
847 -603 0
-847 603 0
848 -849 -382 0
-848 849 0
-848 382 0
850 -486 0
-850 486 0
851 -852 -493 0
-851 852 0
-851 493 0
853 -854 -422 0
-853 854 0
-853 422 0
855 -856 -352 0
-855 856 0
-855 352 0
857 -858 -371 0
-857 858 0
-857 371 0
859 -860 0
-859 860 0
184 -768 -191 0
-184 768 0
-184 191 0
185 -861 0
-185 861 0
186 -766 -203 0
-186 766 0
-186 203 0
187 -776 -194 0
-187 776 0
-187 194 0
188 -774 -197 0
-188 774 0
-188 197 0
189 -780 -206 0
-189 780 0
-189 206 0
190 -770 -200 0
-190 770 0
-190 200 0
192 -748 -197 0
-192 748 0
-192 197 0
193 -502 0
-193 502 0
195 -628 0
-195 628 0
196 -753 -197 0
-196 753 0
-196 197 0
198 -631 0
-198 631 0
199 -801 -437 0
-199 801 0
-199 437 0
201 -842 -434 0
-201 842 0
-201 434 0
202 -635 0
-202 635 0
204 -503 0
-204 503 0
205 -762 -200 0
-205 762 0
-205 200 0
207 -755 -437 0
-207 755 0
-207 437 0
208 -504 0
-208 504 0
210 -766 -239 0
-210 766 0
-210 239 0
211 -183 0
-211 183 0
212 -772 -242 0
-212 772 0
-212 242 0
213 -768 -219 0
-213 768 0
-213 219 0
214 -778 -228 0
-214 778 0
-214 228 0
215 -776 -222 0
-215 776 0
-215 222 0
216 -774 -225 0
-216 774 0
-216 225 0
217 -770 -236 0
-217 770 0
-217 236 0
218 -780 -249 0
-218 780 0
-218 249 0
220 -748 -225 0
-220 748 0
-220 225 0
221 -505 0
-221 505 0
223 -753 -225 0
-223 753 0
-223 225 0
224 -638 0
-224 638 0
226 -801 -451 0
-226 801 0
-226 451 0
227 -646 0
-227 646 0
229 -785 -200 0
-229 785 0
-229 200 0
230 -783 -206 0
-230 783 0
-230 206 0
231 -862 0
-231 862 0
232 -795 -385 0
-232 795 0
-232 385 0
233 -789 -203 0
-233 789 0
-233 203 0
234 -787 -197 0
-234 787 0
-234 197 0
235 -797 -194 0
-235 797 0
-235 194 0
237 -842 -448 0
-237 842 0
-237 448 0
238 -653 0
-238 653 0
240 -509 0
-240 509 0
241 -762 -236 0
-241 762 0
-241 236 0
243 -805 -197 0
-243 805 0
-243 197 0
244 -812 -200 0
-244 812 0
-244 200 0
245 -807 -194 0
-245 807 0
-245 194 0
246 -809 -191 0
-246 809 0
-246 191 0
247 -863 0
-247 863 0
248 -803 -385 0
-248 803 0
-248 385 0
250 -515 0
-250 515 0
251 -755 -451 0
-251 755 0
-251 451 0
253 -209 0
-253 209 0
254 -766 -284 0
-254 766 0
-254 284 0
255 -772 -287 0
-255 772 0
-255 287 0
256 -770 -281 0
-256 770 0
-256 281 0
257 -768 -262 0
-257 768 0
-257 262 0
258 -778 -271 0
-258 778 0
-258 271 0
259 -776 -265 0
-259 776 0
-259 265 0
260 -780 -295 0
-260 780 0
-260 295 0
261 -774 -268 0
-261 774 0
-261 268 0
263 -748 -268 0
-263 748 0
-263 268 0
264 -520 0
-264 520 0
266 -753 -268 0
-266 753 0
-266 268 0
267 -659 0
-267 659 0
269 -667 0
-269 667 0
270 -801 -467 0
-270 801 0
-270 467 0
272 -795 -395 0
-272 795 0
-272 395 0
273 -787 -225 0
-273 787 0
-273 225 0
274 -783 -249 0
-274 783 0
-274 249 0
275 -789 -239 0
-275 789 0
-275 239 0
276 -228 0
-276 228 0
277 -793 -183 0
-277 793 0
-277 183 0
278 -785 -236 0
-278 785 0
-278 236 0
279 -797 -222 0
-279 797 0
-279 222 0
280 -791 -388 0
-280 791 0
-280 388 0
282 -674 0
-282 674 0
283 -842 -464 0
-283 842 0
-283 464 0
285 -524 0
-285 524 0
286 -762 -281 0
-286 762 0
-286 281 0
288 -807 -222 0
-288 807 0
-288 222 0
289 -814 -183 0
-289 814 0
-289 183 0
290 -812 -236 0
-290 812 0
-290 236 0
291 -809 -219 0
-291 809 0
-291 219 0
292 -803 -395 0
-292 803 0
-292 395 0
293 -242 0
-293 242 0
294 -805 -225 0
-294 805 0
-294 225 0
296 -755 -467 0
-296 755 0
-296 467 0
297 -534 0
-297 534 0
299 -778 -322 0
-299 778 0
-299 322 0
300 -776 -311 0
-300 776 0
-300 311 0
301 -774 -314 0
-301 774 0
-301 314 0
302 -766 -335 0
-302 766 0
-302 335 0
303 -770 -332 0
-303 770 0
-303 332 0
304 -768 -308 0
-304 768 0
-304 308 0
305 -252 0
-305 252 0
306 -772 -338 0
-306 772 0
-306 338 0
307 -780 -346 0
-307 780 0
-307 346 0
309 -748 -314 0
-309 748 0
-309 314 0
310 -539 0
-310 539 0
312 -693 0
-312 693 0
313 -753 -314 0
-313 753 0
-313 314 0
315 -864 -322 0
-315 864 0
-315 322 0
316 -865 -338 0
-316 865 0
-316 338 0
317 -801 -623 0
-317 801 0
-317 623 0
318 -866 -693 0
-318 866 0
-318 693 0
319 -268 0
-319 268 0
320 -867 -252 0
-320 867 0
-320 252 0
321 -868 -539 0
-321 868 0
-321 539 0
323 -797 -265 0
-323 797 0
-323 265 0
324 -271 0
-324 271 0
325 -787 -268 0
-325 787 0
-325 268 0
326 -795 -407 0
-326 795 0
-326 407 0
327 -783 -295 0
-327 783 0
-327 295 0
328 -789 -284 0
-328 789 0
-328 284 0
329 -785 -281 0
-329 785 0
-329 281 0
330 -793 -209 0
-330 793 0
-330 209 0
331 -791 -398 0
-331 791 0
-331 398 0
333 -560 0
-333 560 0
334 -842 -480 0
-334 842 0
-334 480 0
336 -554 0
-336 554 0
337 -762 -332 0
-337 762 0
-337 332 0
339 -803 -407 0
-339 803 0
-339 407 0
340 -805 -268 0
-340 805 0
-340 268 0
341 -814 -209 0
-341 814 0
-341 209 0
342 -809 -262 0
-342 809 0
-342 262 0
343 -807 -265 0
-343 807 0
-343 265 0
344 -287 0
-344 287 0
345 -812 -281 0
-345 812 0
-345 281 0
347 -755 -483 0
-347 755 0
-347 483 0
348 -566 0
-348 566 0
350 -571 0
-350 571 0
351 -748 -355 0
-351 748 0
-351 355 0
353 -753 -355 0
-353 753 0
-353 355 0
354 -701 0
-354 701 0
356 -722 0
-356 722 0
357 -801 -496 0
-357 801 0
-357 496 0
359 -795 -419 0
-359 795 0
-359 419 0
360 -783 -346 0
-360 783 0
-360 346 0
361 -793 -252 0
-361 793 0
-361 252 0
362 -785 -332 0
-362 785 0
-362 332 0
363 -789 -335 0
-363 789 0
-363 335 0
364 -797 -311 0
-364 797 0
-364 311 0
365 -322 0
-365 322 0
366 -787 -314 0
-366 787 0
-366 314 0
367 -791 -410 0
-367 791 0
-367 410 0
369 -716 0
-369 716 0
370 -842 -493 0
-370 842 0
-370 493 0
372 -762 -368 0
-372 762 0
-372 368 0
373 -575 0
-373 575 0
375 -809 -308 0
-375 809 0
-375 308 0
376 -807 -311 0
-376 807 0
-376 311 0
377 -338 0
-377 338 0
378 -812 -332 0
-378 812 0
-378 332 0
379 -814 -252 0
-379 814 0
-379 252 0
380 -805 -314 0
-380 805 0
-380 314 0
381 -803 -419 0
-381 803 0
-381 419 0
383 -755 -496 0
-383 755 0
-383 496 0
384 -581 0
-384 581 0
386 -845 -194 0
-386 845 0
-386 194 0
387 -586 0
-387 586 0
389 -869 0
-389 869 0
390 -829 -434 0
-390 829 0
-390 434 0
391 -821 -194 0
-391 821 0
-391 194 0
392 -827 -385 0
-392 827 0
-392 385 0
393 -817 -437 0
-393 817 0
-393 437 0
394 -823 -203 0
-394 823 0
-394 203 0
396 -587 0
-396 587 0
397 -845 -222 0
-397 845 0
-397 222 0
399 -821 -222 0
-399 821 0
-399 222 0
400 -817 -451 0
-400 817 0
-400 451 0
401 -823 -239 0
-401 823 0
-401 239 0
402 -827 -395 0
-402 827 0
-402 395 0
403 -388 0
-403 388 0
404 -825 -442 0
-404 825 0
-404 442 0
405 -819 -228 0
-405 819 0
-405 228 0
406 -829 -448 0
-406 829 0
-406 448 0
408 -598 0
-408 598 0
409 -845 -265 0
-409 845 0
-409 265 0
411 -823 -284 0
-411 823 0
-411 284 0
412 -825 -457 0
-412 825 0
-412 457 0
413 -829 -464 0
-413 829 0
-413 464 0
414 -827 -407 0
-414 827 0
-414 407 0
415 -398 0
-415 398 0
416 -819 -271 0
-416 819 0
-416 271 0
417 -817 -467 0
-417 817 0
-417 467 0
418 -821 -265 0
-418 821 0
-418 265 0
420 -608 0
-420 608 0
421 -845 -311 0
-421 845 0
-421 311 0
423 -819 -322 0
-423 819 0
-423 322 0
424 -827 -419 0
-424 827 0
-424 419 0
425 -825 -473 0
-425 825 0
-425 473 0
426 -410 0
-426 410 0
427 -821 -311 0
-427 821 0
-427 311 0
428 -823 -335 0
-428 823 0
-428 335 0
429 -829 -480 0
-429 829 0
-429 480 0
430 -817 -483 0
-430 817 0
-430 483 0
432 -613 0
-432 613 0
433 -845 -352 0
-433 845 0
-433 352 0
435 -729 0
-435 729 0
436 -760 -437 0
-436 760 0
-436 437 0
438 -837 -631 0
-438 837 0
-438 631 0
439 -839 -504 0
-439 839 0
-439 504 0
440 -870 0
-440 870 0
441 -831 -729 0
-441 831 0
-441 729 0
443 -849 -206 0
-443 849 0
-443 206 0
444 -871 0
-444 871 0
445 -858 -203 0
-445 858 0
-445 203 0
446 -852 -434 0
-446 852 0
-446 434 0
447 -856 -194 0
-447 856 0
-447 194 0
449 -760 -451 0
-449 760 0
-449 451 0
450 -732 0
-450 732 0
452 -834 -388 0
-452 834 0
-452 388 0
453 -837 -646 0
-453 837 0
-453 646 0
454 -437 0
-454 437 0
455 -839 -515 0
-455 839 0
-455 515 0
456 -831 -732 0
-456 831 0
-456 732 0
458 -854 -388 0
-458 854 0
-458 388 0
459 -858 -239 0
-459 858 0
-459 239 0
460 -856 -222 0
-460 856 0
-460 222 0
461 -849 -249 0
-461 849 0
-461 249 0
462 -442 0
-462 442 0
463 -852 -448 0
-463 852 0
-463 448 0
465 -760 -467 0
-465 760 0
-465 467 0
466 -737 0
-466 737 0
468 -834 -398 0
-468 834 0
-468 398 0
469 -831 -737 0
-469 831 0
-469 737 0
470 -839 -534 0
-470 839 0
-470 534 0
471 -837 -667 0
-471 837 0
-471 667 0
472 -451 0
-472 451 0
474 -852 -464 0
-474 852 0
-474 464 0
475 -854 -398 0
-475 854 0
-475 398 0
476 -856 -265 0
-476 856 0
-476 265 0
477 -858 -284 0
-477 858 0
-477 284 0
478 -457 0
-478 457 0
479 -849 -295 0
-479 849 0
-479 295 0
481 -618 0
-481 618 0
482 -760 -483 0
-482 760 0
-482 483 0
484 -837 -314 0
-484 837 0
-484 314 0
485 -623 0
-485 623 0
487 -852 -480 0
-487 852 0
-487 480 0
488 -849 -346 0
-488 849 0
-488 346 0
489 -854 -410 0
-489 854 0
-489 410 0
490 -858 -335 0
-490 858 0
-490 335 0
491 -856 -311 0
-491 856 0
-491 311 0
492 -473 0
-492 473 0
494 -760 -496 0
-494 760 0
-494 496 0
495 -742 0
-495 742 0
497 -837 -722 0
-497 837 0
-497 722 0
498 -483 0
-498 483 0
499 -834 -422 0
-499 834 0
-499 422 0
500 -839 -581 0
-500 839 0
-500 581 0
501 -831 -742 0
-501 831 0
-501 742 0
872 -873 0
-872 873 0
874 -875 0
-874 875 0
876 -877 0
-876 877 0
506 -191 0
-506 191 0
507 -878 -242 0
-507 878 0
-507 242 0
508 -879 -183 0
-508 879 0
-508 183 0
510 -880 -183 0
-510 880 0
-510 183 0
511 -881 -228 0
-511 881 0
-511 228 0
512 -882 -442 0
-512 882 0
-512 442 0
513 -883 -388 0
-513 883 0
-513 388 0
514 -203 0
-514 203 0
516 -884 -228 0
-516 884 0
-516 228 0
517 -885 -183 0
-517 885 0
-517 183 0
518 -206 0
-518 206 0
519 -886 -442 0
-519 886 0
-519 442 0
521 -219 0
-521 219 0
522 -879 -209 0
-522 879 0
-522 209 0
523 -878 -287 0
-523 878 0
-523 287 0
525 -880 -209 0
-525 880 0
-525 209 0
526 -883 -398 0
-526 883 0
-526 398 0
527 -239 0
-527 239 0
528 -881 -271 0
-528 881 0
-528 271 0
529 -882 -457 0
-529 882 0
-529 457 0
531 -878 -887 0
-531 878 0
-531 887 0
532 -879 -888 0
-532 879 0
-532 888 0
533 -349 0
-533 349 0
535 -886 -457 0
-535 886 0
-535 457 0
536 -884 -271 0
-536 884 0
-536 271 0
537 -249 0
-537 249 0
538 -885 -209 0
-538 885 0
-538 209 0
540 -262 0
-540 262 0
541 -879 -252 0
-541 879 0
-541 252 0
542 -878 -338 0
-542 878 0
-542 338 0
544 -885 -888 0
-544 885 0
-544 888 0
545 -884 -889 0
-545 884 0
-545 889 0
546 -886 -890 0
-546 886 0
-546 890 0
547 -382 0
-547 382 0
549 -881 -889 0
-549 881 0
-549 889 0
550 -883 -835 0
-550 883 0
-550 835 0
551 -882 -890 0
-551 882 0
-551 890 0
552 -371 0
-552 371 0
553 -880 -888 0
-553 880 0
-553 888 0
555 -881 -322 0
-555 881 0
-555 322 0
556 -284 0
-556 284 0
557 -880 -252 0
-557 880 0
-557 252 0
558 -882 -473 0
-558 882 0
-558 473 0
559 -883 -410 0
-559 883 0
-559 410 0
561 -891 -338 0
-561 891 0
-561 338 0
562 -281 0
-562 281 0
563 -892 -252 0
-563 892 0
-563 252 0
564 -893 -554 0
-564 893 0
-564 554 0
565 -894 -322 0
-565 894 0
-565 322 0
567 -886 -473 0
-567 886 0
-567 473 0
568 -884 -322 0
-568 884 0
-568 322 0
569 -885 -252 0
-569 885 0
-569 252 0
570 -295 0
-570 295 0
572 -879 -298 0
-572 879 0
-572 298 0
573 -878 -374 0
-573 878 0
-573 374 0
574 -308 0
-574 308 0
576 -883 -422 0
-576 883 0
-576 422 0
577 -335 0
-577 335 0
578 -880 -298 0
-578 880 0
-578 298 0
579 -882 -486 0
-579 882 0
-579 486 0
580 -881 -358 0
-580 881 0
-580 358 0
582 -885 -298 0
-582 885 0
-582 298 0
583 -886 -486 0
-583 886 0
-583 486 0
584 -346 0
-584 346 0
585 -884 -358 0
-585 884 0
-585 358 0
895 -896 0
-895 896 0
588 -897 -388 0
-588 897 0
-588 388 0
589 -898 -242 0
-589 898 0
-589 242 0
590 -899 -228 0
-590 899 0
-590 228 0
591 -385 0
-591 385 0
593 -893 -548 0
-593 893 0
-593 548 0
594 -891 -887 0
-594 891 0
-594 887 0
595 -894 -889 0
-595 894 0
-595 889 0
596 -368 0
-596 368 0
597 -892 -888 0
-597 892 0
-597 888 0
599 -898 -287 0
-599 898 0
-599 287 0
600 -897 -398 0
-600 897 0
-600 398 0
601 -899 -271 0
-601 899 0
-601 271 0
602 -395 0
-602 395 0
604 -898 -887 0
-604 898 0
-604 887 0
605 -431 0
-605 431 0
606 -897 -835 0
-606 897 0
-606 835 0
607 -899 -889 0
-607 899 0
-607 889 0
609 -897 -410 0
-609 897 0
-609 410 0
610 -899 -322 0
-610 899 0
-610 322 0
611 -898 -338 0
-611 898 0
-611 338 0
612 -407 0
-612 407 0
614 -897 -422 0
-614 897 0
-614 422 0
615 -899 -358 0
-615 899 0
-615 358 0
616 -898 -374 0
-616 898 0
-616 374 0
617 -419 0
-617 419 0
619 -900 -410 0
-619 900 0
-619 410 0
620 -901 -560 0
-620 901 0
-620 560 0
621 -464 0
-621 464 0
622 -902 -473 0
-622 902 0
-622 473 0
624 -831 -618 0
-624 831 0
-624 618 0
625 -834 -410 0
-625 834 0
-625 410 0
626 -467 0
-626 467 0
627 -839 -566 0
-627 839 0
-627 566 0
629 -903 0
-629 903 0
630 -904 -586 0
-630 904 0
-630 586 0
632 -905 0
-632 905 0
633 -868 -502 0
-633 868 0
-633 502 0
634 -866 -628 0
-634 866 0
-634 628 0
636 -893 -503 0
-636 893 0
-636 503 0
637 -906 0
-637 906 0
639 -907 -183 0
-639 907 0
-639 183 0
640 -908 -388 0
-640 908 0
-640 388 0
641 -909 -242 0
-641 909 0
-641 242 0
642 -910 -442 0
-642 910 0
-642 442 0
643 -911 -228 0
-643 911 0
-643 228 0
644 -904 -587 0
-644 904 0
-644 587 0
645 -194 0
-645 194 0
647 -197 0
-647 197 0
648 -867 -183 0
-648 867 0
-648 183 0
649 -868 -505 0
-649 868 0
-649 505 0
650 -866 -638 0
-650 866 0
-650 638 0
651 -865 -242 0
-651 865 0
-651 242 0
652 -864 -228 0
-652 864 0
-652 228 0
654 -893 -509 0
-654 893 0
-654 509 0
655 -892 -183 0
-655 892 0
-655 183 0
656 -894 -228 0
-656 894 0
-656 228 0
657 -200 0
-657 200 0
658 -891 -242 0
-658 891 0
-658 242 0
660 -909 -287 0
-660 909 0
-660 287 0
661 -907 -209 0
-661 907 0
-661 209 0
662 -910 -457 0
-662 910 0
-662 457 0
663 -908 -398 0
-663 908 0
-663 398 0
664 -904 -598 0
-664 904 0
-664 598 0
665 -911 -271 0
-665 911 0
-665 271 0
666 -222 0
-666 222 0
668 -865 -287 0
-668 865 0
-668 287 0
669 -868 -520 0
-669 868 0
-669 520 0
670 -225 0
-670 225 0
671 -867 -209 0
-671 867 0
-671 209 0
672 -866 -659 0
-672 866 0
-672 659 0
673 -864 -271 0
-673 864 0
-673 271 0
675 -894 -271 0
-675 894 0
-675 271 0
676 -891 -287 0
-676 891 0
-676 287 0
677 -236 0
-677 236 0
678 -893 -524 0
-678 893 0
-678 524 0
679 -892 -209 0
-679 892 0
-679 209 0
681 -910 -890 0
-681 910 0
-681 890 0
682 -907 -888 0
-682 907 0
-682 888 0
683 -352 0
-683 352 0
684 -909 -887 0
-684 909 0
-684 887 0
685 -908 -835 0
-685 908 0
-685 835 0
686 -904 -603 0
-686 904 0
-686 603 0
687 -911 -889 0
-687 911 0
-687 889 0
689 -902 -890 0
-689 902 0
-689 890 0
690 -901 -592 0
-690 901 0
-690 592 0
691 -493 0
-691 493 0
692 -900 -835 0
-692 900 0
-692 835 0
694 -911 -322 0
-694 911 0
-694 322 0
695 -265 0
-695 265 0
696 -904 -608 0
-696 904 0
-696 608 0
697 -910 -473 0
-697 910 0
-697 473 0
698 -907 -252 0
-698 907 0
-698 252 0
699 -909 -338 0
-699 909 0
-699 338 0
700 -908 -410 0
-700 908 0
-700 410 0
702 -910 -486 0
-702 910 0
-702 486 0
703 -311 0
-703 311 0
704 -909 -374 0
-704 909 0
-704 374 0
705 -911 -358 0
-705 911 0
-705 358 0
706 -907 -298 0
-706 907 0
-706 298 0
707 -904 -613 0
-707 904 0
-707 613 0
708 -908 -422 0
-708 908 0
-708 422 0
710 -865 -887 0
-710 865 0
-710 887 0
711 -355 0
-711 355 0
712 -864 -889 0
-712 864 0
-712 889 0
713 -867 -888 0
-713 867 0
-713 888 0
714 -866 -680 0
-714 866 0
-714 680 0
715 -868 -530 0
-715 868 0
-715 530 0
717 -892 -298 0
-717 892 0
-717 298 0
718 -891 -374 0
-718 891 0
-718 374 0
719 -893 -575 0
-719 893 0
-719 575 0
720 -894 -358 0
-720 894 0
-720 358 0
721 -332 0
-721 332 0
723 -865 -374 0
-723 865 0
-723 374 0
724 -314 0
-724 314 0
725 -866 -701 0
-725 866 0
-725 701 0
726 -868 -571 0
-726 868 0
-726 571 0
727 -864 -358 0
-727 864 0
-727 358 0
728 -867 -298 0
-728 867 0
-728 298 0
730 -912 0
-730 912 0
731 -901 -635 0
-731 901 0
-731 635 0
733 -902 -442 0
-733 902 0
-733 442 0
734 -901 -653 0
-734 901 0
-734 653 0
735 -900 -388 0
-735 900 0
-735 388 0
736 -434 0
-736 434 0
738 -902 -457 0
-738 902 0
-738 457 0
739 -901 -674 0
-739 901 0
-739 674 0
740 -448 0
-740 448 0
741 -900 -398 0
-741 900 0
-741 398 0
743 -480 0
-743 480 0
744 -901 -716 0
-744 901 0
-744 716 0
745 -902 -486 0
-745 902 0
-745 486 0
746 -900 -422 0
-746 900 0
-746 422 0
-913 -1 2 0
913 1 0
913 -2 0
-914 1 -2 0
914 -1 0
914 2 0
-915 -3 4 0
915 3 0
915 -4 0
-916 3 -4 0
916 -3 0
916 4 0
-917 -5 6 0
917 5 0
917 -6 0
-918 5 -6 0
918 -5 0
918 6 0
-919 -7 8 0
919 7 0
919 -8 0
-920 7 -8 0
920 -7 0
920 8 0
-921 -9 10 0
921 9 0
921 -10 0
-922 9 -10 0
922 -9 0
922 10 0
-923 -11 12 0
923 11 0
923 -12 0
-924 11 -12 0
924 -11 0
924 12 0
-925 -13 14 0
925 13 0
925 -14 0
-926 13 -14 0
926 -13 0
926 14 0
-927 -15 16 0
927 15 0
927 -16 0
-928 15 -16 0
928 -15 0
928 16 0
-929 -17 18 0
929 17 0
929 -18 0
-930 17 -18 0
930 -17 0
930 18 0
-931 -19 20 0
931 19 0
931 -20 0
-932 19 -20 0
932 -19 0
932 20 0
-933 -21 22 0
933 21 0
933 -22 0
-934 21 -22 0
934 -21 0
934 22 0
-935 -23 24 0
935 23 0
935 -24 0
-936 23 -24 0
936 -23 0
936 24 0
-937 -25 26 0
937 25 0
937 -26 0
-938 25 -26 0
938 -25 0
938 26 0
-939 -27 28 0
939 27 0
939 -28 0
-940 27 -28 0
940 -27 0
940 28 0
-941 -29 30 0
941 29 0
941 -30 0
-942 29 -30 0
942 -29 0
942 30 0
-943 -31 32 0
943 31 0
943 -32 0
-944 31 -32 0
944 -31 0
944 32 0
-945 -33 34 0
945 33 0
945 -34 0
-946 33 -34 0
946 -33 0
946 34 0
-947 -35 36 0
947 35 0
947 -36 0
-948 35 -36 0
948 -35 0
948 36 0
-949 -37 38 0
949 37 0
949 -38 0
-950 37 -38 0
950 -37 0
950 38 0
-951 -39 40 0
951 39 0
951 -40 0
-952 39 -40 0
952 -39 0
952 40 0
-953 -41 42 0
953 41 0
953 -42 0
-954 41 -42 0
954 -41 0
954 42 0
-955 -43 44 0
955 43 0
955 -44 0
-956 43 -44 0
956 -43 0
956 44 0
-957 -45 46 0
957 45 0
957 -46 0
-958 45 -46 0
958 -45 0
958 46 0
-959 -47 48 0
959 47 0
959 -48 0
-960 47 -48 0
960 -47 0
960 48 0
-961 -49 50 0
961 49 0
961 -50 0
-962 49 -50 0
962 -49 0
962 50 0
-963 -51 52 0
963 51 0
963 -52 0
-964 51 -52 0
964 -51 0
964 52 0
-965 -53 54 0
965 53 0
965 -54 0
-966 53 -54 0
966 -53 0
966 54 0
-967 -55 56 0
967 55 0
967 -56 0
-968 55 -56 0
968 -55 0
968 56 0
-969 -57 58 0
969 57 0
969 -58 0
-970 57 -58 0
970 -57 0
970 58 0
-971 -59 60 0
971 59 0
971 -60 0
-972 59 -60 0
972 -59 0
972 60 0
-973 -61 62 0
973 61 0
973 -62 0
-974 61 -62 0
974 -61 0
974 62 0
-975 -63 64 0
975 63 0
975 -64 0
-976 63 -64 0
976 -63 0
976 64 0
-977 -65 66 0
977 65 0
977 -66 0
-978 65 -66 0
978 -65 0
978 66 0
-979 -67 68 0
979 67 0
979 -68 0
-980 67 -68 0
980 -67 0
980 68 0
-981 -69 70 0
981 69 0
981 -70 0
-982 69 -70 0
982 -69 0
982 70 0
-983 -71 72 0
983 71 0
983 -72 0
-984 71 -72 0
984 -71 0
984 72 0
-985 -73 74 0
985 73 0
985 -74 0
-986 73 -74 0
986 -73 0
986 74 0
-987 -75 76 0
987 75 0
987 -76 0
-988 75 -76 0
988 -75 0
988 76 0
-989 -77 78 0
989 77 0
989 -78 0
-990 77 -78 0
990 -77 0
990 78 0
-991 -79 80 0
991 79 0
991 -80 0
-992 79 -80 0
992 -79 0
992 80 0
-993 -81 82 0
993 81 0
993 -82 0
-994 81 -82 0
994 -81 0
994 82 0
-995 -83 84 0
995 83 0
995 -84 0
-996 83 -84 0
996 -83 0
996 84 0
-997 -85 86 0
997 85 0
997 -86 0
-998 85 -86 0
998 -85 0
998 86 0
-999 -87 88 0
999 87 0
999 -88 0
-1000 87 -88 0
1000 -87 0
1000 88 0
-1001 -89 90 0
1001 89 0
1001 -90 0
-1002 89 -90 0
1002 -89 0
1002 90 0
-1003 -91 92 0
1003 91 0
1003 -92 0
-1004 91 -92 0
1004 -91 0
1004 92 0
-1005 -93 94 0
1005 93 0
1005 -94 0
-1006 93 -94 0
1006 -93 0
1006 94 0
-1007 -95 96 0
1007 95 0
1007 -96 0
-1008 95 -96 0
1008 -95 0
1008 96 0
-1009 -97 98 0
1009 97 0
1009 -98 0
-1010 97 -98 0
1010 -97 0
1010 98 0
-1011 -99 100 0
1011 99 0
1011 -100 0
-1012 99 -100 0
1012 -99 0
1012 100 0
-1013 -101 102 0
1013 101 0
1013 -102 0
-1014 101 -102 0
1014 -101 0
1014 102 0
-1015 -103 104 0
1015 103 0
1015 -104 0
-1016 103 -104 0
1016 -103 0
1016 104 0
-1017 -105 106 0
1017 105 0
1017 -106 0
-1018 105 -106 0
1018 -105 0
1018 106 0
-1019 -107 108 0
1019 107 0
1019 -108 0
-1020 107 -108 0
1020 -107 0
1020 108 0
-1021 -109 110 0
1021 109 0
1021 -110 0
-1022 109 -110 0
1022 -109 0
1022 110 0
-1023 -111 112 0
1023 111 0
1023 -112 0
-1024 111 -112 0
1024 -111 0
1024 112 0
-1025 -113 114 0
1025 113 0
1025 -114 0
-1026 113 -114 0
1026 -113 0
1026 114 0
-1027 -115 116 0
1027 115 0
1027 -116 0
-1028 115 -116 0
1028 -115 0
1028 116 0
-1029 -117 118 0
1029 117 0
1029 -118 0
-1030 117 -118 0
1030 -117 0
1030 118 0
-1031 -119 120 0
1031 119 0
1031 -120 0
-1032 119 -120 0
1032 -119 0
1032 120 0
-1033 -121 122 0
1033 121 0
1033 -122 0
-1034 121 -122 0
1034 -121 0
1034 122 0
-1035 -123 124 0
1035 123 0
1035 -124 0
-1036 123 -124 0
1036 -123 0
1036 124 0
-1037 -125 126 0
1037 125 0
1037 -126 0
-1038 125 -126 0
1038 -125 0
1038 126 0
-1039 -127 128 0
1039 127 0
1039 -128 0
-1040 127 -128 0
1040 -127 0
1040 128 0
-1041 -129 130 0
1041 129 0
1041 -130 0
-1042 129 -130 0
1042 -129 0
1042 130 0
-1043 -131 132 0
1043 131 0
1043 -132 0
-1044 131 -132 0
1044 -131 0
1044 132 0
-1045 -133 134 0
1045 133 0
1045 -134 0
-1046 133 -134 0
1046 -133 0
1046 134 0
-1047 -135 136 0
1047 135 0
1047 -136 0
-1048 135 -136 0
1048 -135 0
1048 136 0
-1049 -137 138 0
1049 137 0
1049 -138 0
-1050 137 -138 0
1050 -137 0
1050 138 0
-1051 -139 140 0
1051 139 0
1051 -140 0
-1052 139 -140 0
1052 -139 0
1052 140 0
-1053 -141 142 0
1053 141 0
1053 -142 0
-1054 141 -142 0
1054 -141 0
1054 142 0
-1055 -143 144 0
1055 143 0
1055 -144 0
-1056 143 -144 0
1056 -143 0
1056 144 0
-1057 -145 146 0
1057 145 0
1057 -146 0
-1058 145 -146 0
1058 -145 0
1058 146 0
-1059 -147 148 0
1059 147 0
1059 -148 0
-1060 147 -148 0
1060 -147 0
1060 148 0
-1061 -149 150 0
1061 149 0
1061 -150 0
-1062 149 -150 0
1062 -149 0
1062 150 0
-1063 -151 152 0
1063 151 0
1063 -152 0
-1064 151 -152 0
1064 -151 0
1064 152 0
-1065 -153 154 0
1065 153 0
1065 -154 0
-1066 153 -154 0
1066 -153 0
1066 154 0
-1067 -155 156 0
1067 155 0
1067 -156 0
-1068 155 -156 0
1068 -155 0
1068 156 0
-1069 -157 158 0
1069 157 0
1069 -158 0
-1070 157 -158 0
1070 -157 0
1070 158 0
-1071 -159 160 0
1071 159 0
1071 -160 0
-1072 159 -160 0
1072 -159 0
1072 160 0
-1073 -161 162 0
1073 161 0
1073 -162 0
-1074 161 -162 0
1074 -161 0
1074 162 0
-1075 -163 164 0
1075 163 0
1075 -164 0
-1076 163 -164 0
1076 -163 0
1076 164 0
-1077 -165 166 0
1077 165 0
1077 -166 0
-1078 165 -166 0
1078 -165 0
1078 166 0
-1079 -167 168 0
1079 167 0
1079 -168 0
-1080 167 -168 0
1080 -167 0
1080 168 0
-1081 -169 170 0
1081 169 0
1081 -170 0
-1082 169 -170 0
1082 -169 0
1082 170 0
-1083 -171 172 0
1083 171 0
1083 -172 0
-1084 171 -172 0
1084 -171 0
1084 172 0
-1085 -173 174 0
1085 173 0
1085 -174 0
-1086 173 -174 0
1086 -173 0
1086 174 0
-1087 -175 176 0
1087 175 0
1087 -176 0
-1088 175 -176 0
1088 -175 0
1088 176 0
-1089 -177 178 0
1089 177 0
1089 -178 0
-1090 177 -178 0
1090 -177 0
1090 178 0
-1091 -179 180 0
1091 179 0
1091 -180 0
-1092 179 -180 0
1092 -179 0
1092 180 0
-1093 -181 182 0
1093 181 0
1093 -182 0
-1094 181 -182 0
1094 -181 0
1094 182 0
-1095 750 -530 0
1095 -750 0
1095 530 0
-1096 -750 530 0
1096 750 0
1096 -530 0
-1097 -1098 747 750 0
1097 1098 0
1097 -747 0
1097 -750 0
-1099 1098 -747 0
1099 -1098 0
1099 747 0
-1100 1098 -750 0
1100 -1098 0
1100 750 0
-1101 751 -680 0
1101 -751 0
1101 680 0
-1102 -751 680 0
1102 751 0
1102 -680 0
-1103 -846 751 752 0
1103 846 0
1103 -751 0
1103 -752 0
-1104 846 -751 0
1104 -846 0
1104 751 0
-1105 846 -752 0
1105 -846 0
1105 752 0
-1106 757 -543 0
1106 -757 0
1106 543 0
-1107 -757 543 0
1107 757 0
1107 -543 0
-1108 -1109 754 757 0
1108 1109 0
1108 -754 0
1108 -757 0
-1110 1109 -754 0
1110 -1109 0
1110 754 0
-1111 1109 -757 0
1111 -1109 0
1111 757 0
-1112 758 -688 0
1112 -758 0
1112 688 0
-1113 -758 688 0
1113 758 0
1113 -688 0
-1114 -843 758 759 0
1114 843 0
1114 -758 0
1114 -759 0
-1115 843 -758 0
1115 -843 0
1115 758 0
-1116 843 -759 0
1116 -843 0
1116 759 0
-1117 764 -548 0
1117 -764 0
1117 548 0
-1118 -764 548 0
1118 764 0
1118 -548 0
-1119 -1120 761 764 0
1119 1120 0
1119 -761 0
1119 -764 0
-1121 1120 -761 0
1121 -1120 0
1121 761 0
-1122 1120 -764 0
1122 -1120 0
1122 764 0
-1123 781 -298 0
1123 -781 0
1123 298 0
-1124 -781 298 0
1124 781 0
1124 -298 0
-1125 -888 765 767 769 771 773 775 777 779 781 0
1125 888 0
1125 -765 0
1125 -767 0
1125 -769 0
1125 -771 0
1125 -773 0
1125 -775 0
1125 -777 0
1125 -779 0
1125 -781 0
-1126 888 -765 0
1126 -888 0
1126 765 0
-1127 888 -767 0
1127 -888 0
1127 767 0
-1128 888 -769 0
1128 -888 0
1128 769 0
-1129 888 -771 0
1129 -888 0
1129 771 0
-1130 888 -773 0
1130 -888 0
1130 773 0
-1131 888 -775 0
1131 -888 0
1131 775 0
-1132 888 -777 0
1132 -888 0
1132 777 0
-1133 888 -779 0
1133 -888 0
1133 779 0
-1134 888 -781 0
1134 -888 0
1134 781 0
-1135 798 -358 0
1135 -798 0
1135 358 0
-1136 -798 358 0
1136 798 0
1136 -358 0
-1137 -889 782 784 786 788 790 792 794 796 798 0
1137 889 0
1137 -782 0
1137 -784 0
1137 -786 0
1137 -788 0
1137 -790 0
1137 -792 0
1137 -794 0
1137 -796 0
1137 -798 0
-1138 889 -782 0
1138 -889 0
1138 782 0
-1139 889 -784 0
1139 -889 0
1139 784 0
-1140 889 -786 0
1140 -889 0
1140 786 0
-1141 889 -788 0
1141 -889 0
1141 788 0
-1142 889 -790 0
1142 -889 0
1142 790 0
-1143 889 -792 0
1143 -889 0
1143 792 0
-1144 889 -794 0
1144 -889 0
1144 794 0
-1145 889 -796 0
1145 -889 0
1145 796 0
-1146 889 -798 0
1146 -889 0
1146 798 0
-1147 799 -709 0
1147 -799 0
1147 709 0
-1148 -799 709 0
1148 799 0
1148 -709 0
-1149 -749 799 800 0
1149 749 0
1149 -799 0
1149 -800 0
-1150 749 -799 0
1150 -749 0
1150 799 0
-1151 749 -800 0
1151 -749 0
1151 800 0
-1152 810 -374 0
1152 -810 0
1152 374 0
-1153 -810 374 0
1153 810 0
1153 -374 0
-1154 -887 802 804 806 808 810 811 813 0
1154 887 0
1154 -802 0
1154 -804 0
1154 -806 0
1154 -808 0
1154 -810 0
1154 -811 0
1154 -813 0
-1155 887 -802 0
1155 -887 0
1155 802 0
-1156 887 -804 0
1156 -887 0
1156 804 0
-1157 887 -806 0
1157 -887 0
1157 806 0
-1158 887 -808 0
1158 -887 0
1158 808 0
-1159 887 -810 0
1159 -887 0
1159 810 0
-1160 887 -811 0
1160 -887 0
1160 811 0
-1161 887 -813 0
1161 -887 0
1161 813 0
-1162 815 -422 0
1162 -815 0
1162 422 0
-1163 -815 422 0
1163 815 0
1163 -422 0
-1164 -835 815 816 818 820 822 824 826 828 0
1164 835 0
1164 -815 0
1164 -816 0
1164 -818 0
1164 -820 0
1164 -822 0
1164 -824 0
1164 -826 0
1164 -828 0
-1165 835 -815 0
1165 -835 0
1165 815 0
-1166 835 -816 0
1166 -835 0
1166 816 0
-1167 835 -818 0
1167 -835 0
1167 818 0
-1168 835 -820 0
1168 -835 0
1168 820 0
-1169 835 -822 0
1169 -835 0
1169 822 0
-1170 835 -824 0
1170 -835 0
1170 824 0
-1171 835 -826 0
1171 -835 0
1171 826 0
-1172 835 -828 0
1172 -835 0
1172 828 0
-1173 832 -496 0
1173 -832 0
1173 496 0
-1174 -832 496 0
1174 832 0
1174 -496 0
-1175 -756 830 832 833 836 838 0
1175 756 0
1175 -830 0
1175 -832 0
1175 -833 0
1175 -836 0
1175 -838 0
-1176 756 -830 0
1176 -756 0
1176 830 0
-1177 756 -832 0
1177 -756 0
1177 832 0
-1178 756 -833 0
1178 -756 0
1178 833 0
-1179 756 -836 0
1179 -756 0
1179 836 0
-1180 756 -838 0
1180 -756 0
1180 838 0
-1181 840 -592 0
1181 -840 0
1181 592 0
-1182 -840 592 0
1182 840 0
1182 -592 0
-1183 -763 840 841 0
1183 763 0
1183 -840 0
1183 -841 0
-1184 763 -840 0
1184 -763 0
1184 840 0
-1185 763 -841 0
1185 -763 0
1185 841 0
-1186 847 -603 0
1186 -847 0
1186 603 0
-1187 -847 603 0
1187 847 0
1187 -603 0
-1188 -1189 844 847 0
1188 1189 0
1188 -844 0
1188 -847 0
-1190 1189 -844 0
1190 -1189 0
1190 844 0
-1191 1189 -847 0
1191 -1189 0
1191 847 0
-1192 850 -486 0
1192 -850 0
1192 486 0
-1193 -850 486 0
1193 850 0
1193 -486 0
-1194 -890 848 850 851 853 855 857 0
1194 890 0
1194 -848 0
1194 -850 0
1194 -851 0
1194 -853 0
1194 -855 0
1194 -857 0
-1195 890 -848 0
1195 -890 0
1195 848 0
-1196 890 -850 0
1196 -890 0
1196 850 0
-1197 890 -851 0
1197 -890 0
1197 851 0
-1198 890 -853 0
1198 -890 0
1198 853 0
-1199 890 -855 0
1199 -890 0
1199 855 0
-1200 890 -857 0
1200 -890 0
1200 857 0
-1201 859 -860 0
1201 -859 0
1201 860 0
-1202 -859 860 0
1202 859 0
1202 -860 0
-1203 -1204 859 0
1203 1204 0
1203 -859 0
-1205 1204 -859 0
1205 -1204 0
1205 859 0
-1206 185 -861 0
1206 -185 0
1206 861 0
-1207 -185 861 0
1207 185 0
1207 -861 0
-1208 193 -502 0
1208 -193 0
1208 502 0
-1209 -193 502 0
1209 193 0
1209 -502 0
-1210 195 -628 0
1210 -195 0
1210 628 0
-1211 -195 628 0
1211 195 0
1211 -628 0
-1212 198 -631 0
1212 -198 0
1212 631 0
-1213 -198 631 0
1213 198 0
1213 -631 0
-1214 202 -635 0
1214 -202 0
1214 635 0
-1215 -202 635 0
1215 202 0
1215 -635 0
-1216 204 -503 0
1216 -204 0
1216 503 0
-1217 -204 503 0
1217 204 0
1217 -503 0
-1218 208 -504 0
1218 -208 0
1218 504 0
-1219 -208 504 0
1219 208 0
1219 -504 0
-1220 211 -183 0
1220 -211 0
1220 183 0
-1221 -211 183 0
1221 211 0
1221 -183 0
-1222 221 -505 0
1222 -221 0
1222 505 0
-1223 -221 505 0
1223 221 0
1223 -505 0
-1224 224 -638 0
1224 -224 0
1224 638 0
-1225 -224 638 0
1225 224 0
1225 -638 0
-1226 227 -646 0
1226 -227 0
1226 646 0
-1227 -227 646 0
1227 227 0
1227 -646 0
-1228 231 -862 0
1228 -231 0
1228 862 0
-1229 -231 862 0
1229 231 0
1229 -862 0
-1230 238 -653 0
1230 -238 0
1230 653 0
-1231 -238 653 0
1231 238 0
1231 -653 0
-1232 240 -509 0
1232 -240 0
1232 509 0
-1233 -240 509 0
1233 240 0
1233 -509 0
-1234 247 -863 0
1234 -247 0
1234 863 0
-1235 -247 863 0
1235 247 0
1235 -863 0
-1236 250 -515 0
1236 -250 0
1236 515 0
-1237 -250 515 0
1237 250 0
1237 -515 0
-1238 253 -209 0
1238 -253 0
1238 209 0
-1239 -253 209 0
1239 253 0
1239 -209 0
-1240 264 -520 0
1240 -264 0
1240 520 0
-1241 -264 520 0
1241 264 0
1241 -520 0
-1242 267 -659 0
1242 -267 0
1242 659 0
-1243 -267 659 0
1243 267 0
1243 -659 0
-1244 269 -667 0
1244 -269 0
1244 667 0
-1245 -269 667 0
1245 269 0
1245 -667 0
-1246 276 -228 0
1246 -276 0
1246 228 0
-1247 -276 228 0
1247 276 0
1247 -228 0
-1248 282 -674 0
1248 -282 0
1248 674 0
-1249 -282 674 0
1249 282 0
1249 -674 0
-1250 285 -524 0
1250 -285 0
1250 524 0
-1251 -285 524 0
1251 285 0
1251 -524 0
-1252 293 -242 0
1252 -293 0
1252 242 0
-1253 -293 242 0
1253 293 0
1253 -242 0
-1254 297 -534 0
1254 -297 0
1254 534 0
-1255 -297 534 0
1255 297 0
1255 -534 0
-1256 305 -252 0
1256 -305 0
1256 252 0
-1257 -305 252 0
1257 305 0
1257 -252 0
-1258 310 -539 0
1258 -310 0
1258 539 0
-1259 -310 539 0
1259 310 0
1259 -539 0
-1260 312 -693 0
1260 -312 0
1260 693 0
-1261 -312 693 0
1261 312 0
1261 -693 0
-1262 319 -268 0
1262 -319 0
1262 268 0
-1263 -319 268 0
1263 319 0
1263 -268 0
-1264 324 -271 0
1264 -324 0
1264 271 0
-1265 -324 271 0
1265 324 0
1265 -271 0
-1266 333 -560 0
1266 -333 0
1266 560 0
-1267 -333 560 0
1267 333 0
1267 -560 0
-1268 336 -554 0
1268 -336 0
1268 554 0
-1269 -336 554 0
1269 336 0
1269 -554 0
-1270 344 -287 0
1270 -344 0
1270 287 0
-1271 -344 287 0
1271 344 0
1271 -287 0
-1272 348 -566 0
1272 -348 0
1272 566 0
-1273 -348 566 0
1273 348 0
1273 -566 0
-1274 350 -571 0
1274 -350 0
1274 571 0
-1275 -350 571 0
1275 350 0
1275 -571 0
-1276 354 -701 0
1276 -354 0
1276 701 0
-1277 -354 701 0
1277 354 0
1277 -701 0
-1278 356 -722 0
1278 -356 0
1278 722 0
-1279 -356 722 0
1279 356 0
1279 -722 0
-1280 365 -322 0
1280 -365 0
1280 322 0
-1281 -365 322 0
1281 365 0
1281 -322 0
-1282 369 -716 0
1282 -369 0
1282 716 0
-1283 -369 716 0
1283 369 0
1283 -716 0
-1284 373 -575 0
1284 -373 0
1284 575 0
-1285 -373 575 0
1285 373 0
1285 -575 0
-1286 377 -338 0
1286 -377 0
1286 338 0
-1287 -377 338 0
1287 377 0
1287 -338 0
-1288 384 -581 0
1288 -384 0
1288 581 0
-1289 -384 581 0
1289 384 0
1289 -581 0
-1290 387 -586 0
1290 -387 0
1290 586 0
-1291 -387 586 0
1291 387 0
1291 -586 0
-1292 389 -869 0
1292 -389 0
1292 869 0
-1293 -389 869 0
1293 389 0
1293 -869 0
-1294 396 -587 0
1294 -396 0
1294 587 0
-1295 -396 587 0
1295 396 0
1295 -587 0
-1296 403 -388 0
1296 -403 0
1296 388 0
-1297 -403 388 0
1297 403 0
1297 -388 0
-1298 408 -598 0
1298 -408 0
1298 598 0
-1299 -408 598 0
1299 408 0
1299 -598 0
-1300 415 -398 0
1300 -415 0
1300 398 0
-1301 -415 398 0
1301 415 0
1301 -398 0
-1302 420 -608 0
1302 -420 0
1302 608 0
-1303 -420 608 0
1303 420 0
1303 -608 0
-1304 426 -410 0
1304 -426 0
1304 410 0
-1305 -426 410 0
1305 426 0
1305 -410 0
-1306 432 -613 0
1306 -432 0
1306 613 0
-1307 -432 613 0
1307 432 0
1307 -613 0
-1308 435 -729 0
1308 -435 0
1308 729 0
-1309 -435 729 0
1309 435 0
1309 -729 0
-1310 440 -870 0
1310 -440 0
1310 870 0
-1311 -440 870 0
1311 440 0
1311 -870 0
-1312 444 -871 0
1312 -444 0
1312 871 0
-1313 -444 871 0
1313 444 0
1313 -871 0
-1314 450 -732 0
1314 -450 0
1314 732 0
-1315 -450 732 0
1315 450 0
1315 -732 0
-1316 454 -437 0
1316 -454 0
1316 437 0
-1317 -454 437 0
1317 454 0
1317 -437 0
-1318 462 -442 0
1318 -462 0
1318 442 0
-1319 -462 442 0
1319 462 0
1319 -442 0
-1320 466 -737 0
1320 -466 0
1320 737 0
-1321 -466 737 0
1321 466 0
1321 -737 0
-1322 472 -451 0
1322 -472 0
1322 451 0
-1323 -472 451 0
1323 472 0
1323 -451 0
-1324 478 -457 0
1324 -478 0
1324 457 0
-1325 -478 457 0
1325 478 0
1325 -457 0
-1326 481 -618 0
1326 -481 0
1326 618 0
-1327 -481 618 0
1327 481 0
1327 -618 0
-1328 485 -623 0
1328 -485 0
1328 623 0
-1329 -485 623 0
1329 485 0
1329 -623 0
-1330 492 -473 0
1330 -492 0
1330 473 0
-1331 -492 473 0
1331 492 0
1331 -473 0
-1332 495 -742 0
1332 -495 0
1332 742 0
-1333 -495 742 0
1333 495 0
1333 -742 0
-1334 498 -483 0
1334 -498 0
1334 483 0
-1335 -498 483 0
1335 498 0
1335 -483 0
-1336 872 -873 0
1336 -872 0
1336 873 0
-1337 -872 873 0
1337 872 0
1337 -873 0
-1338 -502 872 0
1338 502 0
1338 -872 0
-1339 502 -872 0
1339 -502 0
1339 872 0
-1340 874 -875 0
1340 -874 0
1340 875 0
-1341 -874 875 0
1341 874 0
1341 -875 0
-1342 -503 874 0
1342 503 0
1342 -874 0
-1343 503 -874 0
1343 -503 0
1343 874 0
-1344 876 -877 0
1344 -876 0
1344 877 0
-1345 -876 877 0
1345 876 0
1345 -877 0
-1346 -504 876 0
1346 504 0
1346 -876 0
-1347 504 -876 0
1347 -504 0
1347 876 0
-1348 506 -191 0
1348 -506 0
1348 191 0
-1349 -506 191 0
1349 506 0
1349 -191 0
-1350 514 -203 0
1350 -514 0
1350 203 0
-1351 -514 203 0
1351 514 0
1351 -203 0
-1352 518 -206 0
1352 -518 0
1352 206 0
-1353 -518 206 0
1353 518 0
1353 -206 0
-1354 521 -219 0
1354 -521 0
1354 219 0
-1355 -521 219 0
1355 521 0
1355 -219 0
-1356 527 -239 0
1356 -527 0
1356 239 0
-1357 -527 239 0
1357 527 0
1357 -239 0
-1358 533 -349 0
1358 -533 0
1358 349 0
-1359 -533 349 0
1359 533 0
1359 -349 0
-1360 537 -249 0
1360 -537 0
1360 249 0
-1361 -537 249 0
1361 537 0
1361 -249 0
-1362 540 -262 0
1362 -540 0
1362 262 0
-1363 -540 262 0
1363 540 0
1363 -262 0
-1364 547 -382 0
1364 -547 0
1364 382 0
-1365 -547 382 0
1365 547 0
1365 -382 0
-1366 552 -371 0
1366 -552 0
1366 371 0
-1367 -552 371 0
1367 552 0
1367 -371 0
-1368 556 -284 0
1368 -556 0
1368 284 0
-1369 -556 284 0
1369 556 0
1369 -284 0
-1370 562 -281 0
1370 -562 0
1370 281 0
-1371 -562 281 0
1371 562 0
1371 -281 0
-1372 570 -295 0
1372 -570 0
1372 295 0
-1373 -570 295 0
1373 570 0
1373 -295 0
-1374 574 -308 0
1374 -574 0
1374 308 0
-1375 -574 308 0
1375 574 0
1375 -308 0
-1376 577 -335 0
1376 -577 0
1376 335 0
-1377 -577 335 0
1377 577 0
1377 -335 0
-1378 584 -346 0
1378 -584 0
1378 346 0
-1379 -584 346 0
1379 584 0
1379 -346 0
-1380 895 -896 0
1380 -895 0
1380 896 0
-1381 -895 896 0
1381 895 0
1381 -896 0
-1382 -586 895 0
1382 586 0
1382 -895 0
-1383 586 -895 0
1383 -586 0
1383 895 0
-1384 591 -385 0
1384 -591 0
1384 385 0
-1385 -591 385 0
1385 591 0
1385 -385 0
-1386 596 -368 0
1386 -596 0
1386 368 0
-1387 -596 368 0
1387 596 0
1387 -368 0
-1388 602 -395 0
1388 -602 0
1388 395 0
-1389 -602 395 0
1389 602 0
1389 -395 0
-1390 605 -431 0
1390 -605 0
1390 431 0
-1391 -605 431 0
1391 605 0
1391 -431 0
-1392 612 -407 0
1392 -612 0
1392 407 0
-1393 -612 407 0
1393 612 0
1393 -407 0
-1394 617 -419 0
1394 -617 0
1394 419 0
-1395 -617 419 0
1395 617 0
1395 -419 0
-1396 621 -464 0
1396 -621 0
1396 464 0
-1397 -621 464 0
1397 621 0
1397 -464 0
-1398 626 -467 0
1398 -626 0
1398 467 0
-1399 -626 467 0
1399 626 0
1399 -467 0
-1400 629 -903 0
1400 -629 0
1400 903 0
-1401 -629 903 0
1401 629 0
1401 -903 0
-1402 632 -905 0
1402 -632 0
1402 905 0
-1403 -632 905 0
1403 632 0
1403 -905 0
-1404 637 -906 0
1404 -637 0
1404 906 0
-1405 -637 906 0
1405 637 0
1405 -906 0
-1406 645 -194 0
1406 -645 0
1406 194 0
-1407 -645 194 0
1407 645 0
1407 -194 0
-1408 647 -197 0
1408 -647 0
1408 197 0
-1409 -647 197 0
1409 647 0
1409 -197 0
-1410 657 -200 0
1410 -657 0
1410 200 0
-1411 -657 200 0
1411 657 0
1411 -200 0
-1412 666 -222 0
1412 -666 0
1412 222 0
-1413 -666 222 0
1413 666 0
1413 -222 0
-1414 670 -225 0
1414 -670 0
1414 225 0
-1415 -670 225 0
1415 670 0
1415 -225 0
-1416 677 -236 0
1416 -677 0
1416 236 0
-1417 -677 236 0
1417 677 0
1417 -236 0
-1418 683 -352 0
1418 -683 0
1418 352 0
-1419 -683 352 0
1419 683 0
1419 -352 0
-1420 691 -493 0
1420 -691 0
1420 493 0
-1421 -691 493 0
1421 691 0
1421 -493 0
-1422 695 -265 0
1422 -695 0
1422 265 0
-1423 -695 265 0
1423 695 0
1423 -265 0
-1424 703 -311 0
1424 -703 0
1424 311 0
-1425 -703 311 0
1425 703 0
1425 -311 0
-1426 711 -355 0
1426 -711 0
1426 355 0
-1427 -711 355 0
1427 711 0
1427 -355 0
-1428 721 -332 0
1428 -721 0
1428 332 0
-1429 -721 332 0
1429 721 0
1429 -332 0
-1430 724 -314 0
1430 -724 0
1430 314 0
-1431 -724 314 0
1431 724 0
1431 -314 0
-1432 730 -912 0
1432 -730 0
1432 912 0
-1433 -730 912 0
1433 730 0
1433 -912 0
-1434 736 -434 0
1434 -736 0
1434 434 0
-1435 -736 434 0
1435 736 0
1435 -434 0
-1436 740 -448 0
1436 -740 0
1436 448 0
-1437 -740 448 0
1437 740 0
1437 -448 0
-1438 743 -480 0
1438 -743 0
1438 480 0
-1439 -743 480 0
1439 743 0
1439 -480 0
913 0
914 0
915 0
916 0
917 0
918 0
919 0
920 0
921 0
922 0
923 0
924 0
925 0
926 0
927 0
928 0
929 0
930 0
931 0
932 0
933 0
934 0
935 0
936 0
937 0
938 0
939 0
940 0
941 0
942 0
943 0
944 0
945 0
946 0
947 0
948 0
949 0
950 0
951 0
952 0
953 0
954 0
955 0
956 0
957 0
958 0
959 0
960 0
961 0
962 0
963 0
964 0
965 0
966 0
967 0
968 0
969 0
970 0
971 0
972 0
973 0
974 0
975 0
976 0
977 0
978 0
979 0
980 0
981 0
982 0
983 0
984 0
985 0
986 0
987 0
988 0
989 0
990 0
991 0
992 0
993 0
994 0
995 0
996 0
997 0
998 0
999 0
1000 0
1001 0
1002 0
1003 0
1004 0
1005 0
1006 0
1007 0
1008 0
1009 0
1010 0
1011 0
1012 0
1013 0
1014 0
1015 0
1016 0
1017 0
1018 0
1019 0
1020 0
1021 0
1022 0
1023 0
1024 0
1025 0
1026 0
1027 0
1028 0
1029 0
1030 0
1031 0
1032 0
1033 0
1034 0
1035 0
1036 0
1037 0
1038 0
1039 0
1040 0
1041 0
1042 0
1043 0
1044 0
1045 0
1046 0
1047 0
1048 0
1049 0
1050 0
1051 0
1052 0
1053 0
1054 0
1055 0
1056 0
1057 0
1058 0
1059 0
1060 0
1061 0
1062 0
1063 0
1064 0
1065 0
1066 0
1067 0
1068 0
1069 0
1070 0
1071 0
1072 0
1073 0
1074 0
1075 0
1076 0
1077 0
1078 0
1079 0
1080 0
1081 0
1082 0
1083 0
1084 0
1085 0
1086 0
1087 0
1088 0
1089 0
1090 0
1091 0
1092 0
1093 0
1094 0
1095 0
1096 0
1097 0
1099 0
1100 0
1101 0
1102 0
1103 0
1104 0
1105 0
1106 0
1107 0
1108 0
1110 0
1111 0
1112 0
1113 0
1114 0
1115 0
1116 0
1117 0
1118 0
1119 0
1121 0
1122 0
1123 0
1124 0
1125 0
1126 0
1127 0
1128 0
1129 0
1130 0
1131 0
1132 0
1133 0
1134 0
1135 0
1136 0
1137 0
1138 0
1139 0
1140 0
1141 0
1142 0
1143 0
1144 0
1145 0
1146 0
1147 0
1148 0
1149 0
1150 0
1151 0
1152 0
1153 0
1154 0
1155 0
1156 0
1157 0
1158 0
1159 0
1160 0
1161 0
1162 0
1163 0
1164 0
1165 0
1166 0
1167 0
1168 0
1169 0
1170 0
1171 0
1172 0
1173 0
1174 0
1175 0
1176 0
1177 0
1178 0
1179 0
1180 0
1181 0
1182 0
1183 0
1184 0
1185 0
1186 0
1187 0
1188 0
1190 0
1191 0
1192 0
1193 0
1194 0
1195 0
1196 0
1197 0
1198 0
1199 0
1200 0
1201 0
1202 0
1203 0
1205 0
1206 0
1207 0
1208 0
1209 0
1210 0
1211 0
1212 0
1213 0
1214 0
1215 0
1216 0
1217 0
1218 0
1219 0
1220 0
1221 0
1222 0
1223 0
1224 0
1225 0
1226 0
1227 0
1228 0
1229 0
1230 0
1231 0
1232 0
1233 0
1234 0
1235 0
1236 0
1237 0
1238 0
1239 0
1240 0
1241 0
1242 0
1243 0
1244 0
1245 0
1246 0
1247 0
1248 0
1249 0
1250 0
1251 0
1252 0
1253 0
1254 0
1255 0
1256 0
1257 0
1258 0
1259 0
1260 0
1261 0
1262 0
1263 0
1264 0
1265 0
1266 0
1267 0
1268 0
1269 0
1270 0
1271 0
1272 0
1273 0
1274 0
1275 0
1276 0
1277 0
1278 0
1279 0
1280 0
1281 0
1282 0
1283 0
1284 0
1285 0
1286 0
1287 0
1288 0
1289 0
1290 0
1291 0
1292 0
1293 0
1294 0
1295 0
1296 0
1297 0
1298 0
1299 0
1300 0
1301 0
1302 0
1303 0
1304 0
1305 0
1306 0
1307 0
1308 0
1309 0
1310 0
1311 0
1312 0
1313 0
1314 0
1315 0
1316 0
1317 0
1318 0
1319 0
1320 0
1321 0
1322 0
1323 0
1324 0
1325 0
1326 0
1327 0
1328 0
1329 0
1330 0
1331 0
1332 0
1333 0
1334 0
1335 0
1336 0
1337 0
1338 0
1339 0
1340 0
1341 0
1342 0
1343 0
1344 0
1345 0
1346 0
1347 0
1348 0
1349 0
1350 0
1351 0
1352 0
1353 0
1354 0
1355 0
1356 0
1357 0
1358 0
1359 0
1360 0
1361 0
1362 0
1363 0
1364 0
1365 0
1366 0
1367 0
1368 0
1369 0
1370 0
1371 0
1372 0
1373 0
1374 0
1375 0
1376 0
1377 0
1378 0
1379 0
1380 0
1381 0
1382 0
1383 0
1384 0
1385 0
1386 0
1387 0
1388 0
1389 0
1390 0
1391 0
1392 0
1393 0
1394 0
1395 0
1396 0
1397 0
1398 0
1399 0
1400 0
1401 0
1402 0
1403 0
1404 0
1405 0
1406 0
1407 0
1408 0
1409 0
1410 0
1411 0
1412 0
1413 0
1414 0
1415 0
1416 0
1417 0
1418 0
1419 0
1420 0
1421 0
1422 0
1423 0
1424 0
1425 0
1426 0
1427 0
1428 0
1429 0
1430 0
1431 0
1432 0
1433 0
1434 0
1435 0
1436 0
1437 0
1438 0
1439 0
2 0
4 0
6 0
8 0
10 0
12 0
14 0
16 0
18 0
20 0
22 0
24 0
26 0
28 0
30 0
32 0
34 0
36 0
38 0
40 0
42 0
44 0
46 0
48 0
50 0
52 0
54 0
56 0
58 0
60 0
62 0
64 0
66 0
68 0
70 0
72 0
74 0
76 0
78 0
80 0
82 0
84 0
86 0
88 0
90 0
92 0
94 0
96 0
98 0
100 0
102 0
104 0
106 0
108 0
110 0
112 0
114 0
116 0
118 0
120 0
122 0
124 0
126 0
128 0
130 0
132 0
134 0
136 0
138 0
140 0
142 0
144 0
146 0
148 0
150 0
152 0
154 0
156 0
158 0
160 0
162 0
164 0
166 0
168 0
170 0
172 0
174 0
176 0
178 0
180 0
182 0
