c BC-S1.2
p cnf 2573 8147
1 -2 0
-1 2 0
3 -4 0
-3 4 0
5 -6 0
-5 6 0
7 -8 0
-7 8 0
9 -10 0
-9 10 0
11 -12 0
-11 12 0
13 -14 0
-13 14 0
15 -16 0
-15 16 0
17 -18 0
-17 18 0
19 -20 0
-19 20 0
21 -22 0
-21 22 0
23 -24 0
-23 24 0
25 -26 0
-25 26 0
27 -28 0
-27 28 0
29 -30 0
-29 30 0
31 -32 0
-31 32 0
33 -34 0
-33 34 0
35 -36 0
-35 36 0
37 -38 0
-37 38 0
39 -40 0
-39 40 0
41 -42 0
-41 42 0
43 -44 0
-43 44 0
45 -46 0
-45 46 0
47 -48 0
-47 48 0
49 -50 0
-49 50 0
51 -52 0
-51 52 0
53 -54 0
-53 54 0
55 -56 0
-55 56 0
57 -58 0
-57 58 0
59 -60 0
-59 60 0
61 -62 0
-61 62 0
63 -64 0
-63 64 0
65 -66 0
-65 66 0
67 -68 0
-67 68 0
69 -70 0
-69 70 0
71 -72 0
-71 72 0
73 -74 0
-73 74 0
75 -76 0
-75 76 0
77 -78 0
-77 78 0
79 -80 0
-79 80 0
81 -82 0
-81 82 0
83 -84 0
-83 84 0
85 -86 0
-85 86 0
87 -88 0
-87 88 0
89 -90 0
-89 90 0
91 -92 0
-91 92 0
93 -94 0
-93 94 0
95 -96 0
-95 96 0
97 -98 0
-97 98 0
99 -100 0
-99 100 0
101 -102 0
-101 102 0
103 -104 0
-103 104 0
105 -106 0
-105 106 0
107 -108 0
-107 108 0
109 -110 0
-109 110 0
111 -112 0
-111 112 0
113 -114 0
-113 114 0
115 -116 0
-115 116 0
117 -118 0
-117 118 0
119 -120 0
-119 120 0
121 -122 0
-121 122 0
123 -124 0
-123 124 0
125 -126 0
-125 126 0
127 -128 0
-127 128 0
129 -130 0
-129 130 0
131 -132 0
-131 132 0
133 -134 0
-133 134 0
135 -136 0
-135 136 0
137 -138 0
-137 138 0
139 -140 0
-139 140 0
141 -142 0
-141 142 0
143 -144 0
-143 144 0
145 -146 0
-145 146 0
147 -148 0
-147 148 0
149 -150 0
-149 150 0
151 -152 0
-151 152 0
153 -154 0
-153 154 0
155 -156 0
-155 156 0
157 -158 0
-157 158 0
159 -160 0
-159 160 0
161 -162 0
-161 162 0
163 -164 0
-163 164 0
165 -166 0
-165 166 0
167 -168 0
-167 168 0
169 -170 0
-169 170 0
171 -172 0
-171 172 0
173 -174 0
-173 174 0
175 -176 0
-175 176 0
177 -178 0
-177 178 0
179 -180 0
-179 180 0
181 -182 0
-181 182 0
183 -184 0
-183 184 0
185 -186 0
-185 186 0
187 -188 0
-187 188 0
189 -190 0
-189 190 0
191 -192 0
-191 192 0
193 -194 0
-193 194 0
195 -196 0
-195 196 0
197 -198 0
-197 198 0
199 -200 0
-199 200 0
201 -202 0
-201 202 0
203 -204 0
-203 204 0
205 -206 0
-205 206 0
207 -208 0
-207 208 0
209 -210 0
-209 210 0
211 -212 0
-211 212 0
213 -214 0
-213 214 0
215 -216 0
-215 216 0
217 -218 0
-217 218 0
219 -220 0
-219 220 0
221 -222 0
-221 222 0
223 -224 0
-223 224 0
225 -226 0
-225 226 0
227 -228 0
-227 228 0
229 -230 0
-229 230 0
231 -232 0
-231 232 0
233 -234 0
-233 234 0
235 -236 0
-235 236 0
237 -238 0
-237 238 0
239 -240 0
-239 240 0
241 -242 0
-241 242 0
243 -244 0
-243 244 0
245 -246 0
-245 246 0
247 -248 0
-247 248 0
249 -250 0
-249 250 0
251 -252 0
-251 252 0
253 -254 0
-253 254 0
255 -256 0
-255 256 0
257 -258 0
-257 258 0
259 -260 0
-259 260 0
261 -262 0
-261 262 0
263 -264 0
-263 264 0
265 -266 0
-265 266 0
267 -268 0
-267 268 0
269 -270 0
-269 270 0
271 -272 0
-271 272 0
273 -274 0
-273 274 0
275 -276 0
-275 276 0
277 -278 0
-277 278 0
279 -280 0
-279 280 0
281 -282 0
-281 282 0
283 -284 0
-283 284 0
285 -286 0
-285 286 0
287 -288 0
-287 288 0
289 -290 0
-289 290 0
291 -292 0
-291 292 0
293 -294 0
-293 294 0
295 -296 0
-295 296 0
297 -298 0
-297 298 0
299 -300 0
-299 300 0
301 -302 0
-301 302 0
303 -304 0
-303 304 0
305 -306 0
-305 306 0
307 -308 0
-307 308 0
309 -310 0
-309 310 0
311 -312 0
-311 312 0
313 -314 0
-313 314 0
315 -316 0
-315 316 0
317 -318 0
-317 318 0
319 -320 0
-319 320 0
321 -322 0
-321 322 0
323 -324 0
-323 324 0
325 -326 0
-325 326 0
327 -328 0
-327 328 0
329 -330 0
-329 330 0
331 -332 0
-331 332 0
333 -334 0
-333 334 0
335 -336 0
-335 336 0
337 -338 0
-337 338 0
339 -340 0
-339 340 0
341 -342 0
-341 342 0
343 -344 0
-343 344 0
345 -346 0
-345 346 0
347 -348 0
-347 348 0
349 -350 0
-349 350 0
351 -352 0
-351 352 0
353 -354 0
-353 354 0
355 -356 0
-355 356 0
357 -358 0
-357 358 0
359 -360 0
-359 360 0
361 -362 0
-361 362 0
363 -364 0
-363 364 0
365 -366 0
-365 366 0
367 -368 0
-367 368 0
369 -370 0
-369 370 0
371 -372 0
-371 372 0
373 -374 0
-373 374 0
375 -376 0
-375 376 0
377 -378 0
-377 378 0
379 -380 0
-379 380 0
381 -382 0
-381 382 0
383 -384 0
-383 384 0
385 -386 0
-385 386 0
387 -388 0
-387 388 0
389 -390 0
-389 390 0
391 -392 0
-391 392 0
393 -394 0
-393 394 0
395 -396 0
-395 396 0
397 -398 0
-397 398 0
399 -400 0
-399 400 0
401 -402 0
-401 402 0
403 -404 0
-403 404 0
405 -406 0
-405 406 0
407 -408 0
-407 408 0
409 -410 0
-409 410 0
411 -412 0
-411 412 0
413 -414 0
-413 414 0
415 -416 0
-415 416 0
417 -418 0
-417 418 0
419 -420 0
-419 420 0
421 -422 0
-421 422 0
423 -424 0
-423 424 0
425 -426 0
-425 426 0
427 -428 0
-427 428 0
429 -430 0
-429 430 0
431 -432 0
-431 432 0
433 -434 0
-433 434 0
435 -436 0
-435 436 0
437 -438 0
-437 438 0
439 -440 0
-439 440 0
441 -442 0
-441 442 0
443 -444 0
-443 444 0
445 -446 0
-445 446 0
447 -448 0
-447 448 0
449 -450 0
-449 450 0
451 -452 0
-451 452 0
453 -454 0
-453 454 0
455 -456 0
-455 456 0
457 -458 0
-457 458 0
459 -460 0
-459 460 0
461 -462 0
-461 462 0
463 -464 0
-463 464 0
465 -466 0
-465 466 0
467 -468 0
-467 468 0
469 -470 0
-469 470 0
471 -472 0
-471 472 0
473 -474 0
-473 474 0
475 -476 0
-475 476 0
477 -478 0
-477 478 0
479 -480 0
-479 480 0
481 -482 0
-481 482 0
483 -484 0
-483 484 0
485 -486 0
-485 486 0
487 -488 0
-487 488 0
489 -490 0
-489 490 0
491 -492 0
-491 492 0
493 -494 0
-493 494 0
495 -496 0
-495 496 0
497 -498 0
-497 498 0
499 -500 0
-499 500 0
501 -502 0
-501 502 0
503 -504 0
-503 504 0
505 -506 0
-505 506 0
507 -508 0
-507 508 0
509 -510 0
-509 510 0
511 -512 0
-511 512 0
513 -514 0
-513 514 0
515 -516 0
-515 516 0
517 -518 0
-517 518 0
519 -520 0
-519 520 0
521 -522 0
-521 522 0
523 -524 0
-523 524 0
525 -526 0
-525 526 0
527 -528 0
-527 528 0
529 -530 0
-529 530 0
531 -532 0
-531 532 0
533 -534 0
-533 534 0
535 -536 0
-535 536 0
537 -538 0
-537 538 0
539 -540 0
-539 540 0
541 -542 0
-541 542 0
543 -544 0
-543 544 0
2 -1 0
-2 1 0
545 -546 547 -387 0
-545 546 0
-545 -547 0
-545 387 0
548 -549 550 551 -383 0
-548 549 0
-548 -550 0
-548 -551 0
-548 383 0
552 -553 554 -393 0
-552 553 0
-552 -554 0
-552 393 0
555 -556 557 -385 0
-555 556 0
-555 -557 0
-555 385 0
558 -559 560 -339 0
-558 559 0
-558 -560 0
-558 339 0
561 -562 563 -349 0
-561 562 0
-561 -563 0
-561 349 0
564 -565 566 -325 0
-564 565 0
-564 -566 0
-564 325 0
567 -568 569 -391 0
-567 568 0
-567 -569 0
-567 391 0
570 -571 572 -323 0
-570 571 0
-570 -572 0
-570 323 0
573 -574 575 -343 0
-573 574 0
-573 -575 0
-573 343 0
576 -577 578 579 -355 0
-576 577 0
-576 -578 0
-576 -579 0
-576 355 0
580 -581 582 583 -345 0
-580 581 0
-580 -582 0
-580 -583 0
-580 345 0
584 -585 586 587 -367 0
-584 585 0
-584 -586 0
-584 -587 0
-584 367 0
588 -589 590 -363 0
-588 589 0
-588 -590 0
-588 363 0
591 -592 593 -371 0
-591 592 0
-591 -593 0
-591 371 0
594 -595 596 -331 0
-594 595 0
-594 -596 0
-594 331 0
597 -598 599 -395 0
-597 598 0
-597 -599 0
-597 395 0
600 -601 602 -327 0
-600 601 0
-600 -602 0
-600 327 0
603 -604 605 -319 0
-603 604 0
-603 -605 0
-603 319 0
606 -607 608 609 -389 0
-606 607 0
-606 -608 0
-606 -609 0
-606 389 0
610 -611 612 -351 0
-610 611 0
-610 -612 0
-610 351 0
613 -614 615 616 -329 0
-613 614 0
-613 -615 0
-613 -616 0
-613 329 0
617 -618 619 -347 0
-617 618 0
-617 -619 0
-617 347 0
620 -621 622 -375 0
-620 621 0
-620 -622 0
-620 375 0
623 -624 625 626 -357 0
-623 624 0
-623 -625 0
-623 -626 0
-623 357 0
627 -628 629 0
-627 628 0
-627 -629 0
630 -631 632 -381 0
-630 631 0
-630 -632 0
-630 381 0
633 -634 635 -335 0
-633 634 0
-633 -635 0
-633 335 0
636 -637 638 639 -369 0
-636 637 0
-636 -638 0
-636 -639 0
-636 369 0
640 -641 642 -337 0
-640 641 0
-640 -642 0
-640 337 0
643 -644 645 -377 0
-643 644 0
-643 -645 0
-643 377 0
646 -647 648 -365 0
-646 647 0
-646 -648 0
-646 365 0
649 -650 651 -379 0
-649 650 0
-649 -651 0
-649 379 0
652 -653 654 -361 0
-652 653 0
-652 -654 0
-652 361 0
655 -656 657 658 -321 0
-655 656 0
-655 -657 0
-655 -658 0
-655 321 0
659 -660 661 -341 0
-659 660 0
-659 -661 0
-659 341 0
662 -663 664 665 -333 0
-662 663 0
-662 -664 0
-662 -665 0
-662 333 0
666 -667 668 669 -373 0
-666 667 0
-666 -668 0
-666 -669 0
-666 373 0
670 -671 672 673 -359 0
-670 671 0
-670 -672 0
-670 -673 0
-670 359 0
674 -675 676 -353 0
-674 675 0
-674 -676 0
-674 353 0
677 -678 0
-677 678 0
679 -628 0
-679 628 0
408 -407 0
-408 407 0
680 -681 231 572 -67 0
-680 681 0
-680 -231 0
-680 -572 0
-680 67 0
682 -683 0
-682 683 0
6 -5 0
-6 5 0
498 -497 0
-498 497 0
684 -685 249 622 -91 0
-684 685 0
-684 -249 0
-684 -622 0
-684 91 0
686 -687 0
-686 687 0
688 -689 0
-688 689 0
690 -691 279 658 -155 0
-690 691 0
-690 -279 0
-690 -658 0
-690 155 0
420 -419 0
-420 419 0
692 -693 0
-692 693 0
14 -13 0
-14 13 0
694 -695 291 651 -113 0
-694 695 0
-694 -291 0
-694 -651 0
-694 113 0
502 -501 0
-502 501 0
696 -697 0
-696 697 0
18 -17 0
-18 17 0
422 -421 0
-422 421 0
698 -699 546 547 -95 0
-698 699 0
-698 -546 0
-698 -547 0
-698 95 0
700 -701 0
-700 701 0
22 -21 0
-22 21 0
702 -703 562 563 -139 0
-702 703 0
-702 -562 0
-702 -563 0
-702 139 0
424 -423 0
-424 423 0
26 -25 0
-26 25 0
704 -705 0
-704 705 0
426 -425 0
-426 425 0
706 -707 675 676 -63 0
-706 707 0
-706 -675 0
-706 -676 0
-706 63 0
708 -709 0
-708 709 0
30 -29 0
-30 29 0
428 -427 0
-428 427 0
710 -711 565 566 -83 0
-710 711 0
-710 -565 0
-710 -566 0
-710 83 0
712 -713 0
-712 713 0
34 -33 0
-34 33 0
714 -715 269 616 -123 0
-714 715 0
-714 -269 0
-714 -616 0
-714 123 0
430 -429 0
-430 429 0
38 -37 0
-38 37 0
716 -717 0
-716 717 0
432 -431 0
-432 431 0
718 -719 611 612 -59 0
-718 719 0
-718 -611 0
-718 -612 0
-718 59 0
720 -721 0
-720 721 0
42 -41 0
-42 41 0
722 -723 241 566 -83 0
-722 723 0
-722 -241 0
-722 -566 0
-722 83 0
434 -433 0
-434 433 0
46 -45 0
-46 45 0
724 -725 0
-724 725 0
726 -578 579 -539 0
-726 578 0
-726 -579 0
-726 539 0
727 -728 559 560 -543 0
-727 728 0
-727 -559 0
-727 -560 0
-727 543 0
729 -725 45 730 -3 0
-729 725 0
-729 -45 0
-729 -730 0
-729 3 0
396 -395 0
-396 395 0
731 -732 0
-731 732 0
50 -49 0
-50 49 0
504 -503 0
-504 503 0
733 -734 263 654 -99 0
-733 734 0
-733 -263 0
-733 -654 0
-733 99 0
735 -736 0
-735 736 0
54 -53 0
-54 53 0
436 -435 0
-436 435 0
737 -738 171 673 -11 0
-737 738 0
-737 -171 0
-737 -673 0
-737 11 0
58 -57 0
-58 57 0
739 -740 0
-739 740 0
438 -437 0
-438 437 0
741 -742 185 626 -135 0
-741 742 0
-741 -185 0
-741 -626 0
-741 135 0
62 -61 0
-62 61 0
743 -744 0
-743 744 0
440 -439 0
-440 439 0
745 -586 587 -79 0
-745 586 0
-745 -587 0
-745 79 0
66 -65 0
-66 65 0
746 -747 0
-746 747 0
748 -749 631 632 -103 0
-748 749 0
-748 -631 0
-748 -632 0
-748 103 0
442 -441 0
-442 441 0
750 -751 0
-750 751 0
70 -69 0
-70 69 0
444 -443 0
-444 443 0
752 -753 281 658 -155 0
-752 753 0
-752 -281 0
-752 -658 0
-752 155 0
74 -73 0
-74 73 0
754 -755 0
-754 755 0
756 -755 73 730 -3 0
-756 755 0
-756 -73 0
-756 -730 0
-756 3 0
368 -367 0
-368 367 0
757 -758 571 572 -439 0
-757 758 0
-757 -571 0
-757 -572 0
-757 439 0
78 -77 0
-78 77 0
759 -760 0
-759 760 0
761 -762 647 648 -109 0
-761 762 0
-761 -647 0
-761 -648 0
-761 109 0
446 -445 0
-446 445 0
82 -81 0
-82 81 0
763 -764 0
-763 764 0
765 -766 187 626 -135 0
-765 766 0
-765 -187 0
-765 -626 0
-765 135 0
448 -447 0
-448 447 0
767 -768 0
-767 768 0
86 -85 0
-86 85 0
508 -507 0
-508 507 0
769 -664 665 -163 0
-769 664 0
-769 -665 0
-769 163 0
770 -771 0
-770 771 0
90 -89 0
-90 89 0
772 -773 189 626 -135 0
-772 773 0
-772 -189 0
-772 -626 0
-772 135 0
450 -449 0
-450 449 0
774 -775 0
-774 775 0
94 -93 0
-94 93 0
510 -509 0
-510 509 0
776 -777 595 596 -119 0
-776 777 0
-776 -595 0
-776 -596 0
-776 119 0
98 -97 0
-98 97 0
778 -779 0
-778 779 0
512 -511 0
-512 511 0
780 -781 305 560 -131 0
-780 781 0
-780 -305 0
-780 -560 0
-780 131 0
782 -783 0
-782 783 0
102 -101 0
-102 101 0
106 -105 0
-106 105 0
784 -785 0
-784 785 0
786 -787 650 651 -113 0
-786 787 0
-786 -650 0
-786 -651 0
-786 113 0
452 -451 0
-452 451 0
788 -789 0
-788 789 0
108 -107 0
-108 107 0
514 -513 0
-514 513 0
790 -791 211 579 -151 0
-790 791 0
-790 -211 0
-790 -579 0
-790 151 0
792 -793 0
-792 793 0
112 -111 0
-112 111 0
794 -795 0
-794 795 0
116 -115 0
-116 115 0
796 -797 213 579 -151 0
-796 797 0
-796 -213 0
-796 -579 0
-796 151 0
516 -515 0
-516 515 0
118 -117 0
-118 117 0
798 -799 0
-798 799 0
454 -453 0
-454 453 0
800 -801 653 654 -99 0
-800 801 0
-800 -653 0
-800 -654 0
-800 99 0
802 -803 0
-802 803 0
122 -121 0
-122 121 0
804 -805 592 593 -55 0
-804 805 0
-804 -592 0
-804 -593 0
-804 55 0
456 -455 0
-456 455 0
126 -125 0
-126 125 0
806 -807 0
-806 807 0
544 -543 0
-544 543 0
808 -809 207 599 -51 0
-808 809 0
-808 -207 0
-808 -599 0
-808 51 0
810 -811 0
-810 811 0
130 -129 0
-130 129 0
460 -459 0
-460 459 0
812 -813 553 554 -19 0
-812 813 0
-812 -553 0
-812 -554 0
-812 19 0
814 -815 0
-814 815 0
134 -133 0
-134 133 0
520 -519 0
-520 519 0
816 -817 253 665 -163 0
-816 817 0
-816 -253 0
-816 -665 0
-816 163 0
818 -819 0
-818 819 0
138 -137 0
-138 137 0
468 -467 0
-468 467 0
820 -821 311 563 -139 0
-820 821 0
-820 -311 0
-820 -563 0
-820 139 0
142 -141 0
-142 141 0
822 -823 0
-822 823 0
474 -473 0
-474 473 0
824 -825 297 596 -119 0
-824 825 0
-824 -297 0
-824 -596 0
-824 119 0
826 -827 0
-826 827 0
146 -145 0
-146 145 0
828 -829 598 599 -51 0
-828 829 0
-828 -598 0
-828 -599 0
-828 51 0
540 -539 0
-540 539 0
830 -831 0
-830 831 0
150 -149 0
-150 149 0
482 -481 0
-482 481 0
832 -833 273 632 -103 0
-832 833 0
-832 -273 0
-832 -632 0
-832 103 0
154 -153 0
-154 153 0
834 -835 0
-834 835 0
488 -487 0
-488 487 0
836 -837 173 673 -11 0
-836 837 0
-836 -173 0
-836 -673 0
-836 11 0
158 -157 0
-158 157 0
838 -839 0
-838 839 0
530 -529 0
-530 529 0
840 -841 307 560 -131 0
-840 841 0
-840 -307 0
-840 -560 0
-840 131 0
162 -161 0
-162 161 0
842 -843 0
-842 843 0
844 -843 161 730 -3 0
-844 843 0
-844 -161 0
-844 -730 0
-844 3 0
845 -581 0
-845 581 0
846 -582 0
-846 582 0
168 -167 0
-168 167 0
847 -848 0
-847 848 0
849 -671 0
-849 671 0
850 -672 0
-850 672 0
851 -738 0
-851 738 0
172 -171 0
-172 171 0
852 -837 0
-852 837 0
174 -173 0
-174 173 0
176 -175 0
-176 175 0
853 -854 0
-853 854 0
855 -856 0
-855 856 0
857 -574 0
-857 574 0
858 -813 0
-858 813 0
859 -553 0
-859 553 0
182 -181 0
-182 181 0
860 -861 0
-860 861 0
862 -625 0
-862 625 0
863 -624 0
-863 624 0
864 -742 0
-864 742 0
186 -185 0
-186 185 0
865 -766 0
-865 766 0
188 -187 0
-188 187 0
190 -189 0
-190 189 0
866 -773 0
-866 773 0
867 -589 0
-867 589 0
868 -869 0
-868 869 0
870 -641 0
-870 641 0
871 -872 0
-871 872 0
873 -568 0
-873 568 0
874 -875 0
-874 875 0
876 -660 0
-876 660 0
877 -878 0
-877 878 0
879 -556 0
-879 556 0
880 -881 0
-880 881 0
882 -604 0
-882 604 0
883 -884 0
-883 884 0
885 -886 0
-885 886 0
887 -618 0
-887 618 0
888 -598 0
-888 598 0
889 -829 0
-889 829 0
208 -207 0
-208 207 0
890 -809 0
-890 809 0
891 -577 0
-891 577 0
892 -578 0
-892 578 0
893 -791 0
-893 791 0
212 -211 0
-212 211 0
214 -213 0
-214 213 0
894 -797 0
-894 797 0
895 -592 0
-895 592 0
896 -805 0
-896 805 0
897 -898 0
-897 898 0
218 -217 0
-218 217 0
899 -607 0
-899 607 0
900 -608 0
-900 608 0
901 -611 0
-901 611 0
902 -719 0
-902 719 0
903 -904 0
-903 904 0
224 -223 0
-224 223 0
905 -707 0
-905 707 0
906 -675 0
-906 675 0
907 -908 0
-907 908 0
228 -227 0
-228 227 0
909 -571 0
-909 571 0
910 -758 0
-910 758 0
232 -231 0
-232 231 0
911 -681 0
-911 681 0
912 -586 0
-912 586 0
913 -585 0
-913 585 0
914 -644 0
-914 644 0
915 -916 0
-915 916 0
917 -918 0
-917 918 0
919 -601 0
-919 601 0
920 -565 0
-920 565 0
921 -711 0
-921 711 0
922 -723 0
-922 723 0
242 -241 0
-242 241 0
923 -924 0
-923 924 0
244 -243 0
-244 243 0
925 -926 0
-925 926 0
927 -634 0
-927 634 0
928 -621 0
-928 621 0
929 -930 0
-929 930 0
250 -249 0
-250 249 0
931 -685 0
-931 685 0
932 -663 0
-932 663 0
933 -664 0
-933 664 0
254 -253 0
-254 253 0
934 -817 0
-934 817 0
935 -936 0
-935 936 0
256 -255 0
-256 255 0
937 -546 0
-937 546 0
938 -699 0
-938 699 0
260 -259 0
-260 259 0
939 -940 0
-939 940 0
941 -653 0
-941 653 0
942 -801 0
-942 801 0
943 -734 0
-943 734 0
264 -263 0
-264 263 0
266 -265 0
-266 265 0
944 -945 0
-944 945 0
946 -614 0
-946 614 0
947 -615 0
-947 615 0
270 -269 0
-270 269 0
948 -715 0
-948 715 0
949 -631 0
-949 631 0
950 -749 0
-950 749 0
951 -833 0
-951 833 0
274 -273 0
-274 273 0
952 -953 0
-952 953 0
276 -275 0
-276 275 0
954 -657 0
-954 657 0
955 -656 0
-955 656 0
956 -691 0
-956 691 0
280 -279 0
-280 279 0
957 -753 0
-957 753 0
282 -281 0
-282 281 0
958 -667 0
-958 667 0
959 -668 0
-959 668 0
960 -647 0
-960 647 0
961 -762 0
-961 762 0
288 -287 0
-288 287 0
962 -963 0
-962 963 0
964 -787 0
-964 787 0
965 -650 0
-965 650 0
966 -695 0
-966 695 0
292 -291 0
-292 291 0
967 -968 0
-967 968 0
294 -293 0
-294 293 0
969 -595 0
-969 595 0
970 -777 0
-970 777 0
298 -297 0
-298 297 0
971 -825 0
-971 825 0
300 -299 0
-300 299 0
972 -973 0
-972 973 0
974 -550 0
-974 550 0
975 -549 0
-975 549 0
976 -559 0
-976 559 0
977 -728 0
-977 728 0
978 -781 0
-978 781 0
306 -305 0
-306 305 0
979 -841 0
-979 841 0
308 -307 0
-308 307 0
980 -562 0
-980 562 0
981 -703 0
-981 703 0
982 -821 0
-982 821 0
312 -311 0
-312 311 0
983 -984 0
-983 984 0
314 -313 0
-314 313 0
985 -638 0
-985 638 0
986 -637 0
-986 637 0
987 -719 611 612 -351 0
-987 719 0
-987 -611 0
-987 -612 0
-987 351 0
458 -457 0
-458 457 0
988 -833 273 632 -381 0
-988 833 0
-988 -273 0
-988 -632 0
-988 381 0
522 -521 0
-522 521 0
462 -461 0
-462 461 0
989 -848 167 583 -345 0
-989 848 0
-989 -167 0
-989 -583 0
-989 345 0
506 -505 0
-506 505 0
990 -762 647 648 -365 0
-990 762 0
-990 -647 0
-990 -648 0
-990 365 0
464 -463 0
-464 463 0
991 -753 281 658 -321 0
-991 753 0
-991 -281 0
-991 -658 0
-991 321 0
992 -801 653 654 -361 0
-992 801 0
-992 -653 0
-992 -654 0
-992 361 0
466 -465 0
-466 465 0
993 -797 213 579 -355 0
-993 797 0
-993 -213 0
-993 -579 0
-993 355 0
534 -533 0
-534 533 0
994 -841 307 560 -339 0
-994 841 0
-994 -307 0
-994 -560 0
-994 339 0
536 -535 0
-536 535 0
470 -469 0
-470 469 0
995 -766 187 626 -357 0
-995 766 0
-995 -187 0
-995 -626 0
-995 357 0
996 -703 562 563 -349 0
-996 703 0
-996 -562 0
-996 -563 0
-996 349 0
472 -471 0
-472 471 0
538 -537 0
-538 537 0
997 -809 207 599 -395 0
-997 809 0
-997 -207 0
-997 -599 0
-997 395 0
476 -475 0
-476 475 0
998 -711 565 566 -325 0
-998 711 0
-998 -565 0
-998 -566 0
-998 325 0
999 -691 279 658 -321 0
-999 691 0
-999 -279 0
-999 -658 0
-999 321 0
478 -477 0
-478 477 0
1000 -678 628 629 0
-1000 678 0
-1000 -628 0
-1000 -629 0
1001 -681 231 572 -461 0
-1001 681 0
-1001 -231 0
-1001 -572 0
-1001 461 0
480 -479 0
-480 479 0
1002 -723 241 566 -325 0
-1002 723 0
-1002 -241 0
-1002 -566 0
-1002 325 0
1003 -817 253 665 -333 0
-1003 817 0
-1003 -253 0
-1003 -665 0
-1003 333 0
518 -517 0
-518 517 0
1004 -738 171 673 -359 0
-1004 738 0
-1004 -171 0
-1004 -673 0
-1004 359 0
484 -483 0
-484 483 0
1005 -742 185 626 -357 0
-1005 742 0
-1005 -185 0
-1005 -626 0
-1005 357 0
486 -485 0
-486 485 0
542 -541 0
-542 541 0
1006 -829 598 599 -395 0
-1006 829 0
-1006 -598 0
-1006 -599 0
-1006 395 0
490 -489 0
-490 489 0
1007 -813 553 554 -393 0
-1007 813 0
-1007 -553 0
-1007 -554 0
-1007 393 0
492 -491 0
-492 491 0
1008 -685 249 622 -375 0
-1008 685 0
-1008 -249 0
-1008 -622 0
-1008 375 0
524 -523 0
-524 523 0
1009 -777 595 596 -331 0
-1009 777 0
-1009 -595 0
-1009 -596 0
-1009 331 0
398 -397 0
-398 397 0
1010 -699 546 547 -387 0
-1010 699 0
-1010 -546 0
-1010 -547 0
-1010 387 0
526 -525 0
-526 525 0
1011 -787 650 651 -379 0
-1011 787 0
-1011 -650 0
-1011 -651 0
-1011 379 0
1012 -758 571 572 -323 0
-1012 758 0
-1012 -571 0
-1012 -572 0
-1012 323 0
400 -399 0
-400 399 0
1013 -821 311 563 -349 0
-1013 821 0
-1013 -311 0
-1013 -563 0
-1013 349 0
402 -401 0
-402 401 0
494 -493 0
-494 493 0
1014 -734 263 654 -361 0
-1014 734 0
-1014 -263 0
-1014 -654 0
-1014 361 0
1015 -837 173 673 -359 0
-1015 837 0
-1015 -173 0
-1015 -673 0
-1015 359 0
404 -403 0
-404 403 0
1016 -664 665 -333 0
-1016 664 0
-1016 -665 0
-1016 333 0
496 -495 0
-496 495 0
406 -405 0
-406 405 0
1017 -749 631 632 -381 0
-1017 749 0
-1017 -631 0
-1017 -632 0
-1017 381 0
532 -531 0
-532 531 0
1018 -791 211 579 -355 0
-1018 791 0
-1018 -211 0
-1018 -579 0
-1018 355 0
1019 -781 305 560 -339 0
-1019 781 0
-1019 -305 0
-1019 -560 0
-1019 339 0
528 -527 0
-528 527 0
1020 -825 297 596 -331 0
-1020 825 0
-1020 -297 0
-1020 -596 0
-1020 331 0
410 -409 0
-410 409 0
412 -411 0
-412 411 0
1021 -715 269 616 -329 0
-1021 715 0
-1021 -269 0
-1021 -616 0
-1021 329 0
1022 -773 189 626 -357 0
-1022 773 0
-1022 -189 0
-1022 -626 0
-1022 357 0
414 -413 0
-414 413 0
416 -415 0
-416 415 0
1023 -805 592 593 -371 0
-1023 805 0
-1023 -592 0
-1023 -593 0
-1023 371 0
418 -417 0
-418 417 0
1024 -707 675 676 -353 0
-1024 707 0
-1024 -675 0
-1024 -676 0
-1024 353 0
1025 -695 291 651 -379 0
-1025 695 0
-1025 -291 0
-1025 -651 0
-1025 379 0
500 -499 0
-500 499 0
1026 -578 579 -541 0
-1026 578 0
-1026 -579 0
-1026 541 0
1027 -728 559 560 -537 0
-1027 728 0
-1027 -559 0
-1027 -560 0
-1027 537 0
1028 -793 111 730 -3 0
-1028 793 0
-1028 -111 0
-1028 -730 0
-1028 3 0
346 -345 0
-346 345 0
1029 -869 589 590 -397 0
-1029 869 0
-1029 -589 0
-1029 -590 0
-1029 397 0
344 -343 0
-344 343 0
1030 -689 687 730 -3 0
-1030 689 0
-1030 -687 0
-1030 -730 0
-1030 3 0
364 -363 0
-364 363 0
1031 -697 17 730 -3 0
-1031 697 0
-1031 -17 0
-1031 -730 0
-1031 3 0
338 -337 0
-338 337 0
1032 -701 21 730 -3 0
-1032 701 0
-1032 -21 0
-1032 -730 0
-1032 3 0
1033 -705 25 730 -3 0
-1033 705 0
-1033 -25 0
-1033 -730 0
-1033 3 0
392 -391 0
-392 391 0
342 -341 0
-342 341 0
1034 -709 29 730 -3 0
-1034 709 0
-1034 -29 0
-1034 -730 0
-1034 3 0
386 -385 0
-386 385 0
1035 -713 33 730 -3 0
-1035 713 0
-1035 -33 0
-1035 -730 0
-1035 3 0
320 -319 0
-320 319 0
1036 -717 37 730 -3 0
-1036 717 0
-1036 -37 0
-1036 -730 0
-1036 3 0
1037 -721 41 730 -3 0
-1037 721 0
-1037 -41 0
-1037 -730 0
-1037 3 0
348 -347 0
-348 347 0
1038 -884 604 605 -431 0
-1038 884 0
-1038 -604 0
-1038 -605 0
-1038 431 0
1039 -736 53 730 -3 0
-1039 736 0
-1039 -53 0
-1039 -730 0
-1039 3 0
352 -351 0
-352 351 0
354 -353 0
-354 353 0
1040 -875 568 569 -425 0
-1040 875 0
-1040 -568 0
-1040 -569 0
-1040 425 0
1041 -740 57 730 -3 0
-1041 740 0
-1041 -57 0
-1041 -730 0
-1041 3 0
324 -323 0
-324 323 0
1042 -848 167 583 -407 0
-1042 848 0
-1042 -167 0
-1042 -583 0
-1042 407 0
1043 -744 61 730 -3 0
-1043 744 0
-1043 -61 0
-1043 -730 0
-1043 3 0
378 -377 0
-378 377 0
1044 -747 65 730 -3 0
-1044 747 0
-1044 -65 0
-1044 -730 0
-1044 3 0
328 -327 0
-328 327 0
1045 -751 69 730 -3 0
-1045 751 0
-1045 -69 0
-1045 -730 0
-1045 3 0
1046 -886 618 619 -433 0
-1046 886 0
-1046 -618 0
-1046 -619 0
-1046 433 0
1047 -878 660 661 -427 0
-1047 878 0
-1047 -660 0
-1047 -661 0
-1047 427 0
326 -325 0
-326 325 0
1048 -760 77 730 -3 0
-1048 760 0
-1048 -77 0
-1048 -730 0
-1048 3 0
1049 -764 81 730 -3 0
-1049 764 0
-1049 -81 0
-1049 -730 0
-1049 3 0
336 -335 0
-336 335 0
1050 -869 589 590 -421 0
-1050 869 0
-1050 -589 0
-1050 -590 0
-1050 421 0
388 -387 0
-388 387 0
1051 -771 89 730 -3 0
-1051 771 0
-1051 -89 0
-1051 -730 0
-1051 3 0
366 -365 0
-366 365 0
1052 -924 243 566 -445 0
-1052 924 0
-1052 -243 0
-1052 -566 0
-1052 445 0
1053 -785 105 730 -3 0
-1053 785 0
-1053 -105 0
-1053 -730 0
-1053 3 0
1054 -799 117 730 -3 0
-1054 799 0
-1054 -117 0
-1054 -730 0
-1054 3 0
330 -329 0
-330 329 0
1055 -881 556 557 -429 0
-1055 881 0
-1055 -556 0
-1055 -557 0
-1055 429 0
1056 -803 121 730 -3 0
-1056 803 0
-1056 -121 0
-1056 -730 0
-1056 3 0
390 -389 0
-390 389 0
1057 -926 634 635 -447 0
-1057 926 0
-1057 -634 0
-1057 -635 0
-1057 447 0
1058 -811 129 730 -3 0
-1058 811 0
-1058 -129 0
-1058 -730 0
-1058 3 0
358 -357 0
-358 357 0
1059 -908 227 676 -437 0
-1059 908 0
-1059 -227 0
-1059 -676 0
-1059 437 0
1060 -940 259 547 -449 0
-1060 940 0
-1060 -259 0
-1060 -547 0
-1060 449 0
1061 -586 587 -399 0
-1061 586 0
-1061 -587 0
-1061 399 0
1062 -881 556 557 -411 0
-1062 881 0
-1062 -556 0
-1062 -557 0
-1062 411 0
1063 -819 137 730 -3 0
-1063 819 0
-1063 -137 0
-1063 -730 0
-1063 3 0
370 -369 0
-370 369 0
1064 -823 141 730 -3 0
-1064 823 0
-1064 -141 0
-1064 -730 0
-1064 3 0
384 -383 0
-384 383 0
1065 -831 149 730 -3 0
-1065 831 0
-1065 -149 0
-1065 -730 0
-1065 3 0
322 -321 0
-322 321 0
1066 -918 601 602 -443 0
-1066 918 0
-1066 -601 0
-1066 -602 0
-1066 443 0
1067 -856 574 575 -419 0
-1067 856 0
-1067 -574 0
-1067 -575 0
-1067 419 0
1068 -884 604 605 -457 0
-1068 884 0
-1068 -604 0
-1068 -605 0
-1068 457 0
1069 -875 568 569 -417 0
-1069 875 0
-1069 -568 0
-1069 -569 0
-1069 417 0
1070 -835 153 730 -3 0
-1070 835 0
-1070 -153 0
-1070 -730 0
-1070 3 0
374 -373 0
-374 373 0
1071 -940 259 547 -413 0
-1071 940 0
-1071 -259 0
-1071 -547 0
-1071 413 0
1072 -908 227 676 -485 0
-1072 908 0
-1072 -227 0
-1072 -676 0
-1072 485 0
1073 -926 634 635 -469 0
-1073 926 0
-1073 -634 0
-1073 -635 0
-1073 469 0
1074 -683 5 629 0
-1074 683 0
-1074 -5 0
-1074 -629 0
1075 -904 223 612 -483 0
-1075 904 0
-1075 -223 0
-1075 -612 0
-1075 483 0
1076 -668 669 -403 0
-1076 668 0
-1076 -669 0
-1076 403 0
1077 -608 609 -415 0
-1077 608 0
-1077 -609 0
-1077 415 0
1078 -854 175 673 -491 0
-1078 854 0
-1078 -175 0
-1078 -673 0
-1078 491 0
1079 -783 101 730 -3 0
-1079 783 0
-1079 -101 0
-1079 -730 0
-1079 3 0
360 -359 0
-360 359 0
1080 -668 669 -487 0
-1080 668 0
-1080 -669 0
-1080 487 0
1081 -904 223 612 -435 0
-1081 904 0
-1081 -223 0
-1081 -612 0
-1081 435 0
1082 -625 626 -489 0
-1082 625 0
-1082 -626 0
-1082 489 0
394 -393 0
-394 393 0
1083 -625 626 -459 0
-1083 625 0
-1083 -626 0
-1083 459 0
1084 -693 13 730 -3 0
-1084 693 0
-1084 -13 0
-1084 -730 0
-1084 3 0
1085 -608 609 -455 0
-1085 608 0
-1085 -609 0
-1085 455 0
372 -371 0
-372 371 0
1086 -732 49 730 -3 0
-1086 732 0
-1086 -49 0
-1086 -730 0
-1086 3 0
1087 -878 660 661 -475 0
-1087 878 0
-1087 -660 0
-1087 -661 0
-1087 475 0
1088 -886 618 619 -479 0
-1088 886 0
-1088 -618 0
-1088 -619 0
-1088 479 0
376 -375 0
-376 375 0
1089 -854 175 673 -497 0
-1089 854 0
-1089 -175 0
-1089 -673 0
-1089 497 0
1090 -768 85 730 -3 0
-1090 768 0
-1090 -85 0
-1090 -730 0
-1090 3 0
1091 -898 217 593 -503 0
-1091 898 0
-1091 -217 0
-1091 -593 0
-1091 503 0
1092 -775 93 730 -3 0
-1092 775 0
-1092 -93 0
-1092 -730 0
-1092 3 0
1093 -615 616 -453 0
-1093 615 0
-1093 -616 0
-1093 453 0
362 -361 0
-362 361 0
1094 -779 97 730 -3 0
-1094 779 0
-1094 -97 0
-1094 -730 0
-1094 3 0
1095 -916 644 645 -441 0
-1095 916 0
-1095 -644 0
-1095 -645 0
-1095 441 0
1096 -657 658 -481 0
-1096 657 0
-1096 -658 0
-1096 481 0
382 -381 0
-382 381 0
380 -379 0
-380 379 0
1097 -963 287 648 -451 0
-1097 963 0
-1097 -287 0
-1097 -648 0
-1097 451 0
1098 -861 181 554 -501 0
-1098 861 0
-1098 -181 0
-1098 -554 0
-1098 501 0
1099 -789 107 730 -3 0
-1099 789 0
-1099 -107 0
-1099 -730 0
-1099 3 0
1100 -795 115 730 -3 0
-1100 795 0
-1100 -115 0
-1100 -730 0
-1100 3 0
332 -331 0
-332 331 0
1101 -550 551 -473 0
-1101 550 0
-1101 -551 0
-1101 473 0
1102 -945 265 654 -509 0
-1102 945 0
-1102 -265 0
-1102 -654 0
-1102 509 0
1103 -872 641 642 -471 0
-1103 872 0
-1103 -641 0
-1103 -642 0
-1103 471 0
1104 -638 639 -401 0
-1104 638 0
-1104 -639 0
-1104 401 0
1105 -872 641 642 -423 0
-1105 872 0
-1105 -641 0
-1105 -642 0
-1105 423 0
1106 -815 133 730 -3 0
-1106 815 0
-1106 -133 0
-1106 -730 0
-1106 3 0
350 -349 0
-350 349 0
1107 -638 639 -467 0
-1107 638 0
-1107 -639 0
-1107 467 0
1108 -856 574 575 -477 0
-1108 856 0
-1108 -574 0
-1108 -575 0
-1108 477 0
1109 -918 601 602 -463 0
-1109 918 0
-1109 -601 0
-1109 -602 0
-1109 463 0
1110 -898 217 593 -493 0
-1110 898 0
-1110 -217 0
-1110 -593 0
-1110 493 0
1111 -615 616 -465 0
-1111 615 0
-1111 -616 0
-1111 465 0
1112 -924 243 566 -505 0
-1112 924 0
-1112 -243 0
-1112 -566 0
-1112 505 0
1113 -916 644 645 -405 0
-1113 916 0
-1113 -644 0
-1113 -645 0
-1113 405 0
1114 -657 658 -521 0
-1114 657 0
-1114 -658 0
-1114 521 0
1115 -839 157 730 -3 0
-1115 839 0
-1115 -157 0
-1115 -730 0
-1115 3 0
334 -333 0
-334 333 0
1116 -984 313 563 -519 0
-1116 984 0
-1116 -313 0
-1116 -563 0
-1116 519 0
1117 -930 621 622 -507 0
-1117 930 0
-1117 -621 0
-1117 -622 0
-1117 507 0
1118 -963 287 648 -525 0
-1118 963 0
-1118 -287 0
-1118 -648 0
-1118 525 0
1119 -861 181 554 -499 0
-1119 861 0
-1119 -181 0
-1119 -554 0
-1119 499 0
1120 -550 551 -409 0
-1120 550 0
-1120 -551 0
-1120 409 0
1121 -945 265 654 -523 0
-1121 945 0
-1121 -265 0
-1121 -654 0
-1121 523 0
1122 -984 313 563 -517 0
-1122 984 0
-1122 -313 0
-1122 -563 0
-1122 517 0
1123 -930 621 622 -495 0
-1123 930 0
-1123 -621 0
-1123 -622 0
-1123 495 0
1124 -936 255 665 -535 0
-1124 936 0
-1124 -255 0
-1124 -665 0
-1124 535 0
1125 -953 275 632 -527 0
-1125 953 0
-1125 -275 0
-1125 -632 0
-1125 527 0
1126 -973 299 596 -515 0
-1126 973 0
-1126 -299 0
-1126 -596 0
-1126 515 0
1127 -968 293 651 -513 0
-1127 968 0
-1127 -293 0
-1127 -651 0
-1127 513 0
1128 -827 145 730 -3 0
-1128 827 0
-1128 -145 0
-1128 -730 0
-1128 3 0
356 -355 0
-356 355 0
1129 -968 293 651 -531 0
-1129 968 0
-1129 -293 0
-1129 -651 0
-1129 531 0
1130 -973 299 596 -533 0
-1130 973 0
-1130 -299 0
-1130 -596 0
-1130 533 0
1131 -953 275 632 -511 0
-1131 953 0
-1131 -275 0
-1131 -632 0
-1131 511 0
1132 -936 255 665 -529 0
-1132 936 0
-1132 -255 0
-1132 -665 0
-1132 529 0
1133 -807 125 730 -3 0
-1133 807 0
-1133 -125 0
-1133 -730 0
-1133 3 0
340 -339 0
-340 339 0
-1134 564 659 0
1134 -564 0
1134 -659 0
-36 428 710 0
36 -428 0
36 -710 0
-48 722 434 0
48 -722 0
48 -434 0
-200 876 877 0
200 -876 0
200 -877 0
-1135 476 998 0
1135 -476 0
1135 -998 0
-1136 920 921 0
1136 -920 0
1136 -921 0
-1137 922 242 0
1137 -922 0
1137 -242 0
-246 923 244 0
246 -923 0
246 -244 0
-206 885 887 0
206 -885 0
206 -887 0
-1138 1134 617 0
1138 -1134 0
1138 -617 0
-1139 1087 1088 0
1139 -1087 0
1139 -1088 0
-1140 1047 1046 0
1140 -1047 0
1140 -1046 0
-1141 1002 480 0
1141 -1002 0
1141 -480 0
-1142 708 30 0
1142 -708 0
1142 -30 0
-1143 712 34 0
1143 -712 0
1143 -34 0
-1144 38 716 0
1144 -38 0
1144 -716 0
-1145 720 42 0
1145 -720 0
1145 -42 0
-1146 46 724 0
1146 -46 0
1146 -724 0
-1147 731 50 0
1147 -731 0
1147 -50 0
-1148 735 54 0
1148 -735 0
1148 -54 0
-1149 342 1034 0
1149 -342 0
1149 -1034 0
-1150 348 1037 0
1150 -348 0
1150 -1037 0
-290 288 962 0
290 -288 0
290 -962 0
-296 967 294 0
296 -967 0
296 -294 0
-1151 1097 1098 0
1151 -1097 0
1151 -1098 0
-1152 1118 1119 0
1152 -1118 0
1152 -1119 0
-184 182 860 0
184 -182 0
184 -860 0
-1153 106 784 0
1153 -106 0
1153 -784 0
-1154 788 108 0
1154 -788 0
1154 -108 0
-1155 1151 1099 380 0
1155 -1151 0
1155 -1099 0
1155 -380 0
-1156 526 1011 0
1156 -526 0
1156 -1011 0
-1157 646 649 0
1157 -646 0
1157 -649 0
-1158 964 965 0
1158 -964 0
1158 -965 0
-110 786 452 0
110 -786 0
110 -452 0
-1159 960 961 0
1159 -960 0
1159 -961 0
-1160 1025 500 0
1160 -1025 0
1160 -500 0
-20 694 502 0
20 -694 0
20 -502 0
-1161 858 859 0
1161 -858 0
1161 -859 0
-1162 1157 552 0
1162 -1157 0
1162 -552 0
-1163 966 292 0
1163 -966 0
1163 -292 0
-1164 1053 366 0
1164 -1053 0
1164 -366 0
-84 761 446 0
84 -761 0
84 -446 0
-1165 1138 1162 0
1165 -1138 0
1165 -1162 0
-1166 1140 326 0
1166 -1140 0
1166 -326 0
-1167 1052 1164 0
1167 -1052 0
1167 -1164 0
-1168 506 990 0
1168 -506 0
1168 -990 0
-248 925 927 0
248 -925 0
248 -927 0
-88 765 448 0
88 -765 0
88 -448 0
-1169 470 995 0
1169 -470 0
1169 -995 0
-1170 78 759 0
1170 -78 0
1170 -759 0
-1171 82 763 0
1171 -82 0
1171 -763 0
-1172 767 86 0
1172 -767 0
1172 -86 0
-1173 770 90 0
1173 -770 0
1173 -90 0
-1174 336 1049 0
1174 -336 0
1174 -1049 0
-1175 398 1010 0
1175 -398 0
1175 -1010 0
-1176 545 588 0
1176 -545 0
1176 -588 0
-96 772 450 0
96 -772 0
96 -450 0
-1177 1022 414 0
1177 -1022 0
1177 -414 0
-24 422 698 0
24 -422 0
24 -698 0
-1178 937 938 0
1178 -937 0
1178 -938 0
-262 260 939 0
262 -260 0
262 -939 0
-192 190 866 0
192 -190 0
192 -866 0
-194 867 868 0
194 -867 0
194 -868 0
-1179 1050 388 0
1179 -1050 0
1179 -388 0
-1180 865 188 0
1180 -865 0
1180 -188 0
-1181 633 1176 0
1181 -633 0
1181 -1176 0
-1182 1051 1179 0
1182 -1051 0
1182 -1179 0
-1183 1057 1060 0
1183 -1057 0
1183 -1060 0
-1184 1073 1071 0
1184 -1073 0
1184 -1071 0
-1185 567 674 0
1185 -567 0
1185 -674 0
-1186 418 1024 0
1186 -418 0
1186 -1024 0
-32 426 706 0
32 -426 0
32 -706 0
-1187 905 906 0
1187 -905 0
1187 -906 0
-1188 354 1040 1041 0
1188 -354 0
1188 -1040 0
1188 -1041 0
-230 907 228 0
230 -907 0
230 -228 0
-198 873 874 0
198 -873 0
198 -874 0
-1189 864 186 0
1189 -864 0
1189 -186 0
-1190 862 863 0
1190 -862 0
1190 -863 0
-1191 1185 623 0
1191 -1185 0
1191 -623 0
-64 438 741 0
64 -438 0
64 -741 0
-1192 486 1005 0
1192 -486 0
1192 -1005 0
-1193 692 14 0
1193 -692 0
1193 -14 0
-1194 696 18 0
1194 -696 0
1194 -18 0
-1195 700 22 0
1195 -700 0
1195 -22 0
-1196 26 704 0
1196 -26 0
1196 -704 0
-1197 1083 1084 0
1197 -1083 0
1197 -1084 0
-1198 392 1033 0
1198 -392 0
1198 -1033 0
-1199 1181 1191 0
1199 -1181 0
1199 -1191 0
-1200 364 1031 0
1200 -364 0
1200 -1031 0
-1201 1183 1059 0
1201 -1183 0
1201 -1059 0
-1202 1184 1072 0
1202 -1184 0
1202 -1072 0
-1203 1165 1199 0
1203 -1165 0
1203 -1199 0
-1204 394 1197 0
1204 -394 0
1204 -1197 0
-1205 1166 1048 0
1205 -1166 0
1205 -1048 0
-136 812 460 0
136 -812 0
136 -460 0
-1206 1201 358 0
1206 -1201 0
1206 -358 0
-1207 739 58 0
1207 -739 0
1207 -58 0
-1208 1007 490 0
1208 -1007 0
1208 -490 0
-1209 555 613 652 0
1209 -555 0
1209 -613 0
1209 -652 0
-1210 412 1021 0
1210 -412 0
1210 -1021 0
-1211 941 942 0
1211 -941 0
1211 -942 0
-40 714 430 0
40 -714 0
40 -430 0
-1212 946 947 0
1212 -946 0
1212 -947 0
-272 270 948 0
272 -270 0
272 -948 0
-124 454 800 0
124 -454 0
124 -800 0
-1213 330 1055 0
1213 -330 0
1213 -1055 0
-1214 992 466 0
1214 -992 0
1214 -466 0
-202 879 880 0
202 -879 0
202 -880 0
-1215 792 112 0
1215 -792 0
1215 -112 0
-1216 794 116 0
1216 -794 0
1216 -116 0
-1217 118 798 0
1217 -118 0
1217 -798 0
-1218 1213 1054 0
1218 -1213 0
1218 -1054 0
-1219 1056 390 0
1219 -1056 0
1219 -390 0
-222 899 900 0
222 -899 0
222 -900 0
-1220 494 1014 0
1220 -494 0
1220 -1014 0
-1221 895 896 0
1221 -895 0
1221 -896 0
-220 897 218 0
220 -897 0
220 -218 0
-1222 943 264 0
1222 -943 0
1222 -264 0
-268 266 944 0
268 -266 0
268 -944 0
-56 504 733 0
56 -504 0
56 -733 0
-1223 606 591 0
1223 -606 0
1223 -591 0
-1224 1085 372 0
1224 -1085 0
1224 -372 0
-1225 416 1023 0
1225 -416 0
1225 -1023 0
-128 456 804 0
128 -456 0
128 -804 0
-1226 1209 1223 0
1226 -1209 0
1226 -1223 0
-1227 1093 1091 1092 362 0
1227 -1093 0
1227 -1091 0
1227 -1092 0
1227 -362 0
-1228 1100 1102 0
1228 -1100 0
1228 -1102 0
-1229 1111 1110 0
1229 -1111 0
1229 -1110 0
-1230 802 122 0
1230 -802 0
1230 -122 0
-1231 891 892 0
1231 -891 0
1231 -892 0
-1232 893 212 0
1232 -893 0
1232 -212 0
-216 214 894 0
216 -214 0
216 -894 0
-1233 969 970 0
1233 -969 0
1233 -970 0
-1234 298 971 0
1234 -298 0
1234 -971 0
-302 300 972 0
302 -300 0
302 -972 0
-148 474 824 0
148 -474 0
148 -824 0
-1235 576 594 0
1235 -576 0
1235 -594 0
-120 796 516 0
120 -796 0
120 -516 0
-1236 993 534 0
1236 -993 0
1236 -534 0
-304 974 975 0
304 -974 0
304 -975 0
-1237 1235 548 0
1237 -1235 0
1237 -548 0
-1238 1020 410 0
1238 -1020 0
1238 -410 0
-1239 332 1101 0
1239 -332 0
1239 -1101 0
-1240 1226 1237 0
1240 -1226 0
1240 -1237 0
-1241 1228 1239 0
1241 -1228 0
1241 -1239 0
-100 510 776 0
100 -510 0
100 -776 0
-1242 1121 1120 0
1242 -1121 0
1242 -1120 0
-1243 524 1009 0
1243 -524 0
1243 -1009 0
-1244 1203 1240 0
1244 -1203 0
1244 -1240 0
-1245 1086 1224 0
1245 -1086 0
1245 -1224 0
-1246 532 1018 0
1246 -532 0
1246 -1018 0
-1247 774 94 0
1247 -774 0
1247 -94 0
-1248 1127 1126 0
1248 -1127 0
1248 -1126 0
-1249 1129 1130 0
1249 -1129 0
1249 -1130 0
-114 514 790 0
114 -514 0
114 -790 0
-1250 1035 386 0
1250 -1035 0
1250 -386 0
-1251 729 726 0
1251 -729 0
1251 -726 0
-1252 561 640 0
1252 -561 0
1252 -640 0
-28 702 424 0
28 -702 0
28 -424 0
-1253 980 981 0
1253 -980 0
1253 -981 0
-196 870 871 0
196 -870 0
196 -871 0
-1254 996 472 0
1254 -996 0
1254 -472 0
-1255 1013 402 0
1255 -1013 0
1255 -402 0
-1256 982 312 0
1256 -982 0
1256 -312 0
-316 983 314 0
316 -983 0
316 -314 0
-318 985 986 0
318 -985 0
318 -986 0
-144 468 820 0
144 -468 0
144 -820 0
-1257 1252 636 0
1257 -1252 0
1257 -636 0
-1258 1103 1104 0
1258 -1103 0
1258 -1104 0
-1259 1105 1107 0
1259 -1105 0
1259 -1107 0
-1260 126 806 0
1260 -126 0
1260 -806 0
-1261 810 130 0
1261 -810 0
1261 -130 0
-1262 814 134 0
1262 -814 0
1262 -134 0
-1263 818 138 0
1263 -818 0
1263 -138 0
-1264 1259 1106 350 0
1264 -1259 0
1264 -1106 0
1264 -350 0
-1265 370 1063 0
1265 -370 0
1265 -1063 0
-1266 932 933 0
1266 -932 0
1266 -933 0
-1267 254 934 0
1267 -254 0
1267 -934 0
-258 935 256 0
258 -935 0
258 -256 0
-1268 928 929 0
1268 -928 0
1268 -929 0
-252 250 931 0
252 -250 0
252 -931 0
-1269 662 620 0
1269 -662 0
1269 -620 0
-1270 1016 496 0
1270 -1016 0
1270 -496 0
-92 769 508 0
92 -769 0
92 -508 0
-1271 1257 1269 0
1271 -1257 0
1271 -1269 0
-1272 1116 1117 0
1272 -1116 0
1272 -1117 0
-1273 1122 1123 0
1273 -1122 0
1273 -1123 0
-1274 1133 1132 0
1274 -1133 0
1274 -1132 0
-140 520 816 0
140 -520 0
140 -816 0
-1275 518 1003 0
1275 -518 0
1275 -1003 0
-1276 666 670 0
1276 -666 0
1276 -670 0
-1277 1015 404 0
1277 -1015 0
1277 -404 0
-1278 849 850 0
1278 -849 0
1278 -850 0
-1279 851 172 0
1279 -851 0
1279 -172 0
-1280 852 174 0
1280 -852 0
1280 -174 0
-178 176 853 0
178 -176 0
178 -853 0
-286 958 959 0
286 -958 0
286 -959 0
-160 488 836 0
160 -488 0
160 -836 0
-1281 603 610 0
1281 -603 0
1281 -610 0
-1282 901 902 0
1282 -901 0
1282 -902 0
-226 903 224 0
226 -903 0
226 -224 0
-44 432 718 0
44 -432 0
44 -718 0
-1283 987 458 0
1283 -987 0
1283 -458 0
-204 882 883 0
204 -882 0
204 -883 0
-1284 1076 1075 0
1284 -1076 0
1284 -1075 0
-1285 1080 1081 1079 360 0
1285 -1080 0
1285 -1081 0
1285 -1079 0
1285 -360 0
-1286 1276 1281 0
1286 -1276 0
1286 -1281 0
-1287 1038 352 0
1287 -1038 0
1287 -352 0
-60 737 436 0
60 -737 0
60 -436 0
-1288 1004 484 0
1288 -1004 0
1288 -484 0
-166 162 842 0
166 -162 0
166 -842 0
-1289 830 150 0
1289 -830 0
1289 -150 0
-1290 142 822 0
1290 -142 0
1290 -822 0
-1291 826 146 0
1291 -826 0
1291 -146 0
-1292 154 834 0
1292 -154 0
1292 -834 0
-1293 158 838 0
1293 -158 0
1293 -838 0
-1294 374 1070 0
1294 -374 0
1294 -1070 0
-1295 1271 1286 0
1295 -1271 0
1295 -1286 0
-1296 376 1089 0
1296 -376 0
1296 -1089 0
-12 684 498 0
12 -684 0
12 -498 0
-1297 1272 1115 334 0
1297 -1272 0
1297 -1115 0
1297 -334 0
-1298 1008 492 0
1298 -1008 0
1298 -492 0
-1299 949 950 0
1299 -949 0
1299 -950 0
-1300 951 274 0
1300 -951 0
1300 -274 0
-278 952 276 0
278 -952 0
278 -276 0
-72 748 442 0
72 -748 0
72 -442 0
-238 914 915 0
238 -914 0
238 -915 0
-1301 954 955 0
1301 -954 0
1301 -955 0
-1302 630 643 655 0
1302 -630 0
1302 -643 0
1302 -655 0
-1303 1017 406 0
1303 -1017 0
1303 -406 0
-1304 1094 1095 1096 382 0
1304 -1094 0
1304 -1095 0
1304 -1096 0
1304 -382 0
-1305 1113 1114 0
1305 -1113 0
1305 -1114 0
-240 917 919 0
240 -917 0
240 -919 0
-1306 464 991 0
1306 -464 0
1306 -991 0
-1307 956 280 0
1307 -956 0
1307 -280 0
-284 957 282 0
284 -957 0
284 -282 0
-76 444 752 0
76 -444 0
76 -752 0
-1308 686 688 0
1308 -686 0
1308 -688 0
-16 690 420 0
16 -690 0
16 -420 0
-180 855 857 0
180 -855 0
180 -857 0
-1309 344 1030 0
1309 -344 0
1309 -1030 0
-1310 999 478 0
1310 -999 0
1310 -478 0
-1311 600 573 0
1311 -600 0
1311 -573 0
-1312 1109 1108 0
1312 -1109 0
1312 -1108 0
-1313 1066 1067 0
1313 -1066 0
1313 -1067 0
-1314 1302 1311 0
1314 -1302 0
1314 -1311 0
-1315 988 522 0
1315 -988 0
1315 -522 0
-156 832 482 0
156 -832 0
156 -482 0
-1316 1313 322 0
1316 -1313 0
1316 -322 0
-1317 558 597 0
1317 -558 0
1317 -597 0
-1318 888 889 0
1318 -888 0
1318 -889 0
-210 208 890 0
210 -208 0
210 -890 0
-1319 976 977 0
1319 -976 0
1319 -977 0
-1320 978 306 0
1320 -978 0
1320 -306 0
-310 979 308 0
310 -979 0
310 -308 0
-132 544 808 0
132 -544 0
132 -808 0
-1321 538 997 0
1321 -538 0
1321 -997 0
-1322 1314 1317 0
1322 -1314 0
1322 -1317 0
-1323 528 1019 0
1323 -528 0
1323 -1019 0
-104 512 780 0
104 -512 0
104 -780 0
-1324 1131 340 0
1324 -1131 0
1324 -340 0
-1325 1012 400 0
1325 -1012 0
1325 -400 0
-1326 845 846 0
1326 -845 0
1326 -846 0
-8 408 680 0
8 -408 0
8 -680 0
-170 168 847 0
170 -168 0
170 -847 0
-1327 570 580 584 0
1327 -570 0
1327 -580 0
1327 -584 0
-1328 324 1042 0
1328 -324 0
1328 -1042 0
-1329 909 910 0
1329 -909 0
1329 -910 0
-234 232 911 0
234 -232 0
234 -911 0
-236 912 913 0
236 -912 0
236 -913 0
-1330 462 989 0
1330 -462 0
1330 -989 0
-68 440 745 0
68 -440 0
68 -745 0
-1331 368 757 0
1331 -368 0
1331 -757 0
-1332 677 679 0
1332 -677 0
1332 -679 0
-10 682 6 0
10 -682 0
10 -6 0
-1333 1327 627 0
1333 -1327 0
1333 -627 0
-1334 1001 1000 0
1334 -1001 0
1334 -1000 0
-1335 62 743 0
1335 -62 0
1335 -743 0
-1336 66 746 0
1336 -66 0
1336 -746 0
-1337 750 70 0
1337 -750 0
1337 -70 0
-1338 74 754 0
1338 -74 0
1338 -754 0
-1339 1328 1043 0
1339 -1328 0
1339 -1043 0
-80 1331 756 0
80 -1331 0
80 -756 0
-1340 1322 1333 0
1340 -1322 0
1340 -1333 0
-1341 378 1044 0
1341 -378 0
1341 -1044 0
-1342 328 1045 0
1342 -328 0
1342 -1045 0
-1343 1284 1074 0
1343 -1284 0
1343 -1074 0
-1344 1295 1340 0
1344 -1295 0
1344 -1340 0
-1345 778 98 0
1345 -778 0
1345 -98 0
-1346 782 102 0
1346 -782 0
1346 -102 0
-1347 1124 1125 0
1347 -1124 0
1347 -1125 0
-1348 1274 1324 0
1348 -1274 0
1348 -1324 0
-1349 536 994 0
1349 -536 0
1349 -994 0
-1350 1065 1316 0
1350 -1065 0
1350 -1316 0
-164 530 840 0
164 -530 0
164 -840 0
-4 1244 1344 0
4 -1244 0
4 -1344 0
-1351 1090 1296 0
1351 -1090 0
1351 -1296 0
-1352 1026 1027 0
1352 -1026 0
1352 -1027 0
-1353 1028 346 0
1353 -1028 0
1353 -346 0
-1354 1248 1128 356 0
1354 -1248 0
1354 -1128 0
1354 -356 0
-1355 1032 338 0
1355 -1032 0
1355 -338 0
-1356 1036 320 0
1356 -1036 0
1356 -320 0
-1357 1039 1287 0
1357 -1039 0
1357 -1287 0
-52 1251 727 396 0
52 -1251 0
52 -727 0
52 -396 0
-1358 1206 1058 0
1358 -1206 0
1358 -1058 0
-152 828 540 0
152 -828 0
152 -540 0
-1359 384 1064 0
1359 -384 0
1359 -1064 0
-1360 542 1006 0
1360 -542 0
1360 -1006 0
-1361 677 -678 0
1361 -677 0
1361 678 0
-1362 -677 678 0
1362 677 0
1362 -678 0
-1363 679 -628 0
1363 -679 0
1363 628 0
-1364 -679 628 0
1364 679 0
1364 -628 0
-1365 408 -407 0
1365 -408 0
1365 407 0
-1366 -408 407 0
1366 408 0
1366 -407 0
-1367 682 -683 0
1367 -682 0
1367 683 0
-1368 -682 683 0
1368 682 0
1368 -683 0
-1369 6 -5 0
1369 -6 0
1369 5 0
-1370 -6 5 0
1370 6 0
1370 -5 0
-1371 498 -497 0
1371 -498 0
1371 497 0
-1372 -498 497 0
1372 498 0
1372 -497 0
-1373 686 -687 0
1373 -686 0
1373 687 0
-1374 -686 687 0
1374 686 0
1374 -687 0
-1375 688 -689 0
1375 -688 0
1375 689 0
-1376 -688 689 0
1376 688 0
1376 -689 0
-1377 420 -419 0
1377 -420 0
1377 419 0
-1378 -420 419 0
1378 420 0
1378 -419 0
-1379 692 -693 0
1379 -692 0
1379 693 0
-1380 -692 693 0
1380 692 0
1380 -693 0
-1381 14 -13 0
1381 -14 0
1381 13 0
-1382 -14 13 0
1382 14 0
1382 -13 0
-1383 502 -501 0
1383 -502 0
1383 501 0
-1384 -502 501 0
1384 502 0
1384 -501 0
-1385 696 -697 0
1385 -696 0
1385 697 0
-1386 -696 697 0
1386 696 0
1386 -697 0
-1387 18 -17 0
1387 -18 0
1387 17 0
-1388 -18 17 0
1388 18 0
1388 -17 0
-1389 422 -421 0
1389 -422 0
1389 421 0
-1390 -422 421 0
1390 422 0
1390 -421 0
-1391 700 -701 0
1391 -700 0
1391 701 0
-1392 -700 701 0
1392 700 0
1392 -701 0
-1393 22 -21 0
1393 -22 0
1393 21 0
-1394 -22 21 0
1394 22 0
1394 -21 0
-1395 424 -423 0
1395 -424 0
1395 423 0
-1396 -424 423 0
1396 424 0
1396 -423 0
-1397 26 -25 0
1397 -26 0
1397 25 0
-1398 -26 25 0
1398 26 0
1398 -25 0
-1399 704 -705 0
1399 -704 0
1399 705 0
-1400 -704 705 0
1400 704 0
1400 -705 0
-1401 426 -425 0
1401 -426 0
1401 425 0
-1402 -426 425 0
1402 426 0
1402 -425 0
-1403 708 -709 0
1403 -708 0
1403 709 0
-1404 -708 709 0
1404 708 0
1404 -709 0
-1405 30 -29 0
1405 -30 0
1405 29 0
-1406 -30 29 0
1406 30 0
1406 -29 0
-1407 428 -427 0
1407 -428 0
1407 427 0
-1408 -428 427 0
1408 428 0
1408 -427 0
-1409 712 -713 0
1409 -712 0
1409 713 0
-1410 -712 713 0
1410 712 0
1410 -713 0
-1411 34 -33 0
1411 -34 0
1411 33 0
-1412 -34 33 0
1412 34 0
1412 -33 0
-1413 430 -429 0
1413 -430 0
1413 429 0
-1414 -430 429 0
1414 430 0
1414 -429 0
-1415 38 -37 0
1415 -38 0
1415 37 0
-1416 -38 37 0
1416 38 0
1416 -37 0
-1417 716 -717 0
1417 -716 0
1417 717 0
-1418 -716 717 0
1418 716 0
1418 -717 0
-1419 432 -431 0
1419 -432 0
1419 431 0
-1420 -432 431 0
1420 432 0
1420 -431 0
-1421 720 -721 0
1421 -720 0
1421 721 0
-1422 -720 721 0
1422 720 0
1422 -721 0
-1423 42 -41 0
1423 -42 0
1423 41 0
-1424 -42 41 0
1424 42 0
1424 -41 0
-1425 434 -433 0
1425 -434 0
1425 433 0
-1426 -434 433 0
1426 434 0
1426 -433 0
-1427 46 -45 0
1427 -46 0
1427 45 0
-1428 -46 45 0
1428 46 0
1428 -45 0
-1429 724 -725 0
1429 -724 0
1429 725 0
-1430 -724 725 0
1430 724 0
1430 -725 0
-1431 396 -395 0
1431 -396 0
1431 395 0
-1432 -396 395 0
1432 396 0
1432 -395 0
-1433 731 -732 0
1433 -731 0
1433 732 0
-1434 -731 732 0
1434 731 0
1434 -732 0
-1435 50 -49 0
1435 -50 0
1435 49 0
-1436 -50 49 0
1436 50 0
1436 -49 0
-1437 504 -503 0
1437 -504 0
1437 503 0
-1438 -504 503 0
1438 504 0
1438 -503 0
-1439 735 -736 0
1439 -735 0
1439 736 0
-1440 -735 736 0
1440 735 0
1440 -736 0
-1441 54 -53 0
1441 -54 0
1441 53 0
-1442 -54 53 0
1442 54 0
1442 -53 0
-1443 436 -435 0
1443 -436 0
1443 435 0
-1444 -436 435 0
1444 436 0
1444 -435 0
-1445 58 -57 0
1445 -58 0
1445 57 0
-1446 -58 57 0
1446 58 0
1446 -57 0
-1447 739 -740 0
1447 -739 0
1447 740 0
-1448 -739 740 0
1448 739 0
1448 -740 0
-1449 438 -437 0
1449 -438 0
1449 437 0
-1450 -438 437 0
1450 438 0
1450 -437 0
-1451 62 -61 0
1451 -62 0
1451 61 0
-1452 -62 61 0
1452 62 0
1452 -61 0
-1453 743 -744 0
1453 -743 0
1453 744 0
-1454 -743 744 0
1454 743 0
1454 -744 0
-1455 440 -439 0
1455 -440 0
1455 439 0
-1456 -440 439 0
1456 440 0
1456 -439 0
-1457 66 -65 0
1457 -66 0
1457 65 0
-1458 -66 65 0
1458 66 0
1458 -65 0
-1459 746 -747 0
1459 -746 0
1459 747 0
-1460 -746 747 0
1460 746 0
1460 -747 0
-1461 442 -441 0
1461 -442 0
1461 441 0
-1462 -442 441 0
1462 442 0
1462 -441 0
-1463 750 -751 0
1463 -750 0
1463 751 0
-1464 -750 751 0
1464 750 0
1464 -751 0
-1465 70 -69 0
1465 -70 0
1465 69 0
-1466 -70 69 0
1466 70 0
1466 -69 0
-1467 444 -443 0
1467 -444 0
1467 443 0
-1468 -444 443 0
1468 444 0
1468 -443 0
-1469 74 -73 0
1469 -74 0
1469 73 0
-1470 -74 73 0
1470 74 0
1470 -73 0
-1471 754 -755 0
1471 -754 0
1471 755 0
-1472 -754 755 0
1472 754 0
1472 -755 0
-1473 368 -367 0
1473 -368 0
1473 367 0
-1474 -368 367 0
1474 368 0
1474 -367 0
-1475 78 -77 0
1475 -78 0
1475 77 0
-1476 -78 77 0
1476 78 0
1476 -77 0
-1477 759 -760 0
1477 -759 0
1477 760 0
-1478 -759 760 0
1478 759 0
1478 -760 0
-1479 446 -445 0
1479 -446 0
1479 445 0
-1480 -446 445 0
1480 446 0
1480 -445 0
-1481 82 -81 0
1481 -82 0
1481 81 0
-1482 -82 81 0
1482 82 0
1482 -81 0
-1483 763 -764 0
1483 -763 0
1483 764 0
-1484 -763 764 0
1484 763 0
1484 -764 0
-1485 448 -447 0
1485 -448 0
1485 447 0
-1486 -448 447 0
1486 448 0
1486 -447 0
-1487 767 -768 0
1487 -767 0
1487 768 0
-1488 -767 768 0
1488 767 0
1488 -768 0
-1489 86 -85 0
1489 -86 0
1489 85 0
-1490 -86 85 0
1490 86 0
1490 -85 0
-1491 508 -507 0
1491 -508 0
1491 507 0
-1492 -508 507 0
1492 508 0
1492 -507 0
-1493 770 -771 0
1493 -770 0
1493 771 0
-1494 -770 771 0
1494 770 0
1494 -771 0
-1495 90 -89 0
1495 -90 0
1495 89 0
-1496 -90 89 0
1496 90 0
1496 -89 0
-1497 450 -449 0
1497 -450 0
1497 449 0
-1498 -450 449 0
1498 450 0
1498 -449 0
-1499 774 -775 0
1499 -774 0
1499 775 0
-1500 -774 775 0
1500 774 0
1500 -775 0
-1501 94 -93 0
1501 -94 0
1501 93 0
-1502 -94 93 0
1502 94 0
1502 -93 0
-1503 510 -509 0
1503 -510 0
1503 509 0
-1504 -510 509 0
1504 510 0
1504 -509 0
-1505 98 -97 0
1505 -98 0
1505 97 0
-1506 -98 97 0
1506 98 0
1506 -97 0
-1507 778 -779 0
1507 -778 0
1507 779 0
-1508 -778 779 0
1508 778 0
1508 -779 0
-1509 512 -511 0
1509 -512 0
1509 511 0
-1510 -512 511 0
1510 512 0
1510 -511 0
-1511 782 -783 0
1511 -782 0
1511 783 0
-1512 -782 783 0
1512 782 0
1512 -783 0
-1513 102 -101 0
1513 -102 0
1513 101 0
-1514 -102 101 0
1514 102 0
1514 -101 0
-1515 106 -105 0
1515 -106 0
1515 105 0
-1516 -106 105 0
1516 106 0
1516 -105 0
-1517 784 -785 0
1517 -784 0
1517 785 0
-1518 -784 785 0
1518 784 0
1518 -785 0
-1519 452 -451 0
1519 -452 0
1519 451 0
-1520 -452 451 0
1520 452 0
1520 -451 0
-1521 788 -789 0
1521 -788 0
1521 789 0
-1522 -788 789 0
1522 788 0
1522 -789 0
-1523 108 -107 0
1523 -108 0
1523 107 0
-1524 -108 107 0
1524 108 0
1524 -107 0
-1525 514 -513 0
1525 -514 0
1525 513 0
-1526 -514 513 0
1526 514 0
1526 -513 0
-1527 792 -793 0
1527 -792 0
1527 793 0
-1528 -792 793 0
1528 792 0
1528 -793 0
-1529 112 -111 0
1529 -112 0
1529 111 0
-1530 -112 111 0
1530 112 0
1530 -111 0
-1531 794 -795 0
1531 -794 0
1531 795 0
-1532 -794 795 0
1532 794 0
1532 -795 0
-1533 116 -115 0
1533 -116 0
1533 115 0
-1534 -116 115 0
1534 116 0
1534 -115 0
-1535 516 -515 0
1535 -516 0
1535 515 0
-1536 -516 515 0
1536 516 0
1536 -515 0
-1537 118 -117 0
1537 -118 0
1537 117 0
-1538 -118 117 0
1538 118 0
1538 -117 0
-1539 798 -799 0
1539 -798 0
1539 799 0
-1540 -798 799 0
1540 798 0
1540 -799 0
-1541 454 -453 0
1541 -454 0
1541 453 0
-1542 -454 453 0
1542 454 0
1542 -453 0
-1543 802 -803 0
1543 -802 0
1543 803 0
-1544 -802 803 0
1544 802 0
1544 -803 0
-1545 122 -121 0
1545 -122 0
1545 121 0
-1546 -122 121 0
1546 122 0
1546 -121 0
-1547 456 -455 0
1547 -456 0
1547 455 0
-1548 -456 455 0
1548 456 0
1548 -455 0
-1549 126 -125 0
1549 -126 0
1549 125 0
-1550 -126 125 0
1550 126 0
1550 -125 0
-1551 806 -807 0
1551 -806 0
1551 807 0
-1552 -806 807 0
1552 806 0
1552 -807 0
-1553 544 -543 0
1553 -544 0
1553 543 0
-1554 -544 543 0
1554 544 0
1554 -543 0
-1555 810 -811 0
1555 -810 0
1555 811 0
-1556 -810 811 0
1556 810 0
1556 -811 0
-1557 130 -129 0
1557 -130 0
1557 129 0
-1558 -130 129 0
1558 130 0
1558 -129 0
-1559 460 -459 0
1559 -460 0
1559 459 0
-1560 -460 459 0
1560 460 0
1560 -459 0
-1561 814 -815 0
1561 -814 0
1561 815 0
-1562 -814 815 0
1562 814 0
1562 -815 0
-1563 134 -133 0
1563 -134 0
1563 133 0
-1564 -134 133 0
1564 134 0
1564 -133 0
-1565 520 -519 0
1565 -520 0
1565 519 0
-1566 -520 519 0
1566 520 0
1566 -519 0
-1567 818 -819 0
1567 -818 0
1567 819 0
-1568 -818 819 0
1568 818 0
1568 -819 0
-1569 138 -137 0
1569 -138 0
1569 137 0
-1570 -138 137 0
1570 138 0
1570 -137 0
-1571 468 -467 0
1571 -468 0
1571 467 0
-1572 -468 467 0
1572 468 0
1572 -467 0
-1573 142 -141 0
1573 -142 0
1573 141 0
-1574 -142 141 0
1574 142 0
1574 -141 0
-1575 822 -823 0
1575 -822 0
1575 823 0
-1576 -822 823 0
1576 822 0
1576 -823 0
-1577 474 -473 0
1577 -474 0
1577 473 0
-1578 -474 473 0
1578 474 0
1578 -473 0
-1579 826 -827 0
1579 -826 0
1579 827 0
-1580 -826 827 0
1580 826 0
1580 -827 0
-1581 146 -145 0
1581 -146 0
1581 145 0
-1582 -146 145 0
1582 146 0
1582 -145 0
-1583 540 -539 0
1583 -540 0
1583 539 0
-1584 -540 539 0
1584 540 0
1584 -539 0
-1585 830 -831 0
1585 -830 0
1585 831 0
-1586 -830 831 0
1586 830 0
1586 -831 0
-1587 150 -149 0
1587 -150 0
1587 149 0
-1588 -150 149 0
1588 150 0
1588 -149 0
-1589 482 -481 0
1589 -482 0
1589 481 0
-1590 -482 481 0
1590 482 0
1590 -481 0
-1591 154 -153 0
1591 -154 0
1591 153 0
-1592 -154 153 0
1592 154 0
1592 -153 0
-1593 834 -835 0
1593 -834 0
1593 835 0
-1594 -834 835 0
1594 834 0
1594 -835 0
-1595 488 -487 0
1595 -488 0
1595 487 0
-1596 -488 487 0
1596 488 0
1596 -487 0
-1597 158 -157 0
1597 -158 0
1597 157 0
-1598 -158 157 0
1598 158 0
1598 -157 0
-1599 838 -839 0
1599 -838 0
1599 839 0
-1600 -838 839 0
1600 838 0
1600 -839 0
-1601 530 -529 0
1601 -530 0
1601 529 0
-1602 -530 529 0
1602 530 0
1602 -529 0
-1603 162 -161 0
1603 -162 0
1603 161 0
-1604 -162 161 0
1604 162 0
1604 -161 0
-1605 842 -843 0
1605 -842 0
1605 843 0
-1606 -842 843 0
1606 842 0
1606 -843 0
-1607 845 -581 0
1607 -845 0
1607 581 0
-1608 -845 581 0
1608 845 0
1608 -581 0
-1609 846 -582 0
1609 -846 0
1609 582 0
-1610 -846 582 0
1610 846 0
1610 -582 0
-1611 168 -167 0
1611 -168 0
1611 167 0
-1612 -168 167 0
1612 168 0
1612 -167 0
-1613 847 -848 0
1613 -847 0
1613 848 0
-1614 -847 848 0
1614 847 0
1614 -848 0
-1615 849 -671 0
1615 -849 0
1615 671 0
-1616 -849 671 0
1616 849 0
1616 -671 0
-1617 850 -672 0
1617 -850 0
1617 672 0
-1618 -850 672 0
1618 850 0
1618 -672 0
-1619 851 -738 0
1619 -851 0
1619 738 0
-1620 -851 738 0
1620 851 0
1620 -738 0
-1621 172 -171 0
1621 -172 0
1621 171 0
-1622 -172 171 0
1622 172 0
1622 -171 0
-1623 852 -837 0
1623 -852 0
1623 837 0
-1624 -852 837 0
1624 852 0
1624 -837 0
-1625 174 -173 0
1625 -174 0
1625 173 0
-1626 -174 173 0
1626 174 0
1626 -173 0
-1627 176 -175 0
1627 -176 0
1627 175 0
-1628 -176 175 0
1628 176 0
1628 -175 0
-1629 853 -854 0
1629 -853 0
1629 854 0
-1630 -853 854 0
1630 853 0
1630 -854 0
-1631 855 -856 0
1631 -855 0
1631 856 0
-1632 -855 856 0
1632 855 0
1632 -856 0
-1633 857 -574 0
1633 -857 0
1633 574 0
-1634 -857 574 0
1634 857 0
1634 -574 0
-1635 858 -813 0
1635 -858 0
1635 813 0
-1636 -858 813 0
1636 858 0
1636 -813 0
-1637 859 -553 0
1637 -859 0
1637 553 0
-1638 -859 553 0
1638 859 0
1638 -553 0
-1639 182 -181 0
1639 -182 0
1639 181 0
-1640 -182 181 0
1640 182 0
1640 -181 0
-1641 860 -861 0
1641 -860 0
1641 861 0
-1642 -860 861 0
1642 860 0
1642 -861 0
-1643 862 -625 0
1643 -862 0
1643 625 0
-1644 -862 625 0
1644 862 0
1644 -625 0
-1645 863 -624 0
1645 -863 0
1645 624 0
-1646 -863 624 0
1646 863 0
1646 -624 0
-1647 864 -742 0
1647 -864 0
1647 742 0
-1648 -864 742 0
1648 864 0
1648 -742 0
-1649 186 -185 0
1649 -186 0
1649 185 0
-1650 -186 185 0
1650 186 0
1650 -185 0
-1651 865 -766 0
1651 -865 0
1651 766 0
-1652 -865 766 0
1652 865 0
1652 -766 0
-1653 188 -187 0
1653 -188 0
1653 187 0
-1654 -188 187 0
1654 188 0
1654 -187 0
-1655 190 -189 0
1655 -190 0
1655 189 0
-1656 -190 189 0
1656 190 0
1656 -189 0
-1657 866 -773 0
1657 -866 0
1657 773 0
-1658 -866 773 0
1658 866 0
1658 -773 0
-1659 867 -589 0
1659 -867 0
1659 589 0
-1660 -867 589 0
1660 867 0
1660 -589 0
-1661 868 -869 0
1661 -868 0
1661 869 0
-1662 -868 869 0
1662 868 0
1662 -869 0
-1663 870 -641 0
1663 -870 0
1663 641 0
-1664 -870 641 0
1664 870 0
1664 -641 0
-1665 871 -872 0
1665 -871 0
1665 872 0
-1666 -871 872 0
1666 871 0
1666 -872 0
-1667 873 -568 0
1667 -873 0
1667 568 0
-1668 -873 568 0
1668 873 0
1668 -568 0
-1669 874 -875 0
1669 -874 0
1669 875 0
-1670 -874 875 0
1670 874 0
1670 -875 0
-1671 876 -660 0
1671 -876 0
1671 660 0
-1672 -876 660 0
1672 876 0
1672 -660 0
-1673 877 -878 0
1673 -877 0
1673 878 0
-1674 -877 878 0
1674 877 0
1674 -878 0
-1675 879 -556 0
1675 -879 0
1675 556 0
-1676 -879 556 0
1676 879 0
1676 -556 0
-1677 880 -881 0
1677 -880 0
1677 881 0
-1678 -880 881 0
1678 880 0
1678 -881 0
-1679 882 -604 0
1679 -882 0
1679 604 0
-1680 -882 604 0
1680 882 0
1680 -604 0
-1681 883 -884 0
1681 -883 0
1681 884 0
-1682 -883 884 0
1682 883 0
1682 -884 0
-1683 885 -886 0
1683 -885 0
1683 886 0
-1684 -885 886 0
1684 885 0
1684 -886 0
-1685 887 -618 0
1685 -887 0
1685 618 0
-1686 -887 618 0
1686 887 0
1686 -618 0
-1687 888 -598 0
1687 -888 0
1687 598 0
-1688 -888 598 0
1688 888 0
1688 -598 0
-1689 889 -829 0
1689 -889 0
1689 829 0
-1690 -889 829 0
1690 889 0
1690 -829 0
-1691 208 -207 0
1691 -208 0
1691 207 0
-1692 -208 207 0
1692 208 0
1692 -207 0
-1693 890 -809 0
1693 -890 0
1693 809 0
-1694 -890 809 0
1694 890 0
1694 -809 0
-1695 891 -577 0
1695 -891 0
1695 577 0
-1696 -891 577 0
1696 891 0
1696 -577 0
-1697 892 -578 0
1697 -892 0
1697 578 0
-1698 -892 578 0
1698 892 0
1698 -578 0
-1699 893 -791 0
1699 -893 0
1699 791 0
-1700 -893 791 0
1700 893 0
1700 -791 0
-1701 212 -211 0
1701 -212 0
1701 211 0
-1702 -212 211 0
1702 212 0
1702 -211 0
-1703 214 -213 0
1703 -214 0
1703 213 0
-1704 -214 213 0
1704 214 0
1704 -213 0
-1705 894 -797 0
1705 -894 0
1705 797 0
-1706 -894 797 0
1706 894 0
1706 -797 0
-1707 895 -592 0
1707 -895 0
1707 592 0
-1708 -895 592 0
1708 895 0
1708 -592 0
-1709 896 -805 0
1709 -896 0
1709 805 0
-1710 -896 805 0
1710 896 0
1710 -805 0
-1711 897 -898 0
1711 -897 0
1711 898 0
-1712 -897 898 0
1712 897 0
1712 -898 0
-1713 218 -217 0
1713 -218 0
1713 217 0
-1714 -218 217 0
1714 218 0
1714 -217 0
-1715 899 -607 0
1715 -899 0
1715 607 0
-1716 -899 607 0
1716 899 0
1716 -607 0
-1717 900 -608 0
1717 -900 0
1717 608 0
-1718 -900 608 0
1718 900 0
1718 -608 0
-1719 901 -611 0
1719 -901 0
1719 611 0
-1720 -901 611 0
1720 901 0
1720 -611 0
-1721 902 -719 0
1721 -902 0
1721 719 0
-1722 -902 719 0
1722 902 0
1722 -719 0
-1723 903 -904 0
1723 -903 0
1723 904 0
-1724 -903 904 0
1724 903 0
1724 -904 0
-1725 224 -223 0
1725 -224 0
1725 223 0
-1726 -224 223 0
1726 224 0
1726 -223 0
-1727 905 -707 0
1727 -905 0
1727 707 0
-1728 -905 707 0
1728 905 0
1728 -707 0
-1729 906 -675 0
1729 -906 0
1729 675 0
-1730 -906 675 0
1730 906 0
1730 -675 0
-1731 907 -908 0
1731 -907 0
1731 908 0
-1732 -907 908 0
1732 907 0
1732 -908 0
-1733 228 -227 0
1733 -228 0
1733 227 0
-1734 -228 227 0
1734 228 0
1734 -227 0
-1735 909 -571 0
1735 -909 0
1735 571 0
-1736 -909 571 0
1736 909 0
1736 -571 0
-1737 910 -758 0
1737 -910 0
1737 758 0
-1738 -910 758 0
1738 910 0
1738 -758 0
-1739 232 -231 0
1739 -232 0
1739 231 0
-1740 -232 231 0
1740 232 0
1740 -231 0
-1741 911 -681 0
1741 -911 0
1741 681 0
-1742 -911 681 0
1742 911 0
1742 -681 0
-1743 912 -586 0
1743 -912 0
1743 586 0
-1744 -912 586 0
1744 912 0
1744 -586 0
-1745 913 -585 0
1745 -913 0
1745 585 0
-1746 -913 585 0
1746 913 0
1746 -585 0
-1747 914 -644 0
1747 -914 0
1747 644 0
-1748 -914 644 0
1748 914 0
1748 -644 0
-1749 915 -916 0
1749 -915 0
1749 916 0
-1750 -915 916 0
1750 915 0
1750 -916 0
-1751 917 -918 0
1751 -917 0
1751 918 0
-1752 -917 918 0
1752 917 0
1752 -918 0
-1753 919 -601 0
1753 -919 0
1753 601 0
-1754 -919 601 0
1754 919 0
1754 -601 0
-1755 920 -565 0
1755 -920 0
1755 565 0
-1756 -920 565 0
1756 920 0
1756 -565 0
-1757 921 -711 0
1757 -921 0
1757 711 0
-1758 -921 711 0
1758 921 0
1758 -711 0
-1759 922 -723 0
1759 -922 0
1759 723 0
-1760 -922 723 0
1760 922 0
1760 -723 0
-1761 242 -241 0
1761 -242 0
1761 241 0
-1762 -242 241 0
1762 242 0
1762 -241 0
-1763 923 -924 0
1763 -923 0
1763 924 0
-1764 -923 924 0
1764 923 0
1764 -924 0
-1765 244 -243 0
1765 -244 0
1765 243 0
-1766 -244 243 0
1766 244 0
1766 -243 0
-1767 925 -926 0
1767 -925 0
1767 926 0
-1768 -925 926 0
1768 925 0
1768 -926 0
-1769 927 -634 0
1769 -927 0
1769 634 0
-1770 -927 634 0
1770 927 0
1770 -634 0
-1771 928 -621 0
1771 -928 0
1771 621 0
-1772 -928 621 0
1772 928 0
1772 -621 0
-1773 929 -930 0
1773 -929 0
1773 930 0
-1774 -929 930 0
1774 929 0
1774 -930 0
-1775 250 -249 0
1775 -250 0
1775 249 0
-1776 -250 249 0
1776 250 0
1776 -249 0
-1777 931 -685 0
1777 -931 0
1777 685 0
-1778 -931 685 0
1778 931 0
1778 -685 0
-1779 932 -663 0
1779 -932 0
1779 663 0
-1780 -932 663 0
1780 932 0
1780 -663 0
-1781 933 -664 0
1781 -933 0
1781 664 0
-1782 -933 664 0
1782 933 0
1782 -664 0
-1783 254 -253 0
1783 -254 0
1783 253 0
-1784 -254 253 0
1784 254 0
1784 -253 0
-1785 934 -817 0
1785 -934 0
1785 817 0
-1786 -934 817 0
1786 934 0
1786 -817 0
-1787 935 -936 0
1787 -935 0
1787 936 0
-1788 -935 936 0
1788 935 0
1788 -936 0
-1789 256 -255 0
1789 -256 0
1789 255 0
-1790 -256 255 0
1790 256 0
1790 -255 0
-1791 937 -546 0
1791 -937 0
1791 546 0
-1792 -937 546 0
1792 937 0
1792 -546 0
-1793 938 -699 0
1793 -938 0
1793 699 0
-1794 -938 699 0
1794 938 0
1794 -699 0
-1795 260 -259 0
1795 -260 0
1795 259 0
-1796 -260 259 0
1796 260 0
1796 -259 0
-1797 939 -940 0
1797 -939 0
1797 940 0
-1798 -939 940 0
1798 939 0
1798 -940 0
-1799 941 -653 0
1799 -941 0
1799 653 0
-1800 -941 653 0
1800 941 0
1800 -653 0
-1801 942 -801 0
1801 -942 0
1801 801 0
-1802 -942 801 0
1802 942 0
1802 -801 0
-1803 943 -734 0
1803 -943 0
1803 734 0
-1804 -943 734 0
1804 943 0
1804 -734 0
-1805 264 -263 0
1805 -264 0
1805 263 0
-1806 -264 263 0
1806 264 0
1806 -263 0
-1807 266 -265 0
1807 -266 0
1807 265 0
-1808 -266 265 0
1808 266 0
1808 -265 0
-1809 944 -945 0
1809 -944 0
1809 945 0
-1810 -944 945 0
1810 944 0
1810 -945 0
-1811 946 -614 0
1811 -946 0
1811 614 0
-1812 -946 614 0
1812 946 0
1812 -614 0
-1813 947 -615 0
1813 -947 0
1813 615 0
-1814 -947 615 0
1814 947 0
1814 -615 0
-1815 270 -269 0
1815 -270 0
1815 269 0
-1816 -270 269 0
1816 270 0
1816 -269 0
-1817 948 -715 0
1817 -948 0
1817 715 0
-1818 -948 715 0
1818 948 0
1818 -715 0
-1819 949 -631 0
1819 -949 0
1819 631 0
-1820 -949 631 0
1820 949 0
1820 -631 0
-1821 950 -749 0
1821 -950 0
1821 749 0
-1822 -950 749 0
1822 950 0
1822 -749 0
-1823 951 -833 0
1823 -951 0
1823 833 0
-1824 -951 833 0
1824 951 0
1824 -833 0
-1825 274 -273 0
1825 -274 0
1825 273 0
-1826 -274 273 0
1826 274 0
1826 -273 0
-1827 952 -953 0
1827 -952 0
1827 953 0
-1828 -952 953 0
1828 952 0
1828 -953 0
-1829 276 -275 0
1829 -276 0
1829 275 0
-1830 -276 275 0
1830 276 0
1830 -275 0
-1831 954 -657 0
1831 -954 0
1831 657 0
-1832 -954 657 0
1832 954 0
1832 -657 0
-1833 955 -656 0
1833 -955 0
1833 656 0
-1834 -955 656 0
1834 955 0
1834 -656 0
-1835 956 -691 0
1835 -956 0
1835 691 0
-1836 -956 691 0
1836 956 0
1836 -691 0
-1837 280 -279 0
1837 -280 0
1837 279 0
-1838 -280 279 0
1838 280 0
1838 -279 0
-1839 957 -753 0
1839 -957 0
1839 753 0
-1840 -957 753 0
1840 957 0
1840 -753 0
-1841 282 -281 0
1841 -282 0
1841 281 0
-1842 -282 281 0
1842 282 0
1842 -281 0
-1843 958 -667 0
1843 -958 0
1843 667 0
-1844 -958 667 0
1844 958 0
1844 -667 0
-1845 959 -668 0
1845 -959 0
1845 668 0
-1846 -959 668 0
1846 959 0
1846 -668 0
-1847 960 -647 0
1847 -960 0
1847 647 0
-1848 -960 647 0
1848 960 0
1848 -647 0
-1849 961 -762 0
1849 -961 0
1849 762 0
-1850 -961 762 0
1850 961 0
1850 -762 0
-1851 288 -287 0
1851 -288 0
1851 287 0
-1852 -288 287 0
1852 288 0
1852 -287 0
-1853 962 -963 0
1853 -962 0
1853 963 0
-1854 -962 963 0
1854 962 0
1854 -963 0
-1855 964 -787 0
1855 -964 0
1855 787 0
-1856 -964 787 0
1856 964 0
1856 -787 0
-1857 965 -650 0
1857 -965 0
1857 650 0
-1858 -965 650 0
1858 965 0
1858 -650 0
-1859 966 -695 0
1859 -966 0
1859 695 0
-1860 -966 695 0
1860 966 0
1860 -695 0
-1861 292 -291 0
1861 -292 0
1861 291 0
-1862 -292 291 0
1862 292 0
1862 -291 0
-1863 967 -968 0
1863 -967 0
1863 968 0
-1864 -967 968 0
1864 967 0
1864 -968 0
-1865 294 -293 0
1865 -294 0
1865 293 0
-1866 -294 293 0
1866 294 0
1866 -293 0
-1867 969 -595 0
1867 -969 0
1867 595 0
-1868 -969 595 0
1868 969 0
1868 -595 0
-1869 970 -777 0
1869 -970 0
1869 777 0
-1870 -970 777 0
1870 970 0
1870 -777 0
-1871 298 -297 0
1871 -298 0
1871 297 0
-1872 -298 297 0
1872 298 0
1872 -297 0
-1873 971 -825 0
1873 -971 0
1873 825 0
-1874 -971 825 0
1874 971 0
1874 -825 0
-1875 300 -299 0
1875 -300 0
1875 299 0
-1876 -300 299 0
1876 300 0
1876 -299 0
-1877 972 -973 0
1877 -972 0
1877 973 0
-1878 -972 973 0
1878 972 0
1878 -973 0
-1879 974 -550 0
1879 -974 0
1879 550 0
-1880 -974 550 0
1880 974 0
1880 -550 0
-1881 975 -549 0
1881 -975 0
1881 549 0
-1882 -975 549 0
1882 975 0
1882 -549 0
-1883 976 -559 0
1883 -976 0
1883 559 0
-1884 -976 559 0
1884 976 0
1884 -559 0
-1885 977 -728 0
1885 -977 0
1885 728 0
-1886 -977 728 0
1886 977 0
1886 -728 0
-1887 978 -781 0
1887 -978 0
1887 781 0
-1888 -978 781 0
1888 978 0
1888 -781 0
-1889 306 -305 0
1889 -306 0
1889 305 0
-1890 -306 305 0
1890 306 0
1890 -305 0
-1891 979 -841 0
1891 -979 0
1891 841 0
-1892 -979 841 0
1892 979 0
1892 -841 0
-1893 308 -307 0
1893 -308 0
1893 307 0
-1894 -308 307 0
1894 308 0
1894 -307 0
-1895 980 -562 0
1895 -980 0
1895 562 0
-1896 -980 562 0
1896 980 0
1896 -562 0
-1897 981 -703 0
1897 -981 0
1897 703 0
-1898 -981 703 0
1898 981 0
1898 -703 0
-1899 982 -821 0
1899 -982 0
1899 821 0
-1900 -982 821 0
1900 982 0
1900 -821 0
-1901 312 -311 0
1901 -312 0
1901 311 0
-1902 -312 311 0
1902 312 0
1902 -311 0
-1903 983 -984 0
1903 -983 0
1903 984 0
-1904 -983 984 0
1904 983 0
1904 -984 0
-1905 314 -313 0
1905 -314 0
1905 313 0
-1906 -314 313 0
1906 314 0
1906 -313 0
-1907 985 -638 0
1907 -985 0
1907 638 0
-1908 -985 638 0
1908 985 0
1908 -638 0
-1909 986 -637 0
1909 -986 0
1909 637 0
-1910 -986 637 0
1910 986 0
1910 -637 0
-1911 458 -457 0
1911 -458 0
1911 457 0
-1912 -458 457 0
1912 458 0
1912 -457 0
-1913 522 -521 0
1913 -522 0
1913 521 0
-1914 -522 521 0
1914 522 0
1914 -521 0
-1915 462 -461 0
1915 -462 0
1915 461 0
-1916 -462 461 0
1916 462 0
1916 -461 0
-1917 506 -505 0
1917 -506 0
1917 505 0
-1918 -506 505 0
1918 506 0
1918 -505 0
-1919 464 -463 0
1919 -464 0
1919 463 0
-1920 -464 463 0
1920 464 0
1920 -463 0
-1921 466 -465 0
1921 -466 0
1921 465 0
-1922 -466 465 0
1922 466 0
1922 -465 0
-1923 534 -533 0
1923 -534 0
1923 533 0
-1924 -534 533 0
1924 534 0
1924 -533 0
-1925 536 -535 0
1925 -536 0
1925 535 0
-1926 -536 535 0
1926 536 0
1926 -535 0
-1927 470 -469 0
1927 -470 0
1927 469 0
-1928 -470 469 0
1928 470 0
1928 -469 0
-1929 472 -471 0
1929 -472 0
1929 471 0
-1930 -472 471 0
1930 472 0
1930 -471 0
-1931 538 -537 0
1931 -538 0
1931 537 0
-1932 -538 537 0
1932 538 0
1932 -537 0
-1933 476 -475 0
1933 -476 0
1933 475 0
-1934 -476 475 0
1934 476 0
1934 -475 0
-1935 478 -477 0
1935 -478 0
1935 477 0
-1936 -478 477 0
1936 478 0
1936 -477 0
-1937 480 -479 0
1937 -480 0
1937 479 0
-1938 -480 479 0
1938 480 0
1938 -479 0
-1939 518 -517 0
1939 -518 0
1939 517 0
-1940 -518 517 0
1940 518 0
1940 -517 0
-1941 484 -483 0
1941 -484 0
1941 483 0
-1942 -484 483 0
1942 484 0
1942 -483 0
-1943 486 -485 0
1943 -486 0
1943 485 0
-1944 -486 485 0
1944 486 0
1944 -485 0
-1945 542 -541 0
1945 -542 0
1945 541 0
-1946 -542 541 0
1946 542 0
1946 -541 0
-1947 490 -489 0
1947 -490 0
1947 489 0
-1948 -490 489 0
1948 490 0
1948 -489 0
-1949 492 -491 0
1949 -492 0
1949 491 0
-1950 -492 491 0
1950 492 0
1950 -491 0
-1951 524 -523 0
1951 -524 0
1951 523 0
-1952 -524 523 0
1952 524 0
1952 -523 0
-1953 398 -397 0
1953 -398 0
1953 397 0
-1954 -398 397 0
1954 398 0
1954 -397 0
-1955 526 -525 0
1955 -526 0
1955 525 0
-1956 -526 525 0
1956 526 0
1956 -525 0
-1957 400 -399 0
1957 -400 0
1957 399 0
-1958 -400 399 0
1958 400 0
1958 -399 0
-1959 402 -401 0
1959 -402 0
1959 401 0
-1960 -402 401 0
1960 402 0
1960 -401 0
-1961 494 -493 0
1961 -494 0
1961 493 0
-1962 -494 493 0
1962 494 0
1962 -493 0
-1963 404 -403 0
1963 -404 0
1963 403 0
-1964 -404 403 0
1964 404 0
1964 -403 0
-1965 496 -495 0
1965 -496 0
1965 495 0
-1966 -496 495 0
1966 496 0
1966 -495 0
-1967 406 -405 0
1967 -406 0
1967 405 0
-1968 -406 405 0
1968 406 0
1968 -405 0
-1969 532 -531 0
1969 -532 0
1969 531 0
-1970 -532 531 0
1970 532 0
1970 -531 0
-1971 528 -527 0
1971 -528 0
1971 527 0
-1972 -528 527 0
1972 528 0
1972 -527 0
-1973 410 -409 0
1973 -410 0
1973 409 0
-1974 -410 409 0
1974 410 0
1974 -409 0
-1975 412 -411 0
1975 -412 0
1975 411 0
-1976 -412 411 0
1976 412 0
1976 -411 0
-1977 414 -413 0
1977 -414 0
1977 413 0
-1978 -414 413 0
1978 414 0
1978 -413 0
-1979 416 -415 0
1979 -416 0
1979 415 0
-1980 -416 415 0
1980 416 0
1980 -415 0
-1981 418 -417 0
1981 -418 0
1981 417 0
-1982 -418 417 0
1982 418 0
1982 -417 0
-1983 500 -499 0
1983 -500 0
1983 499 0
-1984 -500 499 0
1984 500 0
1984 -499 0
-1985 346 -345 0
1985 -346 0
1985 345 0
-1986 -346 345 0
1986 346 0
1986 -345 0
-1987 344 -343 0
1987 -344 0
1987 343 0
-1988 -344 343 0
1988 344 0
1988 -343 0
-1989 364 -363 0
1989 -364 0
1989 363 0
-1990 -364 363 0
1990 364 0
1990 -363 0
-1991 338 -337 0
1991 -338 0
1991 337 0
-1992 -338 337 0
1992 338 0
1992 -337 0
-1993 392 -391 0
1993 -392 0
1993 391 0
-1994 -392 391 0
1994 392 0
1994 -391 0
-1995 342 -341 0
1995 -342 0
1995 341 0
-1996 -342 341 0
1996 342 0
1996 -341 0
-1997 386 -385 0
1997 -386 0
1997 385 0
-1998 -386 385 0
1998 386 0
1998 -385 0
-1999 320 -319 0
1999 -320 0
1999 319 0
-2000 -320 319 0
2000 320 0
2000 -319 0
-2001 348 -347 0
2001 -348 0
2001 347 0
-2002 -348 347 0
2002 348 0
2002 -347 0
-2003 352 -351 0
2003 -352 0
2003 351 0
-2004 -352 351 0
2004 352 0
2004 -351 0
-2005 354 -353 0
2005 -354 0
2005 353 0
-2006 -354 353 0
2006 354 0
2006 -353 0
-2007 324 -323 0
2007 -324 0
2007 323 0
-2008 -324 323 0
2008 324 0
2008 -323 0
-2009 378 -377 0
2009 -378 0
2009 377 0
-2010 -378 377 0
2010 378 0
2010 -377 0
-2011 328 -327 0
2011 -328 0
2011 327 0
-2012 -328 327 0
2012 328 0
2012 -327 0
-2013 326 -325 0
2013 -326 0
2013 325 0
-2014 -326 325 0
2014 326 0
2014 -325 0
-2015 336 -335 0
2015 -336 0
2015 335 0
-2016 -336 335 0
2016 336 0
2016 -335 0
-2017 388 -387 0
2017 -388 0
2017 387 0
-2018 -388 387 0
2018 388 0
2018 -387 0
-2019 366 -365 0
2019 -366 0
2019 365 0
-2020 -366 365 0
2020 366 0
2020 -365 0
-2021 330 -329 0
2021 -330 0
2021 329 0
-2022 -330 329 0
2022 330 0
2022 -329 0
-2023 390 -389 0
2023 -390 0
2023 389 0
-2024 -390 389 0
2024 390 0
2024 -389 0
-2025 358 -357 0
2025 -358 0
2025 357 0
-2026 -358 357 0
2026 358 0
2026 -357 0
-2027 370 -369 0
2027 -370 0
2027 369 0
-2028 -370 369 0
2028 370 0
2028 -369 0
-2029 384 -383 0
2029 -384 0
2029 383 0
-2030 -384 383 0
2030 384 0
2030 -383 0
-2031 322 -321 0
2031 -322 0
2031 321 0
-2032 -322 321 0
2032 322 0
2032 -321 0
-2033 374 -373 0
2033 -374 0
2033 373 0
-2034 -374 373 0
2034 374 0
2034 -373 0
-2035 360 -359 0
2035 -360 0
2035 359 0
-2036 -360 359 0
2036 360 0
2036 -359 0
-2037 394 -393 0
2037 -394 0
2037 393 0
-2038 -394 393 0
2038 394 0
2038 -393 0
-2039 372 -371 0
2039 -372 0
2039 371 0
-2040 -372 371 0
2040 372 0
2040 -371 0
-2041 376 -375 0
2041 -376 0
2041 375 0
-2042 -376 375 0
2042 376 0
2042 -375 0
-2043 362 -361 0
2043 -362 0
2043 361 0
-2044 -362 361 0
2044 362 0
2044 -361 0
-2045 382 -381 0
2045 -382 0
2045 381 0
-2046 -382 381 0
2046 382 0
2046 -381 0
-2047 380 -379 0
2047 -380 0
2047 379 0
-2048 -380 379 0
2048 380 0
2048 -379 0
-2049 332 -331 0
2049 -332 0
2049 331 0
-2050 -332 331 0
2050 332 0
2050 -331 0
-2051 350 -349 0
2051 -350 0
2051 349 0
-2052 -350 349 0
2052 350 0
2052 -349 0
-2053 334 -333 0
2053 -334 0
2053 333 0
-2054 -334 333 0
2054 334 0
2054 -333 0
-2055 356 -355 0
2055 -356 0
2055 355 0
-2056 -356 355 0
2056 356 0
2056 -355 0
-2057 340 -339 0
2057 -340 0
2057 339 0
-2058 -340 339 0
2058 340 0
2058 -339 0
-2059 -47 48 0
2059 47 0
2059 -48 0
-2060 47 -48 0
2060 -47 0
2060 48 0
-2061 -199 200 0
2061 199 0
2061 -200 0
-2062 199 -200 0
2062 -199 0
2062 200 0
-2063 -341 1135 0
2063 341 0
2063 -1135 0
-2064 341 -1135 0
2064 -341 0
2064 1135 0
-2065 -241 1136 0
2065 241 0
2065 -1136 0
-2066 241 -1136 0
2066 -241 0
2066 1136 0
-2067 -243 1137 0
2067 243 0
2067 -1137 0
-2068 243 -1137 0
2068 -243 0
2068 1137 0
-2069 -35 36 0
2069 35 0
2069 -36 0
-2070 35 -36 0
2070 -35 0
2070 36 0
-2071 -245 246 0
2071 245 0
2071 -246 0
-2072 245 -246 0
2072 -245 0
2072 246 0
-2073 -205 206 0
2073 205 0
2073 -206 0
-2074 205 -206 0
2074 -205 0
2074 206 0
-2075 -347 1141 0
2075 347 0
2075 -1141 0
-2076 347 -1141 0
2076 -347 0
2076 1141 0
-2077 -505 1139 0
2077 505 0
2077 -1139 0
-2078 505 -1139 0
2078 -505 0
2078 1139 0
-2079 -41 1144 0
2079 41 0
2079 -1144 0
-2080 41 -1144 0
2080 -41 0
2080 1144 0
-2081 -45 1145 0
2081 45 0
2081 -1145 0
-2082 45 -1145 0
2082 -45 0
2082 1145 0
-2083 -49 1146 0
2083 49 0
2083 -1146 0
-2084 49 -1146 0
2084 -49 0
2084 1146 0
-2085 -53 1147 0
2085 53 0
2085 -1147 0
-2086 53 -1147 0
2086 -53 0
2086 1147 0
-2087 -33 1142 0
2087 33 0
2087 -1142 0
-2088 33 -1142 0
2088 -33 0
2088 1142 0
-2089 -37 1143 0
2089 37 0
2089 -1143 0
-2090 37 -1143 0
2090 -37 0
2090 1143 0
-2091 -289 290 0
2091 289 0
2091 -290 0
-2092 289 -290 0
2092 -289 0
2092 290 0
-2093 -295 296 0
2093 295 0
2093 -296 0
-2094 295 -296 0
2094 -295 0
2094 296 0
-2095 -531 1152 0
2095 531 0
2095 -1152 0
-2096 531 -1152 0
2096 -531 0
2096 1152 0
-2097 -183 184 0
2097 183 0
2097 -184 0
-2098 183 -184 0
2098 -183 0
2098 184 0
-2099 -107 1153 0
2099 107 0
2099 -1153 0
-2100 107 -1153 0
2100 -107 0
2100 1153 0
-2101 -365 1156 0
2101 365 0
2101 -1156 0
-2102 365 -1156 0
2102 -365 0
2102 1156 0
-2103 -109 110 0
2103 109 0
2103 -110 0
-2104 109 -110 0
2104 -109 0
2104 110 0
-2105 -393 1160 0
2105 393 0
2105 -1160 0
-2106 393 -1160 0
2106 -393 0
2106 1160 0
-2107 -19 20 0
2107 19 0
2107 -20 0
-2108 19 -20 0
2108 -19 0
2108 20 0
-2109 -513 1155 0
2109 513 0
2109 -1155 0
-2110 513 -1155 0
2110 -513 0
2110 1155 0
-2111 -291 1158 0
2111 291 0
2111 -1158 0
-2112 291 -1158 0
2112 -291 0
2112 1158 0
-2113 -427 1149 0
2113 427 0
2113 -1149 0
-2114 427 -1149 0
2114 -427 0
2114 1149 0
-2115 -433 1150 0
2115 433 0
2115 -1150 0
-2116 433 -1150 0
2116 -433 0
2116 1150 0
-2117 -293 1163 0
2117 293 0
2117 -1163 0
-2118 293 -1163 0
2118 -293 0
2118 1163 0
-2119 -181 1161 0
2119 181 0
2119 -1161 0
-2120 181 -1161 0
2120 -181 0
2120 1161 0
-2121 -287 1159 0
2121 287 0
2121 -1159 0
-2122 287 -1159 0
2122 -287 0
2122 1159 0
-2123 -247 248 0
2123 247 0
2123 -248 0
-2124 247 -248 0
2124 -247 0
2124 248 0
-2125 -87 88 0
2125 87 0
2125 -88 0
-2126 87 -88 0
2126 -87 0
2126 88 0
-2127 -335 1169 0
2127 335 0
2127 -1169 0
-2128 335 -1169 0
2128 -335 0
2128 1169 0
-2129 -81 1170 0
2129 81 0
2129 -1170 0
-2130 81 -1170 0
2130 -81 0
2130 1170 0
-2131 -85 1171 0
2131 85 0
2131 -1171 0
-2132 85 -1171 0
2132 -85 0
2132 1171 0
-2133 -89 1172 0
2133 89 0
2133 -1172 0
-2134 89 -1172 0
2134 -89 0
2134 1172 0
-2135 -447 1174 0
2135 447 0
2135 -1174 0
-2136 447 -1174 0
2136 -447 0
2136 1174 0
-2137 -363 1175 0
2137 363 0
2137 -1175 0
-2138 363 -1175 0
2138 -363 0
2138 1175 0
-2139 -191 192 0
2139 191 0
2139 -192 0
-2140 191 -192 0
2140 -191 0
2140 192 0
-2141 -193 194 0
2141 193 0
2141 -194 0
-2142 193 -194 0
2142 -193 0
2142 194 0
-2143 -95 96 0
2143 95 0
2143 -96 0
-2144 95 -96 0
2144 -95 0
2144 96 0
-2145 -387 1177 0
2145 387 0
2145 -1177 0
-2146 387 -1177 0
2146 -387 0
2146 1177 0
-2147 -23 24 0
2147 23 0
2147 -24 0
-2148 23 -24 0
2148 -23 0
2148 24 0
-2149 -259 1178 0
2149 259 0
2149 -1178 0
-2150 259 -1178 0
2150 -259 0
2150 1178 0
-2151 -413 1029 0
2151 413 0
2151 -1029 0
-2152 413 -1029 0
2152 -413 0
2152 1029 0
-2153 -261 262 0
2153 261 0
2153 -262 0
-2154 261 -262 0
2154 -261 0
2154 262 0
-2155 -227 1187 0
2155 227 0
2155 -1187 0
-2156 227 -1187 0
2156 -227 0
2156 1187 0
-2157 -437 1188 0
2157 437 0
2157 -1188 0
-2158 437 -1188 0
2158 -437 0
2158 1188 0
-2159 -229 230 0
2159 229 0
2159 -230 0
-2160 229 -230 0
2160 -229 0
2160 230 0
-2161 -391 1186 0
2161 391 0
2161 -1186 0
-2162 391 -1186 0
2162 -391 0
2162 1186 0
-2163 -197 198 0
2163 197 0
2163 -198 0
-2164 197 -198 0
2164 -197 0
2164 198 0
-2165 -31 32 0
2165 31 0
2165 -32 0
-2166 31 -32 0
2166 -31 0
2166 32 0
-2167 -485 1069 0
2167 485 0
2167 -1069 0
-2168 485 -1069 0
2168 -485 0
2168 1069 0
-2169 -185 1190 0
2169 185 0
2169 -1190 0
-2170 185 -1190 0
2170 -185 0
2170 1190 0
-2171 -353 1192 0
2171 353 0
2171 -1192 0
-2172 353 -1192 0
2172 -353 0
2172 1192 0
-2173 -63 64 0
2173 63 0
2173 -64 0
-2174 63 -64 0
2174 -63 0
2174 64 0
-2175 -17 1193 0
2175 17 0
2175 -1193 0
-2176 17 -1193 0
2176 -17 0
2176 1193 0
-2177 -21 1194 0
2177 21 0
2177 -1194 0
-2178 21 -1194 0
2178 -21 0
2178 1194 0
-2179 -25 1195 0
2179 25 0
2179 -1195 0
-2180 25 -1195 0
2180 -25 0
2180 1195 0
-2181 -189 1180 0
2181 189 0
2181 -1180 0
-2182 189 -1180 0
2182 -189 0
2182 1180 0
-2183 -449 1182 0
2183 449 0
2183 -1182 0
-2184 449 -1182 0
2184 -449 0
2184 1182 0
-2185 -425 1198 0
2185 425 0
2185 -1198 0
-2186 425 -1198 0
2186 -425 0
2186 1198 0
-2187 -525 1112 0
2187 525 0
2187 -1112 0
-2188 525 -1112 0
2188 -525 0
2188 1112 0
-2189 -83 84 0
2189 83 0
2189 -84 0
-2190 83 -84 0
2190 -83 0
2190 84 0
-2191 -451 1167 0
2191 451 0
2191 -1167 0
-2192 451 -1167 0
2192 -451 0
2192 1167 0
-2193 -325 1168 0
2193 325 0
2193 -1168 0
-2194 325 -1168 0
2194 -325 0
2194 1168 0
-2195 -187 1189 0
2195 187 0
2195 -1189 0
-2196 187 -1189 0
2196 -187 0
2196 1189 0
-2197 -421 1200 0
2197 421 0
2197 -1200 0
-2198 421 -1200 0
2198 -421 0
2198 1200 0
-2199 -489 1202 0
2199 489 0
2199 -1202 0
-2200 489 -1202 0
2200 -489 0
2200 1202 0
-2201 -39 40 0
2201 39 0
2201 -40 0
-2202 39 -40 0
2202 -39 0
2202 40 0
-2203 -269 1212 0
2203 269 0
2203 -1212 0
-2204 269 -1212 0
2204 -269 0
2204 1212 0
-2205 -271 272 0
2205 271 0
2205 -272 0
-2206 271 -272 0
2206 -271 0
2206 272 0
-2207 -123 124 0
2207 123 0
2207 -124 0
-2208 123 -124 0
2208 -123 0
2208 124 0
-2209 -201 202 0
2209 201 0
2209 -202 0
-2210 201 -202 0
2210 -201 0
2210 202 0
-2211 -385 1210 0
2211 385 0
2211 -1210 0
-2212 385 -1210 0
2212 -385 0
2212 1210 0
-2213 -329 1214 0
2213 329 0
2213 -1214 0
-2214 329 -1214 0
2214 -329 0
2214 1214 0
-2215 -465 1062 0
2215 465 0
2215 -1062 0
-2216 465 -1062 0
2216 -465 0
2216 1062 0
-2217 -115 1215 0
2217 115 0
2217 -1215 0
-2218 115 -1215 0
2218 -115 0
2218 1215 0
-2219 -117 1216 0
2219 117 0
2219 -1216 0
-2220 117 -1216 0
2220 -117 0
2220 1216 0
-2221 -221 222 0
2221 221 0
2221 -222 0
-2222 221 -222 0
2222 -221 0
2222 222 0
-2223 -455 1219 0
2223 455 0
2223 -1219 0
-2224 455 -1219 0
2224 -455 0
2224 1219 0
-2225 -267 268 0
2225 267 0
2225 -268 0
-2226 267 -268 0
2226 -267 0
2226 268 0
-2227 -371 1220 0
2227 371 0
2227 -1220 0
-2228 371 -1220 0
2228 -371 0
2228 1220 0
-2229 -55 56 0
2229 55 0
2229 -56 0
-2230 55 -56 0
2230 -55 0
2230 56 0
-2231 -217 1221 0
2231 217 0
2231 -1221 0
-2232 217 -1221 0
2232 -217 0
2232 1221 0
-2233 -219 220 0
2233 219 0
2233 -220 0
-2234 219 -220 0
2234 -219 0
2234 220 0
-2235 -265 1222 0
2235 265 0
2235 -1222 0
-2236 265 -1222 0
2236 -265 0
2236 1222 0
-2237 -453 1218 0
2237 453 0
2237 -1218 0
-2238 453 -1218 0
2238 -453 0
2238 1218 0
-2239 -493 1077 0
2239 493 0
2239 -1077 0
-2240 493 -1077 0
2240 -493 0
2240 1077 0
-2241 -127 128 0
2241 127 0
2241 -128 0
-2242 127 -128 0
2242 -127 0
2242 128 0
-2243 -389 1225 0
2243 389 0
2243 -1225 0
-2244 389 -1225 0
2244 -389 0
2244 1225 0
-2245 -211 1231 0
2245 211 0
2245 -1231 0
-2246 211 -1231 0
2246 -211 0
2246 1231 0
-2247 -213 1232 0
2247 213 0
2247 -1232 0
-2248 213 -1232 0
2248 -213 0
2248 1232 0
-2249 -215 216 0
2249 215 0
2249 -216 0
-2250 215 -216 0
2250 -215 0
2250 216 0
-2251 -297 1233 0
2251 297 0
2251 -1233 0
-2252 297 -1233 0
2252 -297 0
2252 1233 0
-2253 -299 1234 0
2253 299 0
2253 -1234 0
-2254 299 -1234 0
2254 -299 0
2254 1234 0
-2255 -301 302 0
2255 301 0
2255 -302 0
-2256 301 -302 0
2256 -301 0
2256 302 0
-2257 -147 148 0
2257 147 0
2257 -148 0
-2258 147 -148 0
2258 -147 0
2258 148 0
-2259 -331 1236 0
2259 331 0
2259 -1236 0
-2260 331 -1236 0
2260 -331 0
2260 1236 0
-2261 -119 120 0
2261 119 0
2261 -120 0
-2262 119 -120 0
2262 -119 0
2262 120 0
-2263 -303 304 0
2263 303 0
2263 -304 0
-2264 303 -304 0
2264 -303 0
2264 304 0
-2265 -509 1227 0
2265 509 0
2265 -1227 0
-2266 509 -1227 0
2266 -509 0
2266 1227 0
-2267 -523 1229 0
2267 523 0
2267 -1229 0
-2268 523 -1229 0
2268 -523 0
2268 1229 0
-2269 -263 1211 0
2269 263 0
2269 -1211 0
-2270 263 -1211 0
2270 -263 0
2270 1211 0
-2271 -121 1217 0
2271 121 0
2271 -1217 0
-2272 121 -1217 0
2272 -121 0
2272 1217 0
-2273 -383 1238 0
2273 383 0
2273 -1238 0
-2274 383 -1238 0
2274 -383 0
2274 1238 0
-2275 -499 1082 0
2275 499 0
2275 -1082 0
-2276 499 -1082 0
2276 -499 0
2276 1082 0
-2277 -501 1204 0
2277 501 0
2277 -1204 0
-2278 501 -1204 0
2278 -501 0
2278 1204 0
-2279 -445 1205 0
2279 445 0
2279 -1205 0
-2280 445 -1205 0
2280 -445 0
2280 1205 0
-2281 -135 136 0
2281 135 0
2281 -136 0
-2282 135 -136 0
2282 -135 0
2282 136 0
-2283 -57 1148 0
2283 57 0
2283 -1148 0
-2284 57 -1148 0
2284 -57 0
2284 1148 0
-2285 -29 1196 0
2285 29 0
2285 -1196 0
-2286 29 -1196 0
2286 -29 0
2286 1196 0
-2287 -357 1208 0
2287 357 0
2287 -1208 0
-2288 357 -1208 0
2288 -357 0
2288 1208 0
-2289 -515 1241 0
2289 515 0
2289 -1241 0
-2290 515 -1241 0
2290 -515 0
2290 1241 0
-2291 -533 1242 0
2291 533 0
2291 -1242 0
-2292 533 -1242 0
2292 -533 0
2292 1242 0
-2293 -99 100 0
2293 99 0
2293 -100 0
-2294 99 -100 0
2294 -99 0
2294 100 0
-2295 -361 1243 0
2295 361 0
2295 -1243 0
-2296 361 -1243 0
2296 -361 0
2296 1243 0
-2297 -195 196 0
2297 195 0
2297 -196 0
-2298 195 -196 0
2298 -195 0
2298 196 0
-2299 -337 1254 0
2299 337 0
2299 -1254 0
-2300 337 -1254 0
2300 -337 0
2300 1254 0
-2301 -27 28 0
2301 27 0
2301 -28 0
-2302 27 -28 0
2302 -27 0
2302 28 0
-2303 -313 1256 0
2303 313 0
2303 -1256 0
-2304 313 -1256 0
2304 -313 0
2304 1256 0
-2305 -315 316 0
2305 315 0
2305 -316 0
-2306 315 -316 0
2306 -315 0
2306 316 0
-2307 -369 1255 0
2307 369 0
2307 -1255 0
-2308 369 -1255 0
2308 -369 0
2308 1255 0
-2309 -317 318 0
2309 317 0
2309 -318 0
-2310 317 -318 0
2310 -317 0
2310 318 0
-2311 -143 144 0
2311 143 0
2311 -144 0
-2312 143 -144 0
2312 -143 0
2312 144 0
-2313 -517 1258 0
2313 517 0
2313 -1258 0
-2314 517 -1258 0
2314 -517 0
2314 1258 0
-2315 -311 1253 0
2315 311 0
2315 -1253 0
-2316 311 -1253 0
2316 -311 0
2316 1253 0
-2317 -129 1260 0
2317 129 0
2317 -1260 0
-2318 129 -1260 0
2318 -129 0
2318 1260 0
-2319 -133 1261 0
2319 133 0
2319 -1261 0
-2320 133 -1261 0
2320 -133 0
2320 1261 0
-2321 -137 1262 0
2321 137 0
2321 -1262 0
-2322 137 -1262 0
2322 -137 0
2322 1262 0
-2323 -253 1266 0
2323 253 0
2323 -1266 0
-2324 253 -1266 0
2324 -253 0
2324 1266 0
-2325 -255 1267 0
2325 255 0
2325 -1267 0
-2326 255 -1267 0
2326 -255 0
2326 1267 0
-2327 -257 258 0
2327 257 0
2327 -258 0
-2328 257 -258 0
2328 -257 0
2328 258 0
-2329 -249 1268 0
2329 249 0
2329 -1268 0
-2330 249 -1268 0
2330 -249 0
2330 1268 0
-2331 -251 252 0
2331 251 0
2331 -252 0
-2332 251 -252 0
2332 -251 0
2332 252 0
-2333 -467 1265 0
2333 467 0
2333 -1265 0
-2334 467 -1265 0
2334 -467 0
2334 1265 0
-2335 -519 1264 0
2335 519 0
2335 -1264 0
-2336 519 -1264 0
2336 -519 0
2336 1264 0
-2337 -91 92 0
2337 91 0
2337 -92 0
-2338 91 -92 0
2338 -91 0
2338 92 0
-2339 -375 1270 0
2339 375 0
2339 -1270 0
-2340 375 -1270 0
2340 -375 0
2340 1270 0
-2341 -373 1277 0
2341 373 0
2341 -1277 0
-2342 373 -1277 0
2342 -373 0
2342 1277 0
-2343 -171 1278 0
2343 171 0
2343 -1278 0
-2344 171 -1278 0
2344 -171 0
2344 1278 0
-2345 -173 1279 0
2345 173 0
2345 -1279 0
-2346 173 -1279 0
2346 -173 0
2346 1279 0
-2347 -175 1280 0
2347 175 0
2347 -1280 0
-2348 175 -1280 0
2348 -175 0
2348 1280 0
-2349 -177 178 0
2349 177 0
2349 -178 0
-2350 177 -178 0
2350 -177 0
2350 178 0
-2351 -285 286 0
2351 285 0
2351 -286 0
-2352 285 -286 0
2352 -285 0
2352 286 0
-2353 -159 160 0
2353 159 0
2353 -160 0
-2354 159 -160 0
2354 -159 0
2354 160 0
-2355 -43 44 0
2355 43 0
2355 -44 0
-2356 43 -44 0
2356 -43 0
2356 44 0
-2357 -319 1283 0
2357 319 0
2357 -1283 0
-2358 319 -1283 0
2358 -319 0
2358 1283 0
-2359 -203 204 0
2359 203 0
2359 -204 0
-2360 203 -204 0
2360 -203 0
2360 204 0
-2361 -483 1068 0
2361 483 0
2361 -1068 0
-2362 483 -1068 0
2362 -483 0
2362 1068 0
-2363 -223 1282 0
2363 223 0
2363 -1282 0
-2364 223 -1282 0
2364 -223 0
2364 1282 0
-2365 -225 226 0
2365 225 0
2365 -226 0
-2366 225 -226 0
2366 -225 0
2366 226 0
-2367 -59 60 0
2367 59 0
2367 -60 0
-2368 59 -60 0
2368 -59 0
2368 60 0
-2369 -351 1288 0
2369 351 0
2369 -1288 0
-2370 351 -1288 0
2370 -351 0
2370 1288 0
-2371 -497 1285 0
2371 497 0
2371 -1285 0
-2372 497 -1285 0
2372 -497 0
2372 1285 0
-2373 -165 166 0
2373 165 0
2373 -166 0
-2374 165 -166 0
2374 -165 0
2374 166 0
-2375 -2376 844 0
2375 2376 0
2375 -844 0
-2377 2376 -844 0
2377 -2376 0
2377 844 0
-2378 -145 1290 0
2378 145 0
2378 -1290 0
-2379 145 -1290 0
2379 -145 0
2379 1290 0
-2380 -149 1291 0
2380 149 0
2380 -1291 0
-2381 149 -1291 0
2381 -149 0
2381 1291 0
-2382 -153 1289 0
2382 153 0
2382 -1289 0
-2383 153 -1289 0
2383 -153 0
2383 1289 0
-2384 -157 1292 0
2384 157 0
2384 -1292 0
-2385 157 -1292 0
2385 -157 0
2385 1292 0
-2386 -161 1293 0
2386 161 0
2386 -1293 0
-2387 161 -1293 0
2387 -161 0
2387 1293 0
-2388 -349 1275 0
2388 349 0
2388 -1275 0
-2389 349 -1275 0
2389 -349 0
2389 1275 0
-2390 -139 140 0
2390 139 0
2390 -140 0
-2391 139 -140 0
2391 -139 0
2391 140 0
-2392 -535 1273 0
2392 535 0
2392 -1273 0
-2393 535 -1273 0
2393 -535 0
2393 1273 0
-2394 -487 1294 0
2394 487 0
2394 -1294 0
-2395 487 -1294 0
2395 -487 0
2395 1294 0
-2396 -273 1299 0
2396 273 0
2396 -1299 0
-2397 273 -1299 0
2397 -273 0
2397 1299 0
-2398 -275 1300 0
2398 275 0
2398 -1300 0
-2399 275 -1300 0
2399 -275 0
2399 1300 0
-2400 -277 278 0
2400 277 0
2400 -278 0
-2401 277 -278 0
2401 -277 0
2401 278 0
-2402 -71 72 0
2402 71 0
2402 -72 0
-2403 71 -72 0
2403 -71 0
2403 72 0
-2404 -237 238 0
2404 237 0
2404 -238 0
-2405 237 -238 0
2405 -237 0
2405 238 0
-2406 -327 1306 0
2406 327 0
2406 -1306 0
-2407 327 -1306 0
2407 -327 0
2407 1306 0
-2408 -281 1307 0
2408 281 0
2408 -1307 0
-2409 281 -1307 0
2409 -281 0
2409 1307 0
-2410 -283 284 0
2410 283 0
2410 -284 0
-2411 283 -284 0
2411 -283 0
2411 284 0
-2412 -239 240 0
2412 239 0
2412 -240 0
-2413 239 -240 0
2413 -239 0
2413 240 0
-2414 -75 76 0
2414 75 0
2414 -76 0
-2415 75 -76 0
2415 -75 0
2415 76 0
-2416 -15 16 0
2416 15 0
2416 -16 0
-2417 15 -16 0
2417 -15 0
2417 16 0
-2418 -179 180 0
2418 179 0
2418 -180 0
-2419 179 -180 0
2419 -179 0
2419 180 0
-2420 -343 1310 0
2420 343 0
2420 -1310 0
-2421 343 -1310 0
2421 -343 0
2421 1310 0
-2422 -419 1309 0
2422 419 0
2422 -1309 0
-2423 419 -1309 0
2423 -419 0
2423 1309 0
-2424 -527 1305 0
2424 527 0
2424 -1305 0
-2425 527 -1305 0
2425 -527 0
2425 1305 0
-2426 -511 1304 0
2426 511 0
2426 -1304 0
-2427 511 -1304 0
2427 -511 0
2427 1304 0
-2428 -377 1303 0
2428 377 0
2428 -1303 0
-2429 377 -1303 0
2429 -377 0
2429 1303 0
-2430 -321 1315 0
2430 321 0
2430 -1315 0
-2431 321 -1315 0
2431 -321 0
2431 1315 0
-2432 -521 1312 0
2432 521 0
2432 -1312 0
-2433 521 -1312 0
2433 -521 0
2433 1312 0
-2434 -279 1301 0
2434 279 0
2434 -1301 0
-2435 279 -1301 0
2435 -279 0
2435 1301 0
-2436 -155 156 0
2436 155 0
2436 -156 0
-2437 155 -156 0
2437 -155 0
2437 156 0
-2438 -207 1318 0
2438 207 0
2438 -1318 0
-2439 207 -1318 0
2439 -207 0
2439 1318 0
-2440 -209 210 0
2440 209 0
2440 -210 0
-2441 209 -210 0
2441 -209 0
2441 210 0
-2442 -131 132 0
2442 131 0
2442 -132 0
-2443 131 -132 0
2443 -131 0
2443 132 0
-2444 -339 1321 0
2444 339 0
2444 -1321 0
-2445 339 -1321 0
2445 -339 0
2445 1321 0
-2446 -305 1319 0
2446 305 0
2446 -1319 0
-2447 305 -1319 0
2447 -305 0
2447 1319 0
-2448 -307 1320 0
2448 307 0
2448 -1320 0
-2449 307 -1320 0
2449 -307 0
2449 1320 0
-2450 -309 310 0
2450 309 0
2450 -310 0
-2451 309 -310 0
2451 -309 0
2451 310 0
-2452 -367 1325 0
2452 367 0
2452 -1325 0
-2453 367 -1325 0
2453 -367 0
2453 1325 0
-2454 -167 1326 0
2454 167 0
2454 -1326 0
-2455 167 -1326 0
2455 -167 0
2455 1326 0
-2456 -7 8 0
2456 7 0
2456 -8 0
-2457 7 -8 0
2457 -7 0
2457 8 0
-2458 -169 170 0
2458 169 0
2458 -170 0
-2459 169 -170 0
2459 -169 0
2459 170 0
-2460 -461 1061 0
2460 461 0
2460 -1061 0
-2461 461 -1061 0
2461 -461 0
2461 1061 0
-2462 -67 68 0
2462 67 0
2462 -68 0
-2463 67 -68 0
2463 -67 0
2463 68 0
-2464 -231 1329 0
2464 231 0
2464 -1329 0
-2465 231 -1329 0
2465 -231 0
2465 1329 0
-2466 -233 234 0
2466 233 0
2466 -234 0
-2467 233 -234 0
2467 -233 0
2467 234 0
-2468 -235 236 0
2468 235 0
2468 -236 0
-2469 235 -236 0
2469 -235 0
2469 236 0
-2470 -323 1330 0
2470 323 0
2470 -1330 0
-2471 323 -1330 0
2471 -323 0
2471 1330 0
-2472 -5 1332 0
2472 5 0
2472 -1332 0
-2473 5 -1332 0
2473 -5 0
2473 1332 0
-2474 -9 10 0
2474 9 0
2474 -10 0
-2475 9 -10 0
2475 -9 0
2475 10 0
-2476 -345 1334 0
2476 345 0
2476 -1334 0
-2477 345 -1334 0
2477 -345 0
2477 1334 0
-2478 -65 1335 0
2478 65 0
2478 -1335 0
-2479 65 -1335 0
2479 -65 0
2479 1335 0
-2480 -69 1336 0
2480 69 0
2480 -1336 0
-2481 69 -1336 0
2481 -69 0
2481 1336 0
-2482 -73 1337 0
2482 73 0
2482 -1337 0
-2483 73 -1337 0
2483 -73 0
2483 1337 0
-2484 -103 104 0
2484 103 0
2484 -104 0
-2485 103 -104 0
2485 -103 0
2485 104 0
-2486 -381 1323 0
2486 381 0
2486 -1323 0
-2487 381 -1323 0
2487 -381 0
2487 1323 0
-2488 -439 1339 0
2488 439 0
2488 -1339 0
-2489 439 -1339 0
2489 -439 0
2489 1339 0
-2490 -79 80 0
2490 79 0
2490 -80 0
-2491 79 -80 0
2491 -79 0
2491 80 0
-2492 -495 1078 0
2492 495 0
2492 -1078 0
-2493 495 -1078 0
2493 -495 0
2493 1078 0
-2494 -11 12 0
2494 11 0
2494 -12 0
-2495 11 -12 0
2495 -11 0
2495 12 0
-2496 -141 1263 0
2496 141 0
2496 -1263 0
-2497 141 -1263 0
2497 -141 0
2497 1263 0
-2498 -529 1297 0
2498 529 0
2498 -1297 0
-2499 529 -1297 0
2499 -529 0
2499 1297 0
-2500 -359 1298 0
2500 359 0
2500 -1298 0
-2501 359 -1298 0
2501 -359 0
2501 1298 0
-2502 -443 1342 0
2502 443 0
2502 -1342 0
-2503 443 -1342 0
2503 -443 0
2503 1342 0
-2504 -441 1341 0
2504 441 0
2504 -1341 0
-2505 441 -1341 0
2505 -441 0
2505 1341 0
-2506 -113 114 0
2506 113 0
2506 -114 0
-2507 113 -114 0
2507 -113 0
2507 114 0
-2508 -429 1250 0
2508 429 0
2508 -1250 0
-2509 429 -1250 0
2509 -429 0
2509 1250 0
-2510 -503 1245 0
2510 503 0
2510 -1245 0
-2511 503 -1245 0
2511 -503 0
2511 1245 0
-2512 -379 1246 0
2512 379 0
2512 -1246 0
-2513 379 -1246 0
2513 -379 0
2513 1246 0
-2514 -93 1173 0
2514 93 0
2514 -1173 0
-2515 93 -1173 0
2515 -93 0
2515 1173 0
-2516 -111 1154 0
2516 111 0
2516 -1154 0
-2517 111 -1154 0
2517 -111 0
2517 1154 0
-2518 -541 1249 0
2518 541 0
2518 -1249 0
-2519 541 -1249 0
2519 -541 0
2519 1249 0
-2520 -491 1343 0
2520 491 0
2520 -1343 0
-2521 491 -1343 0
2521 -491 0
2521 1343 0
-2522 -101 1345 0
2522 101 0
2522 -1345 0
-2523 101 -1345 0
2523 -101 0
2523 1345 0
-2524 -333 1349 0
2524 333 0
2524 -1349 0
-2525 333 -1349 0
2525 -333 0
2525 1349 0
-2526 -537 1347 0
2526 537 0
2526 -1347 0
-2527 537 -1347 0
2527 -537 0
2527 1347 0
-2528 -543 1348 0
2528 543 0
2528 -1348 0
-2529 543 -1348 0
2529 -543 0
2529 1348 0
-2530 -481 1350 0
2530 481 0
2530 -1350 0
-2531 481 -1350 0
2531 -481 0
2531 1350 0
-2532 -163 164 0
2532 163 0
2532 -164 0
-2533 163 -164 0
2533 -163 0
2533 164 0
-2534 -3 4 0
2534 3 0
2534 -4 0
-2535 3 -4 0
2535 -3 0
2535 4 0
-2536 -507 1351 0
2536 507 0
2536 -1351 0
-2537 507 -1351 0
2537 -507 0
2537 1351 0
-2538 -97 1247 0
2538 97 0
2538 -1247 0
-2539 97 -1247 0
2539 -97 0
2539 1247 0
-2540 -13 1308 0
2540 13 0
2540 -1308 0
-2541 13 -1308 0
2541 -13 0
2541 1308 0
-2542 -395 1352 0
2542 395 0
2542 -1352 0
-2543 395 -1352 0
2543 -395 0
2543 1352 0
-2544 -105 1346 0
2544 105 0
2544 -1346 0
-2545 105 -1346 0
2545 -105 0
2545 1346 0
-2546 -407 1353 0
2546 407 0
2546 -1353 0
-2547 407 -1353 0
2547 -407 0
2547 1353 0
-2548 -539 1354 0
2548 539 0
2548 -1354 0
-2549 539 -1354 0
2549 -539 0
2549 1354 0
-2550 -423 1355 0
2550 423 0
2550 -1355 0
-2551 423 -1355 0
2551 -423 0
2551 1355 0
-2552 -431 1356 0
2552 431 0
2552 -1356 0
-2553 431 -1356 0
2553 -431 0
2553 1356 0
-2554 -125 1230 0
2554 125 0
2554 -1230 0
-2555 125 -1230 0
2555 -125 0
2555 1230 0
-2556 -435 1357 0
2556 435 0
2556 -1357 0
-2557 435 -1357 0
2557 -435 0
2557 1357 0
-2558 -51 52 0
2558 51 0
2558 -52 0
-2559 51 -52 0
2559 -51 0
2559 52 0
-2560 -459 1358 0
2560 459 0
2560 -1358 0
-2561 459 -1358 0
2561 -459 0
2561 1358 0
-2562 -61 1207 0
2562 61 0
2562 -1207 0
-2563 61 -1207 0
2563 -61 0
2563 1207 0
-2564 -151 152 0
2564 151 0
2564 -152 0
-2565 151 -152 0
2565 -151 0
2565 152 0
-2566 -473 1359 0
2566 473 0
2566 -1359 0
-2567 473 -1359 0
2567 -473 0
2567 1359 0
-2568 -355 1360 0
2568 355 0
2568 -1360 0
-2569 355 -1360 0
2569 -355 0
2569 1360 0
-2570 -77 1338 0
2570 77 0
2570 -1338 0
-2571 77 -1338 0
2571 -77 0
2571 1338 0
-2572 -1 2 0
2572 1 0
2572 -2 0
-2573 1 -2 0
2573 -1 0
2573 2 0
1361 0
1362 0
1363 0
1364 0
1365 0
1366 0
1367 0
1368 0
1369 0
1370 0
1371 0
1372 0
1373 0
1374 0
1375 0
1376 0
1377 0
1378 0
1379 0
1380 0
1381 0
1382 0
1383 0
1384 0
1385 0
1386 0
1387 0
1388 0
1389 0
1390 0
1391 0
1392 0
1393 0
1394 0
1395 0
1396 0
1397 0
1398 0
1399 0
1400 0
1401 0
1402 0
1403 0
1404 0
1405 0
1406 0
1407 0
1408 0
1409 0
1410 0
1411 0
1412 0
1413 0
1414 0
1415 0
1416 0
1417 0
1418 0
1419 0
1420 0
1421 0
1422 0
1423 0
1424 0
1425 0
1426 0
1427 0
1428 0
1429 0
1430 0
1431 0
1432 0
1433 0
1434 0
1435 0
1436 0
1437 0
1438 0
1439 0
1440 0
1441 0
1442 0
1443 0
1444 0
1445 0
1446 0
1447 0
1448 0
1449 0
1450 0
1451 0
1452 0
1453 0
1454 0
1455 0
1456 0
1457 0
1458 0
1459 0
1460 0
1461 0
1462 0
1463 0
1464 0
1465 0
1466 0
1467 0
1468 0
1469 0
1470 0
1471 0
1472 0
1473 0
1474 0
1475 0
1476 0
1477 0
1478 0
1479 0
1480 0
1481 0
1482 0
1483 0
1484 0
1485 0
1486 0
1487 0
1488 0
1489 0
1490 0
1491 0
1492 0
1493 0
1494 0
1495 0
1496 0
1497 0
1498 0
1499 0
1500 0
1501 0
1502 0
1503 0
1504 0
1505 0
1506 0
1507 0
1508 0
1509 0
1510 0
1511 0
1512 0
1513 0
1514 0
1515 0
1516 0
1517 0
1518 0
1519 0
1520 0
1521 0
1522 0
1523 0
1524 0
1525 0
1526 0
1527 0
1528 0
1529 0
1530 0
1531 0
1532 0
1533 0
1534 0
1535 0
1536 0
1537 0
1538 0
1539 0
1540 0
1541 0
1542 0
1543 0
1544 0
1545 0
1546 0
1547 0
1548 0
1549 0
1550 0
1551 0
1552 0
1553 0
1554 0
1555 0
1556 0
1557 0
1558 0
1559 0
1560 0
1561 0
1562 0
1563 0
1564 0
1565 0
1566 0
1567 0
1568 0
1569 0
1570 0
1571 0
1572 0
1573 0
1574 0
1575 0
1576 0
1577 0
1578 0
1579 0
1580 0
1581 0
1582 0
1583 0
1584 0
1585 0
1586 0
1587 0
1588 0
1589 0
1590 0
1591 0
1592 0
1593 0
1594 0
1595 0
1596 0
1597 0
1598 0
1599 0
1600 0
1601 0
1602 0
1603 0
1604 0
1605 0
1606 0
1607 0
1608 0
1609 0
1610 0
1611 0
1612 0
1613 0
1614 0
1615 0
1616 0
1617 0
1618 0
1619 0
1620 0
1621 0
1622 0
1623 0
1624 0
1625 0
1626 0
1627 0
1628 0
1629 0
1630 0
1631 0
1632 0
1633 0
1634 0
1635 0
1636 0
1637 0
1638 0
1639 0
1640 0
1641 0
1642 0
1643 0
1644 0
1645 0
1646 0
1647 0
1648 0
1649 0
1650 0
1651 0
1652 0
1653 0
1654 0
1655 0
1656 0
1657 0
1658 0
1659 0
1660 0
1661 0
1662 0
1663 0
1664 0
1665 0
1666 0
1667 0
1668 0
1669 0
1670 0
1671 0
1672 0
1673 0
1674 0
1675 0
1676 0
1677 0
1678 0
1679 0
1680 0
1681 0
1682 0
1683 0
1684 0
1685 0
1686 0
1687 0
1688 0
1689 0
1690 0
1691 0
1692 0
1693 0
1694 0
1695 0
1696 0
1697 0
1698 0
1699 0
1700 0
1701 0
1702 0
1703 0
1704 0
1705 0
1706 0
1707 0
1708 0
1709 0
1710 0
1711 0
1712 0
1713 0
1714 0
1715 0
1716 0
1717 0
1718 0
1719 0
1720 0
1721 0
1722 0
1723 0
1724 0
1725 0
1726 0
1727 0
1728 0
1729 0
1730 0
1731 0
1732 0
1733 0
1734 0
1735 0
1736 0
1737 0
1738 0
1739 0
1740 0
1741 0
1742 0
1743 0
1744 0
1745 0
1746 0
1747 0
1748 0
1749 0
1750 0
1751 0
1752 0
1753 0
1754 0
1755 0
1756 0
1757 0
1758 0
1759 0
1760 0
1761 0
1762 0
1763 0
1764 0
1765 0
1766 0
1767 0
1768 0
1769 0
1770 0
1771 0
1772 0
1773 0
1774 0
1775 0
1776 0
1777 0
1778 0
1779 0
1780 0
1781 0
1782 0
1783 0
1784 0
1785 0
1786 0
1787 0
1788 0
1789 0
1790 0
1791 0
1792 0
1793 0
1794 0
1795 0
1796 0
1797 0
1798 0
1799 0
1800 0
1801 0
1802 0
1803 0
1804 0
1805 0
1806 0
1807 0
1808 0
1809 0
1810 0
1811 0
1812 0
1813 0
1814 0
1815 0
1816 0
1817 0
1818 0
1819 0
1820 0
1821 0
1822 0
1823 0
1824 0
1825 0
1826 0
1827 0
1828 0
1829 0
1830 0
1831 0
1832 0
1833 0
1834 0
1835 0
1836 0
1837 0
1838 0
1839 0
1840 0
1841 0
1842 0
1843 0
1844 0
1845 0
1846 0
1847 0
1848 0
1849 0
1850 0
1851 0
1852 0
1853 0
1854 0
1855 0
1856 0
1857 0
1858 0
1859 0
1860 0
1861 0
1862 0
1863 0
1864 0
1865 0
1866 0
1867 0
1868 0
1869 0
1870 0
1871 0
1872 0
1873 0
1874 0
1875 0
1876 0
1877 0
1878 0
1879 0
1880 0
1881 0
1882 0
1883 0
1884 0
1885 0
1886 0
1887 0
1888 0
1889 0
1890 0
1891 0
1892 0
1893 0
1894 0
1895 0
1896 0
1897 0
1898 0
1899 0
1900 0
1901 0
1902 0
1903 0
1904 0
1905 0
1906 0
1907 0
1908 0
1909 0
1910 0
1911 0
1912 0
1913 0
1914 0
1915 0
1916 0
1917 0
1918 0
1919 0
1920 0
1921 0
1922 0
1923 0
1924 0
1925 0
1926 0
1927 0
1928 0
1929 0
1930 0
1931 0
1932 0
1933 0
1934 0
1935 0
1936 0
1937 0
1938 0
1939 0
1940 0
1941 0
1942 0
1943 0
1944 0
1945 0
1946 0
1947 0
1948 0
1949 0
1950 0
1951 0
1952 0
1953 0
1954 0
1955 0
1956 0
1957 0
1958 0
1959 0
1960 0
1961 0
1962 0
1963 0
1964 0
1965 0
1966 0
1967 0
1968 0
1969 0
1970 0
1971 0
1972 0
1973 0
1974 0
1975 0
1976 0
1977 0
1978 0
1979 0
1980 0
1981 0
1982 0
1983 0
1984 0
1985 0
1986 0
1987 0
1988 0
1989 0
1990 0
1991 0
1992 0
1993 0
1994 0
1995 0
1996 0
1997 0
1998 0
1999 0
2000 0
2001 0
2002 0
2003 0
2004 0
2005 0
2006 0
2007 0
2008 0
2009 0
2010 0
2011 0
2012 0
2013 0
2014 0
2015 0
2016 0
2017 0
2018 0
2019 0
2020 0
2021 0
2022 0
2023 0
2024 0
2025 0
2026 0
2027 0
2028 0
2029 0
2030 0
2031 0
2032 0
2033 0
2034 0
2035 0
2036 0
2037 0
2038 0
2039 0
2040 0
2041 0
2042 0
2043 0
2044 0
2045 0
2046 0
2047 0
2048 0
2049 0
2050 0
2051 0
2052 0
2053 0
2054 0
2055 0
2056 0
2057 0
2058 0
2059 0
2060 0
2061 0
2062 0
2063 0
2064 0
2065 0
2066 0
2067 0
2068 0
2069 0
2070 0
2071 0
2072 0
2073 0
2074 0
2075 0
2076 0
2077 0
2078 0
2079 0
2080 0
2081 0
2082 0
2083 0
2084 0
2085 0
2086 0
2087 0
2088 0
2089 0
2090 0
2091 0
2092 0
2093 0
2094 0
2095 0
2096 0
2097 0
2098 0
2099 0
2100 0
2101 0
2102 0
2103 0
2104 0
2105 0
2106 0
2107 0
2108 0
2109 0
2110 0
2111 0
2112 0
2113 0
2114 0
2115 0
2116 0
2117 0
2118 0
2119 0
2120 0
2121 0
2122 0
2123 0
2124 0
2125 0
2126 0
2127 0
2128 0
2129 0
2130 0
2131 0
2132 0
2133 0
2134 0
2135 0
2136 0
2137 0
2138 0
2139 0
2140 0
2141 0
2142 0
2143 0
2144 0
2145 0
2146 0
2147 0
2148 0
2149 0
2150 0
2151 0
2152 0
2153 0
2154 0
2155 0
2156 0
2157 0
2158 0
2159 0
2160 0
2161 0
2162 0
2163 0
2164 0
2165 0
2166 0
2167 0
2168 0
2169 0
2170 0
2171 0
2172 0
2173 0
2174 0
2175 0
2176 0
2177 0
2178 0
2179 0
2180 0
2181 0
2182 0
2183 0
2184 0
2185 0
2186 0
2187 0
2188 0
2189 0
2190 0
2191 0
2192 0
2193 0
2194 0
2195 0
2196 0
2197 0
2198 0
2199 0
2200 0
2201 0
2202 0
2203 0
2204 0
2205 0
2206 0
2207 0
2208 0
2209 0
2210 0
2211 0
2212 0
2213 0
2214 0
2215 0
2216 0
2217 0
2218 0
2219 0
2220 0
2221 0
2222 0
2223 0
2224 0
2225 0
2226 0
2227 0
2228 0
2229 0
2230 0
2231 0
2232 0
2233 0
2234 0
2235 0
2236 0
2237 0
2238 0
2239 0
2240 0
2241 0
2242 0
2243 0
2244 0
2245 0
2246 0
2247 0
2248 0
2249 0
2250 0
2251 0
2252 0
2253 0
2254 0
2255 0
2256 0
2257 0
2258 0
2259 0
2260 0
2261 0
2262 0
2263 0
2264 0
2265 0
2266 0
2267 0
2268 0
2269 0
2270 0
2271 0
2272 0
2273 0
2274 0
2275 0
2276 0
2277 0
2278 0
2279 0
2280 0
2281 0
2282 0
2283 0
2284 0
2285 0
2286 0
2287 0
2288 0
2289 0
2290 0
2291 0
2292 0
2293 0
2294 0
2295 0
2296 0
2297 0
2298 0
2299 0
2300 0
2301 0
2302 0
2303 0
2304 0
2305 0
2306 0
2307 0
2308 0
2309 0
2310 0
2311 0
2312 0
2313 0
2314 0
2315 0
2316 0
2317 0
2318 0
2319 0
2320 0
2321 0
2322 0
2323 0
2324 0
2325 0
2326 0
2327 0
2328 0
2329 0
2330 0
2331 0
2332 0
2333 0
2334 0
2335 0
2336 0
2337 0
2338 0
2339 0
2340 0
2341 0
2342 0
2343 0
2344 0
2345 0
2346 0
2347 0
2348 0
2349 0
2350 0
2351 0
2352 0
2353 0
2354 0
2355 0
2356 0
2357 0
2358 0
2359 0
2360 0
2361 0
2362 0
2363 0
2364 0
2365 0
2366 0
2367 0
2368 0
2369 0
2370 0
2371 0
2372 0
2373 0
2374 0
2375 0
2377 0
2378 0
2379 0
2380 0
2381 0
2382 0
2383 0
2384 0
2385 0
2386 0
2387 0
2388 0
2389 0
2390 0
2391 0
2392 0
2393 0
2394 0
2395 0
2396 0
2397 0
2398 0
2399 0
2400 0
2401 0
2402 0
2403 0
2404 0
2405 0
2406 0
2407 0
2408 0
2409 0
2410 0
2411 0
2412 0
2413 0
2414 0
2415 0
2416 0
2417 0
2418 0
2419 0
2420 0
2421 0
2422 0
2423 0
2424 0
2425 0
2426 0
2427 0
2428 0
2429 0
2430 0
2431 0
2432 0
2433 0
2434 0
2435 0
2436 0
2437 0
2438 0
2439 0
2440 0
2441 0
2442 0
2443 0
2444 0
2445 0
2446 0
2447 0
2448 0
2449 0
2450 0
2451 0
2452 0
2453 0
2454 0
2455 0
2456 0
2457 0
2458 0
2459 0
2460 0
2461 0
2462 0
2463 0
2464 0
2465 0
2466 0
2467 0
2468 0
2469 0
2470 0
2471 0
2472 0
2473 0
2474 0
2475 0
2476 0
2477 0
2478 0
2479 0
2480 0
2481 0
2482 0
2483 0
2484 0
2485 0
2486 0
2487 0
2488 0
2489 0
2490 0
2491 0
2492 0
2493 0
2494 0
2495 0
2496 0
2497 0
2498 0
2499 0
2500 0
2501 0
2502 0
2503 0
2504 0
2505 0
2506 0
2507 0
2508 0
2509 0
2510 0
2511 0
2512 0
2513 0
2514 0
2515 0
2516 0
2517 0
2518 0
2519 0
2520 0
2521 0
2522 0
2523 0
2524 0
2525 0
2526 0
2527 0
2528 0
2529 0
2530 0
2531 0
2532 0
2533 0
2534 0
2535 0
2536 0
2537 0
2538 0
2539 0
2540 0
2541 0
2542 0
2543 0
2544 0
2545 0
2546 0
2547 0
2548 0
2549 0
2550 0
2551 0
2552 0
2553 0
2554 0
2555 0
2556 0
2557 0
2558 0
2559 0
2560 0
2561 0
2562 0
2563 0
2564 0
2565 0
2566 0
2567 0
2568 0
2569 0
2570 0
2571 0
2572 0
2573 0
2 0
-475 0
-479 0
-469 0
-397 0
-417 0
-411 0
-415 0
-409 0
-471 0
-401 0
-403 0
-457 0
-405 0
-463 0
-477 0
-399 0
