c BC-S1.2
p cnf 804 2435
-1 2 3 4 5 6 7 8 9 10 11 12 13 14 0
1 -2 0
1 -3 0
1 -4 0
1 -5 0
1 -6 0
1 -7 0
1 -8 0
1 -9 0
1 -10 0
1 -11 0
1 -12 0
1 -13 0
1 -14 0
-15 16 17 18 19 20 21 22 23 24 25 26 27 0
15 -16 0
15 -17 0
15 -18 0
15 -19 0
15 -20 0
15 -21 0
15 -22 0
15 -23 0
15 -24 0
15 -25 0
15 -26 0
15 -27 0
-28 29 30 0
28 -29 0
28 -30 0
-31 32 33 34 35 36 37 38 39 40 41 42 0
31 -32 0
31 -33 0
31 -34 0
31 -35 0
31 -36 0
31 -37 0
31 -38 0
31 -39 0
31 -40 0
31 -41 0
31 -42 0
-43 44 45 0
43 -44 0
43 -45 0
-46 47 48 0
46 -47 0
46 -48 0
-49 50 51 52 53 54 55 56 57 58 59 0
49 -50 0
49 -51 0
49 -52 0
49 -53 0
49 -54 0
49 -55 0
49 -56 0
49 -57 0
49 -58 0
49 -59 0
-60 61 62 0
60 -61 0
60 -62 0
-63 64 65 0
63 -64 0
63 -65 0
-66 67 68 0
66 -67 0
66 -68 0
-69 70 71 72 73 74 75 76 77 78 0
69 -70 0
69 -71 0
69 -72 0
69 -73 0
69 -74 0
69 -75 0
69 -76 0
69 -77 0
69 -78 0
-79 80 81 0
79 -80 0
79 -81 0
-82 83 84 0
82 -83 0
82 -84 0
-85 86 87 0
85 -86 0
85 -87 0
-88 89 90 0
88 -89 0
88 -90 0
-91 92 93 94 95 96 97 98 99 0
91 -92 0
91 -93 0
91 -94 0
91 -95 0
91 -96 0
91 -97 0
91 -98 0
91 -99 0
-100 101 102 0
100 -101 0
100 -102 0
-103 104 105 0
103 -104 0
103 -105 0
-106 107 108 0
106 -107 0
106 -108 0
-109 110 111 0
109 -110 0
109 -111 0
-112 113 114 0
112 -113 0
112 -114 0
-115 116 117 118 119 120 121 122 0
115 -116 0
115 -117 0
115 -118 0
115 -119 0
115 -120 0
115 -121 0
115 -122 0
-123 124 125 0
123 -124 0
123 -125 0
-126 127 128 0
126 -127 0
126 -128 0
-129 130 131 0
129 -130 0
129 -131 0
-132 133 134 0
132 -133 0
132 -134 0
-135 136 137 0
135 -136 0
135 -137 0
-138 139 140 0
138 -139 0
138 -140 0
-141 142 143 144 145 146 147 0
141 -142 0
141 -143 0
141 -144 0
141 -145 0
141 -146 0
141 -147 0
-148 149 150 0
148 -149 0
148 -150 0
-151 152 153 0
151 -152 0
151 -153 0
-154 155 156 0
154 -155 0
154 -156 0
-157 158 159 0
157 -158 0
157 -159 0
-160 161 162 0
160 -161 0
160 -162 0
-163 164 165 0
163 -164 0
163 -165 0
-166 167 168 0
166 -167 0
166 -168 0
-169 170 171 172 173 174 0
169 -170 0
169 -171 0
169 -172 0
169 -173 0
169 -174 0
-175 176 177 0
175 -176 0
175 -177 0
-178 179 180 0
178 -179 0
178 -180 0
-181 182 183 0
181 -182 0
181 -183 0
-184 185 186 0
184 -185 0
184 -186 0
-187 188 189 0
187 -188 0
187 -189 0
-190 191 192 0
190 -191 0
190 -192 0
-193 194 195 0
193 -194 0
193 -195 0
-196 197 198 0
196 -197 0
196 -198 0
-199 200 201 202 203 0
199 -200 0
199 -201 0
199 -202 0
199 -203 0
-204 205 206 0
204 -205 0
204 -206 0
-207 208 209 0
207 -208 0
207 -209 0
-210 211 212 0
210 -211 0
210 -212 0
-213 214 215 0
213 -214 0
213 -215 0
-216 217 218 0
216 -217 0
216 -218 0
-219 220 221 0
219 -220 0
219 -221 0
-222 223 224 0
222 -223 0
222 -224 0
-225 226 227 0
225 -226 0
225 -227 0
-228 229 230 0
228 -229 0
228 -230 0
-231 232 233 234 0
231 -232 0
231 -233 0
231 -234 0
-235 236 237 0
235 -236 0
235 -237 0
-238 239 240 0
238 -239 0
238 -240 0
-241 242 243 0
241 -242 0
241 -243 0
-244 245 246 0
244 -245 0
244 -246 0
-247 248 249 0
247 -248 0
247 -249 0
-250 251 252 0
250 -251 0
250 -252 0
-253 254 255 0
253 -254 0
253 -255 0
-256 257 258 0
256 -257 0
256 -258 0
-259 260 261 0
259 -260 0
259 -261 0
-262 263 264 0
262 -263 0
262 -264 0
-265 266 267 0
265 -266 0
265 -267 0
-268 269 270 0
268 -269 0
268 -270 0
-271 272 273 0
271 -272 0
271 -273 0
-274 275 276 0
274 -275 0
274 -276 0
-277 278 279 0
277 -278 0
277 -279 0
-280 281 282 0
280 -281 0
280 -282 0
-283 284 285 0
283 -284 0
283 -285 0
-286 287 288 0
286 -287 0
286 -288 0
-289 290 291 0
289 -290 0
289 -291 0
-292 293 294 0
292 -293 0
292 -294 0
-295 296 297 0
295 -296 0
295 -297 0
-298 299 300 0
298 -299 0
298 -300 0
-301 302 303 0
301 -302 0
301 -303 0
-304 305 306 0
304 -305 0
304 -306 0
-307 308 309 0
307 -308 0
307 -309 0
-310 311 312 0
310 -311 0
310 -312 0
-313 314 315 0
313 -314 0
313 -315 0
-316 317 318 0
316 -317 0
316 -318 0
-319 320 321 0
319 -320 0
319 -321 0
-322 323 324 0
322 -323 0
322 -324 0
-325 326 327 0
325 -326 0
325 -327 0
-328 329 330 0
328 -329 0
328 -330 0
-331 332 333 0
331 -332 0
331 -333 0
-334 335 336 0
334 -335 0
334 -336 0
2 -337 338 -265 0
-2 337 0
-2 -338 0
-2 265 0
3 -339 340 -31 0
-3 339 0
-3 -340 0
-3 31 0
4 -341 342 -141 0
-4 341 0
-4 -342 0
-4 141 0
5 -343 344 -91 0
-5 343 0
-5 -344 0
-5 91 0
6 -345 346 -115 0
-6 345 0
-6 -346 0
-6 115 0
7 -347 0
-7 347 0
8 -348 349 -199 0
-8 348 0
-8 -349 0
-8 199 0
9 -350 351 -49 0
-9 350 0
-9 -351 0
-9 49 0
10 -352 353 -354 0
-10 352 0
-10 -353 0
-10 354 0
11 -355 356 -231 0
-11 355 0
-11 -356 0
-11 231 0
12 -357 358 -15 0
-12 357 0
-12 -358 0
-12 15 0
13 -359 360 -69 0
-13 359 0
-13 -360 0
-13 69 0
14 -361 362 -169 0
-14 361 0
-14 -362 0
-14 169 0
363 -351 -49 0
-363 351 0
-363 49 0
364 -344 -91 0
-364 344 0
-364 91 0
365 -362 -169 0
-365 362 0
-365 169 0
366 -367 -1 0
-366 367 0
-366 1 0
368 -353 -354 0
-368 353 0
-368 354 0
369 -358 -15 0
-369 358 0
-369 15 0
370 -338 -265 0
-370 338 0
-370 265 0
371 -346 -115 0
-371 346 0
-371 115 0
372 -349 -199 0
-372 349 0
-372 199 0
373 -360 -69 0
-373 360 0
-373 69 0
374 -340 -31 0
-374 340 0
-374 31 0
375 -356 -231 0
-375 356 0
-375 231 0
376 -342 -141 0
-376 342 0
-376 141 0
16 -377 204 -199 0
-16 377 0
-16 -204 0
-16 199 0
17 -378 43 -31 0
-17 378 0
-17 -43 0
-17 31 0
18 -379 0
-18 379 0
19 -380 100 -91 0
-19 380 0
-19 -100 0
-19 91 0
20 -381 268 -265 0
-20 381 0
-20 -268 0
-20 265 0
21 -382 175 -169 0
-21 382 0
-21 -175 0
-21 169 0
22 -383 60 -49 0
-22 383 0
-22 -60 0
-22 49 0
23 -384 79 -69 0
-23 384 0
-23 -79 0
-23 69 0
24 -385 148 -141 0
-24 385 0
-24 -148 0
-24 141 0
25 -386 123 -115 0
-25 386 0
-25 -123 0
-25 115 0
26 -387 301 -354 0
-26 387 0
-26 -301 0
-26 354 0
27 -388 235 -231 0
-27 388 0
-27 -235 0
-27 231 0
29 -357 0
-29 357 0
30 -358 0
-30 358 0
32 -389 271 -265 0
-32 389 0
-32 -271 0
-32 265 0
33 -390 151 -141 0
-33 390 0
-33 -151 0
-33 141 0
34 -391 178 -169 0
-34 391 0
-34 -178 0
-34 169 0
35 -392 82 -69 0
-35 392 0
-35 -82 0
-35 69 0
36 -393 126 -115 0
-36 393 0
-36 -126 0
-36 115 0
37 -394 207 -199 0
-37 394 0
-37 -207 0
-37 199 0
38 -395 0
-38 395 0
39 -396 304 -354 0
-39 396 0
-39 -304 0
-39 354 0
40 -397 238 -231 0
-40 397 0
-40 -238 0
-40 231 0
41 -398 103 -91 0
-41 398 0
-41 -103 0
-41 91 0
42 -399 63 -49 0
-42 399 0
-42 -63 0
-42 49 0
44 -340 0
-44 340 0
45 -339 0
-45 339 0
47 -378 0
-47 378 0
48 -43 0
-48 43 0
50 -400 274 -265 0
-50 400 0
-50 -274 0
-50 265 0
51 -401 307 -354 0
-51 401 0
-51 -307 0
-51 354 0
52 -402 241 -231 0
-52 402 0
-52 -241 0
-52 231 0
53 -403 181 -169 0
-53 403 0
-53 -181 0
-53 169 0
54 -404 0
-54 404 0
55 -405 129 -115 0
-55 405 0
-55 -129 0
-55 115 0
56 -406 85 -69 0
-56 406 0
-56 -85 0
-56 69 0
57 -407 210 -199 0
-57 407 0
-57 -210 0
-57 199 0
58 -408 106 -91 0
-58 408 0
-58 -106 0
-58 91 0
59 -409 154 -141 0
-59 409 0
-59 -154 0
-59 141 0
61 -351 0
-61 351 0
62 -350 0
-62 350 0
64 -383 0
-64 383 0
65 -60 0
-65 60 0
67 -63 0
-67 63 0
68 -399 0
-68 399 0
70 -410 213 -199 0
-70 410 0
-70 -213 0
-70 199 0
71 -411 109 -91 0
-71 411 0
-71 -109 0
-71 91 0
72 -412 132 -115 0
-72 412 0
-72 -132 0
-72 115 0
73 -413 184 -169 0
-73 413 0
-73 -184 0
-73 169 0
74 -414 157 -141 0
-74 414 0
-74 -157 0
-74 141 0
75 -415 310 -354 0
-75 415 0
-75 -310 0
-75 354 0
76 -416 244 -231 0
-76 416 0
-76 -244 0
-76 231 0
77 -417 0
-77 417 0
78 -418 277 -265 0
-78 418 0
-78 -277 0
-78 265 0
80 -360 0
-80 360 0
81 -359 0
-81 359 0
83 -384 0
-83 384 0
84 -79 0
-84 79 0
86 -82 0
-86 82 0
87 -392 0
-87 392 0
89 -406 0
-89 406 0
90 -85 0
-90 85 0
92 -419 280 -265 0
-92 419 0
-92 -280 0
-92 265 0
93 -420 247 -231 0
-93 420 0
-93 -247 0
-93 231 0
94 -421 216 -199 0
-94 421 0
-94 -216 0
-94 199 0
95 -422 313 -354 0
-95 422 0
-95 -313 0
-95 354 0
96 -423 187 -169 0
-96 423 0
-96 -187 0
-96 169 0
97 -424 0
-97 424 0
98 -425 135 -115 0
-98 425 0
-98 -135 0
-98 115 0
99 -426 160 -141 0
-99 426 0
-99 -160 0
-99 141 0
101 -344 0
-101 344 0
102 -343 0
-102 343 0
104 -100 0
-104 100 0
105 -380 0
-105 380 0
107 -398 0
-107 398 0
108 -103 0
-108 103 0
110 -408 0
-110 408 0
111 -106 0
-111 106 0
113 -109 0
-113 109 0
114 -411 0
-114 411 0
116 -427 283 -265 0
-116 427 0
-116 -283 0
-116 265 0
117 -428 0
-117 428 0
118 -429 190 -169 0
-118 429 0
-118 -190 0
-118 169 0
119 -430 250 -231 0
-119 430 0
-119 -250 0
-119 231 0
120 -431 163 -141 0
-120 431 0
-120 -163 0
-120 141 0
121 -432 316 -354 0
-121 432 0
-121 -316 0
-121 354 0
122 -433 219 -199 0
-122 433 0
-122 -219 0
-122 199 0
124 -345 0
-124 345 0
125 -346 0
-125 346 0
127 -123 0
-127 123 0
128 -386 0
-128 386 0
130 -126 0
-130 126 0
131 -393 0
-131 393 0
133 -405 0
-133 405 0
134 -129 0
-134 129 0
136 -412 0
-136 412 0
137 -132 0
-137 132 0
139 -135 0
-139 135 0
140 -425 0
-140 425 0
142 -434 0
-142 434 0
143 -435 286 -265 0
-143 435 0
-143 -286 0
-143 265 0
144 -436 193 -169 0
-144 436 0
-144 -193 0
-144 169 0
145 -437 222 -199 0
-145 437 0
-145 -222 0
-145 199 0
146 -438 253 -231 0
-146 438 0
-146 -253 0
-146 231 0
147 -439 319 -354 0
-147 439 0
-147 -319 0
-147 354 0
149 -342 0
-149 342 0
150 -341 0
-150 341 0
152 -148 0
-152 148 0
153 -385 0
-153 385 0
155 -151 0
-155 151 0
156 -390 0
-156 390 0
158 -154 0
-158 154 0
159 -409 0
-159 409 0
161 -414 0
-161 414 0
162 -157 0
-162 157 0
164 -160 0
-164 160 0
165 -426 0
-165 426 0
167 -431 0
-167 431 0
168 -163 0
-168 163 0
170 -440 289 -265 0
-170 440 0
-170 -289 0
-170 265 0
171 -441 256 -231 0
-171 441 0
-171 -256 0
-171 231 0
172 -442 0
-172 442 0
173 -443 322 -354 0
-173 443 0
-173 -322 0
-173 354 0
174 -444 225 -199 0
-174 444 0
-174 -225 0
-174 199 0
176 -362 0
-176 362 0
177 -361 0
-177 361 0
179 -175 0
-179 175 0
180 -382 0
-180 382 0
182 -391 0
-182 391 0
183 -178 0
-183 178 0
185 -181 0
-185 181 0
186 -403 0
-186 403 0
188 -413 0
-188 413 0
189 -184 0
-189 184 0
191 -187 0
-191 187 0
192 -423 0
-192 423 0
194 -429 0
-194 429 0
195 -190 0
-195 190 0
197 -436 0
-197 436 0
198 -193 0
-198 193 0
200 -445 259 -231 0
-200 445 0
-200 -259 0
-200 231 0
201 -446 292 -265 0
-201 446 0
-201 -292 0
-201 265 0
202 -447 0
-202 447 0
203 -448 325 -354 0
-203 448 0
-203 -325 0
-203 354 0
205 -348 0
-205 348 0
206 -349 0
-206 349 0
208 -377 0
-208 377 0
209 -204 0
-209 204 0
211 -207 0
-211 207 0
212 -394 0
-212 394 0
214 -407 0
-214 407 0
215 -210 0
-215 210 0
217 -213 0
-217 213 0
218 -410 0
-218 410 0
220 -216 0
-220 216 0
221 -421 0
-221 421 0
223 -433 0
-223 433 0
224 -219 0
-224 219 0
226 -437 0
-226 437 0
227 -222 0
-227 222 0
229 -225 0
-229 225 0
230 -444 0
-230 444 0
232 -449 0
-232 449 0
233 -450 295 -265 0
-233 450 0
-233 -295 0
-233 265 0
234 -451 328 -354 0
-234 451 0
-234 -328 0
-234 354 0
236 -356 0
-236 356 0
237 -355 0
-237 355 0
239 -388 0
-239 388 0
240 -235 0
-240 235 0
242 -238 0
-242 238 0
243 -397 0
-243 397 0
245 -402 0
-245 402 0
246 -241 0
-246 241 0
248 -416 0
-248 416 0
249 -244 0
-249 244 0
251 -420 0
-251 420 0
252 -247 0
-252 247 0
254 -250 0
-254 250 0
255 -430 0
-255 430 0
257 -438 0
-257 438 0
258 -253 0
-258 253 0
260 -441 0
-260 441 0
261 -256 0
-261 256 0
263 -259 0
-263 259 0
264 -445 0
-264 445 0
266 -452 331 -354 0
-266 452 0
-266 -331 0
-266 354 0
267 -453 0
-267 453 0
269 -338 0
-269 338 0
270 -337 0
-270 337 0
272 -381 0
-272 381 0
273 -268 0
-273 268 0
275 -389 0
-275 389 0
276 -271 0
-276 271 0
278 -274 0
-278 274 0
279 -400 0
-279 400 0
281 -418 0
-281 418 0
282 -277 0
-282 277 0
284 -280 0
-284 280 0
285 -419 0
-285 419 0
287 -283 0
-287 283 0
288 -427 0
-288 427 0
290 -286 0
-290 286 0
291 -435 0
-291 435 0
293 -440 0
-293 440 0
294 -289 0
-294 289 0
296 -292 0
-296 292 0
297 -446 0
-297 446 0
299 -450 0
-299 450 0
300 -295 0
-300 295 0
302 -353 0
-302 353 0
303 -352 0
-303 352 0
305 -301 0
-305 301 0
306 -387 0
-306 387 0
308 -396 0
-308 396 0
309 -304 0
-309 304 0
311 -401 0
-311 401 0
312 -307 0
-312 307 0
314 -310 0
-314 310 0
315 -415 0
-315 415 0
317 -313 0
-317 313 0
318 -422 0
-318 422 0
320 -432 0
-320 432 0
321 -316 0
-321 316 0
323 -439 0
-323 439 0
324 -319 0
-324 319 0
326 -443 0
-326 443 0
327 -322 0
-327 322 0
329 -325 0
-329 325 0
330 -448 0
-330 448 0
332 -451 0
-332 451 0
333 -328 0
-333 328 0
335 -331 0
-335 331 0
336 -452 0
-336 452 0
-454 7 -347 0
454 -7 0
454 347 0
-455 -7 347 0
455 7 0
455 -347 0
-456 -457 363 364 365 366 368 369 370 371 372 373 374 375 376 0
456 457 0
456 -363 0
456 -364 0
456 -365 0
456 -366 0
456 -368 0
456 -369 0
456 -370 0
456 -371 0
456 -372 0
456 -373 0
456 -374 0
456 -375 0
456 -376 0
-458 457 -363 0
458 -457 0
458 363 0
-459 457 -364 0
459 -457 0
459 364 0
-460 457 -365 0
460 -457 0
460 365 0
-461 457 -366 0
461 -457 0
461 366 0
-462 457 -368 0
462 -457 0
462 368 0
-463 457 -369 0
463 -457 0
463 369 0
-464 457 -370 0
464 -457 0
464 370 0
-465 457 -371 0
465 -457 0
465 371 0
-466 457 -372 0
466 -457 0
466 372 0
-467 457 -373 0
467 -457 0
467 373 0
-468 457 -374 0
468 -457 0
468 374 0
-469 457 -375 0
469 -457 0
469 375 0
-470 457 -376 0
470 -457 0
470 376 0
-471 18 -379 0
471 -18 0
471 379 0
-472 -18 379 0
472 18 0
472 -379 0
-473 29 -357 0
473 -29 0
473 357 0
-474 -29 357 0
474 29 0
474 -357 0
-475 30 -358 0
475 -30 0
475 358 0
-476 -30 358 0
476 30 0
476 -358 0
-477 38 -395 0
477 -38 0
477 395 0
-478 -38 395 0
478 38 0
478 -395 0
-479 44 -340 0
479 -44 0
479 340 0
-480 -44 340 0
480 44 0
480 -340 0
-481 45 -339 0
481 -45 0
481 339 0
-482 -45 339 0
482 45 0
482 -339 0
-483 47 -378 0
483 -47 0
483 378 0
-484 -47 378 0
484 47 0
484 -378 0
-485 48 -43 0
485 -48 0
485 43 0
-486 -48 43 0
486 48 0
486 -43 0
-487 54 -404 0
487 -54 0
487 404 0
-488 -54 404 0
488 54 0
488 -404 0
-489 61 -351 0
489 -61 0
489 351 0
-490 -61 351 0
490 61 0
490 -351 0
-491 62 -350 0
491 -62 0
491 350 0
-492 -62 350 0
492 62 0
492 -350 0
-493 64 -383 0
493 -64 0
493 383 0
-494 -64 383 0
494 64 0
494 -383 0
-495 65 -60 0
495 -65 0
495 60 0
-496 -65 60 0
496 65 0
496 -60 0
-497 67 -63 0
497 -67 0
497 63 0
-498 -67 63 0
498 67 0
498 -63 0
-499 68 -399 0
499 -68 0
499 399 0
-500 -68 399 0
500 68 0
500 -399 0
-501 77 -417 0
501 -77 0
501 417 0
-502 -77 417 0
502 77 0
502 -417 0
-503 80 -360 0
503 -80 0
503 360 0
-504 -80 360 0
504 80 0
504 -360 0
-505 81 -359 0
505 -81 0
505 359 0
-506 -81 359 0
506 81 0
506 -359 0
-507 83 -384 0
507 -83 0
507 384 0
-508 -83 384 0
508 83 0
508 -384 0
-509 84 -79 0
509 -84 0
509 79 0
-510 -84 79 0
510 84 0
510 -79 0
-511 86 -82 0
511 -86 0
511 82 0
-512 -86 82 0
512 86 0
512 -82 0
-513 87 -392 0
513 -87 0
513 392 0
-514 -87 392 0
514 87 0
514 -392 0
-515 89 -406 0
515 -89 0
515 406 0
-516 -89 406 0
516 89 0
516 -406 0
-517 90 -85 0
517 -90 0
517 85 0
-518 -90 85 0
518 90 0
518 -85 0
-519 97 -424 0
519 -97 0
519 424 0
-520 -97 424 0
520 97 0
520 -424 0
-521 101 -344 0
521 -101 0
521 344 0
-522 -101 344 0
522 101 0
522 -344 0
-523 102 -343 0
523 -102 0
523 343 0
-524 -102 343 0
524 102 0
524 -343 0
-525 104 -100 0
525 -104 0
525 100 0
-526 -104 100 0
526 104 0
526 -100 0
-527 105 -380 0
527 -105 0
527 380 0
-528 -105 380 0
528 105 0
528 -380 0
-529 107 -398 0
529 -107 0
529 398 0
-530 -107 398 0
530 107 0
530 -398 0
-531 108 -103 0
531 -108 0
531 103 0
-532 -108 103 0
532 108 0
532 -103 0
-533 110 -408 0
533 -110 0
533 408 0
-534 -110 408 0
534 110 0
534 -408 0
-535 111 -106 0
535 -111 0
535 106 0
-536 -111 106 0
536 111 0
536 -106 0
-537 113 -109 0
537 -113 0
537 109 0
-538 -113 109 0
538 113 0
538 -109 0
-539 114 -411 0
539 -114 0
539 411 0
-540 -114 411 0
540 114 0
540 -411 0
-541 117 -428 0
541 -117 0
541 428 0
-542 -117 428 0
542 117 0
542 -428 0
-543 124 -345 0
543 -124 0
543 345 0
-544 -124 345 0
544 124 0
544 -345 0
-545 125 -346 0
545 -125 0
545 346 0
-546 -125 346 0
546 125 0
546 -346 0
-547 127 -123 0
547 -127 0
547 123 0
-548 -127 123 0
548 127 0
548 -123 0
-549 128 -386 0
549 -128 0
549 386 0
-550 -128 386 0
550 128 0
550 -386 0
-551 130 -126 0
551 -130 0
551 126 0
-552 -130 126 0
552 130 0
552 -126 0
-553 131 -393 0
553 -131 0
553 393 0
-554 -131 393 0
554 131 0
554 -393 0
-555 133 -405 0
555 -133 0
555 405 0
-556 -133 405 0
556 133 0
556 -405 0
-557 134 -129 0
557 -134 0
557 129 0
-558 -134 129 0
558 134 0
558 -129 0
-559 136 -412 0
559 -136 0
559 412 0
-560 -136 412 0
560 136 0
560 -412 0
-561 137 -132 0
561 -137 0
561 132 0
-562 -137 132 0
562 137 0
562 -132 0
-563 139 -135 0
563 -139 0
563 135 0
-564 -139 135 0
564 139 0
564 -135 0
-565 140 -425 0
565 -140 0
565 425 0
-566 -140 425 0
566 140 0
566 -425 0
-567 142 -434 0
567 -142 0
567 434 0
-568 -142 434 0
568 142 0
568 -434 0
-569 149 -342 0
569 -149 0
569 342 0
-570 -149 342 0
570 149 0
570 -342 0
-571 150 -341 0
571 -150 0
571 341 0
-572 -150 341 0
572 150 0
572 -341 0
-573 152 -148 0
573 -152 0
573 148 0
-574 -152 148 0
574 152 0
574 -148 0
-575 153 -385 0
575 -153 0
575 385 0
-576 -153 385 0
576 153 0
576 -385 0
-577 155 -151 0
577 -155 0
577 151 0
-578 -155 151 0
578 155 0
578 -151 0
-579 156 -390 0
579 -156 0
579 390 0
-580 -156 390 0
580 156 0
580 -390 0
-581 158 -154 0
581 -158 0
581 154 0
-582 -158 154 0
582 158 0
582 -154 0
-583 159 -409 0
583 -159 0
583 409 0
-584 -159 409 0
584 159 0
584 -409 0
-585 161 -414 0
585 -161 0
585 414 0
-586 -161 414 0
586 161 0
586 -414 0
-587 162 -157 0
587 -162 0
587 157 0
-588 -162 157 0
588 162 0
588 -157 0
-589 164 -160 0
589 -164 0
589 160 0
-590 -164 160 0
590 164 0
590 -160 0
-591 165 -426 0
591 -165 0
591 426 0
-592 -165 426 0
592 165 0
592 -426 0
-593 167 -431 0
593 -167 0
593 431 0
-594 -167 431 0
594 167 0
594 -431 0
-595 168 -163 0
595 -168 0
595 163 0
-596 -168 163 0
596 168 0
596 -163 0
-597 172 -442 0
597 -172 0
597 442 0
-598 -172 442 0
598 172 0
598 -442 0
-599 176 -362 0
599 -176 0
599 362 0
-600 -176 362 0
600 176 0
600 -362 0
-601 177 -361 0
601 -177 0
601 361 0
-602 -177 361 0
602 177 0
602 -361 0
-603 179 -175 0
603 -179 0
603 175 0
-604 -179 175 0
604 179 0
604 -175 0
-605 180 -382 0
605 -180 0
605 382 0
-606 -180 382 0
606 180 0
606 -382 0
-607 182 -391 0
607 -182 0
607 391 0
-608 -182 391 0
608 182 0
608 -391 0
-609 183 -178 0
609 -183 0
609 178 0
-610 -183 178 0
610 183 0
610 -178 0
-611 185 -181 0
611 -185 0
611 181 0
-612 -185 181 0
612 185 0
612 -181 0
-613 186 -403 0
613 -186 0
613 403 0
-614 -186 403 0
614 186 0
614 -403 0
-615 188 -413 0
615 -188 0
615 413 0
-616 -188 413 0
616 188 0
616 -413 0
-617 189 -184 0
617 -189 0
617 184 0
-618 -189 184 0
618 189 0
618 -184 0
-619 191 -187 0
619 -191 0
619 187 0
-620 -191 187 0
620 191 0
620 -187 0
-621 192 -423 0
621 -192 0
621 423 0
-622 -192 423 0
622 192 0
622 -423 0
-623 194 -429 0
623 -194 0
623 429 0
-624 -194 429 0
624 194 0
624 -429 0
-625 195 -190 0
625 -195 0
625 190 0
-626 -195 190 0
626 195 0
626 -190 0
-627 197 -436 0
627 -197 0
627 436 0
-628 -197 436 0
628 197 0
628 -436 0
-629 198 -193 0
629 -198 0
629 193 0
-630 -198 193 0
630 198 0
630 -193 0
-631 202 -447 0
631 -202 0
631 447 0
-632 -202 447 0
632 202 0
632 -447 0
-633 205 -348 0
633 -205 0
633 348 0
-634 -205 348 0
634 205 0
634 -348 0
-635 206 -349 0
635 -206 0
635 349 0
-636 -206 349 0
636 206 0
636 -349 0
-637 208 -377 0
637 -208 0
637 377 0
-638 -208 377 0
638 208 0
638 -377 0
-639 209 -204 0
639 -209 0
639 204 0
-640 -209 204 0
640 209 0
640 -204 0
-641 211 -207 0
641 -211 0
641 207 0
-642 -211 207 0
642 211 0
642 -207 0
-643 212 -394 0
643 -212 0
643 394 0
-644 -212 394 0
644 212 0
644 -394 0
-645 214 -407 0
645 -214 0
645 407 0
-646 -214 407 0
646 214 0
646 -407 0
-647 215 -210 0
647 -215 0
647 210 0
-648 -215 210 0
648 215 0
648 -210 0
-649 217 -213 0
649 -217 0
649 213 0
-650 -217 213 0
650 217 0
650 -213 0
-651 218 -410 0
651 -218 0
651 410 0
-652 -218 410 0
652 218 0
652 -410 0
-653 220 -216 0
653 -220 0
653 216 0
-654 -220 216 0
654 220 0
654 -216 0
-655 221 -421 0
655 -221 0
655 421 0
-656 -221 421 0
656 221 0
656 -421 0
-657 223 -433 0
657 -223 0
657 433 0
-658 -223 433 0
658 223 0
658 -433 0
-659 224 -219 0
659 -224 0
659 219 0
-660 -224 219 0
660 224 0
660 -219 0
-661 226 -437 0
661 -226 0
661 437 0
-662 -226 437 0
662 226 0
662 -437 0
-663 227 -222 0
663 -227 0
663 222 0
-664 -227 222 0
664 227 0
664 -222 0
-665 229 -225 0
665 -229 0
665 225 0
-666 -229 225 0
666 229 0
666 -225 0
-667 230 -444 0
667 -230 0
667 444 0
-668 -230 444 0
668 230 0
668 -444 0
-669 232 -449 0
669 -232 0
669 449 0
-670 -232 449 0
670 232 0
670 -449 0
-671 236 -356 0
671 -236 0
671 356 0
-672 -236 356 0
672 236 0
672 -356 0
-673 237 -355 0
673 -237 0
673 355 0
-674 -237 355 0
674 237 0
674 -355 0
-675 239 -388 0
675 -239 0
675 388 0
-676 -239 388 0
676 239 0
676 -388 0
-677 240 -235 0
677 -240 0
677 235 0
-678 -240 235 0
678 240 0
678 -235 0
-679 242 -238 0
679 -242 0
679 238 0
-680 -242 238 0
680 242 0
680 -238 0
-681 243 -397 0
681 -243 0
681 397 0
-682 -243 397 0
682 243 0
682 -397 0
-683 245 -402 0
683 -245 0
683 402 0
-684 -245 402 0
684 245 0
684 -402 0
-685 246 -241 0
685 -246 0
685 241 0
-686 -246 241 0
686 246 0
686 -241 0
-687 248 -416 0
687 -248 0
687 416 0
-688 -248 416 0
688 248 0
688 -416 0
-689 249 -244 0
689 -249 0
689 244 0
-690 -249 244 0
690 249 0
690 -244 0
-691 251 -420 0
691 -251 0
691 420 0
-692 -251 420 0
692 251 0
692 -420 0
-693 252 -247 0
693 -252 0
693 247 0
-694 -252 247 0
694 252 0
694 -247 0
-695 254 -250 0
695 -254 0
695 250 0
-696 -254 250 0
696 254 0
696 -250 0
-697 255 -430 0
697 -255 0
697 430 0
-698 -255 430 0
698 255 0
698 -430 0
-699 257 -438 0
699 -257 0
699 438 0
-700 -257 438 0
700 257 0
700 -438 0
-701 258 -253 0
701 -258 0
701 253 0
-702 -258 253 0
702 258 0
702 -253 0
-703 260 -441 0
703 -260 0
703 441 0
-704 -260 441 0
704 260 0
704 -441 0
-705 261 -256 0
705 -261 0
705 256 0
-706 -261 256 0
706 261 0
706 -256 0
-707 263 -259 0
707 -263 0
707 259 0
-708 -263 259 0
708 263 0
708 -259 0
-709 264 -445 0
709 -264 0
709 445 0
-710 -264 445 0
710 264 0
710 -445 0
-711 267 -453 0
711 -267 0
711 453 0
-712 -267 453 0
712 267 0
712 -453 0
-713 269 -338 0
713 -269 0
713 338 0
-714 -269 338 0
714 269 0
714 -338 0
-715 270 -337 0
715 -270 0
715 337 0
-716 -270 337 0
716 270 0
716 -337 0
-717 272 -381 0
717 -272 0
717 381 0
-718 -272 381 0
718 272 0
718 -381 0
-719 273 -268 0
719 -273 0
719 268 0
-720 -273 268 0
720 273 0
720 -268 0
-721 275 -389 0
721 -275 0
721 389 0
-722 -275 389 0
722 275 0
722 -389 0
-723 276 -271 0
723 -276 0
723 271 0
-724 -276 271 0
724 276 0
724 -271 0
-725 278 -274 0
725 -278 0
725 274 0
-726 -278 274 0
726 278 0
726 -274 0
-727 279 -400 0
727 -279 0
727 400 0
-728 -279 400 0
728 279 0
728 -400 0
-729 281 -418 0
729 -281 0
729 418 0
-730 -281 418 0
730 281 0
730 -418 0
-731 282 -277 0
731 -282 0
731 277 0
-732 -282 277 0
732 282 0
732 -277 0
-733 284 -280 0
733 -284 0
733 280 0
-734 -284 280 0
734 284 0
734 -280 0
-735 285 -419 0
735 -285 0
735 419 0
-736 -285 419 0
736 285 0
736 -419 0
-737 287 -283 0
737 -287 0
737 283 0
-738 -287 283 0
738 287 0
738 -283 0
-739 288 -427 0
739 -288 0
739 427 0
-740 -288 427 0
740 288 0
740 -427 0
-741 290 -286 0
741 -290 0
741 286 0
-742 -290 286 0
742 290 0
742 -286 0
-743 291 -435 0
743 -291 0
743 435 0
-744 -291 435 0
744 291 0
744 -435 0
-745 293 -440 0
745 -293 0
745 440 0
-746 -293 440 0
746 293 0
746 -440 0
-747 294 -289 0
747 -294 0
747 289 0
-748 -294 289 0
748 294 0
748 -289 0
-749 296 -292 0
749 -296 0
749 292 0
-750 -296 292 0
750 296 0
750 -292 0
-751 297 -446 0
751 -297 0
751 446 0
-752 -297 446 0
752 297 0
752 -446 0
-753 299 -450 0
753 -299 0
753 450 0
-754 -299 450 0
754 299 0
754 -450 0
-755 300 -295 0
755 -300 0
755 295 0
-756 -300 295 0
756 300 0
756 -295 0
-757 302 -353 0
757 -302 0
757 353 0
-758 -302 353 0
758 302 0
758 -353 0
-759 303 -352 0
759 -303 0
759 352 0
-760 -303 352 0
760 303 0
760 -352 0
-761 305 -301 0
761 -305 0
761 301 0
-762 -305 301 0
762 305 0
762 -301 0
-763 306 -387 0
763 -306 0
763 387 0
-764 -306 387 0
764 306 0
764 -387 0
-765 308 -396 0
765 -308 0
765 396 0
-766 -308 396 0
766 308 0
766 -396 0
-767 309 -304 0
767 -309 0
767 304 0
-768 -309 304 0
768 309 0
768 -304 0
-769 311 -401 0
769 -311 0
769 401 0
-770 -311 401 0
770 311 0
770 -401 0
-771 312 -307 0
771 -312 0
771 307 0
-772 -312 307 0
772 312 0
772 -307 0
-773 314 -310 0
773 -314 0
773 310 0
-774 -314 310 0
774 314 0
774 -310 0
-775 315 -415 0
775 -315 0
775 415 0
-776 -315 415 0
776 315 0
776 -415 0
-777 317 -313 0
777 -317 0
777 313 0
-778 -317 313 0
778 317 0
778 -313 0
-779 318 -422 0
779 -318 0
779 422 0
-780 -318 422 0
780 318 0
780 -422 0
-781 320 -432 0
781 -320 0
781 432 0
-782 -320 432 0
782 320 0
782 -432 0
-783 321 -316 0
783 -321 0
783 316 0
-784 -321 316 0
784 321 0
784 -316 0
-785 323 -439 0
785 -323 0
785 439 0
-786 -323 439 0
786 323 0
786 -439 0
-787 324 -319 0
787 -324 0
787 319 0
-788 -324 319 0
788 324 0
788 -319 0
-789 326 -443 0
789 -326 0
789 443 0
-790 -326 443 0
790 326 0
790 -443 0
-791 327 -322 0
791 -327 0
791 322 0
-792 -327 322 0
792 327 0
792 -322 0
-793 329 -325 0
793 -329 0
793 325 0
-794 -329 325 0
794 329 0
794 -325 0
-795 330 -448 0
795 -330 0
795 448 0
-796 -330 448 0
796 330 0
796 -448 0
-797 332 -451 0
797 -332 0
797 451 0
-798 -332 451 0
798 332 0
798 -451 0
-799 333 -328 0
799 -333 0
799 328 0
-800 -333 328 0
800 333 0
800 -328 0
-801 335 -331 0
801 -335 0
801 331 0
-802 -335 331 0
802 335 0
802 -331 0
-803 336 -452 0
803 -336 0
803 452 0
-804 -336 452 0
804 336 0
804 -452 0
454 0
455 0
456 0
458 0
459 0
460 0
461 0
462 0
463 0
464 0
465 0
466 0
467 0
468 0
469 0
470 0
471 0
472 0
473 0
474 0
475 0
476 0
477 0
478 0
479 0
480 0
481 0
482 0
483 0
484 0
485 0
486 0
487 0
488 0
489 0
490 0
491 0
492 0
493 0
494 0
495 0
496 0
497 0
498 0
499 0
500 0
501 0
502 0
503 0
504 0
505 0
506 0
507 0
508 0
509 0
510 0
511 0
512 0
513 0
514 0
515 0
516 0
517 0
518 0
519 0
520 0
521 0
522 0
523 0
524 0
525 0
526 0
527 0
528 0
529 0
530 0
531 0
532 0
533 0
534 0
535 0
536 0
537 0
538 0
539 0
540 0
541 0
542 0
543 0
544 0
545 0
546 0
547 0
548 0
549 0
550 0
551 0
552 0
553 0
554 0
555 0
556 0
557 0
558 0
559 0
560 0
561 0
562 0
563 0
564 0
565 0
566 0
567 0
568 0
569 0
570 0
571 0
572 0
573 0
574 0
575 0
576 0
577 0
578 0
579 0
580 0
581 0
582 0
583 0
584 0
585 0
586 0
587 0
588 0
589 0
590 0
591 0
592 0
593 0
594 0
595 0
596 0
597 0
598 0
599 0
600 0
601 0
602 0
603 0
604 0
605 0
606 0
607 0
608 0
609 0
610 0
611 0
612 0
613 0
614 0
615 0
616 0
617 0
618 0
619 0
620 0
621 0
622 0
623 0
624 0
625 0
626 0
627 0
628 0
629 0
630 0
631 0
632 0
633 0
634 0
635 0
636 0
637 0
638 0
639 0
640 0
641 0
642 0
643 0
644 0
645 0
646 0
647 0
648 0
649 0
650 0
651 0
652 0
653 0
654 0
655 0
656 0
657 0
658 0
659 0
660 0
661 0
662 0
663 0
664 0
665 0
666 0
667 0
668 0
669 0
670 0
671 0
672 0
673 0
674 0
675 0
676 0
677 0
678 0
679 0
680 0
681 0
682 0
683 0
684 0
685 0
686 0
687 0
688 0
689 0
690 0
691 0
692 0
693 0
694 0
695 0
696 0
697 0
698 0
699 0
700 0
701 0
702 0
703 0
704 0
705 0
706 0
707 0
708 0
709 0
710 0
711 0
712 0
713 0
714 0
715 0
716 0
717 0
718 0
719 0
720 0
721 0
722 0
723 0
724 0
725 0
726 0
727 0
728 0
729 0
730 0
731 0
732 0
733 0
734 0
735 0
736 0
737 0
738 0
739 0
740 0
741 0
742 0
743 0
744 0
745 0
746 0
747 0
748 0
749 0
750 0
751 0
752 0
753 0
754 0
755 0
756 0
757 0
758 0
759 0
760 0
761 0
762 0
763 0
764 0
765 0
766 0
767 0
768 0
769 0
770 0
771 0
772 0
773 0
774 0
775 0
776 0
777 0
778 0
779 0
780 0
781 0
782 0
783 0
784 0
785 0
786 0
787 0
788 0
789 0
790 0
791 0
792 0
793 0
794 0
795 0
796 0
797 0
798 0
799 0
800 0
801 0
802 0
803 0
804 0
