c BC-S1.2
p cnf 11530 40711
1 -2 0
-1 2 0
3 -4 0
-3 4 0
5 -6 0
-5 6 0
7 -8 0
-7 8 0
9 -10 0
-9 10 0
11 -12 0
-11 12 0
13 -14 0
-13 14 0
15 -16 0
-15 16 0
17 -18 0
-17 18 0
19 -20 0
-19 20 0
21 -22 0
-21 22 0
23 -24 0
-23 24 0
25 -26 0
-25 26 0
27 -28 0
-27 28 0
29 -30 0
-29 30 0
31 -32 0
-31 32 0
33 -34 0
-33 34 0
35 -36 0
-35 36 0
37 -38 0
-37 38 0
39 -40 0
-39 40 0
41 -42 0
-41 42 0
43 -44 0
-43 44 0
45 -46 0
-45 46 0
47 -48 0
-47 48 0
49 -50 0
-49 50 0
51 -52 0
-51 52 0
53 -54 0
-53 54 0
55 -56 0
-55 56 0
57 -58 0
-57 58 0
59 -60 0
-59 60 0
61 -62 0
-61 62 0
63 -64 0
-63 64 0
65 -66 0
-65 66 0
67 -68 0
-67 68 0
69 -70 0
-69 70 0
71 -72 0
-71 72 0
73 -74 0
-73 74 0
75 -76 0
-75 76 0
77 -78 0
-77 78 0
79 -80 0
-79 80 0
81 -82 0
-81 82 0
83 -84 0
-83 84 0
85 -86 0
-85 86 0
87 -88 0
-87 88 0
89 -90 0
-89 90 0
91 -92 0
-91 92 0
93 -94 0
-93 94 0
95 -96 0
-95 96 0
97 -98 0
-97 98 0
99 -100 0
-99 100 0
101 -102 0
-101 102 0
103 -104 0
-103 104 0
105 -106 0
-105 106 0
107 -108 0
-107 108 0
109 -110 0
-109 110 0
111 -112 0
-111 112 0
113 -114 0
-113 114 0
115 -116 0
-115 116 0
117 -118 0
-117 118 0
119 -120 0
-119 120 0
121 -122 0
-121 122 0
123 -124 0
-123 124 0
125 -126 0
-125 126 0
127 -128 0
-127 128 0
129 -130 0
-129 130 0
131 -132 0
-131 132 0
133 -134 0
-133 134 0
135 -136 0
-135 136 0
137 -138 0
-137 138 0
139 -140 0
-139 140 0
141 -142 0
-141 142 0
143 -144 0
-143 144 0
145 -146 0
-145 146 0
147 -148 0
-147 148 0
149 -150 0
-149 150 0
151 -152 0
-151 152 0
153 -154 0
-153 154 0
155 -156 0
-155 156 0
157 -158 0
-157 158 0
159 -160 0
-159 160 0
161 -162 0
-161 162 0
163 -164 0
-163 164 0
165 -166 0
-165 166 0
167 -168 0
-167 168 0
169 -170 0
-169 170 0
171 -172 0
-171 172 0
173 -174 0
-173 174 0
175 -176 0
-175 176 0
177 -178 0
-177 178 0
179 -180 0
-179 180 0
181 -182 0
-181 182 0
183 -184 0
-183 184 0
185 -186 0
-185 186 0
187 -188 0
-187 188 0
189 -190 0
-189 190 0
191 -192 0
-191 192 0
193 -194 0
-193 194 0
195 -196 0
-195 196 0
197 -198 0
-197 198 0
199 -200 0
-199 200 0
201 -202 0
-201 202 0
203 -204 0
-203 204 0
205 -206 0
-205 206 0
207 -208 0
-207 208 0
209 -210 0
-209 210 0
211 -212 0
-211 212 0
213 -214 0
-213 214 0
215 -216 0
-215 216 0
217 -218 0
-217 218 0
219 -220 0
-219 220 0
221 -222 0
-221 222 0
223 -224 0
-223 224 0
225 -226 0
-225 226 0
227 -228 0
-227 228 0
229 -230 0
-229 230 0
231 -232 0
-231 232 0
233 -234 0
-233 234 0
235 -236 0
-235 236 0
237 -238 0
-237 238 0
239 -240 0
-239 240 0
241 -242 0
-241 242 0
243 -244 0
-243 244 0
245 -246 0
-245 246 0
247 -248 0
-247 248 0
249 -250 0
-249 250 0
251 -252 0
-251 252 0
253 -254 0
-253 254 0
255 -256 0
-255 256 0
257 -258 0
-257 258 0
259 -260 0
-259 260 0
261 -262 0
-261 262 0
263 -264 0
-263 264 0
265 -266 0
-265 266 0
267 -268 0
-267 268 0
269 -270 0
-269 270 0
271 -272 0
-271 272 0
273 -274 0
-273 274 0
275 -276 0
-275 276 0
277 -278 0
-277 278 0
279 -280 0
-279 280 0
281 -282 0
-281 282 0
283 -284 0
-283 284 0
285 -286 0
-285 286 0
287 -288 0
-287 288 0
289 -290 0
-289 290 0
291 -292 0
-291 292 0
293 -294 0
-293 294 0
295 -296 0
-295 296 0
297 -298 0
-297 298 0
299 -300 0
-299 300 0
301 -302 0
-301 302 0
303 -304 0
-303 304 0
305 -306 0
-305 306 0
307 -308 0
-307 308 0
309 -310 0
-309 310 0
311 -312 0
-311 312 0
313 -314 0
-313 314 0
315 -316 0
-315 316 0
317 -318 0
-317 318 0
319 -320 0
-319 320 0
321 -322 0
-321 322 0
323 -324 0
-323 324 0
325 -326 0
-325 326 0
327 -328 0
-327 328 0
329 -330 0
-329 330 0
331 -332 0
-331 332 0
333 -334 0
-333 334 0
335 -336 0
-335 336 0
337 -338 0
-337 338 0
339 -340 0
-339 340 0
341 -342 0
-341 342 0
343 -344 0
-343 344 0
345 -346 0
-345 346 0
347 -348 0
-347 348 0
349 -350 0
-349 350 0
351 -352 0
-351 352 0
353 -354 0
-353 354 0
355 -356 0
-355 356 0
357 -358 0
-357 358 0
359 -360 0
-359 360 0
361 -362 0
-361 362 0
363 -364 0
-363 364 0
365 -366 0
-365 366 0
367 -368 0
-367 368 0
369 -370 0
-369 370 0
371 -372 0
-371 372 0
373 -374 0
-373 374 0
375 -376 0
-375 376 0
377 -378 0
-377 378 0
379 -380 0
-379 380 0
381 -382 0
-381 382 0
383 -384 0
-383 384 0
385 -386 0
-385 386 0
387 -388 0
-387 388 0
389 -390 0
-389 390 0
391 -392 0
-391 392 0
393 -394 0
-393 394 0
395 -396 0
-395 396 0
397 -398 0
-397 398 0
399 -400 0
-399 400 0
401 -402 0
-401 402 0
403 -404 0
-403 404 0
405 -406 0
-405 406 0
407 -408 0
-407 408 0
409 -410 0
-409 410 0
411 -412 0
-411 412 0
413 -414 0
-413 414 0
415 -416 0
-415 416 0
417 -418 0
-417 418 0
419 -420 0
-419 420 0
421 -422 0
-421 422 0
423 -424 0
-423 424 0
425 -426 0
-425 426 0
427 -428 0
-427 428 0
429 -430 0
-429 430 0
431 -432 0
-431 432 0
433 -434 0
-433 434 0
435 -436 0
-435 436 0
437 -438 0
-437 438 0
439 -440 0
-439 440 0
441 -442 0
-441 442 0
443 -444 0
-443 444 0
445 -446 0
-445 446 0
447 -448 0
-447 448 0
449 -450 0
-449 450 0
451 -452 0
-451 452 0
453 -454 0
-453 454 0
455 -456 0
-455 456 0
457 -458 0
-457 458 0
459 -460 0
-459 460 0
461 -462 0
-461 462 0
463 -464 0
-463 464 0
465 -466 0
-465 466 0
467 -468 0
-467 468 0
469 -470 0
-469 470 0
471 -472 0
-471 472 0
473 -474 0
-473 474 0
475 -476 0
-475 476 0
477 -478 0
-477 478 0
479 -480 0
-479 480 0
481 -482 0
-481 482 0
483 -484 0
-483 484 0
485 -486 0
-485 486 0
487 -488 0
-487 488 0
489 -490 0
-489 490 0
491 -492 0
-491 492 0
493 -494 0
-493 494 0
495 -496 0
-495 496 0
497 -498 0
-497 498 0
499 -500 0
-499 500 0
501 -502 0
-501 502 0
503 -504 0
-503 504 0
505 -506 0
-505 506 0
507 -508 0
-507 508 0
509 -510 0
-509 510 0
511 -512 0
-511 512 0
513 -514 0
-513 514 0
515 -516 0
-515 516 0
517 -518 0
-517 518 0
519 -520 0
-519 520 0
521 -522 0
-521 522 0
523 -524 0
-523 524 0
525 -526 0
-525 526 0
527 -528 0
-527 528 0
529 -530 0
-529 530 0
531 -532 0
-531 532 0
533 -534 0
-533 534 0
535 -536 0
-535 536 0
537 -538 0
-537 538 0
539 -540 0
-539 540 0
541 -542 0
-541 542 0
543 -544 0
-543 544 0
545 -546 0
-545 546 0
547 -548 0
-547 548 0
549 -550 0
-549 550 0
551 -552 0
-551 552 0
553 -554 0
-553 554 0
555 -556 0
-555 556 0
557 -558 0
-557 558 0
559 -560 0
-559 560 0
561 -562 0
-561 562 0
563 -564 0
-563 564 0
565 -566 0
-565 566 0
567 -568 0
-567 568 0
569 -570 0
-569 570 0
571 -572 0
-571 572 0
573 -574 0
-573 574 0
575 -576 0
-575 576 0
577 -578 0
-577 578 0
579 -580 0
-579 580 0
581 -582 0
-581 582 0
583 -584 0
-583 584 0
585 -586 0
-585 586 0
587 -588 0
-587 588 0
589 -590 0
-589 590 0
591 -592 0
-591 592 0
593 -594 0
-593 594 0
595 -596 0
-595 596 0
597 -598 0
-597 598 0
599 -600 0
-599 600 0
601 -602 0
-601 602 0
603 -604 0
-603 604 0
605 -606 0
-605 606 0
607 -608 0
-607 608 0
609 -610 0
-609 610 0
611 -612 0
-611 612 0
613 -614 0
-613 614 0
615 -616 0
-615 616 0
617 -618 0
-617 618 0
619 -620 0
-619 620 0
621 -622 0
-621 622 0
623 -624 0
-623 624 0
625 -626 0
-625 626 0
627 -628 0
-627 628 0
629 -630 0
-629 630 0
631 -632 0
-631 632 0
633 -634 0
-633 634 0
635 -636 0
-635 636 0
637 -638 0
-637 638 0
639 -640 0
-639 640 0
641 -642 0
-641 642 0
643 -644 0
-643 644 0
645 -646 0
-645 646 0
647 -648 0
-647 648 0
649 -650 0
-649 650 0
651 -652 0
-651 652 0
653 -654 0
-653 654 0
655 -656 0
-655 656 0
657 -658 0
-657 658 0
659 -660 0
-659 660 0
661 -662 0
-661 662 0
663 -664 0
-663 664 0
665 -666 0
-665 666 0
667 -668 0
-667 668 0
669 -670 0
-669 670 0
671 -672 0
-671 672 0
673 -674 0
-673 674 0
675 -676 0
-675 676 0
677 -678 0
-677 678 0
679 -680 0
-679 680 0
681 -682 0
-681 682 0
683 -684 0
-683 684 0
685 -686 0
-685 686 0
687 -688 0
-687 688 0
689 -690 0
-689 690 0
691 -692 0
-691 692 0
693 -694 0
-693 694 0
695 -696 0
-695 696 0
697 -698 0
-697 698 0
699 -700 0
-699 700 0
701 -702 0
-701 702 0
703 -704 0
-703 704 0
705 -706 0
-705 706 0
707 -708 0
-707 708 0
709 -710 0
-709 710 0
711 -712 0
-711 712 0
713 -714 0
-713 714 0
715 -716 0
-715 716 0
717 -718 0
-717 718 0
719 -720 0
-719 720 0
721 -722 0
-721 722 0
723 -724 0
-723 724 0
725 -726 0
-725 726 0
727 -728 0
-727 728 0
729 -730 0
-729 730 0
731 -732 0
-731 732 0
733 -734 0
-733 734 0
735 -736 0
-735 736 0
737 -738 0
-737 738 0
739 -740 0
-739 740 0
741 -742 0
-741 742 0
743 -744 0
-743 744 0
745 -746 0
-745 746 0
747 -748 0
-747 748 0
749 -750 0
-749 750 0
751 -752 0
-751 752 0
753 -754 0
-753 754 0
755 -756 0
-755 756 0
757 -758 0
-757 758 0
759 -760 0
-759 760 0
761 -762 0
-761 762 0
763 -764 0
-763 764 0
765 -766 0
-765 766 0
767 -768 0
-767 768 0
769 -770 0
-769 770 0
771 -772 0
-771 772 0
773 -774 0
-773 774 0
775 -776 0
-775 776 0
777 -778 0
-777 778 0
779 -780 0
-779 780 0
781 -782 0
-781 782 0
783 -784 0
-783 784 0
785 -786 0
-785 786 0
787 -788 0
-787 788 0
789 -790 0
-789 790 0
791 -792 0
-791 792 0
793 -794 0
-793 794 0
795 -796 0
-795 796 0
797 -798 0
-797 798 0
799 -800 0
-799 800 0
801 -802 0
-801 802 0
803 -804 0
-803 804 0
805 -806 0
-805 806 0
807 -808 0
-807 808 0
809 -810 0
-809 810 0
811 -812 0
-811 812 0
813 -814 0
-813 814 0
815 -816 0
-815 816 0
817 -818 0
-817 818 0
819 -820 0
-819 820 0
821 -822 0
-821 822 0
823 -824 0
-823 824 0
825 -826 0
-825 826 0
827 -828 0
-827 828 0
829 -830 0
-829 830 0
831 -832 0
-831 832 0
833 -834 0
-833 834 0
835 -836 0
-835 836 0
837 -838 0
-837 838 0
839 -840 0
-839 840 0
841 -842 0
-841 842 0
843 -844 0
-843 844 0
845 -846 0
-845 846 0
847 -848 0
-847 848 0
849 -850 0
-849 850 0
851 -852 0
-851 852 0
853 -854 0
-853 854 0
855 -856 0
-855 856 0
857 -858 0
-857 858 0
859 -860 0
-859 860 0
861 -862 0
-861 862 0
863 -864 0
-863 864 0
865 -866 0
-865 866 0
867 -868 0
-867 868 0
869 -870 0
-869 870 0
871 -872 0
-871 872 0
873 -874 0
-873 874 0
875 -876 0
-875 876 0
877 -878 0
-877 878 0
879 -880 0
-879 880 0
881 -882 0
-881 882 0
883 -884 0
-883 884 0
885 -886 0
-885 886 0
887 -888 0
-887 888 0
889 -890 0
-889 890 0
891 -892 0
-891 892 0
893 -894 0
-893 894 0
895 -896 0
-895 896 0
897 -898 0
-897 898 0
899 -900 0
-899 900 0
901 -902 0
-901 902 0
903 -904 0
-903 904 0
905 -906 0
-905 906 0
907 -908 0
-907 908 0
909 -910 0
-909 910 0
911 -912 0
-911 912 0
913 -914 0
-913 914 0
915 -916 0
-915 916 0
917 -918 0
-917 918 0
919 -920 0
-919 920 0
921 -922 0
-921 922 0
923 -924 0
-923 924 0
925 -926 0
-925 926 0
927 -928 0
-927 928 0
929 -930 0
-929 930 0
931 -932 0
-931 932 0
933 -934 0
-933 934 0
935 -936 0
-935 936 0
937 -938 0
-937 938 0
939 -940 0
-939 940 0
941 -942 0
-941 942 0
943 -944 0
-943 944 0
945 -946 0
-945 946 0
947 -948 0
-947 948 0
949 -950 0
-949 950 0
951 -952 0
-951 952 0
953 -954 0
-953 954 0
955 -956 0
-955 956 0
957 -958 0
-957 958 0
959 -960 0
-959 960 0
961 -962 0
-961 962 0
963 -964 0
-963 964 0
965 -966 0
-965 966 0
967 -968 0
-967 968 0
969 -970 0
-969 970 0
971 -972 0
-971 972 0
973 -974 0
-973 974 0
975 -976 0
-975 976 0
977 -978 0
-977 978 0
979 -980 0
-979 980 0
981 -982 0
-981 982 0
983 -984 0
-983 984 0
985 -986 0
-985 986 0
987 -988 0
-987 988 0
989 -990 0
-989 990 0
991 -992 0
-991 992 0
993 -994 0
-993 994 0
995 -996 0
-995 996 0
997 -998 0
-997 998 0
999 -1000 0
-999 1000 0
1001 -1002 0
-1001 1002 0
1003 -1004 0
-1003 1004 0
1005 -1006 0
-1005 1006 0
1007 -1008 0
-1007 1008 0
1009 -1010 0
-1009 1010 0
1011 -1012 0
-1011 1012 0
1013 -1014 0
-1013 1014 0
1015 -1016 0
-1015 1016 0
1017 -1018 0
-1017 1018 0
1019 -1020 0
-1019 1020 0
1021 -1022 0
-1021 1022 0
1023 -1024 0
-1023 1024 0
1025 -1026 0
-1025 1026 0
1027 -1028 0
-1027 1028 0
1029 -1030 0
-1029 1030 0
1031 -1032 0
-1031 1032 0
1033 -1034 0
-1033 1034 0
1035 -1036 0
-1035 1036 0
1037 -1038 0
-1037 1038 0
1039 -1040 0
-1039 1040 0
1041 -1042 0
-1041 1042 0
1043 -1044 0
-1043 1044 0
1045 -1046 0
-1045 1046 0
1047 -1048 0
-1047 1048 0
1049 -1050 0
-1049 1050 0
1051 -1052 0
-1051 1052 0
1053 -1054 0
-1053 1054 0
1055 -1056 0
-1055 1056 0
1057 -1058 0
-1057 1058 0
1059 -1060 0
-1059 1060 0
1061 -1062 0
-1061 1062 0
1063 -1064 0
-1063 1064 0
1065 -1066 0
-1065 1066 0
1067 -1068 0
-1067 1068 0
1069 -1070 0
-1069 1070 0
1071 -1072 0
-1071 1072 0
1073 -1074 0
-1073 1074 0
1075 -1076 0
-1075 1076 0
1077 -1078 0
-1077 1078 0
1079 -1080 0
-1079 1080 0
1081 -1082 0
-1081 1082 0
1083 -1084 0
-1083 1084 0
1085 -1086 0
-1085 1086 0
1087 -1088 0
-1087 1088 0
1089 -1090 0
-1089 1090 0
1091 -1092 0
-1091 1092 0
1093 -1094 0
-1093 1094 0
1095 -1096 0
-1095 1096 0
1097 -1098 0
-1097 1098 0
1099 -1100 0
-1099 1100 0
1101 -1102 0
-1101 1102 0
1103 -1104 0
-1103 1104 0
1105 -1106 0
-1105 1106 0
1107 -1108 0
-1107 1108 0
1109 -1110 0
-1109 1110 0
1111 -1112 0
-1111 1112 0
1113 -1114 0
-1113 1114 0
1115 -1116 0
-1115 1116 0
1117 -1118 0
-1117 1118 0
1119 -1120 0
-1119 1120 0
1121 -1122 0
-1121 1122 0
1123 -1124 0
-1123 1124 0
1125 -1126 0
-1125 1126 0
1127 -1128 0
-1127 1128 0
1129 -1130 0
-1129 1130 0
1131 -1132 0
-1131 1132 0
1133 -1134 0
-1133 1134 0
1135 -1136 0
-1135 1136 0
1137 -1138 0
-1137 1138 0
1139 -1140 0
-1139 1140 0
1141 -1142 0
-1141 1142 0
1143 -1144 0
-1143 1144 0
1145 -1146 0
-1145 1146 0
1147 -1148 0
-1147 1148 0
1149 -1150 0
-1149 1150 0
1151 -1152 0
-1151 1152 0
1153 -1154 0
-1153 1154 0
1155 -1156 0
-1155 1156 0
1157 -1158 0
-1157 1158 0
1159 -1160 0
-1159 1160 0
1161 -1162 0
-1161 1162 0
1163 -1164 0
-1163 1164 0
1165 -1166 0
-1165 1166 0
1167 -1168 0
-1167 1168 0
1169 -1170 0
-1169 1170 0
1171 -1172 0
-1171 1172 0
1173 -1174 0
-1173 1174 0
1175 -1176 0
-1175 1176 0
1177 -1178 0
-1177 1178 0
1179 -1180 0
-1179 1180 0
1181 -1182 0
-1181 1182 0
1183 -1184 0
-1183 1184 0
1185 -1186 0
-1185 1186 0
1187 -1188 0
-1187 1188 0
1189 -1190 0
-1189 1190 0
1191 -1192 0
-1191 1192 0
1193 -1194 0
-1193 1194 0
1195 -1196 0
-1195 1196 0
1197 -1198 0
-1197 1198 0
1199 -1200 0
-1199 1200 0
1201 -1202 0
-1201 1202 0
1203 -1204 0
-1203 1204 0
1205 -1206 0
-1205 1206 0
1207 -1208 0
-1207 1208 0
1209 -1210 0
-1209 1210 0
1211 -1212 0
-1211 1212 0
1213 -1214 0
-1213 1214 0
1215 -1216 0
-1215 1216 0
1217 -1218 0
-1217 1218 0
1219 -1220 0
-1219 1220 0
1221 -1222 0
-1221 1222 0
1223 -1224 0
-1223 1224 0
1225 -1226 0
-1225 1226 0
1227 -1228 0
-1227 1228 0
1229 -1230 0
-1229 1230 0
1231 -1232 0
-1231 1232 0
1233 -1234 0
-1233 1234 0
1235 -1236 0
-1235 1236 0
1237 -1238 0
-1237 1238 0
1239 -1240 0
-1239 1240 0
1241 -1242 0
-1241 1242 0
1243 -1244 0
-1243 1244 0
1245 -1246 0
-1245 1246 0
1247 -1248 0
-1247 1248 0
1249 -1250 0
-1249 1250 0
1251 -1252 0
-1251 1252 0
1253 -1254 0
-1253 1254 0
1255 -1256 0
-1255 1256 0
1257 -1258 0
-1257 1258 0
1259 -1260 0
-1259 1260 0
1261 -1262 0
-1261 1262 0
1263 -1264 0
-1263 1264 0
1265 -1266 0
-1265 1266 0
1267 -1268 0
-1267 1268 0
1269 -1270 0
-1269 1270 0
1271 -1272 0
-1271 1272 0
1273 -1274 0
-1273 1274 0
1275 -1276 0
-1275 1276 0
1277 -1278 0
-1277 1278 0
1279 -1280 0
-1279 1280 0
1281 -1282 0
-1281 1282 0
1283 -1284 0
-1283 1284 0
1285 -1286 0
-1285 1286 0
1287 -1288 0
-1287 1288 0
1289 -1290 0
-1289 1290 0
1291 -1292 0
-1291 1292 0
1293 -1294 0
-1293 1294 0
1295 -1296 0
-1295 1296 0
1297 -1298 0
-1297 1298 0
1299 -1300 0
-1299 1300 0
1301 -1302 0
-1301 1302 0
1303 -1304 0
-1303 1304 0
1305 -1306 0
-1305 1306 0
1307 -1308 0
-1307 1308 0
1309 -1310 0
-1309 1310 0
1311 -1312 0
-1311 1312 0
1313 -1314 0
-1313 1314 0
1315 -1316 0
-1315 1316 0
1317 -1318 0
-1317 1318 0
1319 -1320 0
-1319 1320 0
1321 -1322 0
-1321 1322 0
1323 -1324 0
-1323 1324 0
1325 -1326 0
-1325 1326 0
1327 -1328 0
-1327 1328 0
1329 -1330 0
-1329 1330 0
1331 -1332 0
-1331 1332 0
1333 -1334 0
-1333 1334 0
1335 -1336 0
-1335 1336 0
1337 -1338 0
-1337 1338 0
1339 -1340 0
-1339 1340 0
1341 -1342 0
-1341 1342 0
1343 -1344 0
-1343 1344 0
1345 -1346 0
-1345 1346 0
1347 -1348 0
-1347 1348 0
1349 -1350 0
-1349 1350 0
1351 -1352 0
-1351 1352 0
1353 -1354 0
-1353 1354 0
1355 -1356 0
-1355 1356 0
1357 -1358 0
-1357 1358 0
1359 -1360 0
-1359 1360 0
1361 -1362 0
-1361 1362 0
1363 -1364 0
-1363 1364 0
1365 -1366 0
-1365 1366 0
1367 -1368 0
-1367 1368 0
1369 -1370 0
-1369 1370 0
1371 -1372 0
-1371 1372 0
1373 -1374 0
-1373 1374 0
1375 -1376 0
-1375 1376 0
1377 -1378 0
-1377 1378 0
1379 -1380 0
-1379 1380 0
1381 -1382 0
-1381 1382 0
1383 -1384 0
-1383 1384 0
1385 -1386 0
-1385 1386 0
1387 -1388 0
-1387 1388 0
1389 -1390 0
-1389 1390 0
1391 -1392 0
-1391 1392 0
1393 -1394 0
-1393 1394 0
1395 -1396 0
-1395 1396 0
1397 -1398 0
-1397 1398 0
1399 -1400 0
-1399 1400 0
1401 -1402 0
-1401 1402 0
1403 -1404 0
-1403 1404 0
1405 -1406 0
-1405 1406 0
1407 -1408 0
-1407 1408 0
1409 -1410 0
-1409 1410 0
1411 -1412 0
-1411 1412 0
1413 -1414 0
-1413 1414 0
1415 -1416 0
-1415 1416 0
1417 -1418 0
-1417 1418 0
1419 -1420 0
-1419 1420 0
1421 -1422 0
-1421 1422 0
1423 -1424 0
-1423 1424 0
1425 -1426 0
-1425 1426 0
1427 -1428 0
-1427 1428 0
1429 -1430 0
-1429 1430 0
1431 -1432 0
-1431 1432 0
1433 -1434 0
-1433 1434 0
1435 -1436 0
-1435 1436 0
1437 -1438 0
-1437 1438 0
1439 -1440 0
-1439 1440 0
1441 -1442 0
-1441 1442 0
1443 -1444 0
-1443 1444 0
1445 -1446 0
-1445 1446 0
1447 -1448 0
-1447 1448 0
1449 -1450 0
-1449 1450 0
1451 -1452 0
-1451 1452 0
1453 -1454 0
-1453 1454 0
1455 -1456 0
-1455 1456 0
1457 -1458 0
-1457 1458 0
1459 -1460 0
-1459 1460 0
1461 -1462 0
-1461 1462 0
1463 -1464 0
-1463 1464 0
1465 -1466 0
-1465 1466 0
1467 -1468 0
-1467 1468 0
1469 -1470 0
-1469 1470 0
1471 -1472 0
-1471 1472 0
1473 -1474 0
-1473 1474 0
1475 -1476 0
-1475 1476 0
1477 -1478 0
-1477 1478 0
1479 -1480 0
-1479 1480 0
1481 -1482 0
-1481 1482 0
1483 -1484 0
-1483 1484 0
1485 -1486 0
-1485 1486 0
1487 -1488 0
-1487 1488 0
1489 -1490 0
-1489 1490 0
1491 -1492 0
-1491 1492 0
1493 -1494 0
-1493 1494 0
1495 -1496 0
-1495 1496 0
1497 -1498 0
-1497 1498 0
1499 -1500 0
-1499 1500 0
1501 -1502 0
-1501 1502 0
1503 -1504 0
-1503 1504 0
1505 -1506 0
-1505 1506 0
1507 -1508 0
-1507 1508 0
1509 -1510 0
-1509 1510 0
1511 -1512 0
-1511 1512 0
1513 -1514 0
-1513 1514 0
1515 -1516 0
-1515 1516 0
1517 -1518 0
-1517 1518 0
1519 -1520 0
-1519 1520 0
1521 -1522 0
-1521 1522 0
1523 -1524 0
-1523 1524 0
1525 -1526 0
-1525 1526 0
1527 -1528 0
-1527 1528 0
1529 -1530 0
-1529 1530 0
1531 -1532 0
-1531 1532 0
1533 -1534 0
-1533 1534 0
1535 -1536 0
-1535 1536 0
1537 -1538 0
-1537 1538 0
1539 -1540 0
-1539 1540 0
1541 -1542 0
-1541 1542 0
1543 -1544 0
-1543 1544 0
1545 -1546 0
-1545 1546 0
1547 -1548 0
-1547 1548 0
1549 -1550 0
-1549 1550 0
1551 -1552 0
-1551 1552 0
1553 -1554 0
-1553 1554 0
1555 -1556 0
-1555 1556 0
1557 -1558 0
-1557 1558 0
1559 -1560 0
-1559 1560 0
1561 -1562 0
-1561 1562 0
1563 -1564 0
-1563 1564 0
1565 -1566 0
-1565 1566 0
1567 -1568 0
-1567 1568 0
1569 -1570 0
-1569 1570 0
1571 -1572 0
-1571 1572 0
1573 -1574 0
-1573 1574 0
1575 -1576 0
-1575 1576 0
1577 -1578 0
-1577 1578 0
1579 -1580 0
-1579 1580 0
1581 -1582 0
-1581 1582 0
1583 -1584 0
-1583 1584 0
1585 -1586 0
-1585 1586 0
1587 -1588 0
-1587 1588 0
1589 -1590 0
-1589 1590 0
1591 -1592 0
-1591 1592 0
1593 -1594 0
-1593 1594 0
1595 -1596 0
-1595 1596 0
1597 -1598 0
-1597 1598 0
1599 -1600 0
-1599 1600 0
1601 -1602 0
-1601 1602 0
1603 -1604 0
-1603 1604 0
1605 -1606 0
-1605 1606 0
1607 -1608 0
-1607 1608 0
1609 -1610 0
-1609 1610 0
1611 -1612 0
-1611 1612 0
1613 -1614 0
-1613 1614 0
1615 -1616 0
-1615 1616 0
1617 -1618 0
-1617 1618 0
1619 -1620 0
-1619 1620 0
1621 -1622 0
-1621 1622 0
1623 -1624 0
-1623 1624 0
1625 -1626 0
-1625 1626 0
1627 -1628 0
-1627 1628 0
1629 -1630 0
-1629 1630 0
1631 -1632 0
-1631 1632 0
1633 -1634 0
-1633 1634 0
1635 -1636 0
-1635 1636 0
1637 -1638 0
-1637 1638 0
1639 -1640 0
-1639 1640 0
1641 -1642 0
-1641 1642 0
1643 -1644 0
-1643 1644 0
1645 -1646 0
-1645 1646 0
1647 -1648 0
-1647 1648 0
1649 -1650 0
-1649 1650 0
1651 -1652 0
-1651 1652 0
1653 -1654 0
-1653 1654 0
1655 -1656 0
-1655 1656 0
1657 -1658 0
-1657 1658 0
1659 -1660 0
-1659 1660 0
1661 -1662 0
-1661 1662 0
1663 -1664 0
-1663 1664 0
1665 -1666 0
-1665 1666 0
1667 -1668 0
-1667 1668 0
1669 -1670 0
-1669 1670 0
1671 -1672 0
-1671 1672 0
1673 -1674 0
-1673 1674 0
1675 -1676 0
-1675 1676 0
1677 -1678 0
-1677 1678 0
1679 -1680 0
-1679 1680 0
1681 -1682 0
-1681 1682 0
1683 -1684 0
-1683 1684 0
1685 -1686 0
-1685 1686 0
1687 -1688 0
-1687 1688 0
1689 -1690 0
-1689 1690 0
1691 -1692 0
-1691 1692 0
1693 -1694 0
-1693 1694 0
1695 -1696 0
-1695 1696 0
1697 -1698 0
-1697 1698 0
1699 -1700 0
-1699 1700 0
1701 -1702 0
-1701 1702 0
1703 -1704 0
-1703 1704 0
1705 -1706 0
-1705 1706 0
1707 -1708 0
-1707 1708 0
1709 -1710 0
-1709 1710 0
1711 -1712 0
-1711 1712 0
1713 -1714 0
-1713 1714 0
1715 -1716 0
-1715 1716 0
1717 -1718 0
-1717 1718 0
1719 -1720 0
-1719 1720 0
1721 -1722 0
-1721 1722 0
1723 -1724 0
-1723 1724 0
1725 -1726 0
-1725 1726 0
1727 -1728 0
-1727 1728 0
1729 -1730 0
-1729 1730 0
1731 -1732 0
-1731 1732 0
1733 -1734 0
-1733 1734 0
1735 -1736 0
-1735 1736 0
1737 -1738 0
-1737 1738 0
1739 -1740 0
-1739 1740 0
1741 -1742 0
-1741 1742 0
1743 -1744 0
-1743 1744 0
1745 -1746 0
-1745 1746 0
1747 -1748 0
-1747 1748 0
1749 -1750 0
-1749 1750 0
1751 -1752 0
-1751 1752 0
1753 -1754 0
-1753 1754 0
1755 -1756 0
-1755 1756 0
1757 -1758 0
-1757 1758 0
1759 -1760 0
-1759 1760 0
1761 -1762 0
-1761 1762 0
1763 -1764 0
-1763 1764 0
1765 -1766 0
-1765 1766 0
1767 -1768 0
-1767 1768 0
1769 -1770 0
-1769 1770 0
1771 -1772 0
-1771 1772 0
1773 -1774 0
-1773 1774 0
1775 -1776 0
-1775 1776 0
1777 -1778 0
-1777 1778 0
1779 -1780 0
-1779 1780 0
1781 -1782 0
-1781 1782 0
1783 -1784 0
-1783 1784 0
1785 -1786 0
-1785 1786 0
1787 -1788 0
-1787 1788 0
1789 -1790 0
-1789 1790 0
1791 -1792 0
-1791 1792 0
1793 -1794 0
-1793 1794 0
1795 -1796 0
-1795 1796 0
1797 -1798 0
-1797 1798 0
1799 -1800 0
-1799 1800 0
1801 -1802 0
-1801 1802 0
1803 -1804 0
-1803 1804 0
1805 -1806 0
-1805 1806 0
1807 -1808 0
-1807 1808 0
1809 -1810 0
-1809 1810 0
1811 -1812 0
-1811 1812 0
1813 -1814 0
-1813 1814 0
1815 -1816 0
-1815 1816 0
1817 -1818 0
-1817 1818 0
1819 -1820 0
-1819 1820 0
1821 -1822 0
-1821 1822 0
1823 -1824 0
-1823 1824 0
1825 -1826 0
-1825 1826 0
1827 -1828 0
-1827 1828 0
1829 -1830 0
-1829 1830 0
1831 -1832 0
-1831 1832 0
1833 -1834 0
-1833 1834 0
1835 -1836 0
-1835 1836 0
1837 -1838 0
-1837 1838 0
1839 -1840 0
-1839 1840 0
2 -1 0
-2 1 0
1841 -1842 1843 -1329 0
-1841 1842 0
-1841 -1843 0
-1841 1329 0
1844 -1845 1846 1847 -1293 0
-1844 1845 0
-1844 -1846 0
-1844 -1847 0
-1844 1293 0
1848 -1849 1850 1851 -1355 0
-1848 1849 0
-1848 -1850 0
-1848 -1851 0
-1848 1355 0
1852 -1853 1854 1855 -1295 0
-1852 1853 0
-1852 -1854 0
-1852 -1855 0
-1852 1295 0
1856 -1857 1858 1859 -1311 0
-1856 1857 0
-1856 -1858 0
-1856 -1859 0
-1856 1311 0
1860 -1861 1862 -1361 0
-1860 1861 0
-1860 -1862 0
-1860 1361 0
1863 -1864 1865 1866 -1343 0
-1863 1864 0
-1863 -1865 0
-1863 -1866 0
-1863 1343 0
1867 -1868 1869 1870 -1315 0
-1867 1868 0
-1867 -1869 0
-1867 -1870 0
-1867 1315 0
1871 -1872 1873 1874 -1351 0
-1871 1872 0
-1871 -1873 0
-1871 -1874 0
-1871 1351 0
1875 -1876 1877 1878 -1341 0
-1875 1876 0
-1875 -1877 0
-1875 -1878 0
-1875 1341 0
1879 -1880 1881 -1363 0
-1879 1880 0
-1879 -1881 0
-1879 1363 0
1882 -1883 1884 1885 -1349 0
-1882 1883 0
-1882 -1884 0
-1882 -1885 0
-1882 1349 0
1886 -1887 1888 -1337 0
-1886 1887 0
-1886 -1888 0
-1886 1337 0
1889 -1890 1891 -1309 0
-1889 1890 0
-1889 -1891 0
-1889 1309 0
1892 -1893 1894 1895 -1321 0
-1892 1893 0
-1892 -1894 0
-1892 -1895 0
-1892 1321 0
1896 -1897 1898 -1289 0
-1896 1897 0
-1896 -1898 0
-1896 1289 0
1899 -1900 1901 1902 -1319 0
-1899 1900 0
-1899 -1901 0
-1899 -1902 0
-1899 1319 0
1903 -1904 1905 -1331 0
-1903 1904 0
-1903 -1905 0
-1903 1331 0
1906 -1907 1908 -1313 0
-1906 1907 0
-1906 -1908 0
-1906 1313 0
1909 -1910 1911 -1325 0
-1909 1910 0
-1909 -1911 0
-1909 1325 0
1912 -1913 1914 -1287 0
-1912 1913 0
-1912 -1914 0
-1912 1287 0
1915 -1916 1917 1918 -1339 0
-1915 1916 0
-1915 -1917 0
-1915 -1918 0
-1915 1339 0
1919 -1920 1921 1922 -1301 0
-1919 1920 0
-1919 -1921 0
-1919 -1922 0
-1919 1301 0
1923 -1924 1925 -1357 0
-1923 1924 0
-1923 -1925 0
-1923 1357 0
1926 -1927 1928 -1359 0
-1926 1927 0
-1926 -1928 0
-1926 1359 0
1929 -1930 1931 -1297 0
-1929 1930 0
-1929 -1931 0
-1929 1297 0
1932 -1933 1934 1935 -1307 0
-1932 1933 0
-1932 -1934 0
-1932 -1935 0
-1932 1307 0
1936 -1937 1938 -1299 0
-1936 1937 0
-1936 -1938 0
-1936 1299 0
1939 -1940 1941 -1323 0
-1939 1940 0
-1939 -1941 0
-1939 1323 0
1942 -1943 1944 1945 -1333 0
-1942 1943 0
-1942 -1944 0
-1942 -1945 0
-1942 1333 0
1208 -1207 0
-1208 1207 0
1946 -1947 1948 1949 -1303 0
-1946 1947 0
-1946 -1948 0
-1946 -1949 0
-1946 1303 0
1950 -1951 1952 1953 -1305 0
-1950 1951 0
-1950 -1952 0
-1950 -1953 0
-1950 1305 0
1954 -1955 1956 1957 -1335 0
-1954 1955 0
-1954 -1956 0
-1954 -1957 0
-1954 1335 0
1958 -1959 1960 1961 -1327 0
-1958 1959 0
-1958 -1960 0
-1958 -1961 0
-1958 1327 0
1962 -1963 1964 -1347 0
-1962 1963 0
-1962 -1964 0
-1962 1347 0
1965 -1966 1967 -1353 0
-1965 1966 0
-1965 -1967 0
-1965 1353 0
1968 -1969 1970 1971 -1345 0
-1968 1969 0
-1968 -1970 0
-1968 -1971 0
-1968 1345 0
1972 -1973 1974 1975 -1317 0
-1972 1973 0
-1972 -1974 0
-1972 -1975 0
-1972 1317 0
1976 -1977 1978 1979 -1291 0
-1976 1977 0
-1976 -1978 0
-1976 -1979 0
-1976 1291 0
1980 -1981 0
-1980 1981 0
1982 -1983 0
-1982 1983 0
1984 -1985 1904 1905 -1331 0
-1984 1985 0
-1984 -1904 0
-1984 -1905 0
-1984 1331 0
1986 -1987 1930 1931 -1297 0
-1986 1987 0
-1986 -1930 0
-1986 -1931 0
-1986 1297 0
1988 -1989 1940 1941 -1323 0
-1988 1989 0
-1988 -1940 0
-1988 -1941 0
-1988 1323 0
1990 -1991 1924 1925 -1357 0
-1990 1991 0
-1990 -1924 0
-1990 -1925 0
-1990 1357 0
1992 -1993 573 1870 -1315 0
-1992 1993 0
-1992 -573 0
-1992 -1870 0
-1992 1315 0
1994 -1995 1880 1881 -1363 0
-1994 1995 0
-1994 -1880 0
-1994 -1881 0
-1994 1363 0
1996 -1997 679 1859 -1311 0
-1996 1997 0
-1996 -679 0
-1996 -1859 0
-1996 1311 0
1998 -1999 1937 1938 -1299 0
-1998 1999 0
-1998 -1937 0
-1998 -1938 0
-1998 1299 0
2000 -2001 595 1979 -1291 0
-2000 2001 0
-2000 -595 0
-2000 -1979 0
-2000 1291 0
2002 -2003 1913 1914 -1287 0
-2002 2003 0
-2002 -1913 0
-2002 -1914 0
-2002 1287 0
2004 -2005 1927 1928 -1359 0
-2004 2005 0
-2004 -1927 0
-2004 -1928 0
-2004 1359 0
1372 -1371 0
-1372 1371 0
2006 -2007 563 1975 -1317 0
-2006 2007 0
-2006 -563 0
-2006 -1975 0
-2006 1317 0
2008 -2009 837 1855 -1295 0
-2008 2009 0
-2008 -837 0
-2008 -1855 0
-2008 1295 0
2010 -2011 1897 1898 -1289 0
-2010 2011 0
-2010 -1897 0
-2010 -1898 0
-2010 1289 0
2012 -2013 1842 1843 -1329 0
-2012 2013 0
-2012 -1842 0
-2012 -1843 0
-2012 1329 0
2014 -2015 813 1902 -1319 0
-2014 2015 0
-2014 -813 0
-2014 -1902 0
-2014 1319 0
2016 -2017 1907 1908 -1313 0
-2016 2017 0
-2016 -1907 0
-2016 -1908 0
-2016 1313 0
2018 -2019 1966 1967 -1353 0
-2018 2019 0
-2018 -1966 0
-2018 -1967 0
-2018 1353 0
2020 -2021 1910 1911 -1325 0
-2020 2021 0
-2020 -1910 0
-2020 -1911 0
-2020 1325 0
2022 -2023 503 1874 -1351 0
-2022 2023 0
-2022 -503 0
-2022 -1874 0
-2022 1351 0
2024 -2025 645 1885 -1349 0
-2024 2025 0
-2024 -645 0
-2024 -1885 0
-2024 1349 0
2026 -2027 623 1945 -1333 0
-2026 2027 0
-2026 -623 0
-2026 -1945 0
-2026 1333 0
2028 -2029 825 1918 -1339 0
-2028 2029 0
-2028 -825 0
-2028 -1918 0
-2028 1339 0
2030 -2031 723 1971 -1345 0
-2030 2031 0
-2030 -723 0
-2030 -1971 0
-2030 1345 0
2032 -2033 1861 1862 -1361 0
-2032 2033 0
-2032 -1861 0
-2032 -1862 0
-2032 1361 0
2034 -2035 789 1935 -1307 0
-2034 2035 0
-2034 -789 0
-2034 -1935 0
-2034 1307 0
2036 -2037 1887 1888 -1337 0
-2036 2037 0
-2036 -1887 0
-2036 -1888 0
-2036 1337 0
2038 -2039 929 1895 -1321 0
-2038 2039 0
-2038 -929 0
-2038 -1895 0
-2038 1321 0
2040 -2041 761 1949 -1303 0
-2040 2041 0
-2040 -761 0
-2040 -1949 0
-2040 1303 0
2042 -2043 1963 1964 -1347 0
-2042 2043 0
-2042 -1963 0
-2042 -1964 0
-2042 1347 0
2044 -2045 669 1922 -1301 0
-2044 2045 0
-2044 -669 0
-2044 -1922 0
-2044 1301 0
2046 -2047 1890 1891 -1309 0
-2046 2047 0
-2046 -1890 0
-2046 -1891 0
-2046 1309 0
2048 -2049 917 1957 -1335 0
-2048 2049 0
-2048 -917 0
-2048 -1957 0
-2048 1335 0
2050 -2051 633 1866 -1343 0
-2050 2051 0
-2050 -633 0
-2050 -1866 0
-2050 1343 0
2052 -2053 871 1851 -1355 0
-2052 2053 0
-2052 -871 0
-2052 -1851 0
-2052 1355 0
2054 -2055 857 1953 -1305 0
-2054 2055 0
-2054 -857 0
-2054 -1953 0
-2054 1305 0
2056 -2057 515 1961 -1327 0
-2056 2057 0
-2056 -515 0
-2056 -1961 0
-2056 1327 0
2058 -2059 713 1878 -1341 0
-2058 2059 0
-2058 -713 0
-2058 -1878 0
-2058 1341 0
2060 -2061 775 1847 -1293 0
-2060 2061 0
-2060 -775 0
-2060 -1847 0
-2060 1293 0
2062 -2063 0
-2062 2063 0
6 -5 0
-6 5 0
2064 -2065 931 1895 -1321 0
-2064 2065 0
-2064 -931 0
-2064 -1895 0
-2064 1321 0
2066 -2067 583 1914 -1287 0
-2066 2067 0
-2066 -583 0
-2066 -1914 0
-2066 1287 0
2068 -2069 815 1902 -1319 0
-2068 2069 0
-2068 -815 0
-2068 -1902 0
-2068 1319 0
2070 -2071 827 1918 -1339 0
-2070 2071 0
-2070 -827 0
-2070 -1918 0
-2070 1339 0
2072 -2073 699 1938 -1299 0
-2072 2073 0
-2072 -699 0
-2072 -1938 0
-2072 1299 0
2074 -2075 575 1870 -1315 0
-2074 2075 0
-2074 -575 0
-2074 -1870 0
-2074 1315 0
2076 -2077 739 1964 -1347 0
-2076 2077 0
-2076 -739 0
-2076 -1964 0
-2076 1347 0
2078 -2079 689 1862 -1361 0
-2078 2079 0
-2078 -689 0
-2078 -1862 0
-2078 1361 0
2080 -2081 943 1911 -1325 0
-2080 2081 0
-2080 -943 0
-2080 -1911 0
-2080 1325 0
1380 -1379 0
-1380 1379 0
2082 -2083 847 1898 -1289 0
-2082 2083 0
-2082 -847 0
-2082 -1898 0
-2082 1289 0
2084 -2085 647 1885 -1349 0
-2084 2085 0
-2084 -647 0
-2084 -1885 0
-2084 1349 0
2086 -2087 893 1843 -1329 0
-2086 2087 0
-2086 -893 0
-2086 -1843 0
-2086 1329 0
2088 -2089 725 1971 -1345 0
-2088 2089 0
-2088 -725 0
-2088 -1971 0
-2088 1345 0
2090 -2091 635 1866 -1343 0
-2090 2091 0
-2090 -635 0
-2090 -1866 0
-2090 1343 0
2092 -2093 607 1891 -1309 0
-2092 2093 0
-2092 -607 0
-2092 -1891 0
-2092 1309 0
2094 -2095 529 1908 -1313 0
-2094 2095 0
-2094 -529 0
-2094 -1908 0
-2094 1313 0
2096 -2097 791 1935 -1307 0
-2096 2097 0
-2096 -791 0
-2096 -1935 0
-2096 1307 0
2098 -2099 549 1905 -1331 0
-2098 2099 0
-2098 -549 0
-2098 -1905 0
-2098 1331 0
2100 -2101 517 1961 -1327 0
-2100 2101 0
-2100 -517 0
-2100 -1961 0
-2100 1327 0
2102 -2103 597 1979 -1291 0
-2102 2103 0
-2102 -597 0
-2102 -1979 0
-2102 1291 0
2104 -2105 565 1975 -1317 0
-2104 2105 0
-2104 -565 0
-2104 -1975 0
-2104 1317 0
2106 -2107 539 1925 -1357 0
-2106 2107 0
-2106 -539 0
-2106 -1925 0
-2106 1357 0
2108 -2109 681 1859 -1311 0
-2108 2109 0
-2108 -681 0
-2108 -1859 0
-2108 1311 0
2110 -2111 763 1949 -1303 0
-2110 2111 0
-2110 -763 0
-2110 -1949 0
-2110 1303 0
2112 -2113 505 1874 -1351 0
-2112 2113 0
-2112 -505 0
-2112 -1874 0
-2112 1351 0
2114 -2115 801 1888 -1337 0
-2114 2115 0
-2114 -801 0
-2114 -1888 0
-2114 1337 0
2116 -2117 873 1851 -1355 0
-2116 2117 0
-2116 -873 0
-2116 -1851 0
-2116 1355 0
2118 -2119 671 1922 -1301 0
-2118 2119 0
-2118 -671 0
-2118 -1922 0
-2118 1301 0
2120 -2121 881 1928 -1359 0
-2120 2121 0
-2120 -881 0
-2120 -1928 0
-2120 1359 0
2122 -2123 957 1931 -1297 0
-2122 2123 0
-2122 -957 0
-2122 -1931 0
-2122 1297 0
2124 -2125 859 1953 -1305 0
-2124 2125 0
-2124 -859 0
-2124 -1953 0
-2124 1305 0
2126 -2127 919 1957 -1335 0
-2126 2127 0
-2126 -919 0
-2126 -1957 0
-2126 1335 0
2128 -2129 655 1941 -1323 0
-2128 2129 0
-2128 -655 0
-2128 -1941 0
-2128 1323 0
2130 -2131 903 1881 -1363 0
-2130 2131 0
-2130 -903 0
-2130 -1881 0
-2130 1363 0
2132 -2133 839 1855 -1295 0
-2132 2133 0
-2132 -839 0
-2132 -1855 0
-2132 1295 0
2134 -2135 777 1847 -1293 0
-2134 2135 0
-2134 -777 0
-2134 -1847 0
-2134 1293 0
2136 -2137 715 1878 -1341 0
-2136 2137 0
-2136 -715 0
-2136 -1878 0
-2136 1341 0
2138 -2139 625 1945 -1333 0
-2138 2139 0
-2138 -625 0
-2138 -1945 0
-2138 1333 0
2140 -2141 751 1967 -1353 0
-2140 2141 0
-2140 -751 0
-2140 -1967 0
-2140 1353 0
2142 -2143 0
-2142 2143 0
10 -9 0
-10 9 0
2144 -2145 683 1859 -1311 0
-2144 2145 0
-2144 -683 0
-2144 -1859 0
-2144 1311 0
2146 -2147 849 1898 -1289 0
-2146 2147 0
-2146 -849 0
-2146 -1898 0
-2146 1289 0
2148 -2149 567 1975 -1317 0
-2148 2149 0
-2148 -567 0
-2148 -1975 0
-2148 1317 0
2150 -2151 507 1874 -1351 0
-2150 2151 0
-2150 -507 0
-2150 -1874 0
-2150 1351 0
2152 -2153 637 1866 -1343 0
-2152 2153 0
-2152 -637 0
-2152 -1866 0
-2152 1343 0
2154 -2155 959 1931 -1297 0
-2154 2155 0
-2154 -959 0
-2154 -1931 0
-2154 1297 0
2156 -2157 701 1938 -1299 0
-2156 2157 0
-2156 -701 0
-2156 -1938 0
-2156 1299 0
2158 -2159 861 1953 -1305 0
-2158 2159 0
-2158 -861 0
-2158 -1953 0
-2158 1305 0
2160 -2161 741 1964 -1347 0
-2160 2161 0
-2160 -741 0
-2160 -1964 0
-2160 1347 0
2162 -2163 793 1935 -1307 0
-2162 2163 0
-2162 -793 0
-2162 -1935 0
-2162 1307 0
2164 -2165 933 1895 -1321 0
-2164 2165 0
-2164 -933 0
-2164 -1895 0
-2164 1321 0
2166 -2167 657 1941 -1323 0
-2166 2167 0
-2166 -657 0
-2166 -1941 0
-2166 1323 0
2168 -2169 717 1878 -1341 0
-2168 2169 0
-2168 -717 0
-2168 -1878 0
-2168 1341 0
2170 -2171 803 1888 -1337 0
-2170 2171 0
-2170 -803 0
-2170 -1888 0
-2170 1337 0
2172 -2173 779 1847 -1293 0
-2172 2173 0
-2172 -779 0
-2172 -1847 0
-2172 1293 0
2174 -2175 577 1870 -1315 0
-2174 2175 0
-2174 -577 0
-2174 -1870 0
-2174 1315 0
2176 -2177 895 1843 -1329 0
-2176 2177 0
-2176 -895 0
-2176 -1843 0
-2176 1329 0
2178 -2179 531 1908 -1313 0
-2178 2179 0
-2178 -531 0
-2178 -1908 0
-2178 1313 0
2180 -2181 727 1971 -1345 0
-2180 2181 0
-2180 -727 0
-2180 -1971 0
-2180 1345 0
2182 -2183 585 1914 -1287 0
-2182 2183 0
-2182 -585 0
-2182 -1914 0
-2182 1287 0
2184 -2185 551 1905 -1331 0
-2184 2185 0
-2184 -551 0
-2184 -1905 0
-2184 1331 0
2186 -2187 875 1851 -1355 0
-2186 2187 0
-2186 -875 0
-2186 -1851 0
-2186 1355 0
2188 -2189 599 1979 -1291 0
-2188 2189 0
-2188 -599 0
-2188 -1979 0
-2188 1291 0
2190 -2191 765 1949 -1303 0
-2190 2191 0
-2190 -765 0
-2190 -1949 0
-2190 1303 0
2192 -2193 945 1911 -1325 0
-2192 2193 0
-2192 -945 0
-2192 -1911 0
-2192 1325 0
2194 -2195 673 1922 -1301 0
-2194 2195 0
-2194 -673 0
-2194 -1922 0
-2194 1301 0
1388 -1387 0
-1388 1387 0
2196 -2197 691 1862 -1361 0
-2196 2197 0
-2196 -691 0
-2196 -1862 0
-2196 1361 0
2198 -2199 753 1967 -1353 0
-2198 2199 0
-2198 -753 0
-2198 -1967 0
-2198 1353 0
2200 -2201 817 1902 -1319 0
-2200 2201 0
-2200 -817 0
-2200 -1902 0
-2200 1319 0
2202 -2203 627 1945 -1333 0
-2202 2203 0
-2202 -627 0
-2202 -1945 0
-2202 1333 0
2204 -2205 519 1961 -1327 0
-2204 2205 0
-2204 -519 0
-2204 -1961 0
-2204 1327 0
2206 -2207 921 1957 -1335 0
-2206 2207 0
-2206 -921 0
-2206 -1957 0
-2206 1335 0
2208 -2209 649 1885 -1349 0
-2208 2209 0
-2208 -649 0
-2208 -1885 0
-2208 1349 0
2210 -2211 905 1881 -1363 0
-2210 2211 0
-2210 -905 0
-2210 -1881 0
-2210 1363 0
2212 -2213 829 1918 -1339 0
-2212 2213 0
-2212 -829 0
-2212 -1918 0
-2212 1339 0
2214 -2215 841 1855 -1295 0
-2214 2215 0
-2214 -841 0
-2214 -1855 0
-2214 1295 0
2216 -2217 883 1928 -1359 0
-2216 2217 0
-2216 -883 0
-2216 -1928 0
-2216 1359 0
2218 -2219 609 1891 -1309 0
-2218 2219 0
-2218 -609 0
-2218 -1891 0
-2218 1309 0
2220 -2221 541 1925 -1357 0
-2220 2221 0
-2220 -541 0
-2220 -1925 0
-2220 1357 0
2222 -2223 0
-2222 2223 0
14 -13 0
-14 13 0
2224 -2225 685 1859 -1311 0
-2224 2225 0
-2224 -685 0
-2224 -1859 0
-2224 1311 0
2226 -2227 843 1855 -1295 0
-2226 2227 0
-2226 -843 0
-2226 -1855 0
-2226 1295 0
2228 -2229 781 1847 -1293 0
-2228 2229 0
-2228 -781 0
-2228 -1847 0
-2228 1293 0
2230 -2231 935 1895 -1321 0
-2230 2231 0
-2230 -935 0
-2230 -1895 0
-2230 1321 0
2232 -2233 521 1961 -1327 0
-2232 2233 0
-2232 -521 0
-2232 -1961 0
-2232 1327 0
2234 -2235 795 1935 -1307 0
-2234 2235 0
-2234 -795 0
-2234 -1935 0
-2234 1307 0
2236 -2237 877 1851 -1355 0
-2236 2237 0
-2236 -877 0
-2236 -1851 0
-2236 1355 0
2238 -2239 961 1931 -1297 0
-2238 2239 0
-2238 -961 0
-2238 -1931 0
-2238 1297 0
2240 -2241 897 1843 -1329 0
-2240 2241 0
-2240 -897 0
-2240 -1843 0
-2240 1329 0
2242 -2243 729 1971 -1345 0
-2242 2243 0
-2242 -729 0
-2242 -1971 0
-2242 1345 0
2244 -2245 831 1918 -1339 0
-2244 2245 0
-2244 -831 0
-2244 -1918 0
-2244 1339 0
2246 -2247 651 1885 -1349 0
-2246 2247 0
-2246 -651 0
-2246 -1885 0
-2246 1349 0
1396 -1395 0
-1396 1395 0
2248 -2249 755 1967 -1353 0
-2248 2249 0
-2248 -755 0
-2248 -1967 0
-2248 1353 0
2250 -2251 611 1891 -1309 0
-2250 2251 0
-2250 -611 0
-2250 -1891 0
-2250 1309 0
2252 -2253 885 1928 -1359 0
-2252 2253 0
-2252 -885 0
-2252 -1928 0
-2252 1359 0
2254 -2255 509 1874 -1351 0
-2254 2255 0
-2254 -509 0
-2254 -1874 0
-2254 1351 0
2256 -2257 819 1902 -1319 0
-2256 2257 0
-2256 -819 0
-2256 -1902 0
-2256 1319 0
2258 -2259 863 1953 -1305 0
-2258 2259 0
-2258 -863 0
-2258 -1953 0
-2258 1305 0
2260 -2261 947 1911 -1325 0
-2260 2261 0
-2260 -947 0
-2260 -1911 0
-2260 1325 0
2262 -2263 851 1898 -1289 0
-2262 2263 0
-2262 -851 0
-2262 -1898 0
-2262 1289 0
2264 -2265 675 1922 -1301 0
-2264 2265 0
-2264 -675 0
-2264 -1922 0
-2264 1301 0
2266 -2267 719 1878 -1341 0
-2266 2267 0
-2266 -719 0
-2266 -1878 0
-2266 1341 0
2268 -2269 923 1957 -1335 0
-2268 2269 0
-2268 -923 0
-2268 -1957 0
-2268 1335 0
2270 -2271 659 1941 -1323 0
-2270 2271 0
-2270 -659 0
-2270 -1941 0
-2270 1323 0
2272 -2273 805 1888 -1337 0
-2272 2273 0
-2272 -805 0
-2272 -1888 0
-2272 1337 0
2274 -2275 533 1908 -1313 0
-2274 2275 0
-2274 -533 0
-2274 -1908 0
-2274 1313 0
2276 -2277 569 1975 -1317 0
-2276 2277 0
-2276 -569 0
-2276 -1975 0
-2276 1317 0
2278 -2279 587 1914 -1287 0
-2278 2279 0
-2278 -587 0
-2278 -1914 0
-2278 1287 0
2280 -2281 767 1949 -1303 0
-2280 2281 0
-2280 -767 0
-2280 -1949 0
-2280 1303 0
2282 -2283 639 1866 -1343 0
-2282 2283 0
-2282 -639 0
-2282 -1866 0
-2282 1343 0
2284 -2285 693 1862 -1361 0
-2284 2285 0
-2284 -693 0
-2284 -1862 0
-2284 1361 0
2286 -2287 601 1979 -1291 0
-2286 2287 0
-2286 -601 0
-2286 -1979 0
-2286 1291 0
2288 -2289 629 1945 -1333 0
-2288 2289 0
-2288 -629 0
-2288 -1945 0
-2288 1333 0
2290 -2291 703 1938 -1299 0
-2290 2291 0
-2290 -703 0
-2290 -1938 0
-2290 1299 0
2292 -2293 553 1905 -1331 0
-2292 2293 0
-2292 -553 0
-2292 -1905 0
-2292 1331 0
2294 -2295 743 1964 -1347 0
-2294 2295 0
-2294 -743 0
-2294 -1964 0
-2294 1347 0
2296 -2297 543 1925 -1357 0
-2296 2297 0
-2296 -543 0
-2296 -1925 0
-2296 1357 0
2298 -2299 907 1881 -1363 0
-2298 2299 0
-2298 -907 0
-2298 -1881 0
-2298 1363 0
2300 -2301 579 1870 -1315 0
-2300 2301 0
-2300 -579 0
-2300 -1870 0
-2300 1315 0
18 -17 0
-18 17 0
2302 -2303 0
-2302 2303 0
1416 -1415 0
-1416 1415 0
2304 -2305 809 1888 -83 0
-2304 2305 0
-2304 -809 0
-2304 -1888 0
-2304 83 0
22 -21 0
-22 21 0
2306 -2307 0
-2306 2307 0
2308 -2309 953 1911 -135 0
-2308 2309 0
-2308 -953 0
-2308 -1911 0
-2308 135 0
1782 -1781 0
-1782 1781 0
2310 -2311 0
-2310 2311 0
2312 -2313 0
-2312 2313 0
1430 -1429 0
-1430 1429 0
2314 -2315 745 1964 -67 0
-2314 2315 0
-2314 -745 0
-2314 -1964 0
-2314 67 0
2316 -2317 0
-2316 2317 0
30 -29 0
-30 29 0
2318 -2319 797 1935 -159 0
-2318 2319 0
-2318 -797 0
-2318 -1935 0
-2318 159 0
1434 -1433 0
-1434 1433 0
2320 -2321 0
-2320 2321 0
34 -33 0
-34 33 0
1680 -1679 0
-1680 1679 0
2322 -2323 925 1957 -173 0
-2322 2323 0
-2322 -925 0
-2322 -1957 0
-2322 173 0
38 -37 0
-38 37 0
2324 -2325 0
-2324 2325 0
2326 -2327 865 1953 -103 0
-2326 2327 0
-2326 -865 0
-2326 -1953 0
-2326 103 0
1682 -1681 0
-1682 1681 0
2328 -2329 0
-2328 2329 0
42 -41 0
-42 41 0
2330 -2331 939 1895 -151 0
-2330 2331 0
-2330 -939 0
-2330 -1895 0
-2330 151 0
1684 -1683 0
-1684 1683 0
46 -45 0
-46 45 0
2332 -2333 0
-2332 2333 0
1692 -1691 0
-1692 1691 0
2334 -2335 867 1953 -103 0
-2334 2335 0
-2334 -867 0
-2334 -1953 0
-2334 103 0
2336 -2337 0
-2336 2337 0
50 -49 0
-50 49 0
1452 -1451 0
-1452 1451 0
2338 -2339 833 1918 -111 0
-2338 2339 0
-2338 -833 0
-2338 -1918 0
-2338 111 0
2340 -2341 0
-2340 2341 0
54 -53 0
-54 53 0
2342 -2343 555 1905 -39 0
-2342 2343 0
-2342 -555 0
-2342 -1905 0
-2342 39 0
1454 -1453 0
-1454 1453 0
58 -57 0
-58 57 0
2344 -2345 0
-2344 2345 0
2346 -2347 357 2348 -15 0
-2346 2347 0
-2346 -357 0
-2346 -2348 0
-2346 15 0
2349 -2345 57 2350 -3 0
-2349 2345 0
-2349 -57 0
-2349 -2350 0
-2349 3 0
2351 -2352 197 2353 -7 0
-2351 2352 0
-2351 -197 0
-2351 -2353 0
-2351 7 0
1300 -1299 0
-1300 1299 0
2354 -2355 887 1928 -1799 0
-2354 2355 0
-2354 -887 0
-2354 -1928 0
-2354 1799 0
2356 -1877 1878 -1563 0
-2356 1877 0
-2356 -1878 0
-2356 1563 0
2357 -1970 1971 -1787 0
-2357 1970 0
-2357 -1971 0
-2357 1787 0
2358 -2359 437 2360 -19 0
-2358 2359 0
-2358 -437 0
-2358 -2360 0
-2358 19 0
2361 -2362 277 2363 -11 0
-2361 2362 0
-2361 -277 0
-2361 -2363 0
-2361 11 0
62 -61 0
-62 61 0
2364 -2365 0
-2364 2365 0
2366 -2367 783 1847 -99 0
-2366 2367 0
-2366 -783 0
-2366 -1847 0
-2366 99 0
1464 -1463 0
-1464 1463 0
66 -65 0
-66 65 0
2368 -2369 0
-2368 2369 0
1468 -1467 0
-1468 1467 0
2370 -2371 603 1979 -91 0
-2370 2371 0
-2370 -603 0
-2370 -1979 0
-2370 91 0
2372 -2373 0
-2372 2373 0
70 -69 0
-70 69 0
2374 -2375 661 1941 -51 0
-2374 2375 0
-2374 -661 0
-2374 -1941 0
-2374 51 0
1474 -1473 0
-1474 1473 0
74 -73 0
-74 73 0
2376 -2377 0
-2376 2377 0
1788 -1787 0
-1788 1787 0
2378 -2379 707 1938 -63 0
-2378 2379 0
-2378 -707 0
-2378 -1938 0
-2378 63 0
78 -77 0
-78 77 0
2380 -2381 0
-2380 2381 0
1488 -1487 0
-1488 1487 0
2382 -1901 1902 -115 0
-2382 1901 0
-2382 -1902 0
-2382 115 0
82 -81 0
-82 81 0
2383 -2384 0
-2383 2384 0
2385 -2386 731 1971 -79 0
-2385 2386 0
-2385 -731 0
-2385 -1971 0
-2385 79 0
1694 -1693 0
-1694 1693 0
2387 -2388 0
-2387 2388 0
86 -85 0
-86 85 0
2389 -2390 589 1914 -43 0
-2389 2390 0
-2389 -589 0
-2389 -1914 0
-2389 43 0
1494 -1493 0
-1494 1493 0
2391 -2392 0
-2391 2392 0
90 -89 0
-90 89 0
2393 -2394 641 1866 -169 0
-2393 2394 0
-2393 -641 0
-2393 -1866 0
-2393 169 0
1500 -1499 0
-1500 1499 0
2395 -2396 0
-2395 2396 0
94 -93 0
-94 93 0
2397 -2398 733 1971 -79 0
-2397 2398 0
-2397 -733 0
-2397 -1971 0
-2397 79 0
1764 -1763 0
-1764 1763 0
98 -97 0
-98 97 0
2399 -2400 0
-2399 2400 0
2401 -2402 785 1847 -99 0
-2401 2402 0
-2401 -785 0
-2401 -1847 0
-2401 99 0
1740 -1739 0
-1740 1739 0
2403 -2404 0
-2403 2404 0
102 -101 0
-102 101 0
2405 -2406 557 1905 -39 0
-2405 2406 0
-2405 -557 0
-2405 -1905 0
-2405 39 0
1512 -1511 0
-1512 1511 0
2407 -2408 0
-2407 2408 0
106 -105 0
-106 105 0
2409 -2410 769 1949 -87 0
-2409 2410 0
-2409 -769 0
-2409 -1949 0
-2409 87 0
1514 -1513 0
-1514 1513 0
2411 -2412 0
-2411 2412 0
110 -109 0
-110 109 0
2413 -1850 1851 -165 0
-2413 1850 0
-2413 -1851 0
-2413 165 0
1518 -1517 0
-1518 1517 0
114 -113 0
-114 113 0
2414 -2415 0
-2414 2415 0
1800 -1799 0
-1800 1799 0
2416 -2417 709 1938 -63 0
-2416 2417 0
-2416 -709 0
-2416 -1938 0
-2416 63 0
2418 -2419 0
-2418 2419 0
118 -117 0
-118 117 0
1528 -1527 0
-1528 1527 0
2420 -2421 949 1911 -135 0
-2420 2421 0
-2420 -949 0
-2420 -1911 0
-2420 135 0
2422 -2423 0
-2422 2423 0
122 -121 0
-122 121 0
2424 -2425 771 1949 -87 0
-2424 2425 0
-2424 -771 0
-2424 -1949 0
-2424 87 0
1532 -1531 0
-1532 1531 0
2426 -2427 0
-2426 2427 0
126 -125 0
-126 125 0
2428 -2429 525 1961 -27 0
-2428 2429 0
-2428 -525 0
-2428 -1961 0
-2428 27 0
1766 -1765 0
-1766 1765 0
130 -129 0
-130 129 0
2430 -2431 0
-2430 2431 0
1796 -1795 0
-1796 1795 0
2432 -2433 889 1928 -119 0
-2432 2433 0
-2432 -889 0
-2432 -1928 0
-2432 119 0
134 -133 0
-134 133 0
2434 -2435 0
-2434 2435 0
2436 -2437 663 1941 -51 0
-2436 2437 0
-2436 -663 0
-2436 -1941 0
-2436 51 0
1550 -1549 0
-1550 1549 0
2438 -2439 0
-2438 2439 0
138 -137 0
-138 137 0
1552 -1551 0
-1552 1551 0
2440 -2441 937 1895 -151 0
-2440 2441 0
-2440 -937 0
-2440 -1895 0
-2440 151 0
2442 -2443 0
-2442 2443 0
142 -141 0
-142 141 0
2444 -2445 613 1891 -47 0
-2444 2445 0
-2444 -613 0
-2444 -1891 0
-2444 47 0
1556 -1555 0
-1556 1555 0
2446 -2447 0
-2446 2447 0
146 -145 0
-146 145 0
1708 -1707 0
-1708 1707 0
2448 -2449 911 1881 -131 0
-2448 2449 0
-2448 -911 0
-2448 -1881 0
-2448 131 0
150 -149 0
-150 149 0
2450 -2451 0
-2450 2451 0
2452 -2453 705 1938 -63 0
-2452 2453 0
-2452 -705 0
-2452 -1938 0
-2452 63 0
1564 -1563 0
-1564 1563 0
154 -153 0
-154 153 0
2454 -2455 0
-2454 2455 0
2456 -2457 735 1971 -79 0
-2456 2457 0
-2456 -735 0
-2456 -1971 0
-2456 79 0
1574 -1573 0
-1574 1573 0
2458 -2459 0
-2458 2459 0
158 -157 0
-158 157 0
2460 -2461 0
-2460 2461 0
162 -161 0
-162 161 0
2462 -2463 489 2360 -19 0
-2462 2463 0
-2462 -489 0
-2462 -2360 0
-2462 19 0
1356 -1355 0
-1356 1355 0
2464 -2465 821 1902 -1517 0
-2464 2465 0
-2464 -821 0
-2464 -1902 0
-2464 1517 0
2466 -2467 249 2353 -7 0
-2466 2467 0
-2466 -249 0
-2466 -2353 0
-2466 7 0
2468 -2469 409 2348 -15 0
-2468 2469 0
-2468 -409 0
-2468 -2348 0
-2468 15 0
2470 -2461 161 2350 -3 0
-2470 2461 0
-2470 -161 0
-2470 -2350 0
-2470 3 0
2471 -2472 329 2363 -11 0
-2471 2472 0
-2471 -329 0
-2471 -2363 0
-2471 11 0
2473 -2474 0
-2473 2474 0
164 -163 0
-164 163 0
2475 -2476 615 1891 -47 0
-2475 2476 0
-2475 -615 0
-2475 -1891 0
-2475 47 0
1578 -1577 0
-1578 1577 0
2477 -2478 0
-2477 2478 0
168 -167 0
-168 167 0
2479 -2480 909 1881 -131 0
-2479 2480 0
-2479 -909 0
-2479 -1881 0
-2479 131 0
1728 -1727 0
-1728 1727 0
2481 -2482 0
-2481 2482 0
172 -171 0
-172 171 0
176 -175 0
-176 175 0
2483 -2484 0
-2483 2484 0
2485 -2486 617 1891 -47 0
-2485 2486 0
-2485 -617 0
-2485 -1891 0
-2485 47 0
1590 -1589 0
-1590 1589 0
2487 -2488 0
-2487 2488 0
178 -177 0
-178 177 0
2489 -2490 419 2348 -15 0
-2489 2490 0
-2489 -419 0
-2489 -2348 0
-2489 15 0
2491 -2492 499 2360 -19 0
-2491 2492 0
-2491 -499 0
-2491 -2360 0
-2491 19 0
2493 -2494 259 2353 -7 0
-2493 2494 0
-2493 -259 0
-2493 -2353 0
-2493 7 0
2495 -2488 177 2350 -3 0
-2495 2488 0
-2495 -177 0
-2495 -2350 0
-2495 3 0
2496 -2497 339 2363 -11 0
-2496 2497 0
-2496 -339 0
-2496 -2363 0
-2496 11 0
2498 -2499 0
-2498 2499 0
2500 -2501 0
-2500 2501 0
2502 -2503 0
-2502 2503 0
184 -183 0
-184 183 0
186 -185 0
-186 185 0
2504 -2505 0
-2504 2505 0
188 -187 0
-188 187 0
2506 -2507 0
-2506 2507 0
190 -189 0
-190 189 0
2508 -2509 0
-2508 2509 0
2510 -2511 0
-2510 2511 0
192 -191 0
-192 191 0
2512 -2513 0
-2512 2513 0
194 -193 0
-194 193 0
2514 -2515 0
-2514 2515 0
196 -195 0
-196 195 0
2516 -2352 0
-2516 2352 0
198 -197 0
-198 197 0
2517 -2518 0
-2517 2518 0
200 -199 0
-200 199 0
202 -201 0
-202 201 0
2519 -2520 0
-2519 2520 0
2521 -2522 0
-2521 2522 0
204 -203 0
-204 203 0
206 -205 0
-206 205 0
2523 -2524 0
-2523 2524 0
2525 -2526 0
-2525 2526 0
208 -207 0
-208 207 0
210 -209 0
-210 209 0
2527 -2528 0
-2527 2528 0
212 -211 0
-212 211 0
2529 -2530 0
-2529 2530 0
2531 -2532 0
-2531 2532 0
214 -213 0
-214 213 0
216 -215 0
-216 215 0
2533 -2534 0
-2533 2534 0
2535 -2536 0
-2535 2536 0
218 -217 0
-218 217 0
220 -219 0
-220 219 0
2537 -2538 0
-2537 2538 0
222 -221 0
-222 221 0
2539 -2540 0
-2539 2540 0
224 -223 0
-224 223 0
2541 -2542 0
-2541 2542 0
2543 -2544 0
-2543 2544 0
226 -225 0
-226 225 0
228 -227 0
-228 227 0
2545 -2546 0
-2545 2546 0
2547 -2548 0
-2547 2548 0
230 -229 0
-230 229 0
2549 -2550 0
-2549 2550 0
232 -231 0
-232 231 0
2551 -2552 0
-2551 2552 0
234 -233 0
-234 233 0
236 -235 0
-236 235 0
2553 -2554 0
-2553 2554 0
2555 -2556 0
-2555 2556 0
238 -237 0
-238 237 0
2557 -2558 0
-2557 2558 0
240 -239 0
-240 239 0
2559 -2560 0
-2559 2560 0
242 -241 0
-242 241 0
244 -243 0
-244 243 0
2561 -2562 0
-2561 2562 0
2563 -2564 0
-2563 2564 0
246 -245 0
-246 245 0
2565 -2566 0
-2565 2566 0
248 -247 0
-248 247 0
2567 -2467 0
-2567 2467 0
250 -249 0
-250 249 0
2568 -2569 0
-2568 2569 0
252 -251 0
-252 251 0
254 -253 0
-254 253 0
2570 -2571 0
-2570 2571 0
2572 -2573 0
-2572 2573 0
256 -255 0
-256 255 0
2574 -2575 0
-2574 2575 0
258 -257 0
-258 257 0
260 -259 0
-260 259 0
2576 -2494 0
-2576 2494 0
2577 -2578 0
-2577 2578 0
2579 -2580 0
-2579 2580 0
2581 -2582 0
-2581 2582 0
264 -263 0
-264 263 0
2583 -2584 0
-2583 2584 0
266 -265 0
-266 265 0
268 -267 0
-268 267 0
2585 -2586 0
-2585 2586 0
270 -269 0
-270 269 0
2587 -2588 0
-2587 2588 0
272 -271 0
-272 271 0
2589 -2590 0
-2589 2590 0
2591 -2592 0
-2591 2592 0
274 -273 0
-274 273 0
276 -275 0
-276 275 0
2593 -2594 0
-2593 2594 0
2595 -2362 0
-2595 2362 0
278 -277 0
-278 277 0
280 -279 0
-280 279 0
2596 -2597 0
-2596 2597 0
2598 -2599 0
-2598 2599 0
282 -281 0
-282 281 0
2600 -2601 0
-2600 2601 0
284 -283 0
-284 283 0
2602 -2603 0
-2602 2603 0
286 -285 0
-286 285 0
2604 -2605 0
-2604 2605 0
288 -287 0
-288 287 0
2606 -2607 0
-2606 2607 0
290 -289 0
-290 289 0
2608 -2609 0
-2608 2609 0
292 -291 0
-292 291 0
294 -293 0
-294 293 0
2610 -2611 0
-2610 2611 0
2612 -2613 0
-2612 2613 0
296 -295 0
-296 295 0
2614 -2615 0
-2614 2615 0
298 -297 0
-298 297 0
2616 -2617 0
-2616 2617 0
300 -299 0
-300 299 0
2618 -2619 0
-2618 2619 0
302 -301 0
-302 301 0
2620 -2621 0
-2620 2621 0
304 -303 0
-304 303 0
306 -305 0
-306 305 0
2622 -2623 0
-2622 2623 0
2624 -2625 0
-2624 2625 0
308 -307 0
-308 307 0
310 -309 0
-310 309 0
2626 -2627 0
-2626 2627 0
2628 -2629 0
-2628 2629 0
312 -311 0
-312 311 0
314 -313 0
-314 313 0
2630 -2631 0
-2630 2631 0
2632 -2633 0
-2632 2633 0
316 -315 0
-316 315 0
318 -317 0
-318 317 0
2634 -2635 0
-2634 2635 0
2636 -2637 0
-2636 2637 0
320 -319 0
-320 319 0
322 -321 0
-322 321 0
2638 -2639 0
-2638 2639 0
2640 -2641 0
-2640 2641 0
324 -323 0
-324 323 0
2642 -2643 0
-2642 2643 0
326 -325 0
-326 325 0
328 -327 0
-328 327 0
2644 -2645 0
-2644 2645 0
330 -329 0
-330 329 0
2646 -2472 0
-2646 2472 0
2647 -2648 0
-2647 2648 0
332 -331 0
-332 331 0
2649 -2650 0
-2649 2650 0
334 -333 0
-334 333 0
2651 -2652 0
-2651 2652 0
336 -335 0
-336 335 0
2653 -2654 0
-2653 2654 0
338 -337 0
-338 337 0
340 -339 0
-340 339 0
2655 -2497 0
-2655 2497 0
2656 -2657 0
-2656 2657 0
2658 -2659 0
-2658 2659 0
2660 -2661 0
-2660 2661 0
344 -343 0
-344 343 0
2662 -2663 0
-2662 2663 0
346 -345 0
-346 345 0
348 -347 0
-348 347 0
2664 -2665 0
-2664 2665 0
350 -349 0
-350 349 0
2666 -2667 0
-2666 2667 0
2668 -2669 0
-2668 2669 0
352 -351 0
-352 351 0
354 -353 0
-354 353 0
2670 -2671 0
-2670 2671 0
2672 -2673 0
-2672 2673 0
356 -355 0
-356 355 0
2674 -2347 0
-2674 2347 0
358 -357 0
-358 357 0
2675 -2676 0
-2675 2676 0
360 -359 0
-360 359 0
362 -361 0
-362 361 0
2677 -2678 0
-2677 2678 0
2679 -2680 0
-2679 2680 0
364 -363 0
-364 363 0
366 -365 0
-366 365 0
2681 -2682 0
-2681 2682 0
2683 -2684 0
-2683 2684 0
368 -367 0
-368 367 0
370 -369 0
-370 369 0
2685 -2686 0
-2685 2686 0
372 -371 0
-372 371 0
2687 -2688 0
-2687 2688 0
374 -373 0
-374 373 0
2689 -2690 0
-2689 2690 0
2691 -2692 0
-2691 2692 0
376 -375 0
-376 375 0
2693 -2694 0
-2693 2694 0
378 -377 0
-378 377 0
2695 -2696 0
-2695 2696 0
380 -379 0
-380 379 0
382 -381 0
-382 381 0
2697 -2698 0
-2697 2698 0
2699 -2700 0
-2699 2700 0
384 -383 0
-384 383 0
2701 -2702 0
-2701 2702 0
386 -385 0
-386 385 0
2703 -2704 0
-2703 2704 0
388 -387 0
-388 387 0
390 -389 0
-390 389 0
2705 -2706 0
-2705 2706 0
392 -391 0
-392 391 0
2707 -2708 0
-2707 2708 0
2709 -2710 0
-2709 2710 0
394 -393 0
-394 393 0
2711 -2712 0
-2711 2712 0
396 -395 0
-396 395 0
2713 -2714 0
-2713 2714 0
398 -397 0
-398 397 0
400 -399 0
-400 399 0
2715 -2716 0
-2715 2716 0
2717 -2718 0
-2717 2718 0
402 -401 0
-402 401 0
2719 -2720 0
-2719 2720 0
404 -403 0
-404 403 0
2721 -2722 0
-2721 2722 0
406 -405 0
-406 405 0
408 -407 0
-408 407 0
2723 -2724 0
-2723 2724 0
410 -409 0
-410 409 0
2725 -2469 0
-2725 2469 0
2726 -2727 0
-2726 2727 0
412 -411 0
-412 411 0
2728 -2729 0
-2728 2729 0
414 -413 0
-414 413 0
416 -415 0
-416 415 0
2730 -2731 0
-2730 2731 0
2732 -2733 0
-2732 2733 0
418 -417 0
-418 417 0
420 -419 0
-420 419 0
2734 -2490 0
-2734 2490 0
2735 -2736 0
-2735 2736 0
2737 -2738 0
-2737 2738 0
2739 -2740 0
-2739 2740 0
424 -423 0
-424 423 0
2741 -2742 0
-2741 2742 0
426 -425 0
-426 425 0
2743 -2744 0
-2743 2744 0
428 -427 0
-428 427 0
430 -429 0
-430 429 0
2745 -2746 0
-2745 2746 0
2747 -2748 0
-2747 2748 0
432 -431 0
-432 431 0
2749 -2750 0
-2749 2750 0
434 -433 0
-434 433 0
2751 -2752 0
-2751 2752 0
436 -435 0
-436 435 0
2753 -2359 0
-2753 2359 0
438 -437 0
-438 437 0
2754 -2755 0
-2754 2755 0
440 -439 0
-440 439 0
2756 -2757 0
-2756 2757 0
442 -441 0
-442 441 0
444 -443 0
-444 443 0
2758 -2759 0
-2758 2759 0
2760 -2761 0
-2760 2761 0
446 -445 0
-446 445 0
448 -447 0
-448 447 0
2762 -2763 0
-2762 2763 0
2764 -2765 0
-2764 2765 0
450 -449 0
-450 449 0
2766 -2767 0
-2766 2767 0
452 -451 0
-452 451 0
2768 -2769 0
-2768 2769 0
454 -453 0
-454 453 0
456 -455 0
-456 455 0
2770 -2771 0
-2770 2771 0
2772 -2773 0
-2772 2773 0
458 -457 0
-458 457 0
460 -459 0
-460 459 0
2774 -2775 0
-2774 2775 0
2776 -2777 0
-2776 2777 0
462 -461 0
-462 461 0
2778 -2779 0
-2778 2779 0
464 -463 0
-464 463 0
2780 -2781 0
-2780 2781 0
466 -465 0
-466 465 0
468 -467 0
-468 467 0
2782 -2783 0
-2782 2783 0
2784 -2785 0
-2784 2785 0
470 -469 0
-470 469 0
2786 -2787 0
-2786 2787 0
472 -471 0
-472 471 0
474 -473 0
-474 473 0
2788 -2789 0
-2788 2789 0
476 -475 0
-476 475 0
2790 -2791 0
-2790 2791 0
2792 -2793 0
-2792 2793 0
478 -477 0
-478 477 0
2794 -2795 0
-2794 2795 0
480 -479 0
-480 479 0
2796 -2797 0
-2796 2797 0
482 -481 0
-482 481 0
484 -483 0
-484 483 0
2798 -2799 0
-2798 2799 0
2800 -2801 0
-2800 2801 0
486 -485 0
-486 485 0
2802 -2803 0
-2802 2803 0
488 -487 0
-488 487 0
490 -489 0
-490 489 0
2804 -2463 0
-2804 2463 0
2805 -2806 0
-2805 2806 0
492 -491 0
-492 491 0
494 -493 0
-494 493 0
2807 -2808 0
-2807 2808 0
2809 -2810 0
-2809 2810 0
496 -495 0
-496 495 0
498 -497 0
-498 497 0
2811 -2812 0
-2811 2812 0
500 -499 0
-500 499 0
2813 -2492 0
-2813 2492 0
2814 -1872 0
-2814 1872 0
2815 -1873 0
-2815 1873 0
504 -503 0
-504 503 0
2816 -2023 0
-2816 2023 0
2817 -2113 0
-2817 2113 0
506 -505 0
-506 505 0
508 -507 0
-508 507 0
2818 -2151 0
-2818 2151 0
2819 -2255 0
-2819 2255 0
510 -509 0
-510 509 0
2820 -2821 0
-2820 2821 0
512 -511 0
-512 511 0
2822 -1960 0
-2822 1960 0
2823 -1959 0
-2823 1959 0
2824 -2057 0
-2824 2057 0
516 -515 0
-516 515 0
2825 -2101 0
-2825 2101 0
518 -517 0
-518 517 0
2826 -2205 0
-2826 2205 0
520 -519 0
-520 519 0
522 -521 0
-522 521 0
2827 -2233 0
-2827 2233 0
524 -523 0
-524 523 0
2828 -2829 0
-2828 2829 0
2830 -2429 0
-2830 2429 0
526 -525 0
-526 525 0
2831 -2017 0
-2831 2017 0
2832 -1907 0
-2832 1907 0
2833 -2095 0
-2833 2095 0
530 -529 0
-530 529 0
2834 -2179 0
-2834 2179 0
532 -531 0
-532 531 0
534 -533 0
-534 533 0
2835 -2275 0
-2835 2275 0
2836 -2837 0
-2836 2837 0
536 -535 0
-536 535 0
2838 -1991 0
-2838 1991 0
2839 -1924 0
-2839 1924 0
2840 -2107 0
-2840 2107 0
540 -539 0
-540 539 0
2841 -2221 0
-2841 2221 0
542 -541 0
-542 541 0
544 -543 0
-544 543 0
2842 -2297 0
-2842 2297 0
546 -545 0
-546 545 0
2843 -2844 0
-2843 2844 0
2845 -1904 0
-2845 1904 0
2846 -1985 0
-2846 1985 0
550 -549 0
-550 549 0
2847 -2099 0
-2847 2099 0
552 -551 0
-552 551 0
2848 -2185 0
-2848 2185 0
2849 -2293 0
-2849 2293 0
554 -553 0
-554 553 0
2850 -2343 0
-2850 2343 0
556 -555 0
-556 555 0
2851 -2406 0
-2851 2406 0
558 -557 0
-558 557 0
2852 -2853 0
-2852 2853 0
560 -559 0
-560 559 0
2854 -1974 0
-2854 1974 0
2855 -1973 0
-2855 1973 0
2856 -2007 0
-2856 2007 0
564 -563 0
-564 563 0
2857 -2105 0
-2857 2105 0
566 -565 0
-566 565 0
2858 -2149 0
-2858 2149 0
568 -567 0
-568 567 0
2859 -2277 0
-2859 2277 0
570 -569 0
-570 569 0
2860 -1869 0
-2860 1869 0
2861 -1868 0
-2861 1868 0
574 -573 0
-574 573 0
2862 -1993 0
-2862 1993 0
576 -575 0
-576 575 0
2863 -2075 0
-2863 2075 0
2864 -2175 0
-2864 2175 0
578 -577 0
-578 577 0
2865 -2301 0
-2865 2301 0
580 -579 0
-580 579 0
2866 -2003 0
-2866 2003 0
2867 -1913 0
-2867 1913 0
584 -583 0
-584 583 0
2868 -2067 0
-2868 2067 0
586 -585 0
-586 585 0
2869 -2183 0
-2869 2183 0
2870 -2279 0
-2870 2279 0
588 -587 0
-588 587 0
590 -589 0
-590 589 0
2871 -2390 0
-2871 2390 0
592 -591 0
-592 591 0
2872 -2873 0
-2872 2873 0
2874 -1978 0
-2874 1978 0
2875 -1977 0
-2875 1977 0
2876 -2001 0
-2876 2001 0
596 -595 0
-596 595 0
2877 -2103 0
-2877 2103 0
598 -597 0
-598 597 0
2878 -2189 0
-2878 2189 0
600 -599 0
-600 599 0
2879 -2287 0
-2879 2287 0
602 -601 0
-602 601 0
604 -603 0
-604 603 0
2880 -2371 0
-2880 2371 0
2881 -1890 0
-2881 1890 0
2882 -2047 0
-2882 2047 0
2883 -2093 0
-2883 2093 0
608 -607 0
-608 607 0
2884 -2219 0
-2884 2219 0
610 -609 0
-610 609 0
612 -611 0
-612 611 0
2885 -2251 0
-2885 2251 0
2886 -2445 0
-2886 2445 0
614 -613 0
-614 613 0
2887 -2476 0
-2887 2476 0
616 -615 0
-616 615 0
2888 -2486 0
-2888 2486 0
618 -617 0
-618 617 0
620 -619 0
-620 619 0
2889 -2890 0
-2889 2890 0
2891 -1943 0
-2891 1943 0
2892 -1944 0
-2892 1944 0
624 -623 0
-624 623 0
2893 -2027 0
-2893 2027 0
626 -625 0
-626 625 0
2894 -2139 0
-2894 2139 0
2895 -2203 0
-2895 2203 0
628 -627 0
-628 627 0
630 -629 0
-630 629 0
2896 -2289 0
-2896 2289 0
2897 -1864 0
-2897 1864 0
2898 -1865 0
-2898 1865 0
634 -633 0
-634 633 0
2899 -2051 0
-2899 2051 0
2900 -2091 0
-2900 2091 0
636 -635 0
-636 635 0
2901 -2153 0
-2901 2153 0
638 -637 0
-638 637 0
640 -639 0
-640 639 0
2902 -2283 0
-2902 2283 0
2903 -2394 0
-2903 2394 0
642 -641 0
-642 641 0
2904 -1884 0
-2904 1884 0
2905 -1883 0
-2905 1883 0
2906 -2025 0
-2906 2025 0
646 -645 0
-646 645 0
2907 -2085 0
-2907 2085 0
648 -647 0
-648 647 0
2908 -2209 0
-2908 2209 0
650 -649 0
-650 649 0
652 -651 0
-652 651 0
2909 -2247 0
-2909 2247 0
2910 -1940 0
-2910 1940 0
2911 -1989 0
-2911 1989 0
2912 -2129 0
-2912 2129 0
656 -655 0
-656 655 0
2913 -2167 0
-2913 2167 0
658 -657 0
-658 657 0
660 -659 0
-660 659 0
2914 -2271 0
-2914 2271 0
662 -661 0
-662 661 0
2915 -2375 0
-2915 2375 0
2916 -2437 0
-2916 2437 0
664 -663 0
-664 663 0
666 -665 0
-666 665 0
2917 -2918 0
-2917 2918 0
2919 -1920 0
-2919 1920 0
2920 -1921 0
-2920 1921 0
2921 -2045 0
-2921 2045 0
670 -669 0
-670 669 0
672 -671 0
-672 671 0
2922 -2119 0
-2922 2119 0
2923 -2195 0
-2923 2195 0
674 -673 0
-674 673 0
676 -675 0
-676 675 0
2924 -2265 0
-2924 2265 0
2925 -1857 0
-2925 1857 0
2926 -1858 0
-2926 1858 0
2927 -1997 0
-2927 1997 0
680 -679 0
-680 679 0
2928 -2109 0
-2928 2109 0
682 -681 0
-682 681 0
2929 -2145 0
-2929 2145 0
684 -683 0
-684 683 0
2930 -2225 0
-2930 2225 0
686 -685 0
-686 685 0
2931 -1861 0
-2931 1861 0
2932 -2033 0
-2932 2033 0
2933 -2079 0
-2933 2079 0
690 -689 0
-690 689 0
2934 -2197 0
-2934 2197 0
692 -691 0
-692 691 0
694 -693 0
-694 693 0
2935 -2285 0
-2935 2285 0
696 -695 0
-696 695 0
2936 -2937 0
-2936 2937 0
2938 -1937 0
-2938 1937 0
2939 -1999 0
-2939 1999 0
700 -699 0
-700 699 0
2940 -2073 0
-2940 2073 0
2941 -2157 0
-2941 2157 0
702 -701 0
-702 701 0
704 -703 0
-704 703 0
2942 -2291 0
-2942 2291 0
2943 -2453 0
-2943 2453 0
706 -705 0
-706 705 0
708 -707 0
-708 707 0
2944 -2379 0
-2944 2379 0
2945 -2417 0
-2945 2417 0
710 -709 0
-710 709 0
2946 -1876 0
-2946 1876 0
2947 -1877 0
-2947 1877 0
714 -713 0
-714 713 0
2948 -2059 0
-2948 2059 0
2949 -2137 0
-2949 2137 0
716 -715 0
-716 715 0
2950 -2169 0
-2950 2169 0
718 -717 0
-718 717 0
2951 -2267 0
-2951 2267 0
720 -719 0
-720 719 0
2952 -1970 0
-2952 1970 0
2953 -1969 0
-2953 1969 0
2954 -2031 0
-2954 2031 0
724 -723 0
-724 723 0
2955 -2089 0
-2955 2089 0
726 -725 0
-726 725 0
2956 -2181 0
-2956 2181 0
728 -727 0
-728 727 0
2957 -2243 0
-2957 2243 0
730 -729 0
-730 729 0
2958 -2386 0
-2958 2386 0
732 -731 0
-732 731 0
2959 -2398 0
-2959 2398 0
734 -733 0
-734 733 0
736 -735 0
-736 735 0
2960 -2457 0
-2960 2457 0
2961 -1963 0
-2961 1963 0
2962 -2043 0
-2962 2043 0
740 -739 0
-740 739 0
2963 -2077 0
-2963 2077 0
2964 -2161 0
-2964 2161 0
742 -741 0
-742 741 0
744 -743 0
-744 743 0
2965 -2295 0
-2965 2295 0
2966 -2315 0
-2966 2315 0
746 -745 0
-746 745 0
748 -747 0
-748 747 0
2967 -2968 0
-2967 2968 0
2969 -2019 0
-2969 2019 0
2970 -1966 0
-2970 1966 0
2971 -2141 0
-2971 2141 0
752 -751 0
-752 751 0
754 -753 0
-754 753 0
2972 -2199 0
-2972 2199 0
2973 -2249 0
-2973 2249 0
756 -755 0
-756 755 0
2974 -2975 0
-2974 2975 0
758 -757 0
-758 757 0
2976 -1947 0
-2976 1947 0
2977 -1948 0
-2977 1948 0
2978 -2041 0
-2978 2041 0
762 -761 0
-762 761 0
2979 -2111 0
-2979 2111 0
764 -763 0
-764 763 0
2980 -2191 0
-2980 2191 0
766 -765 0
-766 765 0
2981 -2281 0
-2981 2281 0
768 -767 0
-768 767 0
770 -769 0
-770 769 0
2982 -2410 0
-2982 2410 0
772 -771 0
-772 771 0
2983 -2425 0
-2983 2425 0
2984 -1845 0
-2984 1845 0
2985 -1846 0
-2985 1846 0
776 -775 0
-776 775 0
2986 -2061 0
-2986 2061 0
2987 -2135 0
-2987 2135 0
778 -777 0
-778 777 0
2988 -2173 0
-2988 2173 0
780 -779 0
-780 779 0
2989 -2229 0
-2989 2229 0
782 -781 0
-782 781 0
784 -783 0
-784 783 0
2990 -2367 0
-2990 2367 0
786 -785 0
-786 785 0
2991 -2402 0
-2991 2402 0
2992 -1934 0
-2992 1934 0
2993 -1933 0
-2993 1933 0
790 -789 0
-790 789 0
2994 -2035 0
-2994 2035 0
2995 -2097 0
-2995 2097 0
792 -791 0
-792 791 0
794 -793 0
-794 793 0
2996 -2163 0
-2996 2163 0
796 -795 0
-796 795 0
2997 -2235 0
-2997 2235 0
2998 -2319 0
-2998 2319 0
798 -797 0
-798 797 0
2999 -1887 0
-2999 1887 0
3000 -2037 0
-3000 2037 0
3001 -2115 0
-3001 2115 0
802 -801 0
-802 801 0
3002 -2171 0
-3002 2171 0
804 -803 0
-804 803 0
3003 -2273 0
-3003 2273 0
806 -805 0
-806 805 0
808 -807 0
-808 807 0
3004 -3005 0
-3004 3005 0
3006 -2305 0
-3006 2305 0
810 -809 0
-810 809 0
3007 -1901 0
-3007 1901 0
3008 -1900 0
-3008 1900 0
3009 -2015 0
-3009 2015 0
814 -813 0
-814 813 0
816 -815 0
-816 815 0
3010 -2069 0
-3010 2069 0
3011 -2201 0
-3011 2201 0
818 -817 0
-818 817 0
820 -819 0
-820 819 0
3012 -2257 0
-3012 2257 0
3013 -2465 0
-3013 2465 0
822 -821 0
-822 821 0
3014 -1917 0
-3014 1917 0
3015 -1916 0
-3015 1916 0
826 -825 0
-826 825 0
3016 -2029 0
-3016 2029 0
828 -827 0
-828 827 0
3017 -2071 0
-3017 2071 0
830 -829 0
-830 829 0
3018 -2213 0
-3018 2213 0
3019 -2245 0
-3019 2245 0
832 -831 0
-832 831 0
3020 -2339 0
-3020 2339 0
834 -833 0
-834 833 0
3021 -1854 0
-3021 1854 0
3022 -1853 0
-3022 1853 0
3023 -2009 0
-3023 2009 0
838 -837 0
-838 837 0
3024 -2133 0
-3024 2133 0
840 -839 0
-840 839 0
3025 -2215 0
-3025 2215 0
842 -841 0
-842 841 0
3026 -2227 0
-3026 2227 0
844 -843 0
-844 843 0
3027 -1897 0
-3027 1897 0
3028 -2011 0
-3028 2011 0
3029 -2083 0
-3029 2083 0
848 -847 0
-848 847 0
3030 -2147 0
-3030 2147 0
850 -849 0
-850 849 0
3031 -2263 0
-3031 2263 0
852 -851 0
-852 851 0
854 -853 0
-854 853 0
3032 -3033 0
-3032 3033 0
3034 -1951 0
-3034 1951 0
3035 -1952 0
-3035 1952 0
858 -857 0
-858 857 0
3036 -2055 0
-3036 2055 0
3037 -2125 0
-3037 2125 0
860 -859 0
-860 859 0
3038 -2159 0
-3038 2159 0
862 -861 0
-862 861 0
3039 -2259 0
-3039 2259 0
864 -863 0
-864 863 0
866 -865 0
-866 865 0
3040 -2327 0
-3040 2327 0
868 -867 0
-868 867 0
3041 -2335 0
-3041 2335 0
3042 -1850 0
-3042 1850 0
3043 -1849 0
-3043 1849 0
3044 -2053 0
-3044 2053 0
872 -871 0
-872 871 0
3045 -2117 0
-3045 2117 0
874 -873 0
-874 873 0
876 -875 0
-876 875 0
3046 -2187 0
-3046 2187 0
878 -877 0
-878 877 0
3047 -2237 0
-3047 2237 0
3048 -1927 0
-3048 1927 0
3049 -2005 0
-3049 2005 0
3050 -2121 0
-3050 2121 0
882 -881 0
-882 881 0
3051 -2217 0
-3051 2217 0
884 -883 0
-884 883 0
3052 -2253 0
-3052 2253 0
886 -885 0
-886 885 0
3053 -2355 0
-3053 2355 0
888 -887 0
-888 887 0
3054 -2433 0
-3054 2433 0
890 -889 0
-890 889 0
3055 -1842 0
-3055 1842 0
3056 -2013 0
-3056 2013 0
3057 -2087 0
-3057 2087 0
894 -893 0
-894 893 0
3058 -2177 0
-3058 2177 0
896 -895 0
-896 895 0
898 -897 0
-898 897 0
3059 -2241 0
-3059 2241 0
900 -899 0
-900 899 0
3060 -3061 0
-3060 3061 0
3062 -1880 0
-3062 1880 0
3063 -1995 0
-3063 1995 0
904 -903 0
-904 903 0
3064 -2131 0
-3064 2131 0
906 -905 0
-906 905 0
3065 -2211 0
-3065 2211 0
908 -907 0
-908 907 0
3066 -2299 0
-3066 2299 0
3067 -2480 0
-3067 2480 0
910 -909 0
-910 909 0
912 -911 0
-912 911 0
3068 -2449 0
-3068 2449 0
3069 -3070 0
-3069 3070 0
914 -913 0
-914 913 0
3071 -1956 0
-3071 1956 0
3072 -1955 0
-3072 1955 0
918 -917 0
-918 917 0
3073 -2049 0
-3073 2049 0
3074 -2127 0
-3074 2127 0
920 -919 0
-920 919 0
3075 -2207 0
-3075 2207 0
922 -921 0
-922 921 0
3076 -2269 0
-3076 2269 0
924 -923 0
-924 923 0
926 -925 0
-926 925 0
3077 -2323 0
-3077 2323 0
3078 -1894 0
-3078 1894 0
3079 -1893 0
-3079 1893 0
3080 -2039 0
-3080 2039 0
930 -929 0
-930 929 0
3081 -2065 0
-3081 2065 0
932 -931 0
-932 931 0
3082 -2165 0
-3082 2165 0
934 -933 0
-934 933 0
3083 -2231 0
-3083 2231 0
936 -935 0
-936 935 0
938 -937 0
-938 937 0
3084 -2441 0
-3084 2441 0
3085 -2331 0
-3085 2331 0
940 -939 0
-940 939 0
3086 -1910 0
-3086 1910 0
3087 -2021 0
-3087 2021 0
944 -943 0
-944 943 0
3088 -2081 0
-3088 2081 0
3089 -2193 0
-3089 2193 0
946 -945 0
-946 945 0
948 -947 0
-948 947 0
3090 -2261 0
-3090 2261 0
3091 -2421 0
-3091 2421 0
950 -949 0
-950 949 0
952 -951 0
-952 951 0
3092 -3093 0
-3092 3093 0
954 -953 0
-954 953 0
3094 -2309 0
-3094 2309 0
3095 -1930 0
-3095 1930 0
3096 -1987 0
-3096 1987 0
958 -957 0
-958 957 0
3097 -2123 0
-3097 2123 0
3098 -2155 0
-3098 2155 0
960 -959 0
-960 959 0
3099 -2239 0
-3099 2239 0
962 -961 0
-962 961 0
964 -963 0
-964 963 0
3100 -3101 0
-3100 3101 0
3102 -1883 1884 1885 -1031 0
-3102 1883 0
-3102 -1884 0
-3102 -1885 0
-3102 1031 0
3103 -1887 1888 -1019 0
-3103 1887 0
-3103 -1888 0
-3103 1019 0
3104 -1890 1891 -991 0
-3104 1890 0
-3104 -1891 0
-3104 991 0
3105 -1893 1894 1895 -1003 0
-3105 1893 0
-3105 -1894 0
-3105 -1895 0
-3105 1003 0
3106 -1897 1898 -971 0
-3106 1897 0
-3106 -1898 0
-3106 971 0
3107 -1900 1901 1902 -1001 0
-3107 1900 0
-3107 -1901 0
-3107 -1902 0
-3107 1001 0
3108 -1904 1905 -1013 0
-3108 1904 0
-3108 -1905 0
-3108 1013 0
3109 -1907 1908 -995 0
-3109 1907 0
-3109 -1908 0
-3109 995 0
3110 -1913 1914 -969 0
-3110 1913 0
-3110 -1914 0
-3110 969 0
3111 -1973 1974 1975 -999 0
-3111 1973 0
-3111 -1974 0
-3111 -1975 0
-3111 999 0
3112 -1916 1917 1918 -1021 0
-3112 1916 0
-3112 -1917 0
-3112 -1918 0
-3112 1021 0
3113 -1924 1925 -1039 0
-3113 1924 0
-3113 -1925 0
-3113 1039 0
3114 -1920 1921 1922 -983 0
-3114 1920 0
-3114 -1921 0
-3114 -1922 0
-3114 983 0
3115 -1927 1928 -1041 0
-3115 1927 0
-3115 -1928 0
-3115 1041 0
3116 -1930 1931 -979 0
-3116 1930 0
-3116 -1931 0
-3116 979 0
3117 -1933 1934 1935 -989 0
-3117 1933 0
-3117 -1934 0
-3117 -1935 0
-3117 989 0
3118 -1940 1941 -1005 0
-3118 1940 0
-3118 -1941 0
-3118 1005 0
3119 -1947 1948 1949 -985 0
-3119 1947 0
-3119 -1948 0
-3119 -1949 0
-3119 985 0
3120 -1943 1944 1945 -1015 0
-3120 1943 0
-3120 -1944 0
-3120 -1945 0
-3120 1015 0
3121 -1951 1952 1953 -987 0
-3121 1951 0
-3121 -1952 0
-3121 -1953 0
-3121 987 0
3122 -1963 1964 -1029 0
-3122 1963 0
-3122 -1964 0
-3122 1029 0
3123 -1959 1960 1961 -1009 0
-3123 1959 0
-3123 -1960 0
-3123 -1961 0
-3123 1009 0
3124 -1966 1967 -1035 0
-3124 1966 0
-3124 -1967 0
-3124 1035 0
3125 -1969 1970 1971 -1027 0
-3125 1969 0
-3125 -1970 0
-3125 -1971 0
-3125 1027 0
3126 -1955 1956 1957 -1017 0
-3126 1955 0
-3126 -1956 0
-3126 -1957 0
-3126 1017 0
3127 -1983 3128 0
-3127 1983 0
-3127 -3128 0
3129 -1977 1978 1979 -973 0
-3129 1977 0
-3129 -1978 0
-3129 -1979 0
-3129 973 0
3130 -1937 1938 -981 0
-3130 1937 0
-3130 -1938 0
-3130 981 0
3131 -1876 1877 1878 -1023 0
-3131 1876 0
-3131 -1877 0
-3131 -1878 0
-3131 1023 0
3132 -1842 1843 -1011 0
-3132 1842 0
-3132 -1843 0
-3132 1011 0
3133 -1845 1846 1847 -975 0
-3133 1845 0
-3133 -1846 0
-3133 -1847 0
-3133 975 0
3134 -1849 1850 1851 -1037 0
-3134 1849 0
-3134 -1850 0
-3134 -1851 0
-3134 1037 0
3135 -1853 1854 1855 -977 0
-3135 1853 0
-3135 -1854 0
-3135 -1855 0
-3135 977 0
3136 -1857 1858 1859 -993 0
-3136 1857 0
-3136 -1858 0
-3136 -1859 0
-3136 993 0
3137 -1861 1862 -1043 0
-3137 1861 0
-3137 -1862 0
-3137 1043 0
3138 -1864 1865 1866 -1025 0
-3138 1864 0
-3138 -1865 0
-3138 -1866 0
-3138 1025 0
3139 -1868 1869 1870 -997 0
-3139 1868 0
-3139 -1869 0
-3139 -1870 0
-3139 997 0
3140 -1872 1873 1874 -1033 0
-3140 1872 0
-3140 -1873 0
-3140 -1874 0
-3140 1033 0
3141 -1910 1911 -1007 0
-3141 1910 0
-3141 -1911 0
-3141 1007 0
3142 -1880 1881 -1045 0
-3142 1880 0
-3142 -1881 0
-3142 1045 0
1746 -1745 0
-1746 1745 0
3143 -2327 865 1953 -987 0
-3143 2327 0
-3143 -865 0
-3143 -1953 0
-3143 987 0
1656 -1655 0
-1656 1655 0
3144 -2394 641 1866 -1025 0
-3144 2394 0
-3144 -641 0
-3144 -1866 0
-3144 1025 0
3145 -2390 589 1914 -969 0
-3145 2390 0
-3145 -589 0
-3145 -1914 0
-3145 969 0
1658 -1657 0
-1658 1657 0
3146 -2398 733 1971 -1027 0
-3146 2398 0
-3146 -733 0
-3146 -1971 0
-3146 1027 0
1806 -1805 0
-1806 1805 0
3147 -2425 771 1949 -985 0
-3147 2425 0
-3147 -771 0
-3147 -1949 0
-3147 985 0
1660 -1659 0
-1660 1659 0
1662 -1661 0
-1662 1661 0
3148 -2441 937 1895 -1003 0
-3148 2441 0
-3148 -937 0
-3148 -1895 0
-3148 1003 0
1838 -1837 0
-1838 1837 0
3149 -2355 887 1928 -1041 0
-3149 2355 0
-3149 -887 0
-3149 -1928 0
-3149 1041 0
1664 -1663 0
-1664 1663 0
3150 -2375 661 1941 -1005 0
-3150 2375 0
-3150 -661 0
-3150 -1941 0
-3150 1005 0
3151 -2386 731 1971 -1027 0
-3151 2386 0
-3151 -731 0
-3151 -1971 0
-3151 1027 0
1748 -1747 0
-1748 1747 0
1750 -1749 0
-1750 1749 0
3152 -2402 785 1847 -975 0
-3152 2402 0
-3152 -785 0
-3152 -1847 0
-3152 975 0
3153 -2457 735 1971 -1027 0
-3153 2457 0
-3153 -735 0
-3153 -1971 0
-3153 1027 0
1666 -1665 0
-1666 1665 0
3154 -2331 939 1895 -1003 0
-3154 2331 0
-3154 -939 0
-3154 -1895 0
-3154 1003 0
1752 -1751 0
-1752 1751 0
3155 -2437 663 1941 -1005 0
-3155 2437 0
-3155 -663 0
-3155 -1941 0
-3155 1005 0
1398 -1397 0
-1398 1397 0
3156 -2315 745 1964 -1029 0
-3156 2315 0
-3156 -745 0
-3156 -1964 0
-3156 1029 0
1400 -1399 0
-1400 1399 0
1402 -1401 0
-1402 1401 0
3157 -2406 557 1905 -1013 0
-3157 2406 0
-3157 -557 0
-3157 -1905 0
-3157 1013 0
3158 -2343 555 1905 -1013 0
-3158 2343 0
-3158 -555 0
-3158 -1905 0
-3158 1013 0
1404 -1403 0
-1404 1403 0
1668 -1667 0
-1668 1667 0
3159 -3005 807 1888 -1019 0
-3159 3005 0
-3159 -807 0
-3159 -1888 0
-3159 1019 0
1754 -1753 0
-1754 1753 0
3160 -2449 911 1881 -1045 0
-3160 2449 0
-3160 -911 0
-3160 -1881 0
-3160 1045 0
3161 -2335 867 1953 -987 0
-3161 2335 0
-3161 -867 0
-3161 -1953 0
-3161 987 0
1672 -1671 0
-1672 1671 0
3162 -2433 889 1928 -1041 0
-3162 2433 0
-3162 -889 0
-3162 -1928 0
-3162 1041 0
1832 -1831 0
-1832 1831 0
3163 -2309 953 1911 -1007 0
-3163 2309 0
-3163 -953 0
-3163 -1911 0
-3163 1007 0
1808 -1807 0
-1808 1807 0
1406 -1405 0
-1406 1405 0
3164 -2421 949 1911 -1007 0
-3164 2421 0
-3164 -949 0
-3164 -1911 0
-3164 1007 0
1408 -1407 0
-1408 1407 0
3165 -2323 925 1957 -1017 0
-3165 2323 0
-3165 -925 0
-3165 -1957 0
-3165 1017 0
3166 -2445 613 1891 -991 0
-3166 2445 0
-3166 -613 0
-3166 -1891 0
-3166 991 0
1410 -1409 0
-1410 1409 0
1412 -1411 0
-1412 1411 0
3167 -2480 909 1881 -1045 0
-3167 2480 0
-3167 -909 0
-3167 -1881 0
-3167 1045 0
3168 -2821 511 1874 -1421 0
-3168 2821 0
-3168 -511 0
-3168 -1874 0
-3168 1421 0
3169 -1901 1902 -1667 0
-3169 1901 0
-3169 -1902 0
-3169 1667 0
3170 -2410 769 1949 -985 0
-3170 2410 0
-3170 -769 0
-3170 -1949 0
-3170 985 0
1674 -1673 0
-1674 1673 0
1414 -1413 0
-1414 1413 0
3171 -2453 705 1938 -981 0
-3171 2453 0
-3171 -705 0
-3171 -1938 0
-3171 981 0
3172 -2476 615 1891 -991 0
-3172 2476 0
-3172 -615 0
-3172 -1891 0
-3172 991 0
1676 -1675 0
-1676 1675 0
3173 -2379 707 1938 -981 0
-3173 2379 0
-3173 -707 0
-3173 -1938 0
-3173 981 0
1814 -1813 0
-1814 1813 0
1418 -1417 0
-1418 1417 0
3174 -2367 783 1847 -975 0
-3174 2367 0
-3174 -783 0
-3174 -1847 0
-3174 975 0
1420 -1419 0
-1420 1419 0
3175 -2486 617 1891 -991 0
-3175 2486 0
-3175 -617 0
-3175 -1891 0
-3175 991 0
1422 -1421 0
-1422 1421 0
3176 -2305 809 1888 -1019 0
-3176 2305 0
-3176 -809 0
-3176 -1888 0
-3176 1019 0
3177 -2371 603 1979 -973 0
-3177 2371 0
-3177 -603 0
-3177 -1979 0
-3177 973 0
1424 -1423 0
-1424 1423 0
1426 -1425 0
-1426 1425 0
3178 -2465 821 1902 -1001 0
-3178 2465 0
-3178 -821 0
-3178 -1902 0
-3178 1001 0
1428 -1427 0
-1428 1427 0
3179 -2319 797 1935 -989 0
-3179 2319 0
-3179 -797 0
-3179 -1935 0
-3179 989 0
3180 -3093 951 1911 -1831 0
-3180 3093 0
-3180 -951 0
-3180 -1911 0
-3180 1831 0
3181 -2417 709 1938 -1837 0
-3181 2417 0
-3181 -709 0
-3181 -1938 0
-3181 1837 0
1432 -1431 0
-1432 1431 0
3182 -2339 833 1918 -1021 0
-3182 2339 0
-3182 -833 0
-3182 -1918 0
-3182 1021 0
1756 -1755 0
-1756 1755 0
3183 -2429 525 1961 -1009 0
-3183 2429 0
-3183 -525 0
-3183 -1961 0
-3183 1009 0
3184 -1943 1944 1945 -1095 0
-3184 1943 0
-3184 -1944 0
-3184 -1945 0
-3184 1095 0
3185 -1907 1908 -1075 0
-3185 1907 0
-3185 -1908 0
-3185 1075 0
3186 -1951 1952 1953 -1067 0
-3186 1951 0
-3186 -1952 0
-3186 -1953 0
-3186 1067 0
3187 -1955 1956 1957 -1097 0
-3187 1955 0
-3187 -1956 0
-3187 -1957 0
-3187 1097 0
3188 -1913 1914 -1049 0
-3188 1913 0
-3188 -1914 0
-3188 1049 0
3189 -1973 1974 1975 -1079 0
-3189 1973 0
-3189 -1974 0
-3189 -1975 0
-3189 1079 0
3190 -1937 1938 -1061 0
-3190 1937 0
-3190 -1938 0
-3190 1061 0
3191 -1969 1970 1971 -1107 0
-3191 1969 0
-3191 -1970 0
-3191 -1971 0
-3191 1107 0
3192 -1933 1934 1935 -1069 0
-3192 1933 0
-3192 -1934 0
-3192 -1935 0
-3192 1069 0
3193 -1924 1925 -1119 0
-3193 1924 0
-3193 -1925 0
-3193 1119 0
3194 -1930 1931 -1059 0
-3194 1930 0
-3194 -1931 0
-3194 1059 0
3195 -1947 1948 1949 -1065 0
-3195 1947 0
-3195 -1948 0
-3195 -1949 0
-3195 1065 0
3196 -1861 1862 -1123 0
-3196 1861 0
-3196 -1862 0
-3196 1123 0
3197 -1963 1964 -1109 0
-3197 1963 0
-3197 -1964 0
-3197 1109 0
3198 -1959 1960 1961 -1089 0
-3198 1959 0
-3198 -1960 0
-3198 -1961 0
-3198 1089 0
3199 -1872 1873 1874 -1113 0
-3199 1872 0
-3199 -1873 0
-3199 -1874 0
-3199 1113 0
3200 -1966 1967 -1115 0
-3200 1966 0
-3200 -1967 0
-3200 1115 0
3201 -1977 1978 1979 -1053 0
-3201 1977 0
-3201 -1978 0
-3201 -1979 0
-3201 1053 0
3202 -1842 1843 -1091 0
-3202 1842 0
-3202 -1843 0
-3202 1091 0
3203 -1845 1846 1847 -1055 0
-3203 1845 0
-3203 -1846 0
-3203 -1847 0
-3203 1055 0
3204 -1876 1877 1878 -1103 0
-3204 1876 0
-3204 -1877 0
-3204 -1878 0
-3204 1103 0
3205 -1883 1884 1885 -1111 0
-3205 1883 0
-3205 -1884 0
-3205 -1885 0
-3205 1111 0
3206 -1849 1850 1851 -1117 0
-3206 1849 0
-3206 -1850 0
-3206 -1851 0
-3206 1117 0
3207 -1857 1858 1859 -1073 0
-3207 1857 0
-3207 -1858 0
-3207 -1859 0
-3207 1073 0
3208 -1853 1854 1855 -1057 0
-3208 1853 0
-3208 -1854 0
-3208 -1855 0
-3208 1057 0
3209 -1864 1865 1866 -1105 0
-3209 1864 0
-3209 -1865 0
-3209 -1866 0
-3209 1105 0
3210 -1897 1898 -1051 0
-3210 1897 0
-3210 -1898 0
-3210 1051 0
3211 -1900 1901 1902 -1081 0
-3211 1900 0
-3211 -1901 0
-3211 -1902 0
-3211 1081 0
3212 -1904 1905 -1093 0
-3212 1904 0
-3212 -1905 0
-3212 1093 0
3213 -1910 1911 -1087 0
-3213 1910 0
-3213 -1911 0
-3213 1087 0
3214 -1868 1869 1870 -1077 0
-3214 1868 0
-3214 -1869 0
-3214 -1870 0
-3214 1077 0
3215 -1880 1881 -1125 0
-3215 1880 0
-3215 -1881 0
-3215 1125 0
3216 -1916 1917 1918 -1101 0
-3216 1916 0
-3216 -1917 0
-3216 -1918 0
-3216 1101 0
3217 -1920 1921 1922 -1063 0
-3217 1920 0
-3217 -1921 0
-3217 -1922 0
-3217 1063 0
3218 -1927 1928 -1121 0
-3218 1927 0
-3218 -1928 0
-3218 1121 0
3219 -1887 1888 -1099 0
-3219 1887 0
-3219 -1888 0
-3219 1099 0
968 -967 0
-968 967 0
3220 -1890 1891 -1071 0
-3220 1890 0
-3220 -1891 0
-3220 1071 0
3221 -1893 1894 1895 -1083 0
-3221 1893 0
-3221 -1894 0
-3221 -1895 0
-3221 1083 0
3222 -1940 1941 -1085 0
-3222 1940 0
-3222 -1941 0
-3222 1085 0
1758 -1757 0
-1758 1757 0
3223 -2327 865 1953 -1067 0
-3223 2327 0
-3223 -865 0
-3223 -1953 0
-3223 1067 0
3224 -2394 641 1866 -1105 0
-3224 2394 0
-3224 -641 0
-3224 -1866 0
-3224 1105 0
1436 -1435 0
-1436 1435 0
3225 -2390 589 1914 -1049 0
-3225 2390 0
-3225 -589 0
-3225 -1914 0
-3225 1049 0
1678 -1677 0
-1678 1677 0
1818 -1817 0
-1818 1817 0
3226 -2398 733 1971 -1107 0
-3226 2398 0
-3226 -733 0
-3226 -1971 0
-3226 1107 0
3227 -2425 771 1949 -1065 0
-3227 2425 0
-3227 -771 0
-3227 -1949 0
-3227 1065 0
1438 -1437 0
-1438 1437 0
3228 -2441 937 1895 -1083 0
-3228 2441 0
-3228 -937 0
-3228 -1895 0
-3228 1083 0
1440 -1439 0
-1440 1439 0
3229 -2345 57 2350 -967 0
-3229 2345 0
-3229 -57 0
-3229 -2350 0
-3229 967 0
3230 -1877 1878 -1469 0
-3230 1877 0
-3230 -1878 0
-3230 1469 0
982 -981 0
-982 981 0
3231 -2359 437 2360 -1389 0
-3231 2359 0
-3231 -437 0
-3231 -2360 0
-3231 1389 0
3232 -2347 357 2348 -1381 0
-3232 2347 0
-3232 -357 0
-3232 -2348 0
-3232 1381 0
3233 -2355 887 1928 -1827 0
-3233 2355 0
-3233 -887 0
-3233 -1928 0
-3233 1827 0
3234 -2352 197 2353 -1365 0
-3234 2352 0
-3234 -197 0
-3234 -2353 0
-3234 1365 0
3235 -1970 1971 -1825 0
-3235 1970 0
-3235 -1971 0
-3235 1825 0
3236 -2362 277 2363 -1373 0
-3236 2362 0
-3236 -277 0
-3236 -2363 0
-3236 1373 0
1442 -1441 0
-1442 1441 0
3237 -2375 661 1941 -1085 0
-3237 2375 0
-3237 -661 0
-3237 -1941 0
-3237 1085 0
1686 -1685 0
-1686 1685 0
3238 -2386 731 1971 -1107 0
-3238 2386 0
-3238 -731 0
-3238 -1971 0
-3238 1107 0
3239 -2402 785 1847 -1055 0
-3239 2402 0
-3239 -785 0
-3239 -1847 0
-3239 1055 0
1784 -1783 0
-1784 1783 0
3240 -2457 735 1971 -1107 0
-3240 2457 0
-3240 -735 0
-3240 -1971 0
-3240 1107 0
1688 -1687 0
-1688 1687 0
1690 -1689 0
-1690 1689 0
3241 -2331 939 1895 -1083 0
-3241 2331 0
-3241 -939 0
-3241 -1895 0
-3241 1083 0
3242 -2437 663 1941 -1085 0
-3242 2437 0
-3242 -663 0
-3242 -1941 0
-3242 1085 0
1444 -1443 0
-1444 1443 0
3243 -2315 745 1964 -1109 0
-3243 2315 0
-3243 -745 0
-3243 -1964 0
-3243 1109 0
1446 -1445 0
-1446 1445 0
3244 -2406 557 1905 -1093 0
-3244 2406 0
-3244 -557 0
-3244 -1905 0
-3244 1093 0
1448 -1447 0
-1448 1447 0
3245 -2343 555 1905 -1093 0
-3245 2343 0
-3245 -555 0
-3245 -1905 0
-3245 1093 0
1450 -1449 0
-1450 1449 0
3246 -2779 463 2360 -1389 0
-3246 2779 0
-3246 -463 0
-3246 -2360 0
-3246 1389 0
3247 -2542 223 2353 -1365 0
-3247 2542 0
-3247 -223 0
-3247 -2353 0
-3247 1365 0
1002 -1001 0
-1002 1001 0
3248 -1850 1851 -1483 0
-3248 1850 0
-3248 -1851 0
-3248 1483 0
3249 -2621 303 2363 -1373 0
-3249 2621 0
-3249 -303 0
-3249 -2363 0
-3249 1373 0
3250 -3005 807 1888 -1651 0
-3250 3005 0
-3250 -807 0
-3250 -1888 0
-3250 1651 0
3251 -2412 109 2350 -967 0
-3251 2412 0
-3251 -109 0
-3251 -2350 0
-3251 967 0
3252 -2700 383 2348 -1381 0
-3252 2700 0
-3252 -383 0
-3252 -2348 0
-3252 1381 0
1738 -1737 0
-1738 1737 0
3253 -2449 911 1881 -1125 0
-3253 2449 0
-3253 -911 0
-3253 -1881 0
-3253 1125 0
3254 -2335 867 1953 -1067 0
-3254 2335 0
-3254 -867 0
-3254 -1953 0
-3254 1067 0
1456 -1455 0
-1456 1455 0
3255 -2433 889 1928 -1121 0
-3255 2433 0
-3255 -889 0
-3255 -1928 0
-3255 1121 0
1822 -1821 0
-1822 1821 0
1786 -1785 0
-1786 1785 0
3256 -2309 953 1911 -1087 0
-3256 2309 0
-3256 -953 0
-3256 -1911 0
-3256 1087 0
3257 -2421 949 1911 -1087 0
-3257 2421 0
-3257 -949 0
-3257 -1911 0
-3257 1087 0
1458 -1457 0
-1458 1457 0
3258 -2323 925 1957 -1097 0
-3258 2323 0
-3258 -925 0
-3258 -1957 0
-3258 1097 0
1460 -1459 0
-1460 1459 0
3259 -2445 613 1891 -1071 0
-3259 2445 0
-3259 -613 0
-3259 -1891 0
-3259 1071 0
1462 -1461 0
-1462 1461 0
3260 -2480 909 1881 -1125 0
-3260 2480 0
-3260 -909 0
-3260 -1881 0
-3260 1125 0
1466 -1465 0
-1466 1465 0
1652 -1651 0
-1652 1651 0
3261 -1901 1902 -1081 0
-3261 1901 0
-3261 -1902 0
-3261 1081 0
3262 -2410 769 1949 -1065 0
-3262 2410 0
-3262 -769 0
-3262 -1949 0
-3262 1065 0
1654 -1653 0
-1654 1653 0
1470 -1469 0
-1470 1469 0
3263 -2453 705 1938 -1061 0
-3263 2453 0
-3263 -705 0
-3263 -1938 0
-3263 1061 0
1472 -1471 0
-1472 1471 0
3264 -2476 615 1891 -1071 0
-3264 2476 0
-3264 -615 0
-3264 -1891 0
-3264 1071 0
3265 -2379 707 1938 -1061 0
-3265 2379 0
-3265 -707 0
-3265 -1938 0
-3265 1061 0
1826 -1825 0
-1826 1825 0
1476 -1475 0
-1476 1475 0
3266 -2367 783 1847 -1055 0
-3266 2367 0
-3266 -783 0
-3266 -1847 0
-3266 1055 0
1478 -1477 0
-1478 1477 0
3267 -2486 617 1891 -1071 0
-3267 2486 0
-3267 -617 0
-3267 -1891 0
-3267 1071 0
1480 -1479 0
-1480 1479 0
3268 -2305 809 1888 -1099 0
-3268 2305 0
-3268 -809 0
-3268 -1888 0
-3268 1099 0
3269 -2371 603 1979 -1053 0
-3269 2371 0
-3269 -603 0
-3269 -1979 0
-3269 1053 0
1482 -1481 0
-1482 1481 0
1484 -1483 0
-1484 1483 0
3270 -2465 821 1902 -1081 0
-3270 2465 0
-3270 -821 0
-3270 -1902 0
-3270 1081 0
3271 -2319 797 1935 -1069 0
-3271 2319 0
-3271 -797 0
-3271 -1935 0
-3271 1069 0
1486 -1485 0
-1486 1485 0
3272 -2417 709 1938 -1061 0
-3272 2417 0
-3272 -709 0
-3272 -1938 0
-3272 1061 0
1828 -1827 0
-1828 1827 0
1490 -1489 0
-1490 1489 0
3273 -2339 833 1918 -1101 0
-3273 2339 0
-3273 -833 0
-3273 -1918 0
-3273 1101 0
3274 -2429 525 1961 -1089 0
-3274 2429 0
-3274 -525 0
-3274 -1961 0
-3274 1089 0
1760 -1759 0
-1760 1759 0
3275 -1916 1917 1918 -1181 0
-3275 1916 0
-3275 -1917 0
-3275 -1918 0
-3275 1181 0
3276 -1920 1921 1922 -1143 0
-3276 1920 0
-3276 -1921 0
-3276 -1922 0
-3276 1143 0
3277 -1887 1888 -1179 0
-3277 1887 0
-3277 -1888 0
-3277 1179 0
1048 -1047 0
-1048 1047 0
3278 -1924 1925 -1199 0
-3278 1924 0
-3278 -1925 0
-3278 1199 0
3279 -1927 1928 -1201 0
-3279 1927 0
-3279 -1928 0
-3279 1201 0
3280 -1930 1931 -1139 0
-3280 1930 0
-3280 -1931 0
-3280 1139 0
3281 -1940 1941 -1165 0
-3281 1940 0
-3281 -1941 0
-3281 1165 0
3282 -1893 1894 1895 -1163 0
-3282 1893 0
-3282 -1894 0
-3282 -1895 0
-3282 1163 0
3283 -1947 1948 1949 -1145 0
-3283 1947 0
-3283 -1948 0
-3283 -1949 0
-3283 1145 0
3284 -1943 1944 1945 -1175 0
-3284 1943 0
-3284 -1944 0
-3284 -1945 0
-3284 1175 0
3285 -1951 1952 1953 -1147 0
-3285 1951 0
-3285 -1952 0
-3285 -1953 0
-3285 1147 0
3286 -1963 1964 -1189 0
-3286 1963 0
-3286 -1964 0
-3286 1189 0
3287 -1959 1960 1961 -1169 0
-3287 1959 0
-3287 -1960 0
-3287 -1961 0
-3287 1169 0
3288 -1913 1914 -1129 0
-3288 1913 0
-3288 -1914 0
-3288 1129 0
3289 -1973 1974 1975 -1159 0
-3289 1973 0
-3289 -1974 0
-3289 -1975 0
-3289 1159 0
3290 -1955 1956 1957 -1177 0
-3290 1955 0
-3290 -1956 0
-3290 -1957 0
-3290 1177 0
3291 -1966 1967 -1195 0
-3291 1966 0
-3291 -1967 0
-3291 1195 0
3292 -1977 1978 1979 -1133 0
-3292 1977 0
-3292 -1978 0
-3292 -1979 0
-3292 1133 0
3293 -1842 1843 -1171 0
-3293 1842 0
-3293 -1843 0
-3293 1171 0
3294 -1937 1938 -1141 0
-3294 1937 0
-3294 -1938 0
-3294 1141 0
3295 -1969 1970 1971 -1187 0
-3295 1969 0
-3295 -1970 0
-3295 -1971 0
-3295 1187 0
3296 -1933 1934 1935 -1149 0
-3296 1933 0
-3296 -1934 0
-3296 -1935 0
-3296 1149 0
3297 -1857 1858 1859 -1153 0
-3297 1857 0
-3297 -1858 0
-3297 -1859 0
-3297 1153 0
3298 -1853 1854 1855 -1137 0
-3298 1853 0
-3298 -1854 0
-3298 -1855 0
-3298 1137 0
3299 -1849 1850 1851 -1197 0
-3299 1849 0
-3299 -1850 0
-3299 -1851 0
-3299 1197 0
3300 -1861 1862 -1203 0
-3300 1861 0
-3300 -1862 0
-3300 1203 0
3301 -1864 1865 1866 -1185 0
-3301 1864 0
-3301 -1865 0
-3301 -1866 0
-3301 1185 0
3302 -1868 1869 1870 -1157 0
-3302 1868 0
-3302 -1869 0
-3302 -1870 0
-3302 1157 0
3303 -1872 1873 1874 -1193 0
-3303 1872 0
-3303 -1873 0
-3303 -1874 0
-3303 1193 0
3304 -1876 1877 1878 -1183 0
-3304 1876 0
-3304 -1877 0
-3304 -1878 0
-3304 1183 0
3305 -1880 1881 -1205 0
-3305 1880 0
-3305 -1881 0
-3305 1205 0
3306 -1845 1846 1847 -1135 0
-3306 1845 0
-3306 -1846 0
-3306 -1847 0
-3306 1135 0
3307 -1883 1884 1885 -1191 0
-3307 1883 0
-3307 -1884 0
-3307 -1885 0
-3307 1191 0
3308 -1890 1891 -1151 0
-3308 1890 0
-3308 -1891 0
-3308 1151 0
3309 -1897 1898 -1131 0
-3309 1897 0
-3309 -1898 0
-3309 1131 0
3310 -1900 1901 1902 -1161 0
-3310 1900 0
-3310 -1901 0
-3310 -1902 0
-3310 1161 0
3311 -1904 1905 -1173 0
-3311 1904 0
-3311 -1905 0
-3311 1173 0
3312 -1907 1908 -1155 0
-3312 1907 0
-3312 -1908 0
-3312 1155 0
3313 -1910 1911 -1167 0
-3313 1910 0
-3313 -1911 0
-3313 1167 0
1762 -1761 0
-1762 1761 0
3314 -2327 865 1953 -1147 0
-3314 2327 0
-3314 -865 0
-3314 -1953 0
-3314 1147 0
1492 -1491 0
-1492 1491 0
3315 -2394 641 1866 -1185 0
-3315 2394 0
-3315 -641 0
-3315 -1866 0
-3315 1185 0
3316 -2390 589 1914 -1129 0
-3316 2390 0
-3316 -589 0
-3316 -1914 0
-3316 1129 0
1696 -1695 0
-1696 1695 0
1830 -1829 0
-1830 1829 0
3317 -2398 733 1971 -1187 0
-3317 2398 0
-3317 -733 0
-3317 -1971 0
-3317 1187 0
3318 -2425 771 1949 -1145 0
-3318 2425 0
-3318 -771 0
-3318 -1949 0
-3318 1145 0
1496 -1495 0
-1496 1495 0
3319 -2441 937 1895 -1163 0
-3319 2441 0
-3319 -937 0
-3319 -1895 0
-3319 1163 0
1498 -1497 0
-1498 1497 0
3320 -2347 357 2348 -1383 0
-3320 2347 0
-3320 -357 0
-3320 -2348 0
-3320 1383 0
3321 -2362 277 2363 -1375 0
-3321 2362 0
-3321 -277 0
-3321 -2363 0
-3321 1375 0
3322 -2345 57 2350 -1047 0
-3322 2345 0
-3322 -57 0
-3322 -2350 0
-3322 1047 0
3323 -1877 1878 -1529 0
-3323 1877 0
-3323 -1878 0
-3323 1529 0
1062 -1061 0
-1062 1061 0
3324 -2355 887 1928 -1839 0
-3324 2355 0
-3324 -887 0
-3324 -1928 0
-3324 1839 0
3325 -2352 197 2353 -1367 0
-3325 2352 0
-3325 -197 0
-3325 -2353 0
-3325 1367 0
3326 -2359 437 2360 -1391 0
-3326 2359 0
-3326 -437 0
-3326 -2360 0
-3326 1391 0
3327 -1970 1971 -1835 0
-3327 1970 0
-3327 -1971 0
-3327 1835 0
3328 -2375 661 1941 -1165 0
-3328 2375 0
-3328 -661 0
-3328 -1941 0
-3328 1165 0
1502 -1501 0
-1502 1501 0
3329 -2386 731 1971 -1187 0
-3329 2386 0
-3329 -731 0
-3329 -1971 0
-3329 1187 0
1698 -1697 0
-1698 1697 0
1798 -1797 0
-1798 1797 0
3330 -2402 785 1847 -1135 0
-3330 2402 0
-3330 -785 0
-3330 -1847 0
-3330 1135 0
1700 -1699 0
-1700 1699 0
3331 -2457 735 1971 -1187 0
-3331 2457 0
-3331 -735 0
-3331 -1971 0
-3331 1187 0
1702 -1701 0
-1702 1701 0
3332 -2331 939 1895 -1163 0
-3332 2331 0
-3332 -939 0
-3332 -1895 0
-3332 1163 0
1504 -1503 0
-1504 1503 0
3333 -2437 663 1941 -1165 0
-3333 2437 0
-3333 -663 0
-3333 -1941 0
-3333 1165 0
1506 -1505 0
-1506 1505 0
3334 -2315 745 1964 -1189 0
-3334 2315 0
-3334 -745 0
-3334 -1964 0
-3334 1189 0
1508 -1507 0
-1508 1507 0
3335 -2406 557 1905 -1173 0
-3335 2406 0
-3335 -557 0
-3335 -1905 0
-3335 1173 0
1510 -1509 0
-1510 1509 0
3336 -2343 555 1905 -1173 0
-3336 2343 0
-3336 -555 0
-3336 -1905 0
-3336 1173 0
3337 -3005 807 1888 -1179 0
-3337 3005 0
-3337 -807 0
-3337 -1888 0
-3337 1179 0
1704 -1703 0
-1704 1703 0
1744 -1743 0
-1744 1743 0
3338 -2449 911 1881 -1205 0
-3338 2449 0
-3338 -911 0
-3338 -1881 0
-3338 1205 0
1516 -1515 0
-1516 1515 0
3339 -2335 867 1953 -1147 0
-3339 2335 0
-3339 -867 0
-3339 -1953 0
-3339 1147 0
3340 -2433 889 1928 -1201 0
-3340 2433 0
-3340 -889 0
-3340 -1928 0
-3340 1201 0
1834 -1833 0
-1834 1833 0
1804 -1803 0
-1804 1803 0
3341 -2309 953 1911 -1167 0
-3341 2309 0
-3341 -953 0
-3341 -1911 0
-3341 1167 0
3342 -2421 949 1911 -1167 0
-3342 2421 0
-3342 -949 0
-3342 -1911 0
-3342 1167 0
1520 -1519 0
-1520 1519 0
1522 -1521 0
-1522 1521 0
3343 -2323 925 1957 -1177 0
-3343 2323 0
-3343 -925 0
-3343 -1957 0
-3343 1177 0
3344 -2445 613 1891 -1151 0
-3344 2445 0
-3344 -613 0
-3344 -1891 0
-3344 1151 0
1524 -1523 0
-1524 1523 0
1526 -1525 0
-1526 1525 0
3345 -2480 909 1881 -1205 0
-3345 2480 0
-3345 -909 0
-3345 -1881 0
-3345 1205 0
3346 -2684 367 2348 -1383 0
-3346 2684 0
-3346 -367 0
-3346 -2348 0
-3346 1383 0
1100 -1099 0
-1100 1099 0
3347 -2763 447 2360 -1391 0
-3347 2763 0
-3347 -447 0
-3347 -2360 0
-3347 1391 0
3348 -1901 1902 -1703 0
-3348 1901 0
-3348 -1902 0
-3348 1703 0
3349 -2381 77 2350 -1047 0
-3349 2381 0
-3349 -77 0
-3349 -2350 0
-3349 1047 0
3350 -2821 511 1874 -1539 0
-3350 2821 0
-3350 -511 0
-3350 -1874 0
-3350 1539 0
3351 -2526 207 2353 -1367 0
-3351 2526 0
-3351 -207 0
-3351 -2353 0
-3351 1367 0
3352 -2605 287 2363 -1375 0
-3352 2605 0
-3352 -287 0
-3352 -2363 0
-3352 1375 0
1670 -1669 0
-1670 1669 0
3353 -2410 769 1949 -1145 0
-3353 2410 0
-3353 -769 0
-3353 -1949 0
-3353 1145 0
1530 -1529 0
-1530 1529 0
3354 -2453 705 1938 -1141 0
-3354 2453 0
-3354 -705 0
-3354 -1938 0
-3354 1141 0
1534 -1533 0
-1534 1533 0
3355 -2476 615 1891 -1151 0
-3355 2476 0
-3355 -615 0
-3355 -1891 0
-3355 1151 0
3356 -2379 707 1938 -1141 0
-3356 2379 0
-3356 -707 0
-3356 -1938 0
-3356 1141 0
1836 -1835 0
-1836 1835 0
3357 -2367 783 1847 -1135 0
-3357 2367 0
-3357 -783 0
-3357 -1847 0
-3357 1135 0
1536 -1535 0
-1536 1535 0
1538 -1537 0
-1538 1537 0
3358 -2486 617 1891 -1151 0
-3358 2486 0
-3358 -617 0
-3358 -1891 0
-3358 1151 0
1540 -1539 0
-1540 1539 0
3359 -2305 809 1888 -1179 0
-3359 2305 0
-3359 -809 0
-3359 -1888 0
-3359 1179 0
3360 -2371 603 1979 -1133 0
-3360 2371 0
-3360 -603 0
-3360 -1979 0
-3360 1133 0
1542 -1541 0
-1542 1541 0
3361 -2465 821 1902 -1161 0
-3361 2465 0
-3361 -821 0
-3361 -1902 0
-3361 1161 0
1544 -1543 0
-1544 1543 0
3362 -2319 797 1935 -1149 0
-3362 2319 0
-3362 -797 0
-3362 -1935 0
-3362 1149 0
1546 -1545 0
-1546 1545 0
3363 -2417 709 1938 -1141 0
-3363 2417 0
-3363 -709 0
-3363 -1938 0
-3363 1141 0
1840 -1839 0
-1840 1839 0
3364 -2339 833 1918 -1181 0
-3364 2339 0
-3364 -833 0
-3364 -1918 0
-3364 1181 0
1548 -1547 0
-1548 1547 0
1790 -1789 0
-1790 1789 0
3365 -2429 525 1961 -1169 0
-3365 2429 0
-3365 -525 0
-3365 -1961 0
-3365 1169 0
3366 -1959 1960 1961 -1249 0
-3366 1959 0
-3366 -1960 0
-3366 -1961 0
-3366 1249 0
3367 -1966 1967 -1275 0
-3367 1966 0
-3367 -1967 0
-3367 1275 0
3368 -1977 1978 1979 -1213 0
-3368 1977 0
-3368 -1978 0
-3368 -1979 0
-3368 1213 0
3369 -1937 1938 -1221 0
-3369 1937 0
-3369 -1938 0
-3369 1221 0
3370 -1955 1956 1957 -1257 0
-3370 1955 0
-3370 -1956 0
-3370 -1957 0
-3370 1257 0
3371 -1842 1843 -1251 0
-3371 1842 0
-3371 -1843 0
-3371 1251 0
3372 -1845 1846 1847 -1215 0
-3372 1845 0
-3372 -1846 0
-3372 -1847 0
-3372 1215 0
3373 -1876 1877 1878 -1263 0
-3373 1876 0
-3373 -1877 0
-3373 -1878 0
-3373 1263 0
3374 -1883 1884 1885 -1271 0
-3374 1883 0
-3374 -1884 0
-3374 -1885 0
-3374 1271 0
3375 -1849 1850 1851 -1277 0
-3375 1849 0
-3375 -1850 0
-3375 -1851 0
-3375 1277 0
3376 -1857 1858 1859 -1233 0
-3376 1857 0
-3376 -1858 0
-3376 -1859 0
-3376 1233 0
3377 -1853 1854 1855 -1217 0
-3377 1853 0
-3377 -1854 0
-3377 -1855 0
-3377 1217 0
3378 -1864 1865 1866 -1265 0
-3378 1864 0
-3378 -1865 0
-3378 -1866 0
-3378 1265 0
3379 -1897 1898 -1211 0
-3379 1897 0
-3379 -1898 0
-3379 1211 0
3380 -1861 1862 -1283 0
-3380 1861 0
-3380 -1862 0
-3380 1283 0
3381 -1872 1873 1874 -1273 0
-3381 1872 0
-3381 -1873 0
-3381 -1874 0
-3381 1273 0
3382 -1910 1911 -1247 0
-3382 1910 0
-3382 -1911 0
-3382 1247 0
3383 -1868 1869 1870 -1237 0
-3383 1868 0
-3383 -1869 0
-3383 -1870 0
-3383 1237 0
3384 -1880 1881 -1285 0
-3384 1880 0
-3384 -1881 0
-3384 1285 0
3385 -1940 1941 -1245 0
-3385 1940 0
-3385 -1941 0
-3385 1245 0
3386 -1916 1917 1918 -1261 0
-3386 1916 0
-3386 -1917 0
-3386 -1918 0
-3386 1261 0
3387 -1920 1921 1922 -1223 0
-3387 1920 0
-3387 -1921 0
-3387 -1922 0
-3387 1223 0
3388 -1887 1888 -1259 0
-3388 1887 0
-3388 -1888 0
-3388 1259 0
1128 -1127 0
-1128 1127 0
3389 -1890 1891 -1231 0
-3389 1890 0
-3389 -1891 0
-3389 1231 0
3390 -1893 1894 1895 -1243 0
-3390 1893 0
-3390 -1894 0
-3390 -1895 0
-3390 1243 0
3391 -1907 1908 -1235 0
-3391 1907 0
-3391 -1908 0
-3391 1235 0
3392 -1943 1944 1945 -1255 0
-3392 1943 0
-3392 -1944 0
-3392 -1945 0
-3392 1255 0
3393 -1951 1952 1953 -1227 0
-3393 1951 0
-3393 -1952 0
-3393 -1953 0
-3393 1227 0
3394 -1900 1901 1902 -1241 0
-3394 1900 0
-3394 -1901 0
-3394 -1902 0
-3394 1241 0
3395 -1904 1905 -1253 0
-3395 1904 0
-3395 -1905 0
-3395 1253 0
3396 -1913 1914 -1209 0
-3396 1913 0
-3396 -1914 0
-3396 1209 0
3397 -1973 1974 1975 -1239 0
-3397 1973 0
-3397 -1974 0
-3397 -1975 0
-3397 1239 0
3398 -1969 1970 1971 -1267 0
-3398 1969 0
-3398 -1970 0
-3398 -1971 0
-3398 1267 0
3399 -1924 1925 -1279 0
-3399 1924 0
-3399 -1925 0
-3399 1279 0
3400 -1927 1928 -1281 0
-3400 1927 0
-3400 -1928 0
-3400 1281 0
3401 -1933 1934 1935 -1229 0
-3401 1933 0
-3401 -1934 0
-3401 -1935 0
-3401 1229 0
3402 -1930 1931 -1219 0
-3402 1930 0
-3402 -1931 0
-3402 1219 0
3403 -1947 1948 1949 -1225 0
-3403 1947 0
-3403 -1948 0
-3403 -1949 0
-3403 1225 0
3404 -1963 1964 -1269 0
-3404 1963 0
-3404 -1964 0
-3404 1269 0
1710 -1709 0
-1710 1709 0
3405 -2327 865 1953 -1227 0
-3405 2327 0
-3405 -865 0
-3405 -1953 0
-3405 1227 0
1554 -1553 0
-1554 1553 0
3406 -2394 641 1866 -1265 0
-3406 2394 0
-3406 -641 0
-3406 -1866 0
-3406 1265 0
3407 -2390 589 1914 -1209 0
-3407 2390 0
-3407 -589 0
-3407 -1914 0
-3407 1209 0
1706 -1705 0
-1706 1705 0
1802 -1801 0
-1802 1801 0
3408 -2398 733 1971 -1267 0
-3408 2398 0
-3408 -733 0
-3408 -1971 0
-3408 1267 0
3409 -2425 771 1949 -1225 0
-3409 2425 0
-3409 -771 0
-3409 -1949 0
-3409 1225 0
1558 -1557 0
-1558 1557 0
3410 -2441 937 1895 -1243 0
-3410 2441 0
-3410 -937 0
-3410 -1895 0
-3410 1243 0
1560 -1559 0
-1560 1559 0
3411 -2359 437 2360 -1393 0
-3411 2359 0
-3411 -437 0
-3411 -2360 0
-3411 1393 0
3412 -2355 887 1928 -1809 0
-3412 2355 0
-3412 -887 0
-3412 -1928 0
-3412 1809 0
3413 -2352 197 2353 -1369 0
-3413 2352 0
-3413 -197 0
-3413 -2353 0
-3413 1369 0
3414 -1877 1878 -1587 0
-3414 1877 0
-3414 -1878 0
-3414 1587 0
3415 -1970 1971 -1819 0
-3415 1970 0
-3415 -1971 0
-3415 1819 0
1142 -1141 0
-1142 1141 0
3416 -2345 57 2350 -1127 0
-3416 2345 0
-3416 -57 0
-3416 -2350 0
-3416 1127 0
3417 -2347 357 2348 -1385 0
-3417 2347 0
-3417 -357 0
-3417 -2348 0
-3417 1385 0
3418 -2362 277 2363 -1377 0
-3418 2362 0
-3418 -277 0
-3418 -2363 0
-3418 1377 0
3419 -2375 661 1941 -1245 0
-3419 2375 0
-3419 -661 0
-3419 -1941 0
-3419 1245 0
1562 -1561 0
-1562 1561 0
3420 -2386 731 1971 -1267 0
-3420 2386 0
-3420 -731 0
-3420 -1971 0
-3420 1267 0
1742 -1741 0
-1742 1741 0
1768 -1767 0
-1768 1767 0
3421 -2402 785 1847 -1215 0
-3421 2402 0
-3421 -785 0
-3421 -1847 0
-3421 1215 0
3422 -2457 735 1971 -1267 0
-3422 2457 0
-3422 -735 0
-3422 -1971 0
-3422 1267 0
1712 -1711 0
-1712 1711 0
3423 -2331 939 1895 -1243 0
-3423 2331 0
-3423 -939 0
-3423 -1895 0
-3423 1243 0
1714 -1713 0
-1714 1713 0
1566 -1565 0
-1566 1565 0
3424 -2437 663 1941 -1245 0
-3424 2437 0
-3424 -663 0
-3424 -1941 0
-3424 1245 0
3425 -2315 745 1964 -1269 0
-3425 2315 0
-3425 -745 0
-3425 -1964 0
-3425 1269 0
1568 -1567 0
-1568 1567 0
3426 -2406 557 1905 -1253 0
-3426 2406 0
-3426 -557 0
-3426 -1905 0
-3426 1253 0
1570 -1569 0
-1570 1569 0
1572 -1571 0
-1572 1571 0
3427 -2343 555 1905 -1253 0
-3427 2343 0
-3427 -555 0
-3427 -1905 0
-3427 1253 0
1716 -1715 0
-1716 1715 0
3428 -3005 807 1888 -1259 0
-3428 3005 0
-3428 -807 0
-3428 -1888 0
-3428 1259 0
3429 -2449 911 1881 -1285 0
-3429 2449 0
-3429 -911 0
-3429 -1881 0
-3429 1285 0
1730 -1729 0
-1730 1729 0
3430 -2335 867 1953 -1227 0
-3430 2335 0
-3430 -867 0
-3430 -1953 0
-3430 1227 0
1576 -1575 0
-1576 1575 0
3431 -2433 889 1928 -1281 0
-3431 2433 0
-3431 -889 0
-3431 -1928 0
-3431 1281 0
1792 -1791 0
-1792 1791 0
1780 -1779 0
-1780 1779 0
3432 -2309 953 1911 -1247 0
-3432 2309 0
-3432 -953 0
-3432 -1911 0
-3432 1247 0
1580 -1579 0
-1580 1579 0
3433 -2421 949 1911 -1247 0
-3433 2421 0
-3433 -949 0
-3433 -1911 0
-3433 1247 0
3434 -2323 925 1957 -1257 0
-3434 2323 0
-3434 -925 0
-3434 -1957 0
-3434 1257 0
1582 -1581 0
-1582 1581 0
3435 -2445 613 1891 -1231 0
-3435 2445 0
-3435 -613 0
-3435 -1891 0
-3435 1231 0
1584 -1583 0
-1584 1583 0
1586 -1585 0
-1586 1585 0
3436 -2480 909 1881 -1285 0
-3436 2480 0
-3436 -909 0
-3436 -1881 0
-3436 1285 0
3437 -2684 367 2348 -1385 0
-3437 2684 0
-3437 -367 0
-3437 -2348 0
-3437 1385 0
3438 -2605 287 2363 -1377 0
-3438 2605 0
-3438 -287 0
-3438 -2363 0
-3438 1377 0
3439 -2381 77 2350 -1127 0
-3439 2381 0
-3439 -77 0
-3439 -2350 0
-3439 1127 0
3440 -2821 511 1874 -1597 0
-3440 2821 0
-3440 -511 0
-3440 -1874 0
-3440 1597 0
3441 -1901 1902 -1715 0
-3441 1901 0
-3441 -1902 0
-3441 1715 0
1180 -1179 0
-1180 1179 0
3442 -2526 207 2353 -1369 0
-3442 2526 0
-3442 -207 0
-3442 -2353 0
-3442 1369 0
3443 -2763 447 2360 -1393 0
-3443 2763 0
-3443 -447 0
-3443 -2360 0
-3443 1393 0
3444 -2410 769 1949 -1225 0
-3444 2410 0
-3444 -769 0
-3444 -1949 0
-3444 1225 0
1718 -1717 0
-1718 1717 0
1588 -1587 0
-1588 1587 0
3445 -2453 705 1938 -1221 0
-3445 2453 0
-3445 -705 0
-3445 -1938 0
-3445 1221 0
1592 -1591 0
-1592 1591 0
3446 -2476 615 1891 -1231 0
-3446 2476 0
-3446 -615 0
-3446 -1891 0
-3446 1231 0
1820 -1819 0
-1820 1819 0
3447 -2379 707 1938 -1221 0
-3447 2379 0
-3447 -707 0
-3447 -1938 0
-3447 1221 0
1594 -1593 0
-1594 1593 0
3448 -2367 783 1847 -1215 0
-3448 2367 0
-3448 -783 0
-3448 -1847 0
-3448 1215 0
3449 -2486 617 1891 -1231 0
-3449 2486 0
-3449 -617 0
-3449 -1891 0
-3449 1231 0
1596 -1595 0
-1596 1595 0
1598 -1597 0
-1598 1597 0
3450 -2305 809 1888 -1259 0
-3450 2305 0
-3450 -809 0
-3450 -1888 0
-3450 1259 0
1600 -1599 0
-1600 1599 0
3451 -2371 603 1979 -1213 0
-3451 2371 0
-3451 -603 0
-3451 -1979 0
-3451 1213 0
1602 -1601 0
-1602 1601 0
3452 -2465 821 1902 -1241 0
-3452 2465 0
-3452 -821 0
-3452 -1902 0
-3452 1241 0
3453 -2319 797 1935 -1229 0
-3453 2319 0
-3453 -797 0
-3453 -1935 0
-3453 1229 0
1604 -1603 0
-1604 1603 0
1810 -1809 0
-1810 1809 0
3454 -2417 709 1938 -1221 0
-3454 2417 0
-3454 -709 0
-3454 -1938 0
-3454 1221 0
3455 -2339 833 1918 -1261 0
-3455 2339 0
-3455 -833 0
-3455 -1918 0
-3455 1261 0
1606 -1605 0
-1606 1605 0
3456 -2429 525 1961 -1249 0
-3456 2429 0
-3456 -525 0
-3456 -1961 0
-3456 1249 0
1770 -1769 0
-1770 1769 0
1772 -1771 0
-1772 1771 0
3457 -2327 865 1953 -1305 0
-3457 2327 0
-3457 -865 0
-3457 -1953 0
-3457 1305 0
1608 -1607 0
-1608 1607 0
3458 -2394 641 1866 -1343 0
-3458 2394 0
-3458 -641 0
-3458 -1866 0
-3458 1343 0
1720 -1719 0
-1720 1719 0
3459 -2390 589 1914 -1287 0
-3459 2390 0
-3459 -589 0
-3459 -1914 0
-3459 1287 0
3460 -2398 733 1971 -1345 0
-3460 2398 0
-3460 -733 0
-3460 -1971 0
-3460 1345 0
1812 -1811 0
-1812 1811 0
1610 -1609 0
-1610 1609 0
3461 -2425 771 1949 -1303 0
-3461 2425 0
-3461 -771 0
-3461 -1949 0
-3461 1303 0
1612 -1611 0
-1612 1611 0
3462 -2441 937 1895 -1321 0
-3462 2441 0
-3462 -937 0
-3462 -1895 0
-3462 1321 0
1824 -1823 0
-1824 1823 0
3463 -1970 1971 -1345 0
-3463 1970 0
-3463 -1971 0
-3463 1345 0
1614 -1613 0
-1614 1613 0
3464 -2375 661 1941 -1323 0
-3464 2375 0
-3464 -661 0
-3464 -1941 0
-3464 1323 0
1774 -1773 0
-1774 1773 0
3465 -2386 731 1971 -1345 0
-3465 2386 0
-3465 -731 0
-3465 -1971 0
-3465 1345 0
1776 -1775 0
-1776 1775 0
3466 -2402 785 1847 -1293 0
-3466 2402 0
-3466 -785 0
-3466 -1847 0
-3466 1293 0
3467 -2457 735 1971 -1345 0
-3467 2457 0
-3467 -735 0
-3467 -1971 0
-3467 1345 0
1722 -1721 0
-1722 1721 0
3468 -2331 939 1895 -1321 0
-3468 2331 0
-3468 -939 0
-3468 -1895 0
-3468 1321 0
1724 -1723 0
-1724 1723 0
1616 -1615 0
-1616 1615 0
3469 -2437 663 1941 -1323 0
-3469 2437 0
-3469 -663 0
-3469 -1941 0
-3469 1323 0
1618 -1617 0
-1618 1617 0
3470 -2315 745 1964 -1347 0
-3470 2315 0
-3470 -745 0
-3470 -1964 0
-3470 1347 0
1620 -1619 0
-1620 1619 0
3471 -2406 557 1905 -1331 0
-3471 2406 0
-3471 -557 0
-3471 -1905 0
-3471 1331 0
1622 -1621 0
-1622 1621 0
3472 -2343 555 1905 -1331 0
-3472 2343 0
-3472 -555 0
-3472 -1905 0
-3472 1331 0
1726 -1725 0
-1726 1725 0
3473 -3005 807 1888 -1337 0
-3473 3005 0
-3473 -807 0
-3473 -1888 0
-3473 1337 0
3474 -2449 911 1881 -1363 0
-3474 2449 0
-3474 -911 0
-3474 -1881 0
-3474 1363 0
1732 -1731 0
-1732 1731 0
1624 -1623 0
-1624 1623 0
3475 -2335 867 1953 -1305 0
-3475 2335 0
-3475 -867 0
-3475 -1953 0
-3475 1305 0
1794 -1793 0
-1794 1793 0
3476 -2433 889 1928 -1359 0
-3476 2433 0
-3476 -889 0
-3476 -1928 0
-3476 1359 0
1778 -1777 0
-1778 1777 0
3477 -2309 953 1911 -1325 0
-3477 2309 0
-3477 -953 0
-3477 -1911 0
-3477 1325 0
3478 -2421 949 1911 -1325 0
-3478 2421 0
-3478 -949 0
-3478 -1911 0
-3478 1325 0
1626 -1625 0
-1626 1625 0
3479 -2323 925 1957 -1335 0
-3479 2323 0
-3479 -925 0
-3479 -1957 0
-3479 1335 0
1628 -1627 0
-1628 1627 0
1630 -1629 0
-1630 1629 0
3480 -2445 613 1891 -1309 0
-3480 2445 0
-3480 -613 0
-3480 -1891 0
-3480 1309 0
3481 -2480 909 1881 -1363 0
-3481 2480 0
-3481 -909 0
-3481 -1881 0
-3481 1363 0
1632 -1631 0
-1632 1631 0
3482 -2684 367 2348 -1387 0
-3482 2684 0
-3482 -367 0
-3482 -2348 0
-3482 1387 0
3483 -2763 447 2360 -1395 0
-3483 2763 0
-3483 -447 0
-3483 -2360 0
-3483 1395 0
3484 -2381 77 2350 -1207 0
-3484 2381 0
-3484 -77 0
-3484 -2350 0
-3484 1207 0
3485 -1901 1902 -1725 0
-3485 1901 0
-3485 -1902 0
-3485 1725 0
3486 -2526 207 2353 -1371 0
-3486 2526 0
-3486 -207 0
-3486 -2353 0
-3486 1371 0
1260 -1259 0
-1260 1259 0
3487 -2821 511 1874 -1641 0
-3487 2821 0
-3487 -511 0
-3487 -1874 0
-3487 1641 0
3488 -2605 287 2363 -1379 0
-3488 2605 0
-3488 -287 0
-3488 -2363 0
-3488 1379 0
3489 -2410 769 1949 -1303 0
-3489 2410 0
-3489 -769 0
-3489 -1949 0
-3489 1303 0
1734 -1733 0
-1734 1733 0
3490 -2453 705 1938 -1299 0
-3490 2453 0
-3490 -705 0
-3490 -1938 0
-3490 1299 0
1634 -1633 0
-1634 1633 0
1636 -1635 0
-1636 1635 0
3491 -2476 615 1891 -1309 0
-3491 2476 0
-3491 -615 0
-3491 -1891 0
-3491 1309 0
3492 -2524 205 2353 -1371 0
-3492 2524 0
-3492 -205 0
-3492 -2353 0
-3492 1371 0
3493 -1846 1847 -1811 0
-3493 1846 0
-3493 -1847 0
-3493 1811 0
3494 -1948 1949 -1773 0
-3494 1948 0
-3494 -1949 0
-3494 1773 0
3495 -1934 1935 -1721 0
-3495 1934 0
-3495 -1935 0
-3495 1721 0
3496 -2379 707 1938 -1823 0
-3496 2379 0
-3496 -707 0
-3496 -1938 0
-3496 1823 0
1268 -1267 0
-1268 1267 0
3497 -2377 73 2350 -1207 0
-3497 2377 0
-3497 -73 0
-3497 -2350 0
-3497 1207 0
3498 -2603 285 2363 -1379 0
-3498 2603 0
-3498 -285 0
-3498 -2363 0
-3498 1379 0
3499 -2682 365 2348 -1387 0
-3499 2682 0
-3499 -365 0
-3499 -2348 0
-3499 1387 0
3500 -2761 445 2360 -1395 0
-3500 2761 0
-3500 -445 0
-3500 -2360 0
-3500 1395 0
1638 -1637 0
-1638 1637 0
3501 -2367 783 1847 -1293 0
-3501 2367 0
-3501 -783 0
-3501 -1847 0
-3501 1293 0
3502 -2486 617 1891 -1309 0
-3502 2486 0
-3502 -617 0
-3502 -1891 0
-3502 1309 0
1640 -1639 0
-1640 1639 0
1642 -1641 0
-1642 1641 0
3503 -2305 809 1888 -1337 0
-3503 2305 0
-3503 -809 0
-3503 -1888 0
-3503 1337 0
3504 -2371 603 1979 -1291 0
-3504 2371 0
-3504 -603 0
-3504 -1979 0
-3504 1291 0
1644 -1643 0
-1644 1643 0
3505 -2465 821 1902 -1319 0
-3505 2465 0
-3505 -821 0
-3505 -1902 0
-3505 1319 0
1646 -1645 0
-1646 1645 0
3506 -2319 797 1935 -1307 0
-3506 2319 0
-3506 -797 0
-3506 -1935 0
-3506 1307 0
1648 -1647 0
-1648 1647 0
1816 -1815 0
-1816 1815 0
3507 -2417 709 1938 -1299 0
-3507 2417 0
-3507 -709 0
-3507 -1938 0
-3507 1299 0
3508 -2339 833 1918 -1339 0
-3508 2339 0
-3508 -833 0
-3508 -1918 0
-3508 1339 0
1650 -1649 0
-1650 1649 0
3509 -2429 525 1961 -1327 0
-3509 2429 0
-3509 -525 0
-3509 -1961 0
-3509 1327 0
1736 -1735 0
-1736 1735 0
3510 -2001 595 1979 -973 0
-3510 2001 0
-3510 -595 0
-3510 -1979 0
-3510 973 0
3511 -2007 563 1975 -999 0
-3511 2007 0
-3511 -563 0
-3511 -1975 0
-3511 999 0
3512 -2005 1927 1928 -1041 0
-3512 2005 0
-3512 -1927 0
-3512 -1928 0
-3512 1041 0
3513 -2009 837 1855 -977 0
-3513 2009 0
-3513 -837 0
-3513 -1855 0
-3513 977 0
3514 -2011 1897 1898 -971 0
-3514 2011 0
-3514 -1897 0
-3514 -1898 0
-3514 971 0
3515 -2013 1842 1843 -1011 0
-3515 2013 0
-3515 -1842 0
-3515 -1843 0
-3515 1011 0
3516 -2015 813 1902 -1001 0
-3516 2015 0
-3516 -813 0
-3516 -1902 0
-3516 1001 0
3517 -2017 1907 1908 -995 0
-3517 2017 0
-3517 -1907 0
-3517 -1908 0
-3517 995 0
3518 -2019 1966 1967 -1035 0
-3518 2019 0
-3518 -1966 0
-3518 -1967 0
-3518 1035 0
3519 -2021 1910 1911 -1007 0
-3519 2021 0
-3519 -1910 0
-3519 -1911 0
-3519 1007 0
3520 -2023 503 1874 -1033 0
-3520 2023 0
-3520 -503 0
-3520 -1874 0
-3520 1033 0
3521 -2025 645 1885 -1031 0
-3521 2025 0
-3521 -645 0
-3521 -1885 0
-3521 1031 0
3522 -2029 825 1918 -1021 0
-3522 2029 0
-3522 -825 0
-3522 -1918 0
-3522 1021 0
3523 -2027 623 1945 -1015 0
-3523 2027 0
-3523 -623 0
-3523 -1945 0
-3523 1015 0
3524 -2031 723 1971 -1027 0
-3524 2031 0
-3524 -723 0
-3524 -1971 0
-3524 1027 0
3525 -2033 1861 1862 -1043 0
-3525 2033 0
-3525 -1861 0
-3525 -1862 0
-3525 1043 0
3526 -2035 789 1935 -989 0
-3526 2035 0
-3526 -789 0
-3526 -1935 0
-3526 989 0
3527 -2037 1887 1888 -1019 0
-3527 2037 0
-3527 -1887 0
-3527 -1888 0
-3527 1019 0
3528 -2041 761 1949 -985 0
-3528 2041 0
-3528 -761 0
-3528 -1949 0
-3528 985 0
3529 -2039 929 1895 -1003 0
-3529 2039 0
-3529 -929 0
-3529 -1895 0
-3529 1003 0
3530 -2043 1963 1964 -1029 0
-3530 2043 0
-3530 -1963 0
-3530 -1964 0
-3530 1029 0
3531 -2045 669 1922 -983 0
-3531 2045 0
-3531 -669 0
-3531 -1922 0
-3531 983 0
3532 -2049 917 1957 -1017 0
-3532 2049 0
-3532 -917 0
-3532 -1957 0
-3532 1017 0
3533 -2051 633 1866 -1025 0
-3533 2051 0
-3533 -633 0
-3533 -1866 0
-3533 1025 0
3534 -1993 573 1870 -997 0
-3534 1993 0
-3534 -573 0
-3534 -1870 0
-3534 997 0
3535 -2047 1890 1891 -991 0
-3535 2047 0
-3535 -1890 0
-3535 -1891 0
-3535 991 0
3536 -2053 871 1851 -1037 0
-3536 2053 0
-3536 -871 0
-3536 -1851 0
-3536 1037 0
3537 -2057 515 1961 -1009 0
-3537 2057 0
-3537 -515 0
-3537 -1961 0
-3537 1009 0
3538 -2059 713 1878 -1023 0
-3538 2059 0
-3538 -713 0
-3538 -1878 0
-3538 1023 0
3539 -2061 775 1847 -975 0
-3539 2061 0
-3539 -775 0
-3539 -1847 0
-3539 975 0
3540 -1985 1904 1905 -1013 0
-3540 1985 0
-3540 -1904 0
-3540 -1905 0
-3540 1013 0
3541 -2055 857 1953 -987 0
-3541 2055 0
-3541 -857 0
-3541 -1953 0
-3541 987 0
3542 -1989 1940 1941 -1005 0
-3542 1989 0
-3542 -1940 0
-3542 -1941 0
-3542 1005 0
3543 -1981 1983 3128 0
-3543 1981 0
-3543 -1983 0
-3543 -3128 0
3544 -1987 1930 1931 -979 0
-3544 1987 0
-3544 -1930 0
-3544 -1931 0
-3544 979 0
3545 -1991 1924 1925 -1039 0
-3545 1991 0
-3545 -1924 0
-3545 -1925 0
-3545 1039 0
3546 -1995 1880 1881 -1045 0
-3546 1995 0
-3546 -1880 0
-3546 -1881 0
-3546 1045 0
3547 -1997 679 1859 -993 0
-3547 1997 0
-3547 -679 0
-3547 -1859 0
-3547 993 0
3548 -1999 1937 1938 -981 0
-3548 1999 0
-3548 -1937 0
-3548 -1938 0
-3548 981 0
3549 -2003 1913 1914 -969 0
-3549 2003 0
-3549 -1913 0
-3549 -1914 0
-3549 969 0
3550 -2039 929 1895 -1083 0
-3550 2039 0
-3550 -929 0
-3550 -1895 0
-3550 1083 0
3551 -2041 761 1949 -1065 0
-3551 2041 0
-3551 -761 0
-3551 -1949 0
-3551 1065 0
3552 -2051 633 1866 -1105 0
-3552 2051 0
-3552 -633 0
-3552 -1866 0
-3552 1105 0
3553 -2043 1963 1964 -1109 0
-3553 2043 0
-3553 -1963 0
-3553 -1964 0
-3553 1109 0
3554 -2045 669 1922 -1063 0
-3554 2045 0
-3554 -669 0
-3554 -1922 0
-3554 1063 0
3555 -2047 1890 1891 -1071 0
-3555 2047 0
-3555 -1890 0
-3555 -1891 0
-3555 1071 0
3556 -2049 917 1957 -1097 0
-3556 2049 0
-3556 -917 0
-3556 -1957 0
-3556 1097 0
3557 -1999 1937 1938 -1061 0
-3557 1999 0
-3557 -1937 0
-3557 -1938 0
-3557 1061 0
3558 -1995 1880 1881 -1125 0
-3558 1995 0
-3558 -1880 0
-3558 -1881 0
-3558 1125 0
3559 -1993 573 1870 -1077 0
-3559 1993 0
-3559 -573 0
-3559 -1870 0
-3559 1077 0
3560 -2001 595 1979 -1053 0
-3560 2001 0
-3560 -595 0
-3560 -1979 0
-3560 1053 0
3561 -2057 515 1961 -1089 0
-3561 2057 0
-3561 -515 0
-3561 -1961 0
-3561 1089 0
3562 -2059 713 1878 -1103 0
-3562 2059 0
-3562 -713 0
-3562 -1878 0
-3562 1103 0
3563 -2003 1913 1914 -1049 0
-3563 2003 0
-3563 -1913 0
-3563 -1914 0
-3563 1049 0
3564 -2005 1927 1928 -1121 0
-3564 2005 0
-3564 -1927 0
-3564 -1928 0
-3564 1121 0
1366 -1365 0
-1366 1365 0
3565 -2055 857 1953 -1067 0
-3565 2055 0
-3565 -857 0
-3565 -1953 0
-3565 1067 0
3566 -1987 1930 1931 -1059 0
-3566 1987 0
-3566 -1930 0
-3566 -1931 0
-3566 1059 0
3567 -2011 1897 1898 -1051 0
-3567 2011 0
-3567 -1897 0
-3567 -1898 0
-3567 1051 0
3568 -2013 1842 1843 -1091 0
-3568 2013 0
-3568 -1842 0
-3568 -1843 0
-3568 1091 0
3569 -1991 1924 1925 -1119 0
-3569 1991 0
-3569 -1924 0
-3569 -1925 0
-3569 1119 0
3570 -1997 679 1859 -1073 0
-3570 1997 0
-3570 -679 0
-3570 -1859 0
-3570 1073 0
3571 -2027 623 1945 -1095 0
-3571 2027 0
-3571 -623 0
-3571 -1945 0
-3571 1095 0
3572 -2029 825 1918 -1101 0
-3572 2029 0
-3572 -825 0
-3572 -1918 0
-3572 1101 0
3573 -2007 563 1975 -1079 0
-3573 2007 0
-3573 -563 0
-3573 -1975 0
-3573 1079 0
3574 -2009 837 1855 -1057 0
-3574 2009 0
-3574 -837 0
-3574 -1855 0
-3574 1057 0
3575 -2037 1887 1888 -1099 0
-3575 2037 0
-3575 -1887 0
-3575 -1888 0
-3575 1099 0
3576 -2015 813 1902 -1081 0
-3576 2015 0
-3576 -813 0
-3576 -1902 0
-3576 1081 0
3577 -2035 789 1935 -1069 0
-3577 2035 0
-3577 -789 0
-3577 -1935 0
-3577 1069 0
3578 -2023 503 1874 -1113 0
-3578 2023 0
-3578 -503 0
-3578 -1874 0
-3578 1113 0
3579 -2025 645 1885 -1111 0
-3579 2025 0
-3579 -645 0
-3579 -1885 0
-3579 1111 0
3580 -2017 1907 1908 -1075 0
-3580 2017 0
-3580 -1907 0
-3580 -1908 0
-3580 1075 0
3581 -2021 1910 1911 -1087 0
-3581 2021 0
-3581 -1910 0
-3581 -1911 0
-3581 1087 0
3582 -2019 1966 1967 -1115 0
-3582 2019 0
-3582 -1966 0
-3582 -1967 0
-3582 1115 0
3583 -2053 871 1851 -1117 0
-3583 2053 0
-3583 -871 0
-3583 -1851 0
-3583 1117 0
3584 -2031 723 1971 -1107 0
-3584 2031 0
-3584 -723 0
-3584 -1971 0
-3584 1107 0
3585 -2061 775 1847 -1055 0
-3585 2061 0
-3585 -775 0
-3585 -1847 0
-3585 1055 0
3586 -2033 1861 1862 -1123 0
-3586 2033 0
-3586 -1861 0
-3586 -1862 0
-3586 1123 0
3587 -1989 1940 1941 -1085 0
-3587 1989 0
-3587 -1940 0
-3587 -1941 0
-3587 1085 0
3588 -1985 1904 1905 -1093 0
-3588 1985 0
-3588 -1904 0
-3588 -1905 0
-3588 1093 0
3589 -2041 761 1949 -1145 0
-3589 2041 0
-3589 -761 0
-3589 -1949 0
-3589 1145 0
3590 -1991 1924 1925 -1199 0
-3590 1991 0
-3590 -1924 0
-3590 -1925 0
-3590 1199 0
3591 -1993 573 1870 -1157 0
-3591 1993 0
-3591 -573 0
-3591 -1870 0
-3591 1157 0
3592 -1995 1880 1881 -1205 0
-3592 1995 0
-3592 -1880 0
-3592 -1881 0
-3592 1205 0
3593 -1997 679 1859 -1153 0
-3593 1997 0
-3593 -679 0
-3593 -1859 0
-3593 1153 0
3594 -1999 1937 1938 -1141 0
-3594 1999 0
-3594 -1937 0
-3594 -1938 0
-3594 1141 0
3595 -2001 595 1979 -1133 0
-3595 2001 0
-3595 -595 0
-3595 -1979 0
-3595 1133 0
3596 -2003 1913 1914 -1129 0
-3596 2003 0
-3596 -1913 0
-3596 -1914 0
-3596 1129 0
3597 -2005 1927 1928 -1201 0
-3597 2005 0
-3597 -1927 0
-3597 -1928 0
-3597 1201 0
3598 -2009 837 1855 -1137 0
-3598 2009 0
-3598 -837 0
-3598 -1855 0
-3598 1137 0
3599 -2013 1842 1843 -1171 0
-3599 2013 0
-3599 -1842 0
-3599 -1843 0
-3599 1171 0
3600 -2015 813 1902 -1161 0
-3600 2015 0
-3600 -813 0
-3600 -1902 0
-3600 1161 0
3601 -2011 1897 1898 -1131 0
-3601 2011 0
-3601 -1897 0
-3601 -1898 0
-3601 1131 0
1368 -1367 0
-1368 1367 0
3602 -1989 1940 1941 -1165 0
-3602 1989 0
-3602 -1940 0
-3602 -1941 0
-3602 1165 0
3603 -2025 645 1885 -1191 0
-3603 2025 0
-3603 -645 0
-3603 -1885 0
-3603 1191 0
3604 -2019 1966 1967 -1195 0
-3604 2019 0
-3604 -1966 0
-3604 -1967 0
-3604 1195 0
3605 -2029 825 1918 -1181 0
-3605 2029 0
-3605 -825 0
-3605 -1918 0
-3605 1181 0
3606 -2027 623 1945 -1175 0
-3606 2027 0
-3606 -623 0
-3606 -1945 0
-3606 1175 0
3607 -2031 723 1971 -1187 0
-3607 2031 0
-3607 -723 0
-3607 -1971 0
-3607 1187 0
3608 -2007 563 1975 -1159 0
-3608 2007 0
-3608 -563 0
-3608 -1975 0
-3608 1159 0
3609 -2037 1887 1888 -1179 0
-3609 2037 0
-3609 -1887 0
-3609 -1888 0
-3609 1179 0
3610 -2033 1861 1862 -1203 0
-3610 2033 0
-3610 -1861 0
-3610 -1862 0
-3610 1203 0
3611 -2035 789 1935 -1149 0
-3611 2035 0
-3611 -789 0
-3611 -1935 0
-3611 1149 0
3612 -2055 857 1953 -1147 0
-3612 2055 0
-3612 -857 0
-3612 -1953 0
-3612 1147 0
3613 -2039 929 1895 -1163 0
-3613 2039 0
-3613 -929 0
-3613 -1895 0
-3613 1163 0
3614 -2017 1907 1908 -1155 0
-3614 2017 0
-3614 -1907 0
-3614 -1908 0
-3614 1155 0
3615 -2043 1963 1964 -1189 0
-3615 2043 0
-3615 -1963 0
-3615 -1964 0
-3615 1189 0
3616 -2051 633 1866 -1185 0
-3616 2051 0
-3616 -633 0
-3616 -1866 0
-3616 1185 0
3617 -2021 1910 1911 -1167 0
-3617 2021 0
-3617 -1910 0
-3617 -1911 0
-3617 1167 0
3618 -2045 669 1922 -1143 0
-3618 2045 0
-3618 -669 0
-3618 -1922 0
-3618 1143 0
3619 -2023 503 1874 -1193 0
-3619 2023 0
-3619 -503 0
-3619 -1874 0
-3619 1193 0
3620 -2049 917 1957 -1177 0
-3620 2049 0
-3620 -917 0
-3620 -1957 0
-3620 1177 0
3621 -2053 871 1851 -1197 0
-3621 2053 0
-3621 -871 0
-3621 -1851 0
-3621 1197 0
3622 -2047 1890 1891 -1151 0
-3622 2047 0
-3622 -1890 0
-3622 -1891 0
-3622 1151 0
3623 -2057 515 1961 -1169 0
-3623 2057 0
-3623 -515 0
-3623 -1961 0
-3623 1169 0
3624 -2059 713 1878 -1183 0
-3624 2059 0
-3624 -713 0
-3624 -1878 0
-3624 1183 0
3625 -2061 775 1847 -1135 0
-3625 2061 0
-3625 -775 0
-3625 -1847 0
-3625 1135 0
3626 -1985 1904 1905 -1173 0
-3626 1985 0
-3626 -1904 0
-3626 -1905 0
-3626 1173 0
3627 -1987 1930 1931 -1139 0
-3627 1987 0
-3627 -1930 0
-3627 -1931 0
-3627 1139 0
3628 -2007 563 1975 -1239 0
-3628 2007 0
-3628 -563 0
-3628 -1975 0
-3628 1239 0
3629 -2005 1927 1928 -1281 0
-3629 2005 0
-3629 -1927 0
-3629 -1928 0
-3629 1281 0
3630 -2029 825 1918 -1261 0
-3630 2029 0
-3630 -825 0
-3630 -1918 0
-3630 1261 0
3631 -2009 837 1855 -1217 0
-3631 2009 0
-3631 -837 0
-3631 -1855 0
-3631 1217 0
3632 -2013 1842 1843 -1251 0
-3632 2013 0
-3632 -1842 0
-3632 -1843 0
-3632 1251 0
3633 -2037 1887 1888 -1259 0
-3633 2037 0
-3633 -1887 0
-3633 -1888 0
-3633 1259 0
3634 -2015 813 1902 -1241 0
-3634 2015 0
-3634 -813 0
-3634 -1902 0
-3634 1241 0
3635 -2021 1910 1911 -1247 0
-3635 2021 0
-3635 -1910 0
-3635 -1911 0
-3635 1247 0
3636 -2025 645 1885 -1271 0
-3636 2025 0
-3636 -645 0
-3636 -1885 0
-3636 1271 0
3637 -2017 1907 1908 -1235 0
-3637 2017 0
-3637 -1907 0
-3637 -1908 0
-3637 1235 0
3638 -2019 1966 1967 -1275 0
-3638 2019 0
-3638 -1966 0
-3638 -1967 0
-3638 1275 0
3639 -2023 503 1874 -1273 0
-3639 2023 0
-3639 -503 0
-3639 -1874 0
-3639 1273 0
1370 -1369 0
-1370 1369 0
3640 -2053 871 1851 -1277 0
-3640 2053 0
-3640 -871 0
-3640 -1851 0
-3640 1277 0
3641 -2031 723 1971 -1267 0
-3641 2031 0
-3641 -723 0
-3641 -1971 0
-3641 1267 0
3642 -2033 1861 1862 -1283 0
-3642 2033 0
-3642 -1861 0
-3642 -1862 0
-3642 1283 0
3643 -2035 789 1935 -1229 0
-3643 2035 0
-3643 -789 0
-3643 -1935 0
-3643 1229 0
3644 -1985 1904 1905 -1253 0
-3644 1985 0
-3644 -1904 0
-3644 -1905 0
-3644 1253 0
3645 -2039 929 1895 -1243 0
-3645 2039 0
-3645 -929 0
-3645 -1895 0
-3645 1243 0
3646 -2045 669 1922 -1223 0
-3646 2045 0
-3646 -669 0
-3646 -1922 0
-3646 1223 0
3647 -2041 761 1949 -1225 0
-3647 2041 0
-3647 -761 0
-3647 -1949 0
-3647 1225 0
3648 -2051 633 1866 -1265 0
-3648 2051 0
-3648 -633 0
-3648 -1866 0
-3648 1265 0
3649 -2043 1963 1964 -1269 0
-3649 2043 0
-3649 -1963 0
-3649 -1964 0
-3649 1269 0
3650 -2047 1890 1891 -1231 0
-3650 2047 0
-3650 -1890 0
-3650 -1891 0
-3650 1231 0
3651 -2049 917 1957 -1257 0
-3651 2049 0
-3651 -917 0
-3651 -1957 0
-3651 1257 0
3652 -1999 1937 1938 -1221 0
-3652 1999 0
-3652 -1937 0
-3652 -1938 0
-3652 1221 0
3653 -1993 573 1870 -1237 0
-3653 1993 0
-3653 -573 0
-3653 -1870 0
-3653 1237 0
3654 -2057 515 1961 -1249 0
-3654 2057 0
-3654 -515 0
-3654 -1961 0
-3654 1249 0
3655 -2059 713 1878 -1263 0
-3655 2059 0
-3655 -713 0
-3655 -1878 0
-3655 1263 0
3656 -2003 1913 1914 -1209 0
-3656 2003 0
-3656 -1913 0
-3656 -1914 0
-3656 1209 0
3657 -2061 775 1847 -1215 0
-3657 2061 0
-3657 -775 0
-3657 -1847 0
-3657 1215 0
3658 -1989 1940 1941 -1245 0
-3658 1989 0
-3658 -1940 0
-3658 -1941 0
-3658 1245 0
3659 -1987 1930 1931 -1219 0
-3659 1987 0
-3659 -1930 0
-3659 -1931 0
-3659 1219 0
3660 -2055 857 1953 -1227 0
-3660 2055 0
-3660 -857 0
-3660 -1953 0
-3660 1227 0
3661 -2011 1897 1898 -1211 0
-3661 2011 0
-3661 -1897 0
-3661 -1898 0
-3661 1211 0
3662 -1991 1924 1925 -1279 0
-3662 1991 0
-3662 -1924 0
-3662 -1925 0
-3662 1279 0
3663 -1995 1880 1881 -1285 0
-3663 1995 0
-3663 -1880 0
-3663 -1881 0
-3663 1285 0
3664 -1997 679 1859 -1233 0
-3664 1997 0
-3664 -679 0
-3664 -1859 0
-3664 1233 0
3665 -2001 595 1979 -1213 0
-3665 2001 0
-3665 -595 0
-3665 -1979 0
-3665 1213 0
3666 -2027 623 1945 -1255 0
-3666 2027 0
-3666 -623 0
-3666 -1945 0
-3666 1255 0
3667 -2073 699 1938 -981 0
-3667 2073 0
-3667 -699 0
-3667 -1938 0
-3667 981 0
3668 -2075 575 1870 -997 0
-3668 2075 0
-3668 -575 0
-3668 -1870 0
-3668 997 0
3669 -2077 739 1964 -1029 0
-3669 2077 0
-3669 -739 0
-3669 -1964 0
-3669 1029 0
3670 -2079 689 1862 -1043 0
-3670 2079 0
-3670 -689 0
-3670 -1862 0
-3670 1043 0
3671 -2081 943 1911 -1007 0
-3671 2081 0
-3671 -943 0
-3671 -1911 0
-3671 1007 0
3672 -2083 847 1898 -971 0
-3672 2083 0
-3672 -847 0
-3672 -1898 0
-3672 971 0
3673 -2067 583 1914 -969 0
-3673 2067 0
-3673 -583 0
-3673 -1914 0
-3673 969 0
3674 -2115 801 1888 -1019 0
-3674 2115 0
-3674 -801 0
-3674 -1888 0
-3674 1019 0
3675 -2087 893 1843 -1011 0
-3675 2087 0
-3675 -893 0
-3675 -1843 0
-3675 1011 0
3676 -2089 725 1971 -1027 0
-3676 2089 0
-3676 -725 0
-3676 -1971 0
-3676 1027 0
3677 -2095 529 1908 -995 0
-3677 2095 0
-3677 -529 0
-3677 -1908 0
-3677 995 0
3678 -2091 635 1866 -1025 0
-3678 2091 0
-3678 -635 0
-3678 -1866 0
-3678 1025 0
3679 -2093 607 1891 -991 0
-3679 2093 0
-3679 -607 0
-3679 -1891 0
-3679 991 0
3680 -2097 791 1935 -989 0
-3680 2097 0
-3680 -791 0
-3680 -1935 0
-3680 989 0
3681 -2125 859 1953 -987 0
-3681 2125 0
-3681 -859 0
-3681 -1953 0
-3681 987 0
3682 -2101 517 1961 -1009 0
-3682 2101 0
-3682 -517 0
-3682 -1961 0
-3682 1009 0
3683 -2063 5 3128 0
-3683 2063 0
-3683 -5 0
-3683 -3128 0
3684 -2099 549 1905 -1013 0
-3684 2099 0
-3684 -549 0
-3684 -1905 0
-3684 1013 0
3685 -2103 597 1979 -973 0
-3685 2103 0
-3685 -597 0
-3685 -1979 0
-3685 973 0
3686 -2105 565 1975 -999 0
-3686 2105 0
-3686 -565 0
-3686 -1975 0
-3686 999 0
3687 -2107 539 1925 -1039 0
-3687 2107 0
-3687 -539 0
-3687 -1925 0
-3687 1039 0
3688 -2109 681 1859 -993 0
-3688 2109 0
-3688 -681 0
-3688 -1859 0
-3688 993 0
3689 -2111 763 1949 -985 0
-3689 2111 0
-3689 -763 0
-3689 -1949 0
-3689 985 0
3690 -2113 505 1874 -1033 0
-3690 2113 0
-3690 -505 0
-3690 -1874 0
-3690 1033 0
3691 -2117 873 1851 -1037 0
-3691 2117 0
-3691 -873 0
-3691 -1851 0
-3691 1037 0
3692 -2119 671 1922 -983 0
-3692 2119 0
-3692 -671 0
-3692 -1922 0
-3692 983 0
3693 -2121 881 1928 -1041 0
-3693 2121 0
-3693 -881 0
-3693 -1928 0
-3693 1041 0
3694 -2139 625 1945 -1015 0
-3694 2139 0
-3694 -625 0
-3694 -1945 0
-3694 1015 0
3695 -2127 919 1957 -1017 0
-3695 2127 0
-3695 -919 0
-3695 -1957 0
-3695 1017 0
3696 -2129 655 1941 -1005 0
-3696 2129 0
-3696 -655 0
-3696 -1941 0
-3696 1005 0
3697 -2123 957 1931 -979 0
-3697 2123 0
-3697 -957 0
-3697 -1931 0
-3697 979 0
3698 -2133 839 1855 -977 0
-3698 2133 0
-3698 -839 0
-3698 -1855 0
-3698 977 0
3699 -2137 715 1878 -1023 0
-3699 2137 0
-3699 -715 0
-3699 -1878 0
-3699 1023 0
3700 -2131 903 1881 -1045 0
-3700 2131 0
-3700 -903 0
-3700 -1881 0
-3700 1045 0
3701 -2085 647 1885 -1031 0
-3701 2085 0
-3701 -647 0
-3701 -1885 0
-3701 1031 0
3702 -2135 777 1847 -975 0
-3702 2135 0
-3702 -777 0
-3702 -1847 0
-3702 975 0
3703 -2065 931 1895 -1003 0
-3703 2065 0
-3703 -931 0
-3703 -1895 0
-3703 1003 0
3704 -2071 827 1918 -1021 0
-3704 2071 0
-3704 -827 0
-3704 -1918 0
-3704 1021 0
3705 -2141 751 1967 -1035 0
-3705 2141 0
-3705 -751 0
-3705 -1967 0
-3705 1035 0
3706 -2069 815 1902 -1001 0
-3706 2069 0
-3706 -815 0
-3706 -1902 0
-3706 1001 0
3707 -2129 655 1941 -1085 0
-3707 2129 0
-3707 -655 0
-3707 -1941 0
-3707 1085 0
3708 -2123 957 1931 -1059 0
-3708 2123 0
-3708 -957 0
-3708 -1931 0
-3708 1059 0
3709 -2133 839 1855 -1057 0
-3709 2133 0
-3709 -839 0
-3709 -1855 0
-3709 1057 0
3710 -2137 715 1878 -1103 0
-3710 2137 0
-3710 -715 0
-3710 -1878 0
-3710 1103 0
3711 -2085 647 1885 -1111 0
-3711 2085 0
-3711 -647 0
-3711 -1885 0
-3711 1111 0
3712 -2135 777 1847 -1055 0
-3712 2135 0
-3712 -777 0
-3712 -1847 0
-3712 1055 0
3713 -2065 931 1895 -1083 0
-3713 2065 0
-3713 -931 0
-3713 -1895 0
-3713 1083 0
3714 -2071 827 1918 -1101 0
-3714 2071 0
-3714 -827 0
-3714 -1918 0
-3714 1101 0
3715 -2141 751 1967 -1115 0
-3715 2141 0
-3715 -751 0
-3715 -1967 0
-3715 1115 0
3716 -2067 583 1914 -1049 0
-3716 2067 0
-3716 -583 0
-3716 -1914 0
-3716 1049 0
3717 -2091 635 1866 -1105 0
-3717 2091 0
-3717 -635 0
-3717 -1866 0
-3717 1105 0
3718 -2073 699 1938 -1061 0
-3718 2073 0
-3718 -699 0
-3718 -1938 0
-3718 1061 0
3719 -2077 739 1964 -1109 0
-3719 2077 0
-3719 -739 0
-3719 -1964 0
-3719 1109 0
3720 -2079 689 1862 -1123 0
-3720 2079 0
-3720 -689 0
-3720 -1862 0
-3720 1123 0
1374 -1373 0
-1374 1373 0
3721 -2081 943 1911 -1087 0
-3721 2081 0
-3721 -943 0
-3721 -1911 0
-3721 1087 0
3722 -2099 549 1905 -1093 0
-3722 2099 0
-3722 -549 0
-3722 -1905 0
-3722 1093 0
3723 -2083 847 1898 -1051 0
-3723 2083 0
-3723 -847 0
-3723 -1898 0
-3723 1051 0
3724 -2101 517 1961 -1089 0
-3724 2101 0
-3724 -517 0
-3724 -1961 0
-3724 1089 0
3725 -2103 597 1979 -1053 0
-3725 2103 0
-3725 -597 0
-3725 -1979 0
-3725 1053 0
3726 -2105 565 1975 -1079 0
-3726 2105 0
-3726 -565 0
-3726 -1975 0
-3726 1079 0
3727 -2107 539 1925 -1119 0
-3727 2107 0
-3727 -539 0
-3727 -1925 0
-3727 1119 0
3728 -2111 763 1949 -1065 0
-3728 2111 0
-3728 -763 0
-3728 -1949 0
-3728 1065 0
3729 -2115 801 1888 -1099 0
-3729 2115 0
-3729 -801 0
-3729 -1888 0
-3729 1099 0
3730 -2087 893 1843 -1091 0
-3730 2087 0
-3730 -893 0
-3730 -1843 0
-3730 1091 0
3731 -2089 725 1971 -1107 0
-3731 2089 0
-3731 -725 0
-3731 -1971 0
-3731 1107 0
3732 -2119 671 1922 -1063 0
-3732 2119 0
-3732 -671 0
-3732 -1922 0
-3732 1063 0
3733 -2093 607 1891 -1071 0
-3733 2093 0
-3733 -607 0
-3733 -1891 0
-3733 1071 0
3734 -2095 529 1908 -1075 0
-3734 2095 0
-3734 -529 0
-3734 -1908 0
-3734 1075 0
3735 -2097 791 1935 -1069 0
-3735 2097 0
-3735 -791 0
-3735 -1935 0
-3735 1069 0
3736 -2125 859 1953 -1067 0
-3736 2125 0
-3736 -859 0
-3736 -1953 0
-3736 1067 0
3737 -2131 903 1881 -1125 0
-3737 2131 0
-3737 -903 0
-3737 -1881 0
-3737 1125 0
3738 -2109 681 1859 -1073 0
-3738 2109 0
-3738 -681 0
-3738 -1859 0
-3738 1073 0
3739 -2113 505 1874 -1113 0
-3739 2113 0
-3739 -505 0
-3739 -1874 0
-3739 1113 0
3740 -2117 873 1851 -1117 0
-3740 2117 0
-3740 -873 0
-3740 -1851 0
-3740 1117 0
3741 -2121 881 1928 -1121 0
-3741 2121 0
-3741 -881 0
-3741 -1928 0
-3741 1121 0
3742 -2139 625 1945 -1095 0
-3742 2139 0
-3742 -625 0
-3742 -1945 0
-3742 1095 0
3743 -2069 815 1902 -1081 0
-3743 2069 0
-3743 -815 0
-3743 -1902 0
-3743 1081 0
3744 -2075 575 1870 -1077 0
-3744 2075 0
-3744 -575 0
-3744 -1870 0
-3744 1077 0
3745 -2127 919 1957 -1097 0
-3745 2127 0
-3745 -919 0
-3745 -1957 0
-3745 1097 0
3746 -2105 565 1975 -1159 0
-3746 2105 0
-3746 -565 0
-3746 -1975 0
-3746 1159 0
3747 -2107 539 1925 -1199 0
-3747 2107 0
-3747 -539 0
-3747 -1925 0
-3747 1199 0
3748 -2099 549 1905 -1173 0
-3748 2099 0
-3748 -549 0
-3748 -1905 0
-3748 1173 0
3749 -2113 505 1874 -1193 0
-3749 2113 0
-3749 -505 0
-3749 -1874 0
-3749 1193 0
3750 -2103 597 1979 -1133 0
-3750 2103 0
-3750 -597 0
-3750 -1979 0
-3750 1133 0
3751 -2115 801 1888 -1179 0
-3751 2115 0
-3751 -801 0
-3751 -1888 0
-3751 1179 0
1376 -1375 0
-1376 1375 0
3752 -2111 763 1949 -1145 0
-3752 2111 0
-3752 -763 0
-3752 -1949 0
-3752 1145 0
3753 -2109 681 1859 -1153 0
-3753 2109 0
-3753 -681 0
-3753 -1859 0
-3753 1153 0
3754 -2117 873 1851 -1197 0
-3754 2117 0
-3754 -873 0
-3754 -1851 0
-3754 1197 0
3755 -2119 671 1922 -1143 0
-3755 2119 0
-3755 -671 0
-3755 -1922 0
-3755 1143 0
3756 -2121 881 1928 -1201 0
-3756 2121 0
-3756 -881 0
-3756 -1928 0
-3756 1201 0
3757 -2089 725 1971 -1187 0
-3757 2089 0
-3757 -725 0
-3757 -1971 0
-3757 1187 0
3758 -2123 957 1931 -1139 0
-3758 2123 0
-3758 -957 0
-3758 -1931 0
-3758 1139 0
3759 -2125 859 1953 -1147 0
-3759 2125 0
-3759 -859 0
-3759 -1953 0
-3759 1147 0
3760 -2127 919 1957 -1177 0
-3760 2127 0
-3760 -919 0
-3760 -1957 0
-3760 1177 0
3761 -2129 655 1941 -1165 0
-3761 2129 0
-3761 -655 0
-3761 -1941 0
-3761 1165 0
3762 -2131 903 1881 -1205 0
-3762 2131 0
-3762 -903 0
-3762 -1881 0
-3762 1205 0
3763 -2133 839 1855 -1137 0
-3763 2133 0
-3763 -839 0
-3763 -1855 0
-3763 1137 0
3764 -2135 777 1847 -1135 0
-3764 2135 0
-3764 -777 0
-3764 -1847 0
-3764 1135 0
3765 -2137 715 1878 -1183 0
-3765 2137 0
-3765 -715 0
-3765 -1878 0
-3765 1183 0
3766 -2139 625 1945 -1175 0
-3766 2139 0
-3766 -625 0
-3766 -1945 0
-3766 1175 0
3767 -2141 751 1967 -1195 0
-3767 2141 0
-3767 -751 0
-3767 -1967 0
-3767 1195 0
3768 -2067 583 1914 -1129 0
-3768 2067 0
-3768 -583 0
-3768 -1914 0
-3768 1129 0
3769 -2069 815 1902 -1161 0
-3769 2069 0
-3769 -815 0
-3769 -1902 0
-3769 1161 0
3770 -2071 827 1918 -1181 0
-3770 2071 0
-3770 -827 0
-3770 -1918 0
-3770 1181 0
3771 -2075 575 1870 -1157 0
-3771 2075 0
-3771 -575 0
-3771 -1870 0
-3771 1157 0
3772 -2077 739 1964 -1189 0
-3772 2077 0
-3772 -739 0
-3772 -1964 0
-3772 1189 0
3773 -2079 689 1862 -1203 0
-3773 2079 0
-3773 -689 0
-3773 -1862 0
-3773 1203 0
3774 -2081 943 1911 -1167 0
-3774 2081 0
-3774 -943 0
-3774 -1911 0
-3774 1167 0
3775 -2083 847 1898 -1131 0
-3775 2083 0
-3775 -847 0
-3775 -1898 0
-3775 1131 0
3776 -2085 647 1885 -1191 0
-3776 2085 0
-3776 -647 0
-3776 -1885 0
-3776 1191 0
3777 -2087 893 1843 -1171 0
-3777 2087 0
-3777 -893 0
-3777 -1843 0
-3777 1171 0
3778 -2065 931 1895 -1163 0
-3778 2065 0
-3778 -931 0
-3778 -1895 0
-3778 1163 0
3779 -2093 607 1891 -1151 0
-3779 2093 0
-3779 -607 0
-3779 -1891 0
-3779 1151 0
3780 -2095 529 1908 -1155 0
-3780 2095 0
-3780 -529 0
-3780 -1908 0
-3780 1155 0
3781 -2097 791 1935 -1149 0
-3781 2097 0
-3781 -791 0
-3781 -1935 0
-3781 1149 0
3782 -2091 635 1866 -1185 0
-3782 2091 0
-3782 -635 0
-3782 -1866 0
-3782 1185 0
3783 -2073 699 1938 -1141 0
-3783 2073 0
-3783 -699 0
-3783 -1938 0
-3783 1141 0
3784 -2101 517 1961 -1169 0
-3784 2101 0
-3784 -517 0
-3784 -1961 0
-3784 1169 0
3785 -2105 565 1975 -1239 0
-3785 2105 0
-3785 -565 0
-3785 -1975 0
-3785 1239 0
3786 -2115 801 1888 -1259 0
-3786 2115 0
-3786 -801 0
-3786 -1888 0
-3786 1259 0
3787 -2111 763 1949 -1225 0
-3787 2111 0
-3787 -763 0
-3787 -1949 0
-3787 1225 0
3788 -2087 893 1843 -1251 0
-3788 2087 0
-3788 -893 0
-3788 -1843 0
-3788 1251 0
3789 -2089 725 1971 -1267 0
-3789 2089 0
-3789 -725 0
-3789 -1971 0
-3789 1267 0
3790 -2119 671 1922 -1223 0
-3790 2119 0
-3790 -671 0
-3790 -1922 0
-3790 1223 0
3791 -2093 607 1891 -1231 0
-3791 2093 0
-3791 -607 0
-3791 -1891 0
-3791 1231 0
3792 -2095 529 1908 -1235 0
-3792 2095 0
-3792 -529 0
-3792 -1908 0
-3792 1235 0
3793 -2097 791 1935 -1229 0
-3793 2097 0
-3793 -791 0
-3793 -1935 0
-3793 1229 0
3794 -2125 859 1953 -1227 0
-3794 2125 0
-3794 -859 0
-3794 -1953 0
-3794 1227 0
3795 -2103 597 1979 -1213 0
-3795 2103 0
-3795 -597 0
-3795 -1979 0
-3795 1213 0
3796 -2131 903 1881 -1285 0
-3796 2131 0
-3796 -903 0
-3796 -1881 0
-3796 1285 0
3797 -2107 539 1925 -1279 0
-3797 2107 0
-3797 -539 0
-3797 -1925 0
-3797 1279 0
3798 -2109 681 1859 -1233 0
-3798 2109 0
-3798 -681 0
-3798 -1859 0
-3798 1233 0
1378 -1377 0
-1378 1377 0
3799 -2113 505 1874 -1273 0
-3799 2113 0
-3799 -505 0
-3799 -1874 0
-3799 1273 0
3800 -2121 881 1928 -1281 0
-3800 2121 0
-3800 -881 0
-3800 -1928 0
-3800 1281 0
3801 -2139 625 1945 -1255 0
-3801 2139 0
-3801 -625 0
-3801 -1945 0
-3801 1255 0
3802 -2117 873 1851 -1277 0
-3802 2117 0
-3802 -873 0
-3802 -1851 0
-3802 1277 0
3803 -2127 919 1957 -1257 0
-3803 2127 0
-3803 -919 0
-3803 -1957 0
-3803 1257 0
3804 -2129 655 1941 -1245 0
-3804 2129 0
-3804 -655 0
-3804 -1941 0
-3804 1245 0
3805 -2123 957 1931 -1219 0
-3805 2123 0
-3805 -957 0
-3805 -1931 0
-3805 1219 0
3806 -2137 715 1878 -1263 0
-3806 2137 0
-3806 -715 0
-3806 -1878 0
-3806 1263 0
3807 -2133 839 1855 -1217 0
-3807 2133 0
-3807 -839 0
-3807 -1855 0
-3807 1217 0
3808 -2085 647 1885 -1271 0
-3808 2085 0
-3808 -647 0
-3808 -1885 0
-3808 1271 0
3809 -2135 777 1847 -1215 0
-3809 2135 0
-3809 -777 0
-3809 -1847 0
-3809 1215 0
3810 -2065 931 1895 -1243 0
-3810 2065 0
-3810 -931 0
-3810 -1895 0
-3810 1243 0
3811 -2071 827 1918 -1261 0
-3811 2071 0
-3811 -827 0
-3811 -1918 0
-3811 1261 0
3812 -2141 751 1967 -1275 0
-3812 2141 0
-3812 -751 0
-3812 -1967 0
-3812 1275 0
3813 -2069 815 1902 -1241 0
-3813 2069 0
-3813 -815 0
-3813 -1902 0
-3813 1241 0
3814 -2067 583 1914 -1209 0
-3814 2067 0
-3814 -583 0
-3814 -1914 0
-3814 1209 0
3815 -2091 635 1866 -1265 0
-3815 2091 0
-3815 -635 0
-3815 -1866 0
-3815 1265 0
3816 -2075 575 1870 -1237 0
-3816 2075 0
-3816 -575 0
-3816 -1870 0
-3816 1237 0
3817 -2073 699 1938 -1221 0
-3817 2073 0
-3817 -699 0
-3817 -1938 0
-3817 1221 0
3818 -2077 739 1964 -1269 0
-3818 2077 0
-3818 -739 0
-3818 -1964 0
-3818 1269 0
3819 -2079 689 1862 -1283 0
-3819 2079 0
-3819 -689 0
-3819 -1862 0
-3819 1283 0
3820 -2081 943 1911 -1247 0
-3820 2081 0
-3820 -943 0
-3820 -1911 0
-3820 1247 0
3821 -2083 847 1898 -1211 0
-3821 2083 0
-3821 -847 0
-3821 -1898 0
-3821 1211 0
3822 -2099 549 1905 -1253 0
-3822 2099 0
-3822 -549 0
-3822 -1905 0
-3822 1253 0
3823 -2101 517 1961 -1249 0
-3823 2101 0
-3823 -517 0
-3823 -1961 0
-3823 1249 0
3824 -2155 959 1931 -979 0
-3824 2155 0
-3824 -959 0
-3824 -1931 0
-3824 979 0
3825 -2153 637 1866 -1025 0
-3825 2153 0
-3825 -637 0
-3825 -1866 0
-3825 1025 0
3826 -2157 701 1938 -981 0
-3826 2157 0
-3826 -701 0
-3826 -1938 0
-3826 981 0
3827 -2151 507 1874 -1033 0
-3827 2151 0
-3827 -507 0
-3827 -1874 0
-3827 1033 0
3828 -2163 793 1935 -989 0
-3828 2163 0
-3828 -793 0
-3828 -1935 0
-3828 989 0
3829 -2159 861 1953 -987 0
-3829 2159 0
-3829 -861 0
-3829 -1953 0
-3829 987 0
3830 -2143 9 3128 0
-3830 2143 0
-3830 -9 0
-3830 -3128 0
3831 -2167 657 1941 -1005 0
-3831 2167 0
-3831 -657 0
-3831 -1941 0
-3831 1005 0
3832 -2165 933 1895 -1003 0
-3832 2165 0
-3832 -933 0
-3832 -1895 0
-3832 1003 0
3833 -2171 803 1888 -1019 0
-3833 2171 0
-3833 -803 0
-3833 -1888 0
-3833 1019 0
3834 -2173 779 1847 -975 0
-3834 2173 0
-3834 -779 0
-3834 -1847 0
-3834 975 0
3835 -2175 577 1870 -997 0
-3835 2175 0
-3835 -577 0
-3835 -1870 0
-3835 997 0
3836 -2177 895 1843 -1011 0
-3836 2177 0
-3836 -895 0
-3836 -1843 0
-3836 1011 0
3837 -2179 531 1908 -995 0
-3837 2179 0
-3837 -531 0
-3837 -1908 0
-3837 995 0
3838 -2169 717 1878 -1023 0
-3838 2169 0
-3838 -717 0
-3838 -1878 0
-3838 1023 0
3839 -2181 727 1971 -1027 0
-3839 2181 0
-3839 -727 0
-3839 -1971 0
-3839 1027 0
3840 -2185 551 1905 -1013 0
-3840 2185 0
-3840 -551 0
-3840 -1905 0
-3840 1013 0
3841 -2189 599 1979 -973 0
-3841 2189 0
-3841 -599 0
-3841 -1979 0
-3841 973 0
3842 -2183 585 1914 -969 0
-3842 2183 0
-3842 -585 0
-3842 -1914 0
-3842 969 0
3843 -2187 875 1851 -1037 0
-3843 2187 0
-3843 -875 0
-3843 -1851 0
-3843 1037 0
3844 -2191 765 1949 -985 0
-3844 2191 0
-3844 -765 0
-3844 -1949 0
-3844 985 0
3845 -2193 945 1911 -1007 0
-3845 2193 0
-3845 -945 0
-3845 -1911 0
-3845 1007 0
3846 -2195 673 1922 -983 0
-3846 2195 0
-3846 -673 0
-3846 -1922 0
-3846 983 0
3847 -2221 541 1925 -1039 0
-3847 2221 0
-3847 -541 0
-3847 -1925 0
-3847 1039 0
3848 -2197 691 1862 -1043 0
-3848 2197 0
-3848 -691 0
-3848 -1862 0
-3848 1043 0
3849 -2201 817 1902 -1001 0
-3849 2201 0
-3849 -817 0
-3849 -1902 0
-3849 1001 0
3850 -2199 753 1967 -1035 0
-3850 2199 0
-3850 -753 0
-3850 -1967 0
-3850 1035 0
3851 -2205 519 1961 -1009 0
-3851 2205 0
-3851 -519 0
-3851 -1961 0
-3851 1009 0
3852 -2207 921 1957 -1017 0
-3852 2207 0
-3852 -921 0
-3852 -1957 0
-3852 1017 0
3853 -2203 627 1945 -1015 0
-3853 2203 0
-3853 -627 0
-3853 -1945 0
-3853 1015 0
3854 -2211 905 1881 -1045 0
-3854 2211 0
-3854 -905 0
-3854 -1881 0
-3854 1045 0
3855 -2213 829 1918 -1021 0
-3855 2213 0
-3855 -829 0
-3855 -1918 0
-3855 1021 0
3856 -2209 649 1885 -1031 0
-3856 2209 0
-3856 -649 0
-3856 -1885 0
-3856 1031 0
3857 -2215 841 1855 -977 0
-3857 2215 0
-3857 -841 0
-3857 -1855 0
-3857 977 0
3858 -2161 741 1964 -1029 0
-3858 2161 0
-3858 -741 0
-3858 -1964 0
-3858 1029 0
3859 -2217 883 1928 -1041 0
-3859 2217 0
-3859 -883 0
-3859 -1928 0
-3859 1041 0
3860 -2219 609 1891 -991 0
-3860 2219 0
-3860 -609 0
-3860 -1891 0
-3860 991 0
3861 -2145 683 1859 -993 0
-3861 2145 0
-3861 -683 0
-3861 -1859 0
-3861 993 0
3862 -2147 849 1898 -971 0
-3862 2147 0
-3862 -849 0
-3862 -1898 0
-3862 971 0
3863 -2149 567 1975 -999 0
-3863 2149 0
-3863 -567 0
-3863 -1975 0
-3863 999 0
3864 -2221 541 1925 -1119 0
-3864 2221 0
-3864 -541 0
-3864 -1925 0
-3864 1119 0
1382 -1381 0
-1382 1381 0
3865 -2201 817 1902 -1081 0
-3865 2201 0
-3865 -817 0
-3865 -1902 0
-3865 1081 0
3866 -2197 691 1862 -1123 0
-3866 2197 0
-3866 -691 0
-3866 -1862 0
-3866 1123 0
3867 -2207 921 1957 -1097 0
-3867 2207 0
-3867 -921 0
-3867 -1957 0
-3867 1097 0
3868 -2145 683 1859 -1073 0
-3868 2145 0
-3868 -683 0
-3868 -1859 0
-3868 1073 0
3869 -2149 567 1975 -1079 0
-3869 2149 0
-3869 -567 0
-3869 -1975 0
-3869 1079 0
3870 -2153 637 1866 -1105 0
-3870 2153 0
-3870 -637 0
-3870 -1866 0
-3870 1105 0
3871 -2157 701 1938 -1061 0
-3871 2157 0
-3871 -701 0
-3871 -1938 0
-3871 1061 0
3872 -2211 905 1881 -1125 0
-3872 2211 0
-3872 -905 0
-3872 -1881 0
-3872 1125 0
3873 -2155 959 1931 -1059 0
-3873 2155 0
-3873 -959 0
-3873 -1931 0
-3873 1059 0
3874 -2215 841 1855 -1057 0
-3874 2215 0
-3874 -841 0
-3874 -1855 0
-3874 1057 0
3875 -2161 741 1964 -1109 0
-3875 2161 0
-3875 -741 0
-3875 -1964 0
-3875 1109 0
3876 -2159 861 1953 -1067 0
-3876 2159 0
-3876 -861 0
-3876 -1953 0
-3876 1067 0
3877 -2217 883 1928 -1121 0
-3877 2217 0
-3877 -883 0
-3877 -1928 0
-3877 1121 0
3878 -2219 609 1891 -1071 0
-3878 2219 0
-3878 -609 0
-3878 -1891 0
-3878 1071 0
3879 -2147 849 1898 -1051 0
-3879 2147 0
-3879 -849 0
-3879 -1898 0
-3879 1051 0
3880 -2175 577 1870 -1077 0
-3880 2175 0
-3880 -577 0
-3880 -1870 0
-3880 1077 0
3881 -2181 727 1971 -1107 0
-3881 2181 0
-3881 -727 0
-3881 -1971 0
-3881 1107 0
3882 -2151 507 1874 -1113 0
-3882 2151 0
-3882 -507 0
-3882 -1874 0
-3882 1113 0
3883 -2179 531 1908 -1075 0
-3883 2179 0
-3883 -531 0
-3883 -1908 0
-3883 1075 0
3884 -2185 551 1905 -1093 0
-3884 2185 0
-3884 -551 0
-3884 -1905 0
-3884 1093 0
3885 -2189 599 1979 -1053 0
-3885 2189 0
-3885 -599 0
-3885 -1979 0
-3885 1053 0
3886 -2169 717 1878 -1103 0
-3886 2169 0
-3886 -717 0
-3886 -1878 0
-3886 1103 0
3887 -2183 585 1914 -1049 0
-3887 2183 0
-3887 -585 0
-3887 -1914 0
-3887 1049 0
3888 -2163 793 1935 -1069 0
-3888 2163 0
-3888 -793 0
-3888 -1935 0
-3888 1069 0
3889 -2187 875 1851 -1117 0
-3889 2187 0
-3889 -875 0
-3889 -1851 0
-3889 1117 0
3890 -2191 765 1949 -1065 0
-3890 2191 0
-3890 -765 0
-3890 -1949 0
-3890 1065 0
3891 -2193 945 1911 -1087 0
-3891 2193 0
-3891 -945 0
-3891 -1911 0
-3891 1087 0
3892 -2195 673 1922 -1063 0
-3892 2195 0
-3892 -673 0
-3892 -1922 0
-3892 1063 0
3893 -2165 933 1895 -1083 0
-3893 2165 0
-3893 -933 0
-3893 -1895 0
-3893 1083 0
3894 -2167 657 1941 -1085 0
-3894 2167 0
-3894 -657 0
-3894 -1941 0
-3894 1085 0
3895 -2199 753 1967 -1115 0
-3895 2199 0
-3895 -753 0
-3895 -1967 0
-3895 1115 0
3896 -2203 627 1945 -1095 0
-3896 2203 0
-3896 -627 0
-3896 -1945 0
-3896 1095 0
3897 -2171 803 1888 -1099 0
-3897 2171 0
-3897 -803 0
-3897 -1888 0
-3897 1099 0
3898 -2205 519 1961 -1089 0
-3898 2205 0
-3898 -519 0
-3898 -1961 0
-3898 1089 0
3899 -2173 779 1847 -1055 0
-3899 2173 0
-3899 -779 0
-3899 -1847 0
-3899 1055 0
3900 -2177 895 1843 -1091 0
-3900 2177 0
-3900 -895 0
-3900 -1843 0
-3900 1091 0
3901 -2209 649 1885 -1111 0
-3901 2209 0
-3901 -649 0
-3901 -1885 0
-3901 1111 0
3902 -2213 829 1918 -1101 0
-3902 2213 0
-3902 -829 0
-3902 -1918 0
-3902 1101 0
3903 -2217 883 1928 -1201 0
-3903 2217 0
-3903 -883 0
-3903 -1928 0
-3903 1201 0
3904 -2219 609 1891 -1151 0
-3904 2219 0
-3904 -609 0
-3904 -1891 0
-3904 1151 0
3905 -2221 541 1925 -1199 0
-3905 2221 0
-3905 -541 0
-3905 -1925 0
-3905 1199 0
1384 -1383 0
-1384 1383 0
3906 -2145 683 1859 -1153 0
-3906 2145 0
-3906 -683 0
-3906 -1859 0
-3906 1153 0
3907 -2147 849 1898 -1131 0
-3907 2147 0
-3907 -849 0
-3907 -1898 0
-3907 1131 0
3908 -2149 567 1975 -1159 0
-3908 2149 0
-3908 -567 0
-3908 -1975 0
-3908 1159 0
3909 -2151 507 1874 -1193 0
-3909 2151 0
-3909 -507 0
-3909 -1874 0
-3909 1193 0
3910 -2211 905 1881 -1205 0
-3910 2211 0
-3910 -905 0
-3910 -1881 0
-3910 1205 0
3911 -2155 959 1931 -1139 0
-3911 2155 0
-3911 -959 0
-3911 -1931 0
-3911 1139 0
3912 -2153 637 1866 -1185 0
-3912 2153 0
-3912 -637 0
-3912 -1866 0
-3912 1185 0
3913 -2157 701 1938 -1141 0
-3913 2157 0
-3913 -701 0
-3913 -1938 0
-3913 1141 0
3914 -2161 741 1964 -1189 0
-3914 2161 0
-3914 -741 0
-3914 -1964 0
-3914 1189 0
3915 -2159 861 1953 -1147 0
-3915 2159 0
-3915 -861 0
-3915 -1953 0
-3915 1147 0
3916 -2165 933 1895 -1163 0
-3916 2165 0
-3916 -933 0
-3916 -1895 0
-3916 1163 0
3917 -2167 657 1941 -1165 0
-3917 2167 0
-3917 -657 0
-3917 -1941 0
-3917 1165 0
3918 -2171 803 1888 -1179 0
-3918 2171 0
-3918 -803 0
-3918 -1888 0
-3918 1179 0
3919 -2173 779 1847 -1135 0
-3919 2173 0
-3919 -779 0
-3919 -1847 0
-3919 1135 0
3920 -2179 531 1908 -1155 0
-3920 2179 0
-3920 -531 0
-3920 -1908 0
-3920 1155 0
3921 -2181 727 1971 -1187 0
-3921 2181 0
-3921 -727 0
-3921 -1971 0
-3921 1187 0
3922 -2175 577 1870 -1157 0
-3922 2175 0
-3922 -577 0
-3922 -1870 0
-3922 1157 0
3923 -2177 895 1843 -1171 0
-3923 2177 0
-3923 -895 0
-3923 -1843 0
-3923 1171 0
3924 -2169 717 1878 -1183 0
-3924 2169 0
-3924 -717 0
-3924 -1878 0
-3924 1183 0
3925 -2183 585 1914 -1129 0
-3925 2183 0
-3925 -585 0
-3925 -1914 0
-3925 1129 0
3926 -2163 793 1935 -1149 0
-3926 2163 0
-3926 -793 0
-3926 -1935 0
-3926 1149 0
3927 -2185 551 1905 -1173 0
-3927 2185 0
-3927 -551 0
-3927 -1905 0
-3927 1173 0
3928 -2191 765 1949 -1145 0
-3928 2191 0
-3928 -765 0
-3928 -1949 0
-3928 1145 0
3929 -2189 599 1979 -1133 0
-3929 2189 0
-3929 -599 0
-3929 -1979 0
-3929 1133 0
3930 -2187 875 1851 -1197 0
-3930 2187 0
-3930 -875 0
-3930 -1851 0
-3930 1197 0
3931 -2193 945 1911 -1167 0
-3931 2193 0
-3931 -945 0
-3931 -1911 0
-3931 1167 0
3932 -2195 673 1922 -1143 0
-3932 2195 0
-3932 -673 0
-3932 -1922 0
-3932 1143 0
3933 -2201 817 1902 -1161 0
-3933 2201 0
-3933 -817 0
-3933 -1902 0
-3933 1161 0
3934 -2197 691 1862 -1203 0
-3934 2197 0
-3934 -691 0
-3934 -1862 0
-3934 1203 0
3935 -2203 627 1945 -1175 0
-3935 2203 0
-3935 -627 0
-3935 -1945 0
-3935 1175 0
3936 -2199 753 1967 -1195 0
-3936 2199 0
-3936 -753 0
-3936 -1967 0
-3936 1195 0
3937 -2205 519 1961 -1169 0
-3937 2205 0
-3937 -519 0
-3937 -1961 0
-3937 1169 0
3938 -2207 921 1957 -1177 0
-3938 2207 0
-3938 -921 0
-3938 -1957 0
-3938 1177 0
3939 -2213 829 1918 -1181 0
-3939 2213 0
-3939 -829 0
-3939 -1918 0
-3939 1181 0
3940 -2209 649 1885 -1191 0
-3940 2209 0
-3940 -649 0
-3940 -1885 0
-3940 1191 0
3941 -2215 841 1855 -1137 0
-3941 2215 0
-3941 -841 0
-3941 -1855 0
-3941 1137 0
3942 -2183 585 1914 -1209 0
-3942 2183 0
-3942 -585 0
-3942 -1914 0
-3942 1209 0
3943 -2163 793 1935 -1229 0
-3943 2163 0
-3943 -793 0
-3943 -1935 0
-3943 1229 0
3944 -2191 765 1949 -1225 0
-3944 2191 0
-3944 -765 0
-3944 -1949 0
-3944 1225 0
3945 -2187 875 1851 -1277 0
-3945 2187 0
-3945 -875 0
-3945 -1851 0
-3945 1277 0
3946 -2153 637 1866 -1265 0
-3946 2153 0
-3946 -637 0
-3946 -1866 0
-3946 1265 0
3947 -2167 657 1941 -1245 0
-3947 2167 0
-3947 -657 0
-3947 -1941 0
-3947 1245 0
3948 -2195 673 1922 -1223 0
-3948 2195 0
-3948 -673 0
-3948 -1922 0
-3948 1223 0
3949 -2165 933 1895 -1243 0
-3949 2165 0
-3949 -933 0
-3949 -1895 0
-3949 1243 0
3950 -2199 753 1967 -1275 0
-3950 2199 0
-3950 -753 0
-3950 -1967 0
-3950 1275 0
3951 -2203 627 1945 -1255 0
-3951 2203 0
-3951 -627 0
-3951 -1945 0
-3951 1255 0
3952 -2171 803 1888 -1259 0
-3952 2171 0
-3952 -803 0
-3952 -1888 0
-3952 1259 0
3953 -2173 779 1847 -1215 0
-3953 2173 0
-3953 -779 0
-3953 -1847 0
-3953 1215 0
3954 -2177 895 1843 -1251 0
-3954 2177 0
-3954 -895 0
-3954 -1843 0
-3954 1251 0
3955 -2181 727 1971 -1267 0
-3955 2181 0
-3955 -727 0
-3955 -1971 0
-3955 1267 0
3956 -2189 599 1979 -1213 0
-3956 2189 0
-3956 -599 0
-3956 -1979 0
-3956 1213 0
3957 -2193 945 1911 -1247 0
-3957 2193 0
-3957 -945 0
-3957 -1911 0
-3957 1247 0
3958 -2201 817 1902 -1241 0
-3958 2201 0
-3958 -817 0
-3958 -1902 0
-3958 1241 0
3959 -2221 541 1925 -1279 0
-3959 2221 0
-3959 -541 0
-3959 -1925 0
-3959 1279 0
3960 -2197 691 1862 -1283 0
-3960 2197 0
-3960 -691 0
-3960 -1862 0
-3960 1283 0
3961 -2205 519 1961 -1249 0
-3961 2205 0
-3961 -519 0
-3961 -1961 0
-3961 1249 0
3962 -2207 921 1957 -1257 0
-3962 2207 0
-3962 -921 0
-3962 -1957 0
-3962 1257 0
3963 -2149 567 1975 -1239 0
-3963 2149 0
-3963 -567 0
-3963 -1975 0
-3963 1239 0
3964 -2157 701 1938 -1221 0
-3964 2157 0
-3964 -701 0
-3964 -1938 0
-3964 1221 0
3965 -2161 741 1964 -1269 0
-3965 2161 0
-3965 -741 0
-3965 -1964 0
-3965 1269 0
3966 -2213 829 1918 -1261 0
-3966 2213 0
-3966 -829 0
-3966 -1918 0
-3966 1261 0
3967 -2155 959 1931 -1219 0
-3967 2155 0
-3967 -959 0
-3967 -1931 0
-3967 1219 0
3968 -2215 841 1855 -1217 0
-3968 2215 0
-3968 -841 0
-3968 -1855 0
-3968 1217 0
3969 -2209 649 1885 -1271 0
-3969 2209 0
-3969 -649 0
-3969 -1885 0
-3969 1271 0
3970 -2159 861 1953 -1227 0
-3970 2159 0
-3970 -861 0
-3970 -1953 0
-3970 1227 0
3971 -2211 905 1881 -1285 0
-3971 2211 0
-3971 -905 0
-3971 -1881 0
-3971 1285 0
3972 -2217 883 1928 -1281 0
-3972 2217 0
-3972 -883 0
-3972 -1928 0
-3972 1281 0
3973 -2219 609 1891 -1231 0
-3973 2219 0
-3973 -609 0
-3973 -1891 0
-3973 1231 0
3974 -2145 683 1859 -1233 0
-3974 2145 0
-3974 -683 0
-3974 -1859 0
-3974 1233 0
3975 -2185 551 1905 -1253 0
-3975 2185 0
-3975 -551 0
-3975 -1905 0
-3975 1253 0
3976 -2147 849 1898 -1211 0
-3976 2147 0
-3976 -849 0
-3976 -1898 0
-3976 1211 0
1386 -1385 0
-1386 1385 0
3977 -2175 577 1870 -1237 0
-3977 2175 0
-3977 -577 0
-3977 -1870 0
-3977 1237 0
3978 -2151 507 1874 -1273 0
-3978 2151 0
-3978 -507 0
-3978 -1874 0
-3978 1273 0
3979 -2169 717 1878 -1263 0
-3979 2169 0
-3979 -717 0
-3979 -1878 0
-3979 1263 0
3980 -2179 531 1908 -1235 0
-3980 2179 0
-3980 -531 0
-3980 -1908 0
-3980 1235 0
3981 -2245 831 1918 -1021 0
-3981 2245 0
-3981 -831 0
-3981 -1918 0
-3981 1021 0
3982 -2247 651 1885 -1031 0
-3982 2247 0
-3982 -651 0
-3982 -1885 0
-3982 1031 0
3983 -2243 729 1971 -1027 0
-3983 2243 0
-3983 -729 0
-3983 -1971 0
-3983 1027 0
3984 -2271 659 1941 -1005 0
-3984 2271 0
-3984 -659 0
-3984 -1941 0
-3984 1005 0
3985 -2249 755 1967 -1035 0
-3985 2249 0
-3985 -755 0
-3985 -1967 0
-3985 1035 0
3986 -2251 611 1891 -991 0
-3986 2251 0
-3986 -611 0
-3986 -1891 0
-3986 991 0
3987 -2253 885 1928 -1041 0
-3987 2253 0
-3987 -885 0
-3987 -1928 0
-3987 1041 0
3988 -2223 13 3128 0
-3988 2223 0
-3988 -13 0
-3988 -3128 0
3989 -2255 509 1874 -1033 0
-3989 2255 0
-3989 -509 0
-3989 -1874 0
-3989 1033 0
3990 -2257 819 1902 -1001 0
-3990 2257 0
-3990 -819 0
-3990 -1902 0
-3990 1001 0
3991 -2259 863 1953 -987 0
-3991 2259 0
-3991 -863 0
-3991 -1953 0
-3991 987 0
3992 -2261 947 1911 -1007 0
-3992 2261 0
-3992 -947 0
-3992 -1911 0
-3992 1007 0
3993 -2263 851 1898 -971 0
-3993 2263 0
-3993 -851 0
-3993 -1898 0
-3993 971 0
3994 -2287 601 1979 -973 0
-3994 2287 0
-3994 -601 0
-3994 -1979 0
-3994 973 0
3995 -2265 675 1922 -983 0
-3995 2265 0
-3995 -675 0
-3995 -1922 0
-3995 983 0
3996 -2269 923 1957 -1017 0
-3996 2269 0
-3996 -923 0
-3996 -1957 0
-3996 1017 0
3997 -2275 533 1908 -995 0
-3997 2275 0
-3997 -533 0
-3997 -1908 0
-3997 995 0
3998 -2267 719 1878 -1023 0
-3998 2267 0
-3998 -719 0
-3998 -1878 0
-3998 1023 0
3999 -2273 805 1888 -1019 0
-3999 2273 0
-3999 -805 0
-3999 -1888 0
-3999 1019 0
4000 -2277 569 1975 -999 0
-4000 2277 0
-4000 -569 0
-4000 -1975 0
-4000 999 0
4001 -2279 587 1914 -969 0
-4001 2279 0
-4001 -587 0
-4001 -1914 0
-4001 969 0
4002 -2281 767 1949 -985 0
-4002 2281 0
-4002 -767 0
-4002 -1949 0
-4002 985 0
4003 -2285 693 1862 -1043 0
-4003 2285 0
-4003 -693 0
-4003 -1862 0
-4003 1043 0
4004 -2283 639 1866 -1025 0
-4004 2283 0
-4004 -639 0
-4004 -1866 0
-4004 1025 0
4005 -2293 553 1905 -1013 0
-4005 2293 0
-4005 -553 0
-4005 -1905 0
-4005 1013 0
4006 -2295 743 1964 -1029 0
-4006 2295 0
-4006 -743 0
-4006 -1964 0
-4006 1029 0
4007 -2289 629 1945 -1015 0
-4007 2289 0
-4007 -629 0
-4007 -1945 0
-4007 1015 0
4008 -2297 543 1925 -1039 0
-4008 2297 0
-4008 -543 0
-4008 -1925 0
-4008 1039 0
4009 -2291 703 1938 -981 0
-4009 2291 0
-4009 -703 0
-4009 -1938 0
-4009 981 0
4010 -2299 907 1881 -1045 0
-4010 2299 0
-4010 -907 0
-4010 -1881 0
-4010 1045 0
4011 -2301 579 1870 -997 0
-4011 2301 0
-4011 -579 0
-4011 -1870 0
-4011 997 0
4012 -2225 685 1859 -993 0
-4012 2225 0
-4012 -685 0
-4012 -1859 0
-4012 993 0
4013 -2227 843 1855 -977 0
-4013 2227 0
-4013 -843 0
-4013 -1855 0
-4013 977 0
4014 -2229 781 1847 -975 0
-4014 2229 0
-4014 -781 0
-4014 -1847 0
-4014 975 0
4015 -2231 935 1895 -1003 0
-4015 2231 0
-4015 -935 0
-4015 -1895 0
-4015 1003 0
4016 -2233 521 1961 -1009 0
-4016 2233 0
-4016 -521 0
-4016 -1961 0
-4016 1009 0
4017 -2235 795 1935 -989 0
-4017 2235 0
-4017 -795 0
-4017 -1935 0
-4017 989 0
4018 -2237 877 1851 -1037 0
-4018 2237 0
-4018 -877 0
-4018 -1851 0
-4018 1037 0
4019 -2239 961 1931 -979 0
-4019 2239 0
-4019 -961 0
-4019 -1931 0
-4019 979 0
4020 -2241 897 1843 -1011 0
-4020 2241 0
-4020 -897 0
-4020 -1843 0
-4020 1011 0
4021 -2225 685 1859 -1073 0
-4021 2225 0
-4021 -685 0
-4021 -1859 0
-4021 1073 0
4022 -2283 639 1866 -1105 0
-4022 2283 0
-4022 -639 0
-4022 -1866 0
-4022 1105 0
4023 -2293 553 1905 -1093 0
-4023 2293 0
-4023 -553 0
-4023 -1905 0
-4023 1093 0
4024 -2285 693 1862 -1123 0
-4024 2285 0
-4024 -693 0
-4024 -1862 0
-4024 1123 0
4025 -2291 703 1938 -1061 0
-4025 2291 0
-4025 -703 0
-4025 -1938 0
-4025 1061 0
4026 -2239 961 1931 -1059 0
-4026 2239 0
-4026 -961 0
-4026 -1931 0
-4026 1059 0
4027 -2297 543 1925 -1119 0
-4027 2297 0
-4027 -543 0
-4027 -1925 0
-4027 1119 0
4028 -2253 885 1928 -1121 0
-4028 2253 0
-4028 -885 0
-4028 -1928 0
-4028 1121 0
4029 -2251 611 1891 -1071 0
-4029 2251 0
-4029 -611 0
-4029 -1891 0
-4029 1071 0
4030 -2299 907 1881 -1125 0
-4030 2299 0
-4030 -907 0
-4030 -1881 0
-4030 1125 0
4031 -2249 755 1967 -1115 0
-4031 2249 0
-4031 -755 0
-4031 -1967 0
-4031 1115 0
4032 -2227 843 1855 -1057 0
-4032 2227 0
-4032 -843 0
-4032 -1855 0
-4032 1057 0
4033 -2229 781 1847 -1055 0
-4033 2229 0
-4033 -781 0
-4033 -1847 0
-4033 1055 0
4034 -2231 935 1895 -1083 0
-4034 2231 0
-4034 -935 0
-4034 -1895 0
-4034 1083 0
4035 -2233 521 1961 -1089 0
-4035 2233 0
-4035 -521 0
-4035 -1961 0
-4035 1089 0
4036 -2235 795 1935 -1069 0
-4036 2235 0
-4036 -795 0
-4036 -1935 0
-4036 1069 0
4037 -2241 897 1843 -1091 0
-4037 2241 0
-4037 -897 0
-4037 -1843 0
-4037 1091 0
4038 -2261 947 1911 -1087 0
-4038 2261 0
-4038 -947 0
-4038 -1911 0
-4038 1087 0
4039 -2237 877 1851 -1117 0
-4039 2237 0
-4039 -877 0
-4039 -1851 0
-4039 1117 0
4040 -2271 659 1941 -1085 0
-4040 2271 0
-4040 -659 0
-4040 -1941 0
-4040 1085 0
1390 -1389 0
-1390 1389 0
4041 -2245 831 1918 -1101 0
-4041 2245 0
-4041 -831 0
-4041 -1918 0
-4041 1101 0
4042 -2269 923 1957 -1097 0
-4042 2269 0
-4042 -923 0
-4042 -1957 0
-4042 1097 0
4043 -2247 651 1885 -1111 0
-4043 2247 0
-4043 -651 0
-4043 -1885 0
-4043 1111 0
4044 -2243 729 1971 -1107 0
-4044 2243 0
-4044 -729 0
-4044 -1971 0
-4044 1107 0
4045 -2267 719 1878 -1103 0
-4045 2267 0
-4045 -719 0
-4045 -1878 0
-4045 1103 0
4046 -2275 533 1908 -1075 0
-4046 2275 0
-4046 -533 0
-4046 -1908 0
-4046 1075 0
4047 -2255 509 1874 -1113 0
-4047 2255 0
-4047 -509 0
-4047 -1874 0
-4047 1113 0
4048 -2257 819 1902 -1081 0
-4048 2257 0
-4048 -819 0
-4048 -1902 0
-4048 1081 0
4049 -2277 569 1975 -1079 0
-4049 2277 0
-4049 -569 0
-4049 -1975 0
-4049 1079 0
4050 -2281 767 1949 -1065 0
-4050 2281 0
-4050 -767 0
-4050 -1949 0
-4050 1065 0
4051 -2279 587 1914 -1049 0
-4051 2279 0
-4051 -587 0
-4051 -1914 0
-4051 1049 0
4052 -2259 863 1953 -1067 0
-4052 2259 0
-4052 -863 0
-4052 -1953 0
-4052 1067 0
4053 -2263 851 1898 -1051 0
-4053 2263 0
-4053 -851 0
-4053 -1898 0
-4053 1051 0
4054 -2287 601 1979 -1053 0
-4054 2287 0
-4054 -601 0
-4054 -1979 0
-4054 1053 0
4055 -2265 675 1922 -1063 0
-4055 2265 0
-4055 -675 0
-4055 -1922 0
-4055 1063 0
4056 -2295 743 1964 -1109 0
-4056 2295 0
-4056 -743 0
-4056 -1964 0
-4056 1109 0
4057 -2289 629 1945 -1095 0
-4057 2289 0
-4057 -629 0
-4057 -1945 0
-4057 1095 0
4058 -2273 805 1888 -1099 0
-4058 2273 0
-4058 -805 0
-4058 -1888 0
-4058 1099 0
4059 -2301 579 1870 -1077 0
-4059 2301 0
-4059 -579 0
-4059 -1870 0
-4059 1077 0
4060 -2287 601 1979 -1133 0
-4060 2287 0
-4060 -601 0
-4060 -1979 0
-4060 1133 0
4061 -2293 553 1905 -1173 0
-4061 2293 0
-4061 -553 0
-4061 -1905 0
-4061 1173 0
4062 -2295 743 1964 -1189 0
-4062 2295 0
-4062 -743 0
-4062 -1964 0
-4062 1189 0
4063 -2289 629 1945 -1175 0
-4063 2289 0
-4063 -629 0
-4063 -1945 0
-4063 1175 0
4064 -2297 543 1925 -1199 0
-4064 2297 0
-4064 -543 0
-4064 -1925 0
-4064 1199 0
4065 -2291 703 1938 -1141 0
-4065 2291 0
-4065 -703 0
-4065 -1938 0
-4065 1141 0
4066 -2299 907 1881 -1205 0
-4066 2299 0
-4066 -907 0
-4066 -1881 0
-4066 1205 0
4067 -2301 579 1870 -1157 0
-4067 2301 0
-4067 -579 0
-4067 -1870 0
-4067 1157 0
4068 -2225 685 1859 -1153 0
-4068 2225 0
-4068 -685 0
-4068 -1859 0
-4068 1153 0
4069 -2227 843 1855 -1137 0
-4069 2227 0
-4069 -843 0
-4069 -1855 0
-4069 1137 0
4070 -2229 781 1847 -1135 0
-4070 2229 0
-4070 -781 0
-4070 -1847 0
-4070 1135 0
4071 -2237 877 1851 -1197 0
-4071 2237 0
-4071 -877 0
-4071 -1851 0
-4071 1197 0
4072 -2233 521 1961 -1169 0
-4072 2233 0
-4072 -521 0
-4072 -1961 0
-4072 1169 0
4073 -2235 795 1935 -1149 0
-4073 2235 0
-4073 -795 0
-4073 -1935 0
-4073 1149 0
4074 -2241 897 1843 -1171 0
-4074 2241 0
-4074 -897 0
-4074 -1843 0
-4074 1171 0
4075 -2239 961 1931 -1139 0
-4075 2239 0
-4075 -961 0
-4075 -1931 0
-4075 1139 0
4076 -2247 651 1885 -1191 0
-4076 2247 0
-4076 -651 0
-4076 -1885 0
-4076 1191 0
4077 -2253 885 1928 -1201 0
-4077 2253 0
-4077 -885 0
-4077 -1928 0
-4077 1201 0
4078 -2245 831 1918 -1181 0
-4078 2245 0
-4078 -831 0
-4078 -1918 0
-4078 1181 0
4079 -2243 729 1971 -1187 0
-4079 2243 0
-4079 -729 0
-4079 -1971 0
-4079 1187 0
4080 -2251 611 1891 -1151 0
-4080 2251 0
-4080 -611 0
-4080 -1891 0
-4080 1151 0
4081 -2249 755 1967 -1195 0
-4081 2249 0
-4081 -755 0
-4081 -1967 0
-4081 1195 0
4082 -2255 509 1874 -1193 0
-4082 2255 0
-4082 -509 0
-4082 -1874 0
-4082 1193 0
4083 -2257 819 1902 -1161 0
-4083 2257 0
-4083 -819 0
-4083 -1902 0
-4083 1161 0
4084 -2259 863 1953 -1147 0
-4084 2259 0
-4084 -863 0
-4084 -1953 0
-4084 1147 0
4085 -2231 935 1895 -1163 0
-4085 2231 0
-4085 -935 0
-4085 -1895 0
-4085 1163 0
4086 -2261 947 1911 -1167 0
-4086 2261 0
-4086 -947 0
-4086 -1911 0
-4086 1167 0
4087 -2265 675 1922 -1143 0
-4087 2265 0
-4087 -675 0
-4087 -1922 0
-4087 1143 0
4088 -2263 851 1898 -1131 0
-4088 2263 0
-4088 -851 0
-4088 -1898 0
-4088 1131 0
4089 -2271 659 1941 -1165 0
-4089 2271 0
-4089 -659 0
-4089 -1941 0
-4089 1165 0
4090 -2275 533 1908 -1155 0
-4090 2275 0
-4090 -533 0
-4090 -1908 0
-4090 1155 0
4091 -2269 923 1957 -1177 0
-4091 2269 0
-4091 -923 0
-4091 -1957 0
-4091 1177 0
4092 -2267 719 1878 -1183 0
-4092 2267 0
-4092 -719 0
-4092 -1878 0
-4092 1183 0
4093 -2273 805 1888 -1179 0
-4093 2273 0
-4093 -805 0
-4093 -1888 0
-4093 1179 0
1392 -1391 0
-1392 1391 0
4094 -2277 569 1975 -1159 0
-4094 2277 0
-4094 -569 0
-4094 -1975 0
-4094 1159 0
4095 -2279 587 1914 -1129 0
-4095 2279 0
-4095 -587 0
-4095 -1914 0
-4095 1129 0
4096 -2281 767 1949 -1145 0
-4096 2281 0
-4096 -767 0
-4096 -1949 0
-4096 1145 0
4097 -2283 639 1866 -1185 0
-4097 2283 0
-4097 -639 0
-4097 -1866 0
-4097 1185 0
4098 -2285 693 1862 -1203 0
-4098 2285 0
-4098 -693 0
-4098 -1862 0
-4098 1203 0
4099 -2287 601 1979 -1213 0
-4099 2287 0
-4099 -601 0
-4099 -1979 0
-4099 1213 0
4100 -2295 743 1964 -1269 0
-4100 2295 0
-4100 -743 0
-4100 -1964 0
-4100 1269 0
4101 -2269 923 1957 -1257 0
-4101 2269 0
-4101 -923 0
-4101 -1957 0
-4101 1257 0
4102 -2289 629 1945 -1255 0
-4102 2289 0
-4102 -629 0
-4102 -1945 0
-4102 1255 0
4103 -2301 579 1870 -1237 0
-4103 2301 0
-4103 -579 0
-4103 -1870 0
-4103 1237 0
4104 -2225 685 1859 -1233 0
-4104 2225 0
-4104 -685 0
-4104 -1859 0
-4104 1233 0
1394 -1393 0
-1394 1393 0
4105 -2283 639 1866 -1265 0
-4105 2283 0
-4105 -639 0
-4105 -1866 0
-4105 1265 0
4106 -2285 693 1862 -1283 0
-4106 2285 0
-4106 -693 0
-4106 -1862 0
-4106 1283 0
4107 -2293 553 1905 -1253 0
-4107 2293 0
-4107 -553 0
-4107 -1905 0
-4107 1253 0
4108 -2291 703 1938 -1221 0
-4108 2291 0
-4108 -703 0
-4108 -1938 0
-4108 1221 0
4109 -2297 543 1925 -1279 0
-4109 2297 0
-4109 -543 0
-4109 -1925 0
-4109 1279 0
4110 -2253 885 1928 -1281 0
-4110 2253 0
-4110 -885 0
-4110 -1928 0
-4110 1281 0
4111 -2299 907 1881 -1285 0
-4111 2299 0
-4111 -907 0
-4111 -1881 0
-4111 1285 0
4112 -2249 755 1967 -1275 0
-4112 2249 0
-4112 -755 0
-4112 -1967 0
-4112 1275 0
4113 -2227 843 1855 -1217 0
-4113 2227 0
-4113 -843 0
-4113 -1855 0
-4113 1217 0
4114 -2229 781 1847 -1215 0
-4114 2229 0
-4114 -781 0
-4114 -1847 0
-4114 1215 0
4115 -2231 935 1895 -1243 0
-4115 2231 0
-4115 -935 0
-4115 -1895 0
-4115 1243 0
4116 -2235 795 1935 -1229 0
-4116 2235 0
-4116 -795 0
-4116 -1935 0
-4116 1229 0
4117 -2237 877 1851 -1277 0
-4117 2237 0
-4117 -877 0
-4117 -1851 0
-4117 1277 0
4118 -2261 947 1911 -1247 0
-4118 2261 0
-4118 -947 0
-4118 -1911 0
-4118 1247 0
4119 -2233 521 1961 -1249 0
-4119 2233 0
-4119 -521 0
-4119 -1961 0
-4119 1249 0
4120 -2239 961 1931 -1219 0
-4120 2239 0
-4120 -961 0
-4120 -1931 0
-4120 1219 0
4121 -2241 897 1843 -1251 0
-4121 2241 0
-4121 -897 0
-4121 -1843 0
-4121 1251 0
4122 -2267 719 1878 -1263 0
-4122 2267 0
-4122 -719 0
-4122 -1878 0
-4122 1263 0
4123 -2247 651 1885 -1271 0
-4123 2247 0
-4123 -651 0
-4123 -1885 0
-4123 1271 0
4124 -2271 659 1941 -1245 0
-4124 2271 0
-4124 -659 0
-4124 -1941 0
-4124 1245 0
4125 -2275 533 1908 -1235 0
-4125 2275 0
-4125 -533 0
-4125 -1908 0
-4125 1235 0
4126 -2251 611 1891 -1231 0
-4126 2251 0
-4126 -611 0
-4126 -1891 0
-4126 1231 0
4127 -2243 729 1971 -1267 0
-4127 2243 0
-4127 -729 0
-4127 -1971 0
-4127 1267 0
4128 -2245 831 1918 -1261 0
-4128 2245 0
-4128 -831 0
-4128 -1918 0
-4128 1261 0
4129 -2255 509 1874 -1273 0
-4129 2255 0
-4129 -509 0
-4129 -1874 0
-4129 1273 0
4130 -2257 819 1902 -1241 0
-4130 2257 0
-4130 -819 0
-4130 -1902 0
-4130 1241 0
4131 -2277 569 1975 -1239 0
-4131 2277 0
-4131 -569 0
-4131 -1975 0
-4131 1239 0
4132 -2279 587 1914 -1209 0
-4132 2279 0
-4132 -587 0
-4132 -1914 0
-4132 1209 0
4133 -2281 767 1949 -1225 0
-4133 2281 0
-4133 -767 0
-4133 -1949 0
-4133 1225 0
4134 -2259 863 1953 -1227 0
-4134 2259 0
-4134 -863 0
-4134 -1953 0
-4134 1227 0
4135 -2263 851 1898 -1211 0
-4135 2263 0
-4135 -851 0
-4135 -1898 0
-4135 1211 0
4136 -2265 675 1922 -1223 0
-4136 2265 0
-4136 -675 0
-4136 -1922 0
-4136 1223 0
4137 -2273 805 1888 -1259 0
-4137 2273 0
-4137 -805 0
-4137 -1888 0
-4137 1259 0
4138 -1974 1975 -1403 0
-4138 1974 0
-4138 -1975 0
-4138 1403 0
4139 -1869 1870 -1401 0
-4139 1869 0
-4139 -1870 0
-4139 1401 0
4140 -2853 559 1905 -1407 0
-4140 2853 0
-4140 -559 0
-4140 -1905 0
-4140 1407 0
4141 -2459 157 2350 -3 0
-4141 2459 0
-4141 -157 0
-4141 -2350 0
-4141 3 0
4142 -2645 327 2363 -11 0
-4142 2645 0
-4142 -327 0
-4142 -2363 0
-4142 11 0
4143 -2803 487 2360 -19 0
-4143 2803 0
-4143 -487 0
-4143 -2360 0
-4143 19 0
4144 -2566 247 2353 -7 0
-4144 2566 0
-4144 -247 0
-4144 -2353 0
-4144 7 0
1352 -1351 0
-1352 1351 0
4145 -2724 407 2348 -15 0
-4145 2724 0
-4145 -407 0
-4145 -2348 0
-4145 15 0
4146 -2837 535 1908 -1399 0
-4146 2837 0
-4146 -535 0
-4146 -1908 0
-4146 1399 0
4147 -2303 17 3128 0
-4147 2303 0
-4147 -17 0
-4147 -3128 0
4148 -2501 2499 2353 -7 0
-4148 2501 0
-4148 -2499 0
-4148 -2353 0
-4148 7 0
4149 -2659 2657 2348 -15 0
-4149 2659 0
-4149 -2657 0
-4149 -2348 0
-4149 15 0
4150 -2578 2580 2363 -11 0
-4150 2578 0
-4150 -2580 0
-4150 -2363 0
-4150 11 0
4151 -2738 2736 2360 -19 0
-4151 2738 0
-4151 -2736 0
-4151 -2360 0
-4151 19 0
1314 -1313 0
-1314 1313 0
4152 -2313 2311 2350 -3 0
-4152 2313 0
-4152 -2311 0
-4152 -2350 0
-4152 3 0
1358 -1357 0
-1358 1357 0
4153 -2582 263 2363 -11 0
-4153 2582 0
-4153 -263 0
-4153 -2363 0
-4153 11 0
4154 -2740 423 2360 -19 0
-4154 2740 0
-4154 -423 0
-4154 -2360 0
-4154 19 0
4155 -2661 343 2348 -15 0
-4155 2661 0
-4155 -343 0
-4155 -2348 0
-4155 15 0
4156 -2317 29 2350 -3 0
-4156 2317 0
-4156 -29 0
-4156 -2350 0
-4156 3 0
4157 -2503 183 2353 -7 0
-4157 2503 0
-4157 -183 0
-4157 -2353 0
-4157 7 0
4158 -2532 213 2353 -1365 0
-4158 2532 0
-4158 -213 0
-4158 -2353 0
-4158 1365 0
4159 -2392 89 2350 -967 0
-4159 2392 0
-4159 -89 0
-4159 -2350 0
-4159 967 0
972 -971 0
-972 971 0
4160 -2690 373 2348 -1381 0
-4160 2690 0
-4160 -373 0
-4160 -2348 0
-4160 1381 0
4161 -2611 293 2363 -1373 0
-4161 2611 0
-4161 -293 0
-4161 -2363 0
-4161 1373 0
4162 -2769 453 2360 -1389 0
-4162 2769 0
-4162 -453 0
-4162 -2360 0
-4162 1389 0
4163 -2785 469 2360 -1389 0
-4163 2785 0
-4163 -469 0
-4163 -2360 0
-4163 1389 0
978 -977 0
-978 977 0
4164 -2706 389 2348 -1381 0
-4164 2706 0
-4164 -389 0
-4164 -2348 0
-4164 1381 0
4165 -2548 229 2353 -1365 0
-4165 2548 0
-4165 -229 0
-4165 -2353 0
-4165 1365 0
4166 -2627 309 2363 -1373 0
-4166 2627 0
-4166 -309 0
-4166 -2363 0
-4166 1373 0
4167 -2423 121 2350 -967 0
-4167 2423 0
-4167 -121 0
-4167 -2350 0
-4167 967 0
4168 -2793 477 2360 -1389 0
-4168 2793 0
-4168 -477 0
-4168 -2360 0
-4168 1389 0
4169 -2714 397 2348 -1381 0
-4169 2714 0
-4169 -397 0
-4169 -2348 0
-4169 1381 0
4170 -2439 137 2350 -967 0
-4170 2439 0
-4170 -137 0
-4170 -2350 0
-4170 967 0
4171 -2635 317 2363 -1373 0
-4171 2635 0
-4171 -317 0
-4171 -2363 0
-4171 1373 0
4172 -2556 237 2353 -1365 0
-4172 2556 0
-4172 -237 0
-4172 -2353 0
-4172 1365 0
980 -979 0
-980 979 0
4173 -2759 443 2360 -1389 0
-4173 2759 0
-4173 -443 0
-4173 -2360 0
-4173 1389 0
4174 -2601 283 2363 -1373 0
-4174 2601 0
-4174 -283 0
-4174 -2363 0
-4174 1373 0
4175 -2373 69 2350 -967 0
-4175 2373 0
-4175 -69 0
-4175 -2350 0
-4175 967 0
4176 -2680 363 2348 -1381 0
-4176 2680 0
-4176 -363 0
-4176 -2348 0
-4176 1381 0
4177 -2522 203 2353 -1365 0
-4177 2522 0
-4177 -203 0
-4177 -2353 0
-4177 1365 0
984 -983 0
-984 983 0
4178 -2791 475 2360 -1389 0
-4178 2791 0
-4178 -475 0
-4178 -2360 0
-4178 1389 0
4179 -2633 315 2363 -1373 0
-4179 2633 0
-4179 -315 0
-4179 -2363 0
-4179 1373 0
4180 -2435 133 2350 -967 0
-4180 2435 0
-4180 -133 0
-4180 -2350 0
-4180 967 0
4181 -2712 395 2348 -1381 0
-4181 2712 0
-4181 -395 0
-4181 -2348 0
-4181 1381 0
994 -993 0
-994 993 0
4182 -2554 235 2353 -1365 0
-4182 2554 0
-4182 -235 0
-4182 -2353 0
-4182 1365 0
4183 -2313 2311 2350 -967 0
-4183 2313 0
-4183 -2311 0
-4183 -2350 0
-4183 967 0
4184 -2501 2499 2353 -1365 0
-4184 2501 0
-4184 -2499 0
-4184 -2353 0
-4184 1365 0
996 -995 0
-996 995 0
4185 -2659 2657 2348 -1381 0
-4185 2659 0
-4185 -2657 0
-4185 -2348 0
-4185 1381 0
4186 -2578 2580 2363 -1373 0
-4186 2578 0
-4186 -2580 0
-4186 -2363 0
-4186 1373 0
4187 -2738 2736 2360 -1389 0
-4187 2738 0
-4187 -2736 0
-4187 -2360 0
-4187 1389 0
4188 -2617 299 2363 -1373 0
-4188 2617 0
-4188 -299 0
-4188 -2363 0
-4188 1373 0
4189 -2696 379 2348 -1381 0
-4189 2696 0
-4189 -379 0
-4189 -2348 0
-4189 1381 0
998 -997 0
-998 997 0
4190 -2538 219 2353 -1365 0
-4190 2538 0
-4190 -219 0
-4190 -2353 0
-4190 1365 0
4191 -2404 101 2350 -967 0
-4191 2404 0
-4191 -101 0
-4191 -2350 0
-4191 967 0
4192 -2775 459 2360 -1389 0
-4192 2775 0
-4192 -459 0
-4192 -2360 0
-4192 1389 0
4193 -2594 275 2363 -1373 0
-4193 2594 0
-4193 -275 0
-4193 -2363 0
-4193 1373 0
4194 -2752 435 2360 -1389 0
-4194 2752 0
-4194 -435 0
-4194 -2360 0
-4194 1389 0
4195 -2673 355 2348 -1381 0
-4195 2673 0
-4195 -355 0
-4195 -2348 0
-4195 1381 0
4196 -2515 195 2353 -1365 0
-4196 2515 0
-4196 -195 0
-4196 -2353 0
-4196 1365 0
1000 -999 0
-1000 999 0
4197 -2341 53 2350 -967 0
-4197 2341 0
-4197 -53 0
-4197 -2350 0
-4197 967 0
4198 -2750 433 2360 -19 0
-4198 2750 0
-4198 -433 0
-4198 -2360 0
-4198 19 0
4199 -2337 49 2350 -3 0
-4199 2337 0
-4199 -49 0
-4199 -2350 0
-4199 3 0
1362 -1361 0
-1362 1361 0
4200 -2671 353 2348 -15 0
-4200 2671 0
-4200 -353 0
-4200 -2348 0
-4200 15 0
4201 -2513 193 2353 -7 0
-4201 2513 0
-4201 -193 0
-4201 -2353 0
-4201 7 0
4202 -2592 273 2363 -11 0
-4202 2592 0
-4202 -273 0
-4202 -2363 0
-4202 11 0
1318 -1317 0
-1318 1317 0
4203 -2515 195 2353 -7 0
-4203 2515 0
-4203 -195 0
-4203 -2353 0
-4203 7 0
4204 -2752 435 2360 -19 0
-4204 2752 0
-4204 -435 0
-4204 -2360 0
-4204 19 0
4205 -2673 355 2348 -15 0
-4205 2673 0
-4205 -355 0
-4205 -2348 0
-4205 15 0
4206 -2594 275 2363 -11 0
-4206 2594 0
-4206 -275 0
-4206 -2363 0
-4206 11 0
4207 -2341 53 2350 -3 0
-4207 2341 0
-4207 -53 0
-4207 -2350 0
-4207 3 0
1006 -1005 0
-1006 1005 0
4208 -2590 271 2363 -1373 0
-4208 2590 0
-4208 -271 0
-4208 -2363 0
-4208 1373 0
4209 -2511 191 2353 -1365 0
-4209 2511 0
-4209 -191 0
-4209 -2353 0
-4209 1365 0
4210 -1858 1859 -1443 0
-4210 1858 0
-4210 -1859 0
-4210 1443 0
4211 -2333 45 2350 -967 0
-4211 2333 0
-4211 -45 0
-4211 -2350 0
-4211 967 0
4212 -2669 351 2348 -1381 0
-4212 2669 0
-4212 -351 0
-4212 -2348 0
-4212 1381 0
4213 -1921 1922 -1441 0
-4213 1921 0
-4213 -1922 0
-4213 1441 0
4214 -2748 431 2360 -1389 0
-4214 2748 0
-4214 -431 0
-4214 -2360 0
-4214 1389 0
4215 -2783 467 2360 -1389 0
-4215 2783 0
-4215 -467 0
-4215 -2360 0
-4215 1389 0
4216 -2419 117 2350 -967 0
-4216 2419 0
-4216 -117 0
-4216 -2350 0
-4216 967 0
4217 -2546 227 2353 -1365 0
-4217 2546 0
-4217 -227 0
-4217 -2353 0
-4217 1365 0
4218 -2704 387 2348 -1381 0
-4218 2704 0
-4218 -387 0
-4218 -2348 0
-4218 1381 0
4219 -2625 307 2363 -1373 0
-4219 2625 0
-4219 -307 0
-4219 -2363 0
-4219 1373 0
1012 -1011 0
-1012 1011 0
4220 -2584 265 2363 -1373 0
-4220 2584 0
-4220 -265 0
-4220 -2363 0
-4220 1373 0
1014 -1013 0
-1014 1013 0
4221 -1974 1975 -1449 0
-4221 1974 0
-4221 -1975 0
-4221 1449 0
4222 -1869 1870 -1447 0
-4222 1869 0
-4222 -1870 0
-4222 1447 0
4223 -2663 345 2348 -1381 0
-4223 2663 0
-4223 -345 0
-4223 -2348 0
-4223 1381 0
4224 -2505 185 2353 -1365 0
-4224 2505 0
-4224 -185 0
-4224 -2353 0
-4224 1365 0
4225 -2742 425 2360 -1389 0
-4225 2742 0
-4225 -425 0
-4225 -2360 0
-4225 1389 0
4226 -2321 33 2350 -967 0
-4226 2321 0
-4226 -33 0
-4226 -2350 0
-4226 967 0
4227 -2795 479 2360 -1389 0
-4227 2795 0
-4227 -479 0
-4227 -2360 0
-4227 1389 0
4228 -2716 399 2348 -1381 0
-4228 2716 0
-4228 -399 0
-4228 -2348 0
-4228 1381 0
4229 -2558 239 2353 -1365 0
-4229 2558 0
-4229 -239 0
-4229 -2353 0
-4229 1365 0
4230 -2443 141 2350 -967 0
-4230 2443 0
-4230 -141 0
-4230 -2350 0
-4230 967 0
1016 -1015 0
-1016 1015 0
4231 -2637 319 2363 -1373 0
-4231 2637 0
-4231 -319 0
-4231 -2363 0
-4231 1373 0
4232 -2676 359 2348 -15 0
-4232 2676 0
-4232 -359 0
-4232 -2348 0
-4232 15 0
1348 -1347 0
-1348 1347 0
4233 -2755 439 2360 -19 0
-4233 2755 0
-4233 -439 0
-4233 -2360 0
-4233 19 0
4234 -2597 279 2363 -11 0
-4234 2597 0
-4234 -279 0
-4234 -2363 0
-4234 11 0
4235 -2518 199 2353 -7 0
-4235 2518 0
-4235 -199 0
-4235 -2353 0
-4235 7 0
4236 -2837 535 1908 -1429 0
-4236 2837 0
-4236 -535 0
-4236 -1908 0
-4236 1429 0
4237 -2365 61 2350 -3 0
-4237 2365 0
-4237 -61 0
-4237 -2350 0
-4237 3 0
4238 -2853 559 1905 -1459 0
-4238 2853 0
-4238 -559 0
-4238 -1905 0
-4238 1459 0
4239 -2808 493 2360 -1389 0
-4239 2808 0
-4239 -493 0
-4239 -2360 0
-4239 1389 0
4240 -2478 167 2350 -967 0
-4240 2478 0
-4240 -167 0
-4240 -2350 0
-4240 967 0
4241 -2729 413 2348 -1381 0
-4241 2729 0
-4241 -413 0
-4241 -2348 0
-4241 1381 0
1018 -1017 0
-1018 1017 0
4242 -2650 333 2363 -1373 0
-4242 2650 0
-4242 -333 0
-4242 -2363 0
-4242 1373 0
4243 -2571 253 2353 -1365 0
-4243 2571 0
-4243 -253 0
-4243 -2353 0
-4243 1365 0
4244 -2520 201 2353 -7 0
-4244 2520 0
-4244 -201 0
-4244 -2353 0
-4244 7 0
4245 -2599 281 2363 -11 0
-4245 2599 0
-4245 -281 0
-4245 -2363 0
-4245 11 0
4246 -2757 441 2360 -19 0
-4246 2757 0
-4246 -441 0
-4246 -2360 0
-4246 19 0
4247 -2678 361 2348 -15 0
-4247 2678 0
-4247 -361 0
-4247 -2348 0
-4247 15 0
4248 -2369 65 2350 -3 0
-4248 2369 0
-4248 -65 0
-4248 -2350 0
-4248 3 0
1354 -1353 0
-1354 1353 0
4249 -2720 403 2348 -1381 0
-4249 2720 0
-4249 -403 0
-4249 -2348 0
-4249 1381 0
4250 -2799 483 2360 -1389 0
-4250 2799 0
-4250 -483 0
-4250 -2360 0
-4250 1389 0
4251 -2641 323 2363 -1373 0
-4251 2641 0
-4251 -323 0
-4251 -2363 0
-4251 1373 0
1024 -1023 0
-1024 1023 0
4252 -2451 149 2350 -967 0
-4252 2451 0
-4252 -149 0
-4252 -2350 0
-4252 967 0
4253 -2562 243 2353 -1365 0
-4253 2562 0
-4253 -243 0
-4253 -2353 0
-4253 1365 0
4254 -2648 331 2363 -1373 0
-4254 2648 0
-4254 -331 0
-4254 -2363 0
-4254 1373 0
4255 -2569 251 2353 -1365 0
-4255 2569 0
-4255 -251 0
-4255 -2353 0
-4255 1365 0
1026 -1025 0
-1026 1025 0
4256 -2806 491 2360 -1389 0
-4256 2806 0
-4256 -491 0
-4256 -2360 0
-4256 1389 0
4257 -2474 163 2350 -967 0
-4257 2474 0
-4257 -163 0
-4257 -2350 0
-4257 967 0
4258 -2727 411 2348 -1381 0
-4258 2727 0
-4258 -411 0
-4258 -2348 0
-4258 1381 0
4259 -3033 853 1898 -1435 0
-4259 3033 0
-4259 -853 0
-4259 -1898 0
-4259 1435 0
4260 -2680 363 2348 -15 0
-4260 2680 0
-4260 -363 0
-4260 -2348 0
-4260 15 0
1302 -1301 0
-1302 1301 0
4261 -2759 443 2360 -19 0
-4261 2759 0
-4261 -443 0
-4261 -2360 0
-4261 19 0
4262 -2373 69 2350 -3 0
-4262 2373 0
-4262 -69 0
-4262 -2350 0
-4262 3 0
4263 -2601 283 2363 -11 0
-4263 2601 0
-4263 -283 0
-4263 -2363 0
-4263 11 0
4264 -2522 203 2353 -7 0
-4264 2522 0
-4264 -203 0
-4264 -2353 0
-4264 7 0
1030 -1029 0
-1030 1029 0
4265 -2755 439 2360 -1389 0
-4265 2755 0
-4265 -439 0
-4265 -2360 0
-4265 1389 0
4266 -2676 359 2348 -1381 0
-4266 2676 0
-4266 -359 0
-4266 -2348 0
-4266 1381 0
4267 -2837 535 1908 -1445 0
-4267 2837 0
-4267 -535 0
-4267 -1908 0
-4267 1445 0
4268 -2518 199 2353 -1365 0
-4268 2518 0
-4268 -199 0
-4268 -2353 0
-4268 1365 0
4269 -2597 279 2363 -1373 0
-4269 2597 0
-4269 -279 0
-4269 -2363 0
-4269 1373 0
4270 -2365 61 2350 -967 0
-4270 2365 0
-4270 -61 0
-4270 -2350 0
-4270 967 0
4271 -2484 175 2350 -967 0
-4271 2484 0
-4271 -175 0
-4271 -2350 0
-4271 967 0
4272 -2654 337 2363 -1373 0
-4272 2654 0
-4272 -337 0
-4272 -2363 0
-4272 1373 0
4273 -2812 497 2360 -1389 0
-4273 2812 0
-4273 -497 0
-4273 -2360 0
-4273 1389 0
4274 -2733 417 2348 -1381 0
-4274 2733 0
-4274 -417 0
-4274 -2348 0
-4274 1381 0
4275 -2575 257 2353 -1365 0
-4275 2575 0
-4275 -257 0
-4275 -2353 0
-4275 1365 0
1032 -1031 0
-1032 1031 0
4276 -2566 247 2353 -1365 0
-4276 2566 0
-4276 -247 0
-4276 -2353 0
-4276 1365 0
4277 -2645 327 2363 -1373 0
-4277 2645 0
-4277 -327 0
-4277 -2363 0
-4277 1373 0
4278 -2724 407 2348 -1381 0
-4278 2724 0
-4278 -407 0
-4278 -2348 0
-4278 1381 0
4279 -2459 157 2350 -967 0
-4279 2459 0
-4279 -157 0
-4279 -2350 0
-4279 967 0
4280 -2803 487 2360 -1389 0
-4280 2803 0
-4280 -487 0
-4280 -2360 0
-4280 1389 0
1034 -1033 0
-1034 1033 0
4281 -2757 441 2360 -1389 0
-4281 2757 0
-4281 -441 0
-4281 -2360 0
-4281 1389 0
1036 -1035 0
-1036 1035 0
4282 -2678 361 2348 -1381 0
-4282 2678 0
-4282 -361 0
-4282 -2348 0
-4282 1381 0
4283 -2599 281 2363 -1373 0
-4283 2599 0
-4283 -281 0
-4283 -2363 0
-4283 1373 0
4284 -2369 65 2350 -967 0
-4284 2369 0
-4284 -65 0
-4284 -2350 0
-4284 967 0
4285 -2520 201 2353 -1365 0
-4285 2520 0
-4285 -201 0
-4285 -2353 0
-4285 1365 0
4286 -2467 249 2353 -1365 0
-4286 2467 0
-4286 -249 0
-4286 -2353 0
-4286 1365 0
4287 -2472 329 2363 -1373 0
-4287 2472 0
-4287 -329 0
-4287 -2363 0
-4287 1373 0
4288 -2469 409 2348 -1381 0
-4288 2469 0
-4288 -409 0
-4288 -2348 0
-4288 1381 0
4289 -2461 161 2350 -967 0
-4289 2461 0
-4289 -161 0
-4289 -2350 0
-4289 967 0
4290 -2463 489 2360 -1389 0
-4290 2463 0
-4290 -489 0
-4290 -2360 0
-4290 1389 0
1038 -1037 0
-1038 1037 0
1040 -1039 0
-1040 1039 0
4291 -2503 183 2353 -1365 0
-4291 2503 0
-4291 -183 0
-4291 -2353 0
-4291 1365 0
4292 -2582 263 2363 -1373 0
-4292 2582 0
-4292 -263 0
-4292 -2363 0
-4292 1373 0
4293 -2661 343 2348 -1381 0
-4293 2661 0
-4293 -343 0
-4293 -2348 0
-4293 1381 0
4294 -2317 29 2350 -967 0
-4294 2317 0
-4294 -29 0
-4294 -2350 0
-4294 967 0
4295 -2740 423 2360 -1389 0
-4295 2740 0
-4295 -423 0
-4295 -2360 0
-4295 1389 0
4296 -2821 511 1874 -1415 0
-4296 2821 0
-4296 -511 0
-4296 -1874 0
-4296 1415 0
4297 -2605 287 2363 -11 0
-4297 2605 0
-4297 -287 0
-4297 -2363 0
-4297 11 0
4298 -2526 207 2353 -7 0
-4298 2526 0
-4298 -207 0
-4298 -2353 0
-4298 7 0
4299 -2763 447 2360 -19 0
-4299 2763 0
-4299 -447 0
-4299 -2360 0
-4299 19 0
4300 -2684 367 2348 -15 0
-4300 2684 0
-4300 -367 0
-4300 -2348 0
-4300 15 0
4301 -2381 77 2350 -3 0
-4301 2381 0
-4301 -77 0
-4301 -2350 0
-4301 3 0
1338 -1337 0
-1338 1337 0
1044 -1043 0
-1044 1043 0
4302 -2337 49 2350 -967 0
-4302 2337 0
-4302 -49 0
-4302 -2350 0
-4302 967 0
4303 -2671 353 2348 -1381 0
-4303 2671 0
-4303 -353 0
-4303 -2348 0
-4303 1381 0
4304 -2592 273 2363 -1373 0
-4304 2592 0
-4304 -273 0
-4304 -2363 0
-4304 1373 0
4305 -2513 193 2353 -1365 0
-4305 2513 0
-4305 -193 0
-4305 -2353 0
-4305 1365 0
4306 -2750 433 2360 -1389 0
-4306 2750 0
-4306 -433 0
-4306 -2360 0
-4306 1389 0
4307 -2392 89 2350 -1047 0
-4307 2392 0
-4307 -89 0
-4307 -2350 0
-4307 1047 0
1052 -1051 0
-1052 1051 0
4308 -2769 453 2360 -1391 0
-4308 2769 0
-4308 -453 0
-4308 -2360 0
-4308 1391 0
4309 -2690 373 2348 -1383 0
-4309 2690 0
-4309 -373 0
-4309 -2348 0
-4309 1383 0
4310 -2611 293 2363 -1375 0
-4310 2611 0
-4310 -293 0
-4310 -2363 0
-4310 1375 0
4311 -2532 213 2353 -1367 0
-4311 2532 0
-4311 -213 0
-4311 -2353 0
-4311 1367 0
4312 -2688 371 2348 -15 0
-4312 2688 0
-4312 -371 0
-4312 -2348 0
-4312 15 0
4313 -2530 211 2353 -7 0
-4313 2530 0
-4313 -211 0
-4313 -2353 0
-4313 7 0
4314 -2975 757 1967 -1467 0
-4314 2975 0
-4314 -757 0
-4314 -1967 0
-4314 1467 0
1292 -1291 0
-1292 1291 0
4315 -2388 85 2350 -3 0
-4315 2388 0
-4315 -85 0
-4315 -2350 0
-4315 3 0
4316 -2609 291 2363 -11 0
-4316 2609 0
-4316 -291 0
-4316 -2363 0
-4316 11 0
4317 -2767 451 2360 -19 0
-4317 2767 0
-4317 -451 0
-4317 -2360 0
-4317 19 0
1058 -1057 0
-1058 1057 0
4318 -2627 309 2363 -1375 0
-4318 2627 0
-4318 -309 0
-4318 -2363 0
-4318 1375 0
4319 -2785 469 2360 -1391 0
-4319 2785 0
-4319 -469 0
-4319 -2360 0
-4319 1391 0
4320 -2423 121 2350 -1047 0
-4320 2423 0
-4320 -121 0
-4320 -2350 0
-4320 1047 0
4321 -2706 389 2348 -1383 0
-4321 2706 0
-4321 -389 0
-4321 -2348 0
-4321 1383 0
4322 -2548 229 2353 -1367 0
-4322 2548 0
-4322 -229 0
-4322 -2353 0
-4322 1367 0
4323 -2793 477 2360 -1391 0
-4323 2793 0
-4323 -477 0
-4323 -2360 0
-4323 1391 0
4324 -2635 317 2363 -1375 0
-4324 2635 0
-4324 -317 0
-4324 -2363 0
-4324 1375 0
4325 -2556 237 2353 -1367 0
-4325 2556 0
-4325 -237 0
-4325 -2353 0
-4325 1367 0
4326 -2439 137 2350 -1047 0
-4326 2439 0
-4326 -137 0
-4326 -2350 0
-4326 1047 0
4327 -2714 397 2348 -1383 0
-4327 2714 0
-4327 -397 0
-4327 -2348 0
-4327 1383 0
1060 -1059 0
-1060 1059 0
4328 -2690 373 2348 -15 0
-4328 2690 0
-4328 -373 0
-4328 -2348 0
-4328 15 0
1290 -1289 0
-1290 1289 0
4329 -2769 453 2360 -19 0
-4329 2769 0
-4329 -453 0
-4329 -2360 0
-4329 19 0
4330 -2392 89 2350 -3 0
-4330 2392 0
-4330 -89 0
-4330 -2350 0
-4330 3 0
4331 -2532 213 2353 -7 0
-4331 2532 0
-4331 -213 0
-4331 -2353 0
-4331 7 0
4332 -2611 293 2363 -11 0
-4332 2611 0
-4332 -293 0
-4332 -2363 0
-4332 11 0
4333 -2373 69 2350 -1047 0
-4333 2373 0
-4333 -69 0
-4333 -2350 0
-4333 1047 0
4334 -2522 203 2353 -1367 0
-4334 2522 0
-4334 -203 0
-4334 -2353 0
-4334 1367 0
4335 -2759 443 2360 -1391 0
-4335 2759 0
-4335 -443 0
-4335 -2360 0
-4335 1391 0
4336 -2680 363 2348 -1383 0
-4336 2680 0
-4336 -363 0
-4336 -2348 0
-4336 1383 0
4337 -2601 283 2363 -1375 0
-4337 2601 0
-4337 -283 0
-4337 -2363 0
-4337 1375 0
1064 -1063 0
-1064 1063 0
4338 -2435 133 2350 -1047 0
-4338 2435 0
-4338 -133 0
-4338 -2350 0
-4338 1047 0
4339 -2554 235 2353 -1367 0
-4339 2554 0
-4339 -235 0
-4339 -2353 0
-4339 1367 0
4340 -2633 315 2363 -1375 0
-4340 2633 0
-4340 -315 0
-4340 -2363 0
-4340 1375 0
1074 -1073 0
-1074 1073 0
4341 -2791 475 2360 -1391 0
-4341 2791 0
-4341 -475 0
-4341 -2360 0
-4341 1391 0
4342 -2712 395 2348 -1383 0
-4342 2712 0
-4342 -395 0
-4342 -2348 0
-4342 1383 0
4343 -2313 2311 2350 -1047 0
-4343 2313 0
-4343 -2311 0
-4343 -2350 0
-4343 1047 0
4344 -2659 2657 2348 -1383 0
-4344 2659 0
-4344 -2657 0
-4344 -2348 0
-4344 1383 0
4345 -2501 2499 2353 -1367 0
-4345 2501 0
-4345 -2499 0
-4345 -2353 0
-4345 1367 0
4346 -2738 2736 2360 -1391 0
-4346 2738 0
-4346 -2736 0
-4346 -2360 0
-4346 1391 0
4347 -2578 2580 2363 -1375 0
-4347 2578 0
-4347 -2580 0
-4347 -2363 0
-4347 1375 0
1076 -1075 0
-1076 1075 0
1078 -1077 0
-1078 1077 0
4348 -2538 219 2353 -1367 0
-4348 2538 0
-4348 -219 0
-4348 -2353 0
-4348 1367 0
4349 -2775 459 2360 -1391 0
-4349 2775 0
-4349 -459 0
-4349 -2360 0
-4349 1391 0
4350 -2404 101 2350 -1047 0
-4350 2404 0
-4350 -101 0
-4350 -2350 0
-4350 1047 0
4351 -2696 379 2348 -1383 0
-4351 2696 0
-4351 -379 0
-4351 -2348 0
-4351 1383 0
4352 -2617 299 2363 -1375 0
-4352 2617 0
-4352 -299 0
-4352 -2363 0
-4352 1375 0
4353 -2594 275 2363 -1375 0
-4353 2594 0
-4353 -275 0
-4353 -2363 0
-4353 1375 0
4354 -2752 435 2360 -1391 0
-4354 2752 0
-4354 -435 0
-4354 -2360 0
-4354 1391 0
4355 -2341 53 2350 -1047 0
-4355 2341 0
-4355 -53 0
-4355 -2350 0
-4355 1047 0
1080 -1079 0
-1080 1079 0
4356 -2673 355 2348 -1383 0
-4356 2673 0
-4356 -355 0
-4356 -2348 0
-4356 1383 0
4357 -2515 195 2353 -1367 0
-4357 2515 0
-4357 -195 0
-4357 -2353 0
-4357 1367 0
4358 -2696 379 2348 -15 0
-4358 2696 0
-4358 -379 0
-4358 -2348 0
-4358 15 0
4359 -2775 459 2360 -19 0
-4359 2775 0
-4359 -459 0
-4359 -2360 0
-4359 19 0
4360 -2617 299 2363 -11 0
-4360 2617 0
-4360 -299 0
-4360 -2363 0
-4360 11 0
4361 -2538 219 2353 -7 0
-4361 2538 0
-4361 -219 0
-4361 -2353 0
-4361 7 0
1316 -1315 0
-1316 1315 0
4362 -2404 101 2350 -3 0
-4362 2404 0
-4362 -101 0
-4362 -2350 0
-4362 3 0
4363 -2408 105 2350 -3 0
-4363 2408 0
-4363 -105 0
-4363 -2350 0
-4363 3 0
4364 -2540 221 2353 -7 0
-4364 2540 0
-4364 -221 0
-4364 -2353 0
-4364 7 0
4365 -2619 301 2363 -11 0
-4365 2619 0
-4365 -301 0
-4365 -2363 0
-4365 11 0
4366 -2937 695 1862 -1451 0
-4366 2937 0
-4366 -695 0
-4366 -1862 0
-4366 1451 0
1340 -1339 0
-1340 1339 0
4367 -2777 461 2360 -19 0
-4367 2777 0
-4367 -461 0
-4367 -2360 0
-4367 19 0
4368 -2698 381 2348 -15 0
-4368 2698 0
-4368 -381 0
-4368 -2348 0
-4368 15 0
4369 -2748 431 2360 -1391 0
-4369 2748 0
-4369 -431 0
-4369 -2360 0
-4369 1391 0
4370 -2333 45 2350 -1047 0
-4370 2333 0
-4370 -45 0
-4370 -2350 0
-4370 1047 0
4371 -2590 271 2363 -1375 0
-4371 2590 0
-4371 -271 0
-4371 -2363 0
-4371 1375 0
4372 -2511 191 2353 -1367 0
-4372 2511 0
-4372 -191 0
-4372 -2353 0
-4372 1367 0
4373 -1858 1859 -1503 0
-4373 1858 0
-4373 -1859 0
-4373 1503 0
4374 -2669 351 2348 -1383 0
-4374 2669 0
-4374 -351 0
-4374 -2348 0
-4374 1383 0
4375 -1921 1922 -1501 0
-4375 1921 0
-4375 -1922 0
-4375 1501 0
1086 -1085 0
-1086 1085 0
4376 -3005 807 1888 -1487 0
-4376 3005 0
-4376 -807 0
-4376 -1888 0
-4376 1487 0
4377 -2542 223 2353 -7 0
-4377 2542 0
-4377 -223 0
-4377 -2353 0
-4377 7 0
4378 -2779 463 2360 -19 0
-4378 2779 0
-4378 -463 0
-4378 -2360 0
-4378 19 0
4379 -2412 109 2350 -3 0
-4379 2412 0
-4379 -109 0
-4379 -2350 0
-4379 3 0
1320 -1319 0
-1320 1319 0
4380 -2700 383 2348 -15 0
-4380 2700 0
-4380 -383 0
-4380 -2348 0
-4380 15 0
4381 -2621 303 2363 -11 0
-4381 2621 0
-4381 -303 0
-4381 -2363 0
-4381 11 0
4382 -2704 387 2348 -1383 0
-4382 2704 0
-4382 -387 0
-4382 -2348 0
-4382 1383 0
4383 -2419 117 2350 -1047 0
-4383 2419 0
-4383 -117 0
-4383 -2350 0
-4383 1047 0
4384 -2783 467 2360 -1391 0
-4384 2783 0
-4384 -467 0
-4384 -2360 0
-4384 1391 0
4385 -2546 227 2353 -1367 0
-4385 2546 0
-4385 -227 0
-4385 -2353 0
-4385 1367 0
1092 -1091 0
-1092 1091 0
4386 -2625 307 2363 -1375 0
-4386 2625 0
-4386 -307 0
-4386 -2363 0
-4386 1375 0
4387 -2584 265 2363 -1375 0
-4387 2584 0
-4387 -265 0
-4387 -2363 0
-4387 1375 0
1094 -1093 0
-1094 1093 0
4388 -2321 33 2350 -1047 0
-4388 2321 0
-4388 -33 0
-4388 -2350 0
-4388 1047 0
4389 -1869 1870 -1507 0
-4389 1869 0
-4389 -1870 0
-4389 1507 0
4390 -2663 345 2348 -1383 0
-4390 2663 0
-4390 -345 0
-4390 -2348 0
-4390 1383 0
4391 -2505 185 2353 -1367 0
-4391 2505 0
-4391 -185 0
-4391 -2353 0
-4391 1367 0
4392 -1974 1975 -1509 0
-4392 1974 0
-4392 -1975 0
-4392 1509 0
4393 -2742 425 2360 -1391 0
-4393 2742 0
-4393 -425 0
-4393 -2360 0
-4393 1391 0
4394 -2637 319 2363 -1375 0
-4394 2637 0
-4394 -319 0
-4394 -2363 0
-4394 1375 0
1096 -1095 0
-1096 1095 0
4395 -2443 141 2350 -1047 0
-4395 2443 0
-4395 -141 0
-4395 -2350 0
-4395 1047 0
4396 -2716 399 2348 -1383 0
-4396 2716 0
-4396 -399 0
-4396 -2348 0
-4396 1383 0
4397 -2558 239 2353 -1367 0
-4397 2558 0
-4397 -239 0
-4397 -2353 0
-4397 1367 0
4398 -2795 479 2360 -1391 0
-4398 2795 0
-4398 -479 0
-4398 -2360 0
-4398 1391 0
4399 -2729 413 2348 -1383 0
-4399 2729 0
-4399 -413 0
-4399 -2348 0
-4399 1383 0
4400 -2650 333 2363 -1375 0
-4400 2650 0
-4400 -333 0
-4400 -2363 0
-4400 1375 0
4401 -2853 559 1905 -1521 0
-4401 2853 0
-4401 -559 0
-4401 -1905 0
-4401 1521 0
4402 -2808 493 2360 -1391 0
-4402 2808 0
-4402 -493 0
-4402 -2360 0
-4402 1391 0
4403 -2571 253 2353 -1367 0
-4403 2571 0
-4403 -253 0
-4403 -2353 0
-4403 1367 0
4404 -2478 167 2350 -1047 0
-4404 2478 0
-4404 -167 0
-4404 -2350 0
-4404 1047 0
1098 -1097 0
-1098 1097 0
4405 -2546 227 2353 -7 0
-4405 2546 0
-4405 -227 0
-4405 -2353 0
-4405 7 0
4406 -2783 467 2360 -19 0
-4406 2783 0
-4406 -467 0
-4406 -2360 0
-4406 19 0
4407 -2419 117 2350 -3 0
-4407 2419 0
-4407 -117 0
-4407 -2350 0
-4407 3 0
4408 -2704 387 2348 -15 0
-4408 2704 0
-4408 -387 0
-4408 -2348 0
-4408 15 0
1330 -1329 0
-1330 1329 0
4409 -2625 307 2363 -11 0
-4409 2625 0
-4409 -307 0
-4409 -2363 0
-4409 11 0
1104 -1103 0
-1104 1103 0
4410 -2799 483 2360 -1391 0
-4410 2799 0
-4410 -483 0
-4410 -2360 0
-4410 1391 0
4411 -2720 403 2348 -1383 0
-4411 2720 0
-4411 -403 0
-4411 -2348 0
-4411 1383 0
4412 -2451 149 2350 -1047 0
-4412 2451 0
-4412 -149 0
-4412 -2350 0
-4412 1047 0
4413 -2641 323 2363 -1375 0
-4413 2641 0
-4413 -323 0
-4413 -2363 0
-4413 1375 0
4414 -2562 243 2353 -1367 0
-4414 2562 0
-4414 -243 0
-4414 -2353 0
-4414 1367 0
4415 -2627 309 2363 -11 0
-4415 2627 0
-4415 -309 0
-4415 -2363 0
-4415 11 0
4416 -2785 469 2360 -19 0
-4416 2785 0
-4416 -469 0
-4416 -2360 0
-4416 19 0
4417 -2548 229 2353 -7 0
-4417 2548 0
-4417 -229 0
-4417 -2353 0
-4417 7 0
4418 -2423 121 2350 -3 0
-4418 2423 0
-4418 -121 0
-4418 -2350 0
-4418 3 0
4419 -2706 389 2348 -15 0
-4419 2706 0
-4419 -389 0
-4419 -2348 0
-4419 15 0
1296 -1295 0
-1296 1295 0
4420 -2806 491 2360 -1391 0
-4420 2806 0
-4420 -491 0
-4420 -2360 0
-4420 1391 0
4421 -2727 411 2348 -1383 0
-4421 2727 0
-4421 -411 0
-4421 -2348 0
-4421 1383 0
4422 -3033 853 1898 -1491 0
-4422 3033 0
-4422 -853 0
-4422 -1898 0
-4422 1491 0
1106 -1105 0
-1106 1105 0
4423 -2648 331 2363 -1375 0
-4423 2648 0
-4423 -331 0
-4423 -2363 0
-4423 1375 0
4424 -2474 163 2350 -1047 0
-4424 2474 0
-4424 -163 0
-4424 -2350 0
-4424 1047 0
4425 -2569 251 2353 -1367 0
-4425 2569 0
-4425 -251 0
-4425 -2353 0
-4425 1367 0
4426 -2755 439 2360 -1391 0
-4426 2755 0
-4426 -439 0
-4426 -2360 0
-4426 1391 0
1110 -1109 0
-1110 1109 0
4427 -2676 359 2348 -1383 0
-4427 2676 0
-4427 -359 0
-4427 -2348 0
-4427 1383 0
4428 -2365 61 2350 -1047 0
-4428 2365 0
-4428 -61 0
-4428 -2350 0
-4428 1047 0
4429 -2837 535 1908 -1505 0
-4429 2837 0
-4429 -535 0
-4429 -1908 0
-4429 1505 0
4430 -2597 279 2363 -1375 0
-4430 2597 0
-4430 -279 0
-4430 -2363 0
-4430 1375 0
4431 -2518 199 2353 -1367 0
-4431 2518 0
-4431 -199 0
-4431 -2353 0
-4431 1367 0
4432 -2812 497 2360 -1391 0
-4432 2812 0
-4432 -497 0
-4432 -2360 0
-4432 1391 0
4433 -2733 417 2348 -1383 0
-4433 2733 0
-4433 -417 0
-4433 -2348 0
-4433 1383 0
4434 -2484 175 2350 -1047 0
-4434 2484 0
-4434 -175 0
-4434 -2350 0
-4434 1047 0
4435 -2654 337 2363 -1375 0
-4435 2654 0
-4435 -337 0
-4435 -2363 0
-4435 1375 0
4436 -2575 257 2353 -1367 0
-4436 2575 0
-4436 -257 0
-4436 -2353 0
-4436 1367 0
1112 -1111 0
-1112 1111 0
4437 -2566 247 2353 -1367 0
-4437 2566 0
-4437 -247 0
-4437 -2353 0
-4437 1367 0
4438 -2459 157 2350 -1047 0
-4438 2459 0
-4438 -157 0
-4438 -2350 0
-4438 1047 0
4439 -2645 327 2363 -1375 0
-4439 2645 0
-4439 -327 0
-4439 -2363 0
-4439 1375 0
1114 -1113 0
-1114 1113 0
4440 -2803 487 2360 -1391 0
-4440 2803 0
-4440 -487 0
-4440 -2360 0
-4440 1391 0
4441 -2724 407 2348 -1383 0
-4441 2724 0
-4441 -407 0
-4441 -2348 0
-4441 1383 0
4442 -2599 281 2363 -1375 0
-4442 2599 0
-4442 -281 0
-4442 -2363 0
-4442 1375 0
4443 -2678 361 2348 -1383 0
-4443 2678 0
-4443 -361 0
-4443 -2348 0
-4443 1383 0
4444 -2757 441 2360 -1391 0
-4444 2757 0
-4444 -441 0
-4444 -2360 0
-4444 1391 0
1116 -1115 0
-1116 1115 0
4445 -2520 201 2353 -1367 0
-4445 2520 0
-4445 -201 0
-4445 -2353 0
-4445 1367 0
4446 -2369 65 2350 -1047 0
-4446 2369 0
-4446 -65 0
-4446 -2350 0
-4446 1047 0
1118 -1117 0
-1118 1117 0
4447 -2472 329 2363 -1375 0
-4447 2472 0
-4447 -329 0
-4447 -2363 0
-4447 1375 0
4448 -2467 249 2353 -1367 0
-4448 2467 0
-4448 -249 0
-4448 -2353 0
-4448 1367 0
4449 -2469 409 2348 -1383 0
-4449 2469 0
-4449 -409 0
-4449 -2348 0
-4449 1383 0
4450 -2463 489 2360 -1391 0
-4450 2463 0
-4450 -489 0
-4450 -2360 0
-4450 1391 0
4451 -2461 161 2350 -1047 0
-4451 2461 0
-4451 -161 0
-4451 -2350 0
-4451 1047 0
4452 -2503 183 2353 -1367 0
-4452 2503 0
-4452 -183 0
-4452 -2353 0
-4452 1367 0
1120 -1119 0
-1120 1119 0
4453 -2317 29 2350 -1047 0
-4453 2317 0
-4453 -29 0
-4453 -2350 0
-4453 1047 0
4454 -2582 263 2363 -1375 0
-4454 2582 0
-4454 -263 0
-4454 -2363 0
-4454 1375 0
4455 -2661 343 2348 -1383 0
-4455 2661 0
-4455 -343 0
-4455 -2348 0
-4455 1383 0
4456 -2740 423 2360 -1391 0
-4456 2740 0
-4456 -423 0
-4456 -2360 0
-4456 1391 0
4457 -2337 49 2350 -1047 0
-4457 2337 0
-4457 -49 0
-4457 -2350 0
-4457 1047 0
4458 -2671 353 2348 -1383 0
-4458 2671 0
-4458 -353 0
-4458 -2348 0
-4458 1383 0
1124 -1123 0
-1124 1123 0
4459 -2513 193 2353 -1367 0
-4459 2513 0
-4459 -193 0
-4459 -2353 0
-4459 1367 0
4460 -2592 273 2363 -1375 0
-4460 2592 0
-4460 -273 0
-4460 -2363 0
-4460 1375 0
4461 -2750 433 2360 -1391 0
-4461 2750 0
-4461 -433 0
-4461 -2360 0
-4461 1391 0
4462 -2791 475 2360 -19 0
-4462 2791 0
-4462 -475 0
-4462 -2360 0
-4462 19 0
4463 -2633 315 2363 -11 0
-4463 2633 0
-4463 -315 0
-4463 -2363 0
-4463 11 0
4464 -2554 235 2353 -7 0
-4464 2554 0
-4464 -235 0
-4464 -2353 0
-4464 7 0
4465 -2435 133 2350 -3 0
-4465 2435 0
-4465 -133 0
-4465 -2350 0
-4465 3 0
1312 -1311 0
-1312 1311 0
4466 -2712 395 2348 -15 0
-4466 2712 0
-4466 -395 0
-4466 -2348 0
-4466 15 0
4467 -2714 397 2348 -15 0
-4467 2714 0
-4467 -397 0
-4467 -2348 0
-4467 15 0
4468 -2635 317 2363 -11 0
-4468 2635 0
-4468 -317 0
-4468 -2363 0
-4468 11 0
4469 -2439 137 2350 -3 0
-4469 2439 0
-4469 -137 0
-4469 -2350 0
-4469 3 0
1298 -1297 0
-1298 1297 0
4470 -2793 477 2360 -19 0
-4470 2793 0
-4470 -477 0
-4470 -2360 0
-4470 19 0
4471 -2556 237 2353 -7 0
-4471 2556 0
-4471 -237 0
-4471 -2353 0
-4471 7 0
4472 -2769 453 2360 -1393 0
-4472 2769 0
-4472 -453 0
-4472 -2360 0
-4472 1393 0
4473 -2611 293 2363 -1377 0
-4473 2611 0
-4473 -293 0
-4473 -2363 0
-4473 1377 0
4474 -2690 373 2348 -1385 0
-4474 2690 0
-4474 -373 0
-4474 -2348 0
-4474 1385 0
4475 -2532 213 2353 -1369 0
-4475 2532 0
-4475 -213 0
-4475 -2353 0
-4475 1369 0
1132 -1131 0
-1132 1131 0
4476 -2392 89 2350 -1127 0
-4476 2392 0
-4476 -89 0
-4476 -2350 0
-4476 1127 0
4477 -2558 239 2353 -7 0
-4477 2558 0
-4477 -239 0
-4477 -2353 0
-4477 7 0
4478 -2637 319 2363 -11 0
-4478 2637 0
-4478 -319 0
-4478 -2363 0
-4478 11 0
4479 -2443 141 2350 -3 0
-4479 2443 0
-4479 -141 0
-4479 -2350 0
-4479 3 0
4480 -2795 479 2360 -19 0
-4480 2795 0
-4480 -479 0
-4480 -2360 0
-4480 19 0
4481 -2716 399 2348 -15 0
-4481 2716 0
-4481 -399 0
-4481 -2348 0
-4481 15 0
1334 -1333 0
-1334 1333 0
4482 -2548 229 2353 -1369 0
-4482 2548 0
-4482 -229 0
-4482 -2353 0
-4482 1369 0
4483 -2706 389 2348 -1385 0
-4483 2706 0
-4483 -389 0
-4483 -2348 0
-4483 1385 0
4484 -2423 121 2350 -1127 0
-4484 2423 0
-4484 -121 0
-4484 -2350 0
-4484 1127 0
4485 -2785 469 2360 -1393 0
-4485 2785 0
-4485 -469 0
-4485 -2360 0
-4485 1393 0
4486 -2627 309 2363 -1377 0
-4486 2627 0
-4486 -309 0
-4486 -2363 0
-4486 1377 0
1138 -1137 0
-1138 1137 0
1140 -1139 0
-1140 1139 0
4487 -2714 397 2348 -1385 0
-4487 2714 0
-4487 -397 0
-4487 -2348 0
-4487 1385 0
4488 -2439 137 2350 -1127 0
-4488 2439 0
-4488 -137 0
-4488 -2350 0
-4488 1127 0
4489 -2793 477 2360 -1393 0
-4489 2793 0
-4489 -477 0
-4489 -2360 0
-4489 1393 0
4490 -2635 317 2363 -1377 0
-4490 2635 0
-4490 -317 0
-4490 -2363 0
-4490 1377 0
4491 -2556 237 2353 -1369 0
-4491 2556 0
-4491 -237 0
-4491 -2353 0
-4491 1369 0
1144 -1143 0
-1144 1143 0
4492 -2522 203 2353 -1369 0
-4492 2522 0
-4492 -203 0
-4492 -2353 0
-4492 1369 0
4493 -2759 443 2360 -1393 0
-4493 2759 0
-4493 -443 0
-4493 -2360 0
-4493 1393 0
4494 -2601 283 2363 -1377 0
-4494 2601 0
-4494 -283 0
-4494 -2363 0
-4494 1377 0
4495 -2680 363 2348 -1385 0
-4495 2680 0
-4495 -363 0
-4495 -2348 0
-4495 1385 0
4496 -2373 69 2350 -1127 0
-4496 2373 0
-4496 -69 0
-4496 -2350 0
-4496 1127 0
4497 -2451 149 2350 -3 0
-4497 2451 0
-4497 -149 0
-4497 -2350 0
-4497 3 0
4498 -2562 243 2353 -7 0
-4498 2562 0
-4498 -243 0
-4498 -2353 0
-4498 7 0
4499 -2641 323 2363 -11 0
-4499 2641 0
-4499 -323 0
-4499 -2363 0
-4499 11 0
1342 -1341 0
-1342 1341 0
4500 -2720 403 2348 -15 0
-4500 2720 0
-4500 -403 0
-4500 -2348 0
-4500 15 0
4501 -2799 483 2360 -19 0
-4501 2799 0
-4501 -483 0
-4501 -2360 0
-4501 19 0
1154 -1153 0
-1154 1153 0
4502 -2633 315 2363 -1377 0
-4502 2633 0
-4502 -315 0
-4502 -2363 0
-4502 1377 0
4503 -2554 235 2353 -1369 0
-4503 2554 0
-4503 -235 0
-4503 -2353 0
-4503 1369 0
4504 -2435 133 2350 -1127 0
-4504 2435 0
-4504 -133 0
-4504 -2350 0
-4504 1127 0
4505 -2791 475 2360 -1393 0
-4505 2791 0
-4505 -475 0
-4505 -2360 0
-4505 1393 0
4506 -2712 395 2348 -1385 0
-4506 2712 0
-4506 -395 0
-4506 -2348 0
-4506 1385 0
1156 -1155 0
-1156 1155 0
4507 -2578 2580 2363 -1377 0
-4507 2578 0
-4507 -2580 0
-4507 -2363 0
-4507 1377 0
4508 -2738 2736 2360 -1393 0
-4508 2738 0
-4508 -2736 0
-4508 -2360 0
-4508 1393 0
4509 -2659 2657 2348 -1385 0
-4509 2659 0
-4509 -2657 0
-4509 -2348 0
-4509 1385 0
4510 -2501 2499 2353 -1369 0
-4510 2501 0
-4510 -2499 0
-4510 -2353 0
-4510 1369 0
4511 -2313 2311 2350 -1127 0
-4511 2313 0
-4511 -2311 0
-4511 -2350 0
-4511 1127 0
4512 -2404 101 2350 -1127 0
-4512 2404 0
-4512 -101 0
-4512 -2350 0
-4512 1127 0
4513 -2775 459 2360 -1393 0
-4513 2775 0
-4513 -459 0
-4513 -2360 0
-4513 1393 0
4514 -2696 379 2348 -1385 0
-4514 2696 0
-4514 -379 0
-4514 -2348 0
-4514 1385 0
1158 -1157 0
-1158 1157 0
4515 -2617 299 2363 -1377 0
-4515 2617 0
-4515 -299 0
-4515 -2363 0
-4515 1377 0
4516 -2538 219 2353 -1369 0
-4516 2538 0
-4516 -219 0
-4516 -2353 0
-4516 1369 0
1160 -1159 0
-1160 1159 0
4517 -2515 195 2353 -1369 0
-4517 2515 0
-4517 -195 0
-4517 -2353 0
-4517 1369 0
4518 -2341 53 2350 -1127 0
-4518 2341 0
-4518 -53 0
-4518 -2350 0
-4518 1127 0
4519 -2594 275 2363 -1377 0
-4519 2594 0
-4519 -275 0
-4519 -2363 0
-4519 1377 0
4520 -2752 435 2360 -1393 0
-4520 2752 0
-4520 -435 0
-4520 -2360 0
-4520 1393 0
4521 -2673 355 2348 -1385 0
-4521 2673 0
-4521 -355 0
-4521 -2348 0
-4521 1385 0
4522 -2844 545 1925 -1433 0
-4522 2844 0
-4522 -545 0
-4522 -1925 0
-4522 1433 0
4523 -2455 153 2350 -3 0
-4523 2455 0
-4523 -153 0
-4523 -2350 0
-4523 3 0
1308 -1307 0
-1308 1307 0
4524 -2643 325 2363 -11 0
-4524 2643 0
-4524 -325 0
-4524 -2363 0
-4524 11 0
4525 -2722 405 2348 -15 0
-4525 2722 0
-4525 -405 0
-4525 -2348 0
-4525 15 0
4526 -2564 245 2353 -7 0
-4526 2564 0
-4526 -245 0
-4526 -2353 0
-4526 7 0
4527 -2801 485 2360 -19 0
-4527 2801 0
-4527 -485 0
-4527 -2360 0
-4527 19 0
4528 -1858 1859 -1565 0
-4528 1858 0
-4528 -1859 0
-4528 1565 0
1166 -1165 0
-1166 1165 0
4529 -2590 271 2363 -1377 0
-4529 2590 0
-4529 -271 0
-4529 -2363 0
-4529 1377 0
4530 -2511 191 2353 -1369 0
-4530 2511 0
-4530 -191 0
-4530 -2353 0
-4530 1369 0
4531 -2333 45 2350 -1127 0
-4531 2333 0
-4531 -45 0
-4531 -2350 0
-4531 1127 0
4532 -2669 351 2348 -1385 0
-4532 2669 0
-4532 -351 0
-4532 -2348 0
-4532 1385 0
4533 -2748 431 2360 -1393 0
-4533 2748 0
-4533 -431 0
-4533 -2360 0
-4533 1393 0
4534 -1921 1922 -1561 0
-4534 1921 0
-4534 -1922 0
-4534 1561 0
1344 -1343 0
-1344 1343 0
4535 -2474 163 2350 -3 0
-4535 2474 0
-4535 -163 0
-4535 -2350 0
-4535 3 0
4536 -2806 491 2360 -19 0
-4536 2806 0
-4536 -491 0
-4536 -2360 0
-4536 19 0
4537 -2569 251 2353 -7 0
-4537 2569 0
-4537 -251 0
-4537 -2353 0
-4537 7 0
4538 -3033 853 1898 -1499 0
-4538 3033 0
-4538 -853 0
-4538 -1898 0
-4538 1499 0
4539 -2727 411 2348 -15 0
-4539 2727 0
-4539 -411 0
-4539 -2348 0
-4539 15 0
4540 -2648 331 2363 -11 0
-4540 2648 0
-4540 -331 0
-4540 -2363 0
-4540 11 0
4541 -2546 227 2353 -1369 0
-4541 2546 0
-4541 -227 0
-4541 -2353 0
-4541 1369 0
4542 -2704 387 2348 -1385 0
-4542 2704 0
-4542 -387 0
-4542 -2348 0
-4542 1385 0
4543 -2419 117 2350 -1127 0
-4543 2419 0
-4543 -117 0
-4543 -2350 0
-4543 1127 0
4544 -2625 307 2363 -1377 0
-4544 2625 0
-4544 -307 0
-4544 -2363 0
-4544 1377 0
4545 -2783 467 2360 -1393 0
-4545 2783 0
-4545 -467 0
-4545 -2360 0
-4545 1393 0
1172 -1171 0
-1172 1171 0
4546 -1974 1975 -1571 0
-4546 1974 0
-4546 -1975 0
-4546 1571 0
4547 -2663 345 2348 -1385 0
-4547 2663 0
-4547 -345 0
-4547 -2348 0
-4547 1385 0
4548 -1869 1870 -1569 0
-4548 1869 0
-4548 -1870 0
-4548 1569 0
4549 -2321 33 2350 -1127 0
-4549 2321 0
-4549 -33 0
-4549 -2350 0
-4549 1127 0
4550 -2742 425 2360 -1393 0
-4550 2742 0
-4550 -425 0
-4550 -2360 0
-4550 1393 0
4551 -2505 185 2353 -1369 0
-4551 2505 0
-4551 -185 0
-4551 -2353 0
-4551 1369 0
4552 -2584 265 2363 -1377 0
-4552 2584 0
-4552 -265 0
-4552 -2363 0
-4552 1377 0
1174 -1173 0
-1174 1173 0
4553 -2637 319 2363 -1377 0
-4553 2637 0
-4553 -319 0
-4553 -2363 0
-4553 1377 0
4554 -2716 399 2348 -1385 0
-4554 2716 0
-4554 -399 0
-4554 -2348 0
-4554 1385 0
4555 -2795 479 2360 -1393 0
-4555 2795 0
-4555 -479 0
-4555 -2360 0
-4555 1393 0
4556 -2558 239 2353 -1369 0
-4556 2558 0
-4556 -239 0
-4556 -2353 0
-4556 1369 0
1176 -1175 0
-1176 1175 0
4557 -2443 141 2350 -1127 0
-4557 2443 0
-4557 -141 0
-4557 -2350 0
-4557 1127 0
4558 -2478 167 2350 -1127 0
-4558 2478 0
-4558 -167 0
-4558 -2350 0
-4558 1127 0
4559 -2729 413 2348 -1385 0
-4559 2729 0
-4559 -413 0
-4559 -2348 0
-4559 1385 0
4560 -2808 493 2360 -1393 0
-4560 2808 0
-4560 -493 0
-4560 -2360 0
-4560 1393 0
1178 -1177 0
-1178 1177 0
4561 -2853 559 1905 -1581 0
-4561 2853 0
-4561 -559 0
-4561 -1905 0
-4561 1581 0
4562 -2650 333 2363 -1377 0
-4562 2650 0
-4562 -333 0
-4562 -2363 0
-4562 1377 0
4563 -2571 253 2353 -1369 0
-4563 2571 0
-4563 -253 0
-4563 -2353 0
-4563 1369 0
4564 -2799 483 2360 -1393 0
-4564 2799 0
-4564 -483 0
-4564 -2360 0
-4564 1393 0
4565 -2720 403 2348 -1385 0
-4565 2720 0
-4565 -403 0
-4565 -2348 0
-4565 1385 0
4566 -2641 323 2363 -1377 0
-4566 2641 0
-4566 -323 0
-4566 -2363 0
-4566 1377 0
1184 -1183 0
-1184 1183 0
4567 -2562 243 2353 -1369 0
-4567 2562 0
-4567 -243 0
-4567 -2353 0
-4567 1369 0
4568 -2451 149 2350 -1127 0
-4568 2451 0
-4568 -149 0
-4568 -2350 0
-4568 1127 0
4569 -2654 337 2363 -11 0
-4569 2654 0
-4569 -337 0
-4569 -2363 0
-4569 11 0
4570 -2484 175 2350 -3 0
-4570 2484 0
-4570 -175 0
-4570 -2350 0
-4570 3 0
1350 -1349 0
-1350 1349 0
4571 -2733 417 2348 -15 0
-4571 2733 0
-4571 -417 0
-4571 -2348 0
-4571 15 0
4572 -2575 257 2353 -7 0
-4572 2575 0
-4572 -257 0
-4572 -2353 0
-4572 7 0
4573 -2812 497 2360 -19 0
-4573 2812 0
-4573 -497 0
-4573 -2360 0
-4573 19 0
4574 -2474 163 2350 -1127 0
-4574 2474 0
-4574 -163 0
-4574 -2350 0
-4574 1127 0
4575 -2806 491 2360 -1393 0
-4575 2806 0
-4575 -491 0
-4575 -2360 0
-4575 1393 0
4576 -2727 411 2348 -1385 0
-4576 2727 0
-4576 -411 0
-4576 -2348 0
-4576 1385 0
4577 -2648 331 2363 -1377 0
-4577 2648 0
-4577 -331 0
-4577 -2363 0
-4577 1377 0
4578 -2569 251 2353 -1369 0
-4578 2569 0
-4578 -251 0
-4578 -2353 0
-4578 1369 0
1186 -1185 0
-1186 1185 0
4579 -3033 853 1898 -1553 0
-4579 3033 0
-4579 -853 0
-4579 -1898 0
-4579 1553 0
4580 -2597 279 2363 -1377 0
-4580 2597 0
-4580 -279 0
-4580 -2363 0
-4580 1377 0
4581 -2518 199 2353 -1369 0
-4581 2518 0
-4581 -199 0
-4581 -2353 0
-4581 1369 0
1190 -1189 0
-1190 1189 0
4582 -2365 61 2350 -1127 0
-4582 2365 0
-4582 -61 0
-4582 -2350 0
-4582 1127 0
4583 -2837 535 1908 -1567 0
-4583 2837 0
-4583 -535 0
-4583 -1908 0
-4583 1567 0
4584 -2676 359 2348 -1385 0
-4584 2676 0
-4584 -359 0
-4584 -2348 0
-4584 1385 0
4585 -2755 439 2360 -1393 0
-4585 2755 0
-4585 -439 0
-4585 -2360 0
-4585 1393 0
4586 -2484 175 2350 -1127 0
-4586 2484 0
-4586 -175 0
-4586 -2350 0
-4586 1127 0
4587 -2812 497 2360 -1393 0
-4587 2812 0
-4587 -497 0
-4587 -2360 0
-4587 1393 0
4588 -2733 417 2348 -1385 0
-4588 2733 0
-4588 -417 0
-4588 -2348 0
-4588 1385 0
1192 -1191 0
-1192 1191 0
4589 -2654 337 2363 -1377 0
-4589 2654 0
-4589 -337 0
-4589 -2363 0
-4589 1377 0
4590 -2575 257 2353 -1369 0
-4590 2575 0
-4590 -257 0
-4590 -2353 0
-4590 1369 0
1194 -1193 0
-1194 1193 0
4591 -2566 247 2353 -1369 0
-4591 2566 0
-4591 -247 0
-4591 -2353 0
-4591 1369 0
4592 -2645 327 2363 -1377 0
-4592 2645 0
-4592 -327 0
-4592 -2363 0
-4592 1377 0
4593 -2459 157 2350 -1127 0
-4593 2459 0
-4593 -157 0
-4593 -2350 0
-4593 1127 0
4594 -2803 487 2360 -1393 0
-4594 2803 0
-4594 -487 0
-4594 -2360 0
-4594 1393 0
4595 -2724 407 2348 -1385 0
-4595 2724 0
-4595 -407 0
-4595 -2348 0
-4595 1385 0
4596 -2678 361 2348 -1385 0
-4596 2678 0
-4596 -361 0
-4596 -2348 0
-4596 1385 0
4597 -2369 65 2350 -1127 0
-4597 2369 0
-4597 -65 0
-4597 -2350 0
-4597 1127 0
4598 -2599 281 2363 -1377 0
-4598 2599 0
-4598 -281 0
-4598 -2363 0
-4598 1377 0
4599 -2757 441 2360 -1393 0
-4599 2757 0
-4599 -441 0
-4599 -2360 0
-4599 1393 0
4600 -2520 201 2353 -1369 0
-4600 2520 0
-4600 -201 0
-4600 -2353 0
-4600 1369 0
1196 -1195 0
-1196 1195 0
4601 -2472 329 2363 -1377 0
-4601 2472 0
-4601 -329 0
-4601 -2363 0
-4601 1377 0
4602 -2467 249 2353 -1369 0
-4602 2467 0
-4602 -249 0
-4602 -2353 0
-4602 1369 0
4603 -2461 161 2350 -1127 0
-4603 2461 0
-4603 -161 0
-4603 -2350 0
-4603 1127 0
4604 -2469 409 2348 -1385 0
-4604 2469 0
-4604 -409 0
-4604 -2348 0
-4604 1385 0
1198 -1197 0
-1198 1197 0
4605 -2463 489 2360 -1393 0
-4605 2463 0
-4605 -489 0
-4605 -2360 0
-4605 1393 0
4606 -2582 263 2363 -1377 0
-4606 2582 0
-4606 -263 0
-4606 -2363 0
-4606 1377 0
1200 -1199 0
-1200 1199 0
4607 -2740 423 2360 -1393 0
-4607 2740 0
-4607 -423 0
-4607 -2360 0
-4607 1393 0
4608 -2661 343 2348 -1385 0
-4608 2661 0
-4608 -343 0
-4608 -2348 0
-4608 1385 0
4609 -2317 29 2350 -1127 0
-4609 2317 0
-4609 -29 0
-4609 -2350 0
-4609 1127 0
4610 -2503 183 2353 -1369 0
-4610 2503 0
-4610 -183 0
-4610 -2353 0
-4610 1369 0
4611 -2592 273 2363 -1377 0
-4611 2592 0
-4611 -273 0
-4611 -2363 0
-4611 1377 0
4612 -2513 193 2353 -1369 0
-4612 2513 0
-4612 -193 0
-4612 -2353 0
-4612 1369 0
4613 -2337 49 2350 -1127 0
-4613 2337 0
-4613 -49 0
-4613 -2350 0
-4613 1127 0
1204 -1203 0
-1204 1203 0
4614 -2750 433 2360 -1393 0
-4614 2750 0
-4614 -433 0
-4614 -2360 0
-4614 1393 0
4615 -2671 353 2348 -1385 0
-4615 2671 0
-4615 -353 0
-4615 -2348 0
-4615 1385 0
4616 -2532 213 2353 -1371 0
-4616 2532 0
-4616 -213 0
-4616 -2353 0
-4616 1371 0
4617 -2392 89 2350 -1207 0
-4617 2392 0
-4617 -89 0
-4617 -2350 0
-4617 1207 0
1212 -1211 0
-1212 1211 0
4618 -2690 373 2348 -1387 0
-4618 2690 0
-4618 -373 0
-4618 -2348 0
-4618 1387 0
4619 -2611 293 2363 -1379 0
-4619 2611 0
-4619 -293 0
-4619 -2363 0
-4619 1379 0
4620 -2769 453 2360 -1395 0
-4620 2769 0
-4620 -453 0
-4620 -2360 0
-4620 1395 0
4621 -2706 389 2348 -1387 0
-4621 2706 0
-4621 -389 0
-4621 -2348 0
-4621 1387 0
1218 -1217 0
-1218 1217 0
4622 -2548 229 2353 -1371 0
-4622 2548 0
-4622 -229 0
-4622 -2353 0
-4622 1371 0
4623 -2627 309 2363 -1379 0
-4623 2627 0
-4623 -309 0
-4623 -2363 0
-4623 1379 0
4624 -2785 469 2360 -1395 0
-4624 2785 0
-4624 -469 0
-4624 -2360 0
-4624 1395 0
4625 -2423 121 2350 -1207 0
-4625 2423 0
-4625 -121 0
-4625 -2350 0
-4625 1207 0
4626 -2556 237 2353 -1371 0
-4626 2556 0
-4626 -237 0
-4626 -2353 0
-4626 1371 0
4627 -2439 137 2350 -1207 0
-4627 2439 0
-4627 -137 0
-4627 -2350 0
-4627 1207 0
4628 -2635 317 2363 -1379 0
-4628 2635 0
-4628 -317 0
-4628 -2363 0
-4628 1379 0
4629 -2714 397 2348 -1387 0
-4629 2714 0
-4629 -397 0
-4629 -2348 0
-4629 1387 0
1220 -1219 0
-1220 1219 0
4630 -2793 477 2360 -1395 0
-4630 2793 0
-4630 -477 0
-4630 -2360 0
-4630 1395 0
4631 -2522 203 2353 -1371 0
-4631 2522 0
-4631 -203 0
-4631 -2353 0
-4631 1371 0
4632 -2759 443 2360 -1395 0
-4632 2759 0
-4632 -443 0
-4632 -2360 0
-4632 1395 0
4633 -2601 283 2363 -1379 0
-4633 2601 0
-4633 -283 0
-4633 -2363 0
-4633 1379 0
4634 -2680 363 2348 -1387 0
-4634 2680 0
-4634 -363 0
-4634 -2348 0
-4634 1387 0
1224 -1223 0
-1224 1223 0
4635 -2373 69 2350 -1207 0
-4635 2373 0
-4635 -69 0
-4635 -2350 0
-4635 1207 0
4636 -2554 235 2353 -1371 0
-4636 2554 0
-4636 -235 0
-4636 -2353 0
-4636 1371 0
4637 -2791 475 2360 -1395 0
-4637 2791 0
-4637 -475 0
-4637 -2360 0
-4637 1395 0
1234 -1233 0
-1234 1233 0
4638 -2712 395 2348 -1387 0
-4638 2712 0
-4638 -395 0
-4638 -2348 0
-4638 1387 0
4639 -2435 133 2350 -1207 0
-4639 2435 0
-4639 -133 0
-4639 -2350 0
-4639 1207 0
4640 -2633 315 2363 -1379 0
-4640 2633 0
-4640 -315 0
-4640 -2363 0
-4640 1379 0
4641 -2501 2499 2353 -1371 0
-4641 2501 0
-4641 -2499 0
-4641 -2353 0
-4641 1371 0
4642 -2578 2580 2363 -1379 0
-4642 2578 0
-4642 -2580 0
-4642 -2363 0
-4642 1379 0
4643 -2738 2736 2360 -1395 0
-4643 2738 0
-4643 -2736 0
-4643 -2360 0
-4643 1395 0
4644 -2659 2657 2348 -1387 0
-4644 2659 0
-4644 -2657 0
-4644 -2348 0
-4644 1387 0
1236 -1235 0
-1236 1235 0
4645 -2313 2311 2350 -1207 0
-4645 2313 0
-4645 -2311 0
-4645 -2350 0
-4645 1207 0
4646 -2538 219 2353 -1371 0
-4646 2538 0
-4646 -219 0
-4646 -2353 0
-4646 1371 0
1238 -1237 0
-1238 1237 0
4647 -2775 459 2360 -1395 0
-4647 2775 0
-4647 -459 0
-4647 -2360 0
-4647 1395 0
4648 -2404 101 2350 -1207 0
-4648 2404 0
-4648 -101 0
-4648 -2350 0
-4648 1207 0
4649 -2696 379 2348 -1387 0
-4649 2696 0
-4649 -379 0
-4649 -2348 0
-4649 1387 0
4650 -2617 299 2363 -1379 0
-4650 2617 0
-4650 -299 0
-4650 -2363 0
-4650 1379 0
1240 -1239 0
-1240 1239 0
4651 -2673 355 2348 -1387 0
-4651 2673 0
-4651 -355 0
-4651 -2348 0
-4651 1387 0
4652 -2515 195 2353 -1371 0
-4652 2515 0
-4652 -195 0
-4652 -2353 0
-4652 1371 0
4653 -2594 275 2363 -1379 0
-4653 2594 0
-4653 -275 0
-4653 -2363 0
-4653 1379 0
4654 -2752 435 2360 -1395 0
-4654 2752 0
-4654 -435 0
-4654 -2360 0
-4654 1395 0
4655 -2341 53 2350 -1207 0
-4655 2341 0
-4655 -53 0
-4655 -2350 0
-4655 1207 0
4656 -1921 1922 -1613 0
-4656 1921 0
-4656 -1922 0
-4656 1613 0
1246 -1245 0
-1246 1245 0
4657 -2748 431 2360 -1395 0
-4657 2748 0
-4657 -431 0
-4657 -2360 0
-4657 1395 0
4658 -2333 45 2350 -1207 0
-4658 2333 0
-4658 -45 0
-4658 -2350 0
-4658 1207 0
4659 -2669 351 2348 -1387 0
-4659 2669 0
-4659 -351 0
-4659 -2348 0
-4659 1387 0
4660 -2590 271 2363 -1379 0
-4660 2590 0
-4660 -271 0
-4660 -2363 0
-4660 1379 0
4661 -2511 191 2353 -1371 0
-4661 2511 0
-4661 -191 0
-4661 -2353 0
-4661 1371 0
4662 -1858 1859 -1615 0
-4662 1858 0
-4662 -1859 0
-4662 1615 0
4663 -2419 117 2350 -1207 0
-4663 2419 0
-4663 -117 0
-4663 -2350 0
-4663 1207 0
4664 -2783 467 2360 -1395 0
-4664 2783 0
-4664 -467 0
-4664 -2360 0
-4664 1395 0
1252 -1251 0
-1252 1251 0
4665 -2546 227 2353 -1371 0
-4665 2546 0
-4665 -227 0
-4665 -2353 0
-4665 1371 0
4666 -2625 307 2363 -1379 0
-4666 2625 0
-4666 -307 0
-4666 -2363 0
-4666 1379 0
4667 -2704 387 2348 -1387 0
-4667 2704 0
-4667 -387 0
-4667 -2348 0
-4667 1387 0
4668 -2742 425 2360 -1395 0
-4668 2742 0
-4668 -425 0
-4668 -2360 0
-4668 1395 0
4669 -2584 265 2363 -1379 0
-4669 2584 0
-4669 -265 0
-4669 -2363 0
-4669 1379 0
4670 -1869 1870 -1619 0
-4670 1869 0
-4670 -1870 0
-4670 1619 0
4671 -1974 1975 -1621 0
-4671 1974 0
-4671 -1975 0
-4671 1621 0
4672 -2321 33 2350 -1207 0
-4672 2321 0
-4672 -33 0
-4672 -2350 0
-4672 1207 0
4673 -2663 345 2348 -1387 0
-4673 2663 0
-4673 -345 0
-4673 -2348 0
-4673 1387 0
1254 -1253 0
-1254 1253 0
4674 -2505 185 2353 -1371 0
-4674 2505 0
-4674 -185 0
-4674 -2353 0
-4674 1371 0
4675 -2443 141 2350 -1207 0
-4675 2443 0
-4675 -141 0
-4675 -2350 0
-4675 1207 0
4676 -2637 319 2363 -1379 0
-4676 2637 0
-4676 -319 0
-4676 -2363 0
-4676 1379 0
1256 -1255 0
-1256 1255 0
4677 -2716 399 2348 -1387 0
-4677 2716 0
-4677 -399 0
-4677 -2348 0
-4677 1387 0
4678 -2795 479 2360 -1395 0
-4678 2795 0
-4678 -479 0
-4678 -2360 0
-4678 1395 0
4679 -2558 239 2353 -1371 0
-4679 2558 0
-4679 -239 0
-4679 -2353 0
-4679 1371 0
4680 -2650 333 2363 -1379 0
-4680 2650 0
-4680 -333 0
-4680 -2363 0
-4680 1379 0
4681 -2571 253 2353 -1371 0
-4681 2571 0
-4681 -253 0
-4681 -2353 0
-4681 1371 0
4682 -2853 559 1905 -1627 0
-4682 2853 0
-4682 -559 0
-4682 -1905 0
-4682 1627 0
4683 -2478 167 2350 -1207 0
-4683 2478 0
-4683 -167 0
-4683 -2350 0
-4683 1207 0
1258 -1257 0
-1258 1257 0
4684 -2808 493 2360 -1395 0
-4684 2808 0
-4684 -493 0
-4684 -2360 0
-4684 1395 0
4685 -2729 413 2348 -1387 0
-4685 2729 0
-4685 -413 0
-4685 -2348 0
-4685 1387 0
4686 -2562 243 2353 -1371 0
-4686 2562 0
-4686 -243 0
-4686 -2353 0
-4686 1371 0
1264 -1263 0
-1264 1263 0
4687 -2451 149 2350 -1207 0
-4687 2451 0
-4687 -149 0
-4687 -2350 0
-4687 1207 0
4688 -2799 483 2360 -1395 0
-4688 2799 0
-4688 -483 0
-4688 -2360 0
-4688 1395 0
4689 -2720 403 2348 -1387 0
-4689 2720 0
-4689 -403 0
-4689 -2348 0
-4689 1387 0
4690 -2641 323 2363 -1379 0
-4690 2641 0
-4690 -323 0
-4690 -2363 0
-4690 1379 0
4691 -2806 491 2360 -1395 0
-4691 2806 0
-4691 -491 0
-4691 -2360 0
-4691 1395 0
1266 -1265 0
-1266 1265 0
4692 -2474 163 2350 -1207 0
-4692 2474 0
-4692 -163 0
-4692 -2350 0
-4692 1207 0
4693 -2648 331 2363 -1379 0
-4693 2648 0
-4693 -331 0
-4693 -2363 0
-4693 1379 0
4694 -2569 251 2353 -1371 0
-4694 2569 0
-4694 -251 0
-4694 -2353 0
-4694 1371 0
4695 -3033 853 1898 -1607 0
-4695 3033 0
-4695 -853 0
-4695 -1898 0
-4695 1607 0
4696 -2727 411 2348 -1387 0
-4696 2727 0
-4696 -411 0
-4696 -2348 0
-4696 1387 0
4697 -2755 439 2360 -1395 0
-4697 2755 0
-4697 -439 0
-4697 -2360 0
-4697 1395 0
4698 -2837 535 1908 -1617 0
-4698 2837 0
-4698 -535 0
-4698 -1908 0
-4698 1617 0
1270 -1269 0
-1270 1269 0
4699 -2365 61 2350 -1207 0
-4699 2365 0
-4699 -61 0
-4699 -2350 0
-4699 1207 0
4700 -2597 279 2363 -1379 0
-4700 2597 0
-4700 -279 0
-4700 -2363 0
-4700 1379 0
4701 -2518 199 2353 -1371 0
-4701 2518 0
-4701 -199 0
-4701 -2353 0
-4701 1371 0
4702 -2676 359 2348 -1387 0
-4702 2676 0
-4702 -359 0
-4702 -2348 0
-4702 1387 0
1272 -1271 0
-1272 1271 0
4703 -2812 497 2360 -1395 0
-4703 2812 0
-4703 -497 0
-4703 -2360 0
-4703 1395 0
4704 -2484 175 2350 -1207 0
-4704 2484 0
-4704 -175 0
-4704 -2350 0
-4704 1207 0
4705 -2654 337 2363 -1379 0
-4705 2654 0
-4705 -337 0
-4705 -2363 0
-4705 1379 0
4706 -2575 257 2353 -1371 0
-4706 2575 0
-4706 -257 0
-4706 -2353 0
-4706 1371 0
4707 -2733 417 2348 -1387 0
-4707 2733 0
-4707 -417 0
-4707 -2348 0
-4707 1387 0
4708 -2459 157 2350 -1207 0
-4708 2459 0
-4708 -157 0
-4708 -2350 0
-4708 1207 0
1274 -1273 0
-1274 1273 0
4709 -2645 327 2363 -1379 0
-4709 2645 0
-4709 -327 0
-4709 -2363 0
-4709 1379 0
4710 -2803 487 2360 -1395 0
-4710 2803 0
-4710 -487 0
-4710 -2360 0
-4710 1395 0
4711 -2724 407 2348 -1387 0
-4711 2724 0
-4711 -407 0
-4711 -2348 0
-4711 1387 0
4712 -2566 247 2353 -1371 0
-4712 2566 0
-4712 -247 0
-4712 -2353 0
-4712 1371 0
4713 -2678 361 2348 -1387 0
-4713 2678 0
-4713 -361 0
-4713 -2348 0
-4713 1387 0
4714 -2599 281 2363 -1379 0
-4714 2599 0
-4714 -281 0
-4714 -2363 0
-4714 1379 0
4715 -2757 441 2360 -1395 0
-4715 2757 0
-4715 -441 0
-4715 -2360 0
-4715 1395 0
1276 -1275 0
-1276 1275 0
4716 -2520 201 2353 -1371 0
-4716 2520 0
-4716 -201 0
-4716 -2353 0
-4716 1371 0
4717 -2369 65 2350 -1207 0
-4717 2369 0
-4717 -65 0
-4717 -2350 0
-4717 1207 0
4718 -2469 409 2348 -1387 0
-4718 2469 0
-4718 -409 0
-4718 -2348 0
-4718 1387 0
4719 -2463 489 2360 -1395 0
-4719 2463 0
-4719 -489 0
-4719 -2360 0
-4719 1395 0
4720 -2461 161 2350 -1207 0
-4720 2461 0
-4720 -161 0
-4720 -2350 0
-4720 1207 0
1278 -1277 0
-1278 1277 0
4721 -2472 329 2363 -1379 0
-4721 2472 0
-4721 -329 0
-4721 -2363 0
-4721 1379 0
4722 -2467 249 2353 -1371 0
-4722 2467 0
-4722 -249 0
-4722 -2353 0
-4722 1371 0
4723 -2317 29 2350 -1207 0
-4723 2317 0
-4723 -29 0
-4723 -2350 0
-4723 1207 0
4724 -2661 343 2348 -1387 0
-4724 2661 0
-4724 -343 0
-4724 -2348 0
-4724 1387 0
4725 -2503 183 2353 -1371 0
-4725 2503 0
-4725 -183 0
-4725 -2353 0
-4725 1371 0
4726 -2582 263 2363 -1379 0
-4726 2582 0
-4726 -263 0
-4726 -2363 0
-4726 1379 0
4727 -2740 423 2360 -1395 0
-4727 2740 0
-4727 -423 0
-4727 -2360 0
-4727 1395 0
1280 -1279 0
-1280 1279 0
4728 -2750 433 2360 -1395 0
-4728 2750 0
-4728 -433 0
-4728 -2360 0
-4728 1395 0
1284 -1283 0
-1284 1283 0
4729 -2592 273 2363 -1379 0
-4729 2592 0
-4729 -273 0
-4729 -2363 0
-4729 1379 0
4730 -2337 49 2350 -1207 0
-4730 2337 0
-4730 -49 0
-4730 -2350 0
-4730 1207 0
4731 -2671 353 2348 -1387 0
-4731 2671 0
-4731 -353 0
-4731 -2348 0
-4731 1387 0
4732 -2513 193 2353 -1371 0
-4732 2513 0
-4732 -193 0
-4732 -2353 0
-4732 1371 0
4733 -2763 447 2360 -1389 0
-4733 2763 0
-4733 -447 0
-4733 -2360 0
-4733 1389 0
4734 -2526 207 2353 -1365 0
-4734 2526 0
-4734 -207 0
-4734 -2353 0
-4734 1365 0
4735 -2821 511 1874 -1479 0
-4735 2821 0
-4735 -511 0
-4735 -1874 0
-4735 1479 0
4736 -2605 287 2363 -1373 0
-4736 2605 0
-4736 -287 0
-4736 -2363 0
-4736 1373 0
4737 -2684 367 2348 -1381 0
-4737 2684 0
-4737 -367 0
-4737 -2348 0
-4737 1381 0
4738 -2381 77 2350 -967 0
-4738 2381 0
-4738 -77 0
-4738 -2350 0
-4738 967 0
1020 -1019 0
-1020 1019 0
4739 -2777 461 2360 -1389 0
-4739 2777 0
-4739 -461 0
-4739 -2360 0
-4739 1389 0
4740 -2619 301 2363 -1373 0
-4740 2619 0
-4740 -301 0
-4740 -2363 0
-4740 1373 0
4741 -2937 695 1862 -1489 0
-4741 2937 0
-4741 -695 0
-4741 -1862 0
-4741 1489 0
4742 -2408 105 2350 -967 0
-4742 2408 0
-4742 -105 0
-4742 -2350 0
-4742 967 0
4743 -2698 381 2348 -1381 0
-4743 2698 0
-4743 -381 0
-4743 -2348 0
-4743 1381 0
4744 -2540 221 2353 -1365 0
-4744 2540 0
-4744 -221 0
-4744 -2353 0
-4744 1365 0
1022 -1021 0
-1022 1021 0
4745 -2975 757 1967 -1423 0
-4745 2975 0
-4745 -757 0
-4745 -1967 0
-4745 1423 0
4746 -2844 545 1925 -1427 0
-4746 2844 0
-4746 -545 0
-4746 -1925 0
-4746 1427 0
4747 -1850 1851 -1425 0
-4747 1850 0
-4747 -1851 0
-4747 1425 0
4748 -2937 695 1862 -1547 0
-4748 2937 0
-4748 -695 0
-4748 -1862 0
-4748 1547 0
4749 -2777 461 2360 -1391 0
-4749 2777 0
-4749 -461 0
-4749 -2360 0
-4749 1391 0
4750 -2540 221 2353 -1367 0
-4750 2540 0
-4750 -221 0
-4750 -2353 0
-4750 1367 0
1102 -1101 0
-1102 1101 0
4751 -2408 105 2350 -1047 0
-4751 2408 0
-4751 -105 0
-4751 -2350 0
-4751 1047 0
4752 -2619 301 2363 -1375 0
-4752 2619 0
-4752 -301 0
-4752 -2363 0
-4752 1375 0
4753 -2698 381 2348 -1383 0
-4753 2698 0
-4753 -381 0
-4753 -2348 0
-4753 1383 0
4754 -1858 1859 -1397 0
-4754 1858 0
-4754 -1859 0
-4754 1397 0
4755 -1921 1922 -1663 0
-4755 1921 0
-4755 -1922 0
-4755 1663 0
4756 -2937 695 1862 -1431 0
-4756 2937 0
-4756 -695 0
-4756 -1862 0
-4756 1431 0
4757 -3033 853 1898 -1655 0
-4757 3033 0
-4757 -853 0
-4757 -1898 0
-4757 1655 0
4758 -2388 85 2350 -967 0
-4758 2388 0
-4758 -85 0
-4758 -2350 0
-4758 967 0
4759 -2530 211 2353 -1365 0
-4759 2530 0
-4759 -211 0
-4759 -2353 0
-4759 1365 0
974 -973 0
-974 973 0
4760 -2688 371 2348 -1381 0
-4760 2688 0
-4760 -371 0
-4760 -2348 0
-4760 1381 0
4761 -2609 291 2363 -1373 0
-4761 2609 0
-4761 -291 0
-4761 -2363 0
-4761 1373 0
4762 -2975 757 1967 -1481 0
-4762 2975 0
-4762 -757 0
-4762 -1967 0
-4762 1481 0
4763 -2767 451 2360 -1389 0
-4763 2767 0
-4763 -451 0
-4763 -2360 0
-4763 1389 0
4764 -1869 1870 -1511 0
-4764 1869 0
-4764 -1870 0
-4764 1511 0
4765 -2742 425 2360 -19 0
-4765 2742 0
-4765 -425 0
-4765 -2360 0
-4765 19 0
4766 -2663 345 2348 -15 0
-4766 2663 0
-4766 -345 0
-4766 -2348 0
-4766 15 0
4767 -2584 265 2363 -11 0
-4767 2584 0
-4767 -265 0
-4767 -2363 0
-4767 11 0
1332 -1331 0
-1332 1331 0
4768 -1974 1975 -1453 0
-4768 1974 0
-4768 -1975 0
-4768 1453 0
4769 -2321 33 2350 -3 0
-4769 2321 0
-4769 -33 0
-4769 -2350 0
-4769 3 0
4770 -2505 185 2353 -7 0
-4770 2505 0
-4770 -185 0
-4770 -2353 0
-4770 7 0
4771 -2665 347 2348 -15 0
-4771 2665 0
-4771 -347 0
-4771 -2348 0
-4771 15 0
4772 -1978 1979 -1493 0
-4772 1978 0
-4772 -1979 0
-4772 1493 0
1288 -1287 0
-1288 1287 0
4773 -2507 187 2353 -7 0
-4773 2507 0
-4773 -187 0
-4773 -2353 0
-4773 7 0
4774 -2744 427 2360 -19 0
-4774 2744 0
-4774 -427 0
-4774 -2360 0
-4774 19 0
4775 -2325 37 2350 -3 0
-4775 2325 0
-4775 -37 0
-4775 -2350 0
-4775 3 0
4776 -2586 267 2363 -11 0
-4776 2586 0
-4776 -267 0
-4776 -2363 0
-4776 11 0
4777 -2509 189 2353 -7 0
-4777 2509 0
-4777 -189 0
-4777 -2353 0
-4777 7 0
4778 -1865 1866 -1577 0
-4778 1865 0
-4778 -1866 0
-4778 1577 0
4779 -2588 269 2363 -11 0
-4779 2588 0
-4779 -269 0
-4779 -2363 0
-4779 11 0
4780 -1884 1885 -1589 0
-4780 1884 0
-4780 -1885 0
-4780 1589 0
4781 -2329 41 2350 -3 0
-4781 2329 0
-4781 -41 0
-4781 -2350 0
-4781 3 0
4782 -2746 429 2360 -19 0
-4782 2746 0
-4782 -429 0
-4782 -2360 0
-4782 19 0
4783 -1944 1945 -1555 0
-4783 1944 0
-4783 -1945 0
-4783 1555 0
1310 -1309 0
-1310 1309 0
4784 -2667 349 2348 -15 0
-4784 2667 0
-4784 -349 0
-4784 -2348 0
-4784 15 0
4785 -2607 289 2363 -1373 0
-4785 2607 0
-4785 -289 0
-4785 -2363 0
-4785 1373 0
4786 -2528 209 2353 -1365 0
-4786 2528 0
-4786 -209 0
-4786 -2353 0
-4786 1365 0
4787 -2686 369 2348 -1381 0
-4787 2686 0
-4787 -369 0
-4787 -2348 0
-4787 1381 0
4788 -2384 81 2350 -967 0
-4788 2384 0
-4788 -81 0
-4788 -2350 0
-4788 967 0
986 -985 0
-986 985 0
4789 -2765 449 2360 -1389 0
-4789 2765 0
-4789 -449 0
-4789 -2360 0
-4789 1389 0
4790 -1854 1855 -1437 0
-4790 1854 0
-4790 -1855 0
-4790 1437 0
4791 -1917 1918 -1653 0
-4791 1917 0
-4791 -1918 0
-4791 1653 0
4792 -2801 485 2360 -1389 0
-4792 2801 0
-4792 -485 0
-4792 -2360 0
-4792 1389 0
4793 -2844 545 1925 -1485 0
-4793 2844 0
-4793 -545 0
-4793 -1925 0
-4793 1485 0
4794 -2455 153 2350 -967 0
-4794 2455 0
-4794 -153 0
-4794 -2350 0
-4794 967 0
4795 -2564 245 2353 -1365 0
-4795 2564 0
-4795 -245 0
-4795 -2353 0
-4795 1365 0
4796 -2722 405 2348 -1381 0
-4796 2722 0
-4796 -405 0
-4796 -2348 0
-4796 1381 0
4797 -2643 325 2363 -1373 0
-4797 2643 0
-4797 -325 0
-4797 -2363 0
-4797 1373 0
990 -989 0
-990 989 0
4798 -1884 1885 -1477 0
-4798 1884 0
-4798 -1885 0
-4798 1477 0
4799 -2667 349 2348 -1381 0
-4799 2667 0
-4799 -349 0
-4799 -2348 0
-4799 1381 0
4800 -2588 269 2363 -1373 0
-4800 2588 0
-4800 -269 0
-4800 -2363 0
-4800 1373 0
4801 -1944 1945 -1461 0
-4801 1944 0
-4801 -1945 0
-4801 1461 0
4802 -2509 189 2353 -1365 0
-4802 2509 0
-4802 -189 0
-4802 -2353 0
-4802 1365 0
4803 -1865 1866 -1471 0
-4803 1865 0
-4803 -1866 0
-4803 1471 0
4804 -2746 429 2360 -1389 0
-4804 2746 0
-4804 -429 0
-4804 -2360 0
-4804 1389 0
992 -991 0
-992 991 0
4805 -2329 41 2350 -967 0
-4805 2329 0
-4805 -41 0
-4805 -2350 0
-4805 967 0
4806 -1921 1922 -1473 0
-4806 1921 0
-4806 -1922 0
-4806 1473 0
4807 -1858 1859 -1549 0
-4807 1858 0
-4807 -1859 0
-4807 1549 0
4808 -2590 271 2363 -11 0
-4808 2590 0
-4808 -271 0
-4808 -2363 0
-4808 11 0
4809 -2669 351 2348 -15 0
-4809 2669 0
-4809 -351 0
-4809 -2348 0
-4809 15 0
1324 -1323 0
-1324 1323 0
4810 -2748 431 2360 -19 0
-4810 2748 0
-4810 -431 0
-4810 -2360 0
-4810 19 0
4811 -2511 191 2353 -7 0
-4811 2511 0
-4811 -191 0
-4811 -2353 0
-4811 7 0
4812 -2333 45 2350 -3 0
-4812 2333 0
-4812 -45 0
-4812 -2350 0
-4812 3 0
4813 -2528 209 2353 -7 0
-4813 2528 0
-4813 -209 0
-4813 -2353 0
-4813 7 0
4814 -1917 1918 -1513 0
-4814 1917 0
-4814 -1918 0
-4814 1513 0
1304 -1303 0
-1304 1303 0
4815 -2686 369 2348 -15 0
-4815 2686 0
-4815 -369 0
-4815 -2348 0
-4815 15 0
4816 -2607 289 2363 -11 0
-4816 2607 0
-4816 -289 0
-4816 -2363 0
-4816 11 0
4817 -2765 449 2360 -19 0
-4817 2765 0
-4817 -449 0
-4817 -2360 0
-4817 19 0
4818 -2384 81 2350 -3 0
-4818 2384 0
-4818 -81 0
-4818 -2350 0
-4818 3 0
4819 -1854 1855 -1531 0
-4819 1854 0
-4819 -1855 0
-4819 1531 0
4820 -2688 371 2348 -1383 0
-4820 2688 0
-4820 -371 0
-4820 -2348 0
-4820 1383 0
4821 -2609 291 2363 -1375 0
-4821 2609 0
-4821 -291 0
-4821 -2363 0
-4821 1375 0
1054 -1053 0
-1054 1053 0
4822 -2388 85 2350 -1047 0
-4822 2388 0
-4822 -85 0
-4822 -2350 0
-4822 1047 0
4823 -2975 757 1967 -1541 0
-4823 2975 0
-4823 -757 0
-4823 -1967 0
-4823 1541 0
4824 -2767 451 2360 -1391 0
-4824 2767 0
-4824 -451 0
-4824 -2360 0
-4824 1391 0
4825 -2530 211 2353 -1367 0
-4825 2530 0
-4825 -211 0
-4825 -2353 0
-4825 1367 0
4826 -1917 1918 -1669 0
-4826 1917 0
-4826 -1918 0
-4826 1669 0
4827 -2384 81 2350 -1047 0
-4827 2384 0
-4827 -81 0
-4827 -2350 0
-4827 1047 0
4828 -2765 449 2360 -1391 0
-4828 2765 0
-4828 -449 0
-4828 -2360 0
-4828 1391 0
4829 -2528 209 2353 -1367 0
-4829 2528 0
-4829 -209 0
-4829 -2353 0
-4829 1367 0
4830 -2607 289 2363 -1375 0
-4830 2607 0
-4830 -289 0
-4830 -2363 0
-4830 1375 0
1066 -1065 0
-1066 1065 0
4831 -2686 369 2348 -1383 0
-4831 2686 0
-4831 -369 0
-4831 -2348 0
-4831 1383 0
4832 -1854 1855 -1495 0
-4832 1854 0
-4832 -1855 0
-4832 1495 0
4833 -2801 485 2360 -1391 0
-4833 2801 0
-4833 -485 0
-4833 -2360 0
-4833 1391 0
4834 -2844 545 1925 -1545 0
-4834 2844 0
-4834 -545 0
-4834 -1925 0
-4834 1545 0
4835 -2564 245 2353 -1367 0
-4835 2564 0
-4835 -245 0
-4835 -2353 0
-4835 1367 0
4836 -2722 405 2348 -1383 0
-4836 2722 0
-4836 -405 0
-4836 -2348 0
-4836 1383 0
4837 -2643 325 2363 -1375 0
-4837 2643 0
-4837 -325 0
-4837 -2363 0
-4837 1375 0
4838 -2455 153 2350 -1047 0
-4838 2455 0
-4838 -153 0
-4838 -2350 0
-4838 1047 0
1070 -1069 0
-1070 1069 0
4839 -2509 189 2353 -1367 0
-4839 2509 0
-4839 -189 0
-4839 -2353 0
-4839 1367 0
1072 -1071 0
-1072 1071 0
4840 -2329 41 2350 -1047 0
-4840 2329 0
-4840 -41 0
-4840 -2350 0
-4840 1047 0
4841 -2667 349 2348 -1383 0
-4841 2667 0
-4841 -349 0
-4841 -2348 0
-4841 1383 0
4842 -1944 1945 -1523 0
-4842 1944 0
-4842 -1945 0
-4842 1523 0
4843 -1884 1885 -1537 0
-4843 1884 0
-4843 -1885 0
-4843 1537 0
4844 -2746 429 2360 -1391 0
-4844 2746 0
-4844 -429 0
-4844 -2360 0
-4844 1391 0
4845 -1865 1866 -1533 0
-4845 1865 0
-4845 -1866 0
-4845 1533 0
4846 -2588 269 2363 -1375 0
-4846 2588 0
-4846 -269 0
-4846 -2363 0
-4846 1375 0
4847 -2412 109 2350 -1047 0
-4847 2412 0
-4847 -109 0
-4847 -2350 0
-4847 1047 0
4848 -2779 463 2360 -1391 0
-4848 2779 0
-4848 -463 0
-4848 -2360 0
-4848 1391 0
4849 -1850 1851 -1543 0
-4849 1850 0
-4849 -1851 0
-4849 1543 0
4850 -2621 303 2363 -1375 0
-4850 2621 0
-4850 -303 0
-4850 -2363 0
-4850 1375 0
4851 -2542 223 2353 -1367 0
-4851 2542 0
-4851 -223 0
-4851 -2353 0
-4851 1367 0
4852 -2700 383 2348 -1383 0
-4852 2700 0
-4852 -383 0
-4852 -2348 0
-4852 1383 0
1082 -1081 0
-1082 1081 0
4853 -2388 85 2350 -1127 0
-4853 2388 0
-4853 -85 0
-4853 -2350 0
-4853 1127 0
1134 -1133 0
-1134 1133 0
4854 -2975 757 1967 -1599 0
-4854 2975 0
-4854 -757 0
-4854 -1967 0
-4854 1599 0
4855 -2530 211 2353 -1369 0
-4855 2530 0
-4855 -211 0
-4855 -2353 0
-4855 1369 0
4856 -2609 291 2363 -1377 0
-4856 2609 0
-4856 -291 0
-4856 -2363 0
-4856 1377 0
4857 -2688 371 2348 -1385 0
-4857 2688 0
-4857 -371 0
-4857 -2348 0
-4857 1385 0
4858 -2767 451 2360 -1393 0
-4858 2767 0
-4858 -451 0
-4858 -2360 0
-4858 1393 0
4859 -2447 145 2350 -3 0
-4859 2447 0
-4859 -145 0
-4859 -2350 0
-4859 3 0
4860 -2890 619 1891 -1683 0
-4860 2890 0
-4860 -619 0
-4860 -1891 0
-4860 1683 0
1322 -1321 0
-1322 1321 0
4861 -2797 481 2360 -19 0
-4861 2797 0
-4861 -481 0
-4861 -2360 0
-4861 19 0
4862 -2718 401 2348 -15 0
-4862 2718 0
-4862 -401 0
-4862 -2348 0
-4862 15 0
4863 -2639 321 2363 -11 0
-4863 2639 0
-4863 -321 0
-4863 -2363 0
-4863 11 0
4864 -2560 241 2353 -7 0
-4864 2560 0
-4864 -241 0
-4864 -2353 0
-4864 7 0
4865 -3101 963 1931 -1551 0
-4865 3101 0
-4865 -963 0
-4865 -1931 0
-4865 1551 0
4866 -1978 1979 -1705 0
-4866 1978 0
-4866 -1979 0
-4866 1705 0
4867 -2325 37 2350 -1127 0
-4867 2325 0
-4867 -37 0
-4867 -2350 0
-4867 1127 0
4868 -2665 347 2348 -1385 0
-4868 2665 0
-4868 -347 0
-4868 -2348 0
-4868 1385 0
1130 -1129 0
-1130 1129 0
4869 -2586 267 2363 -1377 0
-4869 2586 0
-4869 -267 0
-4869 -2363 0
-4869 1377 0
4870 -2507 187 2353 -1369 0
-4870 2507 0
-4870 -187 0
-4870 -2353 0
-4870 1369 0
4871 -2744 427 2360 -1393 0
-4871 2744 0
-4871 -427 0
-4871 -2360 0
-4871 1393 0
4872 -2722 405 2348 -1385 0
-4872 2722 0
-4872 -405 0
-4872 -2348 0
-4872 1385 0
4873 -2564 245 2353 -1369 0
-4873 2564 0
-4873 -245 0
-4873 -2353 0
-4873 1369 0
4874 -2844 545 1925 -1603 0
-4874 2844 0
-4874 -545 0
-4874 -1925 0
-4874 1603 0
1150 -1149 0
-1150 1149 0
4875 -2643 325 2363 -1377 0
-4875 2643 0
-4875 -325 0
-4875 -2363 0
-4875 1377 0
4876 -2801 485 2360 -1393 0
-4876 2801 0
-4876 -485 0
-4876 -2360 0
-4876 1393 0
4877 -2455 153 2350 -1127 0
-4877 2455 0
-4877 -153 0
-4877 -2350 0
-4877 1127 0
4878 -1944 1945 -1583 0
-4878 1944 0
-4878 -1945 0
-4878 1583 0
4879 -2746 429 2360 -1393 0
-4879 2746 0
-4879 -429 0
-4879 -2360 0
-4879 1393 0
4880 -2588 269 2363 -1377 0
-4880 2588 0
-4880 -269 0
-4880 -2363 0
-4880 1377 0
4881 -2509 189 2353 -1369 0
-4881 2509 0
-4881 -189 0
-4881 -2353 0
-4881 1369 0
4882 -2667 349 2348 -1385 0
-4882 2667 0
-4882 -349 0
-4882 -2348 0
-4882 1385 0
4883 -1884 1885 -1595 0
-4883 1884 0
-4883 -1885 0
-4883 1595 0
4884 -1865 1866 -1591 0
-4884 1865 0
-4884 -1866 0
-4884 1591 0
1152 -1151 0
-1152 1151 0
4885 -2329 41 2350 -1127 0
-4885 2329 0
-4885 -41 0
-4885 -2350 0
-4885 1127 0
1162 -1161 0
-1162 1161 0
4886 -2542 223 2353 -1369 0
-4886 2542 0
-4886 -223 0
-4886 -2353 0
-4886 1369 0
4887 -2621 303 2363 -1377 0
-4887 2621 0
-4887 -303 0
-4887 -2363 0
-4887 1377 0
4888 -2412 109 2350 -1127 0
-4888 2412 0
-4888 -109 0
-4888 -2350 0
-4888 1127 0
4889 -1850 1851 -1601 0
-4889 1850 0
-4889 -1851 0
-4889 1601 0
4890 -2700 383 2348 -1385 0
-4890 2700 0
-4890 -383 0
-4890 -2348 0
-4890 1385 0
4891 -2779 463 2360 -1393 0
-4891 2779 0
-4891 -463 0
-4891 -2360 0
-4891 1393 0
4892 -2777 461 2360 -1393 0
-4892 2777 0
-4892 -461 0
-4892 -2360 0
-4892 1393 0
4893 -2619 301 2363 -1377 0
-4893 2619 0
-4893 -301 0
-4893 -2363 0
-4893 1377 0
4894 -2937 695 1862 -1605 0
-4894 2937 0
-4894 -695 0
-4894 -1862 0
-4894 1605 0
4895 -2408 105 2350 -1127 0
-4895 2408 0
-4895 -105 0
-4895 -2350 0
-4895 1127 0
1182 -1181 0
-1182 1181 0
4896 -2698 381 2348 -1385 0
-4896 2698 0
-4896 -381 0
-4896 -2348 0
-4896 1385 0
4897 -2540 221 2353 -1369 0
-4897 2540 0
-4897 -221 0
-4897 -2353 0
-4897 1369 0
4898 -2688 371 2348 -1387 0
-4898 2688 0
-4898 -371 0
-4898 -2348 0
-4898 1387 0
4899 -2609 291 2363 -1379 0
-4899 2609 0
-4899 -291 0
-4899 -2363 0
-4899 1379 0
4900 -2975 757 1967 -1643 0
-4900 2975 0
-4900 -757 0
-4900 -1967 0
-4900 1643 0
4901 -2388 85 2350 -1207 0
-4901 2388 0
-4901 -85 0
-4901 -2350 0
-4901 1207 0
4902 -2767 451 2360 -1395 0
-4902 2767 0
-4902 -451 0
-4902 -2360 0
-4902 1395 0
1214 -1213 0
-1214 1213 0
4903 -2530 211 2353 -1371 0
-4903 2530 0
-4903 -211 0
-4903 -2353 0
-4903 1371 0
4904 -2643 325 2363 -1379 0
-4904 2643 0
-4904 -325 0
-4904 -2363 0
-4904 1379 0
4905 -2801 485 2360 -1395 0
-4905 2801 0
-4905 -485 0
-4905 -2360 0
-4905 1395 0
4906 -2844 545 1925 -1647 0
-4906 2844 0
-4906 -545 0
-4906 -1925 0
-4906 1647 0
1230 -1229 0
-1230 1229 0
4907 -2722 405 2348 -1387 0
-4907 2722 0
-4907 -405 0
-4907 -2348 0
-4907 1387 0
4908 -2564 245 2353 -1371 0
-4908 2564 0
-4908 -245 0
-4908 -2353 0
-4908 1371 0
4909 -2455 153 2350 -1207 0
-4909 2455 0
-4909 -153 0
-4909 -2350 0
-4909 1207 0
4910 -2746 429 2360 -1395 0
-4910 2746 0
-4910 -429 0
-4910 -2360 0
-4910 1395 0
1232 -1231 0
-1232 1231 0
4911 -1944 1945 -1629 0
-4911 1944 0
-4911 -1945 0
-4911 1629 0
4912 -1865 1866 -1635 0
-4912 1865 0
-4912 -1866 0
-4912 1635 0
4913 -1884 1885 -1639 0
-4913 1884 0
-4913 -1885 0
-4913 1639 0
4914 -2588 269 2363 -1379 0
-4914 2588 0
-4914 -269 0
-4914 -2363 0
-4914 1379 0
4915 -2509 189 2353 -1371 0
-4915 2509 0
-4915 -189 0
-4915 -2353 0
-4915 1371 0
4916 -2329 41 2350 -1207 0
-4916 2329 0
-4916 -41 0
-4916 -2350 0
-4916 1207 0
4917 -2667 349 2348 -1387 0
-4917 2667 0
-4917 -349 0
-4917 -2348 0
-4917 1387 0
4918 -2412 109 2350 -1207 0
-4918 2412 0
-4918 -109 0
-4918 -2350 0
-4918 1207 0
4919 -2542 223 2353 -1371 0
-4919 2542 0
-4919 -223 0
-4919 -2353 0
-4919 1371 0
4920 -2621 303 2363 -1379 0
-4920 2621 0
-4920 -303 0
-4920 -2363 0
-4920 1379 0
1242 -1241 0
-1242 1241 0
4921 -2700 383 2348 -1387 0
-4921 2700 0
-4921 -383 0
-4921 -2348 0
-4921 1387 0
4922 -2779 463 2360 -1395 0
-4922 2779 0
-4922 -463 0
-4922 -2360 0
-4922 1395 0
4923 -1850 1851 -1645 0
-4923 1850 0
-4923 -1851 0
-4923 1645 0
4924 -2478 167 2350 -3 0
-4924 2478 0
-4924 -167 0
-4924 -2350 0
-4924 3 0
4925 -2853 559 1905 -1679 0
-4925 2853 0
-4925 -559 0
-4925 -1905 0
-4925 1679 0
4926 -2808 493 2360 -19 0
-4926 2808 0
-4926 -493 0
-4926 -2360 0
-4926 19 0
1336 -1335 0
-1336 1335 0
4927 -2571 253 2353 -7 0
-4927 2571 0
-4927 -253 0
-4927 -2353 0
-4927 7 0
4928 -2729 413 2348 -15 0
-4928 2729 0
-4928 -413 0
-4928 -2348 0
-4928 15 0
4929 -2650 333 2363 -11 0
-4929 2650 0
-4929 -333 0
-4929 -2363 0
-4929 11 0
1164 -1163 0
-1164 1163 0
4930 -2447 145 2350 -1127 0
-4930 2447 0
-4930 -145 0
-4930 -2350 0
-4930 1127 0
4931 -2639 321 2363 -1377 0
-4931 2639 0
-4931 -321 0
-4931 -2363 0
-4931 1377 0
4932 -2718 401 2348 -1385 0
-4932 2718 0
-4932 -401 0
-4932 -2348 0
-4932 1385 0
4933 -3101 963 1931 -1559 0
-4933 3101 0
-4933 -963 0
-4933 -1931 0
-4933 1559 0
4934 -2797 481 2360 -1393 0
-4934 2797 0
-4934 -481 0
-4934 -2360 0
-4934 1393 0
4935 -2890 619 1891 -1713 0
-4935 2890 0
-4935 -619 0
-4935 -1891 0
-4935 1713 0
4936 -2560 241 2353 -1369 0
-4936 2560 0
-4936 -241 0
-4936 -2353 0
-4936 1369 0
4937 -2797 481 2360 -1395 0
-4937 2797 0
-4937 -481 0
-4937 -2360 0
-4937 1395 0
1244 -1243 0
-1244 1243 0
4938 -2890 619 1891 -1723 0
-4938 2890 0
-4938 -619 0
-4938 -1891 0
-4938 1723 0
4939 -2718 401 2348 -1387 0
-4939 2718 0
-4939 -401 0
-4939 -2348 0
-4939 1387 0
4940 -2447 145 2350 -1207 0
-4940 2447 0
-4940 -145 0
-4940 -2350 0
-4940 1207 0
4941 -2560 241 2353 -1371 0
-4941 2560 0
-4941 -241 0
-4941 -2353 0
-4941 1371 0
4942 -3101 963 1931 -1611 0
-4942 3101 0
-4942 -963 0
-4942 -1931 0
-4942 1611 0
4943 -2639 321 2363 -1379 0
-4943 2639 0
-4943 -321 0
-4943 -2363 0
-4943 1379 0
4944 -2540 221 2353 -1371 0
-4944 2540 0
-4944 -221 0
-4944 -2353 0
-4944 1371 0
4945 -2777 461 2360 -1395 0
-4945 2777 0
-4945 -461 0
-4945 -2360 0
-4945 1395 0
1262 -1261 0
-1262 1261 0
4946 -2408 105 2350 -1207 0
-4946 2408 0
-4946 -105 0
-4946 -2350 0
-4946 1207 0
4947 -2619 301 2363 -1379 0
-4947 2619 0
-4947 -301 0
-4947 -2363 0
-4947 1379 0
4948 -2698 381 2348 -1387 0
-4948 2698 0
-4948 -381 0
-4948 -2348 0
-4948 1387 0
4949 -2937 695 1862 -1649 0
-4949 2937 0
-4949 -695 0
-4949 -1862 0
-4949 1649 0
4950 -2427 125 2350 -1207 0
-4950 2427 0
-4950 -125 0
-4950 -2350 0
-4950 1207 0
4951 -1956 1957 -1631 0
-4951 1956 0
-4951 -1957 0
-4951 1631 0
4952 -1894 1895 -1731 0
-4952 1894 0
-4952 -1895 0
-4952 1731 0
4953 -2629 311 2363 -1379 0
-4953 2629 0
-4953 -311 0
-4953 -2363 0
-4953 1379 0
4954 -2787 471 2360 -1395 0
-4954 2787 0
-4954 -471 0
-4954 -2360 0
-4954 1395 0
4955 -2708 391 2348 -1387 0
-4955 2708 0
-4955 -391 0
-4955 -2348 0
-4955 1387 0
4956 -2550 231 2353 -1371 0
-4956 2550 0
-4956 -231 0
-4956 -2353 0
-4956 1371 0
1286 -1285 0
-1286 1285 0
1004 -1003 0
-1004 1003 0
4957 -2890 619 1891 -1689 0
-4957 2890 0
-4957 -619 0
-4957 -1891 0
-4957 1689 0
4958 -2560 241 2353 -1365 0
-4958 2560 0
-4958 -241 0
-4958 -2353 0
-4958 1365 0
4959 -2797 481 2360 -1389 0
-4959 2797 0
-4959 -481 0
-4959 -2360 0
-4959 1389 0
4960 -2639 321 2363 -1373 0
-4960 2639 0
-4960 -321 0
-4960 -2363 0
-4960 1373 0
4961 -3101 963 1931 -1439 0
-4961 3101 0
-4961 -963 0
-4961 -1931 0
-4961 1439 0
4962 -2718 401 2348 -1381 0
-4962 2718 0
-4962 -401 0
-4962 -2348 0
-4962 1381 0
4963 -2447 145 2350 -967 0
-4963 2447 0
-4963 -145 0
-4963 -2350 0
-4963 967 0
4964 -2773 457 2360 -19 0
-4964 2773 0
-4964 -457 0
-4964 -2360 0
-4964 19 0
4965 -2536 217 2353 -7 0
-4965 2536 0
-4965 -217 0
-4965 -2353 0
-4965 7 0
4966 -2918 665 1941 -1691 0
-4966 2918 0
-4966 -665 0
-4966 -1941 0
-4966 1691 0
4967 -2615 297 2363 -11 0
-4967 2615 0
-4967 -297 0
-4967 -2363 0
-4967 11 0
4968 -2873 591 1914 -1681 0
-4968 2873 0
-4968 -591 0
-4968 -1914 0
-4968 1681 0
4969 -2400 97 2350 -3 0
-4969 2400 0
-4969 -97 0
-4969 -2350 0
-4969 3 0
4970 -2694 377 2348 -15 0
-4970 2694 0
-4970 -377 0
-4970 -2348 0
-4970 15 0
1306 -1305 0
-1306 1305 0
4971 -2765 449 2360 -1393 0
-4971 2765 0
-4971 -449 0
-4971 -2360 0
-4971 1393 0
4972 -2607 289 2363 -1377 0
-4972 2607 0
-4972 -289 0
-4972 -2363 0
-4972 1377 0
4973 -1917 1918 -1717 0
-4973 1917 0
-4973 -1918 0
-4973 1717 0
1146 -1145 0
-1146 1145 0
4974 -2686 369 2348 -1385 0
-4974 2686 0
-4974 -369 0
-4974 -2348 0
-4974 1385 0
4975 -2384 81 2350 -1127 0
-4975 2384 0
-4975 -81 0
-4975 -2350 0
-4975 1127 0
4976 -1854 1855 -1557 0
-4976 1854 0
-4976 -1855 0
-4976 1557 0
4977 -2528 209 2353 -1369 0
-4977 2528 0
-4977 -209 0
-4977 -2353 0
-4977 1369 0
4978 -2639 321 2363 -1375 0
-4978 2639 0
-4978 -321 0
-4978 -2363 0
-4978 1375 0
1084 -1083 0
-1084 1083 0
4979 -2447 145 2350 -1047 0
-4979 2447 0
-4979 -145 0
-4979 -2350 0
-4979 1047 0
4980 -2890 619 1891 -1701 0
-4980 2890 0
-4980 -619 0
-4980 -1891 0
-4980 1701 0
4981 -3101 963 1931 -1497 0
-4981 3101 0
-4981 -963 0
-4981 -1931 0
-4981 1497 0
4982 -2797 481 2360 -1391 0
-4982 2797 0
-4982 -481 0
-4982 -2360 0
-4982 1391 0
4983 -2560 241 2353 -1367 0
-4983 2560 0
-4983 -241 0
-4983 -2353 0
-4983 1367 0
4984 -2718 401 2348 -1383 0
-4984 2718 0
-4984 -401 0
-4984 -2348 0
-4984 1383 0
4985 -1978 1979 -1657 0
-4985 1978 0
-4985 -1979 0
-4985 1657 0
4986 -1854 1855 -1659 0
-4986 1854 0
-4986 -1855 0
-4986 1659 0
4987 -1917 1918 -1673 0
-4987 1917 0
-4987 -1918 0
-4987 1673 0
4988 -2873 591 1914 -1745 0
-4988 2873 0
-4988 -591 0
-4988 -1914 0
-4988 1745 0
4989 -2918 665 1941 -1671 0
-4989 2918 0
-4989 -665 0
-4989 -1941 0
-4989 1671 0
4990 -1884 1885 -1419 0
-4990 1884 0
-4990 -1885 0
-4990 1419 0
4991 -1865 1866 -1675 0
-4991 1865 0
-4991 -1866 0
-4991 1675 0
4992 -1944 1945 -1409 0
-4992 1944 0
-4992 -1945 0
-4992 1409 0
4993 -2890 619 1891 -1751 0
-4993 2890 0
-4993 -619 0
-4993 -1891 0
-4993 1751 0
4994 -3101 963 1931 -1661 0
-4994 3101 0
-4994 -963 0
-4994 -1931 0
-4994 1661 0
4995 -1894 1895 -1753 0
-4995 1894 0
-4995 -1895 0
-4995 1753 0
4996 -1956 1957 -1411 0
-4996 1956 0
-4996 -1957 0
-4996 1411 0
4997 -1978 1979 -1677 0
-4997 1978 0
-4997 -1979 0
-4997 1677 0
4998 -2586 267 2363 -1373 0
-4998 2586 0
-4998 -267 0
-4998 -2363 0
-4998 1373 0
970 -969 0
-970 969 0
4999 -2325 37 2350 -967 0
-4999 2325 0
-4999 -37 0
-4999 -2350 0
-4999 967 0
5000 -2665 347 2348 -1381 0
-5000 2665 0
-5000 -347 0
-5000 -2348 0
-5000 1381 0
5001 -2744 427 2360 -1389 0
-5001 2744 0
-5001 -427 0
-5001 -2360 0
-5001 1389 0
5002 -2507 187 2353 -1365 0
-5002 2507 0
-5002 -187 0
-5002 -2353 0
-5002 1365 0
1046 -1045 0
-1046 1045 0
5003 -2629 311 2363 -1373 0
-5003 2629 0
-5003 -311 0
-5003 -2363 0
-5003 1373 0
5004 -2708 391 2348 -1381 0
-5004 2708 0
-5004 -391 0
-5004 -2348 0
-5004 1381 0
5005 -2427 125 2350 -967 0
-5005 2427 0
-5005 -125 0
-5005 -2350 0
-5005 967 0
5006 -1894 1895 -1737 0
-5006 1894 0
-5006 -1895 0
-5006 1737 0
5007 -2550 231 2353 -1365 0
-5007 2550 0
-5007 -231 0
-5007 -2353 0
-5007 1365 0
5008 -2787 471 2360 -1389 0
-5008 2787 0
-5008 -471 0
-5008 -2360 0
-5008 1389 0
5009 -1956 1957 -1465 0
-5009 1956 0
-5009 -1957 0
-5009 1465 0
5010 -2744 427 2360 -1391 0
-5010 2744 0
-5010 -427 0
-5010 -2360 0
-5010 1391 0
5011 -2325 37 2350 -1047 0
-5011 2325 0
-5011 -37 0
-5011 -2350 0
-5011 1047 0
5012 -2586 267 2363 -1375 0
-5012 2586 0
-5012 -267 0
-5012 -2363 0
-5012 1375 0
5013 -2507 187 2353 -1367 0
-5013 2507 0
-5013 -187 0
-5013 -2353 0
-5013 1367 0
5014 -1978 1979 -1695 0
-5014 1978 0
-5014 -1979 0
-5014 1695 0
5015 -2665 347 2348 -1383 0
-5015 2665 0
-5015 -347 0
-5015 -2348 0
-5015 1383 0
1050 -1049 0
-1050 1049 0
5016 -2396 93 2350 -3 0
-5016 2396 0
-5016 -93 0
-5016 -2350 0
-5016 3 0
5017 -2968 747 1964 -1463 0
-5017 2968 0
-5017 -747 0
-5017 -1964 0
-5017 1463 0
5018 -2692 375 2348 -15 0
-5018 2692 0
-5018 -375 0
-5018 -2348 0
-5018 15 0
5019 -2613 295 2363 -11 0
-5019 2613 0
-5019 -295 0
-5019 -2363 0
-5019 11 0
1294 -1293 0
-1294 1293 0
5020 -2771 455 2360 -19 0
-5020 2771 0
-5020 -455 0
-5020 -2360 0
-5020 19 0
5021 -1952 1953 -1739 0
-5021 1952 0
-5021 -1953 0
-5021 1739 0
5022 -2534 215 2353 -7 0
-5022 2534 0
-5022 -215 0
-5022 -2353 0
-5022 7 0
5023 -1894 1895 -1707 0
-5023 1894 0
-5023 -1895 0
-5023 1707 0
5024 -2550 231 2353 -7 0
-5024 2550 0
-5024 -231 0
-5024 -2353 0
-5024 7 0
5025 -2708 391 2348 -15 0
-5025 2708 0
-5025 -391 0
-5025 -2348 0
-5025 15 0
5026 -2427 125 2350 -3 0
-5026 2427 0
-5026 -125 0
-5026 -2350 0
-5026 3 0
5027 -2787 471 2360 -19 0
-5027 2787 0
-5027 -471 0
-5027 -2360 0
-5027 19 0
5028 -2629 311 2363 -11 0
-5028 2629 0
-5028 -311 0
-5028 -2363 0
-5028 11 0
5029 -1956 1957 -1727 0
-5029 1956 0
-5029 -1957 0
-5029 1727 0
1364 -1363 0
-1364 1363 0
5030 -2873 591 1914 -1709 0
-5030 2873 0
-5030 -591 0
-5030 -1914 0
-5030 1709 0
5031 -2400 97 2350 -1127 0
-5031 2400 0
-5031 -97 0
-5031 -2350 0
-5031 1127 0
5032 -2773 457 2360 -1393 0
-5032 2773 0
-5032 -457 0
-5032 -2360 0
-5032 1393 0
5033 -2694 377 2348 -1385 0
-5033 2694 0
-5033 -377 0
-5033 -2348 0
-5033 1385 0
5034 -2615 297 2363 -1377 0
-5034 2615 0
-5034 -297 0
-5034 -2363 0
-5034 1377 0
5035 -2536 217 2353 -1369 0
-5035 2536 0
-5035 -217 0
-5035 -2353 0
-5035 1369 0
5036 -2918 665 1941 -1575 0
-5036 2918 0
-5036 -665 0
-5036 -1941 0
-5036 1575 0
1148 -1147 0
-1148 1147 0
5037 -1956 1957 -1585 0
-5037 1956 0
-5037 -1957 0
-5037 1585 0
5038 -2550 231 2353 -1369 0
-5038 2550 0
-5038 -231 0
-5038 -2353 0
-5038 1369 0
5039 -2427 125 2350 -1127 0
-5039 2427 0
-5039 -125 0
-5039 -2350 0
-5039 1127 0
5040 -2708 391 2348 -1385 0
-5040 2708 0
-5040 -391 0
-5040 -2348 0
-5040 1385 0
5041 -1894 1895 -1729 0
-5041 1894 0
-5041 -1895 0
-5041 1729 0
5042 -2629 311 2363 -1377 0
-5042 2629 0
-5042 -311 0
-5042 -2363 0
-5042 1377 0
5043 -2787 471 2360 -1393 0
-5043 2787 0
-5043 -471 0
-5043 -2360 0
-5043 1393 0
1206 -1205 0
-1206 1205 0
5044 -1978 1979 -1719 0
-5044 1978 0
-5044 -1979 0
-5044 1719 0
1210 -1209 0
-1210 1209 0
5045 -2325 37 2350 -1207 0
-5045 2325 0
-5045 -37 0
-5045 -2350 0
-5045 1207 0
5046 -2586 267 2363 -1379 0
-5046 2586 0
-5046 -267 0
-5046 -2363 0
-5046 1379 0
5047 -2507 187 2353 -1371 0
-5047 2507 0
-5047 -187 0
-5047 -2353 0
-5047 1371 0
5048 -2665 347 2348 -1387 0
-5048 2665 0
-5048 -347 0
-5048 -2348 0
-5048 1387 0
5049 -2744 427 2360 -1395 0
-5049 2744 0
-5049 -427 0
-5049 -2360 0
-5049 1395 0
5050 -1917 1918 -1733 0
-5050 1917 0
-5050 -1918 0
-5050 1733 0
5051 -2528 209 2353 -1371 0
-5051 2528 0
-5051 -209 0
-5051 -2353 0
-5051 1371 0
5052 -2765 449 2360 -1395 0
-5052 2765 0
-5052 -449 0
-5052 -2360 0
-5052 1395 0
5053 -2607 289 2363 -1379 0
-5053 2607 0
-5053 -289 0
-5053 -2363 0
-5053 1379 0
5054 -2384 81 2350 -1207 0
-5054 2384 0
-5054 -81 0
-5054 -2350 0
-5054 1207 0
1226 -1225 0
-1226 1225 0
5055 -2686 369 2348 -1387 0
-5055 2686 0
-5055 -369 0
-5055 -2348 0
-5055 1387 0
5056 -1854 1855 -1609 0
-5056 1854 0
-5056 -1855 0
-5056 1609 0
1228 -1227 0
-1228 1227 0
5057 -2873 591 1914 -1771 0
-5057 2873 0
-5057 -591 0
-5057 -1914 0
-5057 1771 0
5058 -2918 665 1941 -1623 0
-5058 2918 0
-5058 -665 0
-5058 -1941 0
-5058 1623 0
5059 -2694 377 2348 -1387 0
-5059 2694 0
-5059 -377 0
-5059 -2348 0
-5059 1387 0
5060 -2536 217 2353 -1371 0
-5060 2536 0
-5060 -217 0
-5060 -2353 0
-5060 1371 0
5061 -2615 297 2363 -1379 0
-5061 2615 0
-5061 -297 0
-5061 -2363 0
-5061 1379 0
5062 -2400 97 2350 -1207 0
-5062 2400 0
-5062 -97 0
-5062 -2350 0
-5062 1207 0
5063 -2773 457 2360 -1395 0
-5063 2773 0
-5063 -457 0
-5063 -2360 0
-5063 1395 0
5064 -2573 255 2353 -1371 0
-5064 2573 0
-5064 -255 0
-5064 -2353 0
-5064 1371 0
5065 -2482 171 2350 -1207 0
-5065 2482 0
-5065 -171 0
-5065 -2350 0
-5065 1207 0
5066 -3070 913 1881 -1735 0
-5066 3070 0
-5066 -913 0
-5066 -1881 0
-5066 1735 0
5067 -2652 335 2363 -1379 0
-5067 2652 0
-5067 -335 0
-5067 -2363 0
-5067 1379 0
1250 -1249 0
-1250 1249 0
5068 -2810 495 2360 -1395 0
-5068 2810 0
-5068 -495 0
-5068 -2360 0
-5068 1395 0
5069 -2731 415 2348 -1387 0
-5069 2731 0
-5069 -415 0
-5069 -2348 0
-5069 1387 0
1170 -1169 0
-1170 1169 0
5070 -2573 255 2353 -1369 0
-5070 2573 0
-5070 -255 0
-5070 -2353 0
-5070 1369 0
5071 -3070 913 1881 -1769 0
-5071 3070 0
-5071 -913 0
-5071 -1881 0
-5071 1769 0
5072 -2482 171 2350 -1127 0
-5072 2482 0
-5072 -171 0
-5072 -2350 0
-5072 1127 0
5073 -2652 335 2363 -1377 0
-5073 2652 0
-5073 -335 0
-5073 -2363 0
-5073 1377 0
5074 -2731 415 2348 -1385 0
-5074 2731 0
-5074 -415 0
-5074 -2348 0
-5074 1385 0
5075 -2810 495 2360 -1393 0
-5075 2810 0
-5075 -495 0
-5075 -2360 0
-5075 1393 0
5076 -3070 913 1881 -1765 0
-5076 3070 0
-5076 -913 0
-5076 -1881 0
-5076 1765 0
5077 -2810 495 2360 -19 0
-5077 2810 0
-5077 -495 0
-5077 -2360 0
-5077 19 0
1328 -1327 0
-1328 1327 0
5078 -2482 171 2350 -3 0
-5078 2482 0
-5078 -171 0
-5078 -2350 0
-5078 3 0
5079 -2731 415 2348 -15 0
-5079 2731 0
-5079 -415 0
-5079 -2348 0
-5079 15 0
5080 -2652 335 2363 -11 0
-5080 2652 0
-5080 -335 0
-5080 -2363 0
-5080 11 0
5081 -2573 255 2353 -7 0
-5081 2573 0
-5081 -255 0
-5081 -2353 0
-5081 7 0
5082 -2694 377 2348 -1381 0
-5082 2694 0
-5082 -377 0
-5082 -2348 0
-5082 1381 0
5083 -2773 457 2360 -1389 0
-5083 2773 0
-5083 -457 0
-5083 -2360 0
-5083 1389 0
5084 -2615 297 2363 -1373 0
-5084 2615 0
-5084 -297 0
-5084 -2363 0
-5084 1373 0
5085 -2536 217 2353 -1365 0
-5085 2536 0
-5085 -217 0
-5085 -2353 0
-5085 1365 0
5086 -2918 665 1941 -1455 0
-5086 2918 0
-5086 -665 0
-5086 -1941 0
-5086 1455 0
988 -987 0
-988 987 0
5087 -2873 591 1914 -1757 0
-5087 2873 0
-5087 -591 0
-5087 -1914 0
-5087 1757 0
5088 -2400 97 2350 -967 0
-5088 2400 0
-5088 -97 0
-5088 -2350 0
-5088 967 0
5089 -2731 415 2348 -1381 0
-5089 2731 0
-5089 -415 0
-5089 -2348 0
-5089 1381 0
5090 -2652 335 2363 -1373 0
-5090 2652 0
-5090 -335 0
-5090 -2363 0
-5090 1373 0
5091 -2573 255 2353 -1365 0
-5091 2573 0
-5091 -255 0
-5091 -2353 0
-5091 1365 0
5092 -2810 495 2360 -1389 0
-5092 2810 0
-5092 -495 0
-5092 -2360 0
-5092 1389 0
1010 -1009 0
-1010 1009 0
5093 -3070 913 1881 -1759 0
-5093 3070 0
-5093 -913 0
-5093 -1881 0
-5093 1759 0
5094 -2482 171 2350 -967 0
-5094 2482 0
-5094 -171 0
-5094 -2350 0
-5094 967 0
5095 -1934 1935 -1573 0
-5095 1934 0
-5095 -1935 0
-5095 1573 0
5096 -1948 1949 -1693 0
-5096 1948 0
-5096 -1949 0
-5096 1693 0
5097 -2682 365 2348 -15 0
-5097 2682 0
-5097 -365 0
-5097 -2348 0
-5097 15 0
5098 -2524 205 2353 -7 0
-5098 2524 0
-5098 -205 0
-5098 -2353 0
-5098 7 0
5099 -2603 285 2363 -11 0
-5099 2603 0
-5099 -285 0
-5099 -2363 0
-5099 11 0
5100 -2761 445 2360 -19 0
-5100 2761 0
-5100 -445 0
-5100 -2360 0
-5100 19 0
5101 -2377 73 2350 -3 0
-5101 2377 0
-5101 -73 0
-5101 -2350 0
-5101 3 0
1346 -1345 0
-1346 1345 0
5102 -1846 1847 -1763 0
-5102 1846 0
-5102 -1847 0
-5102 1763 0
5103 -2787 471 2360 -1391 0
-5103 2787 0
-5103 -471 0
-5103 -2360 0
-5103 1391 0
5104 -1956 1957 -1525 0
-5104 1956 0
-5104 -1957 0
-5104 1525 0
5105 -1894 1895 -1743 0
-5105 1894 0
-5105 -1895 0
-5105 1743 0
1126 -1125 0
-1126 1125 0
5106 -2427 125 2350 -1047 0
-5106 2427 0
-5106 -125 0
-5106 -2350 0
-5106 1047 0
5107 -2629 311 2363 -1375 0
-5107 2629 0
-5107 -311 0
-5107 -2363 0
-5107 1375 0
5108 -2550 231 2353 -1367 0
-5108 2550 0
-5108 -231 0
-5108 -2353 0
-5108 1367 0
5109 -2708 391 2348 -1383 0
-5109 2708 0
-5109 -391 0
-5109 -2348 0
-5109 1383 0
5110 -2789 473 2360 -1393 0
-5110 2789 0
-5110 -473 0
-5110 -2360 0
-5110 1393 0
5111 -2829 523 1961 -1779 0
-5111 2829 0
-5111 -523 0
-5111 -1961 0
-5111 1779 0
5112 -2431 129 2350 -1127 0
-5112 2431 0
-5112 -129 0
-5112 -2350 0
-5112 1127 0
5113 -2631 313 2363 -1377 0
-5113 2631 0
-5113 -313 0
-5113 -2363 0
-5113 1377 0
5114 -2552 233 2353 -1369 0
-5114 2552 0
-5114 -233 0
-5114 -2353 0
-5114 1369 0
1168 -1167 0
-1168 1167 0
5115 -3061 899 1843 -1579 0
-5115 3061 0
-5115 -899 0
-5115 -1843 0
-5115 1579 0
5116 -2710 393 2348 -1385 0
-5116 2710 0
-5116 -393 0
-5116 -2348 0
-5116 1385 0
5117 -2631 313 2363 -1379 0
-5117 2631 0
-5117 -313 0
-5117 -2363 0
-5117 1379 0
5118 -2789 473 2360 -1395 0
-5118 2789 0
-5118 -473 0
-5118 -2360 0
-5118 1395 0
5119 -2552 233 2353 -1371 0
-5119 2552 0
-5119 -233 0
-5119 -2353 0
-5119 1371 0
5120 -2829 523 1961 -1777 0
-5120 2829 0
-5120 -523 0
-5120 -1961 0
-5120 1777 0
5121 -3061 899 1843 -1625 0
-5121 3061 0
-5121 -899 0
-5121 -1843 0
-5121 1625 0
1248 -1247 0
-1248 1247 0
5122 -2710 393 2348 -1387 0
-5122 2710 0
-5122 -393 0
-5122 -2348 0
-5122 1387 0
5123 -2431 129 2350 -1207 0
-5123 2431 0
-5123 -129 0
-5123 -2350 0
-5123 1207 0
1326 -1325 0
-1326 1325 0
5124 -2710 393 2348 -15 0
-5124 2710 0
-5124 -393 0
-5124 -2348 0
-5124 15 0
5125 -2552 233 2353 -7 0
-5125 2552 0
-5125 -233 0
-5125 -2353 0
-5125 7 0
5126 -2631 313 2363 -11 0
-5126 2631 0
-5126 -313 0
-5126 -2363 0
-5126 11 0
5127 -2829 523 1961 -1781 0
-5127 2829 0
-5127 -523 0
-5127 -1961 0
-5127 1781 0
5128 -2431 129 2350 -3 0
-5128 2431 0
-5128 -129 0
-5128 -2350 0
-5128 3 0
5129 -3061 899 1843 -1527 0
-5129 3061 0
-5129 -899 0
-5129 -1843 0
-5129 1527 0
5130 -2789 473 2360 -19 0
-5130 2789 0
-5130 -473 0
-5130 -2360 0
-5130 19 0
5131 -2400 97 2350 -1047 0
-5131 2400 0
-5131 -97 0
-5131 -2350 0
-5131 1047 0
5132 -2918 665 1941 -1515 0
-5132 2918 0
-5132 -665 0
-5132 -1941 0
-5132 1515 0
5133 -2873 591 1914 -1761 0
-5133 2873 0
-5133 -591 0
-5133 -1914 0
-5133 1761 0
1068 -1067 0
-1068 1067 0
5134 -2694 377 2348 -1383 0
-5134 2694 0
-5134 -377 0
-5134 -2348 0
-5134 1383 0
5135 -2773 457 2360 -1391 0
-5135 2773 0
-5135 -457 0
-5135 -2360 0
-5135 1391 0
5136 -2615 297 2363 -1375 0
-5136 2615 0
-5136 -297 0
-5136 -2363 0
-5136 1375 0
5137 -2536 217 2353 -1367 0
-5137 2536 0
-5137 -217 0
-5137 -2353 0
-5137 1367 0
1360 -1359 0
-1360 1359 0
5138 -2544 225 2353 -7 0
-5138 2544 0
-5138 -225 0
-5138 -2353 0
-5138 7 0
5139 -2781 465 2360 -19 0
-5139 2781 0
-5139 -465 0
-5139 -2360 0
-5139 19 0
5140 -2702 385 2348 -15 0
-5140 2702 0
-5140 -385 0
-5140 -2348 0
-5140 15 0
5141 -3093 951 1911 -1795 0
-5141 3093 0
-5141 -951 0
-5141 -1911 0
-5141 1795 0
5142 -2623 305 2363 -11 0
-5142 2623 0
-5142 -305 0
-5142 -2363 0
-5142 11 0
5143 -2415 113 2350 -3 0
-5143 2415 0
-5143 -113 0
-5143 -2350 0
-5143 3 0
5144 -2534 215 2353 -1369 0
-5144 2534 0
-5144 -215 0
-5144 -2353 0
-5144 1369 0
5145 -2396 93 2350 -1127 0
-5145 2396 0
-5145 -93 0
-5145 -2350 0
-5145 1127 0
1136 -1135 0
-1136 1135 0
5146 -2613 295 2363 -1377 0
-5146 2613 0
-5146 -295 0
-5146 -2363 0
-5146 1377 0
5147 -2968 747 1964 -1593 0
-5147 2968 0
-5147 -747 0
-5147 -1964 0
-5147 1593 0
5148 -2692 375 2348 -1385 0
-5148 2692 0
-5148 -375 0
-5148 -2348 0
-5148 1385 0
5149 -1952 1953 -1767 0
-5149 1952 0
-5149 -1953 0
-5149 1767 0
5150 -2771 455 2360 -1393 0
-5150 2771 0
-5150 -455 0
-5150 -2360 0
-5150 1393 0
5151 -2573 255 2353 -1367 0
-5151 2573 0
-5151 -255 0
-5151 -2353 0
-5151 1367 0
5152 -2810 495 2360 -1391 0
-5152 2810 0
-5152 -495 0
-5152 -2360 0
-5152 1391 0
5153 -2482 171 2350 -1047 0
-5153 2482 0
-5153 -171 0
-5153 -2350 0
-5153 1047 0
5154 -3070 913 1881 -1789 0
-5154 3070 0
-5154 -913 0
-5154 -1881 0
-5154 1789 0
5155 -2652 335 2363 -1375 0
-5155 2652 0
-5155 -335 0
-5155 -2363 0
-5155 1375 0
1090 -1089 0
-1090 1089 0
5156 -2731 415 2348 -1383 0
-5156 2731 0
-5156 -415 0
-5156 -2348 0
-5156 1383 0
5157 -2968 747 1964 -1417 0
-5157 2968 0
-5157 -747 0
-5157 -1964 0
-5157 1417 0
5158 -1952 1953 -1749 0
-5158 1952 0
-5158 -1953 0
-5158 1749 0
5159 -3070 913 1881 -1755 0
-5159 3070 0
-5159 -913 0
-5159 -1881 0
-5159 1755 0
5160 -2307 21 3128 0
-5160 2307 0
-5160 -21 0
-5160 -3128 0
5161 -2415 113 2350 -1127 0
-5161 2415 0
-5161 -113 0
-5161 -2350 0
-5161 1127 0
5162 -2544 225 2353 -1369 0
-5162 2544 0
-5162 -225 0
-5162 -2353 0
-5162 1369 0
5163 -2781 465 2360 -1393 0
-5163 2781 0
-5163 -465 0
-5163 -2360 0
-5163 1393 0
5164 -2623 305 2363 -1377 0
-5164 2623 0
-5164 -305 0
-5164 -2363 0
-5164 1377 0
5165 -2702 385 2348 -1385 0
-5165 2702 0
-5165 -385 0
-5165 -2348 0
-5165 1385 0
1202 -1201 0
-1202 1201 0
5166 -3093 951 1911 -1791 0
-5166 3093 0
-5166 -951 0
-5166 -1911 0
-5166 1791 0
5167 -2534 215 2353 -1371 0
-5167 2534 0
-5167 -215 0
-5167 -2353 0
-5167 1371 0
5168 -2968 747 1964 -1637 0
-5168 2968 0
-5168 -747 0
-5168 -1964 0
-5168 1637 0
5169 -2613 295 2363 -1379 0
-5169 2613 0
-5169 -295 0
-5169 -2363 0
-5169 1379 0
5170 -1952 1953 -1775 0
-5170 1952 0
-5170 -1953 0
-5170 1775 0
5171 -2396 93 2350 -1207 0
-5171 2396 0
-5171 -93 0
-5171 -2350 0
-5171 1207 0
5172 -2771 455 2360 -1395 0
-5172 2771 0
-5172 -455 0
-5172 -2360 0
-5172 1395 0
5173 -2692 375 2348 -1387 0
-5173 2692 0
-5173 -375 0
-5173 -2348 0
-5173 1387 0
1216 -1215 0
-1216 1215 0
5174 -1934 1935 -1665 0
-5174 1934 0
-5174 -1935 0
-5174 1665 0
5175 -1846 1847 -1805 0
-5175 1846 0
-5175 -1847 0
-5175 1805 0
5176 -1948 1949 -1747 0
-5176 1948 0
-5176 -1949 0
-5176 1747 0
5177 -2544 225 2353 -1371 0
-5177 2544 0
-5177 -225 0
-5177 -2353 0
-5177 1371 0
5178 -2781 465 2360 -1395 0
-5178 2781 0
-5178 -465 0
-5178 -2360 0
-5178 1395 0
5179 -3093 951 1911 -1793 0
-5179 3093 0
-5179 -951 0
-5179 -1911 0
-5179 1793 0
5180 -2623 305 2363 -1379 0
-5180 2623 0
-5180 -305 0
-5180 -2363 0
-5180 1379 0
5181 -2415 113 2350 -1207 0
-5181 2415 0
-5181 -113 0
-5181 -2350 0
-5181 1207 0
5182 -2702 385 2348 -1387 0
-5182 2702 0
-5182 -385 0
-5182 -2348 0
-5182 1387 0
1282 -1281 0
-1282 1281 0
5183 -2534 215 2353 -1365 0
-5183 2534 0
-5183 -215 0
-5183 -2353 0
-5183 1365 0
5184 -2968 747 1964 -1475 0
-5184 2968 0
-5184 -747 0
-5184 -1964 0
-5184 1475 0
5185 -2396 93 2350 -967 0
-5185 2396 0
-5185 -93 0
-5185 -2350 0
-5185 967 0
976 -975 0
-976 975 0
5186 -2613 295 2363 -1373 0
-5186 2613 0
-5186 -295 0
-5186 -2363 0
-5186 1373 0
5187 -2771 455 2360 -1389 0
-5187 2771 0
-5187 -455 0
-5187 -2360 0
-5187 1389 0
5188 -1952 1953 -1783 0
-5188 1952 0
-5188 -1953 0
-5188 1783 0
5189 -2692 375 2348 -1381 0
-5189 2692 0
-5189 -375 0
-5189 -2348 0
-5189 1381 0
5190 -1846 1847 -1801 0
-5190 1846 0
-5190 -1847 0
-5190 1801 0
5191 -1948 1949 -1741 0
-5191 1948 0
-5191 -1949 0
-5191 1741 0
1188 -1187 0
-1188 1187 0
5192 -2682 365 2348 -1385 0
-5192 2682 0
-5192 -365 0
-5192 -2348 0
-5192 1385 0
5193 -2524 205 2353 -1369 0
-5193 2524 0
-5193 -205 0
-5193 -2353 0
-5193 1369 0
5194 -2761 445 2360 -1393 0
-5194 2761 0
-5194 -445 0
-5194 -2360 0
-5194 1393 0
5195 -1934 1935 -1711 0
-5195 1934 0
-5195 -1935 0
-5195 1711 0
5196 -2377 73 2350 -1127 0
-5196 2377 0
-5196 -73 0
-5196 -2350 0
-5196 1127 0
5197 -2603 285 2363 -1377 0
-5197 2603 0
-5197 -285 0
-5197 -2363 0
-5197 1377 0
5198 -2431 129 2350 -967 0
-5198 2431 0
-5198 -129 0
-5198 -2350 0
-5198 967 0
5199 -2789 473 2360 -1389 0
-5199 2789 0
-5199 -473 0
-5199 -2360 0
-5199 1389 0
5200 -2710 393 2348 -1381 0
-5200 2710 0
-5200 -393 0
-5200 -2348 0
-5200 1381 0
1008 -1007 0
-1008 1007 0
5201 -2829 523 1961 -1785 0
-5201 2829 0
-5201 -523 0
-5201 -1961 0
-5201 1785 0
5202 -2631 313 2363 -1373 0
-5202 2631 0
-5202 -313 0
-5202 -2363 0
-5202 1373 0
5203 -3061 899 1843 -1457 0
-5203 3061 0
-5203 -899 0
-5203 -1843 0
-5203 1457 0
5204 -2552 233 2353 -1365 0
-5204 2552 0
-5204 -233 0
-5204 -2353 0
-5204 1365 0
5205 -2359 437 2360 -1395 0
-5205 2359 0
-5205 -437 0
-5205 -2360 0
-5205 1395 0
5206 -2347 357 2348 -1387 0
-5206 2347 0
-5206 -357 0
-5206 -2348 0
-5206 1387 0
1222 -1221 0
-1222 1221 0
5207 -2352 197 2353 -1371 0
-5207 2352 0
-5207 -197 0
-5207 -2353 0
-5207 1371 0
5208 -2355 887 1928 -1815 0
-5208 2355 0
-5208 -887 0
-5208 -1928 0
-5208 1815 0
5209 -1877 1878 -1633 0
-5209 1877 0
-5209 -1878 0
-5209 1633 0
5210 -2345 57 2350 -1207 0
-5210 2345 0
-5210 -57 0
-5210 -2350 0
-5210 1207 0
5211 -2362 277 2363 -1379 0
-5211 2362 0
-5211 -277 0
-5211 -2363 0
-5211 1379 0
1028 -1027 0
-1028 1027 0
5212 -2524 205 2353 -1365 0
-5212 2524 0
-5212 -205 0
-5212 -2353 0
-5212 1365 0
5213 -1846 1847 -1817 0
-5213 1846 0
-5213 -1847 0
-5213 1817 0
5214 -2682 365 2348 -1381 0
-5214 2682 0
-5214 -365 0
-5214 -2348 0
-5214 1381 0
5215 -1948 1949 -1685 0
-5215 1948 0
-5215 -1949 0
-5215 1685 0
5216 -2377 73 2350 -967 0
-5216 2377 0
-5216 -73 0
-5216 -2350 0
-5216 967 0
5217 -2603 285 2363 -1373 0
-5217 2603 0
-5217 -285 0
-5217 -2363 0
-5217 1373 0
5218 -1934 1935 -1687 0
-5218 1934 0
-5218 -1935 0
-5218 1687 0
5219 -2761 445 2360 -1389 0
-5219 2761 0
-5219 -445 0
-5219 -2360 0
-5219 1389 0
1042 -1041 0
-1042 1041 0
5220 -2702 385 2348 -1381 0
-5220 2702 0
-5220 -385 0
-5220 -2348 0
-5220 1381 0
5221 -3093 951 1911 -1821 0
-5221 3093 0
-5221 -951 0
-5221 -1911 0
-5221 1821 0
5222 -2544 225 2353 -1365 0
-5222 2544 0
-5222 -225 0
-5222 -2353 0
-5222 1365 0
5223 -2415 113 2350 -967 0
-5223 2415 0
-5223 -113 0
-5223 -2350 0
-5223 967 0
5224 -2623 305 2363 -1373 0
-5224 2623 0
-5224 -305 0
-5224 -2363 0
-5224 1373 0
5225 -2781 465 2360 -1389 0
-5225 2781 0
-5225 -465 0
-5225 -2360 0
-5225 1389 0
1056 -1055 0
-1056 1055 0
5226 -2968 747 1964 -1535 0
-5226 2968 0
-5226 -747 0
-5226 -1964 0
-5226 1535 0
5227 -2534 215 2353 -1367 0
-5227 2534 0
-5227 -215 0
-5227 -2353 0
-5227 1367 0
5228 -1952 1953 -1797 0
-5228 1952 0
-5228 -1953 0
-5228 1797 0
5229 -2613 295 2363 -1375 0
-5229 2613 0
-5229 -295 0
-5229 -2363 0
-5229 1375 0
5230 -2692 375 2348 -1383 0
-5230 2692 0
-5230 -375 0
-5230 -2348 0
-5230 1383 0
5231 -2771 455 2360 -1391 0
-5231 2771 0
-5231 -455 0
-5231 -2360 0
-5231 1391 0
5232 -2396 93 2350 -1047 0
-5232 2396 0
-5232 -93 0
-5232 -2350 0
-5232 1047 0
5233 -2829 523 1961 -1807 0
-5233 2829 0
-5233 -523 0
-5233 -1961 0
-5233 1807 0
5234 -3061 899 1843 -1405 0
-5234 3061 0
-5234 -899 0
-5234 -1843 0
-5234 1405 0
5235 -2631 313 2363 -1375 0
-5235 2631 0
-5235 -313 0
-5235 -2363 0
-5235 1375 0
5236 -2789 473 2360 -1391 0
-5236 2789 0
-5236 -473 0
-5236 -2360 0
-5236 1391 0
5237 -2552 233 2353 -1367 0
-5237 2552 0
-5237 -233 0
-5237 -2353 0
-5237 1367 0
5238 -2710 393 2348 -1383 0
-5238 2710 0
-5238 -393 0
-5238 -2348 0
-5238 1383 0
1088 -1087 0
-1088 1087 0
5239 -2829 523 1961 -1803 0
-5239 2829 0
-5239 -523 0
-5239 -1961 0
-5239 1803 0
5240 -3061 899 1843 -1519 0
-5240 3061 0
-5240 -899 0
-5240 -1843 0
-5240 1519 0
5241 -2431 129 2350 -1047 0
-5241 2431 0
-5241 -129 0
-5241 -2350 0
-5241 1047 0
1108 -1107 0
-1108 1107 0
5242 -1934 1935 -1699 0
-5242 1934 0
-5242 -1935 0
-5242 1699 0
5243 -2603 285 2363 -1375 0
-5243 2603 0
-5243 -285 0
-5243 -2363 0
-5243 1375 0
5244 -2377 73 2350 -1047 0
-5244 2377 0
-5244 -73 0
-5244 -2350 0
-5244 1047 0
5245 -2682 365 2348 -1383 0
-5245 2682 0
-5245 -365 0
-5245 -2348 0
-5245 1383 0
5246 -2761 445 2360 -1391 0
-5246 2761 0
-5246 -445 0
-5246 -2360 0
-5246 1391 0
5247 -1846 1847 -1829 0
-5247 1846 0
-5247 -1847 0
-5247 1829 0
5248 -2524 205 2353 -1367 0
-5248 2524 0
-5248 -205 0
-5248 -2353 0
-5248 1367 0
5249 -1948 1949 -1697 0
-5249 1948 0
-5249 -1949 0
-5249 1697 0
5250 -1877 1878 -1413 0
-5250 1877 0
-5250 -1878 0
-5250 1413 0
5251 -1970 1971 -1813 0
-5251 1970 0
-5251 -1971 0
-5251 1813 0
5252 -2781 465 2360 -1391 0
-5252 2781 0
-5252 -465 0
-5252 -2360 0
-5252 1391 0
1122 -1121 0
-1122 1121 0
5253 -3093 951 1911 -1833 0
-5253 3093 0
-5253 -951 0
-5253 -1911 0
-5253 1833 0
5254 -2623 305 2363 -1375 0
-5254 2623 0
-5254 -305 0
-5254 -2363 0
-5254 1375 0
5255 -2415 113 2350 -1047 0
-5255 2415 0
-5255 -113 0
-5255 -2350 0
-5255 1047 0
5256 -2702 385 2348 -1383 0
-5256 2702 0
-5256 -385 0
-5256 -2348 0
-5256 1383 0
5257 -2544 225 2353 -1367 0
-5257 2544 0
-5257 -225 0
-5257 -2353 0
-5257 1367 0
-5258 1841 1909 0
5258 -1841 0
5258 -1909 0
-5259 2012 2020 0
5259 -2012 0
5259 -2020 0
-5260 2080 2086 0
5260 -2080 0
5260 -2086 0
-5261 1406 3164 0
5261 -1406 0
5261 -3164 0
-5262 2176 2192 0
5262 -2176 0
5262 -2192 0
-5263 2240 2260 0
5263 -2240 0
5263 -2260 0
-5264 3202 3213 0
5264 -3202 0
5264 -3213 0
-5265 3257 1458 0
5265 -3257 0
5265 -1458 0
-5266 3293 3313 0
5266 -3293 0
5266 -3313 0
-5267 3342 1520 0
5267 -3342 0
5267 -1520 0
-124 1528 2420 0
124 -1528 0
124 -2420 0
-5268 3371 3382 0
5268 -3371 0
5268 -3382 0
-5269 3055 3056 0
5269 -3055 0
5269 -3056 0
-5270 3057 894 0
5270 -3057 0
5270 -894 0
-5271 3058 896 0
5271 -3058 0
5271 -896 0
-5272 898 3059 0
5272 -898 0
5272 -3059 0
-5273 3515 3519 0
5273 -3515 0
5273 -3519 0
-5274 3568 3581 0
5274 -3568 0
5274 -3581 0
-5275 3599 3617 0
5275 -3599 0
5275 -3617 0
-5276 3632 3635 0
5276 -3632 0
5276 -3635 0
-5277 3671 3675 0
5277 -3671 0
5277 -3675 0
-5278 3721 3730 0
5278 -3721 0
5278 -3730 0
-5279 3774 3777 0
5279 -3774 0
5279 -3777 0
-5280 3788 3820 0
5280 -3788 0
5280 -3820 0
-5281 3836 3845 0
5281 -3836 0
5281 -3845 0
-5282 3891 3900 0
5282 -3891 0
5282 -3900 0
-5283 3923 3931 0
5283 -3923 0
5283 -3931 0
-5284 3954 3957 0
5284 -3954 0
5284 -3957 0
-5285 3992 4020 0
5285 -3992 0
5285 -4020 0
-5286 4037 4038 0
5286 -4037 0
5286 -4038 0
-5287 4074 4086 0
5287 -4074 0
5287 -4086 0
-5288 4118 4121 0
5288 -4118 0
5288 -4121 0
-5289 3086 3087 0
5289 -3086 0
5289 -3087 0
-5290 944 3088 0
5290 -944 0
5290 -3088 0
-5291 3089 946 0
5291 -3089 0
5291 -946 0
-5292 948 3090 0
5292 -948 0
5292 -3090 0
-5293 3091 950 0
5293 -3091 0
5293 -950 0
-5294 3132 3141 0
5294 -3132 0
5294 -3141 0
-5295 4415 4416 0
5295 -4415 0
5295 -4416 0
-5296 310 2626 0
5296 -310 0
5296 -2626 0
-5297 2628 312 0
5297 -2628 0
5297 -312 0
-5298 314 2630 0
5298 -314 0
5298 -2630 0
-5299 4485 4486 0
5299 -4485 0
5299 -4486 0
-5300 4623 4624 0
5300 -4623 0
5300 -4624 0
-5301 2426 126 0
5301 -2426 0
5301 -126 0
-5302 130 2430 0
5302 -130 0
5302 -2430 0
-5303 392 2707 0
5303 -392 0
5303 -2707 0
-5304 2709 394 0
5304 -2709 0
5304 -394 0
-5305 4950 4953 4954 4955 0
5305 -4950 0
5305 -4953 0
5305 -4954 0
5305 -4955 0
-5306 5003 5004 5005 5008 0
5306 -5003 0
5306 -5004 0
5306 -5005 0
5306 -5008 0
-5307 5025 5026 5027 5028 0
5307 -5025 0
5307 -5026 0
5307 -5027 0
5307 -5028 0
-5308 5039 5040 5042 5043 0
5308 -5039 0
5308 -5040 0
5308 -5042 0
5308 -5043 0
-5309 5103 5106 5107 5109 0
5309 -5103 0
5309 -5106 0
5309 -5107 0
5309 -5109 0
-5310 5110 5111 5112 5113 5114 1168 5115 5116 0
5310 -5110 0
5310 -5111 0
5310 -5112 0
5310 -5113 0
5310 -5114 0
5310 -1168 0
5310 -5115 0
5310 -5116 0
-5311 5117 5118 5119 5120 5121 5122 5123 0
5311 -5117 0
5311 -5118 0
5311 -5119 0
5311 -5120 0
5311 -5121 0
5311 -5122 0
5311 -5123 0
-5312 1326 5124 5125 5126 5127 5128 5129 5130 0
5312 -1326 0
5312 -5124 0
5312 -5125 0
5312 -5126 0
5312 -5127 0
5312 -5128 0
5312 -5129 0
5312 -5130 0
-5313 5198 5199 5200 1008 5201 5202 5203 5204 0
5313 -5198 0
5313 -5199 0
5313 -5200 0
5313 -1008 0
5313 -5201 0
5313 -5202 0
5313 -5203 0
5313 -5204 0
-5314 5233 5234 0
5314 -5233 0
5314 -5234 0
-5315 5235 5236 5237 5238 1088 5239 5240 5241 0
5315 -5235 0
5315 -5236 0
5315 -5237 0
5315 -5238 0
5315 -1088 0
5315 -5239 0
5315 -5240 0
5315 -5241 0
-902 900 3060 0
902 -900 0
902 -3060 0
-5316 2784 470 0
5316 -2784 0
5316 -470 0
-5317 2786 472 0
5317 -2786 0
5317 -472 0
-5318 474 2788 0
5318 -474 0
5318 -2788 0
-5319 4163 4166 0
5319 -4163 0
5319 -4166 0
-5320 4318 4319 0
5320 -4318 0
5320 -4319 0
-5321 3092 952 0
5321 -3092 0
5321 -952 0
-5322 220 2537 0
5322 -220 0
5322 -2537 0
-5323 222 2539 0
5323 -222 0
5323 -2539 0
-5324 224 2541 0
5324 -224 0
5324 -2541 0
-5325 2547 230 0
5325 -2547 0
5325 -230 0
-5326 2543 226 0
5326 -2543 0
5326 -226 0
-5327 228 2545 0
5327 -228 0
5327 -2545 0
-5328 2549 232 0
5328 -2549 0
5328 -232 0
-5329 2695 380 0
5329 -2695 0
5329 -380 0
-5330 382 2697 0
5330 -382 0
5330 -2697 0
-5331 2699 384 0
5331 -2699 0
5331 -384 0
-5332 2701 386 0
5332 -2701 0
5332 -386 0
-5333 2703 388 0
5333 -2703 0
5333 -388 0
-5334 390 2705 0
5334 -390 0
5334 -2705 0
-5335 2403 102 0
5335 -2403 0
5335 -102 0
-5336 2407 106 0
5336 -2407 0
5336 -106 0
-5337 2411 110 0
5337 -2411 0
5337 -110 0
-5338 114 2414 0
5338 -114 0
5338 -2414 0
-5339 2418 118 0
5339 -2418 0
5339 -118 0
-5340 2422 122 0
5340 -2422 0
5340 -122 0
-5341 2616 300 0
5341 -2616 0
5341 -300 0
-5342 2618 302 0
5342 -2618 0
5342 -302 0
-5343 2620 304 0
5343 -2620 0
5343 -304 0
-5344 306 2622 0
5344 -306 0
5344 -2622 0
-5345 2624 308 0
5345 -2624 0
5345 -308 0
-5346 460 2774 0
5346 -460 0
5346 -2774 0
-5347 2776 462 0
5347 -2776 0
5347 -462 0
-5348 2778 464 0
5348 -2778 0
5348 -464 0
-5349 2780 466 0
5349 -2780 0
5349 -466 0
-5350 468 2782 0
5350 -468 0
5350 -2782 0
-5351 4348 4351 4350 4352 4349 0
5351 -4348 0
5351 -4351 0
5351 -4350 0
5351 -4352 0
5351 -4349 0
-5352 4361 4358 4362 4360 4359 0
5352 -4361 0
5352 -4358 0
5352 -4362 0
5352 -4360 0
5352 -4359 0
-5353 4364 4368 4363 4365 4367 0
5353 -4364 0
5353 -4368 0
5353 -4363 0
5353 -4365 0
5353 -4367 0
-5354 4377 4380 4379 4381 4378 0
5354 -4377 0
5354 -4380 0
5354 -4379 0
5354 -4381 0
5354 -4378 0
-5355 1092 4385 4382 4383 4386 4384 0
5355 -1092 0
5355 -4385 0
5355 -4382 0
5355 -4383 0
5355 -4386 0
5355 -4384 0
-5356 4405 4408 4407 4409 4406 1330 0
5356 -4405 0
5356 -4408 0
5356 -4407 0
5356 -4409 0
5356 -4406 0
5356 -1330 0
-5357 5295 4417 4419 4418 0
5357 -5295 0
5357 -4417 0
5357 -4419 0
5357 -4418 0
-5358 5299 4482 4483 4484 0
5358 -5299 0
5358 -4482 0
5358 -4483 0
5358 -4484 0
-5359 4516 4514 4512 4515 4513 0
5359 -4516 0
5359 -4514 0
5359 -4512 0
5359 -4515 0
5359 -4513 0
-5360 1172 4541 4542 4543 4544 4545 0
5360 -1172 0
5360 -4541 0
5360 -4542 0
5360 -4543 0
5360 -4544 0
5360 -4545 0
-5361 3247 3252 3251 3249 3246 0
5361 -3247 0
5361 -3252 0
5361 -3251 0
5361 -3249 0
5361 -3246 0
-5362 5300 4622 4621 4625 0
5362 -5300 0
5362 -4622 0
5362 -4621 0
5362 -4625 0
-5363 4646 4649 4648 4650 4647 0
5363 -4646 0
5363 -4649 0
5363 -4648 0
5363 -4650 0
5363 -4647 0
-5364 4665 4667 4663 4666 4664 1252 0
5364 -4665 0
5364 -4667 0
5364 -4663 0
5364 -4666 0
5364 -4664 0
5364 -1252 0
-5365 4744 4743 4742 4740 4739 0
5365 -4744 0
5365 -4743 0
5365 -4742 0
5365 -4740 0
5365 -4739 0
-5366 4750 4753 4751 4752 4749 0
5366 -4750 0
5366 -4753 0
5366 -4751 0
5366 -4752 0
5366 -4749 0
-5367 4851 4852 4847 4850 4848 0
5367 -4851 0
5367 -4852 0
5367 -4847 0
5367 -4850 0
5367 -4848 0
-5368 4886 4890 4888 4887 4891 0
5368 -4886 0
5368 -4890 0
5368 -4888 0
5368 -4887 0
5368 -4891 0
-5369 4897 4896 4895 4893 4892 0
5369 -4897 0
5369 -4896 0
5369 -4895 0
5369 -4893 0
5369 -4892 0
-5370 4919 4921 4918 4920 4922 0
5370 -4919 0
5370 -4921 0
5370 -4918 0
5370 -4920 0
5370 -4922 0
-5371 4944 4948 4946 4947 4945 0
5371 -4944 0
5371 -4948 0
5371 -4946 0
5371 -4947 0
5371 -4945 0
-5372 5305 4956 0
5372 -5305 0
5372 -4956 0
-5373 5306 5007 0
5373 -5306 0
5373 -5007 0
-5374 3433 1580 0
5374 -3433 0
5374 -1580 0
-5375 5307 5024 0
5375 -5307 0
5375 -5024 0
-5376 5308 5038 0
5376 -5308 0
5376 -5038 0
-5377 5309 5108 0
5377 -5309 0
5377 -5108 0
-5378 5311 1248 0
5378 -5311 0
5378 -1248 0
-5379 5141 5138 5140 5143 5142 5139 0
5379 -5141 0
5379 -5138 0
5379 -5140 0
5379 -5143 0
5379 -5142 0
5379 -5139 0
-5380 5166 5162 5165 5161 5164 5163 0
5380 -5166 0
5380 -5162 0
5380 -5165 0
5380 -5161 0
5380 -5164 0
5380 -5163 0
-5381 5179 5177 5182 5181 5180 5178 0
5381 -5179 0
5381 -5177 0
5381 -5182 0
5381 -5181 0
5381 -5180 0
5381 -5178 0
-5382 5221 5222 5220 5223 5224 5225 0
5382 -5221 0
5382 -5222 0
5382 -5220 0
5382 -5223 0
5382 -5224 0
5382 -5225 0
-5383 5253 5257 5256 5255 5254 5252 0
5383 -5253 0
5383 -5257 0
5383 -5256 0
5383 -5255 0
5383 -5254 0
5383 -5252 0
-5384 3478 1626 0
5384 -3478 0
5384 -1626 0
-5385 2551 234 0
5385 -2551 0
5385 -234 0
-5386 5319 4165 4164 4167 0
5386 -5319 0
5386 -4165 0
5386 -4164 0
5386 -4167 0
-5387 4190 4189 4191 4188 4192 0
5387 -4190 0
5387 -4189 0
5387 -4191 0
5387 -4188 0
5387 -4192 0
-5388 1012 4217 4218 4216 4219 4215 0
5388 -1012 0
5388 -4217 0
5388 -4218 0
5388 -4216 0
5388 -4219 0
5388 -4215 0
-5389 5320 4322 4321 4320 0
5389 -5320 0
5389 -4322 0
5389 -4321 0
5389 -4320 0
-5390 1879 1954 1958 0
5390 -1879 0
5390 -1954 0
5390 -1958 0
-5391 1994 2048 2056 0
5391 -1994 0
5391 -2048 0
5391 -2056 0
-5392 2100 2126 2130 0
5392 -2100 0
5392 -2126 0
5392 -2130 0
-5393 3163 1808 0
5393 -3163 0
5393 -1808 0
-5394 2204 2206 2210 0
5394 -2204 0
5394 -2206 0
5394 -2210 0
-5395 1412 3167 0
5395 -1412 0
5395 -3167 0
-5396 2232 2268 2298 0
5396 -2232 0
5396 -2268 0
5396 -2298 0
-28 2308 1782 0
28 -2308 0
28 -1782 0
-5397 1756 3183 0
5397 -1756 0
5397 -3183 0
-5398 3187 3198 3215 0
5398 -3187 0
5398 -3198 0
5398 -3215 0
-5399 1786 3256 0
5399 -1786 0
5399 -3256 0
-5400 3260 1466 0
5400 -3260 0
5400 -1466 0
-5401 3274 1760 0
5401 -3274 0
5401 -1760 0
-5402 3287 3290 3305 0
5402 -3287 0
5402 -3290 0
5402 -3305 0
-5403 1804 3341 0
5403 -1804 0
5403 -3341 0
-5404 1526 3345 0
5404 -1526 0
5404 -3345 0
-132 2428 1766 0
132 -2428 0
132 -1766 0
-5405 1790 3365 0
5405 -1790 0
5405 -3365 0
-5406 3366 3370 3384 0
5406 -3366 0
5406 -3370 0
5406 -3384 0
-5407 1780 3432 0
5407 -1780 0
5407 -3432 0
-174 2479 1728 0
174 -2479 0
174 -1728 0
-5408 1586 3436 0
5408 -1586 0
5408 -3436 0
-5409 3456 1770 0
5409 -3456 0
5409 -1770 0
-5410 1778 3477 0
5410 -1778 0
5410 -3477 0
-5411 3481 1632 0
5411 -3481 0
5411 -1632 0
-5412 3509 1736 0
5412 -3509 0
5412 -1736 0
-5413 3532 3537 3546 0
5413 -3532 0
5413 -3537 0
5413 -3546 0
-5414 3556 3558 3561 0
5414 -3556 0
5414 -3558 0
5414 -3561 0
-5415 3592 3620 3623 0
5415 -3592 0
5415 -3620 0
5415 -3623 0
-5416 3651 3654 3663 0
5416 -3651 0
5416 -3654 0
5416 -3663 0
-5417 3682 3695 3700 0
5417 -3682 0
5417 -3695 0
5417 -3700 0
-5418 3724 3737 3745 0
5418 -3724 0
5418 -3737 0
5418 -3745 0
-5419 3760 3762 3784 0
5419 -3760 0
5419 -3762 0
5419 -3784 0
-5420 3796 3803 3823 0
5420 -3796 0
5420 -3803 0
5420 -3823 0
-5421 3851 3852 3854 0
5421 -3851 0
5421 -3852 0
5421 -3854 0
-5422 3867 3872 3898 0
5422 -3867 0
5422 -3872 0
5422 -3898 0
-5423 3910 3937 3938 0
5423 -3910 0
5423 -3937 0
5423 -3938 0
-5424 3961 3962 3971 0
5424 -3961 0
5424 -3962 0
5424 -3971 0
-5425 3996 4010 4016 0
5425 -3996 0
5425 -4010 0
5425 -4016 0
-5426 4030 4035 4042 0
5426 -4030 0
5426 -4035 0
5426 -4042 0
-5427 4066 4072 4091 0
5427 -4066 0
5427 -4072 0
5427 -4091 0
-5428 4101 4111 4119 0
5428 -4101 0
5428 -4111 0
5428 -4119 0
-5429 4951 1286 0
5429 -4951 0
5429 -1286 0
-5430 1046 5009 0
5430 -1046 0
5430 -5009 0
-5431 5029 1364 0
5431 -5029 0
5431 -1364 0
-5432 5037 1206 0
5432 -5037 0
5432 -1206 0
-5433 5066 1250 0
5433 -5066 0
5433 -1250 0
-5434 1170 5071 0
5434 -1170 0
5434 -5071 0
-5435 5076 1328 0
5435 -5076 0
5435 -1328 0
-5436 1010 5093 0
5436 -1010 0
5436 -5093 0
-5437 5104 1126 0
5437 -5104 0
5437 -1126 0
-5438 5154 1090 0
5438 -5154 0
5438 -1090 0
-5439 3062 3063 0
5439 -3062 0
5439 -3063 0
-5440 904 3064 0
5440 -904 0
5440 -3064 0
-5441 906 3065 0
5441 -906 0
5441 -3065 0
-5442 908 3066 0
5442 -908 0
5442 -3066 0
-5443 3067 910 0
5443 -3067 0
5443 -910 0
-5444 912 3068 0
5444 -912 0
5444 -3068 0
-916 3069 914 0
916 -3069 0
916 -914 0
-5445 3071 3072 0
5445 -3071 0
5445 -3072 0
-5446 918 3073 0
5446 -918 0
5446 -3073 0
-5447 3074 920 0
5447 -3074 0
5447 -920 0
-5448 3075 922 0
5448 -3075 0
5448 -922 0
-5449 3076 924 0
5449 -3076 0
5449 -924 0
-928 926 3077 0
928 -926 0
928 -3077 0
-5450 2822 2823 0
5450 -2822 0
5450 -2823 0
-5451 2824 516 0
5451 -2824 0
5451 -516 0
-5452 2825 518 0
5452 -2825 0
5452 -518 0
-5453 2826 520 0
5453 -2826 0
5453 -520 0
-956 954 3094 0
956 -954 0
956 -3094 0
-5454 522 2827 0
5454 -522 0
5454 -2827 0
-528 2830 526 0
528 -2830 0
528 -526 0
-5455 3123 3126 3142 0
5455 -3123 0
5455 -3126 0
5455 -3142 0
-5456 1867 1903 1972 0
5456 -1867 0
5456 -1903 0
5456 -1972 0
-5457 1402 3157 0
5457 -1402 0
5457 -3157 0
-5458 3158 1404 0
5458 -3158 0
5458 -1404 0
-5459 1984 1992 2006 0
5459 -1984 0
5459 -1992 0
5459 -2006 0
-5460 2074 2098 2104 0
5460 -2074 0
5460 -2098 0
5460 -2104 0
-5461 4389 4392 0
5461 -4389 0
5461 -4392 0
-5462 2845 2846 0
5462 -2845 0
5462 -2846 0
-5463 550 2847 0
5463 -550 0
5463 -2847 0
-5464 552 2848 0
5464 -552 0
5464 -2848 0
-5465 2849 554 0
5465 -2849 0
5465 -554 0
-5466 2850 556 0
5466 -2850 0
5466 -556 0
-5467 2851 558 0
5467 -2851 0
5467 -558 0
-562 2852 560 0
562 -2852 0
562 -560 0
-5468 2854 2855 0
5468 -2854 0
5468 -2855 0
-5469 2856 564 0
5469 -2856 0
5469 -564 0
-5470 2857 566 0
5470 -2857 0
5470 -566 0
-5471 2858 568 0
5471 -2858 0
5471 -568 0
-572 2859 570 0
572 -2859 0
572 -570 0
-5472 2860 2861 0
5472 -2860 0
5472 -2861 0
-5473 574 2862 0
5473 -574 0
5473 -2862 0
-5474 576 2863 0
5474 -576 0
5474 -2863 0
-60 2342 1454 0
60 -2342 0
60 -1454 0
-5475 2864 578 0
5475 -2864 0
5475 -578 0
-582 2865 580 0
582 -2865 0
582 -580 0
-5476 3244 1448 0
5476 -3244 0
5476 -1448 0
-5477 3245 1450 0
5477 -3245 0
5477 -1450 0
-5478 4670 4671 0
5478 -4670 0
5478 -4671 0
-5479 2148 2174 2184 0
5479 -2148 0
5479 -2174 0
5479 -2184 0
-5480 3289 3302 3311 0
5480 -3289 0
5480 -3302 0
5480 -3311 0
-5481 2276 2292 2300 0
5481 -2276 0
5481 -2292 0
5481 -2300 0
-108 2405 1512 0
108 -2405 0
108 -1512 0
-5482 1508 3335 0
5482 -1508 0
5482 -3335 0
-5483 1510 3336 0
5483 -1510 0
5483 -3336 0
-5484 4764 4768 0
5484 -4764 0
5484 -4768 0
-5485 3383 3395 3397 0
5485 -3383 0
5485 -3395 0
5485 -3397 0
-5486 3426 1570 0
5486 -3426 0
5486 -1570 0
-5487 1572 3427 0
5487 -1572 0
5487 -3427 0
-5488 1620 3471 0
5488 -1620 0
5488 -3471 0
-5489 1622 3472 0
5489 -1622 0
5489 -3472 0
-5490 3189 3212 3214 0
5490 -3189 0
5490 -3212 0
5490 -3214 0
-5491 3511 3534 3540 0
5491 -3511 0
5491 -3534 0
5491 -3540 0
-5492 3559 3573 3588 0
5492 -3559 0
5492 -3573 0
5492 -3588 0
-5493 3591 3608 3626 0
5493 -3591 0
5493 -3608 0
5493 -3626 0
-5494 3628 3644 3653 0
5494 -3628 0
5494 -3644 0
5494 -3653 0
-5495 3668 3684 3686 0
5495 -3668 0
5495 -3684 0
5495 -3686 0
-5496 3722 3726 3744 0
5496 -3722 0
5496 -3726 0
5496 -3744 0
-5497 3746 3748 3771 0
5497 -3746 0
5497 -3748 0
5497 -3771 0
-5498 3785 3816 3822 0
5498 -3785 0
5498 -3816 0
5498 -3822 0
-5499 3835 3840 3863 0
5499 -3835 0
5499 -3840 0
5499 -3863 0
-5500 3869 3880 3884 0
5500 -3869 0
5500 -3880 0
5500 -3884 0
-5501 3908 3922 3927 0
5501 -3908 0
5501 -3922 0
5501 -3927 0
-5502 3963 3975 3977 0
5502 -3963 0
5502 -3975 0
5502 -3977 0
-5503 4000 4005 4011 0
5503 -4000 0
5503 -4005 0
5503 -4011 0
-5504 4023 4049 4059 0
5504 -4023 0
5504 -4049 0
5504 -4059 0
-5505 4061 4067 4094 0
5505 -4061 0
5505 -4067 0
5505 -4094 0
-5506 4103 4107 4131 0
5506 -4103 0
5506 -4107 0
5506 -4131 0
-5507 4138 4139 0
5507 -4138 0
5507 -4139 0
-5508 4221 4222 0
5508 -4221 0
5508 -4222 0
-5509 3108 3111 3139 0
5509 -3108 0
5509 -3111 0
5509 -3139 0
-5510 4546 4548 0
5510 -4546 0
5510 -4548 0
-5511 5390 5456 0
5511 -5390 0
5511 -5456 0
-5512 5391 5459 0
5512 -5391 0
5512 -5459 0
-5513 5392 5460 0
5513 -5392 0
5513 -5460 0
-5514 5461 1094 0
5514 -5461 0
5514 -1094 0
-5515 3165 1408 0
5515 -3165 0
5515 -1408 0
-5516 5394 5479 0
5516 -5394 0
5516 -5479 0
-5517 1098 4401 0
5517 -1098 0
5517 -4401 0
-5518 5396 5481 0
5518 -5396 0
5518 -5481 0
-5519 5398 5490 0
5519 -5398 0
5519 -5490 0
-40 2322 1680 0
40 -2322 0
40 -1680 0
-5520 5510 1174 0
5520 -5510 0
5520 -1174 0
-5521 1178 4561 0
5521 -1178 0
5521 -4561 0
-5522 3258 1460 0
5522 -3258 0
5522 -1460 0
-5523 5478 1254 0
5523 -5478 0
5523 -1254 0
-5524 1258 4682 0
5524 -1258 0
5524 -4682 0
-5525 5402 5480 0
5525 -5402 0
5525 -5480 0
-5526 5484 1332 0
5526 -5484 0
5526 -1332 0
-5527 3343 1522 0
5527 -3343 0
5527 -1522 0
-5528 5406 5485 0
5528 -5406 0
5528 -5485 0
-5529 1336 4925 0
5529 -1336 0
5529 -4925 0
-5530 3434 1582 0
5530 -3434 0
5530 -1582 0
-5531 3479 1628 0
5531 -3479 0
5531 -1628 0
-5532 5413 5491 0
5532 -5413 0
5532 -5491 0
-5533 5414 5492 0
5533 -5414 0
5533 -5492 0
-5534 5415 5493 0
5534 -5415 0
5534 -5493 0
-5535 5416 5494 0
5535 -5416 0
5535 -5494 0
-5536 5417 5495 0
5536 -5417 0
5536 -5495 0
-5537 5418 5496 0
5537 -5418 0
5537 -5496 0
-5538 5419 5497 0
5538 -5419 0
5538 -5497 0
-5539 5420 5498 0
5539 -5420 0
5539 -5498 0
-5540 5421 5499 0
5540 -5421 0
5540 -5499 0
-5541 5422 5500 0
5541 -5422 0
5541 -5500 0
-5542 5423 5501 0
5542 -5423 0
5542 -5501 0
-5543 5424 5502 0
5543 -5424 0
5543 -5502 0
-5544 5425 5503 0
5544 -5425 0
5544 -5503 0
-5545 5426 5504 0
5545 -5426 0
5545 -5504 0
-5546 5427 5505 0
5546 -5427 0
5546 -5505 0
-5547 5428 5506 0
5547 -5428 0
5547 -5506 0
-5548 5508 1014 0
5548 -5508 0
5548 -1014 0
-5549 1018 4238 0
5549 -1018 0
5549 -4238 0
-5550 5455 5509 0
5550 -5455 0
5550 -5509 0
-5551 5258 5511 0
5551 -5258 0
5551 -5511 0
-5552 5351 1078 0
5552 -5351 0
5552 -1078 0
-5553 5259 5512 0
5553 -5259 0
5553 -5512 0
-5554 5352 1316 0
5554 -5352 0
5554 -1316 0
-5555 5260 5513 0
5555 -5260 0
5555 -5513 0
-5556 5262 5516 0
5556 -5262 0
5556 -5516 0
-5557 5263 5518 0
5557 -5263 0
5557 -5518 0
-5558 5264 5519 0
5558 -5264 0
5558 -5519 0
-5559 5359 1158 0
5559 -5359 0
5559 -1158 0
-5560 5363 1238 0
5560 -5363 0
5560 -1238 0
-5561 5266 5525 0
5561 -5266 0
5561 -5525 0
-5562 5268 5528 0
5562 -5268 0
5562 -5528 0
-5563 5372 5429 0
5563 -5372 0
5563 -5429 0
-5564 5373 5430 0
5564 -5373 0
5564 -5430 0
-5565 5375 5431 0
5565 -5375 0
5565 -5431 0
-5566 5376 5432 0
5566 -5376 0
5566 -5432 0
-5567 5377 5437 0
5567 -5377 0
5567 -5437 0
-5568 5273 5532 0
5568 -5273 0
5568 -5532 0
-5569 5274 5533 0
5569 -5274 0
5569 -5533 0
-5570 5275 5534 0
5570 -5275 0
5570 -5534 0
-5571 5276 5535 0
5571 -5276 0
5571 -5535 0
-5572 5277 5536 0
5572 -5277 0
5572 -5536 0
-5573 5278 5537 0
5573 -5278 0
5573 -5537 0
-5574 5279 5538 0
5574 -5279 0
5574 -5538 0
-5575 5280 5539 0
5575 -5280 0
5575 -5539 0
-5576 5281 5540 0
5576 -5281 0
5576 -5540 0
-5577 5282 5541 0
5577 -5282 0
5577 -5541 0
-5578 5283 5542 0
5578 -5283 0
5578 -5542 0
-5579 5284 5543 0
5579 -5284 0
5579 -5543 0
-5580 5285 5544 0
5580 -5285 0
5580 -5544 0
-5581 5286 5545 0
5581 -5286 0
5581 -5545 0
-5582 5287 5546 0
5582 -5287 0
5582 -5546 0
-5583 5288 5547 0
5583 -5288 0
5583 -5547 0
-5584 5387 998 0
5584 -5387 0
5584 -998 0
-5585 2828 524 0
5585 -2828 0
5585 -524 0
-5586 5294 5550 0
5586 -5294 0
5586 -5550 0
-5587 236 2553 0
5587 -236 0
5587 -2553 0
-5588 2555 238 0
5588 -2555 0
5588 -238 0
-5589 2557 240 0
5589 -2557 0
5589 -240 0
-5590 2559 242 0
5590 -2559 0
5590 -242 0
-5591 476 2790 0
5591 -476 0
5591 -2790 0
-5592 2792 478 0
5592 -2792 0
5592 -478 0
-5593 2794 480 0
5593 -2794 0
5593 -480 0
-5594 2796 482 0
5594 -2796 0
5594 -482 0
-5595 134 2434 0
5595 -134 0
5595 -2434 0
-5596 2438 138 0
5596 -2438 0
5596 -138 0
-5597 2442 142 0
5597 -2442 0
5597 -142 0
-5598 2446 146 0
5598 -2446 0
5598 -146 0
-5599 1892 1929 0
5599 -1892 0
5599 -1929 0
-5600 1986 2038 0
5600 -1986 0
5600 -2038 0
-5601 2064 2122 0
5601 -2064 0
5601 -2122 0
-5602 2154 2164 0
5602 -2154 0
5602 -2164 0
-5603 2230 2238 0
5603 -2230 0
5603 -2238 0
-5604 3194 3221 0
5604 -3194 0
5604 -3221 0
-5605 3228 1440 0
5605 -3228 0
5605 -1440 0
-5606 3280 3282 0
5606 -3280 0
5606 -3282 0
-5607 3319 1498 0
5607 -3319 0
5607 -1498 0
-622 620 2889 0
622 -620 0
622 -2889 0
-5608 4860 4865 0
5608 -4860 0
5608 -4865 0
-5609 3390 3402 0
5609 -3390 0
5609 -3402 0
-144 1552 2440 0
144 -1552 0
144 -2440 0
-5610 4933 4935 0
5610 -4933 0
5610 -4935 0
-5611 4938 4942 0
5611 -4938 0
5611 -4942 0
-5612 4957 4961 0
5612 -4957 0
5612 -4961 0
-5613 4980 4981 0
5613 -4980 0
5613 -4981 0
-5614 4993 4994 0
5614 -4993 0
5614 -4994 0
-5615 3529 3544 0
5615 -3529 0
5615 -3544 0
-5616 3550 3566 0
5616 -3550 0
5616 -3566 0
-5617 3613 3627 0
5617 -3613 0
5617 -3627 0
-5618 3645 3659 0
5618 -3645 0
5618 -3659 0
-5619 3697 3703 0
5619 -3697 0
5619 -3703 0
-5620 3708 3713 0
5620 -3708 0
5620 -3713 0
-5621 3758 3778 0
5621 -3758 0
5621 -3778 0
-5622 3805 3810 0
5622 -3805 0
5622 -3810 0
-5623 3824 3832 0
5623 -3824 0
5623 -3832 0
-5624 3873 3893 0
5624 -3873 0
5624 -3893 0
-5625 3911 3916 0
5625 -3911 0
5625 -3916 0
-5626 3949 3967 0
5626 -3949 0
5626 -3967 0
-5627 4015 4019 0
5627 -4015 0
5627 -4019 0
-5628 4026 4034 0
5628 -4026 0
5628 -4034 0
-5629 4075 4085 0
5629 -4075 0
5629 -4085 0
-5630 4115 4120 0
5630 -4115 0
5630 -4120 0
-5631 3078 3079 0
5631 -3078 0
5631 -3079 0
-5632 3080 930 0
5632 -3080 0
5632 -930 0
-5633 3081 932 0
5633 -3081 0
5633 -932 0
-5634 3082 934 0
5634 -3082 0
5634 -934 0
-5635 3083 936 0
5635 -3083 0
5635 -936 0
-5636 938 3084 0
5636 -938 0
5636 -3084 0
-942 3085 940 0
942 -3085 0
942 -940 0
-5637 3095 3096 0
5637 -3095 0
5637 -3096 0
-5638 958 3097 0
5638 -958 0
5638 -3097 0
-5639 3098 960 0
5639 -3098 0
5639 -960 0
-5640 3099 962 0
5640 -3099 0
5640 -962 0
-966 964 3100 0
966 -964 0
966 -3100 0
-5641 3105 3116 0
5641 -3105 0
5641 -3116 0
-5642 1662 3148 0
5642 -1662 0
5642 -3148 0
-5643 2632 316 0
5643 -2632 0
5643 -316 0
-5644 318 2634 0
5644 -318 0
5644 -2634 0
-5645 2636 320 0
5645 -2636 0
5645 -320 0
-5646 322 2638 0
5646 -322 0
5646 -2638 0
-5647 2711 396 0
5647 -2711 0
5647 -396 0
-5648 2713 398 0
5648 -2713 0
5648 -398 0
-5649 400 2715 0
5649 -400 0
5649 -2715 0
-5650 2717 402 0
5650 -2717 0
5650 -402 0
-5651 4339 4341 4338 4340 4342 0
5651 -4339 0
5651 -4341 0
5651 -4338 0
5651 -4340 0
5651 -4342 0
-5652 4397 4398 4395 4394 4396 0
5652 -4397 0
5652 -4398 0
5652 -4395 0
5652 -4394 0
5652 -4396 0
-5653 4464 4462 4465 4463 4466 0
5653 -4464 0
5653 -4462 0
5653 -4465 0
5653 -4463 0
5653 -4466 0
-5654 4471 4470 4469 4468 4467 1298 0
5654 -4471 0
5654 -4470 0
5654 -4469 0
5654 -4468 0
5654 -4467 0
5654 -1298 0
-5655 4477 4480 4479 4478 4481 0
5655 -4477 0
5655 -4480 0
5655 -4479 0
5655 -4478 0
5655 -4481 0
-5656 4491 4489 4488 1140 4490 4487 0
5656 -4491 0
5656 -4489 0
5656 -4488 0
5656 -1140 0
5656 -4490 0
5656 -4487 0
-5657 4503 4505 4504 4502 4506 0
5657 -4503 0
5657 -4505 0
5657 -4504 0
5657 -4502 0
5657 -4506 0
-5658 4556 4555 4557 4553 4554 0
5658 -4556 0
5658 -4555 0
5658 -4557 0
5658 -4553 0
5658 -4554 0
-5659 4626 4630 4627 4628 4629 1220 0
5659 -4626 0
5659 -4630 0
5659 -4627 0
5659 -4628 0
5659 -4629 0
5659 -1220 0
-5660 4636 4637 4639 4640 4638 0
5660 -4636 0
5660 -4637 0
5660 -4639 0
5660 -4640 0
5660 -4638 0
-5661 4679 4678 4675 4676 4677 0
5661 -4679 0
5661 -4678 0
5661 -4675 0
5661 -4676 0
5661 -4677 0
-5662 4864 4861 4859 5608 4863 4862 1322 0
5662 -4864 0
5662 -4861 0
5662 -4859 0
5662 -5608 0
5662 -4863 0
5662 -4862 0
5662 -1322 0
-5663 3410 1560 0
5663 -3410 0
5663 -1560 0
-5664 4936 4934 4930 5610 4931 4932 1164 0
5664 -4936 0
5664 -4934 0
5664 -4930 0
5664 -5610 0
5664 -4931 0
5664 -4932 0
5664 -1164 0
-5665 4941 4937 4940 5611 4943 4939 1244 0
5665 -4941 0
5665 -4937 0
5665 -4940 0
5665 -5611 0
5665 -4943 0
5665 -4939 0
5665 -1244 0
-5666 4958 4959 4963 5612 4960 4962 1004 0
5666 -4958 0
5666 -4959 0
5666 -4963 0
5666 -5612 0
5666 -4960 0
5666 -4962 0
5666 -1004 0
-5667 4983 4982 4979 5613 4978 4984 1084 0
5667 -4983 0
5667 -4982 0
5667 -4979 0
5667 -5613 0
5667 -4978 0
5667 -4984 0
5667 -1084 0
-5668 3462 1612 0
5668 -3462 0
5668 -1612 0
-5669 4172 4168 4170 980 4171 4169 0
5669 -4172 0
5669 -4168 0
5669 -4170 0
5669 -980 0
5669 -4171 0
5669 -4169 0
-5670 4182 4178 4180 4179 4181 0
5670 -4182 0
5670 -4178 0
5670 -4180 0
5670 -4179 0
5670 -4181 0
-5671 4229 4227 4230 4231 4228 0
5671 -4229 0
5671 -4227 0
5671 -4230 0
5671 -4231 0
5671 -4228 0
-5672 4325 4323 4326 1060 4324 4327 0
5672 -4325 0
5672 -4323 0
5672 -4326 0
5672 -1060 0
5672 -4324 0
5672 -4327 0
-5673 1889 1942 0
5673 -1889 0
5673 -1942 0
-5674 2026 2046 0
5674 -2026 0
5674 -2046 0
-5675 2092 2138 0
5675 -2092 0
5675 -2138 0
-5676 2202 2218 0
5676 -2202 0
5676 -2218 0
-5677 3166 1410 0
5677 -3166 0
5677 -1410 0
-5678 2250 2288 0
5678 -2250 0
5678 -2288 0
-5679 3184 3220 0
5679 -3184 0
5679 -3220 0
-5680 3259 1462 0
5680 -3259 0
5680 -1462 0
-5681 3284 3308 0
5681 -3284 0
5681 -3308 0
-5682 2881 2882 0
5682 -2881 0
5682 -2882 0
-5683 2883 608 0
5683 -2883 0
5683 -608 0
-5684 2884 610 0
5684 -2884 0
5684 -610 0
-5685 612 2885 0
5685 -612 0
5685 -2885 0
-5686 3344 1524 0
5686 -3344 0
5686 -1524 0
-5687 2886 614 0
5687 -2886 0
5687 -614 0
-5688 2891 2892 0
5688 -2891 0
5688 -2892 0
-5689 624 2893 0
5689 -624 0
5689 -2893 0
-5690 626 2894 0
5690 -626 0
5690 -2894 0
-5691 2895 628 0
5691 -2895 0
5691 -628 0
-632 630 2896 0
632 -630 0
632 -2896 0
-5692 3389 3392 0
5692 -3389 0
5692 -3392 0
-148 2444 1556 0
148 -2444 0
148 -1556 0
-5693 3435 1584 0
5693 -3435 0
5693 -1584 0
-5694 1630 3480 0
5694 -1630 0
5694 -3480 0
-5695 3523 3535 0
5695 -3523 0
5695 -3535 0
-5696 3555 3571 0
5696 -3555 0
5696 -3571 0
-5697 3606 3622 0
5697 -3606 0
5697 -3622 0
-5698 3650 3666 0
5698 -3650 0
5698 -3666 0
-5699 3679 3694 0
5699 -3679 0
5699 -3694 0
-5700 3733 3742 0
5700 -3733 0
5700 -3742 0
-5701 3766 3779 0
5701 -3766 0
5701 -3779 0
-5702 3791 3801 0
5702 -3791 0
5702 -3801 0
-5703 3853 3860 0
5703 -3853 0
5703 -3860 0
-5704 3878 3896 0
5704 -3878 0
5704 -3896 0
-5705 3904 3935 0
5705 -3904 0
5705 -3935 0
-5706 3951 3973 0
5706 -3951 0
5706 -3973 0
-5707 3986 4007 0
5707 -3986 0
5707 -4007 0
-5708 4029 4057 0
5708 -4029 0
5708 -4057 0
-5709 4063 4080 0
5709 -4063 0
5709 -4080 0
-5710 4102 4126 0
5710 -4102 0
5710 -4126 0
-5711 3104 3120 0
5711 -3104 0
5711 -3120 0
-5712 5599 5673 0
5712 -5599 0
5712 -5673 0
-5713 5600 5674 0
5713 -5600 0
5713 -5674 0
-5714 5601 5675 0
5714 -5601 0
5714 -5675 0
-5715 5652 1096 0
5715 -5652 0
5715 -1096 0
-5716 5602 5676 0
5716 -5602 0
5716 -5676 0
-5717 5603 5678 0
5717 -5603 0
5717 -5678 0
-5718 5655 1334 0
5718 -5655 0
5718 -1334 0
-5719 5604 5679 0
5719 -5604 0
5719 -5679 0
-5720 5658 1176 0
5720 -5658 0
5720 -1176 0
-5721 5661 1256 0
5721 -5661 0
5721 -1256 0
-5722 5606 5681 0
5722 -5606 0
5722 -5681 0
-5723 5609 5692 0
5723 -5609 0
5723 -5692 0
-5724 5615 5695 0
5724 -5615 0
5724 -5695 0
-5725 5616 5696 0
5725 -5616 0
5725 -5696 0
-5726 5617 5697 0
5726 -5617 0
5726 -5697 0
-5727 5618 5698 0
5727 -5618 0
5727 -5698 0
-5728 5619 5699 0
5728 -5619 0
5728 -5699 0
-5729 5620 5700 0
5729 -5620 0
5729 -5700 0
-5730 5621 5701 0
5730 -5621 0
5730 -5701 0
-5731 5622 5702 0
5731 -5622 0
5731 -5702 0
-5732 5623 5703 0
5732 -5623 0
5732 -5703 0
-5733 5624 5704 0
5733 -5624 0
5733 -5704 0
-5734 5625 5705 0
5734 -5625 0
5734 -5705 0
-5735 5626 5706 0
5735 -5626 0
5735 -5706 0
-5736 5627 5707 0
5736 -5627 0
5736 -5707 0
-5737 5628 5708 0
5737 -5628 0
5737 -5708 0
-5738 5629 5709 0
5738 -5629 0
5738 -5709 0
-5739 5630 5710 0
5739 -5630 0
5739 -5710 0
-5740 5671 1016 0
5740 -5671 0
5740 -1016 0
-5741 5641 5711 0
5741 -5641 0
5741 -5711 0
-5742 1863 1896 0
5742 -1863 0
5742 -1896 0
-5743 2010 2050 0
5743 -2010 0
5743 -2050 0
-5744 2082 2090 0
5744 -2082 0
5744 -2090 0
-5745 2146 2152 0
5745 -2146 0
5745 -2152 0
-5746 2262 2282 0
5746 -2262 0
5746 -2282 0
-5747 3172 1676 0
5747 -3172 0
5747 -1676 0
-5748 3209 3210 0
5748 -3209 0
5748 -3210 0
-5749 3224 1436 0
5749 -3224 0
5749 -1436 0
-5750 1472 3264 0
5750 -1472 0
5750 -3264 0
-5751 3301 3309 0
5751 -3301 0
5751 -3309 0
-5752 1492 3315 0
5752 -1492 0
5752 -3315 0
-96 2393 1500 0
96 -2393 0
96 -1500 0
-5753 1534 3355 0
5753 -1534 0
5753 -3355 0
-5754 3378 3379 0
5754 -3378 0
5754 -3379 0
-5755 1554 3406 0
5755 -1554 0
5755 -3406 0
-5756 2897 2898 0
5756 -2897 0
5756 -2898 0
-5757 634 2899 0
5757 -634 0
5757 -2899 0
-5758 2900 636 0
5758 -2900 0
5758 -636 0
-5759 2901 638 0
5759 -2901 0
5759 -638 0
-5760 640 2902 0
5760 -640 0
5760 -2902 0
-644 2903 642 0
644 -2903 0
644 -642 0
-5761 2473 164 0
5761 -2473 0
5761 -164 0
-170 2475 1578 0
170 -2475 0
170 -1578 0
-5762 2477 168 0
5762 -2477 0
5762 -168 0
-5763 2481 172 0
5763 -2481 0
5763 -172 0
-5764 1592 3446 0
5764 -1592 0
5764 -3446 0
-5765 1608 3458 0
5765 -1608 0
5765 -3458 0
-5766 1636 3491 0
5766 -1636 0
5766 -3491 0
-5767 3514 3533 0
5767 -3514 0
5767 -3533 0
-5768 3552 3567 0
5768 -3552 0
5768 -3567 0
-5769 3601 3616 0
5769 -3601 0
5769 -3616 0
-5770 3648 3661 0
5770 -3648 0
5770 -3661 0
-5771 3672 3678 0
5771 -3672 0
5771 -3678 0
-5772 3717 3723 0
5772 -3717 0
5772 -3723 0
-5773 3775 3782 0
5773 -3775 0
5773 -3782 0
-5774 3815 3821 0
5774 -3815 0
5774 -3821 0
-5775 3825 3862 0
5775 -3825 0
5775 -3862 0
-5776 3870 3879 0
5776 -3870 0
5776 -3879 0
-5777 3907 3912 0
5777 -3907 0
5777 -3912 0
-5778 3946 3976 0
5778 -3946 0
5778 -3976 0
-5779 3993 4004 0
5779 -3993 0
5779 -4004 0
-5780 4022 4053 0
5780 -4022 0
5780 -4053 0
-5781 4088 4097 0
5781 -4088 0
5781 -4097 0
-5782 4105 4135 0
5782 -4105 0
5782 -4135 0
-5783 4240 4241 4242 0
5783 -4240 0
5783 -4241 0
5783 -4242 0
-5784 4254 4255 1026 4256 4257 4258 4259 0
5784 -4254 0
5784 -4255 0
5784 -1026 0
5784 -4256 0
5784 -4257 0
5784 -4258 0
5784 -4259 0
-5785 4399 4400 4404 0
5785 -4399 0
5785 -4400 0
5785 -4404 0
-5786 4420 4421 4422 1106 4423 4424 4425 0
5786 -4420 0
5786 -4421 0
5786 -4422 0
5786 -1106 0
5786 -4423 0
5786 -4424 0
5786 -4425 0
-5787 1344 4535 4536 4537 4538 4539 4540 0
5787 -1344 0
5787 -4535 0
5787 -4536 0
5787 -4537 0
5787 -4538 0
5787 -4539 0
5787 -4540 0
-5788 2647 332 0
5788 -2647 0
5788 -332 0
-5789 4558 4559 4562 0
5789 -4558 0
5789 -4559 0
5789 -4562 0
-5790 2649 334 0
5790 -2649 0
5790 -334 0
-5791 4574 4575 4576 4577 4578 1186 4579 0
5791 -4574 0
5791 -4575 0
5791 -4576 0
5791 -4577 0
5791 -4578 0
5791 -1186 0
5791 -4579 0
-5792 4680 4683 4685 0
5792 -4680 0
5792 -4683 0
5792 -4685 0
-5793 4691 1266 4692 4693 4694 4695 4696 0
5793 -4691 0
5793 -1266 0
5793 -4692 0
5793 -4693 0
5793 -4694 0
5793 -4695 0
5793 -4696 0
-5794 3027 3028 0
5794 -3027 0
5794 -3028 0
-5795 3029 848 0
5795 -3029 0
5795 -848 0
-5796 3030 850 0
5796 -3030 0
5796 -850 0
-5797 3031 852 0
5797 -3031 0
5797 -852 0
-856 854 3032 0
856 -854 0
856 -3032 0
-5798 4924 4928 4929 0
5798 -4924 0
5798 -4928 0
5798 -4929 0
-5799 2726 412 0
5799 -2726 0
5799 -412 0
-5800 2728 414 0
5800 -2728 0
5800 -414 0
-5801 3106 3138 0
5801 -3106 0
5801 -3138 0
-5802 1656 3144 0
5802 -1656 0
5802 -3144 0
-5803 4402 4403 0
5803 -4402 0
5803 -4403 0
-5804 4432 4433 4434 4435 4436 1112 0
5804 -4432 0
5804 -4433 0
5804 -4434 0
5804 -4435 0
5804 -4436 0
5804 -1112 0
-5805 1420 3175 0
5805 -1420 0
5805 -3175 0
-5806 4560 4563 0
5806 -4560 0
5806 -4563 0
-5807 2651 336 0
5807 -2651 0
5807 -336 0
-5808 2653 338 0
5808 -2653 0
5808 -338 0
-342 340 2655 0
342 -340 0
342 -2655 0
-5809 4569 4570 1350 4571 4572 4573 0
5809 -4569 0
5809 -4570 0
5809 -1350 0
5809 -4571 0
5809 -4572 0
5809 -4573 0
-5810 4586 4587 4588 1192 4589 4590 0
5810 -4586 0
5810 -4587 0
5810 -4588 0
5810 -1192 0
5810 -4589 0
5810 -4590 0
-5811 1478 3267 0
5811 -1478 0
5811 -3267 0
-5812 4681 4684 0
5812 -4681 0
5812 -4684 0
-5813 1272 4703 4704 4705 4706 4707 0
5813 -1272 0
5813 -4703 0
5813 -4704 0
5813 -4705 0
5813 -4706 0
5813 -4707 0
-5814 1538 3358 0
5814 -1538 0
5814 -3358 0
-5815 4926 4927 0
5815 -4926 0
5815 -4927 0
-5816 2904 2905 0
5816 -2904 0
5816 -2905 0
-5817 2906 646 0
5817 -2906 0
5817 -646 0
-5818 2907 648 0
5818 -2907 0
5818 -648 0
-5819 2908 650 0
5819 -2908 0
5819 -650 0
-654 652 2909 0
654 -652 0
654 -2909 0
-5820 176 2483 0
5820 -176 0
5820 -2483 0
-180 2485 1590 0
180 -2485 0
180 -1590 0
-182 2487 178 0
182 -2487 0
182 -178 0
-5821 2489 2491 2493 2495 2496 0
5821 -2489 0
5821 -2491 0
5821 -2493 0
5821 -2495 0
5821 -2496 0
-5822 3449 1596 0
5822 -3449 0
5822 -1596 0
-5823 2732 418 0
5823 -2732 0
5823 -418 0
-5824 5064 5067 5068 5069 0
5824 -5064 0
5824 -5067 0
5824 -5068 0
5824 -5069 0
-5825 5070 5073 5074 5075 0
5825 -5070 0
5825 -5073 0
5825 -5074 0
5825 -5075 0
-5826 5077 5079 5080 5081 0
5826 -5077 0
5826 -5079 0
5826 -5080 0
5826 -5081 0
-5827 5089 5090 5091 5092 0
5827 -5089 0
5827 -5090 0
5827 -5091 0
5827 -5092 0
-5828 5151 5152 5155 5156 0
5828 -5151 0
5828 -5152 0
5828 -5155 0
5828 -5156 0
-422 420 2734 0
422 -420 0
422 -2734 0
-5829 416 2730 0
5829 -416 0
5829 -2730 0
-5830 3502 1640 0
5830 -3502 0
5830 -1640 0
-5831 494 2807 0
5831 -494 0
5831 -2807 0
-5832 2809 496 0
5832 -2809 0
5832 -496 0
-5833 498 2811 0
5833 -498 0
5833 -2811 0
-502 500 2813 0
502 -500 0
502 -2813 0
-5834 254 2570 0
5834 -254 0
5834 -2570 0
-5835 2572 256 0
5835 -2572 0
5835 -256 0
-5836 2574 258 0
5836 -2574 0
5836 -258 0
-262 260 2576 0
262 -260 0
262 -2576 0
-5837 4239 4243 0
5837 -4239 0
5837 -4243 0
-5838 4271 4272 4273 4274 4275 1032 0
5838 -4271 0
5838 -4272 0
5838 -4273 0
5838 -4274 0
5838 -4275 0
5838 -1032 0
-5839 5742 1882 0
5839 -5742 0
5839 -1882 0
-5840 5743 2024 0
5840 -5743 0
5840 -2024 0
-5841 5744 2084 0
5841 -5744 0
5841 -2084 0
-5842 5745 2208 0
5842 -5745 0
5842 -2208 0
-5843 5785 5803 0
5843 -5785 0
5843 -5803 0
-5844 5746 2246 0
5844 -5746 0
5844 -2246 0
-5845 5748 3205 0
5845 -5748 0
5845 -3205 0
-5846 5789 5806 0
5846 -5789 0
5846 -5806 0
-5847 5792 5812 0
5847 -5792 0
5847 -5812 0
-5848 5751 3307 0
5848 -5751 0
5848 -3307 0
-5849 4778 4780 0
5849 -4778 0
5849 -4780 0
-5850 2887 616 0
5850 -2887 0
5850 -616 0
-5851 4803 4798 0
5851 -4803 0
5851 -4798 0
-5852 2888 618 0
5852 -2888 0
5852 -618 0
-5853 4845 4843 0
5853 -4845 0
5853 -4843 0
-5854 4884 4883 0
5854 -4884 0
5854 -4883 0
-5855 5754 3374 0
5855 -5754 0
5855 -3374 0
-5856 4912 4913 0
5856 -4912 0
5856 -4913 0
-5857 5798 5815 0
5857 -5798 0
5857 -5815 0
-5858 4991 4990 0
5858 -4991 0
5858 -4990 0
-5859 5065 5824 0
5859 -5065 0
5859 -5824 0
-5860 5072 5825 0
5860 -5072 0
5860 -5825 0
-5861 5078 5826 0
5861 -5078 0
5861 -5826 0
-5862 5094 5827 0
5862 -5094 0
5862 -5827 0
-5863 5153 5828 0
5863 -5153 0
5863 -5828 0
-5864 5767 3521 0
5864 -5767 0
5864 -3521 0
-5865 5768 3579 0
5865 -5768 0
5865 -3579 0
-5866 5769 3603 0
5866 -5769 0
5866 -3603 0
-5867 5770 3636 0
5867 -5770 0
5867 -3636 0
-5868 5771 3701 0
5868 -5771 0
5868 -3701 0
-5869 5772 3711 0
5869 -5772 0
5869 -3711 0
-5870 5773 3776 0
5870 -5773 0
5870 -3776 0
-5871 5774 3808 0
5871 -5774 0
5871 -3808 0
-5872 5775 3856 0
5872 -5775 0
5872 -3856 0
-5873 5776 3901 0
5873 -5776 0
5873 -3901 0
-5874 5777 3940 0
5874 -5777 0
5874 -3940 0
-5875 5778 3969 0
5875 -5778 0
5875 -3969 0
-5876 5779 3982 0
5876 -5779 0
5876 -3982 0
-5877 5780 4043 0
5877 -5780 0
5877 -4043 0
-5878 5781 4076 0
5878 -5781 0
5878 -4076 0
-5879 5782 4123 0
5879 -5782 0
5879 -4123 0
-5880 2805 492 0
5880 -2805 0
5880 -492 0
-5881 2568 252 0
5881 -2568 0
5881 -252 0
-5882 5783 5837 0
5882 -5783 0
5882 -5837 0
-5883 5801 3102 0
5883 -5801 0
5883 -3102 0
-5884 3154 1752 0
5884 -3154 0
5884 -1752 0
-5885 5712 5839 0
5885 -5712 0
5885 -5839 0
-5886 5713 5840 0
5886 -5713 0
5886 -5840 0
-5887 5714 5841 0
5887 -5714 0
5887 -5841 0
-5888 5716 5842 0
5888 -5716 0
5888 -5842 0
-5889 5717 5844 0
5889 -5717 0
5889 -5844 0
-5890 5719 5845 0
5890 -5719 0
5890 -5845 0
-48 2330 1684 0
48 -2330 0
48 -1684 0
-5891 3241 1690 0
5891 -3241 0
5891 -1690 0
-5892 5722 5848 0
5892 -5722 0
5892 -5848 0
-5893 3332 1702 0
5893 -3332 0
5893 -1702 0
-5894 4783 5849 1310 0
5894 -4783 0
5894 -5849 0
5894 -1310 0
-5895 4801 5851 992 0
5895 -4801 0
5895 -5851 0
5895 -992 0
-5896 4842 5853 1072 0
5896 -4842 0
5896 -5853 0
5896 -1072 0
-5897 4878 5854 1152 0
5897 -4878 0
5897 -5854 0
5897 -1152 0
-5898 5723 5855 0
5898 -5723 0
5898 -5855 0
-5899 4911 5856 1232 0
5899 -4911 0
5899 -5856 0
5899 -1232 0
-5900 3423 1714 0
5900 -3423 0
5900 -1714 0
-5901 4992 5858 0
5901 -4992 0
5901 -5858 0
-5902 3468 1724 0
5902 -3468 0
5902 -1724 0
-5903 5724 5864 0
5903 -5724 0
5903 -5864 0
-5904 5725 5865 0
5904 -5725 0
5904 -5865 0
-5905 5726 5866 0
5905 -5726 0
5905 -5866 0
-5906 5727 5867 0
5906 -5727 0
5906 -5867 0
-5907 5728 5868 0
5907 -5728 0
5907 -5868 0
-5908 5729 5869 0
5908 -5729 0
5908 -5869 0
-5909 5730 5870 0
5909 -5730 0
5909 -5870 0
-5910 5731 5871 0
5910 -5731 0
5910 -5871 0
-5911 5732 5872 0
5911 -5732 0
5911 -5872 0
-5912 5733 5873 0
5912 -5733 0
5912 -5873 0
-5913 5734 5874 0
5913 -5734 0
5913 -5874 0
-5914 5735 5875 0
5914 -5735 0
5914 -5875 0
-5915 5736 5876 0
5915 -5736 0
5915 -5876 0
-5916 5737 5877 0
5916 -5737 0
5916 -5877 0
-5917 5738 5878 0
5917 -5738 0
5917 -5878 0
-5918 5739 5879 0
5918 -5739 0
5918 -5879 0
-5919 5741 5883 0
5919 -5741 0
5919 -5883 0
-5920 5551 5885 0
5920 -5551 0
5920 -5885 0
-5921 5553 5886 0
5921 -5553 0
5921 -5886 0
-5922 3160 1754 0
5922 -3160 0
5922 -1754 0
-5923 5555 5887 0
5923 -5555 0
5923 -5887 0
-5924 5556 5888 0
5924 -5556 0
5924 -5888 0
-5925 5557 5889 0
5925 -5557 0
5925 -5889 0
-5926 5517 5843 0
5926 -5517 0
5926 -5843 0
-5927 5558 5890 0
5927 -5558 0
5927 -5890 0
-5928 5521 5846 0
5928 -5521 0
5928 -5846 0
-5929 3253 1738 0
5929 -3253 0
5929 -1738 0
-5930 5524 5847 0
5930 -5524 0
5930 -5847 0
-5931 5561 5892 0
5931 -5561 0
5931 -5892 0
-5932 3338 1744 0
5932 -3338 0
5932 -1744 0
-5933 5562 5898 0
5933 -5562 0
5933 -5898 0
-5934 5529 5857 0
5934 -5529 0
5934 -5857 0
-152 2448 1708 0
152 -2448 0
152 -1708 0
-5935 5563 4952 0
5935 -5563 0
5935 -4952 0
-5936 3429 1730 0
5936 -3429 0
5936 -1730 0
-5937 4996 4995 0
5937 -4996 0
5937 -4995 0
-5938 5564 5006 0
5938 -5564 0
5938 -5006 0
-5939 5565 5023 0
5939 -5565 0
5939 -5023 0
-5940 5566 5041 0
5940 -5566 0
5940 -5041 0
-5941 5433 5859 0
5941 -5433 0
5941 -5859 0
-5942 5434 5860 0
5942 -5434 0
5942 -5860 0
-5943 5435 5861 0
5943 -5435 0
5943 -5861 0
-5944 5436 5862 0
5944 -5436 0
5944 -5862 0
-5945 5567 5105 0
5945 -5567 0
5945 -5105 0
-5946 5438 5863 0
5946 -5438 0
5946 -5863 0
-5947 3474 1732 0
5947 -3474 0
5947 -1732 0
-5948 5568 5903 0
5948 -5568 0
5948 -5903 0
-5949 5569 5904 0
5949 -5569 0
5949 -5904 0
-5950 5570 5905 0
5950 -5570 0
5950 -5905 0
-5951 5571 5906 0
5951 -5571 0
5951 -5906 0
-5952 5572 5907 0
5952 -5572 0
5952 -5907 0
-5953 5573 5908 0
5953 -5573 0
5953 -5908 0
-5954 5574 5909 0
5954 -5574 0
5954 -5909 0
-5955 5575 5910 0
5955 -5575 0
5955 -5910 0
-5956 5576 5911 0
5956 -5576 0
5956 -5911 0
-5957 5577 5912 0
5957 -5577 0
5957 -5912 0
-5958 5578 5913 0
5958 -5578 0
5958 -5913 0
-5959 5579 5914 0
5959 -5579 0
5959 -5914 0
-5960 5580 5915 0
5960 -5580 0
5960 -5915 0
-5961 5581 5916 0
5961 -5581 0
5961 -5916 0
-5962 5582 5917 0
5962 -5582 0
5962 -5917 0
-5963 5583 5918 0
5963 -5583 0
5963 -5918 0
-5964 5549 5882 0
5964 -5549 0
5964 -5882 0
-5965 5586 5919 0
5965 -5586 0
5965 -5919 0
-5966 1980 1982 0
5966 -1980 0
5966 -1982 0
-5967 2062 6 0
5967 -2062 0
5967 -6 0
-5968 2142 10 0
5968 -2142 0
5968 -10 0
-5969 2222 14 0
5969 -2222 0
5969 -14 0
-5970 18 2302 0
5970 -18 0
5970 -2302 0
-24 1416 2304 0
24 -1416 0
24 -2304 0
-26 22 2306 0
26 -22 0
26 -2306 0
-5971 1422 3176 0
5971 -1422 0
5971 -3176 0
-5972 1480 3268 0
5972 -1480 0
5972 -3268 0
-5973 1540 3359 0
5973 -1540 0
5973 -3359 0
-5974 150 2450 0
5974 -150 0
5974 -2450 0
-5975 154 2454 0
5975 -154 0
5975 -2454 0
-5976 2458 158 0
5976 -2458 0
5976 -158 0
-5977 1598 3450 0
5977 -1598 0
5977 -3450 0
-5978 1642 3503 0
5978 -1642 0
5978 -3503 0
-5979 3520 3543 0
5979 -3520 0
5979 -3543 0
-5980 3683 3690 0
5980 -3683 0
5980 -3690 0
-5981 3827 3830 0
5981 -3827 0
5981 -3830 0
-5982 3988 3989 0
5982 -3988 0
5982 -3989 0
-5983 244 2561 0
5983 -244 0
5983 -2561 0
-5984 2563 246 0
5984 -2563 0
5984 -246 0
-5985 2565 248 0
5985 -2565 0
5985 -248 0
-5986 4141 4142 4143 4144 1352 4145 0
5986 -4141 0
5986 -4142 0
5986 -4143 0
5986 -4144 0
5986 -1352 0
5986 -4145 0
-5987 4249 4250 4251 4252 4253 0
5987 -4249 0
5987 -4250 0
5987 -4251 0
5987 -4252 0
5987 -4253 0
-5988 4276 4277 4278 4279 4280 1034 0
5988 -4276 0
5988 -4277 0
5988 -4278 0
5988 -4279 0
5988 -4280 0
5988 -1034 0
-5989 4410 4411 4412 4413 4414 0
5989 -4410 0
5989 -4411 0
5989 -4412 0
5989 -4413 0
5989 -4414 0
-5990 4437 4438 4439 1114 4440 4441 0
5990 -4437 0
5990 -4438 0
5990 -4439 0
5990 -1114 0
5990 -4440 0
5990 -4441 0
-5991 4497 4498 4499 4500 4501 0
5991 -4497 0
5991 -4498 0
5991 -4499 0
5991 -4500 0
5991 -4501 0
-5992 2640 324 0
5992 -2640 0
5992 -324 0
-5993 2642 326 0
5993 -2642 0
5993 -326 0
-5994 4523 4524 4525 4526 4527 0
5994 -4523 0
5994 -4524 0
5994 -4525 0
5994 -4526 0
5994 -4527 0
-5995 328 2644 0
5995 -328 0
5995 -2644 0
-5996 4564 4565 4566 4567 4568 0
5996 -4564 0
5996 -4565 0
5996 -4566 0
5996 -4567 0
5996 -4568 0
-5997 1194 4591 4592 4593 4594 4595 0
5997 -1194 0
5997 -4591 0
5997 -4592 0
5997 -4593 0
5997 -4594 0
5997 -4595 0
-812 3006 810 0
812 -3006 0
812 -810 0
-5998 4686 4687 4688 4689 4690 0
5998 -4686 0
5998 -4687 0
5998 -4688 0
5998 -4689 0
5998 -4690 0
-5999 4708 1274 4709 4710 4711 4712 0
5999 -4708 0
5999 -1274 0
5999 -4709 0
5999 -4710 0
5999 -4711 0
5999 -4712 0
-6000 4792 4794 4795 4796 4797 0
6000 -4792 0
6000 -4794 0
6000 -4795 0
6000 -4796 0
6000 -4797 0
-6001 4833 4835 4836 4837 4838 0
6001 -4833 0
6001 -4835 0
6001 -4836 0
6001 -4837 0
6001 -4838 0
-6002 4872 4873 4875 4876 4877 0
6002 -4872 0
6002 -4873 0
6002 -4875 0
6002 -4876 0
6002 -4877 0
-6003 4904 4905 4907 4908 4909 0
6003 -4904 0
6003 -4905 0
6003 -4907 0
6003 -4908 0
6003 -4909 0
-6004 2719 404 0
6004 -2719 0
6004 -404 0
-6005 2721 406 0
6005 -2721 0
6005 -406 0
-6006 408 2723 0
6006 -408 0
6006 -2723 0
-6007 484 2798 0
6007 -484 0
6007 -2798 0
-6008 2800 486 0
6008 -2800 0
6008 -486 0
-6009 2802 488 0
6009 -2802 0
6009 -488 0
-6010 2814 2815 0
6010 -2814 0
6010 -2815 0
-6011 504 2816 0
6011 -504 0
6011 -2816 0
-6012 2817 506 0
6012 -2817 0
6012 -506 0
-6013 508 2818 0
6013 -508 0
6013 -2818 0
-6014 2819 510 0
6014 -2819 0
6014 -510 0
-514 2820 512 0
514 -2820 0
514 -512 0
-6015 3127 3140 0
6015 -3127 0
6015 -3140 0
-6016 1848 1886 1899 0
6016 -1848 0
6016 -1886 0
6016 -1899 0
-6017 2014 2036 2052 0
6017 -2014 0
6017 -2036 0
6017 -2052 0
-6018 1668 3159 0
6018 -1668 0
6018 -3159 0
-6019 4376 1320 0
6019 -4376 0
6019 -1320 0
-6020 2068 2114 2116 0
6020 -2068 0
6020 -2114 0
6020 -2116 0
-6021 2170 2186 2200 0
6021 -2170 0
6021 -2186 0
6021 -2200 0
-6022 2236 2256 2272 0
6022 -2236 0
6022 -2256 0
6022 -2272 0
-6023 1118 4447 4448 4449 4450 4451 0
6023 -1118 0
6023 -4447 0
6023 -4448 0
6023 -4449 0
6023 -4450 0
6023 -4451 0
-6024 1426 3178 0
6024 -1426 0
6024 -3178 0
-6025 3206 3211 3219 0
6025 -3206 0
6025 -3211 0
6025 -3219 0
-6026 1002 3248 3250 0
6026 -1002 0
6026 -3248 0
6026 -3250 0
-6027 4601 4602 4603 4604 1198 4605 0
6027 -4601 0
6027 -4602 0
6027 -4603 0
6027 -4604 0
6027 -1198 0
6027 -4605 0
-6028 2999 3000 0
6028 -2999 0
6028 -3000 0
-6029 3001 802 0
6029 -3001 0
6029 -802 0
-6030 3002 804 0
6030 -3002 0
6030 -804 0
-6031 3003 806 0
6031 -3003 0
6031 -806 0
-6032 1484 3270 0
6032 -1484 0
6032 -3270 0
-6033 808 3004 0
6033 -808 0
6033 -3004 0
-6034 3277 3299 3310 0
6034 -3277 0
6034 -3299 0
6034 -3310 0
-6035 3007 3008 0
6035 -3007 0
6035 -3008 0
-6036 3009 814 0
6036 -3009 0
6036 -814 0
-6037 816 3010 0
6037 -816 0
6037 -3010 0
-6038 3011 818 0
6038 -3011 0
6038 -818 0
-6039 820 3012 0
6039 -820 0
6039 -3012 0
-824 3013 822 0
824 -3013 0
824 -822 0
-6040 3337 1704 0
6040 -3337 0
6040 -1704 0
-116 2413 1518 0
116 -2413 0
116 -1518 0
-6041 3361 1544 0
6041 -3361 0
6041 -1544 0
-6042 1162 4889 0
6042 -1162 0
6042 -4889 0
-6043 3375 3388 3394 0
6043 -3375 0
6043 -3388 0
6043 -3394 0
-6044 1242 4923 0
6044 -1242 0
6044 -4923 0
-6045 1716 3428 0
6045 -1716 0
6045 -3428 0
-166 2462 1356 2464 2466 2468 2470 2471 0
166 -2462 0
166 -1356 0
166 -2464 0
166 -2466 0
166 -2468 0
166 -2470 0
166 -2471 0
-6046 3042 3043 0
6046 -3042 0
6046 -3043 0
-6047 3044 872 0
6047 -3044 0
6047 -872 0
-6048 3045 874 0
6048 -3045 0
6048 -874 0
-6049 876 3046 0
6049 -876 0
6049 -3046 0
-6050 1602 3452 0
6050 -1602 0
6050 -3452 0
-880 878 3047 0
880 -878 0
880 -3047 0
-6051 4718 4719 4720 1278 4721 4722 0
6051 -4718 0
6051 -4719 0
6051 -4720 0
6051 -1278 0
6051 -4721 0
6051 -4722 0
-6052 1726 3473 0
6052 -1726 0
6052 -3473 0
-6053 3505 1646 0
6053 -3505 0
6053 -1646 0
-6054 3516 3527 3536 0
6054 -3516 0
6054 -3527 0
6054 -3536 0
-6055 3575 3576 3583 0
6055 -3575 0
6055 -3576 0
6055 -3583 0
-6056 3600 3609 3621 0
6056 -3600 0
6056 -3609 0
6056 -3621 0
-6057 3633 3634 3640 0
6057 -3633 0
6057 -3634 0
6057 -3640 0
-6058 3674 3691 3706 0
6058 -3674 0
6058 -3691 0
6058 -3706 0
-6059 3729 3740 3743 0
6059 -3729 0
6059 -3740 0
6059 -3743 0
-6060 3751 3754 3769 0
6060 -3751 0
6060 -3754 0
6060 -3769 0
-6061 3786 3802 3813 0
6061 -3786 0
6061 -3802 0
6061 -3813 0
-6062 3833 3843 3849 0
6062 -3833 0
6062 -3843 0
6062 -3849 0
-6063 3865 3889 3897 0
6063 -3865 0
6063 -3889 0
6063 -3897 0
-6064 3918 3930 3933 0
6064 -3918 0
6064 -3930 0
6064 -3933 0
-6065 3945 3952 3958 0
6065 -3945 0
6065 -3952 0
6065 -3958 0
-6066 3990 3999 4018 0
6066 -3990 0
6066 -3999 0
6066 -4018 0
-6067 4039 4048 4058 0
6067 -4039 0
6067 -4048 0
6067 -4058 0
-6068 4071 4083 4093 0
6068 -4071 0
6068 -4083 0
6068 -4093 0
-6069 4117 4130 4137 0
6069 -4117 0
6069 -4130 0
6069 -4137 0
-6070 3103 3107 3134 0
6070 -3103 0
6070 -3107 0
6070 -3134 0
-6071 4286 4287 4288 4289 4290 1038 0
6071 -4286 0
6071 -4287 0
6071 -4288 0
6071 -4289 0
6071 -4290 0
6071 -1038 0
-6072 1871 6016 0
6072 -1871 0
6072 -6016 0
-6073 2022 6017 0
6073 -2022 0
6073 -6017 0
-6074 2112 6020 0
6074 -2112 0
6074 -6020 0
-6075 2150 6021 0
6075 -2150 0
6075 -6021 0
-6076 3168 3169 0
6076 -3168 0
6076 -3169 0
-6077 2254 6022 0
6077 -2254 0
6077 -6022 0
-6078 3199 6025 0
6078 -3199 0
6078 -6025 0
-6079 2646 330 0
6079 -2646 0
6079 -330 0
-6080 3261 1652 0
6080 -3261 0
6080 -1652 0
-84 2382 1488 0
84 -2382 0
84 -1488 0
-6081 3303 6034 0
6081 -3303 0
6081 -6034 0
-6082 4735 1020 0
6082 -4735 0
6082 -1020 0
-6083 3350 3348 1100 0
6083 -3350 0
6083 -3348 0
6083 -1100 0
-6084 3381 6043 0
6084 -3381 0
6084 -6043 0
-6085 2725 410 0
6085 -2725 0
6085 -410 0
-6086 2460 162 0
6086 -2460 0
6086 -162 0
-6087 3440 3441 0
6087 -3440 0
6087 -3441 0
-6088 3487 3485 0
6088 -3487 0
6088 -3485 0
-6089 5979 6054 0
6089 -5979 0
6089 -6054 0
-6090 3578 6055 0
6090 -3578 0
6090 -6055 0
-6091 3619 6056 0
6091 -3619 0
6091 -6056 0
-6092 3639 6057 0
6092 -3639 0
6092 -6057 0
-6093 5980 6058 0
6093 -5980 0
6093 -6058 0
-6094 3739 6059 0
6094 -3739 0
6094 -6059 0
-6095 3749 6060 0
6095 -3749 0
6095 -6060 0
-6096 3799 6061 0
6096 -3799 0
6096 -6061 0
-6097 5981 6062 0
6097 -5981 0
6097 -6062 0
-6098 3882 6063 0
6098 -3882 0
6098 -6063 0
-6099 3909 6064 0
6099 -3909 0
6099 -6064 0
-6100 3978 6065 0
6100 -3978 0
6100 -6065 0
-6101 5982 6066 0
6101 -5982 0
6101 -6066 0
-6102 4047 6067 0
6102 -4047 0
6102 -6067 0
-6103 4082 6068 0
6103 -4082 0
6103 -6068 0
-6104 4129 6069 0
6104 -4129 0
6104 -6069 0
-6105 2804 490 0
6105 -2804 0
6105 -490 0
-6106 2567 250 0
6106 -2567 0
6106 -250 0
-6107 6015 6070 0
6107 -6015 0
6107 -6070 0
-6108 5920 6072 0
6108 -5920 0
6108 -6072 0
-6109 5921 6073 0
6109 -5921 0
6109 -6073 0
-6110 5923 6074 0
6110 -5923 0
6110 -6074 0
-6111 5354 6019 0
6111 -5354 0
6111 -6019 0
-6112 5924 6075 0
6112 -5924 0
6112 -6075 0
-6113 5925 6077 0
6113 -5925 0
6113 -6077 0
-6114 5927 6078 0
6114 -5927 0
6114 -6078 0
-6115 5361 6026 0
6115 -5361 0
6115 -6026 0
-6116 5931 6081 0
6116 -5931 0
6116 -6081 0
-6117 5367 4849 1082 0
6117 -5367 0
6117 -4849 0
6117 -1082 0
-6118 5368 6042 0
6118 -5368 0
6118 -6042 0
-6119 5933 6084 0
6119 -5933 0
6119 -6084 0
-6120 5370 6044 0
6120 -5370 0
6120 -6044 0
-6121 5159 5160 0
6121 -5159 0
6121 -5160 0
-6122 5948 6089 0
6122 -5948 0
6122 -6089 0
-6123 5949 6090 0
6123 -5949 0
6123 -6090 0
-6124 5950 6091 0
6124 -5950 0
6124 -6091 0
-6125 5951 6092 0
6125 -5951 0
6125 -6092 0
-6126 5952 6093 0
6126 -5952 0
6126 -6093 0
-6127 5953 6094 0
6127 -5953 0
6127 -6094 0
-6128 5954 6095 0
6128 -5954 0
6128 -6095 0
-6129 5955 6096 0
6129 -5955 0
6129 -6096 0
-6130 5956 6097 0
6130 -5956 0
6130 -6097 0
-6131 5957 6098 0
6131 -5957 0
6131 -6098 0
-6132 5958 6099 0
6132 -5958 0
6132 -6099 0
-6133 5959 6100 0
6133 -5959 0
6133 -6100 0
-6134 5960 6101 0
6134 -5960 0
6134 -6101 0
-6135 5961 6102 0
6135 -5961 0
6135 -6102 0
-6136 5962 6103 0
6136 -5962 0
6136 -6103 0
-6137 5963 6104 0
6137 -5963 0
6137 -6104 0
-6138 5965 6107 0
6138 -5965 0
6138 -6107 0
-6139 1750 3152 0
6139 -1750 0
6139 -3152 0
-788 786 2991 0
788 -786 0
788 -2991 0
-6140 3239 1784 0
6140 -3239 0
6140 -1784 0
-104 2401 1740 0
104 -2401 0
104 -1740 0
-6141 3034 3035 0
6141 -3034 0
6141 -3035 0
-6142 858 3036 0
6142 -858 0
6142 -3036 0
-6143 3037 860 0
6143 -3037 0
6143 -860 0
-6144 3038 862 0
6144 -3038 0
6144 -862 0
-6145 866 3040 0
6145 -866 0
6145 -3040 0
-870 868 3041 0
870 -868 0
870 -3041 0
-6146 3039 864 0
6146 -3039 0
6146 -864 0
-6147 1776 3466 0
6147 -1776 0
6147 -3466 0
-6148 216 2533 0
6148 -216 0
6148 -2533 0
-6149 2535 218 0
6149 -2535 0
6149 -218 0
-6150 2866 2867 0
6150 -2866 0
6150 -2867 0
-6151 584 2868 0
6151 -584 0
6151 -2868 0
-6152 586 2869 0
6152 -586 0
6152 -2869 0
-6153 2870 588 0
6153 -2870 0
6153 -588 0
-6154 590 2871 0
6154 -590 0
6154 -2871 0
-594 592 2872 0
594 -592 0
594 -2872 0
-6155 1950 1912 0
6155 -1950 0
6155 -1912 0
-6156 2054 2002 0
6156 -2054 0
6156 -2002 0
-6157 2124 2066 0
6157 -2124 0
6157 -2066 0
-6158 2158 2182 0
6158 -2158 0
6158 -2182 0
-6159 2258 2278 0
6159 -2258 0
6159 -2278 0
-6160 3186 3188 0
6160 -3186 0
6160 -3188 0
-6161 3223 1758 0
6161 -3223 0
6161 -1758 0
-44 2326 1682 0
44 -2326 0
44 -1682 0
-6162 3285 3288 0
6162 -3285 0
6162 -3288 0
-6163 3314 1762 0
6163 -3314 0
6163 -1762 0
-6164 3330 1798 0
6164 -3330 0
6164 -1798 0
-6165 3393 3396 0
6165 -3393 0
6165 -3396 0
-6166 3405 1710 0
6166 -3405 0
6166 -1710 0
-6167 3421 1768 0
6167 -3421 0
6167 -1768 0
-6168 1306 4969 4965 4967 4970 4964 4968 0
6168 -1306 0
6168 -4969 0
6168 -4965 0
6168 -4967 0
6168 -4970 0
6168 -4964 0
6168 -4968 0
-6169 5021 5022 0
6169 -5021 0
6169 -5022 0
-6170 5031 5035 5034 5033 5032 5030 5036 1148 0
6170 -5031 0
6170 -5035 0
6170 -5034 0
6170 -5033 0
6170 -5032 0
6170 -5030 0
6170 -5036 0
6170 -1148 0
-6171 5062 5060 5061 5059 5063 5057 1228 5058 0
6171 -5062 0
6171 -5060 0
6171 -5061 0
6171 -5059 0
6171 -5063 0
6171 -5057 0
6171 -1228 0
6171 -5058 0
-6172 988 5088 5085 5084 5082 5083 5087 5086 0
6172 -988 0
6172 -5088 0
6172 -5085 0
6172 -5084 0
6172 -5082 0
6172 -5083 0
6172 -5087 0
6172 -5086 0
-6173 3457 1772 0
6173 -3457 0
6173 -1772 0
-6174 1068 5131 5137 5136 5134 5135 5133 5132 0
6174 -1068 0
6174 -5131 0
6174 -5137 0
6174 -5136 0
6174 -5134 0
6174 -5135 0
6174 -5133 0
6174 -5132 0
-6175 5149 5144 0
6175 -5149 0
6175 -5144 0
-6176 5170 5167 0
6176 -5170 0
6176 -5167 0
-6177 5188 5183 0
6177 -5188 0
6177 -5183 0
-6178 5228 5227 0
6178 -5228 0
6178 -5227 0
-6179 3541 3549 0
6179 -3541 0
6179 -3549 0
-6180 3565 3563 0
6180 -3565 0
6180 -3563 0
-6181 3612 3596 0
6181 -3612 0
6181 -3596 0
-6182 3660 3656 0
6182 -3660 0
6182 -3656 0
-6183 3681 3673 0
6183 -3681 0
6183 -3673 0
-6184 3736 3716 0
6184 -3736 0
6184 -3716 0
-6185 3759 3768 0
6185 -3759 0
6185 -3768 0
-6186 3794 3814 0
6186 -3794 0
6186 -3814 0
-6187 3829 3842 0
6187 -3829 0
6187 -3842 0
-6188 3876 3887 0
6188 -3876 0
6188 -3887 0
-6189 3915 3925 0
6189 -3915 0
6189 -3925 0
-6190 3970 3942 0
6190 -3970 0
6190 -3942 0
-6191 3991 4001 0
6191 -3991 0
6191 -4001 0
-6192 4052 4051 0
6192 -4052 0
6192 -4051 0
-6193 4084 4095 0
6193 -4084 0
6193 -4095 0
-6194 4134 4132 0
6194 -4134 0
6194 -4132 0
-6195 3121 3110 0
6195 -3121 0
6195 -3110 0
-6196 3143 1746 0
6196 -3143 0
6196 -1746 0
-6197 3155 1398 0
6197 -3155 0
6197 -1398 0
-6198 1856 1919 1939 0
6198 -1856 0
6198 -1919 0
6198 -1939 0
-6199 1988 1996 2044 0
6199 -1988 0
6199 -1996 0
6199 -2044 0
-6200 2108 2118 2128 0
6200 -2108 0
6200 -2118 0
6200 -2128 0
-6201 2144 2166 2194 0
6201 -2144 0
6201 -2166 0
6201 -2194 0
-6202 2224 2264 2270 0
6202 -2224 0
6202 -2264 0
6202 -2270 0
-6203 3207 3217 3222 0
6203 -3207 0
6203 -3217 0
6203 -3222 0
-6204 1442 3237 0
6204 -1442 0
6204 -3237 0
-6205 3242 1444 0
6205 -3242 0
6205 -1444 0
-76 2374 1474 0
76 -2374 0
76 -1474 0
-6206 3276 3281 3297 0
6206 -3276 0
6206 -3281 0
6206 -3297 0
-6207 3328 1502 0
6207 -3328 0
6207 -1502 0
-6208 1504 3333 0
6208 -1504 0
6208 -3333 0
-6209 4754 4755 0
6209 -4754 0
6209 -4755 0
-140 2436 1550 0
140 -2436 0
140 -1550 0
-6210 3376 3385 3387 0
6210 -3376 0
6210 -3385 0
6210 -3387 0
-6211 3419 1562 0
6211 -3419 0
6211 -1562 0
-6212 1566 3424 0
6212 -1566 0
6212 -3424 0
-6213 2910 2911 0
6213 -2910 0
6213 -2911 0
-6214 2912 656 0
6214 -2912 0
6214 -656 0
-6215 2913 658 0
6215 -2913 0
6215 -658 0
-6216 660 2914 0
6216 -660 0
6216 -2914 0
-6217 662 2915 0
6217 -662 0
6217 -2915 0
-6218 2916 664 0
6218 -2916 0
6218 -664 0
-6219 2919 2920 0
6219 -2919 0
6219 -2920 0
-6220 2921 670 0
6220 -2921 0
6220 -670 0
-6221 672 2922 0
6221 -672 0
6221 -2922 0
-6222 2923 674 0
6222 -2923 0
6222 -674 0
-678 676 2924 0
678 -676 0
678 -2924 0
-6223 1614 3464 0
6223 -1614 0
6223 -3464 0
-6224 1616 3469 0
6224 -1616 0
6224 -3469 0
-6225 2925 2926 0
6225 -2925 0
6225 -2926 0
-6226 2927 680 0
6226 -2927 0
6226 -680 0
-6227 2928 682 0
6227 -2928 0
6227 -682 0
-6228 2929 684 0
6228 -2929 0
6228 -684 0
-688 2930 686 0
688 -2930 0
688 -686 0
-6229 3531 3542 3547 0
6229 -3531 0
6229 -3542 0
6229 -3547 0
-6230 3554 3570 3587 0
6230 -3554 0
6230 -3570 0
6230 -3587 0
-6231 3593 3602 3618 0
6231 -3593 0
6231 -3602 0
6231 -3618 0
-6232 3646 3658 3664 0
6232 -3646 0
6232 -3658 0
6232 -3664 0
-6233 3688 3692 3696 0
6233 -3688 0
6233 -3692 0
6233 -3696 0
-6234 3707 3732 3738 0
6234 -3707 0
6234 -3732 0
6234 -3738 0
-6235 3753 3755 3761 0
6235 -3753 0
6235 -3755 0
6235 -3761 0
-6236 3790 3798 3804 0
6236 -3790 0
6236 -3798 0
6236 -3804 0
-6237 3831 3846 3861 0
6237 -3831 0
6237 -3846 0
6237 -3861 0
-6238 3868 3892 3894 0
6238 -3868 0
6238 -3892 0
6238 -3894 0
-6239 3906 3917 3932 0
6239 -3906 0
6239 -3917 0
6239 -3932 0
-6240 3947 3948 3974 0
6240 -3947 0
6240 -3948 0
6240 -3974 0
-6241 3984 3995 4012 0
6241 -3984 0
6241 -3995 0
6241 -4012 0
-6242 4021 4040 4055 0
6242 -4021 0
6242 -4040 0
6242 -4055 0
-6243 4068 4087 4089 0
6243 -4068 0
6243 -4087 0
6243 -4089 0
-6244 4104 4124 4136 0
6244 -4104 0
6244 -4124 0
6244 -4136 0
-6245 3114 3118 3136 0
6245 -3114 0
6245 -3118 0
6245 -3136 0
-6246 1664 3150 0
6246 -1664 0
6246 -3150 0
-6247 6155 6198 0
6247 -6155 0
6247 -6198 0
-6248 6156 6199 0
6248 -6156 0
6248 -6199 0
-6249 3161 1672 0
6249 -3161 0
6249 -1672 0
-6250 6157 6200 0
6250 -6157 0
6250 -6200 0
-6251 6158 6201 0
6251 -6158 0
6251 -6201 0
-6252 6159 6202 0
6252 -6159 0
6252 -6202 0
-6253 6160 6203 0
6253 -6160 0
6253 -6203 0
-6254 3254 1456 0
6254 -3254 0
6254 -1456 0
-6255 6162 6206 0
6255 -6162 0
6255 -6206 0
-6256 3339 1516 0
6256 -3339 0
6256 -1516 0
-6257 6165 6210 0
6257 -6165 0
6257 -6210 0
-6258 4988 4989 0
6258 -4988 0
6258 -4989 0
-6259 3430 1576 0
6259 -3430 0
6259 -1576 0
-6260 6179 6229 0
6260 -6179 0
6260 -6229 0
-6261 6180 6230 0
6261 -6180 0
6261 -6230 0
-6262 6181 6231 0
6262 -6181 0
6262 -6231 0
-6263 6182 6232 0
6263 -6182 0
6263 -6232 0
-6264 6183 6233 0
6264 -6183 0
6264 -6233 0
-6265 6184 6234 0
6265 -6184 0
6265 -6234 0
-6266 6185 6235 0
6266 -6185 0
6266 -6235 0
-6267 6186 6236 0
6267 -6186 0
6267 -6236 0
-6268 6187 6237 0
6268 -6187 0
6268 -6237 0
-6269 6188 6238 0
6269 -6188 0
6269 -6238 0
-6270 6189 6239 0
6270 -6189 0
6270 -6239 0
-6271 6190 6240 0
6271 -6190 0
6271 -6240 0
-6272 6191 6241 0
6272 -6191 0
6272 -6241 0
-6273 6192 6242 0
6273 -6192 0
6273 -6242 0
-6274 6193 6243 0
6274 -6193 0
6274 -6243 0
-6275 6194 6244 0
6275 -6194 0
6275 -6244 0
-6276 6195 6245 0
6276 -6195 0
6276 -6245 0
-6277 2310 2312 0
6277 -2310 0
6277 -2312 0
-6278 2316 30 0
6278 -2316 0
6278 -30 0
-6279 2320 34 0
6279 -2320 0
6279 -34 0
-6280 38 2324 0
6280 -38 0
6280 -2324 0
-6281 2328 42 0
6281 -2328 0
6281 -42 0
-6282 46 2332 0
6282 -46 0
6282 -2332 0
-6283 2498 2500 0
6283 -2498 0
6283 -2500 0
-6284 2502 184 0
6284 -2502 0
6284 -184 0
-6285 186 2504 0
6285 -186 0
6285 -2504 0
-6286 188 2506 0
6286 -188 0
6286 -2506 0
-6287 190 2508 0
6287 -190 0
6287 -2508 0
-6288 2510 192 0
6288 -2510 0
6288 -192 0
-6289 2656 2658 0
6289 -2656 0
6289 -2658 0
-6290 2660 344 0
6290 -2660 0
6290 -344 0
-6291 2662 346 0
6291 -2662 0
6291 -346 0
-6292 348 2664 0
6292 -348 0
6292 -2664 0
-6293 350 2666 0
6293 -350 0
6293 -2666 0
-6294 2668 352 0
6294 -2668 0
6294 -352 0
-6295 2735 2737 0
6295 -2735 0
6295 -2737 0
-6296 2739 424 0
6296 -2739 0
6296 -424 0
-6297 2741 426 0
6297 -2741 0
6297 -426 0
-6298 2743 428 0
6298 -2743 0
6298 -428 0
-6299 430 2745 0
6299 -430 0
6299 -2745 0
-6300 2747 432 0
6300 -2747 0
6300 -432 0
-6301 2577 2579 0
6301 -2577 0
6301 -2579 0
-6302 2581 264 0
6302 -2581 0
6302 -264 0
-6303 2583 266 0
6303 -2583 0
6303 -266 0
-6304 268 2585 0
6304 -268 0
6304 -2585 0
-6305 270 2587 0
6305 -270 0
6305 -2587 0
-6306 272 2589 0
6306 -272 0
6306 -2589 0
-6307 4343 4345 4344 4346 4347 0
6307 -4343 0
6307 -4345 0
6307 -4344 0
6307 -4346 0
6307 -4347 0
-6308 4370 4372 4374 4369 4371 0
6308 -4370 0
6308 -4372 0
6308 -4374 0
6308 -4369 0
6308 -4371 0
-6309 4388 4391 4390 4393 4387 0
6309 -4388 0
6309 -4391 0
6309 -4390 0
6309 -4393 0
6309 -4387 0
-6310 4453 4452 4455 4456 4454 0
6310 -4453 0
6310 -4452 0
6310 -4455 0
6310 -4456 0
6310 -4454 0
-6311 4511 4510 4509 4508 4507 0
6311 -4511 0
6311 -4510 0
6311 -4509 0
6311 -4508 0
6311 -4507 0
-6312 4531 4530 4532 4533 4529 0
6312 -4531 0
6312 -4530 0
6312 -4532 0
6312 -4533 0
6312 -4529 0
-6313 4549 4551 4547 4550 4552 0
6313 -4549 0
6313 -4551 0
6313 -4547 0
6313 -4550 0
6313 -4552 0
-6314 4609 4610 4608 4607 4606 0
6314 -4609 0
6314 -4610 0
6314 -4608 0
6314 -4607 0
6314 -4606 0
-6315 4645 4641 4644 4643 4642 0
6315 -4645 0
6315 -4641 0
6315 -4644 0
6315 -4643 0
6315 -4642 0
-6316 4658 4661 4659 4657 4660 0
6316 -4658 0
6316 -4661 0
6316 -4659 0
6316 -4657 0
6316 -4660 0
-6317 4672 4674 4673 4668 4669 0
6317 -4672 0
6317 -4674 0
6317 -4673 0
6317 -4668 0
6317 -4669 0
-6318 4723 4725 4724 4727 4726 0
6318 -4723 0
6318 -4725 0
6318 -4724 0
6318 -4727 0
6318 -4726 0
-6319 4769 4770 4766 4765 4767 0
6319 -4769 0
6319 -4770 0
6319 -4766 0
6319 -4765 0
6319 -4767 0
-6320 4775 4773 4771 4774 4776 0
6320 -4775 0
6320 -4773 0
6320 -4771 0
6320 -4774 0
6320 -4776 0
-6321 4781 4777 4784 4782 4779 0
6321 -4781 0
6321 -4777 0
6321 -4784 0
6321 -4782 0
6321 -4779 0
-6322 4805 4802 4799 4804 4800 0
6322 -4805 0
6322 -4802 0
6322 -4799 0
6322 -4804 0
6322 -4800 0
-6323 4812 4811 4809 4810 4808 4806 4807 1324 0
6323 -4812 0
6323 -4811 0
6323 -4809 0
6323 -4810 0
6323 -4808 0
6323 -4806 0
6323 -4807 0
6323 -1324 0
-6324 4840 4839 4841 4844 4846 0
6324 -4840 0
6324 -4839 0
6324 -4841 0
6324 -4844 0
6324 -4846 0
-6325 4867 4870 4868 4871 4869 0
6325 -4867 0
6325 -4870 0
6325 -4868 0
6325 -4871 0
6325 -4869 0
-6326 4885 4881 4882 4879 4880 0
6326 -4885 0
6326 -4881 0
6326 -4882 0
6326 -4879 0
6326 -4880 0
-6327 4916 4915 4917 4910 4914 0
6327 -4916 0
6327 -4915 0
6327 -4917 0
6327 -4910 0
6327 -4914 0
-6328 4999 5002 5000 5001 4998 0
6328 -4999 0
6328 -5002 0
6328 -5000 0
6328 -5001 0
6328 -4998 0
-6329 5011 5013 5015 5010 5012 0
6329 -5011 0
6329 -5013 0
6329 -5015 0
6329 -5010 0
6329 -5012 0
-6330 5045 5047 5048 5049 5046 0
6330 -5045 0
6330 -5047 0
6330 -5048 0
6330 -5049 0
6330 -5046 0
-6331 4152 4148 4149 4151 4150 0
6331 -4152 0
6331 -4148 0
6331 -4149 0
6331 -4151 0
6331 -4150 0
-6332 4156 4157 4155 4154 4153 0
6332 -4156 0
6332 -4157 0
6332 -4155 0
6332 -4154 0
6332 -4153 0
-6333 4183 4184 4185 4187 4186 0
6333 -4183 0
6333 -4184 0
6333 -4185 0
6333 -4187 0
6333 -4186 0
-6334 4211 4209 4212 4214 4208 0
6334 -4211 0
6334 -4209 0
6334 -4212 0
6334 -4214 0
6334 -4208 0
-6335 4226 4224 4223 4225 4220 0
6335 -4226 0
6335 -4224 0
6335 -4223 0
6335 -4225 0
6335 -4220 0
-6336 4294 4291 4293 4295 4292 0
6336 -4294 0
6336 -4291 0
6336 -4293 0
6336 -4295 0
6336 -4292 0
-668 666 2917 0
668 -666 0
668 -2917 0
-6337 1086 6308 4373 4375 0
6337 -1086 0
6337 -6308 0
6337 -4373 0
6337 -4375 0
-6338 1166 6312 4528 4534 0
6338 -1166 0
6338 -6312 0
6338 -4528 0
6338 -4534 0
-52 2334 1692 0
52 -2334 0
52 -1692 0
-6339 1246 6316 4656 4662 0
6339 -1246 0
6339 -6316 0
6339 -4656 0
6339 -4662 0
-6340 1288 6320 0
6340 -1288 0
6340 -6320 0
-6341 1130 6325 0
6341 -1130 0
6341 -6325 0
-6342 6168 4966 0
6342 -6168 0
6342 -4966 0
-6343 970 6328 0
6343 -970 0
6343 -6328 0
-6344 1050 6329 0
6344 -1050 0
6344 -6329 0
-6345 1210 6330 0
6345 -1210 0
6345 -6330 0
-6346 3475 1624 0
6346 -3475 0
6346 -1624 0
-6347 1006 6334 4210 4213 0
6347 -1006 0
6347 -6334 0
6347 -4210 0
6347 -4213 0
-6348 2608 292 0
6348 -2608 0
6348 -292 0
-6349 294 2610 0
6349 -294 0
6349 -2610 0
-6350 2612 296 0
6350 -2612 0
6350 -296 0
-6351 2602 286 0
6351 -2602 0
6351 -286 0
-6352 2604 288 0
6352 -2604 0
6352 -288 0
-6353 2606 290 0
6353 -2606 0
6353 -290 0
-6354 2756 442 0
6354 -2756 0
6354 -442 0
-6355 444 2758 0
6355 -444 0
6355 -2758 0
-6356 2760 446 0
6356 -2760 0
6356 -446 0
-6357 448 2762 0
6357 -448 0
6357 -2762 0
-6358 2764 450 0
6358 -2764 0
6358 -450 0
-6359 2766 452 0
6359 -2766 0
6359 -452 0
-6360 2768 454 0
6360 -2768 0
6360 -454 0
-6361 456 2770 0
6361 -456 0
6361 -2770 0
-6362 74 2376 0
6362 -74 0
6362 -2376 0
-6363 78 2380 0
6363 -78 0
6363 -2380 0
-6364 82 2383 0
6364 -82 0
6364 -2383 0
-6365 2387 86 0
6365 -2387 0
6365 -86 0
-6366 2391 90 0
6366 -2391 0
6366 -90 0
-6367 2395 94 0
6367 -2395 0
6367 -94 0
-6368 2525 208 0
6368 -2525 0
6368 -208 0
-6369 210 2527 0
6369 -210 0
6369 -2527 0
-6370 212 2529 0
6370 -212 0
6370 -2529 0
-6371 2531 214 0
6371 -2531 0
6371 -214 0
-6372 372 2687 0
6372 -372 0
6372 -2687 0
-6373 374 2689 0
6373 -374 0
6373 -2689 0
-6374 2691 376 0
6374 -2691 0
6374 -376 0
-6375 4332 4329 4330 4331 4328 0
6375 -4332 0
6375 -4329 0
6375 -4330 0
6375 -4331 0
6375 -4328 0
-6376 4473 4472 4476 4475 4474 0
6376 -4473 0
6376 -4472 0
6376 -4476 0
6376 -4475 0
6376 -4474 0
-6377 4619 4620 4617 4616 4618 0
6377 -4619 0
6377 -4620 0
6377 -4617 0
6377 -4616 0
6377 -4618 0
-6378 4736 4733 4738 4734 0
6378 -4736 0
6378 -4733 0
6378 -4738 0
6378 -4734 0
-6379 4761 4763 4758 4759 4760 0
6379 -4761 0
6379 -4763 0
6379 -4758 0
6379 -4759 0
6379 -4760 0
-6380 4785 4789 4788 4786 0
6380 -4785 0
6380 -4789 0
6380 -4788 0
6380 -4786 0
-6381 3352 3347 3349 3351 0
6381 -3352 0
6381 -3347 0
6381 -3349 0
6381 -3351 0
-6382 4816 4817 4818 4813 0
6382 -4816 0
6382 -4817 0
6382 -4818 0
6382 -4813 0
-6383 4821 4824 4822 4825 4820 1054 4823 0
6383 -4821 0
6383 -4824 0
6383 -4822 0
6383 -4825 0
6383 -4820 0
6383 -1054 0
6383 -4823 0
-6384 4830 4828 4827 4829 0
6384 -4830 0
6384 -4828 0
6384 -4827 0
6384 -4829 0
-6385 4856 4858 4853 4855 4857 0
6385 -4856 0
6385 -4858 0
6385 -4853 0
6385 -4855 0
6385 -4857 0
-6386 4899 4902 4901 4903 4898 4900 1214 0
6386 -4899 0
6386 -4902 0
6386 -4901 0
6386 -4903 0
6386 -4898 0
6386 -4900 0
6386 -1214 0
-6387 4972 4971 4975 4977 0
6387 -4972 0
6387 -4971 0
6387 -4975 0
6387 -4977 0
-6388 5019 5020 5016 5018 0
6388 -5019 0
6388 -5020 0
6388 -5016 0
6388 -5018 0
-6389 3438 3443 3439 3442 0
6389 -3438 0
6389 -3443 0
6389 -3439 0
6389 -3442 0
-6390 5053 5052 5054 5051 0
6390 -5053 0
6390 -5052 0
6390 -5054 0
6390 -5051 0
-6391 5099 5100 5101 0
6391 -5099 0
6391 -5100 0
6391 -5101 0
-6392 5146 5150 5145 5148 0
6392 -5146 0
6392 -5150 0
6392 -5145 0
6392 -5148 0
-6393 5169 5172 5171 5173 0
6393 -5169 0
6393 -5172 0
6393 -5171 0
6393 -5173 0
-6394 5186 5187 5185 5189 0
6394 -5186 0
6394 -5187 0
6394 -5185 0
6394 -5189 0
-6395 5197 5194 5196 0
6395 -5197 0
6395 -5194 0
6395 -5196 0
-6396 5217 5219 5216 0
6396 -5217 0
6396 -5219 0
6396 -5216 0
-6397 5229 5231 5232 5230 0
6397 -5229 0
6397 -5231 0
6397 -5232 0
6397 -5230 0
-6398 5243 5246 5244 0
6398 -5243 0
6398 -5246 0
6398 -5244 0
-6399 3488 3483 3484 3486 0
6399 -3488 0
6399 -3483 0
6399 -3484 0
6399 -3486 0
-6400 3498 3500 3497 0
6400 -3498 0
6400 -3500 0
6400 -3497 0
-6401 4161 4162 4159 4158 4160 0
6401 -4161 0
6401 -4162 0
6401 -4159 0
6401 -4158 0
6401 -4160 0
-6402 4297 4299 4301 4298 0
6402 -4297 0
6402 -4299 0
6402 -4301 0
6402 -4298 0
-6403 4310 4308 4307 4311 4309 0
6403 -4310 0
6403 -4308 0
6403 -4307 0
6403 -4311 0
6403 -4309 0
-6404 4316 4317 4315 4313 4312 0
6404 -4316 0
6404 -4317 0
6404 -4315 0
6404 -4313 0
6404 -4312 0
-6405 1965 1976 0
6405 -1965 0
6405 -1976 0
-6406 2000 2018 0
6406 -2000 0
6406 -2018 0
-6407 2102 2140 0
6407 -2102 0
6407 -2140 0
-6408 2188 2198 0
6408 -2188 0
6408 -2198 0
-6409 2248 2286 0
6409 -2248 0
6409 -2286 0
-6410 3177 1424 0
6410 -3177 0
6410 -1424 0
-6411 3200 3201 0
6411 -3200 0
6411 -3201 0
-6412 66 2368 0
6412 -66 0
6412 -2368 0
-72 1468 2370 0
72 -1468 0
72 -2370 0
-6413 2372 70 0
6413 -2372 0
6413 -70 0
-6414 3269 1482 0
6414 -3269 0
6414 -1482 0
-6415 2874 2875 0
6415 -2874 0
6415 -2875 0
-6416 3291 3292 0
6416 -3291 0
6416 -3292 0
-6417 2876 596 0
6417 -2876 0
6417 -596 0
-6418 2877 598 0
6418 -2877 0
6418 -598 0
-6419 2878 600 0
6419 -2878 0
6419 -600 0
-6420 2879 602 0
6420 -2879 0
6420 -602 0
-606 604 2880 0
606 -604 0
606 -2880 0
-6421 3360 1542 0
6421 -3360 0
6421 -1542 0
-6422 3367 3368 0
6422 -3367 0
6422 -3368 0
-6423 1600 3451 0
6423 -1600 0
6423 -3451 0
-6424 202 2519 0
6424 -202 0
6424 -2519 0
-6425 2521 204 0
6425 -2521 0
6425 -204 0
-6426 206 2523 0
6426 -206 0
6426 -2523 0
-6427 3492 3499 0
6427 -3492 0
6427 -3499 0
-6428 3504 1644 0
6428 -3504 0
6428 -1644 0
-6429 3510 3518 0
6429 -3510 0
6429 -3518 0
-6430 3560 3582 0
6430 -3560 0
6430 -3582 0
-6431 3595 3604 0
6431 -3595 0
6431 -3604 0
-6432 3638 3665 0
6432 -3638 0
6432 -3665 0
-6433 3685 3705 0
6433 -3685 0
6433 -3705 0
-6434 3715 3725 0
6434 -3715 0
6434 -3725 0
-6435 3750 3767 0
6435 -3750 0
6435 -3767 0
-6436 3795 3812 0
6436 -3795 0
6436 -3812 0
-6437 3841 3850 0
6437 -3841 0
6437 -3850 0
-6438 3885 3895 0
6438 -3885 0
6438 -3895 0
-6439 3929 3936 0
6439 -3929 0
6439 -3936 0
-6440 3950 3956 0
6440 -3950 0
6440 -3956 0
-6441 3985 3994 0
6441 -3985 0
6441 -3994 0
-6442 4031 4054 0
6442 -4031 0
6442 -4054 0
-6443 4060 4081 0
6443 -4060 0
6443 -4081 0
-6444 4099 4112 0
6444 -4099 0
6444 -4112 0
-6445 4174 4175 4176 4177 0
6445 -4174 0
6445 -4175 0
6445 -4176 0
6445 -4177 0
-6446 2600 284 0
6446 -2600 0
6446 -284 0
-6447 4244 4245 4246 4247 4248 1354 0
6447 -4244 0
6447 -4245 0
6447 -4246 0
6447 -4247 0
6447 -4248 0
6447 -1354 0
-6448 4260 4262 4263 4264 0
6448 -4260 0
6448 -4262 0
6448 -4263 0
6448 -4264 0
-6449 4281 1036 4282 4283 4284 4285 0
6449 -4281 0
6449 -1036 0
6449 -4282 0
6449 -4283 0
6449 -4284 0
6449 -4285 0
-6450 2598 282 0
6450 -2598 0
6450 -282 0
-6451 2969 2970 0
6451 -2969 0
6451 -2970 0
-6452 2971 752 0
6452 -2971 0
6452 -752 0
-6453 754 2972 0
6453 -754 0
6453 -2972 0
-6454 4333 4334 4336 4337 0
6454 -4333 0
6454 -4334 0
6454 -4336 0
6454 -4337 0
-6455 2973 756 0
6455 -2973 0
6455 -756 0
-6456 4442 4443 1116 4445 4446 0
6456 -4442 0
6456 -4443 0
6456 -1116 0
6456 -4445 0
6456 -4446 0
-6457 4492 4494 4495 4496 0
6457 -4492 0
6457 -4494 0
6457 -4495 0
6457 -4496 0
-6458 4596 4597 4598 4599 4600 1196 0
6458 -4596 0
6458 -4597 0
6458 -4598 0
6458 -4599 0
6458 -4600 0
6458 -1196 0
-6459 4631 4633 4634 4635 0
6459 -4631 0
6459 -4633 0
6459 -4634 0
6459 -4635 0
-6460 4713 4714 1276 4716 4717 0
6460 -4713 0
6460 -4714 0
6460 -1276 0
6460 -4716 0
6460 -4717 0
-6461 362 2677 0
6461 -362 0
6461 -2677 0
-6462 2679 364 0
6462 -2679 0
6462 -364 0
-6463 366 2681 0
6463 -366 0
6463 -2681 0
-6464 2683 368 0
6464 -2683 0
6464 -368 0
-6465 370 2685 0
6465 -370 0
6465 -2685 0
-6466 5097 5098 0
6466 -5097 0
6466 -5098 0
-6467 5192 5193 0
6467 -5192 0
6467 -5193 0
-6468 5212 5214 0
6468 -5212 0
6468 -5214 0
-6469 5245 5248 0
6469 -5245 0
6469 -5248 0
-6470 3124 3129 0
6470 -3124 0
6470 -3129 0
-760 2974 758 0
760 -2974 0
760 -758 0
-6471 4335 6454 0
6471 -4335 0
6471 -6454 0
-6472 6456 4444 0
6472 -6456 0
6472 -4444 0
-6473 4493 6457 0
6473 -4493 0
6473 -6457 0
-6474 4632 6459 0
6474 -4632 0
6474 -6459 0
-6475 6460 4715 0
6475 -6460 0
6475 -4715 0
-6476 6378 4737 0
6476 -6378 0
6476 -4737 0
-6477 6379 4762 974 0
6477 -6379 0
6477 -4762 0
6477 -974 0
-6478 6380 4787 0
6478 -6380 0
6478 -4787 0
-6479 6381 3346 0
6479 -6381 0
6479 -3346 0
-6480 6382 4815 0
6480 -6382 0
6480 -4815 0
-6481 6384 4831 0
6481 -6384 0
6481 -4831 0
-6482 6385 4854 1134 0
6482 -6385 0
6482 -4854 0
6482 -1134 0
-6483 6387 4974 0
6483 -6387 0
6483 -4974 0
-6484 6389 3437 0
6484 -6389 0
6484 -3437 0
-6485 6390 5055 0
6485 -6390 0
6485 -5055 0
-6486 6391 6466 0
6486 -6391 0
6486 -6466 0
-6487 6395 6467 0
6487 -6395 0
6487 -6467 0
-6488 6396 6468 0
6488 -6396 0
6488 -6468 0
-6489 6398 6469 0
6489 -6398 0
6489 -6469 0
-6490 6399 3482 0
6490 -6399 0
6490 -3482 0
-6491 6400 6427 0
6491 -6400 0
6491 -6427 0
-6492 4173 6445 0
6492 -4173 0
6492 -6445 0
-6493 4261 6448 0
6493 -4261 0
6493 -6448 0
-6494 6402 4300 0
6494 -6402 0
6494 -4300 0
-6495 6404 4314 1292 0
6495 -6404 0
6495 -4314 0
6495 -1292 0
-6496 3156 1400 0
6496 -3156 0
6496 -1400 0
-6497 1844 1906 1962 0
6497 -1844 0
6497 -1906 0
6497 -1962 0
-6498 2016 2042 2060 0
6498 -2016 0
6498 -2042 0
6498 -2060 0
-6499 2076 2094 2134 0
6499 -2076 0
6499 -2094 0
6499 -2134 0
-538 2836 536 0
538 -2836 0
538 -536 0
-6500 2160 2172 2178 0
6500 -2160 0
6500 -2172 0
6500 -2178 0
-6501 2228 2274 2294 0
6501 -2228 0
6501 -2274 0
6501 -2294 0
-6502 4426 1110 4427 4428 4429 4430 4431 0
6502 -4426 0
6502 -1110 0
6502 -4427 0
6502 -4428 0
6502 -4429 0
6502 -4430 0
6502 -4431 0
-6503 1418 3174 0
6503 -1418 0
6503 -3174 0
-6504 2984 2985 0
6504 -2984 0
6504 -2985 0
-32 1430 2314 0
32 -1430 0
32 -2314 0
-6505 776 2986 0
6505 -776 0
6505 -2986 0
-6506 3185 3197 3203 0
6506 -3185 0
6506 -3197 0
6506 -3203 0
-6507 2987 778 0
6507 -2987 0
6507 -778 0
-6508 2988 780 0
6508 -2988 0
6508 -780 0
-6509 2989 782 0
6509 -2989 0
6509 -782 0
-6510 784 2990 0
6510 -784 0
6510 -2990 0
-6511 3243 1446 0
6511 -3243 0
6511 -1446 0
-6512 4580 4581 1190 4582 4583 4584 4585 0
6512 -4580 0
6512 -4581 0
6512 -1190 0
6512 -4582 0
6512 -4583 0
6512 -4584 0
6512 -4585 0
-68 2366 1464 0
68 -2366 0
68 -1464 0
-6513 1476 3266 0
6513 -1476 0
6513 -3266 0
-6514 4697 4698 1270 4699 4700 4701 4702 0
6514 -4697 0
6514 -4698 0
6514 -1270 0
6514 -4699 0
6514 -4700 0
6514 -4701 0
6514 -4702 0
-6515 3286 3306 3312 0
6515 -3286 0
6515 -3306 0
6515 -3312 0
-6516 1506 3334 0
6516 -1506 0
6516 -3334 0
-6517 3357 1536 0
6517 -3357 0
6517 -1536 0
-6518 3372 3391 3404 0
6518 -3372 0
6518 -3391 0
6518 -3404 0
-6519 3425 1568 0
6519 -3425 0
6519 -1568 0
-6520 1594 3448 0
6520 -1594 0
6520 -3448 0
-6521 2833 530 0
6521 -2833 0
6521 -530 0
-6522 1618 3470 0
6522 -1618 0
6522 -3470 0
-6523 1638 3501 0
6523 -1638 0
6523 -3501 0
-6524 3517 3530 3539 0
6524 -3517 0
6524 -3530 0
6524 -3539 0
-6525 3553 3580 3585 0
6525 -3553 0
6525 -3580 0
6525 -3585 0
-6526 3614 3615 3625 0
6526 -3614 0
6526 -3615 0
6526 -3625 0
-6527 3637 3649 3657 0
6527 -3637 0
6527 -3649 0
6527 -3657 0
-6528 3669 3677 3702 0
6528 -3669 0
6528 -3677 0
6528 -3702 0
-6529 3712 3719 3734 0
6529 -3712 0
6529 -3719 0
6529 -3734 0
-6530 3764 3772 3780 0
6530 -3764 0
6530 -3772 0
6530 -3780 0
-6531 3792 3809 3818 0
6531 -3792 0
6531 -3809 0
6531 -3818 0
-6532 3834 3837 3858 0
6532 -3834 0
6532 -3837 0
6532 -3858 0
-6533 3875 3883 3899 0
6533 -3875 0
6533 -3883 0
6533 -3899 0
-6534 3914 3919 3920 0
6534 -3914 0
6534 -3919 0
6534 -3920 0
-6535 3953 3965 3980 0
6535 -3953 0
6535 -3965 0
6535 -3980 0
-6536 3997 4006 4014 0
6536 -3997 0
6536 -4006 0
6536 -4014 0
-6537 4033 4046 4056 0
6537 -4033 0
6537 -4046 0
6537 -4056 0
-6538 4062 4070 4090 0
6538 -4062 0
6538 -4070 0
6538 -4090 0
-6539 4100 4114 4125 0
6539 -4100 0
6539 -4114 0
6539 -4125 0
-6540 2834 532 0
6540 -2834 0
6540 -532 0
-6541 2831 2832 0
6541 -2831 0
6541 -2832 0
-6542 2961 2962 0
6542 -2961 0
6542 -2962 0
-6543 4232 1348 4233 4234 4235 4236 4237 0
6543 -4232 0
6543 -1348 0
6543 -4233 0
6543 -4234 0
6543 -4235 0
6543 -4236 0
6543 -4237 0
-6544 740 2963 0
6544 -740 0
6544 -2963 0
-6545 2964 742 0
6545 -2964 0
6545 -742 0
-6546 1030 4265 4266 4267 4268 4269 4270 0
6546 -1030 0
6546 -4265 0
6546 -4266 0
6546 -4267 0
6546 -4268 0
6546 -4269 0
6546 -4270 0
-6547 2966 746 0
6547 -2966 0
6547 -746 0
-750 748 2967 0
750 -748 0
750 -2967 0
-6548 744 2965 0
6548 -744 0
6548 -2965 0
-6549 534 2835 0
6549 -534 0
6549 -2835 0
-6550 3109 3122 3133 0
6550 -3109 0
6550 -3122 0
6550 -3133 0
-6551 6405 6497 0
6551 -6405 0
6551 -6497 0
-6552 6406 6498 0
6552 -6406 0
6552 -6498 0
-6553 6407 6499 0
6553 -6407 0
6553 -6499 0
-6554 6408 6500 0
6554 -6408 0
6554 -6500 0
-6555 6409 6501 0
6555 -6409 0
6555 -6501 0
-6556 6411 6506 0
6556 -6411 0
6556 -6506 0
-6557 2364 62 0
6557 -2364 0
6557 -62 0
-6558 6416 6515 0
6558 -6416 0
6558 -6515 0
-6559 2675 360 0
6559 -2675 0
6559 -360 0
-6560 6422 6518 0
6560 -6422 0
6560 -6518 0
-6561 6388 5017 0
6561 -6388 0
6561 -5017 0
-6562 6486 5102 0
6562 -6486 0
6562 -5102 0
-6563 6392 5147 0
6563 -6392 0
6563 -5147 0
-6564 2754 440 0
6564 -2754 0
6564 -440 0
-6565 6393 5168 0
6565 -6393 0
6565 -5168 0
-6566 6394 5184 0
6566 -6394 0
6566 -5184 0
-6567 6487 5190 0
6567 -6487 0
6567 -5190 0
-6568 2517 200 0
6568 -2517 0
6568 -200 0
-6569 6488 5213 0
6569 -6488 0
6569 -5213 0
-6570 6397 5226 0
6570 -6397 0
6570 -5226 0
-6571 6489 5247 0
6571 -6489 0
6571 -5247 0
-6572 6491 3493 0
6572 -6491 0
6572 -3493 0
-6573 6429 6524 0
6573 -6429 0
6573 -6524 0
-6574 6430 6525 0
6574 -6430 0
6574 -6525 0
-6575 6431 6526 0
6575 -6431 0
6575 -6526 0
-6576 6432 6527 0
6576 -6432 0
6576 -6527 0
-6577 6433 6528 0
6577 -6433 0
6577 -6528 0
-6578 6434 6529 0
6578 -6434 0
6578 -6529 0
-6579 6435 6530 0
6579 -6435 0
6579 -6530 0
-6580 6436 6531 0
6580 -6436 0
6580 -6531 0
-6581 6437 6532 0
6581 -6437 0
6581 -6532 0
-6582 6438 6533 0
6582 -6438 0
6582 -6533 0
-6583 6439 6534 0
6583 -6439 0
6583 -6534 0
-6584 6440 6535 0
6584 -6440 0
6584 -6535 0
-6585 6441 6536 0
6585 -6441 0
6585 -6536 0
-6586 6442 6537 0
6586 -6442 0
6586 -6537 0
-6587 6443 6538 0
6587 -6443 0
6587 -6538 0
-6588 6444 6539 0
6588 -6444 0
6588 -6539 0
-6589 2596 280 0
6589 -2596 0
6589 -280 0
-6590 6470 6550 0
6590 -6470 0
6590 -6550 0
-6591 1064 6471 0
6591 -1064 0
6591 -6471 0
-6592 6307 1076 0
6592 -6307 0
6592 -1076 0
-6593 6247 6551 0
6593 -6247 0
6593 -6551 0
-6594 6248 6552 0
6594 -6248 0
6594 -6552 0
-6595 2614 298 0
6595 -2614 0
6595 -298 0
-6596 6250 6553 0
6596 -6250 0
6596 -6553 0
-6597 6251 6554 0
6597 -6251 0
6597 -6554 0
-6598 6252 6555 0
6598 -6252 0
6598 -6555 0
-6599 6253 6556 0
6599 -6253 0
6599 -6556 0
-6600 1144 6473 0
6600 -1144 0
6600 -6473 0
-6601 3225 1678 0
6601 -3225 0
6601 -1678 0
-6602 6311 1156 0
6602 -6311 0
6602 -1156 0
-6603 1224 6474 0
6603 -1224 0
6603 -6474 0
-6604 6315 1236 0
6604 -6315 0
6604 -1236 0
-6605 6255 6558 0
6605 -6255 0
6605 -6558 0
-92 2389 1494 0
92 -2389 0
92 -1494 0
-6606 3316 1696 0
6606 -3316 0
6606 -1696 0
-6607 2399 98 0
6607 -2399 0
6607 -98 0
-6608 2693 378 0
6608 -2693 0
6608 -378 0
-6609 6340 4772 0
6609 -6340 0
6609 -4772 0
-6610 6341 4866 0
6610 -6341 0
6610 -4866 0
-6611 6257 6560 0
6611 -6257 0
6611 -6560 0
-6612 3407 1706 0
6612 -3407 0
6612 -1706 0
-6613 6343 4997 0
6613 -6343 0
6613 -4997 0
-6614 6344 5014 0
6614 -6344 0
6614 -5014 0
-6615 6169 6561 1294 0
6615 -6169 0
6615 -6561 0
6615 -1294 0
-6616 6345 5044 0
6616 -6345 0
6616 -5044 0
-6617 6175 6563 1136 0
6617 -6175 0
6617 -6563 0
6617 -1136 0
-6618 3459 1720 0
6618 -3459 0
6618 -1720 0
-6619 5158 5157 0
6619 -5158 0
6619 -5157 0
-6620 6176 6565 1216 0
6620 -6176 0
6620 -6565 0
6620 -1216 0
-6621 6177 6566 976 0
6621 -6177 0
6621 -6566 0
6621 -976 0
-6622 6178 6570 1056 0
6622 -6178 0
6622 -6570 0
6622 -1056 0
-6623 2772 458 0
6623 -2772 0
6623 -458 0
-6624 6260 6573 0
6624 -6260 0
6624 -6573 0
-6625 6261 6574 0
6625 -6261 0
6625 -6574 0
-6626 6262 6575 0
6626 -6262 0
6626 -6575 0
-6627 6263 6576 0
6627 -6263 0
6627 -6576 0
-6628 6264 6577 0
6628 -6264 0
6628 -6577 0
-6629 6265 6578 0
6629 -6265 0
6629 -6578 0
-6630 6266 6579 0
6630 -6266 0
6630 -6579 0
-6631 6267 6580 0
6631 -6267 0
6631 -6580 0
-6632 6268 6581 0
6632 -6268 0
6632 -6581 0
-6633 6269 6582 0
6633 -6269 0
6633 -6582 0
-6634 6270 6583 0
6634 -6270 0
6634 -6583 0
-6635 6271 6584 0
6635 -6271 0
6635 -6584 0
-6636 6272 6585 0
6636 -6272 0
6636 -6585 0
-6637 6273 6586 0
6637 -6273 0
6637 -6586 0
-6638 6274 6587 0
6638 -6274 0
6638 -6587 0
-6639 6275 6588 0
6639 -6275 0
6639 -6588 0
-6640 6331 1314 0
6640 -6331 0
6640 -1314 0
-6641 984 6492 0
6641 -984 0
6641 -6492 0
-6642 6333 996 0
6642 -6333 0
6642 -996 0
-6643 1302 6493 0
6643 -1302 0
6643 -6493 0
-6644 6276 6590 0
6644 -6276 0
6644 -6590 0
-6645 3145 1658 0
6645 -3145 0
6645 -1658 0
-6646 2838 2839 0
6646 -2838 0
6646 -2839 0
-6647 2840 540 0
6647 -2840 0
6647 -540 0
-6648 2841 542 0
6648 -2841 0
6648 -542 0
-6649 544 2842 0
6649 -544 0
6649 -2842 0
-548 546 2843 0
548 -546 0
548 -2843 0
-6650 1990 2030 2034 0
6650 -1990 0
6650 -2030 0
6650 -2034 0
-6651 2088 2096 2106 0
6651 -2088 0
6651 -2096 0
6651 -2106 0
-6652 2162 2180 2220 0
6652 -2162 0
6652 -2180 0
6652 -2220 0
-6653 2234 2242 2296 0
6653 -2234 0
6653 -2242 0
6653 -2296 0
-6654 1923 1932 1968 0
6654 -1923 0
6654 -1932 0
6654 -1968 0
-6655 1428 3179 0
6655 -1428 0
6655 -3179 0
-36 2318 1434 0
36 -2318 0
36 -1434 0
-6656 3191 3192 3193 0
6656 -3191 0
6656 -3192 0
6656 -3193 0
-6657 3153 1666 0
6657 -3153 0
6657 -1666 0
-6658 3240 1688 0
6658 -3240 0
6658 -1688 0
-6659 2992 2993 0
6659 -2992 0
6659 -2993 0
-6660 790 2994 0
6660 -790 0
6660 -2994 0
-6661 2995 792 0
6661 -2995 0
6661 -792 0
-6662 794 2996 0
6662 -794 0
6662 -2996 0
-6663 796 2997 0
6663 -796 0
6663 -2997 0
-800 2998 798 0
800 -2998 0
800 -798 0
-6664 3265 1826 0
6664 -3265 0
6664 -1826 0
-80 1788 2378 0
80 -1788 0
80 -2378 0
-6665 3271 1486 0
6665 -3271 0
6665 -1486 0
-6666 3278 3295 3296 0
6666 -3278 0
6666 -3295 0
6666 -3296 0
-6667 1700 3331 0
6667 -1700 0
6667 -3331 0
-6668 4793 990 0
6668 -4793 0
6668 -990 0
-6669 3356 1836 0
6669 -3356 0
6669 -1836 0
-6670 4834 1070 0
6670 -4834 0
6670 -1070 0
-6671 3362 1546 0
6671 -3362 0
6671 -1546 0
-6672 4874 1150 0
6672 -4874 0
6672 -1150 0
-6673 3398 3399 3401 0
6673 -3398 0
6673 -3399 0
6673 -3401 0
-6674 4906 1230 0
6674 -4906 0
6674 -1230 0
-6675 4522 1308 0
6675 -4522 0
6675 -1308 0
-6676 3422 1712 0
6676 -3422 0
6676 -1712 0
-160 2456 1574 0
160 -2456 0
160 -1574 0
-6677 1820 3447 0
6677 -1820 0
6677 -3447 0
-6678 3453 1604 0
6678 -3453 0
6678 -1604 0
-6679 3467 1722 0
6679 -3467 0
6679 -1722 0
-6680 1188 5195 0
6680 -1188 0
6680 -5195 0
-6681 1108 5242 0
6681 -1108 0
6681 -5242 0
-6682 3495 1268 0
6682 -3495 0
6682 -1268 0
-6683 3506 1648 0
6683 -3506 0
6683 -1648 0
-6684 3524 3526 3545 0
6684 -3524 0
6684 -3526 0
6684 -3545 0
-6685 3569 3577 3584 0
6685 -3569 0
6685 -3577 0
6685 -3584 0
-6686 3590 3607 3611 0
6686 -3590 0
6686 -3607 0
6686 -3611 0
-6687 3641 3643 3662 0
6687 -3641 0
6687 -3643 0
6687 -3662 0
-6688 3676 3680 3687 0
6688 -3676 0
6688 -3680 0
6688 -3687 0
-6689 3727 3731 3735 0
6689 -3727 0
6689 -3731 0
6689 -3735 0
-6690 3747 3757 3781 0
6690 -3747 0
6690 -3757 0
6690 -3781 0
-6691 3789 3793 3797 0
6691 -3789 0
6691 -3793 0
6691 -3797 0
-6692 3828 3839 3847 0
6692 -3828 0
6692 -3839 0
6692 -3847 0
-6693 3864 3881 3888 0
6693 -3864 0
6693 -3881 0
6693 -3888 0
-6694 3905 3921 3926 0
6694 -3905 0
6694 -3921 0
6694 -3926 0
-6695 3943 3955 3959 0
6695 -3943 0
6695 -3955 0
6695 -3959 0
-6696 3983 4008 4017 0
6696 -3983 0
6696 -4008 0
6696 -4017 0
-6697 4027 4036 4044 0
6697 -4027 0
6697 -4036 0
6697 -4044 0
-6698 4064 4073 4079 0
6698 -4064 0
6698 -4073 0
6698 -4079 0
-6699 4109 4116 4127 0
6699 -4109 0
6699 -4116 0
6699 -4127 0
-6700 2952 2953 0
6700 -2952 0
6700 -2953 0
-6701 2954 724 0
6701 -2954 0
6701 -724 0
-6702 2955 726 0
6702 -2955 0
6702 -726 0
-6703 2956 728 0
6703 -2956 0
6703 -728 0
-6704 2957 730 0
6704 -2957 0
6704 -730 0
-6705 2958 732 0
6705 -2958 0
6705 -732 0
-6706 2959 734 0
6706 -2959 0
6706 -734 0
-738 736 2960 0
738 -736 0
738 -2960 0
-6707 3113 3117 3125 0
6707 -3113 0
6707 -3117 0
6707 -3125 0
-6708 1875 1926 1936 0
6708 -1875 0
6708 -1926 0
6708 -1936 0
-6709 1998 2004 2058 0
6709 -1998 0
6709 -2004 0
6709 -2058 0
-6710 2072 2120 2136 0
6710 -2072 0
6710 -2120 0
6710 -2136 0
-6711 2156 2168 2216 0
6711 -2156 0
6711 -2168 0
6711 -2216 0
-6712 2252 2266 2290 0
6712 -2252 0
6712 -2266 0
6712 -2290 0
-6713 1414 3171 0
6713 -1414 0
6713 -3171 0
-6714 3190 3204 3218 0
6714 -3190 0
6714 -3204 0
6714 -3218 0
-6715 3230 982 3233 0
6715 -3230 0
6715 -982 0
6715 -3233 0
-6716 1300 2354 2356 0
6716 -1300 0
6716 -2354 0
6716 -2356 0
-6717 1470 3263 0
6717 -1470 0
6717 -3263 0
-6718 3272 1828 0
6718 -3272 0
6718 -1828 0
-6719 3279 3294 3304 0
6719 -3279 0
6719 -3294 0
6719 -3304 0
-6720 3323 3324 0
6720 -3323 0
6720 -3324 0
-120 1800 2416 0
120 -1800 0
120 -2416 0
-6721 1530 3354 0
6721 -1530 0
6721 -3354 0
-6722 3363 1840 0
6722 -3363 0
6722 -1840 0
-6723 3369 3373 3400 0
6723 -3369 0
6723 -3373 0
6723 -3400 0
-6724 3412 3414 0
6724 -3412 0
6724 -3414 0
-156 2452 1564 0
156 -2452 0
156 -1564 0
-6725 1588 3445 0
6725 -1588 0
6725 -3445 0
-6726 1810 3454 0
6726 -1810 0
6726 -3454 0
-6727 3048 3049 0
6727 -3048 0
6727 -3049 0
-6728 3050 882 0
6728 -3050 0
6728 -882 0
-6729 3051 884 0
6729 -3051 0
6729 -884 0
-6730 3052 886 0
6730 -3052 0
6730 -886 0
-6731 1824 3463 0
6731 -1824 0
6731 -3463 0
-6732 3053 888 0
6732 -3053 0
6732 -888 0
-892 3054 890 0
892 -3054 0
892 -890 0
-6733 5208 5209 0
6733 -5208 0
6733 -5209 0
-6734 5250 5251 0
6734 -5250 0
6734 -5251 0
-6735 3490 1634 0
6735 -3490 0
6735 -1634 0
-6736 1816 3507 0
6736 -1816 0
6736 -3507 0
-6737 3512 3538 3548 0
6737 -3512 0
6737 -3538 0
6737 -3548 0
-6738 2938 2939 0
6738 -2938 0
6738 -2939 0
-6739 700 2940 0
6739 -700 0
6739 -2940 0
-6740 2941 702 0
6740 -2941 0
6740 -702 0
-6741 3826 3838 3859 0
6741 -3826 0
6741 -3838 0
6741 -3859 0
-6742 3871 3877 3886 0
6742 -3871 0
6742 -3877 0
6742 -3886 0
-6743 3903 3913 3924 0
6743 -3903 0
6743 -3913 0
6743 -3924 0
-6744 3964 3972 3979 0
6744 -3964 0
6744 -3972 0
6744 -3979 0
-6745 3987 3998 4009 0
6745 -3987 0
6745 -3998 0
6745 -4009 0
-6746 4025 4028 4045 0
6746 -4025 0
6746 -4028 0
6746 -4045 0
-6747 4065 4077 4092 0
6747 -4065 0
6747 -4077 0
6747 -4092 0
-6748 4108 4110 4122 0
6748 -4108 0
6748 -4110 0
6748 -4122 0
-6749 704 2942 0
6749 -704 0
6749 -2942 0
-6750 708 2944 0
6750 -708 0
6750 -2944 0
-712 2945 710 0
712 -2945 0
712 -710 0
-6751 2946 2947 0
6751 -2946 0
6751 -2947 0
-6752 714 2948 0
6752 -714 0
6752 -2948 0
-6753 2949 716 0
6753 -2949 0
6753 -716 0
-6754 3557 3562 3564 0
6754 -3557 0
6754 -3562 0
6754 -3564 0
-6755 2950 718 0
6755 -2950 0
6755 -718 0
-722 2951 720 0
722 -2951 0
722 -720 0
-6756 3594 3597 3624 0
6756 -3594 0
6756 -3597 0
6756 -3624 0
-6757 3629 3652 3655 0
6757 -3629 0
6757 -3652 0
6757 -3655 0
-6758 3667 3693 3699 0
6758 -3667 0
6758 -3693 0
6758 -3699 0
-6759 3710 3718 3741 0
6759 -3710 0
6759 -3718 0
6759 -3741 0
-6760 3115 3130 3131 0
6760 -3115 0
6760 -3130 0
6760 -3131 0
-6761 3756 3765 3783 0
6761 -3756 0
6761 -3765 0
6761 -3783 0
-6762 2943 706 0
6762 -2943 0
6762 -706 0
-6763 3800 3806 3817 0
6763 -3800 0
6763 -3806 0
6763 -3817 0
-6764 1838 3149 0
6764 -1838 0
6764 -3149 0
-6765 6654 6708 0
6765 -6654 0
6765 -6708 0
-6766 6650 6709 0
6766 -6650 0
6766 -6709 0
-6767 6651 6710 0
6767 -6651 0
6767 -6710 0
-6768 6652 6711 0
6768 -6652 0
6768 -6711 0
-6769 6653 6712 0
6769 -6653 0
6769 -6712 0
-6770 3173 1814 0
6770 -3173 0
6770 -1814 0
-6771 6656 6714 0
6771 -6656 0
6771 -6714 0
-6772 6715 3235 0
6772 -6715 0
6772 -3235 0
-6773 6716 2357 0
6773 -6716 0
6773 -2357 0
-6774 6666 6719 0
6774 -6666 0
6774 -6719 0
-6775 6720 3327 0
6775 -6720 0
6775 -3327 0
-6776 6673 6723 0
6776 -6673 0
6776 -6723 0
-6777 6724 3415 0
6777 -6724 0
6777 -3415 0
-6778 5218 1028 0
6778 -5218 0
6778 -1028 0
-6779 6682 3496 0
6779 -6682 0
6779 -3496 0
-6780 6684 6737 0
6780 -6684 0
6780 -6737 0
-6781 6685 6754 0
6781 -6685 0
6781 -6754 0
-6782 6686 6756 0
6782 -6686 0
6782 -6756 0
-6783 6687 6757 0
6783 -6687 0
6783 -6757 0
-6784 6688 6758 0
6784 -6688 0
6784 -6758 0
-6785 6689 6759 0
6785 -6689 0
6785 -6759 0
-6786 6690 6761 0
6786 -6690 0
6786 -6761 0
-6787 6691 6763 0
6787 -6691 0
6787 -6763 0
-6788 6692 6741 0
6788 -6692 0
6788 -6741 0
-6789 6693 6742 0
6789 -6693 0
6789 -6742 0
-6790 6694 6743 0
6790 -6694 0
6790 -6743 0
-6791 6695 6744 0
6791 -6695 0
6791 -6744 0
-6792 6696 6745 0
6792 -6696 0
6792 -6745 0
-6793 6697 6746 0
6793 -6697 0
6793 -6746 0
-6794 6698 6747 0
6794 -6698 0
6794 -6747 0
-6795 6699 6748 0
6795 -6699 0
6795 -6748 0
-6796 6707 6760 0
6796 -6707 0
6796 -6760 0
-6797 1852 1915 1946 0
6797 -1852 0
6797 -1915 0
6797 -1946 0
-6798 2008 2028 2040 0
6798 -2008 0
6798 -2028 0
6798 -2040 0
-6799 2976 2977 0
6799 -2976 0
6799 -2977 0
-6800 2070 2110 2132 0
6800 -2070 0
6800 -2110 0
6800 -2132 0
-6801 2978 762 0
6801 -2978 0
6801 -762 0
-6802 2190 2212 2214 0
6802 -2190 0
6802 -2212 0
6802 -2214 0
-6803 2979 764 0
6803 -2979 0
6803 -764 0
-6804 2226 2244 2280 0
6804 -2226 0
6804 -2244 0
6804 -2280 0
-6805 3170 1674 0
6805 -3170 0
6805 -1674 0
-6806 2980 766 0
6806 -2980 0
6806 -766 0
-6807 2981 768 0
6807 -2981 0
6807 -768 0
-6808 770 2982 0
6808 -770 0
6808 -2982 0
-774 772 2983 0
774 -772 0
774 -2983 0
-6809 3025 842 0
6809 -3025 0
6809 -842 0
-6810 4826 4832 0
6810 -4826 0
6810 -4832 0
-6811 3195 3208 3216 0
6811 -3195 0
6811 -3208 0
6811 -3216 0
-6812 3227 1438 0
6812 -3227 0
6812 -1438 0
-6813 3262 1654 0
6813 -3262 0
6813 -1654 0
-6814 3275 3283 3298 0
6814 -3275 0
6814 -3283 0
6814 -3298 0
-6815 3318 1496 0
6815 -3318 0
6815 -1496 0
-6816 3014 3015 0
6816 -3014 0
6816 -3015 0
-6817 826 3016 0
6817 -826 0
6817 -3016 0
-112 2409 1514 0
112 -2409 0
112 -1514 0
-6818 828 3017 0
6818 -828 0
6818 -3017 0
-6819 830 3018 0
6819 -830 0
6819 -3018 0
-6820 4790 4791 0
6820 -4790 0
6820 -4791 0
-6821 3019 832 0
6821 -3019 0
6821 -832 0
-6822 1670 3353 0
6822 -1670 0
6822 -3353 0
-128 2424 1532 0
128 -2424 0
128 -1532 0
-836 3020 834 0
836 -3020 0
836 -834 0
-6823 3021 3022 0
6823 -3021 0
6823 -3022 0
-6824 3023 838 0
6824 -3023 0
6824 -838 0
-6825 3024 840 0
6825 -3024 0
6825 -840 0
-6826 3377 3386 3403 0
6826 -3377 0
6826 -3386 0
6826 -3403 0
-846 3026 844 0
846 -3026 0
846 -844 0
-6827 3409 1558 0
6827 -3409 0
6827 -1558 0
-6828 4973 4976 0
6828 -4973 0
6828 -4976 0
-6829 4986 4987 0
6829 -4986 0
6829 -4987 0
-6830 3444 1718 0
6830 -3444 0
6830 -1718 0
-6831 5050 5056 0
6831 -5050 0
6831 -5056 0
-6832 1610 3461 0
6832 -1610 0
6832 -3461 0
-6833 3489 1734 0
6833 -3489 0
6833 -1734 0
-6834 4814 4819 0
6834 -4814 0
6834 -4819 0
-6835 3513 3522 3528 0
6835 -3513 0
6835 -3522 0
6835 -3528 0
-6836 3551 3572 3574 0
6836 -3551 0
6836 -3572 0
6836 -3574 0
-6837 3589 3598 3605 0
6837 -3589 0
6837 -3598 0
6837 -3605 0
-6838 3630 3631 3647 0
6838 -3630 0
6838 -3631 0
6838 -3647 0
-6839 3689 3698 3704 0
6839 -3689 0
6839 -3698 0
6839 -3704 0
-6840 3709 3714 3728 0
6840 -3709 0
6840 -3714 0
6840 -3728 0
-6841 3752 3763 3770 0
6841 -3752 0
6841 -3763 0
6841 -3770 0
-6842 3787 3807 3811 0
6842 -3787 0
6842 -3807 0
6842 -3811 0
-6843 3844 3855 3857 0
6843 -3844 0
6843 -3855 0
6843 -3857 0
-6844 3874 3890 3902 0
6844 -3874 0
6844 -3890 0
6844 -3902 0
-6845 3928 3939 3941 0
6845 -3928 0
6845 -3939 0
6845 -3941 0
-6846 3944 3966 3968 0
6846 -3944 0
6846 -3966 0
6846 -3968 0
-6847 3981 4002 4013 0
6847 -3981 0
6847 -4002 0
6847 -4013 0
-6848 4032 4041 4050 0
6848 -4032 0
6848 -4041 0
6848 -4050 0
-6849 4069 4078 4096 0
6849 -4069 0
6849 -4078 0
6849 -4096 0
-6850 4113 4128 4133 0
6850 -4113 0
6850 -4128 0
6850 -4133 0
-6851 3112 3119 3135 0
6851 -3112 0
6851 -3119 0
6851 -3135 0
-6852 3147 1660 0
6852 -3147 0
6852 -1660 0
-6853 4353 4354 4355 4356 4357 0
6853 -4353 0
6853 -4354 0
6853 -4355 0
6853 -4356 0
6853 -4357 0
-6854 4457 4458 1124 4459 4460 4461 0
6854 -4457 0
6854 -4458 0
6854 -1124 0
6854 -4459 0
6854 -4460 0
6854 -4461 0
-6855 4517 4518 4519 4520 4521 0
6855 -4517 0
6855 -4518 0
6855 -4519 0
6855 -4520 0
6855 -4521 0
-6856 3229 3231 3232 3234 3236 0
6856 -3229 0
6856 -3231 0
6856 -3232 0
6856 -3234 0
6856 -3236 0
-6857 2336 50 0
6857 -2336 0
6857 -50 0
-6858 2340 54 0
6858 -2340 0
6858 -54 0
-6859 58 2344 0
6859 -58 0
6859 -2344 0
-6860 2346 2349 2351 2358 2361 0
6860 -2346 0
6860 -2349 0
6860 -2351 0
6860 -2358 0
6860 -2361 0
-6861 4611 4612 4613 1204 4614 4615 0
6861 -4611 0
6861 -4612 0
6861 -4613 0
6861 -1204 0
6861 -4614 0
6861 -4615 0
-6862 4651 4652 4653 4654 4655 0
6862 -4651 0
6862 -4652 0
6862 -4653 0
6862 -4654 0
6862 -4655 0
-6863 354 2670 0
6863 -354 0
6863 -2670 0
-6864 2672 356 0
6864 -2672 0
6864 -356 0
-6865 2674 358 0
6865 -2674 0
6865 -358 0
-6866 4728 1284 4729 4730 4731 4732 0
6866 -4728 0
6866 -1284 0
6866 -4729 0
6866 -4730 0
6866 -4731 0
6866 -4732 0
-6867 3320 3321 3322 3325 3326 0
6867 -3320 0
6867 -3321 0
6867 -3322 0
6867 -3325 0
6867 -3326 0
-6868 3411 3413 3416 3417 3418 0
6868 -3411 0
6868 -3413 0
6868 -3416 0
6868 -3417 0
6868 -3418 0
-6869 2749 434 0
6869 -2749 0
6869 -434 0
-6870 2751 436 0
6870 -2751 0
6870 -436 0
-6871 2753 438 0
6871 -2753 0
6871 -438 0
-6872 2512 194 0
6872 -2512 0
6872 -194 0
-6873 2514 196 0
6873 -2514 0
6873 -196 0
-6874 2516 198 0
6874 -2516 0
6874 -198 0
-6875 5205 5206 5207 5210 5211 0
6875 -5205 0
6875 -5206 0
6875 -5207 0
6875 -5210 0
6875 -5211 0
-6876 2931 2932 0
6876 -2931 0
6876 -2932 0
-6877 2933 690 0
6877 -2933 0
6877 -690 0
-6878 2934 692 0
6878 -2934 0
6878 -692 0
-6879 694 2935 0
6879 -694 0
6879 -2935 0
-698 696 2936 0
698 -696 0
698 -2936 0
-6880 4193 4194 4195 4196 4197 0
6880 -4193 0
6880 -4194 0
6880 -4195 0
6880 -4196 0
6880 -4197 0
-6881 4198 4199 1362 4200 4201 4202 0
6881 -4198 0
6881 -4199 0
6881 -1362 0
6881 -4200 0
6881 -4201 0
6881 -4202 0
-6882 4203 4204 4205 4206 4207 0
6882 -4203 0
6882 -4204 0
6882 -4205 0
6882 -4206 0
6882 -4207 0
-6883 2591 274 0
6883 -2591 0
6883 -274 0
-6884 276 2593 0
6884 -276 0
6884 -2593 0
-6885 2595 278 0
6885 -2595 0
6885 -278 0
-6886 1044 4302 4303 4304 4305 4306 0
6886 -1044 0
6886 -4302 0
6886 -4303 0
6886 -4304 0
6886 -4305 0
6886 -4306 0
-6887 6797 1860 0
6887 -6797 0
6887 -1860 0
-6888 6798 2032 0
6888 -6798 0
6888 -2032 0
-6889 1340 4366 0
6889 -1340 0
6889 -4366 0
-6890 6800 2078 0
6890 -6800 0
6890 -2078 0
-6891 6802 2196 0
6891 -6802 0
6891 -2196 0
-6892 6804 2284 0
6892 -6804 0
6892 -2284 0
-6893 3182 1432 0
6893 -3182 0
6893 -1432 0
-6894 6811 3196 0
6894 -6811 0
6894 -3196 0
-56 2338 1452 0
56 -2338 0
56 -1452 0
-6895 3273 1490 0
6895 -3273 0
6895 -1490 0
-6896 6814 3300 0
6896 -6814 0
6896 -3300 0
-6897 1022 4741 0
6897 -1022 0
6897 -4741 0
-6898 1102 4748 0
6898 -1102 0
6898 -4748 0
-6899 3364 1548 0
6899 -3364 0
6899 -1548 0
-6900 1182 4894 0
6900 -1182 0
6900 -4894 0
-6901 6826 3380 0
6901 -6826 0
6901 -3380 0
-6902 1262 4949 0
6902 -1262 0
6902 -4949 0
-6903 3455 1606 0
6903 -3455 0
6903 -1606 0
-6904 3508 1650 0
6904 -3508 0
6904 -1650 0
-6905 6835 3525 0
6905 -6835 0
6905 -3525 0
-6906 6836 3586 0
6906 -6836 0
6906 -3586 0
-6907 6837 3610 0
6907 -6837 0
6907 -3610 0
-6908 6838 3642 0
6908 -6838 0
6908 -3642 0
-6909 6839 3670 0
6909 -6839 0
6909 -3670 0
-6910 6840 3720 0
6910 -6840 0
6910 -3720 0
-6911 6841 3773 0
6911 -6841 0
6911 -3773 0
-6912 6842 3819 0
6912 -6842 0
6912 -3819 0
-6913 6843 3848 0
6913 -6843 0
6913 -3848 0
-6914 6844 3866 0
6914 -6844 0
6914 -3866 0
-6915 6845 3934 0
6915 -6845 0
6915 -3934 0
-6916 6846 3960 0
6916 -6846 0
6916 -3960 0
-6917 6847 4003 0
6917 -6847 0
6917 -4003 0
-6918 6848 4024 0
6918 -6848 0
6918 -4024 0
-6919 6849 4098 0
6919 -6849 0
6919 -4098 0
-6920 6850 4106 0
6920 -6850 0
6920 -4106 0
-6921 6851 3137 0
6921 -6851 0
6921 -3137 0
-6922 6765 6887 0
6922 -6765 0
6922 -6887 0
-6923 6766 6888 0
6923 -6766 0
6923 -6888 0
-6924 6767 6890 0
6924 -6767 0
6924 -6890 0
-6925 6768 6891 0
6925 -6768 0
6925 -6891 0
-6926 6769 6892 0
6926 -6769 0
6926 -6892 0
-6927 6771 6894 0
6927 -6771 0
6927 -6894 0
-6928 6772 6856 0
6928 -6772 0
6928 -6856 0
-6929 3238 1686 0
6929 -3238 0
6929 -1686 0
-64 6773 6860 0
64 -6773 0
64 -6860 0
-88 2385 1694 0
88 -2385 0
88 -1694 0
-6930 6774 6896 0
6930 -6774 0
6930 -6896 0
-6931 6775 6867 1062 0
6931 -6775 0
6931 -6867 0
6931 -1062 0
-6932 3329 1698 0
6932 -3329 0
6932 -1698 0
-6933 6820 986 0
6933 -6820 0
6933 -986 0
-6934 6834 1304 0
6934 -6834 0
6934 -1304 0
-6935 6810 1066 0
6935 -6810 0
6935 -1066 0
-6936 6776 6901 0
6936 -6776 0
6936 -6901 0
-6937 6777 6868 1142 0
6937 -6777 0
6937 -6868 0
6937 -1142 0
-6938 3420 1742 0
6938 -3420 0
6938 -1742 0
-6939 6828 1146 0
6939 -6828 0
6939 -1146 0
-6940 6831 1226 0
6940 -6831 0
6940 -1226 0
-6941 5095 5096 0
6941 -5095 0
6941 -5096 0
-6942 5174 5176 0
6942 -5174 0
6942 -5176 0
-6943 3465 1774 0
6943 -3465 0
6943 -1774 0
-6944 6680 5191 0
6944 -6680 0
6944 -5191 0
-6945 6733 6875 1222 0
6945 -6733 0
6945 -6875 0
6945 -1222 0
-6946 6778 5215 0
6946 -6778 0
6946 -5215 0
-6947 6681 5249 0
6947 -6681 0
6947 -5249 0
-6948 6779 3494 0
6948 -6779 0
6948 -3494 0
-6949 6780 6905 0
6949 -6780 0
6949 -6905 0
-6950 6781 6906 0
6950 -6781 0
6950 -6906 0
-6951 6782 6907 0
6951 -6782 0
6951 -6907 0
-6952 6783 6908 0
6952 -6783 0
6952 -6908 0
-6953 6784 6909 0
6953 -6784 0
6953 -6909 0
-6954 6785 6910 0
6954 -6785 0
6954 -6910 0
-6955 6786 6911 0
6955 -6786 0
6955 -6911 0
-6956 6787 6912 0
6956 -6787 0
6956 -6912 0
-6957 6788 6913 0
6957 -6788 0
6957 -6913 0
-6958 6789 6914 0
6958 -6789 0
6958 -6914 0
-6959 6790 6915 0
6959 -6790 0
6959 -6915 0
-6960 6791 6916 0
6960 -6791 0
6960 -6916 0
-6961 6792 6917 0
6961 -6792 0
6961 -6917 0
-6962 6793 6918 0
6962 -6793 0
6962 -6918 0
-6963 6794 6919 0
6963 -6794 0
6963 -6919 0
-6964 6795 6920 0
6964 -6795 0
6964 -6920 0
-6965 6796 6921 0
6965 -6796 0
6965 -6921 0
-6966 3151 1748 0
6966 -3151 0
6966 -1748 0
-6967 6593 6922 0
6967 -6593 0
6967 -6922 0
-6968 6594 6923 0
6968 -6594 0
6968 -6923 0
-6969 6596 6924 0
6969 -6596 0
6969 -6924 0
-6970 6597 6925 0
6970 -6597 0
6970 -6925 0
-6971 6598 6926 0
6971 -6598 0
6971 -6926 0
-6972 6599 6927 0
6972 -6599 0
6972 -6927 0
-6973 1818 3226 0
6973 -1818 0
6973 -3226 0
-6974 6605 6930 0
6974 -6605 0
6974 -6930 0
-6975 1830 3317 0
6975 -1830 0
6975 -3317 0
-100 1764 2397 0
100 -1764 0
100 -2397 0
-6976 6611 6936 0
6976 -6611 0
6976 -6936 0
-6977 1802 3408 0
6977 -1802 0
6977 -3408 0
-6978 1812 3460 0
6978 -1812 0
6978 -3460 0
-6979 6572 6948 0
6979 -6572 0
6979 -6948 0
-6980 6624 6949 0
6980 -6624 0
6980 -6949 0
-6981 6625 6950 0
6981 -6625 0
6981 -6950 0
-6982 6626 6951 0
6982 -6626 0
6982 -6951 0
-6983 6627 6952 0
6983 -6627 0
6983 -6952 0
-6984 6628 6953 0
6984 -6628 0
6984 -6953 0
-6985 6629 6954 0
6985 -6629 0
6985 -6954 0
-6986 6630 6955 0
6986 -6630 0
6986 -6955 0
-6987 6631 6956 0
6987 -6631 0
6987 -6956 0
-6988 6632 6957 0
6988 -6632 0
6988 -6957 0
-6989 6633 6958 0
6989 -6633 0
6989 -6958 0
-6990 6634 6959 0
6990 -6634 0
6990 -6959 0
-6991 6635 6960 0
6991 -6635 0
6991 -6960 0
-6992 6636 6961 0
6992 -6636 0
6992 -6961 0
-6993 6637 6962 0
6993 -6637 0
6993 -6962 0
-6994 6638 6963 0
6994 -6638 0
6994 -6963 0
-6995 6639 6964 0
6995 -6639 0
6995 -6964 0
-6996 6332 1358 0
6996 -6332 0
6996 -1358 0
-6997 6336 1040 0
6997 -6336 0
6997 -1040 0
-6998 6310 1120 0
6998 -6310 0
6998 -1120 0
-6999 6314 1200 0
6999 -6314 0
6999 -1200 0
-7000 6318 1280 0
7000 -6318 0
7000 -1280 0
-7001 6478 6933 0
7001 -6478 0
7001 -6933 0
-7002 6480 6934 0
7002 -6480 0
7002 -6934 0
-7003 6481 6935 0
7003 -6481 0
7003 -6935 0
-7004 6483 6939 0
7004 -6483 0
7004 -6939 0
-7005 6485 6940 0
7005 -6485 0
7005 -6940 0
-7006 6562 6941 1346 0
7006 -6562 0
7006 -6941 0
7006 -1346 0
-7007 5175 6942 0
7007 -5175 0
7007 -6942 0
-7008 6567 6944 0
7008 -6567 0
7008 -6944 0
-7009 6569 6946 0
7009 -6569 0
7009 -6946 0
-7010 6571 6947 0
7010 -6571 0
7010 -6947 0
-7011 6644 6965 0
7011 -6644 0
7011 -6965 0
-7012 1806 3146 0
7012 -1806 0
7012 -3146 0
-7013 1290 6375 0
7013 -1290 0
7013 -6375 0
-7014 5651 1074 0
7014 -5651 0
7014 -1074 0
-4 6108 6967 1208 0
4 -6108 0
4 -6967 0
4 -1208 0
-7015 1080 6853 0
7015 -1080 0
7015 -6853 0
-8 6109 6968 1372 0
8 -6109 0
8 -6968 0
8 -1372 0
-7016 5353 6889 0
7016 -5353 0
7016 -6889 0
-12 6110 6969 1380 0
12 -6110 0
12 -6969 0
12 -1380 0
-7017 1832 3162 0
7017 -1832 0
7017 -3162 0
-7018 5514 6309 0
7018 -5514 0
7018 -6309 0
-16 6112 6970 1388 0
16 -6112 0
16 -6970 0
16 -1388 0
-7019 5989 1104 0
7019 -5989 0
7019 -1104 0
-20 6113 6971 1396 0
20 -6113 0
20 -6971 0
20 -1396 0
-7020 5357 1296 0
7020 -5357 0
7020 -1296 0
-7021 5653 1312 0
7021 -5653 0
7021 -1312 0
-7022 3180 3181 0
7022 -3180 0
7022 -3181 0
-7023 1132 6376 0
7023 -1132 0
7023 -6376 0
-7024 5358 1138 0
7024 -5358 0
7024 -1138 0
-7025 6114 6972 968 0
7025 -6114 0
7025 -6972 0
7025 -968 0
-7026 5991 1342 0
7026 -5991 0
7026 -1342 0
-7027 5657 1154 0
7027 -5657 0
7027 -1154 0
-7028 1160 6855 0
7028 -1160 0
7028 -6855 0
-7029 5994 6675 0
7029 -5994 0
7029 -6675 0
-7030 5520 6313 0
7030 -5520 0
7030 -6313 0
-7031 5996 1184 0
7031 -5996 0
7031 -1184 0
-7032 1822 3255 0
7032 -1822 0
7032 -3255 0
-7033 1212 6377 0
7033 -1212 0
7033 -6377 0
-7034 5362 1218 0
7034 -5362 0
7034 -1218 0
-7035 5660 1234 0
7035 -5660 0
7035 -1234 0
-7036 1240 6862 0
7036 -1240 0
7036 -6862 0
-7037 5523 6317 0
7037 -5523 0
7037 -6317 0
-7038 5998 1264 0
7038 -5998 0
7038 -1264 0
-7039 6116 6974 1048 0
7039 -6116 0
7039 -6974 0
7039 -1048 0
-7040 6082 6476 0
7040 -6082 0
7040 -6476 0
-7041 5365 6897 0
7041 -5365 0
7041 -6897 0
-7042 5366 6898 0
7042 -5366 0
7042 -6898 0
-7043 1834 3340 0
7043 -1834 0
7043 -3340 0
-7044 5526 6319 0
7044 -5526 0
7044 -6319 0
-7045 5894 6321 0
7045 -5894 0
7045 -6321 0
-7046 6000 6668 0
7046 -6000 0
7046 -6668 0
-7047 5895 6322 0
7047 -5895 0
7047 -6322 0
-7048 6083 6479 0
7048 -6083 0
7048 -6479 0
-7049 6001 6670 0
7049 -6001 0
7049 -6670 0
-7050 5896 6324 0
7050 -5896 0
7050 -6324 0
-136 1796 2432 0
136 -1796 0
136 -2432 0
-7051 6002 6672 0
7051 -6002 0
7051 -6672 0
-7052 5897 6326 0
7052 -5897 0
7052 -6326 0
-7053 5369 6900 0
7053 -5369 0
7053 -6900 0
-7054 6119 6976 1128 0
7054 -6119 0
7054 -6976 0
7054 -1128 0
-7055 6003 6674 0
7055 -6003 0
7055 -6674 0
-7056 5899 6327 0
7056 -5899 0
7056 -6327 0
-7057 5371 6902 0
7057 -5371 0
7057 -6902 0
-7058 1792 3431 0
7058 -1792 0
7058 -3431 0
-7059 6087 6484 1180 0
7059 -6087 0
7059 -6484 0
7059 -1180 0
-7060 5379 1360 0
7060 -5379 0
7060 -1360 0
-7061 5380 1202 0
7061 -5380 0
7061 -1202 0
-7062 5381 1282 0
7062 -5381 0
7062 -1282 0
-7063 5382 1042 0
7063 -5382 0
7063 -1042 0
-7064 1794 3476 0
7064 -1794 0
7064 -3476 0
-7065 5383 1122 0
7065 -5383 0
7065 -1122 0
-7066 6088 6490 1260 0
7066 -6088 0
7066 -6490 0
7066 -1260 0
-7067 6122 6980 0
7067 -6122 0
7067 -6980 0
-7068 6123 6981 1366 0
7068 -6123 0
7068 -6981 0
7068 -1366 0
-7069 6124 6982 1368 0
7069 -6124 0
7069 -6982 0
7069 -1368 0
-7070 6125 6983 1370 0
7070 -6125 0
7070 -6983 0
7070 -1370 0
-7071 6126 6984 0
7071 -6126 0
7071 -6984 0
-7072 6127 6985 1374 0
7072 -6127 0
7072 -6985 0
7072 -1374 0
-7073 6128 6986 1376 0
7073 -6128 0
7073 -6986 0
7073 -1376 0
-7074 6129 6987 1378 0
7074 -6129 0
7074 -6987 0
7074 -1378 0
-7075 6130 6988 0
7075 -6130 0
7075 -6988 0
-7076 6131 6989 1382 0
7076 -6131 0
7076 -6989 0
7076 -1382 0
-7077 6132 6990 1384 0
7077 -6132 0
7077 -6990 0
7077 -1384 0
-7078 6133 6991 1386 0
7078 -6133 0
7078 -6991 0
7078 -1386 0
-7079 6134 6992 0
7079 -6134 0
7079 -6992 0
-7080 6135 6993 1390 0
7080 -6135 0
7080 -6993 0
7080 -1390 0
-7081 6136 6994 1392 0
7081 -6136 0
7081 -6994 0
7081 -1392 0
-7082 6137 6995 1394 0
7082 -6137 0
7082 -6995 0
7082 -1394 0
-7083 972 6401 0
7083 -972 0
7083 -6401 0
-7084 5386 978 0
7084 -5386 0
7084 -978 0
-7085 5670 994 0
7085 -5670 0
7085 -994 0
-7086 1000 6880 0
7086 -1000 0
7086 -6880 0
-7087 1318 6882 0
7087 -1318 0
7087 -6882 0
-7088 5548 6335 0
7088 -5548 0
7088 -6335 0
-7089 5987 1024 0
7089 -5987 0
7089 -1024 0
-7090 6138 7011 0
7090 -6138 0
7090 -7011 0
-7091 4296 6494 1338 0
7091 -4296 0
7091 -6494 0
7091 -1338 0
-7092 1052 6403 0
7092 -1052 0
7092 -6403 0
-7093 5389 1058 0
7093 -5389 0
7093 -1058 0
-7094 1208 -1207 0
7094 -1208 0
7094 1207 0
-7095 -1208 1207 0
7095 1208 0
7095 -1207 0
-7096 1980 -1981 0
7096 -1980 0
7096 1981 0
-7097 -1980 1981 0
7097 1980 0
7097 -1981 0
-7098 1982 -1983 0
7098 -1982 0
7098 1983 0
-7099 -1982 1983 0
7099 1982 0
7099 -1983 0
-7100 1372 -1371 0
7100 -1372 0
7100 1371 0
-7101 -1372 1371 0
7101 1372 0
7101 -1371 0
-7102 2062 -2063 0
7102 -2062 0
7102 2063 0
-7103 -2062 2063 0
7103 2062 0
7103 -2063 0
-7104 6 -5 0
7104 -6 0
7104 5 0
-7105 -6 5 0
7105 6 0
7105 -5 0
-7106 1380 -1379 0
7106 -1380 0
7106 1379 0
-7107 -1380 1379 0
7107 1380 0
7107 -1379 0
-7108 2142 -2143 0
7108 -2142 0
7108 2143 0
-7109 -2142 2143 0
7109 2142 0
7109 -2143 0
-7110 10 -9 0
7110 -10 0
7110 9 0
-7111 -10 9 0
7111 10 0
7111 -9 0
-7112 1388 -1387 0
7112 -1388 0
7112 1387 0
-7113 -1388 1387 0
7113 1388 0
7113 -1387 0
-7114 2222 -2223 0
7114 -2222 0
7114 2223 0
-7115 -2222 2223 0
7115 2222 0
7115 -2223 0
-7116 14 -13 0
7116 -14 0
7116 13 0
-7117 -14 13 0
7117 14 0
7117 -13 0
-7118 1396 -1395 0
7118 -1396 0
7118 1395 0
-7119 -1396 1395 0
7119 1396 0
7119 -1395 0
-7120 18 -17 0
7120 -18 0
7120 17 0
-7121 -18 17 0
7121 18 0
7121 -17 0
-7122 2302 -2303 0
7122 -2302 0
7122 2303 0
-7123 -2302 2303 0
7123 2302 0
7123 -2303 0
-7124 1416 -1415 0
7124 -1416 0
7124 1415 0
-7125 -1416 1415 0
7125 1416 0
7125 -1415 0
-7126 22 -21 0
7126 -22 0
7126 21 0
-7127 -22 21 0
7127 22 0
7127 -21 0
-7128 2306 -2307 0
7128 -2306 0
7128 2307 0
-7129 -2306 2307 0
7129 2306 0
7129 -2307 0
-7130 1782 -1781 0
7130 -1782 0
7130 1781 0
-7131 -1782 1781 0
7131 1782 0
7131 -1781 0
-7132 2310 -2311 0
7132 -2310 0
7132 2311 0
-7133 -2310 2311 0
7133 2310 0
7133 -2311 0
-7134 2312 -2313 0
7134 -2312 0
7134 2313 0
-7135 -2312 2313 0
7135 2312 0
7135 -2313 0
-7136 1430 -1429 0
7136 -1430 0
7136 1429 0
-7137 -1430 1429 0
7137 1430 0
7137 -1429 0
-7138 2316 -2317 0
7138 -2316 0
7138 2317 0
-7139 -2316 2317 0
7139 2316 0
7139 -2317 0
-7140 30 -29 0
7140 -30 0
7140 29 0
-7141 -30 29 0
7141 30 0
7141 -29 0
-7142 1434 -1433 0
7142 -1434 0
7142 1433 0
-7143 -1434 1433 0
7143 1434 0
7143 -1433 0
-7144 2320 -2321 0
7144 -2320 0
7144 2321 0
-7145 -2320 2321 0
7145 2320 0
7145 -2321 0
-7146 34 -33 0
7146 -34 0
7146 33 0
-7147 -34 33 0
7147 34 0
7147 -33 0
-7148 1680 -1679 0
7148 -1680 0
7148 1679 0
-7149 -1680 1679 0
7149 1680 0
7149 -1679 0
-7150 38 -37 0
7150 -38 0
7150 37 0
-7151 -38 37 0
7151 38 0
7151 -37 0
-7152 2324 -2325 0
7152 -2324 0
7152 2325 0
-7153 -2324 2325 0
7153 2324 0
7153 -2325 0
-7154 1682 -1681 0
7154 -1682 0
7154 1681 0
-7155 -1682 1681 0
7155 1682 0
7155 -1681 0
-7156 2328 -2329 0
7156 -2328 0
7156 2329 0
-7157 -2328 2329 0
7157 2328 0
7157 -2329 0
-7158 42 -41 0
7158 -42 0
7158 41 0
-7159 -42 41 0
7159 42 0
7159 -41 0
-7160 1684 -1683 0
7160 -1684 0
7160 1683 0
-7161 -1684 1683 0
7161 1684 0
7161 -1683 0
-7162 46 -45 0
7162 -46 0
7162 45 0
-7163 -46 45 0
7163 46 0
7163 -45 0
-7164 2332 -2333 0
7164 -2332 0
7164 2333 0
-7165 -2332 2333 0
7165 2332 0
7165 -2333 0
-7166 1692 -1691 0
7166 -1692 0
7166 1691 0
-7167 -1692 1691 0
7167 1692 0
7167 -1691 0
-7168 2336 -2337 0
7168 -2336 0
7168 2337 0
-7169 -2336 2337 0
7169 2336 0
7169 -2337 0
-7170 50 -49 0
7170 -50 0
7170 49 0
-7171 -50 49 0
7171 50 0
7171 -49 0
-7172 1452 -1451 0
7172 -1452 0
7172 1451 0
-7173 -1452 1451 0
7173 1452 0
7173 -1451 0
-7174 2340 -2341 0
7174 -2340 0
7174 2341 0
-7175 -2340 2341 0
7175 2340 0
7175 -2341 0
-7176 54 -53 0
7176 -54 0
7176 53 0
-7177 -54 53 0
7177 54 0
7177 -53 0
-7178 1454 -1453 0
7178 -1454 0
7178 1453 0
-7179 -1454 1453 0
7179 1454 0
7179 -1453 0
-7180 58 -57 0
7180 -58 0
7180 57 0
-7181 -58 57 0
7181 58 0
7181 -57 0
-7182 2344 -2345 0
7182 -2344 0
7182 2345 0
-7183 -2344 2345 0
7183 2344 0
7183 -2345 0
-7184 1300 -1299 0
7184 -1300 0
7184 1299 0
-7185 -1300 1299 0
7185 1300 0
7185 -1299 0
-7186 62 -61 0
7186 -62 0
7186 61 0
-7187 -62 61 0
7187 62 0
7187 -61 0
-7188 2364 -2365 0
7188 -2364 0
7188 2365 0
-7189 -2364 2365 0
7189 2364 0
7189 -2365 0
-7190 1464 -1463 0
7190 -1464 0
7190 1463 0
-7191 -1464 1463 0
7191 1464 0
7191 -1463 0
-7192 66 -65 0
7192 -66 0
7192 65 0
-7193 -66 65 0
7193 66 0
7193 -65 0
-7194 2368 -2369 0
7194 -2368 0
7194 2369 0
-7195 -2368 2369 0
7195 2368 0
7195 -2369 0
-7196 1468 -1467 0
7196 -1468 0
7196 1467 0
-7197 -1468 1467 0
7197 1468 0
7197 -1467 0
-7198 2372 -2373 0
7198 -2372 0
7198 2373 0
-7199 -2372 2373 0
7199 2372 0
7199 -2373 0
-7200 70 -69 0
7200 -70 0
7200 69 0
-7201 -70 69 0
7201 70 0
7201 -69 0
-7202 1474 -1473 0
7202 -1474 0
7202 1473 0
-7203 -1474 1473 0
7203 1474 0
7203 -1473 0
-7204 74 -73 0
7204 -74 0
7204 73 0
-7205 -74 73 0
7205 74 0
7205 -73 0
-7206 2376 -2377 0
7206 -2376 0
7206 2377 0
-7207 -2376 2377 0
7207 2376 0
7207 -2377 0
-7208 1788 -1787 0
7208 -1788 0
7208 1787 0
-7209 -1788 1787 0
7209 1788 0
7209 -1787 0
-7210 78 -77 0
7210 -78 0
7210 77 0
-7211 -78 77 0
7211 78 0
7211 -77 0
-7212 2380 -2381 0
7212 -2380 0
7212 2381 0
-7213 -2380 2381 0
7213 2380 0
7213 -2381 0
-7214 1488 -1487 0
7214 -1488 0
7214 1487 0
-7215 -1488 1487 0
7215 1488 0
7215 -1487 0
-7216 82 -81 0
7216 -82 0
7216 81 0
-7217 -82 81 0
7217 82 0
7217 -81 0
-7218 2383 -2384 0
7218 -2383 0
7218 2384 0
-7219 -2383 2384 0
7219 2383 0
7219 -2384 0
-7220 1694 -1693 0
7220 -1694 0
7220 1693 0
-7221 -1694 1693 0
7221 1694 0
7221 -1693 0
-7222 2387 -2388 0
7222 -2387 0
7222 2388 0
-7223 -2387 2388 0
7223 2387 0
7223 -2388 0
-7224 86 -85 0
7224 -86 0
7224 85 0
-7225 -86 85 0
7225 86 0
7225 -85 0
-7226 1494 -1493 0
7226 -1494 0
7226 1493 0
-7227 -1494 1493 0
7227 1494 0
7227 -1493 0
-7228 2391 -2392 0
7228 -2391 0
7228 2392 0
-7229 -2391 2392 0
7229 2391 0
7229 -2392 0
-7230 90 -89 0
7230 -90 0
7230 89 0
-7231 -90 89 0
7231 90 0
7231 -89 0
-7232 1500 -1499 0
7232 -1500 0
7232 1499 0
-7233 -1500 1499 0
7233 1500 0
7233 -1499 0
-7234 2395 -2396 0
7234 -2395 0
7234 2396 0
-7235 -2395 2396 0
7235 2395 0
7235 -2396 0
-7236 94 -93 0
7236 -94 0
7236 93 0
-7237 -94 93 0
7237 94 0
7237 -93 0
-7238 1764 -1763 0
7238 -1764 0
7238 1763 0
-7239 -1764 1763 0
7239 1764 0
7239 -1763 0
-7240 98 -97 0
7240 -98 0
7240 97 0
-7241 -98 97 0
7241 98 0
7241 -97 0
-7242 2399 -2400 0
7242 -2399 0
7242 2400 0
-7243 -2399 2400 0
7243 2399 0
7243 -2400 0
-7244 1740 -1739 0
7244 -1740 0
7244 1739 0
-7245 -1740 1739 0
7245 1740 0
7245 -1739 0
-7246 2403 -2404 0
7246 -2403 0
7246 2404 0
-7247 -2403 2404 0
7247 2403 0
7247 -2404 0
-7248 102 -101 0
7248 -102 0
7248 101 0
-7249 -102 101 0
7249 102 0
7249 -101 0
-7250 1512 -1511 0
7250 -1512 0
7250 1511 0
-7251 -1512 1511 0
7251 1512 0
7251 -1511 0
-7252 2407 -2408 0
7252 -2407 0
7252 2408 0
-7253 -2407 2408 0
7253 2407 0
7253 -2408 0
-7254 106 -105 0
7254 -106 0
7254 105 0
-7255 -106 105 0
7255 106 0
7255 -105 0
-7256 1514 -1513 0
7256 -1514 0
7256 1513 0
-7257 -1514 1513 0
7257 1514 0
7257 -1513 0
-7258 2411 -2412 0
7258 -2411 0
7258 2412 0
-7259 -2411 2412 0
7259 2411 0
7259 -2412 0
-7260 110 -109 0
7260 -110 0
7260 109 0
-7261 -110 109 0
7261 110 0
7261 -109 0
-7262 1518 -1517 0
7262 -1518 0
7262 1517 0
-7263 -1518 1517 0
7263 1518 0
7263 -1517 0
-7264 114 -113 0
7264 -114 0
7264 113 0
-7265 -114 113 0
7265 114 0
7265 -113 0
-7266 2414 -2415 0
7266 -2414 0
7266 2415 0
-7267 -2414 2415 0
7267 2414 0
7267 -2415 0
-7268 1800 -1799 0
7268 -1800 0
7268 1799 0
-7269 -1800 1799 0
7269 1800 0
7269 -1799 0
-7270 2418 -2419 0
7270 -2418 0
7270 2419 0
-7271 -2418 2419 0
7271 2418 0
7271 -2419 0
-7272 118 -117 0
7272 -118 0
7272 117 0
-7273 -118 117 0
7273 118 0
7273 -117 0
-7274 1528 -1527 0
7274 -1528 0
7274 1527 0
-7275 -1528 1527 0
7275 1528 0
7275 -1527 0
-7276 2422 -2423 0
7276 -2422 0
7276 2423 0
-7277 -2422 2423 0
7277 2422 0
7277 -2423 0
-7278 122 -121 0
7278 -122 0
7278 121 0
-7279 -122 121 0
7279 122 0
7279 -121 0
-7280 1532 -1531 0
7280 -1532 0
7280 1531 0
-7281 -1532 1531 0
7281 1532 0
7281 -1531 0
-7282 2426 -2427 0
7282 -2426 0
7282 2427 0
-7283 -2426 2427 0
7283 2426 0
7283 -2427 0
-7284 126 -125 0
7284 -126 0
7284 125 0
-7285 -126 125 0
7285 126 0
7285 -125 0
-7286 1766 -1765 0
7286 -1766 0
7286 1765 0
-7287 -1766 1765 0
7287 1766 0
7287 -1765 0
-7288 130 -129 0
7288 -130 0
7288 129 0
-7289 -130 129 0
7289 130 0
7289 -129 0
-7290 2430 -2431 0
7290 -2430 0
7290 2431 0
-7291 -2430 2431 0
7291 2430 0
7291 -2431 0
-7292 1796 -1795 0
7292 -1796 0
7292 1795 0
-7293 -1796 1795 0
7293 1796 0
7293 -1795 0
-7294 134 -133 0
7294 -134 0
7294 133 0
-7295 -134 133 0
7295 134 0
7295 -133 0
-7296 2434 -2435 0
7296 -2434 0
7296 2435 0
-7297 -2434 2435 0
7297 2434 0
7297 -2435 0
-7298 1550 -1549 0
7298 -1550 0
7298 1549 0
-7299 -1550 1549 0
7299 1550 0
7299 -1549 0
-7300 2438 -2439 0
7300 -2438 0
7300 2439 0
-7301 -2438 2439 0
7301 2438 0
7301 -2439 0
-7302 138 -137 0
7302 -138 0
7302 137 0
-7303 -138 137 0
7303 138 0
7303 -137 0
-7304 1552 -1551 0
7304 -1552 0
7304 1551 0
-7305 -1552 1551 0
7305 1552 0
7305 -1551 0
-7306 2442 -2443 0
7306 -2442 0
7306 2443 0
-7307 -2442 2443 0
7307 2442 0
7307 -2443 0
-7308 142 -141 0
7308 -142 0
7308 141 0
-7309 -142 141 0
7309 142 0
7309 -141 0
-7310 1556 -1555 0
7310 -1556 0
7310 1555 0
-7311 -1556 1555 0
7311 1556 0
7311 -1555 0
-7312 2446 -2447 0
7312 -2446 0
7312 2447 0
-7313 -2446 2447 0
7313 2446 0
7313 -2447 0
-7314 146 -145 0
7314 -146 0
7314 145 0
-7315 -146 145 0
7315 146 0
7315 -145 0
-7316 1708 -1707 0
7316 -1708 0
7316 1707 0
-7317 -1708 1707 0
7317 1708 0
7317 -1707 0
-7318 150 -149 0
7318 -150 0
7318 149 0
-7319 -150 149 0
7319 150 0
7319 -149 0
-7320 2450 -2451 0
7320 -2450 0
7320 2451 0
-7321 -2450 2451 0
7321 2450 0
7321 -2451 0
-7322 1564 -1563 0
7322 -1564 0
7322 1563 0
-7323 -1564 1563 0
7323 1564 0
7323 -1563 0
-7324 154 -153 0
7324 -154 0
7324 153 0
-7325 -154 153 0
7325 154 0
7325 -153 0
-7326 2454 -2455 0
7326 -2454 0
7326 2455 0
-7327 -2454 2455 0
7327 2454 0
7327 -2455 0
-7328 1574 -1573 0
7328 -1574 0
7328 1573 0
-7329 -1574 1573 0
7329 1574 0
7329 -1573 0
-7330 2458 -2459 0
7330 -2458 0
7330 2459 0
-7331 -2458 2459 0
7331 2458 0
7331 -2459 0
-7332 158 -157 0
7332 -158 0
7332 157 0
-7333 -158 157 0
7333 158 0
7333 -157 0
-7334 2460 -2461 0
7334 -2460 0
7334 2461 0
-7335 -2460 2461 0
7335 2460 0
7335 -2461 0
-7336 162 -161 0
7336 -162 0
7336 161 0
-7337 -162 161 0
7337 162 0
7337 -161 0
-7338 1356 -1355 0
7338 -1356 0
7338 1355 0
-7339 -1356 1355 0
7339 1356 0
7339 -1355 0
-7340 2473 -2474 0
7340 -2473 0
7340 2474 0
-7341 -2473 2474 0
7341 2473 0
7341 -2474 0
-7342 164 -163 0
7342 -164 0
7342 163 0
-7343 -164 163 0
7343 164 0
7343 -163 0
-7344 1578 -1577 0
7344 -1578 0
7344 1577 0
-7345 -1578 1577 0
7345 1578 0
7345 -1577 0
-7346 2477 -2478 0
7346 -2477 0
7346 2478 0
-7347 -2477 2478 0
7347 2477 0
7347 -2478 0
-7348 168 -167 0
7348 -168 0
7348 167 0
-7349 -168 167 0
7349 168 0
7349 -167 0
-7350 1728 -1727 0
7350 -1728 0
7350 1727 0
-7351 -1728 1727 0
7351 1728 0
7351 -1727 0
-7352 2481 -2482 0
7352 -2481 0
7352 2482 0
-7353 -2481 2482 0
7353 2481 0
7353 -2482 0
-7354 172 -171 0
7354 -172 0
7354 171 0
-7355 -172 171 0
7355 172 0
7355 -171 0
-7356 176 -175 0
7356 -176 0
7356 175 0
-7357 -176 175 0
7357 176 0
7357 -175 0
-7358 2483 -2484 0
7358 -2483 0
7358 2484 0
-7359 -2483 2484 0
7359 2483 0
7359 -2484 0
-7360 1590 -1589 0
7360 -1590 0
7360 1589 0
-7361 -1590 1589 0
7361 1590 0
7361 -1589 0
-7362 2487 -2488 0
7362 -2487 0
7362 2488 0
-7363 -2487 2488 0
7363 2487 0
7363 -2488 0
-7364 178 -177 0
7364 -178 0
7364 177 0
-7365 -178 177 0
7365 178 0
7365 -177 0
-7366 2498 -2499 0
7366 -2498 0
7366 2499 0
-7367 -2498 2499 0
7367 2498 0
7367 -2499 0
-7368 2500 -2501 0
7368 -2500 0
7368 2501 0
-7369 -2500 2501 0
7369 2500 0
7369 -2501 0
-7370 2502 -2503 0
7370 -2502 0
7370 2503 0
-7371 -2502 2503 0
7371 2502 0
7371 -2503 0
-7372 184 -183 0
7372 -184 0
7372 183 0
-7373 -184 183 0
7373 184 0
7373 -183 0
-7374 186 -185 0
7374 -186 0
7374 185 0
-7375 -186 185 0
7375 186 0
7375 -185 0
-7376 2504 -2505 0
7376 -2504 0
7376 2505 0
-7377 -2504 2505 0
7377 2504 0
7377 -2505 0
-7378 188 -187 0
7378 -188 0
7378 187 0
-7379 -188 187 0
7379 188 0
7379 -187 0
-7380 2506 -2507 0
7380 -2506 0
7380 2507 0
-7381 -2506 2507 0
7381 2506 0
7381 -2507 0
-7382 190 -189 0
7382 -190 0
7382 189 0
-7383 -190 189 0
7383 190 0
7383 -189 0
-7384 2508 -2509 0
7384 -2508 0
7384 2509 0
-7385 -2508 2509 0
7385 2508 0
7385 -2509 0
-7386 2510 -2511 0
7386 -2510 0
7386 2511 0
-7387 -2510 2511 0
7387 2510 0
7387 -2511 0
-7388 192 -191 0
7388 -192 0
7388 191 0
-7389 -192 191 0
7389 192 0
7389 -191 0
-7390 2512 -2513 0
7390 -2512 0
7390 2513 0
-7391 -2512 2513 0
7391 2512 0
7391 -2513 0
-7392 194 -193 0
7392 -194 0
7392 193 0
-7393 -194 193 0
7393 194 0
7393 -193 0
-7394 2514 -2515 0
7394 -2514 0
7394 2515 0
-7395 -2514 2515 0
7395 2514 0
7395 -2515 0
-7396 196 -195 0
7396 -196 0
7396 195 0
-7397 -196 195 0
7397 196 0
7397 -195 0
-7398 2516 -2352 0
7398 -2516 0
7398 2352 0
-7399 -2516 2352 0
7399 2516 0
7399 -2352 0
-7400 198 -197 0
7400 -198 0
7400 197 0
-7401 -198 197 0
7401 198 0
7401 -197 0
-7402 2517 -2518 0
7402 -2517 0
7402 2518 0
-7403 -2517 2518 0
7403 2517 0
7403 -2518 0
-7404 200 -199 0
7404 -200 0
7404 199 0
-7405 -200 199 0
7405 200 0
7405 -199 0
-7406 202 -201 0
7406 -202 0
7406 201 0
-7407 -202 201 0
7407 202 0
7407 -201 0
-7408 2519 -2520 0
7408 -2519 0
7408 2520 0
-7409 -2519 2520 0
7409 2519 0
7409 -2520 0
-7410 2521 -2522 0
7410 -2521 0
7410 2522 0
-7411 -2521 2522 0
7411 2521 0
7411 -2522 0
-7412 204 -203 0
7412 -204 0
7412 203 0
-7413 -204 203 0
7413 204 0
7413 -203 0
-7414 206 -205 0
7414 -206 0
7414 205 0
-7415 -206 205 0
7415 206 0
7415 -205 0
-7416 2523 -2524 0
7416 -2523 0
7416 2524 0
-7417 -2523 2524 0
7417 2523 0
7417 -2524 0
-7418 2525 -2526 0
7418 -2525 0
7418 2526 0
-7419 -2525 2526 0
7419 2525 0
7419 -2526 0
-7420 208 -207 0
7420 -208 0
7420 207 0
-7421 -208 207 0
7421 208 0
7421 -207 0
-7422 210 -209 0
7422 -210 0
7422 209 0
-7423 -210 209 0
7423 210 0
7423 -209 0
-7424 2527 -2528 0
7424 -2527 0
7424 2528 0
-7425 -2527 2528 0
7425 2527 0
7425 -2528 0
-7426 212 -211 0
7426 -212 0
7426 211 0
-7427 -212 211 0
7427 212 0
7427 -211 0
-7428 2529 -2530 0
7428 -2529 0
7428 2530 0
-7429 -2529 2530 0
7429 2529 0
7429 -2530 0
-7430 2531 -2532 0
7430 -2531 0
7430 2532 0
-7431 -2531 2532 0
7431 2531 0
7431 -2532 0
-7432 214 -213 0
7432 -214 0
7432 213 0
-7433 -214 213 0
7433 214 0
7433 -213 0
-7434 216 -215 0
7434 -216 0
7434 215 0
-7435 -216 215 0
7435 216 0
7435 -215 0
-7436 2533 -2534 0
7436 -2533 0
7436 2534 0
-7437 -2533 2534 0
7437 2533 0
7437 -2534 0
-7438 2535 -2536 0
7438 -2535 0
7438 2536 0
-7439 -2535 2536 0
7439 2535 0
7439 -2536 0
-7440 218 -217 0
7440 -218 0
7440 217 0
-7441 -218 217 0
7441 218 0
7441 -217 0
-7442 220 -219 0
7442 -220 0
7442 219 0
-7443 -220 219 0
7443 220 0
7443 -219 0
-7444 2537 -2538 0
7444 -2537 0
7444 2538 0
-7445 -2537 2538 0
7445 2537 0
7445 -2538 0
-7446 222 -221 0
7446 -222 0
7446 221 0
-7447 -222 221 0
7447 222 0
7447 -221 0
-7448 2539 -2540 0
7448 -2539 0
7448 2540 0
-7449 -2539 2540 0
7449 2539 0
7449 -2540 0
-7450 224 -223 0
7450 -224 0
7450 223 0
-7451 -224 223 0
7451 224 0
7451 -223 0
-7452 2541 -2542 0
7452 -2541 0
7452 2542 0
-7453 -2541 2542 0
7453 2541 0
7453 -2542 0
-7454 2543 -2544 0
7454 -2543 0
7454 2544 0
-7455 -2543 2544 0
7455 2543 0
7455 -2544 0
-7456 226 -225 0
7456 -226 0
7456 225 0
-7457 -226 225 0
7457 226 0
7457 -225 0
-7458 228 -227 0
7458 -228 0
7458 227 0
-7459 -228 227 0
7459 228 0
7459 -227 0
-7460 2545 -2546 0
7460 -2545 0
7460 2546 0
-7461 -2545 2546 0
7461 2545 0
7461 -2546 0
-7462 2547 -2548 0
7462 -2547 0
7462 2548 0
-7463 -2547 2548 0
7463 2547 0
7463 -2548 0
-7464 230 -229 0
7464 -230 0
7464 229 0
-7465 -230 229 0
7465 230 0
7465 -229 0
-7466 2549 -2550 0
7466 -2549 0
7466 2550 0
-7467 -2549 2550 0
7467 2549 0
7467 -2550 0
-7468 232 -231 0
7468 -232 0
7468 231 0
-7469 -232 231 0
7469 232 0
7469 -231 0
-7470 2551 -2552 0
7470 -2551 0
7470 2552 0
-7471 -2551 2552 0
7471 2551 0
7471 -2552 0
-7472 234 -233 0
7472 -234 0
7472 233 0
-7473 -234 233 0
7473 234 0
7473 -233 0
-7474 236 -235 0
7474 -236 0
7474 235 0
-7475 -236 235 0
7475 236 0
7475 -235 0
-7476 2553 -2554 0
7476 -2553 0
7476 2554 0
-7477 -2553 2554 0
7477 2553 0
7477 -2554 0
-7478 2555 -2556 0
7478 -2555 0
7478 2556 0
-7479 -2555 2556 0
7479 2555 0
7479 -2556 0
-7480 238 -237 0
7480 -238 0
7480 237 0
-7481 -238 237 0
7481 238 0
7481 -237 0
-7482 2557 -2558 0
7482 -2557 0
7482 2558 0
-7483 -2557 2558 0
7483 2557 0
7483 -2558 0
-7484 240 -239 0
7484 -240 0
7484 239 0
-7485 -240 239 0
7485 240 0
7485 -239 0
-7486 2559 -2560 0
7486 -2559 0
7486 2560 0
-7487 -2559 2560 0
7487 2559 0
7487 -2560 0
-7488 242 -241 0
7488 -242 0
7488 241 0
-7489 -242 241 0
7489 242 0
7489 -241 0
-7490 244 -243 0
7490 -244 0
7490 243 0
-7491 -244 243 0
7491 244 0
7491 -243 0
-7492 2561 -2562 0
7492 -2561 0
7492 2562 0
-7493 -2561 2562 0
7493 2561 0
7493 -2562 0
-7494 2563 -2564 0
7494 -2563 0
7494 2564 0
-7495 -2563 2564 0
7495 2563 0
7495 -2564 0
-7496 246 -245 0
7496 -246 0
7496 245 0
-7497 -246 245 0
7497 246 0
7497 -245 0
-7498 2565 -2566 0
7498 -2565 0
7498 2566 0
-7499 -2565 2566 0
7499 2565 0
7499 -2566 0
-7500 248 -247 0
7500 -248 0
7500 247 0
-7501 -248 247 0
7501 248 0
7501 -247 0
-7502 2567 -2467 0
7502 -2567 0
7502 2467 0
-7503 -2567 2467 0
7503 2567 0
7503 -2467 0
-7504 250 -249 0
7504 -250 0
7504 249 0
-7505 -250 249 0
7505 250 0
7505 -249 0
-7506 2568 -2569 0
7506 -2568 0
7506 2569 0
-7507 -2568 2569 0
7507 2568 0
7507 -2569 0
-7508 252 -251 0
7508 -252 0
7508 251 0
-7509 -252 251 0
7509 252 0
7509 -251 0
-7510 254 -253 0
7510 -254 0
7510 253 0
-7511 -254 253 0
7511 254 0
7511 -253 0
-7512 2570 -2571 0
7512 -2570 0
7512 2571 0
-7513 -2570 2571 0
7513 2570 0
7513 -2571 0
-7514 2572 -2573 0
7514 -2572 0
7514 2573 0
-7515 -2572 2573 0
7515 2572 0
7515 -2573 0
-7516 256 -255 0
7516 -256 0
7516 255 0
-7517 -256 255 0
7517 256 0
7517 -255 0
-7518 2574 -2575 0
7518 -2574 0
7518 2575 0
-7519 -2574 2575 0
7519 2574 0
7519 -2575 0
-7520 258 -257 0
7520 -258 0
7520 257 0
-7521 -258 257 0
7521 258 0
7521 -257 0
-7522 260 -259 0
7522 -260 0
7522 259 0
-7523 -260 259 0
7523 260 0
7523 -259 0
-7524 2576 -2494 0
7524 -2576 0
7524 2494 0
-7525 -2576 2494 0
7525 2576 0
7525 -2494 0
-7526 2577 -2578 0
7526 -2577 0
7526 2578 0
-7527 -2577 2578 0
7527 2577 0
7527 -2578 0
-7528 2579 -2580 0
7528 -2579 0
7528 2580 0
-7529 -2579 2580 0
7529 2579 0
7529 -2580 0
-7530 2581 -2582 0
7530 -2581 0
7530 2582 0
-7531 -2581 2582 0
7531 2581 0
7531 -2582 0
-7532 264 -263 0
7532 -264 0
7532 263 0
-7533 -264 263 0
7533 264 0
7533 -263 0
-7534 2583 -2584 0
7534 -2583 0
7534 2584 0
-7535 -2583 2584 0
7535 2583 0
7535 -2584 0
-7536 266 -265 0
7536 -266 0
7536 265 0
-7537 -266 265 0
7537 266 0
7537 -265 0
-7538 268 -267 0
7538 -268 0
7538 267 0
-7539 -268 267 0
7539 268 0
7539 -267 0
-7540 2585 -2586 0
7540 -2585 0
7540 2586 0
-7541 -2585 2586 0
7541 2585 0
7541 -2586 0
-7542 270 -269 0
7542 -270 0
7542 269 0
-7543 -270 269 0
7543 270 0
7543 -269 0
-7544 2587 -2588 0
7544 -2587 0
7544 2588 0
-7545 -2587 2588 0
7545 2587 0
7545 -2588 0
-7546 272 -271 0
7546 -272 0
7546 271 0
-7547 -272 271 0
7547 272 0
7547 -271 0
-7548 2589 -2590 0
7548 -2589 0
7548 2590 0
-7549 -2589 2590 0
7549 2589 0
7549 -2590 0
-7550 2591 -2592 0
7550 -2591 0
7550 2592 0
-7551 -2591 2592 0
7551 2591 0
7551 -2592 0
-7552 274 -273 0
7552 -274 0
7552 273 0
-7553 -274 273 0
7553 274 0
7553 -273 0
-7554 276 -275 0
7554 -276 0
7554 275 0
-7555 -276 275 0
7555 276 0
7555 -275 0
-7556 2593 -2594 0
7556 -2593 0
7556 2594 0
-7557 -2593 2594 0
7557 2593 0
7557 -2594 0
-7558 2595 -2362 0
7558 -2595 0
7558 2362 0
-7559 -2595 2362 0
7559 2595 0
7559 -2362 0
-7560 278 -277 0
7560 -278 0
7560 277 0
-7561 -278 277 0
7561 278 0
7561 -277 0
-7562 280 -279 0
7562 -280 0
7562 279 0
-7563 -280 279 0
7563 280 0
7563 -279 0
-7564 2596 -2597 0
7564 -2596 0
7564 2597 0
-7565 -2596 2597 0
7565 2596 0
7565 -2597 0
-7566 2598 -2599 0
7566 -2598 0
7566 2599 0
-7567 -2598 2599 0
7567 2598 0
7567 -2599 0
-7568 282 -281 0
7568 -282 0
7568 281 0
-7569 -282 281 0
7569 282 0
7569 -281 0
-7570 2600 -2601 0
7570 -2600 0
7570 2601 0
-7571 -2600 2601 0
7571 2600 0
7571 -2601 0
-7572 284 -283 0
7572 -284 0
7572 283 0
-7573 -284 283 0
7573 284 0
7573 -283 0
-7574 2602 -2603 0
7574 -2602 0
7574 2603 0
-7575 -2602 2603 0
7575 2602 0
7575 -2603 0
-7576 286 -285 0
7576 -286 0
7576 285 0
-7577 -286 285 0
7577 286 0
7577 -285 0
-7578 2604 -2605 0
7578 -2604 0
7578 2605 0
-7579 -2604 2605 0
7579 2604 0
7579 -2605 0
-7580 288 -287 0
7580 -288 0
7580 287 0
-7581 -288 287 0
7581 288 0
7581 -287 0
-7582 2606 -2607 0
7582 -2606 0
7582 2607 0
-7583 -2606 2607 0
7583 2606 0
7583 -2607 0
-7584 290 -289 0
7584 -290 0
7584 289 0
-7585 -290 289 0
7585 290 0
7585 -289 0
-7586 2608 -2609 0
7586 -2608 0
7586 2609 0
-7587 -2608 2609 0
7587 2608 0
7587 -2609 0
-7588 292 -291 0
7588 -292 0
7588 291 0
-7589 -292 291 0
7589 292 0
7589 -291 0
-7590 294 -293 0
7590 -294 0
7590 293 0
-7591 -294 293 0
7591 294 0
7591 -293 0
-7592 2610 -2611 0
7592 -2610 0
7592 2611 0
-7593 -2610 2611 0
7593 2610 0
7593 -2611 0
-7594 2612 -2613 0
7594 -2612 0
7594 2613 0
-7595 -2612 2613 0
7595 2612 0
7595 -2613 0
-7596 296 -295 0
7596 -296 0
7596 295 0
-7597 -296 295 0
7597 296 0
7597 -295 0
-7598 2614 -2615 0
7598 -2614 0
7598 2615 0
-7599 -2614 2615 0
7599 2614 0
7599 -2615 0
-7600 298 -297 0
7600 -298 0
7600 297 0
-7601 -298 297 0
7601 298 0
7601 -297 0
-7602 2616 -2617 0
7602 -2616 0
7602 2617 0
-7603 -2616 2617 0
7603 2616 0
7603 -2617 0
-7604 300 -299 0
7604 -300 0
7604 299 0
-7605 -300 299 0
7605 300 0
7605 -299 0
-7606 2618 -2619 0
7606 -2618 0
7606 2619 0
-7607 -2618 2619 0
7607 2618 0
7607 -2619 0
-7608 302 -301 0
7608 -302 0
7608 301 0
-7609 -302 301 0
7609 302 0
7609 -301 0
-7610 2620 -2621 0
7610 -2620 0
7610 2621 0
-7611 -2620 2621 0
7611 2620 0
7611 -2621 0
-7612 304 -303 0
7612 -304 0
7612 303 0
-7613 -304 303 0
7613 304 0
7613 -303 0
-7614 306 -305 0
7614 -306 0
7614 305 0
-7615 -306 305 0
7615 306 0
7615 -305 0
-7616 2622 -2623 0
7616 -2622 0
7616 2623 0
-7617 -2622 2623 0
7617 2622 0
7617 -2623 0
-7618 2624 -2625 0
7618 -2624 0
7618 2625 0
-7619 -2624 2625 0
7619 2624 0
7619 -2625 0
-7620 308 -307 0
7620 -308 0
7620 307 0
-7621 -308 307 0
7621 308 0
7621 -307 0
-7622 310 -309 0
7622 -310 0
7622 309 0
-7623 -310 309 0
7623 310 0
7623 -309 0
-7624 2626 -2627 0
7624 -2626 0
7624 2627 0
-7625 -2626 2627 0
7625 2626 0
7625 -2627 0
-7626 2628 -2629 0
7626 -2628 0
7626 2629 0
-7627 -2628 2629 0
7627 2628 0
7627 -2629 0
-7628 312 -311 0
7628 -312 0
7628 311 0
-7629 -312 311 0
7629 312 0
7629 -311 0
-7630 314 -313 0
7630 -314 0
7630 313 0
-7631 -314 313 0
7631 314 0
7631 -313 0
-7632 2630 -2631 0
7632 -2630 0
7632 2631 0
-7633 -2630 2631 0
7633 2630 0
7633 -2631 0
-7634 2632 -2633 0
7634 -2632 0
7634 2633 0
-7635 -2632 2633 0
7635 2632 0
7635 -2633 0
-7636 316 -315 0
7636 -316 0
7636 315 0
-7637 -316 315 0
7637 316 0
7637 -315 0
-7638 318 -317 0
7638 -318 0
7638 317 0
-7639 -318 317 0
7639 318 0
7639 -317 0
-7640 2634 -2635 0
7640 -2634 0
7640 2635 0
-7641 -2634 2635 0
7641 2634 0
7641 -2635 0
-7642 2636 -2637 0
7642 -2636 0
7642 2637 0
-7643 -2636 2637 0
7643 2636 0
7643 -2637 0
-7644 320 -319 0
7644 -320 0
7644 319 0
-7645 -320 319 0
7645 320 0
7645 -319 0
-7646 322 -321 0
7646 -322 0
7646 321 0
-7647 -322 321 0
7647 322 0
7647 -321 0
-7648 2638 -2639 0
7648 -2638 0
7648 2639 0
-7649 -2638 2639 0
7649 2638 0
7649 -2639 0
-7650 2640 -2641 0
7650 -2640 0
7650 2641 0
-7651 -2640 2641 0
7651 2640 0
7651 -2641 0
-7652 324 -323 0
7652 -324 0
7652 323 0
-7653 -324 323 0
7653 324 0
7653 -323 0
-7654 2642 -2643 0
7654 -2642 0
7654 2643 0
-7655 -2642 2643 0
7655 2642 0
7655 -2643 0
-7656 326 -325 0
7656 -326 0
7656 325 0
-7657 -326 325 0
7657 326 0
7657 -325 0
-7658 328 -327 0
7658 -328 0
7658 327 0
-7659 -328 327 0
7659 328 0
7659 -327 0
-7660 2644 -2645 0
7660 -2644 0
7660 2645 0
-7661 -2644 2645 0
7661 2644 0
7661 -2645 0
-7662 330 -329 0
7662 -330 0
7662 329 0
-7663 -330 329 0
7663 330 0
7663 -329 0
-7664 2646 -2472 0
7664 -2646 0
7664 2472 0
-7665 -2646 2472 0
7665 2646 0
7665 -2472 0
-7666 2647 -2648 0
7666 -2647 0
7666 2648 0
-7667 -2647 2648 0
7667 2647 0
7667 -2648 0
-7668 332 -331 0
7668 -332 0
7668 331 0
-7669 -332 331 0
7669 332 0
7669 -331 0
-7670 2649 -2650 0
7670 -2649 0
7670 2650 0
-7671 -2649 2650 0
7671 2649 0
7671 -2650 0
-7672 334 -333 0
7672 -334 0
7672 333 0
-7673 -334 333 0
7673 334 0
7673 -333 0
-7674 2651 -2652 0
7674 -2651 0
7674 2652 0
-7675 -2651 2652 0
7675 2651 0
7675 -2652 0
-7676 336 -335 0
7676 -336 0
7676 335 0
-7677 -336 335 0
7677 336 0
7677 -335 0
-7678 2653 -2654 0
7678 -2653 0
7678 2654 0
-7679 -2653 2654 0
7679 2653 0
7679 -2654 0
-7680 338 -337 0
7680 -338 0
7680 337 0
-7681 -338 337 0
7681 338 0
7681 -337 0
-7682 340 -339 0
7682 -340 0
7682 339 0
-7683 -340 339 0
7683 340 0
7683 -339 0
-7684 2655 -2497 0
7684 -2655 0
7684 2497 0
-7685 -2655 2497 0
7685 2655 0
7685 -2497 0
-7686 2656 -2657 0
7686 -2656 0
7686 2657 0
-7687 -2656 2657 0
7687 2656 0
7687 -2657 0
-7688 2658 -2659 0
7688 -2658 0
7688 2659 0
-7689 -2658 2659 0
7689 2658 0
7689 -2659 0
-7690 2660 -2661 0
7690 -2660 0
7690 2661 0
-7691 -2660 2661 0
7691 2660 0
7691 -2661 0
-7692 344 -343 0
7692 -344 0
7692 343 0
-7693 -344 343 0
7693 344 0
7693 -343 0
-7694 2662 -2663 0
7694 -2662 0
7694 2663 0
-7695 -2662 2663 0
7695 2662 0
7695 -2663 0
-7696 346 -345 0
7696 -346 0
7696 345 0
-7697 -346 345 0
7697 346 0
7697 -345 0
-7698 348 -347 0
7698 -348 0
7698 347 0
-7699 -348 347 0
7699 348 0
7699 -347 0
-7700 2664 -2665 0
7700 -2664 0
7700 2665 0
-7701 -2664 2665 0
7701 2664 0
7701 -2665 0
-7702 350 -349 0
7702 -350 0
7702 349 0
-7703 -350 349 0
7703 350 0
7703 -349 0
-7704 2666 -2667 0
7704 -2666 0
7704 2667 0
-7705 -2666 2667 0
7705 2666 0
7705 -2667 0
-7706 2668 -2669 0
7706 -2668 0
7706 2669 0
-7707 -2668 2669 0
7707 2668 0
7707 -2669 0
-7708 352 -351 0
7708 -352 0
7708 351 0
-7709 -352 351 0
7709 352 0
7709 -351 0
-7710 354 -353 0
7710 -354 0
7710 353 0
-7711 -354 353 0
7711 354 0
7711 -353 0
-7712 2670 -2671 0
7712 -2670 0
7712 2671 0
-7713 -2670 2671 0
7713 2670 0
7713 -2671 0
-7714 2672 -2673 0
7714 -2672 0
7714 2673 0
-7715 -2672 2673 0
7715 2672 0
7715 -2673 0
-7716 356 -355 0
7716 -356 0
7716 355 0
-7717 -356 355 0
7717 356 0
7717 -355 0
-7718 2674 -2347 0
7718 -2674 0
7718 2347 0
-7719 -2674 2347 0
7719 2674 0
7719 -2347 0
-7720 358 -357 0
7720 -358 0
7720 357 0
-7721 -358 357 0
7721 358 0
7721 -357 0
-7722 2675 -2676 0
7722 -2675 0
7722 2676 0
-7723 -2675 2676 0
7723 2675 0
7723 -2676 0
-7724 360 -359 0
7724 -360 0
7724 359 0
-7725 -360 359 0
7725 360 0
7725 -359 0
-7726 362 -361 0
7726 -362 0
7726 361 0
-7727 -362 361 0
7727 362 0
7727 -361 0
-7728 2677 -2678 0
7728 -2677 0
7728 2678 0
-7729 -2677 2678 0
7729 2677 0
7729 -2678 0
-7730 2679 -2680 0
7730 -2679 0
7730 2680 0
-7731 -2679 2680 0
7731 2679 0
7731 -2680 0
-7732 364 -363 0
7732 -364 0
7732 363 0
-7733 -364 363 0
7733 364 0
7733 -363 0
-7734 366 -365 0
7734 -366 0
7734 365 0
-7735 -366 365 0
7735 366 0
7735 -365 0
-7736 2681 -2682 0
7736 -2681 0
7736 2682 0
-7737 -2681 2682 0
7737 2681 0
7737 -2682 0
-7738 2683 -2684 0
7738 -2683 0
7738 2684 0
-7739 -2683 2684 0
7739 2683 0
7739 -2684 0
-7740 368 -367 0
7740 -368 0
7740 367 0
-7741 -368 367 0
7741 368 0
7741 -367 0
-7742 370 -369 0
7742 -370 0
7742 369 0
-7743 -370 369 0
7743 370 0
7743 -369 0
-7744 2685 -2686 0
7744 -2685 0
7744 2686 0
-7745 -2685 2686 0
7745 2685 0
7745 -2686 0
-7746 372 -371 0
7746 -372 0
7746 371 0
-7747 -372 371 0
7747 372 0
7747 -371 0
-7748 2687 -2688 0
7748 -2687 0
7748 2688 0
-7749 -2687 2688 0
7749 2687 0
7749 -2688 0
-7750 374 -373 0
7750 -374 0
7750 373 0
-7751 -374 373 0
7751 374 0
7751 -373 0
-7752 2689 -2690 0
7752 -2689 0
7752 2690 0
-7753 -2689 2690 0
7753 2689 0
7753 -2690 0
-7754 2691 -2692 0
7754 -2691 0
7754 2692 0
-7755 -2691 2692 0
7755 2691 0
7755 -2692 0
-7756 376 -375 0
7756 -376 0
7756 375 0
-7757 -376 375 0
7757 376 0
7757 -375 0
-7758 2693 -2694 0
7758 -2693 0
7758 2694 0
-7759 -2693 2694 0
7759 2693 0
7759 -2694 0
-7760 378 -377 0
7760 -378 0
7760 377 0
-7761 -378 377 0
7761 378 0
7761 -377 0
-7762 2695 -2696 0
7762 -2695 0
7762 2696 0
-7763 -2695 2696 0
7763 2695 0
7763 -2696 0
-7764 380 -379 0
7764 -380 0
7764 379 0
-7765 -380 379 0
7765 380 0
7765 -379 0
-7766 382 -381 0
7766 -382 0
7766 381 0
-7767 -382 381 0
7767 382 0
7767 -381 0
-7768 2697 -2698 0
7768 -2697 0
7768 2698 0
-7769 -2697 2698 0
7769 2697 0
7769 -2698 0
-7770 2699 -2700 0
7770 -2699 0
7770 2700 0
-7771 -2699 2700 0
7771 2699 0
7771 -2700 0
-7772 384 -383 0
7772 -384 0
7772 383 0
-7773 -384 383 0
7773 384 0
7773 -383 0
-7774 2701 -2702 0
7774 -2701 0
7774 2702 0
-7775 -2701 2702 0
7775 2701 0
7775 -2702 0
-7776 386 -385 0
7776 -386 0
7776 385 0
-7777 -386 385 0
7777 386 0
7777 -385 0
-7778 2703 -2704 0
7778 -2703 0
7778 2704 0
-7779 -2703 2704 0
7779 2703 0
7779 -2704 0
-7780 388 -387 0
7780 -388 0
7780 387 0
-7781 -388 387 0
7781 388 0
7781 -387 0
-7782 390 -389 0
7782 -390 0
7782 389 0
-7783 -390 389 0
7783 390 0
7783 -389 0
-7784 2705 -2706 0
7784 -2705 0
7784 2706 0
-7785 -2705 2706 0
7785 2705 0
7785 -2706 0
-7786 392 -391 0
7786 -392 0
7786 391 0
-7787 -392 391 0
7787 392 0
7787 -391 0
-7788 2707 -2708 0
7788 -2707 0
7788 2708 0
-7789 -2707 2708 0
7789 2707 0
7789 -2708 0
-7790 2709 -2710 0
7790 -2709 0
7790 2710 0
-7791 -2709 2710 0
7791 2709 0
7791 -2710 0
-7792 394 -393 0
7792 -394 0
7792 393 0
-7793 -394 393 0
7793 394 0
7793 -393 0
-7794 2711 -2712 0
7794 -2711 0
7794 2712 0
-7795 -2711 2712 0
7795 2711 0
7795 -2712 0
-7796 396 -395 0
7796 -396 0
7796 395 0
-7797 -396 395 0
7797 396 0
7797 -395 0
-7798 2713 -2714 0
7798 -2713 0
7798 2714 0
-7799 -2713 2714 0
7799 2713 0
7799 -2714 0
-7800 398 -397 0
7800 -398 0
7800 397 0
-7801 -398 397 0
7801 398 0
7801 -397 0
-7802 400 -399 0
7802 -400 0
7802 399 0
-7803 -400 399 0
7803 400 0
7803 -399 0
-7804 2715 -2716 0
7804 -2715 0
7804 2716 0
-7805 -2715 2716 0
7805 2715 0
7805 -2716 0
-7806 2717 -2718 0
7806 -2717 0
7806 2718 0
-7807 -2717 2718 0
7807 2717 0
7807 -2718 0
-7808 402 -401 0
7808 -402 0
7808 401 0
-7809 -402 401 0
7809 402 0
7809 -401 0
-7810 2719 -2720 0
7810 -2719 0
7810 2720 0
-7811 -2719 2720 0
7811 2719 0
7811 -2720 0
-7812 404 -403 0
7812 -404 0
7812 403 0
-7813 -404 403 0
7813 404 0
7813 -403 0
-7814 2721 -2722 0
7814 -2721 0
7814 2722 0
-7815 -2721 2722 0
7815 2721 0
7815 -2722 0
-7816 406 -405 0
7816 -406 0
7816 405 0
-7817 -406 405 0
7817 406 0
7817 -405 0
-7818 408 -407 0
7818 -408 0
7818 407 0
-7819 -408 407 0
7819 408 0
7819 -407 0
-7820 2723 -2724 0
7820 -2723 0
7820 2724 0
-7821 -2723 2724 0
7821 2723 0
7821 -2724 0
-7822 410 -409 0
7822 -410 0
7822 409 0
-7823 -410 409 0
7823 410 0
7823 -409 0
-7824 2725 -2469 0
7824 -2725 0
7824 2469 0
-7825 -2725 2469 0
7825 2725 0
7825 -2469 0
-7826 2726 -2727 0
7826 -2726 0
7826 2727 0
-7827 -2726 2727 0
7827 2726 0
7827 -2727 0
-7828 412 -411 0
7828 -412 0
7828 411 0
-7829 -412 411 0
7829 412 0
7829 -411 0
-7830 2728 -2729 0
7830 -2728 0
7830 2729 0
-7831 -2728 2729 0
7831 2728 0
7831 -2729 0
-7832 414 -413 0
7832 -414 0
7832 413 0
-7833 -414 413 0
7833 414 0
7833 -413 0
-7834 416 -415 0
7834 -416 0
7834 415 0
-7835 -416 415 0
7835 416 0
7835 -415 0
-7836 2730 -2731 0
7836 -2730 0
7836 2731 0
-7837 -2730 2731 0
7837 2730 0
7837 -2731 0
-7838 2732 -2733 0
7838 -2732 0
7838 2733 0
-7839 -2732 2733 0
7839 2732 0
7839 -2733 0
-7840 418 -417 0
7840 -418 0
7840 417 0
-7841 -418 417 0
7841 418 0
7841 -417 0
-7842 420 -419 0
7842 -420 0
7842 419 0
-7843 -420 419 0
7843 420 0
7843 -419 0
-7844 2734 -2490 0
7844 -2734 0
7844 2490 0
-7845 -2734 2490 0
7845 2734 0
7845 -2490 0
-7846 2735 -2736 0
7846 -2735 0
7846 2736 0
-7847 -2735 2736 0
7847 2735 0
7847 -2736 0
-7848 2737 -2738 0
7848 -2737 0
7848 2738 0
-7849 -2737 2738 0
7849 2737 0
7849 -2738 0
-7850 2739 -2740 0
7850 -2739 0
7850 2740 0
-7851 -2739 2740 0
7851 2739 0
7851 -2740 0
-7852 424 -423 0
7852 -424 0
7852 423 0
-7853 -424 423 0
7853 424 0
7853 -423 0
-7854 2741 -2742 0
7854 -2741 0
7854 2742 0
-7855 -2741 2742 0
7855 2741 0
7855 -2742 0
-7856 426 -425 0
7856 -426 0
7856 425 0
-7857 -426 425 0
7857 426 0
7857 -425 0
-7858 2743 -2744 0
7858 -2743 0
7858 2744 0
-7859 -2743 2744 0
7859 2743 0
7859 -2744 0
-7860 428 -427 0
7860 -428 0
7860 427 0
-7861 -428 427 0
7861 428 0
7861 -427 0
-7862 430 -429 0
7862 -430 0
7862 429 0
-7863 -430 429 0
7863 430 0
7863 -429 0
-7864 2745 -2746 0
7864 -2745 0
7864 2746 0
-7865 -2745 2746 0
7865 2745 0
7865 -2746 0
-7866 2747 -2748 0
7866 -2747 0
7866 2748 0
-7867 -2747 2748 0
7867 2747 0
7867 -2748 0
-7868 432 -431 0
7868 -432 0
7868 431 0
-7869 -432 431 0
7869 432 0
7869 -431 0
-7870 2749 -2750 0
7870 -2749 0
7870 2750 0
-7871 -2749 2750 0
7871 2749 0
7871 -2750 0
-7872 434 -433 0
7872 -434 0
7872 433 0
-7873 -434 433 0
7873 434 0
7873 -433 0
-7874 2751 -2752 0
7874 -2751 0
7874 2752 0
-7875 -2751 2752 0
7875 2751 0
7875 -2752 0
-7876 436 -435 0
7876 -436 0
7876 435 0
-7877 -436 435 0
7877 436 0
7877 -435 0
-7878 2753 -2359 0
7878 -2753 0
7878 2359 0
-7879 -2753 2359 0
7879 2753 0
7879 -2359 0
-7880 438 -437 0
7880 -438 0
7880 437 0
-7881 -438 437 0
7881 438 0
7881 -437 0
-7882 2754 -2755 0
7882 -2754 0
7882 2755 0
-7883 -2754 2755 0
7883 2754 0
7883 -2755 0
-7884 440 -439 0
7884 -440 0
7884 439 0
-7885 -440 439 0
7885 440 0
7885 -439 0
-7886 2756 -2757 0
7886 -2756 0
7886 2757 0
-7887 -2756 2757 0
7887 2756 0
7887 -2757 0
-7888 442 -441 0
7888 -442 0
7888 441 0
-7889 -442 441 0
7889 442 0
7889 -441 0
-7890 444 -443 0
7890 -444 0
7890 443 0
-7891 -444 443 0
7891 444 0
7891 -443 0
-7892 2758 -2759 0
7892 -2758 0
7892 2759 0
-7893 -2758 2759 0
7893 2758 0
7893 -2759 0
-7894 2760 -2761 0
7894 -2760 0
7894 2761 0
-7895 -2760 2761 0
7895 2760 0
7895 -2761 0
-7896 446 -445 0
7896 -446 0
7896 445 0
-7897 -446 445 0
7897 446 0
7897 -445 0
-7898 448 -447 0
7898 -448 0
7898 447 0
-7899 -448 447 0
7899 448 0
7899 -447 0
-7900 2762 -2763 0
7900 -2762 0
7900 2763 0
-7901 -2762 2763 0
7901 2762 0
7901 -2763 0
-7902 2764 -2765 0
7902 -2764 0
7902 2765 0
-7903 -2764 2765 0
7903 2764 0
7903 -2765 0
-7904 450 -449 0
7904 -450 0
7904 449 0
-7905 -450 449 0
7905 450 0
7905 -449 0
-7906 2766 -2767 0
7906 -2766 0
7906 2767 0
-7907 -2766 2767 0
7907 2766 0
7907 -2767 0
-7908 452 -451 0
7908 -452 0
7908 451 0
-7909 -452 451 0
7909 452 0
7909 -451 0
-7910 2768 -2769 0
7910 -2768 0
7910 2769 0
-7911 -2768 2769 0
7911 2768 0
7911 -2769 0
-7912 454 -453 0
7912 -454 0
7912 453 0
-7913 -454 453 0
7913 454 0
7913 -453 0
-7914 456 -455 0
7914 -456 0
7914 455 0
-7915 -456 455 0
7915 456 0
7915 -455 0
-7916 2770 -2771 0
7916 -2770 0
7916 2771 0
-7917 -2770 2771 0
7917 2770 0
7917 -2771 0
-7918 2772 -2773 0
7918 -2772 0
7918 2773 0
-7919 -2772 2773 0
7919 2772 0
7919 -2773 0
-7920 458 -457 0
7920 -458 0
7920 457 0
-7921 -458 457 0
7921 458 0
7921 -457 0
-7922 460 -459 0
7922 -460 0
7922 459 0
-7923 -460 459 0
7923 460 0
7923 -459 0
-7924 2774 -2775 0
7924 -2774 0
7924 2775 0
-7925 -2774 2775 0
7925 2774 0
7925 -2775 0
-7926 2776 -2777 0
7926 -2776 0
7926 2777 0
-7927 -2776 2777 0
7927 2776 0
7927 -2777 0
-7928 462 -461 0
7928 -462 0
7928 461 0
-7929 -462 461 0
7929 462 0
7929 -461 0
-7930 2778 -2779 0
7930 -2778 0
7930 2779 0
-7931 -2778 2779 0
7931 2778 0
7931 -2779 0
-7932 464 -463 0
7932 -464 0
7932 463 0
-7933 -464 463 0
7933 464 0
7933 -463 0
-7934 2780 -2781 0
7934 -2780 0
7934 2781 0
-7935 -2780 2781 0
7935 2780 0
7935 -2781 0
-7936 466 -465 0
7936 -466 0
7936 465 0
-7937 -466 465 0
7937 466 0
7937 -465 0
-7938 468 -467 0
7938 -468 0
7938 467 0
-7939 -468 467 0
7939 468 0
7939 -467 0
-7940 2782 -2783 0
7940 -2782 0
7940 2783 0
-7941 -2782 2783 0
7941 2782 0
7941 -2783 0
-7942 2784 -2785 0
7942 -2784 0
7942 2785 0
-7943 -2784 2785 0
7943 2784 0
7943 -2785 0
-7944 470 -469 0
7944 -470 0
7944 469 0
-7945 -470 469 0
7945 470 0
7945 -469 0
-7946 2786 -2787 0
7946 -2786 0
7946 2787 0
-7947 -2786 2787 0
7947 2786 0
7947 -2787 0
-7948 472 -471 0
7948 -472 0
7948 471 0
-7949 -472 471 0
7949 472 0
7949 -471 0
-7950 474 -473 0
7950 -474 0
7950 473 0
-7951 -474 473 0
7951 474 0
7951 -473 0
-7952 2788 -2789 0
7952 -2788 0
7952 2789 0
-7953 -2788 2789 0
7953 2788 0
7953 -2789 0
-7954 476 -475 0
7954 -476 0
7954 475 0
-7955 -476 475 0
7955 476 0
7955 -475 0
-7956 2790 -2791 0
7956 -2790 0
7956 2791 0
-7957 -2790 2791 0
7957 2790 0
7957 -2791 0
-7958 2792 -2793 0
7958 -2792 0
7958 2793 0
-7959 -2792 2793 0
7959 2792 0
7959 -2793 0
-7960 478 -477 0
7960 -478 0
7960 477 0
-7961 -478 477 0
7961 478 0
7961 -477 0
-7962 2794 -2795 0
7962 -2794 0
7962 2795 0
-7963 -2794 2795 0
7963 2794 0
7963 -2795 0
-7964 480 -479 0
7964 -480 0
7964 479 0
-7965 -480 479 0
7965 480 0
7965 -479 0
-7966 2796 -2797 0
7966 -2796 0
7966 2797 0
-7967 -2796 2797 0
7967 2796 0
7967 -2797 0
-7968 482 -481 0
7968 -482 0
7968 481 0
-7969 -482 481 0
7969 482 0
7969 -481 0
-7970 484 -483 0
7970 -484 0
7970 483 0
-7971 -484 483 0
7971 484 0
7971 -483 0
-7972 2798 -2799 0
7972 -2798 0
7972 2799 0
-7973 -2798 2799 0
7973 2798 0
7973 -2799 0
-7974 2800 -2801 0
7974 -2800 0
7974 2801 0
-7975 -2800 2801 0
7975 2800 0
7975 -2801 0
-7976 486 -485 0
7976 -486 0
7976 485 0
-7977 -486 485 0
7977 486 0
7977 -485 0
-7978 2802 -2803 0
7978 -2802 0
7978 2803 0
-7979 -2802 2803 0
7979 2802 0
7979 -2803 0
-7980 488 -487 0
7980 -488 0
7980 487 0
-7981 -488 487 0
7981 488 0
7981 -487 0
-7982 490 -489 0
7982 -490 0
7982 489 0
-7983 -490 489 0
7983 490 0
7983 -489 0
-7984 2804 -2463 0
7984 -2804 0
7984 2463 0
-7985 -2804 2463 0
7985 2804 0
7985 -2463 0
-7986 2805 -2806 0
7986 -2805 0
7986 2806 0
-7987 -2805 2806 0
7987 2805 0
7987 -2806 0
-7988 492 -491 0
7988 -492 0
7988 491 0
-7989 -492 491 0
7989 492 0
7989 -491 0
-7990 494 -493 0
7990 -494 0
7990 493 0
-7991 -494 493 0
7991 494 0
7991 -493 0
-7992 2807 -2808 0
7992 -2807 0
7992 2808 0
-7993 -2807 2808 0
7993 2807 0
7993 -2808 0
-7994 2809 -2810 0
7994 -2809 0
7994 2810 0
-7995 -2809 2810 0
7995 2809 0
7995 -2810 0
-7996 496 -495 0
7996 -496 0
7996 495 0
-7997 -496 495 0
7997 496 0
7997 -495 0
-7998 498 -497 0
7998 -498 0
7998 497 0
-7999 -498 497 0
7999 498 0
7999 -497 0
-8000 2811 -2812 0
8000 -2811 0
8000 2812 0
-8001 -2811 2812 0
8001 2811 0
8001 -2812 0
-8002 500 -499 0
8002 -500 0
8002 499 0
-8003 -500 499 0
8003 500 0
8003 -499 0
-8004 2813 -2492 0
8004 -2813 0
8004 2492 0
-8005 -2813 2492 0
8005 2813 0
8005 -2492 0
-8006 2814 -1872 0
8006 -2814 0
8006 1872 0
-8007 -2814 1872 0
8007 2814 0
8007 -1872 0
-8008 2815 -1873 0
8008 -2815 0
8008 1873 0
-8009 -2815 1873 0
8009 2815 0
8009 -1873 0
-8010 504 -503 0
8010 -504 0
8010 503 0
-8011 -504 503 0
8011 504 0
8011 -503 0
-8012 2816 -2023 0
8012 -2816 0
8012 2023 0
-8013 -2816 2023 0
8013 2816 0
8013 -2023 0
-8014 2817 -2113 0
8014 -2817 0
8014 2113 0
-8015 -2817 2113 0
8015 2817 0
8015 -2113 0
-8016 506 -505 0
8016 -506 0
8016 505 0
-8017 -506 505 0
8017 506 0
8017 -505 0
-8018 508 -507 0
8018 -508 0
8018 507 0
-8019 -508 507 0
8019 508 0
8019 -507 0
-8020 2818 -2151 0
8020 -2818 0
8020 2151 0
-8021 -2818 2151 0
8021 2818 0
8021 -2151 0
-8022 2819 -2255 0
8022 -2819 0
8022 2255 0
-8023 -2819 2255 0
8023 2819 0
8023 -2255 0
-8024 510 -509 0
8024 -510 0
8024 509 0
-8025 -510 509 0
8025 510 0
8025 -509 0
-8026 2820 -2821 0
8026 -2820 0
8026 2821 0
-8027 -2820 2821 0
8027 2820 0
8027 -2821 0
-8028 512 -511 0
8028 -512 0
8028 511 0
-8029 -512 511 0
8029 512 0
8029 -511 0
-8030 2822 -1960 0
8030 -2822 0
8030 1960 0
-8031 -2822 1960 0
8031 2822 0
8031 -1960 0
-8032 2823 -1959 0
8032 -2823 0
8032 1959 0
-8033 -2823 1959 0
8033 2823 0
8033 -1959 0
-8034 2824 -2057 0
8034 -2824 0
8034 2057 0
-8035 -2824 2057 0
8035 2824 0
8035 -2057 0
-8036 516 -515 0
8036 -516 0
8036 515 0
-8037 -516 515 0
8037 516 0
8037 -515 0
-8038 2825 -2101 0
8038 -2825 0
8038 2101 0
-8039 -2825 2101 0
8039 2825 0
8039 -2101 0
-8040 518 -517 0
8040 -518 0
8040 517 0
-8041 -518 517 0
8041 518 0
8041 -517 0
-8042 2826 -2205 0
8042 -2826 0
8042 2205 0
-8043 -2826 2205 0
8043 2826 0
8043 -2205 0
-8044 520 -519 0
8044 -520 0
8044 519 0
-8045 -520 519 0
8045 520 0
8045 -519 0
-8046 522 -521 0
8046 -522 0
8046 521 0
-8047 -522 521 0
8047 522 0
8047 -521 0
-8048 2827 -2233 0
8048 -2827 0
8048 2233 0
-8049 -2827 2233 0
8049 2827 0
8049 -2233 0
-8050 524 -523 0
8050 -524 0
8050 523 0
-8051 -524 523 0
8051 524 0
8051 -523 0
-8052 2828 -2829 0
8052 -2828 0
8052 2829 0
-8053 -2828 2829 0
8053 2828 0
8053 -2829 0
-8054 2830 -2429 0
8054 -2830 0
8054 2429 0
-8055 -2830 2429 0
8055 2830 0
8055 -2429 0
-8056 526 -525 0
8056 -526 0
8056 525 0
-8057 -526 525 0
8057 526 0
8057 -525 0
-8058 2831 -2017 0
8058 -2831 0
8058 2017 0
-8059 -2831 2017 0
8059 2831 0
8059 -2017 0
-8060 2832 -1907 0
8060 -2832 0
8060 1907 0
-8061 -2832 1907 0
8061 2832 0
8061 -1907 0
-8062 2833 -2095 0
8062 -2833 0
8062 2095 0
-8063 -2833 2095 0
8063 2833 0
8063 -2095 0
-8064 530 -529 0
8064 -530 0
8064 529 0
-8065 -530 529 0
8065 530 0
8065 -529 0
-8066 2834 -2179 0
8066 -2834 0
8066 2179 0
-8067 -2834 2179 0
8067 2834 0
8067 -2179 0
-8068 532 -531 0
8068 -532 0
8068 531 0
-8069 -532 531 0
8069 532 0
8069 -531 0
-8070 534 -533 0
8070 -534 0
8070 533 0
-8071 -534 533 0
8071 534 0
8071 -533 0
-8072 2835 -2275 0
8072 -2835 0
8072 2275 0
-8073 -2835 2275 0
8073 2835 0
8073 -2275 0
-8074 2836 -2837 0
8074 -2836 0
8074 2837 0
-8075 -2836 2837 0
8075 2836 0
8075 -2837 0
-8076 536 -535 0
8076 -536 0
8076 535 0
-8077 -536 535 0
8077 536 0
8077 -535 0
-8078 2838 -1991 0
8078 -2838 0
8078 1991 0
-8079 -2838 1991 0
8079 2838 0
8079 -1991 0
-8080 2839 -1924 0
8080 -2839 0
8080 1924 0
-8081 -2839 1924 0
8081 2839 0
8081 -1924 0
-8082 2840 -2107 0
8082 -2840 0
8082 2107 0
-8083 -2840 2107 0
8083 2840 0
8083 -2107 0
-8084 540 -539 0
8084 -540 0
8084 539 0
-8085 -540 539 0
8085 540 0
8085 -539 0
-8086 2841 -2221 0
8086 -2841 0
8086 2221 0
-8087 -2841 2221 0
8087 2841 0
8087 -2221 0
-8088 542 -541 0
8088 -542 0
8088 541 0
-8089 -542 541 0
8089 542 0
8089 -541 0
-8090 544 -543 0
8090 -544 0
8090 543 0
-8091 -544 543 0
8091 544 0
8091 -543 0
-8092 2842 -2297 0
8092 -2842 0
8092 2297 0
-8093 -2842 2297 0
8093 2842 0
8093 -2297 0
-8094 546 -545 0
8094 -546 0
8094 545 0
-8095 -546 545 0
8095 546 0
8095 -545 0
-8096 2843 -2844 0
8096 -2843 0
8096 2844 0
-8097 -2843 2844 0
8097 2843 0
8097 -2844 0
-8098 2845 -1904 0
8098 -2845 0
8098 1904 0
-8099 -2845 1904 0
8099 2845 0
8099 -1904 0
-8100 2846 -1985 0
8100 -2846 0
8100 1985 0
-8101 -2846 1985 0
8101 2846 0
8101 -1985 0
-8102 550 -549 0
8102 -550 0
8102 549 0
-8103 -550 549 0
8103 550 0
8103 -549 0
-8104 2847 -2099 0
8104 -2847 0
8104 2099 0
-8105 -2847 2099 0
8105 2847 0
8105 -2099 0
-8106 552 -551 0
8106 -552 0
8106 551 0
-8107 -552 551 0
8107 552 0
8107 -551 0
-8108 2848 -2185 0
8108 -2848 0
8108 2185 0
-8109 -2848 2185 0
8109 2848 0
8109 -2185 0
-8110 2849 -2293 0
8110 -2849 0
8110 2293 0
-8111 -2849 2293 0
8111 2849 0
8111 -2293 0
-8112 554 -553 0
8112 -554 0
8112 553 0
-8113 -554 553 0
8113 554 0
8113 -553 0
-8114 2850 -2343 0
8114 -2850 0
8114 2343 0
-8115 -2850 2343 0
8115 2850 0
8115 -2343 0
-8116 556 -555 0
8116 -556 0
8116 555 0
-8117 -556 555 0
8117 556 0
8117 -555 0
-8118 2851 -2406 0
8118 -2851 0
8118 2406 0
-8119 -2851 2406 0
8119 2851 0
8119 -2406 0
-8120 558 -557 0
8120 -558 0
8120 557 0
-8121 -558 557 0
8121 558 0
8121 -557 0
-8122 2852 -2853 0
8122 -2852 0
8122 2853 0
-8123 -2852 2853 0
8123 2852 0
8123 -2853 0
-8124 560 -559 0
8124 -560 0
8124 559 0
-8125 -560 559 0
8125 560 0
8125 -559 0
-8126 2854 -1974 0
8126 -2854 0
8126 1974 0
-8127 -2854 1974 0
8127 2854 0
8127 -1974 0
-8128 2855 -1973 0
8128 -2855 0
8128 1973 0
-8129 -2855 1973 0
8129 2855 0
8129 -1973 0
-8130 2856 -2007 0
8130 -2856 0
8130 2007 0
-8131 -2856 2007 0
8131 2856 0
8131 -2007 0
-8132 564 -563 0
8132 -564 0
8132 563 0
-8133 -564 563 0
8133 564 0
8133 -563 0
-8134 2857 -2105 0
8134 -2857 0
8134 2105 0
-8135 -2857 2105 0
8135 2857 0
8135 -2105 0
-8136 566 -565 0
8136 -566 0
8136 565 0
-8137 -566 565 0
8137 566 0
8137 -565 0
-8138 2858 -2149 0
8138 -2858 0
8138 2149 0
-8139 -2858 2149 0
8139 2858 0
8139 -2149 0
-8140 568 -567 0
8140 -568 0
8140 567 0
-8141 -568 567 0
8141 568 0
8141 -567 0
-8142 2859 -2277 0
8142 -2859 0
8142 2277 0
-8143 -2859 2277 0
8143 2859 0
8143 -2277 0
-8144 570 -569 0
8144 -570 0
8144 569 0
-8145 -570 569 0
8145 570 0
8145 -569 0
-8146 2860 -1869 0
8146 -2860 0
8146 1869 0
-8147 -2860 1869 0
8147 2860 0
8147 -1869 0
-8148 2861 -1868 0
8148 -2861 0
8148 1868 0
-8149 -2861 1868 0
8149 2861 0
8149 -1868 0
-8150 574 -573 0
8150 -574 0
8150 573 0
-8151 -574 573 0
8151 574 0
8151 -573 0
-8152 2862 -1993 0
8152 -2862 0
8152 1993 0
-8153 -2862 1993 0
8153 2862 0
8153 -1993 0
-8154 576 -575 0
8154 -576 0
8154 575 0
-8155 -576 575 0
8155 576 0
8155 -575 0
-8156 2863 -2075 0
8156 -2863 0
8156 2075 0
-8157 -2863 2075 0
8157 2863 0
8157 -2075 0
-8158 2864 -2175 0
8158 -2864 0
8158 2175 0
-8159 -2864 2175 0
8159 2864 0
8159 -2175 0
-8160 578 -577 0
8160 -578 0
8160 577 0
-8161 -578 577 0
8161 578 0
8161 -577 0
-8162 2865 -2301 0
8162 -2865 0
8162 2301 0
-8163 -2865 2301 0
8163 2865 0
8163 -2301 0
-8164 580 -579 0
8164 -580 0
8164 579 0
-8165 -580 579 0
8165 580 0
8165 -579 0
-8166 2866 -2003 0
8166 -2866 0
8166 2003 0
-8167 -2866 2003 0
8167 2866 0
8167 -2003 0
-8168 2867 -1913 0
8168 -2867 0
8168 1913 0
-8169 -2867 1913 0
8169 2867 0
8169 -1913 0
-8170 584 -583 0
8170 -584 0
8170 583 0
-8171 -584 583 0
8171 584 0
8171 -583 0
-8172 2868 -2067 0
8172 -2868 0
8172 2067 0
-8173 -2868 2067 0
8173 2868 0
8173 -2067 0
-8174 586 -585 0
8174 -586 0
8174 585 0
-8175 -586 585 0
8175 586 0
8175 -585 0
-8176 2869 -2183 0
8176 -2869 0
8176 2183 0
-8177 -2869 2183 0
8177 2869 0
8177 -2183 0
-8178 2870 -2279 0
8178 -2870 0
8178 2279 0
-8179 -2870 2279 0
8179 2870 0
8179 -2279 0
-8180 588 -587 0
8180 -588 0
8180 587 0
-8181 -588 587 0
8181 588 0
8181 -587 0
-8182 590 -589 0
8182 -590 0
8182 589 0
-8183 -590 589 0
8183 590 0
8183 -589 0
-8184 2871 -2390 0
8184 -2871 0
8184 2390 0
-8185 -2871 2390 0
8185 2871 0
8185 -2390 0
-8186 592 -591 0
8186 -592 0
8186 591 0
-8187 -592 591 0
8187 592 0
8187 -591 0
-8188 2872 -2873 0
8188 -2872 0
8188 2873 0
-8189 -2872 2873 0
8189 2872 0
8189 -2873 0
-8190 2874 -1978 0
8190 -2874 0
8190 1978 0
-8191 -2874 1978 0
8191 2874 0
8191 -1978 0
-8192 2875 -1977 0
8192 -2875 0
8192 1977 0
-8193 -2875 1977 0
8193 2875 0
8193 -1977 0
-8194 2876 -2001 0
8194 -2876 0
8194 2001 0
-8195 -2876 2001 0
8195 2876 0
8195 -2001 0
-8196 596 -595 0
8196 -596 0
8196 595 0
-8197 -596 595 0
8197 596 0
8197 -595 0
-8198 2877 -2103 0
8198 -2877 0
8198 2103 0
-8199 -2877 2103 0
8199 2877 0
8199 -2103 0
-8200 598 -597 0
8200 -598 0
8200 597 0
-8201 -598 597 0
8201 598 0
8201 -597 0
-8202 2878 -2189 0
8202 -2878 0
8202 2189 0
-8203 -2878 2189 0
8203 2878 0
8203 -2189 0
-8204 600 -599 0
8204 -600 0
8204 599 0
-8205 -600 599 0
8205 600 0
8205 -599 0
-8206 2879 -2287 0
8206 -2879 0
8206 2287 0
-8207 -2879 2287 0
8207 2879 0
8207 -2287 0
-8208 602 -601 0
8208 -602 0
8208 601 0
-8209 -602 601 0
8209 602 0
8209 -601 0
-8210 604 -603 0
8210 -604 0
8210 603 0
-8211 -604 603 0
8211 604 0
8211 -603 0
-8212 2880 -2371 0
8212 -2880 0
8212 2371 0
-8213 -2880 2371 0
8213 2880 0
8213 -2371 0
-8214 2881 -1890 0
8214 -2881 0
8214 1890 0
-8215 -2881 1890 0
8215 2881 0
8215 -1890 0
-8216 2882 -2047 0
8216 -2882 0
8216 2047 0
-8217 -2882 2047 0
8217 2882 0
8217 -2047 0
-8218 2883 -2093 0
8218 -2883 0
8218 2093 0
-8219 -2883 2093 0
8219 2883 0
8219 -2093 0
-8220 608 -607 0
8220 -608 0
8220 607 0
-8221 -608 607 0
8221 608 0
8221 -607 0
-8222 2884 -2219 0
8222 -2884 0
8222 2219 0
-8223 -2884 2219 0
8223 2884 0
8223 -2219 0
-8224 610 -609 0
8224 -610 0
8224 609 0
-8225 -610 609 0
8225 610 0
8225 -609 0
-8226 612 -611 0
8226 -612 0
8226 611 0
-8227 -612 611 0
8227 612 0
8227 -611 0
-8228 2885 -2251 0
8228 -2885 0
8228 2251 0
-8229 -2885 2251 0
8229 2885 0
8229 -2251 0
-8230 2886 -2445 0
8230 -2886 0
8230 2445 0
-8231 -2886 2445 0
8231 2886 0
8231 -2445 0
-8232 614 -613 0
8232 -614 0
8232 613 0
-8233 -614 613 0
8233 614 0
8233 -613 0
-8234 2887 -2476 0
8234 -2887 0
8234 2476 0
-8235 -2887 2476 0
8235 2887 0
8235 -2476 0
-8236 616 -615 0
8236 -616 0
8236 615 0
-8237 -616 615 0
8237 616 0
8237 -615 0
-8238 2888 -2486 0
8238 -2888 0
8238 2486 0
-8239 -2888 2486 0
8239 2888 0
8239 -2486 0
-8240 618 -617 0
8240 -618 0
8240 617 0
-8241 -618 617 0
8241 618 0
8241 -617 0
-8242 620 -619 0
8242 -620 0
8242 619 0
-8243 -620 619 0
8243 620 0
8243 -619 0
-8244 2889 -2890 0
8244 -2889 0
8244 2890 0
-8245 -2889 2890 0
8245 2889 0
8245 -2890 0
-8246 2891 -1943 0
8246 -2891 0
8246 1943 0
-8247 -2891 1943 0
8247 2891 0
8247 -1943 0
-8248 2892 -1944 0
8248 -2892 0
8248 1944 0
-8249 -2892 1944 0
8249 2892 0
8249 -1944 0
-8250 624 -623 0
8250 -624 0
8250 623 0
-8251 -624 623 0
8251 624 0
8251 -623 0
-8252 2893 -2027 0
8252 -2893 0
8252 2027 0
-8253 -2893 2027 0
8253 2893 0
8253 -2027 0
-8254 626 -625 0
8254 -626 0
8254 625 0
-8255 -626 625 0
8255 626 0
8255 -625 0
-8256 2894 -2139 0
8256 -2894 0
8256 2139 0
-8257 -2894 2139 0
8257 2894 0
8257 -2139 0
-8258 2895 -2203 0
8258 -2895 0
8258 2203 0
-8259 -2895 2203 0
8259 2895 0
8259 -2203 0
-8260 628 -627 0
8260 -628 0
8260 627 0
-8261 -628 627 0
8261 628 0
8261 -627 0
-8262 630 -629 0
8262 -630 0
8262 629 0
-8263 -630 629 0
8263 630 0
8263 -629 0
-8264 2896 -2289 0
8264 -2896 0
8264 2289 0
-8265 -2896 2289 0
8265 2896 0
8265 -2289 0
-8266 2897 -1864 0
8266 -2897 0
8266 1864 0
-8267 -2897 1864 0
8267 2897 0
8267 -1864 0
-8268 2898 -1865 0
8268 -2898 0
8268 1865 0
-8269 -2898 1865 0
8269 2898 0
8269 -1865 0
-8270 634 -633 0
8270 -634 0
8270 633 0
-8271 -634 633 0
8271 634 0
8271 -633 0
-8272 2899 -2051 0
8272 -2899 0
8272 2051 0
-8273 -2899 2051 0
8273 2899 0
8273 -2051 0
-8274 2900 -2091 0
8274 -2900 0
8274 2091 0
-8275 -2900 2091 0
8275 2900 0
8275 -2091 0
-8276 636 -635 0
8276 -636 0
8276 635 0
-8277 -636 635 0
8277 636 0
8277 -635 0
-8278 2901 -2153 0
8278 -2901 0
8278 2153 0
-8279 -2901 2153 0
8279 2901 0
8279 -2153 0
-8280 638 -637 0
8280 -638 0
8280 637 0
-8281 -638 637 0
8281 638 0
8281 -637 0
-8282 640 -639 0
8282 -640 0
8282 639 0
-8283 -640 639 0
8283 640 0
8283 -639 0
-8284 2902 -2283 0
8284 -2902 0
8284 2283 0
-8285 -2902 2283 0
8285 2902 0
8285 -2283 0
-8286 2903 -2394 0
8286 -2903 0
8286 2394 0
-8287 -2903 2394 0
8287 2903 0
8287 -2394 0
-8288 642 -641 0
8288 -642 0
8288 641 0
-8289 -642 641 0
8289 642 0
8289 -641 0
-8290 2904 -1884 0
8290 -2904 0
8290 1884 0
-8291 -2904 1884 0
8291 2904 0
8291 -1884 0
-8292 2905 -1883 0
8292 -2905 0
8292 1883 0
-8293 -2905 1883 0
8293 2905 0
8293 -1883 0
-8294 2906 -2025 0
8294 -2906 0
8294 2025 0
-8295 -2906 2025 0
8295 2906 0
8295 -2025 0
-8296 646 -645 0
8296 -646 0
8296 645 0
-8297 -646 645 0
8297 646 0
8297 -645 0
-8298 2907 -2085 0
8298 -2907 0
8298 2085 0
-8299 -2907 2085 0
8299 2907 0
8299 -2085 0
-8300 648 -647 0
8300 -648 0
8300 647 0
-8301 -648 647 0
8301 648 0
8301 -647 0
-8302 2908 -2209 0
8302 -2908 0
8302 2209 0
-8303 -2908 2209 0
8303 2908 0
8303 -2209 0
-8304 650 -649 0
8304 -650 0
8304 649 0
-8305 -650 649 0
8305 650 0
8305 -649 0
-8306 652 -651 0
8306 -652 0
8306 651 0
-8307 -652 651 0
8307 652 0
8307 -651 0
-8308 2909 -2247 0
8308 -2909 0
8308 2247 0
-8309 -2909 2247 0
8309 2909 0
8309 -2247 0
-8310 2910 -1940 0
8310 -2910 0
8310 1940 0
-8311 -2910 1940 0
8311 2910 0
8311 -1940 0
-8312 2911 -1989 0
8312 -2911 0
8312 1989 0
-8313 -2911 1989 0
8313 2911 0
8313 -1989 0
-8314 2912 -2129 0
8314 -2912 0
8314 2129 0
-8315 -2912 2129 0
8315 2912 0
8315 -2129 0
-8316 656 -655 0
8316 -656 0
8316 655 0
-8317 -656 655 0
8317 656 0
8317 -655 0
-8318 2913 -2167 0
8318 -2913 0
8318 2167 0
-8319 -2913 2167 0
8319 2913 0
8319 -2167 0
-8320 658 -657 0
8320 -658 0
8320 657 0
-8321 -658 657 0
8321 658 0
8321 -657 0
-8322 660 -659 0
8322 -660 0
8322 659 0
-8323 -660 659 0
8323 660 0
8323 -659 0
-8324 2914 -2271 0
8324 -2914 0
8324 2271 0
-8325 -2914 2271 0
8325 2914 0
8325 -2271 0
-8326 662 -661 0
8326 -662 0
8326 661 0
-8327 -662 661 0
8327 662 0
8327 -661 0
-8328 2915 -2375 0
8328 -2915 0
8328 2375 0
-8329 -2915 2375 0
8329 2915 0
8329 -2375 0
-8330 2916 -2437 0
8330 -2916 0
8330 2437 0
-8331 -2916 2437 0
8331 2916 0
8331 -2437 0
-8332 664 -663 0
8332 -664 0
8332 663 0
-8333 -664 663 0
8333 664 0
8333 -663 0
-8334 666 -665 0
8334 -666 0
8334 665 0
-8335 -666 665 0
8335 666 0
8335 -665 0
-8336 2917 -2918 0
8336 -2917 0
8336 2918 0
-8337 -2917 2918 0
8337 2917 0
8337 -2918 0
-8338 2919 -1920 0
8338 -2919 0
8338 1920 0
-8339 -2919 1920 0
8339 2919 0
8339 -1920 0
-8340 2920 -1921 0
8340 -2920 0
8340 1921 0
-8341 -2920 1921 0
8341 2920 0
8341 -1921 0
-8342 2921 -2045 0
8342 -2921 0
8342 2045 0
-8343 -2921 2045 0
8343 2921 0
8343 -2045 0
-8344 670 -669 0
8344 -670 0
8344 669 0
-8345 -670 669 0
8345 670 0
8345 -669 0
-8346 672 -671 0
8346 -672 0
8346 671 0
-8347 -672 671 0
8347 672 0
8347 -671 0
-8348 2922 -2119 0
8348 -2922 0
8348 2119 0
-8349 -2922 2119 0
8349 2922 0
8349 -2119 0
-8350 2923 -2195 0
8350 -2923 0
8350 2195 0
-8351 -2923 2195 0
8351 2923 0
8351 -2195 0
-8352 674 -673 0
8352 -674 0
8352 673 0
-8353 -674 673 0
8353 674 0
8353 -673 0
-8354 676 -675 0
8354 -676 0
8354 675 0
-8355 -676 675 0
8355 676 0
8355 -675 0
-8356 2924 -2265 0
8356 -2924 0
8356 2265 0
-8357 -2924 2265 0
8357 2924 0
8357 -2265 0
-8358 2925 -1857 0
8358 -2925 0
8358 1857 0
-8359 -2925 1857 0
8359 2925 0
8359 -1857 0
-8360 2926 -1858 0
8360 -2926 0
8360 1858 0
-8361 -2926 1858 0
8361 2926 0
8361 -1858 0
-8362 2927 -1997 0
8362 -2927 0
8362 1997 0
-8363 -2927 1997 0
8363 2927 0
8363 -1997 0
-8364 680 -679 0
8364 -680 0
8364 679 0
-8365 -680 679 0
8365 680 0
8365 -679 0
-8366 2928 -2109 0
8366 -2928 0
8366 2109 0
-8367 -2928 2109 0
8367 2928 0
8367 -2109 0
-8368 682 -681 0
8368 -682 0
8368 681 0
-8369 -682 681 0
8369 682 0
8369 -681 0
-8370 2929 -2145 0
8370 -2929 0
8370 2145 0
-8371 -2929 2145 0
8371 2929 0
8371 -2145 0
-8372 684 -683 0
8372 -684 0
8372 683 0
-8373 -684 683 0
8373 684 0
8373 -683 0
-8374 2930 -2225 0
8374 -2930 0
8374 2225 0
-8375 -2930 2225 0
8375 2930 0
8375 -2225 0
-8376 686 -685 0
8376 -686 0
8376 685 0
-8377 -686 685 0
8377 686 0
8377 -685 0
-8378 2931 -1861 0
8378 -2931 0
8378 1861 0
-8379 -2931 1861 0
8379 2931 0
8379 -1861 0
-8380 2932 -2033 0
8380 -2932 0
8380 2033 0
-8381 -2932 2033 0
8381 2932 0
8381 -2033 0
-8382 2933 -2079 0
8382 -2933 0
8382 2079 0
-8383 -2933 2079 0
8383 2933 0
8383 -2079 0
-8384 690 -689 0
8384 -690 0
8384 689 0
-8385 -690 689 0
8385 690 0
8385 -689 0
-8386 2934 -2197 0
8386 -2934 0
8386 2197 0
-8387 -2934 2197 0
8387 2934 0
8387 -2197 0
-8388 692 -691 0
8388 -692 0
8388 691 0
-8389 -692 691 0
8389 692 0
8389 -691 0
-8390 694 -693 0
8390 -694 0
8390 693 0
-8391 -694 693 0
8391 694 0
8391 -693 0
-8392 2935 -2285 0
8392 -2935 0
8392 2285 0
-8393 -2935 2285 0
8393 2935 0
8393 -2285 0
-8394 696 -695 0
8394 -696 0
8394 695 0
-8395 -696 695 0
8395 696 0
8395 -695 0
-8396 2936 -2937 0
8396 -2936 0
8396 2937 0
-8397 -2936 2937 0
8397 2936 0
8397 -2937 0
-8398 2938 -1937 0
8398 -2938 0
8398 1937 0
-8399 -2938 1937 0
8399 2938 0
8399 -1937 0
-8400 2939 -1999 0
8400 -2939 0
8400 1999 0
-8401 -2939 1999 0
8401 2939 0
8401 -1999 0
-8402 700 -699 0
8402 -700 0
8402 699 0
-8403 -700 699 0
8403 700 0
8403 -699 0
-8404 2940 -2073 0
8404 -2940 0
8404 2073 0
-8405 -2940 2073 0
8405 2940 0
8405 -2073 0
-8406 2941 -2157 0
8406 -2941 0
8406 2157 0
-8407 -2941 2157 0
8407 2941 0
8407 -2157 0
-8408 702 -701 0
8408 -702 0
8408 701 0
-8409 -702 701 0
8409 702 0
8409 -701 0
-8410 704 -703 0
8410 -704 0
8410 703 0
-8411 -704 703 0
8411 704 0
8411 -703 0
-8412 2942 -2291 0
8412 -2942 0
8412 2291 0
-8413 -2942 2291 0
8413 2942 0
8413 -2291 0
-8414 2943 -2453 0
8414 -2943 0
8414 2453 0
-8415 -2943 2453 0
8415 2943 0
8415 -2453 0
-8416 706 -705 0
8416 -706 0
8416 705 0
-8417 -706 705 0
8417 706 0
8417 -705 0
-8418 708 -707 0
8418 -708 0
8418 707 0
-8419 -708 707 0
8419 708 0
8419 -707 0
-8420 2944 -2379 0
8420 -2944 0
8420 2379 0
-8421 -2944 2379 0
8421 2944 0
8421 -2379 0
-8422 2945 -2417 0
8422 -2945 0
8422 2417 0
-8423 -2945 2417 0
8423 2945 0
8423 -2417 0
-8424 710 -709 0
8424 -710 0
8424 709 0
-8425 -710 709 0
8425 710 0
8425 -709 0
-8426 2946 -1876 0
8426 -2946 0
8426 1876 0
-8427 -2946 1876 0
8427 2946 0
8427 -1876 0
-8428 2947 -1877 0
8428 -2947 0
8428 1877 0
-8429 -2947 1877 0
8429 2947 0
8429 -1877 0
-8430 714 -713 0
8430 -714 0
8430 713 0
-8431 -714 713 0
8431 714 0
8431 -713 0
-8432 2948 -2059 0
8432 -2948 0
8432 2059 0
-8433 -2948 2059 0
8433 2948 0
8433 -2059 0
-8434 2949 -2137 0
8434 -2949 0
8434 2137 0
-8435 -2949 2137 0
8435 2949 0
8435 -2137 0
-8436 716 -715 0
8436 -716 0
8436 715 0
-8437 -716 715 0
8437 716 0
8437 -715 0
-8438 2950 -2169 0
8438 -2950 0
8438 2169 0
-8439 -2950 2169 0
8439 2950 0
8439 -2169 0
-8440 718 -717 0
8440 -718 0
8440 717 0
-8441 -718 717 0
8441 718 0
8441 -717 0
-8442 2951 -2267 0
8442 -2951 0
8442 2267 0
-8443 -2951 2267 0
8443 2951 0
8443 -2267 0
-8444 720 -719 0
8444 -720 0
8444 719 0
-8445 -720 719 0
8445 720 0
8445 -719 0
-8446 2952 -1970 0
8446 -2952 0
8446 1970 0
-8447 -2952 1970 0
8447 2952 0
8447 -1970 0
-8448 2953 -1969 0
8448 -2953 0
8448 1969 0
-8449 -2953 1969 0
8449 2953 0
8449 -1969 0
-8450 2954 -2031 0
8450 -2954 0
8450 2031 0
-8451 -2954 2031 0
8451 2954 0
8451 -2031 0
-8452 724 -723 0
8452 -724 0
8452 723 0
-8453 -724 723 0
8453 724 0
8453 -723 0
-8454 2955 -2089 0
8454 -2955 0
8454 2089 0
-8455 -2955 2089 0
8455 2955 0
8455 -2089 0
-8456 726 -725 0
8456 -726 0
8456 725 0
-8457 -726 725 0
8457 726 0
8457 -725 0
-8458 2956 -2181 0
8458 -2956 0
8458 2181 0
-8459 -2956 2181 0
8459 2956 0
8459 -2181 0
-8460 728 -727 0
8460 -728 0
8460 727 0
-8461 -728 727 0
8461 728 0
8461 -727 0
-8462 2957 -2243 0
8462 -2957 0
8462 2243 0
-8463 -2957 2243 0
8463 2957 0
8463 -2243 0
-8464 730 -729 0
8464 -730 0
8464 729 0
-8465 -730 729 0
8465 730 0
8465 -729 0
-8466 2958 -2386 0
8466 -2958 0
8466 2386 0
-8467 -2958 2386 0
8467 2958 0
8467 -2386 0
-8468 732 -731 0
8468 -732 0
8468 731 0
-8469 -732 731 0
8469 732 0
8469 -731 0
-8470 2959 -2398 0
8470 -2959 0
8470 2398 0
-8471 -2959 2398 0
8471 2959 0
8471 -2398 0
-8472 734 -733 0
8472 -734 0
8472 733 0
-8473 -734 733 0
8473 734 0
8473 -733 0
-8474 736 -735 0
8474 -736 0
8474 735 0
-8475 -736 735 0
8475 736 0
8475 -735 0
-8476 2960 -2457 0
8476 -2960 0
8476 2457 0
-8477 -2960 2457 0
8477 2960 0
8477 -2457 0
-8478 2961 -1963 0
8478 -2961 0
8478 1963 0
-8479 -2961 1963 0
8479 2961 0
8479 -1963 0
-8480 2962 -2043 0
8480 -2962 0
8480 2043 0
-8481 -2962 2043 0
8481 2962 0
8481 -2043 0
-8482 740 -739 0
8482 -740 0
8482 739 0
-8483 -740 739 0
8483 740 0
8483 -739 0
-8484 2963 -2077 0
8484 -2963 0
8484 2077 0
-8485 -2963 2077 0
8485 2963 0
8485 -2077 0
-8486 2964 -2161 0
8486 -2964 0
8486 2161 0
-8487 -2964 2161 0
8487 2964 0
8487 -2161 0
-8488 742 -741 0
8488 -742 0
8488 741 0
-8489 -742 741 0
8489 742 0
8489 -741 0
-8490 744 -743 0
8490 -744 0
8490 743 0
-8491 -744 743 0
8491 744 0
8491 -743 0
-8492 2965 -2295 0
8492 -2965 0
8492 2295 0
-8493 -2965 2295 0
8493 2965 0
8493 -2295 0
-8494 2966 -2315 0
8494 -2966 0
8494 2315 0
-8495 -2966 2315 0
8495 2966 0
8495 -2315 0
-8496 746 -745 0
8496 -746 0
8496 745 0
-8497 -746 745 0
8497 746 0
8497 -745 0
-8498 748 -747 0
8498 -748 0
8498 747 0
-8499 -748 747 0
8499 748 0
8499 -747 0
-8500 2967 -2968 0
8500 -2967 0
8500 2968 0
-8501 -2967 2968 0
8501 2967 0
8501 -2968 0
-8502 2969 -2019 0
8502 -2969 0
8502 2019 0
-8503 -2969 2019 0
8503 2969 0
8503 -2019 0
-8504 2970 -1966 0
8504 -2970 0
8504 1966 0
-8505 -2970 1966 0
8505 2970 0
8505 -1966 0
-8506 2971 -2141 0
8506 -2971 0
8506 2141 0
-8507 -2971 2141 0
8507 2971 0
8507 -2141 0
-8508 752 -751 0
8508 -752 0
8508 751 0
-8509 -752 751 0
8509 752 0
8509 -751 0
-8510 754 -753 0
8510 -754 0
8510 753 0
-8511 -754 753 0
8511 754 0
8511 -753 0
-8512 2972 -2199 0
8512 -2972 0
8512 2199 0
-8513 -2972 2199 0
8513 2972 0
8513 -2199 0
-8514 2973 -2249 0
8514 -2973 0
8514 2249 0
-8515 -2973 2249 0
8515 2973 0
8515 -2249 0
-8516 756 -755 0
8516 -756 0
8516 755 0
-8517 -756 755 0
8517 756 0
8517 -755 0
-8518 2974 -2975 0
8518 -2974 0
8518 2975 0
-8519 -2974 2975 0
8519 2974 0
8519 -2975 0
-8520 758 -757 0
8520 -758 0
8520 757 0
-8521 -758 757 0
8521 758 0
8521 -757 0
-8522 2976 -1947 0
8522 -2976 0
8522 1947 0
-8523 -2976 1947 0
8523 2976 0
8523 -1947 0
-8524 2977 -1948 0
8524 -2977 0
8524 1948 0
-8525 -2977 1948 0
8525 2977 0
8525 -1948 0
-8526 2978 -2041 0
8526 -2978 0
8526 2041 0
-8527 -2978 2041 0
8527 2978 0
8527 -2041 0
-8528 762 -761 0
8528 -762 0
8528 761 0
-8529 -762 761 0
8529 762 0
8529 -761 0
-8530 2979 -2111 0
8530 -2979 0
8530 2111 0
-8531 -2979 2111 0
8531 2979 0
8531 -2111 0
-8532 764 -763 0
8532 -764 0
8532 763 0
-8533 -764 763 0
8533 764 0
8533 -763 0
-8534 2980 -2191 0
8534 -2980 0
8534 2191 0
-8535 -2980 2191 0
8535 2980 0
8535 -2191 0
-8536 766 -765 0
8536 -766 0
8536 765 0
-8537 -766 765 0
8537 766 0
8537 -765 0
-8538 2981 -2281 0
8538 -2981 0
8538 2281 0
-8539 -2981 2281 0
8539 2981 0
8539 -2281 0
-8540 768 -767 0
8540 -768 0
8540 767 0
-8541 -768 767 0
8541 768 0
8541 -767 0
-8542 770 -769 0
8542 -770 0
8542 769 0
-8543 -770 769 0
8543 770 0
8543 -769 0
-8544 2982 -2410 0
8544 -2982 0
8544 2410 0
-8545 -2982 2410 0
8545 2982 0
8545 -2410 0
-8546 772 -771 0
8546 -772 0
8546 771 0
-8547 -772 771 0
8547 772 0
8547 -771 0
-8548 2983 -2425 0
8548 -2983 0
8548 2425 0
-8549 -2983 2425 0
8549 2983 0
8549 -2425 0
-8550 2984 -1845 0
8550 -2984 0
8550 1845 0
-8551 -2984 1845 0
8551 2984 0
8551 -1845 0
-8552 2985 -1846 0
8552 -2985 0
8552 1846 0
-8553 -2985 1846 0
8553 2985 0
8553 -1846 0
-8554 776 -775 0
8554 -776 0
8554 775 0
-8555 -776 775 0
8555 776 0
8555 -775 0
-8556 2986 -2061 0
8556 -2986 0
8556 2061 0
-8557 -2986 2061 0
8557 2986 0
8557 -2061 0
-8558 2987 -2135 0
8558 -2987 0
8558 2135 0
-8559 -2987 2135 0
8559 2987 0
8559 -2135 0
-8560 778 -777 0
8560 -778 0
8560 777 0
-8561 -778 777 0
8561 778 0
8561 -777 0
-8562 2988 -2173 0
8562 -2988 0
8562 2173 0
-8563 -2988 2173 0
8563 2988 0
8563 -2173 0
-8564 780 -779 0
8564 -780 0
8564 779 0
-8565 -780 779 0
8565 780 0
8565 -779 0
-8566 2989 -2229 0
8566 -2989 0
8566 2229 0
-8567 -2989 2229 0
8567 2989 0
8567 -2229 0
-8568 782 -781 0
8568 -782 0
8568 781 0
-8569 -782 781 0
8569 782 0
8569 -781 0
-8570 784 -783 0
8570 -784 0
8570 783 0
-8571 -784 783 0
8571 784 0
8571 -783 0
-8572 2990 -2367 0
8572 -2990 0
8572 2367 0
-8573 -2990 2367 0
8573 2990 0
8573 -2367 0
-8574 786 -785 0
8574 -786 0
8574 785 0
-8575 -786 785 0
8575 786 0
8575 -785 0
-8576 2991 -2402 0
8576 -2991 0
8576 2402 0
-8577 -2991 2402 0
8577 2991 0
8577 -2402 0
-8578 2992 -1934 0
8578 -2992 0
8578 1934 0
-8579 -2992 1934 0
8579 2992 0
8579 -1934 0
-8580 2993 -1933 0
8580 -2993 0
8580 1933 0
-8581 -2993 1933 0
8581 2993 0
8581 -1933 0
-8582 790 -789 0
8582 -790 0
8582 789 0
-8583 -790 789 0
8583 790 0
8583 -789 0
-8584 2994 -2035 0
8584 -2994 0
8584 2035 0
-8585 -2994 2035 0
8585 2994 0
8585 -2035 0
-8586 2995 -2097 0
8586 -2995 0
8586 2097 0
-8587 -2995 2097 0
8587 2995 0
8587 -2097 0
-8588 792 -791 0
8588 -792 0
8588 791 0
-8589 -792 791 0
8589 792 0
8589 -791 0
-8590 794 -793 0
8590 -794 0
8590 793 0
-8591 -794 793 0
8591 794 0
8591 -793 0
-8592 2996 -2163 0
8592 -2996 0
8592 2163 0
-8593 -2996 2163 0
8593 2996 0
8593 -2163 0
-8594 796 -795 0
8594 -796 0
8594 795 0
-8595 -796 795 0
8595 796 0
8595 -795 0
-8596 2997 -2235 0
8596 -2997 0
8596 2235 0
-8597 -2997 2235 0
8597 2997 0
8597 -2235 0
-8598 2998 -2319 0
8598 -2998 0
8598 2319 0
-8599 -2998 2319 0
8599 2998 0
8599 -2319 0
-8600 798 -797 0
8600 -798 0
8600 797 0
-8601 -798 797 0
8601 798 0
8601 -797 0
-8602 2999 -1887 0
8602 -2999 0
8602 1887 0
-8603 -2999 1887 0
8603 2999 0
8603 -1887 0
-8604 3000 -2037 0
8604 -3000 0
8604 2037 0
-8605 -3000 2037 0
8605 3000 0
8605 -2037 0
-8606 3001 -2115 0
8606 -3001 0
8606 2115 0
-8607 -3001 2115 0
8607 3001 0
8607 -2115 0
-8608 802 -801 0
8608 -802 0
8608 801 0
-8609 -802 801 0
8609 802 0
8609 -801 0
-8610 3002 -2171 0
8610 -3002 0
8610 2171 0
-8611 -3002 2171 0
8611 3002 0
8611 -2171 0
-8612 804 -803 0
8612 -804 0
8612 803 0
-8613 -804 803 0
8613 804 0
8613 -803 0
-8614 3003 -2273 0
8614 -3003 0
8614 2273 0
-8615 -3003 2273 0
8615 3003 0
8615 -2273 0
-8616 806 -805 0
8616 -806 0
8616 805 0
-8617 -806 805 0
8617 806 0
8617 -805 0
-8618 808 -807 0
8618 -808 0
8618 807 0
-8619 -808 807 0
8619 808 0
8619 -807 0
-8620 3004 -3005 0
8620 -3004 0
8620 3005 0
-8621 -3004 3005 0
8621 3004 0
8621 -3005 0
-8622 3006 -2305 0
8622 -3006 0
8622 2305 0
-8623 -3006 2305 0
8623 3006 0
8623 -2305 0
-8624 810 -809 0
8624 -810 0
8624 809 0
-8625 -810 809 0
8625 810 0
8625 -809 0
-8626 3007 -1901 0
8626 -3007 0
8626 1901 0
-8627 -3007 1901 0
8627 3007 0
8627 -1901 0
-8628 3008 -1900 0
8628 -3008 0
8628 1900 0
-8629 -3008 1900 0
8629 3008 0
8629 -1900 0
-8630 3009 -2015 0
8630 -3009 0
8630 2015 0
-8631 -3009 2015 0
8631 3009 0
8631 -2015 0
-8632 814 -813 0
8632 -814 0
8632 813 0
-8633 -814 813 0
8633 814 0
8633 -813 0
-8634 816 -815 0
8634 -816 0
8634 815 0
-8635 -816 815 0
8635 816 0
8635 -815 0
-8636 3010 -2069 0
8636 -3010 0
8636 2069 0
-8637 -3010 2069 0
8637 3010 0
8637 -2069 0
-8638 3011 -2201 0
8638 -3011 0
8638 2201 0
-8639 -3011 2201 0
8639 3011 0
8639 -2201 0
-8640 818 -817 0
8640 -818 0
8640 817 0
-8641 -818 817 0
8641 818 0
8641 -817 0
-8642 820 -819 0
8642 -820 0
8642 819 0
-8643 -820 819 0
8643 820 0
8643 -819 0
-8644 3012 -2257 0
8644 -3012 0
8644 2257 0
-8645 -3012 2257 0
8645 3012 0
8645 -2257 0
-8646 3013 -2465 0
8646 -3013 0
8646 2465 0
-8647 -3013 2465 0
8647 3013 0
8647 -2465 0
-8648 822 -821 0
8648 -822 0
8648 821 0
-8649 -822 821 0
8649 822 0
8649 -821 0
-8650 3014 -1917 0
8650 -3014 0
8650 1917 0
-8651 -3014 1917 0
8651 3014 0
8651 -1917 0
-8652 3015 -1916 0
8652 -3015 0
8652 1916 0
-8653 -3015 1916 0
8653 3015 0
8653 -1916 0
-8654 826 -825 0
8654 -826 0
8654 825 0
-8655 -826 825 0
8655 826 0
8655 -825 0
-8656 3016 -2029 0
8656 -3016 0
8656 2029 0
-8657 -3016 2029 0
8657 3016 0
8657 -2029 0
-8658 828 -827 0
8658 -828 0
8658 827 0
-8659 -828 827 0
8659 828 0
8659 -827 0
-8660 3017 -2071 0
8660 -3017 0
8660 2071 0
-8661 -3017 2071 0
8661 3017 0
8661 -2071 0
-8662 830 -829 0
8662 -830 0
8662 829 0
-8663 -830 829 0
8663 830 0
8663 -829 0
-8664 3018 -2213 0
8664 -3018 0
8664 2213 0
-8665 -3018 2213 0
8665 3018 0
8665 -2213 0
-8666 3019 -2245 0
8666 -3019 0
8666 2245 0
-8667 -3019 2245 0
8667 3019 0
8667 -2245 0
-8668 832 -831 0
8668 -832 0
8668 831 0
-8669 -832 831 0
8669 832 0
8669 -831 0
-8670 3020 -2339 0
8670 -3020 0
8670 2339 0
-8671 -3020 2339 0
8671 3020 0
8671 -2339 0
-8672 834 -833 0
8672 -834 0
8672 833 0
-8673 -834 833 0
8673 834 0
8673 -833 0
-8674 3021 -1854 0
8674 -3021 0
8674 1854 0
-8675 -3021 1854 0
8675 3021 0
8675 -1854 0
-8676 3022 -1853 0
8676 -3022 0
8676 1853 0
-8677 -3022 1853 0
8677 3022 0
8677 -1853 0
-8678 3023 -2009 0
8678 -3023 0
8678 2009 0
-8679 -3023 2009 0
8679 3023 0
8679 -2009 0
-8680 838 -837 0
8680 -838 0
8680 837 0
-8681 -838 837 0
8681 838 0
8681 -837 0
-8682 3024 -2133 0
8682 -3024 0
8682 2133 0
-8683 -3024 2133 0
8683 3024 0
8683 -2133 0
-8684 840 -839 0
8684 -840 0
8684 839 0
-8685 -840 839 0
8685 840 0
8685 -839 0
-8686 3025 -2215 0
8686 -3025 0
8686 2215 0
-8687 -3025 2215 0
8687 3025 0
8687 -2215 0
-8688 842 -841 0
8688 -842 0
8688 841 0
-8689 -842 841 0
8689 842 0
8689 -841 0
-8690 3026 -2227 0
8690 -3026 0
8690 2227 0
-8691 -3026 2227 0
8691 3026 0
8691 -2227 0
-8692 844 -843 0
8692 -844 0
8692 843 0
-8693 -844 843 0
8693 844 0
8693 -843 0
-8694 3027 -1897 0
8694 -3027 0
8694 1897 0
-8695 -3027 1897 0
8695 3027 0
8695 -1897 0
-8696 3028 -2011 0
8696 -3028 0
8696 2011 0
-8697 -3028 2011 0
8697 3028 0
8697 -2011 0
-8698 3029 -2083 0
8698 -3029 0
8698 2083 0
-8699 -3029 2083 0
8699 3029 0
8699 -2083 0
-8700 848 -847 0
8700 -848 0
8700 847 0
-8701 -848 847 0
8701 848 0
8701 -847 0
-8702 3030 -2147 0
8702 -3030 0
8702 2147 0
-8703 -3030 2147 0
8703 3030 0
8703 -2147 0
-8704 850 -849 0
8704 -850 0
8704 849 0
-8705 -850 849 0
8705 850 0
8705 -849 0
-8706 3031 -2263 0
8706 -3031 0
8706 2263 0
-8707 -3031 2263 0
8707 3031 0
8707 -2263 0
-8708 852 -851 0
8708 -852 0
8708 851 0
-8709 -852 851 0
8709 852 0
8709 -851 0
-8710 854 -853 0
8710 -854 0
8710 853 0
-8711 -854 853 0
8711 854 0
8711 -853 0
-8712 3032 -3033 0
8712 -3032 0
8712 3033 0
-8713 -3032 3033 0
8713 3032 0
8713 -3033 0
-8714 3034 -1951 0
8714 -3034 0
8714 1951 0
-8715 -3034 1951 0
8715 3034 0
8715 -1951 0
-8716 3035 -1952 0
8716 -3035 0
8716 1952 0
-8717 -3035 1952 0
8717 3035 0
8717 -1952 0
-8718 858 -857 0
8718 -858 0
8718 857 0
-8719 -858 857 0
8719 858 0
8719 -857 0
-8720 3036 -2055 0
8720 -3036 0
8720 2055 0
-8721 -3036 2055 0
8721 3036 0
8721 -2055 0
-8722 3037 -2125 0
8722 -3037 0
8722 2125 0
-8723 -3037 2125 0
8723 3037 0
8723 -2125 0
-8724 860 -859 0
8724 -860 0
8724 859 0
-8725 -860 859 0
8725 860 0
8725 -859 0
-8726 3038 -2159 0
8726 -3038 0
8726 2159 0
-8727 -3038 2159 0
8727 3038 0
8727 -2159 0
-8728 862 -861 0
8728 -862 0
8728 861 0
-8729 -862 861 0
8729 862 0
8729 -861 0
-8730 3039 -2259 0
8730 -3039 0
8730 2259 0
-8731 -3039 2259 0
8731 3039 0
8731 -2259 0
-8732 864 -863 0
8732 -864 0
8732 863 0
-8733 -864 863 0
8733 864 0
8733 -863 0
-8734 866 -865 0
8734 -866 0
8734 865 0
-8735 -866 865 0
8735 866 0
8735 -865 0
-8736 3040 -2327 0
8736 -3040 0
8736 2327 0
-8737 -3040 2327 0
8737 3040 0
8737 -2327 0
-8738 868 -867 0
8738 -868 0
8738 867 0
-8739 -868 867 0
8739 868 0
8739 -867 0
-8740 3041 -2335 0
8740 -3041 0
8740 2335 0
-8741 -3041 2335 0
8741 3041 0
8741 -2335 0
-8742 3042 -1850 0
8742 -3042 0
8742 1850 0
-8743 -3042 1850 0
8743 3042 0
8743 -1850 0
-8744 3043 -1849 0
8744 -3043 0
8744 1849 0
-8745 -3043 1849 0
8745 3043 0
8745 -1849 0
-8746 3044 -2053 0
8746 -3044 0
8746 2053 0
-8747 -3044 2053 0
8747 3044 0
8747 -2053 0
-8748 872 -871 0
8748 -872 0
8748 871 0
-8749 -872 871 0
8749 872 0
8749 -871 0
-8750 3045 -2117 0
8750 -3045 0
8750 2117 0
-8751 -3045 2117 0
8751 3045 0
8751 -2117 0
-8752 874 -873 0
8752 -874 0
8752 873 0
-8753 -874 873 0
8753 874 0
8753 -873 0
-8754 876 -875 0
8754 -876 0
8754 875 0
-8755 -876 875 0
8755 876 0
8755 -875 0
-8756 3046 -2187 0
8756 -3046 0
8756 2187 0
-8757 -3046 2187 0
8757 3046 0
8757 -2187 0
-8758 878 -877 0
8758 -878 0
8758 877 0
-8759 -878 877 0
8759 878 0
8759 -877 0
-8760 3047 -2237 0
8760 -3047 0
8760 2237 0
-8761 -3047 2237 0
8761 3047 0
8761 -2237 0
-8762 3048 -1927 0
8762 -3048 0
8762 1927 0
-8763 -3048 1927 0
8763 3048 0
8763 -1927 0
-8764 3049 -2005 0
8764 -3049 0
8764 2005 0
-8765 -3049 2005 0
8765 3049 0
8765 -2005 0
-8766 3050 -2121 0
8766 -3050 0
8766 2121 0
-8767 -3050 2121 0
8767 3050 0
8767 -2121 0
-8768 882 -881 0
8768 -882 0
8768 881 0
-8769 -882 881 0
8769 882 0
8769 -881 0
-8770 3051 -2217 0
8770 -3051 0
8770 2217 0
-8771 -3051 2217 0
8771 3051 0
8771 -2217 0
-8772 884 -883 0
8772 -884 0
8772 883 0
-8773 -884 883 0
8773 884 0
8773 -883 0
-8774 3052 -2253 0
8774 -3052 0
8774 2253 0
-8775 -3052 2253 0
8775 3052 0
8775 -2253 0
-8776 886 -885 0
8776 -886 0
8776 885 0
-8777 -886 885 0
8777 886 0
8777 -885 0
-8778 3053 -2355 0
8778 -3053 0
8778 2355 0
-8779 -3053 2355 0
8779 3053 0
8779 -2355 0
-8780 888 -887 0
8780 -888 0
8780 887 0
-8781 -888 887 0
8781 888 0
8781 -887 0
-8782 3054 -2433 0
8782 -3054 0
8782 2433 0
-8783 -3054 2433 0
8783 3054 0
8783 -2433 0
-8784 890 -889 0
8784 -890 0
8784 889 0
-8785 -890 889 0
8785 890 0
8785 -889 0
-8786 3055 -1842 0
8786 -3055 0
8786 1842 0
-8787 -3055 1842 0
8787 3055 0
8787 -1842 0
-8788 3056 -2013 0
8788 -3056 0
8788 2013 0
-8789 -3056 2013 0
8789 3056 0
8789 -2013 0
-8790 3057 -2087 0
8790 -3057 0
8790 2087 0
-8791 -3057 2087 0
8791 3057 0
8791 -2087 0
-8792 894 -893 0
8792 -894 0
8792 893 0
-8793 -894 893 0
8793 894 0
8793 -893 0
-8794 3058 -2177 0
8794 -3058 0
8794 2177 0
-8795 -3058 2177 0
8795 3058 0
8795 -2177 0
-8796 896 -895 0
8796 -896 0
8796 895 0
-8797 -896 895 0
8797 896 0
8797 -895 0
-8798 898 -897 0
8798 -898 0
8798 897 0
-8799 -898 897 0
8799 898 0
8799 -897 0
-8800 3059 -2241 0
8800 -3059 0
8800 2241 0
-8801 -3059 2241 0
8801 3059 0
8801 -2241 0
-8802 900 -899 0
8802 -900 0
8802 899 0
-8803 -900 899 0
8803 900 0
8803 -899 0
-8804 3060 -3061 0
8804 -3060 0
8804 3061 0
-8805 -3060 3061 0
8805 3060 0
8805 -3061 0
-8806 3062 -1880 0
8806 -3062 0
8806 1880 0
-8807 -3062 1880 0
8807 3062 0
8807 -1880 0
-8808 3063 -1995 0
8808 -3063 0
8808 1995 0
-8809 -3063 1995 0
8809 3063 0
8809 -1995 0
-8810 904 -903 0
8810 -904 0
8810 903 0
-8811 -904 903 0
8811 904 0
8811 -903 0
-8812 3064 -2131 0
8812 -3064 0
8812 2131 0
-8813 -3064 2131 0
8813 3064 0
8813 -2131 0
-8814 906 -905 0
8814 -906 0
8814 905 0
-8815 -906 905 0
8815 906 0
8815 -905 0
-8816 3065 -2211 0
8816 -3065 0
8816 2211 0
-8817 -3065 2211 0
8817 3065 0
8817 -2211 0
-8818 908 -907 0
8818 -908 0
8818 907 0
-8819 -908 907 0
8819 908 0
8819 -907 0
-8820 3066 -2299 0
8820 -3066 0
8820 2299 0
-8821 -3066 2299 0
8821 3066 0
8821 -2299 0
-8822 3067 -2480 0
8822 -3067 0
8822 2480 0
-8823 -3067 2480 0
8823 3067 0
8823 -2480 0
-8824 910 -909 0
8824 -910 0
8824 909 0
-8825 -910 909 0
8825 910 0
8825 -909 0
-8826 912 -911 0
8826 -912 0
8826 911 0
-8827 -912 911 0
8827 912 0
8827 -911 0
-8828 3068 -2449 0
8828 -3068 0
8828 2449 0
-8829 -3068 2449 0
8829 3068 0
8829 -2449 0
-8830 3069 -3070 0
8830 -3069 0
8830 3070 0
-8831 -3069 3070 0
8831 3069 0
8831 -3070 0
-8832 914 -913 0
8832 -914 0
8832 913 0
-8833 -914 913 0
8833 914 0
8833 -913 0
-8834 3071 -1956 0
8834 -3071 0
8834 1956 0
-8835 -3071 1956 0
8835 3071 0
8835 -1956 0
-8836 3072 -1955 0
8836 -3072 0
8836 1955 0
-8837 -3072 1955 0
8837 3072 0
8837 -1955 0
-8838 918 -917 0
8838 -918 0
8838 917 0
-8839 -918 917 0
8839 918 0
8839 -917 0
-8840 3073 -2049 0
8840 -3073 0
8840 2049 0
-8841 -3073 2049 0
8841 3073 0
8841 -2049 0
-8842 3074 -2127 0
8842 -3074 0
8842 2127 0
-8843 -3074 2127 0
8843 3074 0
8843 -2127 0
-8844 920 -919 0
8844 -920 0
8844 919 0
-8845 -920 919 0
8845 920 0
8845 -919 0
-8846 3075 -2207 0
8846 -3075 0
8846 2207 0
-8847 -3075 2207 0
8847 3075 0
8847 -2207 0
-8848 922 -921 0
8848 -922 0
8848 921 0
-8849 -922 921 0
8849 922 0
8849 -921 0
-8850 3076 -2269 0
8850 -3076 0
8850 2269 0
-8851 -3076 2269 0
8851 3076 0
8851 -2269 0
-8852 924 -923 0
8852 -924 0
8852 923 0
-8853 -924 923 0
8853 924 0
8853 -923 0
-8854 926 -925 0
8854 -926 0
8854 925 0
-8855 -926 925 0
8855 926 0
8855 -925 0
-8856 3077 -2323 0
8856 -3077 0
8856 2323 0
-8857 -3077 2323 0
8857 3077 0
8857 -2323 0
-8858 3078 -1894 0
8858 -3078 0
8858 1894 0
-8859 -3078 1894 0
8859 3078 0
8859 -1894 0
-8860 3079 -1893 0
8860 -3079 0
8860 1893 0
-8861 -3079 1893 0
8861 3079 0
8861 -1893 0
-8862 3080 -2039 0
8862 -3080 0
8862 2039 0
-8863 -3080 2039 0
8863 3080 0
8863 -2039 0
-8864 930 -929 0
8864 -930 0
8864 929 0
-8865 -930 929 0
8865 930 0
8865 -929 0
-8866 3081 -2065 0
8866 -3081 0
8866 2065 0
-8867 -3081 2065 0
8867 3081 0
8867 -2065 0
-8868 932 -931 0
8868 -932 0
8868 931 0
-8869 -932 931 0
8869 932 0
8869 -931 0
-8870 3082 -2165 0
8870 -3082 0
8870 2165 0
-8871 -3082 2165 0
8871 3082 0
8871 -2165 0
-8872 934 -933 0
8872 -934 0
8872 933 0
-8873 -934 933 0
8873 934 0
8873 -933 0
-8874 3083 -2231 0
8874 -3083 0
8874 2231 0
-8875 -3083 2231 0
8875 3083 0
8875 -2231 0
-8876 936 -935 0
8876 -936 0
8876 935 0
-8877 -936 935 0
8877 936 0
8877 -935 0
-8878 938 -937 0
8878 -938 0
8878 937 0
-8879 -938 937 0
8879 938 0
8879 -937 0
-8880 3084 -2441 0
8880 -3084 0
8880 2441 0
-8881 -3084 2441 0
8881 3084 0
8881 -2441 0
-8882 3085 -2331 0
8882 -3085 0
8882 2331 0
-8883 -3085 2331 0
8883 3085 0
8883 -2331 0
-8884 940 -939 0
8884 -940 0
8884 939 0
-8885 -940 939 0
8885 940 0
8885 -939 0
-8886 3086 -1910 0
8886 -3086 0
8886 1910 0
-8887 -3086 1910 0
8887 3086 0
8887 -1910 0
-8888 3087 -2021 0
8888 -3087 0
8888 2021 0
-8889 -3087 2021 0
8889 3087 0
8889 -2021 0
-8890 944 -943 0
8890 -944 0
8890 943 0
-8891 -944 943 0
8891 944 0
8891 -943 0
-8892 3088 -2081 0
8892 -3088 0
8892 2081 0
-8893 -3088 2081 0
8893 3088 0
8893 -2081 0
-8894 3089 -2193 0
8894 -3089 0
8894 2193 0
-8895 -3089 2193 0
8895 3089 0
8895 -2193 0
-8896 946 -945 0
8896 -946 0
8896 945 0
-8897 -946 945 0
8897 946 0
8897 -945 0
-8898 948 -947 0
8898 -948 0
8898 947 0
-8899 -948 947 0
8899 948 0
8899 -947 0
-8900 3090 -2261 0
8900 -3090 0
8900 2261 0
-8901 -3090 2261 0
8901 3090 0
8901 -2261 0
-8902 3091 -2421 0
8902 -3091 0
8902 2421 0
-8903 -3091 2421 0
8903 3091 0
8903 -2421 0
-8904 950 -949 0
8904 -950 0
8904 949 0
-8905 -950 949 0
8905 950 0
8905 -949 0
-8906 952 -951 0
8906 -952 0
8906 951 0
-8907 -952 951 0
8907 952 0
8907 -951 0
-8908 3092 -3093 0
8908 -3092 0
8908 3093 0
-8909 -3092 3093 0
8909 3092 0
8909 -3093 0
-8910 954 -953 0
8910 -954 0
8910 953 0
-8911 -954 953 0
8911 954 0
8911 -953 0
-8912 3094 -2309 0
8912 -3094 0
8912 2309 0
-8913 -3094 2309 0
8913 3094 0
8913 -2309 0
-8914 3095 -1930 0
8914 -3095 0
8914 1930 0
-8915 -3095 1930 0
8915 3095 0
8915 -1930 0
-8916 3096 -1987 0
8916 -3096 0
8916 1987 0
-8917 -3096 1987 0
8917 3096 0
8917 -1987 0
-8918 958 -957 0
8918 -958 0
8918 957 0
-8919 -958 957 0
8919 958 0
8919 -957 0
-8920 3097 -2123 0
8920 -3097 0
8920 2123 0
-8921 -3097 2123 0
8921 3097 0
8921 -2123 0
-8922 3098 -2155 0
8922 -3098 0
8922 2155 0
-8923 -3098 2155 0
8923 3098 0
8923 -2155 0
-8924 960 -959 0
8924 -960 0
8924 959 0
-8925 -960 959 0
8925 960 0
8925 -959 0
-8926 3099 -2239 0
8926 -3099 0
8926 2239 0
-8927 -3099 2239 0
8927 3099 0
8927 -2239 0
-8928 962 -961 0
8928 -962 0
8928 961 0
-8929 -962 961 0
8929 962 0
8929 -961 0
-8930 964 -963 0
8930 -964 0
8930 963 0
-8931 -964 963 0
8931 964 0
8931 -963 0
-8932 3100 -3101 0
8932 -3100 0
8932 3101 0
-8933 -3100 3101 0
8933 3100 0
8933 -3101 0
-8934 1746 -1745 0
8934 -1746 0
8934 1745 0
-8935 -1746 1745 0
8935 1746 0
8935 -1745 0
-8936 1656 -1655 0
8936 -1656 0
8936 1655 0
-8937 -1656 1655 0
8937 1656 0
8937 -1655 0
-8938 1658 -1657 0
8938 -1658 0
8938 1657 0
-8939 -1658 1657 0
8939 1658 0
8939 -1657 0
-8940 1806 -1805 0
8940 -1806 0
8940 1805 0
-8941 -1806 1805 0
8941 1806 0
8941 -1805 0
-8942 1660 -1659 0
8942 -1660 0
8942 1659 0
-8943 -1660 1659 0
8943 1660 0
8943 -1659 0
-8944 1662 -1661 0
8944 -1662 0
8944 1661 0
-8945 -1662 1661 0
8945 1662 0
8945 -1661 0
-8946 1838 -1837 0
8946 -1838 0
8946 1837 0
-8947 -1838 1837 0
8947 1838 0
8947 -1837 0
-8948 1664 -1663 0
8948 -1664 0
8948 1663 0
-8949 -1664 1663 0
8949 1664 0
8949 -1663 0
-8950 1748 -1747 0
8950 -1748 0
8950 1747 0
-8951 -1748 1747 0
8951 1748 0
8951 -1747 0
-8952 1750 -1749 0
8952 -1750 0
8952 1749 0
-8953 -1750 1749 0
8953 1750 0
8953 -1749 0
-8954 1666 -1665 0
8954 -1666 0
8954 1665 0
-8955 -1666 1665 0
8955 1666 0
8955 -1665 0
-8956 1752 -1751 0
8956 -1752 0
8956 1751 0
-8957 -1752 1751 0
8957 1752 0
8957 -1751 0
-8958 1398 -1397 0
8958 -1398 0
8958 1397 0
-8959 -1398 1397 0
8959 1398 0
8959 -1397 0
-8960 1400 -1399 0
8960 -1400 0
8960 1399 0
-8961 -1400 1399 0
8961 1400 0
8961 -1399 0
-8962 1402 -1401 0
8962 -1402 0
8962 1401 0
-8963 -1402 1401 0
8963 1402 0
8963 -1401 0
-8964 1404 -1403 0
8964 -1404 0
8964 1403 0
-8965 -1404 1403 0
8965 1404 0
8965 -1403 0
-8966 1668 -1667 0
8966 -1668 0
8966 1667 0
-8967 -1668 1667 0
8967 1668 0
8967 -1667 0
-8968 1754 -1753 0
8968 -1754 0
8968 1753 0
-8969 -1754 1753 0
8969 1754 0
8969 -1753 0
-8970 1672 -1671 0
8970 -1672 0
8970 1671 0
-8971 -1672 1671 0
8971 1672 0
8971 -1671 0
-8972 1832 -1831 0
8972 -1832 0
8972 1831 0
-8973 -1832 1831 0
8973 1832 0
8973 -1831 0
-8974 1808 -1807 0
8974 -1808 0
8974 1807 0
-8975 -1808 1807 0
8975 1808 0
8975 -1807 0
-8976 1406 -1405 0
8976 -1406 0
8976 1405 0
-8977 -1406 1405 0
8977 1406 0
8977 -1405 0
-8978 1408 -1407 0
8978 -1408 0
8978 1407 0
-8979 -1408 1407 0
8979 1408 0
8979 -1407 0
-8980 1410 -1409 0
8980 -1410 0
8980 1409 0
-8981 -1410 1409 0
8981 1410 0
8981 -1409 0
-8982 1412 -1411 0
8982 -1412 0
8982 1411 0
-8983 -1412 1411 0
8983 1412 0
8983 -1411 0
-8984 1674 -1673 0
8984 -1674 0
8984 1673 0
-8985 -1674 1673 0
8985 1674 0
8985 -1673 0
-8986 1414 -1413 0
8986 -1414 0
8986 1413 0
-8987 -1414 1413 0
8987 1414 0
8987 -1413 0
-8988 1676 -1675 0
8988 -1676 0
8988 1675 0
-8989 -1676 1675 0
8989 1676 0
8989 -1675 0
-8990 1814 -1813 0
8990 -1814 0
8990 1813 0
-8991 -1814 1813 0
8991 1814 0
8991 -1813 0
-8992 1418 -1417 0
8992 -1418 0
8992 1417 0
-8993 -1418 1417 0
8993 1418 0
8993 -1417 0
-8994 1420 -1419 0
8994 -1420 0
8994 1419 0
-8995 -1420 1419 0
8995 1420 0
8995 -1419 0
-8996 1422 -1421 0
8996 -1422 0
8996 1421 0
-8997 -1422 1421 0
8997 1422 0
8997 -1421 0
-8998 1424 -1423 0
8998 -1424 0
8998 1423 0
-8999 -1424 1423 0
8999 1424 0
8999 -1423 0
-9000 1426 -1425 0
9000 -1426 0
9000 1425 0
-9001 -1426 1425 0
9001 1426 0
9001 -1425 0
-9002 1428 -1427 0
9002 -1428 0
9002 1427 0
-9003 -1428 1427 0
9003 1428 0
9003 -1427 0
-9004 1432 -1431 0
9004 -1432 0
9004 1431 0
-9005 -1432 1431 0
9005 1432 0
9005 -1431 0
-9006 1756 -1755 0
9006 -1756 0
9006 1755 0
-9007 -1756 1755 0
9007 1756 0
9007 -1755 0
-9008 968 -967 0
9008 -968 0
9008 967 0
-9009 -968 967 0
9009 968 0
9009 -967 0
-9010 1758 -1757 0
9010 -1758 0
9010 1757 0
-9011 -1758 1757 0
9011 1758 0
9011 -1757 0
-9012 1436 -1435 0
9012 -1436 0
9012 1435 0
-9013 -1436 1435 0
9013 1436 0
9013 -1435 0
-9014 1678 -1677 0
9014 -1678 0
9014 1677 0
-9015 -1678 1677 0
9015 1678 0
9015 -1677 0
-9016 1818 -1817 0
9016 -1818 0
9016 1817 0
-9017 -1818 1817 0
9017 1818 0
9017 -1817 0
-9018 1438 -1437 0
9018 -1438 0
9018 1437 0
-9019 -1438 1437 0
9019 1438 0
9019 -1437 0
-9020 1440 -1439 0
9020 -1440 0
9020 1439 0
-9021 -1440 1439 0
9021 1440 0
9021 -1439 0
-9022 982 -981 0
9022 -982 0
9022 981 0
-9023 -982 981 0
9023 982 0
9023 -981 0
-9024 1442 -1441 0
9024 -1442 0
9024 1441 0
-9025 -1442 1441 0
9025 1442 0
9025 -1441 0
-9026 1686 -1685 0
9026 -1686 0
9026 1685 0
-9027 -1686 1685 0
9027 1686 0
9027 -1685 0
-9028 1784 -1783 0
9028 -1784 0
9028 1783 0
-9029 -1784 1783 0
9029 1784 0
9029 -1783 0
-9030 1688 -1687 0
9030 -1688 0
9030 1687 0
-9031 -1688 1687 0
9031 1688 0
9031 -1687 0
-9032 1690 -1689 0
9032 -1690 0
9032 1689 0
-9033 -1690 1689 0
9033 1690 0
9033 -1689 0
-9034 1444 -1443 0
9034 -1444 0
9034 1443 0
-9035 -1444 1443 0
9035 1444 0
9035 -1443 0
-9036 1446 -1445 0
9036 -1446 0
9036 1445 0
-9037 -1446 1445 0
9037 1446 0
9037 -1445 0
-9038 1448 -1447 0
9038 -1448 0
9038 1447 0
-9039 -1448 1447 0
9039 1448 0
9039 -1447 0
-9040 1450 -1449 0
9040 -1450 0
9040 1449 0
-9041 -1450 1449 0
9041 1450 0
9041 -1449 0
-9042 1002 -1001 0
9042 -1002 0
9042 1001 0
-9043 -1002 1001 0
9043 1002 0
9043 -1001 0
-9044 1738 -1737 0
9044 -1738 0
9044 1737 0
-9045 -1738 1737 0
9045 1738 0
9045 -1737 0
-9046 1456 -1455 0
9046 -1456 0
9046 1455 0
-9047 -1456 1455 0
9047 1456 0
9047 -1455 0
-9048 1822 -1821 0
9048 -1822 0
9048 1821 0
-9049 -1822 1821 0
9049 1822 0
9049 -1821 0
-9050 1786 -1785 0
9050 -1786 0
9050 1785 0
-9051 -1786 1785 0
9051 1786 0
9051 -1785 0
-9052 1458 -1457 0
9052 -1458 0
9052 1457 0
-9053 -1458 1457 0
9053 1458 0
9053 -1457 0
-9054 1460 -1459 0
9054 -1460 0
9054 1459 0
-9055 -1460 1459 0
9055 1460 0
9055 -1459 0
-9056 1462 -1461 0
9056 -1462 0
9056 1461 0
-9057 -1462 1461 0
9057 1462 0
9057 -1461 0
-9058 1466 -1465 0
9058 -1466 0
9058 1465 0
-9059 -1466 1465 0
9059 1466 0
9059 -1465 0
-9060 1652 -1651 0
9060 -1652 0
9060 1651 0
-9061 -1652 1651 0
9061 1652 0
9061 -1651 0
-9062 1654 -1653 0
9062 -1654 0
9062 1653 0
-9063 -1654 1653 0
9063 1654 0
9063 -1653 0
-9064 1470 -1469 0
9064 -1470 0
9064 1469 0
-9065 -1470 1469 0
9065 1470 0
9065 -1469 0
-9066 1472 -1471 0
9066 -1472 0
9066 1471 0
-9067 -1472 1471 0
9067 1472 0
9067 -1471 0
-9068 1826 -1825 0
9068 -1826 0
9068 1825 0
-9069 -1826 1825 0
9069 1826 0
9069 -1825 0
-9070 1476 -1475 0
9070 -1476 0
9070 1475 0
-9071 -1476 1475 0
9071 1476 0
9071 -1475 0
-9072 1478 -1477 0
9072 -1478 0
9072 1477 0
-9073 -1478 1477 0
9073 1478 0
9073 -1477 0
-9074 1480 -1479 0
9074 -1480 0
9074 1479 0
-9075 -1480 1479 0
9075 1480 0
9075 -1479 0
-9076 1482 -1481 0
9076 -1482 0
9076 1481 0
-9077 -1482 1481 0
9077 1482 0
9077 -1481 0
-9078 1484 -1483 0
9078 -1484 0
9078 1483 0
-9079 -1484 1483 0
9079 1484 0
9079 -1483 0
-9080 1486 -1485 0
9080 -1486 0
9080 1485 0
-9081 -1486 1485 0
9081 1486 0
9081 -1485 0
-9082 1828 -1827 0
9082 -1828 0
9082 1827 0
-9083 -1828 1827 0
9083 1828 0
9083 -1827 0
-9084 1490 -1489 0
9084 -1490 0
9084 1489 0
-9085 -1490 1489 0
9085 1490 0
9085 -1489 0
-9086 1760 -1759 0
9086 -1760 0
9086 1759 0
-9087 -1760 1759 0
9087 1760 0
9087 -1759 0
-9088 1048 -1047 0
9088 -1048 0
9088 1047 0
-9089 -1048 1047 0
9089 1048 0
9089 -1047 0
-9090 1762 -1761 0
9090 -1762 0
9090 1761 0
-9091 -1762 1761 0
9091 1762 0
9091 -1761 0
-9092 1492 -1491 0
9092 -1492 0
9092 1491 0
-9093 -1492 1491 0
9093 1492 0
9093 -1491 0
-9094 1696 -1695 0
9094 -1696 0
9094 1695 0
-9095 -1696 1695 0
9095 1696 0
9095 -1695 0
-9096 1830 -1829 0
9096 -1830 0
9096 1829 0
-9097 -1830 1829 0
9097 1830 0
9097 -1829 0
-9098 1496 -1495 0
9098 -1496 0
9098 1495 0
-9099 -1496 1495 0
9099 1496 0
9099 -1495 0
-9100 1498 -1497 0
9100 -1498 0
9100 1497 0
-9101 -1498 1497 0
9101 1498 0
9101 -1497 0
-9102 1062 -1061 0
9102 -1062 0
9102 1061 0
-9103 -1062 1061 0
9103 1062 0
9103 -1061 0
-9104 1502 -1501 0
9104 -1502 0
9104 1501 0
-9105 -1502 1501 0
9105 1502 0
9105 -1501 0
-9106 1698 -1697 0
9106 -1698 0
9106 1697 0
-9107 -1698 1697 0
9107 1698 0
9107 -1697 0
-9108 1798 -1797 0
9108 -1798 0
9108 1797 0
-9109 -1798 1797 0
9109 1798 0
9109 -1797 0
-9110 1700 -1699 0
9110 -1700 0
9110 1699 0
-9111 -1700 1699 0
9111 1700 0
9111 -1699 0
-9112 1702 -1701 0
9112 -1702 0
9112 1701 0
-9113 -1702 1701 0
9113 1702 0
9113 -1701 0
-9114 1504 -1503 0
9114 -1504 0
9114 1503 0
-9115 -1504 1503 0
9115 1504 0
9115 -1503 0
-9116 1506 -1505 0
9116 -1506 0
9116 1505 0
-9117 -1506 1505 0
9117 1506 0
9117 -1505 0
-9118 1508 -1507 0
9118 -1508 0
9118 1507 0
-9119 -1508 1507 0
9119 1508 0
9119 -1507 0
-9120 1510 -1509 0
9120 -1510 0
9120 1509 0
-9121 -1510 1509 0
9121 1510 0
9121 -1509 0
-9122 1704 -1703 0
9122 -1704 0
9122 1703 0
-9123 -1704 1703 0
9123 1704 0
9123 -1703 0
-9124 1744 -1743 0
9124 -1744 0
9124 1743 0
-9125 -1744 1743 0
9125 1744 0
9125 -1743 0
-9126 1516 -1515 0
9126 -1516 0
9126 1515 0
-9127 -1516 1515 0
9127 1516 0
9127 -1515 0
-9128 1834 -1833 0
9128 -1834 0
9128 1833 0
-9129 -1834 1833 0
9129 1834 0
9129 -1833 0
-9130 1804 -1803 0
9130 -1804 0
9130 1803 0
-9131 -1804 1803 0
9131 1804 0
9131 -1803 0
-9132 1520 -1519 0
9132 -1520 0
9132 1519 0
-9133 -1520 1519 0
9133 1520 0
9133 -1519 0
-9134 1522 -1521 0
9134 -1522 0
9134 1521 0
-9135 -1522 1521 0
9135 1522 0
9135 -1521 0
-9136 1524 -1523 0
9136 -1524 0
9136 1523 0
-9137 -1524 1523 0
9137 1524 0
9137 -1523 0
-9138 1526 -1525 0
9138 -1526 0
9138 1525 0
-9139 -1526 1525 0
9139 1526 0
9139 -1525 0
-9140 1100 -1099 0
9140 -1100 0
9140 1099 0
-9141 -1100 1099 0
9141 1100 0
9141 -1099 0
-9142 1670 -1669 0
9142 -1670 0
9142 1669 0
-9143 -1670 1669 0
9143 1670 0
9143 -1669 0
-9144 1530 -1529 0
9144 -1530 0
9144 1529 0
-9145 -1530 1529 0
9145 1530 0
9145 -1529 0
-9146 1534 -1533 0
9146 -1534 0
9146 1533 0
-9147 -1534 1533 0
9147 1534 0
9147 -1533 0
-9148 1836 -1835 0
9148 -1836 0
9148 1835 0
-9149 -1836 1835 0
9149 1836 0
9149 -1835 0
-9150 1536 -1535 0
9150 -1536 0
9150 1535 0
-9151 -1536 1535 0
9151 1536 0
9151 -1535 0
-9152 1538 -1537 0
9152 -1538 0
9152 1537 0
-9153 -1538 1537 0
9153 1538 0
9153 -1537 0
-9154 1540 -1539 0
9154 -1540 0
9154 1539 0
-9155 -1540 1539 0
9155 1540 0
9155 -1539 0
-9156 1542 -1541 0
9156 -1542 0
9156 1541 0
-9157 -1542 1541 0
9157 1542 0
9157 -1541 0
-9158 1544 -1543 0
9158 -1544 0
9158 1543 0
-9159 -1544 1543 0
9159 1544 0
9159 -1543 0
-9160 1546 -1545 0
9160 -1546 0
9160 1545 0
-9161 -1546 1545 0
9161 1546 0
9161 -1545 0
-9162 1840 -1839 0
9162 -1840 0
9162 1839 0
-9163 -1840 1839 0
9163 1840 0
9163 -1839 0
-9164 1548 -1547 0
9164 -1548 0
9164 1547 0
-9165 -1548 1547 0
9165 1548 0
9165 -1547 0
-9166 1790 -1789 0
9166 -1790 0
9166 1789 0
-9167 -1790 1789 0
9167 1790 0
9167 -1789 0
-9168 1128 -1127 0
9168 -1128 0
9168 1127 0
-9169 -1128 1127 0
9169 1128 0
9169 -1127 0
-9170 1710 -1709 0
9170 -1710 0
9170 1709 0
-9171 -1710 1709 0
9171 1710 0
9171 -1709 0
-9172 1554 -1553 0
9172 -1554 0
9172 1553 0
-9173 -1554 1553 0
9173 1554 0
9173 -1553 0
-9174 1706 -1705 0
9174 -1706 0
9174 1705 0
-9175 -1706 1705 0
9175 1706 0
9175 -1705 0
-9176 1802 -1801 0
9176 -1802 0
9176 1801 0
-9177 -1802 1801 0
9177 1802 0
9177 -1801 0
-9178 1558 -1557 0
9178 -1558 0
9178 1557 0
-9179 -1558 1557 0
9179 1558 0
9179 -1557 0
-9180 1560 -1559 0
9180 -1560 0
9180 1559 0
-9181 -1560 1559 0
9181 1560 0
9181 -1559 0
-9182 1142 -1141 0
9182 -1142 0
9182 1141 0
-9183 -1142 1141 0
9183 1142 0
9183 -1141 0
-9184 1562 -1561 0
9184 -1562 0
9184 1561 0
-9185 -1562 1561 0
9185 1562 0
9185 -1561 0
-9186 1742 -1741 0
9186 -1742 0
9186 1741 0
-9187 -1742 1741 0
9187 1742 0
9187 -1741 0
-9188 1768 -1767 0
9188 -1768 0
9188 1767 0
-9189 -1768 1767 0
9189 1768 0
9189 -1767 0
-9190 1712 -1711 0
9190 -1712 0
9190 1711 0
-9191 -1712 1711 0
9191 1712 0
9191 -1711 0
-9192 1714 -1713 0
9192 -1714 0
9192 1713 0
-9193 -1714 1713 0
9193 1714 0
9193 -1713 0
-9194 1566 -1565 0
9194 -1566 0
9194 1565 0
-9195 -1566 1565 0
9195 1566 0
9195 -1565 0
-9196 1568 -1567 0
9196 -1568 0
9196 1567 0
-9197 -1568 1567 0
9197 1568 0
9197 -1567 0
-9198 1570 -1569 0
9198 -1570 0
9198 1569 0
-9199 -1570 1569 0
9199 1570 0
9199 -1569 0
-9200 1572 -1571 0
9200 -1572 0
9200 1571 0
-9201 -1572 1571 0
9201 1572 0
9201 -1571 0
-9202 1716 -1715 0
9202 -1716 0
9202 1715 0
-9203 -1716 1715 0
9203 1716 0
9203 -1715 0
-9204 1730 -1729 0
9204 -1730 0
9204 1729 0
-9205 -1730 1729 0
9205 1730 0
9205 -1729 0
-9206 1576 -1575 0
9206 -1576 0
9206 1575 0
-9207 -1576 1575 0
9207 1576 0
9207 -1575 0
-9208 1792 -1791 0
9208 -1792 0
9208 1791 0
-9209 -1792 1791 0
9209 1792 0
9209 -1791 0
-9210 1780 -1779 0
9210 -1780 0
9210 1779 0
-9211 -1780 1779 0
9211 1780 0
9211 -1779 0
-9212 1580 -1579 0
9212 -1580 0
9212 1579 0
-9213 -1580 1579 0
9213 1580 0
9213 -1579 0
-9214 1582 -1581 0
9214 -1582 0
9214 1581 0
-9215 -1582 1581 0
9215 1582 0
9215 -1581 0
-9216 1584 -1583 0
9216 -1584 0
9216 1583 0
-9217 -1584 1583 0
9217 1584 0
9217 -1583 0
-9218 1586 -1585 0
9218 -1586 0
9218 1585 0
-9219 -1586 1585 0
9219 1586 0
9219 -1585 0
-9220 1180 -1179 0
9220 -1180 0
9220 1179 0
-9221 -1180 1179 0
9221 1180 0
9221 -1179 0
-9222 1718 -1717 0
9222 -1718 0
9222 1717 0
-9223 -1718 1717 0
9223 1718 0
9223 -1717 0
-9224 1588 -1587 0
9224 -1588 0
9224 1587 0
-9225 -1588 1587 0
9225 1588 0
9225 -1587 0
-9226 1592 -1591 0
9226 -1592 0
9226 1591 0
-9227 -1592 1591 0
9227 1592 0
9227 -1591 0
-9228 1820 -1819 0
9228 -1820 0
9228 1819 0
-9229 -1820 1819 0
9229 1820 0
9229 -1819 0
-9230 1594 -1593 0
9230 -1594 0
9230 1593 0
-9231 -1594 1593 0
9231 1594 0
9231 -1593 0
-9232 1596 -1595 0
9232 -1596 0
9232 1595 0
-9233 -1596 1595 0
9233 1596 0
9233 -1595 0
-9234 1598 -1597 0
9234 -1598 0
9234 1597 0
-9235 -1598 1597 0
9235 1598 0
9235 -1597 0
-9236 1600 -1599 0
9236 -1600 0
9236 1599 0
-9237 -1600 1599 0
9237 1600 0
9237 -1599 0
-9238 1602 -1601 0
9238 -1602 0
9238 1601 0
-9239 -1602 1601 0
9239 1602 0
9239 -1601 0
-9240 1604 -1603 0
9240 -1604 0
9240 1603 0
-9241 -1604 1603 0
9241 1604 0
9241 -1603 0
-9242 1810 -1809 0
9242 -1810 0
9242 1809 0
-9243 -1810 1809 0
9243 1810 0
9243 -1809 0
-9244 1606 -1605 0
9244 -1606 0
9244 1605 0
-9245 -1606 1605 0
9245 1606 0
9245 -1605 0
-9246 1770 -1769 0
9246 -1770 0
9246 1769 0
-9247 -1770 1769 0
9247 1770 0
9247 -1769 0
-9248 1772 -1771 0
9248 -1772 0
9248 1771 0
-9249 -1772 1771 0
9249 1772 0
9249 -1771 0
-9250 1608 -1607 0
9250 -1608 0
9250 1607 0
-9251 -1608 1607 0
9251 1608 0
9251 -1607 0
-9252 1720 -1719 0
9252 -1720 0
9252 1719 0
-9253 -1720 1719 0
9253 1720 0
9253 -1719 0
-9254 1812 -1811 0
9254 -1812 0
9254 1811 0
-9255 -1812 1811 0
9255 1812 0
9255 -1811 0
-9256 1610 -1609 0
9256 -1610 0
9256 1609 0
-9257 -1610 1609 0
9257 1610 0
9257 -1609 0
-9258 1612 -1611 0
9258 -1612 0
9258 1611 0
-9259 -1612 1611 0
9259 1612 0
9259 -1611 0
-9260 1824 -1823 0
9260 -1824 0
9260 1823 0
-9261 -1824 1823 0
9261 1824 0
9261 -1823 0
-9262 1614 -1613 0
9262 -1614 0
9262 1613 0
-9263 -1614 1613 0
9263 1614 0
9263 -1613 0
-9264 1774 -1773 0
9264 -1774 0
9264 1773 0
-9265 -1774 1773 0
9265 1774 0
9265 -1773 0
-9266 1776 -1775 0
9266 -1776 0
9266 1775 0
-9267 -1776 1775 0
9267 1776 0
9267 -1775 0
-9268 1722 -1721 0
9268 -1722 0
9268 1721 0
-9269 -1722 1721 0
9269 1722 0
9269 -1721 0
-9270 1724 -1723 0
9270 -1724 0
9270 1723 0
-9271 -1724 1723 0
9271 1724 0
9271 -1723 0
-9272 1616 -1615 0
9272 -1616 0
9272 1615 0
-9273 -1616 1615 0
9273 1616 0
9273 -1615 0
-9274 1618 -1617 0
9274 -1618 0
9274 1617 0
-9275 -1618 1617 0
9275 1618 0
9275 -1617 0
-9276 1620 -1619 0
9276 -1620 0
9276 1619 0
-9277 -1620 1619 0
9277 1620 0
9277 -1619 0
-9278 1622 -1621 0
9278 -1622 0
9278 1621 0
-9279 -1622 1621 0
9279 1622 0
9279 -1621 0
-9280 1726 -1725 0
9280 -1726 0
9280 1725 0
-9281 -1726 1725 0
9281 1726 0
9281 -1725 0
-9282 1732 -1731 0
9282 -1732 0
9282 1731 0
-9283 -1732 1731 0
9283 1732 0
9283 -1731 0
-9284 1624 -1623 0
9284 -1624 0
9284 1623 0
-9285 -1624 1623 0
9285 1624 0
9285 -1623 0
-9286 1794 -1793 0
9286 -1794 0
9286 1793 0
-9287 -1794 1793 0
9287 1794 0
9287 -1793 0
-9288 1778 -1777 0
9288 -1778 0
9288 1777 0
-9289 -1778 1777 0
9289 1778 0
9289 -1777 0
-9290 1626 -1625 0
9290 -1626 0
9290 1625 0
-9291 -1626 1625 0
9291 1626 0
9291 -1625 0
-9292 1628 -1627 0
9292 -1628 0
9292 1627 0
-9293 -1628 1627 0
9293 1628 0
9293 -1627 0
-9294 1630 -1629 0
9294 -1630 0
9294 1629 0
-9295 -1630 1629 0
9295 1630 0
9295 -1629 0
-9296 1632 -1631 0
9296 -1632 0
9296 1631 0
-9297 -1632 1631 0
9297 1632 0
9297 -1631 0
-9298 1260 -1259 0
9298 -1260 0
9298 1259 0
-9299 -1260 1259 0
9299 1260 0
9299 -1259 0
-9300 1734 -1733 0
9300 -1734 0
9300 1733 0
-9301 -1734 1733 0
9301 1734 0
9301 -1733 0
-9302 1634 -1633 0
9302 -1634 0
9302 1633 0
-9303 -1634 1633 0
9303 1634 0
9303 -1633 0
-9304 1636 -1635 0
9304 -1636 0
9304 1635 0
-9305 -1636 1635 0
9305 1636 0
9305 -1635 0
-9306 1268 -1267 0
9306 -1268 0
9306 1267 0
-9307 -1268 1267 0
9307 1268 0
9307 -1267 0
-9308 1638 -1637 0
9308 -1638 0
9308 1637 0
-9309 -1638 1637 0
9309 1638 0
9309 -1637 0
-9310 1640 -1639 0
9310 -1640 0
9310 1639 0
-9311 -1640 1639 0
9311 1640 0
9311 -1639 0
-9312 1642 -1641 0
9312 -1642 0
9312 1641 0
-9313 -1642 1641 0
9313 1642 0
9313 -1641 0
-9314 1644 -1643 0
9314 -1644 0
9314 1643 0
-9315 -1644 1643 0
9315 1644 0
9315 -1643 0
-9316 1646 -1645 0
9316 -1646 0
9316 1645 0
-9317 -1646 1645 0
9317 1646 0
9317 -1645 0
-9318 1648 -1647 0
9318 -1648 0
9318 1647 0
-9319 -1648 1647 0
9319 1648 0
9319 -1647 0
-9320 1816 -1815 0
9320 -1816 0
9320 1815 0
-9321 -1816 1815 0
9321 1816 0
9321 -1815 0
-9322 1650 -1649 0
9322 -1650 0
9322 1649 0
-9323 -1650 1649 0
9323 1650 0
9323 -1649 0
-9324 1736 -1735 0
9324 -1736 0
9324 1735 0
-9325 -1736 1735 0
9325 1736 0
9325 -1735 0
-9326 1366 -1365 0
9326 -1366 0
9326 1365 0
-9327 -1366 1365 0
9327 1366 0
9327 -1365 0
-9328 1368 -1367 0
9328 -1368 0
9328 1367 0
-9329 -1368 1367 0
9329 1368 0
9329 -1367 0
-9330 1370 -1369 0
9330 -1370 0
9330 1369 0
-9331 -1370 1369 0
9331 1370 0
9331 -1369 0
-9332 1374 -1373 0
9332 -1374 0
9332 1373 0
-9333 -1374 1373 0
9333 1374 0
9333 -1373 0
-9334 1376 -1375 0
9334 -1376 0
9334 1375 0
-9335 -1376 1375 0
9335 1376 0
9335 -1375 0
-9336 1378 -1377 0
9336 -1378 0
9336 1377 0
-9337 -1378 1377 0
9337 1378 0
9337 -1377 0
-9338 1382 -1381 0
9338 -1382 0
9338 1381 0
-9339 -1382 1381 0
9339 1382 0
9339 -1381 0
-9340 1384 -1383 0
9340 -1384 0
9340 1383 0
-9341 -1384 1383 0
9341 1384 0
9341 -1383 0
-9342 1386 -1385 0
9342 -1386 0
9342 1385 0
-9343 -1386 1385 0
9343 1386 0
9343 -1385 0
-9344 1390 -1389 0
9344 -1390 0
9344 1389 0
-9345 -1390 1389 0
9345 1390 0
9345 -1389 0
-9346 1392 -1391 0
9346 -1392 0
9346 1391 0
-9347 -1392 1391 0
9347 1392 0
9347 -1391 0
-9348 1394 -1393 0
9348 -1394 0
9348 1393 0
-9349 -1394 1393 0
9349 1394 0
9349 -1393 0
-9350 1352 -1351 0
9350 -1352 0
9350 1351 0
-9351 -1352 1351 0
9351 1352 0
9351 -1351 0
-9352 1314 -1313 0
9352 -1314 0
9352 1313 0
-9353 -1314 1313 0
9353 1314 0
9353 -1313 0
-9354 1358 -1357 0
9354 -1358 0
9354 1357 0
-9355 -1358 1357 0
9355 1358 0
9355 -1357 0
-9356 972 -971 0
9356 -972 0
9356 971 0
-9357 -972 971 0
9357 972 0
9357 -971 0
-9358 978 -977 0
9358 -978 0
9358 977 0
-9359 -978 977 0
9359 978 0
9359 -977 0
-9360 980 -979 0
9360 -980 0
9360 979 0
-9361 -980 979 0
9361 980 0
9361 -979 0
-9362 984 -983 0
9362 -984 0
9362 983 0
-9363 -984 983 0
9363 984 0
9363 -983 0
-9364 994 -993 0
9364 -994 0
9364 993 0
-9365 -994 993 0
9365 994 0
9365 -993 0
-9366 996 -995 0
9366 -996 0
9366 995 0
-9367 -996 995 0
9367 996 0
9367 -995 0
-9368 998 -997 0
9368 -998 0
9368 997 0
-9369 -998 997 0
9369 998 0
9369 -997 0
-9370 1000 -999 0
9370 -1000 0
9370 999 0
-9371 -1000 999 0
9371 1000 0
9371 -999 0
-9372 1362 -1361 0
9372 -1362 0
9372 1361 0
-9373 -1362 1361 0
9373 1362 0
9373 -1361 0
-9374 1318 -1317 0
9374 -1318 0
9374 1317 0
-9375 -1318 1317 0
9375 1318 0
9375 -1317 0
-9376 1006 -1005 0
9376 -1006 0
9376 1005 0
-9377 -1006 1005 0
9377 1006 0
9377 -1005 0
-9378 1012 -1011 0
9378 -1012 0
9378 1011 0
-9379 -1012 1011 0
9379 1012 0
9379 -1011 0
-9380 1014 -1013 0
9380 -1014 0
9380 1013 0
-9381 -1014 1013 0
9381 1014 0
9381 -1013 0
-9382 1016 -1015 0
9382 -1016 0
9382 1015 0
-9383 -1016 1015 0
9383 1016 0
9383 -1015 0
-9384 1348 -1347 0
9384 -1348 0
9384 1347 0
-9385 -1348 1347 0
9385 1348 0
9385 -1347 0
-9386 1018 -1017 0
9386 -1018 0
9386 1017 0
-9387 -1018 1017 0
9387 1018 0
9387 -1017 0
-9388 1354 -1353 0
9388 -1354 0
9388 1353 0
-9389 -1354 1353 0
9389 1354 0
9389 -1353 0
-9390 1024 -1023 0
9390 -1024 0
9390 1023 0
-9391 -1024 1023 0
9391 1024 0
9391 -1023 0
-9392 1026 -1025 0
9392 -1026 0
9392 1025 0
-9393 -1026 1025 0
9393 1026 0
9393 -1025 0
-9394 1302 -1301 0
9394 -1302 0
9394 1301 0
-9395 -1302 1301 0
9395 1302 0
9395 -1301 0
-9396 1030 -1029 0
9396 -1030 0
9396 1029 0
-9397 -1030 1029 0
9397 1030 0
9397 -1029 0
-9398 1032 -1031 0
9398 -1032 0
9398 1031 0
-9399 -1032 1031 0
9399 1032 0
9399 -1031 0
-9400 1034 -1033 0
9400 -1034 0
9400 1033 0
-9401 -1034 1033 0
9401 1034 0
9401 -1033 0
-9402 1036 -1035 0
9402 -1036 0
9402 1035 0
-9403 -1036 1035 0
9403 1036 0
9403 -1035 0
-9404 1038 -1037 0
9404 -1038 0
9404 1037 0
-9405 -1038 1037 0
9405 1038 0
9405 -1037 0
-9406 1040 -1039 0
9406 -1040 0
9406 1039 0
-9407 -1040 1039 0
9407 1040 0
9407 -1039 0
-9408 1338 -1337 0
9408 -1338 0
9408 1337 0
-9409 -1338 1337 0
9409 1338 0
9409 -1337 0
-9410 1044 -1043 0
9410 -1044 0
9410 1043 0
-9411 -1044 1043 0
9411 1044 0
9411 -1043 0
-9412 1052 -1051 0
9412 -1052 0
9412 1051 0
-9413 -1052 1051 0
9413 1052 0
9413 -1051 0
-9414 1292 -1291 0
9414 -1292 0
9414 1291 0
-9415 -1292 1291 0
9415 1292 0
9415 -1291 0
-9416 1058 -1057 0
9416 -1058 0
9416 1057 0
-9417 -1058 1057 0
9417 1058 0
9417 -1057 0
-9418 1060 -1059 0
9418 -1060 0
9418 1059 0
-9419 -1060 1059 0
9419 1060 0
9419 -1059 0
-9420 1290 -1289 0
9420 -1290 0
9420 1289 0
-9421 -1290 1289 0
9421 1290 0
9421 -1289 0
-9422 1064 -1063 0
9422 -1064 0
9422 1063 0
-9423 -1064 1063 0
9423 1064 0
9423 -1063 0
-9424 1074 -1073 0
9424 -1074 0
9424 1073 0
-9425 -1074 1073 0
9425 1074 0
9425 -1073 0
-9426 1076 -1075 0
9426 -1076 0
9426 1075 0
-9427 -1076 1075 0
9427 1076 0
9427 -1075 0
-9428 1078 -1077 0
9428 -1078 0
9428 1077 0
-9429 -1078 1077 0
9429 1078 0
9429 -1077 0
-9430 1080 -1079 0
9430 -1080 0
9430 1079 0
-9431 -1080 1079 0
9431 1080 0
9431 -1079 0
-9432 1316 -1315 0
9432 -1316 0
9432 1315 0
-9433 -1316 1315 0
9433 1316 0
9433 -1315 0
-9434 1340 -1339 0
9434 -1340 0
9434 1339 0
-9435 -1340 1339 0
9435 1340 0
9435 -1339 0
-9436 1086 -1085 0
9436 -1086 0
9436 1085 0
-9437 -1086 1085 0
9437 1086 0
9437 -1085 0
-9438 1320 -1319 0
9438 -1320 0
9438 1319 0
-9439 -1320 1319 0
9439 1320 0
9439 -1319 0
-9440 1092 -1091 0
9440 -1092 0
9440 1091 0
-9441 -1092 1091 0
9441 1092 0
9441 -1091 0
-9442 1094 -1093 0
9442 -1094 0
9442 1093 0
-9443 -1094 1093 0
9443 1094 0
9443 -1093 0
-9444 1096 -1095 0
9444 -1096 0
9444 1095 0
-9445 -1096 1095 0
9445 1096 0
9445 -1095 0
-9446 1098 -1097 0
9446 -1098 0
9446 1097 0
-9447 -1098 1097 0
9447 1098 0
9447 -1097 0
-9448 1330 -1329 0
9448 -1330 0
9448 1329 0
-9449 -1330 1329 0
9449 1330 0
9449 -1329 0
-9450 1104 -1103 0
9450 -1104 0
9450 1103 0
-9451 -1104 1103 0
9451 1104 0
9451 -1103 0
-9452 1296 -1295 0
9452 -1296 0
9452 1295 0
-9453 -1296 1295 0
9453 1296 0
9453 -1295 0
-9454 1106 -1105 0
9454 -1106 0
9454 1105 0
-9455 -1106 1105 0
9455 1106 0
9455 -1105 0
-9456 1110 -1109 0
9456 -1110 0
9456 1109 0
-9457 -1110 1109 0
9457 1110 0
9457 -1109 0
-9458 1112 -1111 0
9458 -1112 0
9458 1111 0
-9459 -1112 1111 0
9459 1112 0
9459 -1111 0
-9460 1114 -1113 0
9460 -1114 0
9460 1113 0
-9461 -1114 1113 0
9461 1114 0
9461 -1113 0
-9462 1116 -1115 0
9462 -1116 0
9462 1115 0
-9463 -1116 1115 0
9463 1116 0
9463 -1115 0
-9464 1118 -1117 0
9464 -1118 0
9464 1117 0
-9465 -1118 1117 0
9465 1118 0
9465 -1117 0
-9466 1120 -1119 0
9466 -1120 0
9466 1119 0
-9467 -1120 1119 0
9467 1120 0
9467 -1119 0
-9468 1124 -1123 0
9468 -1124 0
9468 1123 0
-9469 -1124 1123 0
9469 1124 0
9469 -1123 0
-9470 1312 -1311 0
9470 -1312 0
9470 1311 0
-9471 -1312 1311 0
9471 1312 0
9471 -1311 0
-9472 1298 -1297 0
9472 -1298 0
9472 1297 0
-9473 -1298 1297 0
9473 1298 0
9473 -1297 0
-9474 1132 -1131 0
9474 -1132 0
9474 1131 0
-9475 -1132 1131 0
9475 1132 0
9475 -1131 0
-9476 1334 -1333 0
9476 -1334 0
9476 1333 0
-9477 -1334 1333 0
9477 1334 0
9477 -1333 0
-9478 1138 -1137 0
9478 -1138 0
9478 1137 0
-9479 -1138 1137 0
9479 1138 0
9479 -1137 0
-9480 1140 -1139 0
9480 -1140 0
9480 1139 0
-9481 -1140 1139 0
9481 1140 0
9481 -1139 0
-9482 1144 -1143 0
9482 -1144 0
9482 1143 0
-9483 -1144 1143 0
9483 1144 0
9483 -1143 0
-9484 1342 -1341 0
9484 -1342 0
9484 1341 0
-9485 -1342 1341 0
9485 1342 0
9485 -1341 0
-9486 1154 -1153 0
9486 -1154 0
9486 1153 0
-9487 -1154 1153 0
9487 1154 0
9487 -1153 0
-9488 1156 -1155 0
9488 -1156 0
9488 1155 0
-9489 -1156 1155 0
9489 1156 0
9489 -1155 0
-9490 1158 -1157 0
9490 -1158 0
9490 1157 0
-9491 -1158 1157 0
9491 1158 0
9491 -1157 0
-9492 1160 -1159 0
9492 -1160 0
9492 1159 0
-9493 -1160 1159 0
9493 1160 0
9493 -1159 0
-9494 1308 -1307 0
9494 -1308 0
9494 1307 0
-9495 -1308 1307 0
9495 1308 0
9495 -1307 0
-9496 1166 -1165 0
9496 -1166 0
9496 1165 0
-9497 -1166 1165 0
9497 1166 0
9497 -1165 0
-9498 1344 -1343 0
9498 -1344 0
9498 1343 0
-9499 -1344 1343 0
9499 1344 0
9499 -1343 0
-9500 1172 -1171 0
9500 -1172 0
9500 1171 0
-9501 -1172 1171 0
9501 1172 0
9501 -1171 0
-9502 1174 -1173 0
9502 -1174 0
9502 1173 0
-9503 -1174 1173 0
9503 1174 0
9503 -1173 0
-9504 1176 -1175 0
9504 -1176 0
9504 1175 0
-9505 -1176 1175 0
9505 1176 0
9505 -1175 0
-9506 1178 -1177 0
9506 -1178 0
9506 1177 0
-9507 -1178 1177 0
9507 1178 0
9507 -1177 0
-9508 1184 -1183 0
9508 -1184 0
9508 1183 0
-9509 -1184 1183 0
9509 1184 0
9509 -1183 0
-9510 1350 -1349 0
9510 -1350 0
9510 1349 0
-9511 -1350 1349 0
9511 1350 0
9511 -1349 0
-9512 1186 -1185 0
9512 -1186 0
9512 1185 0
-9513 -1186 1185 0
9513 1186 0
9513 -1185 0
-9514 1190 -1189 0
9514 -1190 0
9514 1189 0
-9515 -1190 1189 0
9515 1190 0
9515 -1189 0
-9516 1192 -1191 0
9516 -1192 0
9516 1191 0
-9517 -1192 1191 0
9517 1192 0
9517 -1191 0
-9518 1194 -1193 0
9518 -1194 0
9518 1193 0
-9519 -1194 1193 0
9519 1194 0
9519 -1193 0
-9520 1196 -1195 0
9520 -1196 0
9520 1195 0
-9521 -1196 1195 0
9521 1196 0
9521 -1195 0
-9522 1198 -1197 0
9522 -1198 0
9522 1197 0
-9523 -1198 1197 0
9523 1198 0
9523 -1197 0
-9524 1200 -1199 0
9524 -1200 0
9524 1199 0
-9525 -1200 1199 0
9525 1200 0
9525 -1199 0
-9526 1204 -1203 0
9526 -1204 0
9526 1203 0
-9527 -1204 1203 0
9527 1204 0
9527 -1203 0
-9528 1212 -1211 0
9528 -1212 0
9528 1211 0
-9529 -1212 1211 0
9529 1212 0
9529 -1211 0
-9530 1218 -1217 0
9530 -1218 0
9530 1217 0
-9531 -1218 1217 0
9531 1218 0
9531 -1217 0
-9532 1220 -1219 0
9532 -1220 0
9532 1219 0
-9533 -1220 1219 0
9533 1220 0
9533 -1219 0
-9534 1224 -1223 0
9534 -1224 0
9534 1223 0
-9535 -1224 1223 0
9535 1224 0
9535 -1223 0
-9536 1234 -1233 0
9536 -1234 0
9536 1233 0
-9537 -1234 1233 0
9537 1234 0
9537 -1233 0
-9538 1236 -1235 0
9538 -1236 0
9538 1235 0
-9539 -1236 1235 0
9539 1236 0
9539 -1235 0
-9540 1238 -1237 0
9540 -1238 0
9540 1237 0
-9541 -1238 1237 0
9541 1238 0
9541 -1237 0
-9542 1240 -1239 0
9542 -1240 0
9542 1239 0
-9543 -1240 1239 0
9543 1240 0
9543 -1239 0
-9544 1246 -1245 0
9544 -1246 0
9544 1245 0
-9545 -1246 1245 0
9545 1246 0
9545 -1245 0
-9546 1252 -1251 0
9546 -1252 0
9546 1251 0
-9547 -1252 1251 0
9547 1252 0
9547 -1251 0
-9548 1254 -1253 0
9548 -1254 0
9548 1253 0
-9549 -1254 1253 0
9549 1254 0
9549 -1253 0
-9550 1256 -1255 0
9550 -1256 0
9550 1255 0
-9551 -1256 1255 0
9551 1256 0
9551 -1255 0
-9552 1258 -1257 0
9552 -1258 0
9552 1257 0
-9553 -1258 1257 0
9553 1258 0
9553 -1257 0
-9554 1264 -1263 0
9554 -1264 0
9554 1263 0
-9555 -1264 1263 0
9555 1264 0
9555 -1263 0
-9556 1266 -1265 0
9556 -1266 0
9556 1265 0
-9557 -1266 1265 0
9557 1266 0
9557 -1265 0
-9558 1270 -1269 0
9558 -1270 0
9558 1269 0
-9559 -1270 1269 0
9559 1270 0
9559 -1269 0
-9560 1272 -1271 0
9560 -1272 0
9560 1271 0
-9561 -1272 1271 0
9561 1272 0
9561 -1271 0
-9562 1274 -1273 0
9562 -1274 0
9562 1273 0
-9563 -1274 1273 0
9563 1274 0
9563 -1273 0
-9564 1276 -1275 0
9564 -1276 0
9564 1275 0
-9565 -1276 1275 0
9565 1276 0
9565 -1275 0
-9566 1278 -1277 0
9566 -1278 0
9566 1277 0
-9567 -1278 1277 0
9567 1278 0
9567 -1277 0
-9568 1280 -1279 0
9568 -1280 0
9568 1279 0
-9569 -1280 1279 0
9569 1280 0
9569 -1279 0
-9570 1284 -1283 0
9570 -1284 0
9570 1283 0
-9571 -1284 1283 0
9571 1284 0
9571 -1283 0
-9572 1020 -1019 0
9572 -1020 0
9572 1019 0
-9573 -1020 1019 0
9573 1020 0
9573 -1019 0
-9574 1022 -1021 0
9574 -1022 0
9574 1021 0
-9575 -1022 1021 0
9575 1022 0
9575 -1021 0
-9576 1102 -1101 0
9576 -1102 0
9576 1101 0
-9577 -1102 1101 0
9577 1102 0
9577 -1101 0
-9578 974 -973 0
9578 -974 0
9578 973 0
-9579 -974 973 0
9579 974 0
9579 -973 0
-9580 1332 -1331 0
9580 -1332 0
9580 1331 0
-9581 -1332 1331 0
9581 1332 0
9581 -1331 0
-9582 1288 -1287 0
9582 -1288 0
9582 1287 0
-9583 -1288 1287 0
9583 1288 0
9583 -1287 0
-9584 1310 -1309 0
9584 -1310 0
9584 1309 0
-9585 -1310 1309 0
9585 1310 0
9585 -1309 0
-9586 986 -985 0
9586 -986 0
9586 985 0
-9587 -986 985 0
9587 986 0
9587 -985 0
-9588 990 -989 0
9588 -990 0
9588 989 0
-9589 -990 989 0
9589 990 0
9589 -989 0
-9590 992 -991 0
9590 -992 0
9590 991 0
-9591 -992 991 0
9591 992 0
9591 -991 0
-9592 1324 -1323 0
9592 -1324 0
9592 1323 0
-9593 -1324 1323 0
9593 1324 0
9593 -1323 0
-9594 1304 -1303 0
9594 -1304 0
9594 1303 0
-9595 -1304 1303 0
9595 1304 0
9595 -1303 0
-9596 1054 -1053 0
9596 -1054 0
9596 1053 0
-9597 -1054 1053 0
9597 1054 0
9597 -1053 0
-9598 1066 -1065 0
9598 -1066 0
9598 1065 0
-9599 -1066 1065 0
9599 1066 0
9599 -1065 0
-9600 1070 -1069 0
9600 -1070 0
9600 1069 0
-9601 -1070 1069 0
9601 1070 0
9601 -1069 0
-9602 1072 -1071 0
9602 -1072 0
9602 1071 0
-9603 -1072 1071 0
9603 1072 0
9603 -1071 0
-9604 1082 -1081 0
9604 -1082 0
9604 1081 0
-9605 -1082 1081 0
9605 1082 0
9605 -1081 0
-9606 1134 -1133 0
9606 -1134 0
9606 1133 0
-9607 -1134 1133 0
9607 1134 0
9607 -1133 0
-9608 1322 -1321 0
9608 -1322 0
9608 1321 0
-9609 -1322 1321 0
9609 1322 0
9609 -1321 0
-9610 1130 -1129 0
9610 -1130 0
9610 1129 0
-9611 -1130 1129 0
9611 1130 0
9611 -1129 0
-9612 1150 -1149 0
9612 -1150 0
9612 1149 0
-9613 -1150 1149 0
9613 1150 0
9613 -1149 0
-9614 1152 -1151 0
9614 -1152 0
9614 1151 0
-9615 -1152 1151 0
9615 1152 0
9615 -1151 0
-9616 1162 -1161 0
9616 -1162 0
9616 1161 0
-9617 -1162 1161 0
9617 1162 0
9617 -1161 0
-9618 1182 -1181 0
9618 -1182 0
9618 1181 0
-9619 -1182 1181 0
9619 1182 0
9619 -1181 0
-9620 1214 -1213 0
9620 -1214 0
9620 1213 0
-9621 -1214 1213 0
9621 1214 0
9621 -1213 0
-9622 1230 -1229 0
9622 -1230 0
9622 1229 0
-9623 -1230 1229 0
9623 1230 0
9623 -1229 0
-9624 1232 -1231 0
9624 -1232 0
9624 1231 0
-9625 -1232 1231 0
9625 1232 0
9625 -1231 0
-9626 1242 -1241 0
9626 -1242 0
9626 1241 0
-9627 -1242 1241 0
9627 1242 0
9627 -1241 0
-9628 1336 -1335 0
9628 -1336 0
9628 1335 0
-9629 -1336 1335 0
9629 1336 0
9629 -1335 0
-9630 1164 -1163 0
9630 -1164 0
9630 1163 0
-9631 -1164 1163 0
9631 1164 0
9631 -1163 0
-9632 1244 -1243 0
9632 -1244 0
9632 1243 0
-9633 -1244 1243 0
9633 1244 0
9633 -1243 0
-9634 1262 -1261 0
9634 -1262 0
9634 1261 0
-9635 -1262 1261 0
9635 1262 0
9635 -1261 0
-9636 1286 -1285 0
9636 -1286 0
9636 1285 0
-9637 -1286 1285 0
9637 1286 0
9637 -1285 0
-9638 1004 -1003 0
9638 -1004 0
9638 1003 0
-9639 -1004 1003 0
9639 1004 0
9639 -1003 0
-9640 1306 -1305 0
9640 -1306 0
9640 1305 0
-9641 -1306 1305 0
9641 1306 0
9641 -1305 0
-9642 1146 -1145 0
9642 -1146 0
9642 1145 0
-9643 -1146 1145 0
9643 1146 0
9643 -1145 0
-9644 1084 -1083 0
9644 -1084 0
9644 1083 0
-9645 -1084 1083 0
9645 1084 0
9645 -1083 0
-9646 970 -969 0
9646 -970 0
9646 969 0
-9647 -970 969 0
9647 970 0
9647 -969 0
-9648 1046 -1045 0
9648 -1046 0
9648 1045 0
-9649 -1046 1045 0
9649 1046 0
9649 -1045 0
-9650 1050 -1049 0
9650 -1050 0
9650 1049 0
-9651 -1050 1049 0
9651 1050 0
9651 -1049 0
-9652 1294 -1293 0
9652 -1294 0
9652 1293 0
-9653 -1294 1293 0
9653 1294 0
9653 -1293 0
-9654 1364 -1363 0
9654 -1364 0
9654 1363 0
-9655 -1364 1363 0
9655 1364 0
9655 -1363 0
-9656 1148 -1147 0
9656 -1148 0
9656 1147 0
-9657 -1148 1147 0
9657 1148 0
9657 -1147 0
-9658 1206 -1205 0
9658 -1206 0
9658 1205 0
-9659 -1206 1205 0
9659 1206 0
9659 -1205 0
-9660 1210 -1209 0
9660 -1210 0
9660 1209 0
-9661 -1210 1209 0
9661 1210 0
9661 -1209 0
-9662 1226 -1225 0
9662 -1226 0
9662 1225 0
-9663 -1226 1225 0
9663 1226 0
9663 -1225 0
-9664 1228 -1227 0
9664 -1228 0
9664 1227 0
-9665 -1228 1227 0
9665 1228 0
9665 -1227 0
-9666 1250 -1249 0
9666 -1250 0
9666 1249 0
-9667 -1250 1249 0
9667 1250 0
9667 -1249 0
-9668 1170 -1169 0
9668 -1170 0
9668 1169 0
-9669 -1170 1169 0
9669 1170 0
9669 -1169 0
-9670 1328 -1327 0
9670 -1328 0
9670 1327 0
-9671 -1328 1327 0
9671 1328 0
9671 -1327 0
-9672 988 -987 0
9672 -988 0
9672 987 0
-9673 -988 987 0
9673 988 0
9673 -987 0
-9674 1010 -1009 0
9674 -1010 0
9674 1009 0
-9675 -1010 1009 0
9675 1010 0
9675 -1009 0
-9676 1346 -1345 0
9676 -1346 0
9676 1345 0
-9677 -1346 1345 0
9677 1346 0
9677 -1345 0
-9678 1126 -1125 0
9678 -1126 0
9678 1125 0
-9679 -1126 1125 0
9679 1126 0
9679 -1125 0
-9680 1168 -1167 0
9680 -1168 0
9680 1167 0
-9681 -1168 1167 0
9681 1168 0
9681 -1167 0
-9682 1248 -1247 0
9682 -1248 0
9682 1247 0
-9683 -1248 1247 0
9683 1248 0
9683 -1247 0
-9684 1326 -1325 0
9684 -1326 0
9684 1325 0
-9685 -1326 1325 0
9685 1326 0
9685 -1325 0
-9686 1068 -1067 0
9686 -1068 0
9686 1067 0
-9687 -1068 1067 0
9687 1068 0
9687 -1067 0
-9688 1360 -1359 0
9688 -1360 0
9688 1359 0
-9689 -1360 1359 0
9689 1360 0
9689 -1359 0
-9690 1136 -1135 0
9690 -1136 0
9690 1135 0
-9691 -1136 1135 0
9691 1136 0
9691 -1135 0
-9692 1090 -1089 0
9692 -1090 0
9692 1089 0
-9693 -1090 1089 0
9693 1090 0
9693 -1089 0
-9694 1202 -1201 0
9694 -1202 0
9694 1201 0
-9695 -1202 1201 0
9695 1202 0
9695 -1201 0
-9696 1216 -1215 0
9696 -1216 0
9696 1215 0
-9697 -1216 1215 0
9697 1216 0
9697 -1215 0
-9698 1282 -1281 0
9698 -1282 0
9698 1281 0
-9699 -1282 1281 0
9699 1282 0
9699 -1281 0
-9700 976 -975 0
9700 -976 0
9700 975 0
-9701 -976 975 0
9701 976 0
9701 -975 0
-9702 1188 -1187 0
9702 -1188 0
9702 1187 0
-9703 -1188 1187 0
9703 1188 0
9703 -1187 0
-9704 1008 -1007 0
9704 -1008 0
9704 1007 0
-9705 -1008 1007 0
9705 1008 0
9705 -1007 0
-9706 1222 -1221 0
9706 -1222 0
9706 1221 0
-9707 -1222 1221 0
9707 1222 0
9707 -1221 0
-9708 1028 -1027 0
9708 -1028 0
9708 1027 0
-9709 -1028 1027 0
9709 1028 0
9709 -1027 0
-9710 1042 -1041 0
9710 -1042 0
9710 1041 0
-9711 -1042 1041 0
9711 1042 0
9711 -1041 0
-9712 1056 -1055 0
9712 -1056 0
9712 1055 0
-9713 -1056 1055 0
9713 1056 0
9713 -1055 0
-9714 1088 -1087 0
9714 -1088 0
9714 1087 0
-9715 -1088 1087 0
9715 1088 0
9715 -1087 0
-9716 1108 -1107 0
9716 -1108 0
9716 1107 0
-9717 -1108 1107 0
9717 1108 0
9717 -1107 0
-9718 1122 -1121 0
9718 -1122 0
9718 1121 0
-9719 -1122 1121 0
9719 1122 0
9719 -1121 0
-9720 -1011 5261 0
9720 1011 0
9720 -5261 0
-9721 1011 -5261 0
9721 -1011 0
9721 5261 0
-9722 -893 5269 0
9722 893 0
9722 -5269 0
-9723 893 -5269 0
9723 -893 0
9723 5269 0
-9724 -895 5270 0
9724 895 0
9724 -5270 0
-9725 895 -5270 0
9725 -895 0
9725 5270 0
-9726 -897 5271 0
9726 897 0
9726 -5271 0
-9727 897 -5271 0
9727 -897 0
9727 5271 0
-9728 -1091 5265 0
9728 1091 0
9728 -5265 0
-9729 1091 -5265 0
9729 -1091 0
9729 5265 0
-9730 -943 5289 0
9730 943 0
9730 -5289 0
-9731 943 -5289 0
9731 -943 0
9731 5289 0
-9732 -1171 5267 0
9732 1171 0
9732 -5267 0
-9733 1171 -5267 0
9733 -1171 0
9733 5267 0
-9734 -945 5290 0
9734 945 0
9734 -5290 0
-9735 945 -5290 0
9735 -945 0
9735 5290 0
-9736 -123 124 0
9736 123 0
9736 -124 0
-9737 123 -124 0
9737 -123 0
9737 124 0
-9738 -947 5291 0
9738 947 0
9738 -5291 0
-9739 947 -5291 0
9739 -947 0
9739 5291 0
-9740 -949 5292 0
9740 949 0
9740 -5292 0
-9741 949 -5292 0
9741 -949 0
9741 5292 0
-9742 -1791 5310 0
9742 1791 0
9742 -5310 0
-9743 1791 -5310 0
9743 -1791 0
9743 5310 0
-9744 -311 5296 0
9744 311 0
9744 -5296 0
-9745 311 -5296 0
9745 -311 0
9745 5296 0
-9746 -313 5297 0
9746 313 0
9746 -5297 0
-9747 313 -5297 0
9747 -313 0
9747 5297 0
-9748 -1795 5312 0
9748 1795 0
9748 -5312 0
-9749 1795 -5312 0
9749 -1795 0
9749 5312 0
-9750 -1821 5313 0
9750 1821 0
9750 -5313 0
-9751 1821 -5313 0
9751 -1821 0
9751 5313 0
-9752 -1831 5314 0
9752 1831 0
9752 -5314 0
-9753 1831 -5314 0
9753 -1831 0
9753 5314 0
-9754 -1833 5315 0
9754 1833 0
9754 -5315 0
-9755 1833 -5315 0
9755 -1833 0
9755 5315 0
-9756 -901 902 0
9756 901 0
9756 -902 0
-9757 901 -902 0
9757 -901 0
9757 902 0
-9758 -471 5316 0
9758 471 0
9758 -5316 0
-9759 471 -5316 0
9759 -471 0
9759 5316 0
-9760 -473 5317 0
9760 473 0
9760 -5317 0
-9761 473 -5317 0
9761 -473 0
9761 5317 0
-9762 -129 5301 0
9762 129 0
9762 -5301 0
-9763 129 -5301 0
9763 -129 0
9763 5301 0
-9764 -393 5303 0
9764 393 0
9764 -5303 0
-9765 393 -5303 0
9765 -393 0
9765 5303 0
-9766 -899 5272 0
9766 899 0
9766 -5272 0
-9767 899 -5272 0
9767 -899 0
9767 5272 0
-9768 -951 5293 0
9768 951 0
9768 -5293 0
-9769 951 -5293 0
9769 -951 0
9769 5293 0
-9770 -231 5325 0
9770 231 0
9770 -5325 0
-9771 231 -5325 0
9771 -231 0
9771 5325 0
-9772 -221 5322 0
9772 221 0
9772 -5322 0
-9773 221 -5322 0
9773 -221 0
9773 5322 0
-9774 -223 5323 0
9774 223 0
9774 -5323 0
-9775 223 -5323 0
9775 -223 0
9775 5323 0
-9776 -225 5324 0
9776 225 0
9776 -5324 0
-9777 225 -5324 0
9777 -225 0
9777 5324 0
-9778 -227 5326 0
9778 227 0
9778 -5326 0
-9779 227 -5326 0
9779 -227 0
9779 5326 0
-9780 -229 5327 0
9780 229 0
9780 -5327 0
-9781 229 -5327 0
9781 -229 0
9781 5327 0
-9782 -387 5332 0
9782 387 0
9782 -5332 0
-9783 387 -5332 0
9783 -387 0
9783 5332 0
-9784 -389 5333 0
9784 389 0
9784 -5333 0
-9785 389 -5333 0
9785 -389 0
9785 5333 0
-9786 -381 5329 0
9786 381 0
9786 -5329 0
-9787 381 -5329 0
9787 -381 0
9787 5329 0
-9788 -383 5330 0
9788 383 0
9788 -5330 0
-9789 383 -5330 0
9789 -383 0
9789 5330 0
-9790 -385 5331 0
9790 385 0
9790 -5331 0
-9791 385 -5331 0
9791 -385 0
9791 5331 0
-9792 -105 5335 0
9792 105 0
9792 -5335 0
-9793 105 -5335 0
9793 -105 0
9793 5335 0
-9794 -109 5336 0
9794 109 0
9794 -5336 0
-9795 109 -5336 0
9795 -109 0
9795 5336 0
-9796 -113 5337 0
9796 113 0
9796 -5337 0
-9797 113 -5337 0
9797 -113 0
9797 5337 0
-9798 -117 5338 0
9798 117 0
9798 -5338 0
-9799 117 -5338 0
9799 -117 0
9799 5338 0
-9800 -121 5339 0
9800 121 0
9800 -5339 0
-9801 121 -5339 0
9801 -121 0
9801 5339 0
-9802 -301 5341 0
9802 301 0
9802 -5341 0
-9803 301 -5341 0
9803 -301 0
9803 5341 0
-9804 -303 5342 0
9804 303 0
9804 -5342 0
-9805 303 -5342 0
9805 -303 0
9805 5342 0
-9806 -305 5343 0
9806 305 0
9806 -5343 0
-9807 305 -5343 0
9807 -305 0
9807 5343 0
-9808 -307 5344 0
9808 307 0
9808 -5344 0
-9809 307 -5344 0
9809 -307 0
9809 5344 0
-9810 -461 5346 0
9810 461 0
9810 -5346 0
-9811 461 -5346 0
9811 -461 0
9811 5346 0
-9812 -463 5347 0
9812 463 0
9812 -5347 0
-9813 463 -5347 0
9813 -463 0
9813 5347 0
-9814 -465 5348 0
9814 465 0
9814 -5348 0
-9815 465 -5348 0
9815 -465 0
9815 5348 0
-9816 -467 5349 0
9816 467 0
9816 -5349 0
-9817 467 -5349 0
9817 -467 0
9817 5349 0
-9818 -1249 5407 0
9818 1249 0
9818 -5407 0
-9819 1249 -5407 0
9819 -1249 0
9819 5407 0
-9820 -173 174 0
9820 173 0
9820 -174 0
-9821 173 -174 0
9821 -173 0
9821 174 0
-9822 -1257 5408 0
9822 1257 0
9822 -5408 0
-9823 1257 -5408 0
9823 -1257 0
9823 5408 0
-9824 -1009 5393 0
9824 1009 0
9824 -5393 0
-9825 1009 -5393 0
9825 -1009 0
9825 5393 0
-9826 -1017 5395 0
9826 1017 0
9826 -5395 0
-9827 1017 -5395 0
9827 -1017 0
9827 5395 0
-9828 -1285 5409 0
9828 1285 0
9828 -5409 0
-9829 1285 -5409 0
9829 -1285 0
9829 5409 0
-9830 -27 28 0
9830 27 0
9830 -28 0
-9831 27 -28 0
9831 -27 0
9831 28 0
-9832 -1045 5397 0
9832 1045 0
9832 -5397 0
-9833 1045 -5397 0
9833 -1045 0
9833 5397 0
-9834 -955 956 0
9834 955 0
9834 -956 0
-9835 955 -956 0
9835 -955 0
9835 956 0
-9836 -1327 5410 0
9836 1327 0
9836 -5410 0
-9837 1327 -5410 0
9837 -1327 0
9837 5410 0
-9838 -903 5439 0
9838 903 0
9838 -5439 0
-9839 903 -5439 0
9839 -903 0
9839 5439 0
-9840 -1335 5411 0
9840 1335 0
9840 -5411 0
-9841 1335 -5411 0
9841 -1335 0
9841 5411 0
-9842 -905 5440 0
9842 905 0
9842 -5440 0
-9843 905 -5440 0
9843 -905 0
9843 5440 0
-9844 -907 5441 0
9844 907 0
9844 -5441 0
-9845 907 -5441 0
9845 -907 0
9845 5441 0
-9846 -1089 5399 0
9846 1089 0
9846 -5399 0
-9847 1089 -5399 0
9847 -1089 0
9847 5399 0
-9848 -909 5442 0
9848 909 0
9848 -5442 0
-9849 909 -5442 0
9849 -909 0
9849 5442 0
-9850 -1097 5400 0
9850 1097 0
9850 -5400 0
-9851 1097 -5400 0
9851 -1097 0
9851 5400 0
-9852 -911 5443 0
9852 911 0
9852 -5443 0
-9853 911 -5443 0
9853 -911 0
9853 5443 0
-9854 -913 5444 0
9854 913 0
9854 -5444 0
-9855 913 -5444 0
9855 -913 0
9855 5444 0
-9856 -1363 5412 0
9856 1363 0
9856 -5412 0
-9857 1363 -5412 0
9857 -1363 0
9857 5412 0
-9858 -915 916 0
9858 915 0
9858 -916 0
-9859 915 -916 0
9859 -915 0
9859 916 0
-9860 -917 5445 0
9860 917 0
9860 -5445 0
-9861 917 -5445 0
9861 -917 0
9861 5445 0
-9862 -919 5446 0
9862 919 0
9862 -5446 0
-9863 919 -5446 0
9863 -919 0
9863 5446 0
-9864 -1125 5401 0
9864 1125 0
9864 -5401 0
-9865 1125 -5401 0
9865 -1125 0
9865 5401 0
-9866 -921 5447 0
9866 921 0
9866 -5447 0
-9867 921 -5447 0
9867 -921 0
9867 5447 0
-9868 -923 5448 0
9868 923 0
9868 -5448 0
-9869 923 -5448 0
9869 -923 0
9869 5448 0
-9870 -925 5449 0
9870 925 0
9870 -5449 0
-9871 925 -5449 0
9871 -925 0
9871 5449 0
-9872 -927 928 0
9872 927 0
9872 -928 0
-9873 927 -928 0
9873 -927 0
9873 928 0
-9874 -1169 5403 0
9874 1169 0
9874 -5403 0
-9875 1169 -5403 0
9875 -1169 0
9875 5403 0
-9876 -1177 5404 0
9876 1177 0
9876 -5404 0
-9877 1177 -5404 0
9877 -1177 0
9877 5404 0
-9878 -131 132 0
9878 131 0
9878 -132 0
-9879 131 -132 0
9879 -131 0
9879 132 0
-9880 -515 5450 0
9880 515 0
9880 -5450 0
-9881 515 -5450 0
9881 -515 0
9881 5450 0
-9882 -517 5451 0
9882 517 0
9882 -5451 0
-9883 517 -5451 0
9883 -517 0
9883 5451 0
-9884 -1205 5405 0
9884 1205 0
9884 -5405 0
-9885 1205 -5405 0
9885 -1205 0
9885 5405 0
-9886 -519 5452 0
9886 519 0
9886 -5452 0
-9887 519 -5452 0
9887 -519 0
9887 5452 0
-9888 -521 5453 0
9888 521 0
9888 -5453 0
-9889 521 -5453 0
9889 -521 0
9889 5453 0
-9890 -527 528 0
9890 527 0
9890 -528 0
-9891 527 -528 0
9891 -527 0
9891 528 0
-9892 -997 5457 0
9892 997 0
9892 -5457 0
-9893 997 -5457 0
9893 -997 0
9893 5457 0
-9894 -999 5458 0
9894 999 0
9894 -5458 0
-9895 999 -5458 0
9895 -999 0
9895 5458 0
-9896 -549 5462 0
9896 549 0
9896 -5462 0
-9897 549 -5462 0
9897 -549 0
9897 5462 0
-9898 -551 5463 0
9898 551 0
9898 -5463 0
-9899 551 -5463 0
9899 -551 0
9899 5463 0
-9900 -553 5464 0
9900 553 0
9900 -5464 0
-9901 553 -5464 0
9901 -553 0
9901 5464 0
-9902 -555 5465 0
9902 555 0
9902 -5465 0
-9903 555 -5465 0
9903 -555 0
9903 5465 0
-9904 -557 5466 0
9904 557 0
9904 -5466 0
-9905 557 -5466 0
9905 -557 0
9905 5466 0
-9906 -559 5467 0
9906 559 0
9906 -5467 0
-9907 559 -5467 0
9907 -559 0
9907 5467 0
-9908 -561 562 0
9908 561 0
9908 -562 0
-9909 561 -562 0
9909 -561 0
9909 562 0
-9910 -563 5468 0
9910 563 0
9910 -5468 0
-9911 563 -5468 0
9911 -563 0
9911 5468 0
-9912 -565 5469 0
9912 565 0
9912 -5469 0
-9913 565 -5469 0
9913 -565 0
9913 5469 0
-9914 -567 5470 0
9914 567 0
9914 -5470 0
-9915 567 -5470 0
9915 -567 0
9915 5470 0
-9916 -569 5471 0
9916 569 0
9916 -5471 0
-9917 569 -5471 0
9917 -569 0
9917 5471 0
-9918 -571 572 0
9918 571 0
9918 -572 0
-9919 571 -572 0
9919 -571 0
9919 572 0
-9920 -573 5472 0
9920 573 0
9920 -5472 0
-9921 573 -5472 0
9921 -573 0
9921 5472 0
-9922 -575 5473 0
9922 575 0
9922 -5473 0
-9923 575 -5473 0
9923 -575 0
9923 5473 0
-9924 -577 5474 0
9924 577 0
9924 -5474 0
-9925 577 -5474 0
9925 -577 0
9925 5474 0
-9926 -59 60 0
9926 59 0
9926 -60 0
-9927 59 -60 0
9927 -59 0
9927 60 0
-9928 -579 5475 0
9928 579 0
9928 -5475 0
-9929 579 -5475 0
9929 -579 0
9929 5475 0
-9930 -581 582 0
9930 581 0
9930 -582 0
-9931 581 -582 0
9931 -581 0
9931 582 0
-9932 -1077 5476 0
9932 1077 0
9932 -5476 0
-9933 1077 -5476 0
9933 -1077 0
9933 5476 0
-9934 -1079 5477 0
9934 1079 0
9934 -5477 0
-9935 1079 -5477 0
9935 -1079 0
9935 5477 0
-9936 -1407 5507 0
9936 1407 0
9936 -5507 0
-9937 1407 -5507 0
9937 -1407 0
9937 5507 0
-9938 -107 108 0
9938 107 0
9938 -108 0
-9939 107 -108 0
9939 -107 0
9939 108 0
-9940 -1157 5482 0
9940 1157 0
9940 -5482 0
-9941 1157 -5482 0
9941 -1157 0
9941 5482 0
-9942 -1159 5483 0
9942 1159 0
9942 -5483 0
-9943 1159 -5483 0
9943 -1159 0
9943 5483 0
-9944 -1315 5488 0
9944 1315 0
9944 -5488 0
-9945 1315 -5488 0
9945 -1315 0
9945 5488 0
-9946 -1317 5489 0
9946 1317 0
9946 -5489 0
-9947 1317 -5489 0
9947 -1317 0
9947 5489 0
-9948 -1237 5486 0
9948 1237 0
9948 -5486 0
-9949 1237 -5486 0
9949 -1237 0
9949 5486 0
-9950 -1239 5487 0
9950 1239 0
9950 -5487 0
-9951 1239 -5487 0
9951 -1239 0
9951 5487 0
-9952 -125 5340 0
9952 125 0
9952 -5340 0
-9953 125 -5340 0
9953 -125 0
9953 5340 0
-9954 -233 5328 0
9954 233 0
9954 -5328 0
-9955 233 -5328 0
9955 -233 0
9955 5328 0
-9956 -1251 5374 0
9956 1251 0
9956 -5374 0
-9957 1251 -5374 0
9957 -1251 0
9957 5374 0
-9958 -391 5334 0
9958 391 0
9958 -5334 0
-9959 391 -5334 0
9959 -391 0
9959 5334 0
-9960 -1579 5360 0
9960 1579 0
9960 -5360 0
-9961 1579 -5360 0
9961 -1579 0
9961 5360 0
-9962 -1519 5355 0
9962 1519 0
9962 -5355 0
-9963 1519 -5355 0
9963 -1519 0
9963 5355 0
-9964 -1329 5384 0
9964 1329 0
9964 -5384 0
-9965 1329 -5384 0
9965 -1329 0
9965 5384 0
-9966 -1457 5388 0
9966 1457 0
9966 -5388 0
-9967 1457 -5388 0
9967 -1457 0
9967 5388 0
-9968 -1527 5356 0
9968 1527 0
9968 -5356 0
-9969 1527 -5356 0
9969 -1527 0
9969 5356 0
-9970 -309 5345 0
9970 309 0
9970 -5345 0
-9971 309 -5345 0
9971 -309 0
9971 5345 0
-9972 -1793 5378 0
9972 1793 0
9972 -5378 0
-9973 1793 -5378 0
9973 -1793 0
9973 5378 0
-9974 -469 5350 0
9974 469 0
9974 -5350 0
-9975 469 -5350 0
9975 -469 0
9975 5350 0
-9976 -1625 5364 0
9976 1625 0
9976 -5364 0
-9977 1625 -5364 0
9977 -1625 0
9977 5364 0
-9978 -39 40 0
9978 39 0
9978 -40 0
-9979 39 -40 0
9979 -39 0
9979 40 0
-9980 -1253 5530 0
9980 1253 0
9980 -5530 0
-9981 1253 -5530 0
9981 -1253 0
9981 5530 0
-9982 -1331 5531 0
9982 1331 0
9982 -5531 0
-9983 1331 -5531 0
9983 -1331 0
9983 5531 0
-9984 -1013 5515 0
9984 1013 0
9984 -5515 0
-9985 1013 -5515 0
9985 -1013 0
9985 5515 0
-9986 -1411 4140 0
9986 1411 0
9986 -4140 0
-9987 1411 -4140 0
9987 -1411 0
9987 4140 0
-9988 -1093 5522 0
9988 1093 0
9988 -5522 0
-9989 1093 -5522 0
9989 -1093 0
9989 5522 0
-9990 -1173 5527 0
9990 1173 0
9990 -5527 0
-9991 1173 -5527 0
9991 -1173 0
9991 5527 0
-9992 -237 5587 0
9992 237 0
9992 -5587 0
-9993 237 -5587 0
9993 -237 0
9993 5587 0
-9994 -239 5588 0
9994 239 0
9994 -5588 0
-9995 239 -5588 0
9995 -239 0
9995 5588 0
-9996 -241 5589 0
9996 241 0
9996 -5589 0
-9997 241 -5589 0
9997 -241 0
9997 5589 0
-9998 -481 5593 0
9998 481 0
9998 -5593 0
-9999 481 -5593 0
9999 -481 0
9999 5593 0
-10000 -477 5591 0
10000 477 0
10000 -5591 0
-10001 477 -5591 0
10001 -477 0
10001 5591 0
-10002 -479 5592 0
10002 479 0
10002 -5592 0
-10003 479 -5592 0
10003 -479 0
10003 5592 0
-10004 -137 5595 0
10004 137 0
10004 -5595 0
-10005 137 -5595 0
10005 -137 0
10005 5595 0
-10006 -141 5596 0
10006 141 0
10006 -5596 0
-10007 141 -5596 0
10007 -141 0
10007 5596 0
-10008 -145 5597 0
10008 145 0
10008 -5597 0
-10009 145 -5597 0
10009 -145 0
10009 5597 0
-10010 -1059 5605 0
10010 1059 0
10010 -5605 0
-10011 1059 -5605 0
10011 -1059 0
10011 5605 0
-10012 -929 5631 0
10012 929 0
10012 -5631 0
-10013 929 -5631 0
10013 -929 0
10013 5631 0
-10014 -1139 5607 0
10014 1139 0
10014 -5607 0
-10015 1139 -5607 0
10015 -1139 0
10015 5607 0
-10016 -931 5632 0
10016 931 0
10016 -5632 0
-10017 931 -5632 0
10017 -931 0
10017 5632 0
-10018 -933 5633 0
10018 933 0
10018 -5633 0
-10019 933 -5633 0
10019 -933 0
10019 5633 0
-10020 -935 5634 0
10020 935 0
10020 -5634 0
-10021 935 -5634 0
10021 -935 0
10021 5634 0
-10022 -937 5635 0
10022 937 0
10022 -5635 0
-10023 937 -5635 0
10023 -937 0
10023 5635 0
-10024 -939 5636 0
10024 939 0
10024 -5636 0
-10025 939 -5636 0
10025 -939 0
10025 5636 0
-10026 -941 942 0
10026 941 0
10026 -942 0
-10027 941 -942 0
10027 -941 0
10027 942 0
-10028 -621 622 0
10028 621 0
10028 -622 0
-10029 621 -622 0
10029 -621 0
10029 622 0
-10030 -957 5637 0
10030 957 0
10030 -5637 0
-10031 957 -5637 0
10031 -957 0
10031 5637 0
-10032 -959 5638 0
10032 959 0
10032 -5638 0
-10033 959 -5638 0
10033 -959 0
10033 5638 0
-10034 -143 144 0
10034 143 0
10034 -144 0
-10035 143 -144 0
10035 -143 0
10035 144 0
-10036 -961 5639 0
10036 961 0
10036 -5639 0
-10037 961 -5639 0
10037 -961 0
10037 5639 0
-10038 -963 5640 0
10038 963 0
10038 -5640 0
-10039 963 -5640 0
10039 -963 0
10039 5640 0
-10040 -965 966 0
10040 965 0
10040 -966 0
-10041 965 -966 0
10041 -965 0
10041 966 0
-10042 -979 5642 0
10042 979 0
10042 -5642 0
-10043 979 -5642 0
10043 -979 0
10043 5642 0
-10044 -1753 5614 0
10044 1753 0
10044 -5614 0
-10045 1753 -5614 0
10045 -1753 0
10045 5614 0
-10046 -317 5643 0
10046 317 0
10046 -5643 0
-10047 317 -5643 0
10047 -317 0
10047 5643 0
-10048 -319 5644 0
10048 319 0
10048 -5644 0
-10049 319 -5644 0
10049 -319 0
10049 5644 0
-10050 -321 5645 0
10050 321 0
10050 -5645 0
-10051 321 -5645 0
10051 -321 0
10051 5645 0
-10052 -397 5647 0
10052 397 0
10052 -5647 0
-10053 397 -5647 0
10053 -397 0
10053 5647 0
-10054 -399 5648 0
10054 399 0
10054 -5648 0
-10055 399 -5648 0
10055 -399 0
10055 5648 0
-10056 -401 5649 0
10056 401 0
10056 -5649 0
-10057 401 -5649 0
10057 -401 0
10057 5649 0
-10058 -1439 5669 0
10058 1439 0
10058 -5669 0
-10059 1439 -5669 0
10059 -1439 0
10059 5669 0
-10060 -1707 5662 0
10060 1707 0
10060 -5662 0
-10061 1707 -5662 0
10061 -1707 0
10061 5662 0
-10062 -1743 5667 0
10062 1743 0
10062 -5667 0
-10063 1743 -5667 0
10063 -1743 0
10063 5667 0
-10064 -1729 5664 0
10064 1729 0
10064 -5664 0
-10065 1729 -5664 0
10065 -1729 0
10065 5664 0
-10066 -1219 5663 0
10066 1219 0
10066 -5663 0
-10067 1219 -5663 0
10067 -1219 0
10067 5663 0
-10068 -1731 5665 0
10068 1731 0
10068 -5665 0
-10069 1731 -5665 0
10069 -1731 0
10069 5665 0
-10070 -1737 5666 0
10070 1737 0
10070 -5666 0
-10071 1737 -5666 0
10071 -1737 0
10071 5666 0
-10072 -1611 5659 0
10072 1611 0
10072 -5659 0
-10073 1611 -5659 0
10073 -1611 0
10073 5659 0
-10074 -1551 5654 0
10074 1551 0
10074 -5654 0
-10075 1551 -5654 0
10075 -1551 0
10075 5654 0
-10076 -1297 5668 0
10076 1297 0
10076 -5668 0
-10077 1297 -5668 0
10077 -1297 0
10077 5668 0
-10078 -1559 5656 0
10078 1559 0
10078 -5656 0
-10079 1559 -5656 0
10079 -1559 0
10079 5656 0
-10080 -1497 5672 0
10080 1497 0
10080 -5672 0
-10081 1497 -5672 0
10081 -1497 0
10081 5672 0
-10082 -1255 5693 0
10082 1255 0
10082 -5693 0
-10083 1255 -5693 0
10083 -1255 0
10083 5693 0
-10084 -1015 5677 0
10084 1015 0
10084 -5677 0
-10085 1015 -5677 0
10085 -1015 0
10085 5677 0
-10086 -1333 5694 0
10086 1333 0
10086 -5694 0
-10087 1333 -5694 0
10087 -1333 0
10087 5694 0
-10088 -1095 5680 0
10088 1095 0
10088 -5680 0
-10089 1095 -5680 0
10089 -1095 0
10089 5680 0
-10090 -607 5682 0
10090 607 0
10090 -5682 0
-10091 607 -5682 0
10091 -607 0
10091 5682 0
-10092 -609 5683 0
10092 609 0
10092 -5683 0
-10093 609 -5683 0
10093 -609 0
10093 5683 0
-10094 -611 5684 0
10094 611 0
10094 -5684 0
-10095 611 -5684 0
10095 -611 0
10095 5684 0
-10096 -613 5685 0
10096 613 0
10096 -5685 0
-10097 613 -5685 0
10097 -613 0
10097 5685 0
-10098 -1175 5686 0
10098 1175 0
10098 -5686 0
-10099 1175 -5686 0
10099 -1175 0
10099 5686 0
-10100 -623 5688 0
10100 623 0
10100 -5688 0
-10101 623 -5688 0
10101 -623 0
10101 5688 0
-10102 -625 5689 0
10102 625 0
10102 -5689 0
-10103 625 -5689 0
10103 -625 0
10103 5689 0
-10104 -627 5690 0
10104 627 0
10104 -5690 0
-10105 627 -5690 0
10105 -627 0
10105 5690 0
-10106 -629 5691 0
10106 629 0
10106 -5691 0
-10107 629 -5691 0
10107 -629 0
10107 5691 0
-10108 -631 632 0
10108 631 0
10108 -632 0
-10109 631 -632 0
10109 -631 0
10109 632 0
-10110 -147 148 0
10110 147 0
10110 -148 0
-10111 147 -148 0
10111 -147 0
10111 148 0
-10112 -167 5761 0
10112 167 0
10112 -5761 0
-10113 167 -5761 0
10113 -167 0
10113 5761 0
-10114 -169 170 0
10114 169 0
10114 -170 0
-10115 169 -170 0
10115 -169 0
10115 170 0
-10116 -171 5762 0
10116 171 0
10116 -5762 0
-10117 171 -5762 0
10117 -171 0
10117 5762 0
-10118 -1265 5764 0
10118 1265 0
10118 -5764 0
-10119 1265 -5764 0
10119 -1265 0
10119 5764 0
-10120 -1533 5786 0
10120 1533 0
10120 -5786 0
-10121 1533 -5786 0
10121 -1533 0
10121 5786 0
-10122 -1025 5747 0
10122 1025 0
10122 -5747 0
-10123 1025 -5747 0
10123 -1025 0
10123 5747 0
-10124 -1289 5765 0
10124 1289 0
10124 -5765 0
-10125 1289 -5765 0
10125 -1289 0
10125 5765 0
-10126 -1051 5749 0
10126 1051 0
10126 -5749 0
-10127 1051 -5749 0
10127 -1051 0
10127 5749 0
-10128 -1577 5787 0
10128 1577 0
10128 -5787 0
-10129 1577 -5787 0
10129 -1577 0
10129 5787 0
-10130 -333 5788 0
10130 333 0
10130 -5788 0
-10131 333 -5788 0
10131 -333 0
10131 5788 0
-10132 -1591 5791 0
10132 1591 0
10132 -5791 0
-10133 1591 -5791 0
10133 -1591 0
10133 5791 0
-10134 -1343 5766 0
10134 1343 0
10134 -5766 0
-10135 1343 -5766 0
10135 -1343 0
10135 5766 0
-10136 -1105 5750 0
10136 1105 0
10136 -5750 0
-10137 1105 -5750 0
10137 -1105 0
10137 5750 0
-10138 -413 5799 0
10138 413 0
10138 -5799 0
-10139 413 -5799 0
10139 -413 0
10139 5799 0
-10140 -1635 5793 0
10140 1635 0
10140 -5793 0
-10141 1635 -5793 0
10141 -1635 0
10141 5793 0
-10142 -851 5796 0
10142 851 0
10142 -5796 0
-10143 851 -5796 0
10143 -851 0
10143 5796 0
-10144 -1131 5752 0
10144 1131 0
10144 -5752 0
-10145 1131 -5752 0
10145 -1131 0
10145 5752 0
-10146 -95 96 0
10146 95 0
10146 -96 0
-10147 95 -96 0
10147 -95 0
10147 96 0
-10148 -853 5797 0
10148 853 0
10148 -5797 0
-10149 853 -5797 0
10149 -853 0
10149 5797 0
-10150 -1675 4757 0
10150 1675 0
10150 -4757 0
-10151 1675 -4757 0
10151 -1675 0
10151 4757 0
-10152 -971 5802 0
10152 971 0
10152 -5802 0
-10153 971 -5802 0
10153 -971 0
10153 5802 0
-10154 -855 856 0
10154 855 0
10154 -856 0
-10155 855 -856 0
10155 -855 0
10155 856 0
-10156 -1471 5784 0
10156 1471 0
10156 -5784 0
-10157 1471 -5784 0
10157 -1471 0
10157 5784 0
-10158 -1185 5753 0
10158 1185 0
10158 -5753 0
-10159 1185 -5753 0
10159 -1185 0
10159 5753 0
-10160 -847 5794 0
10160 847 0
10160 -5794 0
-10161 847 -5794 0
10161 -847 0
10161 5794 0
-10162 -849 5795 0
10162 849 0
10162 -5795 0
-10163 849 -5795 0
10163 -849 0
10163 5795 0
-10164 -1211 5755 0
10164 1211 0
10164 -5755 0
-10165 1211 -5755 0
10165 -1211 0
10165 5755 0
-10166 -633 5756 0
10166 633 0
10166 -5756 0
-10167 633 -5756 0
10167 -633 0
10167 5756 0
-10168 -635 5757 0
10168 635 0
10168 -5757 0
-10169 635 -5757 0
10169 -635 0
10169 5757 0
-10170 -637 5758 0
10170 637 0
10170 -5758 0
-10171 637 -5758 0
10171 -637 0
10171 5758 0
-10172 -639 5759 0
10172 639 0
10172 -5759 0
-10173 639 -5759 0
10173 -639 0
10173 5759 0
-10174 -641 5760 0
10174 641 0
10174 -5760 0
-10175 641 -5760 0
10175 -641 0
10175 5760 0
-10176 -643 644 0
10176 643 0
10176 -644 0
-10177 643 -644 0
10177 -643 0
10177 644 0
-10178 -647 5817 0
10178 647 0
10178 -5817 0
-10179 647 -5817 0
10179 -647 0
10179 5817 0
-10180 -649 5818 0
10180 649 0
10180 -5818 0
-10181 649 -5818 0
10181 -649 0
10181 5818 0
-10182 -651 5819 0
10182 651 0
10182 -5819 0
-10183 651 -5819 0
10183 -651 0
10183 5819 0
-10184 -653 654 0
10184 653 0
10184 -654 0
-10185 653 -654 0
10185 -653 0
10185 654 0
-10186 -177 5820 0
10186 177 0
10186 -5820 0
-10187 177 -5820 0
10187 -177 0
10187 5820 0
-10188 -179 180 0
10188 179 0
10188 -180 0
-10189 179 -180 0
10189 -179 0
10189 180 0
-10190 -181 182 0
10190 181 0
10190 -182 0
-10191 181 -182 0
10191 -181 0
10191 182 0
-10192 -10193 5821 0
10192 10193 0
10192 -5821 0
-10194 10193 -5821 0
10194 -10193 0
10194 5821 0
-10195 -1271 5822 0
10195 1271 0
10195 -5822 0
-10196 1271 -5822 0
10196 -1271 0
10196 5822 0
-10197 -419 5823 0
10197 419 0
10197 -5823 0
-10198 419 -5823 0
10198 -419 0
10198 5823 0
-10199 -1537 5804 0
10199 1537 0
10199 -5804 0
-10200 1537 -5804 0
10200 -1537 0
10200 5804 0
-10201 -1031 5805 0
10201 1031 0
10201 -5805 0
-10202 1031 -5805 0
10202 -1031 0
10202 5805 0
-10203 -421 422 0
10203 421 0
10203 -422 0
-10204 421 -422 0
10204 -421 0
10204 422 0
-10205 -417 5829 0
10205 417 0
10205 -5829 0
-10206 417 -5829 0
10206 -417 0
10206 5829 0
-10207 -337 5807 0
10207 337 0
10207 -5807 0
-10208 337 -5807 0
10208 -337 0
10208 5807 0
-10209 -339 5808 0
10209 339 0
10209 -5808 0
-10210 339 -5808 0
10210 -339 0
10210 5808 0
-10211 -341 342 0
10211 341 0
10211 -342 0
-10212 341 -342 0
10212 -341 0
10212 342 0
-10213 -1589 5809 0
10213 1589 0
10213 -5809 0
-10214 1589 -5809 0
10214 -1589 0
10214 5809 0
-10215 -1595 5810 0
10215 1595 0
10215 -5810 0
-10216 1595 -5810 0
10216 -1595 0
10216 5810 0
-10217 -1349 5830 0
10217 1349 0
10217 -5830 0
-10218 1349 -5830 0
10218 -1349 0
10218 5830 0
-10219 -1111 5811 0
10219 1111 0
10219 -5811 0
-10220 1111 -5811 0
10220 -1111 0
10220 5811 0
-10221 -1639 5813 0
10221 1639 0
10221 -5813 0
-10222 1639 -5813 0
10222 -1639 0
10222 5813 0
-10223 -495 5831 0
10223 495 0
10223 -5831 0
-10224 495 -5831 0
10224 -495 0
10224 5831 0
-10225 -497 5832 0
10225 497 0
10225 -5832 0
-10226 497 -5832 0
10226 -497 0
10226 5832 0
-10227 -499 5833 0
10227 499 0
10227 -5833 0
-10228 499 -5833 0
10228 -499 0
10228 5833 0
-10229 -501 502 0
10229 501 0
10229 -502 0
-10230 501 -502 0
10230 -501 0
10230 502 0
-10231 -255 5834 0
10231 255 0
10231 -5834 0
-10232 255 -5834 0
10232 -255 0
10232 5834 0
-10233 -257 5835 0
10233 257 0
10233 -5835 0
-10234 257 -5835 0
10234 -257 0
10234 5835 0
-10235 -259 5836 0
10235 259 0
10235 -5836 0
-10236 259 -5836 0
10236 -259 0
10236 5836 0
-10237 -261 262 0
10237 261 0
10237 -262 0
-10238 261 -262 0
10238 -261 0
10238 262 0
-10239 -1191 5814 0
10239 1191 0
10239 -5814 0
-10240 1191 -5814 0
10240 -1191 0
10240 5814 0
-10241 -1477 5838 0
10241 1477 0
10241 -5838 0
-10242 1477 -5838 0
10242 -1477 0
10242 5838 0
-10243 -645 5816 0
10243 645 0
10243 -5816 0
-10244 645 -5816 0
10244 -645 0
10244 5816 0
-10245 -1629 5721 0
10245 1629 0
10245 -5721 0
-10246 1629 -5721 0
10246 -1629 0
10246 5721 0
-10247 -1583 5720 0
10247 1583 0
10247 -5720 0
-10248 1583 -5720 0
10248 -1583 0
10248 5720 0
-10249 -1523 5715 0
10249 1523 0
10249 -5715 0
-10250 1523 -5715 0
10250 -1523 0
10250 5715 0
-10251 -1461 5740 0
10251 1461 0
10251 -5740 0
-10252 1461 -5740 0
10252 -1461 0
10252 5740 0
-10253 -1555 5718 0
10253 1555 0
10253 -5718 0
-10254 1555 -5718 0
10254 -1555 0
10254 5718 0
-10255 -617 5850 0
10255 617 0
10255 -5850 0
-10256 617 -5850 0
10256 -617 0
10256 5850 0
-10257 -175 5763 0
10257 175 0
10257 -5763 0
-10258 175 -5763 0
10258 -175 0
10258 5763 0
-10259 -335 5790 0
10259 335 0
10259 -5790 0
-10260 335 -5790 0
10260 -335 0
10260 5790 0
-10261 -493 5880 0
10261 493 0
10261 -5880 0
-10262 493 -5880 0
10262 -493 0
10262 5880 0
-10263 -253 5881 0
10263 253 0
10263 -5881 0
-10264 253 -5881 0
10264 -253 0
10264 5881 0
-10265 -415 5800 0
10265 415 0
10265 -5800 0
-10266 415 -5800 0
10266 -415 0
10266 5800 0
-10267 -1569 5559 0
10267 1569 0
10267 -5559 0
-10268 1569 -5559 0
10268 -1569 0
10268 5559 0
-10269 -1507 5552 0
10269 1507 0
10269 -5552 0
-10270 1507 -5552 0
10270 -1507 0
10270 5552 0
-10271 -1511 5554 0
10271 1511 0
10271 -5554 0
-10272 1511 -5554 0
10272 -1511 0
10272 5554 0
-10273 -1447 5584 0
10273 1447 0
10273 -5584 0
-10274 1447 -5584 0
10274 -1447 0
10274 5584 0
-10275 -953 5321 0
10275 953 0
10275 -5321 0
-10276 953 -5321 0
10276 -953 0
10276 5321 0
-10277 -523 5454 0
10277 523 0
10277 -5454 0
-10278 523 -5454 0
10278 -523 0
10278 5454 0
-10279 -525 5585 0
10279 525 0
10279 -5585 0
-10280 525 -5585 0
10280 -525 0
10280 5585 0
-10281 -1619 5560 0
10281 1619 0
10281 -5560 0
-10282 1619 -5560 0
10282 -1619 0
10282 5560 0
-10283 -1309 5902 0
10283 1309 0
10283 -5902 0
-10284 1309 -5902 0
10284 -1309 0
10284 5902 0
-10285 -991 5884 0
10285 991 0
10285 -5884 0
-10286 991 -5884 0
10286 -991 0
10286 5884 0
-10287 -47 48 0
10287 47 0
10287 -48 0
-10288 47 -48 0
10288 -47 0
10288 48 0
-10289 -1071 5891 0
10289 1071 0
10289 -5891 0
-10290 1071 -5891 0
10290 -1071 0
10290 5891 0
-10291 -1151 5893 0
10291 1151 0
10291 -5893 0
-10292 1151 -5893 0
10292 -1151 0
10292 5893 0
-10293 -1231 5900 0
10293 1231 0
10293 -5900 0
-10294 1231 -5900 0
10294 -1231 0
10294 5900 0
-10295 -615 5687 0
10295 615 0
10295 -5687 0
-10296 615 -5687 0
10296 -615 0
10296 5687 0
-10297 -1751 5901 0
10297 1751 0
10297 -5901 0
-10298 1751 -5901 0
10298 -1751 0
10298 5901 0
-10299 -619 5852 0
10299 619 0
10299 -5852 0
-10300 619 -5852 0
10300 -619 0
10300 5852 0
-10301 -5 5966 0
10301 5 0
10301 -5966 0
-10302 5 -5966 0
10302 -5 0
10302 5966 0
-10303 -9 5967 0
10303 9 0
10303 -5967 0
-10304 9 -5967 0
10304 -9 0
10304 5967 0
-10305 -13 5968 0
10305 13 0
10305 -5968 0
-10306 13 -5968 0
10306 -13 0
10306 5968 0
-10307 -17 5969 0
10307 17 0
10307 -5969 0
-10308 17 -5969 0
10308 -17 0
10308 5969 0
-10309 -1273 5977 0
10309 1273 0
10309 -5977 0
-10310 1273 -5977 0
10310 -1273 0
10310 5977 0
-10311 -21 5970 0
10311 21 0
10311 -5970 0
-10312 21 -5970 0
10312 -21 0
10312 5970 0
-10313 -23 24 0
10313 23 0
10313 -24 0
-10314 23 -24 0
10314 -23 0
10314 24 0
-10315 -25 26 0
10315 25 0
10315 -26 0
-10316 25 -26 0
10316 -25 0
10316 26 0
-10317 -1539 5990 0
10317 1539 0
10317 -5990 0
-10318 1539 -5990 0
10318 -1539 0
10318 5990 0
-10319 -1033 5971 0
10319 1033 0
10319 -5971 0
-10320 1033 -5971 0
10320 -1033 0
10320 5971 0
-10321 -325 5992 0
10321 325 0
10321 -5992 0
-10322 325 -5992 0
10322 -325 0
10322 5992 0
-10323 -327 5993 0
10323 327 0
10323 -5993 0
-10324 327 -5993 0
10324 -327 0
10324 5993 0
-10325 -1597 5997 0
10325 1597 0
10325 -5997 0
-10326 1597 -5997 0
10326 -1597 0
10326 5997 0
-10327 -1351 5978 0
10327 1351 0
10327 -5978 0
-10328 1351 -5978 0
10328 -1351 0
10328 5978 0
-10329 -1113 5972 0
10329 1113 0
10329 -5972 0
-10330 1113 -5972 0
10330 -1113 0
10330 5972 0
-10331 -811 812 0
10331 811 0
10331 -812 0
-10332 811 -812 0
10332 -811 0
10332 812 0
-10333 -485 6007 0
10333 485 0
10333 -6007 0
-10334 485 -6007 0
10334 -485 0
10334 6007 0
-10335 -1641 5999 0
10335 1641 0
10335 -5999 0
-10336 1641 -5999 0
10336 -1641 0
10336 5999 0
-10337 -487 6008 0
10337 487 0
10337 -6008 0
-10338 487 -6008 0
10338 -487 0
10338 6008 0
-10339 -245 5983 0
10339 245 0
10339 -5983 0
-10340 245 -5983 0
10340 -245 0
10340 5983 0
-10341 -247 5984 0
10341 247 0
10341 -5984 0
-10342 247 -5984 0
10342 -247 0
10342 5984 0
-10343 -1415 5986 0
10343 1415 0
10343 -5986 0
-10344 1415 -5986 0
10344 -1415 0
10344 5986 0
-10345 -1421 4147 0
10345 1421 0
10345 -4147 0
-10346 1421 -4147 0
10346 -1421 0
10346 4147 0
-10347 -503 6010 0
10347 503 0
10347 -6010 0
-10348 503 -6010 0
10348 -503 0
10348 6010 0
-10349 -505 6011 0
10349 505 0
10349 -6011 0
-10350 505 -6011 0
10350 -505 0
10350 6011 0
-10351 -507 6012 0
10351 507 0
10351 -6012 0
-10352 507 -6012 0
10352 -507 0
10352 6012 0
-10353 -509 6013 0
10353 509 0
10353 -6013 0
-10354 509 -6013 0
10354 -509 0
10354 6013 0
-10355 -511 6014 0
10355 511 0
10355 -6014 0
-10356 511 -6014 0
10356 -511 0
10356 6014 0
-10357 -513 514 0
10357 513 0
10357 -514 0
-10358 513 -514 0
10358 -513 0
10358 514 0
-10359 -1193 5973 0
10359 1193 0
10359 -5973 0
-10360 1193 -5973 0
10360 -1193 0
10360 5973 0
-10361 -405 6004 0
10361 405 0
10361 -6004 0
-10362 405 -6004 0
10362 -405 0
10362 6004 0
-10363 -407 6005 0
10363 407 0
10363 -6005 0
-10364 407 -6005 0
10364 -407 0
10364 6005 0
-10365 -153 5974 0
10365 153 0
10365 -5974 0
-10366 153 -5974 0
10366 -153 0
10366 5974 0
-10367 -1479 5988 0
10367 1479 0
10367 -5988 0
-10368 1479 -5988 0
10368 -1479 0
10368 5988 0
-10369 -157 5975 0
10369 157 0
10369 -5975 0
-10370 157 -5975 0
10370 -157 0
10370 5975 0
-10371 -165 166 0
10371 165 0
10371 -166 0
-10372 165 -166 0
10372 -165 0
10372 166 0
-10373 -1001 6018 0
10373 1001 0
10373 -6018 0
-10374 1001 -6018 0
10374 -1001 0
10374 6018 0
-10375 -871 6046 0
10375 871 0
10375 -6046 0
-10376 871 -6046 0
10376 -871 0
10376 6046 0
-10377 -873 6047 0
10377 873 0
10377 -6047 0
-10378 873 -6047 0
10378 -873 0
10378 6047 0
-10379 -875 6048 0
10379 875 0
10379 -6048 0
-10380 875 -6048 0
10380 -875 0
10380 6048 0
-10381 -877 6049 0
10381 877 0
10381 -6049 0
-10382 877 -6049 0
10382 -877 0
10382 6049 0
-10383 -1277 6050 0
10383 1277 0
10383 -6050 0
-10384 1277 -6050 0
10384 -1277 0
10384 6050 0
-10385 -879 880 0
10385 879 0
10385 -880 0
-10386 879 -880 0
10386 -879 0
10386 880 0
-10387 -1543 6023 0
10387 1543 0
10387 -6023 0
-10388 1543 -6023 0
10388 -1543 0
10388 6023 0
-10389 -1037 6024 0
10389 1037 0
10389 -6024 0
-10390 1037 -6024 0
10390 -1037 0
10390 6024 0
-10391 -1319 6052 0
10391 1319 0
10391 -6052 0
-10392 1319 -6052 0
10392 -1319 0
10392 6052 0
-10393 -1601 6027 0
10393 1601 0
10393 -6027 0
-10394 1601 -6027 0
10394 -1601 0
10394 6027 0
-10395 -801 6028 0
10395 801 0
10395 -6028 0
-10396 801 -6028 0
10396 -801 0
10396 6028 0
-10397 -803 6029 0
10397 803 0
10397 -6029 0
-10398 803 -6029 0
10398 -803 0
10398 6029 0
-10399 -805 6030 0
10399 805 0
10399 -6030 0
-10400 805 -6030 0
10400 -805 0
10400 6030 0
-10401 -807 6031 0
10401 807 0
10401 -6031 0
-10402 807 -6031 0
10402 -807 0
10402 6031 0
-10403 -1355 6053 0
10403 1355 0
10403 -6053 0
-10404 1355 -6053 0
10404 -1355 0
10404 6053 0
-10405 -1117 6032 0
10405 1117 0
10405 -6032 0
-10406 1117 -6032 0
10406 -1117 0
10406 6032 0
-10407 -813 6035 0
10407 813 0
10407 -6035 0
-10408 813 -6035 0
10408 -813 0
10408 6035 0
-10409 -815 6036 0
10409 815 0
10409 -6036 0
-10410 815 -6036 0
10410 -815 0
10410 6036 0
-10411 -817 6037 0
10411 817 0
10411 -6037 0
-10412 817 -6037 0
10412 -817 0
10412 6037 0
-10413 -819 6038 0
10413 819 0
10413 -6038 0
-10414 819 -6038 0
10414 -819 0
10414 6038 0
-10415 -821 6039 0
10415 821 0
10415 -6039 0
-10416 821 -6039 0
10416 -821 0
10416 6039 0
-10417 -823 824 0
10417 823 0
10417 -824 0
-10418 823 -824 0
10418 -823 0
10418 824 0
-10419 -1645 6051 0
10419 1645 0
10419 -6051 0
-10420 1645 -6051 0
10420 -1645 0
10420 6051 0
-10421 -1667 4747 0
10421 1667 0
10421 -4747 0
-10422 1667 -4747 0
10422 -1667 0
10422 4747 0
-10423 -1161 6040 0
10423 1161 0
10423 -6040 0
-10424 1161 -6040 0
10424 -1161 0
10424 6040 0
-10425 -115 116 0
10425 115 0
10425 -116 0
-10426 115 -116 0
10426 -115 0
10426 116 0
-10427 -1197 6041 0
10427 1197 0
10427 -6041 0
-10428 1197 -6041 0
10428 -1197 0
10428 6041 0
-10429 -1483 6071 0
10429 1483 0
10429 -6071 0
-10430 1483 -6071 0
10430 -1483 0
10430 6071 0
-10431 -1241 6045 0
10431 1241 0
10431 -6045 0
-10432 1241 -6045 0
10432 -1241 0
10432 6045 0
-10433 -1243 5936 0
10433 1243 0
10433 -5936 0
-10434 1243 -5936 0
10434 -1243 0
10434 5936 0
-10435 -1755 5937 0
10435 1755 0
10435 -5937 0
-10436 1755 -5937 0
10436 -1755 0
10436 5937 0
-10437 -1759 5938 0
10437 1759 0
10437 -5938 0
-10438 1759 -5938 0
10438 -1759 0
10438 5938 0
-10439 -1765 5939 0
10439 1765 0
10439 -5939 0
-10440 1765 -5939 0
10440 -1765 0
10440 5939 0
-10441 -1769 5940 0
10441 1769 0
10441 -5940 0
-10442 1769 -5940 0
10442 -1769 0
10442 5940 0
-10443 -1003 5922 0
10443 1003 0
10443 -5922 0
-10444 1003 -5922 0
10444 -1003 0
10444 5922 0
-10445 -1777 5941 0
10445 1777 0
10445 -5941 0
-10446 1777 -5941 0
10446 -1777 0
10446 5941 0
-10447 -1779 5942 0
10447 1779 0
10447 -5942 0
-10448 1779 -5942 0
10448 -1779 0
10448 5942 0
-10449 -1525 5926 0
10449 1525 0
10449 -5926 0
-10450 1525 -5926 0
10450 -1525 0
10450 5926 0
-10451 -1781 5943 0
10451 1781 0
10451 -5943 0
-10452 1781 -5943 0
10452 -1781 0
10452 5943 0
-10453 -1785 5944 0
10453 1785 0
10453 -5944 0
-10454 1785 -5944 0
10454 -1785 0
10454 5944 0
-10455 -1789 5945 0
10455 1789 0
10455 -5945 0
-10456 1789 -5945 0
10456 -1789 0
10456 5945 0
-10457 -315 5298 0
10457 315 0
10457 -5298 0
-10458 315 -5298 0
10458 -315 0
10458 5298 0
-10459 -1803 5946 0
10459 1803 0
10459 -5946 0
-10460 1803 -5946 0
10460 -1803 0
10460 5946 0
-10461 -1321 5947 0
10461 1321 0
10461 -5947 0
-10462 1321 -5947 0
10462 -1321 0
10462 5947 0
-10463 -1585 5928 0
10463 1585 0
10463 -5928 0
-10464 1585 -5928 0
10464 -1585 0
10464 5928 0
-10465 -1083 5929 0
10465 1083 0
10465 -5929 0
-10466 1083 -5929 0
10466 -1083 0
10466 5929 0
-10467 -475 5318 0
10467 475 0
10467 -5318 0
-10468 475 -5318 0
10468 -475 0
10468 5318 0
-10469 -1631 5930 0
10469 1631 0
10469 -5930 0
-10470 1631 -5930 0
10470 -1631 0
10470 5930 0
-10471 -235 5385 0
10471 235 0
10471 -5385 0
-10472 235 -5385 0
10472 -235 0
10472 5385 0
-10473 -1163 5932 0
10473 1163 0
10473 -5932 0
-10474 1163 -5932 0
10474 -1163 0
10474 5932 0
-10475 -133 5302 0
10475 133 0
10475 -5302 0
-10476 133 -5302 0
10476 -133 0
10476 5302 0
-10477 -395 5304 0
10477 395 0
10477 -5304 0
-10478 395 -5304 0
10478 -395 0
10478 5304 0
-10479 -1465 5964 0
10479 1465 0
10479 -5964 0
-10480 1465 -5964 0
10480 -1465 0
10480 5964 0
-10481 -1727 5934 0
10481 1727 0
10481 -5934 0
-10482 1727 -5934 0
10482 -1727 0
10482 5934 0
-10483 -151 152 0
10483 151 0
10483 -152 0
-10484 151 -152 0
10484 -151 0
10484 152 0
-10485 -1735 5935 0
10485 1735 0
10485 -5935 0
-10486 1735 -5935 0
10486 -1735 0
10486 5935 0
-10487 -83 84 0
10487 83 0
10487 -84 0
-10488 83 -84 0
10488 -83 0
10488 84 0
-10489 -329 5995 0
10489 329 0
10489 -5995 0
-10490 329 -5995 0
10490 -329 0
10490 5995 0
-10491 -489 6009 0
10491 489 0
10491 -6009 0
-10492 489 -6009 0
10492 -489 0
10492 6009 0
-10493 -1019 6076 0
10493 1019 0
10493 -6076 0
-10494 1019 -6076 0
10494 -1019 0
10494 6076 0
-10495 -249 5985 0
10495 249 0
10495 -5985 0
-10496 249 -5985 0
10496 -249 0
10496 5985 0
-10497 -409 6006 0
10497 409 0
10497 -6006 0
-10498 409 -6006 0
10498 -409 0
10498 6006 0
-10499 -1099 6080 0
10499 1099 0
10499 -6080 0
-10500 1099 -6080 0
10500 -1099 0
10500 6080 0
-10501 -161 5976 0
10501 161 0
10501 -5976 0
-10502 161 -5976 0
10502 -161 0
10502 5976 0
-10503 -809 6033 0
10503 809 0
10503 -6033 0
-10504 809 -6033 0
10504 -809 0
10504 6033 0
-10505 -987 6139 0
10505 987 0
10505 -6139 0
-10506 987 -6139 0
10506 -987 0
10506 6139 0
-10507 -867 6145 0
10507 867 0
10507 -6145 0
-10508 867 -6145 0
10508 -867 0
10508 6145 0
-10509 -869 870 0
10509 869 0
10509 -870 0
-10510 869 -870 0
10510 -869 0
10510 870 0
-10511 -1305 6147 0
10511 1305 0
10511 -6147 0
-10512 1305 -6147 0
10512 -1305 0
10512 6147 0
-10513 -787 788 0
10513 787 0
10513 -788 0
-10514 787 -788 0
10514 -787 0
10514 788 0
-10515 -1067 6140 0
10515 1067 0
10515 -6140 0
-10516 1067 -6140 0
10516 -1067 0
10516 6140 0
-10517 -103 104 0
10517 103 0
10517 -104 0
-10518 103 -104 0
10518 -103 0
10518 104 0
-10519 -857 6141 0
10519 857 0
10519 -6141 0
-10520 857 -6141 0
10520 -857 0
10520 6141 0
-10521 -859 6142 0
10521 859 0
10521 -6142 0
-10522 859 -6142 0
10522 -859 0
10522 6142 0
-10523 -861 6143 0
10523 861 0
10523 -6143 0
-10524 861 -6143 0
10524 -861 0
10524 6143 0
-10525 -863 6144 0
10525 863 0
10525 -6144 0
-10526 863 -6144 0
10526 -863 0
10526 6144 0
-10527 -865 6146 0
10527 865 0
10527 -6146 0
-10528 865 -6146 0
10528 -865 0
10528 6146 0
-10529 -217 6148 0
10529 217 0
10529 -6148 0
-10530 217 -6148 0
10530 -217 0
10530 6148 0
-10531 -593 594 0
10531 593 0
10531 -594 0
-10532 593 -594 0
10532 -593 0
10532 594 0
-10533 -583 6150 0
10533 583 0
10533 -6150 0
-10534 583 -6150 0
10534 -583 0
10534 6150 0
-10535 -585 6151 0
10535 585 0
10535 -6151 0
-10536 585 -6151 0
10536 -585 0
10536 6151 0
-10537 -587 6152 0
10537 587 0
10537 -6152 0
-10538 587 -6152 0
10538 -587 0
10538 6152 0
-10539 -589 6153 0
10539 589 0
10539 -6153 0
-10540 589 -6153 0
10540 -589 0
10540 6153 0
-10541 -591 6154 0
10541 591 0
10541 -6154 0
-10542 591 -6154 0
10542 -591 0
10542 6154 0
-10543 -43 44 0
10543 43 0
10543 -44 0
-10544 43 -44 0
10544 -43 0
10544 44 0
-10545 -1767 6170 0
10545 1767 0
10545 -6170 0
-10546 1767 -6170 0
10546 -1767 0
10546 6170 0
-10547 -1129 6163 0
10547 1129 0
10547 -6163 0
-10548 1129 -6163 0
10548 -1129 0
10548 6163 0
-10549 -1775 6171 0
10549 1775 0
10549 -6171 0
-10550 1775 -6171 0
10550 -1775 0
10550 6171 0
-10551 -1783 6172 0
10551 1783 0
10551 -6172 0
-10552 1783 -6172 0
10552 -1783 0
10552 6172 0
-10553 -1209 6166 0
10553 1209 0
10553 -6166 0
-10554 1209 -6166 0
10554 -1209 0
10554 6166 0
-10555 -1147 6164 0
10555 1147 0
10555 -6164 0
-10556 1147 -6164 0
10556 -1147 0
10556 6164 0
-10557 -969 6196 0
10557 969 0
10557 -6196 0
-10558 969 -6196 0
10558 -969 0
10558 6196 0
-10559 -1797 6174 0
10559 1797 0
10559 -6174 0
-10560 1797 -6174 0
10560 -1797 0
10560 6174 0
-10561 -1287 6173 0
10561 1287 0
10561 -6173 0
-10562 1287 -6173 0
10562 -1287 0
10562 6173 0
-10563 -1227 6167 0
10563 1227 0
10563 -6167 0
-10564 1227 -6167 0
10564 -1227 0
10564 6167 0
-10565 -1049 6161 0
10565 1049 0
10565 -6161 0
-10566 1049 -6161 0
10566 -1049 0
10566 6161 0
-10567 -993 6197 0
10567 993 0
10567 -6197 0
-10568 993 -6197 0
10568 -993 0
10568 6197 0
-10569 -655 6213 0
10569 655 0
10569 -6213 0
-10570 655 -6213 0
10570 -655 0
10570 6213 0
-10571 -657 6214 0
10571 657 0
10571 -6214 0
-10572 657 -6214 0
10572 -657 0
10572 6214 0
-10573 -659 6215 0
10573 659 0
10573 -6215 0
-10574 659 -6215 0
10574 -659 0
10574 6215 0
-10575 -661 6216 0
10575 661 0
10575 -6216 0
-10576 661 -6216 0
10576 -661 0
10576 6216 0
-10577 -663 6217 0
10577 663 0
10577 -6217 0
-10578 663 -6217 0
10578 -663 0
10578 6217 0
-10579 -669 6219 0
10579 669 0
10579 -6219 0
-10580 669 -6219 0
10580 -669 0
10580 6219 0
-10581 -671 6220 0
10581 671 0
10581 -6220 0
-10582 671 -6220 0
10582 -671 0
10582 6220 0
-10583 -673 6221 0
10583 673 0
10583 -6221 0
-10584 673 -6221 0
10584 -673 0
10584 6221 0
-10585 -675 6222 0
10585 675 0
10585 -6222 0
-10586 675 -6222 0
10586 -675 0
10586 6222 0
-10587 -677 678 0
10587 677 0
10587 -678 0
-10588 677 -678 0
10588 -677 0
10588 678 0
-10589 -1301 6223 0
10589 1301 0
10589 -6223 0
-10590 1301 -6223 0
10590 -1301 0
10590 6223 0
-10591 -1063 6204 0
10591 1063 0
10591 -6204 0
-10592 1063 -6204 0
10592 -1063 0
10592 6204 0
-10593 -1311 6224 0
10593 1311 0
10593 -6224 0
-10594 1311 -6224 0
10594 -1311 0
10594 6224 0
-10595 -679 6225 0
10595 679 0
10595 -6225 0
-10596 679 -6225 0
10596 -679 0
10596 6225 0
-10597 -681 6226 0
10597 681 0
10597 -6226 0
-10598 681 -6226 0
10598 -681 0
10598 6226 0
-10599 -1073 6205 0
10599 1073 0
10599 -6205 0
-10600 1073 -6205 0
10600 -1073 0
10600 6205 0
-10601 -683 6227 0
10601 683 0
10601 -6227 0
-10602 683 -6227 0
10602 -683 0
10602 6227 0
-10603 -685 6228 0
10603 685 0
10603 -6228 0
-10604 685 -6228 0
10604 -685 0
10604 6228 0
-10605 -687 688 0
10605 687 0
10605 -688 0
-10606 687 -688 0
10606 -687 0
10606 688 0
-10607 -75 76 0
10607 75 0
10607 -76 0
-10608 75 -76 0
10608 -75 0
10608 76 0
-10609 -1143 6207 0
10609 1143 0
10609 -6207 0
-10610 1143 -6207 0
10610 -1143 0
10610 6207 0
-10611 -1153 6208 0
10611 1153 0
10611 -6208 0
-10612 1153 -6208 0
10612 -1153 0
10612 6208 0
-10613 -1671 6209 0
10613 1671 0
10613 -6209 0
-10614 1671 -6209 0
10614 -1671 0
10614 6209 0
-10615 -139 140 0
10615 139 0
10615 -140 0
-10616 139 -140 0
10616 -139 0
10616 140 0
-10617 -1223 6211 0
10617 1223 0
10617 -6211 0
-10618 1223 -6211 0
10618 -1223 0
10618 6211 0
-10619 -1233 6212 0
10619 1233 0
10619 -6212 0
-10620 1233 -6212 0
10620 -1233 0
10620 6212 0
-10621 -983 6246 0
10621 983 0
10621 -6246 0
-10622 983 -6246 0
10622 -983 0
10622 6246 0
-10623 -41 6280 0
10623 41 0
10623 -6280 0
-10624 41 -6280 0
10624 -41 0
10624 6280 0
-10625 -45 6281 0
10625 45 0
10625 -6281 0
-10626 45 -6281 0
10626 -45 0
10626 6281 0
-10627 -29 6277 0
10627 29 0
10627 -6277 0
-10628 29 -6277 0
10628 -29 0
10628 6277 0
-10629 -33 6278 0
10629 33 0
10629 -6278 0
-10630 33 -6278 0
10630 -33 0
10630 6278 0
-10631 -37 6279 0
10631 37 0
10631 -6279 0
-10632 37 -6279 0
10632 -37 0
10632 6279 0
-10633 -183 6283 0
10633 183 0
10633 -6283 0
-10634 183 -6283 0
10634 -183 0
10634 6283 0
-10635 -185 6284 0
10635 185 0
10635 -6284 0
-10636 185 -6284 0
10636 -185 0
10636 6284 0
-10637 -187 6285 0
10637 187 0
10637 -6285 0
-10638 187 -6285 0
10638 -187 0
10638 6285 0
-10639 -189 6286 0
10639 189 0
10639 -6286 0
-10640 189 -6286 0
10640 -189 0
10640 6286 0
-10641 -191 6287 0
10641 191 0
10641 -6287 0
-10642 191 -6287 0
10642 -191 0
10642 6287 0
-10643 -343 6289 0
10643 343 0
10643 -6289 0
-10644 343 -6289 0
10644 -343 0
10644 6289 0
-10645 -345 6290 0
10645 345 0
10645 -6290 0
-10646 345 -6290 0
10646 -345 0
10646 6290 0
-10647 -347 6291 0
10647 347 0
10647 -6291 0
-10648 347 -6291 0
10648 -347 0
10648 6291 0
-10649 -349 6292 0
10649 349 0
10649 -6292 0
-10650 349 -6292 0
10650 -349 0
10650 6292 0
-10651 -351 6293 0
10651 351 0
10651 -6293 0
-10652 351 -6293 0
10652 -351 0
10652 6293 0
-10653 -423 6295 0
10653 423 0
10653 -6295 0
-10654 423 -6295 0
10654 -423 0
10654 6295 0
-10655 -425 6296 0
10655 425 0
10655 -6296 0
-10656 425 -6296 0
10656 -425 0
10656 6296 0
-10657 -427 6297 0
10657 427 0
10657 -6297 0
-10658 427 -6297 0
10658 -427 0
10658 6297 0
-10659 -429 6298 0
10659 429 0
10659 -6298 0
-10660 429 -6298 0
10660 -429 0
10660 6298 0
-10661 -431 6299 0
10661 431 0
10661 -6299 0
-10662 431 -6299 0
10662 -431 0
10662 6299 0
-10663 -263 6301 0
10663 263 0
10663 -6301 0
-10664 263 -6301 0
10664 -263 0
10664 6301 0
-10665 -265 6302 0
10665 265 0
10665 -6302 0
-10666 265 -6302 0
10666 -265 0
10666 6302 0
-10667 -267 6303 0
10667 267 0
10667 -6303 0
-10668 267 -6303 0
10668 -267 0
10668 6303 0
-10669 -269 6304 0
10669 269 0
10669 -6304 0
-10670 269 -6304 0
10670 -269 0
10670 6304 0
-10671 -271 6305 0
10671 271 0
10671 -6305 0
-10672 271 -6305 0
10672 -271 0
10672 6305 0
-10673 -1245 6259 0
10673 1245 0
10673 -6259 0
-10674 1245 -6259 0
10674 -1245 0
10674 6259 0
-10675 -1005 6249 0
10675 1005 0
10675 -6249 0
-10676 1005 -6249 0
10676 -1005 0
10676 6249 0
-10677 -1085 6254 0
10677 1085 0
10677 -6254 0
-10678 1085 -6254 0
10678 -1085 0
10678 6254 0
-10679 -1165 6256 0
10679 1165 0
10679 -6256 0
-10680 1165 -6256 0
10680 -1165 0
10680 6256 0
-10681 -1749 6258 0
10681 1749 0
10681 -6258 0
-10682 1749 -6258 0
10682 -1749 0
10682 6258 0
-10683 -1691 6323 0
10683 1691 0
10683 -6323 0
-10684 1691 -6323 0
10684 -1691 0
10684 6323 0
-10685 -667 668 0
10685 667 0
10685 -668 0
-10686 667 -668 0
10686 -667 0
10686 668 0
-10687 -293 6348 0
10687 293 0
10687 -6348 0
-10688 293 -6348 0
10688 -293 0
10688 6348 0
-10689 -295 6349 0
10689 295 0
10689 -6349 0
-10690 295 -6349 0
10690 -295 0
10690 6349 0
-10691 -287 6351 0
10691 287 0
10691 -6351 0
-10692 287 -6351 0
10692 -287 0
10692 6351 0
-10693 -289 6352 0
10693 289 0
10693 -6352 0
-10694 289 -6352 0
10694 -289 0
10694 6352 0
-10695 -291 6353 0
10695 291 0
10695 -6353 0
-10696 291 -6353 0
10696 -291 0
10696 6353 0
-10697 -449 6357 0
10697 449 0
10697 -6357 0
-10698 449 -6357 0
10698 -449 0
10698 6357 0
-10699 -451 6358 0
10699 451 0
10699 -6358 0
-10700 451 -6358 0
10700 -451 0
10700 6358 0
-10701 -453 6359 0
10701 453 0
10701 -6359 0
-10702 453 -6359 0
10702 -453 0
10702 6359 0
-10703 -455 6360 0
10703 455 0
10703 -6360 0
-10704 455 -6360 0
10704 -455 0
10704 6360 0
-10705 -443 6354 0
10705 443 0
10705 -6354 0
-10706 443 -6354 0
10706 -443 0
10706 6354 0
-10707 -445 6355 0
10707 445 0
10707 -6355 0
-10708 445 -6355 0
10708 -445 0
10708 6355 0
-10709 -447 6356 0
10709 447 0
10709 -6356 0
-10710 447 -6356 0
10710 -447 0
10710 6356 0
-10711 -81 6363 0
10711 81 0
10711 -6363 0
-10712 81 -6363 0
10712 -81 0
10712 6363 0
-10713 -85 6364 0
10713 85 0
10713 -6364 0
-10714 85 -6364 0
10714 -85 0
10714 6364 0
-10715 -89 6365 0
10715 89 0
10715 -6365 0
-10716 89 -6365 0
10716 -89 0
10716 6365 0
-10717 -93 6366 0
10717 93 0
10717 -6366 0
-10718 93 -6366 0
10718 -93 0
10718 6366 0
-10719 -77 6362 0
10719 77 0
10719 -6362 0
-10720 77 -6362 0
10720 -77 0
10720 6362 0
-10721 -209 6368 0
10721 209 0
10721 -6368 0
-10722 209 -6368 0
10722 -209 0
10722 6368 0
-10723 -211 6369 0
10723 211 0
10723 -6369 0
-10724 211 -6369 0
10724 -211 0
10724 6369 0
-10725 -213 6370 0
10725 213 0
10725 -6370 0
-10726 213 -6370 0
10726 -213 0
10726 6370 0
-10727 -373 6372 0
10727 373 0
10727 -6372 0
-10728 373 -6372 0
10728 -373 0
10728 6372 0
-10729 -375 6373 0
10729 375 0
10729 -6373 0
-10730 375 -6373 0
10730 -375 0
10730 6373 0
-10731 -1695 6383 0
10731 1695 0
10731 -6383 0
-10732 1695 -6383 0
10732 -1695 0
10732 6383 0
-10733 -1719 6386 0
10733 1719 0
10733 -6386 0
-10734 1719 -6386 0
10734 -1719 0
10734 6386 0
-10735 -1275 6423 0
10735 1275 0
10735 -6423 0
-10736 1275 -6423 0
10736 -1275 0
10736 6423 0
-10737 -1035 6410 0
10737 1035 0
10737 -6410 0
-10738 1035 -6410 0
10738 -1035 0
10738 6410 0
-10739 -203 6424 0
10739 203 0
10739 -6424 0
-10740 203 -6424 0
10740 -203 0
10740 6424 0
-10741 -205 6425 0
10741 205 0
10741 -6425 0
-10742 205 -6425 0
10742 -205 0
10742 6425 0
-10743 -1599 6458 0
10743 1599 0
10743 -6458 0
-10744 1599 -6458 0
10744 -1599 0
10744 6458 0
-10745 -69 6412 0
10745 69 0
10745 -6412 0
-10746 69 -6412 0
10746 -69 0
10746 6412 0
-10747 -71 72 0
10747 71 0
10747 -72 0
-10748 71 -72 0
10748 -71 0
10748 72 0
-10749 -1353 6428 0
10749 1353 0
10749 -6428 0
-10750 1353 -6428 0
10750 -1353 0
10750 6428 0
-10751 -1115 6414 0
10751 1115 0
10751 -6414 0
-10752 1115 -6414 0
10752 -1115 0
10752 6414 0
-10753 -595 6415 0
10753 595 0
10753 -6415 0
-10754 595 -6415 0
10754 -595 0
10754 6415 0
-10755 -597 6417 0
10755 597 0
10755 -6417 0
-10756 597 -6417 0
10756 -597 0
10756 6417 0
-10757 -599 6418 0
10757 599 0
10757 -6418 0
-10758 599 -6418 0
10758 -599 0
10758 6418 0
-10759 -601 6419 0
10759 601 0
10759 -6419 0
-10760 601 -6419 0
10760 -601 0
10760 6419 0
-10761 -603 6420 0
10761 603 0
10761 -6420 0
-10762 603 -6420 0
10762 -603 0
10762 6420 0
-10763 -605 606 0
10763 605 0
10763 -606 0
-10764 605 -606 0
10764 -605 0
10764 606 0
-10765 -363 6461 0
10765 363 0
10765 -6461 0
-10766 363 -6461 0
10766 -363 0
10766 6461 0
-10767 -365 6462 0
10767 365 0
10767 -6462 0
-10768 365 -6462 0
10768 -365 0
10768 6462 0
-10769 -367 6463 0
10769 367 0
10769 -6463 0
-10770 367 -6463 0
10770 -367 0
10770 6463 0
-10771 -1657 4745 0
10771 1657 0
10771 -4745 0
-10772 1657 -4745 0
10772 -1657 0
10772 4745 0
-10773 -369 6464 0
10773 369 0
10773 -6464 0
-10774 369 -6464 0
10774 -369 0
10774 6464 0
-10775 -283 6450 0
10775 283 0
10775 -6450 0
-10776 283 -6450 0
10776 -283 0
10776 6450 0
-10777 -1195 6421 0
10777 1195 0
10777 -6421 0
-10778 1195 -6421 0
10778 -1195 0
10778 6421 0
-10779 -1467 6447 0
10779 1467 0
10779 -6447 0
-10780 1467 -6447 0
10780 -1467 0
10780 6447 0
-10781 -1481 6449 0
10781 1481 0
10781 -6449 0
-10782 1481 -6449 0
10782 -1481 0
10782 6449 0
-10783 -751 6451 0
10783 751 0
10783 -6451 0
-10784 751 -6451 0
10784 -751 0
10784 6451 0
-10785 -753 6452 0
10785 753 0
10785 -6452 0
-10786 753 -6452 0
10786 -753 0
10786 6452 0
-10787 -755 6453 0
10787 755 0
10787 -6453 0
-10788 755 -6453 0
10788 -755 0
10788 6453 0
-10789 -759 760 0
10789 759 0
10789 -760 0
-10790 759 -760 0
10790 -759 0
10790 760 0
-10791 -757 6455 0
10791 757 0
10791 -6455 0
-10792 757 -6455 0
10792 -757 0
10792 6455 0
-10793 -285 6446 0
10793 285 0
10793 -6446 0
-10794 285 -6446 0
10794 -285 0
10794 6446 0
-10795 -1705 6482 0
10795 1705 0
10795 -6482 0
-10796 1705 -6482 0
10796 -1705 0
10796 6482 0
-10797 -1643 6475 0
10797 1643 0
10797 -6475 0
-10798 1643 -6475 0
10798 -1643 0
10798 6475 0
-10799 -207 6426 0
10799 207 0
10799 -6426 0
-10800 207 -6426 0
10800 -207 0
10800 6426 0
-10801 -371 6465 0
10801 371 0
10801 -6465 0
-10802 371 -6465 0
10802 -371 0
10802 6465 0
-10803 -1541 6472 0
10803 1541 0
10803 -6472 0
-10804 1541 -6472 0
10804 -1541 0
10804 6472 0
-10805 -1677 6477 0
10805 1677 0
10805 -6477 0
-10806 1677 -6477 0
10806 -1677 0
10806 6477 0
-10807 -73 6413 0
10807 73 0
10807 -6413 0
-10808 73 -6413 0
10808 -73 0
10808 6413 0
-10809 -1493 6495 0
10809 1493 0
10809 -6495 0
-10810 1493 -6495 0
10810 -1493 0
10810 6495 0
-10811 -535 6549 0
10811 535 0
10811 -6549 0
-10812 535 -6549 0
10812 -535 0
10812 6549 0
-10813 -995 6496 0
10813 995 0
10813 -6496 0
-10814 995 -6496 0
10814 -995 0
10814 6496 0
-10815 -1269 6520 0
10815 1269 0
10815 -6520 0
-10816 1269 -6520 0
10816 -1269 0
10816 6520 0
-10817 -1535 6502 0
10817 1535 0
10817 -6502 0
-10818 1535 -6502 0
10818 -1535 0
10818 6502 0
-10819 -1029 6503 0
10819 1029 0
10819 -6503 0
-10820 1029 -6503 0
10820 -1029 0
10820 6503 0
-10821 -775 6504 0
10821 775 0
10821 -6504 0
-10822 775 -6504 0
10822 -775 0
10822 6504 0
-10823 -777 6505 0
10823 777 0
10823 -6505 0
-10824 777 -6505 0
10824 -777 0
10824 6505 0
-10825 -779 6507 0
10825 779 0
10825 -6507 0
-10826 779 -6507 0
10826 -779 0
10826 6507 0
-10827 -31 32 0
10827 31 0
10827 -32 0
-10828 31 -32 0
10828 -31 0
10828 32 0
-10829 -783 6509 0
10829 783 0
10829 -6509 0
-10830 783 -6509 0
10830 -783 0
10830 6509 0
-10831 -781 6508 0
10831 781 0
10831 -6508 0
-10832 781 -6508 0
10832 -781 0
10832 6508 0
-10833 -1313 6522 0
10833 1313 0
10833 -6522 0
-10834 1313 -6522 0
10834 -1313 0
10834 6522 0
-10835 -1075 6511 0
10835 1075 0
10835 -6511 0
-10836 1075 -6511 0
10836 -1075 0
10836 6511 0
-10837 -1593 6512 0
10837 1593 0
10837 -6512 0
-10838 1593 -6512 0
10838 -1593 0
10838 6512 0
-10839 -1347 6523 0
10839 1347 0
10839 -6523 0
-10840 1347 -6523 0
10840 -1347 0
10840 6523 0
-10841 -67 68 0
10841 67 0
10841 -68 0
-10842 67 -68 0
10842 -67 0
10842 68 0
-10843 -1109 6513 0
10843 1109 0
10843 -6513 0
-10844 1109 -6513 0
10844 -1109 0
10844 6513 0
-10845 -1637 6514 0
10845 1637 0
10845 -6514 0
-10846 1637 -6514 0
10846 -1637 0
10846 6514 0
-10847 -1155 6516 0
10847 1155 0
10847 -6516 0
-10848 1155 -6516 0
10848 -1155 0
10848 6516 0
-10849 -1417 4146 0
10849 1417 0
10849 -4146 0
-10850 1417 -4146 0
10850 -1417 0
10850 4146 0
-10851 -745 6548 0
10851 745 0
10851 -6548 0
-10852 745 -6548 0
10852 -745 0
10852 6548 0
-10853 -749 750 0
10853 749 0
10853 -750 0
-10854 749 -750 0
10854 -749 0
10854 750 0
-10855 -747 6547 0
10855 747 0
10855 -6547 0
-10856 747 -6547 0
10856 -747 0
10856 6547 0
-10857 -1189 6517 0
10857 1189 0
10857 -6517 0
-10858 1189 -6517 0
10858 -1189 0
10858 6517 0
-10859 -739 6542 0
10859 739 0
10859 -6542 0
-10860 739 -6542 0
10860 -739 0
10860 6542 0
-10861 -1463 6543 0
10861 1463 0
10861 -6543 0
-10862 1463 -6543 0
10862 -1463 0
10862 6543 0
-10863 -741 6544 0
10863 741 0
10863 -6544 0
-10864 741 -6544 0
10864 -741 0
10864 6544 0
-10865 -743 6545 0
10865 743 0
10865 -6545 0
-10866 743 -6545 0
10866 -743 0
10866 6545 0
-10867 -529 6541 0
10867 529 0
10867 -6541 0
-10868 529 -6541 0
10868 -529 0
10868 6541 0
-10869 -531 6521 0
10869 531 0
10869 -6521 0
-10870 531 -6521 0
10870 -531 0
10870 6521 0
-10871 -533 6540 0
10871 533 0
10871 -6540 0
-10872 533 -6540 0
10872 -533 0
10872 6540 0
-10873 -1235 6519 0
10873 1235 0
10873 -6519 0
-10874 1235 -6519 0
10874 -1235 0
10874 6519 0
-10875 -1475 6546 0
10875 1475 0
10875 -6546 0
-10876 1475 -6546 0
10876 -1475 0
10876 6546 0
-10877 -537 538 0
10877 537 0
10877 -538 0
-10878 537 -538 0
10878 -537 0
10878 538 0
-10879 -1575 6338 0
10879 1575 0
10879 -6338 0
-10880 1575 -6338 0
10880 -1575 0
10880 6338 0
-10881 -1515 6337 0
10881 1515 0
10881 -6337 0
-10882 1515 -6337 0
10882 -1515 0
10882 6337 0
-10883 -51 52 0
10883 51 0
10883 -52 0
-10884 51 -52 0
10884 -51 0
10884 52 0
-10885 -1323 6346 0
10885 1323 0
10885 -6346 0
-10886 1323 -6346 0
10886 -1323 0
10886 6346 0
-10887 -1455 6347 0
10887 1455 0
10887 -6347 0
-10888 1455 -6347 0
10888 -1455 0
10888 6347 0
-10889 -665 6218 0
10889 665 0
10889 -6218 0
-10890 665 -6218 0
10890 -665 0
10890 6218 0
-10891 -1739 6342 0
10891 1739 0
10891 -6342 0
-10892 1739 -6342 0
10892 -1739 0
10892 6342 0
-10893 -1623 6339 0
10893 1623 0
10893 -6339 0
-10894 1623 -6339 0
10894 -1623 0
10894 6339 0
-10895 -201 6568 0
10895 201 0
10895 -6568 0
-10896 201 -6568 0
10896 -201 0
10896 6568 0
-10897 -361 6559 0
10897 361 0
10897 -6559 0
-10898 361 -6559 0
10898 -361 0
10898 6559 0
-10899 -65 6557 0
10899 65 0
10899 -6557 0
-10900 65 -6557 0
10900 -65 0
10900 6557 0
-10901 -281 6589 0
10901 281 0
10901 -6589 0
-10902 281 -6589 0
10902 -281 0
10902 6589 0
-10903 -441 6564 0
10903 441 0
10903 -6564 0
-10904 441 -6564 0
10904 -441 0
10904 6564 0
-10905 -539 6646 0
10905 539 0
10905 -6646 0
-10906 539 -6646 0
10906 -539 0
10906 6646 0
-10907 -541 6647 0
10907 541 0
10907 -6647 0
-10908 541 -6647 0
10908 -541 0
10908 6647 0
-10909 -543 6648 0
10909 543 0
10909 -6648 0
-10910 543 -6648 0
10910 -543 0
10910 6648 0
-10911 -545 6649 0
10911 545 0
10911 -6649 0
-10912 545 -6649 0
10912 -545 0
10912 6649 0
-10913 -547 548 0
10913 547 0
10913 -548 0
-10914 547 -548 0
10914 -547 0
10914 548 0
-10915 -1267 6677 0
10915 1267 0
10915 -6677 0
-10916 1267 -6677 0
10916 -1267 0
10916 6677 0
-10917 -1279 6678 0
10917 1279 0
10917 -6678 0
-10918 1279 -6678 0
10918 -1279 0
10918 6678 0
-10919 -1039 6655 0
10919 1039 0
10919 -6655 0
-10920 1039 -6655 0
10920 -1039 0
10920 6655 0
-10921 -35 36 0
10921 35 0
10921 -36 0
-10922 35 -36 0
10922 -35 0
10922 36 0
-10923 -1307 6679 0
10923 1307 0
10923 -6679 0
-10924 1307 -6679 0
10924 -1307 0
10924 6679 0
-10925 -989 6657 0
10925 989 0
10925 -6657 0
-10926 989 -6657 0
10926 -989 0
10926 6657 0
-10927 -789 6659 0
10927 789 0
10927 -6659 0
-10928 789 -6659 0
10928 -789 0
10928 6659 0
-10929 -1069 6658 0
10929 1069 0
10929 -6658 0
-10930 1069 -6658 0
10930 -1069 0
10930 6658 0
-10931 -791 6660 0
10931 791 0
10931 -6660 0
-10932 791 -6660 0
10932 -791 0
10932 6660 0
-10933 -793 6661 0
10933 793 0
10933 -6661 0
-10934 793 -6661 0
10934 -793 0
10934 6661 0
-10935 -795 6662 0
10935 795 0
10935 -6662 0
-10936 795 -6662 0
10936 -795 0
10936 6662 0
-10937 -797 6663 0
10937 797 0
10937 -6663 0
-10938 797 -6663 0
10938 -797 0
10938 6663 0
-10939 -799 800 0
10939 799 0
10939 -800 0
-10940 799 -800 0
10940 -799 0
10940 800 0
-10941 -1357 6683 0
10941 1357 0
10941 -6683 0
-10942 1357 -6683 0
10942 -1357 0
10942 6683 0
-10943 -1107 6664 0
10943 1107 0
10943 -6664 0
-10944 1107 -6664 0
10944 -1107 0
10944 6664 0
-10945 -79 80 0
10945 79 0
10945 -80 0
-10946 79 -80 0
10946 -79 0
10946 80 0
-10947 -1119 6665 0
10947 1119 0
10947 -6665 0
-10948 1119 -6665 0
10948 -1119 0
10948 6665 0
-10949 -1149 6667 0
10949 1149 0
10949 -6667 0
-10950 1149 -6667 0
10950 -1149 0
10950 6667 0
-10951 -1665 4746 0
10951 1665 0
10951 -4746 0
-10952 1665 -4746 0
10952 -1665 0
10952 4746 0
-10953 -723 6700 0
10953 723 0
10953 -6700 0
-10954 723 -6700 0
10954 -723 0
10954 6700 0
-10955 -725 6701 0
10955 725 0
10955 -6701 0
-10956 725 -6701 0
10956 -725 0
10956 6701 0
-10957 -727 6702 0
10957 727 0
10957 -6702 0
-10958 727 -6702 0
10958 -727 0
10958 6702 0
-10959 -729 6703 0
10959 729 0
10959 -6703 0
-10960 729 -6703 0
10960 -729 0
10960 6703 0
-10961 -1187 6669 0
10961 1187 0
10961 -6669 0
-10962 1187 -6669 0
10962 -1187 0
10962 6669 0
-10963 -731 6704 0
10963 731 0
10963 -6704 0
-10964 731 -6704 0
10964 -731 0
10964 6704 0
-10965 -733 6705 0
10965 733 0
10965 -6705 0
-10966 733 -6705 0
10966 -733 0
10966 6705 0
-10967 -735 6706 0
10967 735 0
10967 -6706 0
-10968 735 -6706 0
10968 -735 0
10968 6706 0
-10969 -1199 6671 0
10969 1199 0
10969 -6671 0
-10970 1199 -6671 0
10970 -1199 0
10970 6671 0
-10971 -737 738 0
10971 737 0
10971 -738 0
-10972 737 -738 0
10972 -737 0
10972 738 0
-10973 -1229 6676 0
10973 1229 0
10973 -6676 0
-10974 1229 -6676 0
10974 -1229 0
10974 6676 0
-10975 -159 160 0
10975 159 0
10975 -160 0
-10976 159 -160 0
10976 -159 0
10976 160 0
-10977 -1263 6725 0
10977 1263 0
10977 -6725 0
-10978 1263 -6725 0
10978 -1263 0
10978 6725 0
-10979 -1023 6713 0
10979 1023 0
10979 -6713 0
-10980 1023 -6713 0
10980 -1023 0
10980 6713 0
-10981 -1281 6726 0
10981 1281 0
10981 -6726 0
-10982 1281 -6726 0
10982 -1281 0
10982 6726 0
-10983 -881 6727 0
10983 881 0
10983 -6727 0
-10984 881 -6727 0
10984 -881 0
10984 6727 0
-10985 -885 6729 0
10985 885 0
10985 -6729 0
-10986 885 -6729 0
10986 -885 0
10986 6729 0
-10987 -883 6728 0
10987 883 0
10987 -6728 0
-10988 883 -6728 0
10988 -883 0
10988 6728 0
-10989 -887 6730 0
10989 887 0
10989 -6730 0
-10990 887 -6730 0
10990 -887 0
10990 6730 0
-10991 -1299 6731 0
10991 1299 0
10991 -6731 0
-10992 1299 -6731 0
10992 -1299 0
10992 6731 0
-10993 -889 6732 0
10993 889 0
10993 -6732 0
-10994 889 -6732 0
10994 -889 0
10994 6732 0
-10995 -891 892 0
10995 891 0
10995 -892 0
-10996 891 -892 0
10996 -891 0
10996 892 0
-10997 -1837 6734 0
10997 1837 0
10997 -6734 0
-10998 1837 -6734 0
10998 -1837 0
10998 6734 0
-10999 -1341 6735 0
10999 1341 0
10999 -6735 0
-11000 1341 -6735 0
11000 -1341 0
11000 6735 0
-11001 -1103 6717 0
11001 1103 0
11001 -6717 0
-11002 1103 -6717 0
11002 -1103 0
11002 6717 0
-11003 -1359 6736 0
11003 1359 0
11003 -6736 0
-11004 1359 -6736 0
11004 -1359 0
11004 6736 0
-11005 -699 6738 0
11005 699 0
11005 -6738 0
-11006 699 -6738 0
11006 -699 0
11006 6738 0
-11007 -701 6739 0
11007 701 0
11007 -6739 0
-11008 701 -6739 0
11008 -701 0
11008 6739 0
-11009 -1121 6718 0
11009 1121 0
11009 -6718 0
-11010 1121 -6718 0
11010 -1121 0
11010 6718 0
-11011 -703 6740 0
11011 703 0
11011 -6740 0
-11012 703 -6740 0
11012 -703 0
11012 6740 0
-11013 -705 6749 0
11013 705 0
11013 -6749 0
-11014 705 -6749 0
11014 -705 0
11014 6749 0
-11015 -709 6750 0
11015 709 0
11015 -6750 0
-11016 709 -6750 0
11016 -709 0
11016 6750 0
-11017 -711 712 0
11017 711 0
11017 -712 0
-11018 711 -712 0
11018 -711 0
11018 712 0
-11019 -713 6751 0
11019 713 0
11019 -6751 0
-11020 713 -6751 0
11020 -713 0
11020 6751 0
-11021 -715 6752 0
11021 715 0
11021 -6752 0
-11022 715 -6752 0
11022 -715 0
11022 6752 0
-11023 -717 6753 0
11023 717 0
11023 -6753 0
-11024 717 -6753 0
11024 -717 0
11024 6753 0
-11025 -719 6755 0
11025 719 0
11025 -6755 0
-11026 719 -6755 0
11026 -719 0
11026 6755 0
-11027 -721 722 0
11027 721 0
11027 -722 0
-11028 721 -722 0
11028 -721 0
11028 722 0
-11029 -119 120 0
11029 119 0
11029 -120 0
-11030 119 -120 0
11030 -119 0
11030 120 0
-11031 -1183 6721 0
11031 1183 0
11031 -6721 0
-11032 1183 -6721 0
11032 -1183 0
11032 6721 0
-11033 -1201 6722 0
11033 1201 0
11033 -6722 0
-11034 1201 -6722 0
11034 -1201 0
11034 6722 0
-11035 -155 156 0
11035 155 0
11035 -156 0
-11036 155 -156 0
11036 -155 0
11036 156 0
-11037 -981 6764 0
11037 981 0
11037 -6764 0
-11038 981 -6764 0
11038 -981 0
11038 6764 0
-11039 -761 6799 0
11039 761 0
11039 -6799 0
-11040 761 -6799 0
11040 -761 0
11040 6799 0
-11041 -763 6801 0
11041 763 0
11041 -6801 0
-11042 763 -6801 0
11042 -763 0
11042 6801 0
-11043 -765 6803 0
11043 765 0
11043 -6803 0
-11044 765 -6803 0
11044 -765 0
11044 6803 0
-11045 -767 6806 0
11045 767 0
11045 -6806 0
-11046 767 -6806 0
11046 -767 0
11046 6806 0
-11047 -769 6807 0
11047 769 0
11047 -6807 0
-11048 769 -6807 0
11048 -769 0
11048 6807 0
-11049 -1021 6805 0
11049 1021 0
11049 -6805 0
-11050 1021 -6805 0
11050 -1021 0
11050 6805 0
-11051 -771 6808 0
11051 771 0
11051 -6808 0
-11052 771 -6808 0
11052 -771 0
11052 6808 0
-11053 -773 774 0
11053 773 0
11053 -774 0
-11054 773 -774 0
11054 -773 0
11054 774 0
-11055 -1295 6832 0
11055 1295 0
11055 -6832 0
-11056 1295 -6832 0
11056 -1295 0
11056 6832 0
-11057 -1261 6830 0
11057 1261 0
11057 -6830 0
-11058 1261 -6830 0
11058 -1261 0
11058 6830 0
-11059 -1057 6812 0
11059 1057 0
11059 -6812 0
-11060 1057 -6812 0
11060 -1057 0
11060 6812 0
-11061 -1339 6833 0
11061 1339 0
11061 -6833 0
-11062 1339 -6833 0
11062 -1339 0
11062 6833 0
-11063 -1101 6813 0
11063 1101 0
11063 -6813 0
-11064 1101 -6813 0
11064 -1101 0
11064 6813 0
-11065 -1137 6815 0
11065 1137 0
11065 -6815 0
-11066 1137 -6815 0
11066 -1137 0
11066 6815 0
-11067 -825 6816 0
11067 825 0
11067 -6816 0
-11068 825 -6816 0
11068 -825 0
11068 6816 0
-11069 -827 6817 0
11069 827 0
11069 -6817 0
-11070 827 -6817 0
11070 -827 0
11070 6817 0
-11071 -829 6818 0
11071 829 0
11071 -6818 0
-11072 829 -6818 0
11072 -829 0
11072 6818 0
-11073 -111 112 0
11073 111 0
11073 -112 0
-11074 111 -112 0
11074 -111 0
11074 112 0
-11075 -831 6819 0
11075 831 0
11075 -6819 0
-11076 831 -6819 0
11076 -831 0
11076 6819 0
-11077 -833 6821 0
11077 833 0
11077 -6821 0
-11078 833 -6821 0
11078 -833 0
11078 6821 0
-11079 -835 836 0
11079 835 0
11079 -836 0
-11080 835 -836 0
11080 -835 0
11080 836 0
-11081 -1181 6822 0
11081 1181 0
11081 -6822 0
-11082 1181 -6822 0
11082 -1181 0
11082 6822 0
-11083 -837 6823 0
11083 837 0
11083 -6823 0
-11084 837 -6823 0
11084 -837 0
11084 6823 0
-11085 -127 128 0
11085 127 0
11085 -128 0
-11086 127 -128 0
11086 -127 0
11086 128 0
-11087 -843 6809 0
11087 843 0
11087 -6809 0
-11088 843 -6809 0
11088 -843 0
11088 6809 0
-11089 -839 6824 0
11089 839 0
11089 -6824 0
-11090 839 -6824 0
11090 -839 0
11090 6824 0
-11091 -841 6825 0
11091 841 0
11091 -6825 0
-11092 841 -6825 0
11092 -841 0
11092 6825 0
-11093 -845 846 0
11093 845 0
11093 -846 0
-11094 845 -846 0
11094 -845 0
11094 846 0
-11095 -1217 6827 0
11095 1217 0
11095 -6827 0
-11096 1217 -6827 0
11096 -1217 0
11096 6827 0
-11097 -977 6852 0
11097 977 0
11097 -6852 0
-11098 977 -6852 0
11098 -977 0
11098 6852 0
-11099 -1747 6829 0
11099 1747 0
11099 -6829 0
-11100 1747 -6829 0
11100 -1747 0
11100 6829 0
-11101 -435 6869 0
11101 435 0
11101 -6869 0
-11102 435 -6869 0
11102 -435 0
11102 6869 0
-11103 -437 6870 0
11103 437 0
11103 -6870 0
-11104 437 -6870 0
11104 -437 0
11104 6870 0
-11105 -1547 6854 0
11105 1547 0
11105 -6854 0
-11106 1547 -6854 0
11106 -1547 0
11106 6854 0
-11107 -195 6872 0
11107 195 0
11107 -6872 0
-11108 195 -6872 0
11108 -195 0
11108 6872 0
-11109 -197 6873 0
11109 197 0
11109 -6873 0
-11110 197 -6873 0
11110 -197 0
11110 6873 0
-11111 -53 6857 0
11111 53 0
11111 -6857 0
-11112 53 -6857 0
11112 -53 0
11112 6857 0
-11113 -57 6858 0
11113 57 0
11113 -6858 0
-11114 57 -6858 0
11114 -57 0
11114 6858 0
-11115 -689 6876 0
11115 689 0
11115 -6876 0
-11116 689 -6876 0
11116 -689 0
11116 6876 0
-11117 -1605 6861 0
11117 1605 0
11117 -6861 0
-11118 1605 -6861 0
11118 -1605 0
11118 6861 0
-11119 -691 6877 0
11119 691 0
11119 -6877 0
-11120 691 -6877 0
11120 -691 0
11120 6877 0
-11121 -693 6878 0
11121 693 0
11121 -6878 0
-11122 693 -6878 0
11122 -693 0
11122 6878 0
-11123 -695 6879 0
11123 695 0
11123 -6879 0
-11124 695 -6879 0
11124 -695 0
11124 6879 0
-11125 -697 698 0
11125 697 0
11125 -698 0
-11126 697 -698 0
11126 -697 0
11126 698 0
-11127 -355 6863 0
11127 355 0
11127 -6863 0
-11128 355 -6863 0
11128 -355 0
11128 6863 0
-11129 -357 6864 0
11129 357 0
11129 -6864 0
-11130 357 -6864 0
11130 -357 0
11130 6864 0
-11131 -1649 6866 0
11131 1649 0
11131 -6866 0
-11132 1649 -6866 0
11132 -1649 0
11132 6866 0
-11133 -1451 6881 0
11133 1451 0
11133 -6881 0
-11134 1451 -6881 0
11134 -1451 0
11134 6881 0
-11135 -275 6883 0
11135 275 0
11135 -6883 0
-11136 275 -6883 0
11136 -275 0
11136 6883 0
-11137 -277 6884 0
11137 277 0
11137 -6884 0
-11138 277 -6884 0
11138 -277 0
11138 6884 0
-11139 -1489 6886 0
11139 1489 0
11139 -6886 0
-11140 1489 -6886 0
11140 -1489 0
11140 6886 0
-11141 -707 6762 0
11141 707 0
11141 -6762 0
-11142 707 -6762 0
11142 -707 0
11142 6762 0
-11143 -1027 6770 0
11143 1027 0
11143 -6770 0
-11144 1027 -6770 0
11144 -1027 0
11144 6770 0
-11145 -1123 6895 0
11145 1123 0
11145 -6895 0
-11146 1123 -6895 0
11146 -1123 0
11146 6895 0
-11147 -1203 6899 0
11147 1203 0
11147 -6899 0
-11148 1203 -6899 0
11148 -1203 0
11148 6899 0
-11149 -55 56 0
11149 55 0
11149 -56 0
-11150 55 -56 0
11150 -55 0
11150 56 0
-11151 -1283 6903 0
11151 1283 0
11151 -6903 0
-11152 1283 -6903 0
11152 -1283 0
11152 6903 0
-11153 -1673 4756 0
11153 1673 0
11153 -4756 0
-11154 1673 -4756 0
11154 -1673 0
11154 4756 0
-11155 -1361 6904 0
11155 1361 0
11155 -6904 0
-11156 1361 -6904 0
11156 -1361 0
11156 6904 0
-11157 -1043 6893 0
11157 1043 0
11157 -6893 0
-11158 1043 -6893 0
11158 -1043 0
11158 6893 0
-11159 -1501 6591 0
11159 1501 0
11159 -6591 0
-11160 1501 -6591 0
11160 -1501 0
11160 6591 0
-11161 -1757 6613 0
11161 1757 0
11161 -6613 0
-11162 1757 -6613 0
11162 -1757 0
11162 6613 0
-11163 -1505 6592 0
11163 1505 0
11163 -6592 0
-11164 1505 -6592 0
11164 -1505 0
11164 6592 0
-11165 -1761 6614 0
11165 1761 0
11165 -6614 0
-11166 1761 -6614 0
11166 -1761 0
11166 6614 0
-11167 -297 6350 0
11167 297 0
11167 -6350 0
-11168 297 -6350 0
11168 -297 0
11168 6350 0
-11169 -1763 6615 0
11169 1763 0
11169 -6615 0
-11170 1763 -6615 0
11170 -1763 0
11170 6615 0
-11171 -1771 6616 0
11171 1771 0
11171 -6616 0
-11172 1771 -6616 0
11172 -1771 0
11172 6616 0
-11173 -1801 6617 0
11173 1801 0
11173 -6617 0
-11174 1801 -6617 0
11174 -1801 0
11174 6617 0
-11175 -1291 6618 0
11175 1291 0
11175 -6618 0
-11176 1291 -6618 0
11176 -1291 0
11176 6618 0
-11177 -1805 6619 0
11177 1805 0
11177 -6619 0
-11178 1805 -6619 0
11178 -1805 0
11178 6619 0
-11179 -1811 6620 0
11179 1811 0
11179 -6620 0
-11180 1811 -6620 0
11180 -1811 0
11180 6620 0
-11181 -1561 6600 0
11181 1561 0
11181 -6600 0
-11182 1561 -6600 0
11182 -1561 0
11182 6600 0
-11183 -1817 6621 0
11183 1817 0
11183 -6621 0
-11184 1817 -6621 0
11184 -1817 0
11184 6621 0
-11185 -1053 6601 0
11185 1053 0
11185 -6601 0
-11186 1053 -6601 0
11186 -1053 0
11186 6601 0
-11187 -785 6510 0
11187 785 0
11187 -6510 0
-11188 785 -6510 0
11188 -785 0
11188 6510 0
-11189 -1567 6602 0
11189 1567 0
11189 -6602 0
-11190 1567 -6602 0
11190 -1567 0
11190 6602 0
-11191 -1829 6622 0
11191 1829 0
11191 -6622 0
-11192 1829 -6622 0
11192 -1829 0
11192 6622 0
-11193 -457 6361 0
11193 457 0
11193 -6361 0
-11194 457 -6361 0
11194 -457 0
11194 6361 0
-11195 -215 6371 0
11195 215 0
11195 -6371 0
-11196 215 -6371 0
11196 -215 0
11196 6371 0
-11197 -1613 6603 0
11197 1613 0
11197 -6603 0
-11198 1613 -6603 0
11198 -1613 0
11198 6603 0
-11199 -1617 6604 0
11199 1617 0
11199 -6604 0
-11200 1617 -6604 0
11200 -1617 0
11200 6604 0
-11201 -91 92 0
11201 91 0
11201 -92 0
-11202 91 -92 0
11202 -91 0
11202 92 0
-11203 -1133 6606 0
11203 1133 0
11203 -6606 0
-11204 1133 -6606 0
11204 -1133 0
11204 6606 0
-11205 -97 6367 0
11205 97 0
11205 -6367 0
-11206 97 -6367 0
11206 -97 0
11206 6367 0
-11207 -377 6374 0
11207 377 0
11207 -6374 0
-11208 377 -6374 0
11208 -377 0
11208 6374 0
-11209 -1681 6609 0
11209 1681 0
11209 -6609 0
-11210 1681 -6609 0
11210 -1681 0
11210 6609 0
-11211 -1429 6640 0
11211 1429 0
11211 -6640 0
-11212 1429 -6640 0
11212 -1429 0
11212 6640 0
-11213 -1441 6641 0
11213 1441 0
11213 -6641 0
-11214 1441 -6641 0
11214 -1441 0
11214 6641 0
-11215 -1445 6642 0
11215 1445 0
11215 -6642 0
-11216 1445 -6642 0
11216 -1445 0
11216 6642 0
-11217 -1709 6610 0
11217 1709 0
11217 -6610 0
-11218 1709 -6610 0
11218 -1709 0
11218 6610 0
-11219 -1213 6612 0
11219 1213 0
11219 -6612 0
-11220 1213 -6612 0
11220 -1213 0
11220 6612 0
-11221 -1473 6643 0
11221 1473 0
11221 -6643 0
-11222 1473 -6643 0
11222 -1473 0
11222 6643 0
-11223 -973 6645 0
11223 973 0
11223 -6645 0
-11224 973 -6645 0
11224 -973 0
11224 6645 0
-11225 -1745 4985 0
11225 1745 0
11225 -4985 0
-11226 1745 -4985 0
11226 -1745 0
11226 4985 0
-11227 -1823 6945 0
11227 1823 0
11227 -6945 0
-11228 1823 -6945 0
11228 -1823 0
11228 6945 0
-11229 -87 88 0
11229 87 0
11229 -88 0
-11230 87 -88 0
11230 -87 0
11230 88 0
-11231 -1061 6928 0
11231 1061 0
11231 -6928 0
-11232 1061 -6928 0
11232 -1061 0
11232 6928 0
-11233 -1065 6929 0
11233 1065 0
11233 -6929 0
-11234 1065 -6929 0
11234 -1065 0
11234 6929 0
-11235 -1141 6931 0
11235 1141 0
11235 -6931 0
-11236 1141 -6931 0
11236 -1141 0
11236 6931 0
-11237 -1145 6932 0
11237 1145 0
11237 -6932 0
-11238 1145 -6932 0
11238 -1145 0
11238 6932 0
-11239 -63 64 0
11239 63 0
11239 -64 0
-11240 63 -64 0
11240 -63 0
11240 64 0
-11241 -1221 6937 0
11241 1221 0
11241 -6937 0
-11242 1221 -6937 0
11242 -1221 0
11242 6937 0
-11243 -1225 6938 0
11243 1225 0
11243 -6938 0
-11244 1225 -6938 0
11244 -1225 0
11244 6938 0
-11245 -1303 6943 0
11245 1303 0
11245 -6943 0
-11246 1303 -6943 0
11246 -1303 0
11246 6943 0
-11247 -985 6966 0
11247 985 0
11247 -6966 0
-11248 985 -6966 0
11248 -985 0
11248 6966 0
-11249 -483 5594 0
11249 483 0
11249 -5594 0
-11250 483 -5594 0
11250 -483 0
11250 5594 0
-11251 -1703 6117 0
11251 1703 0
11251 -6117 0
-11252 1703 -6117 0
11252 -1703 0
11252 6117 0
-11253 -331 6079 0
11253 331 0
11253 -6079 0
-11254 331 -6079 0
11254 -331 0
11254 6079 0
-11255 -1517 6111 0
11255 1517 0
11255 -6111 0
-11256 1517 -6111 0
11256 -1517 0
11256 6111 0
-11257 -491 6105 0
11257 491 0
11257 -6105 0
-11258 491 -6105 0
11258 -491 0
11258 6105 0
-11259 -1715 6118 0
11259 1715 0
11259 -6118 0
-11260 1715 -6118 0
11260 -1715 0
11260 6118 0
-11261 -243 5590 0
11261 243 0
11261 -5590 0
-11262 243 -5590 0
11262 -243 0
11262 5590 0
-11263 -1081 6115 0
11263 1081 0
11263 -6115 0
-11264 1081 -6115 0
11264 -1081 0
11264 6115 0
-11265 -403 5650 0
11265 403 0
11265 -5650 0
-11266 403 -5650 0
11266 -403 0
11266 5650 0
-11267 -1725 6120 0
11267 1725 0
11267 -6120 0
-11268 1725 -6120 0
11268 -1725 0
11268 6120 0
-11269 -149 5598 0
11269 149 0
11269 -5598 0
-11270 149 -5598 0
11270 -149 0
11270 5598 0
-11271 -251 6106 0
11271 251 0
11271 -6106 0
-11272 251 -6106 0
11272 -251 0
11272 6106 0
-11273 -411 6085 0
11273 411 0
11273 -6085 0
-11274 411 -6085 0
11274 -411 0
11274 6085 0
-11275 -1807 6121 0
11275 1807 0
11275 -6121 0
-11276 1807 -6121 0
11276 -1807 0
11276 6121 0
-11277 -163 6086 0
11277 163 0
11277 -6086 0
-11278 163 -6086 0
11278 -163 0
11278 6086 0
-11279 -323 5646 0
11279 323 0
11279 -5646 0
-11280 323 -5646 0
11280 -323 0
11280 5646 0
-11281 -1741 7004 0
11281 1741 0
11281 -7004 0
-11282 1741 -7004 0
11282 -1741 0
11282 7004 0
-11283 -1773 7005 0
11283 1773 0
11283 -7005 0
-11284 1773 -7005 0
11284 -1773 0
11284 7005 0
-11285 -1787 7006 0
11285 1787 0
11285 -7006 0
-11286 1787 -7006 0
11286 -1787 0
11286 7006 0
-11287 -433 6300 0
11287 433 0
11287 -6300 0
-11288 433 -6300 0
11288 -433 0
11288 6300 0
-11289 -1545 6998 0
11289 1545 0
11289 -6998 0
-11290 1545 -6998 0
11290 -1545 0
11290 6998 0
-11291 -439 6871 0
11291 439 0
11291 -6871 0
-11292 439 -6871 0
11292 -439 0
11292 6871 0
-11293 -1293 6978 0
11293 1293 0
11293 -6978 0
-11294 1293 -6978 0
11294 -1293 0
11294 6978 0
-11295 -193 6288 0
11295 193 0
11295 -6288 0
-11296 193 -6288 0
11296 -193 0
11296 6288 0
-11297 -1813 7007 0
11297 1813 0
11297 -7007 0
-11298 1813 -7007 0
11298 -1813 0
11298 7007 0
-11299 -1819 7008 0
11299 1819 0
11299 -7008 0
-11300 1819 -7008 0
11300 -1819 0
11300 7008 0
-11301 -199 6874 0
11301 199 0
11301 -6874 0
-11302 199 -6874 0
11302 -199 0
11302 6874 0
-11303 -1055 6973 0
11303 1055 0
11303 -6973 0
-11304 1055 -6973 0
11304 -1055 0
11304 6973 0
-11305 -1825 7009 0
11305 1825 0
11305 -7009 0
-11306 1825 -7009 0
11306 -1825 0
11306 7009 0
-11307 -49 6282 0
11307 49 0
11307 -6282 0
-11308 49 -6282 0
11308 -49 0
11308 6282 0
-11309 -1835 7010 0
11309 1835 0
11309 -7010 0
-11310 1835 -7010 0
11310 -1835 0
11310 7010 0
-11311 -61 6859 0
11311 61 0
11311 -6859 0
-11312 61 -6859 0
11312 -61 0
11312 6859 0
-11313 -1345 6979 0
11313 1345 0
11313 -6979 0
-11314 1345 -6979 0
11314 -1345 0
11314 6979 0
-11315 -1603 6999 0
11315 1603 0
11315 -6999 0
-11316 1603 -6999 0
11316 -1603 0
11316 6999 0
-11317 -353 6294 0
11317 353 0
11317 -6294 0
-11318 353 -6294 0
11318 -353 0
11318 6294 0
-11319 -359 6865 0
11319 359 0
11319 -6865 0
-11320 359 -6865 0
11320 -359 0
11320 6865 0
-11321 -1135 6975 0
11321 1135 0
11321 -6975 0
-11322 1135 -6975 0
11322 -1135 0
11322 6975 0
-11323 -1647 7000 0
11323 1647 0
11323 -7000 0
-11324 1647 -7000 0
11324 -1647 0
11324 7000 0
-11325 -99 100 0
11325 99 0
11325 -100 0
-11326 99 -100 0
11326 -99 0
11326 100 0
-11327 -1685 7001 0
11327 1685 0
11327 -7001 0
-11328 1685 -7001 0
11328 -1685 0
11328 7001 0
-11329 -1433 6996 0
11329 1433 0
11329 -6996 0
-11330 1433 -6996 0
11330 -1433 0
11330 6996 0
-11331 -1693 7002 0
11331 1693 0
11331 -7002 0
-11332 1693 -7002 0
11332 -1693 0
11332 7002 0
-11333 -1697 7003 0
11333 1697 0
11333 -7003 0
-11334 1697 -7003 0
11334 -1697 0
11334 7003 0
-11335 -273 6306 0
11335 273 0
11335 -6306 0
-11336 273 -6306 0
11336 -273 0
11336 6306 0
-11337 -1215 6977 0
11337 1215 0
11337 -6977 0
-11338 1215 -6977 0
11338 -1215 0
11338 6977 0
-11339 -279 6885 0
11339 279 0
11339 -6885 0
-11340 279 -6885 0
11340 -279 0
11340 6885 0
-11341 -1485 6997 0
11341 1485 0
11341 -6997 0
-11342 1485 -6997 0
11342 -1485 0
11342 6997 0
-11343 -975 7012 0
11343 975 0
11343 -7012 0
-11344 975 -7012 0
11344 -975 0
11344 7012 0
-11345 -1499 7013 0
11345 1499 0
11345 -7013 0
-11346 1499 -7013 0
11346 -1499 0
11346 7013 0
-11347 -1503 7014 0
11347 1503 0
11347 -7014 0
-11348 1503 -7014 0
11348 -1503 0
11348 7014 0
-11349 -3 4 0
11349 3 0
11349 -4 0
-11350 3 -4 0
11350 -3 0
11350 4 0
-11351 -1509 7015 0
11351 1509 0
11351 -7015 0
-11352 1509 -7015 0
11352 -1509 0
11352 7015 0
-11353 -7 8 0
11353 7 0
11353 -8 0
-11354 7 -8 0
11354 -7 0
11354 8 0
-11355 -299 6595 0
11355 299 0
11355 -6595 0
-11356 299 -6595 0
11356 -299 0
11356 6595 0
-11357 -1513 7016 0
11357 1513 0
11357 -7016 0
-11358 1513 -7016 0
11358 -1513 0
11358 7016 0
-11359 -11 12 0
11359 11 0
11359 -12 0
-11360 11 -12 0
11360 -11 0
11360 12 0
-11361 -1007 7017 0
11361 1007 0
11361 -7017 0
-11362 1007 -7017 0
11362 -1007 0
11362 7017 0
-11363 -1521 7018 0
11363 1521 0
11363 -7018 0
-11364 1521 -7018 0
11364 -1521 0
11364 7018 0
-11365 -15 16 0
11365 15 0
11365 -16 0
-11366 15 -16 0
11366 -15 0
11366 16 0
-11367 -1529 7019 0
11367 1529 0
11367 -7019 0
-11368 1529 -7019 0
11368 -1529 0
11368 7019 0
-11369 -19 20 0
11369 19 0
11369 -20 0
-11370 19 -20 0
11370 -19 0
11370 20 0
-11371 -1531 7020 0
11371 1531 0
11371 -7020 0
-11372 1531 -7020 0
11372 -1531 0
11372 7020 0
-11373 -1549 7021 0
11373 1549 0
11373 -7021 0
-11374 1549 -7021 0
11374 -1549 0
11374 7021 0
-11375 -1041 7022 0
11375 1041 0
11375 -7022 0
-11376 1041 -7022 0
11376 -1041 0
11376 7022 0
-11377 -1553 7023 0
11377 1553 0
11377 -7023 0
-11378 1553 -7023 0
11378 -1553 0
11378 7023 0
-11379 -1557 7024 0
11379 1557 0
11379 -7024 0
-11380 1557 -7024 0
11380 -1557 0
11380 7024 0
-11381 -1047 7025 0
11381 1047 0
11381 -7025 0
-11382 1047 -7025 0
11382 -1047 0
11382 7025 0
-11383 -1563 7026 0
11383 1563 0
11383 -7026 0
-11384 1563 -7026 0
11384 -1563 0
11384 7026 0
-11385 -1565 7027 0
11385 1565 0
11385 -7027 0
-11386 1565 -7027 0
11386 -1565 0
11386 7027 0
-11387 -1571 7028 0
11387 1571 0
11387 -7028 0
-11388 1571 -7028 0
11388 -1571 0
11388 7028 0
-11389 -1573 7029 0
11389 1573 0
11389 -7029 0
-11390 1573 -7029 0
11390 -1573 0
11390 7029 0
-11391 -1581 7030 0
11391 1581 0
11391 -7030 0
-11392 1581 -7030 0
11392 -1581 0
11392 7030 0
-11393 -1587 7031 0
11393 1587 0
11393 -7031 0
-11394 1587 -7031 0
11394 -1587 0
11394 7031 0
-11395 -1087 7032 0
11395 1087 0
11395 -7032 0
-11396 1087 -7032 0
11396 -1087 0
11396 7032 0
-11397 -1607 7033 0
11397 1607 0
11397 -7033 0
-11398 1607 -7033 0
11398 -1607 0
11398 7033 0
-11399 -1609 7034 0
11399 1609 0
11399 -7034 0
-11400 1609 -7034 0
11400 -1609 0
11400 7034 0
-11401 -1615 7035 0
11401 1615 0
11401 -7035 0
-11402 1615 -7035 0
11402 -1615 0
11402 7035 0
-11403 -1621 7036 0
11403 1621 0
11403 -7036 0
-11404 1621 -7036 0
11404 -1621 0
11404 7036 0
-11405 -1627 7037 0
11405 1627 0
11405 -7037 0
-11406 1627 -7037 0
11406 -1627 0
11406 7037 0
-11407 -1633 7038 0
11407 1633 0
11407 -7038 0
-11408 1633 -7038 0
11408 -1633 0
11408 7038 0
-11409 -1127 7039 0
11409 1127 0
11409 -7039 0
-11410 1127 -7039 0
11410 -1127 0
11410 7039 0
-11411 -1651 7040 0
11411 1651 0
11411 -7040 0
-11412 1651 -7040 0
11412 -1651 0
11412 7040 0
-11413 -1653 7041 0
11413 1653 0
11413 -7041 0
-11414 1653 -7041 0
11414 -1653 0
11414 7041 0
-11415 -101 6607 0
11415 101 0
11415 -6607 0
-11416 101 -6607 0
11416 -101 0
11416 6607 0
-11417 -1669 7042 0
11417 1669 0
11417 -7042 0
-11418 1669 -7042 0
11418 -1669 0
11418 7042 0
-11419 -379 6608 0
11419 379 0
11419 -6608 0
-11420 379 -6608 0
11420 -379 0
11420 6608 0
-11421 -1167 7043 0
11421 1167 0
11421 -7043 0
-11422 1167 -7043 0
11422 -1167 0
11422 7043 0
-11423 -1679 7044 0
11423 1679 0
11423 -7044 0
-11424 1679 -7044 0
11424 -1679 0
11424 7044 0
-11425 -1683 7045 0
11425 1683 0
11425 -7045 0
-11426 1683 -7045 0
11426 -1683 0
11426 7045 0
-11427 -1687 7046 0
11427 1687 0
11427 -7046 0
-11428 1687 -7046 0
11428 -1687 0
11428 7046 0
-11429 -1689 7047 0
11429 1689 0
11429 -7047 0
-11430 1689 -7047 0
11430 -1689 0
11430 7047 0
-11431 -1179 7048 0
11431 1179 0
11431 -7048 0
-11432 1179 -7048 0
11432 -1179 0
11432 7048 0
-11433 -1699 7049 0
11433 1699 0
11433 -7049 0
-11434 1699 -7049 0
11434 -1699 0
11434 7049 0
-11435 -1701 7050 0
11435 1701 0
11435 -7050 0
-11436 1701 -7050 0
11436 -1701 0
11436 7050 0
-11437 -135 136 0
11437 135 0
11437 -136 0
-11438 135 -136 0
11438 -135 0
11438 136 0
-11439 -1711 7051 0
11439 1711 0
11439 -7051 0
-11440 1711 -7051 0
11440 -1711 0
11440 7051 0
-11441 -1713 7052 0
11441 1713 0
11441 -7052 0
-11442 1713 -7052 0
11442 -1713 0
11442 7052 0
-11443 -1717 7053 0
11443 1717 0
11443 -7053 0
-11444 1717 -7053 0
11444 -1717 0
11444 7053 0
-11445 -1207 7054 0
11445 1207 0
11445 -7054 0
-11446 1207 -7054 0
11446 -1207 0
11446 7054 0
-11447 -1721 7055 0
11447 1721 0
11447 -7055 0
-11448 1721 -7055 0
11448 -1721 0
11448 7055 0
-11449 -1723 7056 0
11449 1723 0
11449 -7056 0
-11450 1723 -7056 0
11450 -1723 0
11450 7056 0
-11451 -1733 7057 0
11451 1733 0
11451 -7057 0
-11452 1733 -7057 0
11452 -1733 0
11452 7057 0
-11453 -1247 7058 0
11453 1247 0
11453 -7058 0
-11454 1247 -7058 0
11454 -1247 0
11454 7058 0
-11455 -1259 7059 0
11455 1259 0
11455 -7059 0
-11456 1259 -7059 0
11456 -1259 0
11456 7059 0
-11457 -1799 7060 0
11457 1799 0
11457 -7060 0
-11458 1799 -7060 0
11458 -1799 0
11458 7060 0
-11459 -1809 7061 0
11459 1809 0
11459 -7061 0
-11460 1809 -7061 0
11460 -1809 0
11460 7061 0
-11461 -1815 7062 0
11461 1815 0
11461 -7062 0
-11462 1815 -7062 0
11462 -1815 0
11462 7062 0
-11463 -1827 7063 0
11463 1827 0
11463 -7063 0
-11464 1827 -7063 0
11464 -1827 0
11464 7063 0
-11465 -1325 7064 0
11465 1325 0
11465 -7064 0
-11466 1325 -7064 0
11466 -1325 0
11466 7064 0
-11467 -1839 7065 0
11467 1839 0
11467 -7065 0
-11468 1839 -7065 0
11468 -1839 0
11468 7065 0
-11469 -459 6623 0
11469 459 0
11469 -6623 0
-11470 459 -6623 0
11470 -459 0
11470 6623 0
-11471 -1337 7066 0
11471 1337 0
11471 -7066 0
-11472 1337 -7066 0
11472 -1337 0
11472 7066 0
-11473 -219 6149 0
11473 219 0
11473 -6149 0
-11474 219 -6149 0
11474 -219 0
11474 6149 0
-11475 -1365 7067 0
11475 1365 0
11475 -7067 0
-11476 1365 -7067 0
11476 -1365 0
11476 7067 0
-11477 -1367 7068 0
11477 1367 0
11477 -7068 0
-11478 1367 -7068 0
11478 -1367 0
11478 7068 0
-11479 -1369 7069 0
11479 1369 0
11479 -7069 0
-11480 1369 -7069 0
11480 -1369 0
11480 7069 0
-11481 -1371 7070 0
11481 1371 0
11481 -7070 0
-11482 1371 -7070 0
11482 -1371 0
11482 7070 0
-11483 -1373 7071 0
11483 1373 0
11483 -7071 0
-11484 1373 -7071 0
11484 -1373 0
11484 7071 0
-11485 -1375 7072 0
11485 1375 0
11485 -7072 0
-11486 1375 -7072 0
11486 -1375 0
11486 7072 0
-11487 -1377 7073 0
11487 1377 0
11487 -7073 0
-11488 1377 -7073 0
11488 -1377 0
11488 7073 0
-11489 -1379 7074 0
11489 1379 0
11489 -7074 0
-11490 1379 -7074 0
11490 -1379 0
11490 7074 0
-11491 -1381 7075 0
11491 1381 0
11491 -7075 0
-11492 1381 -7075 0
11492 -1381 0
11492 7075 0
-11493 -1383 7076 0
11493 1383 0
11493 -7076 0
-11494 1383 -7076 0
11494 -1383 0
11494 7076 0
-11495 -1385 7077 0
11495 1385 0
11495 -7077 0
-11496 1385 -7077 0
11496 -1385 0
11496 7077 0
-11497 -1387 7078 0
11497 1387 0
11497 -7078 0
-11498 1387 -7078 0
11498 -1387 0
11498 7078 0
-11499 -1389 7079 0
11499 1389 0
11499 -7079 0
-11500 1389 -7079 0
11500 -1389 0
11500 7079 0
-11501 -1391 7080 0
11501 1391 0
11501 -7080 0
-11502 1391 -7080 0
11502 -1391 0
11502 7080 0
-11503 -1393 7081 0
11503 1393 0
11503 -7081 0
-11504 1393 -7081 0
11504 -1393 0
11504 7081 0
-11505 -1395 7082 0
11505 1395 0
11505 -7082 0
-11506 1395 -7082 0
11506 -1395 0
11506 7082 0
-11507 -1435 7083 0
11507 1435 0
11507 -7083 0
-11508 1435 -7083 0
11508 -1435 0
11508 7083 0
-11509 -1437 7084 0
11509 1437 0
11509 -7084 0
-11510 1437 -7084 0
11510 -1437 0
11510 7084 0
-11511 -1443 7085 0
11511 1443 0
11511 -7085 0
-11512 1443 -7085 0
11512 -1443 0
11512 7085 0
-11513 -1449 7086 0
11513 1449 0
11513 -7086 0
-11514 1449 -7086 0
11514 -1449 0
11514 7086 0
-11515 -1453 7087 0
11515 1453 0
11515 -7087 0
-11516 1453 -7087 0
11516 -1453 0
11516 7087 0
-11517 -1459 7088 0
11517 1459 0
11517 -7088 0
-11518 1459 -7088 0
11518 -1459 0
11518 7088 0
-11519 -1469 7089 0
11519 1469 0
11519 -7089 0
-11520 1469 -7089 0
11520 -1469 0
11520 7089 0
-11521 -967 7090 0
11521 967 0
11521 -7090 0
-11522 967 -7090 0
11522 -967 0
11522 7090 0
-11523 -1487 7091 0
11523 1487 0
11523 -7091 0
-11524 1487 -7091 0
11524 -1487 0
11524 7091 0
-11525 -1491 7092 0
11525 1491 0
11525 -7092 0
-11526 1491 -7092 0
11526 -1491 0
11526 7092 0
-11527 -1495 7093 0
11527 1495 0
11527 -7093 0
-11528 1495 -7093 0
11528 -1495 0
11528 7093 0
-11529 -1 2 0
11529 1 0
11529 -2 0
-11530 1 -2 0
11530 -1 0
11530 2 0
7094 0
7095 0
7096 0
7097 0
7098 0
7099 0
7100 0
7101 0
7102 0
7103 0
7104 0
7105 0
7106 0
7107 0
7108 0
7109 0
7110 0
7111 0
7112 0
7113 0
7114 0
7115 0
7116 0
7117 0
7118 0
7119 0
7120 0
7121 0
7122 0
7123 0
7124 0
7125 0
7126 0
7127 0
7128 0
7129 0
7130 0
7131 0
7132 0
7133 0
7134 0
7135 0
7136 0
7137 0
7138 0
7139 0
7140 0
7141 0
7142 0
7143 0
7144 0
7145 0
7146 0
7147 0
7148 0
7149 0
7150 0
7151 0
7152 0
7153 0
7154 0
7155 0
7156 0
7157 0
7158 0
7159 0
7160 0
7161 0
7162 0
7163 0
7164 0
7165 0
7166 0
7167 0
7168 0
7169 0
7170 0
7171 0
7172 0
7173 0
7174 0
7175 0
7176 0
7177 0
7178 0
7179 0
7180 0
7181 0
7182 0
7183 0
7184 0
7185 0
7186 0
7187 0
7188 0
7189 0
7190 0
7191 0
7192 0
7193 0
7194 0
7195 0
7196 0
7197 0
7198 0
7199 0
7200 0
7201 0
7202 0
7203 0
7204 0
7205 0
7206 0
7207 0
7208 0
7209 0
7210 0
7211 0
7212 0
7213 0
7214 0
7215 0
7216 0
7217 0
7218 0
7219 0
7220 0
7221 0
7222 0
7223 0
7224 0
7225 0
7226 0
7227 0
7228 0
7229 0
7230 0
7231 0
7232 0
7233 0
7234 0
7235 0
7236 0
7237 0
7238 0
7239 0
7240 0
7241 0
7242 0
7243 0
7244 0
7245 0
7246 0
7247 0
7248 0
7249 0
7250 0
7251 0
7252 0
7253 0
7254 0
7255 0
7256 0
7257 0
7258 0
7259 0
7260 0
7261 0
7262 0
7263 0
7264 0
7265 0
7266 0
7267 0
7268 0
7269 0
7270 0
7271 0
7272 0
7273 0
7274 0
7275 0
7276 0
7277 0
7278 0
7279 0
7280 0
7281 0
7282 0
7283 0
7284 0
7285 0
7286 0
7287 0
7288 0
7289 0
7290 0
7291 0
7292 0
7293 0
7294 0
7295 0
7296 0
7297 0
7298 0
7299 0
7300 0
7301 0
7302 0
7303 0
7304 0
7305 0
7306 0
7307 0
7308 0
7309 0
7310 0
7311 0
7312 0
7313 0
7314 0
7315 0
7316 0
7317 0
7318 0
7319 0
7320 0
7321 0
7322 0
7323 0
7324 0
7325 0
7326 0
7327 0
7328 0
7329 0
7330 0
7331 0
7332 0
7333 0
7334 0
7335 0
7336 0
7337 0
7338 0
7339 0
7340 0
7341 0
7342 0
7343 0
7344 0
7345 0
7346 0
7347 0
7348 0
7349 0
7350 0
7351 0
7352 0
7353 0
7354 0
7355 0
7356 0
7357 0
7358 0
7359 0
7360 0
7361 0
7362 0
7363 0
7364 0
7365 0
7366 0
7367 0
7368 0
7369 0
7370 0
7371 0
7372 0
7373 0
7374 0
7375 0
7376 0
7377 0
7378 0
7379 0
7380 0
7381 0
7382 0
7383 0
7384 0
7385 0
7386 0
7387 0
7388 0
7389 0
7390 0
7391 0
7392 0
7393 0
7394 0
7395 0
7396 0
7397 0
7398 0
7399 0
7400 0
7401 0
7402 0
7403 0
7404 0
7405 0
7406 0
7407 0
7408 0
7409 0
7410 0
7411 0
7412 0
7413 0
7414 0
7415 0
7416 0
7417 0
7418 0
7419 0
7420 0
7421 0
7422 0
7423 0
7424 0
7425 0
7426 0
7427 0
7428 0
7429 0
7430 0
7431 0
7432 0
7433 0
7434 0
7435 0
7436 0
7437 0
7438 0
7439 0
7440 0
7441 0
7442 0
7443 0
7444 0
7445 0
7446 0
7447 0
7448 0
7449 0
7450 0
7451 0
7452 0
7453 0
7454 0
7455 0
7456 0
7457 0
7458 0
7459 0
7460 0
7461 0
7462 0
7463 0
7464 0
7465 0
7466 0
7467 0
7468 0
7469 0
7470 0
7471 0
7472 0
7473 0
7474 0
7475 0
7476 0
7477 0
7478 0
7479 0
7480 0
7481 0
7482 0
7483 0
7484 0
7485 0
7486 0
7487 0
7488 0
7489 0
7490 0
7491 0
7492 0
7493 0
7494 0
7495 0
7496 0
7497 0
7498 0
7499 0
7500 0
7501 0
7502 0
7503 0
7504 0
7505 0
7506 0
7507 0
7508 0
7509 0
7510 0
7511 0
7512 0
7513 0
7514 0
7515 0
7516 0
7517 0
7518 0
7519 0
7520 0
7521 0
7522 0
7523 0
7524 0
7525 0
7526 0
7527 0
7528 0
7529 0
7530 0
7531 0
7532 0
7533 0
7534 0
7535 0
7536 0
7537 0
7538 0
7539 0
7540 0
7541 0
7542 0
7543 0
7544 0
7545 0
7546 0
7547 0
7548 0
7549 0
7550 0
7551 0
7552 0
7553 0
7554 0
7555 0
7556 0
7557 0
7558 0
7559 0
7560 0
7561 0
7562 0
7563 0
7564 0
7565 0
7566 0
7567 0
7568 0
7569 0
7570 0
7571 0
7572 0
7573 0
7574 0
7575 0
7576 0
7577 0
7578 0
7579 0
7580 0
7581 0
7582 0
7583 0
7584 0
7585 0
7586 0
7587 0
7588 0
7589 0
7590 0
7591 0
7592 0
7593 0
7594 0
7595 0
7596 0
7597 0
7598 0
7599 0
7600 0
7601 0
7602 0
7603 0
7604 0
7605 0
7606 0
7607 0
7608 0
7609 0
7610 0
7611 0
7612 0
7613 0
7614 0
7615 0
7616 0
7617 0
7618 0
7619 0
7620 0
7621 0
7622 0
7623 0
7624 0
7625 0
7626 0
7627 0
7628 0
7629 0
7630 0
7631 0
7632 0
7633 0
7634 0
7635 0
7636 0
7637 0
7638 0
7639 0
7640 0
7641 0
7642 0
7643 0
7644 0
7645 0
7646 0
7647 0
7648 0
7649 0
7650 0
7651 0
7652 0
7653 0
7654 0
7655 0
7656 0
7657 0
7658 0
7659 0
7660 0
7661 0
7662 0
7663 0
7664 0
7665 0
7666 0
7667 0
7668 0
7669 0
7670 0
7671 0
7672 0
7673 0
7674 0
7675 0
7676 0
7677 0
7678 0
7679 0
7680 0
7681 0
7682 0
7683 0
7684 0
7685 0
7686 0
7687 0
7688 0
7689 0
7690 0
7691 0
7692 0
7693 0
7694 0
7695 0
7696 0
7697 0
7698 0
7699 0
7700 0
7701 0
7702 0
7703 0
7704 0
7705 0
7706 0
7707 0
7708 0
7709 0
7710 0
7711 0
7712 0
7713 0
7714 0
7715 0
7716 0
7717 0
7718 0
7719 0
7720 0
7721 0
7722 0
7723 0
7724 0
7725 0
7726 0
7727 0
7728 0
7729 0
7730 0
7731 0
7732 0
7733 0
7734 0
7735 0
7736 0
7737 0
7738 0
7739 0
7740 0
7741 0
7742 0
7743 0
7744 0
7745 0
7746 0
7747 0
7748 0
7749 0
7750 0
7751 0
7752 0
7753 0
7754 0
7755 0
7756 0
7757 0
7758 0
7759 0
7760 0
7761 0
7762 0
7763 0
7764 0
7765 0
7766 0
7767 0
7768 0
7769 0
7770 0
7771 0
7772 0
7773 0
7774 0
7775 0
7776 0
7777 0
7778 0
7779 0
7780 0
7781 0
7782 0
7783 0
7784 0
7785 0
7786 0
7787 0
7788 0
7789 0
7790 0
7791 0
7792 0
7793 0
7794 0
7795 0
7796 0
7797 0
7798 0
7799 0
7800 0
7801 0
7802 0
7803 0
7804 0
7805 0
7806 0
7807 0
7808 0
7809 0
7810 0
7811 0
7812 0
7813 0
7814 0
7815 0
7816 0
7817 0
7818 0
7819 0
7820 0
7821 0
7822 0
7823 0
7824 0
7825 0
7826 0
7827 0
7828 0
7829 0
7830 0
7831 0
7832 0
7833 0
7834 0
7835 0
7836 0
7837 0
7838 0
7839 0
7840 0
7841 0
7842 0
7843 0
7844 0
7845 0
7846 0
7847 0
7848 0
7849 0
7850 0
7851 0
7852 0
7853 0
7854 0
7855 0
7856 0
7857 0
7858 0
7859 0
7860 0
7861 0
7862 0
7863 0
7864 0
7865 0
7866 0
7867 0
7868 0
7869 0
7870 0
7871 0
7872 0
7873 0
7874 0
7875 0
7876 0
7877 0
7878 0
7879 0
7880 0
7881 0
7882 0
7883 0
7884 0
7885 0
7886 0
7887 0
7888 0
7889 0
7890 0
7891 0
7892 0
7893 0
7894 0
7895 0
7896 0
7897 0
7898 0
7899 0
7900 0
7901 0
7902 0
7903 0
7904 0
7905 0
7906 0
7907 0
7908 0
7909 0
7910 0
7911 0
7912 0
7913 0
7914 0
7915 0
7916 0
7917 0
7918 0
7919 0
7920 0
7921 0
7922 0
7923 0
7924 0
7925 0
7926 0
7927 0
7928 0
7929 0
7930 0
7931 0
7932 0
7933 0
7934 0
7935 0
7936 0
7937 0
7938 0
7939 0
7940 0
7941 0
7942 0
7943 0
7944 0
7945 0
7946 0
7947 0
7948 0
7949 0
7950 0
7951 0
7952 0
7953 0
7954 0
7955 0
7956 0
7957 0
7958 0
7959 0
7960 0
7961 0
7962 0
7963 0
7964 0
7965 0
7966 0
7967 0
7968 0
7969 0
7970 0
7971 0
7972 0
7973 0
7974 0
7975 0
7976 0
7977 0
7978 0
7979 0
7980 0
7981 0
7982 0
7983 0
7984 0
7985 0
7986 0
7987 0
7988 0
7989 0
7990 0
7991 0
7992 0
7993 0
7994 0
7995 0
7996 0
7997 0
7998 0
7999 0
8000 0
8001 0
8002 0
8003 0
8004 0
8005 0
8006 0
8007 0
8008 0
8009 0
8010 0
8011 0
8012 0
8013 0
8014 0
8015 0
8016 0
8017 0
8018 0
8019 0
8020 0
8021 0
8022 0
8023 0
8024 0
8025 0
8026 0
8027 0
8028 0
8029 0
8030 0
8031 0
8032 0
8033 0
8034 0
8035 0
8036 0
8037 0
8038 0
8039 0
8040 0
8041 0
8042 0
8043 0
8044 0
8045 0
8046 0
8047 0
8048 0
8049 0
8050 0
8051 0
8052 0
8053 0
8054 0
8055 0
8056 0
8057 0
8058 0
8059 0
8060 0
8061 0
8062 0
8063 0
8064 0
8065 0
8066 0
8067 0
8068 0
8069 0
8070 0
8071 0
8072 0
8073 0
8074 0
8075 0
8076 0
8077 0
8078 0
8079 0
8080 0
8081 0
8082 0
8083 0
8084 0
8085 0
8086 0
8087 0
8088 0
8089 0
8090 0
8091 0
8092 0
8093 0
8094 0
8095 0
8096 0
8097 0
8098 0
8099 0
8100 0
8101 0
8102 0
8103 0
8104 0
8105 0
8106 0
8107 0
8108 0
8109 0
8110 0
8111 0
8112 0
8113 0
8114 0
8115 0
8116 0
8117 0
8118 0
8119 0
8120 0
8121 0
8122 0
8123 0
8124 0
8125 0
8126 0
8127 0
8128 0
8129 0
8130 0
8131 0
8132 0
8133 0
8134 0
8135 0
8136 0
8137 0
8138 0
8139 0
8140 0
8141 0
8142 0
8143 0
8144 0
8145 0
8146 0
8147 0
8148 0
8149 0
8150 0
8151 0
8152 0
8153 0
8154 0
8155 0
8156 0
8157 0
8158 0
8159 0
8160 0
8161 0
8162 0
8163 0
8164 0
8165 0
8166 0
8167 0
8168 0
8169 0
8170 0
8171 0
8172 0
8173 0
8174 0
8175 0
8176 0
8177 0
8178 0
8179 0
8180 0
8181 0
8182 0
8183 0
8184 0
8185 0
8186 0
8187 0
8188 0
8189 0
8190 0
8191 0
8192 0
8193 0
8194 0
8195 0
8196 0
8197 0
8198 0
8199 0
8200 0
8201 0
8202 0
8203 0
8204 0
8205 0
8206 0
8207 0
8208 0
8209 0
8210 0
8211 0
8212 0
8213 0
8214 0
8215 0
8216 0
8217 0
8218 0
8219 0
8220 0
8221 0
8222 0
8223 0
8224 0
8225 0
8226 0
8227 0
8228 0
8229 0
8230 0
8231 0
8232 0
8233 0
8234 0
8235 0
8236 0
8237 0
8238 0
8239 0
8240 0
8241 0
8242 0
8243 0
8244 0
8245 0
8246 0
8247 0
8248 0
8249 0
8250 0
8251 0
8252 0
8253 0
8254 0
8255 0
8256 0
8257 0
8258 0
8259 0
8260 0
8261 0
8262 0
8263 0
8264 0
8265 0
8266 0
8267 0
8268 0
8269 0
8270 0
8271 0
8272 0
8273 0
8274 0
8275 0
8276 0
8277 0
8278 0
8279 0
8280 0
8281 0
8282 0
8283 0
8284 0
8285 0
8286 0
8287 0
8288 0
8289 0
8290 0
8291 0
8292 0
8293 0
8294 0
8295 0
8296 0
8297 0
8298 0
8299 0
8300 0
8301 0
8302 0
8303 0
8304 0
8305 0
8306 0
8307 0
8308 0
8309 0
8310 0
8311 0
8312 0
8313 0
8314 0
8315 0
8316 0
8317 0
8318 0
8319 0
8320 0
8321 0
8322 0
8323 0
8324 0
8325 0
8326 0
8327 0
8328 0
8329 0
8330 0
8331 0
8332 0
8333 0
8334 0
8335 0
8336 0
8337 0
8338 0
8339 0
8340 0
8341 0
8342 0
8343 0
8344 0
8345 0
8346 0
8347 0
8348 0
8349 0
8350 0
8351 0
8352 0
8353 0
8354 0
8355 0
8356 0
8357 0
8358 0
8359 0
8360 0
8361 0
8362 0
8363 0
8364 0
8365 0
8366 0
8367 0
8368 0
8369 0
8370 0
8371 0
8372 0
8373 0
8374 0
8375 0
8376 0
8377 0
8378 0
8379 0
8380 0
8381 0
8382 0
8383 0
8384 0
8385 0
8386 0
8387 0
8388 0
8389 0
8390 0
8391 0
8392 0
8393 0
8394 0
8395 0
8396 0
8397 0
8398 0
8399 0
8400 0
8401 0
8402 0
8403 0
8404 0
8405 0
8406 0
8407 0
8408 0
8409 0
8410 0
8411 0
8412 0
8413 0
8414 0
8415 0
8416 0
8417 0
8418 0
8419 0
8420 0
8421 0
8422 0
8423 0
8424 0
8425 0
8426 0
8427 0
8428 0
8429 0
8430 0
8431 0
8432 0
8433 0
8434 0
8435 0
8436 0
8437 0
8438 0
8439 0
8440 0
8441 0
8442 0
8443 0
8444 0
8445 0
8446 0
8447 0
8448 0
8449 0
8450 0
8451 0
8452 0
8453 0
8454 0
8455 0
8456 0
8457 0
8458 0
8459 0
8460 0
8461 0
8462 0
8463 0
8464 0
8465 0
8466 0
8467 0
8468 0
8469 0
8470 0
8471 0
8472 0
8473 0
8474 0
8475 0
8476 0
8477 0
8478 0
8479 0
8480 0
8481 0
8482 0
8483 0
8484 0
8485 0
8486 0
8487 0
8488 0
8489 0
8490 0
8491 0
8492 0
8493 0
8494 0
8495 0
8496 0
8497 0
8498 0
8499 0
8500 0
8501 0
8502 0
8503 0
8504 0
8505 0
8506 0
8507 0
8508 0
8509 0
8510 0
8511 0
8512 0
8513 0
8514 0
8515 0
8516 0
8517 0
8518 0
8519 0
8520 0
8521 0
8522 0
8523 0
8524 0
8525 0
8526 0
8527 0
8528 0
8529 0
8530 0
8531 0
8532 0
8533 0
8534 0
8535 0
8536 0
8537 0
8538 0
8539 0
8540 0
8541 0
8542 0
8543 0
8544 0
8545 0
8546 0
8547 0
8548 0
8549 0
8550 0
8551 0
8552 0
8553 0
8554 0
8555 0
8556 0
8557 0
8558 0
8559 0
8560 0
8561 0
8562 0
8563 0
8564 0
8565 0
8566 0
8567 0
8568 0
8569 0
8570 0
8571 0
8572 0
8573 0
8574 0
8575 0
8576 0
8577 0
8578 0
8579 0
8580 0
8581 0
8582 0
8583 0
8584 0
8585 0
8586 0
8587 0
8588 0
8589 0
8590 0
8591 0
8592 0
8593 0
8594 0
8595 0
8596 0
8597 0
8598 0
8599 0
8600 0
8601 0
8602 0
8603 0
8604 0
8605 0
8606 0
8607 0
8608 0
8609 0
8610 0
8611 0
8612 0
8613 0
8614 0
8615 0
8616 0
8617 0
8618 0
8619 0
8620 0
8621 0
8622 0
8623 0
8624 0
8625 0
8626 0
8627 0
8628 0
8629 0
8630 0
8631 0
8632 0
8633 0
8634 0
8635 0
8636 0
8637 0
8638 0
8639 0
8640 0
8641 0
8642 0
8643 0
8644 0
8645 0
8646 0
8647 0
8648 0
8649 0
8650 0
8651 0
8652 0
8653 0
8654 0
8655 0
8656 0
8657 0
8658 0
8659 0
8660 0
8661 0
8662 0
8663 0
8664 0
8665 0
8666 0
8667 0
8668 0
8669 0
8670 0
8671 0
8672 0
8673 0
8674 0
8675 0
8676 0
8677 0
8678 0
8679 0
8680 0
8681 0
8682 0
8683 0
8684 0
8685 0
8686 0
8687 0
8688 0
8689 0
8690 0
8691 0
8692 0
8693 0
8694 0
8695 0
8696 0
8697 0
8698 0
8699 0
8700 0
8701 0
8702 0
8703 0
8704 0
8705 0
8706 0
8707 0
8708 0
8709 0
8710 0
8711 0
8712 0
8713 0
8714 0
8715 0
8716 0
8717 0
8718 0
8719 0
8720 0
8721 0
8722 0
8723 0
8724 0
8725 0
8726 0
8727 0
8728 0
8729 0
8730 0
8731 0
8732 0
8733 0
8734 0
8735 0
8736 0
8737 0
8738 0
8739 0
8740 0
8741 0
8742 0
8743 0
8744 0
8745 0
8746 0
8747 0
8748 0
8749 0
8750 0
8751 0
8752 0
8753 0
8754 0
8755 0
8756 0
8757 0
8758 0
8759 0
8760 0
8761 0
8762 0
8763 0
8764 0
8765 0
8766 0
8767 0
8768 0
8769 0
8770 0
8771 0
8772 0
8773 0
8774 0
8775 0
8776 0
8777 0
8778 0
8779 0
8780 0
8781 0
8782 0
8783 0
8784 0
8785 0
8786 0
8787 0
8788 0
8789 0
8790 0
8791 0
8792 0
8793 0
8794 0
8795 0
8796 0
8797 0
8798 0
8799 0
8800 0
8801 0
8802 0
8803 0
8804 0
8805 0
8806 0
8807 0
8808 0
8809 0
8810 0
8811 0
8812 0
8813 0
8814 0
8815 0
8816 0
8817 0
8818 0
8819 0
8820 0
8821 0
8822 0
8823 0
8824 0
8825 0
8826 0
8827 0
8828 0
8829 0
8830 0
8831 0
8832 0
8833 0
8834 0
8835 0
8836 0
8837 0
8838 0
8839 0
8840 0
8841 0
8842 0
8843 0
8844 0
8845 0
8846 0
8847 0
8848 0
8849 0
8850 0
8851 0
8852 0
8853 0
8854 0
8855 0
8856 0
8857 0
8858 0
8859 0
8860 0
8861 0
8862 0
8863 0
8864 0
8865 0
8866 0
8867 0
8868 0
8869 0
8870 0
8871 0
8872 0
8873 0
8874 0
8875 0
8876 0
8877 0
8878 0
8879 0
8880 0
8881 0
8882 0
8883 0
8884 0
8885 0
8886 0
8887 0
8888 0
8889 0
8890 0
8891 0
8892 0
8893 0
8894 0
8895 0
8896 0
8897 0
8898 0
8899 0
8900 0
8901 0
8902 0
8903 0
8904 0
8905 0
8906 0
8907 0
8908 0
8909 0
8910 0
8911 0
8912 0
8913 0
8914 0
8915 0
8916 0
8917 0
8918 0
8919 0
8920 0
8921 0
8922 0
8923 0
8924 0
8925 0
8926 0
8927 0
8928 0
8929 0
8930 0
8931 0
8932 0
8933 0
8934 0
8935 0
8936 0
8937 0
8938 0
8939 0
8940 0
8941 0
8942 0
8943 0
8944 0
8945 0
8946 0
8947 0
8948 0
8949 0
8950 0
8951 0
8952 0
8953 0
8954 0
8955 0
8956 0
8957 0
8958 0
8959 0
8960 0
8961 0
8962 0
8963 0
8964 0
8965 0
8966 0
8967 0
8968 0
8969 0
8970 0
8971 0
8972 0
8973 0
8974 0
8975 0
8976 0
8977 0
8978 0
8979 0
8980 0
8981 0
8982 0
8983 0
8984 0
8985 0
8986 0
8987 0
8988 0
8989 0
8990 0
8991 0
8992 0
8993 0
8994 0
8995 0
8996 0
8997 0
8998 0
8999 0
9000 0
9001 0
9002 0
9003 0
9004 0
9005 0
9006 0
9007 0
9008 0
9009 0
9010 0
9011 0
9012 0
9013 0
9014 0
9015 0
9016 0
9017 0
9018 0
9019 0
9020 0
9021 0
9022 0
9023 0
9024 0
9025 0
9026 0
9027 0
9028 0
9029 0
9030 0
9031 0
9032 0
9033 0
9034 0
9035 0
9036 0
9037 0
9038 0
9039 0
9040 0
9041 0
9042 0
9043 0
9044 0
9045 0
9046 0
9047 0
9048 0
9049 0
9050 0
9051 0
9052 0
9053 0
9054 0
9055 0
9056 0
9057 0
9058 0
9059 0
9060 0
9061 0
9062 0
9063 0
9064 0
9065 0
9066 0
9067 0
9068 0
9069 0
9070 0
9071 0
9072 0
9073 0
9074 0
9075 0
9076 0
9077 0
9078 0
9079 0
9080 0
9081 0
9082 0
9083 0
9084 0
9085 0
9086 0
9087 0
9088 0
9089 0
9090 0
9091 0
9092 0
9093 0
9094 0
9095 0
9096 0
9097 0
9098 0
9099 0
9100 0
9101 0
9102 0
9103 0
9104 0
9105 0
9106 0
9107 0
9108 0
9109 0
9110 0
9111 0
9112 0
9113 0
9114 0
9115 0
9116 0
9117 0
9118 0
9119 0
9120 0
9121 0
9122 0
9123 0
9124 0
9125 0
9126 0
9127 0
9128 0
9129 0
9130 0
9131 0
9132 0
9133 0
9134 0
9135 0
9136 0
9137 0
9138 0
9139 0
9140 0
9141 0
9142 0
9143 0
9144 0
9145 0
9146 0
9147 0
9148 0
9149 0
9150 0
9151 0
9152 0
9153 0
9154 0
9155 0
9156 0
9157 0
9158 0
9159 0
9160 0
9161 0
9162 0
9163 0
9164 0
9165 0
9166 0
9167 0
9168 0
9169 0
9170 0
9171 0
9172 0
9173 0
9174 0
9175 0
9176 0
9177 0
9178 0
9179 0
9180 0
9181 0
9182 0
9183 0
9184 0
9185 0
9186 0
9187 0
9188 0
9189 0
9190 0
9191 0
9192 0
9193 0
9194 0
9195 0
9196 0
9197 0
9198 0
9199 0
9200 0
9201 0
9202 0
9203 0
9204 0
9205 0
9206 0
9207 0
9208 0
9209 0
9210 0
9211 0
9212 0
9213 0
9214 0
9215 0
9216 0
9217 0
9218 0
9219 0
9220 0
9221 0
9222 0
9223 0
9224 0
9225 0
9226 0
9227 0
9228 0
9229 0
9230 0
9231 0
9232 0
9233 0
9234 0
9235 0
9236 0
9237 0
9238 0
9239 0
9240 0
9241 0
9242 0
9243 0
9244 0
9245 0
9246 0
9247 0
9248 0
9249 0
9250 0
9251 0
9252 0
9253 0
9254 0
9255 0
9256 0
9257 0
9258 0
9259 0
9260 0
9261 0
9262 0
9263 0
9264 0
9265 0
9266 0
9267 0
9268 0
9269 0
9270 0
9271 0
9272 0
9273 0
9274 0
9275 0
9276 0
9277 0
9278 0
9279 0
9280 0
9281 0
9282 0
9283 0
9284 0
9285 0
9286 0
9287 0
9288 0
9289 0
9290 0
9291 0
9292 0
9293 0
9294 0
9295 0
9296 0
9297 0
9298 0
9299 0
9300 0
9301 0
9302 0
9303 0
9304 0
9305 0
9306 0
9307 0
9308 0
9309 0
9310 0
9311 0
9312 0
9313 0
9314 0
9315 0
9316 0
9317 0
9318 0
9319 0
9320 0
9321 0
9322 0
9323 0
9324 0
9325 0
9326 0
9327 0
9328 0
9329 0
9330 0
9331 0
9332 0
9333 0
9334 0
9335 0
9336 0
9337 0
9338 0
9339 0
9340 0
9341 0
9342 0
9343 0
9344 0
9345 0
9346 0
9347 0
9348 0
9349 0
9350 0
9351 0
9352 0
9353 0
9354 0
9355 0
9356 0
9357 0
9358 0
9359 0
9360 0
9361 0
9362 0
9363 0
9364 0
9365 0
9366 0
9367 0
9368 0
9369 0
9370 0
9371 0
9372 0
9373 0
9374 0
9375 0
9376 0
9377 0
9378 0
9379 0
9380 0
9381 0
9382 0
9383 0
9384 0
9385 0
9386 0
9387 0
9388 0
9389 0
9390 0
9391 0
9392 0
9393 0
9394 0
9395 0
9396 0
9397 0
9398 0
9399 0
9400 0
9401 0
9402 0
9403 0
9404 0
9405 0
9406 0
9407 0
9408 0
9409 0
9410 0
9411 0
9412 0
9413 0
9414 0
9415 0
9416 0
9417 0
9418 0
9419 0
9420 0
9421 0
9422 0
9423 0
9424 0
9425 0
9426 0
9427 0
9428 0
9429 0
9430 0
9431 0
9432 0
9433 0
9434 0
9435 0
9436 0
9437 0
9438 0
9439 0
9440 0
9441 0
9442 0
9443 0
9444 0
9445 0
9446 0
9447 0
9448 0
9449 0
9450 0
9451 0
9452 0
9453 0
9454 0
9455 0
9456 0
9457 0
9458 0
9459 0
9460 0
9461 0
9462 0
9463 0
9464 0
9465 0
9466 0
9467 0
9468 0
9469 0
9470 0
9471 0
9472 0
9473 0
9474 0
9475 0
9476 0
9477 0
9478 0
9479 0
9480 0
9481 0
9482 0
9483 0
9484 0
9485 0
9486 0
9487 0
9488 0
9489 0
9490 0
9491 0
9492 0
9493 0
9494 0
9495 0
9496 0
9497 0
9498 0
9499 0
9500 0
9501 0
9502 0
9503 0
9504 0
9505 0
9506 0
9507 0
9508 0
9509 0
9510 0
9511 0
9512 0
9513 0
9514 0
9515 0
9516 0
9517 0
9518 0
9519 0
9520 0
9521 0
9522 0
9523 0
9524 0
9525 0
9526 0
9527 0
9528 0
9529 0
9530 0
9531 0
9532 0
9533 0
9534 0
9535 0
9536 0
9537 0
9538 0
9539 0
9540 0
9541 0
9542 0
9543 0
9544 0
9545 0
9546 0
9547 0
9548 0
9549 0
9550 0
9551 0
9552 0
9553 0
9554 0
9555 0
9556 0
9557 0
9558 0
9559 0
9560 0
9561 0
9562 0
9563 0
9564 0
9565 0
9566 0
9567 0
9568 0
9569 0
9570 0
9571 0
9572 0
9573 0
9574 0
9575 0
9576 0
9577 0
9578 0
9579 0
9580 0
9581 0
9582 0
9583 0
9584 0
9585 0
9586 0
9587 0
9588 0
9589 0
9590 0
9591 0
9592 0
9593 0
9594 0
9595 0
9596 0
9597 0
9598 0
9599 0
9600 0
9601 0
9602 0
9603 0
9604 0
9605 0
9606 0
9607 0
9608 0
9609 0
9610 0
9611 0
9612 0
9613 0
9614 0
9615 0
9616 0
9617 0
9618 0
9619 0
9620 0
9621 0
9622 0
9623 0
9624 0
9625 0
9626 0
9627 0
9628 0
9629 0
9630 0
9631 0
9632 0
9633 0
9634 0
9635 0
9636 0
9637 0
9638 0
9639 0
9640 0
9641 0
9642 0
9643 0
9644 0
9645 0
9646 0
9647 0
9648 0
9649 0
9650 0
9651 0
9652 0
9653 0
9654 0
9655 0
9656 0
9657 0
9658 0
9659 0
9660 0
9661 0
9662 0
9663 0
9664 0
9665 0
9666 0
9667 0
9668 0
9669 0
9670 0
9671 0
9672 0
9673 0
9674 0
9675 0
9676 0
9677 0
9678 0
9679 0
9680 0
9681 0
9682 0
9683 0
9684 0
9685 0
9686 0
9687 0
9688 0
9689 0
9690 0
9691 0
9692 0
9693 0
9694 0
9695 0
9696 0
9697 0
9698 0
9699 0
9700 0
9701 0
9702 0
9703 0
9704 0
9705 0
9706 0
9707 0
9708 0
9709 0
9710 0
9711 0
9712 0
9713 0
9714 0
9715 0
9716 0
9717 0
9718 0
9719 0
9720 0
9721 0
9722 0
9723 0
9724 0
9725 0
9726 0
9727 0
9728 0
9729 0
9730 0
9731 0
9732 0
9733 0
9734 0
9735 0
9736 0
9737 0
9738 0
9739 0
9740 0
9741 0
9742 0
9743 0
9744 0
9745 0
9746 0
9747 0
9748 0
9749 0
9750 0
9751 0
9752 0
9753 0
9754 0
9755 0
9756 0
9757 0
9758 0
9759 0
9760 0
9761 0
9762 0
9763 0
9764 0
9765 0
9766 0
9767 0
9768 0
9769 0
9770 0
9771 0
9772 0
9773 0
9774 0
9775 0
9776 0
9777 0
9778 0
9779 0
9780 0
9781 0
9782 0
9783 0
9784 0
9785 0
9786 0
9787 0
9788 0
9789 0
9790 0
9791 0
9792 0
9793 0
9794 0
9795 0
9796 0
9797 0
9798 0
9799 0
9800 0
9801 0
9802 0
9803 0
9804 0
9805 0
9806 0
9807 0
9808 0
9809 0
9810 0
9811 0
9812 0
9813 0
9814 0
9815 0
9816 0
9817 0
9818 0
9819 0
9820 0
9821 0
9822 0
9823 0
9824 0
9825 0
9826 0
9827 0
9828 0
9829 0
9830 0
9831 0
9832 0
9833 0
9834 0
9835 0
9836 0
9837 0
9838 0
9839 0
9840 0
9841 0
9842 0
9843 0
9844 0
9845 0
9846 0
9847 0
9848 0
9849 0
9850 0
9851 0
9852 0
9853 0
9854 0
9855 0
9856 0
9857 0
9858 0
9859 0
9860 0
9861 0
9862 0
9863 0
9864 0
9865 0
9866 0
9867 0
9868 0
9869 0
9870 0
9871 0
9872 0
9873 0
9874 0
9875 0
9876 0
9877 0
9878 0
9879 0
9880 0
9881 0
9882 0
9883 0
9884 0
9885 0
9886 0
9887 0
9888 0
9889 0
9890 0
9891 0
9892 0
9893 0
9894 0
9895 0
9896 0
9897 0
9898 0
9899 0
9900 0
9901 0
9902 0
9903 0
9904 0
9905 0
9906 0
9907 0
9908 0
9909 0
9910 0
9911 0
9912 0
9913 0
9914 0
9915 0
9916 0
9917 0
9918 0
9919 0
9920 0
9921 0
9922 0
9923 0
9924 0
9925 0
9926 0
9927 0
9928 0
9929 0
9930 0
9931 0
9932 0
9933 0
9934 0
9935 0
9936 0
9937 0
9938 0
9939 0
9940 0
9941 0
9942 0
9943 0
9944 0
9945 0
9946 0
9947 0
9948 0
9949 0
9950 0
9951 0
9952 0
9953 0
9954 0
9955 0
9956 0
9957 0
9958 0
9959 0
9960 0
9961 0
9962 0
9963 0
9964 0
9965 0
9966 0
9967 0
9968 0
9969 0
9970 0
9971 0
9972 0
9973 0
9974 0
9975 0
9976 0
9977 0
9978 0
9979 0
9980 0
9981 0
9982 0
9983 0
9984 0
9985 0
9986 0
9987 0
9988 0
9989 0
9990 0
9991 0
9992 0
9993 0
9994 0
9995 0
9996 0
9997 0
9998 0
9999 0
10000 0
10001 0
10002 0
10003 0
10004 0
10005 0
10006 0
10007 0
10008 0
10009 0
10010 0
10011 0
10012 0
10013 0
10014 0
10015 0
10016 0
10017 0
10018 0
10019 0
10020 0
10021 0
10022 0
10023 0
10024 0
10025 0
10026 0
10027 0
10028 0
10029 0
10030 0
10031 0
10032 0
10033 0
10034 0
10035 0
10036 0
10037 0
10038 0
10039 0
10040 0
10041 0
10042 0
10043 0
10044 0
10045 0
10046 0
10047 0
10048 0
10049 0
10050 0
10051 0
10052 0
10053 0
10054 0
10055 0
10056 0
10057 0
10058 0
10059 0
10060 0
10061 0
10062 0
10063 0
10064 0
10065 0
10066 0
10067 0
10068 0
10069 0
10070 0
10071 0
10072 0
10073 0
10074 0
10075 0
10076 0
10077 0
10078 0
10079 0
10080 0
10081 0
10082 0
10083 0
10084 0
10085 0
10086 0
10087 0
10088 0
10089 0
10090 0
10091 0
10092 0
10093 0
10094 0
10095 0
10096 0
10097 0
10098 0
10099 0
10100 0
10101 0
10102 0
10103 0
10104 0
10105 0
10106 0
10107 0
10108 0
10109 0
10110 0
10111 0
10112 0
10113 0
10114 0
10115 0
10116 0
10117 0
10118 0
10119 0
10120 0
10121 0
10122 0
10123 0
10124 0
10125 0
10126 0
10127 0
10128 0
10129 0
10130 0
10131 0
10132 0
10133 0
10134 0
10135 0
10136 0
10137 0
10138 0
10139 0
10140 0
10141 0
10142 0
10143 0
10144 0
10145 0
10146 0
10147 0
10148 0
10149 0
10150 0
10151 0
10152 0
10153 0
10154 0
10155 0
10156 0
10157 0
10158 0
10159 0
10160 0
10161 0
10162 0
10163 0
10164 0
10165 0
10166 0
10167 0
10168 0
10169 0
10170 0
10171 0
10172 0
10173 0
10174 0
10175 0
10176 0
10177 0
10178 0
10179 0
10180 0
10181 0
10182 0
10183 0
10184 0
10185 0
10186 0
10187 0
10188 0
10189 0
10190 0
10191 0
10192 0
10194 0
10195 0
10196 0
10197 0
10198 0
10199 0
10200 0
10201 0
10202 0
10203 0
10204 0
10205 0
10206 0
10207 0
10208 0
10209 0
10210 0
10211 0
10212 0
10213 0
10214 0
10215 0
10216 0
10217 0
10218 0
10219 0
10220 0
10221 0
10222 0
10223 0
10224 0
10225 0
10226 0
10227 0
10228 0
10229 0
10230 0
10231 0
10232 0
10233 0
10234 0
10235 0
10236 0
10237 0
10238 0
10239 0
10240 0
10241 0
10242 0
10243 0
10244 0
10245 0
10246 0
10247 0
10248 0
10249 0
10250 0
10251 0
10252 0
10253 0
10254 0
10255 0
10256 0
10257 0
10258 0
10259 0
10260 0
10261 0
10262 0
10263 0
10264 0
10265 0
10266 0
10267 0
10268 0
10269 0
10270 0
10271 0
10272 0
10273 0
10274 0
10275 0
10276 0
10277 0
10278 0
10279 0
10280 0
10281 0
10282 0
10283 0
10284 0
10285 0
10286 0
10287 0
10288 0
10289 0
10290 0
10291 0
10292 0
10293 0
10294 0
10295 0
10296 0
10297 0
10298 0
10299 0
10300 0
10301 0
10302 0
10303 0
10304 0
10305 0
10306 0
10307 0
10308 0
10309 0
10310 0
10311 0
10312 0
10313 0
10314 0
10315 0
10316 0
10317 0
10318 0
10319 0
10320 0
10321 0
10322 0
10323 0
10324 0
10325 0
10326 0
10327 0
10328 0
10329 0
10330 0
10331 0
10332 0
10333 0
10334 0
10335 0
10336 0
10337 0
10338 0
10339 0
10340 0
10341 0
10342 0
10343 0
10344 0
10345 0
10346 0
10347 0
10348 0
10349 0
10350 0
10351 0
10352 0
10353 0
10354 0
10355 0
10356 0
10357 0
10358 0
10359 0
10360 0
10361 0
10362 0
10363 0
10364 0
10365 0
10366 0
10367 0
10368 0
10369 0
10370 0
10371 0
10372 0
10373 0
10374 0
10375 0
10376 0
10377 0
10378 0
10379 0
10380 0
10381 0
10382 0
10383 0
10384 0
10385 0
10386 0
10387 0
10388 0
10389 0
10390 0
10391 0
10392 0
10393 0
10394 0
10395 0
10396 0
10397 0
10398 0
10399 0
10400 0
10401 0
10402 0
10403 0
10404 0
10405 0
10406 0
10407 0
10408 0
10409 0
10410 0
10411 0
10412 0
10413 0
10414 0
10415 0
10416 0
10417 0
10418 0
10419 0
10420 0
10421 0
10422 0
10423 0
10424 0
10425 0
10426 0
10427 0
10428 0
10429 0
10430 0
10431 0
10432 0
10433 0
10434 0
10435 0
10436 0
10437 0
10438 0
10439 0
10440 0
10441 0
10442 0
10443 0
10444 0
10445 0
10446 0
10447 0
10448 0
10449 0
10450 0
10451 0
10452 0
10453 0
10454 0
10455 0
10456 0
10457 0
10458 0
10459 0
10460 0
10461 0
10462 0
10463 0
10464 0
10465 0
10466 0
10467 0
10468 0
10469 0
10470 0
10471 0
10472 0
10473 0
10474 0
10475 0
10476 0
10477 0
10478 0
10479 0
10480 0
10481 0
10482 0
10483 0
10484 0
10485 0
10486 0
10487 0
10488 0
10489 0
10490 0
10491 0
10492 0
10493 0
10494 0
10495 0
10496 0
10497 0
10498 0
10499 0
10500 0
10501 0
10502 0
10503 0
10504 0
10505 0
10506 0
10507 0
10508 0
10509 0
10510 0
10511 0
10512 0
10513 0
10514 0
10515 0
10516 0
10517 0
10518 0
10519 0
10520 0
10521 0
10522 0
10523 0
10524 0
10525 0
10526 0
10527 0
10528 0
10529 0
10530 0
10531 0
10532 0
10533 0
10534 0
10535 0
10536 0
10537 0
10538 0
10539 0
10540 0
10541 0
10542 0
10543 0
10544 0
10545 0
10546 0
10547 0
10548 0
10549 0
10550 0
10551 0
10552 0
10553 0
10554 0
10555 0
10556 0
10557 0
10558 0
10559 0
10560 0
10561 0
10562 0
10563 0
10564 0
10565 0
10566 0
10567 0
10568 0
10569 0
10570 0
10571 0
10572 0
10573 0
10574 0
10575 0
10576 0
10577 0
10578 0
10579 0
10580 0
10581 0
10582 0
10583 0
10584 0
10585 0
10586 0
10587 0
10588 0
10589 0
10590 0
10591 0
10592 0
10593 0
10594 0
10595 0
10596 0
10597 0
10598 0
10599 0
10600 0
10601 0
10602 0
10603 0
10604 0
10605 0
10606 0
10607 0
10608 0
10609 0
10610 0
10611 0
10612 0
10613 0
10614 0
10615 0
10616 0
10617 0
10618 0
10619 0
10620 0
10621 0
10622 0
10623 0
10624 0
10625 0
10626 0
10627 0
10628 0
10629 0
10630 0
10631 0
10632 0
10633 0
10634 0
10635 0
10636 0
10637 0
10638 0
10639 0
10640 0
10641 0
10642 0
10643 0
10644 0
10645 0
10646 0
10647 0
10648 0
10649 0
10650 0
10651 0
10652 0
10653 0
10654 0
10655 0
10656 0
10657 0
10658 0
10659 0
10660 0
10661 0
10662 0
10663 0
10664 0
10665 0
10666 0
10667 0
10668 0
10669 0
10670 0
10671 0
10672 0
10673 0
10674 0
10675 0
10676 0
10677 0
10678 0
10679 0
10680 0
10681 0
10682 0
10683 0
10684 0
10685 0
10686 0
10687 0
10688 0
10689 0
10690 0
10691 0
10692 0
10693 0
10694 0
10695 0
10696 0
10697 0
10698 0
10699 0
10700 0
10701 0
10702 0
10703 0
10704 0
10705 0
10706 0
10707 0
10708 0
10709 0
10710 0
10711 0
10712 0
10713 0
10714 0
10715 0
10716 0
10717 0
10718 0
10719 0
10720 0
10721 0
10722 0
10723 0
10724 0
10725 0
10726 0
10727 0
10728 0
10729 0
10730 0
10731 0
10732 0
10733 0
10734 0
10735 0
10736 0
10737 0
10738 0
10739 0
10740 0
10741 0
10742 0
10743 0
10744 0
10745 0
10746 0
10747 0
10748 0
10749 0
10750 0
10751 0
10752 0
10753 0
10754 0
10755 0
10756 0
10757 0
10758 0
10759 0
10760 0
10761 0
10762 0
10763 0
10764 0
10765 0
10766 0
10767 0
10768 0
10769 0
10770 0
10771 0
10772 0
10773 0
10774 0
10775 0
10776 0
10777 0
10778 0
10779 0
10780 0
10781 0
10782 0
10783 0
10784 0
10785 0
10786 0
10787 0
10788 0
10789 0
10790 0
10791 0
10792 0
10793 0
10794 0
10795 0
10796 0
10797 0
10798 0
10799 0
10800 0
10801 0
10802 0
10803 0
10804 0
10805 0
10806 0
10807 0
10808 0
10809 0
10810 0
10811 0
10812 0
10813 0
10814 0
10815 0
10816 0
10817 0
10818 0
10819 0
10820 0
10821 0
10822 0
10823 0
10824 0
10825 0
10826 0
10827 0
10828 0
10829 0
10830 0
10831 0
10832 0
10833 0
10834 0
10835 0
10836 0
10837 0
10838 0
10839 0
10840 0
10841 0
10842 0
10843 0
10844 0
10845 0
10846 0
10847 0
10848 0
10849 0
10850 0
10851 0
10852 0
10853 0
10854 0
10855 0
10856 0
10857 0
10858 0
10859 0
10860 0
10861 0
10862 0
10863 0
10864 0
10865 0
10866 0
10867 0
10868 0
10869 0
10870 0
10871 0
10872 0
10873 0
10874 0
10875 0
10876 0
10877 0
10878 0
10879 0
10880 0
10881 0
10882 0
10883 0
10884 0
10885 0
10886 0
10887 0
10888 0
10889 0
10890 0
10891 0
10892 0
10893 0
10894 0
10895 0
10896 0
10897 0
10898 0
10899 0
10900 0
10901 0
10902 0
10903 0
10904 0
10905 0
10906 0
10907 0
10908 0
10909 0
10910 0
10911 0
10912 0
10913 0
10914 0
10915 0
10916 0
10917 0
10918 0
10919 0
10920 0
10921 0
10922 0
10923 0
10924 0
10925 0
10926 0
10927 0
10928 0
10929 0
10930 0
10931 0
10932 0
10933 0
10934 0
10935 0
10936 0
10937 0
10938 0
10939 0
10940 0
10941 0
10942 0
10943 0
10944 0
10945 0
10946 0
10947 0
10948 0
10949 0
10950 0
10951 0
10952 0
10953 0
10954 0
10955 0
10956 0
10957 0
10958 0
10959 0
10960 0
10961 0
10962 0
10963 0
10964 0
10965 0
10966 0
10967 0
10968 0
10969 0
10970 0
10971 0
10972 0
10973 0
10974 0
10975 0
10976 0
10977 0
10978 0
10979 0
10980 0
10981 0
10982 0
10983 0
10984 0
10985 0
10986 0
10987 0
10988 0
10989 0
10990 0
10991 0
10992 0
10993 0
10994 0
10995 0
10996 0
10997 0
10998 0
10999 0
11000 0
11001 0
11002 0
11003 0
11004 0
11005 0
11006 0
11007 0
11008 0
11009 0
11010 0
11011 0
11012 0
11013 0
11014 0
11015 0
11016 0
11017 0
11018 0
11019 0
11020 0
11021 0
11022 0
11023 0
11024 0
11025 0
11026 0
11027 0
11028 0
11029 0
11030 0
11031 0
11032 0
11033 0
11034 0
11035 0
11036 0
11037 0
11038 0
11039 0
11040 0
11041 0
11042 0
11043 0
11044 0
11045 0
11046 0
11047 0
11048 0
11049 0
11050 0
11051 0
11052 0
11053 0
11054 0
11055 0
11056 0
11057 0
11058 0
11059 0
11060 0
11061 0
11062 0
11063 0
11064 0
11065 0
11066 0
11067 0
11068 0
11069 0
11070 0
11071 0
11072 0
11073 0
11074 0
11075 0
11076 0
11077 0
11078 0
11079 0
11080 0
11081 0
11082 0
11083 0
11084 0
11085 0
11086 0
11087 0
11088 0
11089 0
11090 0
11091 0
11092 0
11093 0
11094 0
11095 0
11096 0
11097 0
11098 0
11099 0
11100 0
11101 0
11102 0
11103 0
11104 0
11105 0
11106 0
11107 0
11108 0
11109 0
11110 0
11111 0
11112 0
11113 0
11114 0
11115 0
11116 0
11117 0
11118 0
11119 0
11120 0
11121 0
11122 0
11123 0
11124 0
11125 0
11126 0
11127 0
11128 0
11129 0
11130 0
11131 0
11132 0
11133 0
11134 0
11135 0
11136 0
11137 0
11138 0
11139 0
11140 0
11141 0
11142 0
11143 0
11144 0
11145 0
11146 0
11147 0
11148 0
11149 0
11150 0
11151 0
11152 0
11153 0
11154 0
11155 0
11156 0
11157 0
11158 0
11159 0
11160 0
11161 0
11162 0
11163 0
11164 0
11165 0
11166 0
11167 0
11168 0
11169 0
11170 0
11171 0
11172 0
11173 0
11174 0
11175 0
11176 0
11177 0
11178 0
11179 0
11180 0
11181 0
11182 0
11183 0
11184 0
11185 0
11186 0
11187 0
11188 0
11189 0
11190 0
11191 0
11192 0
11193 0
11194 0
11195 0
11196 0
11197 0
11198 0
11199 0
11200 0
11201 0
11202 0
11203 0
11204 0
11205 0
11206 0
11207 0
11208 0
11209 0
11210 0
11211 0
11212 0
11213 0
11214 0
11215 0
11216 0
11217 0
11218 0
11219 0
11220 0
11221 0
11222 0
11223 0
11224 0
11225 0
11226 0
11227 0
11228 0
11229 0
11230 0
11231 0
11232 0
11233 0
11234 0
11235 0
11236 0
11237 0
11238 0
11239 0
11240 0
11241 0
11242 0
11243 0
11244 0
11245 0
11246 0
11247 0
11248 0
11249 0
11250 0
11251 0
11252 0
11253 0
11254 0
11255 0
11256 0
11257 0
11258 0
11259 0
11260 0
11261 0
11262 0
11263 0
11264 0
11265 0
11266 0
11267 0
11268 0
11269 0
11270 0
11271 0
11272 0
11273 0
11274 0
11275 0
11276 0
11277 0
11278 0
11279 0
11280 0
11281 0
11282 0
11283 0
11284 0
11285 0
11286 0
11287 0
11288 0
11289 0
11290 0
11291 0
11292 0
11293 0
11294 0
11295 0
11296 0
11297 0
11298 0
11299 0
11300 0
11301 0
11302 0
11303 0
11304 0
11305 0
11306 0
11307 0
11308 0
11309 0
11310 0
11311 0
11312 0
11313 0
11314 0
11315 0
11316 0
11317 0
11318 0
11319 0
11320 0
11321 0
11322 0
11323 0
11324 0
11325 0
11326 0
11327 0
11328 0
11329 0
11330 0
11331 0
11332 0
11333 0
11334 0
11335 0
11336 0
11337 0
11338 0
11339 0
11340 0
11341 0
11342 0
11343 0
11344 0
11345 0
11346 0
11347 0
11348 0
11349 0
11350 0
11351 0
11352 0
11353 0
11354 0
11355 0
11356 0
11357 0
11358 0
11359 0
11360 0
11361 0
11362 0
11363 0
11364 0
11365 0
11366 0
11367 0
11368 0
11369 0
11370 0
11371 0
11372 0
11373 0
11374 0
11375 0
11376 0
11377 0
11378 0
11379 0
11380 0
11381 0
11382 0
11383 0
11384 0
11385 0
11386 0
11387 0
11388 0
11389 0
11390 0
11391 0
11392 0
11393 0
11394 0
11395 0
11396 0
11397 0
11398 0
11399 0
11400 0
11401 0
11402 0
11403 0
11404 0
11405 0
11406 0
11407 0
11408 0
11409 0
11410 0
11411 0
11412 0
11413 0
11414 0
11415 0
11416 0
11417 0
11418 0
11419 0
11420 0
11421 0
11422 0
11423 0
11424 0
11425 0
11426 0
11427 0
11428 0
11429 0
11430 0
11431 0
11432 0
11433 0
11434 0
11435 0
11436 0
11437 0
11438 0
11439 0
11440 0
11441 0
11442 0
11443 0
11444 0
11445 0
11446 0
11447 0
11448 0
11449 0
11450 0
11451 0
11452 0
11453 0
11454 0
11455 0
11456 0
11457 0
11458 0
11459 0
11460 0
11461 0
11462 0
11463 0
11464 0
11465 0
11466 0
11467 0
11468 0
11469 0
11470 0
11471 0
11472 0
11473 0
11474 0
11475 0
11476 0
11477 0
11478 0
11479 0
11480 0
11481 0
11482 0
11483 0
11484 0
11485 0
11486 0
11487 0
11488 0
11489 0
11490 0
11491 0
11492 0
11493 0
11494 0
11495 0
11496 0
11497 0
11498 0
11499 0
11500 0
11501 0
11502 0
11503 0
11504 0
11505 0
11506 0
11507 0
11508 0
11509 0
11510 0
11511 0
11512 0
11513 0
11514 0
11515 0
11516 0
11517 0
11518 0
11519 0
11520 0
11521 0
11522 0
11523 0
11524 0
11525 0
11526 0
11527 0
11528 0
11529 0
11530 0
2 0
-1405 0
-1401 0
-1403 0
-1661 0
-1409 0
-1655 0
-1419 0
-1425 0
-1397 0
-1663 0
-1423 0
-1399 0
-1427 0
-1413 0
-1659 0
-1431 0
