c BC-S1.2
p cnf 367 1111
1 -2 0
-1 2 0
3 -4 0
-3 4 0
5 -6 0
-5 6 0
7 -8 0
-7 8 0
9 -10 0
-9 10 0
11 -12 0
-11 12 0
13 -14 0
-13 14 0
15 -16 0
-15 16 0
17 -18 0
-17 18 0
19 -20 0
-19 20 0
21 -22 0
-21 22 0
23 -24 0
-23 24 0
25 -26 0
-25 26 0
27 -28 0
-27 28 0
29 -30 0
-29 30 0
31 -32 0
-31 32 0
33 -34 0
-33 34 0
35 -36 0
-35 36 0
37 -38 0
-37 38 0
39 -40 0
-39 40 0
41 -42 0
-41 42 0
43 -44 0
-43 44 0
45 -46 0
-45 46 0
47 -48 0
-47 48 0
49 -50 0
-49 50 0
51 -52 0
-51 52 0
53 -54 0
-53 54 0
55 -56 0
-55 56 0
57 -58 0
-57 58 0
59 -60 0
-59 60 0
61 -62 0
-61 62 0
63 -64 0
-63 64 0
65 -66 0
-65 66 0
-67 68 69 70 71 72 73 0
67 -68 0
67 -69 0
67 -70 0
67 -71 0
67 -72 0
67 -73 0
-74 75 76 0
74 -75 0
74 -76 0
-77 78 79 0
77 -78 0
77 -79 0
-80 81 82 0
80 -81 0
80 -82 0
-83 84 85 0
83 -84 0
83 -85 0
86 -87 0
-86 87 0
-88 89 90 91 92 93 0
88 -89 0
88 -90 0
88 -91 0
88 -92 0
88 -93 0
-94 95 96 0
94 -95 0
94 -96 0
-97 98 99 0
97 -98 0
97 -99 0
-100 101 102 103 104 0
100 -101 0
100 -102 0
100 -103 0
100 -104 0
-105 106 107 108 109 0
105 -106 0
105 -107 0
105 -108 0
105 -109 0
-110 111 112 113 0
110 -111 0
110 -112 0
110 -113 0
-114 115 116 117 0
114 -115 0
114 -116 0
114 -117 0
118 -75 0
-118 75 0
119 -79 0
-119 79 0
-120 121 122 123 0
120 -121 0
120 -122 0
120 -123 0
-124 125 126 127 0
124 -125 0
124 -126 0
124 -127 0
-128 129 130 0
128 -129 0
128 -130 0
2 -1 0
-2 1 0
4 -3 0
-4 3 0
6 -5 0
-6 5 0
8 -7 0
-8 7 0
10 -9 0
-10 9 0
12 -11 0
-12 11 0
14 -13 0
-14 13 0
16 -15 0
-16 15 0
18 -17 0
-18 17 0
20 -19 0
-20 19 0
22 -21 0
-22 21 0
24 -23 0
-24 23 0
26 -25 0
-26 25 0
28 -27 0
-28 27 0
30 -29 0
-30 29 0
32 -31 0
-32 31 0
34 -33 0
-34 33 0
36 -35 0
-36 35 0
38 -37 0
-38 37 0
40 -39 0
-40 39 0
42 -41 0
-42 41 0
44 -43 0
-44 43 0
46 -45 0
-46 45 0
48 -47 0
-48 47 0
50 -49 0
-50 49 0
52 -51 0
-52 51 0
54 -53 0
-54 53 0
56 -55 0
-56 55 0
58 -57 0
-58 57 0
60 -59 0
-60 59 0
62 -61 0
-62 61 0
64 -63 0
-64 63 0
66 -65 0
-66 65 0
131 -132 0
-131 132 0
133 -134 -135 0
-133 134 0
-133 135 0
136 -137 -138 0
-136 137 0
-136 138 0
139 -110 0
-139 110 0
140 -114 0
-140 114 0
141 -142 -143 0
-141 142 0
-141 143 0
144 -145 -105 0
-144 145 0
-144 105 0
146 -147 -97 0
-146 147 0
-146 97 0
148 -149 -110 0
-148 149 0
-148 110 0
150 -67 0
-150 67 0
151 -152 -88 0
-151 152 0
-151 88 0
153 -154 -94 0
-153 154 0
-153 94 0
155 -156 -100 0
-155 156 0
-155 100 0
157 -158 -135 0
-157 158 0
-157 135 0
159 -160 -114 0
-159 160 0
-159 114 0
161 -97 0
-161 97 0
162 -163 -105 0
-162 163 0
-162 105 0
164 -165 -100 0
-164 165 0
-164 100 0
166 -88 0
-166 88 0
167 -168 -94 0
-167 168 0
-167 94 0
169 -170 -67 0
-169 170 0
-169 67 0
171 -172 -110 0
-171 172 0
-171 110 0
173 -174 -135 0
-173 174 0
-173 135 0
175 -176 -138 0
-175 176 0
-175 138 0
177 -178 -120 0
-177 178 0
-177 120 0
179 -105 0
-179 105 0
180 -181 -182 0
-180 181 0
-180 182 0
183 -120 0
-183 120 0
184 -185 0
-184 185 0
68 -147 -77 0
-68 147 0
-68 77 0
69 -149 -86 0
-69 149 0
-69 86 0
70 -145 -83 0
-70 145 0
-70 83 0
71 -186 0
-71 186 0
72 -154 -74 0
-72 154 0
-72 74 0
73 -156 -80 0
-73 156 0
-73 80 0
75 -118 0
-75 118 0
76 -181 -83 0
-76 181 0
-76 83 0
78 -160 -80 0
-78 160 0
-78 80 0
79 -119 0
-79 119 0
81 -187 0
-81 187 0
82 -142 -119 0
-82 142 0
-82 119 0
84 -178 -118 0
-84 178 0
-84 118 0
85 -188 0
-85 188 0
87 -189 0
-87 189 0
89 -168 -74 0
-89 168 0
-89 74 0
90 -172 -86 0
-90 172 0
-90 86 0
91 -190 0
-91 190 0
92 -163 -83 0
-92 163 0
-92 83 0
93 -165 -80 0
-93 165 0
-93 80 0
95 -181 -105 0
-95 181 0
-95 105 0
96 -124 0
-96 124 0
98 -128 0
-98 128 0
99 -160 -100 0
-99 160 0
-99 100 0
101 -142 -128 0
-101 142 0
-101 128 0
102 -191 -67 0
-102 191 0
-102 67 0
103 -192 -88 0
-103 192 0
-103 88 0
104 -80 0
-104 80 0
106 -174 -67 0
-106 174 0
-106 67 0
107 -83 0
-107 83 0
108 -176 -88 0
-108 176 0
-108 88 0
109 -178 -124 0
-109 178 0
-109 124 0
111 -137 -88 0
-111 137 0
-111 88 0
112 -86 0
-112 86 0
113 -134 -67 0
-113 134 0
-113 67 0
115 -192 -138 0
-115 192 0
-115 138 0
116 -191 -135 0
-116 191 0
-116 135 0
117 -100 0
-117 100 0
193 -194 0
-193 194 0
195 -196 0
-195 196 0
121 -197 -135 0
-121 197 0
-121 135 0
122 -198 -138 0
-122 198 0
-122 138 0
123 -94 0
-123 94 0
125 -197 -67 0
-125 197 0
-125 67 0
126 -198 -88 0
-126 198 0
-126 88 0
127 -74 0
-127 74 0
129 -158 -67 0
-129 158 0
-129 67 0
130 -77 0
-130 77 0
-199 -1 2 0
199 1 0
199 -2 0
-200 1 -2 0
200 -1 0
200 2 0
-201 -3 4 0
201 3 0
201 -4 0
-202 3 -4 0
202 -3 0
202 4 0
-203 -5 6 0
203 5 0
203 -6 0
-204 5 -6 0
204 -5 0
204 6 0
-205 -7 8 0
205 7 0
205 -8 0
-206 7 -8 0
206 -7 0
206 8 0
-207 -9 10 0
207 9 0
207 -10 0
-208 9 -10 0
208 -9 0
208 10 0
-209 -11 12 0
209 11 0
209 -12 0
-210 11 -12 0
210 -11 0
210 12 0
-211 -13 14 0
211 13 0
211 -14 0
-212 13 -14 0
212 -13 0
212 14 0
-213 -15 16 0
213 15 0
213 -16 0
-214 15 -16 0
214 -15 0
214 16 0
-215 -17 18 0
215 17 0
215 -18 0
-216 17 -18 0
216 -17 0
216 18 0
-217 -19 20 0
217 19 0
217 -20 0
-218 19 -20 0
218 -19 0
218 20 0
-219 -21 22 0
219 21 0
219 -22 0
-220 21 -22 0
220 -21 0
220 22 0
-221 -23 24 0
221 23 0
221 -24 0
-222 23 -24 0
222 -23 0
222 24 0
-223 -25 26 0
223 25 0
223 -26 0
-224 25 -26 0
224 -25 0
224 26 0
-225 -27 28 0
225 27 0
225 -28 0
-226 27 -28 0
226 -27 0
226 28 0
-227 -29 30 0
227 29 0
227 -30 0
-228 29 -30 0
228 -29 0
228 30 0
-229 -31 32 0
229 31 0
229 -32 0
-230 31 -32 0
230 -31 0
230 32 0
-231 -33 34 0
231 33 0
231 -34 0
-232 33 -34 0
232 -33 0
232 34 0
-233 -35 36 0
233 35 0
233 -36 0
-234 35 -36 0
234 -35 0
234 36 0
-235 -37 38 0
235 37 0
235 -38 0
-236 37 -38 0
236 -37 0
236 38 0
-237 -39 40 0
237 39 0
237 -40 0
-238 39 -40 0
238 -39 0
238 40 0
-239 -41 42 0
239 41 0
239 -42 0
-240 41 -42 0
240 -41 0
240 42 0
-241 -43 44 0
241 43 0
241 -44 0
-242 43 -44 0
242 -43 0
242 44 0
-243 -45 46 0
243 45 0
243 -46 0
-244 45 -46 0
244 -45 0
244 46 0
-245 -47 48 0
245 47 0
245 -48 0
-246 47 -48 0
246 -47 0
246 48 0
-247 -49 50 0
247 49 0
247 -50 0
-248 49 -50 0
248 -49 0
248 50 0
-249 -51 52 0
249 51 0
249 -52 0
-250 51 -52 0
250 -51 0
250 52 0
-251 -53 54 0
251 53 0
251 -54 0
-252 53 -54 0
252 -53 0
252 54 0
-253 -55 56 0
253 55 0
253 -56 0
-254 55 -56 0
254 -55 0
254 56 0
-255 -57 58 0
255 57 0
255 -58 0
-256 57 -58 0
256 -57 0
256 58 0
-257 -59 60 0
257 59 0
257 -60 0
-258 59 -60 0
258 -59 0
258 60 0
-259 -61 62 0
259 61 0
259 -62 0
-260 61 -62 0
260 -61 0
260 62 0
-261 -63 64 0
261 63 0
261 -64 0
-262 63 -64 0
262 -63 0
262 64 0
-263 -65 66 0
263 65 0
263 -66 0
-264 65 -66 0
264 -65 0
264 66 0
-265 131 -132 0
265 -131 0
265 132 0
-266 -131 132 0
266 131 0
266 -132 0
-267 -268 131 0
267 268 0
267 -131 0
-269 268 -131 0
269 -268 0
269 131 0
-270 139 -110 0
270 -139 0
270 110 0
-271 -139 110 0
271 139 0
271 -110 0
-272 -273 133 136 139 0
272 273 0
272 -133 0
272 -136 0
272 -139 0
-274 273 -133 0
274 -273 0
274 133 0
-275 273 -136 0
275 -273 0
275 136 0
-276 273 -139 0
276 -273 0
276 139 0
-277 140 -114 0
277 -140 0
277 114 0
-278 -140 114 0
278 140 0
278 -114 0
-279 -280 140 141 0
279 280 0
279 -140 0
279 -141 0
-281 280 -140 0
281 -280 0
281 140 0
-282 280 -141 0
282 -280 0
282 141 0
-283 150 -67 0
283 -150 0
283 67 0
-284 -150 67 0
284 150 0
284 -67 0
-285 -135 144 146 148 150 151 153 155 0
285 135 0
285 -144 0
285 -146 0
285 -148 0
285 -150 0
285 -151 0
285 -153 0
285 -155 0
-286 135 -144 0
286 -135 0
286 144 0
-287 135 -146 0
287 -135 0
287 146 0
-288 135 -148 0
288 -135 0
288 148 0
-289 135 -150 0
289 -135 0
289 150 0
-290 135 -151 0
290 -135 0
290 151 0
-291 135 -153 0
291 -135 0
291 153 0
-292 135 -155 0
292 -135 0
292 155 0
-293 161 -97 0
293 -161 0
293 97 0
-294 -161 97 0
294 161 0
294 -97 0
-295 -143 157 159 161 0
295 143 0
295 -157 0
295 -159 0
295 -161 0
-296 143 -157 0
296 -143 0
296 157 0
-297 143 -159 0
297 -143 0
297 159 0
-298 143 -161 0
298 -143 0
298 161 0
-299 166 -88 0
299 -166 0
299 88 0
-300 -166 88 0
300 166 0
300 -88 0
-301 -138 162 164 166 167 169 171 0
301 138 0
301 -162 0
301 -164 0
301 -166 0
301 -167 0
301 -169 0
301 -171 0
-302 138 -162 0
302 -138 0
302 162 0
-303 138 -164 0
303 -138 0
303 164 0
-304 138 -166 0
304 -138 0
304 166 0
-305 138 -167 0
305 -138 0
305 167 0
-306 138 -169 0
306 -138 0
306 169 0
-307 138 -171 0
307 -138 0
307 171 0
-308 179 -105 0
308 -179 0
308 105 0
-309 -179 105 0
309 179 0
309 -105 0
-310 -182 173 175 177 179 0
310 182 0
310 -173 0
310 -175 0
310 -177 0
310 -179 0
-311 182 -173 0
311 -182 0
311 173 0
-312 182 -175 0
312 -182 0
312 175 0
-313 182 -177 0
313 -182 0
313 177 0
-314 182 -179 0
314 -182 0
314 179 0
-315 183 -120 0
315 -183 0
315 120 0
-316 -183 120 0
316 183 0
316 -120 0
-317 -318 180 183 0
317 318 0
317 -180 0
317 -183 0
-319 318 -180 0
319 -318 0
319 180 0
-320 318 -183 0
320 -318 0
320 183 0
-321 184 -185 0
321 -184 0
321 185 0
-322 -184 185 0
322 184 0
322 -185 0
-323 -324 184 0
323 324 0
323 -184 0
-325 324 -184 0
325 -324 0
325 184 0
-326 71 -186 0
326 -71 0
326 186 0
-327 -71 186 0
327 71 0
327 -186 0
-328 75 -118 0
328 -75 0
328 118 0
-329 -75 118 0
329 75 0
329 -118 0
-330 79 -119 0
330 -79 0
330 119 0
-331 -79 119 0
331 79 0
331 -119 0
-332 81 -187 0
332 -81 0
332 187 0
-333 -81 187 0
333 81 0
333 -187 0
-334 85 -188 0
334 -85 0
334 188 0
-335 -85 188 0
335 85 0
335 -188 0
-336 87 -189 0
336 -87 0
336 189 0
-337 -87 189 0
337 87 0
337 -189 0
-338 -86 87 0
338 86 0
338 -87 0
-339 86 -87 0
339 -86 0
339 87 0
-340 91 -190 0
340 -91 0
340 190 0
-341 -91 190 0
341 91 0
341 -190 0
-342 96 -124 0
342 -96 0
342 124 0
-343 -96 124 0
343 96 0
343 -124 0
-344 98 -128 0
344 -98 0
344 128 0
-345 -98 128 0
345 98 0
345 -128 0
-346 104 -80 0
346 -104 0
346 80 0
-347 -104 80 0
347 104 0
347 -80 0
-348 107 -83 0
348 -107 0
348 83 0
-349 -107 83 0
349 107 0
349 -83 0
-350 112 -86 0
350 -112 0
350 86 0
-351 -112 86 0
351 112 0
351 -86 0
-352 117 -100 0
352 -117 0
352 100 0
-353 -117 100 0
353 117 0
353 -100 0
-354 193 -194 0
354 -193 0
354 194 0
-355 -193 194 0
355 193 0
355 -194 0
-356 -118 193 0
356 118 0
356 -193 0
-357 118 -193 0
357 -118 0
357 193 0
-358 195 -196 0
358 -195 0
358 196 0
-359 -195 196 0
359 195 0
359 -196 0
-360 -119 195 0
360 119 0
360 -195 0
-361 119 -195 0
361 -119 0
361 195 0
-362 123 -94 0
362 -123 0
362 94 0
-363 -123 94 0
363 123 0
363 -94 0
-364 127 -74 0
364 -127 0
364 74 0
-365 -127 74 0
365 127 0
365 -74 0
-366 130 -77 0
366 -130 0
366 77 0
-367 -130 77 0
367 130 0
367 -77 0
199 0
200 0
201 0
202 0
203 0
204 0
205 0
206 0
207 0
208 0
209 0
210 0
211 0
212 0
213 0
214 0
215 0
216 0
217 0
218 0
219 0
220 0
221 0
222 0
223 0
224 0
225 0
226 0
227 0
228 0
229 0
230 0
231 0
232 0
233 0
234 0
235 0
236 0
237 0
238 0
239 0
240 0
241 0
242 0
243 0
244 0
245 0
246 0
247 0
248 0
249 0
250 0
251 0
252 0
253 0
254 0
255 0
256 0
257 0
258 0
259 0
260 0
261 0
262 0
263 0
264 0
265 0
266 0
267 0
269 0
270 0
271 0
272 0
274 0
275 0
276 0
277 0
278 0
279 0
281 0
282 0
283 0
284 0
285 0
286 0
287 0
288 0
289 0
290 0
291 0
292 0
293 0
294 0
295 0
296 0
297 0
298 0
299 0
300 0
301 0
302 0
303 0
304 0
305 0
306 0
307 0
308 0
309 0
310 0
311 0
312 0
313 0
314 0
315 0
316 0
317 0
319 0
320 0
321 0
322 0
323 0
325 0
326 0
327 0
328 0
329 0
330 0
331 0
332 0
333 0
334 0
335 0
336 0
337 0
338 0
339 0
340 0
341 0
342 0
343 0
344 0
345 0
346 0
347 0
348 0
349 0
350 0
351 0
352 0
353 0
354 0
355 0
356 0
357 0
358 0
359 0
360 0
361 0
362 0
363 0
364 0
365 0
366 0
367 0
2 0
4 0
6 0
8 0
10 0
12 0
14 0
16 0
18 0
20 0
22 0
24 0
26 0
28 0
30 0
32 0
34 0
36 0
38 0
40 0
42 0
44 0
46 0
48 0
50 0
52 0
54 0
56 0
58 0
60 0
62 0
64 0
66 0
