c BC-S1.2
p cnf 871 2638
1 -2 0
-1 2 0
3 -4 0
-3 4 0
5 -6 0
-5 6 0
7 -8 0
-7 8 0
9 -10 0
-9 10 0
11 -12 0
-11 12 0
13 -14 0
-13 14 0
15 -16 0
-15 16 0
17 -18 0
-17 18 0
19 -20 0
-19 20 0
21 -22 0
-21 22 0
23 -24 0
-23 24 0
25 -26 0
-25 26 0
27 -28 0
-27 28 0
29 -30 0
-29 30 0
31 -32 0
-31 32 0
33 -34 0
-33 34 0
35 -36 0
-35 36 0
37 -38 0
-37 38 0
39 -40 0
-39 40 0
41 -42 0
-41 42 0
43 -44 0
-43 44 0
45 -46 0
-45 46 0
47 -48 0
-47 48 0
49 -50 0
-49 50 0
51 -52 0
-51 52 0
53 -54 0
-53 54 0
55 -56 0
-55 56 0
57 -58 0
-57 58 0
59 -60 0
-59 60 0
61 -62 0
-61 62 0
63 -64 0
-63 64 0
65 -66 0
-65 66 0
67 -68 0
-67 68 0
69 -70 0
-69 70 0
71 -72 0
-71 72 0
73 -74 0
-73 74 0
75 -76 0
-75 76 0
77 -78 0
-77 78 0
79 -80 0
-79 80 0
81 -82 0
-81 82 0
83 -84 0
-83 84 0
85 -86 0
-85 86 0
87 -88 0
-87 88 0
89 -90 0
-89 90 0
91 -92 0
-91 92 0
93 -94 0
-93 94 0
95 -96 0
-95 96 0
97 -98 0
-97 98 0
99 -100 0
-99 100 0
101 -102 0
-101 102 0
103 -104 0
-103 104 0
105 -106 0
-105 106 0
107 -108 0
-107 108 0
109 -110 0
-109 110 0
111 -112 0
-111 112 0
113 -114 0
-113 114 0
115 -116 0
-115 116 0
117 -118 0
-117 118 0
119 -120 0
-119 120 0
121 -122 0
-121 122 0
123 -124 0
-123 124 0
125 -126 0
-125 126 0
127 -128 0
-127 128 0
129 -130 0
-129 130 0
131 -132 0
-131 132 0
133 -134 0
-133 134 0
135 -136 0
-135 136 0
137 -138 0
-137 138 0
139 -140 0
-139 140 0
141 -142 0
-141 142 0
143 -144 0
-143 144 0
145 -146 0
-145 146 0
147 -148 0
-147 148 0
149 -150 0
-149 150 0
151 -152 0
-151 152 0
153 -154 0
-153 154 0
155 -156 0
-155 156 0
157 -158 0
-157 158 0
159 -160 0
-159 160 0
161 -162 0
-161 162 0
163 -164 0
-163 164 0
165 -166 0
-165 166 0
167 -168 0
-167 168 0
169 -170 0
-169 170 0
171 -172 0
-171 172 0
173 -174 0
-173 174 0
175 -176 0
-175 176 0
177 -178 0
-177 178 0
179 -180 0
-179 180 0
181 -182 0
-181 182 0
183 -184 0
-183 184 0
185 -186 0
-185 186 0
187 -188 0
-187 188 0
189 -190 0
-189 190 0
191 -192 0
-191 192 0
193 -194 0
-193 194 0
195 -196 0
-195 196 0
197 -198 0
-197 198 0
199 -200 0
-199 200 0
201 -202 0
-201 202 0
203 -204 0
-203 204 0
205 -206 0
-205 206 0
207 -208 0
-207 208 0
209 -210 0
-209 210 0
2 -1 0
-2 1 0
4 -3 0
-4 3 0
6 -5 0
-6 5 0
8 -7 0
-8 7 0
10 -9 0
-10 9 0
12 -11 0
-12 11 0
14 -13 0
-14 13 0
16 -15 0
-16 15 0
18 -17 0
-18 17 0
20 -19 0
-20 19 0
22 -21 0
-22 21 0
24 -23 0
-24 23 0
26 -25 0
-26 25 0
28 -27 0
-28 27 0
30 -29 0
-30 29 0
32 -31 0
-32 31 0
34 -33 0
-34 33 0
36 -35 0
-36 35 0
38 -37 0
-38 37 0
40 -39 0
-40 39 0
42 -41 0
-42 41 0
44 -43 0
-44 43 0
46 -45 0
-46 45 0
48 -47 0
-48 47 0
50 -49 0
-50 49 0
52 -51 0
-52 51 0
54 -53 0
-54 53 0
56 -55 0
-56 55 0
58 -57 0
-58 57 0
60 -59 0
-60 59 0
62 -61 0
-62 61 0
64 -63 0
-64 63 0
66 -65 0
-66 65 0
68 -67 0
-68 67 0
70 -69 0
-70 69 0
72 -71 0
-72 71 0
74 -73 0
-74 73 0
76 -75 0
-76 75 0
78 -77 0
-78 77 0
80 -79 0
-80 79 0
82 -81 0
-82 81 0
84 -83 0
-84 83 0
86 -85 0
-86 85 0
88 -87 0
-88 87 0
90 -89 0
-90 89 0
92 -91 0
-92 91 0
94 -93 0
-94 93 0
96 -95 0
-96 95 0
98 -97 0
-98 97 0
100 -99 0
-100 99 0
102 -101 0
-102 101 0
104 -103 0
-104 103 0
211 -212 -205 0
-211 212 0
-211 205 0
213 -214 -189 0
-213 214 0
-213 189 0
215 -216 -217 0
-215 216 0
-215 217 0
154 -153 0
-154 153 0
218 -219 -220 0
-218 219 0
-218 220 0
221 -222 0
-221 222 0
223 -224 -225 0
-223 224 0
-223 225 0
190 -189 0
-190 189 0
226 -227 -155 0
-226 227 0
-226 155 0
228 -229 -161 0
-228 229 0
-228 161 0
142 -141 0
-142 141 0
230 -231 -153 0
-230 231 0
-230 153 0
232 -233 -159 0
-232 233 0
-232 159 0
234 -235 -123 0
-234 235 0
-234 123 0
236 -237 -157 0
-236 237 0
-236 157 0
206 -205 0
-206 205 0
238 -239 -225 0
-238 239 0
-238 225 0
240 -241 -242 0
-240 241 0
-240 242 0
164 -163 0
-164 163 0
126 -125 0
-126 125 0
243 -244 -115 0
-243 244 0
-243 115 0
245 -246 -153 0
-245 246 0
-245 153 0
247 -248 -155 0
-247 248 0
-247 155 0
249 -250 -123 0
-249 250 0
-249 123 0
116 -115 0
-116 115 0
251 -252 -127 0
-251 252 0
-251 127 0
253 -254 -125 0
-253 254 0
-253 125 0
200 -199 0
-200 199 0
255 -256 -257 0
-255 256 0
-255 257 0
258 -259 -242 0
-258 259 0
-258 242 0
108 -107 0
-108 107 0
260 -261 -262 0
-260 261 0
-260 262 0
106 -105 0
-106 105 0
172 -171 0
-172 171 0
263 -264 -242 0
-263 264 0
-263 242 0
180 -179 0
-180 179 0
265 -266 -267 0
-265 266 0
-265 267 0
268 -269 0
-268 269 0
270 -271 0
-270 271 0
272 -273 0
-272 273 0
274 -275 0
-274 275 0
276 -250 -111 0
-276 250 0
-276 111 0
277 -252 -113 0
-277 252 0
-277 113 0
278 -239 -131 0
-278 239 0
-278 131 0
208 -207 0
-208 207 0
279 -256 -111 0
-279 256 0
-279 111 0
192 -191 0
-192 191 0
280 -252 -121 0
-280 252 0
-280 121 0
110 -109 0
-110 109 0
281 -250 -117 0
-281 250 0
-281 117 0
282 -254 -119 0
-282 254 0
-282 119 0
112 -111 0
-112 111 0
283 -284 -109 0
-283 284 0
-283 109 0
285 -239 -201 0
-285 239 0
-285 201 0
286 -287 -193 0
-286 287 0
-286 193 0
288 -289 -129 0
-288 289 0
-288 129 0
290 -248 -133 0
-290 248 0
-290 133 0
291 -292 0
-291 292 0
293 -246 -131 0
-293 246 0
-293 131 0
294 -256 -117 0
-294 256 0
-294 117 0
194 -193 0
-194 193 0
295 -239 -153 0
-295 239 0
-295 153 0
210 -209 0
-210 209 0
296 -248 -145 0
-296 248 0
-296 145 0
297 -246 -143 0
-297 246 0
-297 143 0
120 -119 0
-120 119 0
298 -244 -109 0
-298 244 0
-298 109 0
196 -195 0
-196 195 0
299 -256 -123 0
-299 256 0
-299 123 0
300 -237 -135 0
-300 237 0
-300 135 0
301 -227 -133 0
-301 227 0
-301 133 0
302 -303 0
-302 303 0
304 -229 -139 0
-304 229 0
-304 139 0
305 -235 -111 0
-305 235 0
-305 111 0
306 -231 -131 0
-306 231 0
-306 131 0
307 -233 -137 0
-307 233 0
-307 137 0
308 -309 0
-308 309 0
310 -214 -197 0
-310 214 0
-310 197 0
311 -212 -207 0
-311 212 0
-311 207 0
198 -197 0
-198 197 0
312 -224 -131 0
-312 224 0
-312 131 0
313 -241 -133 0
-313 241 0
-313 133 0
166 -165 0
-166 165 0
168 -167 0
-168 167 0
314 -266 -113 0
-314 266 0
-314 113 0
170 -169 0
-170 169 0
315 -264 -133 0
-315 264 0
-315 133 0
316 -235 -117 0
-316 235 0
-316 117 0
317 -231 -143 0
-317 231 0
-317 143 0
318 -237 -147 0
-318 237 0
-318 147 0
319 -227 -145 0
-319 227 0
-319 145 0
130 -129 0
-130 129 0
320 -229 -151 0
-320 229 0
-320 151 0
321 -233 -149 0
-321 233 0
-321 149 0
202 -201 0
-202 201 0
322 -212 -117 0
-322 212 0
-322 117 0
182 -181 0
-182 181 0
323 -224 -143 0
-323 224 0
-323 143 0
324 -241 -145 0
-324 241 0
-324 145 0
174 -173 0
-174 173 0
176 -175 0
-176 175 0
325 -266 -121 0
-325 266 0
-325 121 0
178 -177 0
-178 177 0
326 -264 -145 0
-326 264 0
-326 145 0
327 -216 -125 0
-327 216 0
-327 125 0
328 -214 -203 0
-328 214 0
-328 203 0
329 -212 -209 0
-329 212 0
-329 209 0
330 -219 -141 0
-330 219 0
-330 141 0
144 -143 0
-144 143 0
204 -203 0
-204 203 0
331 -224 -153 0
-331 224 0
-331 153 0
332 -241 -155 0
-332 241 0
-332 155 0
184 -183 0
-184 183 0
186 -185 0
-186 185 0
333 -266 -127 0
-333 266 0
-333 127 0
188 -187 0
-188 187 0
334 -264 -155 0
-334 264 0
-334 155 0
158 -157 0
-158 157 0
335 -336 -220 0
-335 336 0
-335 220 0
337 -338 -105 0
-337 338 0
-337 105 0
339 -340 0
-339 340 0
341 -342 0
-341 342 0
343 -344 0
-343 344 0
345 -346 -220 0
-345 346 0
-345 220 0
162 -161 0
-162 161 0
347 -336 -129 0
-347 336 0
-347 129 0
136 -135 0
-136 135 0
138 -137 0
-138 137 0
348 -349 -129 0
-348 349 0
-348 129 0
350 -346 -129 0
-350 346 0
-350 129 0
140 -139 0
-140 139 0
160 -159 0
-160 159 0
351 -349 -220 0
-351 349 0
-351 220 0
134 -133 0
-134 133 0
352 -353 -129 0
-352 353 0
-352 129 0
354 -355 -173 0
-354 355 0
-354 173 0
356 -357 -177 0
-356 357 0
-356 177 0
358 -359 -119 0
-358 359 0
-358 119 0
360 -336 -141 0
-360 336 0
-360 141 0
148 -147 0
-148 147 0
150 -149 0
-150 149 0
361 -349 -141 0
-361 349 0
-361 141 0
362 -346 -141 0
-362 346 0
-362 141 0
152 -151 0
-152 151 0
363 -353 -220 0
-363 353 0
-363 220 0
364 -355 -163 0
-364 355 0
-364 163 0
365 -359 -217 0
-365 359 0
-365 217 0
156 -155 0
-156 155 0
366 -357 -171 0
-366 357 0
-366 171 0
367 -368 0
-367 368 0
369 -370 -167 0
-369 370 0
-369 167 0
371 -372 -109 0
-371 372 0
-371 109 0
114 -113 0
-114 113 0
373 -370 -175 0
-373 370 0
-373 175 0
374 -370 -185 0
-374 370 0
-374 185 0
122 -121 0
-122 121 0
375 -372 -115 0
-375 372 0
-375 115 0
376 -377 -107 0
-376 377 0
-376 107 0
378 -355 -165 0
-378 355 0
-378 165 0
379 -357 -169 0
-379 357 0
-379 169 0
380 -381 0
-380 381 0
382 -370 -179 0
-382 370 0
-382 179 0
383 -372 -384 0
-383 372 0
-383 384 0
128 -127 0
-128 127 0
132 -131 0
-132 131 0
385 -214 -181 0
-385 214 0
-385 181 0
386 -216 -119 0
-386 216 0
-386 119 0
387 -219 -129 0
-387 219 0
-387 129 0
388 -355 -183 0
-388 355 0
-388 183 0
146 -145 0
-146 145 0
389 -359 -125 0
-389 359 0
-389 125 0
390 -357 -187 0
-390 357 0
-390 187 0
391 -353 -141 0
-391 353 0
-391 141 0
124 -123 0
-124 123 0
392 -289 -220 0
-392 289 0
-392 220 0
393 -287 -199 0
-393 287 0
-393 199 0
394 -284 -384 0
-394 284 0
-394 384 0
395 -396 0
-395 396 0
397 -287 -191 0
-397 287 0
-397 191 0
398 -284 -115 0
-398 284 0
-398 115 0
118 -117 0
-118 117 0
399 -289 -141 0
-399 289 0
-399 141 0
400 -287 -195 0
-400 287 0
-400 195 0
-401 350 140 0
401 -350 0
401 -140 0
-402 362 152 0
402 -362 0
402 -152 0
-403 304 302 0
403 -304 0
403 -302 0
-404 178 326 0
404 -178 0
404 -326 0
-405 188 334 0
405 -188 0
405 -334 0
-406 345 162 0
406 -345 0
406 -162 0
-407 172 263 0
407 -172 0
407 -263 0
-408 332 184 0
408 -332 0
408 -184 0
-409 324 174 0
409 -324 0
409 -174 0
-410 158 335 0
410 -158 0
410 -335 0
-411 148 360 0
411 -148 0
411 -360 0
-412 347 136 0
412 -347 0
412 -136 0
-413 260 106 0
413 -260 0
413 -106 0
-414 337 339 0
414 -337 0
414 -339 0
-415 240 164 0
415 -240 0
415 -164 0
-416 378 380 0
416 -378 0
416 -380 0
-417 166 313 0
417 -166 0
417 -313 0
-418 258 108 0
418 -258 0
418 -108 0
-419 366 364 0
419 -366 0
419 -364 0
-420 403 300 0
420 -403 0
420 -300 0
-421 416 379 376 0
421 -416 0
421 -379 0
421 -376 0
-422 315 170 0
422 -315 0
422 -170 0
-423 390 388 0
423 -390 0
423 -388 0
-424 320 318 0
424 -320 0
424 -318 0
-425 228 236 0
425 -228 0
425 -236 0
-426 356 354 0
426 -356 0
426 -354 0
-427 223 190 0
427 -223 0
427 -190 0
-428 198 312 0
428 -198 0
428 -312 0
-429 420 301 0
429 -420 0
429 -301 0
-430 424 319 0
430 -424 0
430 -319 0
-431 323 182 0
431 -323 0
431 -182 0
-432 331 204 0
432 -331 0
432 -204 0
-433 426 352 358 134 0
433 -426 0
433 -352 0
433 -358 0
433 -134 0
-434 419 363 365 156 0
434 -419 0
434 -363 0
434 -365 0
434 -156 0
-435 423 391 389 146 0
435 -423 0
435 -391 0
435 -389 0
435 -146 0
-436 425 226 0
436 -425 0
436 -226 0
-437 296 297 0
437 -296 0
437 -297 0
-438 247 245 0
438 -247 0
438 -245 0
-439 429 306 0
439 -429 0
439 -306 0
-440 430 317 0
440 -430 0
440 -317 0
-441 202 322 0
441 -202 0
441 -322 0
-442 328 144 0
442 -328 0
442 -144 0
-443 436 230 0
443 -436 0
443 -230 0
-444 290 293 0
444 -290 0
444 -293 0
-445 385 387 386 132 0
445 -385 0
445 -387 0
445 -386 0
445 -132 0
-446 442 330 327 0
446 -442 0
446 -330 0
446 -327 0
-447 213 218 215 0
447 -213 0
447 -218 0
447 -215 0
-448 446 329 0
448 -446 0
448 -329 0
-449 447 154 0
449 -447 0
449 -154 0
-450 437 298 0
450 -437 0
450 -298 0
-451 438 243 126 0
451 -438 0
451 -243 0
451 -126 0
-452 450 120 0
452 -450 0
452 -120 0
-453 444 291 0
453 -444 0
453 -291 0
-454 295 210 0
454 -295 0
454 -210 0
-455 394 392 0
455 -394 0
455 -392 0
-456 398 399 118 400 0
456 -398 0
456 -399 0
456 -118 0
456 -400 0
-457 285 283 288 0
457 -285 0
457 -283 0
457 -288 0
-458 253 249 0
458 -253 0
458 -249 0
-459 439 305 0
459 -439 0
459 -305 0
-460 440 316 0
460 -440 0
460 -316 0
-461 455 124 0
461 -455 0
461 -124 0
-462 274 276 0
462 -274 0
462 -276 0
-463 443 234 0
463 -443 0
463 -234 0
-464 282 281 0
464 -282 0
464 -281 0
-465 457 112 286 0
465 -457 0
465 -112 0
465 -286 0
-466 458 251 116 0
466 -458 0
466 -251 0
466 -116 0
-467 462 277 0
467 -462 0
467 -277 0
-468 464 280 110 0
468 -464 0
468 -280 0
468 -110 0
-469 206 238 0
469 -206 0
469 -238 0
-470 180 265 0
470 -180 0
470 -265 0
-471 255 200 0
471 -255 0
471 -200 0
-472 461 393 0
472 -461 0
472 -393 0
-473 449 211 0
473 -449 0
473 -211 0
-474 383 382 128 0
474 -383 0
474 -382 0
474 -128 0
-475 361 150 0
475 -361 0
475 -150 0
-476 348 138 0
476 -348 0
476 -138 0
-477 176 325 0
477 -176 0
477 -325 0
-478 186 333 0
478 -186 0
478 -333 0
-479 351 160 0
479 -351 0
479 -160 0
-480 299 196 0
480 -299 0
480 -196 0
-481 459 307 0
481 -459 0
481 -307 0
-482 460 321 130 0
482 -460 0
482 -321 0
482 -130 0
-483 371 373 114 0
483 -371 0
483 -373 0
483 -114 0
-484 375 374 122 0
484 -375 0
484 -374 0
484 -122 0
-485 463 232 142 0
485 -463 0
485 -232 0
485 -142 0
-486 294 194 0
486 -294 0
486 -194 0
-487 369 367 0
487 -369 0
487 -367 0
-488 314 168 0
488 -314 0
488 -168 0
-489 279 192 0
489 -279 0
489 -192 0
-490 310 311 0
490 -310 0
490 -311 0
-491 278 208 0
491 -278 0
491 -208 0
-492 395 397 0
492 -395 0
492 -397 0
-493 490 308 0
493 -490 0
493 -308 0
-494 154 -153 0
494 -154 0
494 153 0
-495 -154 153 0
495 154 0
495 -153 0
-496 221 -222 0
496 -221 0
496 222 0
-497 -221 222 0
497 221 0
497 -222 0
-498 190 -189 0
498 -190 0
498 189 0
-499 -190 189 0
499 190 0
499 -189 0
-500 142 -141 0
500 -142 0
500 141 0
-501 -142 141 0
501 142 0
501 -141 0
-502 206 -205 0
502 -206 0
502 205 0
-503 -206 205 0
503 206 0
503 -205 0
-504 164 -163 0
504 -164 0
504 163 0
-505 -164 163 0
505 164 0
505 -163 0
-506 126 -125 0
506 -126 0
506 125 0
-507 -126 125 0
507 126 0
507 -125 0
-508 116 -115 0
508 -116 0
508 115 0
-509 -116 115 0
509 116 0
509 -115 0
-510 200 -199 0
510 -200 0
510 199 0
-511 -200 199 0
511 200 0
511 -199 0
-512 108 -107 0
512 -108 0
512 107 0
-513 -108 107 0
513 108 0
513 -107 0
-514 106 -105 0
514 -106 0
514 105 0
-515 -106 105 0
515 106 0
515 -105 0
-516 172 -171 0
516 -172 0
516 171 0
-517 -172 171 0
517 172 0
517 -171 0
-518 180 -179 0
518 -180 0
518 179 0
-519 -180 179 0
519 180 0
519 -179 0
-520 268 -269 0
520 -268 0
520 269 0
-521 -268 269 0
521 268 0
521 -269 0
-522 270 -271 0
522 -270 0
522 271 0
-523 -270 271 0
523 270 0
523 -271 0
-524 272 -273 0
524 -272 0
524 273 0
-525 -272 273 0
525 272 0
525 -273 0
-526 274 -275 0
526 -274 0
526 275 0
-527 -274 275 0
527 274 0
527 -275 0
-528 208 -207 0
528 -208 0
528 207 0
-529 -208 207 0
529 208 0
529 -207 0
-530 192 -191 0
530 -192 0
530 191 0
-531 -192 191 0
531 192 0
531 -191 0
-532 110 -109 0
532 -110 0
532 109 0
-533 -110 109 0
533 110 0
533 -109 0
-534 112 -111 0
534 -112 0
534 111 0
-535 -112 111 0
535 112 0
535 -111 0
-536 291 -292 0
536 -291 0
536 292 0
-537 -291 292 0
537 291 0
537 -292 0
-538 194 -193 0
538 -194 0
538 193 0
-539 -194 193 0
539 194 0
539 -193 0
-540 210 -209 0
540 -210 0
540 209 0
-541 -210 209 0
541 210 0
541 -209 0
-542 120 -119 0
542 -120 0
542 119 0
-543 -120 119 0
543 120 0
543 -119 0
-544 196 -195 0
544 -196 0
544 195 0
-545 -196 195 0
545 196 0
545 -195 0
-546 302 -303 0
546 -302 0
546 303 0
-547 -302 303 0
547 302 0
547 -303 0
-548 308 -309 0
548 -308 0
548 309 0
-549 -308 309 0
549 308 0
549 -309 0
-550 198 -197 0
550 -198 0
550 197 0
-551 -198 197 0
551 198 0
551 -197 0
-552 166 -165 0
552 -166 0
552 165 0
-553 -166 165 0
553 166 0
553 -165 0
-554 168 -167 0
554 -168 0
554 167 0
-555 -168 167 0
555 168 0
555 -167 0
-556 170 -169 0
556 -170 0
556 169 0
-557 -170 169 0
557 170 0
557 -169 0
-558 130 -129 0
558 -130 0
558 129 0
-559 -130 129 0
559 130 0
559 -129 0
-560 202 -201 0
560 -202 0
560 201 0
-561 -202 201 0
561 202 0
561 -201 0
-562 182 -181 0
562 -182 0
562 181 0
-563 -182 181 0
563 182 0
563 -181 0
-564 174 -173 0
564 -174 0
564 173 0
-565 -174 173 0
565 174 0
565 -173 0
-566 176 -175 0
566 -176 0
566 175 0
-567 -176 175 0
567 176 0
567 -175 0
-568 178 -177 0
568 -178 0
568 177 0
-569 -178 177 0
569 178 0
569 -177 0
-570 144 -143 0
570 -144 0
570 143 0
-571 -144 143 0
571 144 0
571 -143 0
-572 204 -203 0
572 -204 0
572 203 0
-573 -204 203 0
573 204 0
573 -203 0
-574 184 -183 0
574 -184 0
574 183 0
-575 -184 183 0
575 184 0
575 -183 0
-576 186 -185 0
576 -186 0
576 185 0
-577 -186 185 0
577 186 0
577 -185 0
-578 188 -187 0
578 -188 0
578 187 0
-579 -188 187 0
579 188 0
579 -187 0
-580 158 -157 0
580 -158 0
580 157 0
-581 -158 157 0
581 158 0
581 -157 0
-582 339 -340 0
582 -339 0
582 340 0
-583 -339 340 0
583 339 0
583 -340 0
-584 341 -342 0
584 -341 0
584 342 0
-585 -341 342 0
585 341 0
585 -342 0
-586 343 -344 0
586 -343 0
586 344 0
-587 -343 344 0
587 343 0
587 -344 0
-588 162 -161 0
588 -162 0
588 161 0
-589 -162 161 0
589 162 0
589 -161 0
-590 136 -135 0
590 -136 0
590 135 0
-591 -136 135 0
591 136 0
591 -135 0
-592 138 -137 0
592 -138 0
592 137 0
-593 -138 137 0
593 138 0
593 -137 0
-594 140 -139 0
594 -140 0
594 139 0
-595 -140 139 0
595 140 0
595 -139 0
-596 160 -159 0
596 -160 0
596 159 0
-597 -160 159 0
597 160 0
597 -159 0
-598 134 -133 0
598 -134 0
598 133 0
-599 -134 133 0
599 134 0
599 -133 0
-600 148 -147 0
600 -148 0
600 147 0
-601 -148 147 0
601 148 0
601 -147 0
-602 150 -149 0
602 -150 0
602 149 0
-603 -150 149 0
603 150 0
603 -149 0
-604 152 -151 0
604 -152 0
604 151 0
-605 -152 151 0
605 152 0
605 -151 0
-606 156 -155 0
606 -156 0
606 155 0
-607 -156 155 0
607 156 0
607 -155 0
-608 367 -368 0
608 -367 0
608 368 0
-609 -367 368 0
609 367 0
609 -368 0
-610 114 -113 0
610 -114 0
610 113 0
-611 -114 113 0
611 114 0
611 -113 0
-612 122 -121 0
612 -122 0
612 121 0
-613 -122 121 0
613 122 0
613 -121 0
-614 380 -381 0
614 -380 0
614 381 0
-615 -380 381 0
615 380 0
615 -381 0
-616 128 -127 0
616 -128 0
616 127 0
-617 -128 127 0
617 128 0
617 -127 0
-618 132 -131 0
618 -132 0
618 131 0
-619 -132 131 0
619 132 0
619 -131 0
-620 146 -145 0
620 -146 0
620 145 0
-621 -146 145 0
621 146 0
621 -145 0
-622 124 -123 0
622 -124 0
622 123 0
-623 -124 123 0
623 124 0
623 -123 0
-624 395 -396 0
624 -395 0
624 396 0
-625 -395 396 0
625 395 0
625 -396 0
-626 118 -117 0
626 -118 0
626 117 0
-627 -118 117 0
627 118 0
627 -117 0
-628 -177 401 0
628 177 0
628 -401 0
-629 177 -401 0
629 -177 0
629 401 0
-630 -187 402 0
630 187 0
630 -402 0
-631 187 -402 0
631 -187 0
631 402 0
-632 -151 404 0
632 151 0
632 -404 0
-633 151 -404 0
633 -151 0
633 404 0
-634 -161 405 0
634 161 0
634 -405 0
-635 161 -405 0
635 -161 0
635 405 0
-636 -637 407 0
636 637 0
636 -407 0
-638 637 -407 0
638 -637 0
638 407 0
-639 -171 406 0
639 171 0
639 -406 0
-640 171 -406 0
640 -171 0
640 406 0
-641 -157 408 0
641 157 0
641 -408 0
-642 157 -408 0
642 -157 0
642 408 0
-643 -147 409 0
643 147 0
643 -409 0
-644 147 -409 0
644 -147 0
644 409 0
-645 -183 411 0
645 183 0
645 -411 0
-646 183 -411 0
646 -183 0
646 411 0
-647 -105 270 0
647 105 0
647 -270 0
-648 105 -270 0
648 -105 0
648 270 0
-649 -650 413 0
649 650 0
649 -413 0
-651 650 -413 0
651 -650 0
651 413 0
-652 -165 414 0
652 165 0
652 -414 0
-653 165 -414 0
653 -165 0
653 414 0
-654 -173 412 0
654 173 0
654 -412 0
-655 173 -412 0
655 -173 0
655 412 0
-656 -262 415 0
656 262 0
656 -415 0
-657 262 -415 0
657 -262 0
657 415 0
-658 -163 410 0
658 163 0
658 -410 0
-659 163 -410 0
659 -163 0
659 410 0
-660 -107 272 0
660 107 0
660 -272 0
-661 107 -272 0
661 -107 0
661 272 0
-662 -135 417 0
662 135 0
662 -417 0
-663 135 -417 0
663 -135 0
663 417 0
-664 -169 343 0
664 169 0
664 -343 0
-665 169 -343 0
665 -169 0
665 343 0
-666 -667 418 0
666 667 0
666 -418 0
-668 667 -418 0
668 -667 0
668 418 0
-669 -139 422 0
669 139 0
669 -422 0
-670 139 -422 0
670 -139 0
670 422 0
-671 -242 427 0
671 242 0
671 -427 0
-672 242 -427 0
672 -242 0
672 427 0
-673 -197 421 0
673 197 0
673 -421 0
-674 197 -421 0
674 -197 0
674 421 0
-675 -189 434 0
675 189 0
675 -434 0
-676 189 -434 0
676 -189 0
676 434 0
-677 -133 428 0
677 133 0
677 -428 0
-678 133 -428 0
678 -133 0
678 428 0
-679 -203 435 0
679 203 0
679 -435 0
-680 203 -435 0
680 -203 0
680 435 0
-681 -145 431 0
681 145 0
681 -431 0
-682 145 -431 0
682 -145 0
682 431 0
-683 -155 432 0
683 155 0
683 -432 0
-684 155 -432 0
684 -155 0
684 432 0
-685 -181 433 0
685 181 0
685 -433 0
-686 181 -433 0
686 -181 0
686 433 0
-687 -143 441 0
687 143 0
687 -441 0
-688 143 -441 0
688 -143 0
688 441 0
-689 -201 445 0
689 201 0
689 -445 0
-690 201 -445 0
690 -201 0
690 445 0
-691 -153 448 0
691 153 0
691 -448 0
-692 153 -448 0
692 -153 0
692 448 0
-693 -217 451 0
693 217 0
693 -451 0
-694 217 -451 0
694 -217 0
694 451 0
-695 -125 452 0
695 125 0
695 -452 0
-696 125 -452 0
696 -125 0
696 452 0
-697 -119 453 0
697 119 0
697 -453 0
-698 119 -453 0
698 -119 0
698 453 0
-699 -209 456 0
699 209 0
699 -456 0
-700 209 -456 0
700 -209 0
700 456 0
-701 -123 454 0
701 123 0
701 -454 0
-702 123 -454 0
702 -123 0
702 454 0
-703 -117 465 0
703 117 0
703 -465 0
-704 117 -465 0
704 -117 0
704 465 0
-705 -257 469 0
705 257 0
705 -469 0
-706 257 -469 0
706 -257 0
706 469 0
-707 -708 470 0
707 708 0
707 -470 0
-709 708 -470 0
709 -708 0
709 470 0
-710 -109 467 0
710 109 0
710 -467 0
-711 109 -467 0
711 -109 0
711 467 0
-712 -384 466 0
712 384 0
712 -466 0
-713 384 -466 0
713 -384 0
713 466 0
-714 -115 468 0
714 115 0
714 -468 0
-715 115 -468 0
715 -115 0
715 468 0
-716 -267 471 0
716 267 0
716 -471 0
-717 267 -471 0
717 -267 0
717 471 0
-718 -205 472 0
718 205 0
718 -472 0
-719 205 -472 0
719 -205 0
719 472 0
-720 -225 473 0
720 225 0
720 -473 0
-721 225 -473 0
721 -225 0
721 473 0
-722 -185 475 0
722 185 0
722 -475 0
-723 185 -475 0
723 -185 0
723 475 0
-724 -175 476 0
724 175 0
724 -476 0
-725 175 -476 0
725 -175 0
725 476 0
-726 -149 477 0
726 149 0
726 -477 0
-727 149 -477 0
727 -149 0
727 477 0
-728 -199 474 0
728 199 0
728 -474 0
-729 199 -474 0
729 -199 0
729 474 0
-730 -159 478 0
730 159 0
730 -478 0
-731 159 -478 0
731 -159 0
731 478 0
-732 -127 480 0
732 127 0
732 -480 0
-733 127 -480 0
733 -127 0
733 480 0
-734 -129 481 0
734 129 0
734 -481 0
-735 129 -481 0
735 -129 0
735 481 0
-736 -193 483 0
736 193 0
736 -483 0
-737 193 -483 0
737 -193 0
737 483 0
-738 -195 484 0
738 195 0
738 -484 0
-739 195 -484 0
739 -195 0
739 484 0
-740 -141 482 0
740 141 0
740 -482 0
-741 141 -482 0
741 -141 0
741 482 0
-742 -220 485 0
742 220 0
742 -485 0
-743 220 -485 0
743 -220 0
743 485 0
-744 -179 479 0
744 179 0
744 -479 0
-745 179 -479 0
745 -179 0
745 479 0
-746 -121 486 0
746 121 0
746 -486 0
-747 121 -486 0
747 -121 0
747 486 0
-748 -167 341 0
748 167 0
748 -341 0
-749 167 -341 0
749 -167 0
749 341 0
-750 -113 489 0
750 113 0
750 -489 0
-751 113 -489 0
751 -113 0
751 489 0
-752 -137 488 0
752 137 0
752 -488 0
-753 137 -488 0
753 -137 0
753 488 0
-754 -191 487 0
754 191 0
754 -487 0
-755 191 -487 0
755 -191 0
755 487 0
-756 -207 492 0
756 207 0
756 -492 0
-757 207 -492 0
757 -207 0
757 492 0
-758 -111 491 0
758 111 0
758 -491 0
-759 111 -491 0
759 -111 0
759 491 0
-760 -761 221 0
760 761 0
760 -221 0
-762 761 -221 0
762 -761 0
762 221 0
-763 -764 268 0
763 764 0
763 -268 0
-765 764 -268 0
765 -764 0
765 268 0
-766 -1 2 0
766 1 0
766 -2 0
-767 1 -2 0
767 -1 0
767 2 0
-768 -3 4 0
768 3 0
768 -4 0
-769 3 -4 0
769 -3 0
769 4 0
-770 -11 12 0
770 11 0
770 -12 0
-771 11 -12 0
771 -11 0
771 12 0
-772 -43 44 0
772 43 0
772 -44 0
-773 43 -44 0
773 -43 0
773 44 0
-774 -45 46 0
774 45 0
774 -46 0
-775 45 -46 0
775 -45 0
775 46 0
-776 -47 48 0
776 47 0
776 -48 0
-777 47 -48 0
777 -47 0
777 48 0
-778 -49 50 0
778 49 0
778 -50 0
-779 49 -50 0
779 -49 0
779 50 0
-780 -13 14 0
780 13 0
780 -14 0
-781 13 -14 0
781 -13 0
781 14 0
-782 -51 52 0
782 51 0
782 -52 0
-783 51 -52 0
783 -51 0
783 52 0
-784 -53 54 0
784 53 0
784 -54 0
-785 53 -54 0
785 -53 0
785 54 0
-786 -55 56 0
786 55 0
786 -56 0
-787 55 -56 0
787 -55 0
787 56 0
-788 -57 58 0
788 57 0
788 -58 0
-789 57 -58 0
789 -57 0
789 58 0
-790 -15 16 0
790 15 0
790 -16 0
-791 15 -16 0
791 -15 0
791 16 0
-792 -59 60 0
792 59 0
792 -60 0
-793 59 -60 0
793 -59 0
793 60 0
-794 -61 62 0
794 61 0
794 -62 0
-795 61 -62 0
795 -61 0
795 62 0
-796 -63 64 0
796 63 0
796 -64 0
-797 63 -64 0
797 -63 0
797 64 0
-798 -65 66 0
798 65 0
798 -66 0
-799 65 -66 0
799 -65 0
799 66 0
-800 -17 18 0
800 17 0
800 -18 0
-801 17 -18 0
801 -17 0
801 18 0
-802 -67 68 0
802 67 0
802 -68 0
-803 67 -68 0
803 -67 0
803 68 0
-804 -69 70 0
804 69 0
804 -70 0
-805 69 -70 0
805 -69 0
805 70 0
-806 -71 72 0
806 71 0
806 -72 0
-807 71 -72 0
807 -71 0
807 72 0
-808 -73 74 0
808 73 0
808 -74 0
-809 73 -74 0
809 -73 0
809 74 0
-810 -5 6 0
810 5 0
810 -6 0
-811 5 -6 0
811 -5 0
811 6 0
-812 -19 20 0
812 19 0
812 -20 0
-813 19 -20 0
813 -19 0
813 20 0
-814 -75 76 0
814 75 0
814 -76 0
-815 75 -76 0
815 -75 0
815 76 0
-816 -77 78 0
816 77 0
816 -78 0
-817 77 -78 0
817 -77 0
817 78 0
-818 -79 80 0
818 79 0
818 -80 0
-819 79 -80 0
819 -79 0
819 80 0
-820 -81 82 0
820 81 0
820 -82 0
-821 81 -82 0
821 -81 0
821 82 0
-822 -21 22 0
822 21 0
822 -22 0
-823 21 -22 0
823 -21 0
823 22 0
-824 -83 84 0
824 83 0
824 -84 0
-825 83 -84 0
825 -83 0
825 84 0
-826 -85 86 0
826 85 0
826 -86 0
-827 85 -86 0
827 -85 0
827 86 0
-828 -87 88 0
828 87 0
828 -88 0
-829 87 -88 0
829 -87 0
829 88 0
-830 -89 90 0
830 89 0
830 -90 0
-831 89 -90 0
831 -89 0
831 90 0
-832 -23 24 0
832 23 0
832 -24 0
-833 23 -24 0
833 -23 0
833 24 0
-834 -91 92 0
834 91 0
834 -92 0
-835 91 -92 0
835 -91 0
835 92 0
-836 -93 94 0
836 93 0
836 -94 0
-837 93 -94 0
837 -93 0
837 94 0
-838 -95 96 0
838 95 0
838 -96 0
-839 95 -96 0
839 -95 0
839 96 0
-840 -97 98 0
840 97 0
840 -98 0
-841 97 -98 0
841 -97 0
841 98 0
-842 -25 26 0
842 25 0
842 -26 0
-843 25 -26 0
843 -25 0
843 26 0
-844 -99 100 0
844 99 0
844 -100 0
-845 99 -100 0
845 -99 0
845 100 0
-846 -101 102 0
846 101 0
846 -102 0
-847 101 -102 0
847 -101 0
847 102 0
-848 -103 104 0
848 103 0
848 -104 0
-849 103 -104 0
849 -103 0
849 104 0
-850 -7 8 0
850 7 0
850 -8 0
-851 7 -8 0
851 -7 0
851 8 0
-852 -27 28 0
852 27 0
852 -28 0
-853 27 -28 0
853 -27 0
853 28 0
-854 -29 30 0
854 29 0
854 -30 0
-855 29 -30 0
855 -29 0
855 30 0
-856 -31 32 0
856 31 0
856 -32 0
-857 31 -32 0
857 -31 0
857 32 0
-858 -33 34 0
858 33 0
858 -34 0
-859 33 -34 0
859 -33 0
859 34 0
-860 -9 10 0
860 9 0
860 -10 0
-861 9 -10 0
861 -9 0
861 10 0
-862 -35 36 0
862 35 0
862 -36 0
-863 35 -36 0
863 -35 0
863 36 0
-864 -37 38 0
864 37 0
864 -38 0
-865 37 -38 0
865 -37 0
865 38 0
-866 -39 40 0
866 39 0
866 -40 0
-867 39 -40 0
867 -39 0
867 40 0
-868 -41 42 0
868 41 0
868 -42 0
-869 41 -42 0
869 -41 0
869 42 0
-870 -131 493 0
870 131 0
870 -493 0
-871 131 -493 0
871 -131 0
871 493 0
494 0
495 0
496 0
497 0
498 0
499 0
500 0
501 0
502 0
503 0
504 0
505 0
506 0
507 0
508 0
509 0
510 0
511 0
512 0
513 0
514 0
515 0
516 0
517 0
518 0
519 0
520 0
521 0
522 0
523 0
524 0
525 0
526 0
527 0
528 0
529 0
530 0
531 0
532 0
533 0
534 0
535 0
536 0
537 0
538 0
539 0
540 0
541 0
542 0
543 0
544 0
545 0
546 0
547 0
548 0
549 0
550 0
551 0
552 0
553 0
554 0
555 0
556 0
557 0
558 0
559 0
560 0
561 0
562 0
563 0
564 0
565 0
566 0
567 0
568 0
569 0
570 0
571 0
572 0
573 0
574 0
575 0
576 0
577 0
578 0
579 0
580 0
581 0
582 0
583 0
584 0
585 0
586 0
587 0
588 0
589 0
590 0
591 0
592 0
593 0
594 0
595 0
596 0
597 0
598 0
599 0
600 0
601 0
602 0
603 0
604 0
605 0
606 0
607 0
608 0
609 0
610 0
611 0
612 0
613 0
614 0
615 0
616 0
617 0
618 0
619 0
620 0
621 0
622 0
623 0
624 0
625 0
626 0
627 0
628 0
629 0
630 0
631 0
632 0
633 0
634 0
635 0
636 0
638 0
639 0
640 0
641 0
642 0
643 0
644 0
645 0
646 0
647 0
648 0
649 0
651 0
652 0
653 0
654 0
655 0
656 0
657 0
658 0
659 0
660 0
661 0
662 0
663 0
664 0
665 0
666 0
668 0
669 0
670 0
671 0
672 0
673 0
674 0
675 0
676 0
677 0
678 0
679 0
680 0
681 0
682 0
683 0
684 0
685 0
686 0
687 0
688 0
689 0
690 0
691 0
692 0
693 0
694 0
695 0
696 0
697 0
698 0
699 0
700 0
701 0
702 0
703 0
704 0
705 0
706 0
707 0
709 0
710 0
711 0
712 0
713 0
714 0
715 0
716 0
717 0
718 0
719 0
720 0
721 0
722 0
723 0
724 0
725 0
726 0
727 0
728 0
729 0
730 0
731 0
732 0
733 0
734 0
735 0
736 0
737 0
738 0
739 0
740 0
741 0
742 0
743 0
744 0
745 0
746 0
747 0
748 0
749 0
750 0
751 0
752 0
753 0
754 0
755 0
756 0
757 0
758 0
759 0
760 0
762 0
763 0
765 0
766 0
767 0
768 0
769 0
770 0
771 0
772 0
773 0
774 0
775 0
776 0
777 0
778 0
779 0
780 0
781 0
782 0
783 0
784 0
785 0
786 0
787 0
788 0
789 0
790 0
791 0
792 0
793 0
794 0
795 0
796 0
797 0
798 0
799 0
800 0
801 0
802 0
803 0
804 0
805 0
806 0
807 0
808 0
809 0
810 0
811 0
812 0
813 0
814 0
815 0
816 0
817 0
818 0
819 0
820 0
821 0
822 0
823 0
824 0
825 0
826 0
827 0
828 0
829 0
830 0
831 0
832 0
833 0
834 0
835 0
836 0
837 0
838 0
839 0
840 0
841 0
842 0
843 0
844 0
845 0
846 0
847 0
848 0
849 0
850 0
851 0
852 0
853 0
854 0
855 0
856 0
857 0
858 0
859 0
860 0
861 0
862 0
863 0
864 0
865 0
866 0
867 0
868 0
869 0
870 0
871 0
2 0
4 0
6 0
8 0
10 0
12 0
14 0
16 0
18 0
20 0
22 0
24 0
26 0
28 0
30 0
32 0
34 0
36 0
38 0
40 0
42 0
44 0
46 0
48 0
50 0
52 0
54 0
56 0
58 0
60 0
62 0
64 0
66 0
68 0
70 0
72 0
74 0
76 0
78 0
80 0
82 0
84 0
86 0
88 0
90 0
92 0
94 0
96 0
98 0
100 0
102 0
104 0
