c BC-S1.2
p cnf 847 2612
1 -2 0
-1 2 0
3 -4 0
-3 4 0
5 -6 0
-5 6 0
7 -8 0
-7 8 0
9 -10 0
-9 10 0
11 -12 0
-11 12 0
13 -14 0
-13 14 0
15 -16 0
-15 16 0
17 -18 0
-17 18 0
19 -20 0
-19 20 0
21 -22 0
-21 22 0
23 -24 0
-23 24 0
25 -26 0
-25 26 0
27 -28 0
-27 28 0
29 -30 0
-29 30 0
31 -32 0
-31 32 0
33 -34 0
-33 34 0
35 -36 0
-35 36 0
37 -38 0
-37 38 0
39 -40 0
-39 40 0
41 -42 0
-41 42 0
43 -44 0
-43 44 0
45 -46 0
-45 46 0
47 -48 0
-47 48 0
49 -50 0
-49 50 0
51 -52 0
-51 52 0
53 -54 0
-53 54 0
55 -56 0
-55 56 0
57 -58 0
-57 58 0
59 -60 0
-59 60 0
61 -62 0
-61 62 0
63 -64 0
-63 64 0
65 -66 0
-65 66 0
67 -68 0
-67 68 0
69 -70 0
-69 70 0
71 -72 0
-71 72 0
73 -74 0
-73 74 0
75 -76 0
-75 76 0
77 -78 0
-77 78 0
79 -80 0
-79 80 0
81 -82 0
-81 82 0
83 -84 0
-83 84 0
85 -86 0
-85 86 0
87 -88 0
-87 88 0
89 -90 0
-89 90 0
91 -92 0
-91 92 0
93 -94 0
-93 94 0
95 -96 0
-95 96 0
97 -98 0
-97 98 0
99 -100 0
-99 100 0
101 -102 0
-101 102 0
103 -104 0
-103 104 0
105 -106 0
-105 106 0
107 -108 0
-107 108 0
109 -110 0
-109 110 0
111 -112 0
-111 112 0
113 -114 0
-113 114 0
115 -116 0
-115 116 0
117 -118 0
-117 118 0
119 -120 0
-119 120 0
-121 122 123 124 125 126 0
121 -122 0
121 -123 0
121 -124 0
121 -125 0
121 -126 0
-127 128 129 0
127 -128 0
127 -129 0
-130 131 132 0
130 -131 0
130 -132 0
133 -134 0
-133 134 0
-135 136 137 0
135 -136 0
135 -137 0
-138 139 140 141 142 143 144 145 0
138 -139 0
138 -140 0
138 -141 0
138 -142 0
138 -143 0
138 -144 0
138 -145 0
-146 147 148 0
146 -147 0
146 -148 0
-149 150 151 152 153 0
149 -150 0
149 -151 0
149 -152 0
149 -153 0
-154 155 156 157 158 159 160 0
154 -155 0
154 -156 0
154 -157 0
154 -158 0
154 -159 0
154 -160 0
-161 162 163 0
161 -162 0
161 -163 0
-164 165 166 167 0
164 -165 0
164 -166 0
164 -167 0
-168 169 170 0
168 -169 0
168 -170 0
-171 172 173 0
171 -172 0
171 -173 0
-174 175 176 177 178 179 180 0
174 -175 0
174 -176 0
174 -177 0
174 -178 0
174 -179 0
174 -180 0
-181 182 183 184 185 186 187 188 189 0
181 -182 0
181 -183 0
181 -184 0
181 -185 0
181 -186 0
181 -187 0
181 -188 0
181 -189 0
-190 191 192 0
190 -191 0
190 -192 0
-193 194 195 196 0
193 -194 0
193 -195 0
193 -196 0
-197 198 199 0
197 -198 0
197 -199 0
-200 201 202 0
200 -201 0
200 -202 0
-203 204 205 0
203 -204 0
203 -205 0
-206 207 208 0
206 -207 0
206 -208 0
-209 210 211 0
209 -210 0
209 -211 0
-212 213 214 0
212 -213 0
212 -214 0
-215 216 217 0
215 -216 0
215 -217 0
-218 219 220 0
218 -219 0
218 -220 0
-221 222 223 0
221 -222 0
221 -223 0
-224 225 226 0
224 -225 0
224 -226 0
-227 228 229 0
227 -228 0
227 -229 0
-230 231 232 0
230 -231 0
230 -232 0
-233 234 235 0
233 -234 0
233 -235 0
-236 237 238 0
236 -237 0
236 -238 0
-239 240 241 0
239 -240 0
239 -241 0
-242 243 244 0
242 -243 0
242 -244 0
-245 246 247 248 249 0
245 -246 0
245 -247 0
245 -248 0
245 -249 0
-250 251 252 253 254 0
250 -251 0
250 -252 0
250 -253 0
250 -254 0
-255 256 257 258 259 0
255 -256 0
255 -257 0
255 -258 0
255 -259 0
260 -131 0
-260 131 0
261 -137 0
-261 137 0
-262 263 264 265 0
262 -263 0
262 -264 0
262 -265 0
-266 267 268 269 0
266 -267 0
266 -268 0
266 -269 0
-270 271 272 273 0
270 -271 0
270 -272 0
270 -273 0
-274 275 276 277 0
274 -275 0
274 -276 0
274 -277 0
278 -205 0
-278 205 0
-279 280 281 0
279 -280 0
279 -281 0
-282 283 284 0
282 -283 0
282 -284 0
285 -219 0
-285 219 0
286 -223 0
-286 223 0
-287 288 289 0
287 -288 0
287 -289 0
-290 291 292 0
290 -291 0
290 -292 0
-293 294 295 0
293 -294 0
293 -295 0
-296 297 298 0
296 -297 0
296 -298 0
-299 300 301 0
299 -300 0
299 -301 0
-302 303 304 0
302 -303 0
302 -304 0
-305 306 307 0
305 -306 0
305 -307 0
-308 309 310 0
308 -309 0
308 -310 0
-311 312 313 0
311 -312 0
311 -313 0
-314 315 316 0
314 -315 0
314 -316 0
-317 318 319 320 0
317 -318 0
317 -319 0
317 -320 0
-321 322 323 324 0
321 -322 0
321 -323 0
321 -324 0
-325 326 327 328 0
325 -326 0
325 -327 0
325 -328 0
-329 330 331 332 333 0
329 -330 0
329 -331 0
329 -332 0
329 -333 0
-334 335 336 337 338 0
334 -335 0
334 -336 0
334 -337 0
334 -338 0
-339 340 341 342 0
339 -340 0
339 -341 0
339 -342 0
-343 344 345 346 347 348 0
343 -344 0
343 -345 0
343 -346 0
343 -347 0
343 -348 0
-349 350 351 352 353 354 0
349 -350 0
349 -351 0
349 -352 0
349 -353 0
349 -354 0
-355 356 357 358 359 0
355 -356 0
355 -357 0
355 -358 0
355 -359 0
-360 361 362 0
360 -361 0
360 -362 0
-363 364 365 366 367 368 0
363 -364 0
363 -365 0
363 -366 0
363 -367 0
363 -368 0
2 -1 0
-2 1 0
4 -3 0
-4 3 0
6 -5 0
-6 5 0
8 -7 0
-8 7 0
10 -9 0
-10 9 0
12 -11 0
-12 11 0
14 -13 0
-14 13 0
16 -15 0
-16 15 0
18 -17 0
-18 17 0
20 -19 0
-20 19 0
22 -21 0
-22 21 0
24 -23 0
-24 23 0
26 -25 0
-26 25 0
28 -27 0
-28 27 0
30 -29 0
-30 29 0
32 -31 0
-32 31 0
34 -33 0
-34 33 0
36 -35 0
-36 35 0
38 -37 0
-38 37 0
40 -39 0
-40 39 0
42 -41 0
-42 41 0
44 -43 0
-44 43 0
46 -45 0
-46 45 0
48 -47 0
-48 47 0
50 -49 0
-50 49 0
52 -51 0
-52 51 0
54 -53 0
-54 53 0
56 -55 0
-56 55 0
58 -57 0
-58 57 0
60 -59 0
-60 59 0
62 -61 0
-62 61 0
64 -63 0
-64 63 0
66 -65 0
-66 65 0
68 -67 0
-68 67 0
70 -69 0
-70 69 0
72 -71 0
-72 71 0
74 -73 0
-74 73 0
76 -75 0
-76 75 0
78 -77 0
-78 77 0
80 -79 0
-80 79 0
82 -81 0
-82 81 0
84 -83 0
-84 83 0
86 -85 0
-86 85 0
88 -87 0
-88 87 0
90 -89 0
-90 89 0
92 -91 0
-92 91 0
94 -93 0
-94 93 0
96 -95 0
-96 95 0
98 -97 0
-98 97 0
100 -99 0
-100 99 0
102 -101 0
-102 101 0
104 -103 0
-104 103 0
106 -105 0
-106 105 0
108 -107 0
-108 107 0
110 -109 0
-110 109 0
112 -111 0
-112 111 0
114 -113 0
-114 113 0
116 -115 0
-116 115 0
118 -117 0
-118 117 0
120 -119 0
-120 119 0
369 -355 0
-369 355 0
370 -371 -372 0
-370 371 0
-370 372 0
373 -374 -230 0
-373 374 0
-373 230 0
375 -376 -190 0
-375 376 0
-375 190 0
377 -378 -174 0
-377 378 0
-377 174 0
379 -380 -193 0
-379 380 0
-379 193 0
381 -382 -233 0
-381 382 0
-381 233 0
383 -384 -138 0
-383 384 0
-383 138 0
385 -386 -212 0
-385 386 0
-385 212 0
387 -181 0
-387 181 0
388 -360 0
-388 360 0
389 -390 -391 0
-389 390 0
-389 391 0
392 -363 0
-392 363 0
393 -394 -372 0
-393 394 0
-393 372 0
395 -308 0
-395 308 0
396 -397 -391 0
-396 397 0
-396 391 0
398 -399 -193 0
-398 399 0
-398 193 0
400 -138 0
-400 138 0
401 -402 -174 0
-401 402 0
-401 174 0
403 -404 -171 0
-403 404 0
-403 171 0
405 -406 -190 0
-405 406 0
-405 190 0
407 -408 -181 0
-407 408 0
-407 181 0
409 -410 -197 0
-409 410 0
-409 197 0
411 -193 0
-411 193 0
412 -413 -414 0
-412 413 0
-412 414 0
415 -416 -417 0
-415 416 0
-415 417 0
418 -419 -420 0
-418 419 0
-418 420 0
421 -311 0
-421 311 0
422 -423 -181 0
-422 423 0
-422 181 0
424 -425 -197 0
-424 425 0
-424 197 0
426 -427 -138 0
-426 427 0
-426 138 0
428 -429 -215 0
-428 429 0
-428 215 0
430 -431 -212 0
-430 431 0
-430 212 0
432 -174 0
-432 174 0
433 -434 -317 0
-433 434 0
-433 317 0
435 -436 -355 0
-435 436 0
-435 355 0
437 -255 0
-437 255 0
438 -439 -363 0
-438 439 0
-438 363 0
440 -441 -442 0
-440 441 0
-440 442 0
443 -314 0
-443 314 0
444 -317 0
-444 317 0
445 -446 -372 0
-445 446 0
-445 372 0
447 -448 -420 0
-447 448 0
-447 420 0
449 -321 0
-449 321 0
450 -451 0
-450 451 0
122 -410 -135 0
-122 410 0
-122 135 0
123 -399 -133 0
-123 399 0
-123 133 0
124 -452 0
-124 452 0
125 -406 -130 0
-125 406 0
-125 130 0
126 -404 -127 0
-126 404 0
-126 127 0
128 -371 -245 0
-128 371 0
-128 245 0
129 -325 0
-129 325 0
131 -260 0
-131 260 0
132 -448 -127 0
-132 448 0
-132 127 0
134 -453 0
-134 453 0
136 -446 -245 0
-136 446 0
-136 245 0
137 -261 0
-137 261 0
139 -399 -164 0
-139 399 0
-139 164 0
140 -404 -146 0
-140 404 0
-140 146 0
141 -406 -161 0
-141 406 0
-141 161 0
142 -402 -149 0
-142 402 0
-142 149 0
143 -121 0
-143 121 0
144 -408 -154 0
-144 408 0
-144 154 0
145 -410 -168 0
-145 410 0
-145 168 0
147 -329 0
-147 329 0
148 -371 -250 0
-148 371 0
-148 250 0
150 -425 -135 0
-150 425 0
-150 135 0
151 -429 -203 0
-151 429 0
-151 203 0
152 -454 0
-152 454 0
153 -431 -200 0
-153 431 0
-153 200 0
155 -380 -133 0
-155 380 0
-155 133 0
156 -376 -130 0
-156 376 0
-156 130 0
157 -455 0
-157 455 0
158 -382 -221 0
-158 382 0
-158 221 0
159 -374 -218 0
-159 374 0
-159 218 0
160 -386 -200 0
-160 386 0
-160 200 0
162 -448 -146 0
-162 448 0
-162 146 0
163 -262 0
-163 262 0
165 -413 -121 0
-165 413 0
-165 121 0
166 -416 -154 0
-166 416 0
-166 154 0
167 -133 0
-167 133 0
169 -446 -250 0
-169 446 0
-169 250 0
170 -266 0
-170 266 0
172 -371 -255 0
-172 371 0
-172 255 0
173 -334 0
-173 334 0
175 -149 0
-175 149 0
176 -431 -206 0
-176 431 0
-176 206 0
177 -429 -209 0
-177 429 0
-177 209 0
178 -427 -121 0
-178 427 0
-178 121 0
179 -423 -154 0
-179 423 0
-179 154 0
180 -425 -168 0
-180 425 0
-180 168 0
182 -374 -224 0
-182 374 0
-182 224 0
183 -154 0
-183 154 0
184 -382 -227 0
-184 382 0
-184 227 0
185 -380 -164 0
-185 380 0
-185 164 0
186 -376 -161 0
-186 376 0
-186 161 0
187 -386 -206 0
-187 386 0
-187 206 0
188 -384 -121 0
-188 384 0
-188 121 0
189 -378 -149 0
-189 378 0
-189 149 0
191 -270 0
-191 270 0
192 -448 -171 0
-192 448 0
-192 171 0
194 -413 -138 0
-194 413 0
-194 138 0
195 -416 -181 0
-195 416 0
-195 181 0
196 -164 0
-196 164 0
198 -446 -255 0
-198 446 0
-198 255 0
199 -274 0
-199 274 0
201 -339 0
-201 339 0
202 -394 -245 0
-202 394 0
-202 245 0
204 -441 -236 0
-204 441 0
-204 236 0
205 -278 0
-205 278 0
207 -343 0
-207 343 0
208 -394 -250 0
-208 394 0
-208 250 0
210 -441 -239 0
-210 441 0
-210 239 0
211 -279 0
-211 279 0
213 -349 0
-213 349 0
214 -394 -255 0
-214 394 0
-214 255 0
216 -441 -242 0
-216 441 0
-216 242 0
217 -282 0
-217 282 0
219 -285 0
-219 285 0
220 -397 -200 0
-220 397 0
-220 200 0
222 -419 -127 0
-222 419 0
-222 127 0
223 -286 0
-223 286 0
225 -287 0
-225 287 0
226 -397 -206 0
-226 397 0
-226 206 0
228 -290 0
-228 290 0
229 -419 -146 0
-229 419 0
-229 146 0
231 -293 0
-231 293 0
232 -397 -212 0
-232 397 0
-232 212 0
234 -296 0
-234 296 0
235 -419 -171 0
-235 419 0
-235 171 0
237 -390 -200 0
-237 390 0
-237 200 0
238 -299 0
-238 299 0
240 -390 -206 0
-240 390 0
-240 206 0
241 -302 0
-241 302 0
243 -390 -212 0
-243 390 0
-243 212 0
244 -305 0
-244 305 0
246 -436 -325 0
-246 436 0
-246 325 0
247 -456 0
-247 456 0
248 -434 -261 0
-248 434 0
-248 261 0
249 -439 -339 0
-249 439 0
-249 339 0
251 -439 -343 0
-251 439 0
-251 343 0
252 -245 0
-252 245 0
253 -436 -329 0
-253 436 0
-253 329 0
254 -434 -266 0
-254 434 0
-254 266 0
256 -250 0
-256 250 0
257 -439 -349 0
-257 439 0
-257 349 0
258 -434 -274 0
-258 434 0
-258 274 0
259 -436 -334 0
-259 436 0
-259 334 0
457 -458 0
-457 458 0
459 -460 0
-459 460 0
263 -461 -121 0
-263 461 0
-263 121 0
264 -462 -154 0
-264 462 0
-264 154 0
265 -130 0
-265 130 0
267 -463 -121 0
-267 463 0
-267 121 0
268 -464 -149 0
-268 464 0
-268 149 0
269 -135 0
-269 135 0
271 -161 0
-271 161 0
272 -462 -181 0
-272 462 0
-272 181 0
273 -461 -138 0
-273 461 0
-273 138 0
275 -463 -138 0
-275 463 0
-275 138 0
276 -168 0
-276 168 0
277 -464 -174 0
-277 464 0
-277 174 0
465 -466 0
-465 466 0
280 -467 -149 0
-280 467 0
-280 149 0
281 -203 0
-281 203 0
283 -467 -174 0
-283 467 0
-283 174 0
284 -209 0
-284 209 0
468 -469 0
-468 469 0
470 -471 0
-470 471 0
288 -218 0
-288 218 0
289 -472 -154 0
-289 472 0
-289 154 0
291 -473 -154 0
-291 473 0
-291 154 0
292 -221 0
-292 221 0
294 -472 -181 0
-294 472 0
-294 181 0
295 -224 0
-295 224 0
297 -227 0
-297 227 0
298 -473 -181 0
-298 473 0
-298 181 0
300 -474 0
-300 474 0
301 -475 -278 0
-301 475 0
-301 278 0
303 -475 -279 0
-303 475 0
-303 279 0
304 -236 0
-304 236 0
306 -239 0
-306 239 0
307 -475 -282 0
-307 475 0
-307 282 0
309 -230 0
-309 230 0
310 -472 -417 0
-310 472 0
-310 417 0
312 -233 0
-312 233 0
313 -473 -417 0
-313 473 0
-313 417 0
315 -215 0
-315 215 0
316 -467 -476 0
-316 467 0
-316 476 0
318 -197 0
-318 197 0
319 -464 -476 0
-319 464 0
-319 476 0
320 -463 -414 0
-320 463 0
-320 414 0
322 -190 0
-322 190 0
323 -461 -414 0
-323 461 0
-323 414 0
324 -462 -417 0
-324 462 0
-324 417 0
326 -477 0
-326 477 0
327 -478 -286 0
-327 478 0
-327 286 0
328 -479 -260 0
-328 479 0
-328 260 0
330 -480 -121 0
-330 480 0
-330 121 0
331 -479 -262 0
-331 479 0
-331 262 0
332 -478 -290 0
-332 478 0
-332 290 0
333 -127 0
-333 127 0
335 -479 -270 0
-335 479 0
-335 270 0
336 -480 -138 0
-336 480 0
-336 138 0
337 -146 0
-337 146 0
338 -478 -296 0
-338 478 0
-338 296 0
340 -481 -299 0
-340 481 0
-340 299 0
341 -482 -285 0
-341 482 0
-341 285 0
342 -483 0
-342 483 0
344 -200 0
-344 200 0
345 -482 -287 0
-345 482 0
-345 287 0
346 -484 -154 0
-346 484 0
-346 154 0
347 -481 -302 0
-347 481 0
-347 302 0
348 -485 -149 0
-348 485 0
-348 149 0
350 -484 -181 0
-350 484 0
-350 181 0
351 -482 -293 0
-351 482 0
-351 293 0
352 -206 0
-352 206 0
353 -485 -174 0
-353 485 0
-353 174 0
354 -481 -305 0
-354 481 0
-354 305 0
356 -478 -311 0
-356 478 0
-356 311 0
357 -479 -321 0
-357 479 0
-357 321 0
358 -171 0
-358 171 0
359 -480 -414 0
-359 480 0
-359 414 0
361 -475 -314 0
-361 475 0
-361 314 0
362 -242 0
-362 242 0
364 -481 -360 0
-364 481 0
-364 360 0
365 -212 0
-365 212 0
366 -484 -417 0
-366 484 0
-366 417 0
367 -482 -308 0
-367 482 0
-367 308 0
368 -485 -476 0
-368 485 0
-368 476 0
-486 -1 2 0
486 1 0
486 -2 0
-487 1 -2 0
487 -1 0
487 2 0
-488 -3 4 0
488 3 0
488 -4 0
-489 3 -4 0
489 -3 0
489 4 0
-490 -5 6 0
490 5 0
490 -6 0
-491 5 -6 0
491 -5 0
491 6 0
-492 -7 8 0
492 7 0
492 -8 0
-493 7 -8 0
493 -7 0
493 8 0
-494 -9 10 0
494 9 0
494 -10 0
-495 9 -10 0
495 -9 0
495 10 0
-496 -11 12 0
496 11 0
496 -12 0
-497 11 -12 0
497 -11 0
497 12 0
-498 -13 14 0
498 13 0
498 -14 0
-499 13 -14 0
499 -13 0
499 14 0
-500 -15 16 0
500 15 0
500 -16 0
-501 15 -16 0
501 -15 0
501 16 0
-502 -17 18 0
502 17 0
502 -18 0
-503 17 -18 0
503 -17 0
503 18 0
-504 -19 20 0
504 19 0
504 -20 0
-505 19 -20 0
505 -19 0
505 20 0
-506 -21 22 0
506 21 0
506 -22 0
-507 21 -22 0
507 -21 0
507 22 0
-508 -23 24 0
508 23 0
508 -24 0
-509 23 -24 0
509 -23 0
509 24 0
-510 -25 26 0
510 25 0
510 -26 0
-511 25 -26 0
511 -25 0
511 26 0
-512 -27 28 0
512 27 0
512 -28 0
-513 27 -28 0
513 -27 0
513 28 0
-514 -29 30 0
514 29 0
514 -30 0
-515 29 -30 0
515 -29 0
515 30 0
-516 -31 32 0
516 31 0
516 -32 0
-517 31 -32 0
517 -31 0
517 32 0
-518 -33 34 0
518 33 0
518 -34 0
-519 33 -34 0
519 -33 0
519 34 0
-520 -35 36 0
520 35 0
520 -36 0
-521 35 -36 0
521 -35 0
521 36 0
-522 -37 38 0
522 37 0
522 -38 0
-523 37 -38 0
523 -37 0
523 38 0
-524 -39 40 0
524 39 0
524 -40 0
-525 39 -40 0
525 -39 0
525 40 0
-526 -41 42 0
526 41 0
526 -42 0
-527 41 -42 0
527 -41 0
527 42 0
-528 -43 44 0
528 43 0
528 -44 0
-529 43 -44 0
529 -43 0
529 44 0
-530 -45 46 0
530 45 0
530 -46 0
-531 45 -46 0
531 -45 0
531 46 0
-532 -47 48 0
532 47 0
532 -48 0
-533 47 -48 0
533 -47 0
533 48 0
-534 -49 50 0
534 49 0
534 -50 0
-535 49 -50 0
535 -49 0
535 50 0
-536 -51 52 0
536 51 0
536 -52 0
-537 51 -52 0
537 -51 0
537 52 0
-538 -53 54 0
538 53 0
538 -54 0
-539 53 -54 0
539 -53 0
539 54 0
-540 -55 56 0
540 55 0
540 -56 0
-541 55 -56 0
541 -55 0
541 56 0
-542 -57 58 0
542 57 0
542 -58 0
-543 57 -58 0
543 -57 0
543 58 0
-544 -59 60 0
544 59 0
544 -60 0
-545 59 -60 0
545 -59 0
545 60 0
-546 -61 62 0
546 61 0
546 -62 0
-547 61 -62 0
547 -61 0
547 62 0
-548 -63 64 0
548 63 0
548 -64 0
-549 63 -64 0
549 -63 0
549 64 0
-550 -65 66 0
550 65 0
550 -66 0
-551 65 -66 0
551 -65 0
551 66 0
-552 -67 68 0
552 67 0
552 -68 0
-553 67 -68 0
553 -67 0
553 68 0
-554 -69 70 0
554 69 0
554 -70 0
-555 69 -70 0
555 -69 0
555 70 0
-556 -71 72 0
556 71 0
556 -72 0
-557 71 -72 0
557 -71 0
557 72 0
-558 -73 74 0
558 73 0
558 -74 0
-559 73 -74 0
559 -73 0
559 74 0
-560 -75 76 0
560 75 0
560 -76 0
-561 75 -76 0
561 -75 0
561 76 0
-562 -77 78 0
562 77 0
562 -78 0
-563 77 -78 0
563 -77 0
563 78 0
-564 -79 80 0
564 79 0
564 -80 0
-565 79 -80 0
565 -79 0
565 80 0
-566 -81 82 0
566 81 0
566 -82 0
-567 81 -82 0
567 -81 0
567 82 0
-568 -83 84 0
568 83 0
568 -84 0
-569 83 -84 0
569 -83 0
569 84 0
-570 -85 86 0
570 85 0
570 -86 0
-571 85 -86 0
571 -85 0
571 86 0
-572 -87 88 0
572 87 0
572 -88 0
-573 87 -88 0
573 -87 0
573 88 0
-574 -89 90 0
574 89 0
574 -90 0
-575 89 -90 0
575 -89 0
575 90 0
-576 -91 92 0
576 91 0
576 -92 0
-577 91 -92 0
577 -91 0
577 92 0
-578 -93 94 0
578 93 0
578 -94 0
-579 93 -94 0
579 -93 0
579 94 0
-580 -95 96 0
580 95 0
580 -96 0
-581 95 -96 0
581 -95 0
581 96 0
-582 -97 98 0
582 97 0
582 -98 0
-583 97 -98 0
583 -97 0
583 98 0
-584 -99 100 0
584 99 0
584 -100 0
-585 99 -100 0
585 -99 0
585 100 0
-586 -101 102 0
586 101 0
586 -102 0
-587 101 -102 0
587 -101 0
587 102 0
-588 -103 104 0
588 103 0
588 -104 0
-589 103 -104 0
589 -103 0
589 104 0
-590 -105 106 0
590 105 0
590 -106 0
-591 105 -106 0
591 -105 0
591 106 0
-592 -107 108 0
592 107 0
592 -108 0
-593 107 -108 0
593 -107 0
593 108 0
-594 -109 110 0
594 109 0
594 -110 0
-595 109 -110 0
595 -109 0
595 110 0
-596 -111 112 0
596 111 0
596 -112 0
-597 111 -112 0
597 -111 0
597 112 0
-598 -113 114 0
598 113 0
598 -114 0
-599 113 -114 0
599 -113 0
599 114 0
-600 -115 116 0
600 115 0
600 -116 0
-601 115 -116 0
601 -115 0
601 116 0
-602 -117 118 0
602 117 0
602 -118 0
-603 117 -118 0
603 -117 0
603 118 0
-604 -119 120 0
604 119 0
604 -120 0
-605 119 -120 0
605 -119 0
605 120 0
-606 369 -355 0
606 -369 0
606 355 0
-607 -369 355 0
607 369 0
607 -355 0
-608 -420 369 370 0
608 420 0
608 -369 0
608 -370 0
-609 420 -369 0
609 -420 0
609 369 0
-610 420 -370 0
610 -420 0
610 370 0
-611 387 -181 0
611 -387 0
611 181 0
-612 -387 181 0
612 387 0
612 -181 0
-613 -417 373 375 377 379 381 383 385 387 0
613 417 0
613 -373 0
613 -375 0
613 -377 0
613 -379 0
613 -381 0
613 -383 0
613 -385 0
613 -387 0
-614 417 -373 0
614 -417 0
614 373 0
-615 417 -375 0
615 -417 0
615 375 0
-616 417 -377 0
616 -417 0
616 377 0
-617 417 -379 0
617 -417 0
617 379 0
-618 417 -381 0
618 -417 0
618 381 0
-619 417 -383 0
619 -417 0
619 383 0
-620 417 -385 0
620 -417 0
620 385 0
-621 417 -387 0
621 -417 0
621 387 0
-622 388 -360 0
622 -388 0
622 360 0
-623 -388 360 0
623 388 0
623 -360 0
-624 -442 388 389 0
624 442 0
624 -388 0
624 -389 0
-625 442 -388 0
625 -442 0
625 388 0
-626 442 -389 0
626 -442 0
626 389 0
-627 392 -363 0
627 -392 0
627 363 0
-628 -392 363 0
628 392 0
628 -363 0
-629 -391 392 393 0
629 391 0
629 -392 0
629 -393 0
-630 391 -392 0
630 -391 0
630 392 0
-631 391 -393 0
631 -391 0
631 393 0
-632 395 -308 0
632 -395 0
632 308 0
-633 -395 308 0
633 395 0
633 -308 0
-634 -635 395 396 0
634 635 0
634 -395 0
634 -396 0
-636 635 -395 0
636 -635 0
636 395 0
-637 635 -396 0
637 -635 0
637 396 0
-638 400 -138 0
638 -400 0
638 138 0
-639 -400 138 0
639 400 0
639 -138 0
-640 -414 398 400 401 403 405 407 409 0
640 414 0
640 -398 0
640 -400 0
640 -401 0
640 -403 0
640 -405 0
640 -407 0
640 -409 0
-641 414 -398 0
641 -414 0
641 398 0
-642 414 -400 0
642 -414 0
642 400 0
-643 414 -401 0
643 -414 0
643 401 0
-644 414 -403 0
644 -414 0
644 403 0
-645 414 -405 0
645 -414 0
645 405 0
-646 414 -407 0
646 -414 0
646 407 0
-647 414 -409 0
647 -414 0
647 409 0
-648 411 -193 0
648 -411 0
648 193 0
-649 -411 193 0
649 411 0
649 -193 0
-650 -651 411 412 415 0
650 651 0
650 -411 0
650 -412 0
650 -415 0
-652 651 -411 0
652 -651 0
652 411 0
-653 651 -412 0
653 -651 0
653 412 0
-654 651 -415 0
654 -651 0
654 415 0
-655 421 -311 0
655 -421 0
655 311 0
-656 -421 311 0
656 421 0
656 -311 0
-657 -658 418 421 0
657 658 0
657 -418 0
657 -421 0
-659 658 -418 0
659 -658 0
659 418 0
-660 658 -421 0
660 -658 0
660 421 0
-661 432 -174 0
661 -432 0
661 174 0
-662 -432 174 0
662 432 0
662 -174 0
-663 -476 422 424 426 428 430 432 0
663 476 0
663 -422 0
663 -424 0
663 -426 0
663 -428 0
663 -430 0
663 -432 0
-664 476 -422 0
664 -476 0
664 422 0
-665 476 -424 0
665 -476 0
665 424 0
-666 476 -426 0
666 -476 0
666 426 0
-667 476 -428 0
667 -476 0
667 428 0
-668 476 -430 0
668 -476 0
668 430 0
-669 476 -432 0
669 -476 0
669 432 0
-670 437 -255 0
670 -437 0
670 255 0
-671 -437 255 0
671 437 0
671 -255 0
-672 -372 433 435 437 438 0
672 372 0
672 -433 0
672 -435 0
672 -437 0
672 -438 0
-673 372 -433 0
673 -372 0
673 433 0
-674 372 -435 0
674 -372 0
674 435 0
-675 372 -437 0
675 -372 0
675 437 0
-676 372 -438 0
676 -372 0
676 438 0
-677 443 -314 0
677 -443 0
677 314 0
-678 -443 314 0
678 443 0
678 -314 0
-679 -680 440 443 0
679 680 0
679 -440 0
679 -443 0
-681 680 -440 0
681 -680 0
681 440 0
-682 680 -443 0
682 -680 0
682 443 0
-683 444 -317 0
683 -444 0
683 317 0
-684 -444 317 0
684 444 0
684 -317 0
-685 -686 444 445 0
685 686 0
685 -444 0
685 -445 0
-687 686 -444 0
687 -686 0
687 444 0
-688 686 -445 0
688 -686 0
688 445 0
-689 449 -321 0
689 -449 0
689 321 0
-690 -449 321 0
690 449 0
690 -321 0
-691 -692 447 449 0
691 692 0
691 -447 0
691 -449 0
-693 692 -447 0
693 -692 0
693 447 0
-694 692 -449 0
694 -692 0
694 449 0
-695 450 -451 0
695 -450 0
695 451 0
-696 -450 451 0
696 450 0
696 -451 0
-697 -698 450 0
697 698 0
697 -450 0
-699 698 -450 0
699 -698 0
699 450 0
-700 124 -452 0
700 -124 0
700 452 0
-701 -124 452 0
701 124 0
701 -452 0
-702 129 -325 0
702 -129 0
702 325 0
-703 -129 325 0
703 129 0
703 -325 0
-704 131 -260 0
704 -131 0
704 260 0
-705 -131 260 0
705 131 0
705 -260 0
-706 134 -453 0
706 -134 0
706 453 0
-707 -134 453 0
707 134 0
707 -453 0
-708 -133 134 0
708 133 0
708 -134 0
-709 133 -134 0
709 -133 0
709 134 0
-710 137 -261 0
710 -137 0
710 261 0
-711 -137 261 0
711 137 0
711 -261 0
-712 143 -121 0
712 -143 0
712 121 0
-713 -143 121 0
713 143 0
713 -121 0
-714 147 -329 0
714 -147 0
714 329 0
-715 -147 329 0
715 147 0
715 -329 0
-716 152 -454 0
716 -152 0
716 454 0
-717 -152 454 0
717 152 0
717 -454 0
-718 157 -455 0
718 -157 0
718 455 0
-719 -157 455 0
719 157 0
719 -455 0
-720 163 -262 0
720 -163 0
720 262 0
-721 -163 262 0
721 163 0
721 -262 0
-722 167 -133 0
722 -167 0
722 133 0
-723 -167 133 0
723 167 0
723 -133 0
-724 170 -266 0
724 -170 0
724 266 0
-725 -170 266 0
725 170 0
725 -266 0
-726 173 -334 0
726 -173 0
726 334 0
-727 -173 334 0
727 173 0
727 -334 0
-728 175 -149 0
728 -175 0
728 149 0
-729 -175 149 0
729 175 0
729 -149 0
-730 183 -154 0
730 -183 0
730 154 0
-731 -183 154 0
731 183 0
731 -154 0
-732 191 -270 0
732 -191 0
732 270 0
-733 -191 270 0
733 191 0
733 -270 0
-734 196 -164 0
734 -196 0
734 164 0
-735 -196 164 0
735 196 0
735 -164 0
-736 199 -274 0
736 -199 0
736 274 0
-737 -199 274 0
737 199 0
737 -274 0
-738 201 -339 0
738 -201 0
738 339 0
-739 -201 339 0
739 201 0
739 -339 0
-740 205 -278 0
740 -205 0
740 278 0
-741 -205 278 0
741 205 0
741 -278 0
-742 207 -343 0
742 -207 0
742 343 0
-743 -207 343 0
743 207 0
743 -343 0
-744 211 -279 0
744 -211 0
744 279 0
-745 -211 279 0
745 211 0
745 -279 0
-746 213 -349 0
746 -213 0
746 349 0
-747 -213 349 0
747 213 0
747 -349 0
-748 217 -282 0
748 -217 0
748 282 0
-749 -217 282 0
749 217 0
749 -282 0
-750 219 -285 0
750 -219 0
750 285 0
-751 -219 285 0
751 219 0
751 -285 0
-752 223 -286 0
752 -223 0
752 286 0
-753 -223 286 0
753 223 0
753 -286 0
-754 225 -287 0
754 -225 0
754 287 0
-755 -225 287 0
755 225 0
755 -287 0
-756 228 -290 0
756 -228 0
756 290 0
-757 -228 290 0
757 228 0
757 -290 0
-758 231 -293 0
758 -231 0
758 293 0
-759 -231 293 0
759 231 0
759 -293 0
-760 234 -296 0
760 -234 0
760 296 0
-761 -234 296 0
761 234 0
761 -296 0
-762 238 -299 0
762 -238 0
762 299 0
-763 -238 299 0
763 238 0
763 -299 0
-764 241 -302 0
764 -241 0
764 302 0
-765 -241 302 0
765 241 0
765 -302 0
-766 244 -305 0
766 -244 0
766 305 0
-767 -244 305 0
767 244 0
767 -305 0
-768 247 -456 0
768 -247 0
768 456 0
-769 -247 456 0
769 247 0
769 -456 0
-770 252 -245 0
770 -252 0
770 245 0
-771 -252 245 0
771 252 0
771 -245 0
-772 256 -250 0
772 -256 0
772 250 0
-773 -256 250 0
773 256 0
773 -250 0
-774 457 -458 0
774 -457 0
774 458 0
-775 -457 458 0
775 457 0
775 -458 0
-776 -260 457 0
776 260 0
776 -457 0
-777 260 -457 0
777 -260 0
777 457 0
-778 459 -460 0
778 -459 0
778 460 0
-779 -459 460 0
779 459 0
779 -460 0
-780 -261 459 0
780 261 0
780 -459 0
-781 261 -459 0
781 -261 0
781 459 0
-782 265 -130 0
782 -265 0
782 130 0
-783 -265 130 0
783 265 0
783 -130 0
-784 269 -135 0
784 -269 0
784 135 0
-785 -269 135 0
785 269 0
785 -135 0
-786 271 -161 0
786 -271 0
786 161 0
-787 -271 161 0
787 271 0
787 -161 0
-788 276 -168 0
788 -276 0
788 168 0
-789 -276 168 0
789 276 0
789 -168 0
-790 465 -466 0
790 -465 0
790 466 0
-791 -465 466 0
791 465 0
791 -466 0
-792 -278 465 0
792 278 0
792 -465 0
-793 278 -465 0
793 -278 0
793 465 0
-794 281 -203 0
794 -281 0
794 203 0
-795 -281 203 0
795 281 0
795 -203 0
-796 284 -209 0
796 -284 0
796 209 0
-797 -284 209 0
797 284 0
797 -209 0
-798 468 -469 0
798 -468 0
798 469 0
-799 -468 469 0
799 468 0
799 -469 0
-800 -285 468 0
800 285 0
800 -468 0
-801 285 -468 0
801 -285 0
801 468 0
-802 470 -471 0
802 -470 0
802 471 0
-803 -470 471 0
803 470 0
803 -471 0
-804 -286 470 0
804 286 0
804 -470 0
-805 286 -470 0
805 -286 0
805 470 0
-806 288 -218 0
806 -288 0
806 218 0
-807 -288 218 0
807 288 0
807 -218 0
-808 292 -221 0
808 -292 0
808 221 0
-809 -292 221 0
809 292 0
809 -221 0
-810 295 -224 0
810 -295 0
810 224 0
-811 -295 224 0
811 295 0
811 -224 0
-812 297 -227 0
812 -297 0
812 227 0
-813 -297 227 0
813 297 0
813 -227 0
-814 300 -474 0
814 -300 0
814 474 0
-815 -300 474 0
815 300 0
815 -474 0
-816 304 -236 0
816 -304 0
816 236 0
-817 -304 236 0
817 304 0
817 -236 0
-818 306 -239 0
818 -306 0
818 239 0
-819 -306 239 0
819 306 0
819 -239 0
-820 309 -230 0
820 -309 0
820 230 0
-821 -309 230 0
821 309 0
821 -230 0
-822 312 -233 0
822 -312 0
822 233 0
-823 -312 233 0
823 312 0
823 -233 0
-824 315 -215 0
824 -315 0
824 215 0
-825 -315 215 0
825 315 0
825 -215 0
-826 318 -197 0
826 -318 0
826 197 0
-827 -318 197 0
827 318 0
827 -197 0
-828 322 -190 0
828 -322 0
828 190 0
-829 -322 190 0
829 322 0
829 -190 0
-830 326 -477 0
830 -326 0
830 477 0
-831 -326 477 0
831 326 0
831 -477 0
-832 333 -127 0
832 -333 0
832 127 0
-833 -333 127 0
833 333 0
833 -127 0
-834 337 -146 0
834 -337 0
834 146 0
-835 -337 146 0
835 337 0
835 -146 0
-836 342 -483 0
836 -342 0
836 483 0
-837 -342 483 0
837 342 0
837 -483 0
-838 344 -200 0
838 -344 0
838 200 0
-839 -344 200 0
839 344 0
839 -200 0
-840 352 -206 0
840 -352 0
840 206 0
-841 -352 206 0
841 352 0
841 -206 0
-842 358 -171 0
842 -358 0
842 171 0
-843 -358 171 0
843 358 0
843 -171 0
-844 362 -242 0
844 -362 0
844 242 0
-845 -362 242 0
845 362 0
845 -242 0
-846 365 -212 0
846 -365 0
846 212 0
-847 -365 212 0
847 365 0
847 -212 0
486 0
487 0
488 0
489 0
490 0
491 0
492 0
493 0
494 0
495 0
496 0
497 0
498 0
499 0
500 0
501 0
502 0
503 0
504 0
505 0
506 0
507 0
508 0
509 0
510 0
511 0
512 0
513 0
514 0
515 0
516 0
517 0
518 0
519 0
520 0
521 0
522 0
523 0
524 0
525 0
526 0
527 0
528 0
529 0
530 0
531 0
532 0
533 0
534 0
535 0
536 0
537 0
538 0
539 0
540 0
541 0
542 0
543 0
544 0
545 0
546 0
547 0
548 0
549 0
550 0
551 0
552 0
553 0
554 0
555 0
556 0
557 0
558 0
559 0
560 0
561 0
562 0
563 0
564 0
565 0
566 0
567 0
568 0
569 0
570 0
571 0
572 0
573 0
574 0
575 0
576 0
577 0
578 0
579 0
580 0
581 0
582 0
583 0
584 0
585 0
586 0
587 0
588 0
589 0
590 0
591 0
592 0
593 0
594 0
595 0
596 0
597 0
598 0
599 0
600 0
601 0
602 0
603 0
604 0
605 0
606 0
607 0
608 0
609 0
610 0
611 0
612 0
613 0
614 0
615 0
616 0
617 0
618 0
619 0
620 0
621 0
622 0
623 0
624 0
625 0
626 0
627 0
628 0
629 0
630 0
631 0
632 0
633 0
634 0
636 0
637 0
638 0
639 0
640 0
641 0
642 0
643 0
644 0
645 0
646 0
647 0
648 0
649 0
650 0
652 0
653 0
654 0
655 0
656 0
657 0
659 0
660 0
661 0
662 0
663 0
664 0
665 0
666 0
667 0
668 0
669 0
670 0
671 0
672 0
673 0
674 0
675 0
676 0
677 0
678 0
679 0
681 0
682 0
683 0
684 0
685 0
687 0
688 0
689 0
690 0
691 0
693 0
694 0
695 0
696 0
697 0
699 0
700 0
701 0
702 0
703 0
704 0
705 0
706 0
707 0
708 0
709 0
710 0
711 0
712 0
713 0
714 0
715 0
716 0
717 0
718 0
719 0
720 0
721 0
722 0
723 0
724 0
725 0
726 0
727 0
728 0
729 0
730 0
731 0
732 0
733 0
734 0
735 0
736 0
737 0
738 0
739 0
740 0
741 0
742 0
743 0
744 0
745 0
746 0
747 0
748 0
749 0
750 0
751 0
752 0
753 0
754 0
755 0
756 0
757 0
758 0
759 0
760 0
761 0
762 0
763 0
764 0
765 0
766 0
767 0
768 0
769 0
770 0
771 0
772 0
773 0
774 0
775 0
776 0
777 0
778 0
779 0
780 0
781 0
782 0
783 0
784 0
785 0
786 0
787 0
788 0
789 0
790 0
791 0
792 0
793 0
794 0
795 0
796 0
797 0
798 0
799 0
800 0
801 0
802 0
803 0
804 0
805 0
806 0
807 0
808 0
809 0
810 0
811 0
812 0
813 0
814 0
815 0
816 0
817 0
818 0
819 0
820 0
821 0
822 0
823 0
824 0
825 0
826 0
827 0
828 0
829 0
830 0
831 0
832 0
833 0
834 0
835 0
836 0
837 0
838 0
839 0
840 0
841 0
842 0
843 0
844 0
845 0
846 0
847 0
2 0
4 0
6 0
8 0
10 0
12 0
14 0
16 0
18 0
20 0
22 0
24 0
26 0
28 0
30 0
32 0
34 0
36 0
38 0
40 0
42 0
44 0
46 0
48 0
50 0
52 0
54 0
56 0
58 0
60 0
62 0
64 0
66 0
68 0
70 0
72 0
74 0
76 0
78 0
80 0
82 0
84 0
86 0
88 0
90 0
92 0
94 0
96 0
98 0
100 0
102 0
104 0
106 0
108 0
110 0
112 0
114 0
116 0
118 0
120 0
