c BC-S1.2
p cnf 314 939
1 -2 0
-1 2 0
3 -4 0
-3 4 0
5 -6 0
-5 6 0
7 -8 0
-7 8 0
9 -10 0
-9 10 0
11 -12 0
-11 12 0
13 -14 0
-13 14 0
15 -16 0
-15 16 0
17 -18 0
-17 18 0
19 -20 0
-19 20 0
21 -22 0
-21 22 0
23 -24 0
-23 24 0
25 -26 0
-25 26 0
27 -28 0
-27 28 0
29 -30 0
-29 30 0
31 -32 0
-31 32 0
33 -34 0
-33 34 0
35 -36 0
-35 36 0
37 -38 0
-37 38 0
39 -40 0
-39 40 0
41 -42 0
-41 42 0
43 -44 0
-43 44 0
45 -46 0
-45 46 0
47 -48 0
-47 48 0
49 -50 0
-49 50 0
51 -52 0
-51 52 0
53 -54 0
-53 54 0
55 -56 0
-55 56 0
57 -58 0
-57 58 0
59 -60 0
-59 60 0
61 -62 0
-61 62 0
-63 64 65 0
63 -64 0
63 -65 0
-66 67 68 0
66 -67 0
66 -68 0
-69 70 71 0
69 -70 0
69 -71 0
-72 73 74 0
72 -73 0
72 -74 0
-75 76 77 78 79 80 81 0
75 -76 0
75 -77 0
75 -78 0
75 -79 0
75 -80 0
75 -81 0
-82 83 84 0
82 -83 0
82 -84 0
85 -65 0
-85 65 0
86 -68 0
-86 68 0
87 -70 0
-87 70 0
88 -74 0
-88 74 0
-89 90 91 0
89 -90 0
89 -91 0
-92 93 94 0
92 -93 0
92 -94 0
-95 96 97 0
95 -96 0
95 -97 0
2 -1 0
-2 1 0
4 -3 0
-4 3 0
6 -5 0
-6 5 0
8 -7 0
-8 7 0
10 -9 0
-10 9 0
12 -11 0
-12 11 0
14 -13 0
-14 13 0
16 -15 0
-16 15 0
18 -17 0
-18 17 0
20 -19 0
-20 19 0
22 -21 0
-22 21 0
24 -23 0
-24 23 0
26 -25 0
-26 25 0
28 -27 0
-28 27 0
30 -29 0
-30 29 0
32 -31 0
-32 31 0
34 -33 0
-34 33 0
36 -35 0
-36 35 0
38 -37 0
-38 37 0
40 -39 0
-40 39 0
42 -41 0
-42 41 0
44 -43 0
-44 43 0
46 -45 0
-46 45 0
48 -47 0
-48 47 0
50 -49 0
-50 49 0
52 -51 0
-52 51 0
54 -53 0
-54 53 0
56 -55 0
-56 55 0
58 -57 0
-58 57 0
98 -99 -100 0
-98 99 0
-98 100 0
60 -59 0
-60 59 0
101 -82 0
-101 82 0
102 -103 -104 0
-102 103 0
-102 104 0
105 -106 -92 0
-105 106 0
-105 92 0
107 -75 0
-107 75 0
108 -109 -82 0
-108 109 0
-108 82 0
110 -111 -89 0
-110 111 0
-110 89 0
112 -113 -95 0
-112 113 0
-112 95 0
114 -115 -66 0
-114 115 0
-114 66 0
116 -117 -69 0
-116 117 0
-116 69 0
118 -119 -63 0
-118 119 0
-118 63 0
120 -121 0
-120 121 0
122 -123 -72 0
-122 123 0
-122 72 0
124 -125 -59 0
-124 125 0
-124 59 0
126 -127 -104 0
-126 127 0
-126 104 0
62 -61 0
-62 61 0
128 -89 0
-128 89 0
129 -130 -104 0
-129 130 0
-129 104 0
131 -92 0
-131 92 0
132 -133 -104 0
-132 133 0
-132 104 0
134 -135 -104 0
-134 135 0
-134 104 0
136 -95 0
-136 95 0
137 -138 0
-137 138 0
139 -140 0
-139 140 0
141 -142 0
-141 142 0
64 -135 -75 0
-64 135 0
-64 75 0
65 -85 0
-65 85 0
67 -130 -75 0
-67 130 0
-67 75 0
68 -86 0
-68 86 0
70 -87 0
-70 87 0
71 -133 -75 0
-71 133 0
-71 75 0
73 -103 -75 0
-73 103 0
-73 75 0
74 -88 0
-74 88 0
76 -106 -87 0
-76 106 0
-76 87 0
77 -143 0
-77 143 0
78 -113 -85 0
-78 113 0
-78 85 0
79 -111 -86 0
-79 111 0
-79 86 0
80 -109 -88 0
-80 109 0
-80 88 0
81 -144 -61 0
-81 144 0
-81 61 0
83 -145 -100 0
-83 145 0
-83 100 0
84 -72 0
-84 72 0
146 -147 0
-146 147 0
148 -149 0
-148 149 0
150 -151 0
-150 151 0
152 -153 0
-152 153 0
90 -66 0
-90 66 0
91 -154 -100 0
-91 154 0
-91 100 0
93 -155 -100 0
-93 155 0
-93 100 0
94 -69 0
-94 69 0
96 -156 -100 0
-96 156 0
-96 100 0
97 -63 0
-97 63 0
-157 -1 2 0
157 1 0
157 -2 0
-158 1 -2 0
158 -1 0
158 2 0
-159 -3 4 0
159 3 0
159 -4 0
-160 3 -4 0
160 -3 0
160 4 0
-161 -5 6 0
161 5 0
161 -6 0
-162 5 -6 0
162 -5 0
162 6 0
-163 -7 8 0
163 7 0
163 -8 0
-164 7 -8 0
164 -7 0
164 8 0
-165 -9 10 0
165 9 0
165 -10 0
-166 9 -10 0
166 -9 0
166 10 0
-167 -11 12 0
167 11 0
167 -12 0
-168 11 -12 0
168 -11 0
168 12 0
-169 -13 14 0
169 13 0
169 -14 0
-170 13 -14 0
170 -13 0
170 14 0
-171 -15 16 0
171 15 0
171 -16 0
-172 15 -16 0
172 -15 0
172 16 0
-173 -17 18 0
173 17 0
173 -18 0
-174 17 -18 0
174 -17 0
174 18 0
-175 -19 20 0
175 19 0
175 -20 0
-176 19 -20 0
176 -19 0
176 20 0
-177 -21 22 0
177 21 0
177 -22 0
-178 21 -22 0
178 -21 0
178 22 0
-179 -23 24 0
179 23 0
179 -24 0
-180 23 -24 0
180 -23 0
180 24 0
-181 -25 26 0
181 25 0
181 -26 0
-182 25 -26 0
182 -25 0
182 26 0
-183 -27 28 0
183 27 0
183 -28 0
-184 27 -28 0
184 -27 0
184 28 0
-185 -29 30 0
185 29 0
185 -30 0
-186 29 -30 0
186 -29 0
186 30 0
-187 -31 32 0
187 31 0
187 -32 0
-188 31 -32 0
188 -31 0
188 32 0
-189 -33 34 0
189 33 0
189 -34 0
-190 33 -34 0
190 -33 0
190 34 0
-191 -35 36 0
191 35 0
191 -36 0
-192 35 -36 0
192 -35 0
192 36 0
-193 -37 38 0
193 37 0
193 -38 0
-194 37 -38 0
194 -37 0
194 38 0
-195 -39 40 0
195 39 0
195 -40 0
-196 39 -40 0
196 -39 0
196 40 0
-197 -41 42 0
197 41 0
197 -42 0
-198 41 -42 0
198 -41 0
198 42 0
-199 -43 44 0
199 43 0
199 -44 0
-200 43 -44 0
200 -43 0
200 44 0
-201 -45 46 0
201 45 0
201 -46 0
-202 45 -46 0
202 -45 0
202 46 0
-203 -47 48 0
203 47 0
203 -48 0
-204 47 -48 0
204 -47 0
204 48 0
-205 -49 50 0
205 49 0
205 -50 0
-206 49 -50 0
206 -49 0
206 50 0
-207 -51 52 0
207 51 0
207 -52 0
-208 51 -52 0
208 -51 0
208 52 0
-209 -53 54 0
209 53 0
209 -54 0
-210 53 -54 0
210 -53 0
210 54 0
-211 -55 56 0
211 55 0
211 -56 0
-212 55 -56 0
212 -55 0
212 56 0
-213 -57 58 0
213 57 0
213 -58 0
-214 57 -58 0
214 -57 0
214 58 0
-215 60 -59 0
215 -60 0
215 59 0
-216 -60 59 0
216 60 0
216 -59 0
-217 -218 98 60 0
217 218 0
217 -98 0
217 -60 0
-219 218 -98 0
219 -218 0
219 98 0
-220 218 -60 0
220 -218 0
220 60 0
-221 101 -82 0
221 -101 0
221 82 0
-222 -101 82 0
222 101 0
222 -82 0
-223 -224 101 102 0
223 224 0
223 -101 0
223 -102 0
-225 224 -101 0
225 -224 0
225 101 0
-226 224 -102 0
226 -224 0
226 102 0
-227 107 -75 0
227 -107 0
227 75 0
-228 -107 75 0
228 107 0
228 -75 0
-229 -104 105 107 108 110 112 0
229 104 0
229 -105 0
229 -107 0
229 -108 0
229 -110 0
229 -112 0
-230 104 -105 0
230 -104 0
230 105 0
-231 104 -107 0
231 -104 0
231 107 0
-232 104 -108 0
232 -104 0
232 108 0
-233 104 -110 0
233 -104 0
233 110 0
-234 104 -112 0
234 -104 0
234 112 0
-235 120 -121 0
235 -120 0
235 121 0
-236 -120 121 0
236 120 0
236 -121 0
-237 -100 114 116 118 120 122 124 0
237 100 0
237 -114 0
237 -116 0
237 -118 0
237 -120 0
237 -122 0
237 -124 0
-238 100 -114 0
238 -100 0
238 114 0
-239 100 -116 0
239 -100 0
239 116 0
-240 100 -118 0
240 -100 0
240 118 0
-241 100 -120 0
241 -100 0
241 120 0
-242 100 -122 0
242 -100 0
242 122 0
-243 100 -124 0
243 -100 0
243 124 0
-244 62 -61 0
244 -62 0
244 61 0
-245 -62 61 0
245 62 0
245 -61 0
-246 -247 126 62 0
246 247 0
246 -126 0
246 -62 0
-248 247 -126 0
248 -247 0
248 126 0
-249 247 -62 0
249 -247 0
249 62 0
-250 128 -89 0
250 -128 0
250 89 0
-251 -128 89 0
251 128 0
251 -89 0
-252 -253 128 129 0
252 253 0
252 -128 0
252 -129 0
-254 253 -128 0
254 -253 0
254 128 0
-255 253 -129 0
255 -253 0
255 129 0
-256 131 -92 0
256 -131 0
256 92 0
-257 -131 92 0
257 131 0
257 -92 0
-258 -259 131 132 0
258 259 0
258 -131 0
258 -132 0
-260 259 -131 0
260 -259 0
260 131 0
-261 259 -132 0
261 -259 0
261 132 0
-262 136 -95 0
262 -136 0
262 95 0
-263 -136 95 0
263 136 0
263 -95 0
-264 -265 134 136 0
264 265 0
264 -134 0
264 -136 0
-266 265 -134 0
266 -265 0
266 134 0
-267 265 -136 0
267 -265 0
267 136 0
-268 137 -138 0
268 -137 0
268 138 0
-269 -137 138 0
269 137 0
269 -138 0
-270 -271 137 0
270 271 0
270 -137 0
-272 271 -137 0
272 -271 0
272 137 0
-273 139 -140 0
273 -139 0
273 140 0
-274 -139 140 0
274 139 0
274 -140 0
-275 -59 139 0
275 59 0
275 -139 0
-276 59 -139 0
276 -59 0
276 139 0
-277 141 -142 0
277 -141 0
277 142 0
-278 -141 142 0
278 141 0
278 -142 0
-279 -61 141 0
279 61 0
279 -141 0
-280 61 -141 0
280 -61 0
280 141 0
-281 65 -85 0
281 -65 0
281 85 0
-282 -65 85 0
282 65 0
282 -85 0
-283 68 -86 0
283 -68 0
283 86 0
-284 -68 86 0
284 68 0
284 -86 0
-285 70 -87 0
285 -70 0
285 87 0
-286 -70 87 0
286 70 0
286 -87 0
-287 74 -88 0
287 -74 0
287 88 0
-288 -74 88 0
288 74 0
288 -88 0
-289 77 -143 0
289 -77 0
289 143 0
-290 -77 143 0
290 77 0
290 -143 0
-291 84 -72 0
291 -84 0
291 72 0
-292 -84 72 0
292 84 0
292 -72 0
-293 146 -147 0
293 -146 0
293 147 0
-294 -146 147 0
294 146 0
294 -147 0
-295 -85 146 0
295 85 0
295 -146 0
-296 85 -146 0
296 -85 0
296 146 0
-297 148 -149 0
297 -148 0
297 149 0
-298 -148 149 0
298 148 0
298 -149 0
-299 -86 148 0
299 86 0
299 -148 0
-300 86 -148 0
300 -86 0
300 148 0
-301 150 -151 0
301 -150 0
301 151 0
-302 -150 151 0
302 150 0
302 -151 0
-303 -87 150 0
303 87 0
303 -150 0
-304 87 -150 0
304 -87 0
304 150 0
-305 152 -153 0
305 -152 0
305 153 0
-306 -152 153 0
306 152 0
306 -153 0
-307 -88 152 0
307 88 0
307 -152 0
-308 88 -152 0
308 -88 0
308 152 0
-309 90 -66 0
309 -90 0
309 66 0
-310 -90 66 0
310 90 0
310 -66 0
-311 94 -69 0
311 -94 0
311 69 0
-312 -94 69 0
312 94 0
312 -69 0
-313 97 -63 0
313 -97 0
313 63 0
-314 -97 63 0
314 97 0
314 -63 0
157 0
158 0
159 0
160 0
161 0
162 0
163 0
164 0
165 0
166 0
167 0
168 0
169 0
170 0
171 0
172 0
173 0
174 0
175 0
176 0
177 0
178 0
179 0
180 0
181 0
182 0
183 0
184 0
185 0
186 0
187 0
188 0
189 0
190 0
191 0
192 0
193 0
194 0
195 0
196 0
197 0
198 0
199 0
200 0
201 0
202 0
203 0
204 0
205 0
206 0
207 0
208 0
209 0
210 0
211 0
212 0
213 0
214 0
215 0
216 0
217 0
219 0
220 0
221 0
222 0
223 0
225 0
226 0
227 0
228 0
229 0
230 0
231 0
232 0
233 0
234 0
235 0
236 0
237 0
238 0
239 0
240 0
241 0
242 0
243 0
244 0
245 0
246 0
248 0
249 0
250 0
251 0
252 0
254 0
255 0
256 0
257 0
258 0
260 0
261 0
262 0
263 0
264 0
266 0
267 0
268 0
269 0
270 0
272 0
273 0
274 0
275 0
276 0
277 0
278 0
279 0
280 0
281 0
282 0
283 0
284 0
285 0
286 0
287 0
288 0
289 0
290 0
291 0
292 0
293 0
294 0
295 0
296 0
297 0
298 0
299 0
300 0
301 0
302 0
303 0
304 0
305 0
306 0
307 0
308 0
309 0
310 0
311 0
312 0
313 0
314 0
2 0
4 0
6 0
8 0
10 0
12 0
14 0
16 0
18 0
20 0
22 0
24 0
26 0
28 0
30 0
32 0
34 0
36 0
38 0
40 0
42 0
44 0
46 0
48 0
50 0
52 0
54 0
56 0
58 0
