c BC-S1.2
p cnf 1937 6124
1 -2 0
-1 2 0
3 -4 0
-3 4 0
5 -6 0
-5 6 0
7 -8 0
-7 8 0
9 -10 0
-9 10 0
11 -12 0
-11 12 0
13 -14 0
-13 14 0
15 -16 0
-15 16 0
17 -18 0
-17 18 0
19 -20 0
-19 20 0
21 -22 0
-21 22 0
23 -24 0
-23 24 0
25 -26 0
-25 26 0
27 -28 0
-27 28 0
29 -30 0
-29 30 0
31 -32 0
-31 32 0
33 -34 0
-33 34 0
35 -36 0
-35 36 0
37 -38 0
-37 38 0
39 -40 0
-39 40 0
41 -42 0
-41 42 0
43 -44 0
-43 44 0
45 -46 0
-45 46 0
47 -48 0
-47 48 0
49 -50 0
-49 50 0
51 -52 0
-51 52 0
53 -54 0
-53 54 0
55 -56 0
-55 56 0
57 -58 0
-57 58 0
59 -60 0
-59 60 0
61 -62 0
-61 62 0
63 -64 0
-63 64 0
65 -66 0
-65 66 0
67 -68 0
-67 68 0
69 -70 0
-69 70 0
71 -72 0
-71 72 0
73 -74 0
-73 74 0
75 -76 0
-75 76 0
77 -78 0
-77 78 0
79 -80 0
-79 80 0
81 -82 0
-81 82 0
83 -84 0
-83 84 0
85 -86 0
-85 86 0
87 -88 0
-87 88 0
89 -90 0
-89 90 0
91 -92 0
-91 92 0
93 -94 0
-93 94 0
95 -96 0
-95 96 0
97 -98 0
-97 98 0
99 -100 0
-99 100 0
101 -102 0
-101 102 0
103 -104 0
-103 104 0
105 -106 0
-105 106 0
107 -108 0
-107 108 0
109 -110 0
-109 110 0
111 -112 0
-111 112 0
113 -114 0
-113 114 0
115 -116 0
-115 116 0
117 -118 0
-117 118 0
119 -120 0
-119 120 0
121 -122 0
-121 122 0
123 -124 0
-123 124 0
125 -126 0
-125 126 0
127 -128 0
-127 128 0
129 -130 0
-129 130 0
131 -132 0
-131 132 0
133 -134 0
-133 134 0
135 -136 0
-135 136 0
137 -138 0
-137 138 0
139 -140 0
-139 140 0
141 -142 0
-141 142 0
143 -144 0
-143 144 0
145 -146 0
-145 146 0
147 -148 0
-147 148 0
149 -150 0
-149 150 0
151 -152 0
-151 152 0
153 -154 0
-153 154 0
155 -156 0
-155 156 0
157 -158 0
-157 158 0
159 -160 0
-159 160 0
161 -162 0
-161 162 0
163 -164 0
-163 164 0
165 -166 0
-165 166 0
167 -168 0
-167 168 0
169 -170 0
-169 170 0
171 -172 0
-171 172 0
173 -174 0
-173 174 0
175 -176 0
-175 176 0
177 -178 0
-177 178 0
179 -180 0
-179 180 0
181 -182 0
-181 182 0
183 -184 0
-183 184 0
185 -186 0
-185 186 0
187 -188 0
-187 188 0
189 -190 0
-189 190 0
191 -192 0
-191 192 0
193 -194 0
-193 194 0
195 -196 0
-195 196 0
197 -198 0
-197 198 0
199 -200 0
-199 200 0
201 -202 0
-201 202 0
203 -204 0
-203 204 0
205 -206 0
-205 206 0
207 -208 0
-207 208 0
209 -210 0
-209 210 0
211 -212 0
-211 212 0
213 -214 0
-213 214 0
215 -216 0
-215 216 0
217 -218 0
-217 218 0
219 -220 0
-219 220 0
221 -222 0
-221 222 0
223 -224 0
-223 224 0
225 -226 0
-225 226 0
227 -228 0
-227 228 0
229 -230 0
-229 230 0
231 -232 0
-231 232 0
233 -234 0
-233 234 0
235 -236 0
-235 236 0
237 -238 0
-237 238 0
239 -240 0
-239 240 0
241 -242 0
-241 242 0
243 -244 0
-243 244 0
245 -246 0
-245 246 0
247 -248 0
-247 248 0
249 -250 0
-249 250 0
251 -252 0
-251 252 0
253 -254 0
-253 254 0
255 -256 0
-255 256 0
257 -258 0
-257 258 0
259 -260 0
-259 260 0
261 -262 0
-261 262 0
263 -264 0
-263 264 0
265 -266 0
-265 266 0
267 -268 0
-267 268 0
269 -270 0
-269 270 0
271 -272 0
-271 272 0
273 -274 0
-273 274 0
275 -276 0
-275 276 0
277 -278 0
-277 278 0
279 -280 0
-279 280 0
281 -282 0
-281 282 0
283 -284 0
-283 284 0
285 -286 0
-285 286 0
287 -288 0
-287 288 0
289 -290 0
-289 290 0
291 -292 0
-291 292 0
293 -294 0
-293 294 0
295 -296 0
-295 296 0
297 -298 0
-297 298 0
299 -300 0
-299 300 0
301 -302 0
-301 302 0
303 -304 0
-303 304 0
305 -306 0
-305 306 0
307 -308 0
-307 308 0
309 -310 0
-309 310 0
311 -312 0
-311 312 0
313 -314 0
-313 314 0
315 -316 0
-315 316 0
317 -318 0
-317 318 0
319 -320 0
-319 320 0
321 -322 0
-321 322 0
323 -324 0
-323 324 0
325 -326 0
-325 326 0
327 -328 0
-327 328 0
329 -330 0
-329 330 0
331 -332 0
-331 332 0
333 -334 0
-333 334 0
335 -336 0
-335 336 0
337 -338 0
-337 338 0
339 -340 0
-339 340 0
341 -342 0
-341 342 0
343 -344 0
-343 344 0
345 -346 0
-345 346 0
347 -348 0
-347 348 0
349 -350 0
-349 350 0
351 -352 0
-351 352 0
353 -354 0
-353 354 0
355 -356 0
-355 356 0
357 -358 0
-357 358 0
359 -360 0
-359 360 0
361 -362 0
-361 362 0
363 -364 0
-363 364 0
365 -366 0
-365 366 0
367 -368 0
-367 368 0
369 -370 0
-369 370 0
371 -372 0
-371 372 0
373 -374 0
-373 374 0
375 -376 0
-375 376 0
377 -378 0
-377 378 0
379 -380 0
-379 380 0
381 -382 0
-381 382 0
383 -384 0
-383 384 0
385 -386 0
-385 386 0
387 -388 0
-387 388 0
389 -390 0
-389 390 0
391 -392 0
-391 392 0
393 -394 0
-393 394 0
395 -396 0
-395 396 0
397 -398 0
-397 398 0
399 -400 0
-399 400 0
401 -402 0
-401 402 0
403 -404 0
-403 404 0
405 -406 0
-405 406 0
407 -408 0
-407 408 0
2 -1 0
-2 1 0
409 -410 411 412 -253 0
-409 410 0
-409 -411 0
-409 -412 0
-409 253 0
413 -414 415 416 -239 0
-413 414 0
-413 -415 0
-413 -416 0
-413 239 0
417 -418 419 -291 0
-417 418 0
-417 -419 0
-417 291 0
420 -421 422 423 -255 0
-420 421 0
-420 -422 0
-420 -423 0
-420 255 0
424 -425 426 427 -241 0
-424 425 0
-424 -426 0
-424 -427 0
-424 241 0
428 -429 430 -279 0
-428 429 0
-428 -430 0
-428 279 0
431 -432 433 434 -287 0
-431 432 0
-431 -433 0
-431 -434 0
-431 287 0
435 -436 437 438 -249 0
-435 436 0
-435 -437 0
-435 -438 0
-435 249 0
439 -440 441 -283 0
-439 440 0
-439 -441 0
-439 283 0
442 -443 444 -265 0
-442 443 0
-442 -444 0
-442 265 0
445 -446 447 -245 0
-445 446 0
-445 -447 0
-445 245 0
448 -449 450 -269 0
-448 449 0
-448 -450 0
-448 269 0
451 -452 453 454 -267 0
-451 452 0
-451 -453 0
-451 -454 0
-451 267 0
455 -456 457 -261 0
-455 456 0
-455 -457 0
-455 261 0
458 -459 460 -281 0
-458 459 0
-458 -460 0
-458 281 0
461 -462 463 464 -295 0
-461 462 0
-461 -463 0
-461 -464 0
-461 295 0
465 -466 467 -273 0
-465 466 0
-465 -467 0
-465 273 0
468 -469 470 471 -247 0
-468 469 0
-468 -470 0
-468 -471 0
-468 247 0
472 -473 474 475 -277 0
-472 473 0
-472 -474 0
-472 -475 0
-472 277 0
476 -477 478 479 -289 0
-476 477 0
-476 -478 0
-476 -479 0
-476 289 0
480 -481 482 483 -257 0
-480 481 0
-480 -482 0
-480 -483 0
-480 257 0
484 -485 486 0
-484 485 0
-484 -486 0
487 -488 489 490 -293 0
-487 488 0
-487 -489 0
-487 -490 0
-487 293 0
491 -492 493 -275 0
-491 492 0
-491 -493 0
-491 275 0
494 -495 496 -263 0
-494 495 0
-494 -496 0
-494 263 0
497 -498 499 500 -259 0
-497 498 0
-497 -499 0
-497 -500 0
-497 259 0
501 -502 503 -285 0
-501 502 0
-501 -503 0
-501 285 0
504 -505 506 507 -251 0
-504 505 0
-504 -506 0
-504 -507 0
-504 251 0
508 -509 510 511 -243 0
-508 509 0
-508 -510 0
-508 -511 0
-508 243 0
512 -513 514 -271 0
-512 513 0
-512 -514 0
-512 271 0
515 -485 0
-515 485 0
516 -517 0
-516 517 0
518 -422 423 -93 0
-518 422 0
-518 -423 0
-518 93 0
370 -369 0
-370 369 0
519 -520 0
-519 520 0
521 -522 0
-521 522 0
308 -307 0
-308 307 0
523 -524 231 423 -93 0
-523 524 0
-523 -231 0
-523 -423 0
-523 93 0
10 -9 0
-10 9 0
525 -526 0
-525 526 0
527 -528 149 447 -23 0
-527 528 0
-527 -149 0
-527 -447 0
-527 23 0
376 -375 0
-376 375 0
529 -530 0
-529 530 0
14 -13 0
-14 13 0
531 -532 513 514 -63 0
-531 532 0
-531 -513 0
-531 -514 0
-531 63 0
360 -359 0
-360 359 0
533 -534 0
-533 534 0
18 -17 0
-18 17 0
535 -536 213 483 -97 0
-535 536 0
-535 -213 0
-535 -483 0
-535 97 0
382 -381 0
-382 381 0
537 -538 0
-537 538 0
22 -21 0
-22 21 0
324 -323 0
-324 323 0
539 -540 163 416 -59 0
-539 540 0
-539 -163 0
-539 -416 0
-539 59 0
26 -25 0
-26 25 0
541 -542 0
-541 542 0
354 -353 0
-354 353 0
543 -544 125 500 -7 0
-543 544 0
-543 -125 0
-543 -500 0
-543 7 0
545 -546 0
-545 546 0
30 -29 0
-30 29 0
330 -329 0
-330 329 0
547 -548 201 427 -101 0
-547 548 0
-547 -201 0
-547 -427 0
-547 101 0
549 -550 0
-549 550 0
34 -33 0
-34 33 0
298 -297 0
-298 297 0
551 -552 205 507 -89 0
-551 552 0
-551 -205 0
-551 -507 0
-551 89 0
38 -37 0
-38 37 0
553 -554 0
-553 554 0
555 -411 412 -85 0
-555 411 0
-555 -412 0
-555 85 0
406 -405 0
-406 405 0
556 -557 0
-556 557 0
42 -41 0
-42 41 0
558 -559 446 447 -23 0
-558 559 0
-558 -446 0
-558 -447 0
-558 23 0
302 -301 0
-302 301 0
46 -45 0
-46 45 0
560 -561 0
-560 561 0
562 -433 434 -397 0
-562 433 0
-562 -434 0
-562 397 0
266 -265 0
-266 265 0
563 -561 45 564 -3 0
-563 561 0
-563 -45 0
-563 -564 0
-563 3 0
565 -566 183 412 -407 0
-565 566 0
-565 -183 0
-565 -412 0
-565 407 0
567 -568 0
-567 568 0
50 -49 0
-50 49 0
366 -365 0
-366 365 0
569 -570 459 460 -15 0
-569 570 0
-569 -459 0
-569 -460 0
-569 15 0
571 -572 0
-571 572 0
54 -53 0
-54 53 0
573 -574 492 493 -31 0
-573 574 0
-573 -492 0
-573 -493 0
-573 31 0
340 -339 0
-340 339 0
58 -57 0
-58 57 0
575 -576 0
-575 576 0
368 -367 0
-368 367 0
577 -578 197 434 -71 0
-577 578 0
-577 -197 0
-577 -434 0
-577 71 0
62 -61 0
-62 61 0
579 -580 0
-579 580 0
342 -341 0
-342 341 0
581 -582 429 430 -43 0
-581 582 0
-581 -429 0
-581 -430 0
-581 43 0
66 -65 0
-66 65 0
583 -584 0
-583 584 0
585 -586 443 444 -51 0
-585 586 0
-585 -443 0
-585 -444 0
-585 51 0
398 -397 0
-398 397 0
587 -588 0
-587 588 0
70 -69 0
-70 69 0
344 -343 0
-344 343 0
589 -590 145 490 -113 0
-589 590 0
-589 -145 0
-589 -490 0
-589 113 0
74 -73 0
-74 73 0
591 -592 0
-591 592 0
388 -387 0
-388 387 0
593 -463 464 -121 0
-593 463 0
-593 -464 0
-593 121 0
78 -77 0
-78 77 0
594 -595 0
-594 595 0
82 -81 0
-82 81 0
596 -597 0
-596 597 0
408 -407 0
-408 407 0
598 -599 191 444 -51 0
-598 599 0
-598 -191 0
-598 -444 0
-598 51 0
84 -83 0
-84 83 0
600 -601 0
-600 601 0
304 -303 0
-304 303 0
602 -603 165 416 -59 0
-602 603 0
-602 -165 0
-602 -416 0
-602 59 0
88 -87 0
-88 87 0
604 -605 0
-604 605 0
372 -371 0
-372 371 0
606 -607 223 503 -79 0
-606 607 0
-606 -223 0
-606 -503 0
-606 79 0
608 -609 0
-608 609 0
92 -91 0
-92 91 0
396 -395 0
-396 395 0
610 -611 195 434 -71 0
-610 611 0
-610 -195 0
-610 -434 0
-610 71 0
96 -95 0
-96 95 0
612 -613 0
-612 613 0
350 -349 0
-350 349 0
614 -615 137 479 -55 0
-614 615 0
-614 -137 0
-614 -479 0
-614 55 0
616 -617 0
-616 617 0
100 -99 0
-100 99 0
314 -313 0
-314 313 0
618 -619 175 430 -43 0
-618 619 0
-618 -175 0
-618 -430 0
-618 43 0
104 -103 0
-104 103 0
620 -621 0
-620 621 0
320 -319 0
-320 319 0
622 -623 466 467 -75 0
-622 623 0
-622 -466 0
-622 -467 0
-622 75 0
624 -625 0
-624 625 0
108 -107 0
-108 107 0
352 -351 0
-352 351 0
626 -627 449 450 -19 0
-626 627 0
-626 -449 0
-626 -450 0
-626 19 0
628 -629 0
-628 629 0
112 -111 0
-112 111 0
630 -631 187 475 -105 0
-630 631 0
-630 -187 0
-630 -475 0
-630 105 0
310 -309 0
-310 309 0
632 -633 0
-632 633 0
116 -115 0
-116 115 0
634 -635 177 430 -43 0
-634 635 0
-634 -177 0
-634 -430 0
-634 43 0
402 -401 0
-402 401 0
120 -119 0
-120 119 0
636 -637 0
-636 637 0
638 -637 119 564 -3 0
-638 637 0
-638 -119 0
-638 -564 0
-638 3 0
639 -499 0
-639 499 0
640 -498 0
-640 498 0
126 -125 0
-126 125 0
641 -544 0
-641 544 0
642 -643 0
-642 643 0
128 -127 0
-128 127 0
644 -645 0
-644 645 0
646 -440 0
-646 440 0
647 -459 0
-647 459 0
648 -570 0
-648 570 0
649 -650 0
-649 650 0
134 -133 0
-134 133 0
651 -477 0
-651 477 0
652 -478 0
-652 478 0
138 -137 0
-138 137 0
653 -615 0
-653 615 0
654 -449 0
-654 449 0
655 -627 0
-655 627 0
142 -141 0
-142 141 0
656 -657 0
-656 657 0
658 -489 0
-658 489 0
659 -488 0
-659 488 0
660 -590 0
-660 590 0
146 -145 0
-146 145 0
661 -446 0
-661 446 0
662 -559 0
-662 559 0
663 -528 0
-663 528 0
150 -149 0
-150 149 0
664 -665 0
-664 665 0
152 -151 0
-152 151 0
666 -437 0
-666 437 0
667 -436 0
-667 436 0
668 -495 0
-668 495 0
669 -670 0
-669 670 0
671 -574 0
-671 574 0
672 -492 0
-672 492 0
673 -674 0
-673 674 0
160 -159 0
-160 159 0
675 -415 0
-675 415 0
676 -414 0
-676 414 0
677 -540 0
-677 540 0
164 -163 0
-164 163 0
678 -603 0
-678 603 0
166 -165 0
-166 165 0
679 -456 0
-679 456 0
680 -681 0
-680 681 0
682 -683 0
-682 683 0
684 -418 0
-684 418 0
685 -582 0
-685 582 0
686 -429 0
-686 429 0
687 -688 0
-687 688 0
174 -173 0
-174 173 0
176 -175 0
-176 175 0
689 -619 0
-689 619 0
690 -635 0
-690 635 0
178 -177 0
-178 177 0
691 -453 0
-691 453 0
692 -452 0
-692 452 0
693 -411 0
-693 411 0
694 -410 0
-694 410 0
184 -183 0
-184 183 0
695 -566 0
-695 566 0
696 -473 0
-696 473 0
697 -474 0
-697 474 0
188 -187 0
-188 187 0
698 -631 0
-698 631 0
699 -443 0
-699 443 0
700 -586 0
-700 586 0
701 -599 0
-701 599 0
192 -191 0
-192 191 0
702 -433 0
-702 433 0
703 -432 0
-703 432 0
704 -611 0
-704 611 0
196 -195 0
-196 195 0
705 -578 0
-705 578 0
198 -197 0
-198 197 0
706 -425 0
-706 425 0
707 -426 0
-707 426 0
708 -548 0
-708 548 0
202 -201 0
-202 201 0
709 -506 0
-709 506 0
710 -505 0
-710 505 0
206 -205 0
-206 205 0
711 -552 0
-711 552 0
712 -532 0
-712 532 0
713 -513 0
-713 513 0
714 -715 0
-714 715 0
210 -209 0
-210 209 0
716 -482 0
-716 482 0
717 -481 0
-717 481 0
214 -213 0
-214 213 0
718 -536 0
-718 536 0
719 -466 0
-719 466 0
720 -623 0
-720 623 0
218 -217 0
-218 217 0
721 -722 0
-721 722 0
723 -469 0
-723 469 0
724 -470 0
-724 470 0
725 -726 0
-725 726 0
727 -502 0
-727 502 0
728 -607 0
-728 607 0
224 -223 0
-224 223 0
729 -463 0
-729 463 0
730 -462 0
-730 462 0
731 -732 0
-731 732 0
228 -227 0
-228 227 0
733 -422 0
-733 422 0
734 -421 0
-734 421 0
735 -524 0
-735 524 0
232 -231 0
-232 231 0
736 -737 0
-736 737 0
234 -233 0
-234 233 0
738 -509 0
-738 509 0
739 -510 0
-739 510 0
346 -345 0
-346 345 0
740 -574 492 493 -275 0
-740 574 0
-740 -492 0
-740 -493 0
-740 275 0
741 -615 137 479 -289 0
-741 615 0
-741 -137 0
-741 -479 0
-741 289 0
348 -347 0
-348 347 0
742 -631 187 475 -277 0
-742 631 0
-742 -187 0
-742 -475 0
-742 277 0
312 -311 0
-312 311 0
743 -536 213 483 -257 0
-743 536 0
-743 -213 0
-743 -483 0
-743 257 0
380 -379 0
-380 379 0
316 -315 0
-316 315 0
744 -623 466 467 -273 0
-744 623 0
-744 -466 0
-744 -467 0
-744 273 0
745 -559 446 447 -245 0
-745 559 0
-745 -446 0
-745 -447 0
-745 245 0
318 -317 0
-318 317 0
746 -603 165 416 -239 0
-746 603 0
-746 -165 0
-746 -416 0
-746 239 0
322 -321 0
-322 321 0
747 -688 173 430 -403 0
-747 688 0
-747 -173 0
-747 -430 0
-747 403 0
748 -599 191 444 -399 0
-748 599 0
-748 -191 0
-748 -444 0
-748 399 0
749 -607 223 503 -285 0
-749 607 0
-749 -223 0
-749 -503 0
-749 285 0
384 -383 0
-384 383 0
750 -611 195 434 -287 0
-750 611 0
-750 -195 0
-750 -434 0
-750 287 0
386 -385 0
-386 385 0
751 -422 423 -255 0
-751 422 0
-751 -423 0
-751 255 0
374 -373 0
-374 373 0
752 -548 201 427 -241 0
-752 548 0
-752 -201 0
-752 -427 0
-752 241 0
326 -325 0
-326 325 0
753 -540 163 416 -239 0
-753 540 0
-753 -163 0
-753 -416 0
-753 239 0
328 -327 0
-328 327 0
400 -399 0
-400 399 0
754 -566 183 412 -253 0
-754 566 0
-754 -183 0
-754 -412 0
-754 253 0
332 -331 0
-332 331 0
755 -582 429 430 -279 0
-755 582 0
-755 -429 0
-755 -430 0
-755 279 0
756 -532 513 514 -271 0
-756 532 0
-756 -513 0
-756 -514 0
-756 271 0
356 -355 0
-356 355 0
362 -361 0
-362 361 0
757 -578 197 434 -287 0
-757 578 0
-757 -197 0
-757 -434 0
-757 287 0
334 -333 0
-334 333 0
758 -590 145 490 -293 0
-758 590 0
-758 -145 0
-758 -490 0
-758 293 0
358 -357 0
-358 357 0
759 -544 125 500 -259 0
-759 544 0
-759 -125 0
-759 -500 0
-759 259 0
760 -619 175 430 -279 0
-760 619 0
-760 -175 0
-760 -430 0
-760 279 0
336 -335 0
-336 335 0
404 -403 0
-404 403 0
761 -411 412 -253 0
-761 411 0
-761 -412 0
-761 253 0
378 -377 0
-378 377 0
762 -528 149 447 -245 0
-762 528 0
-762 -149 0
-762 -447 0
-762 245 0
763 -524 231 423 -255 0
-763 524 0
-763 -231 0
-763 -423 0
-763 255 0
300 -299 0
-300 299 0
764 -463 464 -295 0
-764 463 0
-764 -464 0
-764 295 0
390 -389 0
-390 389 0
392 -391 0
-392 391 0
765 -586 443 444 -265 0
-765 586 0
-765 -443 0
-765 -444 0
-765 265 0
364 -363 0
-364 363 0
766 -570 459 460 -281 0
-766 570 0
-766 -459 0
-766 -460 0
-766 281 0
306 -305 0
-306 305 0
767 -552 205 507 -251 0
-767 552 0
-767 -205 0
-767 -507 0
-767 251 0
338 -337 0
-338 337 0
768 -627 449 450 -269 0
-768 627 0
-768 -449 0
-768 -450 0
-768 269 0
769 -635 177 430 -279 0
-769 635 0
-769 -177 0
-769 -430 0
-769 279 0
394 -393 0
-394 393 0
770 -550 33 564 -3 0
-770 550 0
-770 -33 0
-770 -564 0
-770 3 0
292 -291 0
-292 291 0
250 -249 0
-250 249 0
771 -557 41 564 -3 0
-771 557 0
-771 -41 0
-771 -564 0
-771 3 0
772 -683 418 419 -297 0
-772 683 0
-772 -418 0
-772 -419 0
-772 297 0
252 -251 0
-252 251 0
773 -601 83 564 -3 0
-773 601 0
-773 -83 0
-773 -564 0
-773 3 0
774 -522 520 564 -3 0
-774 522 0
-774 -520 0
-774 -564 0
-774 3 0
284 -283 0
-284 283 0
775 -629 111 564 -3 0
-775 629 0
-775 -111 0
-775 -564 0
-775 3 0
244 -243 0
-244 243 0
278 -277 0
-278 277 0
776 -617 99 564 -3 0
-776 617 0
-776 -99 0
-776 -564 0
-776 3 0
777 -510 511 -309 0
-777 510 0
-777 -511 0
-777 309 0
248 -247 0
-248 247 0
778 -621 103 564 -3 0
-778 621 0
-778 -103 0
-778 -564 0
-778 3 0
779 -683 418 419 -305 0
-779 683 0
-779 -418 0
-779 -419 0
-779 305 0
264 -263 0
-264 263 0
780 -538 21 564 -3 0
-780 538 0
-780 -21 0
-780 -564 0
-780 3 0
262 -261 0
-262 261 0
781 -546 29 564 -3 0
-781 546 0
-781 -29 0
-781 -564 0
-781 3 0
782 -470 471 -315 0
-782 470 0
-782 -471 0
-782 315 0
783 -510 511 -311 0
-783 510 0
-783 -511 0
-783 311 0
784 -722 217 467 -333 0
-784 722 0
-784 -217 0
-784 -467 0
-784 333 0
785 -572 53 564 -3 0
-785 572 0
-785 -53 0
-785 -564 0
-785 3 0
786 -506 507 -303 0
-786 506 0
-786 -507 0
-786 303 0
240 -239 0
-240 239 0
787 -670 495 496 -323 0
-787 670 0
-787 -495 0
-787 -496 0
-787 323 0
788 -580 61 564 -3 0
-788 580 0
-788 -61 0
-788 -564 0
-788 3 0
268 -267 0
-268 267 0
789 -470 471 -319 0
-789 470 0
-789 -471 0
-789 319 0
790 -588 69 564 -3 0
-790 588 0
-790 -69 0
-790 -564 0
-790 3 0
274 -273 0
-274 273 0
791 -506 507 -321 0
-791 506 0
-791 -507 0
-791 321 0
792 -670 495 496 -327 0
-792 670 0
-792 -495 0
-792 -496 0
-792 327 0
793 -681 456 457 -325 0
-793 681 0
-793 -456 0
-793 -457 0
-793 325 0
794 -613 95 564 -3 0
-794 613 0
-794 -95 0
-794 -564 0
-794 3 0
242 -241 0
-242 241 0
795 -681 456 457 -329 0
-795 681 0
-795 -456 0
-795 -457 0
-795 329 0
796 -722 217 467 -343 0
-796 722 0
-796 -217 0
-796 -467 0
-796 343 0
294 -293 0
-294 293 0
797 -625 107 564 -3 0
-797 625 0
-797 -107 0
-797 -564 0
-797 3 0
276 -275 0
-276 275 0
798 -415 416 -339 0
-798 415 0
-798 -416 0
-798 339 0
799 -542 25 564 -3 0
-799 542 0
-799 -25 0
-799 -564 0
-799 3 0
800 -489 490 -337 0
-800 489 0
-800 -490 0
-800 337 0
801 -415 416 -345 0
-801 415 0
-801 -416 0
-801 345 0
802 -489 490 -351 0
-802 489 0
-802 -490 0
-802 351 0
803 -530 13 564 -3 0
-803 530 0
-803 -13 0
-803 -564 0
-803 3 0
270 -269 0
-270 269 0
804 -657 141 450 -355 0
-804 657 0
-804 -141 0
-804 -450 0
-804 355 0
805 -426 427 -347 0
-805 426 0
-805 -427 0
-805 347 0
290 -289 0
-290 289 0
806 -568 49 564 -3 0
-806 568 0
-806 -49 0
-806 -564 0
-806 3 0
807 -426 427 -349 0
-807 426 0
-807 -427 0
-807 349 0
808 -576 57 564 -3 0
-808 576 0
-808 -57 0
-808 -564 0
-808 3 0
809 -657 141 450 -359 0
-809 657 0
-809 -141 0
-809 -450 0
-809 359 0
272 -271 0
-272 271 0
810 -595 77 564 -3 0
-810 595 0
-810 -77 0
-810 -564 0
-810 3 0
260 -259 0
-260 259 0
811 -674 159 493 -353 0
-811 674 0
-811 -159 0
-811 -493 0
-811 353 0
256 -255 0
-256 255 0
812 -643 127 500 -369 0
-812 643 0
-812 -127 0
-812 -500 0
-812 369 0
813 -645 440 441 -307 0
-813 645 0
-813 -440 0
-813 -441 0
-813 307 0
814 -605 87 564 -3 0
-814 605 0
-814 -87 0
-814 -564 0
-814 3 0
815 -517 485 486 0
-815 517 0
-815 -485 0
-815 -486 0
816 -674 159 493 -357 0
-816 674 0
-816 -159 0
-816 -493 0
-816 357 0
817 -526 9 564 -3 0
-817 526 0
-817 -9 0
-817 -564 0
-817 3 0
818 -478 479 -365 0
-818 478 0
-818 -479 0
-818 365 0
282 -281 0
-282 281 0
819 -478 479 -363 0
-819 478 0
-819 -479 0
-819 363 0
820 -437 438 -317 0
-820 437 0
-820 -438 0
-820 317 0
821 -650 133 460 -377 0
-821 650 0
-821 -133 0
-821 -460 0
-821 377 0
822 -437 438 -301 0
-822 437 0
-822 -438 0
-822 301 0
823 -534 17 564 -3 0
-823 534 0
-823 -17 0
-823 -564 0
-823 3 0
246 -245 0
-246 245 0
824 -650 133 460 -375 0
-824 650 0
-824 -133 0
-824 -460 0
-824 375 0
825 -645 440 441 -299 0
-825 645 0
-825 -440 0
-825 -441 0
-825 299 0
826 -643 127 500 -373 0
-826 643 0
-826 -127 0
-826 -500 0
-826 373 0
827 -665 151 447 -379 0
-827 665 0
-827 -151 0
-827 -447 0
-827 379 0
828 -737 233 423 -371 0
-828 737 0
-828 -233 0
-828 -423 0
-828 371 0
829 -592 73 564 -3 0
-829 592 0
-829 -73 0
-829 -564 0
-829 3 0
286 -285 0
-286 285 0
830 -737 233 423 -383 0
-830 737 0
-830 -233 0
-830 -423 0
-830 383 0
831 -715 209 514 -361 0
-831 715 0
-831 -209 0
-831 -514 0
-831 361 0
832 -482 483 -385 0
-832 482 0
-832 -483 0
-832 385 0
833 -726 502 503 -389 0
-833 726 0
-833 -502 0
-833 -503 0
-833 389 0
834 -609 91 564 -3 0
-834 609 0
-834 -91 0
-834 -564 0
-834 3 0
835 -665 151 447 -381 0
-835 665 0
-835 -151 0
-835 -447 0
-835 381 0
258 -257 0
-258 257 0
836 -715 209 514 -367 0
-836 715 0
-836 -209 0
-836 -514 0
-836 367 0
288 -287 0
-288 287 0
837 -482 483 -395 0
-837 482 0
-837 -483 0
-837 395 0
838 -584 65 564 -3 0
-838 584 0
-838 -65 0
-838 -564 0
-838 3 0
839 -433 434 -391 0
-839 433 0
-839 -434 0
-839 391 0
296 -295 0
-296 295 0
840 -633 115 564 -3 0
-840 633 0
-840 -115 0
-840 -564 0
-840 3 0
841 -726 502 503 -387 0
-841 726 0
-841 -502 0
-841 -503 0
-841 387 0
842 -474 475 -335 0
-842 474 0
-842 -475 0
-842 335 0
843 -732 227 464 -393 0
-843 732 0
-843 -227 0
-843 -464 0
-843 393 0
844 -453 454 -331 0
-844 453 0
-844 -454 0
-844 331 0
280 -279 0
-280 279 0
845 -732 227 464 -401 0
-845 732 0
-845 -227 0
-845 -464 0
-845 401 0
846 -453 454 -341 0
-846 453 0
-846 -454 0
-846 341 0
847 -474 475 -313 0
-847 474 0
-847 -475 0
-847 313 0
848 -554 37 564 -3 0
-848 554 0
-848 -37 0
-848 -564 0
-848 3 0
849 -597 81 564 -3 0
-849 597 0
-849 -81 0
-849 -564 0
-849 3 0
254 -253 0
-254 253 0
850 -688 173 430 -405 0
-850 688 0
-850 -173 0
-850 -430 0
-850 405 0
-851 687 174 0
851 -687 0
851 -174 0
-852 176 689 0
852 -176 0
852 -689 0
-180 690 178 0
180 -690 0
180 -178 0
-853 686 685 0
853 -686 0
853 -685 0
-68 581 342 0
68 -581 0
68 -342 0
-182 691 692 0
182 -691 0
182 -692 0
-854 428 451 0
854 -428 0
854 -451 0
-855 755 332 0
855 -755 0
855 -332 0
-856 696 697 0
856 -696 0
856 -697 0
-857 472 508 0
857 -472 0
857 -508 0
-190 188 698 0
190 -188 0
190 -698 0
-858 742 312 0
858 -742 0
858 -312 0
-118 630 310 0
118 -630 0
118 -310 0
-859 854 857 0
859 -854 0
859 -857 0
-106 618 314 0
106 -618 0
106 -314 0
-860 844 842 0
860 -844 0
860 -842 0
-861 760 336 0
861 -760 0
861 -336 0
-862 846 847 0
862 -846 0
862 -847 0
-863 777 278 0
863 -777 0
863 -278 0
-238 738 739 0
238 -738 0
238 -739 0
-86 408 598 0
86 -408 0
86 -598 0
-194 701 192 0
194 -701 0
194 -192 0
-864 702 703 0
864 -702 0
864 -703 0
-865 704 196 0
865 -704 0
865 -196 0
-200 705 198 0
200 -705 0
200 -198 0
-866 431 442 0
866 -431 0
866 -442 0
-867 699 700 0
867 -699 0
867 -700 0
-868 765 392 0
868 -765 0
868 -392 0
-72 585 398 0
72 -585 0
72 -398 0
-186 184 695 0
186 -184 0
186 -695 0
-869 693 694 0
869 -693 0
869 -694 0
-870 866 409 0
870 -866 0
870 -409 0
-871 562 565 266 0
871 -562 0
871 -565 0
871 -266 0
-872 400 754 0
872 -400 0
872 -754 0
-873 859 870 0
873 -859 0
873 -870 0
-874 747 748 0
874 -747 0
874 -748 0
-875 862 280 0
875 -862 0
875 -280 0
-44 555 406 0
44 -555 0
44 -406 0
-876 761 404 0
876 -761 0
876 -404 0
-877 850 254 0
877 -850 0
877 -254 0
-878 658 659 0
878 -658 0
878 -659 0
-148 660 146 0
148 -660 0
148 -146 0
-879 465 487 0
879 -465 0
879 -487 0
-110 320 622 0
110 -320 0
110 -622 0
-76 344 589 0
76 -344 0
76 -589 0
-220 218 721 0
220 -218 0
220 -721 0
-222 723 724 0
222 -723 0
222 -724 0
-880 758 334 0
880 -758 0
880 -334 0
-881 879 468 0
881 -879 0
881 -468 0
-882 789 274 0
882 -789 0
882 -274 0
-883 719 720 0
883 -719 0
883 -720 0
-884 744 316 0
884 -744 0
884 -316 0
-885 616 100 0
885 -616 0
885 -100 0
-886 104 620 0
886 -104 0
886 -620 0
-887 624 108 0
887 -624 0
887 -108 0
-888 628 112 0
888 -628 0
888 -112 0
-889 796 797 294 0
889 -796 0
889 -797 0
889 -294 0
-890 248 778 0
890 -248 0
890 -778 0
-144 142 656 0
144 -142 0
144 -656 0
-891 654 655 0
891 -654 0
891 -655 0
-892 712 713 0
892 -712 0
892 -713 0
-212 714 210 0
212 -714 0
212 -210 0
-893 58 575 0
893 -58 0
893 -575 0
-894 62 579 0
894 -62 0
894 -579 0
-895 66 583 0
895 -66 0
895 -583 0
-896 587 70 0
896 -587 0
896 -70 0
-897 448 512 0
897 -448 0
897 -512 0
-898 809 808 272 0
898 -809 0
898 -808 0
898 -272 0
-20 531 360 0
20 -531 0
20 -360 0
-899 756 356 0
899 -756 0
899 -356 0
-900 836 838 0
900 -836 0
900 -838 0
-901 881 897 0
901 -881 0
901 -897 0
-902 882 790 0
902 -882 0
902 -790 0
-903 802 270 0
903 -802 0
903 -270 0
-114 352 626 0
114 -352 0
114 -626 0
-904 338 768 0
904 -338 0
904 -768 0
-905 268 788 0
905 -268 0
905 -788 0
-906 873 901 0
906 -873 0
906 -901 0
-907 757 362 0
907 -757 0
907 -362 0
-908 288 900 0
908 -288 0
908 -900 0
-909 244 775 0
909 -244 0
909 -775 0
-64 577 368 0
64 -577 0
64 -368 0
-910 863 776 0
910 -863 0
910 -776 0
-911 663 150 0
911 -663 0
911 -150 0
-154 664 152 0
154 -664 0
154 -152 0
-912 716 717 0
912 -716 0
912 -717 0
-216 214 718 0
216 -214 0
216 -718 0
-913 480 445 0
913 -480 0
913 -445 0
-914 661 662 0
914 -661 0
914 -662 0
-915 743 380 0
915 -743 0
915 -380 0
-24 535 382 0
24 -535 0
24 -382 0
-48 558 302 0
48 -558 0
48 -302 0
-916 647 648 0
916 -647 0
916 -648 0
-136 649 134 0
136 -649 0
136 -134 0
-917 913 458 0
917 -913 0
917 -458 0
-16 527 376 0
16 -527 0
16 -376 0
-918 246 824 0
918 -246 0
918 -824 0
-919 762 378 0
919 -762 0
919 -378 0
-920 10 525 0
920 -10 0
920 -525 0
-921 529 14 0
921 -529 0
921 -14 0
-922 533 18 0
922 -533 0
922 -18 0
-156 666 667 0
156 -666 0
156 -667 0
-923 917 435 0
923 -917 0
923 -435 0
-924 282 817 0
924 -282 0
924 -817 0
-925 745 318 0
925 -745 0
925 -318 0
-926 821 820 0
926 -821 0
926 -820 0
-927 918 823 822 0
927 -918 0
927 -823 0
927 -822 0
-928 651 652 0
928 -651 0
928 -652 0
-140 138 653 0
140 -138 0
140 -653 0
-929 706 707 0
929 -706 0
929 -707 0
-204 708 202 0
204 -708 0
204 -202 0
-930 476 424 0
930 -476 0
930 -424 0
-102 614 350 0
102 -614 0
102 -350 0
-931 741 348 0
931 -741 0
931 -348 0
-36 547 330 0
36 -547 0
36 -330 0
-170 679 680 0
170 -679 0
170 -680 0
-932 930 455 0
932 -930 0
932 -455 0
-933 242 795 0
933 -242 0
933 -795 0
-934 752 326 0
934 -752 0
934 -326 0
-935 608 92 0
935 -608 0
935 -92 0
-936 96 612 0
936 -96 0
936 -612 0
-937 933 794 0
937 -933 0
937 -794 0
-938 923 932 0
938 -923 0
938 -932 0
-939 807 290 0
939 -807 0
939 -290 0
-940 924 818 0
940 -924 0
940 -818 0
-941 835 834 258 0
941 -835 0
941 -834 0
941 -258 0
-942 766 364 0
942 -766 0
942 -364 0
-56 569 366 0
56 -569 0
56 -366 0
-943 556 42 0
943 -556 0
943 -42 0
-944 46 560 0
944 -46 0
944 -560 0
-945 567 50 0
945 -567 0
945 -50 0
-946 571 54 0
946 -571 0
946 -54 0
-947 939 806 0
947 -939 0
947 -806 0
-948 250 771 0
948 -250 0
948 -771 0
-949 906 938 0
949 -906 0
949 -938 0
-950 903 803 0
950 -903 0
950 -803 0
-98 610 396 0
98 -610 0
98 -396 0
-951 750 386 0
951 -750 0
951 -386 0
-952 831 832 0
952 -831 0
952 -832 0
-953 908 837 0
953 -908 0
953 -837 0
-52 871 563 0
52 -871 0
52 -563 0
-8 518 370 0
8 -518 0
8 -370 0
-954 751 374 0
954 -751 0
954 -374 0
-955 639 640 0
955 -639 0
955 -640 0
-956 126 641 0
956 -126 0
956 -641 0
-130 642 128 0
130 -642 0
130 -128 0
-6 515 516 0
6 -515 0
6 -516 0
-162 673 160 0
162 -673 0
162 -160 0
-957 497 484 0
957 -497 0
957 -484 0
-958 260 811 0
958 -260 0
958 -811 0
-959 815 816 0
959 -815 0
959 -816 0
-960 78 594 0
960 -78 0
960 -594 0
-961 82 596 0
961 -82 0
961 -596 0
-962 84 600 0
962 -84 0
962 -600 0
-963 88 604 0
963 -88 0
963 -604 0
-964 74 591 0
964 -74 0
964 -591 0
-965 958 810 0
965 -958 0
965 -810 0
-966 812 814 0
966 -812 0
966 -814 0
-967 957 491 0
967 -957 0
967 -491 0
-968 672 671 0
968 -672 0
968 -671 0
-32 543 354 0
32 -543 0
32 -354 0
-969 759 358 0
969 -759 0
969 -358 0
-970 420 439 0
970 -420 0
970 -439 0
-971 733 734 0
971 -733 0
971 -734 0
-972 735 232 0
972 -735 0
972 -232 0
-236 736 234 0
236 -736 0
236 -234 0
-12 308 523 0
12 -308 0
12 -523 0
-973 763 300 0
973 -763 0
973 -300 0
-132 644 646 0
132 -644 0
132 -646 0
-974 519 521 0
974 -519 0
974 -521 0
-975 284 774 0
975 -284 0
975 -774 0
-976 967 970 0
976 -967 0
976 -970 0
-977 966 813 256 0
977 -966 0
977 -813 0
977 -256 0
-978 826 825 0
978 -826 0
978 -825 0
-979 829 828 0
979 -829 0
979 -828 0
-980 725 727 0
980 -725 0
980 -727 0
-226 728 224 0
226 -728 0
226 -224 0
-230 731 228 0
230 -731 0
230 -228 0
-981 729 730 0
981 -729 0
981 -730 0
-124 120 636 0
124 -120 0
124 -636 0
-982 632 116 0
982 -632 0
982 -116 0
-983 501 461 0
983 -501 0
983 -461 0
-984 841 840 296 0
984 -841 0
984 -840 0
984 -296 0
-985 764 390 0
985 -764 0
985 -390 0
-80 593 388 0
80 -593 0
80 -388 0
-986 976 983 0
986 -976 0
986 -983 0
-94 372 606 0
94 -372 0
94 -606 0
-987 384 749 0
987 -384 0
987 -749 0
-988 979 286 0
988 -979 0
988 -286 0
-989 709 710 0
989 -709 0
989 -710 0
-208 206 711 0
208 -206 0
208 -711 0
-40 298 551 0
40 -298 0
40 -551 0
-990 38 553 0
990 -38 0
990 -553 0
-991 545 30 0
991 -545 0
991 -30 0
-992 549 34 0
992 -549 0
992 -34 0
-172 682 684 0
172 -682 0
172 -684 0
-993 504 417 0
993 -504 0
993 -417 0
-994 767 306 0
994 -767 0
994 -306 0
-995 770 292 0
995 -770 0
995 -292 0
-996 675 676 0
996 -675 0
996 -676 0
-158 668 669 0
158 -668 0
158 -669 0
-997 413 494 0
997 -413 0
997 -494 0
-28 539 324 0
28 -539 0
28 -324 0
-998 753 328 0
998 -753 0
998 -328 0
-999 677 164 0
999 -677 0
999 -164 0
-1000 537 22 0
1000 -537 0
1000 -22 0
-1001 26 541 0
1001 -26 0
1001 -541 0
-1002 798 799 0
1002 -798 0
1002 -799 0
-1003 264 780 0
1003 -264 0
1003 -780 0
-168 678 166 0
168 -678 0
168 -166 0
-1004 786 787 0
1004 -786 0
1004 -787 0
-1005 993 997 0
1005 -993 0
1005 -997 0
-1006 791 792 0
1006 -791 0
1006 -792 0
-90 602 304 0
90 -602 0
90 -304 0
-1007 322 746 0
1007 -322 0
1007 -746 0
-1008 772 252 0
1008 -772 0
1008 -252 0
-1009 1004 240 0
1009 -1004 0
1009 -240 0
-1010 986 1005 0
1010 -986 0
1010 -1005 0
-1011 276 1002 0
1011 -276 0
1011 -1002 0
-1012 740 346 0
1012 -740 0
1012 -346 0
-1013 845 848 0
1013 -845 0
1013 -848 0
-60 573 340 0
60 -573 0
60 -340 0
-1014 773 1008 0
1014 -773 0
1014 -1008 0
-1015 785 1009 0
1015 -785 0
1015 -1009 0
-4 949 1010 0
4 -949 0
4 -1010 0
-1016 860 843 0
1016 -860 0
1016 -843 0
-1017 875 1013 0
1017 -875 0
1017 -1013 0
-1018 877 849 0
1018 -877 0
1018 -849 0
-1019 769 394 0
1019 -769 0
1019 -394 0
-1020 262 781 0
1020 -262 0
1020 -781 0
-122 634 402 0
122 -634 0
122 -402 0
-1021 515 -485 0
1021 -515 0
1021 485 0
-1022 -515 485 0
1022 515 0
1022 -485 0
-1023 516 -517 0
1023 -516 0
1023 517 0
-1024 -516 517 0
1024 516 0
1024 -517 0
-1025 370 -369 0
1025 -370 0
1025 369 0
-1026 -370 369 0
1026 370 0
1026 -369 0
-1027 519 -520 0
1027 -519 0
1027 520 0
-1028 -519 520 0
1028 519 0
1028 -520 0
-1029 521 -522 0
1029 -521 0
1029 522 0
-1030 -521 522 0
1030 521 0
1030 -522 0
-1031 308 -307 0
1031 -308 0
1031 307 0
-1032 -308 307 0
1032 308 0
1032 -307 0
-1033 10 -9 0
1033 -10 0
1033 9 0
-1034 -10 9 0
1034 10 0
1034 -9 0
-1035 525 -526 0
1035 -525 0
1035 526 0
-1036 -525 526 0
1036 525 0
1036 -526 0
-1037 376 -375 0
1037 -376 0
1037 375 0
-1038 -376 375 0
1038 376 0
1038 -375 0
-1039 529 -530 0
1039 -529 0
1039 530 0
-1040 -529 530 0
1040 529 0
1040 -530 0
-1041 14 -13 0
1041 -14 0
1041 13 0
-1042 -14 13 0
1042 14 0
1042 -13 0
-1043 360 -359 0
1043 -360 0
1043 359 0
-1044 -360 359 0
1044 360 0
1044 -359 0
-1045 533 -534 0
1045 -533 0
1045 534 0
-1046 -533 534 0
1046 533 0
1046 -534 0
-1047 18 -17 0
1047 -18 0
1047 17 0
-1048 -18 17 0
1048 18 0
1048 -17 0
-1049 382 -381 0
1049 -382 0
1049 381 0
-1050 -382 381 0
1050 382 0
1050 -381 0
-1051 537 -538 0
1051 -537 0
1051 538 0
-1052 -537 538 0
1052 537 0
1052 -538 0
-1053 22 -21 0
1053 -22 0
1053 21 0
-1054 -22 21 0
1054 22 0
1054 -21 0
-1055 324 -323 0
1055 -324 0
1055 323 0
-1056 -324 323 0
1056 324 0
1056 -323 0
-1057 26 -25 0
1057 -26 0
1057 25 0
-1058 -26 25 0
1058 26 0
1058 -25 0
-1059 541 -542 0
1059 -541 0
1059 542 0
-1060 -541 542 0
1060 541 0
1060 -542 0
-1061 354 -353 0
1061 -354 0
1061 353 0
-1062 -354 353 0
1062 354 0
1062 -353 0
-1063 545 -546 0
1063 -545 0
1063 546 0
-1064 -545 546 0
1064 545 0
1064 -546 0
-1065 30 -29 0
1065 -30 0
1065 29 0
-1066 -30 29 0
1066 30 0
1066 -29 0
-1067 330 -329 0
1067 -330 0
1067 329 0
-1068 -330 329 0
1068 330 0
1068 -329 0
-1069 549 -550 0
1069 -549 0
1069 550 0
-1070 -549 550 0
1070 549 0
1070 -550 0
-1071 34 -33 0
1071 -34 0
1071 33 0
-1072 -34 33 0
1072 34 0
1072 -33 0
-1073 298 -297 0
1073 -298 0
1073 297 0
-1074 -298 297 0
1074 298 0
1074 -297 0
-1075 38 -37 0
1075 -38 0
1075 37 0
-1076 -38 37 0
1076 38 0
1076 -37 0
-1077 553 -554 0
1077 -553 0
1077 554 0
-1078 -553 554 0
1078 553 0
1078 -554 0
-1079 406 -405 0
1079 -406 0
1079 405 0
-1080 -406 405 0
1080 406 0
1080 -405 0
-1081 556 -557 0
1081 -556 0
1081 557 0
-1082 -556 557 0
1082 556 0
1082 -557 0
-1083 42 -41 0
1083 -42 0
1083 41 0
-1084 -42 41 0
1084 42 0
1084 -41 0
-1085 302 -301 0
1085 -302 0
1085 301 0
-1086 -302 301 0
1086 302 0
1086 -301 0
-1087 46 -45 0
1087 -46 0
1087 45 0
-1088 -46 45 0
1088 46 0
1088 -45 0
-1089 560 -561 0
1089 -560 0
1089 561 0
-1090 -560 561 0
1090 560 0
1090 -561 0
-1091 266 -265 0
1091 -266 0
1091 265 0
-1092 -266 265 0
1092 266 0
1092 -265 0
-1093 567 -568 0
1093 -567 0
1093 568 0
-1094 -567 568 0
1094 567 0
1094 -568 0
-1095 50 -49 0
1095 -50 0
1095 49 0
-1096 -50 49 0
1096 50 0
1096 -49 0
-1097 366 -365 0
1097 -366 0
1097 365 0
-1098 -366 365 0
1098 366 0
1098 -365 0
-1099 571 -572 0
1099 -571 0
1099 572 0
-1100 -571 572 0
1100 571 0
1100 -572 0
-1101 54 -53 0
1101 -54 0
1101 53 0
-1102 -54 53 0
1102 54 0
1102 -53 0
-1103 340 -339 0
1103 -340 0
1103 339 0
-1104 -340 339 0
1104 340 0
1104 -339 0
-1105 58 -57 0
1105 -58 0
1105 57 0
-1106 -58 57 0
1106 58 0
1106 -57 0
-1107 575 -576 0
1107 -575 0
1107 576 0
-1108 -575 576 0
1108 575 0
1108 -576 0
-1109 368 -367 0
1109 -368 0
1109 367 0
-1110 -368 367 0
1110 368 0
1110 -367 0
-1111 62 -61 0
1111 -62 0
1111 61 0
-1112 -62 61 0
1112 62 0
1112 -61 0
-1113 579 -580 0
1113 -579 0
1113 580 0
-1114 -579 580 0
1114 579 0
1114 -580 0
-1115 342 -341 0
1115 -342 0
1115 341 0
-1116 -342 341 0
1116 342 0
1116 -341 0
-1117 66 -65 0
1117 -66 0
1117 65 0
-1118 -66 65 0
1118 66 0
1118 -65 0
-1119 583 -584 0
1119 -583 0
1119 584 0
-1120 -583 584 0
1120 583 0
1120 -584 0
-1121 398 -397 0
1121 -398 0
1121 397 0
-1122 -398 397 0
1122 398 0
1122 -397 0
-1123 587 -588 0
1123 -587 0
1123 588 0
-1124 -587 588 0
1124 587 0
1124 -588 0
-1125 70 -69 0
1125 -70 0
1125 69 0
-1126 -70 69 0
1126 70 0
1126 -69 0
-1127 344 -343 0
1127 -344 0
1127 343 0
-1128 -344 343 0
1128 344 0
1128 -343 0
-1129 74 -73 0
1129 -74 0
1129 73 0
-1130 -74 73 0
1130 74 0
1130 -73 0
-1131 591 -592 0
1131 -591 0
1131 592 0
-1132 -591 592 0
1132 591 0
1132 -592 0
-1133 388 -387 0
1133 -388 0
1133 387 0
-1134 -388 387 0
1134 388 0
1134 -387 0
-1135 78 -77 0
1135 -78 0
1135 77 0
-1136 -78 77 0
1136 78 0
1136 -77 0
-1137 594 -595 0
1137 -594 0
1137 595 0
-1138 -594 595 0
1138 594 0
1138 -595 0
-1139 82 -81 0
1139 -82 0
1139 81 0
-1140 -82 81 0
1140 82 0
1140 -81 0
-1141 596 -597 0
1141 -596 0
1141 597 0
-1142 -596 597 0
1142 596 0
1142 -597 0
-1143 408 -407 0
1143 -408 0
1143 407 0
-1144 -408 407 0
1144 408 0
1144 -407 0
-1145 84 -83 0
1145 -84 0
1145 83 0
-1146 -84 83 0
1146 84 0
1146 -83 0
-1147 600 -601 0
1147 -600 0
1147 601 0
-1148 -600 601 0
1148 600 0
1148 -601 0
-1149 304 -303 0
1149 -304 0
1149 303 0
-1150 -304 303 0
1150 304 0
1150 -303 0
-1151 88 -87 0
1151 -88 0
1151 87 0
-1152 -88 87 0
1152 88 0
1152 -87 0
-1153 604 -605 0
1153 -604 0
1153 605 0
-1154 -604 605 0
1154 604 0
1154 -605 0
-1155 372 -371 0
1155 -372 0
1155 371 0
-1156 -372 371 0
1156 372 0
1156 -371 0
-1157 608 -609 0
1157 -608 0
1157 609 0
-1158 -608 609 0
1158 608 0
1158 -609 0
-1159 92 -91 0
1159 -92 0
1159 91 0
-1160 -92 91 0
1160 92 0
1160 -91 0
-1161 396 -395 0
1161 -396 0
1161 395 0
-1162 -396 395 0
1162 396 0
1162 -395 0
-1163 96 -95 0
1163 -96 0
1163 95 0
-1164 -96 95 0
1164 96 0
1164 -95 0
-1165 612 -613 0
1165 -612 0
1165 613 0
-1166 -612 613 0
1166 612 0
1166 -613 0
-1167 350 -349 0
1167 -350 0
1167 349 0
-1168 -350 349 0
1168 350 0
1168 -349 0
-1169 616 -617 0
1169 -616 0
1169 617 0
-1170 -616 617 0
1170 616 0
1170 -617 0
-1171 100 -99 0
1171 -100 0
1171 99 0
-1172 -100 99 0
1172 100 0
1172 -99 0
-1173 314 -313 0
1173 -314 0
1173 313 0
-1174 -314 313 0
1174 314 0
1174 -313 0
-1175 104 -103 0
1175 -104 0
1175 103 0
-1176 -104 103 0
1176 104 0
1176 -103 0
-1177 620 -621 0
1177 -620 0
1177 621 0
-1178 -620 621 0
1178 620 0
1178 -621 0
-1179 320 -319 0
1179 -320 0
1179 319 0
-1180 -320 319 0
1180 320 0
1180 -319 0
-1181 624 -625 0
1181 -624 0
1181 625 0
-1182 -624 625 0
1182 624 0
1182 -625 0
-1183 108 -107 0
1183 -108 0
1183 107 0
-1184 -108 107 0
1184 108 0
1184 -107 0
-1185 352 -351 0
1185 -352 0
1185 351 0
-1186 -352 351 0
1186 352 0
1186 -351 0
-1187 628 -629 0
1187 -628 0
1187 629 0
-1188 -628 629 0
1188 628 0
1188 -629 0
-1189 112 -111 0
1189 -112 0
1189 111 0
-1190 -112 111 0
1190 112 0
1190 -111 0
-1191 310 -309 0
1191 -310 0
1191 309 0
-1192 -310 309 0
1192 310 0
1192 -309 0
-1193 632 -633 0
1193 -632 0
1193 633 0
-1194 -632 633 0
1194 632 0
1194 -633 0
-1195 116 -115 0
1195 -116 0
1195 115 0
-1196 -116 115 0
1196 116 0
1196 -115 0
-1197 402 -401 0
1197 -402 0
1197 401 0
-1198 -402 401 0
1198 402 0
1198 -401 0
-1199 120 -119 0
1199 -120 0
1199 119 0
-1200 -120 119 0
1200 120 0
1200 -119 0
-1201 636 -637 0
1201 -636 0
1201 637 0
-1202 -636 637 0
1202 636 0
1202 -637 0
-1203 639 -499 0
1203 -639 0
1203 499 0
-1204 -639 499 0
1204 639 0
1204 -499 0
-1205 640 -498 0
1205 -640 0
1205 498 0
-1206 -640 498 0
1206 640 0
1206 -498 0
-1207 126 -125 0
1207 -126 0
1207 125 0
-1208 -126 125 0
1208 126 0
1208 -125 0
-1209 641 -544 0
1209 -641 0
1209 544 0
-1210 -641 544 0
1210 641 0
1210 -544 0
-1211 642 -643 0
1211 -642 0
1211 643 0
-1212 -642 643 0
1212 642 0
1212 -643 0
-1213 128 -127 0
1213 -128 0
1213 127 0
-1214 -128 127 0
1214 128 0
1214 -127 0
-1215 644 -645 0
1215 -644 0
1215 645 0
-1216 -644 645 0
1216 644 0
1216 -645 0
-1217 646 -440 0
1217 -646 0
1217 440 0
-1218 -646 440 0
1218 646 0
1218 -440 0
-1219 647 -459 0
1219 -647 0
1219 459 0
-1220 -647 459 0
1220 647 0
1220 -459 0
-1221 648 -570 0
1221 -648 0
1221 570 0
-1222 -648 570 0
1222 648 0
1222 -570 0
-1223 649 -650 0
1223 -649 0
1223 650 0
-1224 -649 650 0
1224 649 0
1224 -650 0
-1225 134 -133 0
1225 -134 0
1225 133 0
-1226 -134 133 0
1226 134 0
1226 -133 0
-1227 651 -477 0
1227 -651 0
1227 477 0
-1228 -651 477 0
1228 651 0
1228 -477 0
-1229 652 -478 0
1229 -652 0
1229 478 0
-1230 -652 478 0
1230 652 0
1230 -478 0
-1231 138 -137 0
1231 -138 0
1231 137 0
-1232 -138 137 0
1232 138 0
1232 -137 0
-1233 653 -615 0
1233 -653 0
1233 615 0
-1234 -653 615 0
1234 653 0
1234 -615 0
-1235 654 -449 0
1235 -654 0
1235 449 0
-1236 -654 449 0
1236 654 0
1236 -449 0
-1237 655 -627 0
1237 -655 0
1237 627 0
-1238 -655 627 0
1238 655 0
1238 -627 0
-1239 142 -141 0
1239 -142 0
1239 141 0
-1240 -142 141 0
1240 142 0
1240 -141 0
-1241 656 -657 0
1241 -656 0
1241 657 0
-1242 -656 657 0
1242 656 0
1242 -657 0
-1243 658 -489 0
1243 -658 0
1243 489 0
-1244 -658 489 0
1244 658 0
1244 -489 0
-1245 659 -488 0
1245 -659 0
1245 488 0
-1246 -659 488 0
1246 659 0
1246 -488 0
-1247 660 -590 0
1247 -660 0
1247 590 0
-1248 -660 590 0
1248 660 0
1248 -590 0
-1249 146 -145 0
1249 -146 0
1249 145 0
-1250 -146 145 0
1250 146 0
1250 -145 0
-1251 661 -446 0
1251 -661 0
1251 446 0
-1252 -661 446 0
1252 661 0
1252 -446 0
-1253 662 -559 0
1253 -662 0
1253 559 0
-1254 -662 559 0
1254 662 0
1254 -559 0
-1255 663 -528 0
1255 -663 0
1255 528 0
-1256 -663 528 0
1256 663 0
1256 -528 0
-1257 150 -149 0
1257 -150 0
1257 149 0
-1258 -150 149 0
1258 150 0
1258 -149 0
-1259 664 -665 0
1259 -664 0
1259 665 0
-1260 -664 665 0
1260 664 0
1260 -665 0
-1261 152 -151 0
1261 -152 0
1261 151 0
-1262 -152 151 0
1262 152 0
1262 -151 0
-1263 666 -437 0
1263 -666 0
1263 437 0
-1264 -666 437 0
1264 666 0
1264 -437 0
-1265 667 -436 0
1265 -667 0
1265 436 0
-1266 -667 436 0
1266 667 0
1266 -436 0
-1267 668 -495 0
1267 -668 0
1267 495 0
-1268 -668 495 0
1268 668 0
1268 -495 0
-1269 669 -670 0
1269 -669 0
1269 670 0
-1270 -669 670 0
1270 669 0
1270 -670 0
-1271 671 -574 0
1271 -671 0
1271 574 0
-1272 -671 574 0
1272 671 0
1272 -574 0
-1273 672 -492 0
1273 -672 0
1273 492 0
-1274 -672 492 0
1274 672 0
1274 -492 0
-1275 673 -674 0
1275 -673 0
1275 674 0
-1276 -673 674 0
1276 673 0
1276 -674 0
-1277 160 -159 0
1277 -160 0
1277 159 0
-1278 -160 159 0
1278 160 0
1278 -159 0
-1279 675 -415 0
1279 -675 0
1279 415 0
-1280 -675 415 0
1280 675 0
1280 -415 0
-1281 676 -414 0
1281 -676 0
1281 414 0
-1282 -676 414 0
1282 676 0
1282 -414 0
-1283 677 -540 0
1283 -677 0
1283 540 0
-1284 -677 540 0
1284 677 0
1284 -540 0
-1285 164 -163 0
1285 -164 0
1285 163 0
-1286 -164 163 0
1286 164 0
1286 -163 0
-1287 678 -603 0
1287 -678 0
1287 603 0
-1288 -678 603 0
1288 678 0
1288 -603 0
-1289 166 -165 0
1289 -166 0
1289 165 0
-1290 -166 165 0
1290 166 0
1290 -165 0
-1291 679 -456 0
1291 -679 0
1291 456 0
-1292 -679 456 0
1292 679 0
1292 -456 0
-1293 680 -681 0
1293 -680 0
1293 681 0
-1294 -680 681 0
1294 680 0
1294 -681 0
-1295 682 -683 0
1295 -682 0
1295 683 0
-1296 -682 683 0
1296 682 0
1296 -683 0
-1297 684 -418 0
1297 -684 0
1297 418 0
-1298 -684 418 0
1298 684 0
1298 -418 0
-1299 685 -582 0
1299 -685 0
1299 582 0
-1300 -685 582 0
1300 685 0
1300 -582 0
-1301 686 -429 0
1301 -686 0
1301 429 0
-1302 -686 429 0
1302 686 0
1302 -429 0
-1303 687 -688 0
1303 -687 0
1303 688 0
-1304 -687 688 0
1304 687 0
1304 -688 0
-1305 174 -173 0
1305 -174 0
1305 173 0
-1306 -174 173 0
1306 174 0
1306 -173 0
-1307 176 -175 0
1307 -176 0
1307 175 0
-1308 -176 175 0
1308 176 0
1308 -175 0
-1309 689 -619 0
1309 -689 0
1309 619 0
-1310 -689 619 0
1310 689 0
1310 -619 0
-1311 690 -635 0
1311 -690 0
1311 635 0
-1312 -690 635 0
1312 690 0
1312 -635 0
-1313 178 -177 0
1313 -178 0
1313 177 0
-1314 -178 177 0
1314 178 0
1314 -177 0
-1315 691 -453 0
1315 -691 0
1315 453 0
-1316 -691 453 0
1316 691 0
1316 -453 0
-1317 692 -452 0
1317 -692 0
1317 452 0
-1318 -692 452 0
1318 692 0
1318 -452 0
-1319 693 -411 0
1319 -693 0
1319 411 0
-1320 -693 411 0
1320 693 0
1320 -411 0
-1321 694 -410 0
1321 -694 0
1321 410 0
-1322 -694 410 0
1322 694 0
1322 -410 0
-1323 184 -183 0
1323 -184 0
1323 183 0
-1324 -184 183 0
1324 184 0
1324 -183 0
-1325 695 -566 0
1325 -695 0
1325 566 0
-1326 -695 566 0
1326 695 0
1326 -566 0
-1327 696 -473 0
1327 -696 0
1327 473 0
-1328 -696 473 0
1328 696 0
1328 -473 0
-1329 697 -474 0
1329 -697 0
1329 474 0
-1330 -697 474 0
1330 697 0
1330 -474 0
-1331 188 -187 0
1331 -188 0
1331 187 0
-1332 -188 187 0
1332 188 0
1332 -187 0
-1333 698 -631 0
1333 -698 0
1333 631 0
-1334 -698 631 0
1334 698 0
1334 -631 0
-1335 699 -443 0
1335 -699 0
1335 443 0
-1336 -699 443 0
1336 699 0
1336 -443 0
-1337 700 -586 0
1337 -700 0
1337 586 0
-1338 -700 586 0
1338 700 0
1338 -586 0
-1339 701 -599 0
1339 -701 0
1339 599 0
-1340 -701 599 0
1340 701 0
1340 -599 0
-1341 192 -191 0
1341 -192 0
1341 191 0
-1342 -192 191 0
1342 192 0
1342 -191 0
-1343 702 -433 0
1343 -702 0
1343 433 0
-1344 -702 433 0
1344 702 0
1344 -433 0
-1345 703 -432 0
1345 -703 0
1345 432 0
-1346 -703 432 0
1346 703 0
1346 -432 0
-1347 704 -611 0
1347 -704 0
1347 611 0
-1348 -704 611 0
1348 704 0
1348 -611 0
-1349 196 -195 0
1349 -196 0
1349 195 0
-1350 -196 195 0
1350 196 0
1350 -195 0
-1351 705 -578 0
1351 -705 0
1351 578 0
-1352 -705 578 0
1352 705 0
1352 -578 0
-1353 198 -197 0
1353 -198 0
1353 197 0
-1354 -198 197 0
1354 198 0
1354 -197 0
-1355 706 -425 0
1355 -706 0
1355 425 0
-1356 -706 425 0
1356 706 0
1356 -425 0
-1357 707 -426 0
1357 -707 0
1357 426 0
-1358 -707 426 0
1358 707 0
1358 -426 0
-1359 708 -548 0
1359 -708 0
1359 548 0
-1360 -708 548 0
1360 708 0
1360 -548 0
-1361 202 -201 0
1361 -202 0
1361 201 0
-1362 -202 201 0
1362 202 0
1362 -201 0
-1363 709 -506 0
1363 -709 0
1363 506 0
-1364 -709 506 0
1364 709 0
1364 -506 0
-1365 710 -505 0
1365 -710 0
1365 505 0
-1366 -710 505 0
1366 710 0
1366 -505 0
-1367 206 -205 0
1367 -206 0
1367 205 0
-1368 -206 205 0
1368 206 0
1368 -205 0
-1369 711 -552 0
1369 -711 0
1369 552 0
-1370 -711 552 0
1370 711 0
1370 -552 0
-1371 712 -532 0
1371 -712 0
1371 532 0
-1372 -712 532 0
1372 712 0
1372 -532 0
-1373 713 -513 0
1373 -713 0
1373 513 0
-1374 -713 513 0
1374 713 0
1374 -513 0
-1375 714 -715 0
1375 -714 0
1375 715 0
-1376 -714 715 0
1376 714 0
1376 -715 0
-1377 210 -209 0
1377 -210 0
1377 209 0
-1378 -210 209 0
1378 210 0
1378 -209 0
-1379 716 -482 0
1379 -716 0
1379 482 0
-1380 -716 482 0
1380 716 0
1380 -482 0
-1381 717 -481 0
1381 -717 0
1381 481 0
-1382 -717 481 0
1382 717 0
1382 -481 0
-1383 214 -213 0
1383 -214 0
1383 213 0
-1384 -214 213 0
1384 214 0
1384 -213 0
-1385 718 -536 0
1385 -718 0
1385 536 0
-1386 -718 536 0
1386 718 0
1386 -536 0
-1387 719 -466 0
1387 -719 0
1387 466 0
-1388 -719 466 0
1388 719 0
1388 -466 0
-1389 720 -623 0
1389 -720 0
1389 623 0
-1390 -720 623 0
1390 720 0
1390 -623 0
-1391 218 -217 0
1391 -218 0
1391 217 0
-1392 -218 217 0
1392 218 0
1392 -217 0
-1393 721 -722 0
1393 -721 0
1393 722 0
-1394 -721 722 0
1394 721 0
1394 -722 0
-1395 723 -469 0
1395 -723 0
1395 469 0
-1396 -723 469 0
1396 723 0
1396 -469 0
-1397 724 -470 0
1397 -724 0
1397 470 0
-1398 -724 470 0
1398 724 0
1398 -470 0
-1399 725 -726 0
1399 -725 0
1399 726 0
-1400 -725 726 0
1400 725 0
1400 -726 0
-1401 727 -502 0
1401 -727 0
1401 502 0
-1402 -727 502 0
1402 727 0
1402 -502 0
-1403 728 -607 0
1403 -728 0
1403 607 0
-1404 -728 607 0
1404 728 0
1404 -607 0
-1405 224 -223 0
1405 -224 0
1405 223 0
-1406 -224 223 0
1406 224 0
1406 -223 0
-1407 729 -463 0
1407 -729 0
1407 463 0
-1408 -729 463 0
1408 729 0
1408 -463 0
-1409 730 -462 0
1409 -730 0
1409 462 0
-1410 -730 462 0
1410 730 0
1410 -462 0
-1411 731 -732 0
1411 -731 0
1411 732 0
-1412 -731 732 0
1412 731 0
1412 -732 0
-1413 228 -227 0
1413 -228 0
1413 227 0
-1414 -228 227 0
1414 228 0
1414 -227 0
-1415 733 -422 0
1415 -733 0
1415 422 0
-1416 -733 422 0
1416 733 0
1416 -422 0
-1417 734 -421 0
1417 -734 0
1417 421 0
-1418 -734 421 0
1418 734 0
1418 -421 0
-1419 735 -524 0
1419 -735 0
1419 524 0
-1420 -735 524 0
1420 735 0
1420 -524 0
-1421 232 -231 0
1421 -232 0
1421 231 0
-1422 -232 231 0
1422 232 0
1422 -231 0
-1423 736 -737 0
1423 -736 0
1423 737 0
-1424 -736 737 0
1424 736 0
1424 -737 0
-1425 234 -233 0
1425 -234 0
1425 233 0
-1426 -234 233 0
1426 234 0
1426 -233 0
-1427 738 -509 0
1427 -738 0
1427 509 0
-1428 -738 509 0
1428 738 0
1428 -509 0
-1429 739 -510 0
1429 -739 0
1429 510 0
-1430 -739 510 0
1430 739 0
1430 -510 0
-1431 346 -345 0
1431 -346 0
1431 345 0
-1432 -346 345 0
1432 346 0
1432 -345 0
-1433 348 -347 0
1433 -348 0
1433 347 0
-1434 -348 347 0
1434 348 0
1434 -347 0
-1435 312 -311 0
1435 -312 0
1435 311 0
-1436 -312 311 0
1436 312 0
1436 -311 0
-1437 380 -379 0
1437 -380 0
1437 379 0
-1438 -380 379 0
1438 380 0
1438 -379 0
-1439 316 -315 0
1439 -316 0
1439 315 0
-1440 -316 315 0
1440 316 0
1440 -315 0
-1441 318 -317 0
1441 -318 0
1441 317 0
-1442 -318 317 0
1442 318 0
1442 -317 0
-1443 322 -321 0
1443 -322 0
1443 321 0
-1444 -322 321 0
1444 322 0
1444 -321 0
-1445 384 -383 0
1445 -384 0
1445 383 0
-1446 -384 383 0
1446 384 0
1446 -383 0
-1447 386 -385 0
1447 -386 0
1447 385 0
-1448 -386 385 0
1448 386 0
1448 -385 0
-1449 374 -373 0
1449 -374 0
1449 373 0
-1450 -374 373 0
1450 374 0
1450 -373 0
-1451 326 -325 0
1451 -326 0
1451 325 0
-1452 -326 325 0
1452 326 0
1452 -325 0
-1453 328 -327 0
1453 -328 0
1453 327 0
-1454 -328 327 0
1454 328 0
1454 -327 0
-1455 400 -399 0
1455 -400 0
1455 399 0
-1456 -400 399 0
1456 400 0
1456 -399 0
-1457 332 -331 0
1457 -332 0
1457 331 0
-1458 -332 331 0
1458 332 0
1458 -331 0
-1459 356 -355 0
1459 -356 0
1459 355 0
-1460 -356 355 0
1460 356 0
1460 -355 0
-1461 362 -361 0
1461 -362 0
1461 361 0
-1462 -362 361 0
1462 362 0
1462 -361 0
-1463 334 -333 0
1463 -334 0
1463 333 0
-1464 -334 333 0
1464 334 0
1464 -333 0
-1465 358 -357 0
1465 -358 0
1465 357 0
-1466 -358 357 0
1466 358 0
1466 -357 0
-1467 336 -335 0
1467 -336 0
1467 335 0
-1468 -336 335 0
1468 336 0
1468 -335 0
-1469 404 -403 0
1469 -404 0
1469 403 0
-1470 -404 403 0
1470 404 0
1470 -403 0
-1471 378 -377 0
1471 -378 0
1471 377 0
-1472 -378 377 0
1472 378 0
1472 -377 0
-1473 300 -299 0
1473 -300 0
1473 299 0
-1474 -300 299 0
1474 300 0
1474 -299 0
-1475 390 -389 0
1475 -390 0
1475 389 0
-1476 -390 389 0
1476 390 0
1476 -389 0
-1477 392 -391 0
1477 -392 0
1477 391 0
-1478 -392 391 0
1478 392 0
1478 -391 0
-1479 364 -363 0
1479 -364 0
1479 363 0
-1480 -364 363 0
1480 364 0
1480 -363 0
-1481 306 -305 0
1481 -306 0
1481 305 0
-1482 -306 305 0
1482 306 0
1482 -305 0
-1483 338 -337 0
1483 -338 0
1483 337 0
-1484 -338 337 0
1484 338 0
1484 -337 0
-1485 394 -393 0
1485 -394 0
1485 393 0
-1486 -394 393 0
1486 394 0
1486 -393 0
-1487 292 -291 0
1487 -292 0
1487 291 0
-1488 -292 291 0
1488 292 0
1488 -291 0
-1489 250 -249 0
1489 -250 0
1489 249 0
-1490 -250 249 0
1490 250 0
1490 -249 0
-1491 252 -251 0
1491 -252 0
1491 251 0
-1492 -252 251 0
1492 252 0
1492 -251 0
-1493 284 -283 0
1493 -284 0
1493 283 0
-1494 -284 283 0
1494 284 0
1494 -283 0
-1495 244 -243 0
1495 -244 0
1495 243 0
-1496 -244 243 0
1496 244 0
1496 -243 0
-1497 278 -277 0
1497 -278 0
1497 277 0
-1498 -278 277 0
1498 278 0
1498 -277 0
-1499 248 -247 0
1499 -248 0
1499 247 0
-1500 -248 247 0
1500 248 0
1500 -247 0
-1501 264 -263 0
1501 -264 0
1501 263 0
-1502 -264 263 0
1502 264 0
1502 -263 0
-1503 262 -261 0
1503 -262 0
1503 261 0
-1504 -262 261 0
1504 262 0
1504 -261 0
-1505 240 -239 0
1505 -240 0
1505 239 0
-1506 -240 239 0
1506 240 0
1506 -239 0
-1507 268 -267 0
1507 -268 0
1507 267 0
-1508 -268 267 0
1508 268 0
1508 -267 0
-1509 274 -273 0
1509 -274 0
1509 273 0
-1510 -274 273 0
1510 274 0
1510 -273 0
-1511 242 -241 0
1511 -242 0
1511 241 0
-1512 -242 241 0
1512 242 0
1512 -241 0
-1513 294 -293 0
1513 -294 0
1513 293 0
-1514 -294 293 0
1514 294 0
1514 -293 0
-1515 276 -275 0
1515 -276 0
1515 275 0
-1516 -276 275 0
1516 276 0
1516 -275 0
-1517 270 -269 0
1517 -270 0
1517 269 0
-1518 -270 269 0
1518 270 0
1518 -269 0
-1519 290 -289 0
1519 -290 0
1519 289 0
-1520 -290 289 0
1520 290 0
1520 -289 0
-1521 272 -271 0
1521 -272 0
1521 271 0
-1522 -272 271 0
1522 272 0
1522 -271 0
-1523 260 -259 0
1523 -260 0
1523 259 0
-1524 -260 259 0
1524 260 0
1524 -259 0
-1525 256 -255 0
1525 -256 0
1525 255 0
-1526 -256 255 0
1526 256 0
1526 -255 0
-1527 282 -281 0
1527 -282 0
1527 281 0
-1528 -282 281 0
1528 282 0
1528 -281 0
-1529 246 -245 0
1529 -246 0
1529 245 0
-1530 -246 245 0
1530 246 0
1530 -245 0
-1531 286 -285 0
1531 -286 0
1531 285 0
-1532 -286 285 0
1532 286 0
1532 -285 0
-1533 258 -257 0
1533 -258 0
1533 257 0
-1534 -258 257 0
1534 258 0
1534 -257 0
-1535 288 -287 0
1535 -288 0
1535 287 0
-1536 -288 287 0
1536 288 0
1536 -287 0
-1537 296 -295 0
1537 -296 0
1537 295 0
-1538 -296 295 0
1538 296 0
1538 -295 0
-1539 280 -279 0
1539 -280 0
1539 279 0
-1540 -280 279 0
1540 280 0
1540 -279 0
-1541 254 -253 0
1541 -254 0
1541 253 0
-1542 -254 253 0
1542 254 0
1542 -253 0
-1543 -175 851 0
1543 175 0
1543 -851 0
-1544 175 -851 0
1544 -175 0
1544 851 0
-1545 -177 852 0
1545 177 0
1545 -852 0
-1546 177 -852 0
1546 -177 0
1546 852 0
-1547 -179 180 0
1547 179 0
1547 -180 0
-1548 179 -180 0
1548 -179 0
1548 180 0
-1549 -67 68 0
1549 67 0
1549 -68 0
-1550 67 -68 0
1550 -67 0
1550 68 0
-1551 -173 853 0
1551 173 0
1551 -853 0
-1552 173 -853 0
1552 -173 0
1552 853 0
-1553 -181 182 0
1553 181 0
1553 -182 0
-1554 181 -182 0
1554 -181 0
1554 182 0
-1555 -267 855 0
1555 267 0
1555 -855 0
-1556 267 -855 0
1556 -267 0
1556 855 0
-1557 -335 783 0
1557 335 0
1557 -783 0
-1558 335 -783 0
1558 -335 0
1558 783 0
-1559 -187 856 0
1559 187 0
1559 -856 0
-1560 187 -856 0
1560 -187 0
1560 856 0
-1561 -189 190 0
1561 189 0
1561 -190 0
-1562 189 -190 0
1562 -189 0
1562 190 0
-1563 -243 858 0
1563 243 0
1563 -858 0
-1564 243 -858 0
1564 -243 0
1564 858 0
-1565 -117 118 0
1565 117 0
1565 -118 0
-1566 117 -118 0
1566 -117 0
1566 118 0
-1567 -277 861 0
1567 277 0
1567 -861 0
-1568 277 -861 0
1568 -277 0
1568 861 0
-1569 -105 106 0
1569 105 0
1569 -106 0
-1570 105 -106 0
1570 -105 0
1570 106 0
-1571 -237 238 0
1571 237 0
1571 -238 0
-1572 237 -238 0
1572 -237 0
1572 238 0
-1573 -193 194 0
1573 193 0
1573 -194 0
-1574 193 -194 0
1574 -193 0
1574 194 0
-1575 -85 86 0
1575 85 0
1575 -86 0
-1576 85 -86 0
1576 -85 0
1576 86 0
-1577 -399 839 0
1577 399 0
1577 -839 0
-1578 399 -839 0
1578 -399 0
1578 839 0
-1579 -195 864 0
1579 195 0
1579 -864 0
-1580 195 -864 0
1580 -195 0
1580 864 0
-1581 -199 200 0
1581 199 0
1581 -200 0
-1582 199 -200 0
1582 -199 0
1582 200 0
-1583 -197 865 0
1583 197 0
1583 -865 0
-1584 197 -865 0
1584 -197 0
1584 865 0
-1585 -287 868 0
1585 287 0
1585 -868 0
-1586 287 -868 0
1586 -287 0
1586 868 0
-1587 -191 867 0
1587 191 0
1587 -867 0
-1588 191 -867 0
1588 -191 0
1588 867 0
-1589 -71 72 0
1589 71 0
1589 -72 0
-1590 71 -72 0
1590 -71 0
1590 72 0
-1591 -185 186 0
1591 185 0
1591 -186 0
-1592 185 -186 0
1592 -185 0
1592 186 0
-1593 -183 869 0
1593 183 0
1593 -869 0
-1594 183 -869 0
1594 -183 0
1594 869 0
-1595 -265 872 0
1595 265 0
1595 -872 0
-1596 265 -872 0
1596 -265 0
1596 872 0
-1597 -145 878 0
1597 145 0
1597 -878 0
-1598 145 -878 0
1598 -145 0
1598 878 0
-1599 -147 148 0
1599 147 0
1599 -148 0
-1600 147 -148 0
1600 -147 0
1600 148 0
-1601 -109 110 0
1601 109 0
1601 -110 0
-1602 109 -110 0
1602 -109 0
1602 110 0
-1603 -75 76 0
1603 75 0
1603 -76 0
-1604 75 -76 0
1604 -75 0
1604 76 0
-1605 -219 220 0
1605 219 0
1605 -220 0
-1606 219 -220 0
1606 -219 0
1606 220 0
-1607 -221 222 0
1607 221 0
1607 -222 0
-1608 221 -222 0
1608 -221 0
1608 222 0
-1609 -333 782 0
1609 333 0
1609 -782 0
-1610 333 -782 0
1610 -333 0
1610 782 0
-1611 -337 784 0
1611 337 0
1611 -784 0
-1612 337 -784 0
1612 -337 0
1612 784 0
-1613 -273 880 0
1613 273 0
1613 -880 0
-1614 273 -880 0
1614 -273 0
1614 880 0
-1615 -217 883 0
1615 217 0
1615 -883 0
-1616 217 -883 0
1616 -217 0
1616 883 0
-1617 -247 884 0
1617 247 0
1617 -884 0
-1618 247 -884 0
1618 -247 0
1618 884 0
-1619 -103 885 0
1619 103 0
1619 -885 0
-1620 103 -885 0
1620 -103 0
1620 885 0
-1621 -107 886 0
1621 107 0
1621 -886 0
-1622 107 -886 0
1622 -107 0
1622 886 0
-1623 -111 887 0
1623 111 0
1623 -887 0
-1624 111 -887 0
1624 -111 0
1624 887 0
-1625 -143 144 0
1625 143 0
1625 -144 0
-1626 143 -144 0
1626 -143 0
1626 144 0
-1627 -141 891 0
1627 141 0
1627 -891 0
-1628 141 -891 0
1628 -141 0
1628 891 0
-1629 -209 892 0
1629 209 0
1629 -892 0
-1630 209 -892 0
1630 -209 0
1630 892 0
-1631 -211 212 0
1631 211 0
1631 -212 0
-1632 211 -212 0
1632 -211 0
1632 212 0
-1633 -61 893 0
1633 61 0
1633 -893 0
-1634 61 -893 0
1634 -61 0
1634 893 0
-1635 -65 894 0
1635 65 0
1635 -894 0
-1636 65 -894 0
1636 -65 0
1636 894 0
-1637 -69 895 0
1637 69 0
1637 -895 0
-1638 69 -895 0
1638 -69 0
1638 895 0
-1639 -351 889 0
1639 351 0
1639 -889 0
-1640 351 -889 0
1640 -351 0
1640 889 0
-1641 -319 890 0
1641 319 0
1641 -890 0
-1642 319 -890 0
1642 -319 0
1642 890 0
-1643 -367 898 0
1643 367 0
1643 -898 0
-1644 367 -898 0
1644 -367 0
1644 898 0
-1645 -19 20 0
1645 19 0
1645 -20 0
-1646 19 -20 0
1646 -19 0
1646 20 0
-1647 -361 804 0
1647 361 0
1647 -804 0
-1648 361 -804 0
1648 -361 0
1648 804 0
-1649 -269 899 0
1649 269 0
1649 -899 0
-1650 269 -899 0
1650 -269 0
1650 899 0
-1651 -43 44 0
1651 43 0
1651 -44 0
-1652 43 -44 0
1652 -43 0
1652 44 0
-1653 -279 876 0
1653 279 0
1653 -876 0
-1654 279 -876 0
1654 -279 0
1654 876 0
-1655 -253 874 0
1655 253 0
1655 -874 0
-1656 253 -874 0
1656 -253 0
1656 874 0
-1657 -113 114 0
1657 113 0
1657 -114 0
-1658 113 -114 0
1658 -113 0
1658 114 0
-1659 -355 800 0
1659 355 0
1659 -800 0
-1660 355 -800 0
1660 -355 0
1660 800 0
-1661 -293 904 0
1661 293 0
1661 -904 0
-1662 293 -904 0
1662 -293 0
1662 904 0
-1663 -343 902 0
1663 343 0
1663 -902 0
-1664 343 -902 0
1664 -343 0
1664 902 0
-1665 -151 911 0
1665 151 0
1665 -911 0
-1666 151 -911 0
1666 -151 0
1666 911 0
-1667 -153 154 0
1667 153 0
1667 -154 0
-1668 153 -154 0
1668 -153 0
1668 154 0
-1669 -213 912 0
1669 213 0
1669 -912 0
-1670 213 -912 0
1670 -213 0
1670 912 0
-1671 -215 216 0
1671 215 0
1671 -216 0
-1672 215 -216 0
1672 -215 0
1672 216 0
-1673 -385 827 0
1673 385 0
1673 -827 0
-1674 385 -827 0
1674 -385 0
1674 827 0
-1675 -47 48 0
1675 47 0
1675 -48 0
-1676 47 -48 0
1676 -47 0
1676 48 0
-1677 -149 914 0
1677 149 0
1677 -914 0
-1678 149 -914 0
1678 -149 0
1678 914 0
-1679 -245 915 0
1679 245 0
1679 -915 0
-1680 245 -915 0
1680 -245 0
1680 915 0
-1681 -23 24 0
1681 23 0
1681 -24 0
-1682 23 -24 0
1682 -23 0
1682 24 0
-1683 -133 916 0
1683 133 0
1683 -916 0
-1684 133 -916 0
1684 -133 0
1684 916 0
-1685 -135 136 0
1685 135 0
1685 -136 0
-1686 135 -136 0
1686 -135 0
1686 136 0
-1687 -281 919 0
1687 281 0
1687 -919 0
-1688 281 -919 0
1688 -281 0
1688 919 0
-1689 -15 16 0
1689 15 0
1689 -16 0
-1690 15 -16 0
1690 -15 0
1690 16 0
-1691 -13 920 0
1691 13 0
1691 -920 0
-1692 13 -920 0
1692 -13 0
1692 920 0
-1693 -17 921 0
1693 17 0
1693 -921 0
-1694 17 -921 0
1694 -17 0
1694 921 0
-1695 -155 156 0
1695 155 0
1695 -156 0
-1696 155 -156 0
1696 -155 0
1696 156 0
-1697 -137 928 0
1697 137 0
1697 -928 0
-1698 137 -928 0
1698 -137 0
1698 928 0
-1699 -139 140 0
1699 139 0
1699 -140 0
-1700 139 -140 0
1700 -139 0
1700 140 0
-1701 -203 204 0
1701 203 0
1701 -204 0
-1702 203 -204 0
1702 -203 0
1702 204 0
-1703 -363 805 0
1703 363 0
1703 -805 0
-1704 363 -805 0
1704 -363 0
1704 805 0
-1705 -101 102 0
1705 101 0
1705 -102 0
-1706 101 -102 0
1706 -101 0
1706 102 0
-1707 -241 931 0
1707 241 0
1707 -931 0
-1708 241 -931 0
1708 -241 0
1708 931 0
-1709 -201 929 0
1709 201 0
1709 -929 0
-1710 201 -929 0
1710 -201 0
1710 929 0
-1711 -35 36 0
1711 35 0
1711 -36 0
-1712 35 -36 0
1712 -35 0
1712 36 0
-1713 -169 170 0
1713 169 0
1713 -170 0
-1714 169 -170 0
1714 -169 0
1714 170 0
-1715 -261 934 0
1715 261 0
1715 -934 0
-1716 261 -934 0
1716 -261 0
1716 934 0
-1717 -347 793 0
1717 347 0
1717 -793 0
-1718 347 -793 0
1718 -347 0
1718 793 0
-1719 -95 935 0
1719 95 0
1719 -935 0
-1720 95 -935 0
1720 -95 0
1720 935 0
-1721 -249 925 0
1721 249 0
1721 -925 0
-1722 249 -925 0
1722 -249 0
1722 925 0
-1723 -379 926 0
1723 379 0
1723 -926 0
-1724 379 -926 0
1724 -379 0
1724 926 0
-1725 -381 927 0
1725 381 0
1725 -927 0
-1726 381 -927 0
1726 -381 0
1726 927 0
-1727 -349 937 0
1727 349 0
1727 -937 0
-1728 349 -937 0
1728 -349 0
1728 937 0
-1729 -289 942 0
1729 289 0
1729 -942 0
-1730 289 -942 0
1730 -289 0
1730 942 0
-1731 -55 56 0
1731 55 0
1731 -56 0
-1732 55 -56 0
1732 -55 0
1732 56 0
-1733 -375 940 0
1733 375 0
1733 -940 0
-1734 375 -940 0
1734 -375 0
1734 940 0
-1735 -377 819 0
1735 377 0
1735 -819 0
-1736 377 -819 0
1736 -377 0
1736 819 0
-1737 -395 941 0
1737 395 0
1737 -941 0
-1738 395 -941 0
1738 -395 0
1738 941 0
-1739 -45 943 0
1739 45 0
1739 -943 0
-1740 45 -943 0
1740 -45 0
1740 943 0
-1741 -49 944 0
1741 49 0
1741 -944 0
-1742 49 -944 0
1742 -49 0
1742 944 0
-1743 -53 945 0
1743 53 0
1743 -945 0
-1744 53 -945 0
1744 -53 0
1744 945 0
-1745 -271 907 0
1745 271 0
1745 -907 0
-1746 271 -907 0
1746 -271 0
1746 907 0
-1747 -341 905 0
1747 341 0
1747 -905 0
-1748 341 -905 0
1748 -341 0
1748 905 0
-1749 -309 909 0
1749 309 0
1749 -909 0
-1750 309 -909 0
1750 -309 0
1750 909 0
-1751 -63 64 0
1751 63 0
1751 -64 0
-1752 63 -64 0
1752 -63 0
1752 64 0
-1753 -313 910 0
1753 313 0
1753 -910 0
-1754 313 -910 0
1754 -313 0
1754 910 0
-1755 -301 948 0
1755 301 0
1755 -948 0
-1756 301 -948 0
1756 -301 0
1756 948 0
-1757 -365 947 0
1757 365 0
1757 -947 0
-1758 365 -947 0
1758 -365 0
1758 947 0
-1759 -125 955 0
1759 125 0
1759 -955 0
-1760 125 -955 0
1760 -125 0
1760 955 0
-1761 -7 8 0
1761 7 0
1761 -8 0
-1762 7 -8 0
1762 -7 0
1762 8 0
-1763 -127 956 0
1763 127 0
1763 -956 0
-1764 127 -956 0
1764 -127 0
1764 956 0
-1765 -129 130 0
1765 129 0
1765 -130 0
-1766 129 -130 0
1766 -129 0
1766 130 0
-1767 -259 954 0
1767 259 0
1767 -954 0
-1768 259 -954 0
1768 -259 0
1768 954 0
-1769 -5 6 0
1769 5 0
1769 -6 0
-1770 5 -6 0
1770 -5 0
1770 6 0
-1771 -161 162 0
1771 161 0
1771 -162 0
-1772 161 -162 0
1772 -161 0
1772 162 0
-1773 -373 959 0
1773 373 0
1773 -959 0
-1774 373 -959 0
1774 -373 0
1774 959 0
-1775 -81 960 0
1775 81 0
1775 -960 0
-1776 81 -960 0
1776 -81 0
1776 960 0
-1777 -83 961 0
1777 83 0
1777 -961 0
-1778 83 -961 0
1778 -83 0
1778 961 0
-1779 -87 962 0
1779 87 0
1779 -962 0
-1780 87 -962 0
1780 -87 0
1780 962 0
-1781 -77 964 0
1781 77 0
1781 -964 0
-1782 77 -964 0
1782 -77 0
1782 964 0
-1783 -369 965 0
1783 369 0
1783 -965 0
-1784 369 -965 0
1784 -369 0
1784 965 0
-1785 -231 971 0
1785 231 0
1785 -971 0
-1786 231 -971 0
1786 -231 0
1786 971 0
-1787 -233 972 0
1787 233 0
1787 -972 0
-1788 233 -972 0
1788 -233 0
1788 972 0
-1789 -235 236 0
1789 235 0
1789 -236 0
-1790 235 -236 0
1790 -235 0
1790 236 0
-1791 -283 973 0
1791 283 0
1791 -973 0
-1792 283 -973 0
1792 -283 0
1792 973 0
-1793 -11 12 0
1793 11 0
1793 -12 0
-1794 11 -12 0
1794 -11 0
1794 12 0
-1795 -131 132 0
1795 131 0
1795 -132 0
-1796 131 -132 0
1796 -131 0
1796 132 0
-1797 -275 969 0
1797 275 0
1797 -969 0
-1798 275 -969 0
1798 -275 0
1798 969 0
-1799 -159 968 0
1799 159 0
1799 -968 0
-1800 159 -968 0
1800 -159 0
1800 968 0
-1801 -31 32 0
1801 31 0
1801 -32 0
-1802 31 -32 0
1802 -31 0
1802 32 0
-1803 -307 975 0
1803 307 0
1803 -975 0
-1804 307 -975 0
1804 -307 0
1804 975 0
-1805 -223 980 0
1805 223 0
1805 -980 0
-1806 223 -980 0
1806 -223 0
1806 980 0
-1807 -225 226 0
1807 225 0
1807 -226 0
-1808 225 -226 0
1808 -225 0
1808 226 0
-1809 -229 230 0
1809 229 0
1809 -230 0
-1810 229 -230 0
1810 -229 0
1810 230 0
-1811 -227 981 0
1811 227 0
1811 -981 0
-1812 227 -981 0
1812 -227 0
1812 981 0
-1813 -123 124 0
1813 123 0
1813 -124 0
-1814 123 -124 0
1814 -123 0
1814 124 0
-1815 -1816 638 0
1815 1816 0
1815 -638 0
-1817 1816 -638 0
1817 -1816 0
1817 638 0
-1818 -119 982 0
1818 119 0
1818 -982 0
-1819 119 -982 0
1819 -119 0
1819 982 0
-1820 -383 978 0
1820 383 0
1820 -978 0
-1821 383 -978 0
1821 -383 0
1821 978 0
-1822 -371 977 0
1822 371 0
1822 -977 0
-1823 371 -977 0
1823 -371 0
1823 977 0
-1824 -401 984 0
1824 401 0
1824 -984 0
-1825 401 -984 0
1825 -401 0
1825 984 0
-1826 -285 985 0
1826 285 0
1826 -985 0
-1827 285 -985 0
1827 -285 0
1827 985 0
-1828 -393 833 0
1828 393 0
1828 -833 0
-1829 393 -833 0
1829 -393 0
1829 833 0
-1830 -79 80 0
1830 79 0
1830 -80 0
-1831 79 -80 0
1831 -79 0
1831 80 0
-1832 -207 208 0
1832 207 0
1832 -208 0
-1833 207 -208 0
1833 -207 0
1833 208 0
-1834 -39 40 0
1834 39 0
1834 -40 0
-1835 39 -40 0
1835 -39 0
1835 40 0
-1836 -205 989 0
1836 205 0
1836 -989 0
-1837 205 -989 0
1837 -205 0
1837 989 0
-1838 -33 991 0
1838 33 0
1838 -991 0
-1839 33 -991 0
1839 -33 0
1839 991 0
-1840 -37 992 0
1840 37 0
1840 -992 0
-1841 37 -992 0
1841 -37 0
1841 992 0
-1842 -171 172 0
1842 171 0
1842 -172 0
-1843 171 -172 0
1843 -171 0
1843 172 0
-1844 -157 158 0
1844 157 0
1844 -158 0
-1845 157 -158 0
1845 -157 0
1845 158 0
-1846 -27 28 0
1846 27 0
1846 -28 0
-1847 27 -28 0
1847 -27 0
1847 28 0
-1848 -263 998 0
1848 263 0
1848 -998 0
-1849 263 -998 0
1849 -263 0
1849 998 0
-1850 -163 996 0
1850 163 0
1850 -996 0
-1851 163 -996 0
1851 -163 0
1851 996 0
-1852 -25 1000 0
1852 25 0
1852 -1000 0
-1853 25 -1000 0
1853 -25 0
1853 1000 0
-1854 -323 1003 0
1854 323 0
1854 -1003 0
-1855 323 -1003 0
1855 -323 0
1855 1003 0
-1856 -167 168 0
1856 167 0
1856 -168 0
-1857 167 -168 0
1857 -167 0
1857 168 0
-1858 -321 779 0
1858 321 0
1858 -779 0
-1859 321 -779 0
1859 -321 0
1859 779 0
-1860 -291 994 0
1860 291 0
1860 -994 0
-1861 291 -994 0
1861 -291 0
1861 994 0
-1862 -297 995 0
1862 297 0
1862 -995 0
-1863 297 -995 0
1863 -297 0
1863 995 0
-1864 -165 999 0
1864 165 0
1864 -999 0
-1865 165 -999 0
1865 -165 0
1865 999 0
-1866 -255 987 0
1866 255 0
1866 -987 0
-1867 255 -987 0
1867 -255 0
1867 987 0
-1868 -93 94 0
1868 93 0
1868 -94 0
-1869 93 -94 0
1869 -93 0
1869 94 0
-1870 -389 830 0
1870 389 0
1870 -830 0
-1871 389 -830 0
1871 -389 0
1871 830 0
-1872 -387 988 0
1872 387 0
1872 -988 0
-1873 387 -988 0
1873 -387 0
1873 988 0
-1874 -29 1001 0
1874 29 0
1874 -1001 0
-1875 29 -1001 0
1875 -29 0
1875 1001 0
-1876 -345 1006 0
1876 345 0
1876 -1006 0
-1877 345 -1006 0
1877 -345 0
1877 1006 0
-1878 -251 1007 0
1878 251 0
1878 -1007 0
-1879 251 -1007 0
1879 -251 0
1879 1007 0
-1880 -89 90 0
1880 89 0
1880 -90 0
-1881 89 -90 0
1881 -89 0
1881 90 0
-1882 -51 52 0
1882 51 0
1882 -52 0
-1883 51 -52 0
1883 -51 0
1883 52 0
-1884 -359 950 0
1884 359 0
1884 -950 0
-1885 359 -950 0
1885 -359 0
1885 950 0
-1886 -97 98 0
1886 97 0
1886 -98 0
-1887 97 -98 0
1887 -97 0
1887 98 0
-1888 -99 936 0
1888 99 0
1888 -936 0
-1889 99 -936 0
1889 -99 0
1889 936 0
-1890 -57 946 0
1890 57 0
1890 -946 0
-1891 57 -946 0
1891 -57 0
1891 946 0
-1892 -257 951 0
1892 257 0
1892 -951 0
-1893 257 -951 0
1893 -257 0
1893 951 0
-1894 -391 952 0
1894 391 0
1894 -952 0
-1895 391 -952 0
1895 -391 0
1895 952 0
-1896 -397 953 0
1896 397 0
1896 -953 0
-1897 397 -953 0
1897 -397 0
1897 953 0
-1898 -353 1011 0
1898 353 0
1898 -1011 0
-1899 353 -1011 0
1899 -353 0
1899 1011 0
-1900 -357 801 0
1900 357 0
1900 -801 0
-1901 357 -801 0
1901 -357 0
1901 801 0
-1902 -239 1012 0
1902 239 0
1902 -1012 0
-1903 239 -1012 0
1903 -239 0
1903 1012 0
-1904 -59 60 0
1904 59 0
1904 -60 0
-1905 59 -60 0
1905 -59 0
1905 60 0
-1906 -303 1014 0
1906 303 0
1906 -1014 0
-1907 303 -1014 0
1907 -303 0
1907 1014 0
-1908 -41 990 0
1908 41 0
1908 -990 0
-1909 41 -990 0
1909 -41 0
1909 990 0
-1910 -339 1015 0
1910 339 0
1910 -1015 0
-1911 339 -1015 0
1911 -339 0
1911 1015 0
-1912 -3 4 0
1912 3 0
1912 -4 0
-1913 3 -4 0
1913 -3 0
1913 4 0
-1914 -115 888 0
1914 115 0
1914 -888 0
-1915 115 -888 0
1915 -115 0
1915 888 0
-1916 -403 1016 0
1916 403 0
1916 -1016 0
-1917 403 -1016 0
1917 -403 0
1917 1016 0
-1918 -405 1017 0
1918 405 0
1918 -1017 0
-1919 405 -1017 0
1919 -405 0
1919 1017 0
-1920 -91 963 0
1920 91 0
1920 -963 0
-1921 91 -963 0
1921 -91 0
1921 963 0
-1922 -9 974 0
1922 9 0
1922 -974 0
-1923 9 -974 0
1923 -9 0
1923 974 0
-1924 -407 1018 0
1924 407 0
1924 -1018 0
-1925 407 -1018 0
1925 -407 0
1925 1018 0
-1926 -295 1019 0
1926 295 0
1926 -1019 0
-1927 295 -1019 0
1927 -295 0
1927 1019 0
-1928 -21 922 0
1928 21 0
1928 -922 0
-1929 21 -922 0
1929 -21 0
1929 922 0
-1930 -73 896 0
1930 73 0
1930 -896 0
-1931 73 -896 0
1931 -73 0
1931 896 0
-1932 -329 1020 0
1932 329 0
1932 -1020 0
-1933 329 -1020 0
1933 -329 0
1933 1020 0
-1934 -121 122 0
1934 121 0
1934 -122 0
-1935 121 -122 0
1935 -121 0
1935 122 0
-1936 -1 2 0
1936 1 0
1936 -2 0
-1937 1 -2 0
1937 -1 0
1937 2 0
1021 0
1022 0
1023 0
1024 0
1025 0
1026 0
1027 0
1028 0
1029 0
1030 0
1031 0
1032 0
1033 0
1034 0
1035 0
1036 0
1037 0
1038 0
1039 0
1040 0
1041 0
1042 0
1043 0
1044 0
1045 0
1046 0
1047 0
1048 0
1049 0
1050 0
1051 0
1052 0
1053 0
1054 0
1055 0
1056 0
1057 0
1058 0
1059 0
1060 0
1061 0
1062 0
1063 0
1064 0
1065 0
1066 0
1067 0
1068 0
1069 0
1070 0
1071 0
1072 0
1073 0
1074 0
1075 0
1076 0
1077 0
1078 0
1079 0
1080 0
1081 0
1082 0
1083 0
1084 0
1085 0
1086 0
1087 0
1088 0
1089 0
1090 0
1091 0
1092 0
1093 0
1094 0
1095 0
1096 0
1097 0
1098 0
1099 0
1100 0
1101 0
1102 0
1103 0
1104 0
1105 0
1106 0
1107 0
1108 0
1109 0
1110 0
1111 0
1112 0
1113 0
1114 0
1115 0
1116 0
1117 0
1118 0
1119 0
1120 0
1121 0
1122 0
1123 0
1124 0
1125 0
1126 0
1127 0
1128 0
1129 0
1130 0
1131 0
1132 0
1133 0
1134 0
1135 0
1136 0
1137 0
1138 0
1139 0
1140 0
1141 0
1142 0
1143 0
1144 0
1145 0
1146 0
1147 0
1148 0
1149 0
1150 0
1151 0
1152 0
1153 0
1154 0
1155 0
1156 0
1157 0
1158 0
1159 0
1160 0
1161 0
1162 0
1163 0
1164 0
1165 0
1166 0
1167 0
1168 0
1169 0
1170 0
1171 0
1172 0
1173 0
1174 0
1175 0
1176 0
1177 0
1178 0
1179 0
1180 0
1181 0
1182 0
1183 0
1184 0
1185 0
1186 0
1187 0
1188 0
1189 0
1190 0
1191 0
1192 0
1193 0
1194 0
1195 0
1196 0
1197 0
1198 0
1199 0
1200 0
1201 0
1202 0
1203 0
1204 0
1205 0
1206 0
1207 0
1208 0
1209 0
1210 0
1211 0
1212 0
1213 0
1214 0
1215 0
1216 0
1217 0
1218 0
1219 0
1220 0
1221 0
1222 0
1223 0
1224 0
1225 0
1226 0
1227 0
1228 0
1229 0
1230 0
1231 0
1232 0
1233 0
1234 0
1235 0
1236 0
1237 0
1238 0
1239 0
1240 0
1241 0
1242 0
1243 0
1244 0
1245 0
1246 0
1247 0
1248 0
1249 0
1250 0
1251 0
1252 0
1253 0
1254 0
1255 0
1256 0
1257 0
1258 0
1259 0
1260 0
1261 0
1262 0
1263 0
1264 0
1265 0
1266 0
1267 0
1268 0
1269 0
1270 0
1271 0
1272 0
1273 0
1274 0
1275 0
1276 0
1277 0
1278 0
1279 0
1280 0
1281 0
1282 0
1283 0
1284 0
1285 0
1286 0
1287 0
1288 0
1289 0
1290 0
1291 0
1292 0
1293 0
1294 0
1295 0
1296 0
1297 0
1298 0
1299 0
1300 0
1301 0
1302 0
1303 0
1304 0
1305 0
1306 0
1307 0
1308 0
1309 0
1310 0
1311 0
1312 0
1313 0
1314 0
1315 0
1316 0
1317 0
1318 0
1319 0
1320 0
1321 0
1322 0
1323 0
1324 0
1325 0
1326 0
1327 0
1328 0
1329 0
1330 0
1331 0
1332 0
1333 0
1334 0
1335 0
1336 0
1337 0
1338 0
1339 0
1340 0
1341 0
1342 0
1343 0
1344 0
1345 0
1346 0
1347 0
1348 0
1349 0
1350 0
1351 0
1352 0
1353 0
1354 0
1355 0
1356 0
1357 0
1358 0
1359 0
1360 0
1361 0
1362 0
1363 0
1364 0
1365 0
1366 0
1367 0
1368 0
1369 0
1370 0
1371 0
1372 0
1373 0
1374 0
1375 0
1376 0
1377 0
1378 0
1379 0
1380 0
1381 0
1382 0
1383 0
1384 0
1385 0
1386 0
1387 0
1388 0
1389 0
1390 0
1391 0
1392 0
1393 0
1394 0
1395 0
1396 0
1397 0
1398 0
1399 0
1400 0
1401 0
1402 0
1403 0
1404 0
1405 0
1406 0
1407 0
1408 0
1409 0
1410 0
1411 0
1412 0
1413 0
1414 0
1415 0
1416 0
1417 0
1418 0
1419 0
1420 0
1421 0
1422 0
1423 0
1424 0
1425 0
1426 0
1427 0
1428 0
1429 0
1430 0
1431 0
1432 0
1433 0
1434 0
1435 0
1436 0
1437 0
1438 0
1439 0
1440 0
1441 0
1442 0
1443 0
1444 0
1445 0
1446 0
1447 0
1448 0
1449 0
1450 0
1451 0
1452 0
1453 0
1454 0
1455 0
1456 0
1457 0
1458 0
1459 0
1460 0
1461 0
1462 0
1463 0
1464 0
1465 0
1466 0
1467 0
1468 0
1469 0
1470 0
1471 0
1472 0
1473 0
1474 0
1475 0
1476 0
1477 0
1478 0
1479 0
1480 0
1481 0
1482 0
1483 0
1484 0
1485 0
1486 0
1487 0
1488 0
1489 0
1490 0
1491 0
1492 0
1493 0
1494 0
1495 0
1496 0
1497 0
1498 0
1499 0
1500 0
1501 0
1502 0
1503 0
1504 0
1505 0
1506 0
1507 0
1508 0
1509 0
1510 0
1511 0
1512 0
1513 0
1514 0
1515 0
1516 0
1517 0
1518 0
1519 0
1520 0
1521 0
1522 0
1523 0
1524 0
1525 0
1526 0
1527 0
1528 0
1529 0
1530 0
1531 0
1532 0
1533 0
1534 0
1535 0
1536 0
1537 0
1538 0
1539 0
1540 0
1541 0
1542 0
1543 0
1544 0
1545 0
1546 0
1547 0
1548 0
1549 0
1550 0
1551 0
1552 0
1553 0
1554 0
1555 0
1556 0
1557 0
1558 0
1559 0
1560 0
1561 0
1562 0
1563 0
1564 0
1565 0
1566 0
1567 0
1568 0
1569 0
1570 0
1571 0
1572 0
1573 0
1574 0
1575 0
1576 0
1577 0
1578 0
1579 0
1580 0
1581 0
1582 0
1583 0
1584 0
1585 0
1586 0
1587 0
1588 0
1589 0
1590 0
1591 0
1592 0
1593 0
1594 0
1595 0
1596 0
1597 0
1598 0
1599 0
1600 0
1601 0
1602 0
1603 0
1604 0
1605 0
1606 0
1607 0
1608 0
1609 0
1610 0
1611 0
1612 0
1613 0
1614 0
1615 0
1616 0
1617 0
1618 0
1619 0
1620 0
1621 0
1622 0
1623 0
1624 0
1625 0
1626 0
1627 0
1628 0
1629 0
1630 0
1631 0
1632 0
1633 0
1634 0
1635 0
1636 0
1637 0
1638 0
1639 0
1640 0
1641 0
1642 0
1643 0
1644 0
1645 0
1646 0
1647 0
1648 0
1649 0
1650 0
1651 0
1652 0
1653 0
1654 0
1655 0
1656 0
1657 0
1658 0
1659 0
1660 0
1661 0
1662 0
1663 0
1664 0
1665 0
1666 0
1667 0
1668 0
1669 0
1670 0
1671 0
1672 0
1673 0
1674 0
1675 0
1676 0
1677 0
1678 0
1679 0
1680 0
1681 0
1682 0
1683 0
1684 0
1685 0
1686 0
1687 0
1688 0
1689 0
1690 0
1691 0
1692 0
1693 0
1694 0
1695 0
1696 0
1697 0
1698 0
1699 0
1700 0
1701 0
1702 0
1703 0
1704 0
1705 0
1706 0
1707 0
1708 0
1709 0
1710 0
1711 0
1712 0
1713 0
1714 0
1715 0
1716 0
1717 0
1718 0
1719 0
1720 0
1721 0
1722 0
1723 0
1724 0
1725 0
1726 0
1727 0
1728 0
1729 0
1730 0
1731 0
1732 0
1733 0
1734 0
1735 0
1736 0
1737 0
1738 0
1739 0
1740 0
1741 0
1742 0
1743 0
1744 0
1745 0
1746 0
1747 0
1748 0
1749 0
1750 0
1751 0
1752 0
1753 0
1754 0
1755 0
1756 0
1757 0
1758 0
1759 0
1760 0
1761 0
1762 0
1763 0
1764 0
1765 0
1766 0
1767 0
1768 0
1769 0
1770 0
1771 0
1772 0
1773 0
1774 0
1775 0
1776 0
1777 0
1778 0
1779 0
1780 0
1781 0
1782 0
1783 0
1784 0
1785 0
1786 0
1787 0
1788 0
1789 0
1790 0
1791 0
1792 0
1793 0
1794 0
1795 0
1796 0
1797 0
1798 0
1799 0
1800 0
1801 0
1802 0
1803 0
1804 0
1805 0
1806 0
1807 0
1808 0
1809 0
1810 0
1811 0
1812 0
1813 0
1814 0
1815 0
1817 0
1818 0
1819 0
1820 0
1821 0
1822 0
1823 0
1824 0
1825 0
1826 0
1827 0
1828 0
1829 0
1830 0
1831 0
1832 0
1833 0
1834 0
1835 0
1836 0
1837 0
1838 0
1839 0
1840 0
1841 0
1842 0
1843 0
1844 0
1845 0
1846 0
1847 0
1848 0
1849 0
1850 0
1851 0
1852 0
1853 0
1854 0
1855 0
1856 0
1857 0
1858 0
1859 0
1860 0
1861 0
1862 0
1863 0
1864 0
1865 0
1866 0
1867 0
1868 0
1869 0
1870 0
1871 0
1872 0
1873 0
1874 0
1875 0
1876 0
1877 0
1878 0
1879 0
1880 0
1881 0
1882 0
1883 0
1884 0
1885 0
1886 0
1887 0
1888 0
1889 0
1890 0
1891 0
1892 0
1893 0
1894 0
1895 0
1896 0
1897 0
1898 0
1899 0
1900 0
1901 0
1902 0
1903 0
1904 0
1905 0
1906 0
1907 0
1908 0
1909 0
1910 0
1911 0
1912 0
1913 0
1914 0
1915 0
1916 0
1917 0
1918 0
1919 0
1920 0
1921 0
1922 0
1923 0
1924 0
1925 0
1926 0
1927 0
1928 0
1929 0
1930 0
1931 0
1932 0
1933 0
1934 0
1935 0
1936 0
1937 0
2 0
-331 0
-311 0
-315 0
-317 0
-325 0
-299 0
-305 0
-327 0
