c BC-S1.2
p cnf 2090 6265
1 -2 0
-1 2 0
3 -4 0
-3 4 0
-5 6 7 0
5 -6 0
5 -7 0
8 -9 0
-8 9 0
-10 11 12 0
10 -11 0
10 -12 0
-13 14 15 0
13 -14 0
13 -15 0
16 -17 0
-16 17 0
18 -19 0
-18 19 0
-20 21 19 0
20 -21 0
20 -19 0
-22 23 24 0
22 -23 0
22 -24 0
25 -26 0
-25 26 0
-27 28 29 0
27 -28 0
27 -29 0
30 -31 0
-30 31 0
-32 31 33 0
32 -31 0
32 -33 0
-34 35 36 0
34 -35 0
34 -36 0
37 -38 0
-37 38 0
39 -40 0
-39 40 0
41 -42 0
-41 42 0
-43 44 42 0
43 -44 0
43 -42 0
-45 46 47 0
45 -46 0
45 -47 0
-48 49 50 0
48 -49 0
48 -50 0
51 -52 0
-51 52 0
-53 54 55 0
53 -54 0
53 -55 0
56 -57 0
-56 57 0
58 -59 0
-58 59 0
-60 59 61 0
60 -59 0
60 -61 0
-62 63 64 0
62 -63 0
62 -64 0
-65 66 67 0
65 -66 0
65 -67 0
68 -69 0
-68 69 0
-70 71 72 0
70 -71 0
70 -72 0
-73 74 75 0
73 -74 0
73 -75 0
-76 77 78 0
76 -77 0
76 -78 0
79 -80 0
-79 80 0
-81 82 80 0
81 -82 0
81 -80 0
-83 84 85 0
83 -84 0
83 -85 0
-86 87 88 0
86 -87 0
86 -88 0
89 -90 0
-89 90 0
91 -92 0
-91 92 0
-93 92 94 0
93 -92 0
93 -94 0
-95 96 97 0
95 -96 0
95 -97 0
98 -99 0
-98 99 0
100 -101 0
-100 101 0
-102 101 103 0
102 -101 0
102 -103 0
-104 105 106 0
104 -105 0
104 -106 0
-107 108 109 0
107 -108 0
107 -109 0
110 -111 0
-110 111 0
112 -113 0
-112 113 0
-114 115 113 0
114 -115 0
114 -113 0
-116 117 118 0
116 -117 0
116 -118 0
119 -120 0
-119 120 0
121 -122 0
-121 122 0
123 -124 0
-123 124 0
-125 126 124 0
125 -126 0
125 -124 0
-127 128 129 0
127 -128 0
127 -129 0
-130 131 132 0
130 -131 0
130 -132 0
133 -134 0
-133 134 0
-135 136 137 0
135 -136 0
135 -137 0
138 -139 0
-138 139 0
-140 139 141 0
140 -139 0
140 -141 0
-142 143 144 0
142 -143 0
142 -144 0
145 -146 0
-145 146 0
-147 148 146 0
147 -148 0
147 -146 0
-149 150 151 0
149 -150 0
149 -151 0
152 -153 0
-152 153 0
-154 153 155 0
154 -153 0
154 -155 0
-156 157 158 0
156 -157 0
156 -158 0
159 -160 0
-159 160 0
-161 162 163 0
161 -162 0
161 -163 0
164 -165 0
-164 165 0
-166 165 167 0
166 -165 0
166 -167 0
-168 169 170 0
168 -169 0
168 -170 0
171 -172 0
-171 172 0
-173 172 174 0
173 -172 0
173 -174 0
175 -176 0
-175 176 0
177 -178 0
-177 178 0
-179 180 178 0
179 -180 0
179 -178 0
-181 182 183 0
181 -182 0
181 -183 0
-184 185 186 0
184 -185 0
184 -186 0
187 -188 0
-187 188 0
189 -190 0
-189 190 0
-191 190 192 0
191 -190 0
191 -192 0
-193 194 195 0
193 -194 0
193 -195 0
196 -197 0
-196 197 0
-198 199 197 0
198 -199 0
198 -197 0
-200 201 202 0
200 -201 0
200 -202 0
203 -204 0
-203 204 0
-205 204 206 0
205 -204 0
205 -206 0
-207 208 209 0
207 -208 0
207 -209 0
210 -211 0
-210 211 0
-212 213 211 0
212 -213 0
212 -211 0
-214 215 216 0
214 -215 0
214 -216 0
217 -218 0
-217 218 0
-219 220 221 0
219 -220 0
219 -221 0
-222 223 224 0
222 -223 0
222 -224 0
-225 226 227 0
225 -226 0
225 -227 0
228 -229 0
-228 229 0
-230 229 231 0
230 -229 0
230 -231 0
232 -233 0
-232 233 0
-234 233 235 0
234 -233 0
234 -235 0
-236 237 238 0
236 -237 0
236 -238 0
239 -240 0
-239 240 0
241 -242 0
-241 242 0
-243 242 244 0
243 -242 0
243 -244 0
-245 246 247 0
245 -246 0
245 -247 0
-248 249 250 0
248 -249 0
248 -250 0
251 -252 0
-251 252 0
-253 254 255 0
253 -254 0
253 -255 0
256 -257 0
-256 257 0
-258 257 259 0
258 -257 0
258 -259 0
-260 261 262 0
260 -261 0
260 -262 0
263 -264 0
-263 264 0
-265 264 266 0
265 -264 0
265 -266 0
-267 268 269 0
267 -268 0
267 -269 0
270 -271 0
-270 271 0
272 -273 0
-272 273 0
-274 273 275 0
274 -273 0
274 -275 0
-276 277 278 0
276 -277 0
276 -278 0
279 -280 0
-279 280 0
-281 282 280 0
281 -282 0
281 -280 0
-283 284 285 0
283 -284 0
283 -285 0
286 -287 0
-286 287 0
-288 289 290 0
288 -289 0
288 -290 0
-291 292 293 0
291 -292 0
291 -293 0
-294 295 296 0
294 -295 0
294 -296 0
297 -298 0
-297 298 0
-299 300 298 0
299 -300 0
299 -298 0
301 -302 0
-301 302 0
-303 304 302 0
303 -304 0
303 -302 0
-305 306 307 0
305 -306 0
305 -307 0
308 -309 0
-308 309 0
310 -311 0
-310 311 0
-312 313 311 0
312 -313 0
312 -311 0
-314 315 316 0
314 -315 0
314 -316 0
317 -318 0
-317 318 0
-319 318 320 0
319 -318 0
319 -320 0
-321 322 323 0
321 -322 0
321 -323 0
324 -325 0
-324 325 0
-326 327 328 0
326 -327 0
326 -328 0
329 -330 0
-329 330 0
-331 332 330 0
331 -332 0
331 -330 0
333 -334 0
-333 334 0
-335 336 334 0
335 -336 0
335 -334 0
337 -338 0
-337 338 0
-339 338 340 0
339 -338 0
339 -340 0
-341 342 343 0
341 -342 0
341 -343 0
344 -345 0
-344 345 0
346 -347 0
-346 347 0
-348 349 347 0
348 -349 0
348 -347 0
350 -351 0
-350 351 0
352 -353 0
-352 353 0
-354 355 353 0
354 -355 0
354 -353 0
-356 357 358 0
356 -357 0
356 -358 0
-359 360 361 0
359 -360 0
359 -361 0
362 -363 0
-362 363 0
-364 365 366 0
364 -365 0
364 -366 0
367 -368 0
-367 368 0
-369 370 368 0
369 -370 0
369 -368 0
-371 372 373 0
371 -372 0
371 -373 0
374 -375 0
-374 375 0
-376 377 375 0
376 -377 0
376 -375 0
-378 379 380 0
378 -379 0
378 -380 0
381 -382 0
-381 382 0
-383 384 382 0
383 -384 0
383 -382 0
385 -386 0
-385 386 0
-387 388 386 0
387 -388 0
387 -386 0
389 -390 0
-389 390 0
-391 390 392 0
391 -390 0
391 -392 0
-393 394 395 0
393 -394 0
393 -395 0
396 -397 0
-396 397 0
398 -399 0
-398 399 0
-400 401 399 0
400 -401 0
400 -399 0
-402 403 404 0
402 -403 0
402 -404 0
405 -406 0
-405 406 0
-407 406 408 0
407 -406 0
407 -408 0
-409 410 411 0
409 -410 0
409 -411 0
412 -413 0
-412 413 0
-414 415 413 0
414 -415 0
414 -413 0
-416 417 418 0
416 -417 0
416 -418 0
419 -420 0
-419 420 0
-421 422 420 0
421 -422 0
421 -420 0
423 -424 0
-423 424 0
-425 424 426 0
425 -424 0
425 -426 0
427 -428 0
-427 428 0
-429 428 430 0
429 -428 0
429 -430 0
-431 432 433 0
431 -432 0
431 -433 0
434 -435 0
-434 435 0
436 -437 0
-436 437 0
-438 437 439 0
438 -437 0
438 -439 0
-440 441 442 0
440 -441 0
440 -442 0
443 444 -159 -445 0
-443 -444 0
-443 159 0
-443 445 0
446 -68 -447 448 0
-446 68 0
-446 447 0
-446 -448 0
449 -450 451 -37 0
-449 450 0
-449 -451 0
-449 37 0
452 -187 453 -454 0
-452 187 0
-452 -453 0
-452 454 0
455 -133 456 -457 0
-455 133 0
-455 -456 0
-455 457 0
458 -8 459 -460 0
-458 8 0
-458 -459 0
-458 460 0
461 -462 463 -110 0
-461 462 0
-461 -463 0
-461 110 0
464 -465 0
-464 465 0
466 467 -16 -468 0
-466 -467 0
-466 16 0
-466 468 0
469 -470 471 -3 0
-469 470 0
-469 -471 0
-469 3 0
472 -25 473 -474 0
-472 25 0
-472 -473 0
-472 474 0
475 -89 476 -477 0
-475 89 0
-475 -476 0
-475 477 0
478 -479 -217 480 0
-478 479 0
-478 217 0
-478 -480 0
481 482 -286 -483 0
-481 -482 0
-481 286 0
-481 483 0
484 -51 485 -486 0
-484 51 0
-484 -485 0
-484 486 0
487 -251 488 -489 0
-487 251 0
-487 -488 0
-487 489 0
490 -491 -492 493 0
-490 491 0
-490 492 0
-490 -493 0
494 -324 495 -496 0
-494 324 0
-494 -495 0
-494 496 0
497 -498 499 -362 0
-497 498 0
-497 -499 0
-497 362 0
500 -37 -451 0
-500 37 0
-500 451 0
501 -491 -493 0
-501 491 0
-501 493 0
502 -324 -495 0
-502 324 0
-502 495 0
503 -8 -459 0
-503 8 0
-503 459 0
504 -133 -456 0
-504 133 0
-504 456 0
505 -68 -448 0
-505 68 0
-505 448 0
506 -286 -482 0
-506 286 0
-506 482 0
507 -89 -476 0
-507 89 0
-507 476 0
508 -1 -509 0
-508 1 0
-508 509 0
510 -159 -444 0
-510 159 0
-510 444 0
511 -51 -485 0
-511 51 0
-511 485 0
512 -187 -453 0
-512 187 0
-512 453 0
513 -25 -473 0
-513 25 0
-513 473 0
514 -16 -467 0
-514 16 0
-514 467 0
515 -362 -499 0
-515 362 0
-515 499 0
516 -3 -471 0
-516 3 0
-516 471 0
517 -217 -480 0
-517 217 0
-517 480 0
518 -110 -463 0
-518 110 0
-518 463 0
519 -251 -488 0
-519 251 0
-519 488 0
520 112 -521 -110 0
-520 -112 0
-520 521 0
-520 110 0
522 -523 253 -251 0
-522 523 0
-522 -253 0
-522 251 0
524 -8 10 -525 0
-524 8 0
-524 -10 0
-524 525 0
526 -527 0
-526 527 0
528 39 -529 -37 0
-528 -39 0
-528 529 0
-528 37 0
530 -531 -324 326 0
-530 531 0
-530 324 0
-530 -326 0
532 219 -533 -217 0
-532 -219 0
-532 533 0
-532 217 0
534 364 -535 -362 0
-534 -364 0
-534 535 0
-534 362 0
536 -159 161 -537 0
-536 159 0
-536 -161 0
-536 537 0
538 -539 -89 91 0
-538 539 0
-538 89 0
-538 -91 0
540 -16 18 -541 0
-540 16 0
-540 -18 0
-540 541 0
542 -286 288 -543 0
-542 286 0
-542 -288 0
-542 543 0
544 -68 70 -545 0
-544 68 0
-544 -70 0
-544 545 0
546 -547 -51 53 0
-546 547 0
-546 51 0
-546 -53 0
548 -549 -25 27 0
-548 549 0
-548 25 0
-548 -27 0
550 -551 189 -187 0
-550 551 0
-550 -189 0
-550 187 0
552 -553 -133 135 0
-552 553 0
-552 133 0
-552 -135 0
554 -491 402 -555 0
-554 491 0
-554 -402 0
-554 555 0
6 -470 0
-6 470 0
7 -471 0
-7 471 0
556 329 -557 -324 0
-556 -329 0
-556 557 0
-556 324 0
558 -559 73 -68 0
-558 559 0
-558 -73 0
-558 68 0
560 93 -561 -89 0
-560 -93 0
-560 561 0
-560 89 0
562 -563 291 -286 0
-562 563 0
-562 -291 0
-562 286 0
564 191 -565 -187 0
-564 -191 0
-564 565 0
-564 187 0
566 -362 -567 367 0
-566 362 0
-566 567 0
-566 -367 0
568 256 -569 -251 0
-568 -256 0
-568 569 0
-568 251 0
570 30 -571 -25 0
-570 -30 0
-570 571 0
-570 25 0
572 -573 405 -491 0
-572 573 0
-572 -405 0
-572 491 0
574 -37 -575 41 0
-574 37 0
-574 575 0
-574 -41 0
576 -577 0
-576 577 0
578 -110 -579 114 0
-578 110 0
-578 579 0
-578 -114 0
580 56 -581 -51 0
-580 -56 0
-580 581 0
-580 51 0
582 138 -583 -133 0
-582 -138 0
-582 583 0
-582 133 0
584 -585 164 -159 0
-584 585 0
-584 -164 0
-584 159 0
586 -217 -587 222 0
-586 217 0
-586 587 0
-586 -222 0
588 -589 20 -16 0
-588 589 0
-588 -20 0
-588 16 0
11 -459 0
-11 459 0
12 -460 0
-12 460 0
14 -525 0
-14 525 0
15 -10 0
-15 10 0
590 43 -37 -591 0
-590 -43 0
-590 37 0
-590 591 0
592 294 -286 -593 0
-592 -294 0
-592 286 0
-592 593 0
594 166 -159 -595 0
-594 -166 0
-594 159 0
-594 595 0
596 -187 -597 193 0
-596 187 0
-596 597 0
-596 -193 0
598 407 -491 -599 0
-598 -407 0
-598 491 0
-598 599 0
600 -133 -601 140 0
-600 133 0
-600 601 0
-600 -140 0
602 225 -217 -603 0
-602 -225 0
-602 217 0
-602 603 0
604 -89 -605 95 0
-604 89 0
-604 605 0
-604 -95 0
606 369 -362 -607 0
-606 -369 0
-606 362 0
-606 607 0
608 -609 0
-608 609 0
610 -51 -611 58 0
-610 51 0
-610 611 0
-610 -58 0
612 -25 -613 32 0
-612 25 0
-612 613 0
-612 -32 0
614 116 -110 -615 0
-614 -116 0
-614 110 0
-614 615 0
616 -251 -617 258 0
-616 251 0
-616 617 0
-616 -258 0
618 -324 -619 331 0
-618 324 0
-618 619 0
-618 -331 0
620 76 -68 -621 0
-620 -76 0
-620 68 0
-620 621 0
622 -467 0
-622 467 0
623 -468 0
-623 468 0
21 -541 0
-21 541 0
19 -18 0
-19 18 0
23 -20 0
-23 20 0
24 -589 0
-24 589 0
624 -286 -625 297 0
-624 286 0
-624 625 0
-624 -297 0
626 -627 119 -110 0
-626 627 0
-626 -119 0
-626 110 0
628 -251 260 -629 0
-628 251 0
-628 -260 0
-628 629 0
630 -324 333 -631 0
-630 324 0
-630 -333 0
-630 631 0
632 -51 60 -633 0
-632 51 0
-632 -60 0
-632 633 0
634 -187 196 -635 0
-634 187 0
-634 -196 0
-634 635 0
636 -637 45 -37 0
-636 637 0
-636 -45 0
-636 37 0
638 -89 98 -639 0
-638 89 0
-638 -98 0
-638 639 0
640 -68 -641 79 0
-640 68 0
-640 641 0
-640 -79 0
642 -491 -643 409 0
-642 491 0
-642 643 0
-642 -409 0
644 -645 0
-644 645 0
646 -133 142 -647 0
-646 133 0
-646 -142 0
-646 647 0
648 -649 228 -217 0
-648 649 0
-648 -228 0
-648 217 0
650 -159 -651 168 0
-650 159 0
-650 651 0
-650 -168 0
652 -653 371 -362 0
-652 653 0
-652 -371 0
-652 362 0
28 -473 0
-28 473 0
29 -474 0
-29 474 0
654 -549 0
-654 549 0
655 -27 0
-655 27 0
31 -30 0
-31 30 0
33 -571 0
-33 571 0
35 -613 0
-35 613 0
36 -32 0
-36 32 0
656 -657 198 -187 0
-656 657 0
-656 -198 0
-656 187 0
658 -159 171 -659 0
-658 159 0
-658 -171 0
-658 659 0
660 -661 -133 145 0
-660 661 0
-660 133 0
-660 -145 0
662 374 -663 -362 0
-662 -374 0
-662 663 0
-662 362 0
664 121 -665 -110 0
-664 -121 0
-664 665 0
-664 110 0
666 -667 -324 335 0
-666 667 0
-666 324 0
-666 -335 0
668 -669 -89 100 0
-668 669 0
-668 89 0
-668 -100 0
670 -491 412 -671 0
-670 491 0
-670 -412 0
-670 671 0
672 -673 0
-672 673 0
674 -675 263 -251 0
-674 675 0
-674 -263 0
-674 251 0
676 -51 62 -677 0
-676 51 0
-676 -62 0
-676 677 0
678 -286 299 -679 0
-678 286 0
-678 -299 0
-678 679 0
680 -68 81 -681 0
-680 68 0
-680 -81 0
-680 681 0
682 230 -683 -217 0
-682 -230 0
-682 683 0
-682 217 0
684 -451 0
-684 451 0
685 -450 0
-685 450 0
40 -39 0
-40 39 0
686 -529 0
-686 529 0
44 -575 0
-44 575 0
42 -41 0
-42 41 0
46 -591 0
-46 591 0
47 -43 0
-47 43 0
49 -45 0
-49 45 0
50 -637 0
-50 637 0
687 -362 -688 376 0
-687 362 0
-687 688 0
-687 -376 0
689 200 -690 -187 0
-689 -200 0
-689 690 0
-689 187 0
691 -692 173 -159 0
-691 692 0
-691 -173 0
-691 159 0
693 337 -694 -324 0
-693 -337 0
-693 694 0
-693 324 0
695 -696 0
-695 696 0
697 -698 414 -491 0
-697 698 0
-697 -414 0
-697 491 0
699 102 -700 -89 0
-699 -102 0
-699 700 0
-699 89 0
701 147 -702 -133 0
-701 -147 0
-701 702 0
-701 133 0
703 265 -704 -251 0
-703 -265 0
-703 704 0
-703 251 0
705 -706 83 -68 0
-705 706 0
-705 -83 0
-705 68 0
707 -708 301 -286 0
-707 708 0
-707 -301 0
-707 286 0
709 -217 -710 232 0
-709 217 0
-709 710 0
-709 -232 0
711 -110 -712 123 0
-711 110 0
-711 712 0
-711 -123 0
54 -486 0
-54 486 0
55 -485 0
-55 485 0
713 -53 0
-713 53 0
714 -547 0
-714 547 0
57 -56 0
-57 56 0
715 -581 0
-715 581 0
61 -611 0
-61 611 0
59 -58 0
-59 58 0
63 -633 0
-63 633 0
64 -60 0
-64 60 0
66 -62 0
-66 62 0
67 -677 0
-67 677 0
716 -717 0
-716 717 0
718 -187 -719 203 0
-718 187 0
-718 719 0
-718 -203 0
720 175 -159 -721 0
-720 -175 0
-720 159 0
-720 721 0
722 416 -491 -723 0
-722 -416 0
-722 491 0
-722 723 0
724 -251 -725 267 0
-724 251 0
-724 725 0
-724 -267 0
726 -89 -727 104 0
-726 89 0
-726 727 0
-726 -104 0
728 303 -286 -729 0
-728 -303 0
-728 286 0
-728 729 0
730 125 -110 -731 0
-730 -125 0
-730 110 0
-730 731 0
732 378 -362 -733 0
-732 -378 0
-732 362 0
-732 733 0
734 234 -217 -735 0
-734 -234 0
-734 217 0
-734 735 0
736 -133 -737 149 0
-736 133 0
-736 737 0
-736 -149 0
738 -324 -739 339 0
-738 324 0
-738 739 0
-738 -339 0
71 -448 0
-71 448 0
72 -447 0
-72 447 0
74 -70 0
-74 70 0
75 -545 0
-75 545 0
77 -73 0
-77 73 0
78 -559 0
-78 559 0
740 -76 0
-740 76 0
741 -621 0
-741 621 0
82 -641 0
-82 641 0
80 -79 0
-80 79 0
84 -81 0
-84 81 0
85 -681 0
-85 681 0
87 -706 0
-87 706 0
88 -83 0
-88 83 0
742 -159 -743 177 0
-742 159 0
-742 743 0
-742 -177 0
744 -133 152 -745 0
-744 133 0
-744 -152 0
-744 745 0
746 -324 341 -747 0
-746 324 0
-746 -341 0
-746 747 0
748 -749 0
-748 749 0
750 -751 381 -362 0
-750 751 0
-750 -381 0
-750 362 0
752 -753 236 -217 0
-752 753 0
-752 -236 0
-752 217 0
754 -286 -755 305 0
-754 286 0
-754 755 0
-754 -305 0
756 -491 -757 419 0
-756 491 0
-756 757 0
-756 -419 0
758 -759 127 -110 0
-758 759 0
-758 -127 0
-758 110 0
760 -251 270 -761 0
-760 251 0
-760 -270 0
-760 761 0
762 -187 205 -763 0
-762 187 0
-762 -205 0
-762 763 0
764 -476 0
-764 476 0
765 -477 0
-765 477 0
92 -91 0
-92 91 0
94 -539 0
-94 539 0
96 -561 0
-96 561 0
97 -93 0
-97 93 0
766 -95 0
-766 95 0
767 -605 0
-767 605 0
768 -639 0
-768 639 0
99 -98 0
-99 98 0
101 -100 0
-101 100 0
103 -669 0
-103 669 0
105 -700 0
-105 700 0
106 -102 0
-106 102 0
108 -727 0
-108 727 0
109 -104 0
-109 104 0
769 -770 272 -251 0
-769 770 0
-769 -272 0
-769 251 0
771 -772 -324 344 0
-771 772 0
-771 324 0
-771 -344 0
773 -774 0
-773 774 0
775 383 -776 -362 0
-775 -383 0
-775 776 0
-775 362 0
777 -286 308 -778 0
-777 286 0
-777 -308 0
-777 778 0
779 -159 179 -780 0
-779 159 0
-779 -179 0
-779 780 0
781 -491 421 -782 0
-781 491 0
-781 -421 0
-781 782 0
783 -784 207 -187 0
-783 784 0
-783 -207 0
-783 187 0
785 239 -786 -217 0
-785 -239 0
-785 786 0
-785 217 0
787 -133 154 -788 0
-787 133 0
-787 -154 0
-787 788 0
789 -462 0
-789 462 0
790 -463 0
-790 463 0
115 -521 0
-115 521 0
113 -112 0
-113 112 0
117 -114 0
-117 114 0
118 -579 0
-118 579 0
791 -615 0
-791 615 0
792 -116 0
-792 116 0
120 -119 0
-120 119 0
793 -627 0
-793 627 0
122 -121 0
-122 121 0
794 -665 0
-794 665 0
126 -712 0
-126 712 0
124 -123 0
-124 123 0
128 -731 0
-128 731 0
129 -125 0
-129 125 0
131 -127 0
-131 127 0
132 -759 0
-132 759 0
795 274 -796 -251 0
-795 -274 0
-795 796 0
-795 251 0
797 -798 0
-797 798 0
799 210 -800 -187 0
-799 -210 0
-799 800 0
-799 187 0
801 -802 423 -491 0
-801 802 0
-801 -423 0
-801 491 0
803 -217 -804 241 0
-803 217 0
-803 804 0
-803 -241 0
805 -806 310 -286 0
-805 806 0
-805 -310 0
-805 286 0
807 -808 181 -159 0
-807 808 0
-807 -181 0
-807 159 0
809 -362 -810 385 0
-809 362 0
-809 810 0
-809 -385 0
811 346 -812 -324 0
-811 -346 0
-811 812 0
-811 324 0
137 -456 0
-137 456 0
136 -457 0
-136 457 0
813 -553 0
-813 553 0
814 -135 0
-814 135 0
139 -138 0
-139 138 0
141 -583 0
-141 583 0
143 -601 0
-143 601 0
144 -140 0
-144 140 0
815 -647 0
-815 647 0
816 -142 0
-816 142 0
148 -661 0
-148 661 0
146 -145 0
-146 145 0
150 -147 0
-150 147 0
151 -702 0
-151 702 0
817 -737 0
-817 737 0
818 -149 0
-818 149 0
155 -745 0
-155 745 0
153 -152 0
-153 152 0
157 -154 0
-157 154 0
158 -788 0
-158 788 0
819 -820 0
-819 820 0
821 -822 -187 212 0
-821 822 0
-821 187 0
-821 -212 0
823 -824 0
-823 824 0
825 -826 0
-825 826 0
827 -828 0
-827 828 0
829 -830 0
-829 830 0
831 -832 0
-831 832 0
833 -834 0
-833 834 0
162 -444 0
-162 444 0
163 -445 0
-163 445 0
835 -537 0
-835 537 0
836 -161 0
-836 161 0
167 -585 0
-167 585 0
165 -164 0
-165 164 0
169 -166 0
-169 166 0
170 -595 0
-170 595 0
837 -651 0
-837 651 0
838 -168 0
-838 168 0
172 -171 0
-172 171 0
174 -659 0
-174 659 0
839 -173 0
-839 173 0
840 -692 0
-840 692 0
176 -175 0
-176 175 0
841 -721 0
-841 721 0
180 -743 0
-180 743 0
178 -177 0
-178 177 0
182 -179 0
-182 179 0
183 -780 0
-183 780 0
186 -808 0
-186 808 0
185 -181 0
-185 181 0
842 -843 0
-842 843 0
844 -845 389 -362 0
-844 845 0
-844 -389 0
-844 362 0
846 -286 -847 314 0
-846 286 0
-846 847 0
-846 -314 0
848 -491 -849 427 0
-848 491 0
-848 849 0
-848 -427 0
850 -324 350 -851 0
-850 324 0
-850 -350 0
-850 851 0
852 -251 279 -853 0
-852 251 0
-852 -279 0
-852 853 0
854 -855 245 -217 0
-854 855 0
-854 -245 0
-854 217 0
856 -453 0
-856 453 0
857 -454 0
-857 454 0
190 -189 0
-190 189 0
192 -551 0
-192 551 0
194 -565 0
-194 565 0
195 -191 0
-195 191 0
858 -193 0
-858 193 0
859 -597 0
-859 597 0
199 -635 0
-199 635 0
197 -196 0
-197 196 0
201 -198 0
-201 198 0
202 -657 0
-202 657 0
860 -200 0
-860 200 0
861 -690 0
-861 690 0
204 -203 0
-204 203 0
206 -719 0
-206 719 0
208 -763 0
-208 763 0
209 -205 0
-209 205 0
862 -207 0
-862 207 0
863 -784 0
-863 784 0
213 -800 0
-213 800 0
211 -210 0
-211 210 0
215 -822 0
-215 822 0
216 -212 0
-216 212 0
864 -491 429 -865 0
-864 491 0
-864 -429 0
-864 865 0
866 -867 -324 352 0
-866 867 0
-866 324 0
-866 -352 0
868 -286 317 -869 0
-868 286 0
-868 -317 0
-868 869 0
870 281 -251 -871 0
-870 -281 0
-870 251 0
-870 871 0
872 391 -873 -362 0
-872 -391 0
-872 873 0
-872 362 0
874 -875 0
-874 875 0
220 -479 0
-220 479 0
221 -480 0
-221 480 0
223 -533 0
-223 533 0
224 -219 0
-224 219 0
226 -222 0
-226 222 0
227 -587 0
-227 587 0
876 -603 0
-876 603 0
877 -225 0
-877 225 0
229 -228 0
-229 228 0
231 -649 0
-231 649 0
878 -683 0
-878 683 0
879 -230 0
-879 230 0
233 -232 0
-233 232 0
235 -710 0
-235 710 0
237 -735 0
-237 735 0
238 -234 0
-238 234 0
880 -236 0
-880 236 0
881 -753 0
-881 753 0
882 -786 0
-882 786 0
240 -239 0
-240 239 0
242 -241 0
-242 241 0
244 -804 0
-244 804 0
246 -883 0
-246 883 0
247 -243 0
-247 243 0
249 -245 0
-249 245 0
250 -855 0
-250 855 0
884 -362 -885 393 0
-884 362 0
-884 885 0
-884 -393 0
886 -887 0
-886 887 0
888 -889 431 -491 0
-888 889 0
-888 -431 0
-888 491 0
890 354 -891 -324 0
-890 -354 0
-890 891 0
-890 324 0
892 -893 319 -286 0
-892 893 0
-892 -319 0
-892 286 0
254 -489 0
-254 489 0
255 -488 0
-255 488 0
894 -523 0
-894 523 0
895 -253 0
-895 253 0
257 -256 0
-257 256 0
259 -569 0
-259 569 0
261 -258 0
-261 258 0
262 -617 0
-262 617 0
896 -260 0
-896 260 0
897 -629 0
-897 629 0
266 -675 0
-266 675 0
264 -263 0
-264 263 0
268 -265 0
-268 265 0
269 -704 0
-269 704 0
898 -725 0
-898 725 0
899 -267 0
-899 267 0
271 -270 0
-271 270 0
900 -761 0
-900 761 0
275 -770 0
-275 770 0
273 -272 0
-273 272 0
277 -796 0
-277 796 0
278 -274 0
-278 274 0
901 -902 0
-901 902 0
903 -276 0
-903 276 0
282 -853 0
-282 853 0
280 -279 0
-280 279 0
285 -281 0
-285 281 0
284 -871 0
-284 871 0
904 -905 0
-904 905 0
906 396 -362 -907 0
-906 -396 0
-906 362 0
-906 907 0
908 -324 -909 356 0
-908 324 0
-908 909 0
-908 -356 0
910 434 -491 -911 0
-910 -434 0
-910 491 0
-910 911 0
289 -482 0
-289 482 0
290 -483 0
-290 483 0
293 -288 0
-293 288 0
292 -543 0
-292 543 0
295 -291 0
-295 291 0
296 -563 0
-296 563 0
912 -294 0
-912 294 0
913 -593 0
-913 593 0
300 -625 0
-300 625 0
298 -297 0
-298 297 0
914 -299 0
-914 299 0
915 -679 0
-915 679 0
304 -708 0
-304 708 0
302 -301 0
-302 301 0
306 -729 0
-306 729 0
307 -303 0
-307 303 0
916 -305 0
-916 305 0
917 -755 0
-917 755 0
918 -778 0
-918 778 0
309 -308 0
-309 308 0
313 -806 0
-313 806 0
311 -310 0
-311 310 0
315 -919 0
-315 919 0
316 -312 0
-316 312 0
920 -847 0
-920 847 0
921 -314 0
-921 314 0
320 -869 0
-320 869 0
318 -317 0
-318 317 0
322 -319 0
-322 319 0
323 -893 0
-323 893 0
922 -491 -923 436 0
-922 491 0
-922 923 0
-922 -436 0
924 -925 0
-924 925 0
926 -927 0
-926 927 0
327 -495 0
-327 495 0
328 -496 0
-328 496 0
928 -326 0
-928 326 0
929 -531 0
-929 531 0
332 -557 0
-332 557 0
330 -329 0
-330 329 0
930 -619 0
-930 619 0
931 -331 0
-931 331 0
336 -631 0
-336 631 0
334 -333 0
-334 333 0
932 -667 0
-932 667 0
933 -335 0
-933 335 0
338 -337 0
-338 337 0
340 -694 0
-340 694 0
342 -739 0
-342 739 0
343 -339 0
-343 339 0
934 -747 0
-934 747 0
935 -341 0
-935 341 0
345 -344 0
-345 344 0
936 -772 0
-936 772 0
349 -812 0
-349 812 0
347 -346 0
-347 346 0
937 -348 0
-937 348 0
938 -939 0
-938 939 0
351 -350 0
-351 350 0
940 -851 0
-940 851 0
355 -867 0
-355 867 0
353 -352 0
-353 352 0
357 -354 0
-357 354 0
358 -891 0
-358 891 0
360 -909 0
-360 909 0
361 -356 0
-361 356 0
941 -491 438 -942 0
-941 491 0
-941 -438 0
-941 942 0
943 -944 0
-943 944 0
365 -498 0
-365 498 0
366 -499 0
-366 499 0
945 -535 0
-945 535 0
946 -364 0
-946 364 0
370 -567 0
-370 567 0
368 -367 0
-368 367 0
372 -607 0
-372 607 0
373 -369 0
-373 369 0
947 -653 0
-947 653 0
948 -371 0
-948 371 0
377 -663 0
-377 663 0
375 -374 0
-375 374 0
379 -688 0
-379 688 0
380 -376 0
-380 376 0
949 -733 0
-949 733 0
950 -378 0
-950 378 0
384 -751 0
-384 751 0
382 -381 0
-382 381 0
951 -383 0
-951 383 0
952 -776 0
-952 776 0
388 -810 0
-388 810 0
386 -385 0
-386 385 0
953 -387 0
-953 387 0
954 -955 0
-954 955 0
390 -389 0
-390 389 0
392 -845 0
-392 845 0
394 -391 0
-394 391 0
395 -873 0
-395 873 0
956 -885 0
-956 885 0
957 -393 0
-957 393 0
397 -396 0
-397 396 0
958 -907 0
-958 907 0
401 -959 0
-401 959 0
399 -398 0
-399 398 0
403 -493 0
-403 493 0
404 -492 0
-404 492 0
960 -402 0
-960 402 0
961 -555 0
-961 555 0
406 -405 0
-406 405 0
408 -573 0
-408 573 0
410 -599 0
-410 599 0
411 -407 0
-411 407 0
962 -643 0
-962 643 0
963 -409 0
-963 409 0
415 -671 0
-415 671 0
413 -412 0
-413 412 0
417 -698 0
-417 698 0
418 -414 0
-418 414 0
964 -723 0
-964 723 0
965 -416 0
-965 416 0
422 -757 0
-422 757 0
420 -419 0
-420 419 0
966 -421 0
-966 421 0
967 -782 0
-967 782 0
424 -423 0
-424 423 0
426 -802 0
-426 802 0
968 -969 0
-968 969 0
970 -425 0
-970 425 0
428 -427 0
-428 427 0
430 -849 0
-430 849 0
432 -865 0
-432 865 0
433 -429 0
-433 429 0
971 -431 0
-971 431 0
972 -889 0
-972 889 0
973 -911 0
-973 911 0
435 -434 0
-435 434 0
437 -436 0
-437 436 0
439 -923 0
-439 923 0
441 -438 0
-441 438 0
442 -942 0
-442 942 0
826 -324 -939 348 0
-826 324 0
-826 939 0
-826 -348 0
-974 862 863 0
974 -862 0
974 -863 0
-975 858 859 0
975 -858 0
975 -859 0
-976 856 857 0
976 -856 0
976 -857 0
-977 860 861 0
977 -860 0
977 -861 0
-978 176 841 0
978 -176 0
978 -841 0
-979 840 839 0
979 -840 0
979 -839 0
-980 835 836 0
980 -835 0
980 -836 0
-981 799 811 0
981 -799 0
981 -811 0
-160 819 821 823 825 827 829 831 833 0
160 -819 0
160 -821 0
160 -823 0
160 -825 0
160 -827 0
160 -829 0
160 -831 0
160 -833 0
-982 837 838 0
982 -837 0
982 -838 0
-983 951 952 0
983 -951 0
983 -952 0
-984 949 950 0
984 -949 0
984 -950 0
-985 945 946 0
985 -945 0
985 -946 0
-986 947 948 0
986 -947 0
986 -948 0
-987 762 742 0
987 -762 0
987 -742 0
-988 783 779 0
988 -783 0
988 -779 0
-989 807 981 0
989 -807 0
989 -981 0
-990 656 658 0
990 -656 0
990 -658 0
-991 689 691 0
991 -689 0
991 -691 0
-992 718 720 0
992 -718 0
992 -720 0
-993 584 564 0
993 -584 0
993 -564 0
-994 594 596 0
994 -594 0
994 -596 0
-995 650 634 0
995 -650 0
995 -634 0
-996 443 452 0
996 -443 0
996 -452 0
-997 510 512 0
997 -510 0
997 -512 0
-998 550 536 0
998 -550 0
998 -536 0
828 387 -362 -955 0
-828 -387 0
-828 362 0
-828 955 0
-999 966 967 0
999 -966 0
999 -967 0
-1000 964 965 0
1000 -964 0
1000 -965 0
-1001 960 961 0
1001 -960 0
1001 -961 0
-1002 962 963 0
1002 -962 0
1002 -963 0
-1003 750 987 0
1003 -750 0
1003 -987 0
-1004 775 988 0
1004 -775 0
1004 -988 0
-1005 809 989 0
1005 -809 0
1005 -989 0
-1006 990 662 0
1006 -990 0
1006 -662 0
-1007 991 687 0
1007 -991 0
1007 -687 0
-1008 992 732 0
1008 -992 0
1008 -732 0
-1009 993 566 0
1009 -993 0
1009 -566 0
-1010 994 606 0
1010 -994 0
1010 -606 0
-1011 652 995 0
1011 -652 0
1011 -995 0
-1012 497 996 0
1012 -497 0
1012 -996 0
-1013 515 997 0
1013 -515 0
1013 -997 0
-1014 998 534 0
1014 -998 0
1014 -534 0
824 425 -491 -969 0
-824 -425 0
-824 491 0
-824 969 0
-1015 928 929 0
1015 -928 0
1015 -929 0
-1016 930 931 0
1016 -930 0
1016 -931 0
-1017 934 935 0
1017 -934 0
1017 -935 0
-1018 932 933 0
1018 -932 0
1018 -933 0
-1019 490 1012 0
1019 -490 0
1019 -1012 0
-1020 1013 501 0
1020 -1013 0
1020 -501 0
-1021 1014 554 0
1021 -1014 0
1021 -554 0
-1022 572 1009 0
1022 -572 0
1022 -1009 0
-1023 598 1010 0
1023 -598 0
1023 -1010 0
-1024 1011 642 0
1024 -1011 0
1024 -642 0
-1025 1006 670 0
1025 -1006 0
1025 -670 0
-1026 722 1008 0
1026 -722 0
1026 -1008 0
-1027 1003 756 0
1027 -1003 0
1027 -756 0
-1028 781 1004 0
1028 -781 0
1028 -1004 0
-1029 697 1007 0
1029 -697 0
1029 -1007 0
-1030 345 936 0
1030 -345 0
1030 -936 0
-1031 971 972 0
1031 -971 0
1031 -972 0
-1032 973 435 0
1032 -973 0
1032 -435 0
-1033 956 957 0
1033 -956 0
1033 -957 0
-1034 397 958 0
1034 -397 0
1034 -958 0
-1035 351 940 0
1035 -351 0
1035 -940 0
-1036 906 910 0
1036 -906 0
1036 -910 0
-1037 864 872 0
1037 -864 0
1037 -872 0
-1038 884 888 0
1038 -884 0
1038 -888 0
-1039 844 848 0
1039 -844 0
1039 -848 0
-1040 866 1037 0
1040 -866 0
1040 -1037 0
-1041 1038 890 0
1041 -1038 0
1041 -890 0
-1042 868 1040 0
1042 -868 0
1042 -1040 0
-1043 892 1041 0
1043 -892 0
1043 -1041 0
-1044 1039 850 0
1044 -1039 0
1044 -850 0
-1045 874 1042 0
1045 -874 0
1045 -1042 0
-1046 1036 908 0
1046 -1036 0
1046 -908 0
927 -959 398 -362 0
-927 959 0
-927 -398 0
-927 362 0
-1047 916 917 0
1047 -916 0
1047 -917 0
-1048 309 918 0
1048 -309 0
1048 -918 0
-1049 912 913 0
1049 -912 0
1049 -913 0
-1050 915 914 0
1050 -915 0
1050 -914 0
-1051 1044 852 0
1051 -1044 0
1051 -852 0
-287 904 1046 0
287 -904 0
287 -1046 0
-1052 920 921 0
1052 -920 0
1052 -921 0
-1053 880 881 0
1053 -880 0
1053 -881 0
-1054 882 240 0
1054 -882 0
1054 -240 0
-1055 876 877 0
1055 -876 0
1055 -877 0
-1056 878 879 0
1056 -878 0
1056 -879 0
-1057 1051 846 0
1057 -1051 0
1057 -846 0
-1058 1057 854 0
1058 -1057 0
1058 -854 0
-218 1045 870 0
218 -1045 0
218 -870 0
-1059 898 899 0
1059 -898 0
1059 -899 0
-1060 271 900 0
1060 -271 0
1060 -900 0
-1061 895 894 0
1061 -895 0
1061 -894 0
-1062 896 897 0
1062 -896 0
1062 -897 0
-1063 707 709 0
1063 -707 0
1063 -709 0
-1064 728 734 0
1064 -728 0
1064 -734 0
-1065 752 754 0
1065 -752 0
1065 -754 0
-1066 682 678 0
1066 -682 0
1066 -678 0
-1067 785 777 0
1067 -785 0
1067 -777 0
-1068 803 805 0
1068 -803 0
1068 -805 0
-1069 586 562 0
1069 -586 0
1069 -562 0
-1070 592 602 0
1070 -592 0
1070 -602 0
-1071 648 624 0
1071 -648 0
1071 -624 0
-1072 478 481 0
1072 -478 0
1072 -481 0
-1073 506 517 0
1073 -506 0
1073 -517 0
-1074 542 532 0
1074 -542 0
1074 -532 0
-252 886 1043 0
252 -886 0
252 -1043 0
-1075 901 903 0
1075 -901 0
1075 -903 0
-1076 813 814 0
1076 -813 0
1076 -814 0
-1077 817 818 0
1077 -817 0
1077 -818 0
-1078 816 815 0
1078 -816 0
1078 -815 0
-1079 122 794 0
1079 -122 0
1079 -794 0
-1080 791 792 0
1080 -791 0
1080 -792 0
-1081 120 793 0
1081 -120 0
1081 -793 0
-1082 789 790 0
1082 -789 0
1082 -790 0
-1083 766 767 0
1083 -766 0
1083 -767 0
-1084 768 99 0
1084 -768 0
1084 -99 0
-1085 764 765 0
1085 -764 0
1085 -765 0
-1086 741 740 0
1086 -741 0
1086 -740 0
-1087 713 714 0
1087 -713 0
1087 -714 0
-1088 57 715 0
1088 -57 0
1088 -715 0
-1089 40 686 0
1089 -40 0
1089 -686 0
-1090 684 685 0
1090 -684 0
1090 -685 0
-1091 654 655 0
1091 -654 0
1091 -655 0
-1092 623 622 0
1092 -623 0
1092 -622 0
-1093 724 1064 0
1093 -724 0
1093 -1064 0
-1094 738 1026 0
1094 -738 0
1094 -1026 0
-1095 760 1065 0
1095 -760 0
1095 -1065 0
-1096 746 1027 0
1096 -746 0
1096 -1027 0
-1097 769 1067 0
1097 -769 0
1097 -1067 0
-1098 1028 771 0
1098 -1028 0
1098 -771 0
-1099 703 1063 0
1099 -703 0
1099 -1063 0
-1100 1029 693 0
1100 -1029 0
1100 -693 0
-1101 1068 795 0
1101 -1068 0
1101 -795 0
-1102 1005 801 0
1102 -1005 0
1102 -801 0
-1103 568 1069 0
1103 -568 0
1103 -1069 0
-1104 556 1022 0
1104 -556 0
1104 -1022 0
-1105 616 1070 0
1105 -616 0
1105 -1070 0
-1106 1023 618 0
1106 -1023 0
1106 -618 0
-1107 1072 487 0
1107 -1072 0
1107 -487 0
-1108 494 1019 0
1108 -494 0
1108 -1019 0
-1109 1073 519 0
1109 -1073 0
1109 -519 0
-1110 1020 502 0
1110 -1020 0
1110 -502 0
-1111 1074 522 0
1111 -1074 0
1111 -522 0
-1112 1021 530 0
1112 -1021 0
1112 -530 0
-1113 1071 628 0
1113 -1071 0
1113 -628 0
-1114 630 1024 0
1114 -630 0
1114 -1024 0
-1115 1066 674 0
1115 -1066 0
1115 -674 0
-1116 666 1025 0
1116 -666 0
1116 -1025 0
-1117 1104 1103 0
1117 -1104 0
1117 -1103 0
-1118 1105 1106 0
1118 -1105 0
1118 -1106 0
-1119 1113 1114 0
1119 -1113 0
1119 -1114 0
-1120 1107 1108 0
1120 -1107 0
1120 -1108 0
-1121 1109 1110 0
1121 -1109 0
1121 -1110 0
-1122 1112 1111 0
1122 -1112 0
1122 -1111 0
-1123 1115 1116 0
1123 -1115 0
1123 -1116 0
-1124 1099 1100 0
1124 -1099 0
1124 -1100 0
-1125 1093 1094 0
1125 -1093 0
1125 -1094 0
-1126 1096 1095 0
1126 -1096 0
1126 -1095 0
-1127 1097 1098 0
1127 -1097 0
1127 -1098 0
-1128 701 1124 0
1128 -701 0
1128 -1124 0
-1129 1125 736 0
1129 -1125 0
1129 -736 0
-1130 744 1126 0
1130 -744 0
1130 -1126 0
-1131 1123 660 0
1131 -1123 0
1131 -660 0
-1132 1117 582 0
1132 -1117 0
1132 -582 0
-1133 600 1118 0
1133 -600 0
1133 -1118 0
-1134 646 1119 0
1134 -646 0
1134 -1119 0
-1135 1122 552 0
1135 -1122 0
1135 -552 0
-1136 1120 455 0
1136 -1120 0
1136 -455 0
-1137 1121 504 0
1137 -1121 0
1137 -504 0
-1138 1132 578 0
1138 -1132 0
1138 -578 0
-1139 614 1133 0
1139 -614 0
1139 -1133 0
-1140 1134 626 0
1140 -1134 0
1140 -626 0
-1141 520 1135 0
1141 -520 0
1141 -1135 0
-1142 664 1131 0
1142 -664 0
1142 -1131 0
-1143 711 1128 0
1143 -711 0
1143 -1128 0
-1144 1129 730 0
1144 -1129 0
1144 -730 0
-1145 1136 461 0
1145 -1136 0
1145 -461 0
-1146 1137 518 0
1146 -1137 0
1146 -518 0
-1147 1145 475 0
1147 -1145 0
1147 -475 0
-1148 507 1146 0
1148 -507 0
1148 -1146 0
-1149 1141 538 0
1149 -1141 0
1149 -538 0
-1150 1138 560 0
1150 -1138 0
1150 -560 0
-1151 1139 604 0
1151 -1139 0
1151 -604 0
-1152 668 1142 0
1152 -668 0
1152 -1142 0
-1153 699 1143 0
1153 -699 0
1153 -1143 0
-1154 1140 638 0
1154 -1140 0
1154 -638 0
-1155 446 1147 0
1155 -446 0
1155 -1147 0
-1156 505 1148 0
1156 -505 0
1156 -1148 0
-1157 544 1149 0
1157 -544 0
1157 -1149 0
-1158 558 1150 0
1158 -558 0
1158 -1150 0
-1159 620 1151 0
1159 -620 0
1159 -1151 0
-1160 1154 640 0
1160 -1154 0
1160 -640 0
-1161 680 1152 0
1161 -680 0
1161 -1152 0
-1162 1158 580 0
1162 -1158 0
1162 -580 0
-1163 610 1159 0
1163 -610 0
1163 -1159 0
-1164 1160 632 0
1164 -1160 0
1164 -632 0
-1165 546 1157 0
1165 -546 0
1165 -1157 0
-1166 1155 484 0
1166 -1155 0
1166 -484 0
-1167 1156 511 0
1167 -1156 0
1167 -511 0
-1168 449 1166 0
1168 -449 0
1168 -1166 0
-1169 500 1167 0
1169 -500 0
1169 -1167 0
-1170 528 1165 0
1170 -528 0
1170 -1165 0
-1171 1162 574 0
1171 -1162 0
1171 -574 0
-1172 1163 590 0
1172 -1163 0
1172 -590 0
-1173 1170 548 0
1173 -1170 0
1173 -548 0
-1174 570 1171 0
1174 -570 0
1174 -1171 0
-1175 1168 472 0
1175 -1168 0
1175 -472 0
-1176 1169 513 0
1176 -1169 0
1176 -513 0
-1177 466 1175 0
1177 -466 0
1177 -1175 0
-1178 514 1176 0
1178 -514 0
1178 -1176 0
-1179 540 1173 0
1179 -540 0
1179 -1173 0
-1180 1161 676 0
1180 -1161 0
1180 -676 0
-1181 612 1172 0
1181 -612 0
1181 -1172 0
-1182 524 1179 0
1182 -524 0
1182 -1179 0
-1183 1177 458 0
1183 -1177 0
1183 -458 0
-1184 1178 503 0
1184 -1178 0
1184 -503 0
-1185 1153 705 0
1185 -1153 0
1185 -705 0
-1186 1144 726 0
1186 -1144 0
1186 -726 0
-1187 469 1183 0
1187 -469 0
1187 -1183 0
-1188 1184 516 0
1188 -1184 0
1188 -516 0
-1189 1130 758 0
1189 -1130 0
1189 -758 0
-1190 636 1164 0
1190 -636 0
1190 -1164 0
-1191 787 1127 0
1191 -787 0
1191 -1127 0
-1192 588 1174 0
1192 -588 0
1192 -1174 0
-1193 1101 1102 0
1193 -1101 0
1193 -1102 0
-2 1187 464 0
2 -1187 0
2 -464 0
-1194 968 970 0
1194 -968 0
1194 -970 0
-1195 508 1188 0
1195 -508 0
1195 -1188 0
-4 526 1182 0
4 -526 0
4 -1182 0
-9 1192 576 0
9 -1192 0
9 -576 0
-17 608 1181 0
17 -608 0
17 -1181 0
-26 1190 644 0
26 -1190 0
26 -644 0
-325 922 924 926 0
325 -922 0
325 -924 0
325 -926 0
-38 1180 672 0
38 -1180 0
38 -672 0
-188 1058 842 0
188 -1058 0
188 -842 0
820 -251 -902 276 0
-820 251 0
-820 902 0
-820 -276 0
832 312 -286 -919 0
-832 -312 0
-832 286 0
-832 919 0
834 243 -217 -883 0
-834 -243 0
-834 217 0
-834 883 0
-52 695 1185 0
52 -695 0
52 -1185 0
-1196 937 938 0
1196 -937 0
1196 -938 0
-69 1186 716 0
69 -1186 0
69 -716 0
-363 941 943 0
363 -941 0
363 -943 0
-90 748 1189 0
90 -748 0
90 -1189 0
-1197 953 954 0
1197 -953 0
1197 -954 0
-111 773 1191 0
111 -773 0
111 -1191 0
-134 1193 797 0
134 -1193 0
134 -797 0
-1198 349 -812 0
1198 -349 0
1198 812 0
-1199 -349 812 0
1199 349 0
1199 -812 0
-1200 347 -346 0
1200 -347 0
1200 346 0
-1201 -347 346 0
1201 347 0
1201 -346 0
-1202 937 -348 0
1202 -937 0
1202 348 0
-1203 -937 348 0
1203 937 0
1203 -348 0
-1204 938 -939 0
1204 -938 0
1204 939 0
-1205 -938 939 0
1205 938 0
1205 -939 0
-1206 829 -830 0
1206 -829 0
1206 830 0
-1207 -829 830 0
1207 829 0
1207 -830 0
-1208 211 -210 0
1208 -211 0
1208 210 0
-1209 -211 210 0
1209 211 0
1209 -210 0
-1210 215 -822 0
1210 -215 0
1210 822 0
-1211 -215 822 0
1211 215 0
1211 -822 0
-1212 216 -212 0
1212 -216 0
1212 212 0
-1213 -216 212 0
1213 216 0
1213 -212 0
-1214 825 -826 0
1214 -825 0
1214 826 0
-1215 -825 826 0
1215 825 0
1215 -826 0
-1216 213 -800 0
1216 -213 0
1216 800 0
-1217 -213 800 0
1217 213 0
1217 -800 0
-1218 204 -203 0
1218 -204 0
1218 203 0
-1219 -204 203 0
1219 204 0
1219 -203 0
-1220 206 -719 0
1220 -206 0
1220 719 0
-1221 -206 719 0
1221 206 0
1221 -719 0
-1222 208 -763 0
1222 -208 0
1222 763 0
-1223 -208 763 0
1223 208 0
1223 -763 0
-1224 209 -205 0
1224 -209 0
1224 205 0
-1225 -209 205 0
1225 209 0
1225 -205 0
-1226 862 -207 0
1226 -862 0
1226 207 0
-1227 -862 207 0
1227 862 0
1227 -207 0
-1228 863 -784 0
1228 -863 0
1228 784 0
-1229 -863 784 0
1229 863 0
1229 -784 0
-1230 -210 974 0
1230 210 0
1230 -974 0
-1231 210 -974 0
1231 -210 0
1231 974 0
-1232 199 -635 0
1232 -199 0
1232 635 0
-1233 -199 635 0
1233 199 0
1233 -635 0
-1234 197 -196 0
1234 -197 0
1234 196 0
-1235 -197 196 0
1235 197 0
1235 -196 0
-1236 202 -657 0
1236 -202 0
1236 657 0
-1237 -202 657 0
1237 202 0
1237 -657 0
-1238 860 -200 0
1238 -860 0
1238 200 0
-1239 -860 200 0
1239 860 0
1239 -200 0
-1240 861 -690 0
1240 -861 0
1240 690 0
-1241 -861 690 0
1241 861 0
1241 -690 0
-1242 201 -198 0
1242 -201 0
1242 198 0
-1243 -201 198 0
1243 201 0
1243 -198 0
-1244 190 -189 0
1244 -190 0
1244 189 0
-1245 -190 189 0
1245 190 0
1245 -189 0
-1246 192 -551 0
1246 -192 0
1246 551 0
-1247 -192 551 0
1247 192 0
1247 -551 0
-1248 194 -565 0
1248 -194 0
1248 565 0
-1249 -194 565 0
1249 194 0
1249 -565 0
-1250 195 -191 0
1250 -195 0
1250 191 0
-1251 -195 191 0
1251 195 0
1251 -191 0
-1252 858 -193 0
1252 -858 0
1252 193 0
-1253 -858 193 0
1253 858 0
1253 -193 0
-1254 859 -597 0
1254 -859 0
1254 597 0
-1255 -859 597 0
1255 859 0
1255 -597 0
-1256 -196 975 0
1256 196 0
1256 -975 0
-1257 196 -975 0
1257 -196 0
1257 975 0
-1258 856 -453 0
1258 -856 0
1258 453 0
-1259 -856 453 0
1259 856 0
1259 -453 0
-1260 -189 976 0
1260 189 0
1260 -976 0
-1261 189 -976 0
1261 -189 0
1261 976 0
-1262 857 -454 0
1262 -857 0
1262 454 0
-1263 -857 454 0
1263 857 0
1263 -454 0
-1264 -203 977 0
1264 203 0
1264 -977 0
-1265 203 -977 0
1265 -203 0
1265 977 0
-1266 180 -743 0
1266 -180 0
1266 743 0
-1267 -180 743 0
1267 180 0
1267 -743 0
-1268 178 -177 0
1268 -178 0
1268 177 0
-1269 -178 177 0
1269 178 0
1269 -177 0
-1270 182 -179 0
1270 -182 0
1270 179 0
-1271 -182 179 0
1271 182 0
1271 -179 0
-1272 183 -780 0
1272 -183 0
1272 780 0
-1273 -183 780 0
1273 183 0
1273 -780 0
-1274 186 -808 0
1274 -186 0
1274 808 0
-1275 -186 808 0
1275 186 0
1275 -808 0
-1276 185 -181 0
1276 -185 0
1276 181 0
-1277 -185 181 0
1277 185 0
1277 -181 0
-1278 176 -175 0
1278 -176 0
1278 175 0
-1279 -176 175 0
1279 176 0
1279 -175 0
-1280 841 -721 0
1280 -841 0
1280 721 0
-1281 -841 721 0
1281 841 0
1281 -721 0
-1282 -177 978 0
1282 177 0
1282 -978 0
-1283 177 -978 0
1283 -177 0
1283 978 0
-1284 172 -171 0
1284 -172 0
1284 171 0
-1285 -172 171 0
1285 172 0
1285 -171 0
-1286 174 -659 0
1286 -174 0
1286 659 0
-1287 -174 659 0
1287 174 0
1287 -659 0
-1288 839 -173 0
1288 -839 0
1288 173 0
-1289 -839 173 0
1289 839 0
1289 -173 0
-1290 840 -692 0
1290 -840 0
1290 692 0
-1291 -840 692 0
1291 840 0
1291 -692 0
-1292 -175 979 0
1292 175 0
1292 -979 0
-1293 175 -979 0
1293 -175 0
1293 979 0
-1294 165 -164 0
1294 -165 0
1294 164 0
-1295 -165 164 0
1295 165 0
1295 -164 0
-1296 169 -166 0
1296 -169 0
1296 166 0
-1297 -169 166 0
1297 169 0
1297 -166 0
-1298 167 -585 0
1298 -167 0
1298 585 0
-1299 -167 585 0
1299 167 0
1299 -585 0
-1300 837 -651 0
1300 -837 0
1300 651 0
-1301 -837 651 0
1301 837 0
1301 -651 0
-1302 838 -168 0
1302 -838 0
1302 168 0
-1303 -838 168 0
1303 838 0
1303 -168 0
-1304 170 -595 0
1304 -170 0
1304 595 0
-1305 -170 595 0
1305 170 0
1305 -595 0
-1306 162 -444 0
1306 -162 0
1306 444 0
-1307 -162 444 0
1307 162 0
1307 -444 0
-1308 163 -445 0
1308 -163 0
1308 445 0
-1309 -163 445 0
1309 163 0
1309 -445 0
-1310 835 -537 0
1310 -835 0
1310 537 0
-1311 -835 537 0
1311 835 0
1311 -537 0
-1312 836 -161 0
1312 -836 0
1312 161 0
-1313 -836 161 0
1313 836 0
1313 -161 0
-1314 -164 980 0
1314 164 0
1314 -980 0
-1315 164 -980 0
1315 -164 0
1315 980 0
-1316 -159 160 0
1316 159 0
1316 -160 0
-1317 159 -160 0
1317 -159 0
1317 160 0
-1318 -171 982 0
1318 171 0
1318 -982 0
-1319 171 -982 0
1319 -171 0
1319 982 0
-1320 384 -751 0
1320 -384 0
1320 751 0
-1321 -384 751 0
1321 384 0
1321 -751 0
-1322 382 -381 0
1322 -382 0
1322 381 0
-1323 -382 381 0
1323 382 0
1323 -381 0
-1324 951 -383 0
1324 -951 0
1324 383 0
-1325 -951 383 0
1325 951 0
1325 -383 0
-1326 952 -776 0
1326 -952 0
1326 776 0
-1327 -952 776 0
1327 952 0
1327 -776 0
-1328 388 -810 0
1328 -388 0
1328 810 0
-1329 -388 810 0
1329 388 0
1329 -810 0
-1330 386 -385 0
1330 -386 0
1330 385 0
-1331 -386 385 0
1331 386 0
1331 -385 0
-1332 953 -387 0
1332 -953 0
1332 387 0
-1333 -953 387 0
1333 953 0
1333 -387 0
-1334 954 -955 0
1334 -954 0
1334 955 0
-1335 -954 955 0
1335 954 0
1335 -955 0
-1336 -385 983 0
1336 385 0
1336 -983 0
-1337 385 -983 0
1337 -385 0
1337 983 0
-1338 949 -733 0
1338 -949 0
1338 733 0
-1339 -949 733 0
1339 949 0
1339 -733 0
-1340 375 -374 0
1340 -375 0
1340 374 0
-1341 -375 374 0
1341 375 0
1341 -374 0
-1342 379 -688 0
1342 -379 0
1342 688 0
-1343 -379 688 0
1343 379 0
1343 -688 0
-1344 380 -376 0
1344 -380 0
1344 376 0
-1345 -380 376 0
1345 380 0
1345 -376 0
-1346 377 -663 0
1346 -377 0
1346 663 0
-1347 -377 663 0
1347 377 0
1347 -663 0
-1348 950 -378 0
1348 -950 0
1348 378 0
-1349 -950 378 0
1349 950 0
1349 -378 0
-1350 -381 984 0
1350 381 0
1350 -984 0
-1351 381 -984 0
1351 -381 0
1351 984 0
-1352 370 -567 0
1352 -370 0
1352 567 0
-1353 -370 567 0
1353 370 0
1353 -567 0
-1354 368 -367 0
1354 -368 0
1354 367 0
-1355 -368 367 0
1355 368 0
1355 -367 0
-1356 372 -607 0
1356 -372 0
1356 607 0
-1357 -372 607 0
1357 372 0
1357 -607 0
-1358 373 -369 0
1358 -373 0
1358 369 0
-1359 -373 369 0
1359 373 0
1359 -369 0
-1360 947 -653 0
1360 -947 0
1360 653 0
-1361 -947 653 0
1361 947 0
1361 -653 0
-1362 948 -371 0
1362 -948 0
1362 371 0
-1363 -948 371 0
1363 948 0
1363 -371 0
-1364 365 -498 0
1364 -365 0
1364 498 0
-1365 -365 498 0
1365 365 0
1365 -498 0
-1366 366 -499 0
1366 -366 0
1366 499 0
-1367 -366 499 0
1367 366 0
1367 -499 0
-1368 945 -535 0
1368 -945 0
1368 535 0
-1369 -945 535 0
1369 945 0
1369 -535 0
-1370 946 -364 0
1370 -946 0
1370 364 0
-1371 -946 364 0
1371 946 0
1371 -364 0
-1372 -367 985 0
1372 367 0
1372 -985 0
-1373 367 -985 0
1373 -367 0
1373 985 0
-1374 -374 986 0
1374 374 0
1374 -986 0
-1375 374 -986 0
1375 -374 0
1375 986 0
-1376 827 -828 0
1376 -827 0
1376 828 0
-1377 -827 828 0
1377 827 0
1377 -828 0
-1378 422 -757 0
1378 -422 0
1378 757 0
-1379 -422 757 0
1379 422 0
1379 -757 0
-1380 420 -419 0
1380 -420 0
1380 419 0
-1381 -420 419 0
1381 420 0
1381 -419 0
-1382 966 -421 0
1382 -966 0
1382 421 0
-1383 -966 421 0
1383 966 0
1383 -421 0
-1384 967 -782 0
1384 -967 0
1384 782 0
-1385 -967 782 0
1385 967 0
1385 -782 0
-1386 424 -423 0
1386 -424 0
1386 423 0
-1387 -424 423 0
1387 424 0
1387 -423 0
-1388 426 -802 0
1388 -426 0
1388 802 0
-1389 -426 802 0
1389 426 0
1389 -802 0
-1390 968 -969 0
1390 -968 0
1390 969 0
-1391 -968 969 0
1391 968 0
1391 -969 0
-1392 970 -425 0
1392 -970 0
1392 425 0
-1393 -970 425 0
1393 970 0
1393 -425 0
-1394 -423 999 0
1394 423 0
1394 -999 0
-1395 423 -999 0
1395 -423 0
1395 999 0
-1396 415 -671 0
1396 -415 0
1396 671 0
-1397 -415 671 0
1397 415 0
1397 -671 0
-1398 413 -412 0
1398 -413 0
1398 412 0
-1399 -413 412 0
1399 413 0
1399 -412 0
-1400 417 -698 0
1400 -417 0
1400 698 0
-1401 -417 698 0
1401 417 0
1401 -698 0
-1402 418 -414 0
1402 -418 0
1402 414 0
-1403 -418 414 0
1403 418 0
1403 -414 0
-1404 964 -723 0
1404 -964 0
1404 723 0
-1405 -964 723 0
1405 964 0
1405 -723 0
-1406 965 -416 0
1406 -965 0
1406 416 0
-1407 -965 416 0
1407 965 0
1407 -416 0
-1408 -419 1000 0
1408 419 0
1408 -1000 0
-1409 419 -1000 0
1409 -419 0
1409 1000 0
-1410 406 -405 0
1410 -406 0
1410 405 0
-1411 -406 405 0
1411 406 0
1411 -405 0
-1412 408 -573 0
1412 -408 0
1412 573 0
-1413 -408 573 0
1413 408 0
1413 -573 0
-1414 410 -599 0
1414 -410 0
1414 599 0
-1415 -410 599 0
1415 410 0
1415 -599 0
-1416 411 -407 0
1416 -411 0
1416 407 0
-1417 -411 407 0
1417 411 0
1417 -407 0
-1418 962 -643 0
1418 -962 0
1418 643 0
-1419 -962 643 0
1419 962 0
1419 -643 0
-1420 963 -409 0
1420 -963 0
1420 409 0
-1421 -963 409 0
1421 963 0
1421 -409 0
-1422 403 -493 0
1422 -403 0
1422 493 0
-1423 -403 493 0
1423 403 0
1423 -493 0
-1424 404 -492 0
1424 -404 0
1424 492 0
-1425 -404 492 0
1425 404 0
1425 -492 0
-1426 960 -402 0
1426 -960 0
1426 402 0
-1427 -960 402 0
1427 960 0
1427 -402 0
-1428 961 -555 0
1428 -961 0
1428 555 0
-1429 -961 555 0
1429 961 0
1429 -555 0
-1430 -405 1001 0
1430 405 0
1430 -1001 0
-1431 405 -1001 0
1431 -405 0
1431 1001 0
-1432 -412 1002 0
1432 412 0
1432 -1002 0
-1433 412 -1002 0
1433 -412 0
1433 1002 0
-1434 823 -824 0
1434 -823 0
1434 824 0
-1435 -823 824 0
1435 823 0
1435 -824 0
-1436 327 -495 0
1436 -327 0
1436 495 0
-1437 -327 495 0
1437 327 0
1437 -495 0
-1438 328 -496 0
1438 -328 0
1438 496 0
-1439 -328 496 0
1439 328 0
1439 -496 0
-1440 928 -326 0
1440 -928 0
1440 326 0
-1441 -928 326 0
1441 928 0
1441 -326 0
-1442 929 -531 0
1442 -929 0
1442 531 0
-1443 -929 531 0
1443 929 0
1443 -531 0
-1444 332 -557 0
1444 -332 0
1444 557 0
-1445 -332 557 0
1445 332 0
1445 -557 0
-1446 330 -329 0
1446 -330 0
1446 329 0
-1447 -330 329 0
1447 330 0
1447 -329 0
-1448 930 -619 0
1448 -930 0
1448 619 0
-1449 -930 619 0
1449 930 0
1449 -619 0
-1450 931 -331 0
1450 -931 0
1450 331 0
-1451 -931 331 0
1451 931 0
1451 -331 0
-1452 -329 1015 0
1452 329 0
1452 -1015 0
-1453 329 -1015 0
1453 -329 0
1453 1015 0
-1454 336 -631 0
1454 -336 0
1454 631 0
-1455 -336 631 0
1455 336 0
1455 -631 0
-1456 334 -333 0
1456 -334 0
1456 333 0
-1457 -334 333 0
1457 334 0
1457 -333 0
-1458 932 -667 0
1458 -932 0
1458 667 0
-1459 -932 667 0
1459 932 0
1459 -667 0
-1460 933 -335 0
1460 -933 0
1460 335 0
-1461 -933 335 0
1461 933 0
1461 -335 0
-1462 -333 1016 0
1462 333 0
1462 -1016 0
-1463 333 -1016 0
1463 -333 0
1463 1016 0
-1464 338 -337 0
1464 -338 0
1464 337 0
-1465 -338 337 0
1465 338 0
1465 -337 0
-1466 342 -739 0
1466 -342 0
1466 739 0
-1467 -342 739 0
1467 342 0
1467 -739 0
-1468 343 -339 0
1468 -343 0
1468 339 0
-1469 -343 339 0
1469 343 0
1469 -339 0
-1470 934 -747 0
1470 -934 0
1470 747 0
-1471 -934 747 0
1471 934 0
1471 -747 0
-1472 935 -341 0
1472 -935 0
1472 341 0
-1473 -935 341 0
1473 935 0
1473 -341 0
-1474 345 -344 0
1474 -345 0
1474 344 0
-1475 -345 344 0
1475 345 0
1475 -344 0
-1476 936 -772 0
1476 -936 0
1476 772 0
-1477 -936 772 0
1477 936 0
1477 -772 0
-1478 -344 1017 0
1478 344 0
1478 -1017 0
-1479 344 -1017 0
1479 -344 0
1479 1017 0
-1480 340 -694 0
1480 -340 0
1480 694 0
-1481 -340 694 0
1481 340 0
1481 -694 0
-1482 -337 1018 0
1482 337 0
1482 -1018 0
-1483 337 -1018 0
1483 -337 0
1483 1018 0
-1484 -346 1030 0
1484 346 0
1484 -1030 0
-1485 346 -1030 0
1485 -346 0
1485 1030 0
-1486 428 -427 0
1486 -428 0
1486 427 0
-1487 -428 427 0
1487 428 0
1487 -427 0
-1488 432 -865 0
1488 -432 0
1488 865 0
-1489 -432 865 0
1489 432 0
1489 -865 0
-1490 433 -429 0
1490 -433 0
1490 429 0
-1491 -433 429 0
1491 433 0
1491 -429 0
-1492 971 -431 0
1492 -971 0
1492 431 0
-1493 -971 431 0
1493 971 0
1493 -431 0
-1494 972 -889 0
1494 -972 0
1494 889 0
-1495 -972 889 0
1495 972 0
1495 -889 0
-1496 973 -911 0
1496 -973 0
1496 911 0
-1497 -973 911 0
1497 973 0
1497 -911 0
-1498 435 -434 0
1498 -435 0
1498 434 0
-1499 -435 434 0
1499 435 0
1499 -434 0
-1500 -434 1031 0
1500 434 0
1500 -1031 0
-1501 434 -1031 0
1501 -434 0
1501 1031 0
-1502 430 -849 0
1502 -430 0
1502 849 0
-1503 -430 849 0
1503 430 0
1503 -849 0
-1504 437 -436 0
1504 -437 0
1504 436 0
-1505 -437 436 0
1505 437 0
1505 -436 0
-1506 439 -923 0
1506 -439 0
1506 923 0
-1507 -439 923 0
1507 439 0
1507 -923 0
-1508 441 -438 0
1508 -441 0
1508 438 0
-1509 -441 438 0
1509 441 0
1509 -438 0
-1510 442 -942 0
1510 -442 0
1510 942 0
-1511 -442 942 0
1511 442 0
1511 -942 0
-1512 924 -925 0
1512 -924 0
1512 925 0
-1513 -924 925 0
1513 924 0
1513 -925 0
-1514 943 -944 0
1514 -943 0
1514 944 0
-1515 -943 944 0
1515 943 0
1515 -944 0
-1516 -436 1032 0
1516 436 0
1516 -1032 0
-1517 436 -1032 0
1517 -436 0
1517 1032 0
-1518 390 -389 0
1518 -390 0
1518 389 0
-1519 -390 389 0
1519 390 0
1519 -389 0
-1520 394 -391 0
1520 -394 0
1520 391 0
-1521 -394 391 0
1521 394 0
1521 -391 0
-1522 395 -873 0
1522 -395 0
1522 873 0
-1523 -395 873 0
1523 395 0
1523 -873 0
-1524 956 -885 0
1524 -956 0
1524 885 0
-1525 -956 885 0
1525 956 0
1525 -885 0
-1526 957 -393 0
1526 -957 0
1526 393 0
-1527 -957 393 0
1527 957 0
1527 -393 0
-1528 397 -396 0
1528 -397 0
1528 396 0
-1529 -397 396 0
1529 397 0
1529 -396 0
-1530 958 -907 0
1530 -958 0
1530 907 0
-1531 -958 907 0
1531 958 0
1531 -907 0
-1532 -396 1033 0
1532 396 0
1532 -1033 0
-1533 396 -1033 0
1533 -396 0
1533 1033 0
-1534 392 -845 0
1534 -392 0
1534 845 0
-1535 -392 845 0
1535 392 0
1535 -845 0
-1536 401 -959 0
1536 -401 0
1536 959 0
-1537 -401 959 0
1537 401 0
1537 -959 0
-1538 399 -398 0
1538 -399 0
1538 398 0
-1539 -399 398 0
1539 399 0
1539 -398 0
-1540 -398 1034 0
1540 398 0
1540 -1034 0
-1541 398 -1034 0
1541 -398 0
1541 1034 0
-1542 355 -867 0
1542 -355 0
1542 867 0
-1543 -355 867 0
1543 355 0
1543 -867 0
-1544 353 -352 0
1544 -353 0
1544 352 0
-1545 -353 352 0
1545 353 0
1545 -352 0
-1546 357 -354 0
1546 -357 0
1546 354 0
-1547 -357 354 0
1547 357 0
1547 -354 0
-1548 358 -891 0
1548 -358 0
1548 891 0
-1549 -358 891 0
1549 358 0
1549 -891 0
-1550 360 -909 0
1550 -360 0
1550 909 0
-1551 -360 909 0
1551 360 0
1551 -909 0
-1552 361 -356 0
1552 -361 0
1552 356 0
-1553 -361 356 0
1553 361 0
1553 -356 0
-1554 351 -350 0
1554 -351 0
1554 350 0
-1555 -351 350 0
1555 351 0
1555 -350 0
-1556 940 -851 0
1556 -940 0
1556 851 0
-1557 -940 851 0
1557 940 0
1557 -851 0
-1558 -352 1035 0
1558 352 0
1558 -1035 0
-1559 352 -1035 0
1559 -352 0
1559 1035 0
-1560 320 -869 0
1560 -320 0
1560 869 0
-1561 -320 869 0
1561 320 0
1561 -869 0
-1562 318 -317 0
1562 -318 0
1562 317 0
-1563 -318 317 0
1563 318 0
1563 -317 0
-1564 322 -319 0
1564 -322 0
1564 319 0
-1565 -322 319 0
1565 322 0
1565 -319 0
-1566 323 -893 0
1566 -323 0
1566 893 0
-1567 -323 893 0
1567 323 0
1567 -893 0
-1568 874 -875 0
1568 -874 0
1568 875 0
-1569 -874 875 0
1569 874 0
1569 -875 0
-1570 886 -887 0
1570 -886 0
1570 887 0
-1571 -886 887 0
1571 886 0
1571 -887 0
-1572 282 -853 0
1572 -282 0
1572 853 0
-1573 -282 853 0
1573 282 0
1573 -853 0
-1574 280 -279 0
1574 -280 0
1574 279 0
-1575 -280 279 0
1575 280 0
1575 -279 0
-1576 285 -281 0
1576 -285 0
1576 281 0
-1577 -285 281 0
1577 285 0
1577 -281 0
-1578 284 -871 0
1578 -284 0
1578 871 0
-1579 -284 871 0
1579 284 0
1579 -871 0
-1580 904 -905 0
1580 -904 0
1580 905 0
-1581 -904 905 0
1581 904 0
1581 -905 0
-1582 926 -927 0
1582 -926 0
1582 927 0
-1583 -926 927 0
1583 926 0
1583 -927 0
-1584 302 -301 0
1584 -302 0
1584 301 0
-1585 -302 301 0
1585 302 0
1585 -301 0
-1586 306 -729 0
1586 -306 0
1586 729 0
-1587 -306 729 0
1587 306 0
1587 -729 0
-1588 307 -303 0
1588 -307 0
1588 303 0
-1589 -307 303 0
1589 307 0
1589 -303 0
-1590 916 -305 0
1590 -916 0
1590 305 0
-1591 -916 305 0
1591 916 0
1591 -305 0
-1592 917 -755 0
1592 -917 0
1592 755 0
-1593 -917 755 0
1593 917 0
1593 -755 0
-1594 309 -308 0
1594 -309 0
1594 308 0
-1595 -309 308 0
1595 309 0
1595 -308 0
-1596 918 -778 0
1596 -918 0
1596 778 0
-1597 -918 778 0
1597 918 0
1597 -778 0
-1598 -308 1047 0
1598 308 0
1598 -1047 0
-1599 308 -1047 0
1599 -308 0
1599 1047 0
-1600 304 -708 0
1600 -304 0
1600 708 0
-1601 -304 708 0
1601 304 0
1601 -708 0
-1602 313 -806 0
1602 -313 0
1602 806 0
-1603 -313 806 0
1603 313 0
1603 -806 0
-1604 311 -310 0
1604 -311 0
1604 310 0
-1605 -311 310 0
1605 311 0
1605 -310 0
-1606 315 -919 0
1606 -315 0
1606 919 0
-1607 -315 919 0
1607 315 0
1607 -919 0
-1608 316 -312 0
1608 -316 0
1608 312 0
-1609 -316 312 0
1609 316 0
1609 -312 0
-1610 920 -847 0
1610 -920 0
1610 847 0
-1611 -920 847 0
1611 920 0
1611 -847 0
-1612 921 -314 0
1612 -921 0
1612 314 0
-1613 -921 314 0
1613 921 0
1613 -314 0
-1614 -310 1048 0
1614 310 0
1614 -1048 0
-1615 310 -1048 0
1615 -310 0
1615 1048 0
-1616 295 -291 0
1616 -295 0
1616 291 0
-1617 -295 291 0
1617 295 0
1617 -291 0
-1618 296 -563 0
1618 -296 0
1618 563 0
-1619 -296 563 0
1619 296 0
1619 -563 0
-1620 912 -294 0
1620 -912 0
1620 294 0
-1621 -912 294 0
1621 912 0
1621 -294 0
-1622 913 -593 0
1622 -913 0
1622 593 0
-1623 -913 593 0
1623 913 0
1623 -593 0
-1624 289 -482 0
1624 -289 0
1624 482 0
-1625 -289 482 0
1625 289 0
1625 -482 0
-1626 290 -483 0
1626 -290 0
1626 483 0
-1627 -290 483 0
1627 290 0
1627 -483 0
-1628 293 -288 0
1628 -293 0
1628 288 0
-1629 -293 288 0
1629 293 0
1629 -288 0
-1630 292 -543 0
1630 -292 0
1630 543 0
-1631 -292 543 0
1631 292 0
1631 -543 0
-1632 300 -625 0
1632 -300 0
1632 625 0
-1633 -300 625 0
1633 300 0
1633 -625 0
-1634 298 -297 0
1634 -298 0
1634 297 0
-1635 -298 297 0
1635 298 0
1635 -297 0
-1636 914 -299 0
1636 -914 0
1636 299 0
-1637 -914 299 0
1637 914 0
1637 -299 0
-1638 915 -679 0
1638 -915 0
1638 679 0
-1639 -915 679 0
1639 915 0
1639 -679 0
-1640 -297 1049 0
1640 297 0
1640 -1049 0
-1641 297 -1049 0
1641 -297 0
1641 1049 0
-1642 -301 1050 0
1642 301 0
1642 -1050 0
-1643 301 -1050 0
1643 -301 0
1643 1050 0
-1644 -286 287 0
1644 286 0
1644 -287 0
-1645 286 -287 0
1645 -286 0
1645 287 0
-1646 -317 1052 0
1646 317 0
1646 -1052 0
-1647 317 -1052 0
1647 -317 0
1647 1052 0
-1648 233 -232 0
1648 -233 0
1648 232 0
-1649 -233 232 0
1649 233 0
1649 -232 0
-1650 237 -735 0
1650 -237 0
1650 735 0
-1651 -237 735 0
1651 237 0
1651 -735 0
-1652 238 -234 0
1652 -238 0
1652 234 0
-1653 -238 234 0
1653 238 0
1653 -234 0
-1654 880 -236 0
1654 -880 0
1654 236 0
-1655 -880 236 0
1655 880 0
1655 -236 0
-1656 881 -753 0
1656 -881 0
1656 753 0
-1657 -881 753 0
1657 881 0
1657 -753 0
-1658 882 -786 0
1658 -882 0
1658 786 0
-1659 -882 786 0
1659 882 0
1659 -786 0
-1660 240 -239 0
1660 -240 0
1660 239 0
-1661 -240 239 0
1661 240 0
1661 -239 0
-1662 -239 1053 0
1662 239 0
1662 -1053 0
-1663 239 -1053 0
1663 -239 0
1663 1053 0
-1664 235 -710 0
1664 -235 0
1664 710 0
-1665 -235 710 0
1665 235 0
1665 -710 0
-1666 242 -241 0
1666 -242 0
1666 241 0
-1667 -242 241 0
1667 242 0
1667 -241 0
-1668 244 -804 0
1668 -244 0
1668 804 0
-1669 -244 804 0
1669 244 0
1669 -804 0
-1670 246 -883 0
1670 -246 0
1670 883 0
-1671 -246 883 0
1671 246 0
1671 -883 0
-1672 247 -243 0
1672 -247 0
1672 243 0
-1673 -247 243 0
1673 247 0
1673 -243 0
-1674 249 -245 0
1674 -249 0
1674 245 0
-1675 -249 245 0
1675 249 0
1675 -245 0
-1676 250 -855 0
1676 -250 0
1676 855 0
-1677 -250 855 0
1677 250 0
1677 -855 0
-1678 -241 1054 0
1678 241 0
1678 -1054 0
-1679 241 -1054 0
1679 -241 0
1679 1054 0
-1680 220 -479 0
1680 -220 0
1680 479 0
-1681 -220 479 0
1681 220 0
1681 -479 0
-1682 221 -480 0
1682 -221 0
1682 480 0
-1683 -221 480 0
1683 221 0
1683 -480 0
-1684 226 -222 0
1684 -226 0
1684 222 0
-1685 -226 222 0
1685 226 0
1685 -222 0
-1686 227 -587 0
1686 -227 0
1686 587 0
-1687 -227 587 0
1687 227 0
1687 -587 0
-1688 876 -603 0
1688 -876 0
1688 603 0
-1689 -876 603 0
1689 876 0
1689 -603 0
-1690 877 -225 0
1690 -877 0
1690 225 0
-1691 -877 225 0
1691 877 0
1691 -225 0
-1692 223 -533 0
1692 -223 0
1692 533 0
-1693 -223 533 0
1693 223 0
1693 -533 0
-1694 224 -219 0
1694 -224 0
1694 219 0
-1695 -224 219 0
1695 224 0
1695 -219 0
-1696 229 -228 0
1696 -229 0
1696 228 0
-1697 -229 228 0
1697 229 0
1697 -228 0
-1698 231 -649 0
1698 -231 0
1698 649 0
-1699 -231 649 0
1699 231 0
1699 -649 0
-1700 878 -683 0
1700 -878 0
1700 683 0
-1701 -878 683 0
1701 878 0
1701 -683 0
-1702 879 -230 0
1702 -879 0
1702 230 0
-1703 -879 230 0
1703 879 0
1703 -230 0
-1704 -228 1055 0
1704 228 0
1704 -1055 0
-1705 228 -1055 0
1705 -228 0
1705 1055 0
-1706 -232 1056 0
1706 232 0
1706 -1056 0
-1707 232 -1056 0
1707 -232 0
1707 1056 0
-1708 842 -843 0
1708 -842 0
1708 843 0
-1709 -842 843 0
1709 842 0
1709 -843 0
-1710 -217 218 0
1710 217 0
1710 -218 0
-1711 217 -218 0
1711 -217 0
1711 218 0
-1712 264 -263 0
1712 -264 0
1712 263 0
-1713 -264 263 0
1713 264 0
1713 -263 0
-1714 268 -265 0
1714 -268 0
1714 265 0
-1715 -268 265 0
1715 268 0
1715 -265 0
-1716 269 -704 0
1716 -269 0
1716 704 0
-1717 -269 704 0
1717 269 0
1717 -704 0
-1718 898 -725 0
1718 -898 0
1718 725 0
-1719 -898 725 0
1719 898 0
1719 -725 0
-1720 899 -267 0
1720 -899 0
1720 267 0
-1721 -899 267 0
1721 899 0
1721 -267 0
-1722 271 -270 0
1722 -271 0
1722 270 0
-1723 -271 270 0
1723 271 0
1723 -270 0
-1724 900 -761 0
1724 -900 0
1724 761 0
-1725 -900 761 0
1725 900 0
1725 -761 0
-1726 -270 1059 0
1726 270 0
1726 -1059 0
-1727 270 -1059 0
1727 -270 0
1727 1059 0
-1728 266 -675 0
1728 -266 0
1728 675 0
-1729 -266 675 0
1729 266 0
1729 -675 0
-1730 275 -770 0
1730 -275 0
1730 770 0
-1731 -275 770 0
1731 275 0
1731 -770 0
-1732 273 -272 0
1732 -273 0
1732 272 0
-1733 -273 272 0
1733 273 0
1733 -272 0
-1734 277 -796 0
1734 -277 0
1734 796 0
-1735 -277 796 0
1735 277 0
1735 -796 0
-1736 278 -274 0
1736 -278 0
1736 274 0
-1737 -278 274 0
1737 278 0
1737 -274 0
-1738 901 -902 0
1738 -901 0
1738 902 0
-1739 -901 902 0
1739 901 0
1739 -902 0
-1740 903 -276 0
1740 -903 0
1740 276 0
-1741 -903 276 0
1741 903 0
1741 -276 0
-1742 -272 1060 0
1742 272 0
1742 -1060 0
-1743 272 -1060 0
1743 -272 0
1743 1060 0
-1744 257 -256 0
1744 -257 0
1744 256 0
-1745 -257 256 0
1745 257 0
1745 -256 0
-1746 259 -569 0
1746 -259 0
1746 569 0
-1747 -259 569 0
1747 259 0
1747 -569 0
-1748 261 -258 0
1748 -261 0
1748 258 0
-1749 -261 258 0
1749 261 0
1749 -258 0
-1750 262 -617 0
1750 -262 0
1750 617 0
-1751 -262 617 0
1751 262 0
1751 -617 0
-1752 896 -260 0
1752 -896 0
1752 260 0
-1753 -896 260 0
1753 896 0
1753 -260 0
-1754 897 -629 0
1754 -897 0
1754 629 0
-1755 -897 629 0
1755 897 0
1755 -629 0
-1756 254 -489 0
1756 -254 0
1756 489 0
-1757 -254 489 0
1757 254 0
1757 -489 0
-1758 255 -488 0
1758 -255 0
1758 488 0
-1759 -255 488 0
1759 255 0
1759 -488 0
-1760 894 -523 0
1760 -894 0
1760 523 0
-1761 -894 523 0
1761 894 0
1761 -523 0
-1762 895 -253 0
1762 -895 0
1762 253 0
-1763 -895 253 0
1763 895 0
1763 -253 0
-1764 -256 1061 0
1764 256 0
1764 -1061 0
-1765 256 -1061 0
1765 -256 0
1765 1061 0
-1766 -263 1062 0
1766 263 0
1766 -1062 0
-1767 263 -1062 0
1767 -263 0
1767 1062 0
-1768 -251 252 0
1768 251 0
1768 -252 0
-1769 251 -252 0
1769 -251 0
1769 252 0
-1770 -279 1075 0
1770 279 0
1770 -1075 0
-1771 279 -1075 0
1771 -279 0
1771 1075 0
-1772 139 -138 0
1772 -139 0
1772 138 0
-1773 -139 138 0
1773 139 0
1773 -138 0
-1774 141 -583 0
1774 -141 0
1774 583 0
-1775 -141 583 0
1775 141 0
1775 -583 0
-1776 143 -601 0
1776 -143 0
1776 601 0
-1777 -143 601 0
1777 143 0
1777 -601 0
-1778 144 -140 0
1778 -144 0
1778 140 0
-1779 -144 140 0
1779 144 0
1779 -140 0
-1780 815 -647 0
1780 -815 0
1780 647 0
-1781 -815 647 0
1781 815 0
1781 -647 0
-1782 816 -142 0
1782 -816 0
1782 142 0
-1783 -816 142 0
1783 816 0
1783 -142 0
-1784 137 -456 0
1784 -137 0
1784 456 0
-1785 -137 456 0
1785 137 0
1785 -456 0
-1786 136 -457 0
1786 -136 0
1786 457 0
-1787 -136 457 0
1787 136 0
1787 -457 0
-1788 813 -553 0
1788 -813 0
1788 553 0
-1789 -813 553 0
1789 813 0
1789 -553 0
-1790 814 -135 0
1790 -814 0
1790 135 0
-1791 -814 135 0
1791 814 0
1791 -135 0
-1792 -138 1076 0
1792 138 0
1792 -1076 0
-1793 138 -1076 0
1793 -138 0
1793 1076 0
-1794 148 -661 0
1794 -148 0
1794 661 0
-1795 -148 661 0
1795 148 0
1795 -661 0
-1796 146 -145 0
1796 -146 0
1796 145 0
-1797 -146 145 0
1797 146 0
1797 -145 0
-1798 150 -147 0
1798 -150 0
1798 147 0
-1799 -150 147 0
1799 150 0
1799 -147 0
-1800 151 -702 0
1800 -151 0
1800 702 0
-1801 -151 702 0
1801 151 0
1801 -702 0
-1802 817 -737 0
1802 -817 0
1802 737 0
-1803 -817 737 0
1803 817 0
1803 -737 0
-1804 818 -149 0
1804 -818 0
1804 149 0
-1805 -818 149 0
1805 818 0
1805 -149 0
-1806 155 -745 0
1806 -155 0
1806 745 0
-1807 -155 745 0
1807 155 0
1807 -745 0
-1808 153 -152 0
1808 -153 0
1808 152 0
-1809 -153 152 0
1809 153 0
1809 -152 0
-1810 157 -154 0
1810 -157 0
1810 154 0
-1811 -157 154 0
1811 157 0
1811 -154 0
-1812 158 -788 0
1812 -158 0
1812 788 0
-1813 -158 788 0
1813 158 0
1813 -788 0
-1814 -152 1077 0
1814 152 0
1814 -1077 0
-1815 152 -1077 0
1815 -152 0
1815 1077 0
-1816 -145 1078 0
1816 145 0
1816 -1078 0
-1817 145 -1078 0
1817 -145 0
1817 1078 0
-1818 126 -712 0
1818 -126 0
1818 712 0
-1819 -126 712 0
1819 126 0
1819 -712 0
-1820 124 -123 0
1820 -124 0
1820 123 0
-1821 -124 123 0
1821 124 0
1821 -123 0
-1822 128 -731 0
1822 -128 0
1822 731 0
-1823 -128 731 0
1823 128 0
1823 -731 0
-1824 129 -125 0
1824 -129 0
1824 125 0
-1825 -129 125 0
1825 129 0
1825 -125 0
-1826 131 -127 0
1826 -131 0
1826 127 0
-1827 -131 127 0
1827 131 0
1827 -127 0
-1828 132 -759 0
1828 -132 0
1828 759 0
-1829 -132 759 0
1829 132 0
1829 -759 0
-1830 122 -121 0
1830 -122 0
1830 121 0
-1831 -122 121 0
1831 122 0
1831 -121 0
-1832 794 -665 0
1832 -794 0
1832 665 0
-1833 -794 665 0
1833 794 0
1833 -665 0
-1834 -123 1079 0
1834 123 0
1834 -1079 0
-1835 123 -1079 0
1835 -123 0
1835 1079 0
-1836 117 -114 0
1836 -117 0
1836 114 0
-1837 -117 114 0
1837 117 0
1837 -114 0
-1838 118 -579 0
1838 -118 0
1838 579 0
-1839 -118 579 0
1839 118 0
1839 -579 0
-1840 791 -615 0
1840 -791 0
1840 615 0
-1841 -791 615 0
1841 791 0
1841 -615 0
-1842 792 -116 0
1842 -792 0
1842 116 0
-1843 -792 116 0
1843 792 0
1843 -116 0
-1844 113 -112 0
1844 -113 0
1844 112 0
-1845 -113 112 0
1845 113 0
1845 -112 0
-1846 120 -119 0
1846 -120 0
1846 119 0
-1847 -120 119 0
1847 120 0
1847 -119 0
-1848 793 -627 0
1848 -793 0
1848 627 0
-1849 -793 627 0
1849 793 0
1849 -627 0
-1850 -119 1080 0
1850 119 0
1850 -1080 0
-1851 119 -1080 0
1851 -119 0
1851 1080 0
-1852 115 -521 0
1852 -115 0
1852 521 0
-1853 -115 521 0
1853 115 0
1853 -521 0
-1854 -121 1081 0
1854 121 0
1854 -1081 0
-1855 121 -1081 0
1855 -121 0
1855 1081 0
-1856 789 -462 0
1856 -789 0
1856 462 0
-1857 -789 462 0
1857 789 0
1857 -462 0
-1858 790 -463 0
1858 -790 0
1858 463 0
-1859 -790 463 0
1859 790 0
1859 -463 0
-1860 -112 1082 0
1860 112 0
1860 -1082 0
-1861 112 -1082 0
1861 -112 0
1861 1082 0
-1862 92 -91 0
1862 -92 0
1862 91 0
-1863 -92 91 0
1863 92 0
1863 -91 0
-1864 96 -561 0
1864 -96 0
1864 561 0
-1865 -96 561 0
1865 96 0
1865 -561 0
-1866 97 -93 0
1866 -97 0
1866 93 0
-1867 -97 93 0
1867 97 0
1867 -93 0
-1868 766 -95 0
1868 -766 0
1868 95 0
-1869 -766 95 0
1869 766 0
1869 -95 0
-1870 767 -605 0
1870 -767 0
1870 605 0
-1871 -767 605 0
1871 767 0
1871 -605 0
-1872 768 -639 0
1872 -768 0
1872 639 0
-1873 -768 639 0
1873 768 0
1873 -639 0
-1874 99 -98 0
1874 -99 0
1874 98 0
-1875 -99 98 0
1875 99 0
1875 -98 0
-1876 -98 1083 0
1876 98 0
1876 -1083 0
-1877 98 -1083 0
1877 -98 0
1877 1083 0
-1878 94 -539 0
1878 -94 0
1878 539 0
-1879 -94 539 0
1879 94 0
1879 -539 0
-1880 101 -100 0
1880 -101 0
1880 100 0
-1881 -101 100 0
1881 101 0
1881 -100 0
-1882 103 -669 0
1882 -103 0
1882 669 0
-1883 -103 669 0
1883 103 0
1883 -669 0
-1884 105 -700 0
1884 -105 0
1884 700 0
-1885 -105 700 0
1885 105 0
1885 -700 0
-1886 106 -102 0
1886 -106 0
1886 102 0
-1887 -106 102 0
1887 106 0
1887 -102 0
-1888 108 -727 0
1888 -108 0
1888 727 0
-1889 -108 727 0
1889 108 0
1889 -727 0
-1890 109 -104 0
1890 -109 0
1890 104 0
-1891 -109 104 0
1891 109 0
1891 -104 0
-1892 -100 1084 0
1892 100 0
1892 -1084 0
-1893 100 -1084 0
1893 -100 0
1893 1084 0
-1894 764 -476 0
1894 -764 0
1894 476 0
-1895 -764 476 0
1895 764 0
1895 -476 0
-1896 765 -477 0
1896 -765 0
1896 477 0
-1897 -765 477 0
1897 765 0
1897 -477 0
-1898 -91 1085 0
1898 91 0
1898 -1085 0
-1899 91 -1085 0
1899 -91 0
1899 1085 0
-1900 71 -448 0
1900 -71 0
1900 448 0
-1901 -71 448 0
1901 71 0
1901 -448 0
-1902 72 -447 0
1902 -72 0
1902 447 0
-1903 -72 447 0
1903 72 0
1903 -447 0
-1904 77 -73 0
1904 -77 0
1904 73 0
-1905 -77 73 0
1905 77 0
1905 -73 0
-1906 78 -559 0
1906 -78 0
1906 559 0
-1907 -78 559 0
1907 78 0
1907 -559 0
-1908 740 -76 0
1908 -740 0
1908 76 0
-1909 -740 76 0
1909 740 0
1909 -76 0
-1910 741 -621 0
1910 -741 0
1910 621 0
-1911 -741 621 0
1911 741 0
1911 -621 0
-1912 74 -70 0
1912 -74 0
1912 70 0
-1913 -74 70 0
1913 74 0
1913 -70 0
-1914 75 -545 0
1914 -75 0
1914 545 0
-1915 -75 545 0
1915 75 0
1915 -545 0
-1916 82 -641 0
1916 -82 0
1916 641 0
-1917 -82 641 0
1917 82 0
1917 -641 0
-1918 80 -79 0
1918 -80 0
1918 79 0
-1919 -80 79 0
1919 80 0
1919 -79 0
-1920 84 -81 0
1920 -84 0
1920 81 0
-1921 -84 81 0
1921 84 0
1921 -81 0
-1922 85 -681 0
1922 -85 0
1922 681 0
-1923 -85 681 0
1923 85 0
1923 -681 0
-1924 87 -706 0
1924 -87 0
1924 706 0
-1925 -87 706 0
1925 87 0
1925 -706 0
-1926 88 -83 0
1926 -88 0
1926 83 0
-1927 -88 83 0
1927 88 0
1927 -83 0
-1928 -79 1086 0
1928 79 0
1928 -1086 0
-1929 79 -1086 0
1929 -79 0
1929 1086 0
-1930 54 -486 0
1930 -54 0
1930 486 0
-1931 -54 486 0
1931 54 0
1931 -486 0
-1932 55 -485 0
1932 -55 0
1932 485 0
-1933 -55 485 0
1933 55 0
1933 -485 0
-1934 713 -53 0
1934 -713 0
1934 53 0
-1935 -713 53 0
1935 713 0
1935 -53 0
-1936 714 -547 0
1936 -714 0
1936 547 0
-1937 -714 547 0
1937 714 0
1937 -547 0
-1938 57 -56 0
1938 -57 0
1938 56 0
-1939 -57 56 0
1939 57 0
1939 -56 0
-1940 715 -581 0
1940 -715 0
1940 581 0
-1941 -715 581 0
1941 715 0
1941 -581 0
-1942 -56 1087 0
1942 56 0
1942 -1087 0
-1943 56 -1087 0
1943 -56 0
1943 1087 0
-1944 61 -611 0
1944 -61 0
1944 611 0
-1945 -61 611 0
1945 61 0
1945 -611 0
-1946 59 -58 0
1946 -59 0
1946 58 0
-1947 -59 58 0
1947 59 0
1947 -58 0
-1948 63 -633 0
1948 -63 0
1948 633 0
-1949 -63 633 0
1949 63 0
1949 -633 0
-1950 64 -60 0
1950 -64 0
1950 60 0
-1951 -64 60 0
1951 64 0
1951 -60 0
-1952 66 -62 0
1952 -66 0
1952 62 0
-1953 -66 62 0
1953 66 0
1953 -62 0
-1954 67 -677 0
1954 -67 0
1954 677 0
-1955 -67 677 0
1955 67 0
1955 -677 0
-1956 -58 1088 0
1956 58 0
1956 -1088 0
-1957 58 -1088 0
1957 -58 0
1957 1088 0
-1958 44 -575 0
1958 -44 0
1958 575 0
-1959 -44 575 0
1959 44 0
1959 -575 0
-1960 42 -41 0
1960 -42 0
1960 41 0
-1961 -42 41 0
1961 42 0
1961 -41 0
-1962 46 -591 0
1962 -46 0
1962 591 0
-1963 -46 591 0
1963 46 0
1963 -591 0
-1964 47 -43 0
1964 -47 0
1964 43 0
-1965 -47 43 0
1965 47 0
1965 -43 0
-1966 49 -45 0
1966 -49 0
1966 45 0
-1967 -49 45 0
1967 49 0
1967 -45 0
-1968 50 -637 0
1968 -50 0
1968 637 0
-1969 -50 637 0
1969 50 0
1969 -637 0
-1970 40 -39 0
1970 -40 0
1970 39 0
-1971 -40 39 0
1971 40 0
1971 -39 0
-1972 686 -529 0
1972 -686 0
1972 529 0
-1973 -686 529 0
1973 686 0
1973 -529 0
-1974 -41 1089 0
1974 41 0
1974 -1089 0
-1975 41 -1089 0
1975 -41 0
1975 1089 0
-1976 684 -451 0
1976 -684 0
1976 451 0
-1977 -684 451 0
1977 684 0
1977 -451 0
-1978 685 -450 0
1978 -685 0
1978 450 0
-1979 -685 450 0
1979 685 0
1979 -450 0
-1980 -39 1090 0
1980 39 0
1980 -1090 0
-1981 39 -1090 0
1981 -39 0
1981 1090 0
-1982 28 -473 0
1982 -28 0
1982 473 0
-1983 -28 473 0
1983 28 0
1983 -473 0
-1984 29 -474 0
1984 -29 0
1984 474 0
-1985 -29 474 0
1985 29 0
1985 -474 0
-1986 654 -549 0
1986 -654 0
1986 549 0
-1987 -654 549 0
1987 654 0
1987 -549 0
-1988 655 -27 0
1988 -655 0
1988 27 0
-1989 -655 27 0
1989 655 0
1989 -27 0
-1990 31 -30 0
1990 -31 0
1990 30 0
-1991 -31 30 0
1991 31 0
1991 -30 0
-1992 33 -571 0
1992 -33 0
1992 571 0
-1993 -33 571 0
1993 33 0
1993 -571 0
-1994 35 -613 0
1994 -35 0
1994 613 0
-1995 -35 613 0
1995 35 0
1995 -613 0
-1996 36 -32 0
1996 -36 0
1996 32 0
-1997 -36 32 0
1997 36 0
1997 -32 0
-1998 -30 1091 0
1998 30 0
1998 -1091 0
-1999 30 -1091 0
1999 -30 0
1999 1091 0
-2000 21 -541 0
2000 -21 0
2000 541 0
-2001 -21 541 0
2001 21 0
2001 -541 0
-2002 19 -18 0
2002 -19 0
2002 18 0
-2003 -19 18 0
2003 19 0
2003 -18 0
-2004 23 -20 0
2004 -23 0
2004 20 0
-2005 -23 20 0
2005 23 0
2005 -20 0
-2006 24 -589 0
2006 -24 0
2006 589 0
-2007 -24 589 0
2007 24 0
2007 -589 0
-2008 622 -467 0
2008 -622 0
2008 467 0
-2009 -622 467 0
2009 622 0
2009 -467 0
-2010 623 -468 0
2010 -623 0
2010 468 0
-2011 -623 468 0
2011 623 0
2011 -468 0
-2012 -18 1092 0
2012 18 0
2012 -1092 0
-2013 18 -1092 0
2013 -18 0
2013 1092 0
-2014 11 -459 0
2014 -11 0
2014 459 0
-2015 -11 459 0
2015 11 0
2015 -459 0
-2016 12 -460 0
2016 -12 0
2016 460 0
-2017 -12 460 0
2017 12 0
2017 -460 0
-2018 14 -525 0
2018 -14 0
2018 525 0
-2019 -14 525 0
2019 14 0
2019 -525 0
-2020 15 -10 0
2020 -15 0
2020 10 0
-2021 -15 10 0
2021 15 0
2021 -10 0
-2022 672 -673 0
2022 -672 0
2022 673 0
-2023 -672 673 0
2023 672 0
2023 -673 0
-2024 608 -609 0
2024 -608 0
2024 609 0
-2025 -608 609 0
2025 608 0
2025 -609 0
-2026 526 -527 0
2026 -526 0
2026 527 0
-2027 -526 527 0
2027 526 0
2027 -527 0
-2028 6 -470 0
2028 -6 0
2028 470 0
-2029 -6 470 0
2029 6 0
2029 -470 0
-2030 7 -471 0
2030 -7 0
2030 471 0
-2031 -7 471 0
2031 7 0
2031 -471 0
-2032 695 -696 0
2032 -695 0
2032 696 0
-2033 -695 696 0
2033 695 0
2033 -696 0
-2034 716 -717 0
2034 -716 0
2034 717 0
-2035 -716 717 0
2035 716 0
2035 -717 0
-2036 464 -465 0
2036 -464 0
2036 465 0
-2037 -464 465 0
2037 464 0
2037 -465 0
-2038 748 -749 0
2038 -748 0
2038 749 0
-2039 -748 749 0
2039 748 0
2039 -749 0
-2040 644 -645 0
2040 -644 0
2040 645 0
-2041 -644 645 0
2041 644 0
2041 -645 0
-2042 773 -774 0
2042 -773 0
2042 774 0
-2043 -773 774 0
2043 773 0
2043 -774 0
-2044 576 -577 0
2044 -576 0
2044 577 0
-2045 -576 577 0
2045 576 0
2045 -577 0
-2046 797 -798 0
2046 -797 0
2046 798 0
-2047 -797 798 0
2047 797 0
2047 -798 0
-2048 -1 2 0
2048 1 0
2048 -2 0
-2049 1 -2 0
2049 -1 0
2049 2 0
-2050 -427 1194 0
2050 427 0
2050 -1194 0
-2051 427 -1194 0
2051 -427 0
2051 1194 0
-2052 -2053 1195 0
2052 2053 0
2052 -1195 0
-2054 2053 -1195 0
2054 -2053 0
2054 1195 0
-2055 -3 4 0
2055 3 0
2055 -4 0
-2056 3 -4 0
2056 -3 0
2056 4 0
-2057 -8 9 0
2057 8 0
2057 -9 0
-2058 8 -9 0
2058 -8 0
2058 9 0
-2059 -16 17 0
2059 16 0
2059 -17 0
-2060 16 -17 0
2060 -16 0
2060 17 0
-2061 -25 26 0
2061 25 0
2061 -26 0
-2062 25 -26 0
2062 -25 0
2062 26 0
-2063 -324 325 0
2063 324 0
2063 -325 0
-2064 324 -325 0
2064 -324 0
2064 325 0
-2065 -37 38 0
2065 37 0
2065 -38 0
-2066 37 -38 0
2066 -37 0
2066 38 0
-2067 -187 188 0
2067 187 0
2067 -188 0
-2068 187 -188 0
2068 -187 0
2068 188 0
-2069 819 -820 0
2069 -819 0
2069 820 0
-2070 -819 820 0
2070 819 0
2070 -820 0
-2071 831 -832 0
2071 -831 0
2071 832 0
-2072 -831 832 0
2072 831 0
2072 -832 0
-2073 833 -834 0
2073 -833 0
2073 834 0
-2074 -833 834 0
2074 833 0
2074 -834 0
-2075 -51 52 0
2075 51 0
2075 -52 0
-2076 51 -52 0
2076 -51 0
2076 52 0
-2077 -350 1196 0
2077 350 0
2077 -1196 0
-2078 350 -1196 0
2078 -350 0
2078 1196 0
-2079 -68 69 0
2079 68 0
2079 -69 0
-2080 68 -69 0
2080 -68 0
2080 69 0
-2081 -362 363 0
2081 362 0
2081 -363 0
-2082 362 -363 0
2082 -362 0
2082 363 0
-2083 -89 90 0
2083 89 0
2083 -90 0
-2084 89 -90 0
2084 -89 0
2084 90 0
-2085 -389 1197 0
2085 389 0
2085 -1197 0
-2086 389 -1197 0
2086 -389 0
2086 1197 0
-2087 -110 111 0
2087 110 0
2087 -111 0
-2088 110 -111 0
2088 -110 0
2088 111 0
-2089 -133 134 0
2089 133 0
2089 -134 0
-2090 133 -134 0
2090 -133 0
2090 134 0
1198 0
1199 0
1200 0
1201 0
1202 0
1203 0
1204 0
1205 0
1206 0
1207 0
1208 0
1209 0
1210 0
1211 0
1212 0
1213 0
1214 0
1215 0
1216 0
1217 0
1218 0
1219 0
1220 0
1221 0
1222 0
1223 0
1224 0
1225 0
1226 0
1227 0
1228 0
1229 0
1230 0
1231 0
1232 0
1233 0
1234 0
1235 0
1236 0
1237 0
1238 0
1239 0
1240 0
1241 0
1242 0
1243 0
1244 0
1245 0
1246 0
1247 0
1248 0
1249 0
1250 0
1251 0
1252 0
1253 0
1254 0
1255 0
1256 0
1257 0
1258 0
1259 0
1260 0
1261 0
1262 0
1263 0
1264 0
1265 0
1266 0
1267 0
1268 0
1269 0
1270 0
1271 0
1272 0
1273 0
1274 0
1275 0
1276 0
1277 0
1278 0
1279 0
1280 0
1281 0
1282 0
1283 0
1284 0
1285 0
1286 0
1287 0
1288 0
1289 0
1290 0
1291 0
1292 0
1293 0
1294 0
1295 0
1296 0
1297 0
1298 0
1299 0
1300 0
1301 0
1302 0
1303 0
1304 0
1305 0
1306 0
1307 0
1308 0
1309 0
1310 0
1311 0
1312 0
1313 0
1314 0
1315 0
1316 0
1317 0
1318 0
1319 0
1320 0
1321 0
1322 0
1323 0
1324 0
1325 0
1326 0
1327 0
1328 0
1329 0
1330 0
1331 0
1332 0
1333 0
1334 0
1335 0
1336 0
1337 0
1338 0
1339 0
1340 0
1341 0
1342 0
1343 0
1344 0
1345 0
1346 0
1347 0
1348 0
1349 0
1350 0
1351 0
1352 0
1353 0
1354 0
1355 0
1356 0
1357 0
1358 0
1359 0
1360 0
1361 0
1362 0
1363 0
1364 0
1365 0
1366 0
1367 0
1368 0
1369 0
1370 0
1371 0
1372 0
1373 0
1374 0
1375 0
1376 0
1377 0
1378 0
1379 0
1380 0
1381 0
1382 0
1383 0
1384 0
1385 0
1386 0
1387 0
1388 0
1389 0
1390 0
1391 0
1392 0
1393 0
1394 0
1395 0
1396 0
1397 0
1398 0
1399 0
1400 0
1401 0
1402 0
1403 0
1404 0
1405 0
1406 0
1407 0
1408 0
1409 0
1410 0
1411 0
1412 0
1413 0
1414 0
1415 0
1416 0
1417 0
1418 0
1419 0
1420 0
1421 0
1422 0
1423 0
1424 0
1425 0
1426 0
1427 0
1428 0
1429 0
1430 0
1431 0
1432 0
1433 0
1434 0
1435 0
1436 0
1437 0
1438 0
1439 0
1440 0
1441 0
1442 0
1443 0
1444 0
1445 0
1446 0
1447 0
1448 0
1449 0
1450 0
1451 0
1452 0
1453 0
1454 0
1455 0
1456 0
1457 0
1458 0
1459 0
1460 0
1461 0
1462 0
1463 0
1464 0
1465 0
1466 0
1467 0
1468 0
1469 0
1470 0
1471 0
1472 0
1473 0
1474 0
1475 0
1476 0
1477 0
1478 0
1479 0
1480 0
1481 0
1482 0
1483 0
1484 0
1485 0
1486 0
1487 0
1488 0
1489 0
1490 0
1491 0
1492 0
1493 0
1494 0
1495 0
1496 0
1497 0
1498 0
1499 0
1500 0
1501 0
1502 0
1503 0
1504 0
1505 0
1506 0
1507 0
1508 0
1509 0
1510 0
1511 0
1512 0
1513 0
1514 0
1515 0
1516 0
1517 0
1518 0
1519 0
1520 0
1521 0
1522 0
1523 0
1524 0
1525 0
1526 0
1527 0
1528 0
1529 0
1530 0
1531 0
1532 0
1533 0
1534 0
1535 0
1536 0
1537 0
1538 0
1539 0
1540 0
1541 0
1542 0
1543 0
1544 0
1545 0
1546 0
1547 0
1548 0
1549 0
1550 0
1551 0
1552 0
1553 0
1554 0
1555 0
1556 0
1557 0
1558 0
1559 0
1560 0
1561 0
1562 0
1563 0
1564 0
1565 0
1566 0
1567 0
1568 0
1569 0
1570 0
1571 0
1572 0
1573 0
1574 0
1575 0
1576 0
1577 0
1578 0
1579 0
1580 0
1581 0
1582 0
1583 0
1584 0
1585 0
1586 0
1587 0
1588 0
1589 0
1590 0
1591 0
1592 0
1593 0
1594 0
1595 0
1596 0
1597 0
1598 0
1599 0
1600 0
1601 0
1602 0
1603 0
1604 0
1605 0
1606 0
1607 0
1608 0
1609 0
1610 0
1611 0
1612 0
1613 0
1614 0
1615 0
1616 0
1617 0
1618 0
1619 0
1620 0
1621 0
1622 0
1623 0
1624 0
1625 0
1626 0
1627 0
1628 0
1629 0
1630 0
1631 0
1632 0
1633 0
1634 0
1635 0
1636 0
1637 0
1638 0
1639 0
1640 0
1641 0
1642 0
1643 0
1644 0
1645 0
1646 0
1647 0
1648 0
1649 0
1650 0
1651 0
1652 0
1653 0
1654 0
1655 0
1656 0
1657 0
1658 0
1659 0
1660 0
1661 0
1662 0
1663 0
1664 0
1665 0
1666 0
1667 0
1668 0
1669 0
1670 0
1671 0
1672 0
1673 0
1674 0
1675 0
1676 0
1677 0
1678 0
1679 0
1680 0
1681 0
1682 0
1683 0
1684 0
1685 0
1686 0
1687 0
1688 0
1689 0
1690 0
1691 0
1692 0
1693 0
1694 0
1695 0
1696 0
1697 0
1698 0
1699 0
1700 0
1701 0
1702 0
1703 0
1704 0
1705 0
1706 0
1707 0
1708 0
1709 0
1710 0
1711 0
1712 0
1713 0
1714 0
1715 0
1716 0
1717 0
1718 0
1719 0
1720 0
1721 0
1722 0
1723 0
1724 0
1725 0
1726 0
1727 0
1728 0
1729 0
1730 0
1731 0
1732 0
1733 0
1734 0
1735 0
1736 0
1737 0
1738 0
1739 0
1740 0
1741 0
1742 0
1743 0
1744 0
1745 0
1746 0
1747 0
1748 0
1749 0
1750 0
1751 0
1752 0
1753 0
1754 0
1755 0
1756 0
1757 0
1758 0
1759 0
1760 0
1761 0
1762 0
1763 0
1764 0
1765 0
1766 0
1767 0
1768 0
1769 0
1770 0
1771 0
1772 0
1773 0
1774 0
1775 0
1776 0
1777 0
1778 0
1779 0
1780 0
1781 0
1782 0
1783 0
1784 0
1785 0
1786 0
1787 0
1788 0
1789 0
1790 0
1791 0
1792 0
1793 0
1794 0
1795 0
1796 0
1797 0
1798 0
1799 0
1800 0
1801 0
1802 0
1803 0
1804 0
1805 0
1806 0
1807 0
1808 0
1809 0
1810 0
1811 0
1812 0
1813 0
1814 0
1815 0
1816 0
1817 0
1818 0
1819 0
1820 0
1821 0
1822 0
1823 0
1824 0
1825 0
1826 0
1827 0
1828 0
1829 0
1830 0
1831 0
1832 0
1833 0
1834 0
1835 0
1836 0
1837 0
1838 0
1839 0
1840 0
1841 0
1842 0
1843 0
1844 0
1845 0
1846 0
1847 0
1848 0
1849 0
1850 0
1851 0
1852 0
1853 0
1854 0
1855 0
1856 0
1857 0
1858 0
1859 0
1860 0
1861 0
1862 0
1863 0
1864 0
1865 0
1866 0
1867 0
1868 0
1869 0
1870 0
1871 0
1872 0
1873 0
1874 0
1875 0
1876 0
1877 0
1878 0
1879 0
1880 0
1881 0
1882 0
1883 0
1884 0
1885 0
1886 0
1887 0
1888 0
1889 0
1890 0
1891 0
1892 0
1893 0
1894 0
1895 0
1896 0
1897 0
1898 0
1899 0
1900 0
1901 0
1902 0
1903 0
1904 0
1905 0
1906 0
1907 0
1908 0
1909 0
1910 0
1911 0
1912 0
1913 0
1914 0
1915 0
1916 0
1917 0
1918 0
1919 0
1920 0
1921 0
1922 0
1923 0
1924 0
1925 0
1926 0
1927 0
1928 0
1929 0
1930 0
1931 0
1932 0
1933 0
1934 0
1935 0
1936 0
1937 0
1938 0
1939 0
1940 0
1941 0
1942 0
1943 0
1944 0
1945 0
1946 0
1947 0
1948 0
1949 0
1950 0
1951 0
1952 0
1953 0
1954 0
1955 0
1956 0
1957 0
1958 0
1959 0
1960 0
1961 0
1962 0
1963 0
1964 0
1965 0
1966 0
1967 0
1968 0
1969 0
1970 0
1971 0
1972 0
1973 0
1974 0
1975 0
1976 0
1977 0
1978 0
1979 0
1980 0
1981 0
1982 0
1983 0
1984 0
1985 0
1986 0
1987 0
1988 0
1989 0
1990 0
1991 0
1992 0
1993 0
1994 0
1995 0
1996 0
1997 0
1998 0
1999 0
2000 0
2001 0
2002 0
2003 0
2004 0
2005 0
2006 0
2007 0
2008 0
2009 0
2010 0
2011 0
2012 0
2013 0
2014 0
2015 0
2016 0
2017 0
2018 0
2019 0
2020 0
2021 0
2022 0
2023 0
2024 0
2025 0
2026 0
2027 0
2028 0
2029 0
2030 0
2031 0
2032 0
2033 0
2034 0
2035 0
2036 0
2037 0
2038 0
2039 0
2040 0
2041 0
2042 0
2043 0
2044 0
2045 0
2046 0
2047 0
2048 0
2049 0
2050 0
2051 0
2052 0
2054 0
2055 0
2056 0
2057 0
2058 0
2059 0
2060 0
2061 0
2062 0
2063 0
2064 0
2065 0
2066 0
2067 0
2068 0
2069 0
2070 0
2071 0
2072 0
2073 0
2074 0
2075 0
2076 0
2077 0
2078 0
2079 0
2080 0
2081 0
2082 0
2083 0
2084 0
2085 0
2086 0
2087 0
2088 0
2089 0
2090 0
