c BC-S1.2
p cnf 44 124
1 -2 0
-1 2 0
3 -4 0
-3 4 0
5 -6 0
-5 6 0
7 -8 0
-7 8 0
2 -1 0
-2 1 0
4 -3 0
-4 3 0
6 -5 0
-6 5 0
8 -7 0
-8 7 0
9 -10 0
-9 10 0
11 -12 0
-11 12 0
13 -14 0
-13 14 0
15 -16 0
-15 16 0
-17 -1 2 0
17 1 0
17 -2 0
-18 1 -2 0
18 -1 0
18 2 0
-19 -3 4 0
19 3 0
19 -4 0
-20 3 -4 0
20 -3 0
20 4 0
-21 -5 6 0
21 5 0
21 -6 0
-22 5 -6 0
22 -5 0
22 6 0
-23 -7 8 0
23 7 0
23 -8 0
-24 7 -8 0
24 -7 0
24 8 0
-25 9 -10 0
25 -9 0
25 10 0
-26 -9 10 0
26 9 0
26 -10 0
-27 -28 9 0
27 28 0
27 -9 0
-29 28 -9 0
29 -28 0
29 9 0
-30 11 -12 0
30 -11 0
30 12 0
-31 -11 12 0
31 11 0
31 -12 0
-32 -33 11 0
32 33 0
32 -11 0
-34 33 -11 0
34 -33 0
34 11 0
-35 13 -14 0
35 -13 0
35 14 0
-36 -13 14 0
36 13 0
36 -14 0
-37 -38 13 0
37 38 0
37 -13 0
-39 38 -13 0
39 -38 0
39 13 0
-40 15 -16 0
40 -15 0
40 16 0
-41 -15 16 0
41 15 0
41 -16 0
-42 -43 15 0
42 43 0
42 -15 0
-44 43 -15 0
44 -43 0
44 15 0
17 0
18 0
19 0
20 0
21 0
22 0
23 0
24 0
25 0
26 0
27 0
29 0
30 0
31 0
32 0
34 0
35 0
36 0
37 0
39 0
40 0
41 0
42 0
44 0
2 0
4 0
6 0
8 0
