c BC-S1.2
p cnf 1217 3817
1 -2 0
-1 2 0
3 -4 0
-3 4 0
5 -6 0
-5 6 0
7 -8 0
-7 8 0
9 -10 0
-9 10 0
11 -12 0
-11 12 0
13 -14 0
-13 14 0
15 -16 0
-15 16 0
17 -18 0
-17 18 0
19 -20 0
-19 20 0
21 -22 0
-21 22 0
23 -24 0
-23 24 0
25 -26 0
-25 26 0
27 -28 0
-27 28 0
29 -30 0
-29 30 0
31 -32 0
-31 32 0
33 -34 0
-33 34 0
35 -36 0
-35 36 0
37 -38 0
-37 38 0
39 -40 0
-39 40 0
41 -42 0
-41 42 0
43 -44 0
-43 44 0
45 -46 0
-45 46 0
47 -48 0
-47 48 0
49 -50 0
-49 50 0
51 -52 0
-51 52 0
53 -54 0
-53 54 0
55 -56 0
-55 56 0
57 -58 0
-57 58 0
59 -60 0
-59 60 0
61 -62 0
-61 62 0
63 -64 0
-63 64 0
65 -66 0
-65 66 0
67 -68 0
-67 68 0
69 -70 0
-69 70 0
71 -72 0
-71 72 0
73 -74 0
-73 74 0
75 -76 0
-75 76 0
77 -78 0
-77 78 0
79 -80 0
-79 80 0
81 -82 0
-81 82 0
83 -84 0
-83 84 0
85 -86 0
-85 86 0
87 -88 0
-87 88 0
89 -90 0
-89 90 0
91 -92 0
-91 92 0
93 -94 0
-93 94 0
95 -96 0
-95 96 0
97 -98 0
-97 98 0
99 -100 0
-99 100 0
101 -102 0
-101 102 0
103 -104 0
-103 104 0
105 -106 0
-105 106 0
107 -108 0
-107 108 0
109 -110 0
-109 110 0
111 -112 0
-111 112 0
113 -114 0
-113 114 0
115 -116 0
-115 116 0
117 -118 0
-117 118 0
119 -120 0
-119 120 0
121 -122 0
-121 122 0
123 -124 0
-123 124 0
125 -126 0
-125 126 0
127 -128 0
-127 128 0
129 -130 0
-129 130 0
131 -132 0
-131 132 0
133 -134 0
-133 134 0
135 -136 0
-135 136 0
137 -138 0
-137 138 0
139 -140 0
-139 140 0
141 -142 0
-141 142 0
143 -144 0
-143 144 0
145 -146 0
-145 146 0
147 -148 0
-147 148 0
149 -150 0
-149 150 0
151 -152 0
-151 152 0
153 -154 0
-153 154 0
155 -156 0
-155 156 0
157 -158 0
-157 158 0
159 -160 0
-159 160 0
161 -162 0
-161 162 0
163 -164 0
-163 164 0
165 -166 0
-165 166 0
167 -168 0
-167 168 0
169 -170 0
-169 170 0
171 -172 0
-171 172 0
173 -174 0
-173 174 0
175 -176 0
-175 176 0
177 -178 0
-177 178 0
179 -180 0
-179 180 0
181 -182 0
-181 182 0
183 -184 0
-183 184 0
185 -186 0
-185 186 0
187 -188 0
-187 188 0
189 -190 0
-189 190 0
191 -192 0
-191 192 0
193 -194 0
-193 194 0
195 -196 0
-195 196 0
197 -198 0
-197 198 0
199 -200 0
-199 200 0
201 -202 0
-201 202 0
203 -204 0
-203 204 0
205 -206 0
-205 206 0
207 -208 0
-207 208 0
209 -210 0
-209 210 0
211 -212 0
-211 212 0
213 -214 0
-213 214 0
215 -216 0
-215 216 0
217 -218 0
-217 218 0
219 -220 0
-219 220 0
221 -222 0
-221 222 0
223 -224 0
-223 224 0
225 -226 0
-225 226 0
227 -228 0
-227 228 0
229 -230 0
-229 230 0
231 -232 0
-231 232 0
233 -234 0
-233 234 0
235 -236 0
-235 236 0
237 -238 0
-237 238 0
239 -240 0
-239 240 0
241 -242 0
-241 242 0
243 -244 0
-243 244 0
245 -246 0
-245 246 0
247 -248 0
-247 248 0
249 -250 0
-249 250 0
251 -252 0
-251 252 0
253 -254 0
-253 254 0
255 -256 0
-255 256 0
2 -1 0
-2 1 0
257 -258 259 260 -187 0
-257 258 0
-257 -259 0
-257 -260 0
-257 187 0
261 -262 263 -163 0
-261 262 0
-261 -263 0
-261 163 0
264 -265 266 267 -183 0
-264 265 0
-264 -266 0
-264 -267 0
-264 183 0
268 -269 270 271 -167 0
-268 269 0
-268 -270 0
-268 -271 0
-268 167 0
272 -273 274 -173 0
-272 273 0
-272 -274 0
-272 173 0
275 -276 277 278 -189 0
-275 276 0
-275 -277 0
-275 -278 0
-275 189 0
279 -280 281 282 -161 0
-279 280 0
-279 -281 0
-279 -282 0
-279 161 0
283 -284 285 286 -181 0
-283 284 0
-283 -285 0
-283 -286 0
-283 181 0
287 -288 289 290 -159 0
-287 288 0
-287 -289 0
-287 -290 0
-287 159 0
291 -292 293 294 -195 0
-291 292 0
-291 -293 0
-291 -294 0
-291 195 0
295 -296 297 298 -165 0
-295 296 0
-295 -297 0
-295 -298 0
-295 165 0
299 -300 301 302 -169 0
-299 300 0
-299 -301 0
-299 -302 0
-299 169 0
303 -304 305 0
-303 304 0
-303 -305 0
306 -307 308 309 -171 0
-306 307 0
-306 -308 0
-306 -309 0
-306 171 0
310 -311 312 -193 0
-310 311 0
-310 -312 0
-310 193 0
313 -314 315 316 -185 0
-313 314 0
-313 -315 0
-313 -316 0
-313 185 0
317 -318 319 -175 0
-317 318 0
-317 -319 0
-317 175 0
320 -321 322 -179 0
-320 321 0
-320 -322 0
-320 179 0
323 -324 325 -177 0
-323 324 0
-323 -325 0
-323 177 0
326 -327 328 -191 0
-326 327 0
-326 -328 0
-326 191 0
329 -330 0
-329 330 0
331 -304 0
-331 304 0
162 -161 0
-162 161 0
332 -333 25 334 -3 0
-332 333 0
-332 -25 0
-332 -334 0
-332 3 0
6 -5 0
-6 5 0
335 -336 0
-335 336 0
337 -338 29 334 -3 0
-337 338 0
-337 -29 0
-337 -334 0
-337 3 0
160 -159 0
-160 159 0
339 -340 0
-339 340 0
10 -9 0
-10 9 0
341 -342 137 274 -51 0
-341 342 0
-341 -137 0
-341 -274 0
-341 51 0
250 -249 0
-250 249 0
343 -344 0
-343 344 0
14 -13 0
-14 13 0
345 -293 294 -79 0
-345 293 0
-345 -294 0
-345 79 0
214 -213 0
-214 213 0
346 -347 0
-346 347 0
348 -349 0
-348 349 0
350 -351 153 294 -255 0
-350 351 0
-350 -153 0
-350 -294 0
-350 255 0
194 -193 0
-194 193 0
352 -349 347 334 -3 0
-352 349 0
-352 -347 0
-352 -334 0
-352 3 0
353 -308 309 -215 0
-353 308 0
-353 -309 0
-353 215 0
354 -285 286 -225 0
-354 285 0
-354 -286 0
-354 225 0
355 -266 267 -253 0
-355 266 0
-355 -267 0
-355 253 0
356 -357 0
-356 357 0
22 -21 0
-22 21 0
358 -359 311 312 -23 0
-358 359 0
-358 -311 0
-358 -312 0
-358 23 0
216 -215 0
-216 215 0
26 -25 0
-26 25 0
360 -333 0
-360 333 0
361 -338 0
-361 338 0
30 -29 0
-30 29 0
32 -31 0
-32 31 0
362 -363 0
-362 363 0
252 -251 0
-252 251 0
364 -365 273 274 -51 0
-364 365 0
-364 -273 0
-364 -274 0
-364 51 0
34 -33 0
-34 33 0
366 -367 0
-366 367 0
200 -199 0
-200 199 0
368 -369 119 267 -73 0
-368 369 0
-368 -119 0
-368 -267 0
-368 73 0
38 -37 0
-38 37 0
370 -371 0
-370 371 0
220 -219 0
-220 219 0
372 -373 262 263 -35 0
-372 373 0
-372 -262 0
-372 -263 0
-372 35 0
374 -375 0
-374 375 0
42 -41 0
-42 41 0
222 -221 0
-222 221 0
376 -377 115 286 -59 0
-376 377 0
-376 -115 0
-376 -286 0
-376 59 0
378 -379 0
-378 379 0
46 -45 0
-46 45 0
174 -173 0
-174 173 0
380 -381 95 271 -249 0
-380 381 0
-380 -95 0
-380 -271 0
-380 249 0
382 -383 127 263 -251 0
-382 383 0
-382 -127 0
-382 -263 0
-382 251 0
384 -379 45 334 -3 0
-384 379 0
-384 -45 0
-384 -334 0
-384 3 0
50 -49 0
-50 49 0
385 -386 0
-385 386 0
387 -388 121 267 -73 0
-387 388 0
-387 -121 0
-387 -267 0
-387 73 0
224 -223 0
-224 223 0
54 -53 0
-54 53 0
389 -390 0
-389 390 0
226 -225 0
-226 225 0
391 -392 105 312 -23 0
-391 392 0
-391 -105 0
-391 -312 0
-391 23 0
393 -394 0
-393 394 0
58 -57 0
-58 57 0
395 -396 123 267 -73 0
-395 396 0
-395 -123 0
-395 -267 0
-395 73 0
228 -227 0
-228 227 0
397 -398 0
-397 398 0
62 -61 0
-62 61 0
66 -65 0
-66 65 0
399 -400 0
-399 400 0
401 -402 97 271 -15 0
-401 402 0
-401 -97 0
-401 -271 0
-401 15 0
230 -229 0
-230 229 0
403 -404 0
-403 404 0
68 -67 0
-68 67 0
254 -253 0
-254 253 0
405 -406 107 312 -23 0
-405 406 0
-405 -107 0
-405 -312 0
-405 23 0
72 -71 0
-72 71 0
407 -408 0
-407 408 0
409 -410 0
-409 410 0
76 -75 0
-76 75 0
411 -412 109 312 -23 0
-411 412 0
-411 -109 0
-411 -312 0
-411 23 0
256 -255 0
-256 255 0
78 -77 0
-78 77 0
413 -414 0
-413 414 0
248 -247 0
-248 247 0
415 -416 151 294 -79 0
-415 416 0
-415 -151 0
-415 -294 0
-415 79 0
82 -81 0
-82 81 0
417 -418 0
-417 418 0
419 -420 318 319 -63 0
-419 420 0
-419 -318 0
-419 -319 0
-419 63 0
210 -209 0
-210 209 0
86 -85 0
-86 85 0
421 -422 0
-421 422 0
423 -422 85 334 -3 0
-423 422 0
-423 -85 0
-423 -334 0
-423 3 0
424 -280 0
-424 280 0
425 -281 0
-425 281 0
426 -289 0
-426 289 0
427 -288 0
-427 288 0
428 -270 0
-428 270 0
429 -269 0
-429 269 0
96 -95 0
-96 95 0
430 -381 0
-430 381 0
431 -402 0
-431 402 0
98 -97 0
-98 97 0
432 -315 0
-432 315 0
433 -314 0
-433 314 0
434 -435 0
-434 435 0
102 -101 0
-102 101 0
436 -359 0
-436 359 0
437 -311 0
-437 311 0
438 -392 0
-438 392 0
106 -105 0
-106 105 0
108 -107 0
-108 107 0
439 -406 0
-439 406 0
440 -412 0
-440 412 0
110 -109 0
-110 109 0
441 -307 0
-441 307 0
442 -308 0
-442 308 0
443 -285 0
-443 285 0
444 -284 0
-444 284 0
445 -377 0
-445 377 0
116 -115 0
-116 115 0
446 -265 0
-446 265 0
447 -266 0
-447 266 0
120 -119 0
-120 119 0
448 -369 0
-448 369 0
449 -388 0
-449 388 0
122 -121 0
-122 121 0
450 -396 0
-450 396 0
124 -123 0
-124 123 0
451 -373 0
-451 373 0
452 -262 0
-452 262 0
453 -383 0
-453 383 0
128 -127 0
-128 127 0
454 -301 0
-454 301 0
455 -300 0
-455 300 0
456 -457 0
-456 457 0
458 -321 0
-458 321 0
459 -327 0
-459 327 0
460 -461 0
-460 461 0
462 -273 0
-462 273 0
463 -365 0
-463 365 0
138 -137 0
-138 137 0
464 -342 0
-464 342 0
465 -466 0
-465 466 0
467 -324 0
-467 324 0
468 -318 0
-468 318 0
469 -420 0
-469 420 0
470 -471 0
-470 471 0
144 -143 0
-144 143 0
472 -296 0
-472 296 0
473 -297 0
-473 297 0
474 -277 0
-474 277 0
475 -276 0
-475 276 0
476 -293 0
-476 293 0
477 -292 0
-477 292 0
152 -151 0
-152 151 0
478 -416 0
-478 416 0
154 -153 0
-154 153 0
479 -351 0
-479 351 0
480 -259 0
-480 259 0
481 -258 0
-481 258 0
482 -336 5 305 0
-482 336 0
-482 -5 0
-482 -305 0
483 -330 304 305 0
-483 330 0
-483 -304 0
-483 -305 0
484 -301 302 -233 0
-484 301 0
-484 -302 0
-484 233 0
485 -365 273 274 -237 0
-485 365 0
-485 -273 0
-485 -274 0
-485 237 0
218 -217 0
-218 217 0
486 -420 318 319 -175 0
-486 420 0
-486 -318 0
-486 -319 0
-486 175 0
232 -231 0
-232 231 0
487 -342 137 274 -173 0
-487 342 0
-487 -137 0
-487 -274 0
-487 173 0
488 -373 262 263 -163 0
-488 373 0
-488 -262 0
-488 -263 0
-488 163 0
234 -233 0
-234 233 0
489 -359 311 312 -193 0
-489 359 0
-489 -311 0
-489 -312 0
-489 193 0
236 -235 0
-236 235 0
490 -383 127 263 -163 0
-490 383 0
-490 -127 0
-490 -263 0
-490 163 0
238 -237 0
-238 237 0
240 -239 0
-240 239 0
491 -396 123 267 -183 0
-491 396 0
-491 -123 0
-491 -267 0
-491 183 0
492 -388 121 267 -183 0
-492 388 0
-492 -121 0
-492 -267 0
-492 183 0
242 -241 0
-242 241 0
493 -369 119 267 -183 0
-493 369 0
-493 -119 0
-493 -267 0
-493 183 0
198 -197 0
-198 197 0
494 -392 105 312 -193 0
-494 392 0
-494 -105 0
-494 -312 0
-494 193 0
244 -243 0
-244 243 0
495 -406 107 312 -193 0
-495 406 0
-495 -107 0
-495 -312 0
-495 193 0
246 -245 0
-246 245 0
496 -293 294 -195 0
-496 293 0
-496 -294 0
-496 195 0
202 -201 0
-202 201 0
204 -203 0
-204 203 0
497 -416 151 294 -195 0
-497 416 0
-497 -151 0
-497 -294 0
-497 195 0
206 -205 0
-206 205 0
498 -402 97 271 -167 0
-498 402 0
-498 -97 0
-498 -271 0
-498 167 0
499 -377 115 286 -181 0
-499 377 0
-499 -115 0
-499 -286 0
-499 181 0
208 -207 0
-208 207 0
500 -266 267 -245 0
-500 266 0
-500 -267 0
-500 245 0
501 -285 286 -243 0
-501 285 0
-501 -286 0
-501 243 0
502 -308 309 -235 0
-502 308 0
-502 -309 0
-502 235 0
503 -351 153 294 -211 0
-503 351 0
-503 -153 0
-503 -294 0
-503 211 0
212 -211 0
-212 211 0
504 -412 109 312 -193 0
-504 412 0
-504 -109 0
-504 -312 0
-504 193 0
505 -367 33 334 -3 0
-505 367 0
-505 -33 0
-505 -334 0
-505 3 0
180 -179 0
-180 179 0
506 -344 13 305 0
-506 344 0
-506 -13 0
-506 -305 0
507 -418 81 334 -3 0
-507 418 0
-507 -81 0
-507 -334 0
-507 3 0
166 -165 0
-166 165 0
508 -259 260 -203 0
-508 259 0
-508 -260 0
-508 203 0
509 -435 101 316 -201 0
-509 435 0
-509 -101 0
-509 -316 0
-509 201 0
510 -408 71 334 -3 0
-510 408 0
-510 -71 0
-510 -334 0
-510 3 0
186 -185 0
-186 185 0
511 -357 21 334 -3 0
-511 357 0
-511 -21 0
-511 -334 0
-511 3 0
172 -171 0
-172 171 0
170 -169 0
-170 169 0
512 -371 37 334 -3 0
-512 371 0
-512 -37 0
-512 -334 0
-512 3 0
192 -191 0
-192 191 0
513 -375 41 334 -3 0
-513 375 0
-513 -41 0
-513 -334 0
-513 3 0
514 -386 49 334 -3 0
-514 386 0
-514 -49 0
-514 -334 0
-514 3 0
178 -177 0
-178 177 0
515 -390 53 334 -3 0
-515 390 0
-515 -53 0
-515 -334 0
-515 3 0
182 -181 0
-182 181 0
516 -461 327 328 -221 0
-516 461 0
-516 -327 0
-516 -328 0
-516 221 0
176 -175 0
-176 175 0
517 -394 57 334 -3 0
-517 394 0
-517 -57 0
-517 -334 0
-517 3 0
518 -297 298 -209 0
-518 297 0
-518 -298 0
-518 209 0
190 -189 0
-190 189 0
519 -400 65 334 -3 0
-519 400 0
-519 -65 0
-519 -334 0
-519 3 0
520 -340 9 305 0
-520 340 0
-520 -9 0
-520 -305 0
521 -277 278 -205 0
-521 277 0
-521 -278 0
-521 205 0
522 -381 95 271 -231 0
-522 381 0
-522 -95 0
-522 -271 0
-522 231 0
523 -297 298 -217 0
-523 297 0
-523 -298 0
-523 217 0
524 -461 327 328 -207 0
-524 461 0
-524 -327 0
-524 -328 0
-524 207 0
525 -457 321 322 -197 0
-525 457 0
-525 -321 0
-525 -322 0
-525 197 0
526 -466 324 325 -241 0
-526 466 0
-526 -324 0
-526 -325 0
-526 241 0
527 -471 143 319 -239 0
-527 471 0
-527 -143 0
-527 -319 0
-527 239 0
528 -414 77 334 -3 0
-528 414 0
-528 -77 0
-528 -334 0
-528 3 0
188 -187 0
-188 187 0
529 -398 61 334 -3 0
-529 398 0
-529 -61 0
-529 -334 0
-529 3 0
530 -277 278 -229 0
-530 277 0
-530 -278 0
-530 229 0
168 -167 0
-168 167 0
531 -301 302 -219 0
-531 301 0
-531 -302 0
-531 219 0
532 -363 31 334 -3 0
-532 363 0
-532 -31 0
-532 -334 0
-532 3 0
164 -163 0
-164 163 0
533 -471 143 319 -227 0
-533 471 0
-533 -143 0
-533 -319 0
-533 227 0
534 -466 324 325 -223 0
-534 466 0
-534 -324 0
-534 -325 0
-534 223 0
535 -404 67 334 -3 0
-535 404 0
-535 -67 0
-535 -334 0
-535 3 0
184 -183 0
-184 183 0
536 -457 321 322 -199 0
-536 457 0
-536 -321 0
-536 -322 0
-536 199 0
537 -259 260 -247 0
-537 259 0
-537 -260 0
-537 247 0
538 -435 101 316 -213 0
-538 435 0
-538 -101 0
-538 -316 0
-538 213 0
196 -195 0
-196 195 0
539 -410 75 334 -3 0
-539 410 0
-539 -75 0
-539 -334 0
-539 3 0
-44 220 372 0
44 -220 0
44 -372 0
-540 451 452 0
540 -451 0
540 -452 0
-132 454 455 0
132 -454 0
132 -455 0
-541 261 299 0
541 -261 0
541 -299 0
-542 488 234 0
542 -488 0
542 -234 0
-130 453 128 0
130 -453 0
130 -128 0
-36 252 364 0
36 -252 0
36 -364 0
-543 531 164 0
543 -531 0
543 -164 0
-544 484 485 0
544 -484 0
544 -485 0
-140 138 464 0
140 -138 0
140 -464 0
-545 462 463 0
545 -462 0
545 -463 0
-546 541 272 0
546 -541 0
546 -272 0
-547 382 174 0
547 -382 0
547 -174 0
-548 490 238 0
548 -490 0
548 -238 0
-549 370 38 0
549 -370 0
549 -38 0
-550 374 42 0
550 -374 0
550 -42 0
-551 378 46 0
551 -378 0
551 -46 0
-552 366 34 0
552 -366 0
552 -34 0
-553 362 32 0
553 -362 0
553 -32 0
-28 358 216 0
28 -358 0
28 -216 0
-114 441 442 0
114 -441 0
114 -442 0
-554 436 437 0
554 -436 0
554 -437 0
-555 306 310 0
555 -306 0
555 -310 0
-556 489 236 0
556 -489 0
556 -236 0
-557 438 106 0
557 -438 0
557 -106 0
-48 222 376 0
48 -222 0
48 -376 0
-118 445 116 0
118 -445 0
118 -116 0
-558 444 443 0
558 -444 0
558 -443 0
-136 459 460 0
136 -459 0
136 -460 0
-559 283 326 0
559 -283 0
559 -326 0
-560 499 208 0
560 -499 0
560 -208 0
-561 494 244 0
561 -494 0
561 -244 0
-562 555 559 0
562 -555 0
562 -559 0
-563 502 501 0
563 -502 0
563 -501 0
-60 391 226 0
60 -391 0
60 -226 0
-564 353 354 0
564 -353 0
564 -354 0
-565 516 182 0
565 -516 0
565 -182 0
-112 440 110 0
112 -440 0
112 -110 0
-566 108 439 0
566 -108 0
566 -439 0
-84 248 415 0
84 -248 0
84 -415 0
-567 477 476 0
567 -477 0
567 -476 0
-568 478 152 0
568 -478 0
568 -152 0
-158 480 481 0
158 -480 0
158 -481 0
-569 497 204 0
569 -497 0
569 -204 0
-570 291 257 0
570 -291 0
570 -257 0
-156 154 479 0
156 -154 0
156 -479 0
-104 434 102 0
104 -434 0
104 -102 0
-571 432 433 0
571 -432 0
571 -433 0
-572 496 202 0
572 -496 0
572 -202 0
-20 345 214 0
20 -345 0
20 -214 0
-573 570 313 0
573 -570 0
573 -313 0
-574 537 538 0
574 -537 0
574 -538 0
-575 508 509 0
575 -508 0
575 -509 0
-576 407 72 0
576 -407 0
576 -72 0
-577 409 76 0
577 -409 0
577 -76 0
-90 86 421 0
90 -86 0
90 -421 0
-578 82 417 0
578 -82 0
578 -417 0
-579 413 78 0
579 -413 0
579 -78 0
-580 188 528 0
580 -188 0
580 -528 0
-581 574 539 196 0
581 -574 0
581 -539 0
581 -196 0
-582 186 510 0
582 -186 0
582 -510 0
-80 411 256 0
80 -411 0
80 -256 0
-583 562 573 0
583 -562 0
583 -573 0
-584 563 503 0
584 -563 0
584 -503 0
-585 504 212 0
585 -504 0
585 -212 0
-586 564 350 0
586 -564 0
586 -350 0
-126 450 124 0
126 -450 0
126 -124 0
-587 449 122 0
587 -449 0
587 -122 0
-56 387 224 0
56 -387 0
56 -224 0
-142 465 467 0
142 -465 0
142 -467 0
-588 492 242 0
588 -492 0
588 -242 0
-40 200 368 0
40 -200 0
40 -368 0
-589 446 447 0
589 -446 0
589 -447 0
-590 448 120 0
590 -448 0
590 -120 0
-134 456 458 0
134 -456 0
134 -458 0
-591 493 198 0
591 -493 0
591 -198 0
-592 264 320 0
592 -264 0
592 -320 0
-593 526 525 0
593 -526 0
593 -525 0
-594 323 592 0
594 -323 0
594 -592 0
-595 534 536 0
595 -534 0
595 -536 0
-148 472 473 0
148 -472 0
148 -473 0
-596 218 486 0
596 -218 0
596 -486 0
-88 419 210 0
88 -419 0
88 -210 0
-597 295 317 0
597 -295 0
597 -317 0
-598 468 469 0
598 -468 0
598 -469 0
-146 470 144 0
146 -470 0
146 -144 0
-599 593 527 0
599 -593 0
599 -527 0
-600 594 597 0
600 -594 0
600 -597 0
-601 595 533 0
601 -595 0
601 -533 0
-64 395 228 0
64 -395 0
64 -228 0
-602 518 176 0
602 -518 0
602 -176 0
-603 491 240 0
603 -491 0
603 -240 0
-604 495 246 0
604 -495 0
604 -246 0
-605 583 600 0
605 -583 0
605 -600 0
-606 584 500 0
606 -584 0
606 -500 0
-607 507 166 0
607 -507 0
607 -166 0
-608 586 355 194 0
608 -586 0
608 -355 0
608 -194 0
-609 601 184 0
609 -601 0
609 -184 0
-74 405 254 0
74 -405 0
74 -254 0
-610 385 50 0
610 -385 0
610 -50 0
-611 389 54 0
611 -389 0
611 -54 0
-612 393 58 0
612 -393 0
612 -58 0
-613 397 62 0
613 -397 0
613 -62 0
-614 399 66 0
614 -399 0
614 -66 0
-615 403 68 0
615 -403 0
615 -68 0
-616 565 515 0
616 -565 0
616 -515 0
-617 609 535 0
617 -609 0
617 -535 0
-618 178 514 0
618 -178 0
618 -514 0
-619 602 517 0
619 -602 0
619 -517 0
-620 346 348 0
620 -346 0
620 -348 0
-621 356 22 0
621 -356 0
621 -22 0
-622 360 26 0
622 -360 0
622 -26 0
-12 337 160 0
12 -337 0
12 -160 0
-623 361 30 0
623 -361 0
623 -30 0
-624 329 331 0
624 -329 0
624 -331 0
-92 424 425 0
92 -424 0
92 -425 0
-625 303 279 0
625 -303 0
625 -279 0
-626 335 6 0
626 -335 0
626 -6 0
-18 343 14 0
18 -343 0
18 -14 0
-627 339 10 0
627 -339 0
627 -10 0
-94 426 427 0
94 -426 0
94 -427 0
-628 625 287 0
628 -625 0
628 -287 0
-8 332 162 0
8 -332 0
8 -162 0
-629 605 628 0
629 -605 0
629 -628 0
-630 172 511 0
630 -172 0
630 -511 0
-24 608 352 0
24 -608 0
24 -352 0
-631 505 180 0
631 -505 0
631 -180 0
-632 513 192 0
632 -513 0
632 -192 0
-633 543 532 0
633 -543 0
633 -532 0
-634 546 629 0
634 -546 0
634 -629 0
-635 547 384 0
635 -547 0
635 -384 0
-636 170 512 0
636 -170 0
636 -512 0
-52 635 380 0
52 -635 0
52 -380 0
-637 428 429 0
637 -428 0
637 -429 0
-638 634 268 0
638 -634 0
638 -268 0
-639 96 430 0
639 -96 0
639 -430 0
-150 474 475 0
150 -474 0
150 -475 0
-640 529 530 168 0
640 -529 0
640 -530 0
640 -168 0
-4 638 275 0
4 -638 0
4 -275 0
-641 520 521 0
641 -520 0
641 -521 0
-16 341 250 0
16 -341 0
16 -250 0
-642 487 232 0
642 -487 0
642 -232 0
-643 206 498 0
643 -206 0
643 -498 0
-644 519 190 0
644 -519 0
644 -190 0
-70 401 230 0
70 -401 0
70 -230 0
-100 431 98 0
100 -431 0
100 -98 0
-645 329 -330 0
645 -329 0
645 330 0
-646 -329 330 0
646 329 0
646 -330 0
-647 331 -304 0
647 -331 0
647 304 0
-648 -331 304 0
648 331 0
648 -304 0
-649 162 -161 0
649 -162 0
649 161 0
-650 -162 161 0
650 162 0
650 -161 0
-651 6 -5 0
651 -6 0
651 5 0
-652 -6 5 0
652 6 0
652 -5 0
-653 335 -336 0
653 -335 0
653 336 0
-654 -335 336 0
654 335 0
654 -336 0
-655 160 -159 0
655 -160 0
655 159 0
-656 -160 159 0
656 160 0
656 -159 0
-657 339 -340 0
657 -339 0
657 340 0
-658 -339 340 0
658 339 0
658 -340 0
-659 10 -9 0
659 -10 0
659 9 0
-660 -10 9 0
660 10 0
660 -9 0
-661 250 -249 0
661 -250 0
661 249 0
-662 -250 249 0
662 250 0
662 -249 0
-663 343 -344 0
663 -343 0
663 344 0
-664 -343 344 0
664 343 0
664 -344 0
-665 14 -13 0
665 -14 0
665 13 0
-666 -14 13 0
666 14 0
666 -13 0
-667 214 -213 0
667 -214 0
667 213 0
-668 -214 213 0
668 214 0
668 -213 0
-669 346 -347 0
669 -346 0
669 347 0
-670 -346 347 0
670 346 0
670 -347 0
-671 348 -349 0
671 -348 0
671 349 0
-672 -348 349 0
672 348 0
672 -349 0
-673 194 -193 0
673 -194 0
673 193 0
-674 -194 193 0
674 194 0
674 -193 0
-675 356 -357 0
675 -356 0
675 357 0
-676 -356 357 0
676 356 0
676 -357 0
-677 22 -21 0
677 -22 0
677 21 0
-678 -22 21 0
678 22 0
678 -21 0
-679 216 -215 0
679 -216 0
679 215 0
-680 -216 215 0
680 216 0
680 -215 0
-681 26 -25 0
681 -26 0
681 25 0
-682 -26 25 0
682 26 0
682 -25 0
-683 360 -333 0
683 -360 0
683 333 0
-684 -360 333 0
684 360 0
684 -333 0
-685 361 -338 0
685 -361 0
685 338 0
-686 -361 338 0
686 361 0
686 -338 0
-687 30 -29 0
687 -30 0
687 29 0
-688 -30 29 0
688 30 0
688 -29 0
-689 32 -31 0
689 -32 0
689 31 0
-690 -32 31 0
690 32 0
690 -31 0
-691 362 -363 0
691 -362 0
691 363 0
-692 -362 363 0
692 362 0
692 -363 0
-693 252 -251 0
693 -252 0
693 251 0
-694 -252 251 0
694 252 0
694 -251 0
-695 34 -33 0
695 -34 0
695 33 0
-696 -34 33 0
696 34 0
696 -33 0
-697 366 -367 0
697 -366 0
697 367 0
-698 -366 367 0
698 366 0
698 -367 0
-699 200 -199 0
699 -200 0
699 199 0
-700 -200 199 0
700 200 0
700 -199 0
-701 38 -37 0
701 -38 0
701 37 0
-702 -38 37 0
702 38 0
702 -37 0
-703 370 -371 0
703 -370 0
703 371 0
-704 -370 371 0
704 370 0
704 -371 0
-705 220 -219 0
705 -220 0
705 219 0
-706 -220 219 0
706 220 0
706 -219 0
-707 374 -375 0
707 -374 0
707 375 0
-708 -374 375 0
708 374 0
708 -375 0
-709 42 -41 0
709 -42 0
709 41 0
-710 -42 41 0
710 42 0
710 -41 0
-711 222 -221 0
711 -222 0
711 221 0
-712 -222 221 0
712 222 0
712 -221 0
-713 378 -379 0
713 -378 0
713 379 0
-714 -378 379 0
714 378 0
714 -379 0
-715 46 -45 0
715 -46 0
715 45 0
-716 -46 45 0
716 46 0
716 -45 0
-717 174 -173 0
717 -174 0
717 173 0
-718 -174 173 0
718 174 0
718 -173 0
-719 50 -49 0
719 -50 0
719 49 0
-720 -50 49 0
720 50 0
720 -49 0
-721 385 -386 0
721 -385 0
721 386 0
-722 -385 386 0
722 385 0
722 -386 0
-723 224 -223 0
723 -224 0
723 223 0
-724 -224 223 0
724 224 0
724 -223 0
-725 54 -53 0
725 -54 0
725 53 0
-726 -54 53 0
726 54 0
726 -53 0
-727 389 -390 0
727 -389 0
727 390 0
-728 -389 390 0
728 389 0
728 -390 0
-729 226 -225 0
729 -226 0
729 225 0
-730 -226 225 0
730 226 0
730 -225 0
-731 393 -394 0
731 -393 0
731 394 0
-732 -393 394 0
732 393 0
732 -394 0
-733 58 -57 0
733 -58 0
733 57 0
-734 -58 57 0
734 58 0
734 -57 0
-735 228 -227 0
735 -228 0
735 227 0
-736 -228 227 0
736 228 0
736 -227 0
-737 397 -398 0
737 -397 0
737 398 0
-738 -397 398 0
738 397 0
738 -398 0
-739 62 -61 0
739 -62 0
739 61 0
-740 -62 61 0
740 62 0
740 -61 0
-741 66 -65 0
741 -66 0
741 65 0
-742 -66 65 0
742 66 0
742 -65 0
-743 399 -400 0
743 -399 0
743 400 0
-744 -399 400 0
744 399 0
744 -400 0
-745 230 -229 0
745 -230 0
745 229 0
-746 -230 229 0
746 230 0
746 -229 0
-747 403 -404 0
747 -403 0
747 404 0
-748 -403 404 0
748 403 0
748 -404 0
-749 68 -67 0
749 -68 0
749 67 0
-750 -68 67 0
750 68 0
750 -67 0
-751 254 -253 0
751 -254 0
751 253 0
-752 -254 253 0
752 254 0
752 -253 0
-753 72 -71 0
753 -72 0
753 71 0
-754 -72 71 0
754 72 0
754 -71 0
-755 407 -408 0
755 -407 0
755 408 0
-756 -407 408 0
756 407 0
756 -408 0
-757 409 -410 0
757 -409 0
757 410 0
-758 -409 410 0
758 409 0
758 -410 0
-759 76 -75 0
759 -76 0
759 75 0
-760 -76 75 0
760 76 0
760 -75 0
-761 256 -255 0
761 -256 0
761 255 0
-762 -256 255 0
762 256 0
762 -255 0
-763 78 -77 0
763 -78 0
763 77 0
-764 -78 77 0
764 78 0
764 -77 0
-765 413 -414 0
765 -413 0
765 414 0
-766 -413 414 0
766 413 0
766 -414 0
-767 248 -247 0
767 -248 0
767 247 0
-768 -248 247 0
768 248 0
768 -247 0
-769 82 -81 0
769 -82 0
769 81 0
-770 -82 81 0
770 82 0
770 -81 0
-771 417 -418 0
771 -417 0
771 418 0
-772 -417 418 0
772 417 0
772 -418 0
-773 210 -209 0
773 -210 0
773 209 0
-774 -210 209 0
774 210 0
774 -209 0
-775 86 -85 0
775 -86 0
775 85 0
-776 -86 85 0
776 86 0
776 -85 0
-777 421 -422 0
777 -421 0
777 422 0
-778 -421 422 0
778 421 0
778 -422 0
-779 424 -280 0
779 -424 0
779 280 0
-780 -424 280 0
780 424 0
780 -280 0
-781 425 -281 0
781 -425 0
781 281 0
-782 -425 281 0
782 425 0
782 -281 0
-783 426 -289 0
783 -426 0
783 289 0
-784 -426 289 0
784 426 0
784 -289 0
-785 427 -288 0
785 -427 0
785 288 0
-786 -427 288 0
786 427 0
786 -288 0
-787 428 -270 0
787 -428 0
787 270 0
-788 -428 270 0
788 428 0
788 -270 0
-789 429 -269 0
789 -429 0
789 269 0
-790 -429 269 0
790 429 0
790 -269 0
-791 96 -95 0
791 -96 0
791 95 0
-792 -96 95 0
792 96 0
792 -95 0
-793 430 -381 0
793 -430 0
793 381 0
-794 -430 381 0
794 430 0
794 -381 0
-795 431 -402 0
795 -431 0
795 402 0
-796 -431 402 0
796 431 0
796 -402 0
-797 98 -97 0
797 -98 0
797 97 0
-798 -98 97 0
798 98 0
798 -97 0
-799 432 -315 0
799 -432 0
799 315 0
-800 -432 315 0
800 432 0
800 -315 0
-801 433 -314 0
801 -433 0
801 314 0
-802 -433 314 0
802 433 0
802 -314 0
-803 434 -435 0
803 -434 0
803 435 0
-804 -434 435 0
804 434 0
804 -435 0
-805 102 -101 0
805 -102 0
805 101 0
-806 -102 101 0
806 102 0
806 -101 0
-807 436 -359 0
807 -436 0
807 359 0
-808 -436 359 0
808 436 0
808 -359 0
-809 437 -311 0
809 -437 0
809 311 0
-810 -437 311 0
810 437 0
810 -311 0
-811 438 -392 0
811 -438 0
811 392 0
-812 -438 392 0
812 438 0
812 -392 0
-813 106 -105 0
813 -106 0
813 105 0
-814 -106 105 0
814 106 0
814 -105 0
-815 108 -107 0
815 -108 0
815 107 0
-816 -108 107 0
816 108 0
816 -107 0
-817 439 -406 0
817 -439 0
817 406 0
-818 -439 406 0
818 439 0
818 -406 0
-819 440 -412 0
819 -440 0
819 412 0
-820 -440 412 0
820 440 0
820 -412 0
-821 110 -109 0
821 -110 0
821 109 0
-822 -110 109 0
822 110 0
822 -109 0
-823 441 -307 0
823 -441 0
823 307 0
-824 -441 307 0
824 441 0
824 -307 0
-825 442 -308 0
825 -442 0
825 308 0
-826 -442 308 0
826 442 0
826 -308 0
-827 443 -285 0
827 -443 0
827 285 0
-828 -443 285 0
828 443 0
828 -285 0
-829 444 -284 0
829 -444 0
829 284 0
-830 -444 284 0
830 444 0
830 -284 0
-831 445 -377 0
831 -445 0
831 377 0
-832 -445 377 0
832 445 0
832 -377 0
-833 116 -115 0
833 -116 0
833 115 0
-834 -116 115 0
834 116 0
834 -115 0
-835 446 -265 0
835 -446 0
835 265 0
-836 -446 265 0
836 446 0
836 -265 0
-837 447 -266 0
837 -447 0
837 266 0
-838 -447 266 0
838 447 0
838 -266 0
-839 120 -119 0
839 -120 0
839 119 0
-840 -120 119 0
840 120 0
840 -119 0
-841 448 -369 0
841 -448 0
841 369 0
-842 -448 369 0
842 448 0
842 -369 0
-843 449 -388 0
843 -449 0
843 388 0
-844 -449 388 0
844 449 0
844 -388 0
-845 122 -121 0
845 -122 0
845 121 0
-846 -122 121 0
846 122 0
846 -121 0
-847 450 -396 0
847 -450 0
847 396 0
-848 -450 396 0
848 450 0
848 -396 0
-849 124 -123 0
849 -124 0
849 123 0
-850 -124 123 0
850 124 0
850 -123 0
-851 451 -373 0
851 -451 0
851 373 0
-852 -451 373 0
852 451 0
852 -373 0
-853 452 -262 0
853 -452 0
853 262 0
-854 -452 262 0
854 452 0
854 -262 0
-855 453 -383 0
855 -453 0
855 383 0
-856 -453 383 0
856 453 0
856 -383 0
-857 128 -127 0
857 -128 0
857 127 0
-858 -128 127 0
858 128 0
858 -127 0
-859 454 -301 0
859 -454 0
859 301 0
-860 -454 301 0
860 454 0
860 -301 0
-861 455 -300 0
861 -455 0
861 300 0
-862 -455 300 0
862 455 0
862 -300 0
-863 456 -457 0
863 -456 0
863 457 0
-864 -456 457 0
864 456 0
864 -457 0
-865 458 -321 0
865 -458 0
865 321 0
-866 -458 321 0
866 458 0
866 -321 0
-867 459 -327 0
867 -459 0
867 327 0
-868 -459 327 0
868 459 0
868 -327 0
-869 460 -461 0
869 -460 0
869 461 0
-870 -460 461 0
870 460 0
870 -461 0
-871 462 -273 0
871 -462 0
871 273 0
-872 -462 273 0
872 462 0
872 -273 0
-873 463 -365 0
873 -463 0
873 365 0
-874 -463 365 0
874 463 0
874 -365 0
-875 138 -137 0
875 -138 0
875 137 0
-876 -138 137 0
876 138 0
876 -137 0
-877 464 -342 0
877 -464 0
877 342 0
-878 -464 342 0
878 464 0
878 -342 0
-879 465 -466 0
879 -465 0
879 466 0
-880 -465 466 0
880 465 0
880 -466 0
-881 467 -324 0
881 -467 0
881 324 0
-882 -467 324 0
882 467 0
882 -324 0
-883 468 -318 0
883 -468 0
883 318 0
-884 -468 318 0
884 468 0
884 -318 0
-885 469 -420 0
885 -469 0
885 420 0
-886 -469 420 0
886 469 0
886 -420 0
-887 470 -471 0
887 -470 0
887 471 0
-888 -470 471 0
888 470 0
888 -471 0
-889 144 -143 0
889 -144 0
889 143 0
-890 -144 143 0
890 144 0
890 -143 0
-891 472 -296 0
891 -472 0
891 296 0
-892 -472 296 0
892 472 0
892 -296 0
-893 473 -297 0
893 -473 0
893 297 0
-894 -473 297 0
894 473 0
894 -297 0
-895 474 -277 0
895 -474 0
895 277 0
-896 -474 277 0
896 474 0
896 -277 0
-897 475 -276 0
897 -475 0
897 276 0
-898 -475 276 0
898 475 0
898 -276 0
-899 476 -293 0
899 -476 0
899 293 0
-900 -476 293 0
900 476 0
900 -293 0
-901 477 -292 0
901 -477 0
901 292 0
-902 -477 292 0
902 477 0
902 -292 0
-903 152 -151 0
903 -152 0
903 151 0
-904 -152 151 0
904 152 0
904 -151 0
-905 478 -416 0
905 -478 0
905 416 0
-906 -478 416 0
906 478 0
906 -416 0
-907 154 -153 0
907 -154 0
907 153 0
-908 -154 153 0
908 154 0
908 -153 0
-909 479 -351 0
909 -479 0
909 351 0
-910 -479 351 0
910 479 0
910 -351 0
-911 480 -259 0
911 -480 0
911 259 0
-912 -480 259 0
912 480 0
912 -259 0
-913 481 -258 0
913 -481 0
913 258 0
-914 -481 258 0
914 481 0
914 -258 0
-915 218 -217 0
915 -218 0
915 217 0
-916 -218 217 0
916 218 0
916 -217 0
-917 232 -231 0
917 -232 0
917 231 0
-918 -232 231 0
918 232 0
918 -231 0
-919 234 -233 0
919 -234 0
919 233 0
-920 -234 233 0
920 234 0
920 -233 0
-921 236 -235 0
921 -236 0
921 235 0
-922 -236 235 0
922 236 0
922 -235 0
-923 238 -237 0
923 -238 0
923 237 0
-924 -238 237 0
924 238 0
924 -237 0
-925 240 -239 0
925 -240 0
925 239 0
-926 -240 239 0
926 240 0
926 -239 0
-927 242 -241 0
927 -242 0
927 241 0
-928 -242 241 0
928 242 0
928 -241 0
-929 198 -197 0
929 -198 0
929 197 0
-930 -198 197 0
930 198 0
930 -197 0
-931 244 -243 0
931 -244 0
931 243 0
-932 -244 243 0
932 244 0
932 -243 0
-933 246 -245 0
933 -246 0
933 245 0
-934 -246 245 0
934 246 0
934 -245 0
-935 202 -201 0
935 -202 0
935 201 0
-936 -202 201 0
936 202 0
936 -201 0
-937 204 -203 0
937 -204 0
937 203 0
-938 -204 203 0
938 204 0
938 -203 0
-939 206 -205 0
939 -206 0
939 205 0
-940 -206 205 0
940 206 0
940 -205 0
-941 208 -207 0
941 -208 0
941 207 0
-942 -208 207 0
942 208 0
942 -207 0
-943 212 -211 0
943 -212 0
943 211 0
-944 -212 211 0
944 212 0
944 -211 0
-945 180 -179 0
945 -180 0
945 179 0
-946 -180 179 0
946 180 0
946 -179 0
-947 166 -165 0
947 -166 0
947 165 0
-948 -166 165 0
948 166 0
948 -165 0
-949 186 -185 0
949 -186 0
949 185 0
-950 -186 185 0
950 186 0
950 -185 0
-951 172 -171 0
951 -172 0
951 171 0
-952 -172 171 0
952 172 0
952 -171 0
-953 170 -169 0
953 -170 0
953 169 0
-954 -170 169 0
954 170 0
954 -169 0
-955 192 -191 0
955 -192 0
955 191 0
-956 -192 191 0
956 192 0
956 -191 0
-957 178 -177 0
957 -178 0
957 177 0
-958 -178 177 0
958 178 0
958 -177 0
-959 182 -181 0
959 -182 0
959 181 0
-960 -182 181 0
960 182 0
960 -181 0
-961 176 -175 0
961 -176 0
961 175 0
-962 -176 175 0
962 176 0
962 -175 0
-963 190 -189 0
963 -190 0
963 189 0
-964 -190 189 0
964 190 0
964 -189 0
-965 188 -187 0
965 -188 0
965 187 0
-966 -188 187 0
966 188 0
966 -187 0
-967 168 -167 0
967 -168 0
967 167 0
-968 -168 167 0
968 168 0
968 -167 0
-969 164 -163 0
969 -164 0
969 163 0
-970 -164 163 0
970 164 0
970 -163 0
-971 184 -183 0
971 -184 0
971 183 0
-972 -184 183 0
972 184 0
972 -183 0
-973 196 -195 0
973 -196 0
973 195 0
-974 -196 195 0
974 196 0
974 -195 0
-975 -43 44 0
975 43 0
975 -44 0
-976 43 -44 0
976 -43 0
976 44 0
-977 -131 132 0
977 131 0
977 -132 0
-978 131 -132 0
978 -131 0
978 132 0
-979 -129 130 0
979 129 0
979 -130 0
-980 129 -130 0
980 -129 0
980 130 0
-981 -169 542 0
981 169 0
981 -542 0
-982 169 -542 0
982 -169 0
982 542 0
-983 -127 540 0
983 127 0
983 -540 0
-984 127 -540 0
984 -127 0
984 540 0
-985 -35 36 0
985 35 0
985 -36 0
-986 35 -36 0
986 -35 0
986 36 0
-987 -139 140 0
987 139 0
987 -140 0
-988 139 -140 0
988 -139 0
988 140 0
-989 -163 544 0
989 163 0
989 -544 0
-990 163 -544 0
990 -163 0
990 544 0
-991 -137 545 0
991 137 0
991 -545 0
-992 137 -545 0
992 -137 0
992 545 0
-993 -41 549 0
993 41 0
993 -549 0
-994 41 -549 0
994 -41 0
994 549 0
-995 -45 550 0
995 45 0
995 -550 0
-996 45 -550 0
996 -45 0
996 550 0
-997 -33 553 0
997 33 0
997 -553 0
-998 33 -553 0
998 -33 0
998 553 0
-999 -27 28 0
999 27 0
999 -28 0
-1000 27 -28 0
1000 -27 0
1000 28 0
-1001 -113 114 0
1001 113 0
1001 -114 0
-1002 113 -114 0
1002 -113 0
1002 114 0
-1003 -171 556 0
1003 171 0
1003 -556 0
-1004 171 -556 0
1004 -171 0
1004 556 0
-1005 -47 48 0
1005 47 0
1005 -48 0
-1006 47 -48 0
1006 -47 0
1006 48 0
-1007 -117 118 0
1007 117 0
1007 -118 0
-1008 117 -118 0
1008 -117 0
1008 118 0
-1009 -135 136 0
1009 135 0
1009 -136 0
-1010 135 -136 0
1010 -135 0
1010 136 0
-1011 -115 558 0
1011 115 0
1011 -558 0
-1012 115 -558 0
1012 -115 0
1012 558 0
-1013 -191 560 0
1013 191 0
1013 -560 0
-1014 191 -560 0
1014 -191 0
1014 560 0
-1015 -243 524 0
1015 243 0
1015 -524 0
-1016 243 -524 0
1016 -243 0
1016 524 0
-1017 -105 554 0
1017 105 0
1017 -554 0
-1018 105 -554 0
1018 -105 0
1018 554 0
-1019 -111 112 0
1019 111 0
1019 -112 0
-1020 111 -112 0
1020 -111 0
1020 112 0
-1021 -109 566 0
1021 109 0
1021 -566 0
-1022 109 -566 0
1022 -109 0
1022 566 0
-1023 -181 561 0
1023 181 0
1023 -561 0
-1024 181 -561 0
1024 -181 0
1024 561 0
-1025 -59 60 0
1025 59 0
1025 -60 0
-1026 59 -60 0
1026 -59 0
1026 60 0
-1027 -83 84 0
1027 83 0
1027 -84 0
-1028 83 -84 0
1028 -83 0
1028 84 0
-1029 -157 158 0
1029 157 0
1029 -158 0
-1030 157 -158 0
1030 -157 0
1030 158 0
-1031 -151 567 0
1031 151 0
1031 -567 0
-1032 151 -567 0
1032 -151 0
1032 567 0
-1033 -155 156 0
1033 155 0
1033 -156 0
-1034 155 -156 0
1034 -155 0
1034 156 0
-1035 -187 569 0
1035 187 0
1035 -569 0
-1036 187 -569 0
1036 -187 0
1036 569 0
-1037 -103 104 0
1037 103 0
1037 -104 0
-1038 103 -104 0
1038 -103 0
1038 104 0
-1039 -101 571 0
1039 101 0
1039 -571 0
-1040 101 -571 0
1040 -101 0
1040 571 0
-1041 -153 568 0
1041 153 0
1041 -568 0
-1042 153 -568 0
1042 -153 0
1042 568 0
-1043 -185 572 0
1043 185 0
1043 -572 0
-1044 185 -572 0
1044 -185 0
1044 572 0
-1045 -19 20 0
1045 19 0
1045 -20 0
-1046 19 -20 0
1046 -19 0
1046 20 0
-1047 -89 90 0
1047 89 0
1047 -90 0
-1048 89 -90 0
1048 -89 0
1048 90 0
-1049 -1050 423 0
1049 1050 0
1049 -423 0
-1051 1050 -423 0
1051 -1050 0
1051 423 0
-1052 -85 578 0
1052 85 0
1052 -578 0
-1053 85 -578 0
1053 -85 0
1053 578 0
-1054 -75 576 0
1054 75 0
1054 -576 0
-1055 75 -576 0
1055 -75 0
1055 576 0
-1056 -81 579 0
1056 81 0
1056 -579 0
-1057 81 -579 0
1057 -81 0
1057 579 0
-1058 -211 575 0
1058 211 0
1058 -575 0
-1059 211 -575 0
1059 -211 0
1059 575 0
-1060 -77 577 0
1060 77 0
1060 -577 0
-1061 77 -577 0
1061 -77 0
1061 577 0
-1062 -107 557 0
1062 107 0
1062 -557 0
-1063 107 -557 0
1063 -107 0
1063 557 0
-1064 -213 582 0
1064 213 0
1064 -582 0
-1065 213 -582 0
1065 -213 0
1065 582 0
-1066 -247 580 0
1066 247 0
1066 -580 0
-1067 247 -580 0
1067 -247 0
1067 580 0
-1068 -255 581 0
1068 255 0
1068 -581 0
-1069 255 -581 0
1069 -255 0
1069 581 0
-1070 -125 126 0
1070 125 0
1070 -126 0
-1071 125 -126 0
1071 -125 0
1071 126 0
-1072 -123 587 0
1072 123 0
1072 -587 0
-1073 123 -587 0
1073 -123 0
1073 587 0
-1074 -55 56 0
1074 55 0
1074 -56 0
-1075 55 -56 0
1075 -55 0
1075 56 0
-1076 -141 142 0
1076 141 0
1076 -142 0
-1077 141 -142 0
1077 -141 0
1077 142 0
-1078 -39 40 0
1078 39 0
1078 -40 0
-1079 39 -40 0
1079 -39 0
1079 40 0
-1080 -133 134 0
1080 133 0
1080 -134 0
-1081 133 -134 0
1081 -133 0
1081 134 0
-1082 -119 589 0
1082 119 0
1082 -589 0
-1083 119 -589 0
1083 -119 0
1083 589 0
-1084 -177 588 0
1084 177 0
1084 -588 0
-1085 177 -588 0
1085 -177 0
1085 588 0
-1086 -179 591 0
1086 179 0
1086 -591 0
-1087 179 -591 0
1087 -179 0
1087 591 0
-1088 -121 590 0
1088 121 0
1088 -590 0
-1089 121 -590 0
1089 -121 0
1089 590 0
-1090 -147 148 0
1090 147 0
1090 -148 0
-1091 147 -148 0
1091 -147 0
1091 148 0
-1092 -165 596 0
1092 165 0
1092 -596 0
-1093 165 -596 0
1093 -165 0
1093 596 0
-1094 -87 88 0
1094 87 0
1094 -88 0
-1095 87 -88 0
1095 -87 0
1095 88 0
-1096 -145 146 0
1096 145 0
1096 -146 0
-1097 145 -146 0
1097 -145 0
1097 146 0
-1098 -143 598 0
1098 143 0
1098 -598 0
-1099 143 -598 0
1099 -143 0
1099 598 0
-1100 -239 523 0
1100 239 0
1100 -523 0
-1101 239 -523 0
1101 -239 0
1101 523 0
-1102 -195 585 0
1102 195 0
1102 -585 0
-1103 195 -585 0
1103 -195 0
1103 585 0
-1104 -79 80 0
1104 79 0
1104 -80 0
-1105 79 -80 0
1105 -79 0
1105 80 0
-1106 -245 599 0
1106 245 0
1106 -599 0
-1107 245 -599 0
1107 -245 0
1107 599 0
-1108 -63 64 0
1108 63 0
1108 -64 0
-1109 63 -64 0
1109 -63 0
1109 64 0
-1110 -175 603 0
1110 175 0
1110 -603 0
-1111 175 -603 0
1111 -175 0
1111 603 0
-1112 -53 610 0
1112 53 0
1112 -610 0
-1113 53 -610 0
1113 -53 0
1113 610 0
-1114 -65 613 0
1114 65 0
1114 -613 0
-1115 65 -613 0
1115 -65 0
1115 613 0
-1116 -57 611 0
1116 57 0
1116 -611 0
-1117 57 -611 0
1117 -57 0
1117 611 0
-1118 -67 614 0
1118 67 0
1118 -614 0
-1119 67 -614 0
1119 -67 0
1119 614 0
-1120 -183 604 0
1120 183 0
1120 -604 0
-1121 183 -604 0
1121 -183 0
1121 604 0
-1122 -209 607 0
1122 209 0
1122 -607 0
-1123 209 -607 0
1123 -209 0
1123 607 0
-1124 -73 74 0
1124 73 0
1124 -74 0
-1125 73 -74 0
1125 -73 0
1125 74 0
-1126 -193 606 0
1126 193 0
1126 -606 0
-1127 193 -606 0
1127 -193 0
1127 606 0
-1128 -61 612 0
1128 61 0
1128 -612 0
-1129 61 -612 0
1129 -61 0
1129 612 0
-1130 -21 620 0
1130 21 0
1130 -620 0
-1131 21 -620 0
1131 -21 0
1131 620 0
-1132 -25 621 0
1132 25 0
1132 -621 0
-1133 25 -621 0
1133 -25 0
1133 621 0
-1134 -11 12 0
1134 11 0
1134 -12 0
-1135 11 -12 0
1135 -11 0
1135 12 0
-1136 -91 92 0
1136 91 0
1136 -92 0
-1137 91 -92 0
1137 -91 0
1137 92 0
-1138 -161 483 0
1138 161 0
1138 -483 0
-1139 161 -483 0
1139 -161 0
1139 483 0
-1140 -17 18 0
1140 17 0
1140 -18 0
-1141 17 -18 0
1141 -17 0
1141 18 0
-1142 -93 94 0
1142 93 0
1142 -94 0
-1143 93 -94 0
1143 -93 0
1143 94 0
-1144 -5 624 0
1144 5 0
1144 -624 0
-1145 5 -624 0
1145 -5 0
1145 624 0
-1146 -13 627 0
1146 13 0
1146 -627 0
-1147 13 -627 0
1147 -13 0
1147 627 0
-1148 -29 622 0
1148 29 0
1148 -622 0
-1149 29 -622 0
1149 -29 0
1149 622 0
-1150 -9 626 0
1150 9 0
1150 -626 0
-1151 9 -626 0
1151 -9 0
1151 626 0
-1152 -253 617 0
1152 253 0
1152 -617 0
-1153 253 -617 0
1153 -253 0
1153 617 0
-1154 -223 618 0
1154 223 0
1154 -618 0
-1155 223 -618 0
1155 -223 0
1155 618 0
-1156 -225 616 0
1156 225 0
1156 -616 0
-1157 225 -616 0
1157 -225 0
1157 616 0
-1158 -227 619 0
1158 227 0
1158 -619 0
-1159 227 -619 0
1159 -227 0
1159 619 0
-1160 -71 615 0
1160 71 0
1160 -615 0
-1161 71 -615 0
1161 -71 0
1161 615 0
-1162 -159 482 0
1162 159 0
1162 -482 0
-1163 159 -482 0
1163 -159 0
1163 482 0
-1164 -7 8 0
1164 7 0
1164 -8 0
-1165 7 -8 0
1165 -7 0
1165 8 0
-1166 -37 552 0
1166 37 0
1166 -552 0
-1167 37 -552 0
1167 -37 0
1167 552 0
-1168 -215 630 0
1168 215 0
1168 -630 0
-1169 215 -630 0
1169 -215 0
1169 630 0
-1170 -201 506 0
1170 201 0
1170 -506 0
-1171 201 -506 0
1171 -201 0
1171 506 0
-1172 -23 24 0
1172 23 0
1172 -24 0
-1173 23 -24 0
1173 -23 0
1173 24 0
-1174 -173 548 0
1174 173 0
1174 -548 0
-1175 173 -548 0
1175 -173 0
1175 548 0
-1176 -49 551 0
1176 49 0
1176 -551 0
-1177 49 -551 0
1177 -49 0
1177 551 0
-1178 -199 631 0
1178 199 0
1178 -631 0
-1179 199 -631 0
1179 -199 0
1179 631 0
-1180 -221 632 0
1180 221 0
1180 -632 0
-1181 221 -632 0
1181 -221 0
1181 632 0
-1182 -31 623 0
1182 31 0
1182 -623 0
-1183 31 -623 0
1183 -31 0
1183 623 0
-1184 -219 636 0
1184 219 0
1184 -636 0
-1185 219 -636 0
1185 -219 0
1185 636 0
-1186 -251 633 0
1186 251 0
1186 -633 0
-1187 251 -633 0
1187 -251 0
1187 633 0
-1188 -51 52 0
1188 51 0
1188 -52 0
-1189 51 -52 0
1189 -51 0
1189 52 0
-1190 -237 522 0
1190 237 0
1190 -522 0
-1191 237 -522 0
1191 -237 0
1191 522 0
-1192 -149 150 0
1192 149 0
1192 -150 0
-1193 149 -150 0
1193 -149 0
1193 150 0
-1194 -95 637 0
1194 95 0
1194 -637 0
-1195 95 -637 0
1195 -95 0
1195 637 0
-1196 -231 641 0
1196 231 0
1196 -641 0
-1197 231 -641 0
1197 -231 0
1197 641 0
-1198 -249 640 0
1198 249 0
1198 -640 0
-1199 249 -640 0
1199 -249 0
1199 640 0
-1200 -3 4 0
1200 3 0
1200 -4 0
-1201 3 -4 0
1201 -3 0
1201 4 0
-1202 -167 642 0
1202 167 0
1202 -642 0
-1203 167 -642 0
1203 -167 0
1203 642 0
-1204 -189 643 0
1204 189 0
1204 -643 0
-1205 189 -643 0
1205 -189 0
1205 643 0
-1206 -229 644 0
1206 229 0
1206 -644 0
-1207 229 -644 0
1207 -229 0
1207 644 0
-1208 -15 16 0
1208 15 0
1208 -16 0
-1209 15 -16 0
1209 -15 0
1209 16 0
-1210 -69 70 0
1210 69 0
1210 -70 0
-1211 69 -70 0
1211 -69 0
1211 70 0
-1212 -1 2 0
1212 1 0
1212 -2 0
-1213 1 -2 0
1213 -1 0
1213 2 0
-1214 -99 100 0
1214 99 0
1214 -100 0
-1215 99 -100 0
1215 -99 0
1215 100 0
-1216 -97 639 0
1216 97 0
1216 -639 0
-1217 97 -639 0
1217 -97 0
1217 639 0
645 0
646 0
647 0
648 0
649 0
650 0
651 0
652 0
653 0
654 0
655 0
656 0
657 0
658 0
659 0
660 0
661 0
662 0
663 0
664 0
665 0
666 0
667 0
668 0
669 0
670 0
671 0
672 0
673 0
674 0
675 0
676 0
677 0
678 0
679 0
680 0
681 0
682 0
683 0
684 0
685 0
686 0
687 0
688 0
689 0
690 0
691 0
692 0
693 0
694 0
695 0
696 0
697 0
698 0
699 0
700 0
701 0
702 0
703 0
704 0
705 0
706 0
707 0
708 0
709 0
710 0
711 0
712 0
713 0
714 0
715 0
716 0
717 0
718 0
719 0
720 0
721 0
722 0
723 0
724 0
725 0
726 0
727 0
728 0
729 0
730 0
731 0
732 0
733 0
734 0
735 0
736 0
737 0
738 0
739 0
740 0
741 0
742 0
743 0
744 0
745 0
746 0
747 0
748 0
749 0
750 0
751 0
752 0
753 0
754 0
755 0
756 0
757 0
758 0
759 0
760 0
761 0
762 0
763 0
764 0
765 0
766 0
767 0
768 0
769 0
770 0
771 0
772 0
773 0
774 0
775 0
776 0
777 0
778 0
779 0
780 0
781 0
782 0
783 0
784 0
785 0
786 0
787 0
788 0
789 0
790 0
791 0
792 0
793 0
794 0
795 0
796 0
797 0
798 0
799 0
800 0
801 0
802 0
803 0
804 0
805 0
806 0
807 0
808 0
809 0
810 0
811 0
812 0
813 0
814 0
815 0
816 0
817 0
818 0
819 0
820 0
821 0
822 0
823 0
824 0
825 0
826 0
827 0
828 0
829 0
830 0
831 0
832 0
833 0
834 0
835 0
836 0
837 0
838 0
839 0
840 0
841 0
842 0
843 0
844 0
845 0
846 0
847 0
848 0
849 0
850 0
851 0
852 0
853 0
854 0
855 0
856 0
857 0
858 0
859 0
860 0
861 0
862 0
863 0
864 0
865 0
866 0
867 0
868 0
869 0
870 0
871 0
872 0
873 0
874 0
875 0
876 0
877 0
878 0
879 0
880 0
881 0
882 0
883 0
884 0
885 0
886 0
887 0
888 0
889 0
890 0
891 0
892 0
893 0
894 0
895 0
896 0
897 0
898 0
899 0
900 0
901 0
902 0
903 0
904 0
905 0
906 0
907 0
908 0
909 0
910 0
911 0
912 0
913 0
914 0
915 0
916 0
917 0
918 0
919 0
920 0
921 0
922 0
923 0
924 0
925 0
926 0
927 0
928 0
929 0
930 0
931 0
932 0
933 0
934 0
935 0
936 0
937 0
938 0
939 0
940 0
941 0
942 0
943 0
944 0
945 0
946 0
947 0
948 0
949 0
950 0
951 0
952 0
953 0
954 0
955 0
956 0
957 0
958 0
959 0
960 0
961 0
962 0
963 0
964 0
965 0
966 0
967 0
968 0
969 0
970 0
971 0
972 0
973 0
974 0
975 0
976 0
977 0
978 0
979 0
980 0
981 0
982 0
983 0
984 0
985 0
986 0
987 0
988 0
989 0
990 0
991 0
992 0
993 0
994 0
995 0
996 0
997 0
998 0
999 0
1000 0
1001 0
1002 0
1003 0
1004 0
1005 0
1006 0
1007 0
1008 0
1009 0
1010 0
1011 0
1012 0
1013 0
1014 0
1015 0
1016 0
1017 0
1018 0
1019 0
1020 0
1021 0
1022 0
1023 0
1024 0
1025 0
1026 0
1027 0
1028 0
1029 0
1030 0
1031 0
1032 0
1033 0
1034 0
1035 0
1036 0
1037 0
1038 0
1039 0
1040 0
1041 0
1042 0
1043 0
1044 0
1045 0
1046 0
1047 0
1048 0
1049 0
1051 0
1052 0
1053 0
1054 0
1055 0
1056 0
1057 0
1058 0
1059 0
1060 0
1061 0
1062 0
1063 0
1064 0
1065 0
1066 0
1067 0
1068 0
1069 0
1070 0
1071 0
1072 0
1073 0
1074 0
1075 0
1076 0
1077 0
1078 0
1079 0
1080 0
1081 0
1082 0
1083 0
1084 0
1085 0
1086 0
1087 0
1088 0
1089 0
1090 0
1091 0
1092 0
1093 0
1094 0
1095 0
1096 0
1097 0
1098 0
1099 0
1100 0
1101 0
1102 0
1103 0
1104 0
1105 0
1106 0
1107 0
1108 0
1109 0
1110 0
1111 0
1112 0
1113 0
1114 0
1115 0
1116 0
1117 0
1118 0
1119 0
1120 0
1121 0
1122 0
1123 0
1124 0
1125 0
1126 0
1127 0
1128 0
1129 0
1130 0
1131 0
1132 0
1133 0
1134 0
1135 0
1136 0
1137 0
1138 0
1139 0
1140 0
1141 0
1142 0
1143 0
1144 0
1145 0
1146 0
1147 0
1148 0
1149 0
1150 0
1151 0
1152 0
1153 0
1154 0
1155 0
1156 0
1157 0
1158 0
1159 0
1160 0
1161 0
1162 0
1163 0
1164 0
1165 0
1166 0
1167 0
1168 0
1169 0
1170 0
1171 0
1172 0
1173 0
1174 0
1175 0
1176 0
1177 0
1178 0
1179 0
1180 0
1181 0
1182 0
1183 0
1184 0
1185 0
1186 0
1187 0
1188 0
1189 0
1190 0
1191 0
1192 0
1193 0
1194 0
1195 0
1196 0
1197 0
1198 0
1199 0
1200 0
1201 0
1202 0
1203 0
1204 0
1205 0
1206 0
1207 0
1208 0
1209 0
1210 0
1211 0
1212 0
1213 0
1214 0
1215 0
1216 0
1217 0
2 0
-233 0
-235 0
-207 0
-203 0
-241 0
-197 0
-217 0
-205 0
