c BC-S1.2
p cnf 1428 4409
1 -2 0
-1 2 0
3 -4 0
-3 4 0
5 -6 0
-5 6 0
7 -8 0
-7 8 0
9 -10 0
-9 10 0
11 -12 0
-11 12 0
13 -14 0
-13 14 0
15 -16 0
-15 16 0
17 -18 0
-17 18 0
19 -20 0
-19 20 0
21 -22 0
-21 22 0
23 -24 0
-23 24 0
25 -26 0
-25 26 0
27 -28 0
-27 28 0
29 -30 0
-29 30 0
31 -32 0
-31 32 0
33 -34 0
-33 34 0
35 -36 0
-35 36 0
37 -38 0
-37 38 0
39 -40 0
-39 40 0
41 -42 0
-41 42 0
43 -44 0
-43 44 0
45 -46 0
-45 46 0
47 -48 0
-47 48 0
49 -50 0
-49 50 0
51 -52 0
-51 52 0
53 -54 0
-53 54 0
55 -56 0
-55 56 0
57 -58 0
-57 58 0
59 -60 0
-59 60 0
61 -62 0
-61 62 0
63 -64 0
-63 64 0
65 -66 0
-65 66 0
67 -68 0
-67 68 0
69 -70 0
-69 70 0
71 -72 0
-71 72 0
73 -74 0
-73 74 0
75 -76 0
-75 76 0
77 -78 0
-77 78 0
79 -80 0
-79 80 0
81 -82 0
-81 82 0
83 -84 0
-83 84 0
85 -86 0
-85 86 0
87 -88 0
-87 88 0
89 -90 0
-89 90 0
91 -92 0
-91 92 0
93 -94 0
-93 94 0
95 -96 0
-95 96 0
97 -98 0
-97 98 0
99 -100 0
-99 100 0
101 -102 0
-101 102 0
103 -104 0
-103 104 0
105 -106 0
-105 106 0
107 -108 0
-107 108 0
109 -110 0
-109 110 0
111 -112 0
-111 112 0
113 -114 0
-113 114 0
115 -116 0
-115 116 0
117 -118 0
-117 118 0
119 -120 0
-119 120 0
121 -122 0
-121 122 0
123 -124 0
-123 124 0
125 -126 0
-125 126 0
127 -128 0
-127 128 0
129 -130 0
-129 130 0
131 -132 0
-131 132 0
133 -134 0
-133 134 0
135 -136 0
-135 136 0
137 -138 0
-137 138 0
139 -140 0
-139 140 0
141 -142 0
-141 142 0
143 -144 0
-143 144 0
145 -146 0
-145 146 0
147 -148 0
-147 148 0
149 -150 0
-149 150 0
151 -152 0
-151 152 0
153 -154 0
-153 154 0
155 -156 0
-155 156 0
157 -158 0
-157 158 0
159 -160 0
-159 160 0
161 -162 0
-161 162 0
163 -164 0
-163 164 0
165 -166 0
-165 166 0
167 -168 0
-167 168 0
169 -170 0
-169 170 0
171 -172 0
-171 172 0
173 -174 0
-173 174 0
175 -176 0
-175 176 0
177 -178 0
-177 178 0
179 -180 0
-179 180 0
181 -182 0
-181 182 0
183 -184 0
-183 184 0
185 -186 0
-185 186 0
187 -188 0
-187 188 0
189 -190 0
-189 190 0
191 -192 0
-191 192 0
193 -194 0
-193 194 0
195 -196 0
-195 196 0
197 -198 0
-197 198 0
199 -200 0
-199 200 0
201 -202 0
-201 202 0
203 -204 0
-203 204 0
205 -206 0
-205 206 0
207 -208 0
-207 208 0
209 -210 0
-209 210 0
211 -212 0
-211 212 0
213 -214 0
-213 214 0
215 -216 0
-215 216 0
217 -218 0
-217 218 0
219 -220 0
-219 220 0
221 -222 0
-221 222 0
223 -224 0
-223 224 0
225 -226 0
-225 226 0
227 -228 0
-227 228 0
229 -230 0
-229 230 0
231 -232 0
-231 232 0
233 -234 0
-233 234 0
235 -236 0
-235 236 0
237 -238 0
-237 238 0
239 -240 241 -133 0
-239 240 0
-239 -241 0
-239 133 0
242 -243 244 -183 0
-242 243 0
-242 -244 0
-242 183 0
245 -246 247 -7 0
-245 246 0
-245 -247 0
-245 7 0
248 -249 250 -57 0
-248 249 0
-248 -250 0
-248 57 0
251 -252 253 -254 0
-251 252 0
-251 -253 0
-251 254 0
255 -256 257 -31 0
-255 256 0
-255 -257 0
-255 31 0
258 -259 260 -43 0
-258 259 0
-258 -260 0
-258 43 0
261 -262 0
-261 262 0
263 -264 265 -91 0
-263 264 0
-263 -265 0
-263 91 0
266 -267 268 -13 0
-266 267 0
-266 -268 0
-266 13 0
269 -270 271 -157 0
-269 270 0
-269 -271 0
-269 157 0
272 -273 274 -111 0
-272 273 0
-272 -274 0
-272 111 0
275 -276 277 -3 0
-275 276 0
-275 -277 0
-275 3 0
278 -279 280 -21 0
-278 279 0
-278 -280 0
-278 21 0
281 -282 283 -73 0
-281 282 0
-281 -283 0
-281 73 0
284 -268 -13 0
-284 268 0
-284 13 0
285 -257 -31 0
-285 257 0
-285 31 0
286 -283 -73 0
-286 283 0
-286 73 0
287 -288 -1 0
-287 288 0
-287 1 0
289 -277 -3 0
-289 277 0
-289 3 0
290 -241 -133 0
-290 241 0
-290 133 0
291 -244 -183 0
-291 244 0
-291 183 0
292 -260 -43 0
-292 260 0
-292 43 0
293 -271 -157 0
-293 271 0
-293 157 0
294 -265 -91 0
-294 265 0
-294 91 0
295 -280 -21 0
-295 280 0
-295 21 0
296 -247 -7 0
-296 247 0
-296 7 0
297 -274 -111 0
-297 274 0
-297 111 0
298 -253 -254 0
-298 253 0
-298 254 0
299 -250 -57 0
-299 250 0
-299 57 0
300 -301 93 -91 0
-300 301 0
-300 -93 0
-300 91 0
302 -303 211 -254 0
-302 303 0
-302 -211 0
-302 254 0
304 -305 9 -7 0
-304 305 0
-304 -9 0
-304 7 0
306 -307 0
-306 307 0
308 -309 33 -31 0
-308 309 0
-308 -33 0
-308 31 0
310 -311 185 -183 0
-310 311 0
-310 -185 0
-310 183 0
312 -313 135 -133 0
-312 313 0
-312 -135 0
-312 133 0
314 -315 75 -73 0
-314 315 0
-314 -75 0
-314 73 0
316 -317 15 -13 0
-316 317 0
-316 -15 0
-316 13 0
318 -319 23 -21 0
-318 319 0
-318 -23 0
-318 21 0
320 -321 59 -57 0
-320 321 0
-320 -59 0
-320 57 0
322 -323 45 -43 0
-322 323 0
-322 -45 0
-322 43 0
324 -325 159 -157 0
-324 325 0
-324 -159 0
-324 157 0
326 -327 113 -111 0
-326 327 0
-326 -113 0
-326 111 0
328 -276 0
-328 276 0
329 -277 0
-329 277 0
330 -331 61 -57 0
-330 331 0
-330 -61 0
-330 57 0
332 -333 77 -73 0
-332 333 0
-332 -77 0
-332 73 0
334 -335 161 -157 0
-334 335 0
-334 -161 0
-334 157 0
336 -337 25 -21 0
-336 337 0
-336 -25 0
-336 21 0
338 -339 47 -43 0
-338 339 0
-338 -47 0
-338 43 0
340 -341 95 -91 0
-340 341 0
-340 -95 0
-340 91 0
342 -343 0
-342 343 0
344 -345 213 -254 0
-344 345 0
-344 -213 0
-344 254 0
346 -347 35 -31 0
-346 347 0
-346 -35 0
-346 31 0
348 -349 115 -111 0
-348 349 0
-348 -115 0
-348 111 0
350 -351 137 -133 0
-350 351 0
-350 -137 0
-350 133 0
352 -353 187 -183 0
-352 353 0
-352 -187 0
-352 183 0
354 -355 17 -13 0
-354 355 0
-354 -17 0
-354 13 0
356 -247 0
-356 247 0
357 -246 0
-357 246 0
358 -305 0
-358 305 0
10 -9 0
-10 9 0
359 -360 139 -133 0
-359 360 0
-359 -139 0
-359 133 0
361 -362 163 -157 0
-361 362 0
-361 -163 0
-361 157 0
363 -364 117 -111 0
-363 364 0
-363 -117 0
-363 111 0
365 -366 189 -183 0
-365 366 0
-365 -189 0
-365 183 0
367 -368 79 -73 0
-367 368 0
-367 -79 0
-367 73 0
369 -370 0
-369 370 0
371 -372 49 -43 0
-371 372 0
-371 -49 0
-371 43 0
373 -374 27 -21 0
-373 374 0
-373 -27 0
-373 21 0
375 -376 97 -91 0
-375 376 0
-375 -97 0
-375 91 0
377 -378 215 -254 0
-377 378 0
-377 -215 0
-377 254 0
379 -380 37 -31 0
-379 380 0
-379 -37 0
-379 31 0
381 -382 63 -57 0
-381 382 0
-381 -63 0
-381 57 0
383 -268 0
-383 268 0
384 -267 0
-384 267 0
385 -317 0
-385 317 0
16 -15 0
-16 15 0
18 -17 0
-18 17 0
386 -355 0
-386 355 0
387 -388 99 -91 0
-387 388 0
-387 -99 0
-387 91 0
389 -390 39 -31 0
-389 390 0
-389 -39 0
-389 31 0
391 -392 51 -43 0
-391 392 0
-391 -51 0
-391 43 0
393 -394 165 -157 0
-393 394 0
-393 -165 0
-393 157 0
395 -396 81 -73 0
-395 396 0
-395 -81 0
-395 73 0
397 -398 65 -57 0
-397 398 0
-397 -65 0
-397 57 0
399 -400 217 -254 0
-399 400 0
-399 -217 0
-399 254 0
401 -402 0
-401 402 0
403 -404 119 -111 0
-403 404 0
-403 -119 0
-403 111 0
405 -406 191 -183 0
-405 406 0
-405 -191 0
-405 183 0
407 -408 141 -133 0
-407 408 0
-407 -141 0
-407 133 0
409 -280 0
-409 280 0
410 -279 0
-410 279 0
411 -319 0
-411 319 0
24 -23 0
-24 23 0
26 -25 0
-26 25 0
412 -337 0
-412 337 0
413 -374 0
-413 374 0
28 -27 0
-28 27 0
414 -415 167 -157 0
-414 415 0
-414 -167 0
-414 157 0
416 -417 143 -133 0
-416 417 0
-416 -143 0
-416 133 0
418 -419 121 -111 0
-418 419 0
-418 -121 0
-418 111 0
420 -421 101 -91 0
-420 421 0
-420 -101 0
-420 91 0
422 -423 83 -73 0
-422 423 0
-422 -83 0
-422 73 0
424 -425 0
-424 425 0
426 -427 219 -254 0
-426 427 0
-426 -219 0
-426 254 0
428 -429 53 -43 0
-428 429 0
-428 -53 0
-428 43 0
430 -431 67 -57 0
-430 431 0
-430 -67 0
-430 57 0
432 -433 193 -183 0
-432 433 0
-432 -193 0
-432 183 0
434 -257 0
-434 257 0
435 -256 0
-435 256 0
34 -33 0
-34 33 0
436 -309 0
-436 309 0
437 -347 0
-437 347 0
36 -35 0
-36 35 0
438 -380 0
-438 380 0
38 -37 0
-38 37 0
40 -39 0
-40 39 0
439 -390 0
-439 390 0
440 -441 169 -157 0
-440 441 0
-440 -169 0
-440 157 0
442 -443 145 -133 0
-442 443 0
-442 -145 0
-442 133 0
444 -445 0
-444 445 0
446 -447 85 -73 0
-446 447 0
-446 -85 0
-446 73 0
448 -449 123 -111 0
-448 449 0
-448 -123 0
-448 111 0
450 -451 69 -57 0
-450 451 0
-450 -69 0
-450 57 0
452 -453 221 -254 0
-452 453 0
-452 -221 0
-452 254 0
454 -455 195 -183 0
-454 455 0
-454 -195 0
-454 183 0
456 -457 103 -91 0
-456 457 0
-456 -103 0
-456 91 0
458 -259 0
-458 259 0
459 -260 0
-459 260 0
46 -45 0
-46 45 0
460 -323 0
-460 323 0
48 -47 0
-48 47 0
461 -339 0
-461 339 0
462 -372 0
-462 372 0
50 -49 0
-50 49 0
463 -392 0
-463 392 0
52 -51 0
-52 51 0
54 -53 0
-54 53 0
464 -429 0
-464 429 0
465 -466 0
-465 466 0
467 -468 171 -157 0
-467 468 0
-467 -171 0
-467 157 0
469 -470 147 -133 0
-469 470 0
-469 -147 0
-469 133 0
471 -472 223 -254 0
-471 472 0
-471 -223 0
-471 254 0
473 -474 87 -73 0
-473 474 0
-473 -87 0
-473 73 0
475 -476 105 -91 0
-475 476 0
-475 -105 0
-475 91 0
477 -478 197 -183 0
-477 478 0
-477 -197 0
-477 183 0
479 -480 125 -111 0
-479 480 0
-479 -125 0
-479 111 0
481 -250 0
-481 250 0
482 -249 0
-482 249 0
60 -59 0
-60 59 0
483 -321 0
-483 321 0
62 -61 0
-62 61 0
484 -331 0
-484 331 0
64 -63 0
-64 63 0
485 -382 0
-485 382 0
486 -398 0
-486 398 0
66 -65 0
-66 65 0
68 -67 0
-68 67 0
487 -431 0
-487 431 0
488 -451 0
-488 451 0
70 -69 0
-70 69 0
489 -490 149 -133 0
-489 490 0
-489 -149 0
-489 133 0
491 -492 127 -111 0
-491 492 0
-491 -127 0
-491 111 0
493 -494 0
-493 494 0
495 -496 199 -183 0
-495 496 0
-495 -199 0
-495 183 0
497 -498 107 -91 0
-497 498 0
-497 -107 0
-497 91 0
499 -500 173 -157 0
-499 500 0
-499 -173 0
-499 157 0
501 -502 225 -254 0
-501 502 0
-501 -225 0
-501 254 0
503 -283 0
-503 283 0
504 -282 0
-504 282 0
76 -75 0
-76 75 0
505 -315 0
-505 315 0
506 -333 0
-506 333 0
78 -77 0
-78 77 0
80 -79 0
-80 79 0
507 -368 0
-507 368 0
508 -396 0
-508 396 0
82 -81 0
-82 81 0
84 -83 0
-84 83 0
509 -423 0
-509 423 0
510 -447 0
-510 447 0
86 -85 0
-86 85 0
511 -474 0
-511 474 0
88 -87 0
-88 87 0
512 -513 201 -183 0
-512 513 0
-512 -201 0
-512 183 0
514 -515 0
-514 515 0
516 -517 151 -133 0
-516 517 0
-516 -151 0
-516 133 0
518 -519 175 -157 0
-518 519 0
-518 -175 0
-518 157 0
520 -521 227 -254 0
-520 521 0
-520 -227 0
-520 254 0
522 -523 129 -111 0
-522 523 0
-522 -129 0
-522 111 0
524 -264 0
-524 264 0
525 -265 0
-525 265 0
526 -301 0
-526 301 0
94 -93 0
-94 93 0
96 -95 0
-96 95 0
527 -341 0
-527 341 0
528 -376 0
-528 376 0
98 -97 0
-98 97 0
100 -99 0
-100 99 0
529 -388 0
-529 388 0
102 -101 0
-102 101 0
530 -421 0
-530 421 0
531 -457 0
-531 457 0
104 -103 0
-104 103 0
532 -476 0
-532 476 0
106 -105 0
-106 105 0
108 -107 0
-108 107 0
533 -498 0
-533 498 0
534 -535 0
-534 535 0
536 -537 177 -157 0
-536 537 0
-536 -177 0
-536 157 0
538 -539 229 -254 0
-538 539 0
-538 -229 0
-538 254 0
540 -541 203 -183 0
-540 541 0
-540 -203 0
-540 183 0
542 -543 153 -133 0
-542 543 0
-542 -153 0
-542 133 0
544 -274 0
-544 274 0
545 -273 0
-545 273 0
546 -327 0
-546 327 0
114 -113 0
-114 113 0
116 -115 0
-116 115 0
547 -349 0
-547 349 0
548 -364 0
-548 364 0
118 -117 0
-118 117 0
549 -404 0
-549 404 0
120 -119 0
-120 119 0
550 -419 0
-550 419 0
122 -121 0
-122 121 0
124 -123 0
-124 123 0
551 -449 0
-551 449 0
552 -480 0
-552 480 0
126 -125 0
-126 125 0
553 -492 0
-553 492 0
128 -127 0
-128 127 0
130 -129 0
-130 129 0
554 -523 0
-554 523 0
555 -556 231 -254 0
-555 556 0
-555 -231 0
-555 254 0
557 -558 205 -183 0
-557 558 0
-557 -205 0
-557 183 0
559 -560 179 -157 0
-559 560 0
-559 -179 0
-559 157 0
561 -562 0
-561 562 0
563 -241 0
-563 241 0
564 -240 0
-564 240 0
565 -313 0
-565 313 0
136 -135 0
-136 135 0
566 -351 0
-566 351 0
138 -137 0
-138 137 0
140 -139 0
-140 139 0
567 -360 0
-567 360 0
568 -408 0
-568 408 0
142 -141 0
-142 141 0
144 -143 0
-144 143 0
569 -417 0
-569 417 0
146 -145 0
-146 145 0
570 -443 0
-570 443 0
148 -147 0
-148 147 0
571 -470 0
-571 470 0
572 -490 0
-572 490 0
150 -149 0
-150 149 0
152 -151 0
-152 151 0
573 -517 0
-573 517 0
574 -543 0
-574 543 0
154 -153 0
-154 153 0
575 -576 0
-575 576 0
577 -578 207 -183 0
-577 578 0
-577 -207 0
-577 183 0
579 -580 233 -254 0
-579 580 0
-579 -233 0
-579 254 0
581 -271 0
-581 271 0
582 -270 0
-582 270 0
160 -159 0
-160 159 0
583 -325 0
-583 325 0
584 -335 0
-584 335 0
162 -161 0
-162 161 0
164 -163 0
-164 163 0
585 -362 0
-585 362 0
586 -394 0
-586 394 0
166 -165 0
-166 165 0
168 -167 0
-168 167 0
587 -415 0
-587 415 0
170 -169 0
-170 169 0
588 -441 0
-588 441 0
172 -171 0
-172 171 0
589 -468 0
-589 468 0
590 -500 0
-590 500 0
174 -173 0
-174 173 0
176 -175 0
-176 175 0
591 -519 0
-591 519 0
592 -537 0
-592 537 0
178 -177 0
-178 177 0
593 -560 0
-593 560 0
180 -179 0
-180 179 0
594 -595 0
-594 595 0
596 -597 235 -254 0
-596 597 0
-596 -235 0
-596 254 0
598 -243 0
-598 243 0
599 -244 0
-599 244 0
600 -311 0
-600 311 0
186 -185 0
-186 185 0
188 -187 0
-188 187 0
601 -353 0
-601 353 0
602 -366 0
-602 366 0
190 -189 0
-190 189 0
192 -191 0
-192 191 0
603 -406 0
-603 406 0
604 -433 0
-604 433 0
194 -193 0
-194 193 0
196 -195 0
-196 195 0
605 -455 0
-605 455 0
606 -478 0
-606 478 0
198 -197 0
-198 197 0
200 -199 0
-200 199 0
607 -496 0
-607 496 0
608 -513 0
-608 513 0
202 -201 0
-202 201 0
204 -203 0
-204 203 0
609 -541 0
-609 541 0
610 -558 0
-610 558 0
206 -205 0
-206 205 0
208 -207 0
-208 207 0
611 -578 0
-611 578 0
612 -252 0
-612 252 0
613 -253 0
-613 253 0
614 -303 0
-614 303 0
212 -211 0
-212 211 0
615 -345 0
-615 345 0
214 -213 0
-214 213 0
216 -215 0
-216 215 0
616 -378 0
-616 378 0
617 -400 0
-617 400 0
218 -217 0
-218 217 0
618 -427 0
-618 427 0
220 -219 0
-220 219 0
619 -453 0
-619 453 0
222 -221 0
-222 221 0
620 -472 0
-620 472 0
224 -223 0
-224 223 0
621 -502 0
-621 502 0
226 -225 0
-226 225 0
622 -521 0
-622 521 0
228 -227 0
-228 227 0
623 -539 0
-623 539 0
230 -229 0
-230 229 0
232 -231 0
-232 231 0
624 -556 0
-624 556 0
625 -580 0
-625 580 0
234 -233 0
-234 233 0
626 -597 0
-626 597 0
236 -235 0
-236 235 0
-6 328 329 0
6 -328 0
6 -329 0
-627 604 194 0
627 -604 0
627 -194 0
-628 605 196 0
628 -605 0
628 -196 0
-629 606 198 0
629 -606 0
629 -198 0
-630 603 192 0
630 -603 0
630 -192 0
-631 602 190 0
631 -602 0
631 -190 0
-632 600 186 0
632 -600 0
632 -186 0
-633 601 188 0
633 -601 0
633 -188 0
-634 598 599 0
634 -598 0
634 -599 0
-210 208 611 0
210 -208 0
210 -611 0
-635 610 206 0
635 -610 0
635 -206 0
-636 609 204 0
636 -609 0
636 -204 0
-637 608 202 0
637 -608 0
637 -202 0
-638 607 200 0
638 -607 0
638 -200 0
-639 590 174 0
639 -590 0
639 -174 0
-640 589 172 0
640 -589 0
640 -172 0
-182 593 180 0
182 -593 0
182 -180 0
-641 592 178 0
641 -592 0
641 -178 0
-642 591 176 0
642 -591 0
642 -176 0
-643 587 168 0
643 -587 0
643 -168 0
-644 588 170 0
644 -588 0
644 -170 0
-645 584 162 0
645 -584 0
645 -162 0
-646 585 164 0
646 -585 0
646 -164 0
-647 586 166 0
647 -586 0
647 -166 0
-648 582 581 0
648 -582 0
648 -581 0
-649 583 160 0
649 -583 0
649 -160 0
-650 567 140 0
650 -567 0
650 -140 0
-651 568 142 0
651 -568 0
651 -142 0
-652 424 416 0
652 -424 0
652 -416 0
-653 569 144 0
653 -569 0
653 -144 0
-654 565 136 0
654 -565 0
654 -136 0
-655 566 138 0
655 -566 0
655 -138 0
-656 564 563 0
656 -564 0
656 -563 0
-156 574 154 0
156 -574 0
156 -154 0
-657 573 152 0
657 -573 0
657 -152 0
-658 572 150 0
658 -572 0
658 -150 0
-659 570 146 0
659 -570 0
659 -146 0
-660 571 148 0
660 -571 0
660 -148 0
-661 442 444 0
661 -442 0
661 -444 0
-662 548 118 0
662 -548 0
662 -118 0
-663 549 120 0
663 -549 0
663 -120 0
-664 547 116 0
664 -547 0
664 -116 0
-665 545 544 0
665 -545 0
665 -544 0
-666 546 114 0
666 -546 0
666 -114 0
-667 403 401 0
667 -403 0
667 -401 0
-668 550 122 0
668 -550 0
668 -122 0
-669 551 124 0
669 -551 0
669 -124 0
-670 465 479 0
670 -465 0
670 -479 0
-132 130 554 0
132 -130 0
132 -554 0
-671 553 128 0
671 -553 0
671 -128 0
-672 552 126 0
672 -552 0
672 -126 0
-673 342 332 0
673 -342 0
673 -332 0
-674 369 367 0
674 -369 0
674 -367 0
-675 506 78 0
675 -506 0
675 -78 0
-676 507 80 0
676 -507 0
676 -80 0
-677 306 314 0
677 -306 0
677 -314 0
-678 504 503 0
678 -504 0
678 -503 0
-679 505 76 0
679 -505 0
679 -76 0
-90 511 88 0
90 -511 0
90 -88 0
-680 510 86 0
680 -510 0
680 -86 0
-681 509 84 0
681 -509 0
681 -84 0
-682 508 82 0
682 -508 0
682 -82 0
-72 488 70 0
72 -488 0
72 -70 0
-683 68 487 0
683 -68 0
683 -487 0
-684 486 66 0
684 -486 0
684 -66 0
-685 484 62 0
685 -484 0
685 -62 0
-686 485 64 0
686 -485 0
686 -64 0
-687 482 481 0
687 -482 0
687 -481 0
-688 483 60 0
688 -483 0
688 -60 0
-689 461 48 0
689 -461 0
689 -48 0
-690 462 50 0
690 -462 0
690 -50 0
-56 54 464 0
56 -54 0
56 -464 0
-691 463 52 0
691 -463 0
691 -52 0
-692 458 459 0
692 -458 0
692 -459 0
-693 460 46 0
693 -460 0
693 -46 0
-694 530 102 0
694 -530 0
694 -102 0
-695 531 104 0
695 -531 0
695 -104 0
-110 108 533 0
110 -108 0
110 -533 0
-696 532 106 0
696 -532 0
696 -106 0
-697 529 100 0
697 -529 0
697 -100 0
-698 528 98 0
698 -528 0
698 -98 0
-699 436 34 0
699 -436 0
699 -34 0
-700 437 36 0
700 -437 0
700 -36 0
-42 40 439 0
42 -40 0
42 -439 0
-701 438 38 0
701 -438 0
701 -38 0
-702 435 434 0
702 -435 0
702 -434 0
-703 526 94 0
703 -526 0
703 -94 0
-704 527 96 0
704 -527 0
704 -96 0
-705 524 525 0
705 -524 0
705 -525 0
-30 413 28 0
30 -413 0
30 -28 0
-706 26 412 0
706 -26 0
706 -412 0
-707 411 24 0
707 -411 0
707 -24 0
-708 410 409 0
708 -410 0
708 -409 0
-20 18 386 0
20 -18 0
20 -386 0
-709 385 16 0
709 -385 0
709 -16 0
-710 384 383 0
710 -384 0
710 -383 0
-711 357 356 0
711 -357 0
711 -356 0
-12 358 10 0
12 -358 0
12 -10 0
-712 281 248 258 255 263 278 266 245 0
712 -281 0
712 -248 0
712 -258 0
712 -255 0
712 -263 0
712 -278 0
712 -266 0
712 -245 0
-713 473 475 0
713 -473 0
713 -475 0
-714 286 299 292 285 294 295 284 296 0
714 -286 0
714 -299 0
714 -292 0
714 -285 0
714 -294 0
714 -295 0
714 -284 0
714 -296 0
-715 677 320 322 308 300 318 316 304 0
715 -677 0
715 -320 0
715 -322 0
715 -308 0
715 -300 0
715 -318 0
715 -316 0
715 -304 0
-716 422 430 428 420 0
716 -422 0
716 -430 0
716 -428 0
716 -420 0
-717 673 330 338 346 340 336 354 0
717 -673 0
717 -330 0
717 -338 0
717 -346 0
717 -340 0
717 -336 0
717 -354 0
-718 674 381 371 375 379 373 0
718 -674 0
718 -381 0
718 -371 0
718 -375 0
718 -379 0
718 -373 0
-719 446 450 456 0
719 -446 0
719 -450 0
719 -456 0
-720 493 497 0
720 -493 0
720 -497 0
-721 395 397 391 387 389 0
721 -395 0
721 -397 0
721 -391 0
721 -387 0
721 -389 0
-722 619 222 0
722 -619 0
722 -222 0
-723 618 220 0
723 -618 0
723 -220 0
-724 616 216 0
724 -616 0
724 -216 0
-725 617 218 0
725 -617 0
725 -218 0
-726 612 613 0
726 -612 0
726 -613 0
-727 614 212 0
727 -614 0
727 -212 0
-728 615 214 0
728 -615 0
728 -214 0
-729 620 224 0
729 -620 0
729 -224 0
-730 621 226 0
730 -621 0
730 -226 0
-731 622 228 0
731 -622 0
731 -228 0
-732 623 230 0
732 -623 0
732 -230 0
-733 624 232 0
733 -624 0
733 -232 0
-238 626 236 0
238 -626 0
238 -236 0
-734 625 234 0
734 -625 0
734 -234 0
-735 242 269 239 272 712 251 0
735 -242 0
735 -269 0
735 -239 0
735 -272 0
735 -712 0
735 -251 0
-58 477 467 469 670 713 471 0
58 -477 0
58 -467 0
58 -469 0
58 -670 0
58 -713 0
58 -471 0
-736 291 293 290 297 714 298 0
736 -291 0
736 -293 0
736 -290 0
736 -297 0
736 -714 0
736 -298 0
-4 310 324 312 326 715 302 0
4 -310 0
4 -324 0
4 -312 0
4 -326 0
4 -715 0
4 -302 0
-184 594 596 0
184 -594 0
184 -596 0
-8 352 334 350 348 717 344 0
8 -352 0
8 -334 0
8 -350 0
8 -348 0
8 -717 0
8 -344 0
-14 365 361 359 363 718 377 0
14 -365 0
14 -361 0
14 -359 0
14 -363 0
14 -718 0
14 -377 0
-74 495 499 489 491 720 501 0
74 -495 0
74 -499 0
74 -489 0
74 -491 0
74 -720 0
74 -501 0
-134 557 559 561 555 0
134 -557 0
134 -559 0
134 -561 0
134 -555 0
-22 405 393 407 667 721 399 0
22 -405 0
22 -393 0
22 -407 0
22 -667 0
22 -721 0
22 -399 0
-32 432 414 652 418 716 426 0
32 -432 0
32 -414 0
32 -652 0
32 -418 0
32 -716 0
32 -426 0
-92 512 518 516 522 514 520 0
92 -512 0
92 -518 0
92 -516 0
92 -522 0
92 -514 0
92 -520 0
-158 577 575 579 0
158 -577 0
158 -575 0
158 -579 0
-44 454 440 661 448 719 452 0
44 -454 0
44 -440 0
44 -661 0
44 -448 0
44 -719 0
44 -452 0
-112 540 536 542 534 538 0
112 -540 0
112 -536 0
112 -542 0
112 -534 0
112 -538 0
-737 275 735 0
737 -275 0
737 -735 0
-738 736 289 0
738 -736 0
738 -289 0
-739 738 287 0
739 -738 0
739 -287 0
-2 737 261 0
2 -737 0
2 -261 0
-740 261 -262 0
740 -261 0
740 262 0
-741 -261 262 0
741 261 0
741 -262 0
-742 306 -307 0
742 -306 0
742 307 0
-743 -306 307 0
743 306 0
743 -307 0
-744 328 -276 0
744 -328 0
744 276 0
-745 -328 276 0
745 328 0
745 -276 0
-746 329 -277 0
746 -329 0
746 277 0
-747 -329 277 0
747 329 0
747 -277 0
-748 342 -343 0
748 -342 0
748 343 0
-749 -342 343 0
749 342 0
749 -343 0
-750 356 -247 0
750 -356 0
750 247 0
-751 -356 247 0
751 356 0
751 -247 0
-752 357 -246 0
752 -357 0
752 246 0
-753 -357 246 0
753 357 0
753 -246 0
-754 358 -305 0
754 -358 0
754 305 0
-755 -358 305 0
755 358 0
755 -305 0
-756 10 -9 0
756 -10 0
756 9 0
-757 -10 9 0
757 10 0
757 -9 0
-758 369 -370 0
758 -369 0
758 370 0
-759 -369 370 0
759 369 0
759 -370 0
-760 383 -268 0
760 -383 0
760 268 0
-761 -383 268 0
761 383 0
761 -268 0
-762 384 -267 0
762 -384 0
762 267 0
-763 -384 267 0
763 384 0
763 -267 0
-764 385 -317 0
764 -385 0
764 317 0
-765 -385 317 0
765 385 0
765 -317 0
-766 16 -15 0
766 -16 0
766 15 0
-767 -16 15 0
767 16 0
767 -15 0
-768 18 -17 0
768 -18 0
768 17 0
-769 -18 17 0
769 18 0
769 -17 0
-770 386 -355 0
770 -386 0
770 355 0
-771 -386 355 0
771 386 0
771 -355 0
-772 401 -402 0
772 -401 0
772 402 0
-773 -401 402 0
773 401 0
773 -402 0
-774 409 -280 0
774 -409 0
774 280 0
-775 -409 280 0
775 409 0
775 -280 0
-776 410 -279 0
776 -410 0
776 279 0
-777 -410 279 0
777 410 0
777 -279 0
-778 411 -319 0
778 -411 0
778 319 0
-779 -411 319 0
779 411 0
779 -319 0
-780 24 -23 0
780 -24 0
780 23 0
-781 -24 23 0
781 24 0
781 -23 0
-782 26 -25 0
782 -26 0
782 25 0
-783 -26 25 0
783 26 0
783 -25 0
-784 412 -337 0
784 -412 0
784 337 0
-785 -412 337 0
785 412 0
785 -337 0
-786 413 -374 0
786 -413 0
786 374 0
-787 -413 374 0
787 413 0
787 -374 0
-788 28 -27 0
788 -28 0
788 27 0
-789 -28 27 0
789 28 0
789 -27 0
-790 424 -425 0
790 -424 0
790 425 0
-791 -424 425 0
791 424 0
791 -425 0
-792 434 -257 0
792 -434 0
792 257 0
-793 -434 257 0
793 434 0
793 -257 0
-794 435 -256 0
794 -435 0
794 256 0
-795 -435 256 0
795 435 0
795 -256 0
-796 34 -33 0
796 -34 0
796 33 0
-797 -34 33 0
797 34 0
797 -33 0
-798 436 -309 0
798 -436 0
798 309 0
-799 -436 309 0
799 436 0
799 -309 0
-800 437 -347 0
800 -437 0
800 347 0
-801 -437 347 0
801 437 0
801 -347 0
-802 36 -35 0
802 -36 0
802 35 0
-803 -36 35 0
803 36 0
803 -35 0
-804 438 -380 0
804 -438 0
804 380 0
-805 -438 380 0
805 438 0
805 -380 0
-806 38 -37 0
806 -38 0
806 37 0
-807 -38 37 0
807 38 0
807 -37 0
-808 40 -39 0
808 -40 0
808 39 0
-809 -40 39 0
809 40 0
809 -39 0
-810 439 -390 0
810 -439 0
810 390 0
-811 -439 390 0
811 439 0
811 -390 0
-812 444 -445 0
812 -444 0
812 445 0
-813 -444 445 0
813 444 0
813 -445 0
-814 458 -259 0
814 -458 0
814 259 0
-815 -458 259 0
815 458 0
815 -259 0
-816 459 -260 0
816 -459 0
816 260 0
-817 -459 260 0
817 459 0
817 -260 0
-818 46 -45 0
818 -46 0
818 45 0
-819 -46 45 0
819 46 0
819 -45 0
-820 460 -323 0
820 -460 0
820 323 0
-821 -460 323 0
821 460 0
821 -323 0
-822 48 -47 0
822 -48 0
822 47 0
-823 -48 47 0
823 48 0
823 -47 0
-824 461 -339 0
824 -461 0
824 339 0
-825 -461 339 0
825 461 0
825 -339 0
-826 462 -372 0
826 -462 0
826 372 0
-827 -462 372 0
827 462 0
827 -372 0
-828 50 -49 0
828 -50 0
828 49 0
-829 -50 49 0
829 50 0
829 -49 0
-830 463 -392 0
830 -463 0
830 392 0
-831 -463 392 0
831 463 0
831 -392 0
-832 52 -51 0
832 -52 0
832 51 0
-833 -52 51 0
833 52 0
833 -51 0
-834 54 -53 0
834 -54 0
834 53 0
-835 -54 53 0
835 54 0
835 -53 0
-836 464 -429 0
836 -464 0
836 429 0
-837 -464 429 0
837 464 0
837 -429 0
-838 465 -466 0
838 -465 0
838 466 0
-839 -465 466 0
839 465 0
839 -466 0
-840 481 -250 0
840 -481 0
840 250 0
-841 -481 250 0
841 481 0
841 -250 0
-842 482 -249 0
842 -482 0
842 249 0
-843 -482 249 0
843 482 0
843 -249 0
-844 60 -59 0
844 -60 0
844 59 0
-845 -60 59 0
845 60 0
845 -59 0
-846 483 -321 0
846 -483 0
846 321 0
-847 -483 321 0
847 483 0
847 -321 0
-848 62 -61 0
848 -62 0
848 61 0
-849 -62 61 0
849 62 0
849 -61 0
-850 484 -331 0
850 -484 0
850 331 0
-851 -484 331 0
851 484 0
851 -331 0
-852 64 -63 0
852 -64 0
852 63 0
-853 -64 63 0
853 64 0
853 -63 0
-854 485 -382 0
854 -485 0
854 382 0
-855 -485 382 0
855 485 0
855 -382 0
-856 486 -398 0
856 -486 0
856 398 0
-857 -486 398 0
857 486 0
857 -398 0
-858 66 -65 0
858 -66 0
858 65 0
-859 -66 65 0
859 66 0
859 -65 0
-860 68 -67 0
860 -68 0
860 67 0
-861 -68 67 0
861 68 0
861 -67 0
-862 487 -431 0
862 -487 0
862 431 0
-863 -487 431 0
863 487 0
863 -431 0
-864 488 -451 0
864 -488 0
864 451 0
-865 -488 451 0
865 488 0
865 -451 0
-866 70 -69 0
866 -70 0
866 69 0
-867 -70 69 0
867 70 0
867 -69 0
-868 493 -494 0
868 -493 0
868 494 0
-869 -493 494 0
869 493 0
869 -494 0
-870 503 -283 0
870 -503 0
870 283 0
-871 -503 283 0
871 503 0
871 -283 0
-872 504 -282 0
872 -504 0
872 282 0
-873 -504 282 0
873 504 0
873 -282 0
-874 76 -75 0
874 -76 0
874 75 0
-875 -76 75 0
875 76 0
875 -75 0
-876 505 -315 0
876 -505 0
876 315 0
-877 -505 315 0
877 505 0
877 -315 0
-878 506 -333 0
878 -506 0
878 333 0
-879 -506 333 0
879 506 0
879 -333 0
-880 78 -77 0
880 -78 0
880 77 0
-881 -78 77 0
881 78 0
881 -77 0
-882 80 -79 0
882 -80 0
882 79 0
-883 -80 79 0
883 80 0
883 -79 0
-884 507 -368 0
884 -507 0
884 368 0
-885 -507 368 0
885 507 0
885 -368 0
-886 508 -396 0
886 -508 0
886 396 0
-887 -508 396 0
887 508 0
887 -396 0
-888 82 -81 0
888 -82 0
888 81 0
-889 -82 81 0
889 82 0
889 -81 0
-890 84 -83 0
890 -84 0
890 83 0
-891 -84 83 0
891 84 0
891 -83 0
-892 509 -423 0
892 -509 0
892 423 0
-893 -509 423 0
893 509 0
893 -423 0
-894 510 -447 0
894 -510 0
894 447 0
-895 -510 447 0
895 510 0
895 -447 0
-896 86 -85 0
896 -86 0
896 85 0
-897 -86 85 0
897 86 0
897 -85 0
-898 511 -474 0
898 -511 0
898 474 0
-899 -511 474 0
899 511 0
899 -474 0
-900 88 -87 0
900 -88 0
900 87 0
-901 -88 87 0
901 88 0
901 -87 0
-902 514 -515 0
902 -514 0
902 515 0
-903 -514 515 0
903 514 0
903 -515 0
-904 524 -264 0
904 -524 0
904 264 0
-905 -524 264 0
905 524 0
905 -264 0
-906 525 -265 0
906 -525 0
906 265 0
-907 -525 265 0
907 525 0
907 -265 0
-908 526 -301 0
908 -526 0
908 301 0
-909 -526 301 0
909 526 0
909 -301 0
-910 94 -93 0
910 -94 0
910 93 0
-911 -94 93 0
911 94 0
911 -93 0
-912 96 -95 0
912 -96 0
912 95 0
-913 -96 95 0
913 96 0
913 -95 0
-914 527 -341 0
914 -527 0
914 341 0
-915 -527 341 0
915 527 0
915 -341 0
-916 528 -376 0
916 -528 0
916 376 0
-917 -528 376 0
917 528 0
917 -376 0
-918 98 -97 0
918 -98 0
918 97 0
-919 -98 97 0
919 98 0
919 -97 0
-920 100 -99 0
920 -100 0
920 99 0
-921 -100 99 0
921 100 0
921 -99 0
-922 529 -388 0
922 -529 0
922 388 0
-923 -529 388 0
923 529 0
923 -388 0
-924 102 -101 0
924 -102 0
924 101 0
-925 -102 101 0
925 102 0
925 -101 0
-926 530 -421 0
926 -530 0
926 421 0
-927 -530 421 0
927 530 0
927 -421 0
-928 531 -457 0
928 -531 0
928 457 0
-929 -531 457 0
929 531 0
929 -457 0
-930 104 -103 0
930 -104 0
930 103 0
-931 -104 103 0
931 104 0
931 -103 0
-932 532 -476 0
932 -532 0
932 476 0
-933 -532 476 0
933 532 0
933 -476 0
-934 106 -105 0
934 -106 0
934 105 0
-935 -106 105 0
935 106 0
935 -105 0
-936 108 -107 0
936 -108 0
936 107 0
-937 -108 107 0
937 108 0
937 -107 0
-938 533 -498 0
938 -533 0
938 498 0
-939 -533 498 0
939 533 0
939 -498 0
-940 534 -535 0
940 -534 0
940 535 0
-941 -534 535 0
941 534 0
941 -535 0
-942 544 -274 0
942 -544 0
942 274 0
-943 -544 274 0
943 544 0
943 -274 0
-944 545 -273 0
944 -545 0
944 273 0
-945 -545 273 0
945 545 0
945 -273 0
-946 546 -327 0
946 -546 0
946 327 0
-947 -546 327 0
947 546 0
947 -327 0
-948 114 -113 0
948 -114 0
948 113 0
-949 -114 113 0
949 114 0
949 -113 0
-950 116 -115 0
950 -116 0
950 115 0
-951 -116 115 0
951 116 0
951 -115 0
-952 547 -349 0
952 -547 0
952 349 0
-953 -547 349 0
953 547 0
953 -349 0
-954 548 -364 0
954 -548 0
954 364 0
-955 -548 364 0
955 548 0
955 -364 0
-956 118 -117 0
956 -118 0
956 117 0
-957 -118 117 0
957 118 0
957 -117 0
-958 549 -404 0
958 -549 0
958 404 0
-959 -549 404 0
959 549 0
959 -404 0
-960 120 -119 0
960 -120 0
960 119 0
-961 -120 119 0
961 120 0
961 -119 0
-962 550 -419 0
962 -550 0
962 419 0
-963 -550 419 0
963 550 0
963 -419 0
-964 122 -121 0
964 -122 0
964 121 0
-965 -122 121 0
965 122 0
965 -121 0
-966 124 -123 0
966 -124 0
966 123 0
-967 -124 123 0
967 124 0
967 -123 0
-968 551 -449 0
968 -551 0
968 449 0
-969 -551 449 0
969 551 0
969 -449 0
-970 552 -480 0
970 -552 0
970 480 0
-971 -552 480 0
971 552 0
971 -480 0
-972 126 -125 0
972 -126 0
972 125 0
-973 -126 125 0
973 126 0
973 -125 0
-974 553 -492 0
974 -553 0
974 492 0
-975 -553 492 0
975 553 0
975 -492 0
-976 128 -127 0
976 -128 0
976 127 0
-977 -128 127 0
977 128 0
977 -127 0
-978 130 -129 0
978 -130 0
978 129 0
-979 -130 129 0
979 130 0
979 -129 0
-980 554 -523 0
980 -554 0
980 523 0
-981 -554 523 0
981 554 0
981 -523 0
-982 561 -562 0
982 -561 0
982 562 0
-983 -561 562 0
983 561 0
983 -562 0
-984 563 -241 0
984 -563 0
984 241 0
-985 -563 241 0
985 563 0
985 -241 0
-986 564 -240 0
986 -564 0
986 240 0
-987 -564 240 0
987 564 0
987 -240 0
-988 565 -313 0
988 -565 0
988 313 0
-989 -565 313 0
989 565 0
989 -313 0
-990 136 -135 0
990 -136 0
990 135 0
-991 -136 135 0
991 136 0
991 -135 0
-992 566 -351 0
992 -566 0
992 351 0
-993 -566 351 0
993 566 0
993 -351 0
-994 138 -137 0
994 -138 0
994 137 0
-995 -138 137 0
995 138 0
995 -137 0
-996 140 -139 0
996 -140 0
996 139 0
-997 -140 139 0
997 140 0
997 -139 0
-998 567 -360 0
998 -567 0
998 360 0
-999 -567 360 0
999 567 0
999 -360 0
-1000 568 -408 0
1000 -568 0
1000 408 0
-1001 -568 408 0
1001 568 0
1001 -408 0
-1002 142 -141 0
1002 -142 0
1002 141 0
-1003 -142 141 0
1003 142 0
1003 -141 0
-1004 144 -143 0
1004 -144 0
1004 143 0
-1005 -144 143 0
1005 144 0
1005 -143 0
-1006 569 -417 0
1006 -569 0
1006 417 0
-1007 -569 417 0
1007 569 0
1007 -417 0
-1008 146 -145 0
1008 -146 0
1008 145 0
-1009 -146 145 0
1009 146 0
1009 -145 0
-1010 570 -443 0
1010 -570 0
1010 443 0
-1011 -570 443 0
1011 570 0
1011 -443 0
-1012 148 -147 0
1012 -148 0
1012 147 0
-1013 -148 147 0
1013 148 0
1013 -147 0
-1014 571 -470 0
1014 -571 0
1014 470 0
-1015 -571 470 0
1015 571 0
1015 -470 0
-1016 572 -490 0
1016 -572 0
1016 490 0
-1017 -572 490 0
1017 572 0
1017 -490 0
-1018 150 -149 0
1018 -150 0
1018 149 0
-1019 -150 149 0
1019 150 0
1019 -149 0
-1020 152 -151 0
1020 -152 0
1020 151 0
-1021 -152 151 0
1021 152 0
1021 -151 0
-1022 573 -517 0
1022 -573 0
1022 517 0
-1023 -573 517 0
1023 573 0
1023 -517 0
-1024 574 -543 0
1024 -574 0
1024 543 0
-1025 -574 543 0
1025 574 0
1025 -543 0
-1026 154 -153 0
1026 -154 0
1026 153 0
-1027 -154 153 0
1027 154 0
1027 -153 0
-1028 575 -576 0
1028 -575 0
1028 576 0
-1029 -575 576 0
1029 575 0
1029 -576 0
-1030 581 -271 0
1030 -581 0
1030 271 0
-1031 -581 271 0
1031 581 0
1031 -271 0
-1032 582 -270 0
1032 -582 0
1032 270 0
-1033 -582 270 0
1033 582 0
1033 -270 0
-1034 160 -159 0
1034 -160 0
1034 159 0
-1035 -160 159 0
1035 160 0
1035 -159 0
-1036 583 -325 0
1036 -583 0
1036 325 0
-1037 -583 325 0
1037 583 0
1037 -325 0
-1038 584 -335 0
1038 -584 0
1038 335 0
-1039 -584 335 0
1039 584 0
1039 -335 0
-1040 162 -161 0
1040 -162 0
1040 161 0
-1041 -162 161 0
1041 162 0
1041 -161 0
-1042 164 -163 0
1042 -164 0
1042 163 0
-1043 -164 163 0
1043 164 0
1043 -163 0
-1044 585 -362 0
1044 -585 0
1044 362 0
-1045 -585 362 0
1045 585 0
1045 -362 0
-1046 586 -394 0
1046 -586 0
1046 394 0
-1047 -586 394 0
1047 586 0
1047 -394 0
-1048 166 -165 0
1048 -166 0
1048 165 0
-1049 -166 165 0
1049 166 0
1049 -165 0
-1050 168 -167 0
1050 -168 0
1050 167 0
-1051 -168 167 0
1051 168 0
1051 -167 0
-1052 587 -415 0
1052 -587 0
1052 415 0
-1053 -587 415 0
1053 587 0
1053 -415 0
-1054 170 -169 0
1054 -170 0
1054 169 0
-1055 -170 169 0
1055 170 0
1055 -169 0
-1056 588 -441 0
1056 -588 0
1056 441 0
-1057 -588 441 0
1057 588 0
1057 -441 0
-1058 172 -171 0
1058 -172 0
1058 171 0
-1059 -172 171 0
1059 172 0
1059 -171 0
-1060 589 -468 0
1060 -589 0
1060 468 0
-1061 -589 468 0
1061 589 0
1061 -468 0
-1062 590 -500 0
1062 -590 0
1062 500 0
-1063 -590 500 0
1063 590 0
1063 -500 0
-1064 174 -173 0
1064 -174 0
1064 173 0
-1065 -174 173 0
1065 174 0
1065 -173 0
-1066 176 -175 0
1066 -176 0
1066 175 0
-1067 -176 175 0
1067 176 0
1067 -175 0
-1068 591 -519 0
1068 -591 0
1068 519 0
-1069 -591 519 0
1069 591 0
1069 -519 0
-1070 592 -537 0
1070 -592 0
1070 537 0
-1071 -592 537 0
1071 592 0
1071 -537 0
-1072 178 -177 0
1072 -178 0
1072 177 0
-1073 -178 177 0
1073 178 0
1073 -177 0
-1074 593 -560 0
1074 -593 0
1074 560 0
-1075 -593 560 0
1075 593 0
1075 -560 0
-1076 180 -179 0
1076 -180 0
1076 179 0
-1077 -180 179 0
1077 180 0
1077 -179 0
-1078 594 -595 0
1078 -594 0
1078 595 0
-1079 -594 595 0
1079 594 0
1079 -595 0
-1080 598 -243 0
1080 -598 0
1080 243 0
-1081 -598 243 0
1081 598 0
1081 -243 0
-1082 599 -244 0
1082 -599 0
1082 244 0
-1083 -599 244 0
1083 599 0
1083 -244 0
-1084 600 -311 0
1084 -600 0
1084 311 0
-1085 -600 311 0
1085 600 0
1085 -311 0
-1086 186 -185 0
1086 -186 0
1086 185 0
-1087 -186 185 0
1087 186 0
1087 -185 0
-1088 188 -187 0
1088 -188 0
1088 187 0
-1089 -188 187 0
1089 188 0
1089 -187 0
-1090 601 -353 0
1090 -601 0
1090 353 0
-1091 -601 353 0
1091 601 0
1091 -353 0
-1092 602 -366 0
1092 -602 0
1092 366 0
-1093 -602 366 0
1093 602 0
1093 -366 0
-1094 190 -189 0
1094 -190 0
1094 189 0
-1095 -190 189 0
1095 190 0
1095 -189 0
-1096 192 -191 0
1096 -192 0
1096 191 0
-1097 -192 191 0
1097 192 0
1097 -191 0
-1098 603 -406 0
1098 -603 0
1098 406 0
-1099 -603 406 0
1099 603 0
1099 -406 0
-1100 604 -433 0
1100 -604 0
1100 433 0
-1101 -604 433 0
1101 604 0
1101 -433 0
-1102 194 -193 0
1102 -194 0
1102 193 0
-1103 -194 193 0
1103 194 0
1103 -193 0
-1104 196 -195 0
1104 -196 0
1104 195 0
-1105 -196 195 0
1105 196 0
1105 -195 0
-1106 605 -455 0
1106 -605 0
1106 455 0
-1107 -605 455 0
1107 605 0
1107 -455 0
-1108 606 -478 0
1108 -606 0
1108 478 0
-1109 -606 478 0
1109 606 0
1109 -478 0
-1110 198 -197 0
1110 -198 0
1110 197 0
-1111 -198 197 0
1111 198 0
1111 -197 0
-1112 200 -199 0
1112 -200 0
1112 199 0
-1113 -200 199 0
1113 200 0
1113 -199 0
-1114 607 -496 0
1114 -607 0
1114 496 0
-1115 -607 496 0
1115 607 0
1115 -496 0
-1116 608 -513 0
1116 -608 0
1116 513 0
-1117 -608 513 0
1117 608 0
1117 -513 0
-1118 202 -201 0
1118 -202 0
1118 201 0
-1119 -202 201 0
1119 202 0
1119 -201 0
-1120 204 -203 0
1120 -204 0
1120 203 0
-1121 -204 203 0
1121 204 0
1121 -203 0
-1122 609 -541 0
1122 -609 0
1122 541 0
-1123 -609 541 0
1123 609 0
1123 -541 0
-1124 610 -558 0
1124 -610 0
1124 558 0
-1125 -610 558 0
1125 610 0
1125 -558 0
-1126 206 -205 0
1126 -206 0
1126 205 0
-1127 -206 205 0
1127 206 0
1127 -205 0
-1128 208 -207 0
1128 -208 0
1128 207 0
-1129 -208 207 0
1129 208 0
1129 -207 0
-1130 611 -578 0
1130 -611 0
1130 578 0
-1131 -611 578 0
1131 611 0
1131 -578 0
-1132 612 -252 0
1132 -612 0
1132 252 0
-1133 -612 252 0
1133 612 0
1133 -252 0
-1134 613 -253 0
1134 -613 0
1134 253 0
-1135 -613 253 0
1135 613 0
1135 -253 0
-1136 614 -303 0
1136 -614 0
1136 303 0
-1137 -614 303 0
1137 614 0
1137 -303 0
-1138 212 -211 0
1138 -212 0
1138 211 0
-1139 -212 211 0
1139 212 0
1139 -211 0
-1140 615 -345 0
1140 -615 0
1140 345 0
-1141 -615 345 0
1141 615 0
1141 -345 0
-1142 214 -213 0
1142 -214 0
1142 213 0
-1143 -214 213 0
1143 214 0
1143 -213 0
-1144 216 -215 0
1144 -216 0
1144 215 0
-1145 -216 215 0
1145 216 0
1145 -215 0
-1146 616 -378 0
1146 -616 0
1146 378 0
-1147 -616 378 0
1147 616 0
1147 -378 0
-1148 617 -400 0
1148 -617 0
1148 400 0
-1149 -617 400 0
1149 617 0
1149 -400 0
-1150 218 -217 0
1150 -218 0
1150 217 0
-1151 -218 217 0
1151 218 0
1151 -217 0
-1152 618 -427 0
1152 -618 0
1152 427 0
-1153 -618 427 0
1153 618 0
1153 -427 0
-1154 220 -219 0
1154 -220 0
1154 219 0
-1155 -220 219 0
1155 220 0
1155 -219 0
-1156 619 -453 0
1156 -619 0
1156 453 0
-1157 -619 453 0
1157 619 0
1157 -453 0
-1158 222 -221 0
1158 -222 0
1158 221 0
-1159 -222 221 0
1159 222 0
1159 -221 0
-1160 620 -472 0
1160 -620 0
1160 472 0
-1161 -620 472 0
1161 620 0
1161 -472 0
-1162 224 -223 0
1162 -224 0
1162 223 0
-1163 -224 223 0
1163 224 0
1163 -223 0
-1164 621 -502 0
1164 -621 0
1164 502 0
-1165 -621 502 0
1165 621 0
1165 -502 0
-1166 226 -225 0
1166 -226 0
1166 225 0
-1167 -226 225 0
1167 226 0
1167 -225 0
-1168 622 -521 0
1168 -622 0
1168 521 0
-1169 -622 521 0
1169 622 0
1169 -521 0
-1170 228 -227 0
1170 -228 0
1170 227 0
-1171 -228 227 0
1171 228 0
1171 -227 0
-1172 623 -539 0
1172 -623 0
1172 539 0
-1173 -623 539 0
1173 623 0
1173 -539 0
-1174 230 -229 0
1174 -230 0
1174 229 0
-1175 -230 229 0
1175 230 0
1175 -229 0
-1176 232 -231 0
1176 -232 0
1176 231 0
-1177 -232 231 0
1177 232 0
1177 -231 0
-1178 624 -556 0
1178 -624 0
1178 556 0
-1179 -624 556 0
1179 624 0
1179 -556 0
-1180 625 -580 0
1180 -625 0
1180 580 0
-1181 -625 580 0
1181 625 0
1181 -580 0
-1182 234 -233 0
1182 -234 0
1182 233 0
-1183 -234 233 0
1183 234 0
1183 -233 0
-1184 626 -597 0
1184 -626 0
1184 597 0
-1185 -626 597 0
1185 626 0
1185 -597 0
-1186 236 -235 0
1186 -236 0
1186 235 0
-1187 -236 235 0
1187 236 0
1187 -235 0
-1188 -5 6 0
1188 5 0
1188 -6 0
-1189 5 -6 0
1189 -5 0
1189 6 0
-1190 -195 627 0
1190 195 0
1190 -627 0
-1191 195 -627 0
1191 -195 0
1191 627 0
-1192 -197 628 0
1192 197 0
1192 -628 0
-1193 197 -628 0
1193 -197 0
1193 628 0
-1194 -191 631 0
1194 191 0
1194 -631 0
-1195 191 -631 0
1195 -191 0
1195 631 0
-1196 -187 632 0
1196 187 0
1196 -632 0
-1197 187 -632 0
1197 -187 0
1197 632 0
-1198 -193 630 0
1198 193 0
1198 -630 0
-1199 193 -630 0
1199 -193 0
1199 630 0
-1200 -185 634 0
1200 185 0
1200 -634 0
-1201 185 -634 0
1201 -185 0
1201 634 0
-1202 -209 210 0
1202 209 0
1202 -210 0
-1203 209 -210 0
1203 -209 0
1203 210 0
-1204 -207 635 0
1204 207 0
1204 -635 0
-1205 207 -635 0
1205 -207 0
1205 635 0
-1206 -205 636 0
1206 205 0
1206 -636 0
-1207 205 -636 0
1207 -205 0
1207 636 0
-1208 -201 638 0
1208 201 0
1208 -638 0
-1209 201 -638 0
1209 -201 0
1209 638 0
-1210 -189 633 0
1210 189 0
1210 -633 0
-1211 189 -633 0
1211 -189 0
1211 633 0
-1212 -203 637 0
1212 203 0
1212 -637 0
-1213 203 -637 0
1213 -203 0
1213 637 0
-1214 -181 182 0
1214 181 0
1214 -182 0
-1215 181 -182 0
1215 -181 0
1215 182 0
-1216 -179 641 0
1216 179 0
1216 -641 0
-1217 179 -641 0
1217 -179 0
1217 641 0
-1218 -173 640 0
1218 173 0
1218 -640 0
-1219 173 -640 0
1219 -173 0
1219 640 0
-1220 -177 642 0
1220 177 0
1220 -642 0
-1221 177 -642 0
1221 -177 0
1221 642 0
-1222 -175 639 0
1222 175 0
1222 -639 0
-1223 175 -639 0
1223 -175 0
1223 639 0
-1224 -169 643 0
1224 169 0
1224 -643 0
-1225 169 -643 0
1225 -169 0
1225 643 0
-1226 -163 645 0
1226 163 0
1226 -645 0
-1227 163 -645 0
1227 -163 0
1227 645 0
-1228 -165 646 0
1228 165 0
1228 -646 0
-1229 165 -646 0
1229 -165 0
1229 646 0
-1230 -159 648 0
1230 159 0
1230 -648 0
-1231 159 -648 0
1231 -159 0
1231 648 0
-1232 -171 644 0
1232 171 0
1232 -644 0
-1233 171 -644 0
1233 -171 0
1233 644 0
-1234 -161 649 0
1234 161 0
1234 -649 0
-1235 161 -649 0
1235 -161 0
1235 649 0
-1236 -141 650 0
1236 141 0
1236 -650 0
-1237 141 -650 0
1237 -141 0
1237 650 0
-1238 -137 654 0
1238 137 0
1238 -654 0
-1239 137 -654 0
1239 -137 0
1239 654 0
-1240 -143 651 0
1240 143 0
1240 -651 0
-1241 143 -651 0
1241 -143 0
1241 651 0
-1242 -135 656 0
1242 135 0
1242 -656 0
-1243 135 -656 0
1243 -135 0
1243 656 0
-1244 -155 156 0
1244 155 0
1244 -156 0
-1245 155 -156 0
1245 -155 0
1245 156 0
-1246 -153 657 0
1246 153 0
1246 -657 0
-1247 153 -657 0
1247 -153 0
1247 657 0
-1248 -151 658 0
1248 151 0
1248 -658 0
-1249 151 -658 0
1249 -151 0
1249 658 0
-1250 -147 659 0
1250 147 0
1250 -659 0
-1251 147 -659 0
1251 -147 0
1251 659 0
-1252 -139 655 0
1252 139 0
1252 -655 0
-1253 139 -655 0
1253 -139 0
1253 655 0
-1254 -149 660 0
1254 149 0
1254 -660 0
-1255 149 -660 0
1255 -149 0
1255 660 0
-1256 -119 662 0
1256 119 0
1256 -662 0
-1257 119 -662 0
1257 -119 0
1257 662 0
-1258 -117 664 0
1258 117 0
1258 -664 0
-1259 117 -664 0
1259 -117 0
1259 664 0
-1260 -113 665 0
1260 113 0
1260 -665 0
-1261 113 -665 0
1261 -113 0
1261 665 0
-1262 -131 132 0
1262 131 0
1262 -132 0
-1263 131 -132 0
1263 -131 0
1263 132 0
-1264 -129 671 0
1264 129 0
1264 -671 0
-1265 129 -671 0
1265 -129 0
1265 671 0
-1266 -123 668 0
1266 123 0
1266 -668 0
-1267 123 -668 0
1267 -123 0
1267 668 0
-1268 -127 672 0
1268 127 0
1268 -672 0
-1269 127 -672 0
1269 -127 0
1269 672 0
-1270 -115 666 0
1270 115 0
1270 -666 0
-1271 115 -666 0
1271 -115 0
1271 666 0
-1272 -125 669 0
1272 125 0
1272 -669 0
-1273 125 -669 0
1273 -125 0
1273 669 0
-1274 -79 675 0
1274 79 0
1274 -675 0
-1275 79 -675 0
1275 -79 0
1275 675 0
-1276 -75 678 0
1276 75 0
1276 -678 0
-1277 75 -678 0
1277 -75 0
1277 678 0
-1278 -89 90 0
1278 89 0
1278 -90 0
-1279 89 -90 0
1279 -89 0
1279 90 0
-1280 -87 680 0
1280 87 0
1280 -680 0
-1281 87 -680 0
1281 -87 0
1281 680 0
-1282 -85 681 0
1282 85 0
1282 -681 0
-1283 85 -681 0
1283 -85 0
1283 681 0
-1284 -77 679 0
1284 77 0
1284 -679 0
-1285 77 -679 0
1285 -77 0
1285 679 0
-1286 -83 682 0
1286 83 0
1286 -682 0
-1287 83 -682 0
1287 -83 0
1287 682 0
-1288 -71 72 0
1288 71 0
1288 -72 0
-1289 71 -72 0
1289 -71 0
1289 72 0
-1290 -69 683 0
1290 69 0
1290 -683 0
-1291 69 -683 0
1291 -69 0
1291 683 0
-1292 -67 684 0
1292 67 0
1292 -684 0
-1293 67 -684 0
1293 -67 0
1293 684 0
-1294 -63 685 0
1294 63 0
1294 -685 0
-1295 63 -685 0
1295 -63 0
1295 685 0
-1296 -65 686 0
1296 65 0
1296 -686 0
-1297 65 -686 0
1297 -65 0
1297 686 0
-1298 -59 687 0
1298 59 0
1298 -687 0
-1299 59 -687 0
1299 -59 0
1299 687 0
-1300 -55 56 0
1300 55 0
1300 -56 0
-1301 55 -56 0
1301 -55 0
1301 56 0
-1302 -49 689 0
1302 49 0
1302 -689 0
-1303 49 -689 0
1303 -49 0
1303 689 0
-1304 -53 691 0
1304 53 0
1304 -691 0
-1305 53 -691 0
1305 -53 0
1305 691 0
-1306 -51 690 0
1306 51 0
1306 -690 0
-1307 51 -690 0
1307 -51 0
1307 690 0
-1308 -45 692 0
1308 45 0
1308 -692 0
-1309 45 -692 0
1309 -45 0
1309 692 0
-1310 -109 110 0
1310 109 0
1310 -110 0
-1311 109 -110 0
1311 -109 0
1311 110 0
-1312 -107 696 0
1312 107 0
1312 -696 0
-1313 107 -696 0
1313 -107 0
1313 696 0
-1314 -103 694 0
1314 103 0
1314 -694 0
-1315 103 -694 0
1315 -103 0
1315 694 0
-1316 -105 695 0
1316 105 0
1316 -695 0
-1317 105 -695 0
1317 -105 0
1317 695 0
-1318 -99 698 0
1318 99 0
1318 -698 0
-1319 99 -698 0
1319 -99 0
1319 698 0
-1320 -41 42 0
1320 41 0
1320 -42 0
-1321 41 -42 0
1321 -41 0
1321 42 0
-1322 -35 699 0
1322 35 0
1322 -699 0
-1323 35 -699 0
1323 -35 0
1323 699 0
-1324 -39 701 0
1324 39 0
1324 -701 0
-1325 39 -701 0
1325 -39 0
1325 701 0
-1326 -37 700 0
1326 37 0
1326 -700 0
-1327 37 -700 0
1327 -37 0
1327 700 0
-1328 -95 703 0
1328 95 0
1328 -703 0
-1329 95 -703 0
1329 -95 0
1329 703 0
-1330 -29 30 0
1330 29 0
1330 -30 0
-1331 29 -30 0
1331 -29 0
1331 30 0
-1332 -27 706 0
1332 27 0
1332 -706 0
-1333 27 -706 0
1333 -27 0
1333 706 0
-1334 -25 707 0
1334 25 0
1334 -707 0
-1335 25 -707 0
1335 -25 0
1335 707 0
-1336 -19 20 0
1336 19 0
1336 -20 0
-1337 19 -20 0
1337 -19 0
1337 20 0
-1338 -17 709 0
1338 17 0
1338 -709 0
-1339 17 -709 0
1339 -17 0
1339 709 0
-1340 -11 12 0
1340 11 0
1340 -12 0
-1341 11 -12 0
1341 -11 0
1341 12 0
-1342 -81 676 0
1342 81 0
1342 -676 0
-1343 81 -676 0
1343 -81 0
1343 676 0
-1344 -61 688 0
1344 61 0
1344 -688 0
-1345 61 -688 0
1345 -61 0
1345 688 0
-1346 -47 693 0
1346 47 0
1346 -693 0
-1347 47 -693 0
1347 -47 0
1347 693 0
-1348 -101 697 0
1348 101 0
1348 -697 0
-1349 101 -697 0
1349 -101 0
1349 697 0
-1350 -33 702 0
1350 33 0
1350 -702 0
-1351 33 -702 0
1351 -33 0
1351 702 0
-1352 -93 705 0
1352 93 0
1352 -705 0
-1353 93 -705 0
1353 -93 0
1353 705 0
-1354 -23 708 0
1354 23 0
1354 -708 0
-1355 23 -708 0
1355 -23 0
1355 708 0
-1356 -15 710 0
1356 15 0
1356 -710 0
-1357 15 -710 0
1357 -15 0
1357 710 0
-1358 -9 711 0
1358 9 0
1358 -711 0
-1359 9 -711 0
1359 -9 0
1359 711 0
-1360 -221 723 0
1360 221 0
1360 -723 0
-1361 221 -723 0
1361 -221 0
1361 723 0
-1362 -217 724 0
1362 217 0
1362 -724 0
-1363 217 -724 0
1363 -217 0
1363 724 0
-1364 -211 726 0
1364 211 0
1364 -726 0
-1365 211 -726 0
1365 -211 0
1365 726 0
-1366 -219 725 0
1366 219 0
1366 -725 0
-1367 219 -725 0
1367 -219 0
1367 725 0
-1368 -213 727 0
1368 213 0
1368 -727 0
-1369 213 -727 0
1369 -213 0
1369 727 0
-1370 -225 729 0
1370 225 0
1370 -729 0
-1371 225 -729 0
1371 -225 0
1371 729 0
-1372 -237 238 0
1372 237 0
1372 -238 0
-1373 237 -238 0
1373 -237 0
1373 238 0
-1374 -235 734 0
1374 235 0
1374 -734 0
-1375 235 -734 0
1375 -235 0
1375 734 0
-1376 -231 732 0
1376 231 0
1376 -732 0
-1377 231 -732 0
1377 -231 0
1377 732 0
-1378 -227 730 0
1378 227 0
1378 -730 0
-1379 227 -730 0
1379 -227 0
1379 730 0
-1380 -233 733 0
1380 233 0
1380 -733 0
-1381 233 -733 0
1381 -233 0
1381 733 0
-1382 -199 629 0
1382 199 0
1382 -629 0
-1383 199 -629 0
1383 -199 0
1383 629 0
-1384 -167 647 0
1384 167 0
1384 -647 0
-1385 167 -647 0
1385 -167 0
1385 647 0
-1386 -145 653 0
1386 145 0
1386 -653 0
-1387 145 -653 0
1387 -145 0
1387 653 0
-1388 -121 663 0
1388 121 0
1388 -663 0
-1389 121 -663 0
1389 -121 0
1389 663 0
-1390 -97 704 0
1390 97 0
1390 -704 0
-1391 97 -704 0
1391 -97 0
1391 704 0
-1392 -215 728 0
1392 215 0
1392 -728 0
-1393 215 -728 0
1393 -215 0
1393 728 0
-1394 -229 731 0
1394 229 0
1394 -731 0
-1395 229 -731 0
1395 -229 0
1395 731 0
-1396 -57 58 0
1396 57 0
1396 -58 0
-1397 57 -58 0
1397 -57 0
1397 58 0
-1398 -183 184 0
1398 183 0
1398 -184 0
-1399 183 -184 0
1399 -183 0
1399 184 0
-1400 -31 32 0
1400 31 0
1400 -32 0
-1401 31 -32 0
1401 -31 0
1401 32 0
-1402 -91 92 0
1402 91 0
1402 -92 0
-1403 91 -92 0
1403 -91 0
1403 92 0
-1404 -7 8 0
1404 7 0
1404 -8 0
-1405 7 -8 0
1405 -7 0
1405 8 0
-1406 -157 158 0
1406 157 0
1406 -158 0
-1407 157 -158 0
1407 -157 0
1407 158 0
-1408 -111 112 0
1408 111 0
1408 -112 0
-1409 111 -112 0
1409 -111 0
1409 112 0
-1410 -223 722 0
1410 223 0
1410 -722 0
-1411 223 -722 0
1411 -223 0
1411 722 0
-1412 -13 14 0
1412 13 0
1412 -14 0
-1413 13 -14 0
1413 -13 0
1413 14 0
-1414 -73 74 0
1414 73 0
1414 -74 0
-1415 73 -74 0
1415 -73 0
1415 74 0
-1416 -133 134 0
1416 133 0
1416 -134 0
-1417 133 -134 0
1417 -133 0
1417 134 0
-1418 -43 44 0
1418 43 0
1418 -44 0
-1419 43 -44 0
1419 -43 0
1419 44 0
-1420 -21 22 0
1420 21 0
1420 -22 0
-1421 21 -22 0
1421 -21 0
1421 22 0
-1422 -3 4 0
1422 3 0
1422 -4 0
-1423 3 -4 0
1423 -3 0
1423 4 0
-1424 -1425 739 0
1424 1425 0
1424 -739 0
-1426 1425 -739 0
1426 -1425 0
1426 739 0
-1427 -1 2 0
1427 1 0
1427 -2 0
-1428 1 -2 0
1428 -1 0
1428 2 0
740 0
741 0
742 0
743 0
744 0
745 0
746 0
747 0
748 0
749 0
750 0
751 0
752 0
753 0
754 0
755 0
756 0
757 0
758 0
759 0
760 0
761 0
762 0
763 0
764 0
765 0
766 0
767 0
768 0
769 0
770 0
771 0
772 0
773 0
774 0
775 0
776 0
777 0
778 0
779 0
780 0
781 0
782 0
783 0
784 0
785 0
786 0
787 0
788 0
789 0
790 0
791 0
792 0
793 0
794 0
795 0
796 0
797 0
798 0
799 0
800 0
801 0
802 0
803 0
804 0
805 0
806 0
807 0
808 0
809 0
810 0
811 0
812 0
813 0
814 0
815 0
816 0
817 0
818 0
819 0
820 0
821 0
822 0
823 0
824 0
825 0
826 0
827 0
828 0
829 0
830 0
831 0
832 0
833 0
834 0
835 0
836 0
837 0
838 0
839 0
840 0
841 0
842 0
843 0
844 0
845 0
846 0
847 0
848 0
849 0
850 0
851 0
852 0
853 0
854 0
855 0
856 0
857 0
858 0
859 0
860 0
861 0
862 0
863 0
864 0
865 0
866 0
867 0
868 0
869 0
870 0
871 0
872 0
873 0
874 0
875 0
876 0
877 0
878 0
879 0
880 0
881 0
882 0
883 0
884 0
885 0
886 0
887 0
888 0
889 0
890 0
891 0
892 0
893 0
894 0
895 0
896 0
897 0
898 0
899 0
900 0
901 0
902 0
903 0
904 0
905 0
906 0
907 0
908 0
909 0
910 0
911 0
912 0
913 0
914 0
915 0
916 0
917 0
918 0
919 0
920 0
921 0
922 0
923 0
924 0
925 0
926 0
927 0
928 0
929 0
930 0
931 0
932 0
933 0
934 0
935 0
936 0
937 0
938 0
939 0
940 0
941 0
942 0
943 0
944 0
945 0
946 0
947 0
948 0
949 0
950 0
951 0
952 0
953 0
954 0
955 0
956 0
957 0
958 0
959 0
960 0
961 0
962 0
963 0
964 0
965 0
966 0
967 0
968 0
969 0
970 0
971 0
972 0
973 0
974 0
975 0
976 0
977 0
978 0
979 0
980 0
981 0
982 0
983 0
984 0
985 0
986 0
987 0
988 0
989 0
990 0
991 0
992 0
993 0
994 0
995 0
996 0
997 0
998 0
999 0
1000 0
1001 0
1002 0
1003 0
1004 0
1005 0
1006 0
1007 0
1008 0
1009 0
1010 0
1011 0
1012 0
1013 0
1014 0
1015 0
1016 0
1017 0
1018 0
1019 0
1020 0
1021 0
1022 0
1023 0
1024 0
1025 0
1026 0
1027 0
1028 0
1029 0
1030 0
1031 0
1032 0
1033 0
1034 0
1035 0
1036 0
1037 0
1038 0
1039 0
1040 0
1041 0
1042 0
1043 0
1044 0
1045 0
1046 0
1047 0
1048 0
1049 0
1050 0
1051 0
1052 0
1053 0
1054 0
1055 0
1056 0
1057 0
1058 0
1059 0
1060 0
1061 0
1062 0
1063 0
1064 0
1065 0
1066 0
1067 0
1068 0
1069 0
1070 0
1071 0
1072 0
1073 0
1074 0
1075 0
1076 0
1077 0
1078 0
1079 0
1080 0
1081 0
1082 0
1083 0
1084 0
1085 0
1086 0
1087 0
1088 0
1089 0
1090 0
1091 0
1092 0
1093 0
1094 0
1095 0
1096 0
1097 0
1098 0
1099 0
1100 0
1101 0
1102 0
1103 0
1104 0
1105 0
1106 0
1107 0
1108 0
1109 0
1110 0
1111 0
1112 0
1113 0
1114 0
1115 0
1116 0
1117 0
1118 0
1119 0
1120 0
1121 0
1122 0
1123 0
1124 0
1125 0
1126 0
1127 0
1128 0
1129 0
1130 0
1131 0
1132 0
1133 0
1134 0
1135 0
1136 0
1137 0
1138 0
1139 0
1140 0
1141 0
1142 0
1143 0
1144 0
1145 0
1146 0
1147 0
1148 0
1149 0
1150 0
1151 0
1152 0
1153 0
1154 0
1155 0
1156 0
1157 0
1158 0
1159 0
1160 0
1161 0
1162 0
1163 0
1164 0
1165 0
1166 0
1167 0
1168 0
1169 0
1170 0
1171 0
1172 0
1173 0
1174 0
1175 0
1176 0
1177 0
1178 0
1179 0
1180 0
1181 0
1182 0
1183 0
1184 0
1185 0
1186 0
1187 0
1188 0
1189 0
1190 0
1191 0
1192 0
1193 0
1194 0
1195 0
1196 0
1197 0
1198 0
1199 0
1200 0
1201 0
1202 0
1203 0
1204 0
1205 0
1206 0
1207 0
1208 0
1209 0
1210 0
1211 0
1212 0
1213 0
1214 0
1215 0
1216 0
1217 0
1218 0
1219 0
1220 0
1221 0
1222 0
1223 0
1224 0
1225 0
1226 0
1227 0
1228 0
1229 0
1230 0
1231 0
1232 0
1233 0
1234 0
1235 0
1236 0
1237 0
1238 0
1239 0
1240 0
1241 0
1242 0
1243 0
1244 0
1245 0
1246 0
1247 0
1248 0
1249 0
1250 0
1251 0
1252 0
1253 0
1254 0
1255 0
1256 0
1257 0
1258 0
1259 0
1260 0
1261 0
1262 0
1263 0
1264 0
1265 0
1266 0
1267 0
1268 0
1269 0
1270 0
1271 0
1272 0
1273 0
1274 0
1275 0
1276 0
1277 0
1278 0
1279 0
1280 0
1281 0
1282 0
1283 0
1284 0
1285 0
1286 0
1287 0
1288 0
1289 0
1290 0
1291 0
1292 0
1293 0
1294 0
1295 0
1296 0
1297 0
1298 0
1299 0
1300 0
1301 0
1302 0
1303 0
1304 0
1305 0
1306 0
1307 0
1308 0
1309 0
1310 0
1311 0
1312 0
1313 0
1314 0
1315 0
1316 0
1317 0
1318 0
1319 0
1320 0
1321 0
1322 0
1323 0
1324 0
1325 0
1326 0
1327 0
1328 0
1329 0
1330 0
1331 0
1332 0
1333 0
1334 0
1335 0
1336 0
1337 0
1338 0
1339 0
1340 0
1341 0
1342 0
1343 0
1344 0
1345 0
1346 0
1347 0
1348 0
1349 0
1350 0
1351 0
1352 0
1353 0
1354 0
1355 0
1356 0
1357 0
1358 0
1359 0
1360 0
1361 0
1362 0
1363 0
1364 0
1365 0
1366 0
1367 0
1368 0
1369 0
1370 0
1371 0
1372 0
1373 0
1374 0
1375 0
1376 0
1377 0
1378 0
1379 0
1380 0
1381 0
1382 0
1383 0
1384 0
1385 0
1386 0
1387 0
1388 0
1389 0
1390 0
1391 0
1392 0
1393 0
1394 0
1395 0
1396 0
1397 0
1398 0
1399 0
1400 0
1401 0
1402 0
1403 0
1404 0
1405 0
1406 0
1407 0
1408 0
1409 0
1410 0
1411 0
1412 0
1413 0
1414 0
1415 0
1416 0
1417 0
1418 0
1419 0
1420 0
1421 0
1422 0
1423 0
1424 0
1426 0
1427 0
1428 0
