c BC-S1.2
p cnf 989 3271
1 -2 -3 0
-1 2 0
-1 3 0
-4 5 1 0
4 -5 0
4 -1 0
6 -7 -4 0
-6 7 0
-6 4 0
8 -9 -10 0
-8 9 0
-8 10 0
11 -12 -13 0
-11 12 0
-11 13 0
-14 15 6 8 11 0
14 -15 0
14 -6 0
14 -8 0
14 -11 0
16 -17 -14 0
-16 17 0
-16 14 0
18 -19 -20 0
-18 19 0
-18 20 0
-21 22 18 0
21 -22 0
21 -18 0
23 -24 -21 0
-23 24 0
-23 21 0
25 -26 -3 0
-25 26 0
-25 3 0
-27 28 25 0
27 -28 0
27 -25 0
29 -30 -27 0
-29 30 0
-29 27 0
31 -32 -13 0
-31 32 0
-31 13 0
-33 34 23 29 31 0
33 -34 0
33 -23 0
33 -29 0
33 -31 0
35 -36 -33 0
-35 36 0
-35 33 0
-37 38 35 0
37 -38 0
37 -35 0
39 -40 -37 0
-39 40 0
-39 37 0
41 -42 -20 0
-41 42 0
-41 20 0
-43 44 16 39 41 0
43 -44 0
43 -16 0
43 -39 0
43 -41 0
45 -46 -43 0
-45 46 0
-45 43 0
47 -48 -33 0
-47 48 0
-47 33 0
49 -50 -13 0
-49 50 0
-49 13 0
-51 52 45 47 49 0
51 -52 0
51 -45 0
51 -47 0
51 -49 0
53 -54 -51 0
-53 54 0
-53 51 0
55 -40 -38 0
-55 40 0
-55 38 0
-56 44 16 55 41 0
56 -44 0
56 -16 0
56 -55 0
56 -41 0
57 -46 -56 0
-57 46 0
-57 56 0
-58 52 57 49 0
58 -52 0
58 -57 0
58 -49 0
59 -60 -58 0
-59 60 0
-59 58 0
-61 28 59 25 0
61 -28 0
61 -59 0
61 -25 0
62 -30 -61 0
-62 30 0
-62 61 0
-63 34 23 62 31 0
63 -34 0
63 -23 0
63 -62 0
63 -31 0
64 -65 -63 0
-64 65 0
-64 63 0
66 -67 -68 0
-66 67 0
-66 68 0
-69 70 53 64 66 0
69 -70 0
69 -53 0
69 -64 0
69 -66 0
71 -72 -69 0
-71 72 0
-71 69 0
-73 34 23 31 0
73 -34 0
73 -23 0
73 -31 0
74 -65 -73 0
-74 65 0
-74 73 0
-75 70 74 66 0
75 -70 0
75 -74 0
75 -66 0
76 -77 -75 0
-76 77 0
-76 75 0
78 -79 -75 0
-78 79 0
-78 75 0
80 -81 -75 0
-80 81 0
-80 75 0
-82 3 80 0
82 -3 0
82 -80 0
83 -2 -82 0
-83 2 0
-83 82 0
-84 5 78 83 0
84 -5 0
84 -78 0
84 -83 0
85 -7 -84 0
-85 7 0
-85 84 0
-86 15 85 8 11 0
86 -15 0
86 -85 0
86 -8 0
86 -11 0
87 -17 -86 0
-87 17 0
-87 86 0
88 -36 -73 0
-88 36 0
-88 73 0
-89 38 88 0
89 -38 0
89 -88 0
90 -40 -89 0
-90 40 0
-90 89 0
-91 44 76 87 90 41 0
91 -44 0
91 -76 0
91 -87 0
91 -90 0
91 -41 0
92 -46 -91 0
-92 46 0
-92 91 0
93 -48 -73 0
-93 48 0
-93 73 0
-94 52 92 93 49 0
94 -52 0
94 -92 0
94 -93 0
94 -49 0
95 -60 -94 0
-95 60 0
-95 94 0
96 -7 -5 0
-96 7 0
-96 5 0
-97 15 96 8 11 0
97 -15 0
97 -96 0
97 -8 0
97 -11 0
98 -17 -97 0
-98 17 0
-98 97 0
-99 44 98 90 41 0
99 -44 0
99 -98 0
99 -90 0
99 -41 0
100 -46 -99 0
-100 46 0
-100 99 0
-101 52 100 93 49 0
101 -52 0
101 -100 0
101 -93 0
101 -49 0
102 -54 -101 0
-102 54 0
-102 101 0
-103 70 102 74 66 0
103 -70 0
103 -102 0
103 -74 0
103 -66 0
104 -81 -103 0
-104 81 0
-104 103 0
-105 3 104 0
105 -3 0
105 -104 0
106 -26 -105 0
-106 26 0
-106 105 0
-107 28 95 106 0
107 -28 0
107 -95 0
107 -106 0
108 -109 -107 0
-108 109 0
-108 107 0
-110 111 71 108 0
110 -111 0
110 -71 0
110 -108 0
112 -113 -110 0
-112 113 0
-112 110 0
-114 70 66 0
114 -70 0
114 -66 0
115 -77 -114 0
-115 77 0
-115 114 0
116 -72 -114 0
-116 72 0
-116 114 0
-117 111 116 0
117 -111 0
117 -116 0
118 -119 -117 0
-118 119 0
-118 117 0
120 -79 -114 0
-120 79 0
-120 114 0
121 -81 -114 0
-121 81 0
-121 114 0
-122 3 121 0
122 -3 0
122 -121 0
123 -2 -122 0
-123 2 0
-123 122 0
-124 5 118 120 123 0
124 -5 0
124 -118 0
124 -120 0
124 -123 0
125 -7 -124 0
-125 7 0
-125 124 0
-126 15 125 8 11 0
126 -15 0
126 -125 0
126 -8 0
126 -11 0
127 -17 -126 0
-127 17 0
-127 126 0
-128 44 115 127 55 41 0
128 -44 0
128 -115 0
128 -127 0
128 -55 0
128 -41 0
129 -46 -128 0
-129 46 0
-129 128 0
-130 52 129 49 0
130 -52 0
130 -129 0
130 -49 0
131 -60 -130 0
-131 60 0
-131 130 0
-132 5 118 0
132 -5 0
132 -118 0
133 -7 -132 0
-133 7 0
-133 132 0
-134 15 133 8 11 0
134 -15 0
134 -133 0
134 -8 0
134 -11 0
135 -17 -134 0
-135 17 0
-135 134 0
-136 44 135 55 41 0
136 -44 0
136 -135 0
136 -55 0
136 -41 0
137 -46 -136 0
-137 46 0
-137 136 0
-138 52 137 49 0
138 -52 0
138 -137 0
138 -49 0
139 -54 -138 0
-139 54 0
-139 138 0
-140 70 139 66 0
140 -70 0
140 -139 0
140 -66 0
141 -81 -140 0
-141 81 0
-141 140 0
-142 3 141 0
142 -3 0
142 -141 0
143 -26 -142 0
-143 26 0
-143 142 0
-144 28 131 143 0
144 -28 0
144 -131 0
144 -143 0
145 -30 -144 0
-145 30 0
-145 144 0
-146 34 23 145 31 0
146 -34 0
146 -23 0
146 -145 0
146 -31 0
147 -148 -146 0
-147 148 0
-147 146 0
-149 150 112 147 0
149 -150 0
149 -112 0
149 -147 0
151 -152 -149 0
-151 152 0
-151 149 0
-153 154 151 0
153 -154 0
153 -151 0
155 -156 -153 0
-155 156 0
-155 153 0
157 -158 -154 0
-157 158 0
-157 154 0
159 -160 -154 0
-159 160 0
-159 154 0
-161 15 159 6 8 11 0
161 -15 0
161 -159 0
161 -6 0
161 -8 0
161 -11 0
162 -17 -161 0
-162 17 0
-162 161 0
-163 44 162 41 0
163 -44 0
163 -162 0
163 -41 0
164 -46 -163 0
-164 46 0
-164 163 0
-165 52 164 49 0
165 -52 0
165 -164 0
165 -49 0
166 -54 -165 0
-166 54 0
-166 165 0
-167 70 157 166 66 0
167 -70 0
167 -157 0
167 -166 0
167 -66 0
168 -72 -167 0
-168 72 0
-168 167 0
-169 70 157 66 0
169 -70 0
169 -157 0
169 -66 0
170 -77 -169 0
-170 77 0
-170 169 0
171 -79 -169 0
-171 79 0
-171 169 0
172 -81 -169 0
-172 81 0
-172 169 0
-173 3 172 0
173 -3 0
173 -172 0
174 -2 -173 0
-174 2 0
-174 173 0
-175 5 171 174 0
175 -5 0
175 -171 0
175 -174 0
176 -7 -175 0
-176 7 0
-176 175 0
-177 15 159 176 8 11 0
177 -15 0
177 -159 0
177 -176 0
177 -8 0
177 -11 0
178 -17 -177 0
-178 17 0
-178 177 0
-179 44 170 178 41 0
179 -44 0
179 -170 0
179 -178 0
179 -41 0
180 -46 -179 0
-180 46 0
-180 179 0
-181 52 180 49 0
181 -52 0
181 -180 0
181 -49 0
182 -60 -181 0
-182 60 0
-182 181 0
-183 15 159 96 8 11 0
183 -15 0
183 -159 0
183 -96 0
183 -8 0
183 -11 0
184 -17 -183 0
-184 17 0
-184 183 0
-185 44 184 41 0
185 -44 0
185 -184 0
185 -41 0
186 -46 -185 0
-186 46 0
-186 185 0
-187 52 186 49 0
187 -52 0
187 -186 0
187 -49 0
188 -54 -187 0
-188 54 0
-188 187 0
-189 70 157 188 66 0
189 -70 0
189 -157 0
189 -188 0
189 -66 0
190 -81 -189 0
-190 81 0
-190 189 0
-191 3 190 0
191 -3 0
191 -190 0
192 -26 -191 0
-192 26 0
-192 191 0
-193 28 182 192 0
193 -28 0
193 -182 0
193 -192 0
194 -109 -193 0
-194 109 0
-194 193 0
-195 111 168 194 0
195 -111 0
195 -168 0
195 -194 0
196 -113 -195 0
-196 113 0
-196 195 0
-197 150 196 0
197 -150 0
197 -196 0
198 -199 -197 0
-198 199 0
-198 197 0
-200 22 198 18 0
200 -22 0
200 -198 0
200 -18 0
201 -24 -200 0
-201 24 0
-201 200 0
202 -113 -117 0
-202 113 0
-202 117 0
-203 150 202 0
203 -150 0
203 -202 0
204 -152 -203 0
-204 152 0
-204 203 0
-205 154 204 0
205 -154 0
205 -204 0
206 -158 -205 0
-206 158 0
-206 205 0
207 -113 -111 0
-207 113 0
-207 111 0
-208 150 207 0
208 -150 0
208 -207 0
209 -210 -208 0
-209 210 0
-209 208 0
-211 70 206 209 66 0
211 -70 0
211 -206 0
211 -209 0
211 -66 0
212 -77 -211 0
-212 77 0
-212 211 0
213 -160 -205 0
-213 160 0
-213 205 0
214 -152 -150 0
-214 152 0
-214 150 0
-215 154 214 0
215 -154 0
215 -214 0
216 -158 -215 0
-216 158 0
-216 215 0
217 -210 -150 0
-217 210 0
-217 150 0
-218 70 216 217 66 0
218 -70 0
218 -216 0
218 -217 0
218 -66 0
219 -72 -218 0
-219 72 0
-219 218 0
-220 111 219 0
220 -111 0
220 -219 0
221 -119 -220 0
-221 119 0
-221 220 0
222 -79 -211 0
-222 79 0
-222 211 0
223 -81 -211 0
-223 81 0
-223 211 0
-224 3 223 0
224 -3 0
224 -223 0
225 -2 -224 0
-225 2 0
-225 224 0
-226 5 221 222 225 0
226 -5 0
226 -221 0
226 -222 0
226 -225 0
227 -7 -226 0
-227 7 0
-227 226 0
-228 15 213 227 8 11 0
228 -15 0
228 -213 0
228 -227 0
228 -8 0
228 -11 0
229 -17 -228 0
-229 17 0
-229 228 0
-230 44 212 229 41 0
230 -44 0
230 -212 0
230 -229 0
230 -41 0
231 -46 -230 0
-231 46 0
-231 230 0
-232 111 168 0
232 -111 0
232 -168 0
233 -113 -232 0
-233 113 0
-233 232 0
-234 150 233 0
234 -150 0
234 -233 0
235 -236 -234 0
-235 236 0
-235 234 0
-237 52 231 235 49 0
237 -52 0
237 -231 0
237 -235 0
237 -49 0
238 -60 -237 0
-238 60 0
-238 237 0
239 -240 -234 0
-239 240 0
-239 234 0
241 -152 -208 0
-241 152 0
-241 208 0
-242 154 241 0
242 -154 0
242 -241 0
243 -158 -242 0
-243 158 0
-243 242 0
244 -160 -242 0
-244 160 0
-244 242 0
245 -119 -111 0
-245 119 0
-245 111 0
-246 5 245 0
246 -5 0
246 -245 0
247 -7 -246 0
-247 7 0
-247 246 0
-248 15 244 247 8 11 0
248 -15 0
248 -244 0
248 -247 0
248 -8 0
248 -11 0
249 -17 -248 0
-249 17 0
-249 248 0
-250 44 249 41 0
250 -44 0
250 -249 0
250 -41 0
251 -46 -250 0
-251 46 0
-251 250 0
252 -236 -208 0
-252 236 0
-252 208 0
-253 52 251 252 49 0
253 -52 0
253 -251 0
253 -252 0
253 -49 0
254 -54 -253 0
-254 54 0
-254 253 0
-255 70 243 254 209 66 0
255 -70 0
255 -243 0
255 -254 0
255 -209 0
255 -66 0
256 -81 -255 0
-256 81 0
-256 255 0
-257 3 256 0
257 -3 0
257 -256 0
258 -26 -257 0
-258 26 0
-258 257 0
-259 28 238 239 258 0
259 -28 0
259 -238 0
259 -239 0
259 -258 0
260 -30 -259 0
-260 30 0
-260 259 0
-261 34 201 260 31 0
261 -34 0
261 -201 0
261 -260 0
261 -31 0
262 -36 -261 0
-262 36 0
-262 261 0
-263 38 262 0
263 -38 0
263 -262 0
264 -265 -263 0
-264 265 0
-264 263 0
266 -267 -10 0
-266 267 0
-266 10 0
-268 269 155 264 266 0
268 -269 0
268 -155 0
268 -264 0
268 -266 0
270 -271 -268 0
-270 271 0
-270 268 0
272 -265 -38 0
-272 265 0
-272 38 0
-273 269 272 266 0
273 -269 0
273 -272 0
273 -266 0
274 -275 -273 0
-274 275 0
-274 273 0
-276 44 274 16 55 41 0
276 -44 0
276 -274 0
276 -16 0
276 -55 0
276 -41 0
277 -46 -276 0
-277 46 0
-277 276 0
-278 52 277 49 0
278 -52 0
278 -277 0
278 -49 0
279 -60 -278 0
-279 60 0
-279 278 0
-280 28 279 25 0
280 -28 0
280 -279 0
280 -25 0
281 -30 -280 0
-281 30 0
-281 280 0
-282 34 23 281 31 0
282 -34 0
282 -23 0
282 -281 0
282 -31 0
283 -148 -282 0
-283 148 0
-283 282 0
-284 150 283 0
284 -150 0
284 -283 0
285 -152 -284 0
-285 152 0
-285 284 0
-286 154 285 0
286 -154 0
286 -285 0
287 -158 -286 0
-287 158 0
-287 286 0
288 -148 -33 0
-288 148 0
-288 33 0
-289 150 288 0
289 -150 0
289 -288 0
290 -152 -289 0
-290 152 0
-290 289 0
-291 154 290 0
291 -154 0
291 -290 0
292 -156 -291 0
-292 156 0
-292 291 0
293 -199 -150 0
-293 199 0
-293 150 0
-294 22 293 18 0
294 -22 0
294 -293 0
294 -18 0
295 -24 -294 0
-295 24 0
-295 294 0
296 -240 -150 0
-296 240 0
-296 150 0
-297 28 296 25 0
297 -28 0
297 -296 0
297 -25 0
298 -30 -297 0
-298 30 0
-298 297 0
-299 34 295 298 31 0
299 -34 0
299 -295 0
299 -298 0
299 -31 0
300 -36 -299 0
-300 36 0
-300 299 0
-301 38 300 0
301 -38 0
301 -300 0
302 -265 -301 0
-302 265 0
-302 301 0
-303 269 292 302 266 0
303 -269 0
303 -292 0
303 -302 0
303 -266 0
304 -275 -303 0
-304 275 0
-304 303 0
305 -160 -291 0
-305 160 0
-305 291 0
-306 15 305 6 8 11 0
306 -15 0
306 -305 0
306 -6 0
306 -8 0
306 -11 0
307 -17 -306 0
-307 17 0
-307 306 0
308 -40 -301 0
-308 40 0
-308 301 0
-309 44 304 307 308 41 0
309 -44 0
309 -304 0
309 -307 0
309 -308 0
309 -41 0
310 -46 -309 0
-310 46 0
-310 309 0
311 -236 -289 0
-311 236 0
-311 289 0
312 -48 -299 0
-312 48 0
-312 299 0
-313 52 310 311 312 49 0
313 -52 0
313 -310 0
313 -311 0
313 -312 0
313 -49 0
314 -54 -313 0
-314 54 0
-314 313 0
315 -156 -215 0
-315 156 0
-315 215 0
-316 269 315 272 266 0
316 -269 0
316 -315 0
316 -272 0
316 -266 0
317 -275 -316 0
-317 275 0
-317 316 0
318 -160 -215 0
-318 160 0
-318 215 0
-319 15 318 6 8 11 0
319 -15 0
319 -318 0
319 -6 0
319 -8 0
319 -11 0
320 -17 -319 0
-320 17 0
-320 319 0
-321 44 317 320 55 41 0
321 -44 0
321 -317 0
321 -320 0
321 -55 0
321 -41 0
322 -46 -321 0
-322 46 0
-322 321 0
323 -236 -150 0
-323 236 0
-323 150 0
-324 52 322 323 49 0
324 -52 0
324 -322 0
324 -323 0
324 -49 0
325 -60 -324 0
-325 60 0
-325 324 0
-326 28 325 296 25 0
326 -28 0
326 -325 0
326 -296 0
326 -25 0
327 -30 -326 0
-327 30 0
-327 326 0
-328 34 295 327 31 0
328 -34 0
328 -295 0
328 -327 0
328 -31 0
329 -65 -328 0
-329 65 0
-329 328 0
330 -156 -154 0
-330 156 0
-330 154 0
-331 269 330 272 266 0
331 -269 0
331 -330 0
331 -272 0
331 -266 0
332 -275 -331 0
-332 275 0
-332 331 0
-333 44 332 162 55 41 0
333 -44 0
333 -332 0
333 -162 0
333 -55 0
333 -41 0
334 -46 -333 0
-334 46 0
-334 333 0
-335 52 334 49 0
335 -52 0
335 -334 0
335 -49 0
336 -60 -335 0
-336 60 0
-336 335 0
-337 28 336 25 0
337 -28 0
337 -336 0
337 -25 0
338 -30 -337 0
-338 30 0
-338 337 0
-339 34 23 338 31 0
339 -34 0
339 -23 0
339 -338 0
339 -31 0
340 -148 -339 0
-340 148 0
-340 339 0
-341 150 340 0
341 -150 0
341 -340 0
342 -210 -341 0
-342 210 0
-342 341 0
343 -148 -63 0
-343 148 0
-343 63 0
-344 150 343 0
344 -150 0
344 -343 0
345 -152 -344 0
-345 152 0
-345 344 0
-346 154 345 0
346 -154 0
346 -345 0
347 -156 -346 0
-347 156 0
-347 346 0
-348 44 320 41 0
348 -44 0
348 -320 0
348 -41 0
349 -46 -348 0
-349 46 0
-349 348 0
-350 52 349 323 49 0
350 -52 0
350 -349 0
350 -323 0
350 -49 0
351 -60 -350 0
-351 60 0
-351 350 0
-352 28 351 296 25 0
352 -28 0
352 -351 0
352 -296 0
352 -25 0
353 -30 -352 0
-353 30 0
-353 352 0
-354 34 295 353 31 0
354 -34 0
354 -295 0
354 -353 0
354 -31 0
355 -36 -354 0
-355 36 0
-355 354 0
-356 38 355 0
356 -38 0
356 -355 0
357 -265 -356 0
-357 265 0
-357 356 0
-358 269 347 357 266 0
358 -269 0
358 -347 0
358 -357 0
358 -266 0
359 -360 -358 0
-359 360 0
-359 358 0
-361 68 359 0
361 -68 0
361 -359 0
362 -67 -361 0
-362 67 0
-362 361 0
-363 70 287 314 329 342 362 0
363 -70 0
363 -287 0
363 -314 0
363 -329 0
363 -342 0
363 -362 0
364 -72 -363 0
-364 72 0
-364 363 0
-365 5 120 123 0
365 -5 0
365 -120 0
365 -123 0
366 -7 -365 0
-366 7 0
-366 365 0
-367 15 366 8 11 0
367 -15 0
367 -366 0
367 -8 0
367 -11 0
368 -17 -367 0
-368 17 0
-368 367 0
-369 44 115 368 55 41 0
369 -44 0
369 -115 0
369 -368 0
369 -55 0
369 -41 0
370 -46 -369 0
-370 46 0
-370 369 0
-371 52 370 49 0
371 -52 0
371 -370 0
371 -49 0
372 -60 -371 0
-372 60 0
-372 371 0
-373 70 102 66 0
373 -70 0
373 -102 0
373 -66 0
374 -81 -373 0
-374 81 0
-374 373 0
-375 3 374 0
375 -3 0
375 -374 0
376 -26 -375 0
-376 26 0
-376 375 0
-377 28 372 376 0
377 -28 0
377 -372 0
377 -376 0
378 -30 -377 0
-378 30 0
-378 377 0
-379 34 23 378 31 0
379 -34 0
379 -23 0
379 -378 0
379 -31 0
380 -148 -379 0
-380 148 0
-380 379 0
-381 150 380 0
381 -150 0
381 -380 0
382 -152 -381 0
-382 152 0
-382 381 0
-383 154 382 0
383 -154 0
383 -382 0
384 -156 -383 0
-384 156 0
-384 383 0
385 -77 -218 0
-385 77 0
-385 218 0
386 -79 -218 0
-386 79 0
-386 218 0
387 -81 -218 0
-387 81 0
-387 218 0
-388 3 387 0
388 -3 0
388 -387 0
389 -2 -388 0
-389 2 0
-389 388 0
-390 5 386 389 0
390 -5 0
390 -386 0
390 -389 0
391 -7 -390 0
-391 7 0
-391 390 0
-392 15 318 391 8 11 0
392 -15 0
392 -318 0
392 -391 0
392 -8 0
392 -11 0
393 -17 -392 0
-393 17 0
-393 392 0
-394 44 385 393 41 0
394 -44 0
394 -385 0
394 -393 0
394 -41 0
395 -46 -394 0
-395 46 0
-395 394 0
-396 52 395 323 49 0
396 -52 0
396 -395 0
396 -323 0
396 -49 0
397 -60 -396 0
-397 60 0
-397 396 0
-398 15 318 96 8 11 0
398 -15 0
398 -318 0
398 -96 0
398 -8 0
398 -11 0
399 -17 -398 0
-399 17 0
-399 398 0
-400 44 399 41 0
400 -44 0
400 -399 0
400 -41 0
401 -46 -400 0
-401 46 0
-401 400 0
-402 52 401 323 49 0
402 -52 0
402 -401 0
402 -323 0
402 -49 0
403 -54 -402 0
-403 54 0
-403 402 0
-404 70 216 403 217 66 0
404 -70 0
404 -216 0
404 -403 0
404 -217 0
404 -66 0
405 -81 -404 0
-405 81 0
-405 404 0
-406 3 405 0
406 -3 0
406 -405 0
407 -26 -406 0
-407 26 0
-407 406 0
-408 28 397 296 407 0
408 -28 0
408 -397 0
408 -296 0
408 -407 0
409 -30 -408 0
-409 30 0
-409 408 0
-410 34 295 409 31 0
410 -34 0
410 -295 0
410 -409 0
410 -31 0
411 -36 -410 0
-411 36 0
-411 410 0
-412 38 411 0
412 -38 0
412 -411 0
413 -265 -412 0
-413 265 0
-413 412 0
-414 269 384 413 266 0
414 -269 0
414 -384 0
414 -413 0
414 -266 0
415 -416 -414 0
-415 416 0
-415 414 0
417 -148 -73 0
-417 148 0
-417 73 0
-418 150 417 0
418 -150 0
418 -417 0
419 -152 -418 0
-419 152 0
-419 418 0
-420 154 419 0
420 -154 0
420 -419 0
421 -158 -420 0
-421 158 0
-421 420 0
-422 34 295 31 0
422 -34 0
422 -295 0
422 -31 0
423 -65 -422 0
-423 65 0
-423 422 0
424 -210 -418 0
-424 210 0
-424 418 0
425 -156 -420 0
-425 156 0
-425 420 0
426 -36 -422 0
-426 36 0
-426 422 0
-427 38 426 0
427 -38 0
427 -426 0
428 -265 -427 0
-428 265 0
-428 427 0
-429 269 425 428 266 0
429 -269 0
429 -425 0
429 -428 0
429 -266 0
430 -360 -429 0
-430 360 0
-430 429 0
-431 68 430 0
431 -68 0
431 -430 0
432 -67 -431 0
-432 67 0
-432 431 0
-433 70 421 423 424 432 0
433 -70 0
433 -421 0
433 -423 0
433 -424 0
433 -432 0
434 -77 -433 0
-434 77 0
-434 433 0
435 -275 -429 0
-435 275 0
-435 429 0
436 -160 -420 0
-436 160 0
-436 420 0
437 -79 -433 0
-437 79 0
-437 433 0
438 -81 -433 0
-438 81 0
-438 433 0
-439 3 438 0
439 -3 0
439 -438 0
440 -2 -439 0
-440 2 0
-440 439 0
-441 5 437 440 0
441 -5 0
441 -437 0
441 -440 0
442 -7 -441 0
-442 7 0
-442 441 0
-443 15 436 442 8 11 0
443 -15 0
443 -436 0
443 -442 0
443 -8 0
443 -11 0
444 -17 -443 0
-444 17 0
-444 443 0
445 -40 -427 0
-445 40 0
-445 427 0
-446 44 434 435 444 445 41 0
446 -44 0
446 -434 0
446 -435 0
446 -444 0
446 -445 0
446 -41 0
447 -46 -446 0
-447 46 0
-447 446 0
448 -236 -418 0
-448 236 0
-448 418 0
449 -48 -422 0
-449 48 0
-449 422 0
-450 52 447 448 449 49 0
450 -52 0
450 -447 0
450 -448 0
450 -449 0
450 -49 0
451 -60 -450 0
-451 60 0
-451 450 0
452 -240 -418 0
-452 240 0
-452 418 0
-453 15 436 96 8 11 0
453 -15 0
453 -436 0
453 -96 0
453 -8 0
453 -11 0
454 -17 -453 0
-454 17 0
-454 453 0
-455 44 435 454 445 41 0
455 -44 0
455 -435 0
455 -454 0
455 -445 0
455 -41 0
456 -46 -455 0
-456 46 0
-456 455 0
-457 52 456 448 449 49 0
457 -52 0
457 -456 0
457 -448 0
457 -449 0
457 -49 0
458 -54 -457 0
-458 54 0
-458 457 0
-459 70 421 458 423 424 432 0
459 -70 0
459 -421 0
459 -458 0
459 -423 0
459 -424 0
459 -432 0
460 -81 -459 0
-460 81 0
-460 459 0
-461 3 460 0
461 -3 0
461 -460 0
462 -26 -461 0
-462 26 0
-462 461 0
-463 28 451 452 462 0
463 -28 0
463 -451 0
463 -452 0
463 -462 0
464 -109 -463 0
-464 109 0
-464 463 0
-465 111 364 415 464 0
465 -111 0
465 -364 0
465 -415 0
465 -464 0
466 -467 -465 0
-466 467 0
-466 465 0
468 -60 -165 0
-468 60 0
-468 165 0
-469 28 468 25 0
469 -28 0
469 -468 0
469 -25 0
470 -30 -469 0
-470 30 0
-470 469 0
-471 34 23 470 31 0
471 -34 0
471 -23 0
471 -470 0
471 -31 0
472 -36 -471 0
-472 36 0
-472 471 0
-473 38 472 0
473 -38 0
473 -472 0
474 -265 -473 0
-474 265 0
-474 473 0
-475 269 474 266 0
475 -269 0
475 -474 0
475 -266 0
476 -416 -475 0
-476 416 0
-476 475 0
477 -265 -89 0
-477 265 0
-477 89 0
-478 269 477 266 0
478 -269 0
478 -477 0
478 -266 0
479 -275 -478 0
-479 275 0
-479 478 0
-480 44 479 16 90 41 0
480 -44 0
480 -479 0
480 -16 0
480 -90 0
480 -41 0
481 -46 -480 0
-481 46 0
-481 480 0
-482 52 481 93 49 0
482 -52 0
482 -481 0
482 -93 0
482 -49 0
483 -60 -482 0
-483 60 0
-483 482 0
-484 28 483 25 0
484 -28 0
484 -483 0
484 -25 0
485 -109 -484 0
-485 109 0
-485 484 0
-486 111 476 485 0
486 -111 0
486 -476 0
486 -485 0
487 -113 -486 0
-487 113 0
-487 486 0
488 -416 -273 0
-488 416 0
-488 273 0
-489 111 488 0
489 -111 0
489 -488 0
490 -119 -489 0
-490 119 0
-490 489 0
-491 5 490 1 0
491 -5 0
491 -490 0
491 -1 0
492 -7 -491 0
-492 7 0
-492 491 0
-493 15 492 8 11 0
493 -15 0
493 -492 0
493 -8 0
493 -11 0
494 -17 -493 0
-494 17 0
-494 493 0
-495 44 274 494 55 41 0
495 -44 0
495 -274 0
495 -494 0
495 -55 0
495 -41 0
496 -46 -495 0
-496 46 0
-496 495 0
-497 52 496 49 0
497 -52 0
497 -496 0
497 -49 0
498 -60 -497 0
-498 60 0
-498 497 0
-499 28 498 25 0
499 -28 0
499 -498 0
499 -25 0
500 -30 -499 0
-500 30 0
-500 499 0
-501 34 23 500 31 0
501 -34 0
501 -23 0
501 -500 0
501 -31 0
502 -148 -501 0
-502 148 0
-502 501 0
-503 150 487 502 0
503 -150 0
503 -487 0
503 -502 0
504 -152 -503 0
-504 152 0
-504 503 0
-505 154 504 0
505 -154 0
505 -504 0
506 -158 -505 0
-506 158 0
-506 505 0
507 -109 -27 0
-507 109 0
-507 27 0
-508 111 507 0
508 -111 0
508 -507 0
509 -113 -508 0
-509 113 0
-509 508 0
-510 150 509 288 0
510 -150 0
510 -509 0
510 -288 0
511 -152 -510 0
-511 152 0
-511 510 0
-512 154 511 0
512 -154 0
512 -511 0
513 -156 -512 0
-513 156 0
-513 512 0
-514 150 509 0
514 -150 0
514 -509 0
515 -199 -514 0
-515 199 0
-515 514 0
-516 22 515 18 0
516 -22 0
516 -515 0
516 -18 0
517 -24 -516 0
-517 24 0
-517 516 0
518 -240 -208 0
-518 240 0
-518 208 0
-519 28 518 25 0
519 -28 0
519 -518 0
519 -25 0
520 -30 -519 0
-520 30 0
-520 519 0
-521 34 517 520 31 0
521 -34 0
521 -517 0
521 -520 0
521 -31 0
522 -36 -521 0
-522 36 0
-522 521 0
-523 38 522 0
523 -38 0
523 -522 0
524 -265 -523 0
-524 265 0
-524 523 0
-525 269 513 524 266 0
525 -269 0
525 -513 0
525 -524 0
525 -266 0
526 -275 -525 0
-526 275 0
-526 525 0
527 -265 -37 0
-527 265 0
-527 37 0
-528 269 527 266 0
528 -269 0
528 -527 0
528 -266 0
529 -416 -528 0
-529 416 0
-529 528 0
-530 111 529 507 0
530 -111 0
530 -529 0
530 -507 0
531 -113 -530 0
-531 113 0
-531 530 0
-532 150 531 288 0
532 -150 0
532 -531 0
532 -288 0
533 -152 -532 0
-533 152 0
-533 532 0
-534 154 533 0
534 -154 0
534 -533 0
535 -160 -534 0
-535 160 0
-535 534 0
536 -416 -303 0
-536 416 0
-536 303 0
-537 28 452 25 0
537 -28 0
537 -452 0
537 -25 0
538 -109 -537 0
-538 109 0
-538 537 0
-539 111 536 538 0
539 -111 0
539 -536 0
539 -538 0
540 -119 -539 0
-540 119 0
-540 539 0
-541 5 540 1 0
541 -5 0
541 -540 0
541 -1 0
542 -7 -541 0
-542 7 0
-542 541 0
-543 15 535 542 8 11 0
543 -15 0
543 -535 0
543 -542 0
543 -8 0
543 -11 0
544 -17 -543 0
-544 17 0
-544 543 0
545 -416 -331 0
-545 416 0
-545 331 0
-546 111 545 507 0
546 -111 0
546 -545 0
546 -507 0
547 -113 -546 0
-547 113 0
-547 546 0
-548 150 547 0
548 -150 0
548 -547 0
549 -199 -548 0
-549 199 0
-549 548 0
-550 22 549 18 0
550 -22 0
550 -549 0
550 -18 0
551 -24 -550 0
-551 24 0
-551 550 0
552 -240 -548 0
-552 240 0
-552 548 0
-553 28 552 25 0
553 -28 0
553 -552 0
553 -25 0
554 -30 -553 0
-554 30 0
-554 553 0
-555 34 551 554 31 0
555 -34 0
555 -551 0
555 -554 0
555 -31 0
556 -36 -555 0
-556 36 0
-556 555 0
-557 38 556 0
557 -38 0
557 -556 0
558 -40 -557 0
-558 40 0
-558 557 0
-559 44 526 544 558 41 0
559 -44 0
559 -526 0
559 -544 0
559 -558 0
559 -41 0
560 -46 -559 0
-560 46 0
-560 559 0
-561 269 292 527 266 0
561 -269 0
561 -292 0
561 -527 0
561 -266 0
562 -416 -561 0
-562 416 0
-562 561 0
-563 111 562 507 0
563 -111 0
563 -562 0
563 -507 0
564 -113 -563 0
-564 113 0
-564 563 0
-565 150 564 288 0
565 -150 0
565 -564 0
565 -288 0
566 -236 -565 0
-566 236 0
-566 565 0
567 -48 -555 0
-567 48 0
-567 555 0
-568 52 560 566 567 49 0
568 -52 0
568 -560 0
568 -566 0
568 -567 0
568 -49 0
569 -54 -568 0
-569 54 0
-569 568 0
570 -109 -337 0
-570 109 0
-570 337 0
-571 111 545 570 0
571 -111 0
571 -545 0
571 -570 0
572 -113 -571 0
-572 113 0
-572 571 0
-573 150 572 0
573 -150 0
573 -572 0
574 -199 -573 0
-574 199 0
-574 573 0
-575 22 574 18 0
575 -22 0
575 -574 0
575 -18 0
576 -24 -575 0
-576 24 0
-576 575 0
577 -156 -242 0
-577 156 0
-577 242 0
-578 269 577 272 266 0
578 -269 0
578 -577 0
578 -272 0
578 -266 0
579 -275 -578 0
-579 275 0
-579 578 0
580 -152 -548 0
-580 152 0
-580 548 0
-581 154 580 0
581 -154 0
581 -580 0
582 -160 -581 0
-582 160 0
-582 581 0
583 -416 -316 0
-583 416 0
-583 316 0
-584 111 583 0
584 -111 0
584 -583 0
585 -119 -584 0
-585 119 0
-585 584 0
-586 5 585 1 0
586 -5 0
586 -585 0
586 -1 0
587 -7 -586 0
-587 7 0
-587 586 0
-588 15 582 587 8 11 0
588 -15 0
588 -582 0
588 -587 0
588 -8 0
588 -11 0
589 -17 -588 0
-589 17 0
-589 588 0
-590 44 579 589 55 41 0
590 -44 0
590 -579 0
590 -589 0
590 -55 0
590 -41 0
591 -46 -590 0
-591 46 0
-591 590 0
592 -236 -548 0
-592 236 0
-592 548 0
-593 52 591 592 49 0
593 -52 0
593 -591 0
593 -592 0
593 -49 0
594 -60 -593 0
-594 60 0
-594 593 0
-595 111 545 0
595 -111 0
595 -545 0
596 -113 -595 0
-596 113 0
-596 595 0
-597 150 596 0
597 -150 0
597 -596 0
598 -240 -597 0
-598 240 0
-598 597 0
-599 28 594 598 25 0
599 -28 0
599 -594 0
599 -598 0
599 -25 0
600 -30 -599 0
-600 30 0
-600 599 0
-601 34 576 600 31 0
601 -34 0
601 -576 0
601 -600 0
601 -31 0
602 -65 -601 0
-602 65 0
-602 601 0
-603 269 330 474 266 0
603 -269 0
603 -330 0
603 -474 0
603 -266 0
604 -416 -603 0
-604 416 0
-604 603 0
-605 269 330 477 266 0
605 -269 0
605 -330 0
605 -477 0
605 -266 0
606 -275 -605 0
-606 275 0
-606 605 0
-607 44 606 162 90 41 0
607 -44 0
607 -606 0
607 -162 0
607 -90 0
607 -41 0
608 -46 -607 0
-608 46 0
-608 607 0
-609 52 608 93 49 0
609 -52 0
609 -608 0
609 -93 0
609 -49 0
610 -60 -609 0
-610 60 0
-610 609 0
-611 28 610 25 0
611 -28 0
611 -610 0
611 -25 0
612 -109 -611 0
-612 109 0
-612 611 0
-613 111 604 612 0
613 -111 0
613 -604 0
613 -612 0
614 -113 -613 0
-614 113 0
-614 613 0
615 -119 -546 0
-615 119 0
-615 546 0
-616 5 615 1 0
616 -5 0
616 -615 0
616 -1 0
617 -7 -616 0
-617 7 0
-617 616 0
-618 15 159 617 8 11 0
618 -15 0
618 -159 0
618 -617 0
618 -8 0
618 -11 0
619 -17 -618 0
-619 17 0
-619 618 0
-620 44 332 619 55 41 0
620 -44 0
620 -332 0
620 -619 0
620 -55 0
620 -41 0
621 -46 -620 0
-621 46 0
-621 620 0
-622 52 621 49 0
622 -52 0
622 -621 0
622 -49 0
623 -60 -622 0
-623 60 0
-623 622 0
-624 28 623 25 0
624 -28 0
624 -623 0
624 -25 0
625 -30 -624 0
-625 30 0
-625 624 0
-626 34 23 625 31 0
626 -34 0
626 -23 0
626 -625 0
626 -31 0
627 -148 -626 0
-627 148 0
-627 626 0
-628 150 614 627 0
628 -150 0
628 -614 0
628 -627 0
629 -210 -628 0
-629 210 0
-629 628 0
-630 44 16 90 41 0
630 -44 0
630 -16 0
630 -90 0
630 -41 0
631 -46 -630 0
-631 46 0
-631 630 0
-632 52 631 93 49 0
632 -52 0
632 -631 0
632 -93 0
632 -49 0
633 -60 -632 0
-633 60 0
-633 632 0
-634 28 633 25 0
634 -28 0
634 -633 0
634 -25 0
635 -109 -634 0
-635 109 0
-635 634 0
-636 111 635 0
636 -111 0
636 -635 0
637 -113 -636 0
-637 113 0
-637 636 0
-638 44 494 55 41 0
638 -44 0
638 -494 0
638 -55 0
638 -41 0
639 -46 -638 0
-639 46 0
-639 638 0
-640 52 639 49 0
640 -52 0
640 -639 0
640 -49 0
641 -60 -640 0
-641 60 0
-641 640 0
-642 28 641 25 0
642 -28 0
642 -641 0
642 -25 0
643 -30 -642 0
-643 30 0
-643 642 0
-644 34 23 643 31 0
644 -34 0
644 -23 0
644 -643 0
644 -31 0
645 -148 -644 0
-645 148 0
-645 644 0
-646 150 637 645 0
646 -150 0
646 -637 0
646 -645 0
647 -152 -646 0
-647 152 0
-647 646 0
-648 154 647 0
648 -154 0
648 -647 0
649 -156 -648 0
-649 156 0
-649 648 0
650 -109 -469 0
-650 109 0
-650 469 0
-651 111 650 0
651 -111 0
651 -650 0
652 -113 -651 0
-652 113 0
-652 651 0
-653 150 652 0
653 -150 0
653 -652 0
654 -199 -653 0
-654 199 0
-654 653 0
-655 22 654 18 0
655 -22 0
655 -654 0
655 -18 0
656 -24 -655 0
-656 24 0
-656 655 0
-657 5 245 1 0
657 -5 0
657 -245 0
657 -1 0
658 -7 -657 0
-658 7 0
-658 657 0
-659 15 244 658 8 11 0
659 -15 0
659 -244 0
659 -658 0
659 -8 0
659 -11 0
660 -17 -659 0
-660 17 0
-660 659 0
-661 44 660 41 0
661 -44 0
661 -660 0
661 -41 0
662 -46 -661 0
-662 46 0
-662 661 0
-663 52 662 252 49 0
663 -52 0
663 -662 0
663 -252 0
663 -49 0
664 -60 -663 0
-664 60 0
-664 663 0
-665 28 664 518 25 0
665 -28 0
665 -664 0
665 -518 0
665 -25 0
666 -30 -665 0
-666 30 0
-666 665 0
-667 34 656 666 31 0
667 -34 0
667 -656 0
667 -666 0
667 -31 0
668 -36 -667 0
-668 36 0
-668 667 0
-669 38 668 0
669 -38 0
669 -668 0
670 -265 -669 0
-670 265 0
-670 669 0
-671 269 649 670 266 0
671 -269 0
671 -649 0
671 -670 0
671 -266 0
672 -360 -671 0
-672 360 0
-672 671 0
-673 68 672 0
673 -68 0
673 -672 0
674 -67 -673 0
-674 67 0
-674 673 0
-675 70 506 569 602 629 674 0
675 -70 0
675 -506 0
675 -569 0
675 -602 0
675 -629 0
675 -674 0
676 -677 -675 0
-676 677 0
-676 675 0
-678 679 466 676 0
678 -679 0
678 -466 0
678 -676 0
680 -681 -678 0
-680 681 0
-680 678 0
-682 683 270 680 0
682 -683 0
682 -270 0
682 -680 0
684 -685 -682 0
-684 685 0
-684 682 0
686 -271 -603 0
-686 271 0
-686 603 0
687 -681 -679 0
-687 681 0
-687 679 0
-688 683 686 687 0
688 -683 0
688 -686 0
688 -687 0
689 -690 -688 0
-689 690 0
-689 688 0
-691 683 687 0
691 -683 0
691 -687 0
692 -693 -691 0
-692 693 0
-692 691 0
-694 22 692 18 0
694 -22 0
694 -692 0
694 -18 0
695 -24 -694 0
-695 24 0
-695 694 0
-696 34 695 29 31 0
696 -34 0
696 -695 0
696 -29 0
696 -31 0
697 -36 -696 0
-697 36 0
-697 696 0
-698 38 697 0
698 -38 0
698 -697 0
699 -265 -698 0
-699 265 0
-699 698 0
-700 269 330 699 266 0
700 -269 0
700 -330 0
700 -699 0
700 -266 0
701 -275 -700 0
-701 275 0
-701 700 0
702 -271 -561 0
-702 271 0
-702 561 0
-703 683 702 687 0
703 -683 0
703 -702 0
703 -687 0
704 -705 -703 0
-704 705 0
-704 703 0
-706 15 704 159 6 8 11 0
706 -15 0
706 -704 0
706 -159 0
706 -6 0
706 -8 0
706 -11 0
707 -17 -706 0
-707 17 0
-707 706 0
708 -271 -331 0
-708 271 0
-708 331 0
-709 683 708 687 0
709 -683 0
709 -708 0
709 -687 0
710 -693 -709 0
-710 693 0
-710 709 0
-711 22 710 18 0
711 -22 0
711 -710 0
711 -18 0
712 -24 -711 0
-712 24 0
-712 711 0
-713 34 712 29 31 0
713 -34 0
713 -712 0
713 -29 0
713 -31 0
714 -36 -713 0
-714 36 0
-714 713 0
-715 38 714 0
715 -38 0
715 -714 0
716 -40 -715 0
-716 40 0
-716 715 0
-717 44 701 707 716 41 0
717 -44 0
717 -701 0
717 -707 0
717 -716 0
717 -41 0
718 -46 -717 0
-718 46 0
-718 717 0
719 -48 -713 0
-719 48 0
-719 713 0
-720 52 718 719 49 0
720 -52 0
720 -718 0
720 -719 0
720 -49 0
721 -54 -720 0
-721 54 0
-721 720 0
722 -705 -709 0
-722 705 0
-722 709 0
-723 15 722 159 6 8 11 0
723 -15 0
723 -722 0
723 -159 0
723 -6 0
723 -8 0
723 -11 0
724 -17 -723 0
-724 17 0
-724 723 0
-725 44 332 724 55 41 0
725 -44 0
725 -332 0
725 -724 0
725 -55 0
725 -41 0
726 -46 -725 0
-726 46 0
-726 725 0
-727 52 726 49 0
727 -52 0
727 -726 0
727 -49 0
728 -60 -727 0
-728 60 0
-728 727 0
-729 28 728 25 0
729 -28 0
729 -728 0
729 -25 0
730 -30 -729 0
-730 30 0
-730 729 0
-731 34 712 730 31 0
731 -34 0
731 -712 0
731 -730 0
731 -31 0
732 -65 -731 0
-732 65 0
-732 731 0
-733 44 724 41 0
733 -44 0
733 -724 0
733 -41 0
734 -46 -733 0
-734 46 0
-734 733 0
-735 52 734 49 0
735 -52 0
735 -734 0
735 -49 0
736 -60 -735 0
-736 60 0
-736 735 0
-737 28 736 25 0
737 -28 0
737 -736 0
737 -25 0
738 -30 -737 0
-738 30 0
-738 737 0
-739 34 695 738 31 0
739 -34 0
739 -695 0
739 -738 0
739 -31 0
740 -36 -739 0
-740 36 0
-740 739 0
-741 38 740 0
741 -38 0
741 -740 0
742 -265 -741 0
-742 265 0
-742 741 0
-743 269 330 742 266 0
743 -269 0
743 -330 0
743 -742 0
743 -266 0
744 -360 -743 0
-744 360 0
-744 743 0
745 -746 -688 0
-745 746 0
-745 688 0
-747 68 744 745 0
747 -68 0
747 -744 0
747 -745 0
748 -67 -747 0
-748 67 0
-748 747 0
-749 70 689 157 721 732 748 0
749 -70 0
749 -689 0
749 -157 0
749 -721 0
749 -732 0
749 -748 0
750 -72 -749 0
-750 72 0
-750 749 0
751 -677 -167 0
-751 677 0
-751 167 0
-752 679 751 0
752 -679 0
752 -751 0
753 -681 -752 0
-753 681 0
-753 752 0
-754 683 753 0
754 -683 0
754 -753 0
755 -693 -754 0
-755 693 0
-755 754 0
-756 22 755 18 0
756 -22 0
756 -755 0
756 -18 0
757 -24 -756 0
-757 24 0
-757 756 0
758 -690 -691 0
-758 690 0
-758 691 0
759 -746 -691 0
-759 746 0
-759 691 0
-760 68 759 0
760 -68 0
760 -759 0
761 -67 -760 0
-761 67 0
-761 760 0
-762 70 758 157 761 0
762 -70 0
762 -758 0
762 -157 0
762 -761 0
763 -77 -762 0
-763 77 0
-763 762 0
764 -677 -169 0
-764 677 0
-764 169 0
-765 679 764 0
765 -679 0
765 -764 0
766 -681 -765 0
-766 681 0
-766 765 0
-767 683 766 0
767 -683 0
767 -766 0
768 -705 -767 0
-768 705 0
-768 767 0
769 -79 -762 0
-769 79 0
-769 762 0
770 -81 -762 0
-770 81 0
-770 762 0
-771 3 770 0
771 -3 0
771 -770 0
772 -2 -771 0
-772 2 0
-772 771 0
-773 5 769 772 0
773 -5 0
773 -769 0
773 -772 0
774 -7 -773 0
-774 7 0
-774 773 0
-775 15 768 159 774 8 11 0
775 -15 0
775 -768 0
775 -159 0
775 -774 0
775 -8 0
775 -11 0
776 -17 -775 0
-776 17 0
-776 775 0
-777 44 763 776 41 0
777 -44 0
777 -763 0
777 -776 0
777 -41 0
778 -46 -777 0
-778 46 0
-778 777 0
-779 52 778 49 0
779 -52 0
779 -778 0
779 -49 0
780 -60 -779 0
-780 60 0
-780 779 0
-781 15 722 159 96 8 11 0
781 -15 0
781 -722 0
781 -159 0
781 -96 0
781 -8 0
781 -11 0
782 -17 -781 0
-782 17 0
-782 781 0
-783 44 782 41 0
783 -44 0
783 -782 0
783 -41 0
784 -46 -783 0
-784 46 0
-784 783 0
-785 52 784 49 0
785 -52 0
785 -784 0
785 -49 0
786 -54 -785 0
-786 54 0
-786 785 0
-787 70 758 157 786 761 0
787 -70 0
787 -758 0
787 -157 0
787 -786 0
787 -761 0
788 -81 -787 0
-788 81 0
-788 787 0
-789 3 788 0
789 -3 0
789 -788 0
790 -26 -789 0
-790 26 0
-790 789 0
-791 28 780 790 0
791 -28 0
791 -780 0
791 -790 0
792 -30 -791 0
-792 30 0
-792 791 0
-793 34 757 792 31 0
793 -34 0
793 -757 0
793 -792 0
793 -31 0
794 -36 -793 0
-794 36 0
-794 793 0
-795 38 794 0
795 -38 0
795 -794 0
796 -265 -795 0
-796 265 0
-796 795 0
-797 269 330 796 266 0
797 -269 0
797 -330 0
797 -796 0
797 -266 0
798 -416 -797 0
-798 416 0
-798 797 0
799 -271 -605 0
-799 271 0
-799 605 0
-800 683 799 687 0
800 -683 0
800 -799 0
800 -687 0
801 -690 -800 0
-801 690 0
-801 800 0
-802 34 712 31 0
802 -34 0
802 -712 0
802 -31 0
803 -65 -802 0
-803 65 0
-803 802 0
804 -36 -802 0
-804 36 0
-804 802 0
-805 38 804 0
805 -38 0
805 -804 0
806 -265 -805 0
-806 265 0
-806 805 0
-807 269 330 806 266 0
807 -269 0
807 -330 0
807 -806 0
807 -266 0
808 -360 -807 0
-808 360 0
-808 807 0
809 -746 -800 0
-809 746 0
-809 800 0
-810 68 808 809 0
810 -68 0
810 -808 0
810 -809 0
811 -67 -810 0
-811 67 0
-811 810 0
-812 70 801 157 803 811 0
812 -70 0
812 -801 0
812 -157 0
812 -803 0
812 -811 0
813 -77 -812 0
-813 77 0
-813 812 0
814 -693 -767 0
-814 693 0
-814 767 0
-815 22 814 18 0
815 -22 0
815 -814 0
815 -18 0
816 -24 -815 0
-816 24 0
-816 815 0
-817 34 816 31 0
817 -34 0
817 -816 0
817 -31 0
818 -36 -817 0
-818 36 0
-818 817 0
-819 38 818 0
819 -38 0
819 -818 0
820 -265 -819 0
-820 265 0
-820 819 0
-821 269 330 820 266 0
821 -269 0
821 -330 0
821 -820 0
821 -266 0
822 -275 -821 0
-822 275 0
-822 821 0
823 -360 -605 0
-823 360 0
-823 605 0
-824 68 823 0
824 -68 0
824 -823 0
825 -67 -824 0
-825 67 0
-825 824 0
-826 70 157 74 825 0
826 -70 0
826 -157 0
826 -74 0
826 -825 0
827 -677 -826 0
-827 677 0
-827 826 0
-828 679 827 0
828 -679 0
828 -827 0
829 -681 -828 0
-829 681 0
-829 828 0
-830 683 799 829 0
830 -683 0
830 -799 0
830 -829 0
831 -705 -830 0
-831 705 0
-831 830 0
832 -79 -812 0
-832 79 0
-832 812 0
833 -81 -812 0
-833 81 0
-833 812 0
-834 3 833 0
834 -3 0
834 -833 0
835 -2 -834 0
-835 2 0
-835 834 0
-836 5 832 835 0
836 -5 0
836 -832 0
836 -835 0
837 -7 -836 0
-837 7 0
-837 836 0
-838 15 831 159 837 8 11 0
838 -15 0
838 -831 0
838 -159 0
838 -837 0
838 -8 0
838 -11 0
839 -17 -838 0
-839 17 0
-839 838 0
840 -360 -331 0
-840 360 0
-840 331 0
-841 68 840 0
841 -68 0
841 -840 0
842 -67 -841 0
-842 67 0
-842 841 0
-843 70 157 842 0
843 -70 0
843 -157 0
843 -842 0
844 -677 -843 0
-844 677 0
-844 843 0
-845 679 844 0
845 -679 0
845 -844 0
846 -681 -845 0
-846 681 0
-846 845 0
-847 683 708 846 0
847 -683 0
847 -708 0
847 -846 0
848 -693 -847 0
-848 693 0
-848 847 0
-849 22 848 18 0
849 -22 0
849 -848 0
849 -18 0
850 -24 -849 0
-850 24 0
-850 849 0
-851 34 850 31 0
851 -34 0
851 -850 0
851 -31 0
852 -36 -851 0
-852 36 0
-852 851 0
-853 38 852 0
853 -38 0
853 -852 0
854 -40 -853 0
-854 40 0
-854 853 0
-855 44 813 822 839 854 41 0
855 -44 0
855 -813 0
855 -822 0
855 -839 0
855 -854 0
855 -41 0
856 -46 -855 0
-856 46 0
-856 855 0
857 -48 -851 0
-857 48 0
-857 851 0
-858 52 856 857 49 0
858 -52 0
858 -856 0
858 -857 0
858 -49 0
859 -60 -858 0
-859 60 0
-859 858 0
860 -275 -807 0
-860 275 0
-860 807 0
861 -705 -800 0
-861 705 0
-861 800 0
-862 15 861 159 96 8 11 0
862 -15 0
862 -861 0
862 -159 0
862 -96 0
862 -8 0
862 -11 0
863 -17 -862 0
-863 17 0
-863 862 0
864 -40 -805 0
-864 40 0
-864 805 0
-865 44 860 863 864 41 0
865 -44 0
865 -860 0
865 -863 0
865 -864 0
865 -41 0
866 -46 -865 0
-866 46 0
-866 865 0
867 -48 -802 0
-867 48 0
-867 802 0
-868 52 866 867 49 0
868 -52 0
868 -866 0
868 -867 0
868 -49 0
869 -54 -868 0
-869 54 0
-869 868 0
-870 70 801 157 869 803 811 0
870 -70 0
870 -801 0
870 -157 0
870 -869 0
870 -803 0
870 -811 0
871 -81 -870 0
-871 81 0
-871 870 0
-872 3 871 0
872 -3 0
872 -871 0
873 -26 -872 0
-873 26 0
-873 872 0
-874 28 859 873 0
874 -28 0
874 -859 0
874 -873 0
875 -109 -874 0
-875 109 0
-875 874 0
-876 111 750 798 875 0
876 -111 0
876 -750 0
876 -798 0
876 -875 0
877 -113 -876 0
-877 113 0
-877 876 0
878 -54 -335 0
-878 54 0
-878 335 0
-879 70 157 878 842 0
879 -70 0
879 -157 0
879 -878 0
879 -842 0
880 -72 -879 0
-880 72 0
-880 879 0
881 -77 -843 0
-881 77 0
-881 843 0
882 -79 -843 0
-882 79 0
-882 843 0
883 -81 -843 0
-883 81 0
-883 843 0
-884 3 883 0
884 -3 0
884 -883 0
885 -2 -884 0
-885 2 0
-885 884 0
-886 5 882 885 0
886 -5 0
886 -882 0
886 -885 0
887 -7 -886 0
-887 7 0
-887 886 0
-888 15 159 887 8 11 0
888 -15 0
888 -159 0
888 -887 0
888 -8 0
888 -11 0
889 -17 -888 0
-889 17 0
-889 888 0
-890 44 881 332 889 55 41 0
890 -44 0
890 -881 0
890 -332 0
890 -889 0
890 -55 0
890 -41 0
891 -46 -890 0
-891 46 0
-891 890 0
-892 52 891 49 0
892 -52 0
892 -891 0
892 -49 0
893 -60 -892 0
-893 60 0
-893 892 0
-894 44 332 184 55 41 0
894 -44 0
894 -332 0
894 -184 0
894 -55 0
894 -41 0
895 -46 -894 0
-895 46 0
-895 894 0
-896 52 895 49 0
896 -52 0
896 -895 0
896 -49 0
897 -54 -896 0
-897 54 0
-897 896 0
-898 70 157 897 842 0
898 -70 0
898 -157 0
898 -897 0
898 -842 0
899 -81 -898 0
-899 81 0
-899 898 0
-900 3 899 0
900 -3 0
900 -899 0
901 -26 -900 0
-901 26 0
-901 900 0
-902 28 893 901 0
902 -28 0
902 -893 0
902 -901 0
903 -109 -902 0
-903 109 0
-903 902 0
-904 111 880 545 903 0
904 -111 0
904 -880 0
904 -545 0
904 -903 0
905 -467 -904 0
-905 467 0
-905 904 0
906 -54 -622 0
-906 54 0
-906 622 0
-907 70 157 906 842 0
907 -70 0
907 -157 0
907 -906 0
907 -842 0
908 -677 -907 0
-908 677 0
-908 907 0
-909 679 905 908 0
909 -679 0
909 -905 0
909 -908 0
910 -681 -909 0
-910 681 0
-910 909 0
-911 683 708 910 0
911 -683 0
911 -708 0
911 -910 0
912 -693 -911 0
-912 693 0
-912 911 0
-913 22 912 18 0
913 -22 0
913 -912 0
913 -18 0
914 -24 -913 0
-914 24 0
-914 913 0
915 -467 -546 0
-915 467 0
-915 546 0
-916 679 915 0
916 -679 0
916 -915 0
917 -681 -916 0
-917 681 0
-917 916 0
-918 683 708 917 0
918 -683 0
918 -708 0
918 -917 0
919 -690 -918 0
-919 690 0
-919 918 0
920 -746 -918 0
-920 746 0
-920 918 0
-921 68 840 920 0
921 -68 0
921 -840 0
921 -920 0
922 -67 -921 0
-922 67 0
-922 921 0
-923 70 919 157 922 0
923 -70 0
923 -919 0
923 -157 0
923 -922 0
924 -77 -923 0
-924 77 0
-924 923 0
925 -72 -843 0
-925 72 0
-925 843 0
-926 111 925 545 0
926 -111 0
926 -925 0
926 -545 0
927 -467 -926 0
-927 467 0
-927 926 0
-928 679 927 844 0
928 -679 0
928 -927 0
928 -844 0
929 -681 -928 0
-929 681 0
-929 928 0
-930 683 708 929 0
930 -683 0
930 -708 0
930 -929 0
931 -705 -930 0
-931 705 0
-931 930 0
932 -72 -923 0
-932 72 0
-932 923 0
-933 111 932 545 0
933 -111 0
933 -932 0
933 -545 0
934 -119 -933 0
-934 119 0
-934 933 0
935 -79 -923 0
-935 79 0
-935 923 0
936 -81 -923 0
-936 81 0
-936 923 0
-937 3 936 0
937 -3 0
937 -936 0
938 -2 -937 0
-938 2 0
-938 937 0
-939 5 934 935 938 0
939 -5 0
939 -934 0
939 -935 0
939 -938 0
940 -7 -939 0
-940 7 0
-940 939 0
-941 15 931 159 940 8 11 0
941 -15 0
941 -931 0
941 -159 0
941 -940 0
941 -8 0
941 -11 0
942 -17 -941 0
-942 17 0
-942 941 0
-943 44 924 332 942 55 41 0
943 -44 0
943 -924 0
943 -332 0
943 -942 0
943 -55 0
943 -41 0
944 -46 -943 0
-944 46 0
-944 943 0
-945 52 944 49 0
945 -52 0
945 -944 0
945 -49 0
946 -60 -945 0
-946 60 0
-946 945 0
947 -467 -595 0
-947 467 0
-947 595 0
-948 679 947 0
948 -679 0
948 -947 0
949 -681 -948 0
-949 681 0
-949 948 0
-950 683 708 949 0
950 -683 0
950 -708 0
950 -949 0
951 -690 -950 0
-951 690 0
-951 950 0
952 -705 -950 0
-952 705 0
-952 950 0
953 -119 -595 0
-953 119 0
-953 595 0
-954 5 953 0
954 -5 0
954 -953 0
955 -7 -954 0
-955 7 0
-955 954 0
-956 15 952 159 955 8 11 0
956 -15 0
956 -952 0
956 -159 0
956 -955 0
956 -8 0
956 -11 0
957 -17 -956 0
-957 17 0
-957 956 0
-958 44 332 957 55 41 0
958 -44 0
958 -332 0
958 -957 0
958 -55 0
958 -41 0
959 -46 -958 0
-959 46 0
-959 958 0
-960 52 959 49 0
960 -52 0
960 -959 0
960 -49 0
961 -54 -960 0
-961 54 0
-961 960 0
962 -746 -950 0
-962 746 0
-962 950 0
-963 68 840 962 0
963 -68 0
963 -840 0
963 -962 0
964 -67 -963 0
-964 67 0
-964 963 0
-965 70 951 157 961 964 0
965 -70 0
965 -951 0
965 -157 0
965 -961 0
965 -964 0
966 -81 -965 0
-966 81 0
-966 965 0
-967 3 966 0
967 -3 0
967 -966 0
968 -26 -967 0
-968 26 0
-968 967 0
-969 28 946 968 0
969 -28 0
969 -946 0
969 -968 0
970 -30 -969 0
-970 30 0
-970 969 0
-971 34 914 970 31 0
971 -34 0
971 -914 0
971 -970 0
971 -31 0
972 -148 -971 0
-972 148 0
-972 971 0
-973 150 877 972 0
973 -150 0
973 -877 0
973 -972 0
974 -975 -973 0
-974 975 0
-974 973 0
-976 977 684 974 0
976 -977 0
976 -684 0
976 -974 0
978 -979 -976 0
-978 979 0
-978 976 0
-980 981 978 0
980 -981 0
980 -978 0
982 -983 -980 0
-982 983 0
-982 980 0
984 -985 -10 0
-984 985 0
-984 10 0
-986 987 982 984 0
986 -987 0
986 -982 0
986 -984 0
988 -986 -989 0
-988 986 0
-988 989 0
988 0
