c BC-S1.2
p cnf 1161 3706
1 -2 -3 0
-1 2 0
-1 3 0
4 -5 -6 0
-4 5 0
-4 6 0
-7 8 4 0
7 -8 0
7 -4 0
9 -10 -7 0
-9 10 0
-9 7 0
-11 12 1 9 0
11 -12 0
11 -1 0
11 -9 0
13 -14 -11 0
-13 14 0
-13 11 0
-15 16 13 0
15 -16 0
15 -13 0
17 -18 -15 0
-17 18 0
-17 15 0
-19 20 17 0
19 -20 0
19 -17 0
21 -22 -19 0
-21 22 0
-21 19 0
23 -24 -7 0
-23 24 0
-23 7 0
-25 26 23 0
25 -26 0
25 -23 0
27 -28 -25 0
-27 28 0
-27 25 0
29 -30 -6 0
-29 30 0
-29 6 0
-31 32 27 29 0
31 -32 0
31 -27 0
31 -29 0
33 -34 -31 0
-33 34 0
-33 31 0
35 -36 -37 0
-35 36 0
-35 37 0
-38 39 21 33 35 0
38 -39 0
38 -21 0
38 -33 0
38 -35 0
40 -41 -38 0
-40 41 0
-40 38 0
-42 32 29 0
42 -32 0
42 -29 0
43 -34 -42 0
-43 34 0
-43 42 0
-44 39 21 43 35 0
44 -39 0
44 -21 0
44 -43 0
44 -35 0
45 -46 -44 0
-45 46 0
-45 44 0
-47 26 45 23 0
47 -26 0
47 -45 0
47 -23 0
48 -49 -47 0
-48 49 0
-48 47 0
-50 51 40 48 0
50 -51 0
50 -40 0
50 -48 0
52 -53 -50 0
-52 53 0
-52 50 0
54 -55 -7 0
-54 55 0
-54 7 0
-56 57 52 54 0
56 -57 0
56 -52 0
56 -54 0
58 -59 -56 0
-58 59 0
-58 56 0
60 -61 -37 0
-60 61 0
-60 37 0
62 -63 -7 0
-62 63 0
-62 7 0
-64 65 62 0
64 -65 0
64 -62 0
66 -67 -64 0
-66 67 0
-66 64 0
-68 69 60 66 0
68 -69 0
68 -60 0
68 -66 0
70 -71 -68 0
-70 71 0
-70 68 0
-72 73 58 70 0
72 -73 0
72 -58 0
72 -70 0
74 -75 -72 0
-74 75 0
-74 72 0
76 -49 -25 0
-76 49 0
-76 25 0
-77 51 76 0
77 -51 0
77 -76 0
78 -53 -77 0
-78 53 0
-78 77 0
-79 57 78 54 0
79 -57 0
79 -78 0
79 -54 0
80 -81 -79 0
-80 81 0
-80 79 0
-82 12 9 0
82 -12 0
82 -9 0
83 -14 -82 0
-83 14 0
-83 82 0
-84 16 80 83 0
84 -16 0
84 -80 0
84 -83 0
85 -18 -84 0
-85 18 0
-85 84 0
-86 20 85 0
86 -20 0
86 -85 0
87 -22 -86 0
-87 22 0
-87 86 0
-88 39 87 33 35 0
88 -39 0
88 -87 0
88 -33 0
88 -35 0
89 -90 -88 0
-89 90 0
-89 88 0
-91 3 89 0
91 -3 0
91 -89 0
92 -93 -91 0
-92 93 0
-92 91 0
94 -95 -72 0
-94 95 0
-94 72 0
96 -97 -91 0
-96 97 0
-96 91 0
-98 99 94 96 0
98 -99 0
98 -94 0
98 -96 0
100 -101 -98 0
-100 101 0
-100 98 0
-102 103 74 92 100 0
102 -103 0
102 -74 0
102 -92 0
102 -100 0
104 -105 -102 0
-104 105 0
-104 102 0
106 -41 -44 0
-106 41 0
-106 44 0
-107 51 106 0
107 -51 0
107 -106 0
108 -53 -107 0
-108 53 0
-108 107 0
-109 57 108 54 0
109 -57 0
109 -108 0
109 -54 0
110 -59 -109 0
-110 59 0
-110 109 0
-111 73 110 70 0
111 -73 0
111 -110 0
111 -70 0
112 -75 -111 0
-112 75 0
-112 111 0
-113 39 87 43 35 0
113 -39 0
113 -87 0
113 -43 0
113 -35 0
114 -90 -113 0
-114 90 0
-114 113 0
-115 3 114 0
115 -3 0
115 -114 0
116 -93 -115 0
-116 93 0
-116 115 0
117 -95 -111 0
-117 95 0
-117 111 0
118 -97 -115 0
-118 97 0
-118 115 0
-119 99 117 118 0
119 -99 0
119 -117 0
119 -118 0
120 -101 -119 0
-120 101 0
-120 119 0
-121 103 112 116 120 0
121 -103 0
121 -112 0
121 -116 0
121 -120 0
122 -123 -121 0
-122 123 0
-122 121 0
124 -59 -79 0
-124 59 0
-124 79 0
-125 73 124 70 0
125 -73 0
125 -124 0
125 -70 0
126 -75 -125 0
-126 75 0
-126 125 0
127 -93 -3 0
-127 93 0
-127 3 0
128 -95 -125 0
-128 95 0
-128 125 0
129 -97 -3 0
-129 97 0
-129 3 0
-130 99 128 129 0
130 -99 0
130 -128 0
130 -129 0
131 -101 -130 0
-131 101 0
-131 130 0
-132 103 126 127 131 0
132 -103 0
132 -126 0
132 -127 0
132 -131 0
133 -134 -132 0
-133 134 0
-133 132 0
-135 73 70 0
135 -73 0
135 -70 0
136 -75 -135 0
-136 75 0
-136 135 0
137 -95 -135 0
-137 95 0
-137 135 0
-138 99 137 129 0
138 -99 0
138 -137 0
138 -129 0
139 -101 -138 0
-139 101 0
-139 138 0
-140 103 136 127 139 0
140 -103 0
140 -136 0
140 -127 0
140 -139 0
141 -142 -140 0
-141 142 0
-141 140 0
-143 51 141 0
143 -51 0
143 -141 0
144 -53 -143 0
-144 53 0
-144 143 0
145 -146 -132 0
-145 146 0
-145 132 0
147 -67 -65 0
-147 67 0
-147 65 0
-148 69 60 147 0
148 -69 0
148 -60 0
148 -147 0
149 -71 -148 0
-149 71 0
-149 148 0
-150 73 149 0
150 -73 0
150 -149 0
151 -75 -150 0
-151 75 0
-151 150 0
152 -95 -150 0
-152 95 0
-152 150 0
-153 99 152 129 0
153 -99 0
153 -152 0
153 -129 0
154 -101 -153 0
-154 101 0
-154 153 0
-155 103 151 127 154 0
155 -103 0
155 -151 0
155 -127 0
155 -154 0
156 -157 -155 0
-156 157 0
-156 155 0
-158 6 156 0
158 -6 0
158 -156 0
159 -5 -158 0
-159 5 0
-159 158 0
-160 8 145 159 0
160 -8 0
160 -145 0
160 -159 0
161 -55 -160 0
-161 55 0
-161 160 0
-162 57 144 161 0
162 -57 0
162 -144 0
162 -161 0
163 -81 -162 0
-163 81 0
-163 162 0
164 -53 -51 0
-164 53 0
-164 51 0
-165 57 164 0
165 -57 0
165 -164 0
166 -59 -165 0
-166 59 0
-166 165 0
-167 73 166 149 0
167 -73 0
167 -166 0
167 -149 0
168 -75 -167 0
-168 75 0
-168 167 0
169 -95 -167 0
-169 95 0
-169 167 0
-170 99 169 129 0
170 -99 0
170 -169 0
170 -129 0
171 -101 -170 0
-171 101 0
-171 170 0
-172 103 168 127 171 0
172 -103 0
172 -168 0
172 -127 0
172 -171 0
173 -157 -172 0
-173 157 0
-173 172 0
-174 6 173 0
174 -6 0
174 -173 0
175 -5 -174 0
-175 5 0
-175 174 0
-176 8 145 175 0
176 -8 0
176 -145 0
176 -175 0
177 -10 -176 0
-177 10 0
-177 176 0
-178 12 1 177 0
178 -12 0
178 -1 0
178 -177 0
179 -14 -178 0
-179 14 0
-179 178 0
-180 16 163 179 0
180 -16 0
180 -163 0
180 -179 0
181 -18 -180 0
-181 18 0
-181 180 0
-182 20 133 181 0
182 -20 0
182 -133 0
182 -181 0
183 -22 -182 0
-183 22 0
-183 182 0
184 -55 -8 0
-184 55 0
-184 8 0
-185 57 164 184 0
185 -57 0
185 -164 0
185 -184 0
186 -59 -185 0
-186 59 0
-186 185 0
187 -63 -8 0
-187 63 0
-187 8 0
-188 65 187 0
188 -65 0
188 -187 0
189 -67 -188 0
-189 67 0
-189 188 0
-190 69 60 189 0
190 -69 0
190 -60 0
190 -189 0
191 -71 -190 0
-191 71 0
-191 190 0
-192 73 186 191 0
192 -73 0
192 -186 0
192 -191 0
193 -75 -192 0
-193 75 0
-193 192 0
194 -95 -192 0
-194 95 0
-194 192 0
-195 99 194 129 0
195 -99 0
195 -194 0
195 -129 0
196 -101 -195 0
-196 101 0
-196 195 0
-197 103 193 127 196 0
197 -103 0
197 -193 0
197 -127 0
197 -196 0
198 -157 -197 0
-198 157 0
-198 197 0
-199 6 198 0
199 -6 0
199 -198 0
200 -30 -199 0
-200 30 0
-200 199 0
-201 32 200 0
201 -32 0
201 -200 0
202 -34 -201 0
-202 34 0
-202 201 0
-203 39 183 202 35 0
203 -39 0
203 -183 0
203 -202 0
203 -35 0
204 -46 -203 0
-204 46 0
-204 203 0
-205 12 1 0
205 -12 0
205 -1 0
206 -14 -205 0
-206 14 0
-206 205 0
-207 16 206 0
207 -16 0
207 -206 0
208 -18 -207 0
-208 18 0
-208 207 0
-209 20 208 0
209 -20 0
209 -208 0
210 -22 -209 0
-210 22 0
-210 209 0
-211 39 210 43 35 0
211 -39 0
211 -210 0
211 -43 0
211 -35 0
212 -41 -211 0
-212 41 0
-212 211 0
-213 51 212 0
213 -51 0
213 -212 0
214 -53 -213 0
-214 53 0
-214 213 0
-215 57 214 54 0
215 -57 0
215 -214 0
215 -54 0
216 -59 -215 0
-216 59 0
-216 215 0
-217 73 216 70 0
217 -73 0
217 -216 0
217 -70 0
218 -75 -217 0
-218 75 0
-218 217 0
219 -81 -165 0
-219 81 0
-219 165 0
220 -14 -12 0
-220 14 0
-220 12 0
-221 16 219 220 0
221 -16 0
221 -219 0
221 -220 0
222 -18 -221 0
-222 18 0
-222 221 0
-223 20 222 0
223 -20 0
223 -222 0
224 -22 -223 0
-224 22 0
-224 223 0
-225 39 224 43 35 0
225 -39 0
225 -224 0
225 -43 0
225 -35 0
226 -90 -225 0
-226 90 0
-226 225 0
-227 3 226 0
227 -3 0
227 -226 0
228 -93 -227 0
-228 93 0
-228 227 0
229 -95 -217 0
-229 95 0
-229 217 0
230 -97 -227 0
-230 97 0
-230 227 0
-231 99 229 230 0
231 -99 0
231 -229 0
231 -230 0
232 -101 -231 0
-232 101 0
-232 231 0
-233 103 218 228 232 0
233 -103 0
233 -218 0
233 -228 0
233 -232 0
234 -146 -233 0
-234 146 0
-234 233 0
-235 57 214 0
235 -57 0
235 -214 0
236 -59 -235 0
-236 59 0
-236 235 0
-237 73 236 149 0
237 -73 0
237 -236 0
237 -149 0
238 -75 -237 0
-238 75 0
-238 237 0
239 -95 -237 0
-239 95 0
-239 237 0
-240 99 239 230 0
240 -99 0
240 -239 0
240 -230 0
241 -101 -240 0
-241 101 0
-241 240 0
-242 103 238 228 241 0
242 -103 0
242 -238 0
242 -228 0
242 -241 0
243 -157 -242 0
-243 157 0
-243 242 0
-244 6 243 0
244 -6 0
244 -243 0
245 -5 -244 0
-245 5 0
-245 244 0
-246 8 234 245 0
246 -8 0
246 -234 0
246 -245 0
247 -24 -246 0
-247 24 0
-247 246 0
-248 26 122 204 247 0
248 -26 0
248 -122 0
248 -204 0
248 -247 0
249 -250 -248 0
-249 250 0
-249 248 0
-251 252 104 249 0
251 -252 0
251 -104 0
251 -249 0
253 -254 -251 0
-253 254 0
-253 251 0
-255 16 83 0
255 -16 0
255 -83 0
256 -18 -255 0
-256 18 0
-256 255 0
-257 20 256 0
257 -20 0
257 -256 0
258 -22 -257 0
-258 22 0
-258 257 0
-259 39 258 43 35 0
259 -39 0
259 -258 0
259 -43 0
259 -35 0
260 -46 -259 0
-260 46 0
-260 259 0
-261 26 260 23 0
261 -26 0
261 -260 0
261 -23 0
262 -250 -261 0
-262 250 0
-262 261 0
-263 252 262 0
263 -252 0
263 -262 0
264 -265 -263 0
-264 265 0
-264 263 0
266 -250 -25 0
-266 250 0
-266 25 0
-267 252 266 0
267 -252 0
267 -266 0
268 -269 -267 0
-268 269 0
-268 267 0
-270 16 268 83 0
270 -16 0
270 -268 0
270 -83 0
271 -18 -270 0
-271 18 0
-271 270 0
-272 20 271 0
272 -20 0
272 -271 0
273 -22 -272 0
-273 22 0
-273 272 0
274 -275 -267 0
-274 275 0
-274 267 0
-276 32 274 27 29 0
276 -32 0
276 -274 0
276 -27 0
276 -29 0
277 -34 -276 0
-277 34 0
-277 276 0
278 -279 -267 0
-278 279 0
-278 267 0
-280 37 278 0
280 -37 0
280 -278 0
281 -36 -280 0
-281 36 0
-281 280 0
-282 39 273 277 281 0
282 -39 0
282 -273 0
282 -277 0
282 -281 0
283 -90 -282 0
-283 90 0
-283 282 0
-284 3 264 283 0
284 -3 0
284 -264 0
284 -283 0
285 -93 -284 0
-285 93 0
-285 284 0
286 -250 -47 0
-286 250 0
-286 47 0
-287 252 286 0
287 -252 0
287 -286 0
288 -289 -287 0
-288 289 0
-288 287 0
290 -97 -284 0
-290 97 0
-290 284 0
-291 99 288 290 0
291 -99 0
291 -288 0
291 -290 0
292 -101 -291 0
-292 101 0
-292 291 0
-293 103 285 292 0
293 -103 0
293 -285 0
293 -292 0
294 -142 -293 0
-294 142 0
-294 293 0
295 -265 -267 0
-295 265 0
-295 267 0
-296 3 295 0
296 -3 0
296 -295 0
297 -93 -296 0
-297 93 0
-297 296 0
298 -289 -267 0
-298 289 0
-298 267 0
299 -97 -296 0
-299 97 0
-299 296 0
-300 99 298 299 0
300 -99 0
300 -298 0
300 -299 0
301 -101 -300 0
-301 101 0
-301 300 0
-302 103 297 301 0
302 -103 0
302 -297 0
302 -301 0
303 -134 -302 0
-303 134 0
-303 302 0
304 -105 -302 0
-304 105 0
-304 302 0
-305 103 127 139 0
305 -103 0
305 -127 0
305 -139 0
306 -123 -305 0
-306 123 0
-306 305 0
307 -146 -305 0
-307 146 0
-307 305 0
-308 103 127 154 0
308 -103 0
308 -127 0
308 -154 0
309 -157 -308 0
-309 157 0
-309 308 0
-310 6 309 0
310 -6 0
310 -309 0
311 -5 -310 0
-311 5 0
-311 310 0
-312 8 307 311 0
312 -8 0
312 -307 0
312 -311 0
313 -24 -312 0
-313 24 0
-313 312 0
-314 26 306 313 0
314 -26 0
314 -306 0
314 -313 0
315 -250 -314 0
-315 250 0
-315 314 0
-316 252 304 315 0
316 -252 0
316 -304 0
316 -315 0
317 -269 -316 0
-317 269 0
-317 316 0
318 -105 -305 0
-318 105 0
-318 305 0
-319 252 318 315 0
319 -252 0
319 -318 0
319 -315 0
320 -265 -319 0
-320 265 0
-320 319 0
-321 3 320 0
321 -3 0
321 -320 0
322 -2 -321 0
-322 2 0
-322 321 0
323 -146 -302 0
-323 146 0
-323 302 0
324 -250 -26 0
-324 250 0
-324 26 0
-325 252 324 0
325 -252 0
325 -324 0
326 -265 -325 0
-326 265 0
-326 325 0
-327 3 326 0
327 -3 0
327 -326 0
328 -93 -327 0
-328 93 0
-328 327 0
329 -289 -325 0
-329 289 0
-329 325 0
330 -97 -327 0
-330 97 0
-330 327 0
-331 99 329 330 0
331 -99 0
331 -329 0
331 -330 0
332 -101 -331 0
-332 101 0
-332 331 0
-333 103 328 332 0
333 -103 0
333 -328 0
333 -332 0
334 -157 -333 0
-334 157 0
-334 333 0
-335 6 334 0
335 -6 0
335 -334 0
336 -5 -335 0
-336 5 0
-336 335 0
-337 8 323 336 0
337 -8 0
337 -323 0
337 -336 0
338 -10 -337 0
-338 10 0
-338 337 0
-339 12 322 338 0
339 -12 0
339 -322 0
339 -338 0
340 -14 -339 0
-340 14 0
-340 339 0
-341 16 317 340 0
341 -16 0
341 -317 0
341 -340 0
342 -18 -341 0
-342 18 0
-342 341 0
-343 20 303 342 0
343 -20 0
343 -303 0
343 -342 0
344 -22 -343 0
-344 22 0
-344 343 0
345 -275 -316 0
-345 275 0
-345 316 0
346 -123 -302 0
-346 123 0
-346 302 0
347 -265 -252 0
-347 265 0
-347 252 0
-348 3 347 0
348 -3 0
348 -347 0
349 -93 -348 0
-349 93 0
-349 348 0
350 -289 -252 0
-350 289 0
-350 252 0
351 -97 -348 0
-351 97 0
-351 348 0
-352 99 350 351 0
352 -99 0
352 -350 0
352 -351 0
353 -101 -352 0
-353 101 0
-353 352 0
-354 103 349 353 0
354 -103 0
354 -349 0
354 -353 0
355 -146 -354 0
-355 146 0
-355 354 0
356 -157 -354 0
-356 157 0
-356 354 0
-357 6 356 0
357 -6 0
357 -356 0
358 -5 -357 0
-358 5 0
-358 357 0
-359 8 355 358 0
359 -8 0
359 -355 0
359 -358 0
360 -24 -359 0
-360 24 0
-360 359 0
-361 26 346 360 0
361 -26 0
361 -346 0
361 -360 0
362 -28 -361 0
-362 28 0
-362 361 0
363 -24 -8 0
-363 24 0
-363 8 0
-364 26 363 0
364 -26 0
364 -363 0
365 -250 -364 0
-365 250 0
-365 364 0
-366 252 365 0
366 -252 0
366 -365 0
367 -265 -366 0
-367 265 0
-367 366 0
-368 3 367 0
368 -3 0
368 -367 0
369 -93 -368 0
-369 93 0
-369 368 0
370 -289 -366 0
-370 289 0
-370 366 0
371 -97 -368 0
-371 97 0
-371 368 0
-372 99 370 371 0
372 -99 0
372 -370 0
372 -371 0
373 -101 -372 0
-373 101 0
-373 372 0
-374 103 369 373 0
374 -103 0
374 -369 0
374 -373 0
375 -157 -374 0
-375 157 0
-375 374 0
-376 6 375 0
376 -6 0
376 -375 0
377 -30 -376 0
-377 30 0
-377 376 0
-378 32 345 362 377 0
378 -32 0
378 -345 0
378 -362 0
378 -377 0
379 -34 -378 0
-379 34 0
-379 378 0
380 -279 -316 0
-380 279 0
-380 316 0
-381 37 380 0
381 -37 0
381 -380 0
382 -36 -381 0
-382 36 0
-382 381 0
-383 39 344 379 382 0
383 -39 0
383 -344 0
383 -379 0
383 -382 0
384 -41 -383 0
-384 41 0
-384 383 0
-385 39 258 33 35 0
385 -39 0
385 -258 0
385 -33 0
385 -35 0
386 -90 -385 0
-386 90 0
-386 385 0
-387 3 386 0
387 -3 0
387 -386 0
388 -93 -387 0
-388 93 0
-388 387 0
389 -97 -387 0
-389 97 0
-389 387 0
-390 99 137 389 0
390 -99 0
390 -137 0
390 -389 0
391 -101 -390 0
-391 101 0
-391 390 0
-392 103 388 391 0
392 -103 0
392 -388 0
392 -391 0
393 -105 -392 0
-393 105 0
-393 392 0
394 -90 -259 0
-394 90 0
-394 259 0
-395 3 394 0
395 -3 0
395 -394 0
396 -93 -395 0
-396 93 0
-396 395 0
397 -97 -395 0
-397 97 0
-397 395 0
-398 99 137 397 0
398 -99 0
398 -137 0
398 -397 0
399 -101 -398 0
-399 101 0
-399 398 0
-400 103 396 399 0
400 -103 0
400 -396 0
400 -399 0
401 -123 -400 0
-401 123 0
-401 400 0
402 -134 -305 0
-402 134 0
-402 305 0
403 -10 -312 0
-403 10 0
-403 312 0
-404 12 1 403 0
404 -12 0
404 -1 0
404 -403 0
405 -14 -404 0
-405 14 0
-405 404 0
-406 16 405 0
406 -16 0
406 -405 0
407 -18 -406 0
-407 18 0
-407 406 0
-408 20 402 407 0
408 -20 0
408 -402 0
408 -407 0
409 -22 -408 0
-409 22 0
-409 408 0
-410 99 129 0
410 -99 0
410 -129 0
411 -101 -410 0
-411 101 0
-411 410 0
-412 103 127 411 0
412 -103 0
412 -127 0
412 -411 0
413 -157 -412 0
-413 157 0
-413 412 0
-414 6 413 0
414 -6 0
414 -413 0
415 -30 -414 0
-415 30 0
-415 414 0
-416 32 415 0
416 -32 0
416 -415 0
417 -34 -416 0
-417 34 0
-417 416 0
-418 39 409 417 35 0
418 -39 0
418 -409 0
418 -417 0
418 -35 0
419 -46 -418 0
-419 46 0
-419 418 0
-420 16 220 0
420 -16 0
420 -220 0
421 -18 -420 0
-421 18 0
-421 420 0
-422 20 421 0
422 -20 0
422 -421 0
423 -22 -422 0
-423 22 0
-423 422 0
-424 39 423 43 35 0
424 -39 0
424 -423 0
424 -43 0
424 -35 0
425 -90 -424 0
-425 90 0
-425 424 0
-426 3 425 0
426 -3 0
426 -425 0
427 -93 -426 0
-427 93 0
-427 426 0
428 -97 -426 0
-428 97 0
-428 426 0
-429 99 137 428 0
429 -99 0
429 -137 0
429 -428 0
430 -101 -429 0
-430 101 0
-430 429 0
-431 103 427 430 0
431 -103 0
431 -427 0
431 -430 0
432 -146 -431 0
-432 146 0
-432 431 0
-433 99 152 428 0
433 -99 0
433 -152 0
433 -428 0
434 -101 -433 0
-434 101 0
-434 433 0
-435 103 427 434 0
435 -103 0
435 -427 0
435 -434 0
436 -157 -435 0
-436 157 0
-436 435 0
-437 6 436 0
437 -6 0
437 -436 0
438 -5 -437 0
-438 5 0
-438 437 0
-439 8 432 438 0
439 -8 0
439 -432 0
439 -438 0
440 -24 -439 0
-440 24 0
-440 439 0
-441 26 401 419 440 0
441 -26 0
441 -401 0
441 -419 0
441 -440 0
442 -250 -441 0
-442 250 0
-442 441 0
-443 252 393 442 0
443 -252 0
443 -393 0
443 -442 0
444 -445 -443 0
-444 445 0
-444 443 0
-446 32 274 29 0
446 -32 0
446 -274 0
446 -29 0
447 -34 -446 0
-447 34 0
-447 446 0
-448 39 273 447 281 0
448 -39 0
448 -273 0
448 -447 0
448 -281 0
449 -90 -448 0
-449 90 0
-449 448 0
-450 3 347 449 0
450 -3 0
450 -347 0
450 -449 0
451 -93 -450 0
-451 93 0
-451 450 0
452 -97 -450 0
-452 97 0
-452 450 0
-453 99 350 452 0
453 -99 0
453 -350 0
453 -452 0
454 -101 -453 0
-454 101 0
-454 453 0
-455 103 451 454 0
455 -103 0
455 -451 0
455 -454 0
456 -123 -455 0
-456 123 0
-456 455 0
-457 252 304 0
457 -252 0
457 -304 0
458 -269 -457 0
-458 269 0
-458 457 0
-459 252 318 0
459 -252 0
459 -318 0
460 -265 -459 0
-460 265 0
-460 459 0
-461 3 460 0
461 -3 0
461 -460 0
462 -2 -461 0
-462 2 0
-462 461 0
-463 8 323 358 0
463 -8 0
463 -323 0
463 -358 0
464 -10 -463 0
-464 10 0
-464 463 0
-465 12 462 464 0
465 -12 0
465 -462 0
465 -464 0
466 -14 -465 0
-466 14 0
-466 465 0
-467 16 458 466 0
467 -16 0
467 -458 0
467 -466 0
468 -18 -467 0
-468 18 0
-468 467 0
-469 20 303 468 0
469 -20 0
469 -303 0
469 -468 0
470 -22 -469 0
-470 22 0
-470 469 0
471 -275 -457 0
-471 275 0
-471 457 0
472 -30 -357 0
-472 30 0
-472 357 0
-473 32 471 472 0
473 -32 0
473 -471 0
473 -472 0
474 -34 -473 0
-474 34 0
-474 473 0
475 -279 -457 0
-475 279 0
-475 457 0
-476 37 475 0
476 -37 0
476 -475 0
477 -36 -476 0
-477 36 0
-477 476 0
-478 39 470 474 477 0
478 -39 0
478 -470 0
478 -474 0
478 -477 0
479 -46 -478 0
-479 46 0
-479 478 0
480 -269 -252 0
-480 269 0
-480 252 0
-481 16 480 220 0
481 -16 0
481 -480 0
481 -220 0
482 -18 -481 0
-482 18 0
-482 481 0
-483 20 482 0
483 -20 0
483 -482 0
484 -22 -483 0
-484 22 0
-484 483 0
485 -275 -252 0
-485 275 0
-485 252 0
-486 32 485 29 0
486 -32 0
486 -485 0
486 -29 0
487 -34 -486 0
-487 34 0
-487 486 0
488 -279 -252 0
-488 279 0
-488 252 0
-489 37 488 0
489 -37 0
489 -488 0
490 -36 -489 0
-490 36 0
-490 489 0
-491 39 484 487 490 0
491 -39 0
491 -484 0
491 -487 0
491 -490 0
492 -90 -491 0
-492 90 0
-492 491 0
-493 3 347 492 0
493 -3 0
493 -347 0
493 -492 0
494 -93 -493 0
-494 93 0
-494 493 0
495 -97 -493 0
-495 97 0
-495 493 0
-496 99 350 495 0
496 -99 0
496 -350 0
496 -495 0
497 -101 -496 0
-497 101 0
-497 496 0
-498 103 494 497 0
498 -103 0
498 -494 0
498 -497 0
499 -146 -498 0
-499 146 0
-499 498 0
500 -157 -498 0
-500 157 0
-500 498 0
-501 6 500 0
501 -6 0
501 -500 0
502 -5 -501 0
-502 5 0
-502 501 0
-503 8 499 502 0
503 -8 0
503 -499 0
503 -502 0
504 -24 -503 0
-504 24 0
-504 503 0
-505 26 456 479 504 0
505 -26 0
505 -456 0
505 -479 0
505 -504 0
506 -49 -505 0
-506 49 0
-506 505 0
-507 51 294 384 444 506 0
507 -51 0
507 -294 0
507 -384 0
507 -444 0
507 -506 0
508 -53 -507 0
-508 53 0
-508 507 0
509 -46 -225 0
-509 46 0
-509 225 0
-510 26 509 23 0
510 -26 0
510 -509 0
510 -23 0
511 -250 -510 0
-511 250 0
-511 510 0
-512 252 511 0
512 -252 0
512 -511 0
513 -265 -512 0
-513 265 0
-513 512 0
-514 16 268 220 0
514 -16 0
514 -268 0
514 -220 0
515 -18 -514 0
-515 18 0
-515 514 0
-516 20 515 0
516 -20 0
516 -515 0
517 -22 -516 0
-517 22 0
-517 516 0
-518 39 517 277 281 0
518 -39 0
518 -517 0
518 -277 0
518 -281 0
519 -90 -518 0
-519 90 0
-519 518 0
-520 3 513 519 0
520 -3 0
520 -513 0
520 -519 0
521 -93 -520 0
-521 93 0
-521 520 0
522 -46 -211 0
-522 46 0
-522 211 0
-523 26 522 23 0
523 -26 0
523 -522 0
523 -23 0
524 -250 -523 0
-524 250 0
-524 523 0
-525 252 524 0
525 -252 0
525 -524 0
526 -289 -525 0
-526 289 0
-526 525 0
527 -97 -520 0
-527 97 0
-527 520 0
-528 99 526 527 0
528 -99 0
528 -526 0
528 -527 0
529 -101 -528 0
-529 101 0
-529 528 0
-530 103 521 529 0
530 -103 0
530 -521 0
530 -529 0
531 -146 -530 0
-531 146 0
-531 530 0
-532 26 509 0
532 -26 0
532 -509 0
533 -250 -532 0
-533 250 0
-533 532 0
-534 252 533 0
534 -252 0
534 -533 0
535 -265 -534 0
-535 265 0
-535 534 0
536 -269 -325 0
-536 269 0
-536 325 0
-537 16 536 220 0
537 -16 0
537 -536 0
537 -220 0
538 -18 -537 0
-538 18 0
-538 537 0
-539 20 538 0
539 -20 0
539 -538 0
540 -22 -539 0
-540 22 0
-540 539 0
541 -275 -325 0
-541 275 0
-541 325 0
542 -28 -26 0
-542 28 0
-542 26 0
-543 32 541 542 29 0
543 -32 0
543 -541 0
543 -542 0
543 -29 0
544 -34 -543 0
-544 34 0
-544 543 0
545 -279 -325 0
-545 279 0
-545 325 0
-546 37 545 0
546 -37 0
546 -545 0
547 -36 -546 0
-547 36 0
-547 546 0
-548 39 540 544 547 0
548 -39 0
548 -540 0
548 -544 0
548 -547 0
549 -90 -548 0
-549 90 0
-549 548 0
-550 3 535 549 0
550 -3 0
550 -535 0
550 -549 0
551 -93 -550 0
-551 93 0
-551 550 0
-552 26 522 0
552 -26 0
552 -522 0
553 -250 -552 0
-553 250 0
-553 552 0
-554 252 553 0
554 -252 0
554 -553 0
555 -289 -554 0
-555 289 0
-555 554 0
556 -97 -550 0
-556 97 0
-556 550 0
-557 99 555 556 0
557 -99 0
557 -555 0
557 -556 0
558 -101 -557 0
-558 101 0
-558 557 0
-559 103 551 558 0
559 -103 0
559 -551 0
559 -558 0
560 -157 -559 0
-560 157 0
-560 559 0
-561 6 560 0
561 -6 0
561 -560 0
562 -5 -561 0
-562 5 0
-562 561 0
-563 8 531 562 0
563 -8 0
563 -531 0
563 -562 0
564 -55 -563 0
-564 55 0
-564 563 0
-565 57 508 564 0
565 -57 0
565 -508 0
565 -564 0
566 -59 -565 0
-566 59 0
-566 565 0
-567 99 96 0
567 -99 0
567 -96 0
568 -101 -567 0
-568 101 0
-568 567 0
-569 103 92 568 0
569 -103 0
569 -92 0
569 -568 0
570 -105 -569 0
-570 105 0
-570 569 0
-571 99 118 0
571 -99 0
571 -118 0
572 -101 -571 0
-572 101 0
-572 571 0
-573 103 116 572 0
573 -103 0
573 -116 0
573 -572 0
574 -123 -573 0
-574 123 0
-574 573 0
575 -134 -412 0
-575 134 0
-575 412 0
576 -142 -412 0
-576 142 0
-576 412 0
-577 51 576 0
577 -51 0
577 -576 0
578 -53 -577 0
-578 53 0
-578 577 0
579 -146 -412 0
-579 146 0
-579 412 0
580 -5 -414 0
-580 5 0
-580 414 0
-581 8 579 580 0
581 -8 0
581 -579 0
581 -580 0
582 -55 -581 0
-582 55 0
-582 581 0
-583 57 578 582 0
583 -57 0
583 -578 0
583 -582 0
584 -81 -583 0
-584 81 0
-584 583 0
585 -10 -581 0
-585 10 0
-585 581 0
-586 12 1 585 0
586 -12 0
586 -1 0
586 -585 0
587 -14 -586 0
-587 14 0
-587 586 0
-588 16 584 587 0
588 -16 0
588 -584 0
588 -587 0
589 -18 -588 0
-589 18 0
-589 588 0
-590 20 575 589 0
590 -20 0
590 -575 0
590 -589 0
591 -22 -590 0
-591 22 0
-591 590 0
-592 39 591 417 35 0
592 -39 0
592 -591 0
592 -417 0
592 -35 0
593 -46 -592 0
-593 46 0
-593 592 0
-594 99 230 0
594 -99 0
594 -230 0
595 -101 -594 0
-595 101 0
-595 594 0
-596 103 228 595 0
596 -103 0
596 -228 0
596 -595 0
597 -146 -596 0
-597 146 0
-597 596 0
598 -157 -596 0
-598 157 0
-598 596 0
-599 6 598 0
599 -6 0
599 -598 0
600 -5 -599 0
-600 5 0
-600 599 0
-601 8 597 600 0
601 -8 0
601 -597 0
601 -600 0
602 -24 -601 0
-602 24 0
-602 601 0
-603 26 574 593 602 0
603 -26 0
603 -574 0
603 -593 0
603 -602 0
604 -250 -603 0
-604 250 0
-604 603 0
-605 252 570 604 0
605 -252 0
605 -570 0
605 -604 0
606 -607 -605 0
-606 607 0
-606 605 0
608 -46 -113 0
-608 46 0
-608 113 0
-609 26 608 23 0
609 -26 0
609 -608 0
609 -23 0
610 -250 -609 0
-610 250 0
-610 609 0
-611 252 610 0
611 -252 0
611 -610 0
612 -265 -611 0
-612 265 0
-612 611 0
613 -445 -267 0
-613 445 0
-613 267 0
-614 51 613 76 0
614 -51 0
614 -613 0
614 -76 0
615 -53 -614 0
-615 53 0
-615 614 0
-616 57 615 54 0
616 -57 0
616 -615 0
616 -54 0
617 -81 -616 0
-617 81 0
-617 616 0
-618 16 268 617 83 0
618 -16 0
618 -268 0
618 -617 0
618 -83 0
619 -18 -618 0
-619 18 0
-619 618 0
-620 20 619 0
620 -20 0
620 -619 0
621 -22 -620 0
-621 22 0
-621 620 0
-622 39 621 277 281 0
622 -39 0
622 -621 0
622 -277 0
622 -281 0
623 -90 -622 0
-623 90 0
-623 622 0
-624 3 612 623 0
624 -3 0
624 -612 0
624 -623 0
625 -93 -624 0
-625 93 0
-625 624 0
-626 16 80 13 0
626 -16 0
626 -80 0
626 -13 0
627 -18 -626 0
-627 18 0
-627 626 0
-628 20 627 0
628 -20 0
628 -627 0
629 -22 -628 0
-629 22 0
-629 628 0
-630 39 629 43 35 0
630 -39 0
630 -629 0
630 -43 0
630 -35 0
631 -46 -630 0
-631 46 0
-631 630 0
-632 26 631 23 0
632 -26 0
632 -631 0
632 -23 0
633 -250 -632 0
-633 250 0
-633 632 0
-634 252 633 0
634 -252 0
634 -633 0
635 -289 -634 0
-635 289 0
-635 634 0
636 -97 -624 0
-636 97 0
-636 624 0
-637 99 635 636 0
637 -99 0
637 -635 0
637 -636 0
638 -101 -637 0
-638 101 0
-638 637 0
-639 103 625 638 0
639 -103 0
639 -625 0
639 -638 0
640 -641 -639 0
-640 641 0
-640 639 0
-642 39 87 33 0
642 -39 0
642 -87 0
642 -33 0
643 -90 -642 0
-643 90 0
-643 642 0
-644 3 643 0
644 -3 0
644 -643 0
645 -93 -644 0
-645 93 0
-645 644 0
646 -97 -644 0
-646 97 0
-646 644 0
-647 99 646 0
647 -99 0
647 -646 0
648 -101 -647 0
-648 101 0
-648 647 0
-649 103 645 648 0
649 -103 0
649 -645 0
649 -648 0
650 -105 -649 0
-650 105 0
-650 649 0
-651 39 87 43 0
651 -39 0
651 -87 0
651 -43 0
652 -90 -651 0
-652 90 0
-652 651 0
-653 3 652 0
653 -3 0
653 -652 0
654 -93 -653 0
-654 93 0
-654 653 0
655 -97 -653 0
-655 97 0
-655 653 0
-656 99 655 0
656 -99 0
656 -655 0
657 -101 -656 0
-657 101 0
-657 656 0
-658 103 654 657 0
658 -103 0
658 -654 0
658 -657 0
659 -123 -658 0
-659 123 0
-659 658 0
-660 39 591 417 0
660 -39 0
660 -591 0
660 -417 0
661 -46 -660 0
-661 46 0
-661 660 0
-662 39 224 43 0
662 -39 0
662 -224 0
662 -43 0
663 -90 -662 0
-663 90 0
-663 662 0
-664 3 663 0
664 -3 0
664 -663 0
665 -93 -664 0
-665 93 0
-665 664 0
666 -97 -664 0
-666 97 0
-666 664 0
-667 99 666 0
667 -99 0
667 -666 0
668 -101 -667 0
-668 101 0
-668 667 0
-669 103 665 668 0
669 -103 0
669 -665 0
669 -668 0
670 -146 -669 0
-670 146 0
-670 669 0
671 -157 -669 0
-671 157 0
-671 669 0
-672 6 671 0
672 -6 0
672 -671 0
673 -5 -672 0
-673 5 0
-673 672 0
-674 8 670 673 0
674 -8 0
674 -670 0
674 -673 0
675 -24 -674 0
-675 24 0
-675 674 0
-676 26 659 661 675 0
676 -26 0
676 -659 0
676 -661 0
676 -675 0
677 -250 -676 0
-677 250 0
-677 676 0
-678 252 650 677 0
678 -252 0
678 -650 0
678 -677 0
679 -279 -678 0
-679 279 0
-679 678 0
-680 37 679 0
680 -37 0
680 -679 0
681 -61 -680 0
-681 61 0
-681 680 0
682 -683 -639 0
-682 683 0
-682 639 0
-684 16 268 617 220 0
684 -16 0
684 -268 0
684 -617 0
684 -220 0
685 -18 -684 0
-685 18 0
-685 684 0
-686 20 685 0
686 -20 0
686 -685 0
687 -22 -686 0
-687 22 0
-687 686 0
-688 39 687 277 281 0
688 -39 0
688 -687 0
688 -277 0
688 -281 0
689 -90 -688 0
-689 90 0
-689 688 0
-690 3 513 689 0
690 -3 0
690 -513 0
690 -689 0
691 -93 -690 0
-691 93 0
-691 690 0
-692 16 80 206 0
692 -16 0
692 -80 0
692 -206 0
693 -18 -692 0
-693 18 0
-693 692 0
-694 20 693 0
694 -20 0
694 -693 0
695 -22 -694 0
-695 22 0
-695 694 0
-696 39 695 43 35 0
696 -39 0
696 -695 0
696 -43 0
696 -35 0
697 -46 -696 0
-697 46 0
-697 696 0
-698 26 697 23 0
698 -26 0
698 -697 0
698 -23 0
699 -250 -698 0
-699 250 0
-699 698 0
-700 252 699 0
700 -252 0
700 -699 0
701 -289 -700 0
-701 289 0
-701 700 0
702 -97 -690 0
-702 97 0
-702 690 0
-703 99 701 702 0
703 -99 0
703 -701 0
703 -702 0
704 -101 -703 0
-704 101 0
-704 703 0
-705 103 691 704 0
705 -103 0
705 -691 0
705 -704 0
706 -146 -705 0
-706 146 0
-706 705 0
707 -445 -325 0
-707 445 0
-707 325 0
708 -49 -26 0
-708 49 0
-708 26 0
-709 51 707 708 0
709 -51 0
709 -707 0
709 -708 0
710 -53 -709 0
-710 53 0
-710 709 0
-711 57 710 0
711 -57 0
711 -710 0
712 -81 -711 0
-712 81 0
-712 711 0
-713 16 536 712 220 0
713 -16 0
713 -536 0
713 -712 0
713 -220 0
714 -18 -713 0
-714 18 0
-714 713 0
-715 20 714 0
715 -20 0
715 -714 0
716 -22 -715 0
-716 22 0
-716 715 0
-717 39 716 544 547 0
717 -39 0
717 -716 0
717 -544 0
717 -547 0
718 -90 -717 0
-718 90 0
-718 717 0
-719 3 535 718 0
719 -3 0
719 -535 0
719 -718 0
720 -93 -719 0
-720 93 0
-720 719 0
-721 16 219 206 0
721 -16 0
721 -219 0
721 -206 0
722 -18 -721 0
-722 18 0
-722 721 0
-723 20 722 0
723 -20 0
723 -722 0
724 -22 -723 0
-724 22 0
-724 723 0
-725 39 724 43 35 0
725 -39 0
725 -724 0
725 -43 0
725 -35 0
726 -46 -725 0
-726 46 0
-726 725 0
-727 26 726 0
727 -26 0
727 -726 0
728 -250 -727 0
-728 250 0
-728 727 0
-729 252 728 0
729 -252 0
729 -728 0
730 -289 -729 0
-730 289 0
-730 729 0
731 -97 -719 0
-731 97 0
-731 719 0
-732 99 730 731 0
732 -99 0
732 -730 0
732 -731 0
733 -101 -732 0
-733 101 0
-733 732 0
-734 103 720 733 0
734 -103 0
734 -720 0
734 -733 0
735 -157 -734 0
-735 157 0
-735 734 0
-736 6 735 0
736 -6 0
736 -735 0
737 -5 -736 0
-737 5 0
-737 736 0
-738 8 706 737 0
738 -8 0
738 -706 0
738 -737 0
739 -63 -738 0
-739 63 0
-739 738 0
-740 65 682 739 0
740 -65 0
740 -682 0
740 -739 0
741 -67 -740 0
-741 67 0
-741 740 0
-742 69 606 640 681 741 0
742 -69 0
742 -606 0
742 -640 0
742 -681 0
742 -741 0
743 -71 -742 0
-743 71 0
-743 742 0
-744 73 566 743 0
744 -73 0
744 -566 0
744 -743 0
745 -746 -744 0
-745 746 0
-745 744 0
747 -22 -20 0
-747 22 0
-747 20 0
-748 39 747 33 35 0
748 -39 0
748 -747 0
748 -33 0
748 -35 0
749 -41 -748 0
-749 41 0
-749 748 0
-750 39 747 43 35 0
750 -39 0
750 -747 0
750 -43 0
750 -35 0
751 -46 -750 0
-751 46 0
-751 750 0
-752 26 751 23 0
752 -26 0
752 -751 0
752 -23 0
753 -49 -752 0
-753 49 0
-753 752 0
-754 51 749 753 0
754 -51 0
754 -749 0
754 -753 0
755 -53 -754 0
-755 53 0
-755 754 0
-756 57 755 54 0
756 -57 0
756 -755 0
756 -54 0
757 -59 -756 0
-757 59 0
-757 756 0
-758 73 757 70 0
758 -73 0
758 -757 0
758 -70 0
759 -75 -758 0
-759 75 0
-759 758 0
760 -90 -748 0
-760 90 0
-760 748 0
-761 3 760 0
761 -3 0
761 -760 0
762 -93 -761 0
-762 93 0
-762 761 0
763 -95 -758 0
-763 95 0
-763 758 0
764 -97 -761 0
-764 97 0
-764 761 0
-765 99 763 764 0
765 -99 0
765 -763 0
765 -764 0
766 -101 -765 0
-766 101 0
-766 765 0
-767 103 759 762 766 0
767 -103 0
767 -759 0
767 -762 0
767 -766 0
768 -105 -767 0
-768 105 0
-768 767 0
769 -41 -750 0
-769 41 0
-769 750 0
-770 51 769 0
770 -51 0
770 -769 0
771 -53 -770 0
-771 53 0
-771 770 0
-772 57 771 54 0
772 -57 0
772 -771 0
772 -54 0
773 -59 -772 0
-773 59 0
-773 772 0
-774 73 773 70 0
774 -73 0
774 -773 0
774 -70 0
775 -75 -774 0
-775 75 0
-775 774 0
776 -90 -750 0
-776 90 0
-776 750 0
-777 3 776 0
777 -3 0
777 -776 0
778 -93 -777 0
-778 93 0
-778 777 0
779 -95 -774 0
-779 95 0
-779 774 0
780 -97 -777 0
-780 97 0
-780 777 0
-781 99 779 780 0
781 -99 0
781 -779 0
781 -780 0
782 -101 -781 0
-782 101 0
-782 781 0
-783 103 775 778 782 0
783 -103 0
783 -775 0
783 -778 0
783 -782 0
784 -123 -783 0
-784 123 0
-784 783 0
-785 20 133 0
785 -20 0
785 -133 0
786 -22 -785 0
-786 22 0
-786 785 0
-787 39 786 202 35 0
787 -39 0
787 -786 0
787 -202 0
787 -35 0
788 -46 -787 0
-788 46 0
-788 787 0
789 -146 -783 0
-789 146 0
-789 783 0
-790 57 771 0
790 -57 0
790 -771 0
791 -59 -790 0
-791 59 0
-791 790 0
-792 73 791 149 0
792 -73 0
792 -791 0
792 -149 0
793 -75 -792 0
-793 75 0
-793 792 0
794 -95 -792 0
-794 95 0
-794 792 0
-795 99 794 780 0
795 -99 0
795 -794 0
795 -780 0
796 -101 -795 0
-796 101 0
-796 795 0
-797 103 793 778 796 0
797 -103 0
797 -793 0
797 -778 0
797 -796 0
798 -157 -797 0
-798 157 0
-798 797 0
-799 6 798 0
799 -6 0
799 -798 0
800 -5 -799 0
-800 5 0
-800 799 0
-801 8 789 800 0
801 -8 0
801 -789 0
801 -800 0
802 -24 -801 0
-802 24 0
-802 801 0
-803 26 784 788 802 0
803 -26 0
803 -784 0
803 -788 0
803 -802 0
804 -250 -803 0
-804 250 0
-804 803 0
-805 252 768 804 0
805 -252 0
805 -768 0
805 -804 0
806 -269 -805 0
-806 269 0
-806 805 0
807 -250 -752 0
-807 250 0
-807 752 0
-808 252 807 0
808 -252 0
808 -807 0
809 -607 -808 0
-809 607 0
-809 808 0
-810 39 747 43 0
810 -39 0
810 -747 0
810 -43 0
811 -46 -810 0
-811 46 0
-811 810 0
-812 26 811 23 0
812 -26 0
812 -811 0
812 -23 0
813 -250 -812 0
-813 250 0
-813 812 0
-814 252 813 0
814 -252 0
814 -813 0
815 -279 -814 0
-815 279 0
-815 814 0
-816 37 815 0
816 -37 0
816 -815 0
817 -61 -816 0
-817 61 0
-817 816 0
-818 69 809 817 66 0
818 -69 0
818 -809 0
818 -817 0
818 -66 0
819 -71 -818 0
-819 71 0
-819 818 0
-820 73 819 0
820 -73 0
820 -819 0
821 -75 -820 0
-821 75 0
-821 820 0
822 -265 -808 0
-822 265 0
-822 808 0
-823 39 747 277 281 0
823 -39 0
823 -747 0
823 -277 0
823 -281 0
824 -90 -823 0
-824 90 0
-824 823 0
-825 3 822 824 0
825 -3 0
825 -822 0
825 -824 0
826 -93 -825 0
-826 93 0
-826 825 0
827 -289 -808 0
-827 289 0
-827 808 0
828 -95 -820 0
-828 95 0
-828 820 0
829 -97 -825 0
-829 97 0
-829 825 0
-830 99 827 828 829 0
830 -99 0
830 -827 0
830 -828 0
830 -829 0
831 -101 -830 0
-831 101 0
-831 830 0
-832 103 821 826 831 0
832 -103 0
832 -821 0
832 -826 0
832 -831 0
833 -142 -832 0
-833 142 0
-833 832 0
834 -607 -267 0
-834 607 0
-834 267 0
835 -61 -280 0
-835 61 0
-835 280 0
-836 69 834 835 66 0
836 -69 0
836 -834 0
836 -835 0
836 -66 0
837 -71 -836 0
-837 71 0
-837 836 0
-838 73 837 0
838 -73 0
838 -837 0
839 -75 -838 0
-839 75 0
-839 838 0
840 -95 -838 0
-840 95 0
-840 838 0
-841 99 298 840 299 0
841 -99 0
841 -298 0
841 -840 0
841 -299 0
842 -101 -841 0
-842 101 0
-842 841 0
-843 103 839 297 842 0
843 -103 0
843 -839 0
843 -297 0
843 -842 0
844 -134 -843 0
-844 134 0
-844 843 0
-845 20 844 0
845 -20 0
845 -844 0
846 -22 -845 0
-846 22 0
-846 845 0
847 -105 -140 0
-847 105 0
-847 140 0
848 -123 -140 0
-848 123 0
-848 140 0
849 -146 -140 0
-849 146 0
-849 140 0
-850 8 849 159 0
850 -8 0
850 -849 0
850 -159 0
851 -24 -850 0
-851 24 0
-851 850 0
-852 26 848 851 0
852 -26 0
852 -848 0
852 -851 0
853 -250 -852 0
-853 250 0
-853 852 0
-854 252 847 853 0
854 -252 0
854 -847 0
854 -853 0
855 -275 -854 0
-855 275 0
-855 854 0
856 -123 -843 0
-856 123 0
-856 843 0
857 -607 -252 0
-857 607 0
-857 252 0
858 -61 -489 0
-858 61 0
-858 489 0
-859 69 857 858 66 0
859 -69 0
859 -857 0
859 -858 0
859 -66 0
860 -71 -859 0
-860 71 0
-860 859 0
-861 73 860 0
861 -73 0
861 -860 0
862 -75 -861 0
-862 75 0
-862 861 0
863 -95 -861 0
-863 95 0
-863 861 0
-864 99 350 863 351 0
864 -99 0
864 -350 0
864 -863 0
864 -351 0
865 -101 -864 0
-865 101 0
-865 864 0
-866 103 862 349 865 0
866 -103 0
866 -862 0
866 -349 0
866 -865 0
867 -146 -866 0
-867 146 0
-867 866 0
-868 69 857 858 147 0
868 -69 0
868 -857 0
868 -858 0
868 -147 0
869 -71 -868 0
-869 71 0
-869 868 0
-870 73 869 0
870 -73 0
870 -869 0
871 -75 -870 0
-871 75 0
-871 870 0
872 -95 -870 0
-872 95 0
-872 870 0
-873 99 350 872 351 0
873 -99 0
873 -350 0
873 -872 0
873 -351 0
874 -101 -873 0
-874 101 0
-874 873 0
-875 103 871 349 874 0
875 -103 0
875 -871 0
875 -349 0
875 -874 0
876 -157 -875 0
-876 157 0
-876 875 0
-877 6 876 0
877 -6 0
877 -876 0
878 -5 -877 0
-878 5 0
-878 877 0
-879 8 867 878 0
879 -8 0
879 -867 0
879 -878 0
880 -24 -879 0
-880 24 0
-880 879 0
-881 26 856 880 0
881 -26 0
881 -856 0
881 -880 0
882 -28 -881 0
-882 28 0
-882 881 0
883 -607 -366 0
-883 607 0
-883 366 0
884 -279 -366 0
-884 279 0
-884 366 0
-885 37 884 0
885 -37 0
885 -884 0
886 -61 -885 0
-886 61 0
-886 885 0
-887 69 883 886 189 0
887 -69 0
887 -883 0
887 -886 0
887 -189 0
888 -71 -887 0
-888 71 0
-888 887 0
-889 73 888 0
889 -73 0
889 -888 0
890 -75 -889 0
-890 75 0
-890 889 0
891 -95 -889 0
-891 95 0
-891 889 0
-892 99 370 891 371 0
892 -99 0
892 -370 0
892 -891 0
892 -371 0
893 -101 -892 0
-893 101 0
-893 892 0
-894 103 890 369 893 0
894 -103 0
894 -890 0
894 -369 0
894 -893 0
895 -157 -894 0
-895 157 0
-895 894 0
-896 6 895 0
896 -6 0
896 -895 0
897 -30 -896 0
-897 30 0
-897 896 0
-898 32 855 882 897 0
898 -32 0
898 -855 0
898 -882 0
898 -897 0
899 -34 -898 0
-899 34 0
-899 898 0
900 -279 -854 0
-900 279 0
-900 854 0
-901 37 900 0
901 -37 0
901 -900 0
902 -36 -901 0
-902 36 0
-902 901 0
-903 39 846 899 902 0
903 -39 0
903 -846 0
903 -899 0
903 -902 0
904 -41 -903 0
-904 41 0
-904 903 0
-905 99 137 764 0
905 -99 0
905 -137 0
905 -764 0
906 -101 -905 0
-906 101 0
-906 905 0
-907 103 136 762 906 0
907 -103 0
907 -136 0
907 -762 0
907 -906 0
908 -105 -907 0
-908 105 0
-908 907 0
-909 99 137 780 0
909 -99 0
909 -137 0
909 -780 0
910 -101 -909 0
-910 101 0
-910 909 0
-911 103 136 778 910 0
911 -103 0
911 -136 0
911 -778 0
911 -910 0
912 -123 -911 0
-912 123 0
-912 911 0
913 -134 -140 0
-913 134 0
-913 140 0
-914 20 913 0
914 -20 0
914 -913 0
915 -22 -914 0
-915 22 0
-915 914 0
-916 73 191 0
916 -73 0
916 -191 0
917 -75 -916 0
-917 75 0
-917 916 0
918 -95 -916 0
-918 95 0
-918 916 0
-919 99 918 129 0
919 -99 0
919 -918 0
919 -129 0
920 -101 -919 0
-920 101 0
-920 919 0
-921 103 917 127 920 0
921 -103 0
921 -917 0
921 -127 0
921 -920 0
922 -157 -921 0
-922 157 0
-922 921 0
-923 6 922 0
923 -6 0
923 -922 0
924 -30 -923 0
-924 30 0
-924 923 0
-925 32 924 0
925 -32 0
925 -924 0
926 -34 -925 0
-926 34 0
-926 925 0
-927 39 915 926 35 0
927 -39 0
927 -915 0
927 -926 0
927 -35 0
928 -46 -927 0
-928 46 0
-928 927 0
929 -146 -911 0
-929 146 0
-929 911 0
-930 99 152 780 0
930 -99 0
930 -152 0
930 -780 0
931 -101 -930 0
-931 101 0
-931 930 0
-932 103 151 778 931 0
932 -103 0
932 -151 0
932 -778 0
932 -931 0
933 -157 -932 0
-933 157 0
-933 932 0
-934 6 933 0
934 -6 0
934 -933 0
935 -5 -934 0
-935 5 0
-935 934 0
-936 8 929 935 0
936 -8 0
936 -929 0
936 -935 0
937 -24 -936 0
-937 24 0
-937 936 0
-938 26 912 928 937 0
938 -26 0
938 -912 0
938 -928 0
938 -937 0
939 -250 -938 0
-939 250 0
-939 938 0
-940 252 908 939 0
940 -252 0
940 -908 0
940 -939 0
941 -445 -940 0
-941 445 0
-941 940 0
-942 39 747 447 281 0
942 -39 0
942 -747 0
942 -447 0
942 -281 0
943 -90 -942 0
-943 90 0
-943 942 0
-944 3 347 943 0
944 -3 0
944 -347 0
944 -943 0
945 -93 -944 0
-945 93 0
-945 944 0
946 -97 -944 0
-946 97 0
-946 944 0
-947 99 350 863 946 0
947 -99 0
947 -350 0
947 -863 0
947 -946 0
948 -101 -947 0
-948 101 0
-948 947 0
-949 103 862 945 948 0
949 -103 0
949 -862 0
949 -945 0
949 -948 0
950 -123 -949 0
-950 123 0
-950 949 0
-951 252 847 0
951 -252 0
951 -847 0
952 -275 -951 0
-952 275 0
-952 951 0
-953 69 857 858 189 0
953 -69 0
953 -857 0
953 -858 0
953 -189 0
954 -71 -953 0
-954 71 0
-954 953 0
-955 73 954 0
955 -73 0
955 -954 0
956 -75 -955 0
-956 75 0
-956 955 0
957 -95 -955 0
-957 95 0
-957 955 0
-958 99 350 957 351 0
958 -99 0
958 -350 0
958 -957 0
958 -351 0
959 -101 -958 0
-959 101 0
-959 958 0
-960 103 956 349 959 0
960 -103 0
960 -956 0
960 -349 0
960 -959 0
961 -157 -960 0
-961 157 0
-961 960 0
-962 6 961 0
962 -6 0
962 -961 0
963 -30 -962 0
-963 30 0
-963 962 0
-964 32 952 963 0
964 -32 0
964 -952 0
964 -963 0
965 -34 -964 0
-965 34 0
-965 964 0
966 -279 -951 0
-966 279 0
-966 951 0
-967 37 966 0
967 -37 0
967 -966 0
968 -36 -967 0
-968 36 0
-968 967 0
-969 39 846 965 968 0
969 -39 0
969 -846 0
969 -965 0
969 -968 0
970 -46 -969 0
-970 46 0
-970 969 0
-971 39 747 487 490 0
971 -39 0
971 -747 0
971 -487 0
971 -490 0
972 -90 -971 0
-972 90 0
-972 971 0
-973 3 347 972 0
973 -3 0
973 -347 0
973 -972 0
974 -93 -973 0
-974 93 0
-974 973 0
975 -97 -973 0
-975 97 0
-975 973 0
-976 99 350 863 975 0
976 -99 0
976 -350 0
976 -863 0
976 -975 0
977 -101 -976 0
-977 101 0
-977 976 0
-978 103 862 974 977 0
978 -103 0
978 -862 0
978 -974 0
978 -977 0
979 -146 -978 0
-979 146 0
-979 978 0
-980 99 350 872 975 0
980 -99 0
980 -350 0
980 -872 0
980 -975 0
981 -101 -980 0
-981 101 0
-981 980 0
-982 103 871 974 981 0
982 -103 0
982 -871 0
982 -974 0
982 -981 0
983 -157 -982 0
-983 157 0
-983 982 0
-984 6 983 0
984 -6 0
984 -983 0
985 -5 -984 0
-985 5 0
-985 984 0
-986 8 979 985 0
986 -8 0
986 -979 0
986 -985 0
987 -24 -986 0
-987 24 0
-987 986 0
-988 26 950 970 987 0
988 -26 0
988 -950 0
988 -970 0
988 -987 0
989 -49 -988 0
-989 49 0
-989 988 0
-990 51 833 904 941 989 0
990 -51 0
990 -833 0
990 -904 0
990 -941 0
990 -989 0
991 -53 -990 0
-991 53 0
-991 990 0
992 -146 -832 0
-992 146 0
-992 832 0
-993 26 751 0
993 -26 0
993 -751 0
994 -250 -993 0
-994 250 0
-994 993 0
-995 252 994 0
995 -252 0
995 -994 0
996 -607 -995 0
-996 607 0
-996 995 0
-997 26 811 0
997 -26 0
997 -811 0
998 -250 -997 0
-998 250 0
-998 997 0
-999 252 998 0
999 -252 0
999 -998 0
1000 -279 -999 0
-1000 279 0
-1000 999 0
-1001 37 1000 0
1001 -37 0
1001 -1000 0
1002 -61 -1001 0
-1002 61 0
-1002 1001 0
-1003 69 996 1002 147 0
1003 -69 0
1003 -996 0
1003 -1002 0
1003 -147 0
1004 -71 -1003 0
-1004 71 0
-1004 1003 0
-1005 73 1004 0
1005 -73 0
1005 -1004 0
1006 -75 -1005 0
-1006 75 0
-1006 1005 0
1007 -265 -995 0
-1007 265 0
-1007 995 0
-1008 39 747 544 547 0
1008 -39 0
1008 -747 0
1008 -544 0
1008 -547 0
1009 -90 -1008 0
-1009 90 0
-1009 1008 0
-1010 3 1007 1009 0
1010 -3 0
1010 -1007 0
1010 -1009 0
1011 -93 -1010 0
-1011 93 0
-1011 1010 0
1012 -289 -995 0
-1012 289 0
-1012 995 0
1013 -95 -1005 0
-1013 95 0
-1013 1005 0
1014 -97 -1010 0
-1014 97 0
-1014 1010 0
-1015 99 1012 1013 1014 0
1015 -99 0
1015 -1012 0
1015 -1013 0
1015 -1014 0
1016 -101 -1015 0
-1016 101 0
-1016 1015 0
-1017 103 1006 1011 1016 0
1017 -103 0
1017 -1006 0
1017 -1011 0
1017 -1016 0
1018 -157 -1017 0
-1018 157 0
-1018 1017 0
-1019 6 1018 0
1019 -6 0
1019 -1018 0
1020 -5 -1019 0
-1020 5 0
-1020 1019 0
-1021 8 992 1020 0
1021 -8 0
1021 -992 0
1021 -1020 0
1022 -55 -1021 0
-1022 55 0
-1022 1021 0
-1023 57 991 1022 0
1023 -57 0
1023 -991 0
1023 -1022 0
1024 -81 -1023 0
-1024 81 0
-1024 1023 0
-1025 99 763 0
1025 -99 0
1025 -763 0
1026 -101 -1025 0
-1026 101 0
-1026 1025 0
-1027 103 759 1026 0
1027 -103 0
1027 -759 0
1027 -1026 0
1028 -105 -1027 0
-1028 105 0
-1028 1027 0
-1029 103 775 782 0
1029 -103 0
1029 -775 0
1029 -782 0
1030 -123 -1029 0
-1030 123 0
-1030 1029 0
1031 -146 -1029 0
-1031 146 0
-1031 1029 0
-1032 103 793 796 0
1032 -103 0
1032 -793 0
1032 -796 0
1033 -157 -1032 0
-1033 157 0
-1033 1032 0
-1034 6 1033 0
1034 -6 0
1034 -1033 0
1035 -5 -1034 0
-1035 5 0
-1035 1034 0
-1036 8 1031 1035 0
1036 -8 0
1036 -1031 0
1036 -1035 0
1037 -24 -1036 0
-1037 24 0
-1037 1036 0
-1038 26 1030 788 1037 0
1038 -26 0
1038 -1030 0
1038 -788 0
1038 -1037 0
1039 -250 -1038 0
-1039 250 0
-1039 1038 0
-1040 252 1028 1039 0
1040 -252 0
1040 -1028 0
1040 -1039 0
1041 -265 -1040 0
-1041 265 0
-1041 1040 0
1042 -59 -616 0
-1042 59 0
-1042 616 0
-1043 73 1042 837 0
1043 -73 0
1043 -1042 0
1043 -837 0
1044 -75 -1043 0
-1044 75 0
-1044 1043 0
1045 -95 -1043 0
-1045 95 0
-1045 1043 0
-1046 99 298 1045 299 0
1046 -99 0
1046 -298 0
1046 -1045 0
1046 -299 0
1047 -101 -1046 0
-1047 101 0
-1047 1046 0
-1048 103 1044 1047 0
1048 -103 0
1048 -1044 0
1048 -1047 0
1049 -134 -1048 0
-1049 134 0
-1049 1048 0
-1050 20 1049 0
1050 -20 0
1050 -1049 0
1051 -22 -1050 0
-1051 22 0
-1051 1050 0
1052 -105 -132 0
-1052 105 0
-1052 132 0
1053 -123 -132 0
-1053 123 0
-1053 132 0
1054 -146 -172 0
-1054 146 0
-1054 172 0
-1055 8 1054 175 0
1055 -8 0
1055 -1054 0
1055 -175 0
1056 -24 -1055 0
-1056 24 0
-1056 1055 0
-1057 26 1053 1056 0
1057 -26 0
1057 -1053 0
1057 -1056 0
1058 -250 -1057 0
-1058 250 0
-1058 1057 0
-1059 252 1052 1058 0
1059 -252 0
1059 -1052 0
1059 -1058 0
1060 -275 -1059 0
-1060 275 0
-1060 1059 0
1061 -123 -1048 0
-1061 123 0
-1061 1048 0
1062 -445 -252 0
-1062 445 0
-1062 252 0
-1063 51 1062 0
1063 -51 0
1063 -1062 0
1064 -53 -1063 0
-1064 53 0
-1064 1063 0
-1065 57 1064 54 0
1065 -57 0
1065 -1064 0
1065 -54 0
1066 -59 -1065 0
-1066 59 0
-1066 1065 0
-1067 73 1066 860 0
1067 -73 0
1067 -1066 0
1067 -860 0
1068 -75 -1067 0
-1068 75 0
-1068 1067 0
1069 -95 -1067 0
-1069 95 0
-1069 1067 0
-1070 99 350 1069 351 0
1070 -99 0
1070 -350 0
1070 -1069 0
1070 -351 0
1071 -101 -1070 0
-1071 101 0
-1071 1070 0
-1072 103 1068 1071 0
1072 -103 0
1072 -1068 0
1072 -1071 0
1073 -146 -1072 0
-1073 146 0
-1073 1072 0
-1074 57 1064 0
1074 -57 0
1074 -1064 0
1075 -59 -1074 0
-1075 59 0
-1075 1074 0
-1076 73 1075 869 0
1076 -73 0
1076 -1075 0
1076 -869 0
1077 -75 -1076 0
-1077 75 0
-1077 1076 0
1078 -95 -1076 0
-1078 95 0
-1078 1076 0
-1079 99 350 1078 351 0
1079 -99 0
1079 -350 0
1079 -1078 0
1079 -351 0
1080 -101 -1079 0
-1080 101 0
-1080 1079 0
-1081 103 1077 1080 0
1081 -103 0
1081 -1077 0
1081 -1080 0
1082 -157 -1081 0
-1082 157 0
-1082 1081 0
-1083 6 1082 0
1083 -6 0
1083 -1082 0
1084 -5 -1083 0
-1084 5 0
-1084 1083 0
-1085 8 1073 1084 0
1085 -8 0
1085 -1073 0
1085 -1084 0
1086 -24 -1085 0
-1086 24 0
-1086 1085 0
-1087 26 1061 1086 0
1087 -26 0
1087 -1061 0
1087 -1086 0
1088 -28 -1087 0
-1088 28 0
-1088 1087 0
1089 -445 -366 0
-1089 445 0
-1089 366 0
1090 -49 -364 0
-1090 49 0
-1090 364 0
-1091 51 1089 1090 0
1091 -51 0
1091 -1089 0
1091 -1090 0
1092 -53 -1091 0
-1092 53 0
-1092 1091 0
-1093 57 1092 184 0
1093 -57 0
1093 -1092 0
1093 -184 0
1094 -59 -1093 0
-1094 59 0
-1094 1093 0
-1095 73 1094 888 0
1095 -73 0
1095 -1094 0
1095 -888 0
1096 -75 -1095 0
-1096 75 0
-1096 1095 0
1097 -95 -1095 0
-1097 95 0
-1097 1095 0
-1098 99 370 1097 371 0
1098 -99 0
1098 -370 0
1098 -1097 0
1098 -371 0
1099 -101 -1098 0
-1099 101 0
-1099 1098 0
-1100 103 1096 1099 0
1100 -103 0
1100 -1096 0
1100 -1099 0
1101 -157 -1100 0
-1101 157 0
-1101 1100 0
-1102 6 1101 0
1102 -6 0
1102 -1101 0
1103 -30 -1102 0
-1103 30 0
-1103 1102 0
-1104 32 1060 1088 1103 0
1104 -32 0
1104 -1060 0
1104 -1088 0
1104 -1103 0
1105 -34 -1104 0
-1105 34 0
-1105 1104 0
1106 -279 -1059 0
-1106 279 0
-1106 1059 0
-1107 37 1106 0
1107 -37 0
1107 -1106 0
1108 -36 -1107 0
-1108 36 0
-1108 1107 0
-1109 39 1051 1105 1108 0
1109 -39 0
1109 -1051 0
1109 -1105 0
1109 -1108 0
1110 -90 -1109 0
-1110 90 0
-1110 1109 0
-1111 3 1041 1110 0
1111 -3 0
1111 -1041 0
1111 -1110 0
1112 -2 -1111 0
-1112 2 0
-1112 1111 0
1113 -41 -823 0
-1113 41 0
-1113 823 0
1114 -445 -808 0
-1114 445 0
-1114 808 0
1115 -46 -942 0
-1115 46 0
-1115 942 0
-1116 26 1115 23 0
1116 -26 0
1116 -1115 0
1116 -23 0
1117 -49 -1116 0
-1117 49 0
-1117 1116 0
-1118 51 1113 1114 1117 0
1118 -51 0
1118 -1113 0
1118 -1114 0
1118 -1117 0
1119 -53 -1118 0
-1119 53 0
-1119 1118 0
-1120 57 1119 54 0
1120 -57 0
1120 -1119 0
1120 -54 0
1121 -59 -1120 0
-1121 59 0
-1121 1120 0
-1122 73 1121 819 0
1122 -73 0
1122 -1121 0
1122 -819 0
1123 -75 -1122 0
-1123 75 0
-1123 1122 0
1124 -95 -1122 0
-1124 95 0
-1124 1122 0
-1125 99 827 1124 829 0
1125 -99 0
1125 -827 0
1125 -1124 0
1125 -829 0
1126 -101 -1125 0
-1126 101 0
-1126 1125 0
-1127 103 1123 826 1126 0
1127 -103 0
1127 -1123 0
1127 -826 0
1127 -1126 0
1128 -146 -1127 0
-1128 146 0
-1128 1127 0
1129 -41 -1008 0
-1129 41 0
-1129 1008 0
1130 -445 -995 0
-1130 445 0
-1130 995 0
1131 -46 -971 0
-1131 46 0
-1131 971 0
-1132 26 1131 0
1132 -26 0
1132 -1131 0
1133 -49 -1132 0
-1133 49 0
-1133 1132 0
-1134 51 1129 1130 1133 0
1134 -51 0
1134 -1129 0
1134 -1130 0
1134 -1133 0
1135 -53 -1134 0
-1135 53 0
-1135 1134 0
-1136 57 1135 0
1136 -57 0
1136 -1135 0
1137 -59 -1136 0
-1137 59 0
-1137 1136 0
-1138 73 1137 1004 0
1138 -73 0
1138 -1137 0
1138 -1004 0
1139 -75 -1138 0
-1139 75 0
-1139 1138 0
1140 -95 -1138 0
-1140 95 0
-1140 1138 0
-1141 99 1012 1140 1014 0
1141 -99 0
1141 -1012 0
1141 -1140 0
1141 -1014 0
1142 -101 -1141 0
-1142 101 0
-1142 1141 0
-1143 103 1139 1011 1142 0
1143 -103 0
1143 -1139 0
1143 -1011 0
1143 -1142 0
1144 -157 -1143 0
-1144 157 0
-1144 1143 0
-1145 6 1144 0
1145 -6 0
1145 -1144 0
1146 -5 -1145 0
-1146 5 0
-1146 1145 0
-1147 8 1128 1146 0
1147 -8 0
1147 -1128 0
1147 -1146 0
1148 -10 -1147 0
-1148 10 0
-1148 1147 0
-1149 12 1112 1148 0
1149 -12 0
1149 -1112 0
1149 -1148 0
1150 -14 -1149 0
-1150 14 0
-1150 1149 0
-1151 16 806 1024 1150 0
1151 -16 0
1151 -806 0
1151 -1024 0
1151 -1150 0
1152 -1153 -1151 0
-1152 1153 0
-1152 1151 0
-1154 1155 253 745 1152 0
1154 -1155 0
1154 -253 0
1154 -745 0
1154 -1152 0
1156 -1157 -1154 0
-1156 1157 0
-1156 1154 0
-1158 1159 1156 0
1158 -1159 0
1158 -1156 0
1160 -1158 -1161 0
-1160 1158 0
-1160 1161 0
1160 0
