c BC-S1.2
p cnf 45 74
1 -2 -3 0
-1 2 0
-1 3 0
4 -5 -3 0
-4 5 0
-4 3 0
6 -7 -3 0
-6 7 0
-6 3 0
-8 9 6 0
8 -9 0
8 -6 0
10 -11 -8 0
-10 11 0
-10 8 0
12 -13 -8 0
-12 13 0
-12 8 0
-14 15 12 0
14 -15 0
14 -12 0
16 -17 -14 0
-16 17 0
-16 14 0
-18 19 4 10 16 0
18 -19 0
18 -4 0
18 -10 0
18 -16 0
20 -21 -18 0
-20 21 0
-20 18 0
22 -23 -3 0
-22 23 0
-22 3 0
-24 25 20 22 0
24 -25 0
24 -20 0
24 -22 0
26 -27 -24 0
-26 27 0
-26 24 0
28 -29 -14 0
-28 29 0
-28 14 0
30 -31 -3 0
-30 31 0
-30 3 0
-32 33 30 0
32 -33 0
32 -30 0
34 -35 -32 0
-34 35 0
-34 32 0
-36 37 1 26 28 34 0
36 -37 0
36 -1 0
36 -26 0
36 -28 0
36 -34 0
38 -39 -36 0
-38 39 0
-38 36 0
40 -41 -3 0
-40 41 0
-40 3 0
-42 43 38 40 0
42 -43 0
42 -38 0
42 -40 0
44 -42 -45 0
-44 42 0
-44 45 0
44 0
