c BC-S1.2
p cnf 1315 4902
1 -2 -3 0
-1 2 0
-1 3 0
-4 5 1 0
4 -5 0
4 -1 0
6 -7 -4 0
-6 7 0
-6 4 0
-8 9 6 0
8 -9 0
8 -6 0
10 -11 -8 0
-10 11 0
-10 8 0
12 -13 -5 0
-12 13 0
-12 5 0
-14 3 12 0
14 -3 0
14 -12 0
15 -16 -14 0
-15 16 0
-15 14 0
17 -18 -4 0
-17 18 0
-17 4 0
19 -20 -21 0
-19 20 0
-19 21 0
22 -23 -24 0
-22 23 0
-22 24 0
25 -26 -27 0
-25 26 0
-25 27 0
-28 29 25 0
28 -29 0
28 -25 0
30 -31 -28 0
-30 31 0
-30 28 0
32 -33 -21 0
-32 33 0
-32 21 0
34 -35 -36 0
-34 35 0
-34 36 0
37 -38 -39 0
-37 38 0
-37 39 0
40 -41 -42 0
-40 41 0
-40 42 0
43 -44 -45 0
-43 44 0
-43 45 0
-46 47 40 43 0
46 -47 0
46 -40 0
46 -43 0
48 -49 -46 0
-48 49 0
-48 46 0
50 -51 -42 0
-50 51 0
-50 42 0
52 -53 -39 0
-52 53 0
-52 39 0
-54 55 50 52 0
54 -55 0
54 -50 0
54 -52 0
56 -57 -54 0
-56 57 0
-56 54 0
58 -59 -60 0
-58 59 0
-58 60 0
-61 62 58 0
61 -62 0
61 -58 0
63 -64 -61 0
-63 64 0
-63 61 0
-65 66 22 30 32 34 37 48 56 63 0
65 -66 0
65 -22 0
65 -30 0
65 -32 0
65 -34 0
65 -37 0
65 -48 0
65 -56 0
65 -63 0
67 -68 -65 0
-67 68 0
-67 65 0
-69 70 67 0
69 -70 0
69 -67 0
71 -72 -69 0
-71 72 0
-71 69 0
-73 66 22 30 32 37 48 56 63 0
73 -66 0
73 -22 0
73 -30 0
73 -32 0
73 -37 0
73 -48 0
73 -56 0
73 -63 0
74 -75 -73 0
-74 75 0
-74 73 0
-76 36 74 0
76 -36 0
76 -74 0
77 -78 -76 0
-77 78 0
-77 76 0
79 -80 -65 0
-79 80 0
-79 65 0
-81 82 79 0
81 -82 0
81 -79 0
83 -84 -81 0
-83 84 0
-83 81 0
-85 47 43 0
85 -47 0
85 -43 0
86 -49 -85 0
-86 49 0
-86 85 0
-87 66 22 30 32 34 37 86 56 63 0
87 -66 0
87 -22 0
87 -30 0
87 -32 0
87 -34 0
87 -37 0
87 -86 0
87 -56 0
87 -63 0
88 -89 -87 0
-88 89 0
-88 87 0
-90 42 88 0
90 -42 0
90 -88 0
91 -92 -90 0
-91 92 0
-91 90 0
-93 66 22 30 32 34 37 86 63 0
93 -66 0
93 -22 0
93 -30 0
93 -32 0
93 -34 0
93 -37 0
93 -86 0
93 -63 0
94 -89 -93 0
-94 89 0
-94 93 0
-95 42 94 0
95 -42 0
95 -94 0
96 -51 -95 0
-96 51 0
-96 95 0
-97 55 96 52 0
97 -55 0
97 -96 0
97 -52 0
98 -99 -97 0
-98 99 0
-98 97 0
100 -101 -65 0
-100 101 0
-100 65 0
-102 103 19 71 77 83 91 98 100 0
102 -103 0
102 -19 0
102 -71 0
102 -77 0
102 -83 0
102 -91 0
102 -98 0
102 -100 0
104 -105 -102 0
-104 105 0
-104 102 0
-106 107 104 0
106 -107 0
106 -104 0
108 -109 -106 0
-108 109 0
-108 106 0
-110 111 108 0
110 -111 0
110 -108 0
112 -113 -110 0
-112 113 0
-112 110 0
114 -115 -107 0
-114 115 0
-114 107 0
-116 45 114 0
116 -45 0
116 -114 0
117 -44 -116 0
-117 44 0
-117 116 0
-118 47 40 117 0
118 -47 0
118 -40 0
118 -117 0
119 -49 -118 0
-119 49 0
-119 118 0
120 -109 -107 0
-120 109 0
-120 107 0
-121 111 120 0
121 -111 0
121 -120 0
122 -123 -121 0
-122 123 0
-122 121 0
124 -125 -107 0
-124 125 0
-124 107 0
-126 66 22 30 32 34 37 119 122 56 63 124 0
126 -66 0
126 -22 0
126 -30 0
126 -32 0
126 -34 0
126 -37 0
126 -119 0
126 -122 0
126 -56 0
126 -63 0
126 -124 0
127 -68 -126 0
-127 68 0
-127 126 0
-128 70 127 0
128 -70 0
128 -127 0
129 -72 -128 0
-129 72 0
-129 128 0
-130 66 22 30 32 37 119 122 56 63 124 0
130 -66 0
130 -22 0
130 -30 0
130 -32 0
130 -37 0
130 -119 0
130 -122 0
130 -56 0
130 -63 0
130 -124 0
131 -75 -130 0
-131 75 0
-131 130 0
-132 36 131 0
132 -36 0
132 -131 0
133 -78 -132 0
-133 78 0
-133 132 0
134 -80 -126 0
-134 80 0
-134 126 0
-135 82 134 0
135 -82 0
135 -134 0
136 -84 -135 0
-136 84 0
-136 135 0
-137 47 117 0
137 -47 0
137 -117 0
138 -49 -137 0
-138 49 0
-138 137 0
-139 66 22 30 32 34 37 138 122 56 63 124 0
139 -66 0
139 -22 0
139 -30 0
139 -32 0
139 -34 0
139 -37 0
139 -138 0
139 -122 0
139 -56 0
139 -63 0
139 -124 0
140 -89 -139 0
-140 89 0
-140 139 0
-141 42 140 0
141 -42 0
141 -140 0
142 -92 -141 0
-142 92 0
-142 141 0
-143 66 22 30 32 34 37 138 122 63 124 0
143 -66 0
143 -22 0
143 -30 0
143 -32 0
143 -34 0
143 -37 0
143 -138 0
143 -122 0
143 -63 0
143 -124 0
144 -89 -143 0
-144 89 0
-144 143 0
-145 42 144 0
145 -42 0
145 -144 0
146 -51 -145 0
-146 51 0
-146 145 0
-147 55 146 52 0
147 -55 0
147 -146 0
147 -52 0
148 -99 -147 0
-148 99 0
-148 147 0
149 -150 -107 0
-149 150 0
-149 107 0
151 -101 -126 0
-151 101 0
-151 126 0
-152 103 19 129 133 136 142 148 149 151 0
152 -103 0
152 -19 0
152 -129 0
152 -133 0
152 -136 0
152 -142 0
152 -148 0
152 -149 0
152 -151 0
153 -154 -152 0
-153 154 0
-153 152 0
-155 156 112 153 0
155 -156 0
155 -112 0
155 -153 0
157 -158 -155 0
-157 158 0
-157 155 0
-159 66 22 30 32 34 37 48 56 0
159 -66 0
159 -22 0
159 -30 0
159 -32 0
159 -34 0
159 -37 0
159 -48 0
159 -56 0
160 -68 -159 0
-160 68 0
-160 159 0
-161 70 160 0
161 -70 0
161 -160 0
162 -72 -161 0
-162 72 0
-162 161 0
-163 66 22 30 32 37 48 56 0
163 -66 0
163 -22 0
163 -30 0
163 -32 0
163 -37 0
163 -48 0
163 -56 0
164 -75 -163 0
-164 75 0
-164 163 0
-165 36 164 0
165 -36 0
165 -164 0
166 -78 -165 0
-166 78 0
-166 165 0
167 -80 -159 0
-167 80 0
-167 159 0
-168 82 167 0
168 -82 0
168 -167 0
169 -84 -168 0
-169 84 0
-169 168 0
-170 66 22 30 32 34 37 86 56 0
170 -66 0
170 -22 0
170 -30 0
170 -32 0
170 -34 0
170 -37 0
170 -86 0
170 -56 0
171 -89 -170 0
-171 89 0
-171 170 0
-172 42 171 0
172 -42 0
172 -171 0
173 -92 -172 0
-173 92 0
-173 172 0
-174 66 22 30 32 34 37 86 0
174 -66 0
174 -22 0
174 -30 0
174 -32 0
174 -34 0
174 -37 0
174 -86 0
175 -89 -174 0
-175 89 0
-175 174 0
-176 42 175 0
176 -42 0
176 -175 0
177 -51 -176 0
-177 51 0
-177 176 0
-178 55 177 52 0
178 -55 0
178 -177 0
178 -52 0
179 -99 -178 0
-179 99 0
-179 178 0
180 -101 -159 0
-180 101 0
-180 159 0
-181 103 19 162 166 169 173 179 180 0
181 -103 0
181 -19 0
181 -162 0
181 -166 0
181 -169 0
181 -173 0
181 -179 0
181 -180 0
182 -105 -181 0
-182 105 0
-182 181 0
-183 107 182 0
183 -107 0
183 -182 0
184 -109 -183 0
-184 109 0
-184 183 0
-185 111 184 0
185 -111 0
185 -184 0
186 -113 -185 0
-186 113 0
-186 185 0
-187 66 22 30 32 34 37 119 122 56 124 0
187 -66 0
187 -22 0
187 -30 0
187 -32 0
187 -34 0
187 -37 0
187 -119 0
187 -122 0
187 -56 0
187 -124 0
188 -68 -187 0
-188 68 0
-188 187 0
-189 70 188 0
189 -70 0
189 -188 0
190 -72 -189 0
-190 72 0
-190 189 0
-191 66 22 30 32 37 119 122 56 124 0
191 -66 0
191 -22 0
191 -30 0
191 -32 0
191 -37 0
191 -119 0
191 -122 0
191 -56 0
191 -124 0
192 -75 -191 0
-192 75 0
-192 191 0
-193 36 192 0
193 -36 0
193 -192 0
194 -78 -193 0
-194 78 0
-194 193 0
195 -80 -187 0
-195 80 0
-195 187 0
-196 82 195 0
196 -82 0
196 -195 0
197 -84 -196 0
-197 84 0
-197 196 0
-198 66 22 30 32 34 37 138 122 56 124 0
198 -66 0
198 -22 0
198 -30 0
198 -32 0
198 -34 0
198 -37 0
198 -138 0
198 -122 0
198 -56 0
198 -124 0
199 -89 -198 0
-199 89 0
-199 198 0
-200 42 199 0
200 -42 0
200 -199 0
201 -92 -200 0
-201 92 0
-201 200 0
-202 66 22 30 32 34 37 138 122 124 0
202 -66 0
202 -22 0
202 -30 0
202 -32 0
202 -34 0
202 -37 0
202 -138 0
202 -122 0
202 -124 0
203 -89 -202 0
-203 89 0
-203 202 0
-204 42 203 0
204 -42 0
204 -203 0
205 -51 -204 0
-205 51 0
-205 204 0
-206 55 205 52 0
206 -55 0
206 -205 0
206 -52 0
207 -99 -206 0
-207 99 0
-207 206 0
208 -101 -187 0
-208 101 0
-208 187 0
-209 103 19 190 194 197 201 207 149 208 0
209 -103 0
209 -19 0
209 -190 0
209 -194 0
209 -197 0
209 -201 0
209 -207 0
209 -149 0
209 -208 0
210 -154 -209 0
-210 154 0
-210 209 0
-211 156 186 210 0
211 -156 0
211 -186 0
211 -210 0
212 -213 -211 0
-212 213 0
-212 211 0
214 -113 -121 0
-214 113 0
-214 121 0
-215 156 214 0
215 -156 0
215 -214 0
216 -217 -215 0
-216 217 0
-216 215 0
218 -219 -215 0
-218 219 0
-218 215 0
-220 24 218 0
220 -24 0
220 -218 0
221 -23 -220 0
-221 23 0
-221 220 0
222 -223 -215 0
-222 223 0
-222 215 0
224 -225 -215 0
-224 225 0
-224 215 0
-226 27 224 0
226 -27 0
226 -224 0
227 -26 -226 0
-227 26 0
-227 226 0
-228 29 222 227 0
228 -29 0
228 -222 0
228 -227 0
229 -31 -228 0
-229 31 0
-229 228 0
230 -231 -215 0
-230 231 0
-230 215 0
-232 47 230 40 117 0
232 -47 0
232 -230 0
232 -40 0
232 -117 0
233 -49 -232 0
-233 49 0
-233 232 0
-234 66 221 229 32 34 37 233 122 56 124 0
234 -66 0
234 -221 0
234 -229 0
234 -32 0
234 -34 0
234 -37 0
234 -233 0
234 -122 0
234 -56 0
234 -124 0
235 -68 -234 0
-235 68 0
-235 234 0
-236 70 235 0
236 -70 0
236 -235 0
237 -72 -236 0
-237 72 0
-237 236 0
-238 66 221 229 32 37 233 122 56 124 0
238 -66 0
238 -221 0
238 -229 0
238 -32 0
238 -37 0
238 -233 0
238 -122 0
238 -56 0
238 -124 0
239 -75 -238 0
-239 75 0
-239 238 0
-240 36 239 0
240 -36 0
240 -239 0
241 -78 -240 0
-241 78 0
-241 240 0
242 -80 -234 0
-242 80 0
-242 234 0
-243 82 242 0
243 -82 0
243 -242 0
244 -84 -243 0
-244 84 0
-244 243 0
-245 47 230 117 0
245 -47 0
245 -230 0
245 -117 0
246 -49 -245 0
-246 49 0
-246 245 0
-247 66 221 229 32 34 37 246 122 56 124 0
247 -66 0
247 -221 0
247 -229 0
247 -32 0
247 -34 0
247 -37 0
247 -246 0
247 -122 0
247 -56 0
247 -124 0
248 -89 -247 0
-248 89 0
-248 247 0
-249 42 248 0
249 -42 0
249 -248 0
250 -92 -249 0
-250 92 0
-250 249 0
-251 66 221 229 32 34 37 246 122 124 0
251 -66 0
251 -221 0
251 -229 0
251 -32 0
251 -34 0
251 -37 0
251 -246 0
251 -122 0
251 -124 0
252 -89 -251 0
-252 89 0
-252 251 0
-253 42 252 0
253 -42 0
253 -252 0
254 -51 -253 0
-254 51 0
-254 253 0
-255 55 254 52 0
255 -55 0
255 -254 0
255 -52 0
256 -99 -255 0
-256 99 0
-256 255 0
257 -101 -234 0
-257 101 0
-257 234 0
-258 103 216 19 237 241 244 250 256 149 257 0
258 -103 0
258 -216 0
258 -19 0
258 -237 0
258 -241 0
258 -244 0
258 -250 0
258 -256 0
258 -149 0
258 -257 0
259 -260 -258 0
-259 260 0
-259 258 0
261 -72 -70 0
-261 72 0
-261 70 0
262 -78 -36 0
-262 78 0
-262 36 0
263 -84 -82 0
-263 84 0
-263 82 0
264 -92 -42 0
-264 92 0
-264 42 0
265 -99 -54 0
-265 99 0
-265 54 0
-266 103 19 261 262 263 264 265 0
266 -103 0
266 -19 0
266 -261 0
266 -262 0
266 -263 0
266 -264 0
266 -265 0
267 -105 -266 0
-267 105 0
-267 266 0
-268 107 267 0
268 -107 0
268 -267 0
269 -109 -268 0
-269 109 0
-269 268 0
-270 111 269 0
270 -111 0
270 -269 0
271 -113 -270 0
-271 113 0
-271 270 0
-272 103 19 261 262 263 264 265 149 0
272 -103 0
272 -19 0
272 -261 0
272 -262 0
272 -263 0
272 -264 0
272 -265 0
272 -149 0
273 -154 -272 0
-273 154 0
-273 272 0
-274 156 271 273 0
274 -156 0
274 -271 0
274 -273 0
275 -219 -274 0
-275 219 0
-275 274 0
-276 24 275 0
276 -24 0
276 -275 0
277 -23 -276 0
-277 23 0
-277 276 0
278 -223 -274 0
-278 223 0
-278 274 0
279 -225 -274 0
-279 225 0
-279 274 0
-280 27 279 0
280 -27 0
280 -279 0
281 -26 -280 0
-281 26 0
-281 280 0
-282 29 278 281 0
282 -29 0
282 -278 0
282 -281 0
283 -31 -282 0
-283 31 0
-283 282 0
284 -231 -274 0
-284 231 0
-284 274 0
-285 103 216 19 261 262 263 264 265 0
285 -103 0
285 -216 0
285 -19 0
285 -261 0
285 -262 0
285 -263 0
285 -264 0
285 -265 0
286 -105 -285 0
-286 105 0
-286 285 0
-287 107 286 0
287 -107 0
287 -286 0
288 -115 -287 0
-288 115 0
-288 287 0
-289 45 288 0
289 -45 0
289 -288 0
290 -44 -289 0
-290 44 0
-290 289 0
-291 47 284 40 290 0
291 -47 0
291 -284 0
291 -40 0
291 -290 0
292 -49 -291 0
-292 49 0
-292 291 0
293 -217 -156 0
-293 217 0
-293 156 0
-294 103 293 19 261 262 263 264 265 0
294 -103 0
294 -293 0
294 -19 0
294 -261 0
294 -262 0
294 -263 0
294 -264 0
294 -265 0
295 -105 -294 0
-295 105 0
-295 294 0
-296 107 295 0
296 -107 0
296 -295 0
297 -109 -296 0
-297 109 0
-297 296 0
-298 111 297 0
298 -111 0
298 -297 0
299 -123 -298 0
-299 123 0
-299 298 0
300 -125 -287 0
-300 125 0
-300 287 0
-301 66 277 283 32 34 37 292 299 56 300 0
301 -66 0
301 -277 0
301 -283 0
301 -32 0
301 -34 0
301 -37 0
301 -292 0
301 -299 0
301 -56 0
301 -300 0
302 -303 -301 0
-302 303 0
-302 301 0
-304 60 212 259 302 0
304 -60 0
304 -212 0
304 -259 0
304 -302 0
305 -59 -304 0
-305 59 0
-305 304 0
306 -307 -258 0
-306 307 0
-306 258 0
-308 62 305 306 0
308 -62 0
308 -305 0
308 -306 0
309 -310 -308 0
-309 310 0
-309 308 0
-311 312 157 309 0
311 -312 0
311 -157 0
311 -309 0
313 -314 -311 0
-313 314 0
-313 311 0
315 -31 -29 0
-315 31 0
-315 29 0
-316 66 22 315 32 34 37 48 56 63 0
316 -66 0
316 -22 0
316 -315 0
316 -32 0
316 -34 0
316 -37 0
316 -48 0
316 -56 0
316 -63 0
317 -68 -316 0
-317 68 0
-317 316 0
-318 70 317 0
318 -70 0
318 -317 0
319 -72 -318 0
-319 72 0
-319 318 0
-320 66 22 315 32 37 48 56 63 0
320 -66 0
320 -22 0
320 -315 0
320 -32 0
320 -37 0
320 -48 0
320 -56 0
320 -63 0
321 -75 -320 0
-321 75 0
-321 320 0
-322 36 321 0
322 -36 0
322 -321 0
323 -78 -322 0
-323 78 0
-323 322 0
324 -80 -316 0
-324 80 0
-324 316 0
-325 82 324 0
325 -82 0
325 -324 0
326 -84 -325 0
-326 84 0
-326 325 0
-327 66 22 315 32 34 37 86 56 63 0
327 -66 0
327 -22 0
327 -315 0
327 -32 0
327 -34 0
327 -37 0
327 -86 0
327 -56 0
327 -63 0
328 -89 -327 0
-328 89 0
-328 327 0
-329 42 328 0
329 -42 0
329 -328 0
330 -92 -329 0
-330 92 0
-330 329 0
-331 66 22 315 32 34 37 86 63 0
331 -66 0
331 -22 0
331 -315 0
331 -32 0
331 -34 0
331 -37 0
331 -86 0
331 -63 0
332 -89 -331 0
-332 89 0
-332 331 0
-333 42 332 0
333 -42 0
333 -332 0
334 -51 -333 0
-334 51 0
-334 333 0
-335 55 334 52 0
335 -55 0
335 -334 0
335 -52 0
336 -99 -335 0
-336 99 0
-336 335 0
337 -101 -316 0
-337 101 0
-337 316 0
-338 103 19 319 323 326 330 336 337 0
338 -103 0
338 -19 0
338 -319 0
338 -323 0
338 -326 0
338 -330 0
338 -336 0
338 -337 0
339 -105 -338 0
-339 105 0
-339 338 0
-340 107 339 0
340 -107 0
340 -339 0
341 -109 -340 0
-341 109 0
-341 340 0
-342 111 341 0
342 -111 0
342 -341 0
343 -113 -342 0
-343 113 0
-343 342 0
-344 66 22 315 32 34 37 119 122 56 63 124 0
344 -66 0
344 -22 0
344 -315 0
344 -32 0
344 -34 0
344 -37 0
344 -119 0
344 -122 0
344 -56 0
344 -63 0
344 -124 0
345 -68 -344 0
-345 68 0
-345 344 0
-346 70 345 0
346 -70 0
346 -345 0
347 -72 -346 0
-347 72 0
-347 346 0
-348 66 22 315 32 37 119 122 56 63 124 0
348 -66 0
348 -22 0
348 -315 0
348 -32 0
348 -37 0
348 -119 0
348 -122 0
348 -56 0
348 -63 0
348 -124 0
349 -75 -348 0
-349 75 0
-349 348 0
-350 36 349 0
350 -36 0
350 -349 0
351 -78 -350 0
-351 78 0
-351 350 0
352 -80 -344 0
-352 80 0
-352 344 0
-353 82 352 0
353 -82 0
353 -352 0
354 -84 -353 0
-354 84 0
-354 353 0
-355 66 22 315 32 34 37 138 122 56 63 124 0
355 -66 0
355 -22 0
355 -315 0
355 -32 0
355 -34 0
355 -37 0
355 -138 0
355 -122 0
355 -56 0
355 -63 0
355 -124 0
356 -89 -355 0
-356 89 0
-356 355 0
-357 42 356 0
357 -42 0
357 -356 0
358 -92 -357 0
-358 92 0
-358 357 0
-359 66 22 315 32 34 37 138 122 63 124 0
359 -66 0
359 -22 0
359 -315 0
359 -32 0
359 -34 0
359 -37 0
359 -138 0
359 -122 0
359 -63 0
359 -124 0
360 -89 -359 0
-360 89 0
-360 359 0
-361 42 360 0
361 -42 0
361 -360 0
362 -51 -361 0
-362 51 0
-362 361 0
-363 55 362 52 0
363 -55 0
363 -362 0
363 -52 0
364 -99 -363 0
-364 99 0
-364 363 0
365 -101 -344 0
-365 101 0
-365 344 0
-366 103 19 347 351 354 358 364 149 365 0
366 -103 0
366 -19 0
366 -347 0
366 -351 0
366 -354 0
366 -358 0
366 -364 0
366 -149 0
366 -365 0
367 -154 -366 0
-367 154 0
-367 366 0
-368 156 343 367 0
368 -156 0
368 -343 0
368 -367 0
369 -158 -368 0
-369 158 0
-369 368 0
-370 66 22 315 32 34 37 48 56 0
370 -66 0
370 -22 0
370 -315 0
370 -32 0
370 -34 0
370 -37 0
370 -48 0
370 -56 0
371 -68 -370 0
-371 68 0
-371 370 0
-372 70 371 0
372 -70 0
372 -371 0
373 -72 -372 0
-373 72 0
-373 372 0
-374 66 22 315 32 37 48 56 0
374 -66 0
374 -22 0
374 -315 0
374 -32 0
374 -37 0
374 -48 0
374 -56 0
375 -75 -374 0
-375 75 0
-375 374 0
-376 36 375 0
376 -36 0
376 -375 0
377 -78 -376 0
-377 78 0
-377 376 0
378 -80 -370 0
-378 80 0
-378 370 0
-379 82 378 0
379 -82 0
379 -378 0
380 -84 -379 0
-380 84 0
-380 379 0
-381 66 22 315 32 34 37 86 56 0
381 -66 0
381 -22 0
381 -315 0
381 -32 0
381 -34 0
381 -37 0
381 -86 0
381 -56 0
382 -89 -381 0
-382 89 0
-382 381 0
-383 42 382 0
383 -42 0
383 -382 0
384 -92 -383 0
-384 92 0
-384 383 0
-385 66 22 315 32 34 37 86 0
385 -66 0
385 -22 0
385 -315 0
385 -32 0
385 -34 0
385 -37 0
385 -86 0
386 -89 -385 0
-386 89 0
-386 385 0
-387 42 386 0
387 -42 0
387 -386 0
388 -51 -387 0
-388 51 0
-388 387 0
-389 55 388 52 0
389 -55 0
389 -388 0
389 -52 0
390 -99 -389 0
-390 99 0
-390 389 0
391 -101 -370 0
-391 101 0
-391 370 0
-392 103 19 373 377 380 384 390 391 0
392 -103 0
392 -19 0
392 -373 0
392 -377 0
392 -380 0
392 -384 0
392 -390 0
392 -391 0
393 -105 -392 0
-393 105 0
-393 392 0
-394 107 393 0
394 -107 0
394 -393 0
395 -109 -394 0
-395 109 0
-395 394 0
-396 111 395 0
396 -111 0
396 -395 0
397 -113 -396 0
-397 113 0
-397 396 0
-398 66 22 315 32 34 37 119 122 56 124 0
398 -66 0
398 -22 0
398 -315 0
398 -32 0
398 -34 0
398 -37 0
398 -119 0
398 -122 0
398 -56 0
398 -124 0
399 -68 -398 0
-399 68 0
-399 398 0
-400 70 399 0
400 -70 0
400 -399 0
401 -72 -400 0
-401 72 0
-401 400 0
-402 66 22 315 32 37 119 122 56 124 0
402 -66 0
402 -22 0
402 -315 0
402 -32 0
402 -37 0
402 -119 0
402 -122 0
402 -56 0
402 -124 0
403 -75 -402 0
-403 75 0
-403 402 0
-404 36 403 0
404 -36 0
404 -403 0
405 -78 -404 0
-405 78 0
-405 404 0
406 -80 -398 0
-406 80 0
-406 398 0
-407 82 406 0
407 -82 0
407 -406 0
408 -84 -407 0
-408 84 0
-408 407 0
-409 66 22 315 32 34 37 138 122 56 124 0
409 -66 0
409 -22 0
409 -315 0
409 -32 0
409 -34 0
409 -37 0
409 -138 0
409 -122 0
409 -56 0
409 -124 0
410 -89 -409 0
-410 89 0
-410 409 0
-411 42 410 0
411 -42 0
411 -410 0
412 -92 -411 0
-412 92 0
-412 411 0
-413 66 22 315 32 34 37 138 122 124 0
413 -66 0
413 -22 0
413 -315 0
413 -32 0
413 -34 0
413 -37 0
413 -138 0
413 -122 0
413 -124 0
414 -89 -413 0
-414 89 0
-414 413 0
-415 42 414 0
415 -42 0
415 -414 0
416 -51 -415 0
-416 51 0
-416 415 0
-417 55 416 52 0
417 -55 0
417 -416 0
417 -52 0
418 -99 -417 0
-418 99 0
-418 417 0
419 -101 -398 0
-419 101 0
-419 398 0
-420 103 19 401 405 408 412 418 149 419 0
420 -103 0
420 -19 0
420 -401 0
420 -405 0
420 -408 0
420 -412 0
420 -418 0
420 -149 0
420 -419 0
421 -154 -420 0
-421 154 0
-421 420 0
-422 156 397 421 0
422 -156 0
422 -397 0
422 -421 0
423 -213 -422 0
-423 213 0
-423 422 0
-424 29 222 0
424 -29 0
424 -222 0
425 -31 -424 0
-425 31 0
-425 424 0
-426 66 221 425 32 34 37 233 122 56 124 0
426 -66 0
426 -221 0
426 -425 0
426 -32 0
426 -34 0
426 -37 0
426 -233 0
426 -122 0
426 -56 0
426 -124 0
427 -68 -426 0
-427 68 0
-427 426 0
-428 70 427 0
428 -70 0
428 -427 0
429 -72 -428 0
-429 72 0
-429 428 0
-430 66 221 425 32 37 233 122 56 124 0
430 -66 0
430 -221 0
430 -425 0
430 -32 0
430 -37 0
430 -233 0
430 -122 0
430 -56 0
430 -124 0
431 -75 -430 0
-431 75 0
-431 430 0
-432 36 431 0
432 -36 0
432 -431 0
433 -78 -432 0
-433 78 0
-433 432 0
434 -80 -426 0
-434 80 0
-434 426 0
-435 82 434 0
435 -82 0
435 -434 0
436 -84 -435 0
-436 84 0
-436 435 0
-437 66 221 425 32 34 37 246 122 56 124 0
437 -66 0
437 -221 0
437 -425 0
437 -32 0
437 -34 0
437 -37 0
437 -246 0
437 -122 0
437 -56 0
437 -124 0
438 -89 -437 0
-438 89 0
-438 437 0
-439 42 438 0
439 -42 0
439 -438 0
440 -92 -439 0
-440 92 0
-440 439 0
-441 66 221 425 32 34 37 246 122 124 0
441 -66 0
441 -221 0
441 -425 0
441 -32 0
441 -34 0
441 -37 0
441 -246 0
441 -122 0
441 -124 0
442 -89 -441 0
-442 89 0
-442 441 0
-443 42 442 0
443 -42 0
443 -442 0
444 -51 -443 0
-444 51 0
-444 443 0
-445 55 444 52 0
445 -55 0
445 -444 0
445 -52 0
446 -99 -445 0
-446 99 0
-446 445 0
447 -101 -426 0
-447 101 0
-447 426 0
-448 103 216 19 429 433 436 440 446 149 447 0
448 -103 0
448 -216 0
448 -19 0
448 -429 0
448 -433 0
448 -436 0
448 -440 0
448 -446 0
448 -149 0
448 -447 0
449 -260 -448 0
-449 260 0
-449 448 0
-450 29 278 0
450 -29 0
450 -278 0
451 -31 -450 0
-451 31 0
-451 450 0
-452 66 277 451 32 34 37 292 299 56 300 0
452 -66 0
452 -277 0
452 -451 0
452 -32 0
452 -34 0
452 -37 0
452 -292 0
452 -299 0
452 -56 0
452 -300 0
453 -303 -452 0
-453 303 0
-453 452 0
-454 60 423 449 453 0
454 -60 0
454 -423 0
454 -449 0
454 -453 0
455 -59 -454 0
-455 59 0
-455 454 0
456 -307 -448 0
-456 307 0
-456 448 0
-457 62 455 456 0
457 -62 0
457 -455 0
457 -456 0
458 -310 -457 0
-458 310 0
-458 457 0
-459 312 369 458 0
459 -312 0
459 -369 0
459 -458 0
460 -461 -459 0
-460 461 0
-460 459 0
462 -310 -61 0
-462 310 0
-462 61 0
-463 312 462 0
463 -312 0
463 -462 0
464 -465 -463 0
-464 465 0
-464 463 0
-466 29 464 0
466 -29 0
466 -464 0
467 -31 -466 0
-467 31 0
-467 466 0
-468 66 22 467 32 34 37 48 56 63 0
468 -66 0
468 -22 0
468 -467 0
468 -32 0
468 -34 0
468 -37 0
468 -48 0
468 -56 0
468 -63 0
469 -68 -468 0
-469 68 0
-469 468 0
-470 70 469 0
470 -70 0
470 -469 0
471 -72 -470 0
-471 72 0
-471 470 0
-472 66 22 467 32 37 48 56 63 0
472 -66 0
472 -22 0
472 -467 0
472 -32 0
472 -37 0
472 -48 0
472 -56 0
472 -63 0
473 -75 -472 0
-473 75 0
-473 472 0
-474 36 473 0
474 -36 0
474 -473 0
475 -78 -474 0
-475 78 0
-475 474 0
476 -80 -468 0
-476 80 0
-476 468 0
-477 82 476 0
477 -82 0
477 -476 0
478 -84 -477 0
-478 84 0
-478 477 0
-479 66 22 467 32 34 37 86 56 63 0
479 -66 0
479 -22 0
479 -467 0
479 -32 0
479 -34 0
479 -37 0
479 -86 0
479 -56 0
479 -63 0
480 -89 -479 0
-480 89 0
-480 479 0
-481 42 480 0
481 -42 0
481 -480 0
482 -92 -481 0
-482 92 0
-482 481 0
-483 66 22 467 32 34 37 86 63 0
483 -66 0
483 -22 0
483 -467 0
483 -32 0
483 -34 0
483 -37 0
483 -86 0
483 -63 0
484 -89 -483 0
-484 89 0
-484 483 0
-485 42 484 0
485 -42 0
485 -484 0
486 -51 -485 0
-486 51 0
-486 485 0
-487 55 486 52 0
487 -55 0
487 -486 0
487 -52 0
488 -99 -487 0
-488 99 0
-488 487 0
489 -101 -468 0
-489 101 0
-489 468 0
-490 103 19 471 475 478 482 488 489 0
490 -103 0
490 -19 0
490 -471 0
490 -475 0
490 -478 0
490 -482 0
490 -488 0
490 -489 0
491 -105 -490 0
-491 105 0
-491 490 0
-492 107 491 0
492 -107 0
492 -491 0
493 -109 -492 0
-493 109 0
-493 492 0
-494 111 493 0
494 -111 0
494 -493 0
495 -113 -494 0
-495 113 0
-495 494 0
-496 66 22 467 32 34 37 119 122 56 63 124 0
496 -66 0
496 -22 0
496 -467 0
496 -32 0
496 -34 0
496 -37 0
496 -119 0
496 -122 0
496 -56 0
496 -63 0
496 -124 0
497 -68 -496 0
-497 68 0
-497 496 0
-498 70 497 0
498 -70 0
498 -497 0
499 -72 -498 0
-499 72 0
-499 498 0
-500 66 22 467 32 37 119 122 56 63 124 0
500 -66 0
500 -22 0
500 -467 0
500 -32 0
500 -37 0
500 -119 0
500 -122 0
500 -56 0
500 -63 0
500 -124 0
501 -75 -500 0
-501 75 0
-501 500 0
-502 36 501 0
502 -36 0
502 -501 0
503 -78 -502 0
-503 78 0
-503 502 0
504 -80 -496 0
-504 80 0
-504 496 0
-505 82 504 0
505 -82 0
505 -504 0
506 -84 -505 0
-506 84 0
-506 505 0
-507 66 22 467 32 34 37 138 122 56 63 124 0
507 -66 0
507 -22 0
507 -467 0
507 -32 0
507 -34 0
507 -37 0
507 -138 0
507 -122 0
507 -56 0
507 -63 0
507 -124 0
508 -89 -507 0
-508 89 0
-508 507 0
-509 42 508 0
509 -42 0
509 -508 0
510 -92 -509 0
-510 92 0
-510 509 0
-511 66 22 467 32 34 37 138 122 63 124 0
511 -66 0
511 -22 0
511 -467 0
511 -32 0
511 -34 0
511 -37 0
511 -138 0
511 -122 0
511 -63 0
511 -124 0
512 -89 -511 0
-512 89 0
-512 511 0
-513 42 512 0
513 -42 0
513 -512 0
514 -51 -513 0
-514 51 0
-514 513 0
-515 55 514 52 0
515 -55 0
515 -514 0
515 -52 0
516 -99 -515 0
-516 99 0
-516 515 0
517 -101 -496 0
-517 101 0
-517 496 0
-518 103 19 499 503 506 510 516 149 517 0
518 -103 0
518 -19 0
518 -499 0
518 -503 0
518 -506 0
518 -510 0
518 -516 0
518 -149 0
518 -517 0
519 -154 -518 0
-519 154 0
-519 518 0
-520 156 495 519 0
520 -156 0
520 -495 0
520 -519 0
521 -225 -520 0
-521 225 0
-521 520 0
-522 27 460 521 0
522 -27 0
522 -460 0
522 -521 0
523 -524 -522 0
-523 524 0
-523 522 0
-525 526 313 523 0
525 -526 0
525 -313 0
525 -523 0
527 -528 -525 0
-527 528 0
-527 525 0
529 -530 -8 0
-529 530 0
-529 8 0
531 -532 -14 0
-531 532 0
-531 14 0
-533 534 529 531 0
533 -534 0
533 -529 0
533 -531 0
535 -536 -533 0
-535 536 0
-535 533 0
537 -538 -539 0
-537 538 0
-537 539 0
540 -541 -526 0
-540 541 0
-540 526 0
-542 156 540 343 367 0
542 -156 0
542 -540 0
542 -343 0
542 -367 0
543 -158 -542 0
-543 158 0
-543 542 0
-544 156 540 397 421 0
544 -156 0
544 -540 0
544 -397 0
544 -421 0
545 -213 -544 0
-545 213 0
-545 544 0
-546 156 540 214 0
546 -156 0
546 -540 0
546 -214 0
547 -217 -546 0
-547 217 0
-547 546 0
548 -219 -546 0
-548 219 0
-548 546 0
-549 24 548 0
549 -24 0
549 -548 0
550 -23 -549 0
-550 23 0
-550 549 0
551 -223 -546 0
-551 223 0
-551 546 0
-552 29 551 0
552 -29 0
552 -551 0
553 -31 -552 0
-553 31 0
-553 552 0
554 -231 -546 0
-554 231 0
-554 546 0
-555 47 554 40 117 0
555 -47 0
555 -554 0
555 -40 0
555 -117 0
556 -49 -555 0
-556 49 0
-556 555 0
-557 66 550 553 32 34 37 556 122 56 124 0
557 -66 0
557 -550 0
557 -553 0
557 -32 0
557 -34 0
557 -37 0
557 -556 0
557 -122 0
557 -56 0
557 -124 0
558 -68 -557 0
-558 68 0
-558 557 0
-559 70 558 0
559 -70 0
559 -558 0
560 -72 -559 0
-560 72 0
-560 559 0
-561 66 550 553 32 37 556 122 56 124 0
561 -66 0
561 -550 0
561 -553 0
561 -32 0
561 -37 0
561 -556 0
561 -122 0
561 -56 0
561 -124 0
562 -75 -561 0
-562 75 0
-562 561 0
-563 36 562 0
563 -36 0
563 -562 0
564 -78 -563 0
-564 78 0
-564 563 0
565 -80 -557 0
-565 80 0
-565 557 0
-566 82 565 0
566 -82 0
566 -565 0
567 -84 -566 0
-567 84 0
-567 566 0
-568 47 554 117 0
568 -47 0
568 -554 0
568 -117 0
569 -49 -568 0
-569 49 0
-569 568 0
-570 66 550 553 32 34 37 569 122 56 124 0
570 -66 0
570 -550 0
570 -553 0
570 -32 0
570 -34 0
570 -37 0
570 -569 0
570 -122 0
570 -56 0
570 -124 0
571 -89 -570 0
-571 89 0
-571 570 0
-572 42 571 0
572 -42 0
572 -571 0
573 -92 -572 0
-573 92 0
-573 572 0
-574 66 550 553 32 34 37 569 122 124 0
574 -66 0
574 -550 0
574 -553 0
574 -32 0
574 -34 0
574 -37 0
574 -569 0
574 -122 0
574 -124 0
575 -89 -574 0
-575 89 0
-575 574 0
-576 42 575 0
576 -42 0
576 -575 0
577 -51 -576 0
-577 51 0
-577 576 0
-578 55 577 52 0
578 -55 0
578 -577 0
578 -52 0
579 -99 -578 0
-579 99 0
-579 578 0
580 -101 -557 0
-580 101 0
-580 557 0
-581 103 547 19 560 564 567 573 579 149 580 0
581 -103 0
581 -547 0
581 -19 0
581 -560 0
581 -564 0
581 -567 0
581 -573 0
581 -579 0
581 -149 0
581 -580 0
582 -260 -581 0
-582 260 0
-582 581 0
-583 156 540 271 273 0
583 -156 0
583 -540 0
583 -271 0
583 -273 0
584 -219 -583 0
-584 219 0
-584 583 0
-585 24 584 0
585 -24 0
585 -584 0
586 -23 -585 0
-586 23 0
-586 585 0
587 -223 -583 0
-587 223 0
-587 583 0
-588 29 587 0
588 -29 0
588 -587 0
589 -31 -588 0
-589 31 0
-589 588 0
590 -231 -583 0
-590 231 0
-590 583 0
-591 103 547 19 261 262 263 264 265 0
591 -103 0
591 -547 0
591 -19 0
591 -261 0
591 -262 0
591 -263 0
591 -264 0
591 -265 0
592 -105 -591 0
-592 105 0
-592 591 0
-593 107 592 0
593 -107 0
593 -592 0
594 -115 -593 0
-594 115 0
-594 593 0
-595 45 594 0
595 -45 0
595 -594 0
596 -44 -595 0
-596 44 0
-596 595 0
-597 47 590 40 596 0
597 -47 0
597 -590 0
597 -40 0
597 -596 0
598 -49 -597 0
-598 49 0
-598 597 0
-599 156 540 0
599 -156 0
599 -540 0
600 -217 -599 0
-600 217 0
-600 599 0
-601 103 600 19 261 262 263 264 265 0
601 -103 0
601 -600 0
601 -19 0
601 -261 0
601 -262 0
601 -263 0
601 -264 0
601 -265 0
602 -105 -601 0
-602 105 0
-602 601 0
-603 107 602 0
603 -107 0
603 -602 0
604 -109 -603 0
-604 109 0
-604 603 0
-605 111 604 0
605 -111 0
605 -604 0
606 -123 -605 0
-606 123 0
-606 605 0
607 -125 -593 0
-607 125 0
-607 593 0
-608 66 586 589 32 34 37 598 606 56 607 0
608 -66 0
608 -586 0
608 -589 0
608 -32 0
608 -34 0
608 -37 0
608 -598 0
608 -606 0
608 -56 0
608 -607 0
609 -303 -608 0
-609 303 0
-609 608 0
-610 60 545 582 609 0
610 -60 0
610 -545 0
610 -582 0
610 -609 0
611 -59 -610 0
-611 59 0
-611 610 0
612 -307 -581 0
-612 307 0
-612 581 0
-613 62 611 612 0
613 -62 0
613 -611 0
613 -612 0
614 -310 -613 0
-614 310 0
-614 613 0
-615 312 543 614 0
615 -312 0
615 -543 0
615 -614 0
616 -461 -615 0
-616 461 0
-616 615 0
617 -260 -420 0
-617 260 0
-617 420 0
618 -115 -268 0
-618 115 0
-618 268 0
-619 45 618 0
619 -45 0
619 -618 0
620 -44 -619 0
-620 44 0
-620 619 0
-621 47 40 620 0
621 -47 0
621 -40 0
621 -620 0
622 -49 -621 0
-622 49 0
-622 621 0
623 -123 -270 0
-623 123 0
-623 270 0
624 -125 -268 0
-624 125 0
-624 268 0
-625 66 22 315 32 34 37 622 623 56 624 0
625 -66 0
625 -22 0
625 -315 0
625 -32 0
625 -34 0
625 -37 0
625 -622 0
625 -623 0
625 -56 0
625 -624 0
626 -303 -625 0
-626 303 0
-626 625 0
-627 60 617 626 0
627 -60 0
627 -617 0
627 -626 0
628 -59 -627 0
-628 59 0
-628 627 0
629 -307 -420 0
-629 307 0
-629 420 0
-630 62 628 629 0
630 -62 0
630 -628 0
630 -629 0
631 -310 -630 0
-631 310 0
-631 630 0
-632 312 631 0
632 -312 0
632 -631 0
633 -314 -632 0
-633 314 0
-633 632 0
-634 526 633 0
634 -526 0
634 -633 0
635 -541 -634 0
-635 541 0
-635 634 0
-636 156 635 495 519 0
636 -156 0
636 -635 0
636 -495 0
636 -519 0
637 -225 -636 0
-637 225 0
-637 636 0
-638 27 616 637 0
638 -27 0
638 -616 0
638 -637 0
639 -640 -638 0
-639 640 0
-639 638 0
-641 642 639 0
641 -642 0
641 -639 0
643 -644 -641 0
-643 644 0
-643 641 0
645 -524 -27 0
-645 524 0
-645 27 0
-646 526 645 0
646 -526 0
646 -645 0
647 -541 -646 0
-647 541 0
-647 646 0
-648 66 22 32 34 37 48 56 63 0
648 -66 0
648 -22 0
648 -32 0
648 -34 0
648 -37 0
648 -48 0
648 -56 0
648 -63 0
649 -68 -648 0
-649 68 0
-649 648 0
-650 70 649 0
650 -70 0
650 -649 0
651 -72 -650 0
-651 72 0
-651 650 0
-652 66 22 32 37 48 56 63 0
652 -66 0
652 -22 0
652 -32 0
652 -37 0
652 -48 0
652 -56 0
652 -63 0
653 -75 -652 0
-653 75 0
-653 652 0
-654 36 653 0
654 -36 0
654 -653 0
655 -78 -654 0
-655 78 0
-655 654 0
656 -80 -648 0
-656 80 0
-656 648 0
-657 82 656 0
657 -82 0
657 -656 0
658 -84 -657 0
-658 84 0
-658 657 0
-659 66 22 32 34 37 86 56 63 0
659 -66 0
659 -22 0
659 -32 0
659 -34 0
659 -37 0
659 -86 0
659 -56 0
659 -63 0
660 -89 -659 0
-660 89 0
-660 659 0
-661 42 660 0
661 -42 0
661 -660 0
662 -92 -661 0
-662 92 0
-662 661 0
-663 66 22 32 34 37 86 63 0
663 -66 0
663 -22 0
663 -32 0
663 -34 0
663 -37 0
663 -86 0
663 -63 0
664 -89 -663 0
-664 89 0
-664 663 0
-665 42 664 0
665 -42 0
665 -664 0
666 -51 -665 0
-666 51 0
-666 665 0
-667 55 666 52 0
667 -55 0
667 -666 0
667 -52 0
668 -99 -667 0
-668 99 0
-668 667 0
669 -101 -648 0
-669 101 0
-669 648 0
-670 103 19 651 655 658 662 668 669 0
670 -103 0
670 -19 0
670 -651 0
670 -655 0
670 -658 0
670 -662 0
670 -668 0
670 -669 0
671 -105 -670 0
-671 105 0
-671 670 0
-672 107 671 0
672 -107 0
672 -671 0
673 -109 -672 0
-673 109 0
-673 672 0
-674 111 673 0
674 -111 0
674 -673 0
675 -113 -674 0
-675 113 0
-675 674 0
-676 66 22 32 34 37 119 122 56 63 124 0
676 -66 0
676 -22 0
676 -32 0
676 -34 0
676 -37 0
676 -119 0
676 -122 0
676 -56 0
676 -63 0
676 -124 0
677 -68 -676 0
-677 68 0
-677 676 0
-678 70 677 0
678 -70 0
678 -677 0
679 -72 -678 0
-679 72 0
-679 678 0
-680 66 22 32 37 119 122 56 63 124 0
680 -66 0
680 -22 0
680 -32 0
680 -37 0
680 -119 0
680 -122 0
680 -56 0
680 -63 0
680 -124 0
681 -75 -680 0
-681 75 0
-681 680 0
-682 36 681 0
682 -36 0
682 -681 0
683 -78 -682 0
-683 78 0
-683 682 0
684 -80 -676 0
-684 80 0
-684 676 0
-685 82 684 0
685 -82 0
685 -684 0
686 -84 -685 0
-686 84 0
-686 685 0
-687 66 22 32 34 37 138 122 56 63 124 0
687 -66 0
687 -22 0
687 -32 0
687 -34 0
687 -37 0
687 -138 0
687 -122 0
687 -56 0
687 -63 0
687 -124 0
688 -89 -687 0
-688 89 0
-688 687 0
-689 42 688 0
689 -42 0
689 -688 0
690 -92 -689 0
-690 92 0
-690 689 0
-691 66 22 32 34 37 138 122 63 124 0
691 -66 0
691 -22 0
691 -32 0
691 -34 0
691 -37 0
691 -138 0
691 -122 0
691 -63 0
691 -124 0
692 -89 -691 0
-692 89 0
-692 691 0
-693 42 692 0
693 -42 0
693 -692 0
694 -51 -693 0
-694 51 0
-694 693 0
-695 55 694 52 0
695 -55 0
695 -694 0
695 -52 0
696 -99 -695 0
-696 99 0
-696 695 0
697 -101 -676 0
-697 101 0
-697 676 0
-698 103 19 679 683 686 690 696 149 697 0
698 -103 0
698 -19 0
698 -679 0
698 -683 0
698 -686 0
698 -690 0
698 -696 0
698 -149 0
698 -697 0
699 -154 -698 0
-699 154 0
-699 698 0
-700 156 647 675 699 0
700 -156 0
700 -647 0
700 -675 0
700 -699 0
701 -158 -700 0
-701 158 0
-701 700 0
-702 66 22 32 34 37 48 56 0
702 -66 0
702 -22 0
702 -32 0
702 -34 0
702 -37 0
702 -48 0
702 -56 0
703 -68 -702 0
-703 68 0
-703 702 0
-704 70 703 0
704 -70 0
704 -703 0
705 -72 -704 0
-705 72 0
-705 704 0
-706 66 22 32 37 48 56 0
706 -66 0
706 -22 0
706 -32 0
706 -37 0
706 -48 0
706 -56 0
707 -75 -706 0
-707 75 0
-707 706 0
-708 36 707 0
708 -36 0
708 -707 0
709 -78 -708 0
-709 78 0
-709 708 0
710 -80 -702 0
-710 80 0
-710 702 0
-711 82 710 0
711 -82 0
711 -710 0
712 -84 -711 0
-712 84 0
-712 711 0
-713 66 22 32 34 37 86 56 0
713 -66 0
713 -22 0
713 -32 0
713 -34 0
713 -37 0
713 -86 0
713 -56 0
714 -89 -713 0
-714 89 0
-714 713 0
-715 42 714 0
715 -42 0
715 -714 0
716 -92 -715 0
-716 92 0
-716 715 0
-717 66 22 32 34 37 86 0
717 -66 0
717 -22 0
717 -32 0
717 -34 0
717 -37 0
717 -86 0
718 -89 -717 0
-718 89 0
-718 717 0
-719 42 718 0
719 -42 0
719 -718 0
720 -51 -719 0
-720 51 0
-720 719 0
-721 55 720 52 0
721 -55 0
721 -720 0
721 -52 0
722 -99 -721 0
-722 99 0
-722 721 0
723 -101 -702 0
-723 101 0
-723 702 0
-724 103 19 705 709 712 716 722 723 0
724 -103 0
724 -19 0
724 -705 0
724 -709 0
724 -712 0
724 -716 0
724 -722 0
724 -723 0
725 -105 -724 0
-725 105 0
-725 724 0
-726 107 725 0
726 -107 0
726 -725 0
727 -109 -726 0
-727 109 0
-727 726 0
-728 111 727 0
728 -111 0
728 -727 0
729 -113 -728 0
-729 113 0
-729 728 0
-730 66 22 32 34 37 119 122 56 124 0
730 -66 0
730 -22 0
730 -32 0
730 -34 0
730 -37 0
730 -119 0
730 -122 0
730 -56 0
730 -124 0
731 -68 -730 0
-731 68 0
-731 730 0
-732 70 731 0
732 -70 0
732 -731 0
733 -72 -732 0
-733 72 0
-733 732 0
-734 66 22 32 37 119 122 56 124 0
734 -66 0
734 -22 0
734 -32 0
734 -37 0
734 -119 0
734 -122 0
734 -56 0
734 -124 0
735 -75 -734 0
-735 75 0
-735 734 0
-736 36 735 0
736 -36 0
736 -735 0
737 -78 -736 0
-737 78 0
-737 736 0
738 -80 -730 0
-738 80 0
-738 730 0
-739 82 738 0
739 -82 0
739 -738 0
740 -84 -739 0
-740 84 0
-740 739 0
-741 66 22 32 34 37 138 122 56 124 0
741 -66 0
741 -22 0
741 -32 0
741 -34 0
741 -37 0
741 -138 0
741 -122 0
741 -56 0
741 -124 0
742 -89 -741 0
-742 89 0
-742 741 0
-743 42 742 0
743 -42 0
743 -742 0
744 -92 -743 0
-744 92 0
-744 743 0
-745 66 22 32 34 37 138 122 124 0
745 -66 0
745 -22 0
745 -32 0
745 -34 0
745 -37 0
745 -138 0
745 -122 0
745 -124 0
746 -89 -745 0
-746 89 0
-746 745 0
-747 42 746 0
747 -42 0
747 -746 0
748 -51 -747 0
-748 51 0
-748 747 0
-749 55 748 52 0
749 -55 0
749 -748 0
749 -52 0
750 -99 -749 0
-750 99 0
-750 749 0
751 -101 -730 0
-751 101 0
-751 730 0
-752 103 19 733 737 740 744 750 149 751 0
752 -103 0
752 -19 0
752 -733 0
752 -737 0
752 -740 0
752 -744 0
752 -750 0
752 -149 0
752 -751 0
753 -154 -752 0
-753 154 0
-753 752 0
-754 156 647 729 753 0
754 -156 0
754 -647 0
754 -729 0
754 -753 0
755 -213 -754 0
-755 213 0
-755 754 0
-756 156 647 214 0
756 -156 0
756 -647 0
756 -214 0
757 -217 -756 0
-757 217 0
-757 756 0
758 -219 -756 0
-758 219 0
-758 756 0
-759 24 758 0
759 -24 0
759 -758 0
760 -23 -759 0
-760 23 0
-760 759 0
761 -231 -756 0
-761 231 0
-761 756 0
-762 47 761 40 117 0
762 -47 0
762 -761 0
762 -40 0
762 -117 0
763 -49 -762 0
-763 49 0
-763 762 0
-764 66 760 32 34 37 763 122 56 124 0
764 -66 0
764 -760 0
764 -32 0
764 -34 0
764 -37 0
764 -763 0
764 -122 0
764 -56 0
764 -124 0
765 -68 -764 0
-765 68 0
-765 764 0
-766 70 765 0
766 -70 0
766 -765 0
767 -72 -766 0
-767 72 0
-767 766 0
-768 66 760 32 37 763 122 56 124 0
768 -66 0
768 -760 0
768 -32 0
768 -37 0
768 -763 0
768 -122 0
768 -56 0
768 -124 0
769 -75 -768 0
-769 75 0
-769 768 0
-770 36 769 0
770 -36 0
770 -769 0
771 -78 -770 0
-771 78 0
-771 770 0
772 -80 -764 0
-772 80 0
-772 764 0
-773 82 772 0
773 -82 0
773 -772 0
774 -84 -773 0
-774 84 0
-774 773 0
-775 47 761 117 0
775 -47 0
775 -761 0
775 -117 0
776 -49 -775 0
-776 49 0
-776 775 0
-777 66 760 32 34 37 776 122 56 124 0
777 -66 0
777 -760 0
777 -32 0
777 -34 0
777 -37 0
777 -776 0
777 -122 0
777 -56 0
777 -124 0
778 -89 -777 0
-778 89 0
-778 777 0
-779 42 778 0
779 -42 0
779 -778 0
780 -92 -779 0
-780 92 0
-780 779 0
-781 66 760 32 34 37 776 122 124 0
781 -66 0
781 -760 0
781 -32 0
781 -34 0
781 -37 0
781 -776 0
781 -122 0
781 -124 0
782 -89 -781 0
-782 89 0
-782 781 0
-783 42 782 0
783 -42 0
783 -782 0
784 -51 -783 0
-784 51 0
-784 783 0
-785 55 784 52 0
785 -55 0
785 -784 0
785 -52 0
786 -99 -785 0
-786 99 0
-786 785 0
787 -101 -764 0
-787 101 0
-787 764 0
-788 103 757 19 767 771 774 780 786 149 787 0
788 -103 0
788 -757 0
788 -19 0
788 -767 0
788 -771 0
788 -774 0
788 -780 0
788 -786 0
788 -149 0
788 -787 0
789 -260 -788 0
-789 260 0
-789 788 0
-790 156 647 271 273 0
790 -156 0
790 -647 0
790 -271 0
790 -273 0
791 -219 -790 0
-791 219 0
-791 790 0
-792 24 791 0
792 -24 0
792 -791 0
793 -23 -792 0
-793 23 0
-793 792 0
794 -231 -790 0
-794 231 0
-794 790 0
-795 103 757 19 261 262 263 264 265 0
795 -103 0
795 -757 0
795 -19 0
795 -261 0
795 -262 0
795 -263 0
795 -264 0
795 -265 0
796 -105 -795 0
-796 105 0
-796 795 0
-797 107 796 0
797 -107 0
797 -796 0
798 -115 -797 0
-798 115 0
-798 797 0
-799 45 798 0
799 -45 0
799 -798 0
800 -44 -799 0
-800 44 0
-800 799 0
-801 47 794 40 800 0
801 -47 0
801 -794 0
801 -40 0
801 -800 0
802 -49 -801 0
-802 49 0
-802 801 0
-803 156 647 0
803 -156 0
803 -647 0
804 -217 -803 0
-804 217 0
-804 803 0
-805 103 804 19 261 262 263 264 265 0
805 -103 0
805 -804 0
805 -19 0
805 -261 0
805 -262 0
805 -263 0
805 -264 0
805 -265 0
806 -105 -805 0
-806 105 0
-806 805 0
-807 107 806 0
807 -107 0
807 -806 0
808 -109 -807 0
-808 109 0
-808 807 0
-809 111 808 0
809 -111 0
809 -808 0
810 -123 -809 0
-810 123 0
-810 809 0
811 -125 -797 0
-811 125 0
-811 797 0
-812 66 793 32 34 37 802 810 56 811 0
812 -66 0
812 -793 0
812 -32 0
812 -34 0
812 -37 0
812 -802 0
812 -810 0
812 -56 0
812 -811 0
813 -303 -812 0
-813 303 0
-813 812 0
-814 60 755 789 813 0
814 -60 0
814 -755 0
814 -789 0
814 -813 0
815 -59 -814 0
-815 59 0
-815 814 0
816 -307 -788 0
-816 307 0
-816 788 0
-817 62 815 816 0
817 -62 0
817 -815 0
817 -816 0
818 -310 -817 0
-818 310 0
-818 817 0
-819 312 701 818 0
819 -312 0
819 -701 0
819 -818 0
820 -465 -819 0
-820 465 0
-820 819 0
821 -260 -752 0
-821 260 0
-821 752 0
-822 66 22 32 34 37 622 623 56 624 0
822 -66 0
822 -22 0
822 -32 0
822 -34 0
822 -37 0
822 -622 0
822 -623 0
822 -56 0
822 -624 0
823 -303 -822 0
-823 303 0
-823 822 0
-824 60 821 823 0
824 -60 0
824 -821 0
824 -823 0
825 -59 -824 0
-825 59 0
-825 824 0
826 -307 -752 0
-826 307 0
-826 752 0
-827 62 825 826 0
827 -62 0
827 -825 0
827 -826 0
828 -310 -827 0
-828 310 0
-828 827 0
-829 312 828 0
829 -312 0
829 -828 0
830 -314 -829 0
-830 314 0
-830 829 0
831 -461 -829 0
-831 461 0
-831 829 0
-832 27 831 0
832 -27 0
832 -831 0
833 -524 -832 0
-833 524 0
-833 832 0
-834 526 830 833 0
834 -526 0
834 -830 0
834 -833 0
835 -541 -834 0
-835 541 0
-835 834 0
-836 156 835 675 699 0
836 -156 0
836 -835 0
836 -675 0
836 -699 0
837 -223 -836 0
-837 223 0
-837 836 0
-838 156 540 675 699 0
838 -156 0
838 -540 0
838 -675 0
838 -699 0
839 -158 -838 0
-839 158 0
-839 838 0
-840 156 540 729 753 0
840 -156 0
840 -540 0
840 -729 0
840 -753 0
841 -213 -840 0
-841 213 0
-841 840 0
-842 66 550 32 34 37 556 122 56 124 0
842 -66 0
842 -550 0
842 -32 0
842 -34 0
842 -37 0
842 -556 0
842 -122 0
842 -56 0
842 -124 0
843 -68 -842 0
-843 68 0
-843 842 0
-844 70 843 0
844 -70 0
844 -843 0
845 -72 -844 0
-845 72 0
-845 844 0
-846 66 550 32 37 556 122 56 124 0
846 -66 0
846 -550 0
846 -32 0
846 -37 0
846 -556 0
846 -122 0
846 -56 0
846 -124 0
847 -75 -846 0
-847 75 0
-847 846 0
-848 36 847 0
848 -36 0
848 -847 0
849 -78 -848 0
-849 78 0
-849 848 0
850 -80 -842 0
-850 80 0
-850 842 0
-851 82 850 0
851 -82 0
851 -850 0
852 -84 -851 0
-852 84 0
-852 851 0
-853 66 550 32 34 37 569 122 56 124 0
853 -66 0
853 -550 0
853 -32 0
853 -34 0
853 -37 0
853 -569 0
853 -122 0
853 -56 0
853 -124 0
854 -89 -853 0
-854 89 0
-854 853 0
-855 42 854 0
855 -42 0
855 -854 0
856 -92 -855 0
-856 92 0
-856 855 0
-857 66 550 32 34 37 569 122 124 0
857 -66 0
857 -550 0
857 -32 0
857 -34 0
857 -37 0
857 -569 0
857 -122 0
857 -124 0
858 -89 -857 0
-858 89 0
-858 857 0
-859 42 858 0
859 -42 0
859 -858 0
860 -51 -859 0
-860 51 0
-860 859 0
-861 55 860 52 0
861 -55 0
861 -860 0
861 -52 0
862 -99 -861 0
-862 99 0
-862 861 0
863 -101 -842 0
-863 101 0
-863 842 0
-864 103 547 19 845 849 852 856 862 149 863 0
864 -103 0
864 -547 0
864 -19 0
864 -845 0
864 -849 0
864 -852 0
864 -856 0
864 -862 0
864 -149 0
864 -863 0
865 -260 -864 0
-865 260 0
-865 864 0
-866 66 586 32 34 37 598 606 56 607 0
866 -66 0
866 -586 0
866 -32 0
866 -34 0
866 -37 0
866 -598 0
866 -606 0
866 -56 0
866 -607 0
867 -303 -866 0
-867 303 0
-867 866 0
-868 60 841 865 867 0
868 -60 0
868 -841 0
868 -865 0
868 -867 0
869 -59 -868 0
-869 59 0
-869 868 0
870 -307 -864 0
-870 307 0
-870 864 0
-871 62 869 870 0
871 -62 0
871 -869 0
871 -870 0
872 -310 -871 0
-872 310 0
-872 871 0
-873 312 839 872 0
873 -312 0
873 -839 0
873 -872 0
874 -461 -873 0
-874 461 0
-874 873 0
-875 526 830 0
875 -526 0
875 -830 0
876 -541 -875 0
-876 541 0
-876 875 0
-877 156 876 675 699 0
877 -156 0
877 -876 0
877 -675 0
877 -699 0
878 -225 -877 0
-878 225 0
-878 877 0
-879 27 874 878 0
879 -27 0
879 -874 0
879 -878 0
880 -26 -879 0
-880 26 0
-880 879 0
-881 29 820 837 880 0
881 -29 0
881 -820 0
881 -837 0
881 -880 0
882 -883 -881 0
-882 883 0
-882 881 0
-884 156 647 112 153 0
884 -156 0
884 -647 0
884 -112 0
884 -153 0
885 -158 -884 0
-885 158 0
-885 884 0
-886 156 647 186 210 0
886 -156 0
886 -647 0
886 -186 0
886 -210 0
887 -213 -886 0
-887 213 0
-887 886 0
888 -223 -756 0
-888 223 0
-888 756 0
889 -225 -546 0
-889 225 0
-889 546 0
-890 27 889 0
890 -27 0
890 -889 0
891 -26 -890 0
-891 26 0
-891 890 0
-892 29 888 891 0
892 -29 0
892 -888 0
892 -891 0
893 -31 -892 0
-893 31 0
-893 892 0
-894 66 760 893 32 34 37 763 122 56 124 0
894 -66 0
894 -760 0
894 -893 0
894 -32 0
894 -34 0
894 -37 0
894 -763 0
894 -122 0
894 -56 0
894 -124 0
895 -68 -894 0
-895 68 0
-895 894 0
-896 70 895 0
896 -70 0
896 -895 0
897 -72 -896 0
-897 72 0
-897 896 0
-898 66 760 893 32 37 763 122 56 124 0
898 -66 0
898 -760 0
898 -893 0
898 -32 0
898 -37 0
898 -763 0
898 -122 0
898 -56 0
898 -124 0
899 -75 -898 0
-899 75 0
-899 898 0
-900 36 899 0
900 -36 0
900 -899 0
901 -78 -900 0
-901 78 0
-901 900 0
902 -80 -894 0
-902 80 0
-902 894 0
-903 82 902 0
903 -82 0
903 -902 0
904 -84 -903 0
-904 84 0
-904 903 0
-905 66 760 893 32 34 37 776 122 56 124 0
905 -66 0
905 -760 0
905 -893 0
905 -32 0
905 -34 0
905 -37 0
905 -776 0
905 -122 0
905 -56 0
905 -124 0
906 -89 -905 0
-906 89 0
-906 905 0
-907 42 906 0
907 -42 0
907 -906 0
908 -92 -907 0
-908 92 0
-908 907 0
-909 66 760 893 32 34 37 776 122 124 0
909 -66 0
909 -760 0
909 -893 0
909 -32 0
909 -34 0
909 -37 0
909 -776 0
909 -122 0
909 -124 0
910 -89 -909 0
-910 89 0
-910 909 0
-911 42 910 0
911 -42 0
911 -910 0
912 -51 -911 0
-912 51 0
-912 911 0
-913 55 912 52 0
913 -55 0
913 -912 0
913 -52 0
914 -99 -913 0
-914 99 0
-914 913 0
915 -101 -894 0
-915 101 0
-915 894 0
-916 103 757 19 897 901 904 908 914 149 915 0
916 -103 0
916 -757 0
916 -19 0
916 -897 0
916 -901 0
916 -904 0
916 -908 0
916 -914 0
916 -149 0
916 -915 0
917 -260 -916 0
-917 260 0
-917 916 0
918 -223 -790 0
-918 223 0
-918 790 0
919 -225 -583 0
-919 225 0
-919 583 0
-920 27 919 0
920 -27 0
920 -919 0
921 -26 -920 0
-921 26 0
-921 920 0
-922 29 918 921 0
922 -29 0
922 -918 0
922 -921 0
923 -31 -922 0
-923 31 0
-923 922 0
-924 66 793 923 32 34 37 802 810 56 811 0
924 -66 0
924 -793 0
924 -923 0
924 -32 0
924 -34 0
924 -37 0
924 -802 0
924 -810 0
924 -56 0
924 -811 0
925 -303 -924 0
-925 303 0
-925 924 0
-926 60 887 917 925 0
926 -60 0
926 -887 0
926 -917 0
926 -925 0
927 -59 -926 0
-927 59 0
-927 926 0
928 -307 -916 0
-928 307 0
-928 916 0
-929 62 927 928 0
929 -62 0
929 -927 0
929 -928 0
930 -310 -929 0
-930 310 0
-930 929 0
-931 312 885 930 0
931 -312 0
931 -885 0
931 -930 0
932 -933 -931 0
-932 933 0
-932 931 0
-934 935 932 0
934 -935 0
934 -932 0
936 -937 -934 0
-936 937 0
-936 934 0
-938 939 10 15 17 527 535 537 643 882 936 0
938 -939 0
938 -10 0
938 -15 0
938 -17 0
938 -527 0
938 -535 0
938 -537 0
938 -643 0
938 -882 0
938 -936 0
940 -941 -938 0
-940 941 0
-940 938 0
942 -225 -368 0
-942 225 0
-942 368 0
-943 27 942 0
943 -27 0
943 -942 0
944 -524 -943 0
-944 524 0
-944 943 0
-945 526 944 0
945 -526 0
945 -944 0
946 -528 -945 0
-946 528 0
-946 945 0
947 -225 -542 0
-947 225 0
-947 542 0
-948 27 947 0
948 -27 0
948 -947 0
949 -640 -948 0
-949 640 0
-949 948 0
-950 642 949 0
950 -642 0
950 -949 0
951 -644 -950 0
-951 644 0
-951 950 0
952 -223 -700 0
-952 223 0
-952 700 0
953 -225 -838 0
-953 225 0
-953 838 0
-954 27 953 0
954 -27 0
954 -953 0
955 -26 -954 0
-955 26 0
-955 954 0
-956 29 952 955 0
956 -29 0
956 -952 0
956 -955 0
957 -883 -956 0
-957 883 0
-957 956 0
958 -937 -935 0
-958 937 0
-958 935 0
-959 939 10 15 17 946 535 537 951 957 958 0
959 -939 0
959 -10 0
959 -15 0
959 -17 0
959 -946 0
959 -535 0
959 -537 0
959 -951 0
959 -957 0
959 -958 0
960 -961 -959 0
-960 961 0
-960 959 0
962 -528 -646 0
-962 528 0
-962 646 0
963 -640 -27 0
-963 640 0
-963 27 0
-964 642 963 0
964 -642 0
964 -963 0
965 -644 -964 0
-965 644 0
-965 964 0
966 -883 -28 0
-966 883 0
-966 28 0
-967 939 10 15 17 962 535 537 965 966 958 0
967 -939 0
967 -10 0
967 -15 0
967 -17 0
967 -962 0
967 -535 0
967 -537 0
967 -965 0
967 -966 0
967 -958 0
968 -969 -967 0
-968 969 0
-968 967 0
970 -883 -29 0
-970 883 0
-970 29 0
-971 939 10 15 17 535 537 965 970 958 0
971 -939 0
971 -10 0
971 -15 0
971 -17 0
971 -535 0
971 -537 0
971 -965 0
971 -970 0
971 -958 0
972 -973 -971 0
-972 973 0
-972 971 0
-974 27 972 0
974 -27 0
974 -972 0
975 -524 -974 0
-975 524 0
-975 974 0
-976 526 975 0
976 -526 0
976 -975 0
977 -541 -976 0
-977 541 0
-977 976 0
978 -979 -967 0
-978 979 0
-978 967 0
-980 939 10 15 17 962 535 537 965 970 958 0
980 -939 0
980 -10 0
980 -15 0
980 -17 0
980 -962 0
980 -535 0
980 -537 0
980 -965 0
980 -970 0
980 -958 0
981 -973 -980 0
-981 973 0
-981 980 0
-982 27 981 0
982 -27 0
982 -981 0
983 -26 -982 0
-983 26 0
-983 982 0
-984 29 983 0
984 -29 0
984 -983 0
985 -31 -984 0
-985 31 0
-985 984 0
986 -987 -967 0
-986 987 0
-986 967 0
-988 60 986 0
988 -60 0
988 -986 0
989 -59 -988 0
-989 59 0
-989 988 0
-990 62 989 0
990 -62 0
990 -989 0
991 -64 -990 0
-991 64 0
-991 990 0
-992 66 22 985 32 34 37 48 56 991 0
992 -66 0
992 -22 0
992 -985 0
992 -32 0
992 -34 0
992 -37 0
992 -48 0
992 -56 0
992 -991 0
993 -68 -992 0
-993 68 0
-993 992 0
-994 70 993 0
994 -70 0
994 -993 0
995 -72 -994 0
-995 72 0
-995 994 0
-996 66 22 985 32 37 48 56 991 0
996 -66 0
996 -22 0
996 -985 0
996 -32 0
996 -37 0
996 -48 0
996 -56 0
996 -991 0
997 -75 -996 0
-997 75 0
-997 996 0
-998 36 997 0
998 -36 0
998 -997 0
999 -78 -998 0
-999 78 0
-999 998 0
1000 -80 -992 0
-1000 80 0
-1000 992 0
-1001 82 1000 0
1001 -82 0
1001 -1000 0
1002 -84 -1001 0
-1002 84 0
-1002 1001 0
-1003 66 22 985 32 34 37 86 56 991 0
1003 -66 0
1003 -22 0
1003 -985 0
1003 -32 0
1003 -34 0
1003 -37 0
1003 -86 0
1003 -56 0
1003 -991 0
1004 -89 -1003 0
-1004 89 0
-1004 1003 0
-1005 42 1004 0
1005 -42 0
1005 -1004 0
1006 -92 -1005 0
-1006 92 0
-1006 1005 0
-1007 66 22 985 32 34 37 86 991 0
1007 -66 0
1007 -22 0
1007 -985 0
1007 -32 0
1007 -34 0
1007 -37 0
1007 -86 0
1007 -991 0
1008 -89 -1007 0
-1008 89 0
-1008 1007 0
-1009 42 1008 0
1009 -42 0
1009 -1008 0
1010 -51 -1009 0
-1010 51 0
-1010 1009 0
-1011 55 1010 52 0
1011 -55 0
1011 -1010 0
1011 -52 0
1012 -99 -1011 0
-1012 99 0
-1012 1011 0
1013 -101 -992 0
-1013 101 0
-1013 992 0
-1014 103 19 995 999 1002 1006 1012 1013 0
1014 -103 0
1014 -19 0
1014 -995 0
1014 -999 0
1014 -1002 0
1014 -1006 0
1014 -1012 0
1014 -1013 0
1015 -105 -1014 0
-1015 105 0
-1015 1014 0
-1016 107 978 1015 0
1016 -107 0
1016 -978 0
1016 -1015 0
1017 -109 -1016 0
-1017 109 0
-1017 1016 0
-1018 111 1017 0
1018 -111 0
1018 -1017 0
1019 -113 -1018 0
-1019 113 0
-1019 1018 0
-1020 107 978 0
1020 -107 0
1020 -978 0
1021 -115 -1020 0
-1021 115 0
-1021 1020 0
-1022 45 1021 0
1022 -45 0
1022 -1021 0
1023 -44 -1022 0
-1023 44 0
-1023 1022 0
-1024 47 40 1023 0
1024 -47 0
1024 -40 0
1024 -1023 0
1025 -49 -1024 0
-1025 49 0
-1025 1024 0
1026 -109 -1020 0
-1026 109 0
-1026 1020 0
-1027 111 1026 0
1027 -111 0
1027 -1026 0
1028 -123 -1027 0
-1028 123 0
-1028 1027 0
1029 -125 -1020 0
-1029 125 0
-1029 1020 0
-1030 66 22 985 32 34 37 1025 1028 56 991 1029 0
1030 -66 0
1030 -22 0
1030 -985 0
1030 -32 0
1030 -34 0
1030 -37 0
1030 -1025 0
1030 -1028 0
1030 -56 0
1030 -991 0
1030 -1029 0
1031 -68 -1030 0
-1031 68 0
-1031 1030 0
-1032 70 1031 0
1032 -70 0
1032 -1031 0
1033 -72 -1032 0
-1033 72 0
-1033 1032 0
-1034 66 22 985 32 37 1025 1028 56 991 1029 0
1034 -66 0
1034 -22 0
1034 -985 0
1034 -32 0
1034 -37 0
1034 -1025 0
1034 -1028 0
1034 -56 0
1034 -991 0
1034 -1029 0
1035 -75 -1034 0
-1035 75 0
-1035 1034 0
-1036 36 1035 0
1036 -36 0
1036 -1035 0
1037 -78 -1036 0
-1037 78 0
-1037 1036 0
1038 -80 -1030 0
-1038 80 0
-1038 1030 0
-1039 82 1038 0
1039 -82 0
1039 -1038 0
1040 -84 -1039 0
-1040 84 0
-1040 1039 0
-1041 47 1023 0
1041 -47 0
1041 -1023 0
1042 -49 -1041 0
-1042 49 0
-1042 1041 0
-1043 66 22 985 32 34 37 1042 1028 56 991 1029 0
1043 -66 0
1043 -22 0
1043 -985 0
1043 -32 0
1043 -34 0
1043 -37 0
1043 -1042 0
1043 -1028 0
1043 -56 0
1043 -991 0
1043 -1029 0
1044 -89 -1043 0
-1044 89 0
-1044 1043 0
-1045 42 1044 0
1045 -42 0
1045 -1044 0
1046 -92 -1045 0
-1046 92 0
-1046 1045 0
-1047 66 22 985 32 34 37 1042 1028 991 1029 0
1047 -66 0
1047 -22 0
1047 -985 0
1047 -32 0
1047 -34 0
1047 -37 0
1047 -1042 0
1047 -1028 0
1047 -991 0
1047 -1029 0
1048 -89 -1047 0
-1048 89 0
-1048 1047 0
-1049 42 1048 0
1049 -42 0
1049 -1048 0
1050 -51 -1049 0
-1050 51 0
-1050 1049 0
-1051 55 1050 52 0
1051 -55 0
1051 -1050 0
1051 -52 0
1052 -99 -1051 0
-1052 99 0
-1052 1051 0
1053 -150 -1020 0
-1053 150 0
-1053 1020 0
1054 -101 -1030 0
-1054 101 0
-1054 1030 0
-1055 103 19 1033 1037 1040 1046 1052 1053 1054 0
1055 -103 0
1055 -19 0
1055 -1033 0
1055 -1037 0
1055 -1040 0
1055 -1046 0
1055 -1052 0
1055 -1053 0
1055 -1054 0
1056 -154 -1055 0
-1056 154 0
-1056 1055 0
-1057 156 968 977 1019 1056 0
1057 -156 0
1057 -968 0
1057 -977 0
1057 -1019 0
1057 -1056 0
1058 -158 -1057 0
-1058 158 0
-1058 1057 0
1059 -225 -422 0
-1059 225 0
-1059 422 0
-1060 27 1059 0
1060 -27 0
1060 -1059 0
1061 -524 -1060 0
-1061 524 0
-1061 1060 0
-1062 526 1061 0
1062 -526 0
1062 -1061 0
1063 -528 -1062 0
-1063 528 0
-1063 1062 0
1064 -225 -544 0
-1064 225 0
-1064 544 0
-1065 27 1064 0
1065 -27 0
1065 -1064 0
1066 -640 -1065 0
-1066 640 0
-1066 1065 0
-1067 642 1066 0
1067 -642 0
1067 -1066 0
1068 -644 -1067 0
-1068 644 0
-1068 1067 0
1069 -223 -754 0
-1069 223 0
-1069 754 0
1070 -225 -840 0
-1070 225 0
-1070 840 0
-1071 27 1070 0
1071 -27 0
1071 -1070 0
1072 -26 -1071 0
-1072 26 0
-1072 1071 0
-1073 29 1069 1072 0
1073 -29 0
1073 -1069 0
1073 -1072 0
1074 -883 -1073 0
-1074 883 0
-1074 1073 0
-1075 939 10 15 17 1063 535 537 1068 1074 958 0
1075 -939 0
1075 -10 0
1075 -15 0
1075 -17 0
1075 -1063 0
1075 -535 0
1075 -537 0
1075 -1068 0
1075 -1074 0
1075 -958 0
1076 -987 -1075 0
-1076 987 0
-1076 1075 0
-1077 66 22 985 32 34 37 48 56 0
1077 -66 0
1077 -22 0
1077 -985 0
1077 -32 0
1077 -34 0
1077 -37 0
1077 -48 0
1077 -56 0
1078 -68 -1077 0
-1078 68 0
-1078 1077 0
-1079 70 1078 0
1079 -70 0
1079 -1078 0
1080 -72 -1079 0
-1080 72 0
-1080 1079 0
-1081 66 22 985 32 37 48 56 0
1081 -66 0
1081 -22 0
1081 -985 0
1081 -32 0
1081 -37 0
1081 -48 0
1081 -56 0
1082 -75 -1081 0
-1082 75 0
-1082 1081 0
-1083 36 1082 0
1083 -36 0
1083 -1082 0
1084 -78 -1083 0
-1084 78 0
-1084 1083 0
1085 -80 -1077 0
-1085 80 0
-1085 1077 0
-1086 82 1085 0
1086 -82 0
1086 -1085 0
1087 -84 -1086 0
-1087 84 0
-1087 1086 0
-1088 66 22 985 32 34 37 86 56 0
1088 -66 0
1088 -22 0
1088 -985 0
1088 -32 0
1088 -34 0
1088 -37 0
1088 -86 0
1088 -56 0
1089 -89 -1088 0
-1089 89 0
-1089 1088 0
-1090 42 1089 0
1090 -42 0
1090 -1089 0
1091 -92 -1090 0
-1091 92 0
-1091 1090 0
-1092 66 22 985 32 34 37 86 0
1092 -66 0
1092 -22 0
1092 -985 0
1092 -32 0
1092 -34 0
1092 -37 0
1092 -86 0
1093 -89 -1092 0
-1093 89 0
-1093 1092 0
-1094 42 1093 0
1094 -42 0
1094 -1093 0
1095 -51 -1094 0
-1095 51 0
-1095 1094 0
-1096 55 1095 52 0
1096 -55 0
1096 -1095 0
1096 -52 0
1097 -99 -1096 0
-1097 99 0
-1097 1096 0
1098 -101 -1077 0
-1098 101 0
-1098 1077 0
-1099 103 19 1080 1084 1087 1091 1097 1098 0
1099 -103 0
1099 -19 0
1099 -1080 0
1099 -1084 0
1099 -1087 0
1099 -1091 0
1099 -1097 0
1099 -1098 0
1100 -105 -1099 0
-1100 105 0
-1100 1099 0
-1101 107 978 1100 0
1101 -107 0
1101 -978 0
1101 -1100 0
1102 -109 -1101 0
-1102 109 0
-1102 1101 0
-1103 111 1102 0
1103 -111 0
1103 -1102 0
1104 -113 -1103 0
-1104 113 0
-1104 1103 0
-1105 66 22 985 32 34 37 1025 1028 56 1029 0
1105 -66 0
1105 -22 0
1105 -985 0
1105 -32 0
1105 -34 0
1105 -37 0
1105 -1025 0
1105 -1028 0
1105 -56 0
1105 -1029 0
1106 -68 -1105 0
-1106 68 0
-1106 1105 0
-1107 70 1106 0
1107 -70 0
1107 -1106 0
1108 -72 -1107 0
-1108 72 0
-1108 1107 0
-1109 66 22 985 32 37 1025 1028 56 1029 0
1109 -66 0
1109 -22 0
1109 -985 0
1109 -32 0
1109 -37 0
1109 -1025 0
1109 -1028 0
1109 -56 0
1109 -1029 0
1110 -75 -1109 0
-1110 75 0
-1110 1109 0
-1111 36 1110 0
1111 -36 0
1111 -1110 0
1112 -78 -1111 0
-1112 78 0
-1112 1111 0
1113 -80 -1105 0
-1113 80 0
-1113 1105 0
-1114 82 1113 0
1114 -82 0
1114 -1113 0
1115 -84 -1114 0
-1115 84 0
-1115 1114 0
-1116 66 22 985 32 34 37 1042 1028 56 1029 0
1116 -66 0
1116 -22 0
1116 -985 0
1116 -32 0
1116 -34 0
1116 -37 0
1116 -1042 0
1116 -1028 0
1116 -56 0
1116 -1029 0
1117 -89 -1116 0
-1117 89 0
-1117 1116 0
-1118 42 1117 0
1118 -42 0
1118 -1117 0
1119 -92 -1118 0
-1119 92 0
-1119 1118 0
-1120 66 22 985 32 34 37 1042 1028 1029 0
1120 -66 0
1120 -22 0
1120 -985 0
1120 -32 0
1120 -34 0
1120 -37 0
1120 -1042 0
1120 -1028 0
1120 -1029 0
1121 -89 -1120 0
-1121 89 0
-1121 1120 0
-1122 42 1121 0
1122 -42 0
1122 -1121 0
1123 -51 -1122 0
-1123 51 0
-1123 1122 0
-1124 55 1123 52 0
1124 -55 0
1124 -1123 0
1124 -52 0
1125 -99 -1124 0
-1125 99 0
-1125 1124 0
1126 -101 -1105 0
-1126 101 0
-1126 1105 0
-1127 103 19 1108 1112 1115 1119 1125 1053 1126 0
1127 -103 0
1127 -19 0
1127 -1108 0
1127 -1112 0
1127 -1115 0
1127 -1119 0
1127 -1125 0
1127 -1053 0
1127 -1126 0
1128 -154 -1127 0
-1128 154 0
-1128 1127 0
-1129 156 968 977 1104 1128 0
1129 -156 0
1129 -968 0
1129 -977 0
1129 -1104 0
1129 -1128 0
1130 -213 -1129 0
-1130 213 0
-1130 1129 0
1131 -113 -1027 0
-1131 113 0
-1131 1027 0
-1132 156 968 977 1131 0
1132 -156 0
1132 -968 0
1132 -977 0
1132 -1131 0
1133 -217 -1132 0
-1133 217 0
-1133 1132 0
1134 -219 -1132 0
-1134 219 0
-1134 1132 0
-1135 24 1134 0
1135 -24 0
1135 -1134 0
1136 -23 -1135 0
-1136 23 0
-1136 1135 0
1137 -223 -1132 0
-1137 223 0
-1137 1132 0
1138 -528 -526 0
-1138 528 0
-1138 526 0
1139 -644 -642 0
-1139 644 0
-1139 642 0
-1140 939 10 15 17 1138 535 537 1139 958 0
1140 -939 0
1140 -10 0
1140 -15 0
1140 -17 0
1140 -1138 0
1140 -535 0
1140 -537 0
1140 -1139 0
1140 -958 0
1141 -973 -1140 0
-1141 973 0
-1141 1140 0
1142 -969 -980 0
-1142 969 0
-1142 980 0
1143 -979 -980 0
-1143 979 0
-1143 980 0
-1144 107 1143 0
1144 -107 0
1144 -1143 0
1145 -109 -1144 0
-1145 109 0
-1145 1144 0
-1146 111 1145 0
1146 -111 0
1146 -1145 0
1147 -113 -1146 0
-1147 113 0
-1147 1146 0
-1148 156 1142 540 1147 0
1148 -156 0
1148 -1142 0
1148 -540 0
1148 -1147 0
1149 -225 -1148 0
-1149 225 0
-1149 1148 0
-1150 27 1141 1149 0
1150 -27 0
1150 -1141 0
1150 -1149 0
1151 -26 -1150 0
-1151 26 0
-1151 1150 0
-1152 29 1137 1151 0
1152 -29 0
1152 -1137 0
1152 -1151 0
1153 -31 -1152 0
-1153 31 0
-1153 1152 0
1154 -231 -1132 0
-1154 231 0
-1154 1132 0
1155 -524 -226 0
-1155 524 0
-1155 226 0
-1156 526 1155 0
1156 -526 0
1156 -1155 0
1157 -528 -1156 0
-1157 528 0
-1157 1156 0
1158 -640 -890 0
-1158 640 0
-1158 890 0
-1159 642 1158 0
1159 -642 0
1159 -1158 0
1160 -644 -1159 0
-1160 644 0
-1160 1159 0
1161 -883 -892 0
-1161 883 0
-1161 892 0
-1162 939 10 15 17 1157 535 537 1160 1161 958 0
1162 -939 0
1162 -10 0
1162 -15 0
1162 -17 0
1162 -1157 0
1162 -535 0
1162 -537 0
1162 -1160 0
1162 -1161 0
1162 -958 0
1163 -979 -1162 0
-1163 979 0
-1163 1162 0
-1164 107 1163 0
1164 -107 0
1164 -1163 0
1165 -115 -1164 0
-1165 115 0
-1165 1164 0
-1166 45 1165 0
1166 -45 0
1166 -1165 0
1167 -44 -1166 0
-1167 44 0
-1167 1166 0
-1168 47 1154 40 1167 0
1168 -47 0
1168 -1154 0
1168 -40 0
1168 -1167 0
1169 -49 -1168 0
-1169 49 0
-1169 1168 0
1170 -225 -156 0
-1170 225 0
-1170 156 0
-1171 27 1170 0
1171 -27 0
1171 -1170 0
1172 -524 -1171 0
-1172 524 0
-1172 1171 0
-1173 526 1172 0
1173 -526 0
1173 -1172 0
1174 -528 -1173 0
-1174 528 0
-1174 1173 0
1175 -225 -599 0
-1175 225 0
-1175 599 0
-1176 27 1175 0
1176 -27 0
1176 -1175 0
1177 -640 -1176 0
-1177 640 0
-1177 1176 0
-1178 642 1177 0
1178 -642 0
1178 -1177 0
1179 -644 -1178 0
-1179 644 0
-1179 1178 0
1180 -223 -803 0
-1180 223 0
-1180 803 0
1181 -26 -1176 0
-1181 26 0
-1181 1176 0
-1182 29 1180 1181 0
1182 -29 0
1182 -1180 0
1182 -1181 0
1183 -883 -1182 0
-1183 883 0
-1183 1182 0
-1184 939 10 15 17 1174 535 537 1179 1183 958 0
1184 -939 0
1184 -10 0
1184 -15 0
1184 -17 0
1184 -1174 0
1184 -535 0
1184 -537 0
1184 -1179 0
1184 -1183 0
1184 -958 0
1185 -979 -1184 0
-1185 979 0
-1185 1184 0
-1186 107 1185 0
1186 -107 0
1186 -1185 0
1187 -109 -1186 0
-1187 109 0
-1187 1186 0
-1188 111 1187 0
1188 -111 0
1188 -1187 0
1189 -123 -1188 0
-1189 123 0
-1189 1188 0
1190 -125 -1164 0
-1190 125 0
-1190 1164 0
-1191 66 1136 1153 32 34 37 1169 1189 56 1190 0
1191 -66 0
1191 -1136 0
1191 -1153 0
1191 -32 0
1191 -34 0
1191 -37 0
1191 -1169 0
1191 -1189 0
1191 -56 0
1191 -1190 0
1192 -68 -1191 0
-1192 68 0
-1192 1191 0
-1193 70 1192 0
1193 -70 0
1193 -1192 0
1194 -72 -1193 0
-1194 72 0
-1194 1193 0
-1195 66 1136 1153 32 37 1169 1189 56 1190 0
1195 -66 0
1195 -1136 0
1195 -1153 0
1195 -32 0
1195 -37 0
1195 -1169 0
1195 -1189 0
1195 -56 0
1195 -1190 0
1196 -75 -1195 0
-1196 75 0
-1196 1195 0
-1197 36 1196 0
1197 -36 0
1197 -1196 0
1198 -78 -1197 0
-1198 78 0
-1198 1197 0
1199 -80 -1191 0
-1199 80 0
-1199 1191 0
-1200 82 1199 0
1200 -82 0
1200 -1199 0
1201 -84 -1200 0
-1201 84 0
-1201 1200 0
-1202 47 1154 1167 0
1202 -47 0
1202 -1154 0
1202 -1167 0
1203 -49 -1202 0
-1203 49 0
-1203 1202 0
-1204 66 1136 1153 32 34 37 1203 1189 56 1190 0
1204 -66 0
1204 -1136 0
1204 -1153 0
1204 -32 0
1204 -34 0
1204 -37 0
1204 -1203 0
1204 -1189 0
1204 -56 0
1204 -1190 0
1205 -89 -1204 0
-1205 89 0
-1205 1204 0
-1206 42 1205 0
1206 -42 0
1206 -1205 0
1207 -92 -1206 0
-1207 92 0
-1207 1206 0
-1208 66 1136 1153 32 34 37 1203 1189 1190 0
1208 -66 0
1208 -1136 0
1208 -1153 0
1208 -32 0
1208 -34 0
1208 -37 0
1208 -1203 0
1208 -1189 0
1208 -1190 0
1209 -89 -1208 0
-1209 89 0
-1209 1208 0
-1210 42 1209 0
1210 -42 0
1210 -1209 0
1211 -51 -1210 0
-1211 51 0
-1211 1210 0
-1212 55 1211 52 0
1212 -55 0
1212 -1211 0
1212 -52 0
1213 -99 -1212 0
-1213 99 0
-1213 1212 0
1214 -150 -1164 0
-1214 150 0
-1214 1164 0
1215 -101 -1191 0
-1215 101 0
-1215 1191 0
-1216 103 1133 19 1194 1198 1201 1207 1213 1214 1215 0
1216 -103 0
1216 -1133 0
1216 -19 0
1216 -1194 0
1216 -1198 0
1216 -1201 0
1216 -1207 0
1216 -1213 0
1216 -1214 0
1216 -1215 0
1217 -260 -1216 0
-1217 260 0
-1217 1216 0
-1218 107 978 267 0
1218 -107 0
1218 -978 0
1218 -267 0
1219 -109 -1218 0
-1219 109 0
-1219 1218 0
-1220 111 1219 0
1220 -111 0
1220 -1219 0
1221 -113 -1220 0
-1221 113 0
-1221 1220 0
-1222 103 19 261 262 263 264 265 1053 0
1222 -103 0
1222 -19 0
1222 -261 0
1222 -262 0
1222 -263 0
1222 -264 0
1222 -265 0
1222 -1053 0
1223 -154 -1222 0
-1223 154 0
-1223 1222 0
-1224 156 968 977 1221 1223 0
1224 -156 0
1224 -968 0
1224 -977 0
1224 -1221 0
1224 -1223 0
1225 -219 -1224 0
-1225 219 0
-1225 1224 0
-1226 24 1225 0
1226 -24 0
1226 -1225 0
1227 -23 -1226 0
-1227 23 0
-1227 1226 0
1228 -223 -1224 0
-1228 223 0
-1228 1224 0
-1229 107 1143 267 0
1229 -107 0
1229 -1143 0
1229 -267 0
1230 -109 -1229 0
-1230 109 0
-1230 1229 0
-1231 111 1230 0
1231 -111 0
1231 -1230 0
1232 -113 -1231 0
-1232 113 0
-1232 1231 0
1233 -150 -1144 0
-1233 150 0
-1233 1144 0
-1234 103 19 261 262 263 264 265 1233 0
1234 -103 0
1234 -19 0
1234 -261 0
1234 -262 0
1234 -263 0
1234 -264 0
1234 -265 0
1234 -1233 0
1235 -154 -1234 0
-1235 154 0
-1235 1234 0
-1236 156 1142 540 1232 1235 0
1236 -156 0
1236 -1142 0
1236 -540 0
1236 -1232 0
1236 -1235 0
1237 -225 -1236 0
-1237 225 0
-1237 1236 0
-1238 27 1141 1237 0
1238 -27 0
1238 -1141 0
1238 -1237 0
1239 -26 -1238 0
-1239 26 0
-1239 1238 0
-1240 29 1228 1239 0
1240 -29 0
1240 -1228 0
1240 -1239 0
1241 -31 -1240 0
-1241 31 0
-1241 1240 0
1242 -231 -1224 0
-1242 231 0
-1242 1224 0
1243 -154 -266 0
-1243 154 0
-1243 266 0
-1244 156 271 1243 0
1244 -156 0
1244 -271 0
1244 -1243 0
1245 -225 -1244 0
-1245 225 0
-1245 1244 0
-1246 27 1245 0
1246 -27 0
1246 -1245 0
1247 -524 -1246 0
-1247 524 0
-1247 1246 0
-1248 526 1247 0
1248 -526 0
1248 -1247 0
1249 -528 -1248 0
-1249 528 0
-1249 1248 0
-1250 156 540 271 1243 0
1250 -156 0
1250 -540 0
1250 -271 0
1250 -1243 0
1251 -225 -1250 0
-1251 225 0
-1251 1250 0
-1252 27 1251 0
1252 -27 0
1252 -1251 0
1253 -640 -1252 0
-1253 640 0
-1253 1252 0
-1254 642 1253 0
1254 -642 0
1254 -1253 0
1255 -644 -1254 0
-1255 644 0
-1255 1254 0
-1256 156 647 271 1243 0
1256 -156 0
1256 -647 0
1256 -271 0
1256 -1243 0
1257 -223 -1256 0
-1257 223 0
-1257 1256 0
1258 -26 -1252 0
-1258 26 0
-1258 1252 0
-1259 29 1257 1258 0
1259 -29 0
1259 -1257 0
1259 -1258 0
1260 -883 -1259 0
-1260 883 0
-1260 1259 0
-1261 939 10 15 17 1249 535 537 1255 1260 958 0
1261 -939 0
1261 -10 0
1261 -15 0
1261 -17 0
1261 -1249 0
1261 -535 0
1261 -537 0
1261 -1255 0
1261 -1260 0
1261 -958 0
1262 -979 -1261 0
-1262 979 0
-1262 1261 0
1263 -113 -111 0
-1263 113 0
-1263 111 0
-1264 156 968 977 1263 0
1264 -156 0
1264 -968 0
1264 -977 0
1264 -1263 0
1265 -217 -1264 0
-1265 217 0
-1265 1264 0
-1266 103 1265 19 261 262 263 264 265 0
1266 -103 0
1266 -1265 0
1266 -19 0
1266 -261 0
1266 -262 0
1266 -263 0
1266 -264 0
1266 -265 0
1267 -105 -1266 0
-1267 105 0
-1267 1266 0
-1268 107 1262 1267 0
1268 -107 0
1268 -1262 0
1268 -1267 0
1269 -115 -1268 0
-1269 115 0
-1269 1268 0
-1270 45 1269 0
1270 -45 0
1270 -1269 0
1271 -44 -1270 0
-1271 44 0
-1271 1270 0
-1272 47 1242 40 1271 0
1272 -47 0
1272 -1242 0
1272 -40 0
1272 -1271 0
1273 -49 -1272 0
-1273 49 0
-1273 1272 0
-1274 156 1243 0
1274 -156 0
1274 -1243 0
1275 -225 -1274 0
-1275 225 0
-1275 1274 0
-1276 27 1275 0
1276 -27 0
1276 -1275 0
1277 -524 -1276 0
-1277 524 0
-1277 1276 0
-1278 526 1277 0
1278 -526 0
1278 -1277 0
1279 -528 -1278 0
-1279 528 0
-1279 1278 0
-1280 156 540 1243 0
1280 -156 0
1280 -540 0
1280 -1243 0
1281 -225 -1280 0
-1281 225 0
-1281 1280 0
-1282 27 1281 0
1282 -27 0
1282 -1281 0
1283 -640 -1282 0
-1283 640 0
-1283 1282 0
-1284 642 1283 0
1284 -642 0
1284 -1283 0
1285 -644 -1284 0
-1285 644 0
-1285 1284 0
-1286 156 647 1243 0
1286 -156 0
1286 -647 0
1286 -1243 0
1287 -223 -1286 0
-1287 223 0
-1287 1286 0
1288 -26 -1282 0
-1288 26 0
-1288 1282 0
-1289 29 1287 1288 0
1289 -29 0
1289 -1287 0
1289 -1288 0
1290 -883 -1289 0
-1290 883 0
-1290 1289 0
-1291 939 10 15 17 1279 535 537 1285 1290 958 0
1291 -939 0
1291 -10 0
1291 -15 0
1291 -17 0
1291 -1279 0
1291 -535 0
1291 -537 0
1291 -1285 0
1291 -1290 0
1291 -958 0
1292 -979 -1291 0
-1292 979 0
-1292 1291 0
-1293 156 968 977 0
1293 -156 0
1293 -968 0
1293 -977 0
1294 -217 -1293 0
-1294 217 0
-1294 1293 0
-1295 103 1294 19 261 262 263 264 265 0
1295 -103 0
1295 -1294 0
1295 -19 0
1295 -261 0
1295 -262 0
1295 -263 0
1295 -264 0
1295 -265 0
1296 -105 -1295 0
-1296 105 0
-1296 1295 0
-1297 107 1292 1296 0
1297 -107 0
1297 -1292 0
1297 -1296 0
1298 -109 -1297 0
-1298 109 0
-1298 1297 0
-1299 111 1298 0
1299 -111 0
1299 -1298 0
1300 -123 -1299 0
-1300 123 0
-1300 1299 0
1301 -125 -1268 0
-1301 125 0
-1301 1268 0
-1302 66 1227 1241 32 34 37 1273 1300 56 1301 0
1302 -66 0
1302 -1227 0
1302 -1241 0
1302 -32 0
1302 -34 0
1302 -37 0
1302 -1273 0
1302 -1300 0
1302 -56 0
1302 -1301 0
1303 -303 -1302 0
-1303 303 0
-1303 1302 0
-1304 60 1076 1130 1217 1303 0
1304 -60 0
1304 -1076 0
1304 -1130 0
1304 -1217 0
1304 -1303 0
1305 -59 -1304 0
-1305 59 0
-1305 1304 0
1306 -307 -1216 0
-1306 307 0
-1306 1216 0
-1307 62 1305 1306 0
1307 -62 0
1307 -1305 0
1307 -1306 0
1308 -310 -1307 0
-1308 310 0
-1308 1307 0
-1309 312 960 1058 1308 0
1309 -312 0
1309 -960 0
1309 -1058 0
1309 -1308 0
1310 -1311 -1309 0
-1310 1311 0
-1310 1309 0
-1312 1313 940 1310 0
1312 -1313 0
1312 -940 0
1312 -1310 0
1314 -1312 -1315 0
-1314 1312 0
-1314 1315 0
1314 0
