c BC-S1.2
p cnf 373 1139
1 -2 -3 0
-1 2 0
-1 3 0
4 -5 -6 0
-4 5 0
-4 6 0
-7 8 1 4 0
7 -8 0
7 -1 0
7 -4 0
9 -10 -7 0
-9 10 0
-9 7 0
-11 12 9 0
11 -12 0
11 -9 0
13 -14 -11 0
-13 14 0
-13 11 0
15 -16 -7 0
-15 16 0
-15 7 0
-17 18 15 0
17 -18 0
17 -15 0
19 -20 -17 0
-19 20 0
-19 17 0
21 -22 -3 0
-21 22 0
-21 3 0
-23 24 21 0
23 -24 0
23 -21 0
25 -26 -23 0
-25 26 0
-25 23 0
27 -28 -7 0
-27 28 0
-27 7 0
29 -30 -11 0
-29 30 0
-29 11 0
-31 32 27 29 0
31 -32 0
31 -27 0
31 -29 0
33 -34 -31 0
-33 34 0
-33 31 0
-35 36 13 19 25 33 0
35 -36 0
35 -13 0
35 -19 0
35 -25 0
35 -33 0
37 -38 -35 0
-37 38 0
-37 35 0
39 -40 -41 0
-39 40 0
-39 41 0
42 -43 -6 0
-42 43 0
-42 6 0
-44 45 37 39 42 0
44 -45 0
44 -37 0
44 -39 0
44 -42 0
46 -47 -44 0
-46 47 0
-46 44 0
48 -14 -12 0
-48 14 0
-48 12 0
49 -30 -12 0
-49 30 0
-49 12 0
-50 32 27 49 0
50 -32 0
50 -27 0
50 -49 0
51 -34 -50 0
-51 34 0
-51 50 0
-52 36 48 19 25 51 0
52 -36 0
52 -48 0
52 -19 0
52 -25 0
52 -51 0
53 -38 -52 0
-53 38 0
-53 52 0
-54 45 53 39 42 0
54 -45 0
54 -53 0
54 -39 0
54 -42 0
55 -56 -54 0
-55 56 0
-55 54 0
-57 8 55 1 4 0
57 -8 0
57 -55 0
57 -1 0
57 -4 0
58 -59 -57 0
-58 59 0
-58 57 0
60 -61 -41 0
-60 61 0
-60 41 0
-62 63 60 0
62 -63 0
62 -60 0
64 -65 -62 0
-64 65 0
-64 62 0
66 -67 -6 0
-66 67 0
-66 6 0
-68 69 46 58 64 66 0
68 -69 0
68 -46 0
68 -58 0
68 -64 0
68 -66 0
70 -71 -68 0
-70 71 0
-70 68 0
-72 69 64 66 0
72 -69 0
72 -64 0
72 -66 0
73 -74 -72 0
-73 74 0
-73 72 0
-75 18 73 0
75 -18 0
75 -73 0
76 -20 -75 0
-76 20 0
-76 75 0
77 -78 -72 0
-77 78 0
-77 72 0
-79 3 77 0
79 -3 0
79 -77 0
80 -22 -79 0
-80 22 0
-80 79 0
-81 24 80 0
81 -24 0
81 -80 0
82 -26 -81 0
-82 26 0
-82 81 0
-83 32 49 0
83 -32 0
83 -49 0
84 -34 -83 0
-84 34 0
-84 83 0
-85 36 48 76 82 84 0
85 -36 0
85 -48 0
85 -76 0
85 -82 0
85 -84 0
86 -38 -85 0
-86 38 0
-86 85 0
-87 45 86 39 42 0
87 -45 0
87 -86 0
87 -39 0
87 -42 0
88 -56 -87 0
-88 56 0
-88 87 0
89 -20 -18 0
-89 20 0
-89 18 0
-90 36 48 89 25 84 0
90 -36 0
90 -48 0
90 -89 0
90 -25 0
90 -84 0
91 -38 -90 0
-91 38 0
-91 90 0
-92 45 91 39 42 0
92 -45 0
92 -91 0
92 -39 0
92 -42 0
93 -47 -92 0
-93 47 0
-93 92 0
-94 69 93 64 66 0
94 -69 0
94 -93 0
94 -64 0
94 -66 0
95 -78 -94 0
-95 78 0
-95 94 0
-96 3 95 0
96 -3 0
96 -95 0
97 -2 -96 0
-97 2 0
-97 96 0
-98 8 88 97 4 0
98 -8 0
98 -88 0
98 -97 0
98 -4 0
99 -100 -98 0
-99 100 0
-99 98 0
-101 102 70 99 0
101 -102 0
101 -70 0
101 -99 0
103 -104 -101 0
-103 104 0
-103 101 0
105 -106 -41 0
-105 106 0
-105 41 0
-107 8 4 0
107 -8 0
107 -4 0
108 -10 -107 0
-108 10 0
-108 107 0
-109 12 108 0
109 -12 0
109 -108 0
110 -14 -109 0
-110 14 0
-110 109 0
111 -16 -107 0
-111 16 0
-111 107 0
-112 18 111 0
112 -18 0
112 -111 0
113 -20 -112 0
-113 20 0
-113 112 0
114 -28 -107 0
-114 28 0
-114 107 0
115 -30 -109 0
-115 30 0
-115 109 0
-116 32 114 115 0
116 -32 0
116 -114 0
116 -115 0
117 -34 -116 0
-117 34 0
-117 116 0
-118 36 110 113 25 117 0
118 -36 0
118 -110 0
118 -113 0
118 -25 0
118 -117 0
119 -38 -118 0
-119 38 0
-119 118 0
-120 45 119 39 42 0
120 -45 0
120 -119 0
120 -39 0
120 -42 0
121 -47 -120 0
-121 47 0
-121 120 0
122 -56 -92 0
-122 56 0
-122 92 0
-123 8 122 4 0
123 -8 0
123 -122 0
123 -4 0
124 -59 -123 0
-124 59 0
-124 123 0
-125 69 121 124 64 66 0
125 -69 0
125 -121 0
125 -124 0
125 -64 0
125 -66 0
126 -78 -125 0
-126 78 0
-126 125 0
-127 3 126 0
127 -3 0
127 -126 0
128 -129 -127 0
-128 129 0
-128 127 0
-130 8 122 1 4 0
130 -8 0
130 -122 0
130 -1 0
130 -4 0
131 -59 -130 0
-131 59 0
-131 130 0
-132 69 46 131 64 66 0
132 -69 0
132 -46 0
132 -131 0
132 -64 0
132 -66 0
133 -134 -132 0
-133 134 0
-133 132 0
-135 136 133 0
135 -136 0
135 -133 0
137 -138 -135 0
-137 138 0
-137 135 0
139 -71 -132 0
-139 71 0
-139 132 0
-140 102 139 99 0
140 -102 0
140 -139 0
140 -99 0
141 -142 -140 0
-141 142 0
-141 140 0
-143 144 141 0
143 -144 0
143 -141 0
145 -146 -143 0
-145 146 0
-145 143 0
-147 148 103 105 128 137 145 0
147 -148 0
147 -103 0
147 -105 0
147 -128 0
147 -137 0
147 -145 0
149 -150 -147 0
-149 150 0
-149 147 0
-151 45 39 42 0
151 -45 0
151 -39 0
151 -42 0
152 -56 -151 0
-152 56 0
-152 151 0
153 -47 -151 0
-153 47 0
-153 151 0
-154 69 153 64 66 0
154 -69 0
154 -153 0
154 -64 0
154 -66 0
155 -78 -154 0
-155 78 0
-155 154 0
-156 3 155 0
156 -3 0
156 -155 0
157 -2 -156 0
-157 2 0
-157 156 0
-158 8 152 157 4 0
158 -8 0
158 -152 0
158 -157 0
158 -4 0
159 -10 -158 0
-159 10 0
-159 158 0
-160 12 159 0
160 -12 0
160 -159 0
161 -14 -160 0
-161 14 0
-161 160 0
-162 8 152 1 4 0
162 -8 0
162 -152 0
162 -1 0
162 -4 0
163 -59 -162 0
-163 59 0
-163 162 0
-164 69 153 163 64 66 0
164 -69 0
164 -153 0
164 -163 0
164 -64 0
164 -66 0
165 -74 -164 0
-165 74 0
-165 164 0
166 -16 -158 0
-166 16 0
-166 158 0
-167 18 165 166 0
167 -18 0
167 -165 0
167 -166 0
168 -20 -167 0
-168 20 0
-168 167 0
169 -71 -164 0
-169 71 0
-169 164 0
170 -100 -158 0
-170 100 0
-170 158 0
-171 102 169 170 0
171 -102 0
171 -169 0
171 -170 0
172 -104 -171 0
-172 104 0
-172 171 0
-173 8 152 4 0
173 -8 0
173 -152 0
173 -4 0
174 -59 -173 0
-174 59 0
-174 173 0
-175 69 153 174 64 66 0
175 -69 0
175 -153 0
175 -174 0
175 -64 0
175 -66 0
176 -78 -175 0
-176 78 0
-176 175 0
-177 3 176 0
177 -3 0
177 -176 0
178 -129 -177 0
-178 129 0
-178 177 0
179 -134 -164 0
-179 134 0
-179 164 0
-180 136 179 0
180 -136 0
180 -179 0
181 -138 -180 0
-181 138 0
-181 180 0
182 -142 -171 0
-182 142 0
-182 171 0
-183 144 182 0
183 -144 0
183 -182 0
184 -146 -183 0
-184 146 0
-184 183 0
-185 148 172 105 178 181 184 0
185 -148 0
185 -172 0
185 -105 0
185 -178 0
185 -181 0
185 -184 0
186 -187 -185 0
-186 187 0
-186 185 0
188 -22 -177 0
-188 22 0
-188 177 0
-189 24 186 188 0
189 -24 0
189 -186 0
189 -188 0
190 -26 -189 0
-190 26 0
-190 189 0
191 -28 -158 0
-191 28 0
-191 158 0
192 -30 -160 0
-192 30 0
-192 160 0
-193 32 191 192 0
193 -32 0
193 -191 0
193 -192 0
194 -34 -193 0
-194 34 0
-194 193 0
-195 36 161 168 190 194 0
195 -36 0
195 -161 0
195 -168 0
195 -190 0
195 -194 0
196 -197 -195 0
-196 197 0
-196 195 0
198 -129 -3 0
-198 129 0
-198 3 0
199 -138 -136 0
-199 138 0
-199 136 0
200 -146 -144 0
-200 146 0
-200 144 0
-201 148 105 198 199 200 0
201 -148 0
201 -105 0
201 -198 0
201 -199 0
201 -200 0
202 -187 -201 0
-202 187 0
-202 201 0
-203 24 202 21 0
203 -24 0
203 -202 0
203 -21 0
204 -26 -203 0
-204 26 0
-204 203 0
-205 36 13 19 204 33 0
205 -36 0
205 -13 0
205 -19 0
205 -204 0
205 -33 0
206 -38 -205 0
-206 38 0
-206 205 0
-207 45 206 39 42 0
207 -45 0
207 -206 0
207 -39 0
207 -42 0
208 -47 -207 0
-208 47 0
-208 207 0
-209 36 48 19 204 51 0
209 -36 0
209 -48 0
209 -19 0
209 -204 0
209 -51 0
210 -38 -209 0
-210 38 0
-210 209 0
-211 45 210 39 42 0
211 -45 0
211 -210 0
211 -39 0
211 -42 0
212 -56 -211 0
-212 56 0
-212 211 0
-213 8 212 1 4 0
213 -8 0
213 -212 0
213 -1 0
213 -4 0
214 -59 -213 0
-214 59 0
-214 213 0
-215 69 208 214 64 66 0
215 -69 0
215 -208 0
215 -214 0
215 -64 0
215 -66 0
216 -71 -215 0
-216 71 0
-216 215 0
217 -129 -79 0
-217 129 0
-217 79 0
218 -134 -72 0
-218 134 0
-218 72 0
-219 136 218 0
219 -136 0
219 -218 0
220 -138 -219 0
-220 138 0
-220 219 0
-221 148 105 217 220 200 0
221 -148 0
221 -105 0
221 -217 0
221 -220 0
221 -200 0
222 -187 -221 0
-222 187 0
-222 221 0
-223 24 222 80 0
223 -24 0
223 -222 0
223 -80 0
224 -26 -223 0
-224 26 0
-224 223 0
-225 36 48 76 224 84 0
225 -36 0
225 -48 0
225 -76 0
225 -224 0
225 -84 0
226 -38 -225 0
-226 38 0
-226 225 0
-227 45 226 39 42 0
227 -45 0
227 -226 0
227 -39 0
227 -42 0
228 -56 -227 0
-228 56 0
-228 227 0
-229 36 48 89 204 84 0
229 -36 0
229 -48 0
229 -89 0
229 -204 0
229 -84 0
230 -38 -229 0
-230 38 0
-230 229 0
-231 45 230 39 42 0
231 -45 0
231 -230 0
231 -39 0
231 -42 0
232 -47 -231 0
-232 47 0
-232 231 0
-233 69 232 64 66 0
233 -69 0
233 -232 0
233 -64 0
233 -66 0
234 -78 -233 0
-234 78 0
-234 233 0
-235 3 234 0
235 -3 0
235 -234 0
236 -2 -235 0
-236 2 0
-236 235 0
-237 8 228 236 4 0
237 -8 0
237 -228 0
237 -236 0
237 -4 0
238 -100 -237 0
-238 100 0
-238 237 0
-239 102 216 238 0
239 -102 0
239 -216 0
239 -238 0
240 -241 -239 0
-240 241 0
-240 239 0
-242 8 157 4 0
242 -8 0
242 -157 0
242 -4 0
243 -10 -242 0
-243 10 0
-243 242 0
-244 12 243 0
244 -12 0
244 -243 0
245 -14 -244 0
-245 14 0
-245 244 0
246 -59 -7 0
-246 59 0
-246 7 0
-247 69 246 64 66 0
247 -69 0
247 -246 0
247 -64 0
247 -66 0
248 -74 -247 0
-248 74 0
-248 247 0
249 -16 -242 0
-249 16 0
-249 242 0
-250 18 248 249 0
250 -18 0
250 -248 0
250 -249 0
251 -20 -250 0
-251 20 0
-251 250 0
252 -71 -247 0
-252 71 0
-252 247 0
253 -100 -242 0
-253 100 0
-253 242 0
-254 102 252 253 0
254 -102 0
254 -252 0
254 -253 0
255 -104 -254 0
-255 104 0
-255 254 0
256 -59 -107 0
-256 59 0
-256 107 0
-257 69 256 64 66 0
257 -69 0
257 -256 0
257 -64 0
257 -66 0
258 -78 -257 0
-258 78 0
-258 257 0
-259 3 258 0
259 -3 0
259 -258 0
260 -129 -259 0
-260 129 0
-260 259 0
261 -134 -247 0
-261 134 0
-261 247 0
-262 136 261 0
262 -136 0
262 -261 0
263 -138 -262 0
-263 138 0
-263 262 0
264 -142 -254 0
-264 142 0
-264 254 0
-265 144 264 0
265 -144 0
265 -264 0
266 -146 -265 0
-266 146 0
-266 265 0
-267 148 255 105 260 263 266 0
267 -148 0
267 -255 0
267 -105 0
267 -260 0
267 -263 0
267 -266 0
268 -187 -267 0
-268 187 0
-268 267 0
269 -22 -259 0
-269 22 0
-269 259 0
-270 24 268 269 0
270 -24 0
270 -268 0
270 -269 0
271 -26 -270 0
-271 26 0
-271 270 0
272 -28 -242 0
-272 28 0
-272 242 0
273 -30 -244 0
-273 30 0
-273 244 0
-274 32 272 273 0
274 -32 0
274 -272 0
274 -273 0
275 -34 -274 0
-275 34 0
-275 274 0
-276 36 245 251 271 275 0
276 -36 0
276 -245 0
276 -251 0
276 -271 0
276 -275 0
277 -38 -276 0
-277 38 0
-277 276 0
-278 45 277 39 42 0
278 -45 0
278 -277 0
278 -39 0
278 -42 0
279 -280 -278 0
-279 280 0
-279 278 0
281 -104 -140 0
-281 104 0
-281 140 0
-282 148 281 105 128 137 145 0
282 -148 0
282 -281 0
282 -105 0
282 -128 0
282 -137 0
282 -145 0
283 -284 -282 0
-283 284 0
-283 282 0
285 -286 -239 0
-285 286 0
-285 239 0
-287 288 283 285 0
287 -288 0
287 -283 0
287 -285 0
289 -290 -287 0
-289 290 0
-289 287 0
291 -71 -72 0
-291 71 0
-291 72 0
-292 102 291 253 0
292 -102 0
292 -291 0
292 -253 0
293 -104 -292 0
-293 104 0
-293 292 0
294 -142 -292 0
-294 142 0
-294 292 0
-295 144 294 0
295 -144 0
295 -294 0
296 -146 -295 0
-296 146 0
-296 295 0
-297 148 293 105 217 220 296 0
297 -148 0
297 -293 0
297 -105 0
297 -217 0
297 -220 0
297 -296 0
298 -187 -297 0
-298 187 0
-298 297 0
-299 24 298 80 0
299 -24 0
299 -298 0
299 -80 0
300 -26 -299 0
-300 26 0
-300 299 0
-301 36 76 300 84 0
301 -36 0
301 -76 0
301 -300 0
301 -84 0
302 -38 -301 0
-302 38 0
-302 301 0
-303 45 302 39 42 0
303 -45 0
303 -302 0
303 -39 0
303 -42 0
304 -56 -303 0
-304 56 0
-304 303 0
-305 102 291 0
305 -102 0
305 -291 0
306 -104 -305 0
-306 104 0
-306 305 0
307 -142 -305 0
-307 142 0
-307 305 0
-308 144 307 0
308 -144 0
308 -307 0
309 -146 -308 0
-309 146 0
-309 308 0
-310 148 306 105 198 199 309 0
310 -148 0
310 -306 0
310 -105 0
310 -198 0
310 -199 0
310 -309 0
311 -187 -310 0
-311 187 0
-311 310 0
-312 24 311 21 0
312 -24 0
312 -311 0
312 -21 0
313 -26 -312 0
-313 26 0
-313 312 0
-314 36 89 313 84 0
314 -36 0
314 -89 0
314 -313 0
314 -84 0
315 -38 -314 0
-315 38 0
-315 314 0
-316 45 315 39 42 0
316 -45 0
316 -315 0
316 -39 0
316 -42 0
317 -47 -316 0
-317 47 0
-317 316 0
-318 69 317 64 66 0
318 -69 0
318 -317 0
318 -64 0
318 -66 0
319 -78 -318 0
-319 78 0
-319 318 0
-320 3 319 0
320 -3 0
320 -319 0
321 -2 -320 0
-321 2 0
-321 320 0
-322 8 304 321 4 0
322 -8 0
322 -304 0
322 -321 0
322 -4 0
323 -10 -322 0
-323 10 0
-323 322 0
-324 12 323 0
324 -12 0
324 -323 0
325 -326 -324 0
-325 326 0
-325 324 0
-327 148 105 198 199 0
327 -148 0
327 -105 0
327 -198 0
327 -199 0
328 -187 -327 0
-328 187 0
-328 327 0
-329 24 328 21 0
329 -24 0
329 -328 0
329 -21 0
330 -26 -329 0
-330 26 0
-330 329 0
-331 36 13 19 330 33 0
331 -36 0
331 -13 0
331 -19 0
331 -330 0
331 -33 0
332 -38 -331 0
-332 38 0
-332 331 0
-333 45 332 39 42 0
333 -45 0
333 -332 0
333 -39 0
333 -42 0
334 -47 -333 0
-334 47 0
-334 333 0
-335 36 48 19 330 51 0
335 -36 0
335 -48 0
335 -19 0
335 -330 0
335 -51 0
336 -38 -335 0
-336 38 0
-336 335 0
-337 45 336 39 42 0
337 -45 0
337 -336 0
337 -39 0
337 -42 0
338 -56 -337 0
-338 56 0
-338 337 0
-339 8 338 1 4 0
339 -8 0
339 -338 0
339 -1 0
339 -4 0
340 -59 -339 0
-340 59 0
-340 339 0
-341 69 334 340 64 66 0
341 -69 0
341 -334 0
341 -340 0
341 -64 0
341 -66 0
342 -71 -341 0
-342 71 0
-342 341 0
-343 148 105 217 220 0
343 -148 0
343 -105 0
343 -217 0
343 -220 0
344 -187 -343 0
-344 187 0
-344 343 0
-345 24 344 80 0
345 -24 0
345 -344 0
345 -80 0
346 -26 -345 0
-346 26 0
-346 345 0
-347 36 48 76 346 84 0
347 -36 0
347 -48 0
347 -76 0
347 -346 0
347 -84 0
348 -38 -347 0
-348 38 0
-348 347 0
-349 45 348 39 42 0
349 -45 0
349 -348 0
349 -39 0
349 -42 0
350 -56 -349 0
-350 56 0
-350 349 0
-351 36 48 89 330 84 0
351 -36 0
351 -48 0
351 -89 0
351 -330 0
351 -84 0
352 -38 -351 0
-352 38 0
-352 351 0
-353 45 352 39 42 0
353 -45 0
353 -352 0
353 -39 0
353 -42 0
354 -47 -353 0
-354 47 0
-354 353 0
-355 69 354 64 66 0
355 -69 0
355 -354 0
355 -64 0
355 -66 0
356 -78 -355 0
-356 78 0
-356 355 0
-357 3 356 0
357 -3 0
357 -356 0
358 -2 -357 0
-358 2 0
-358 357 0
-359 8 350 358 4 0
359 -8 0
359 -350 0
359 -358 0
359 -4 0
360 -100 -359 0
-360 100 0
-360 359 0
-361 102 342 360 0
361 -102 0
361 -342 0
361 -360 0
362 -142 -361 0
-362 142 0
-362 361 0
-363 144 362 0
363 -144 0
363 -362 0
364 -365 -363 0
-364 365 0
-364 363 0
-366 367 149 196 240 279 289 325 364 0
366 -367 0
366 -149 0
366 -196 0
366 -240 0
366 -279 0
366 -289 0
366 -325 0
366 -364 0
368 -369 -366 0
-368 369 0
-368 366 0
-370 371 368 0
370 -371 0
370 -368 0
372 -370 -373 0
-372 370 0
-372 373 0
372 0
