c BC-S1.2
p cnf 746 2420
1 -2 -3 0
-1 2 0
-1 3 0
4 -5 -6 0
-4 5 0
-4 6 0
7 -8 -9 0
-7 8 0
-7 9 0
10 -11 -12 0
-10 11 0
-10 12 0
13 -14 -15 0
-13 14 0
-13 15 0
16 -17 -6 0
-16 17 0
-16 6 0
-18 19 16 0
18 -19 0
18 -16 0
20 -21 -18 0
-20 21 0
-20 18 0
-22 23 4 7 10 13 20 0
22 -23 0
22 -4 0
22 -7 0
22 -10 0
22 -13 0
22 -20 0
24 -25 -22 0
-24 25 0
-24 22 0
26 -27 -6 0
-26 27 0
-26 6 0
28 -29 -22 0
-28 29 0
-28 22 0
30 -31 -6 0
-30 31 0
-30 6 0
-32 33 28 30 0
32 -33 0
32 -28 0
32 -30 0
34 -35 -32 0
-34 35 0
-34 32 0
36 -37 -3 0
-36 37 0
-36 3 0
38 -39 -18 0
-38 39 0
-38 18 0
-40 41 24 26 34 36 38 0
40 -41 0
40 -24 0
40 -26 0
40 -34 0
40 -36 0
40 -38 0
42 -43 -40 0
-42 43 0
-42 40 0
44 -45 -40 0
-44 45 0
-44 40 0
-46 23 4 10 13 20 0
46 -23 0
46 -4 0
46 -10 0
46 -13 0
46 -20 0
47 -25 -46 0
-47 25 0
-47 46 0
48 -29 -46 0
-48 29 0
-48 46 0
-49 33 48 30 0
49 -33 0
49 -48 0
49 -30 0
50 -35 -49 0
-50 35 0
-50 49 0
-51 41 47 26 50 36 38 0
51 -41 0
51 -47 0
51 -26 0
51 -50 0
51 -36 0
51 -38 0
52 -53 -51 0
-52 53 0
-52 51 0
-54 9 52 0
54 -9 0
54 -52 0
55 -56 -54 0
-55 56 0
-55 54 0
-57 58 44 55 0
57 -58 0
57 -44 0
57 -55 0
59 -60 -57 0
-59 60 0
-59 57 0
61 -62 -40 0
-61 62 0
-61 40 0
-63 64 61 0
63 -64 0
63 -61 0
65 -66 -63 0
-65 66 0
-65 63 0
-67 68 65 0
67 -68 0
67 -65 0
69 -70 -67 0
-69 70 0
-69 67 0
-71 72 42 59 69 0
71 -72 0
71 -42 0
71 -59 0
71 -69 0
73 -74 -71 0
-73 74 0
-73 71 0
-75 76 73 0
75 -76 0
75 -73 0
77 -78 -75 0
-77 78 0
-77 75 0
-79 33 30 0
79 -33 0
79 -30 0
80 -35 -79 0
-80 35 0
-80 79 0
-81 41 26 80 36 38 0
81 -41 0
81 -26 0
81 -80 0
81 -36 0
81 -38 0
82 -43 -81 0
-82 43 0
-82 81 0
83 -45 -81 0
-83 45 0
-83 81 0
84 -53 -81 0
-84 53 0
-84 81 0
-85 9 84 0
85 -9 0
85 -84 0
86 -56 -85 0
-86 56 0
-86 85 0
-87 58 83 86 0
87 -58 0
87 -83 0
87 -86 0
88 -60 -87 0
-88 60 0
-88 87 0
89 -62 -81 0
-89 62 0
-89 81 0
-90 64 89 0
90 -64 0
90 -89 0
91 -66 -90 0
-91 66 0
-91 90 0
-92 68 91 0
92 -68 0
92 -91 0
93 -70 -92 0
-93 70 0
-93 92 0
-94 72 82 88 93 0
94 -72 0
94 -82 0
94 -88 0
94 -93 0
95 -96 -94 0
-95 96 0
-95 94 0
-97 6 95 0
97 -6 0
97 -95 0
98 -5 -97 0
-98 5 0
-98 97 0
-99 58 83 0
99 -58 0
99 -83 0
100 -60 -99 0
-100 60 0
-100 99 0
-101 72 100 93 0
101 -72 0
101 -100 0
101 -93 0
102 -96 -101 0
-102 96 0
-102 101 0
-103 6 102 0
103 -6 0
103 -102 0
104 -27 -103 0
-104 27 0
-104 103 0
105 -60 -58 0
-105 60 0
-105 58 0
106 -66 -64 0
-106 66 0
-106 64 0
-107 68 106 0
107 -68 0
107 -106 0
108 -70 -107 0
-108 70 0
-108 107 0
-109 72 105 108 0
109 -72 0
109 -105 0
109 -108 0
110 -96 -109 0
-110 96 0
-110 109 0
-111 6 110 0
111 -6 0
111 -110 0
112 -31 -111 0
-112 31 0
-112 111 0
-113 33 112 0
113 -33 0
113 -112 0
114 -35 -113 0
-114 35 0
-114 113 0
115 -17 -111 0
-115 17 0
-115 111 0
-116 19 115 0
116 -19 0
116 -115 0
117 -39 -116 0
-117 39 0
-117 116 0
-118 41 104 114 36 117 0
118 -41 0
118 -104 0
118 -114 0
118 -36 0
118 -117 0
119 -53 -118 0
-119 53 0
-119 118 0
-120 9 119 0
120 -9 0
120 -119 0
121 -8 -120 0
-121 8 0
-121 120 0
122 -123 -94 0
-122 123 0
-122 94 0
-124 12 122 0
124 -12 0
124 -122 0
125 -11 -124 0
-125 11 0
-125 124 0
126 -127 -94 0
-126 127 0
-126 94 0
-128 72 88 93 0
128 -72 0
128 -88 0
128 -93 0
129 -96 -128 0
-129 96 0
-129 128 0
-130 6 129 0
130 -6 0
130 -129 0
131 -27 -130 0
-131 27 0
-131 130 0
132 -56 -9 0
-132 56 0
-132 9 0
-133 58 132 0
133 -58 0
133 -132 0
134 -60 -133 0
-134 60 0
-134 133 0
-135 72 134 108 0
135 -72 0
135 -134 0
135 -108 0
136 -96 -135 0
-136 96 0
-136 135 0
-137 6 136 0
137 -6 0
137 -136 0
138 -31 -137 0
-138 31 0
-138 137 0
-139 33 138 0
139 -33 0
139 -138 0
140 -35 -139 0
-140 35 0
-140 139 0
141 -17 -137 0
-141 17 0
-141 137 0
-142 19 141 0
142 -19 0
142 -141 0
143 -39 -142 0
-143 39 0
-143 142 0
-144 41 131 140 36 143 0
144 -41 0
144 -131 0
144 -140 0
144 -36 0
144 -143 0
145 -146 -144 0
-145 146 0
-145 144 0
-147 15 126 145 0
147 -15 0
147 -126 0
147 -145 0
148 -14 -147 0
-148 14 0
-148 147 0
-149 41 26 80 36 0
149 -41 0
149 -26 0
149 -80 0
149 -36 0
150 -43 -149 0
-150 43 0
-150 149 0
151 -45 -149 0
-151 45 0
-151 149 0
152 -53 -149 0
-152 53 0
-152 149 0
-153 9 152 0
153 -9 0
153 -152 0
154 -56 -153 0
-154 56 0
-154 153 0
-155 58 151 154 0
155 -58 0
155 -151 0
155 -154 0
156 -60 -155 0
-156 60 0
-156 155 0
157 -62 -149 0
-157 62 0
-157 149 0
-158 64 157 0
158 -64 0
158 -157 0
159 -66 -158 0
-159 66 0
-159 158 0
-160 68 159 0
160 -68 0
160 -159 0
161 -70 -160 0
-161 70 0
-161 160 0
-162 72 150 156 161 0
162 -72 0
162 -150 0
162 -156 0
162 -161 0
163 -96 -162 0
-163 96 0
-163 162 0
-164 6 163 0
164 -6 0
164 -163 0
165 -17 -164 0
-165 17 0
-165 164 0
-166 19 165 0
166 -19 0
166 -165 0
167 -21 -166 0
-167 21 0
-167 166 0
-168 23 98 121 125 148 167 0
168 -23 0
168 -98 0
168 -121 0
168 -125 0
168 -148 0
168 -167 0
169 -170 -168 0
-169 170 0
-169 168 0
-171 23 4 7 13 20 0
171 -23 0
171 -4 0
171 -7 0
171 -13 0
171 -20 0
172 -25 -171 0
-172 25 0
-172 171 0
173 -29 -171 0
-173 29 0
-173 171 0
-174 33 173 30 0
174 -33 0
174 -173 0
174 -30 0
175 -35 -174 0
-175 35 0
-175 174 0
-176 41 172 26 175 36 38 0
176 -41 0
176 -172 0
176 -26 0
176 -175 0
176 -36 0
176 -38 0
177 -43 -176 0
-177 43 0
-177 176 0
178 -45 -176 0
-178 45 0
-178 176 0
-179 23 4 13 20 0
179 -23 0
179 -4 0
179 -13 0
179 -20 0
180 -25 -179 0
-180 25 0
-180 179 0
181 -29 -179 0
-181 29 0
-181 179 0
-182 33 181 30 0
182 -33 0
182 -181 0
182 -30 0
183 -35 -182 0
-183 35 0
-183 182 0
-184 41 180 26 183 36 38 0
184 -41 0
184 -180 0
184 -26 0
184 -183 0
184 -36 0
184 -38 0
185 -53 -184 0
-185 53 0
-185 184 0
-186 9 185 0
186 -9 0
186 -185 0
187 -56 -186 0
-187 56 0
-187 186 0
-188 58 178 187 0
188 -58 0
188 -178 0
188 -187 0
189 -60 -188 0
-189 60 0
-189 188 0
190 -62 -176 0
-190 62 0
-190 176 0
-191 64 190 0
191 -64 0
191 -190 0
192 -66 -191 0
-192 66 0
-192 191 0
-193 68 192 0
193 -68 0
193 -192 0
194 -70 -193 0
-194 70 0
-194 193 0
-195 72 177 189 194 0
195 -72 0
195 -177 0
195 -189 0
195 -194 0
196 -123 -195 0
-196 123 0
-196 195 0
-197 12 196 0
197 -12 0
197 -196 0
198 -199 -197 0
-198 199 0
-198 197 0
-200 201 169 198 0
200 -201 0
200 -169 0
200 -198 0
202 -203 -200 0
-202 203 0
-202 200 0
-204 205 1 77 202 0
204 -205 0
204 -1 0
204 -77 0
204 -202 0
206 -207 -204 0
-206 207 0
-206 204 0
208 -5 -111 0
-208 5 0
-208 111 0
209 -123 -109 0
-209 123 0
-209 109 0
-210 12 209 0
210 -12 0
210 -209 0
211 -11 -210 0
-211 11 0
-211 210 0
212 -127 -109 0
-212 127 0
-212 109 0
-213 15 212 0
213 -15 0
213 -212 0
214 -14 -213 0
-214 14 0
-214 213 0
215 -21 -116 0
-215 21 0
-215 116 0
-216 23 208 211 214 215 0
216 -23 0
216 -208 0
216 -211 0
216 -214 0
216 -215 0
217 -25 -216 0
-217 25 0
-217 216 0
218 -74 -109 0
-218 74 0
-218 109 0
-219 76 218 0
219 -76 0
219 -218 0
220 -78 -219 0
-220 78 0
-220 219 0
221 -170 -216 0
-221 170 0
-221 216 0
222 -199 -210 0
-222 199 0
-222 210 0
-223 201 221 222 0
223 -201 0
223 -221 0
223 -222 0
224 -203 -223 0
-224 203 0
-224 223 0
-225 205 1 220 224 0
225 -205 0
225 -1 0
225 -220 0
225 -224 0
226 -227 -225 0
-226 227 0
-226 225 0
228 -27 -111 0
-228 27 0
-228 111 0
229 -29 -216 0
-229 29 0
-229 216 0
-230 33 229 112 0
230 -33 0
230 -229 0
230 -112 0
231 -35 -230 0
-231 35 0
-231 230 0
-232 41 217 226 228 231 36 117 0
232 -41 0
232 -217 0
232 -226 0
232 -228 0
232 -231 0
232 -36 0
232 -117 0
233 -53 -232 0
-233 53 0
-233 232 0
-234 9 233 0
234 -9 0
234 -233 0
235 -236 -234 0
-235 236 0
-235 234 0
-237 72 134 0
237 -72 0
237 -134 0
238 -96 -237 0
-238 96 0
-238 237 0
-239 6 238 0
239 -6 0
239 -238 0
240 -5 -239 0
-240 5 0
-240 239 0
241 -123 -237 0
-241 123 0
-241 237 0
-242 12 241 0
242 -12 0
242 -241 0
243 -11 -242 0
-243 11 0
-243 242 0
244 -127 -237 0
-244 127 0
-244 237 0
-245 15 244 0
245 -15 0
245 -244 0
246 -14 -245 0
-246 14 0
-246 245 0
247 -17 -239 0
-247 17 0
-247 239 0
-248 19 247 0
248 -19 0
248 -247 0
249 -21 -248 0
-249 21 0
-249 248 0
-250 23 240 7 243 246 249 0
250 -23 0
250 -240 0
250 -7 0
250 -243 0
250 -246 0
250 -249 0
251 -25 -250 0
-251 25 0
-251 250 0
252 -74 -237 0
-252 74 0
-252 237 0
-253 76 252 0
253 -76 0
253 -252 0
254 -78 -253 0
-254 78 0
-254 253 0
255 -170 -250 0
-255 170 0
-255 250 0
256 -199 -242 0
-256 199 0
-256 242 0
-257 201 255 256 0
257 -201 0
257 -255 0
257 -256 0
258 -203 -257 0
-258 203 0
-258 257 0
-259 205 1 254 258 0
259 -205 0
259 -1 0
259 -254 0
259 -258 0
260 -227 -259 0
-260 227 0
-260 259 0
261 -27 -239 0
-261 27 0
-261 239 0
262 -29 -250 0
-262 29 0
-262 250 0
263 -31 -239 0
-263 31 0
-263 239 0
-264 33 262 263 0
264 -33 0
264 -262 0
264 -263 0
265 -35 -264 0
-265 35 0
-265 264 0
266 -39 -248 0
-266 39 0
-266 248 0
-267 41 251 260 261 265 36 266 0
267 -41 0
267 -251 0
267 -260 0
267 -261 0
267 -265 0
267 -36 0
267 -266 0
268 -62 -267 0
-268 62 0
-268 267 0
-269 64 268 0
269 -64 0
269 -268 0
270 -66 -269 0
-270 66 0
-270 269 0
-271 68 270 0
271 -68 0
271 -270 0
272 -273 -271 0
-272 273 0
-272 271 0
-274 275 206 235 272 0
274 -275 0
274 -206 0
274 -235 0
274 -272 0
276 -277 -274 0
-276 277 0
-276 274 0
278 -78 -76 0
-278 78 0
-278 76 0
279 -170 -171 0
-279 170 0
-279 171 0
-280 201 279 0
280 -201 0
280 -279 0
281 -203 -280 0
-281 203 0
-281 280 0
-282 205 1 278 281 0
282 -205 0
282 -1 0
282 -278 0
282 -281 0
283 -227 -282 0
-283 227 0
-283 282 0
284 -207 -282 0
-284 207 0
-284 282 0
285 -236 -9 0
-285 236 0
-285 9 0
286 -273 -107 0
-286 273 0
-286 107 0
-287 275 284 285 286 0
287 -275 0
287 -284 0
287 -285 0
287 -286 0
288 -289 -287 0
-288 289 0
-288 287 0
-290 41 172 283 26 288 175 36 38 0
290 -41 0
290 -172 0
290 -283 0
290 -26 0
290 -288 0
290 -175 0
290 -36 0
290 -38 0
291 -43 -290 0
-291 43 0
-291 290 0
292 -8 -85 0
-292 8 0
-292 85 0
293 -146 -81 0
-293 146 0
-293 81 0
-294 15 293 0
294 -15 0
294 -293 0
295 -14 -294 0
-295 14 0
-295 294 0
-296 23 4 292 295 20 0
296 -23 0
296 -4 0
296 -292 0
296 -295 0
296 -20 0
297 -170 -296 0
-297 170 0
-297 296 0
-298 201 297 0
298 -201 0
298 -297 0
299 -203 -298 0
-299 203 0
-299 298 0
-300 205 1 278 299 0
300 -205 0
300 -1 0
300 -278 0
300 -299 0
301 -207 -300 0
-301 207 0
-301 300 0
302 -170 -179 0
-302 170 0
-302 179 0
-303 201 302 0
303 -201 0
303 -302 0
304 -203 -303 0
-304 203 0
-304 303 0
-305 205 1 220 304 0
305 -205 0
305 -1 0
305 -220 0
305 -304 0
306 -227 -305 0
-306 227 0
-306 305 0
-307 41 180 306 26 183 36 38 0
307 -41 0
307 -180 0
307 -306 0
307 -26 0
307 -183 0
307 -36 0
307 -38 0
308 -53 -307 0
-308 53 0
-308 307 0
-309 9 308 0
309 -9 0
309 -308 0
310 -236 -309 0
-310 236 0
-310 309 0
-311 41 172 283 26 175 36 38 0
311 -41 0
311 -172 0
311 -283 0
311 -26 0
311 -175 0
311 -36 0
311 -38 0
312 -62 -311 0
-312 62 0
-312 311 0
-313 64 312 0
313 -64 0
313 -312 0
314 -66 -313 0
-314 66 0
-314 313 0
-315 68 314 0
315 -68 0
315 -314 0
316 -273 -315 0
-316 273 0
-316 315 0
-317 275 301 310 316 0
317 -275 0
317 -301 0
317 -310 0
317 -316 0
318 -319 -317 0
-318 319 0
-318 317 0
320 -45 -290 0
-320 45 0
-320 290 0
-321 205 1 278 304 0
321 -205 0
321 -1 0
321 -278 0
321 -304 0
322 -227 -321 0
-322 227 0
-322 321 0
323 -207 -321 0
-323 207 0
-323 321 0
-324 275 323 285 286 0
324 -275 0
324 -323 0
324 -285 0
324 -286 0
325 -289 -324 0
-325 289 0
-325 324 0
-326 41 180 322 26 325 183 36 38 0
326 -41 0
326 -180 0
326 -322 0
326 -26 0
326 -325 0
326 -183 0
326 -36 0
326 -38 0
327 -53 -326 0
-327 53 0
-327 326 0
-328 9 327 0
328 -9 0
328 -327 0
329 -56 -328 0
-329 56 0
-329 328 0
-330 58 320 329 0
330 -58 0
330 -320 0
330 -329 0
331 -60 -330 0
-331 60 0
-331 330 0
-332 275 284 285 0
332 -275 0
332 -284 0
332 -285 0
333 -289 -332 0
-333 289 0
-333 332 0
-334 41 172 283 26 333 175 36 38 0
334 -41 0
334 -172 0
334 -283 0
334 -26 0
334 -333 0
334 -175 0
334 -36 0
334 -38 0
335 -62 -334 0
-335 62 0
-335 334 0
-336 64 335 0
336 -64 0
336 -335 0
337 -66 -336 0
-337 66 0
-337 336 0
-338 68 337 0
338 -68 0
338 -337 0
339 -70 -338 0
-339 70 0
-339 338 0
-340 72 291 318 331 339 0
340 -72 0
340 -291 0
340 -318 0
340 -331 0
340 -339 0
341 -123 -340 0
-341 123 0
-341 340 0
-342 12 341 0
342 -12 0
342 -341 0
343 -344 -342 0
-343 344 0
-343 342 0
-345 201 256 0
345 -201 0
345 -256 0
346 -203 -345 0
-346 203 0
-346 345 0
-347 205 1 254 346 0
347 -205 0
347 -1 0
347 -254 0
347 -346 0
348 -207 -347 0
-348 207 0
-348 347 0
-349 275 348 285 0
349 -275 0
349 -348 0
349 -285 0
350 -319 -349 0
-350 319 0
-350 349 0
-351 72 350 134 0
351 -72 0
351 -350 0
351 -134 0
352 -96 -351 0
-352 96 0
-352 351 0
-353 6 352 0
353 -6 0
353 -352 0
354 -5 -353 0
-354 5 0
-354 353 0
355 -319 -332 0
-355 319 0
-355 332 0
-356 72 355 134 0
356 -72 0
356 -355 0
356 -134 0
357 -123 -356 0
-357 123 0
-357 356 0
-358 12 357 0
358 -12 0
358 -357 0
359 -11 -358 0
-359 11 0
-359 358 0
360 -127 -351 0
-360 127 0
-360 351 0
-361 15 360 0
361 -15 0
361 -360 0
362 -14 -361 0
-362 14 0
-362 361 0
363 -17 -353 0
-363 17 0
-363 353 0
-364 19 363 0
364 -19 0
364 -363 0
365 -21 -364 0
-365 21 0
-365 364 0
-366 23 354 7 359 362 365 0
366 -23 0
366 -354 0
366 -7 0
366 -359 0
366 -362 0
366 -365 0
367 -25 -366 0
-367 25 0
-367 366 0
-368 275 285 0
368 -275 0
368 -285 0
369 -319 -368 0
-369 319 0
-369 368 0
-370 72 369 134 0
370 -72 0
370 -369 0
370 -134 0
371 -74 -370 0
-371 74 0
-371 370 0
-372 76 371 0
372 -76 0
372 -371 0
373 -78 -372 0
-373 78 0
-373 372 0
374 -96 -370 0
-374 96 0
-374 370 0
-375 6 374 0
375 -6 0
375 -374 0
376 -5 -375 0
-376 5 0
-376 375 0
377 -123 -370 0
-377 123 0
-377 370 0
-378 12 377 0
378 -12 0
378 -377 0
379 -11 -378 0
-379 11 0
-379 378 0
380 -127 -370 0
-380 127 0
-380 370 0
-381 15 380 0
381 -15 0
381 -380 0
382 -14 -381 0
-382 14 0
-382 381 0
383 -17 -375 0
-383 17 0
-383 375 0
-384 19 383 0
384 -19 0
384 -383 0
385 -21 -384 0
-385 21 0
-385 384 0
-386 23 376 7 379 382 385 0
386 -23 0
386 -376 0
386 -7 0
386 -379 0
386 -382 0
386 -385 0
387 -170 -386 0
-387 170 0
-387 386 0
388 -199 -378 0
-388 199 0
-388 378 0
-389 201 387 388 0
389 -201 0
389 -387 0
389 -388 0
390 -203 -389 0
-390 203 0
-390 389 0
-391 205 1 373 390 0
391 -205 0
391 -1 0
391 -373 0
391 -390 0
392 -227 -391 0
-392 227 0
-392 391 0
-393 23 7 10 13 20 0
393 -23 0
393 -7 0
393 -10 0
393 -13 0
393 -20 0
394 -170 -393 0
-394 170 0
-394 393 0
-395 201 394 256 0
395 -201 0
395 -394 0
395 -256 0
396 -203 -395 0
-396 203 0
-396 395 0
-397 205 1 254 396 0
397 -205 0
397 -1 0
397 -254 0
397 -396 0
398 -207 -397 0
-398 207 0
-398 397 0
-399 275 398 285 0
399 -275 0
399 -398 0
399 -285 0
400 -319 -399 0
-400 319 0
-400 399 0
-401 72 400 134 0
401 -72 0
401 -400 0
401 -134 0
402 -96 -401 0
-402 96 0
-402 401 0
-403 6 402 0
403 -6 0
403 -402 0
404 -27 -403 0
-404 27 0
-404 403 0
405 -207 -259 0
-405 207 0
-405 259 0
-406 275 405 285 0
406 -275 0
406 -405 0
406 -285 0
407 -289 -406 0
-407 289 0
-407 406 0
408 -29 -366 0
-408 29 0
-408 366 0
409 -31 -403 0
-409 31 0
-409 403 0
-410 33 408 409 0
410 -33 0
410 -408 0
410 -409 0
411 -35 -410 0
-411 35 0
-411 410 0
-412 23 7 10 13 0
412 -23 0
412 -7 0
412 -10 0
412 -13 0
413 -170 -412 0
-413 170 0
-413 412 0
-414 201 413 256 0
414 -201 0
414 -413 0
414 -256 0
415 -203 -414 0
-415 203 0
-415 414 0
-416 205 1 254 415 0
416 -205 0
416 -1 0
416 -254 0
416 -415 0
417 -207 -416 0
-417 207 0
-417 416 0
-418 275 417 285 0
418 -275 0
418 -417 0
418 -285 0
419 -319 -418 0
-419 319 0
-419 418 0
-420 72 419 134 0
420 -72 0
420 -419 0
420 -134 0
421 -96 -420 0
-421 96 0
-421 420 0
-422 6 421 0
422 -6 0
422 -421 0
423 -17 -422 0
-423 17 0
-423 422 0
-424 19 423 0
424 -19 0
424 -423 0
425 -39 -424 0
-425 39 0
-425 424 0
-426 41 367 392 404 407 411 36 425 0
426 -41 0
426 -367 0
426 -392 0
426 -404 0
426 -407 0
426 -411 0
426 -36 0
426 -425 0
427 -62 -426 0
-427 62 0
-427 426 0
-428 64 427 0
428 -64 0
428 -427 0
429 -66 -428 0
-429 66 0
-429 428 0
-430 68 429 0
430 -68 0
430 -429 0
431 -432 -430 0
-431 432 0
-431 430 0
433 -199 -12 0
-433 199 0
-433 12 0
-434 201 433 0
434 -201 0
434 -433 0
435 -203 -434 0
-435 203 0
-435 434 0
-436 205 1 278 435 0
436 -205 0
436 -1 0
436 -278 0
436 -435 0
437 -207 -436 0
-437 207 0
-437 436 0
438 -273 -68 0
-438 273 0
-438 68 0
-439 275 437 285 438 0
439 -275 0
439 -437 0
439 -285 0
439 -438 0
440 -319 -439 0
-440 319 0
-440 439 0
441 -70 -68 0
-441 70 0
-441 68 0
-442 72 440 134 441 0
442 -72 0
442 -440 0
442 -134 0
442 -441 0
443 -96 -442 0
-443 96 0
-443 442 0
-444 6 443 0
444 -6 0
444 -443 0
445 -5 -444 0
-445 5 0
-445 444 0
446 -123 -442 0
-446 123 0
-446 442 0
-447 12 446 0
447 -12 0
447 -446 0
448 -11 -447 0
-448 11 0
-448 447 0
449 -127 -442 0
-449 127 0
-449 442 0
-450 15 449 0
450 -15 0
450 -449 0
451 -14 -450 0
-451 14 0
-451 450 0
452 -17 -444 0
-452 17 0
-452 444 0
-453 19 452 0
453 -19 0
453 -452 0
454 -21 -453 0
-454 21 0
-454 453 0
-455 23 445 7 448 451 454 0
455 -23 0
455 -445 0
455 -7 0
455 -448 0
455 -451 0
455 -454 0
456 -25 -455 0
-456 25 0
-456 455 0
-457 275 285 438 0
457 -275 0
457 -285 0
457 -438 0
458 -319 -457 0
-458 319 0
-458 457 0
-459 72 458 134 441 0
459 -72 0
459 -458 0
459 -134 0
459 -441 0
460 -74 -459 0
-460 74 0
-460 459 0
-461 76 460 0
461 -76 0
461 -460 0
462 -78 -461 0
-462 78 0
-462 461 0
463 -96 -459 0
-463 96 0
-463 459 0
-464 6 463 0
464 -6 0
464 -463 0
465 -5 -464 0
-465 5 0
-465 464 0
466 -123 -459 0
-466 123 0
-466 459 0
-467 12 466 0
467 -12 0
467 -466 0
468 -11 -467 0
-468 11 0
-468 467 0
469 -127 -459 0
-469 127 0
-469 459 0
-470 15 469 0
470 -15 0
470 -469 0
471 -14 -470 0
-471 14 0
-471 470 0
472 -17 -464 0
-472 17 0
-472 464 0
-473 19 472 0
473 -19 0
473 -472 0
474 -21 -473 0
-474 21 0
-474 473 0
-475 23 465 7 468 471 474 0
475 -23 0
475 -465 0
475 -7 0
475 -468 0
475 -471 0
475 -474 0
476 -170 -475 0
-476 170 0
-476 475 0
477 -199 -467 0
-477 199 0
-477 467 0
-478 201 476 477 0
478 -201 0
478 -476 0
478 -477 0
479 -203 -478 0
-479 203 0
-479 478 0
-480 205 1 462 479 0
480 -205 0
480 -1 0
480 -462 0
480 -479 0
481 -227 -480 0
-481 227 0
-481 480 0
-482 201 394 433 0
482 -201 0
482 -394 0
482 -433 0
483 -203 -482 0
-483 203 0
-483 482 0
-484 205 1 278 483 0
484 -205 0
484 -1 0
484 -278 0
484 -483 0
485 -207 -484 0
-485 207 0
-485 484 0
-486 275 485 285 438 0
486 -275 0
486 -485 0
486 -285 0
486 -438 0
487 -319 -486 0
-487 319 0
-487 486 0
-488 72 487 134 441 0
488 -72 0
488 -487 0
488 -134 0
488 -441 0
489 -96 -488 0
-489 96 0
-489 488 0
-490 6 489 0
490 -6 0
490 -489 0
491 -27 -490 0
-491 27 0
-491 490 0
-492 72 42 134 441 0
492 -72 0
492 -42 0
492 -134 0
492 -441 0
493 -74 -492 0
-493 74 0
-493 492 0
-494 76 493 0
494 -76 0
494 -493 0
495 -78 -494 0
-495 78 0
-495 494 0
-496 72 88 441 0
496 -72 0
496 -88 0
496 -441 0
497 -96 -496 0
-497 96 0
-497 496 0
-498 6 497 0
498 -6 0
498 -497 0
499 -5 -498 0
-499 5 0
-499 498 0
500 -123 -496 0
-500 123 0
-500 496 0
-501 12 500 0
501 -12 0
501 -500 0
502 -11 -501 0
-502 11 0
-502 501 0
503 -127 -496 0
-503 127 0
-503 496 0
-504 15 503 0
504 -15 0
504 -503 0
505 -14 -504 0
-505 14 0
-505 504 0
-506 72 134 441 0
506 -72 0
506 -134 0
506 -441 0
507 -96 -506 0
-507 96 0
-507 506 0
-508 6 507 0
508 -6 0
508 -507 0
509 -17 -508 0
-509 17 0
-509 508 0
-510 19 509 0
510 -19 0
510 -509 0
511 -21 -510 0
-511 21 0
-511 510 0
-512 23 499 7 502 505 511 0
512 -23 0
512 -499 0
512 -7 0
512 -502 0
512 -505 0
512 -511 0
513 -170 -512 0
-513 170 0
-513 512 0
514 -123 -506 0
-514 123 0
-514 506 0
-515 12 514 0
515 -12 0
515 -514 0
516 -199 -515 0
-516 199 0
-516 515 0
-517 201 513 516 0
517 -201 0
517 -513 0
517 -516 0
518 -203 -517 0
-518 203 0
-518 517 0
-519 205 1 495 518 0
519 -205 0
519 -1 0
519 -495 0
519 -518 0
520 -207 -519 0
-520 207 0
-520 519 0
-521 275 520 285 438 0
521 -275 0
521 -520 0
521 -285 0
521 -438 0
522 -289 -521 0
-522 289 0
-522 521 0
523 -29 -455 0
-523 29 0
-523 455 0
524 -31 -490 0
-524 31 0
-524 490 0
-525 33 523 524 0
525 -33 0
525 -523 0
525 -524 0
526 -35 -525 0
-526 35 0
-526 525 0
-527 201 413 433 0
527 -201 0
527 -413 0
527 -433 0
528 -203 -527 0
-528 203 0
-528 527 0
-529 205 1 278 528 0
529 -205 0
529 -1 0
529 -278 0
529 -528 0
530 -207 -529 0
-530 207 0
-530 529 0
-531 275 530 285 438 0
531 -275 0
531 -530 0
531 -285 0
531 -438 0
532 -319 -531 0
-532 319 0
-532 531 0
-533 72 532 134 441 0
533 -72 0
533 -532 0
533 -134 0
533 -441 0
534 -96 -533 0
-534 96 0
-534 533 0
-535 6 534 0
535 -6 0
535 -534 0
536 -17 -535 0
-536 17 0
-536 535 0
-537 19 536 0
537 -19 0
537 -536 0
538 -39 -537 0
-538 39 0
-538 537 0
-539 41 456 481 491 522 526 36 538 0
539 -41 0
539 -456 0
539 -481 0
539 -491 0
539 -522 0
539 -526 0
539 -36 0
539 -538 0
540 -62 -539 0
-540 62 0
-540 539 0
-541 64 540 0
541 -64 0
541 -540 0
542 -543 -541 0
-542 543 0
-542 541 0
-544 545 276 343 431 542 0
544 -545 0
544 -276 0
544 -343 0
544 -431 0
544 -542 0
546 -547 -544 0
-546 547 0
-546 544 0
-548 41 228 114 36 117 0
548 -41 0
548 -228 0
548 -114 0
548 -36 0
548 -117 0
549 -53 -548 0
-549 53 0
-549 548 0
-550 9 549 0
550 -9 0
550 -549 0
551 -8 -550 0
-551 8 0
-551 550 0
552 -27 -137 0
-552 27 0
-552 137 0
-553 41 552 140 36 143 0
553 -41 0
553 -552 0
553 -140 0
553 -36 0
553 -143 0
554 -146 -553 0
-554 146 0
-554 553 0
-555 15 126 554 0
555 -15 0
555 -126 0
555 -554 0
556 -14 -555 0
-556 14 0
-556 555 0
-557 23 98 551 125 556 167 0
557 -23 0
557 -98 0
557 -551 0
557 -125 0
557 -556 0
557 -167 0
558 -170 -557 0
-558 170 0
-558 557 0
-559 201 558 198 0
559 -201 0
559 -558 0
559 -198 0
560 -203 -559 0
-560 203 0
-560 559 0
-561 205 77 560 0
561 -205 0
561 -77 0
561 -560 0
562 -207 -561 0
-562 207 0
-562 561 0
-563 205 220 224 0
563 -205 0
563 -220 0
563 -224 0
564 -227 -563 0
-564 227 0
-564 563 0
-565 41 217 564 228 231 36 117 0
565 -41 0
565 -217 0
565 -564 0
565 -228 0
565 -231 0
565 -36 0
565 -117 0
566 -53 -565 0
-566 53 0
-566 565 0
-567 9 566 0
567 -9 0
567 -566 0
568 -236 -567 0
-568 236 0
-568 567 0
-569 205 254 258 0
569 -205 0
569 -254 0
569 -258 0
570 -227 -569 0
-570 227 0
-570 569 0
-571 41 251 570 261 265 36 266 0
571 -41 0
571 -251 0
571 -570 0
571 -261 0
571 -265 0
571 -36 0
571 -266 0
572 -62 -571 0
-572 62 0
-572 571 0
-573 64 572 0
573 -64 0
573 -572 0
574 -66 -573 0
-574 66 0
-574 573 0
-575 68 574 0
575 -68 0
575 -574 0
576 -273 -575 0
-576 273 0
-576 575 0
-577 275 562 568 576 0
577 -275 0
577 -562 0
577 -568 0
577 -576 0
578 -277 -577 0
-578 277 0
-578 577 0
-579 205 278 281 0
579 -205 0
579 -278 0
579 -281 0
580 -227 -579 0
-580 227 0
-580 579 0
581 -207 -579 0
-581 207 0
-581 579 0
-582 275 581 285 286 0
582 -275 0
582 -581 0
582 -285 0
582 -286 0
583 -289 -582 0
-583 289 0
-583 582 0
-584 41 172 580 26 583 175 36 38 0
584 -41 0
584 -172 0
584 -580 0
584 -26 0
584 -583 0
584 -175 0
584 -36 0
584 -38 0
585 -43 -584 0
-585 43 0
-585 584 0
-586 205 278 299 0
586 -205 0
586 -278 0
586 -299 0
587 -207 -586 0
-587 207 0
-587 586 0
-588 205 220 304 0
588 -205 0
588 -220 0
588 -304 0
589 -227 -588 0
-589 227 0
-589 588 0
-590 41 180 589 26 183 36 38 0
590 -41 0
590 -180 0
590 -589 0
590 -26 0
590 -183 0
590 -36 0
590 -38 0
591 -53 -590 0
-591 53 0
-591 590 0
-592 9 591 0
592 -9 0
592 -591 0
593 -236 -592 0
-593 236 0
-593 592 0
-594 41 172 580 26 175 36 38 0
594 -41 0
594 -172 0
594 -580 0
594 -26 0
594 -175 0
594 -36 0
594 -38 0
595 -62 -594 0
-595 62 0
-595 594 0
-596 64 595 0
596 -64 0
596 -595 0
597 -66 -596 0
-597 66 0
-597 596 0
-598 68 597 0
598 -68 0
598 -597 0
599 -273 -598 0
-599 273 0
-599 598 0
-600 275 587 593 599 0
600 -275 0
600 -587 0
600 -593 0
600 -599 0
601 -319 -600 0
-601 319 0
-601 600 0
602 -45 -584 0
-602 45 0
-602 584 0
-603 205 278 304 0
603 -205 0
603 -278 0
603 -304 0
604 -227 -603 0
-604 227 0
-604 603 0
605 -207 -603 0
-605 207 0
-605 603 0
-606 275 605 285 286 0
606 -275 0
606 -605 0
606 -285 0
606 -286 0
607 -289 -606 0
-607 289 0
-607 606 0
-608 41 180 604 26 607 183 36 38 0
608 -41 0
608 -180 0
608 -604 0
608 -26 0
608 -607 0
608 -183 0
608 -36 0
608 -38 0
609 -53 -608 0
-609 53 0
-609 608 0
-610 9 609 0
610 -9 0
610 -609 0
611 -56 -610 0
-611 56 0
-611 610 0
-612 58 602 611 0
612 -58 0
612 -602 0
612 -611 0
613 -60 -612 0
-613 60 0
-613 612 0
-614 275 581 285 0
614 -275 0
614 -581 0
614 -285 0
615 -289 -614 0
-615 289 0
-615 614 0
-616 41 172 580 26 615 175 36 38 0
616 -41 0
616 -172 0
616 -580 0
616 -26 0
616 -615 0
616 -175 0
616 -36 0
616 -38 0
617 -62 -616 0
-617 62 0
-617 616 0
-618 64 617 0
618 -64 0
618 -617 0
619 -66 -618 0
-619 66 0
-619 618 0
-620 68 619 0
620 -68 0
620 -619 0
621 -70 -620 0
-621 70 0
-621 620 0
-622 72 585 601 613 621 0
622 -72 0
622 -585 0
622 -601 0
622 -613 0
622 -621 0
623 -123 -622 0
-623 123 0
-623 622 0
-624 12 623 0
624 -12 0
624 -623 0
625 -344 -624 0
-625 344 0
-625 624 0
-626 205 254 346 0
626 -205 0
626 -254 0
626 -346 0
627 -207 -626 0
-627 207 0
-627 626 0
-628 275 627 285 0
628 -275 0
628 -627 0
628 -285 0
629 -319 -628 0
-629 319 0
-629 628 0
-630 72 629 134 0
630 -72 0
630 -629 0
630 -134 0
631 -96 -630 0
-631 96 0
-631 630 0
-632 6 631 0
632 -6 0
632 -631 0
633 -5 -632 0
-633 5 0
-633 632 0
634 -319 -614 0
-634 319 0
-634 614 0
-635 72 634 134 0
635 -72 0
635 -634 0
635 -134 0
636 -123 -635 0
-636 123 0
-636 635 0
-637 12 636 0
637 -12 0
637 -636 0
638 -11 -637 0
-638 11 0
-638 637 0
639 -127 -630 0
-639 127 0
-639 630 0
-640 15 639 0
640 -15 0
640 -639 0
641 -14 -640 0
-641 14 0
-641 640 0
642 -17 -632 0
-642 17 0
-642 632 0
-643 19 642 0
643 -19 0
643 -642 0
644 -21 -643 0
-644 21 0
-644 643 0
-645 23 633 7 638 641 644 0
645 -23 0
645 -633 0
645 -7 0
645 -638 0
645 -641 0
645 -644 0
646 -25 -645 0
-646 25 0
-646 645 0
-647 205 373 390 0
647 -205 0
647 -373 0
647 -390 0
648 -227 -647 0
-648 227 0
-648 647 0
-649 205 254 396 0
649 -205 0
649 -254 0
649 -396 0
650 -207 -649 0
-650 207 0
-650 649 0
-651 275 650 285 0
651 -275 0
651 -650 0
651 -285 0
652 -319 -651 0
-652 319 0
-652 651 0
-653 72 652 134 0
653 -72 0
653 -652 0
653 -134 0
654 -96 -653 0
-654 96 0
-654 653 0
-655 6 654 0
655 -6 0
655 -654 0
656 -27 -655 0
-656 27 0
-656 655 0
657 -207 -569 0
-657 207 0
-657 569 0
-658 275 657 285 0
658 -275 0
658 -657 0
658 -285 0
659 -289 -658 0
-659 289 0
-659 658 0
660 -29 -645 0
-660 29 0
-660 645 0
661 -31 -655 0
-661 31 0
-661 655 0
-662 33 660 661 0
662 -33 0
662 -660 0
662 -661 0
663 -35 -662 0
-663 35 0
-663 662 0
-664 205 254 415 0
664 -205 0
664 -254 0
664 -415 0
665 -207 -664 0
-665 207 0
-665 664 0
-666 275 665 285 0
666 -275 0
666 -665 0
666 -285 0
667 -319 -666 0
-667 319 0
-667 666 0
-668 72 667 134 0
668 -72 0
668 -667 0
668 -134 0
669 -96 -668 0
-669 96 0
-669 668 0
-670 6 669 0
670 -6 0
670 -669 0
671 -17 -670 0
-671 17 0
-671 670 0
-672 19 671 0
672 -19 0
672 -671 0
673 -39 -672 0
-673 39 0
-673 672 0
-674 41 646 648 656 659 663 36 673 0
674 -41 0
674 -646 0
674 -648 0
674 -656 0
674 -659 0
674 -663 0
674 -36 0
674 -673 0
675 -62 -674 0
-675 62 0
-675 674 0
-676 64 675 0
676 -64 0
676 -675 0
677 -66 -676 0
-677 66 0
-677 676 0
-678 68 677 0
678 -68 0
678 -677 0
679 -432 -678 0
-679 432 0
-679 678 0
-680 205 278 435 0
680 -205 0
680 -278 0
680 -435 0
681 -207 -680 0
-681 207 0
-681 680 0
-682 275 681 285 438 0
682 -275 0
682 -681 0
682 -285 0
682 -438 0
683 -319 -682 0
-683 319 0
-683 682 0
-684 72 683 134 441 0
684 -72 0
684 -683 0
684 -134 0
684 -441 0
685 -96 -684 0
-685 96 0
-685 684 0
-686 6 685 0
686 -6 0
686 -685 0
687 -5 -686 0
-687 5 0
-687 686 0
688 -123 -684 0
-688 123 0
-688 684 0
-689 12 688 0
689 -12 0
689 -688 0
690 -11 -689 0
-690 11 0
-690 689 0
691 -127 -684 0
-691 127 0
-691 684 0
-692 15 691 0
692 -15 0
692 -691 0
693 -14 -692 0
-693 14 0
-693 692 0
694 -17 -686 0
-694 17 0
-694 686 0
-695 19 694 0
695 -19 0
695 -694 0
696 -21 -695 0
-696 21 0
-696 695 0
-697 23 687 7 690 693 696 0
697 -23 0
697 -687 0
697 -7 0
697 -690 0
697 -693 0
697 -696 0
698 -25 -697 0
-698 25 0
-698 697 0
-699 205 462 479 0
699 -205 0
699 -462 0
699 -479 0
700 -227 -699 0
-700 227 0
-700 699 0
-701 205 278 483 0
701 -205 0
701 -278 0
701 -483 0
702 -207 -701 0
-702 207 0
-702 701 0
-703 275 702 285 438 0
703 -275 0
703 -702 0
703 -285 0
703 -438 0
704 -319 -703 0
-704 319 0
-704 703 0
-705 72 704 134 441 0
705 -72 0
705 -704 0
705 -134 0
705 -441 0
706 -96 -705 0
-706 96 0
-706 705 0
-707 6 706 0
707 -6 0
707 -706 0
708 -27 -707 0
-708 27 0
-708 707 0
709 -5 -508 0
-709 5 0
-709 508 0
710 -11 -515 0
-710 11 0
-710 515 0
-711 23 709 7 710 505 511 0
711 -23 0
711 -709 0
711 -7 0
711 -710 0
711 -505 0
711 -511 0
712 -170 -711 0
-712 170 0
-712 711 0
-713 201 712 516 0
713 -201 0
713 -712 0
713 -516 0
714 -203 -713 0
-714 203 0
-714 713 0
-715 205 495 714 0
715 -205 0
715 -495 0
715 -714 0
716 -207 -715 0
-716 207 0
-716 715 0
-717 275 716 285 438 0
717 -275 0
717 -716 0
717 -285 0
717 -438 0
718 -289 -717 0
-718 289 0
-718 717 0
719 -29 -697 0
-719 29 0
-719 697 0
720 -31 -707 0
-720 31 0
-720 707 0
-721 33 719 720 0
721 -33 0
721 -719 0
721 -720 0
722 -35 -721 0
-722 35 0
-722 721 0
-723 205 278 528 0
723 -205 0
723 -278 0
723 -528 0
724 -207 -723 0
-724 207 0
-724 723 0
-725 275 724 285 438 0
725 -275 0
725 -724 0
725 -285 0
725 -438 0
726 -319 -725 0
-726 319 0
-726 725 0
-727 72 726 134 441 0
727 -72 0
727 -726 0
727 -134 0
727 -441 0
728 -96 -727 0
-728 96 0
-728 727 0
-729 6 728 0
729 -6 0
729 -728 0
730 -17 -729 0
-730 17 0
-730 729 0
-731 19 730 0
731 -19 0
731 -730 0
732 -39 -731 0
-732 39 0
-732 731 0
-733 41 698 700 708 718 722 36 732 0
733 -41 0
733 -698 0
733 -700 0
733 -708 0
733 -718 0
733 -722 0
733 -36 0
733 -732 0
734 -62 -733 0
-734 62 0
-734 733 0
-735 64 734 0
735 -64 0
735 -734 0
736 -543 -735 0
-736 543 0
-736 735 0
-737 545 578 625 679 736 0
737 -545 0
737 -578 0
737 -625 0
737 -679 0
737 -736 0
738 -739 -737 0
-738 739 0
-738 737 0
-740 3 738 0
740 -3 0
740 -738 0
741 -742 -740 0
-741 742 0
-741 740 0
-743 744 546 741 0
743 -744 0
743 -546 0
743 -741 0
745 -743 -746 0
-745 743 0
-745 746 0
745 0
