c BC-S1.2
p cnf 1867 6285
1 -2 -3 0
-1 2 0
-1 3 0
4 -5 -3 0
-4 5 0
-4 3 0
-6 7 4 0
6 -7 0
6 -4 0
8 -9 -6 0
-8 9 0
-8 6 0
-10 11 8 0
10 -11 0
10 -8 0
12 -13 -10 0
-12 13 0
-12 10 0
-14 15 1 12 0
14 -15 0
14 -1 0
14 -12 0
16 -17 -14 0
-16 17 0
-16 14 0
18 -19 -20 0
-18 19 0
-18 20 0
-21 22 18 0
21 -22 0
21 -18 0
23 -24 -21 0
-23 24 0
-23 21 0
25 -26 -6 0
-25 26 0
-25 6 0
27 -28 -29 0
-27 28 0
-27 29 0
30 -31 -32 0
-30 31 0
-30 32 0
-33 34 23 25 27 30 0
33 -34 0
33 -23 0
33 -25 0
33 -27 0
33 -30 0
35 -36 -33 0
-35 36 0
-35 33 0
37 -38 -6 0
-37 38 0
-37 6 0
39 -40 -29 0
-39 40 0
-39 29 0
-41 42 37 39 0
41 -42 0
41 -37 0
41 -39 0
43 -44 -41 0
-43 44 0
-43 41 0
-45 46 43 0
45 -46 0
45 -43 0
47 -48 -45 0
-47 48 0
-47 45 0
49 -50 -10 0
-49 50 0
-49 10 0
-51 52 35 47 49 0
51 -52 0
51 -35 0
51 -47 0
51 -49 0
53 -54 -51 0
-53 54 0
-53 51 0
55 -56 -6 0
-55 56 0
-55 6 0
57 -58 -32 0
-57 58 0
-57 32 0
-59 60 53 55 57 0
59 -60 0
59 -53 0
59 -55 0
59 -57 0
61 -62 -59 0
-61 62 0
-61 59 0
63 -64 -20 0
-63 64 0
-63 20 0
-65 66 61 63 0
65 -66 0
65 -61 0
65 -63 0
67 -68 -65 0
-67 68 0
-67 65 0
69 -70 -32 0
-69 70 0
-69 32 0
-71 72 16 67 69 0
71 -72 0
71 -16 0
71 -67 0
71 -69 0
73 -74 -71 0
-73 74 0
-73 71 0
-75 76 73 0
75 -76 0
75 -73 0
77 -78 -75 0
-77 78 0
-77 75 0
-79 80 77 0
79 -80 0
79 -77 0
81 -82 -79 0
-81 82 0
-81 79 0
83 -84 -76 0
-83 84 0
-83 76 0
85 -86 -76 0
-85 86 0
-85 76 0
-87 3 85 0
87 -3 0
87 -85 0
88 -2 -87 0
-88 2 0
-88 87 0
89 -5 -87 0
-89 5 0
-89 87 0
-90 7 89 0
90 -7 0
90 -89 0
91 -9 -90 0
-91 9 0
-91 90 0
-92 11 91 0
92 -11 0
92 -91 0
93 -13 -92 0
-93 13 0
-93 92 0
-94 15 83 88 93 0
94 -15 0
94 -83 0
94 -88 0
94 -93 0
95 -17 -94 0
-95 17 0
-95 94 0
96 -78 -76 0
-96 78 0
-96 76 0
-97 80 96 0
97 -80 0
97 -96 0
98 -99 -97 0
-98 99 0
-98 97 0
100 -26 -90 0
-100 26 0
-100 90 0
-101 34 98 23 100 27 30 0
101 -34 0
101 -98 0
101 -23 0
101 -100 0
101 -27 0
101 -30 0
102 -36 -101 0
-102 36 0
-102 101 0
103 -50 -92 0
-103 50 0
-103 92 0
-104 52 102 103 0
104 -52 0
104 -102 0
104 -103 0
105 -54 -104 0
-105 54 0
-105 104 0
106 -107 -76 0
-106 107 0
-106 76 0
108 -56 -90 0
-108 56 0
-108 90 0
-109 60 105 106 108 57 0
109 -60 0
109 -105 0
109 -106 0
109 -108 0
109 -57 0
110 -62 -109 0
-110 62 0
-110 109 0
111 -112 -76 0
-111 112 0
-111 76 0
-113 66 110 111 63 0
113 -66 0
113 -110 0
113 -111 0
113 -63 0
114 -68 -113 0
-114 68 0
-114 113 0
-115 72 95 114 69 0
115 -72 0
115 -95 0
115 -114 0
115 -69 0
116 -117 -115 0
-116 117 0
-116 115 0
118 -13 -11 0
-118 13 0
-118 11 0
-119 15 118 0
119 -15 0
119 -118 0
120 -17 -119 0
-120 17 0
-120 119 0
-121 34 98 23 27 30 0
121 -34 0
121 -98 0
121 -23 0
121 -27 0
121 -30 0
122 -36 -121 0
-122 36 0
-122 121 0
123 -50 -11 0
-123 50 0
-123 11 0
-124 52 122 123 0
124 -52 0
124 -122 0
124 -123 0
125 -54 -124 0
-125 54 0
-125 124 0
-126 60 125 57 0
126 -60 0
126 -125 0
126 -57 0
127 -62 -126 0
-127 62 0
-127 126 0
-128 66 127 63 0
128 -66 0
128 -127 0
128 -63 0
129 -68 -128 0
-129 68 0
-129 128 0
-130 72 120 129 69 0
130 -72 0
130 -120 0
130 -129 0
130 -69 0
131 -74 -130 0
-131 74 0
-131 130 0
-132 76 131 0
132 -76 0
132 -131 0
133 -86 -132 0
-133 86 0
-133 132 0
-134 3 133 0
134 -3 0
134 -133 0
135 -5 -134 0
-135 5 0
-135 134 0
-136 7 135 0
136 -7 0
136 -135 0
137 -38 -136 0
-137 38 0
-137 136 0
-138 42 137 39 0
138 -42 0
138 -137 0
138 -39 0
139 -44 -138 0
-139 44 0
-139 138 0
-140 46 116 139 0
140 -46 0
140 -116 0
140 -139 0
141 -142 -140 0
-141 142 0
-141 140 0
143 -144 -29 0
-143 144 0
-143 29 0
-145 146 81 141 143 0
145 -146 0
145 -81 0
145 -141 0
145 -143 0
147 -148 -145 0
-147 148 0
-147 145 0
149 -82 -97 0
-149 82 0
-149 97 0
150 -142 -46 0
-150 142 0
-150 46 0
-151 146 149 150 143 0
151 -146 0
151 -149 0
151 -150 0
151 -143 0
152 -153 -151 0
-152 153 0
-152 151 0
154 -48 -46 0
-154 48 0
-154 46 0
-155 52 152 122 154 123 0
155 -52 0
155 -152 0
155 -122 0
155 -154 0
155 -123 0
156 -54 -155 0
-156 54 0
-156 155 0
-157 60 156 57 0
157 -60 0
157 -156 0
157 -57 0
158 -62 -157 0
-158 62 0
-158 157 0
-159 66 158 63 0
159 -66 0
159 -158 0
159 -63 0
160 -68 -159 0
-160 68 0
-160 159 0
-161 72 120 160 69 0
161 -72 0
161 -120 0
161 -160 0
161 -69 0
162 -74 -161 0
-162 74 0
-162 161 0
-163 76 162 0
163 -76 0
163 -162 0
164 -86 -163 0
-164 86 0
-164 163 0
-165 3 164 0
165 -3 0
165 -164 0
166 -5 -165 0
-166 5 0
-166 165 0
-167 7 166 0
167 -7 0
167 -166 0
168 -38 -167 0
-168 38 0
-168 167 0
-169 42 168 39 0
169 -42 0
169 -168 0
169 -39 0
170 -171 -169 0
-170 171 0
-170 169 0
-172 173 147 170 0
172 -173 0
172 -147 0
172 -170 0
174 -175 -172 0
-174 175 0
-174 172 0
176 -142 -45 0
-176 142 0
-176 45 0
-177 146 176 143 0
177 -146 0
177 -176 0
177 -143 0
178 -148 -177 0
-178 148 0
-178 177 0
179 -171 -41 0
-179 171 0
-179 41 0
-180 173 178 179 0
180 -173 0
180 -178 0
180 -179 0
181 -182 -180 0
-181 182 0
-181 180 0
183 -184 -180 0
-183 184 0
-183 180 0
-185 3 183 0
185 -3 0
185 -183 0
186 -2 -185 0
-186 2 0
-186 185 0
-187 42 39 0
187 -42 0
187 -39 0
188 -44 -187 0
-188 44 0
-188 187 0
-189 46 188 0
189 -46 0
189 -188 0
190 -142 -189 0
-190 142 0
-190 189 0
-191 146 190 143 0
191 -146 0
191 -190 0
191 -143 0
192 -148 -191 0
-192 148 0
-192 191 0
193 -171 -187 0
-193 171 0
-193 187 0
-194 173 192 193 0
194 -173 0
194 -192 0
194 -193 0
195 -184 -194 0
-195 184 0
-195 194 0
-196 3 195 0
196 -3 0
196 -195 0
197 -5 -196 0
-197 5 0
-197 196 0
-198 7 197 0
198 -7 0
198 -197 0
199 -9 -198 0
-199 9 0
-199 198 0
-200 11 199 0
200 -11 0
200 -199 0
201 -13 -200 0
-201 13 0
-201 200 0
-202 15 181 186 201 0
202 -15 0
202 -181 0
202 -186 0
202 -201 0
203 -17 -202 0
-203 17 0
-203 202 0
-204 173 193 0
204 -173 0
204 -193 0
205 -184 -204 0
-205 184 0
-205 204 0
-206 3 205 0
206 -3 0
206 -205 0
207 -5 -206 0
-207 5 0
-207 206 0
-208 7 207 0
208 -7 0
208 -207 0
209 -38 -208 0
-209 38 0
-209 208 0
-210 42 209 39 0
210 -42 0
210 -209 0
210 -39 0
211 -44 -210 0
-211 44 0
-211 210 0
-212 46 211 0
212 -46 0
212 -211 0
213 -142 -212 0
-213 142 0
-213 212 0
-214 146 213 143 0
214 -146 0
214 -213 0
214 -143 0
215 -153 -214 0
-215 153 0
-215 214 0
216 -217 -180 0
-216 217 0
-216 180 0
218 -26 -198 0
-218 26 0
-218 198 0
-219 34 216 23 218 27 30 0
219 -34 0
219 -216 0
219 -23 0
219 -218 0
219 -27 0
219 -30 0
220 -36 -219 0
-220 36 0
-220 219 0
-221 146 143 0
221 -146 0
221 -143 0
222 -148 -221 0
-222 148 0
-222 221 0
-223 173 222 193 0
223 -173 0
223 -222 0
223 -193 0
224 -184 -223 0
-224 184 0
-224 223 0
-225 3 224 0
225 -3 0
225 -224 0
226 -5 -225 0
-226 5 0
-226 225 0
-227 7 226 0
227 -7 0
227 -226 0
228 -38 -227 0
-228 38 0
-228 227 0
-229 42 228 39 0
229 -42 0
229 -228 0
229 -39 0
230 -44 -229 0
-230 44 0
-230 229 0
-231 46 230 0
231 -46 0
231 -230 0
232 -48 -231 0
-232 48 0
-232 231 0
233 -50 -200 0
-233 50 0
-233 200 0
-234 52 215 220 232 233 0
234 -52 0
234 -215 0
234 -220 0
234 -232 0
234 -233 0
235 -54 -234 0
-235 54 0
-235 234 0
236 -56 -198 0
-236 56 0
-236 198 0
-237 60 235 236 57 0
237 -60 0
237 -235 0
237 -236 0
237 -57 0
238 -62 -237 0
-238 62 0
-238 237 0
-239 66 238 63 0
239 -66 0
239 -238 0
239 -63 0
240 -68 -239 0
-240 68 0
-240 239 0
-241 72 203 240 69 0
241 -72 0
241 -203 0
241 -240 0
241 -69 0
242 -74 -241 0
-242 74 0
-242 241 0
-243 76 242 0
243 -76 0
243 -242 0
244 -78 -243 0
-244 78 0
-244 243 0
-245 80 244 0
245 -80 0
245 -244 0
246 -247 -245 0
-246 247 0
-246 245 0
-248 173 179 0
248 -173 0
248 -179 0
249 -182 -248 0
-249 182 0
-249 248 0
250 -184 -248 0
-250 184 0
-250 248 0
-251 3 250 0
251 -3 0
251 -250 0
252 -2 -251 0
-252 2 0
-252 251 0
253 -9 -208 0
-253 9 0
-253 208 0
-254 11 253 0
254 -11 0
254 -253 0
255 -13 -254 0
-255 13 0
-255 254 0
-256 15 249 252 255 0
256 -15 0
256 -249 0
256 -252 0
256 -255 0
257 -17 -256 0
-257 17 0
-257 256 0
-258 66 63 0
258 -66 0
258 -63 0
259 -68 -258 0
-259 68 0
-259 258 0
-260 72 257 259 69 0
260 -72 0
260 -257 0
260 -259 0
260 -69 0
261 -74 -260 0
-261 74 0
-261 260 0
-262 76 261 0
262 -76 0
262 -261 0
263 -78 -262 0
-263 78 0
-263 262 0
-264 80 263 0
264 -80 0
264 -263 0
265 -82 -264 0
-265 82 0
-265 264 0
266 -38 -90 0
-266 38 0
-266 90 0
-267 42 266 39 0
267 -42 0
267 -266 0
267 -39 0
268 -171 -267 0
-268 171 0
-268 267 0
-269 173 268 0
269 -173 0
269 -268 0
270 -182 -269 0
-270 182 0
-270 269 0
271 -184 -269 0
-271 184 0
-271 269 0
-272 3 271 85 0
272 -3 0
272 -271 0
272 -85 0
273 -2 -272 0
-273 2 0
-273 272 0
-274 3 205 85 0
274 -3 0
274 -205 0
274 -85 0
275 -5 -274 0
-275 5 0
-275 274 0
-276 7 275 0
276 -7 0
276 -275 0
277 -9 -276 0
-277 9 0
-277 276 0
-278 11 277 0
278 -11 0
278 -277 0
279 -13 -278 0
-279 13 0
-279 278 0
-280 15 270 83 273 279 0
280 -15 0
280 -270 0
280 -83 0
280 -273 0
280 -279 0
281 -17 -280 0
-281 17 0
-281 280 0
-282 66 111 63 0
282 -66 0
282 -111 0
282 -63 0
283 -68 -282 0
-283 68 0
-283 282 0
-284 72 281 283 69 0
284 -72 0
284 -281 0
284 -283 0
284 -69 0
285 -117 -284 0
-285 117 0
-285 284 0
286 -182 -204 0
-286 182 0
-286 204 0
-287 15 286 118 0
287 -15 0
287 -286 0
287 -118 0
288 -17 -287 0
-288 17 0
-288 287 0
-289 72 288 259 69 0
289 -72 0
289 -288 0
289 -259 0
289 -69 0
290 -74 -289 0
-290 74 0
-290 289 0
-291 76 290 0
291 -76 0
291 -290 0
292 -86 -291 0
-292 86 0
-292 291 0
-293 3 205 292 0
293 -3 0
293 -205 0
293 -292 0
294 -5 -293 0
-294 5 0
-294 293 0
-295 7 294 0
295 -7 0
295 -294 0
296 -38 -295 0
-296 38 0
-296 295 0
-297 42 296 39 0
297 -42 0
297 -296 0
297 -39 0
298 -44 -297 0
-298 44 0
-298 297 0
-299 46 285 298 0
299 -46 0
299 -285 0
299 -298 0
300 -142 -299 0
-300 142 0
-300 299 0
-301 146 265 300 143 0
301 -146 0
301 -265 0
301 -300 0
301 -143 0
302 -153 -301 0
-302 153 0
-302 301 0
-303 72 16 259 69 0
303 -72 0
303 -16 0
303 -259 0
303 -69 0
304 -74 -303 0
-304 74 0
-304 303 0
-305 76 304 0
305 -76 0
305 -304 0
306 -78 -305 0
-306 78 0
-306 305 0
-307 80 306 0
307 -80 0
307 -306 0
308 -82 -307 0
-308 82 0
-308 307 0
-309 72 95 283 69 0
309 -72 0
309 -95 0
309 -283 0
309 -69 0
310 -117 -309 0
-310 117 0
-310 309 0
-311 3 292 0
311 -3 0
311 -292 0
312 -5 -311 0
-312 5 0
-312 311 0
-313 7 312 0
313 -7 0
313 -312 0
314 -38 -313 0
-314 38 0
-314 313 0
-315 42 314 39 0
315 -42 0
315 -314 0
315 -39 0
316 -44 -315 0
-316 44 0
-316 315 0
-317 46 310 316 0
317 -46 0
317 -310 0
317 -316 0
318 -142 -317 0
-318 142 0
-318 317 0
-319 146 308 318 143 0
319 -146 0
319 -308 0
319 -318 0
319 -143 0
320 -148 -319 0
-320 148 0
-320 319 0
-321 72 120 259 69 0
321 -72 0
321 -120 0
321 -259 0
321 -69 0
322 -74 -321 0
-322 74 0
-322 321 0
-323 76 322 0
323 -76 0
323 -322 0
324 -86 -323 0
-324 86 0
-324 323 0
-325 3 324 0
325 -3 0
325 -324 0
326 -5 -325 0
-326 5 0
-326 325 0
-327 7 326 0
327 -7 0
327 -326 0
328 -38 -327 0
-328 38 0
-328 327 0
-329 42 328 39 0
329 -42 0
329 -328 0
329 -39 0
330 -171 -329 0
-330 171 0
-330 329 0
-331 173 320 330 0
331 -173 0
331 -320 0
331 -330 0
332 -217 -331 0
-332 217 0
-332 331 0
-333 72 203 259 69 0
333 -72 0
333 -203 0
333 -259 0
333 -69 0
334 -74 -333 0
-334 74 0
-334 333 0
-335 76 334 0
335 -76 0
335 -334 0
336 -78 -335 0
-336 78 0
-336 335 0
-337 80 336 0
337 -80 0
337 -336 0
338 -99 -337 0
-338 99 0
-338 337 0
339 -78 -291 0
-339 78 0
-339 291 0
-340 80 339 0
340 -80 0
340 -339 0
341 -82 -340 0
-341 82 0
-341 340 0
-342 15 83 118 0
342 -15 0
342 -83 0
342 -118 0
343 -17 -342 0
-343 17 0
-343 342 0
-344 72 343 283 69 0
344 -72 0
344 -343 0
344 -283 0
344 -69 0
345 -117 -344 0
-345 117 0
-345 344 0
-346 46 345 188 0
346 -46 0
346 -345 0
346 -188 0
347 -142 -346 0
-347 142 0
-347 346 0
-348 146 341 347 143 0
348 -146 0
348 -341 0
348 -347 0
348 -143 0
349 -148 -348 0
-349 148 0
-349 348 0
-350 173 349 193 0
350 -173 0
350 -349 0
350 -193 0
351 -184 -350 0
-351 184 0
-351 350 0
-352 146 149 190 143 0
352 -146 0
352 -149 0
352 -190 0
352 -143 0
353 -148 -352 0
-353 148 0
-353 352 0
-354 173 353 193 0
354 -173 0
354 -353 0
354 -193 0
355 -182 -354 0
-355 182 0
-355 354 0
-356 15 355 118 0
356 -15 0
356 -355 0
356 -118 0
357 -17 -356 0
-357 17 0
-357 356 0
-358 72 357 259 69 0
358 -72 0
358 -357 0
358 -259 0
358 -69 0
359 -74 -358 0
-359 74 0
-359 358 0
-360 76 359 0
360 -76 0
360 -359 0
361 -86 -360 0
-361 86 0
-361 360 0
-362 3 351 361 0
362 -3 0
362 -351 0
362 -361 0
363 -5 -362 0
-363 5 0
-363 362 0
-364 7 363 0
364 -7 0
364 -363 0
365 -26 -364 0
-365 26 0
-365 364 0
-366 34 332 338 23 365 27 30 0
366 -34 0
366 -332 0
366 -338 0
366 -23 0
366 -365 0
366 -27 0
366 -30 0
367 -36 -366 0
-367 36 0
-367 366 0
-368 146 149 143 0
368 -146 0
368 -149 0
368 -143 0
369 -148 -368 0
-369 148 0
-369 368 0
-370 173 369 268 0
370 -173 0
370 -369 0
370 -268 0
371 -182 -370 0
-371 182 0
-371 370 0
372 -184 -370 0
-372 184 0
-372 370 0
-373 3 372 85 0
373 -3 0
373 -372 0
373 -85 0
374 -2 -373 0
-374 2 0
-374 373 0
-375 173 369 193 0
375 -173 0
375 -369 0
375 -193 0
376 -184 -375 0
-376 184 0
-376 375 0
-377 3 376 85 0
377 -3 0
377 -376 0
377 -85 0
378 -5 -377 0
-378 5 0
-378 377 0
-379 7 378 0
379 -7 0
379 -378 0
380 -9 -379 0
-380 9 0
-380 379 0
-381 11 380 0
381 -11 0
381 -380 0
382 -13 -381 0
-382 13 0
-382 381 0
-383 15 371 83 374 382 0
383 -15 0
383 -371 0
383 -83 0
383 -374 0
383 -382 0
384 -17 -383 0
-384 17 0
-384 383 0
-385 72 384 283 69 0
385 -72 0
385 -384 0
385 -283 0
385 -69 0
386 -117 -385 0
-386 117 0
-386 385 0
-387 146 341 143 0
387 -146 0
387 -341 0
387 -143 0
388 -148 -387 0
-388 148 0
-388 387 0
-389 173 388 193 0
389 -173 0
389 -388 0
389 -193 0
390 -184 -389 0
-390 184 0
-390 389 0
391 -182 -375 0
-391 182 0
-391 375 0
-392 15 391 118 0
392 -15 0
392 -391 0
392 -118 0
393 -17 -392 0
-393 17 0
-393 392 0
-394 72 393 259 69 0
394 -72 0
394 -393 0
394 -259 0
394 -69 0
395 -74 -394 0
-395 74 0
-395 394 0
-396 76 395 0
396 -76 0
396 -395 0
397 -86 -396 0
-397 86 0
-397 396 0
-398 3 390 397 0
398 -3 0
398 -390 0
398 -397 0
399 -5 -398 0
-399 5 0
-399 398 0
-400 7 399 0
400 -7 0
400 -399 0
401 -38 -400 0
-401 38 0
-401 400 0
-402 42 401 39 0
402 -42 0
402 -401 0
402 -39 0
403 -44 -402 0
-403 44 0
-403 402 0
-404 46 386 403 0
404 -46 0
404 -386 0
404 -403 0
405 -48 -404 0
-405 48 0
-405 404 0
406 -17 -15 0
-406 17 0
-406 15 0
-407 72 406 259 69 0
407 -72 0
407 -406 0
407 -259 0
407 -69 0
408 -74 -407 0
-408 74 0
-408 407 0
-409 76 408 0
409 -76 0
409 -408 0
410 -78 -409 0
-410 78 0
-410 409 0
-411 80 410 0
411 -80 0
411 -410 0
412 -82 -411 0
-412 82 0
-412 411 0
-413 15 83 0
413 -15 0
413 -83 0
414 -17 -413 0
-414 17 0
-414 413 0
-415 72 414 283 69 0
415 -72 0
415 -414 0
415 -283 0
415 -69 0
416 -117 -415 0
-416 117 0
-416 415 0
-417 46 416 188 0
417 -46 0
417 -416 0
417 -188 0
418 -142 -417 0
-418 142 0
-418 417 0
-419 146 412 418 143 0
419 -146 0
419 -412 0
419 -418 0
419 -143 0
420 -148 -419 0
-420 148 0
-420 419 0
-421 173 420 193 0
421 -173 0
421 -420 0
421 -193 0
422 -184 -421 0
-422 184 0
-422 421 0
-423 15 355 0
423 -15 0
423 -355 0
424 -17 -423 0
-424 17 0
-424 423 0
-425 72 424 259 69 0
425 -72 0
425 -424 0
425 -259 0
425 -69 0
426 -74 -425 0
-426 74 0
-426 425 0
-427 76 426 0
427 -76 0
427 -426 0
428 -86 -427 0
-428 86 0
-428 427 0
-429 3 422 428 0
429 -3 0
429 -422 0
429 -428 0
430 -5 -429 0
-430 5 0
-430 429 0
-431 7 430 0
431 -7 0
431 -430 0
432 -9 -431 0
-432 9 0
-432 431 0
-433 11 432 0
433 -11 0
433 -432 0
434 -50 -433 0
-434 50 0
-434 433 0
-435 52 302 367 405 434 0
435 -52 0
435 -302 0
435 -367 0
435 -405 0
435 -434 0
436 -54 -435 0
-436 54 0
-436 435 0
-437 146 149 176 143 0
437 -146 0
437 -149 0
437 -176 0
437 -143 0
438 -148 -437 0
-438 148 0
-438 437 0
-439 173 438 179 0
439 -173 0
439 -438 0
439 -179 0
440 -182 -439 0
-440 182 0
-440 439 0
441 -184 -439 0
-441 184 0
-441 439 0
-442 3 441 0
442 -3 0
442 -441 0
443 -2 -442 0
-443 2 0
-443 442 0
444 -184 -354 0
-444 184 0
-444 354 0
-445 3 444 0
445 -3 0
445 -444 0
446 -5 -445 0
-446 5 0
-446 445 0
-447 7 446 0
447 -7 0
447 -446 0
448 -9 -447 0
-448 9 0
-448 447 0
-449 11 448 0
449 -11 0
449 -448 0
450 -13 -449 0
-450 13 0
-450 449 0
-451 15 440 443 450 0
451 -15 0
451 -440 0
451 -443 0
451 -450 0
452 -17 -451 0
-452 17 0
-452 451 0
-453 72 452 259 69 0
453 -72 0
453 -452 0
453 -259 0
453 -69 0
454 -74 -453 0
-454 74 0
-454 453 0
-455 76 454 0
455 -76 0
455 -454 0
456 -107 -455 0
-456 107 0
-456 455 0
457 -44 -267 0
-457 44 0
-457 267 0
-458 46 457 0
458 -46 0
458 -457 0
459 -142 -458 0
-459 142 0
-459 458 0
-460 146 149 459 143 0
460 -146 0
460 -149 0
460 -459 0
460 -143 0
461 -148 -460 0
-461 148 0
-461 460 0
-462 173 461 268 0
462 -173 0
462 -461 0
462 -268 0
463 -182 -462 0
-463 182 0
-463 462 0
464 -184 -462 0
-464 184 0
-464 462 0
-465 3 464 85 0
465 -3 0
465 -464 0
465 -85 0
466 -2 -465 0
-466 2 0
-466 465 0
-467 3 444 85 0
467 -3 0
467 -444 0
467 -85 0
468 -5 -467 0
-468 5 0
-468 467 0
-469 7 468 0
469 -7 0
469 -468 0
470 -9 -469 0
-470 9 0
-470 469 0
-471 11 470 0
471 -11 0
471 -470 0
472 -13 -471 0
-472 13 0
-472 471 0
-473 15 463 83 466 472 0
473 -15 0
473 -463 0
473 -83 0
473 -466 0
473 -472 0
474 -17 -473 0
-474 17 0
-474 473 0
-475 72 474 283 69 0
475 -72 0
475 -474 0
475 -283 0
475 -69 0
476 -477 -475 0
-476 477 0
-476 475 0
478 -56 -364 0
-478 56 0
-478 364 0
-479 60 436 456 476 478 57 0
479 -60 0
479 -436 0
479 -456 0
479 -476 0
479 -478 0
479 -57 0
480 -481 -479 0
-480 481 0
-480 479 0
482 -38 -276 0
-482 38 0
-482 276 0
-483 42 482 39 0
483 -42 0
483 -482 0
483 -39 0
484 -44 -483 0
-484 44 0
-484 483 0
-485 46 484 0
485 -46 0
485 -484 0
486 -142 -485 0
-486 142 0
-486 485 0
-487 146 149 486 143 0
487 -146 0
487 -149 0
487 -486 0
487 -143 0
488 -153 -487 0
-488 153 0
-488 487 0
489 -217 -462 0
-489 217 0
-489 462 0
490 -26 -469 0
-490 26 0
-490 469 0
-491 34 489 98 23 490 27 30 0
491 -34 0
491 -489 0
491 -98 0
491 -23 0
491 -490 0
491 -27 0
491 -30 0
492 -36 -491 0
-492 36 0
-492 491 0
493 -38 -379 0
-493 38 0
-493 379 0
-494 42 493 39 0
494 -42 0
494 -493 0
494 -39 0
495 -44 -494 0
-495 44 0
-495 494 0
-496 46 495 0
496 -46 0
496 -495 0
497 -48 -496 0
-497 48 0
-497 496 0
498 -50 -471 0
-498 50 0
-498 471 0
-499 52 488 492 497 498 0
499 -52 0
499 -488 0
499 -492 0
499 -497 0
499 -498 0
500 -54 -499 0
-500 54 0
-500 499 0
501 -56 -469 0
-501 56 0
-501 469 0
-502 60 500 106 501 57 0
502 -60 0
502 -500 0
502 -106 0
502 -501 0
502 -57 0
503 -62 -502 0
-503 62 0
-503 502 0
-504 66 503 111 63 0
504 -66 0
504 -503 0
504 -111 0
504 -63 0
505 -68 -504 0
-505 68 0
-505 504 0
-506 72 474 505 69 0
506 -72 0
506 -474 0
506 -505 0
506 -69 0
507 -508 -506 0
-507 508 0
-507 506 0
-509 146 149 213 143 0
509 -146 0
509 -149 0
509 -213 0
509 -143 0
510 -153 -509 0
-510 153 0
-510 509 0
511 -217 -439 0
-511 217 0
-511 439 0
512 -26 -447 0
-512 26 0
-512 447 0
-513 34 511 98 23 512 27 30 0
513 -34 0
513 -511 0
513 -98 0
513 -23 0
513 -512 0
513 -27 0
513 -30 0
514 -36 -513 0
-514 36 0
-514 513 0
515 -50 -449 0
-515 50 0
-515 449 0
-516 52 510 514 497 515 0
516 -52 0
516 -510 0
516 -514 0
516 -497 0
516 -515 0
517 -54 -516 0
-517 54 0
-517 516 0
518 -56 -447 0
-518 56 0
-518 447 0
-519 60 517 518 57 0
519 -60 0
519 -517 0
519 -518 0
519 -57 0
520 -62 -519 0
-520 62 0
-520 519 0
-521 66 520 63 0
521 -66 0
521 -520 0
521 -63 0
522 -68 -521 0
-522 68 0
-522 521 0
-523 72 452 522 69 0
523 -72 0
523 -452 0
523 -522 0
523 -69 0
524 -74 -523 0
-524 74 0
-524 523 0
-525 76 524 0
525 -76 0
525 -524 0
526 -527 -525 0
-526 527 0
-526 525 0
528 -217 -248 0
-528 217 0
-528 248 0
529 -26 -208 0
-529 26 0
-529 208 0
-530 34 528 23 529 27 30 0
530 -34 0
530 -528 0
530 -23 0
530 -529 0
530 -27 0
530 -30 0
531 -36 -530 0
-531 36 0
-531 530 0
532 -48 -212 0
-532 48 0
-532 212 0
533 -50 -254 0
-533 50 0
-533 254 0
-534 52 531 532 533 0
534 -52 0
534 -531 0
534 -532 0
534 -533 0
535 -54 -534 0
-535 54 0
-535 534 0
536 -56 -208 0
-536 56 0
-536 208 0
-537 60 535 536 57 0
537 -60 0
537 -535 0
537 -536 0
537 -57 0
538 -62 -537 0
-538 62 0
-538 537 0
-539 66 538 63 0
539 -66 0
539 -538 0
539 -63 0
540 -68 -539 0
-540 68 0
-540 539 0
-541 72 257 540 69 0
541 -72 0
541 -257 0
541 -540 0
541 -69 0
542 -74 -541 0
-542 74 0
-542 541 0
-543 76 542 0
543 -76 0
543 -542 0
544 -78 -543 0
-544 78 0
-544 543 0
-545 80 544 0
545 -80 0
545 -544 0
546 -82 -545 0
-546 82 0
-546 545 0
547 -217 -269 0
-547 217 0
-547 269 0
548 -26 -276 0
-548 26 0
-548 276 0
-549 34 547 98 23 548 27 30 0
549 -34 0
549 -547 0
549 -98 0
549 -23 0
549 -548 0
549 -27 0
549 -30 0
550 -36 -549 0
-550 36 0
-550 549 0
551 -50 -278 0
-551 50 0
-551 278 0
-552 52 550 551 0
552 -52 0
552 -550 0
552 -551 0
553 -54 -552 0
-553 54 0
-553 552 0
554 -56 -276 0
-554 56 0
-554 276 0
-555 60 553 106 554 57 0
555 -60 0
555 -553 0
555 -106 0
555 -554 0
555 -57 0
556 -62 -555 0
-556 62 0
-556 555 0
-557 66 556 111 63 0
557 -66 0
557 -556 0
557 -111 0
557 -63 0
558 -68 -557 0
-558 68 0
-558 557 0
-559 72 281 558 69 0
559 -72 0
559 -281 0
559 -558 0
559 -69 0
560 -117 -559 0
-560 117 0
-560 559 0
561 -217 -204 0
-561 217 0
-561 204 0
-562 34 561 98 23 27 30 0
562 -34 0
562 -561 0
562 -98 0
562 -23 0
562 -27 0
562 -30 0
563 -36 -562 0
-563 36 0
-563 562 0
-564 52 563 123 0
564 -52 0
564 -563 0
564 -123 0
565 -54 -564 0
-565 54 0
-565 564 0
-566 60 565 57 0
566 -60 0
566 -565 0
566 -57 0
567 -62 -566 0
-567 62 0
-567 566 0
-568 66 567 63 0
568 -66 0
568 -567 0
568 -63 0
569 -68 -568 0
-569 68 0
-569 568 0
-570 72 288 569 69 0
570 -72 0
570 -288 0
570 -569 0
570 -69 0
571 -74 -570 0
-571 74 0
-571 570 0
-572 76 571 0
572 -76 0
572 -571 0
573 -86 -572 0
-573 86 0
-573 572 0
-574 3 205 573 0
574 -3 0
574 -205 0
574 -573 0
575 -5 -574 0
-575 5 0
-575 574 0
-576 7 575 0
576 -7 0
576 -575 0
577 -38 -576 0
-577 38 0
-577 576 0
-578 42 577 39 0
578 -42 0
578 -577 0
578 -39 0
579 -44 -578 0
-579 44 0
-579 578 0
-580 46 560 579 0
580 -46 0
580 -560 0
580 -579 0
581 -142 -580 0
-581 142 0
-581 580 0
-582 146 546 581 143 0
582 -146 0
582 -546 0
582 -581 0
582 -143 0
583 -584 -582 0
-583 584 0
-583 582 0
585 -586 -172 0
-585 586 0
-585 172 0
-587 588 583 585 0
587 -588 0
587 -583 0
587 -585 0
589 -590 -587 0
-589 590 0
-589 587 0
-591 592 174 246 480 507 526 589 0
591 -592 0
591 -174 0
591 -246 0
591 -480 0
591 -507 0
591 -526 0
591 -589 0
593 -594 -591 0
-593 594 0
-593 591 0
595 -175 -248 0
-595 175 0
-595 248 0
596 -586 -248 0
-596 586 0
-596 248 0
-597 588 596 0
597 -588 0
597 -596 0
598 -590 -597 0
-598 590 0
-598 597 0
-599 592 595 598 0
599 -592 0
599 -595 0
599 -598 0
600 -601 -599 0
-600 601 0
-600 599 0
602 -603 -599 0
-602 603 0
-602 599 0
604 -605 -599 0
-604 605 0
-604 599 0
-606 20 604 0
606 -20 0
606 -604 0
607 -19 -606 0
-607 19 0
-607 606 0
-608 22 602 607 0
608 -22 0
608 -602 0
608 -607 0
609 -24 -608 0
-609 24 0
-609 608 0
-610 34 528 609 529 27 30 0
610 -34 0
610 -528 0
610 -609 0
610 -529 0
610 -27 0
610 -30 0
611 -36 -610 0
-611 36 0
-611 610 0
-612 52 600 611 532 533 0
612 -52 0
612 -600 0
612 -611 0
612 -532 0
612 -533 0
613 -54 -612 0
-613 54 0
-613 612 0
-614 60 613 536 57 0
614 -60 0
614 -613 0
614 -536 0
614 -57 0
615 -62 -614 0
-615 62 0
-615 614 0
616 -24 -22 0
-616 24 0
-616 22 0
-617 34 528 616 529 27 30 0
617 -34 0
617 -528 0
617 -616 0
617 -529 0
617 -27 0
617 -30 0
618 -36 -617 0
-618 36 0
-618 617 0
-619 52 618 532 533 0
619 -52 0
619 -618 0
619 -532 0
619 -533 0
620 -54 -619 0
-620 54 0
-620 619 0
-621 60 620 536 57 0
621 -60 0
621 -620 0
621 -536 0
621 -57 0
622 -481 -621 0
-622 481 0
-622 621 0
-623 592 595 622 598 0
623 -592 0
623 -595 0
623 -622 0
623 -598 0
624 -605 -623 0
-624 605 0
-624 623 0
-625 20 624 0
625 -20 0
625 -624 0
626 -64 -625 0
-626 64 0
-626 625 0
-627 66 615 626 0
627 -66 0
627 -615 0
627 -626 0
628 -68 -627 0
-628 68 0
-628 627 0
-629 72 257 628 69 0
629 -72 0
629 -257 0
629 -628 0
629 -69 0
630 -74 -629 0
-630 74 0
-630 629 0
-631 76 630 0
631 -76 0
631 -630 0
632 -78 -631 0
-632 78 0
-632 631 0
-633 80 632 0
633 -80 0
633 -632 0
634 -82 -633 0
-634 82 0
-634 633 0
635 -175 -269 0
-635 175 0
-635 269 0
636 -247 -97 0
-636 247 0
-636 97 0
637 -527 -76 0
-637 527 0
-637 76 0
638 -586 -269 0
-638 586 0
-638 269 0
-639 588 638 0
639 -588 0
639 -638 0
640 -590 -639 0
-640 590 0
-640 639 0
-641 592 635 636 637 640 0
641 -592 0
641 -635 0
641 -636 0
641 -637 0
641 -640 0
642 -601 -641 0
-642 601 0
-642 641 0
643 -603 -641 0
-643 603 0
-643 641 0
644 -605 -641 0
-644 605 0
-644 641 0
-645 20 644 0
645 -20 0
645 -644 0
646 -19 -645 0
-646 19 0
-646 645 0
-647 22 643 646 0
647 -22 0
647 -643 0
647 -646 0
648 -24 -647 0
-648 24 0
-648 647 0
-649 34 547 98 648 548 27 30 0
649 -34 0
649 -547 0
649 -98 0
649 -648 0
649 -548 0
649 -27 0
649 -30 0
650 -36 -649 0
-650 36 0
-650 649 0
-651 52 642 650 551 0
651 -52 0
651 -642 0
651 -650 0
651 -551 0
652 -54 -651 0
-652 54 0
-652 651 0
-653 60 652 106 554 57 0
653 -60 0
653 -652 0
653 -106 0
653 -554 0
653 -57 0
654 -62 -653 0
-654 62 0
-654 653 0
-655 34 547 98 616 548 27 30 0
655 -34 0
655 -547 0
655 -98 0
655 -616 0
655 -548 0
655 -27 0
655 -30 0
656 -36 -655 0
-656 36 0
-656 655 0
-657 52 656 551 0
657 -52 0
657 -656 0
657 -551 0
658 -54 -657 0
-658 54 0
-658 657 0
-659 60 658 106 554 57 0
659 -60 0
659 -658 0
659 -106 0
659 -554 0
659 -57 0
660 -481 -659 0
-660 481 0
-660 659 0
-661 592 635 636 660 637 640 0
661 -592 0
661 -635 0
661 -636 0
661 -660 0
661 -637 0
661 -640 0
662 -605 -661 0
-662 605 0
-662 661 0
-663 20 662 0
663 -20 0
663 -662 0
664 -64 -663 0
-664 64 0
-664 663 0
-665 66 654 111 664 0
665 -66 0
665 -654 0
665 -111 0
665 -664 0
666 -68 -665 0
-666 68 0
-666 665 0
-667 72 281 666 69 0
667 -72 0
667 -281 0
667 -666 0
667 -69 0
668 -117 -667 0
-668 117 0
-668 667 0
669 -175 -204 0
-669 175 0
-669 204 0
670 -586 -204 0
-670 586 0
-670 204 0
-671 588 670 0
671 -588 0
671 -670 0
672 -590 -671 0
-672 590 0
-672 671 0
-673 592 669 636 672 0
673 -592 0
673 -669 0
673 -636 0
673 -672 0
674 -601 -673 0
-674 601 0
-674 673 0
675 -603 -673 0
-675 603 0
-675 673 0
676 -605 -673 0
-676 605 0
-676 673 0
-677 20 676 0
677 -20 0
677 -676 0
678 -19 -677 0
-678 19 0
-678 677 0
-679 22 675 678 0
679 -22 0
679 -675 0
679 -678 0
680 -24 -679 0
-680 24 0
-680 679 0
-681 34 561 98 680 27 30 0
681 -34 0
681 -561 0
681 -98 0
681 -680 0
681 -27 0
681 -30 0
682 -36 -681 0
-682 36 0
-682 681 0
-683 52 674 682 123 0
683 -52 0
683 -674 0
683 -682 0
683 -123 0
684 -54 -683 0
-684 54 0
-684 683 0
-685 60 684 57 0
685 -60 0
685 -684 0
685 -57 0
686 -62 -685 0
-686 62 0
-686 685 0
-687 34 561 98 616 27 30 0
687 -34 0
687 -561 0
687 -98 0
687 -616 0
687 -27 0
687 -30 0
688 -36 -687 0
-688 36 0
-688 687 0
-689 52 688 123 0
689 -52 0
689 -688 0
689 -123 0
690 -54 -689 0
-690 54 0
-690 689 0
-691 60 690 57 0
691 -60 0
691 -690 0
691 -57 0
692 -481 -691 0
-692 481 0
-692 691 0
-693 592 669 636 692 672 0
693 -592 0
693 -669 0
693 -636 0
693 -692 0
693 -672 0
694 -605 -693 0
-694 605 0
-694 693 0
-695 20 694 0
695 -20 0
695 -694 0
696 -64 -695 0
-696 64 0
-696 695 0
-697 66 686 696 0
697 -66 0
697 -686 0
697 -696 0
698 -68 -697 0
-698 68 0
-698 697 0
-699 72 288 698 69 0
699 -72 0
699 -288 0
699 -698 0
699 -69 0
700 -74 -699 0
-700 74 0
-700 699 0
-701 76 700 0
701 -76 0
701 -700 0
702 -86 -701 0
-702 86 0
-702 701 0
-703 3 205 702 0
703 -3 0
703 -205 0
703 -702 0
704 -5 -703 0
-704 5 0
-704 703 0
-705 7 704 0
705 -7 0
705 -704 0
706 -38 -705 0
-706 38 0
-706 705 0
-707 42 706 39 0
707 -42 0
707 -706 0
707 -39 0
708 -44 -707 0
-708 44 0
-708 707 0
-709 46 668 708 0
709 -46 0
709 -668 0
709 -708 0
710 -142 -709 0
-710 142 0
-710 709 0
-711 146 634 710 143 0
711 -146 0
711 -634 0
711 -710 0
711 -143 0
712 -713 -711 0
-712 713 0
-712 711 0
-714 72 16 69 0
714 -72 0
714 -16 0
714 -69 0
715 -74 -714 0
-715 74 0
-715 714 0
-716 76 715 0
716 -76 0
716 -715 0
717 -78 -716 0
-717 78 0
-717 716 0
-718 80 717 0
718 -80 0
718 -717 0
719 -82 -718 0
-719 82 0
-719 718 0
-720 72 95 69 0
720 -72 0
720 -95 0
720 -69 0
721 -117 -720 0
-721 117 0
-721 720 0
-722 72 120 69 0
722 -72 0
722 -120 0
722 -69 0
723 -74 -722 0
-723 74 0
-723 722 0
-724 76 723 0
724 -76 0
724 -723 0
725 -86 -724 0
-725 86 0
-725 724 0
-726 3 725 0
726 -3 0
726 -725 0
727 -5 -726 0
-727 5 0
-727 726 0
-728 7 727 0
728 -7 0
728 -727 0
729 -38 -728 0
-729 38 0
-729 728 0
-730 42 729 39 0
730 -42 0
730 -729 0
730 -39 0
731 -44 -730 0
-731 44 0
-731 730 0
-732 46 721 731 0
732 -46 0
732 -721 0
732 -731 0
733 -142 -732 0
-733 142 0
-733 732 0
-734 146 719 733 143 0
734 -146 0
734 -719 0
734 -733 0
734 -143 0
735 -148 -734 0
-735 148 0
-735 734 0
736 -171 -730 0
-736 171 0
-736 730 0
-737 173 735 736 0
737 -173 0
737 -735 0
737 -736 0
738 -175 -737 0
-738 175 0
-738 737 0
-739 72 203 69 0
739 -72 0
739 -203 0
739 -69 0
740 -74 -739 0
-740 74 0
-740 739 0
-741 76 740 0
741 -76 0
741 -740 0
742 -78 -741 0
-742 78 0
-742 741 0
-743 80 742 0
743 -80 0
743 -742 0
744 -247 -743 0
-744 247 0
-744 743 0
-745 72 474 69 0
745 -72 0
745 -474 0
745 -69 0
746 -508 -745 0
-746 508 0
-746 745 0
-747 72 452 69 0
747 -72 0
747 -452 0
747 -69 0
748 -74 -747 0
-748 74 0
-748 747 0
-749 76 748 0
749 -76 0
749 -748 0
750 -527 -749 0
-750 527 0
-750 749 0
-751 72 257 69 0
751 -72 0
751 -257 0
751 -69 0
752 -74 -751 0
-752 74 0
-752 751 0
-753 76 752 0
753 -76 0
753 -752 0
754 -78 -753 0
-754 78 0
-754 753 0
-755 80 754 0
755 -80 0
755 -754 0
756 -82 -755 0
-756 82 0
-756 755 0
-757 72 281 69 0
757 -72 0
757 -281 0
757 -69 0
758 -117 -757 0
-758 117 0
-758 757 0
-759 72 288 69 0
759 -72 0
759 -288 0
759 -69 0
760 -74 -759 0
-760 74 0
-760 759 0
-761 76 760 0
761 -76 0
761 -760 0
762 -86 -761 0
-762 86 0
-762 761 0
-763 3 205 762 0
763 -3 0
763 -205 0
763 -762 0
764 -5 -763 0
-764 5 0
-764 763 0
-765 7 764 0
765 -7 0
765 -764 0
766 -38 -765 0
-766 38 0
-766 765 0
-767 42 766 39 0
767 -42 0
767 -766 0
767 -39 0
768 -44 -767 0
-768 44 0
-768 767 0
-769 46 758 768 0
769 -46 0
769 -758 0
769 -768 0
770 -142 -769 0
-770 142 0
-770 769 0
-771 146 756 770 143 0
771 -146 0
771 -756 0
771 -770 0
771 -143 0
772 -584 -771 0
-772 584 0
-772 771 0
773 -586 -737 0
-773 586 0
-773 737 0
-774 588 772 773 0
774 -588 0
774 -772 0
774 -773 0
775 -590 -774 0
-775 590 0
-775 774 0
-776 592 738 744 746 750 775 0
776 -592 0
776 -738 0
776 -744 0
776 -746 0
776 -750 0
776 -775 0
777 -601 -776 0
-777 601 0
-777 776 0
778 -153 -771 0
-778 153 0
-778 771 0
779 -217 -737 0
-779 217 0
-779 737 0
780 -99 -743 0
-780 99 0
-780 743 0
781 -603 -776 0
-781 603 0
-781 776 0
782 -605 -776 0
-782 605 0
-782 776 0
-783 20 782 0
783 -20 0
783 -782 0
784 -19 -783 0
-784 19 0
-784 783 0
-785 22 781 784 0
785 -22 0
785 -781 0
785 -784 0
786 -24 -785 0
-786 24 0
-786 785 0
787 -78 -724 0
-787 78 0
-787 724 0
-788 80 787 0
788 -80 0
788 -787 0
789 -82 -788 0
-789 82 0
-789 788 0
-790 72 343 69 0
790 -72 0
790 -343 0
790 -69 0
791 -117 -790 0
-791 117 0
-791 790 0
-792 46 791 188 0
792 -46 0
792 -791 0
792 -188 0
793 -142 -792 0
-793 142 0
-793 792 0
-794 146 789 793 143 0
794 -146 0
794 -789 0
794 -793 0
794 -143 0
795 -148 -794 0
-795 148 0
-795 794 0
-796 173 795 193 0
796 -173 0
796 -795 0
796 -193 0
797 -184 -796 0
-797 184 0
-797 796 0
-798 72 357 69 0
798 -72 0
798 -357 0
798 -69 0
799 -74 -798 0
-799 74 0
-799 798 0
-800 76 799 0
800 -76 0
800 -799 0
801 -86 -800 0
-801 86 0
-801 800 0
-802 3 797 801 0
802 -3 0
802 -797 0
802 -801 0
803 -5 -802 0
-803 5 0
-803 802 0
-804 7 803 0
804 -7 0
804 -803 0
805 -26 -804 0
-805 26 0
-805 804 0
-806 34 779 780 786 805 27 30 0
806 -34 0
806 -779 0
806 -780 0
806 -786 0
806 -805 0
806 -27 0
806 -30 0
807 -36 -806 0
-807 36 0
-807 806 0
-808 72 384 69 0
808 -72 0
808 -384 0
808 -69 0
809 -117 -808 0
-809 117 0
-809 808 0
-810 146 789 143 0
810 -146 0
810 -789 0
810 -143 0
811 -148 -810 0
-811 148 0
-811 810 0
-812 173 811 193 0
812 -173 0
812 -811 0
812 -193 0
813 -184 -812 0
-813 184 0
-813 812 0
-814 72 393 69 0
814 -72 0
814 -393 0
814 -69 0
815 -74 -814 0
-815 74 0
-815 814 0
-816 76 815 0
816 -76 0
816 -815 0
817 -86 -816 0
-817 86 0
-817 816 0
-818 3 813 817 0
818 -3 0
818 -813 0
818 -817 0
819 -5 -818 0
-819 5 0
-819 818 0
-820 7 819 0
820 -7 0
820 -819 0
821 -38 -820 0
-821 38 0
-821 820 0
-822 42 821 39 0
822 -42 0
822 -821 0
822 -39 0
823 -44 -822 0
-823 44 0
-823 822 0
-824 46 809 823 0
824 -46 0
824 -809 0
824 -823 0
825 -48 -824 0
-825 48 0
-825 824 0
-826 72 406 69 0
826 -72 0
826 -406 0
826 -69 0
827 -74 -826 0
-827 74 0
-827 826 0
-828 76 827 0
828 -76 0
828 -827 0
829 -78 -828 0
-829 78 0
-829 828 0
-830 80 829 0
830 -80 0
830 -829 0
831 -82 -830 0
-831 82 0
-831 830 0
-832 72 414 69 0
832 -72 0
832 -414 0
832 -69 0
833 -117 -832 0
-833 117 0
-833 832 0
-834 46 833 188 0
834 -46 0
834 -833 0
834 -188 0
835 -142 -834 0
-835 142 0
-835 834 0
-836 146 831 835 143 0
836 -146 0
836 -831 0
836 -835 0
836 -143 0
837 -148 -836 0
-837 148 0
-837 836 0
-838 173 837 193 0
838 -173 0
838 -837 0
838 -193 0
839 -184 -838 0
-839 184 0
-839 838 0
-840 72 424 69 0
840 -72 0
840 -424 0
840 -69 0
841 -74 -840 0
-841 74 0
-841 840 0
-842 76 841 0
842 -76 0
842 -841 0
843 -86 -842 0
-843 86 0
-843 842 0
-844 3 839 843 0
844 -3 0
844 -839 0
844 -843 0
845 -5 -844 0
-845 5 0
-845 844 0
-846 7 845 0
846 -7 0
846 -845 0
847 -9 -846 0
-847 9 0
-847 846 0
-848 11 847 0
848 -11 0
848 -847 0
849 -50 -848 0
-849 50 0
-849 848 0
-850 52 777 778 807 825 849 0
850 -52 0
850 -777 0
850 -778 0
850 -807 0
850 -825 0
850 -849 0
851 -54 -850 0
-851 54 0
-851 850 0
852 -107 -749 0
-852 107 0
-852 749 0
853 -477 -745 0
-853 477 0
-853 745 0
854 -56 -804 0
-854 56 0
-854 804 0
-855 60 851 852 853 854 57 0
855 -60 0
855 -851 0
855 -852 0
855 -853 0
855 -854 0
855 -57 0
856 -62 -855 0
-856 62 0
-856 855 0
857 -112 -749 0
-857 112 0
-857 749 0
-858 34 779 780 616 805 27 30 0
858 -34 0
858 -779 0
858 -780 0
858 -616 0
858 -805 0
858 -27 0
858 -30 0
859 -36 -858 0
-859 36 0
-859 858 0
-860 52 778 859 825 849 0
860 -52 0
860 -778 0
860 -859 0
860 -825 0
860 -849 0
861 -54 -860 0
-861 54 0
-861 860 0
-862 60 861 852 853 854 57 0
862 -60 0
862 -861 0
862 -852 0
862 -853 0
862 -854 0
862 -57 0
863 -481 -862 0
-863 481 0
-863 862 0
-864 592 738 744 863 746 750 775 0
864 -592 0
864 -738 0
864 -744 0
864 -863 0
864 -746 0
864 -750 0
864 -775 0
865 -605 -864 0
-865 605 0
-865 864 0
-866 20 865 0
866 -20 0
866 -865 0
867 -64 -866 0
-867 64 0
-867 866 0
-868 66 856 857 867 0
868 -66 0
868 -856 0
868 -857 0
868 -867 0
869 -870 -868 0
-869 870 0
-869 868 0
-871 872 593 712 869 0
871 -872 0
871 -593 0
871 -712 0
871 -869 0
873 -874 -871 0
-873 874 0
-873 871 0
875 -117 -714 0
-875 117 0
-875 714 0
-876 46 875 43 0
876 -46 0
876 -875 0
876 -43 0
877 -48 -876 0
-877 48 0
-877 876 0
-878 52 35 877 49 0
878 -52 0
878 -35 0
878 -877 0
878 -49 0
879 -54 -878 0
-879 54 0
-879 878 0
880 -477 -714 0
-880 477 0
-880 714 0
-881 60 879 880 55 57 0
881 -60 0
881 -879 0
881 -880 0
881 -55 0
881 -57 0
882 -62 -881 0
-882 62 0
-882 881 0
-883 66 882 63 0
883 -66 0
883 -882 0
883 -63 0
884 -870 -883 0
-884 870 0
-884 883 0
-885 872 884 0
885 -872 0
885 -884 0
886 -887 -885 0
-886 887 0
-886 885 0
888 -889 -872 0
-888 889 0
-888 872 0
-890 22 888 18 0
890 -22 0
890 -888 0
890 -18 0
891 -24 -890 0
-891 24 0
-891 890 0
-892 34 891 25 27 30 0
892 -34 0
892 -891 0
892 -25 0
892 -27 0
892 -30 0
893 -36 -892 0
-893 36 0
-893 892 0
-894 52 893 47 49 0
894 -52 0
894 -893 0
894 -47 0
894 -49 0
895 -54 -894 0
-895 54 0
-895 894 0
-896 60 895 55 57 0
896 -60 0
896 -895 0
896 -55 0
896 -57 0
897 -62 -896 0
-897 62 0
-897 896 0
-898 66 897 63 0
898 -66 0
898 -897 0
898 -63 0
899 -68 -898 0
-899 68 0
-899 898 0
-900 72 16 899 69 0
900 -72 0
900 -16 0
900 -899 0
900 -69 0
901 -74 -900 0
-901 74 0
-901 900 0
-902 76 886 901 0
902 -76 0
902 -886 0
902 -901 0
903 -78 -902 0
-903 78 0
-903 902 0
-904 80 903 0
904 -80 0
904 -903 0
905 -82 -904 0
-905 82 0
-905 904 0
-906 66 110 63 0
906 -66 0
906 -110 0
906 -63 0
907 -870 -906 0
-907 870 0
-907 906 0
-908 872 907 0
908 -872 0
908 -907 0
909 -887 -908 0
-909 887 0
-909 908 0
-910 76 909 0
910 -76 0
910 -909 0
911 -84 -910 0
-911 84 0
-911 910 0
-912 34 98 23 25 27 30 0
912 -34 0
912 -98 0
912 -23 0
912 -25 0
912 -27 0
912 -30 0
913 -36 -912 0
-913 36 0
-913 912 0
-914 52 913 49 0
914 -52 0
914 -913 0
914 -49 0
915 -54 -914 0
-915 54 0
-915 914 0
-916 60 915 55 57 0
916 -60 0
916 -915 0
916 -55 0
916 -57 0
917 -62 -916 0
-917 62 0
-917 916 0
-918 66 917 63 0
918 -66 0
918 -917 0
918 -63 0
919 -870 -918 0
-919 870 0
-919 918 0
-920 872 919 0
920 -872 0
920 -919 0
921 -887 -920 0
-921 887 0
-921 920 0
-922 76 921 0
922 -76 0
922 -921 0
923 -86 -922 0
-923 86 0
-923 922 0
-924 3 923 0
924 -3 0
924 -923 0
925 -2 -924 0
-925 2 0
-925 924 0
926 -870 -128 0
-926 870 0
-926 128 0
-927 872 926 0
927 -872 0
927 -926 0
928 -887 -927 0
-928 887 0
-928 927 0
-929 76 928 0
929 -76 0
929 -928 0
930 -86 -929 0
-930 86 0
-930 929 0
-931 3 930 0
931 -3 0
931 -930 0
932 -5 -931 0
-932 5 0
-932 931 0
-933 7 932 0
933 -7 0
933 -932 0
934 -9 -933 0
-934 9 0
-934 933 0
-935 11 934 0
935 -11 0
935 -934 0
936 -13 -935 0
-936 13 0
-936 935 0
-937 15 911 925 936 0
937 -15 0
937 -911 0
937 -925 0
937 -936 0
938 -17 -937 0
-938 17 0
-938 937 0
939 -887 -872 0
-939 887 0
-939 872 0
-940 76 939 0
940 -76 0
940 -939 0
941 -78 -940 0
-941 78 0
-941 940 0
-942 80 941 0
942 -80 0
942 -941 0
943 -99 -942 0
-943 99 0
-943 942 0
944 -86 -940 0
-944 86 0
-944 940 0
-945 3 944 0
945 -3 0
945 -944 0
946 -5 -945 0
-946 5 0
-946 945 0
-947 7 946 0
947 -7 0
947 -946 0
948 -26 -947 0
-948 26 0
-948 947 0
-949 34 943 891 948 27 30 0
949 -34 0
949 -943 0
949 -891 0
949 -948 0
949 -27 0
949 -30 0
950 -36 -949 0
-950 36 0
-950 949 0
951 -9 -947 0
-951 9 0
-951 947 0
-952 11 951 0
952 -11 0
952 -951 0
953 -50 -952 0
-953 50 0
-953 952 0
-954 52 950 953 0
954 -52 0
954 -950 0
954 -953 0
955 -54 -954 0
-955 54 0
-955 954 0
956 -107 -940 0
-956 107 0
-956 940 0
957 -56 -947 0
-957 56 0
-957 947 0
-958 60 955 956 957 57 0
958 -60 0
958 -955 0
958 -956 0
958 -957 0
958 -57 0
959 -62 -958 0
-959 62 0
-959 958 0
960 -112 -940 0
-960 112 0
-960 940 0
-961 66 959 960 63 0
961 -66 0
961 -959 0
961 -960 0
961 -63 0
962 -68 -961 0
-962 68 0
-962 961 0
-963 72 938 962 69 0
963 -72 0
963 -938 0
963 -962 0
963 -69 0
964 -117 -963 0
-964 117 0
-964 963 0
965 -99 -788 0
-965 99 0
-965 788 0
-966 34 965 23 27 30 0
966 -34 0
966 -965 0
966 -23 0
966 -27 0
966 -30 0
967 -36 -966 0
-967 36 0
-967 966 0
-968 52 967 123 0
968 -52 0
968 -967 0
968 -123 0
969 -54 -968 0
-969 54 0
-969 968 0
970 -477 -722 0
-970 477 0
-970 722 0
-971 60 969 970 57 0
971 -60 0
971 -969 0
971 -970 0
971 -57 0
972 -62 -971 0
-972 62 0
-972 971 0
-973 66 972 63 0
973 -66 0
973 -972 0
973 -63 0
974 -870 -973 0
-974 870 0
-974 973 0
-975 872 974 0
975 -872 0
975 -974 0
976 -887 -975 0
-976 887 0
-976 975 0
977 -99 -80 0
-977 99 0
-977 80 0
-978 34 977 891 27 30 0
978 -34 0
978 -977 0
978 -891 0
978 -27 0
978 -30 0
979 -36 -978 0
-979 36 0
-979 978 0
-980 52 979 123 0
980 -52 0
980 -979 0
980 -123 0
981 -54 -980 0
-981 54 0
-981 980 0
-982 60 981 57 0
982 -60 0
982 -981 0
982 -57 0
983 -62 -982 0
-983 62 0
-983 982 0
-984 66 983 63 0
984 -66 0
984 -983 0
984 -63 0
985 -68 -984 0
-985 68 0
-985 984 0
-986 72 120 985 69 0
986 -72 0
986 -120 0
986 -985 0
986 -69 0
987 -74 -986 0
-987 74 0
-987 986 0
-988 76 976 987 0
988 -76 0
988 -976 0
988 -987 0
989 -86 -988 0
-989 86 0
-989 988 0
-990 3 989 0
990 -3 0
990 -989 0
991 -5 -990 0
-991 5 0
-991 990 0
-992 7 991 0
992 -7 0
992 -991 0
993 -38 -992 0
-993 38 0
-993 992 0
-994 42 993 39 0
994 -42 0
994 -993 0
994 -39 0
995 -44 -994 0
-995 44 0
-995 994 0
-996 46 964 995 0
996 -46 0
996 -964 0
996 -995 0
997 -142 -996 0
-997 142 0
-997 996 0
-998 146 905 997 143 0
998 -146 0
998 -905 0
998 -997 0
998 -143 0
999 -148 -998 0
-999 148 0
-999 998 0
1000 -82 -80 0
-1000 82 0
-1000 80 0
1001 -117 -130 0
-1001 117 0
-1001 130 0
-1002 46 1001 0
1002 -46 0
1002 -1001 0
1003 -142 -1002 0
-1003 142 0
-1003 1002 0
-1004 146 1000 1003 143 0
1004 -146 0
1004 -1000 0
1004 -1003 0
1004 -143 0
1005 -713 -1004 0
-1005 713 0
-1005 1004 0
1006 -117 -722 0
-1006 117 0
-1006 722 0
-1007 46 1006 0
1007 -46 0
1007 -1006 0
1008 -142 -1007 0
-1008 142 0
-1008 1007 0
-1009 146 789 1008 143 0
1009 -146 0
1009 -789 0
1009 -1008 0
1009 -143 0
1010 -153 -1009 0
-1010 153 0
-1010 1009 0
1011 -48 -1007 0
-1011 48 0
-1011 1007 0
-1012 52 1010 967 1011 123 0
1012 -52 0
1012 -1010 0
1012 -967 0
1012 -1011 0
1012 -123 0
1013 -54 -1012 0
-1013 54 0
-1013 1012 0
-1014 60 1013 970 57 0
1014 -60 0
1014 -1013 0
1014 -970 0
1014 -57 0
1015 -62 -1014 0
-1015 62 0
-1015 1014 0
-1016 66 1015 63 0
1016 -66 0
1016 -1015 0
1016 -63 0
1017 -870 -1016 0
-1017 870 0
-1017 1016 0
-1018 872 1005 1017 0
1018 -872 0
1018 -1005 0
1018 -1017 0
1019 -887 -1018 0
-1019 887 0
-1019 1018 0
-1020 146 1000 150 143 0
1020 -146 0
1020 -1000 0
1020 -150 0
1020 -143 0
1021 -153 -1020 0
-1021 153 0
-1021 1020 0
1022 -713 -151 0
-1022 713 0
-1022 151 0
-1023 872 1022 0
1023 -872 0
1023 -1022 0
1024 -889 -1023 0
-1024 889 0
-1024 1023 0
-1025 22 1024 18 0
1025 -22 0
1025 -1024 0
1025 -18 0
1026 -24 -1025 0
-1026 24 0
-1026 1025 0
-1027 34 977 1026 27 30 0
1027 -34 0
1027 -977 0
1027 -1026 0
1027 -27 0
1027 -30 0
1028 -36 -1027 0
-1028 36 0
-1028 1027 0
-1029 52 1021 1028 154 123 0
1029 -52 0
1029 -1021 0
1029 -1028 0
1029 -154 0
1029 -123 0
1030 -54 -1029 0
-1030 54 0
-1030 1029 0
-1031 60 1030 57 0
1031 -60 0
1031 -1030 0
1031 -57 0
1032 -62 -1031 0
-1032 62 0
-1032 1031 0
-1033 66 1032 63 0
1033 -66 0
1033 -1032 0
1033 -63 0
1034 -68 -1033 0
-1034 68 0
-1034 1033 0
-1035 72 120 1034 69 0
1035 -72 0
1035 -120 0
1035 -1034 0
1035 -69 0
1036 -74 -1035 0
-1036 74 0
-1036 1035 0
-1037 76 1019 1036 0
1037 -76 0
1037 -1019 0
1037 -1036 0
1038 -86 -1037 0
-1038 86 0
-1038 1037 0
-1039 3 1038 0
1039 -3 0
1039 -1038 0
1040 -5 -1039 0
-1040 5 0
-1040 1039 0
-1041 7 1040 0
1041 -7 0
1041 -1040 0
1042 -38 -1041 0
-1042 38 0
-1042 1041 0
-1043 42 1042 39 0
1043 -42 0
1043 -1042 0
1043 -39 0
1044 -171 -1043 0
-1044 171 0
-1044 1043 0
-1045 173 999 1044 0
1045 -173 0
1045 -999 0
1045 -1044 0
1046 -175 -1045 0
-1046 175 0
-1046 1045 0
-1047 52 531 533 0
1047 -52 0
1047 -531 0
1047 -533 0
1048 -54 -1047 0
-1048 54 0
-1048 1047 0
-1049 60 1048 536 57 0
1049 -60 0
1049 -1048 0
1049 -536 0
1049 -57 0
1050 -62 -1049 0
-1050 62 0
-1050 1049 0
-1051 66 1050 63 0
1051 -66 0
1051 -1050 0
1051 -63 0
1052 -68 -1051 0
-1052 68 0
-1052 1051 0
-1053 72 257 1052 69 0
1053 -72 0
1053 -257 0
1053 -1052 0
1053 -69 0
1054 -117 -1053 0
-1054 117 0
-1054 1053 0
-1055 46 1054 211 0
1055 -46 0
1055 -1054 0
1055 -211 0
1056 -142 -1055 0
-1056 142 0
-1056 1055 0
-1057 146 1056 143 0
1057 -146 0
1057 -1056 0
1057 -143 0
1058 -713 -1057 0
-1058 713 0
-1058 1057 0
1059 -117 -751 0
-1059 117 0
-1059 751 0
-1060 46 1059 211 0
1060 -46 0
1060 -1059 0
1060 -211 0
1061 -142 -1060 0
-1061 142 0
-1061 1060 0
-1062 146 1061 143 0
1062 -146 0
1062 -1061 0
1062 -143 0
1063 -153 -1062 0
-1063 153 0
-1063 1062 0
1064 -142 -876 0
-1064 142 0
-1064 876 0
-1065 146 1064 143 0
1065 -146 0
1065 -1064 0
1065 -143 0
1066 -148 -1065 0
-1066 148 0
-1066 1065 0
-1067 173 1066 179 0
1067 -173 0
1067 -1066 0
1067 -179 0
1068 -217 -1067 0
-1068 217 0
-1068 1067 0
-1069 46 1006 188 0
1069 -46 0
1069 -1006 0
1069 -188 0
1070 -142 -1069 0
-1070 142 0
-1070 1069 0
-1071 146 1070 143 0
1071 -146 0
1071 -1070 0
1071 -143 0
1072 -148 -1071 0
-1072 148 0
-1072 1071 0
-1073 173 1072 193 0
1073 -173 0
1073 -1072 0
1073 -193 0
1074 -184 -1073 0
-1074 184 0
-1074 1073 0
-1075 3 1074 0
1075 -3 0
1075 -1074 0
1076 -5 -1075 0
-1076 5 0
-1076 1075 0
-1077 7 1076 0
1077 -7 0
1077 -1076 0
1078 -26 -1077 0
-1078 26 0
-1078 1077 0
-1079 34 1068 23 1078 27 30 0
1079 -34 0
1079 -1068 0
1079 -23 0
1079 -1078 0
1079 -27 0
1079 -30 0
1080 -36 -1079 0
-1080 36 0
-1080 1079 0
1081 -9 -227 0
-1081 9 0
-1081 227 0
-1082 11 1081 0
1082 -11 0
1082 -1081 0
1083 -13 -1082 0
-1083 13 0
-1083 1082 0
-1084 15 181 186 1083 0
1084 -15 0
1084 -181 0
1084 -186 0
1084 -1083 0
1085 -17 -1084 0
-1085 17 0
-1085 1084 0
-1086 72 1085 69 0
1086 -72 0
1086 -1085 0
1086 -69 0
1087 -117 -1086 0
-1087 117 0
-1087 1086 0
-1088 46 1087 230 0
1088 -46 0
1088 -1087 0
1088 -230 0
1089 -48 -1088 0
-1089 48 0
-1089 1088 0
1090 -117 -826 0
-1090 117 0
-1090 826 0
-1091 46 1090 188 0
1091 -46 0
1091 -1090 0
1091 -188 0
1092 -142 -1091 0
-1092 142 0
-1092 1091 0
-1093 146 1092 143 0
1093 -146 0
1093 -1092 0
1093 -143 0
1094 -148 -1093 0
-1094 148 0
-1094 1093 0
-1095 173 1094 193 0
1095 -173 0
1095 -1094 0
1095 -193 0
1096 -184 -1095 0
-1096 184 0
-1096 1095 0
-1097 3 1096 0
1097 -3 0
1097 -1096 0
1098 -5 -1097 0
-1098 5 0
-1098 1097 0
-1099 7 1098 0
1099 -7 0
1099 -1098 0
1100 -9 -1099 0
-1100 9 0
-1100 1099 0
-1101 11 1100 0
1101 -11 0
1101 -1100 0
1102 -50 -1101 0
-1102 50 0
-1102 1101 0
-1103 52 1063 1080 1089 1102 0
1103 -52 0
1103 -1063 0
1103 -1080 0
1103 -1089 0
1103 -1102 0
1104 -54 -1103 0
-1104 54 0
-1104 1103 0
1105 -477 -739 0
-1105 477 0
-1105 739 0
1106 -56 -1077 0
-1106 56 0
-1106 1077 0
-1107 60 1104 1105 1106 57 0
1107 -60 0
1107 -1104 0
1107 -1105 0
1107 -1106 0
1107 -57 0
1108 -62 -1107 0
-1108 62 0
-1108 1107 0
-1109 66 1108 63 0
1109 -66 0
1109 -1108 0
1109 -63 0
1110 -870 -1109 0
-1110 870 0
-1110 1109 0
-1111 872 1058 1110 0
1111 -872 0
1111 -1058 0
1111 -1110 0
1112 -887 -1111 0
-1112 887 0
-1112 1111 0
1113 -713 -214 0
-1113 713 0
-1113 214 0
-1114 872 1113 0
1114 -872 0
1114 -1113 0
1115 -889 -1114 0
-1115 889 0
-1115 1114 0
-1116 22 1115 18 0
1116 -22 0
1116 -1115 0
1116 -18 0
1117 -24 -1116 0
-1117 24 0
-1117 1116 0
-1118 34 216 1117 218 27 30 0
1118 -34 0
1118 -216 0
1118 -1117 0
1118 -218 0
1118 -27 0
1118 -30 0
1119 -36 -1118 0
-1119 36 0
-1119 1118 0
-1120 52 215 1119 232 233 0
1120 -52 0
1120 -215 0
1120 -1119 0
1120 -232 0
1120 -233 0
1121 -54 -1120 0
-1121 54 0
-1121 1120 0
-1122 60 1121 236 57 0
1122 -60 0
1122 -1121 0
1122 -236 0
1122 -57 0
1123 -62 -1122 0
-1123 62 0
-1123 1122 0
-1124 66 1123 63 0
1124 -66 0
1124 -1123 0
1124 -63 0
1125 -68 -1124 0
-1125 68 0
-1125 1124 0
-1126 72 203 1125 69 0
1126 -72 0
1126 -203 0
1126 -1125 0
1126 -69 0
1127 -74 -1126 0
-1127 74 0
-1127 1126 0
-1128 76 1112 1127 0
1128 -76 0
1128 -1112 0
1128 -1127 0
1129 -78 -1128 0
-1129 78 0
-1129 1128 0
-1130 80 1129 0
1130 -80 0
1130 -1129 0
1131 -247 -1130 0
-1131 247 0
-1131 1130 0
1132 -870 -258 0
-1132 870 0
-1132 258 0
-1133 872 1132 0
1133 -872 0
1133 -1132 0
1134 -887 -1133 0
-1134 887 0
-1134 1133 0
-1135 76 1134 261 0
1135 -76 0
1135 -1134 0
1135 -261 0
1136 -78 -1135 0
-1136 78 0
-1136 1135 0
-1137 80 1136 0
1137 -80 0
1137 -1136 0
1138 -82 -1137 0
-1138 82 0
-1138 1137 0
-1139 76 1134 0
1139 -76 0
1139 -1134 0
1140 -86 -1139 0
-1140 86 0
-1140 1139 0
-1141 3 1140 0
1141 -3 0
1141 -1140 0
1142 -5 -1141 0
-1142 5 0
-1142 1141 0
-1143 7 1142 0
1143 -7 0
1143 -1142 0
1144 -38 -1143 0
-1144 38 0
-1144 1143 0
-1145 42 1144 39 0
1145 -42 0
1145 -1144 0
1145 -39 0
1146 -171 -1145 0
-1146 171 0
-1146 1145 0
-1147 173 1146 0
1147 -173 0
1147 -1146 0
1148 -182 -1147 0
-1148 182 0
-1148 1147 0
1149 -84 -1139 0
-1149 84 0
-1149 1139 0
1150 -38 -7 0
-1150 38 0
-1150 7 0
-1151 42 1150 39 0
1151 -42 0
1151 -1150 0
1151 -39 0
1152 -171 -1151 0
-1152 171 0
-1152 1151 0
-1153 173 1152 0
1153 -173 0
1153 -1152 0
1154 -184 -1153 0
-1154 184 0
-1154 1153 0
-1155 3 1154 1140 0
1155 -3 0
1155 -1154 0
1155 -1140 0
1156 -2 -1155 0
-1156 2 0
-1156 1155 0
-1157 3 205 1140 0
1157 -3 0
1157 -205 0
1157 -1140 0
1158 -5 -1157 0
-1158 5 0
-1158 1157 0
-1159 7 1158 0
1159 -7 0
1159 -1158 0
1160 -9 -1159 0
-1160 9 0
-1160 1159 0
-1161 11 1160 0
1161 -11 0
1161 -1160 0
1162 -13 -1161 0
-1162 13 0
-1162 1161 0
-1163 15 1148 1149 1156 1162 0
1163 -15 0
1163 -1148 0
1163 -1149 0
1163 -1156 0
1163 -1162 0
1164 -17 -1163 0
-1164 17 0
-1164 1163 0
-1165 66 960 63 0
1165 -66 0
1165 -960 0
1165 -63 0
1166 -68 -1165 0
-1166 68 0
-1166 1165 0
-1167 72 1164 1166 69 0
1167 -72 0
1167 -1164 0
1167 -1166 0
1167 -69 0
1168 -117 -1167 0
-1168 117 0
-1168 1167 0
-1169 76 1134 290 0
1169 -76 0
1169 -1134 0
1169 -290 0
1170 -86 -1169 0
-1170 86 0
-1170 1169 0
-1171 3 205 1170 0
1171 -3 0
1171 -205 0
1171 -1170 0
1172 -5 -1171 0
-1172 5 0
-1172 1171 0
-1173 7 1172 0
1173 -7 0
1173 -1172 0
1174 -38 -1173 0
-1174 38 0
-1174 1173 0
-1175 42 1174 39 0
1175 -42 0
1175 -1174 0
1175 -39 0
1176 -44 -1175 0
-1176 44 0
-1176 1175 0
-1177 46 1168 1176 0
1177 -46 0
1177 -1168 0
1177 -1176 0
1178 -142 -1177 0
-1178 142 0
-1178 1177 0
-1179 146 1138 1178 143 0
1179 -146 0
1179 -1138 0
1179 -1178 0
1179 -143 0
1180 -153 -1179 0
-1180 153 0
-1180 1179 0
-1181 76 1134 304 0
1181 -76 0
1181 -1134 0
1181 -304 0
1182 -78 -1181 0
-1182 78 0
-1182 1181 0
-1183 80 1182 0
1183 -80 0
1183 -1182 0
1184 -82 -1183 0
-1184 82 0
-1184 1183 0
1185 -2 -1141 0
-1185 2 0
-1185 1141 0
1186 -9 -1143 0
-1186 9 0
-1186 1143 0
-1187 11 1186 0
1187 -11 0
1187 -1186 0
1188 -13 -1187 0
-1188 13 0
-1188 1187 0
-1189 15 1149 1185 1188 0
1189 -15 0
1189 -1149 0
1189 -1185 0
1189 -1188 0
1190 -17 -1189 0
-1190 17 0
-1190 1189 0
-1191 72 1190 1166 69 0
1191 -72 0
1191 -1190 0
1191 -1166 0
1191 -69 0
1192 -117 -1191 0
-1192 117 0
-1192 1191 0
-1193 3 1170 0
1193 -3 0
1193 -1170 0
1194 -5 -1193 0
-1194 5 0
-1194 1193 0
-1195 7 1194 0
1195 -7 0
1195 -1194 0
1196 -38 -1195 0
-1196 38 0
-1196 1195 0
-1197 42 1196 39 0
1197 -42 0
1197 -1196 0
1197 -39 0
1198 -44 -1197 0
-1198 44 0
-1198 1197 0
-1199 46 1192 1198 0
1199 -46 0
1199 -1192 0
1199 -1198 0
1200 -142 -1199 0
-1200 142 0
-1200 1199 0
-1201 146 1184 1200 143 0
1201 -146 0
1201 -1184 0
1201 -1200 0
1201 -143 0
1202 -148 -1201 0
-1202 148 0
-1202 1201 0
1203 -117 -289 0
-1203 117 0
-1203 289 0
-1204 46 1203 0
1204 -46 0
1204 -1203 0
1205 -142 -1204 0
-1205 142 0
-1205 1204 0
-1206 146 341 1205 143 0
1206 -146 0
1206 -341 0
1206 -1205 0
1206 -143 0
1207 -713 -1206 0
-1207 713 0
-1207 1206 0
-1208 872 1207 1132 0
1208 -872 0
1208 -1207 0
1208 -1132 0
1209 -887 -1208 0
-1209 887 0
-1209 1208 0
-1210 76 1209 322 0
1210 -76 0
1210 -1209 0
1210 -322 0
1211 -86 -1210 0
-1211 86 0
-1211 1210 0
-1212 3 1211 0
1212 -3 0
1212 -1211 0
1213 -5 -1212 0
-1213 5 0
-1213 1212 0
-1214 7 1213 0
1214 -7 0
1214 -1213 0
1215 -38 -1214 0
-1215 38 0
-1215 1214 0
-1216 42 1215 39 0
1216 -42 0
1216 -1215 0
1216 -39 0
1217 -171 -1216 0
-1217 171 0
-1217 1216 0
-1218 173 1202 1217 0
1218 -173 0
1218 -1202 0
1218 -1217 0
1219 -217 -1218 0
-1219 217 0
-1219 1218 0
-1220 3 1154 0
1220 -3 0
1220 -1154 0
1221 -2 -1220 0
-1221 2 0
-1221 1220 0
-1222 15 249 1221 255 0
1222 -15 0
1222 -249 0
1222 -1221 0
1222 -255 0
1223 -17 -1222 0
-1223 17 0
-1223 1222 0
-1224 72 1223 259 69 0
1224 -72 0
1224 -1223 0
1224 -259 0
1224 -69 0
1225 -117 -1224 0
-1225 117 0
-1225 1224 0
-1226 46 1225 211 0
1226 -46 0
1226 -1225 0
1226 -211 0
1227 -142 -1226 0
-1227 142 0
-1227 1226 0
-1228 146 1227 143 0
1228 -146 0
1228 -1227 0
1228 -143 0
1229 -713 -1228 0
-1229 713 0
-1229 1228 0
-1230 872 1229 1132 0
1230 -872 0
1230 -1229 0
1230 -1132 0
1231 -887 -1230 0
-1231 887 0
-1231 1230 0
-1232 76 1231 334 0
1232 -76 0
1232 -1231 0
1232 -334 0
1233 -78 -1232 0
-1233 78 0
-1233 1232 0
-1234 80 1233 0
1234 -80 0
1234 -1233 0
1235 -99 -1234 0
-1235 99 0
-1235 1234 0
1236 -74 -1224 0
-1236 74 0
-1236 1224 0
-1237 76 1236 0
1237 -76 0
1237 -1236 0
1238 -78 -1237 0
-1238 78 0
-1238 1237 0
-1239 80 1238 0
1239 -80 0
1239 -1238 0
1240 -82 -1239 0
-1240 82 0
-1240 1239 0
-1241 3 1154 85 0
1241 -3 0
1241 -1154 0
1241 -85 0
1242 -2 -1241 0
-1242 2 0
-1242 1241 0
-1243 15 270 83 1242 279 0
1243 -15 0
1243 -270 0
1243 -83 0
1243 -1242 0
1243 -279 0
1244 -17 -1243 0
-1244 17 0
-1244 1243 0
-1245 72 1244 283 69 0
1245 -72 0
1245 -1244 0
1245 -283 0
1245 -69 0
1246 -117 -1245 0
-1246 117 0
-1246 1245 0
-1247 46 1246 298 0
1247 -46 0
1247 -1246 0
1247 -298 0
1248 -142 -1247 0
-1248 142 0
-1248 1247 0
-1249 146 1240 1248 143 0
1249 -146 0
1249 -1240 0
1249 -1248 0
1249 -143 0
1250 -713 -1249 0
-1250 713 0
-1250 1249 0
-1251 66 857 63 0
1251 -66 0
1251 -857 0
1251 -63 0
1252 -870 -1251 0
-1252 870 0
-1252 1251 0
-1253 872 1250 1252 0
1253 -872 0
1253 -1250 0
1253 -1252 0
1254 -889 -1253 0
-1254 889 0
-1254 1253 0
-1255 22 1254 18 0
1255 -22 0
1255 -1254 0
1255 -18 0
1256 -24 -1255 0
-1256 24 0
-1256 1255 0
1257 -78 -1169 0
-1257 78 0
-1257 1169 0
-1258 80 1257 0
1258 -80 0
1258 -1257 0
1259 -82 -1258 0
-1259 82 0
-1259 1258 0
-1260 15 1149 118 0
1260 -15 0
1260 -1149 0
1260 -118 0
1261 -17 -1260 0
-1261 17 0
-1261 1260 0
-1262 72 1261 1166 69 0
1262 -72 0
1262 -1261 0
1262 -1166 0
1262 -69 0
1263 -117 -1262 0
-1263 117 0
-1263 1262 0
-1264 46 1263 188 0
1264 -46 0
1264 -1263 0
1264 -188 0
1265 -142 -1264 0
-1265 142 0
-1265 1264 0
-1266 146 1259 1265 143 0
1266 -146 0
1266 -1259 0
1266 -1265 0
1266 -143 0
1267 -148 -1266 0
-1267 148 0
-1267 1266 0
-1268 173 1267 193 0
1268 -173 0
1268 -1267 0
1268 -193 0
1269 -184 -1268 0
-1269 184 0
-1269 1268 0
-1270 46 1203 188 0
1270 -46 0
1270 -1203 0
1270 -188 0
1271 -142 -1270 0
-1271 142 0
-1271 1270 0
-1272 146 341 1271 143 0
1272 -146 0
1272 -341 0
1272 -1271 0
1272 -143 0
1273 -713 -1272 0
-1273 713 0
-1273 1272 0
-1274 872 1273 1132 0
1274 -872 0
1274 -1273 0
1274 -1132 0
1275 -887 -1274 0
-1275 887 0
-1275 1274 0
-1276 146 1000 190 143 0
1276 -146 0
1276 -1000 0
1276 -190 0
1276 -143 0
1277 -148 -1276 0
-1277 148 0
-1277 1276 0
-1278 173 1277 193 0
1278 -173 0
1278 -1277 0
1278 -193 0
1279 -182 -1278 0
-1279 182 0
-1279 1278 0
-1280 15 1279 118 0
1280 -15 0
1280 -1279 0
1280 -118 0
1281 -17 -1280 0
-1281 17 0
-1281 1280 0
-1282 72 1281 259 69 0
1282 -72 0
1282 -1281 0
1282 -259 0
1282 -69 0
1283 -74 -1282 0
-1283 74 0
-1283 1282 0
-1284 76 1275 1283 0
1284 -76 0
1284 -1275 0
1284 -1283 0
1285 -86 -1284 0
-1285 86 0
-1285 1284 0
-1286 3 1269 1285 0
1286 -3 0
1286 -1269 0
1286 -1285 0
1287 -5 -1286 0
-1287 5 0
-1287 1286 0
-1288 7 1287 0
1288 -7 0
1288 -1287 0
1289 -26 -1288 0
-1289 26 0
-1289 1288 0
-1290 34 1219 1235 1256 1289 27 30 0
1290 -34 0
1290 -1219 0
1290 -1235 0
1290 -1256 0
1290 -1289 0
1290 -27 0
1290 -30 0
1291 -36 -1290 0
-1291 36 0
-1291 1290 0
1292 -78 -1139 0
-1292 78 0
-1292 1139 0
-1293 80 1292 0
1293 -80 0
1293 -1292 0
1294 -82 -1293 0
-1294 82 0
-1294 1293 0
-1295 146 1294 143 0
1295 -146 0
1295 -1294 0
1295 -143 0
1296 -148 -1295 0
-1296 148 0
-1296 1295 0
1297 -713 -368 0
-1297 713 0
-1297 368 0
-1298 872 1297 1132 0
1298 -872 0
1298 -1297 0
1298 -1132 0
1299 -887 -1298 0
-1299 887 0
-1299 1298 0
-1300 76 1299 0
1300 -76 0
1300 -1299 0
1301 -86 -1300 0
-1301 86 0
-1301 1300 0
-1302 3 1301 0
1302 -3 0
1302 -1301 0
1303 -5 -1302 0
-1303 5 0
-1303 1302 0
-1304 7 1303 0
1304 -7 0
1304 -1303 0
1305 -38 -1304 0
-1305 38 0
-1305 1304 0
-1306 42 1305 39 0
1306 -42 0
1306 -1305 0
1306 -39 0
1307 -171 -1306 0
-1307 171 0
-1307 1306 0
-1308 173 1296 1307 0
1308 -173 0
1308 -1296 0
1308 -1307 0
1309 -182 -1308 0
-1309 182 0
-1309 1308 0
1310 -84 -1300 0
-1310 84 0
-1310 1300 0
-1311 173 1296 1152 0
1311 -173 0
1311 -1296 0
1311 -1152 0
1312 -184 -1311 0
-1312 184 0
-1312 1311 0
-1313 3 1312 1301 0
1313 -3 0
1313 -1312 0
1313 -1301 0
1314 -2 -1313 0
-1314 2 0
-1314 1313 0
-1315 173 1296 193 0
1315 -173 0
1315 -1296 0
1315 -193 0
1316 -184 -1315 0
-1316 184 0
-1316 1315 0
-1317 3 1316 1301 0
1317 -3 0
1317 -1316 0
1317 -1301 0
1318 -5 -1317 0
-1318 5 0
-1318 1317 0
-1319 7 1318 0
1319 -7 0
1319 -1318 0
1320 -9 -1319 0
-1320 9 0
-1320 1319 0
-1321 11 1320 0
1321 -11 0
1321 -1320 0
1322 -13 -1321 0
-1322 13 0
-1322 1321 0
-1323 15 1309 1310 1314 1322 0
1323 -15 0
1323 -1309 0
1323 -1310 0
1323 -1314 0
1323 -1322 0
1324 -17 -1323 0
-1324 17 0
-1324 1323 0
1325 -112 -1300 0
-1325 112 0
-1325 1300 0
-1326 66 1325 63 0
1326 -66 0
1326 -1325 0
1326 -63 0
1327 -68 -1326 0
-1327 68 0
-1327 1326 0
-1328 72 1324 1327 69 0
1328 -72 0
1328 -1324 0
1328 -1327 0
1328 -69 0
1329 -117 -1328 0
-1329 117 0
-1329 1328 0
-1330 146 1259 143 0
1330 -146 0
1330 -1259 0
1330 -143 0
1331 -148 -1330 0
-1331 148 0
-1331 1330 0
-1332 173 1331 193 0
1332 -173 0
1332 -1331 0
1332 -193 0
1333 -184 -1332 0
-1333 184 0
-1333 1332 0
1334 -713 -387 0
-1334 713 0
-1334 387 0
-1335 872 1334 1132 0
1335 -872 0
1335 -1334 0
1335 -1132 0
1336 -887 -1335 0
-1336 887 0
-1336 1335 0
1337 -182 -1315 0
-1337 182 0
-1337 1315 0
-1338 15 1337 118 0
1338 -15 0
1338 -1337 0
1338 -118 0
1339 -17 -1338 0
-1339 17 0
-1339 1338 0
-1340 72 1339 259 69 0
1340 -72 0
1340 -1339 0
1340 -259 0
1340 -69 0
1341 -74 -1340 0
-1341 74 0
-1341 1340 0
-1342 76 1336 1341 0
1342 -76 0
1342 -1336 0
1342 -1341 0
1343 -86 -1342 0
-1343 86 0
-1343 1342 0
-1344 3 1333 1343 0
1344 -3 0
1344 -1333 0
1344 -1343 0
1345 -5 -1344 0
-1345 5 0
-1345 1344 0
-1346 7 1345 0
1346 -7 0
1346 -1345 0
1347 -38 -1346 0
-1347 38 0
-1347 1346 0
-1348 42 1347 39 0
1348 -42 0
1348 -1347 0
1348 -39 0
1349 -44 -1348 0
-1349 44 0
-1349 1348 0
-1350 46 1329 1349 0
1350 -46 0
1350 -1329 0
1350 -1349 0
1351 -48 -1350 0
-1351 48 0
-1351 1350 0
-1352 76 1134 408 0
1352 -76 0
1352 -1134 0
1352 -408 0
1353 -78 -1352 0
-1353 78 0
-1353 1352 0
-1354 80 1353 0
1354 -80 0
1354 -1353 0
1355 -82 -1354 0
-1355 82 0
-1355 1354 0
-1356 15 1149 0
1356 -15 0
1356 -1149 0
1357 -17 -1356 0
-1357 17 0
-1357 1356 0
-1358 72 1357 1166 69 0
1358 -72 0
1358 -1357 0
1358 -1166 0
1358 -69 0
1359 -117 -1358 0
-1359 117 0
-1359 1358 0
-1360 46 1359 188 0
1360 -46 0
1360 -1359 0
1360 -188 0
1361 -142 -1360 0
-1361 142 0
-1361 1360 0
-1362 146 1355 1361 143 0
1362 -146 0
1362 -1355 0
1362 -1361 0
1362 -143 0
1363 -148 -1362 0
-1363 148 0
-1363 1362 0
-1364 173 1363 193 0
1364 -173 0
1364 -1363 0
1364 -193 0
1365 -184 -1364 0
-1365 184 0
-1365 1364 0
-1366 15 286 0
1366 -15 0
1366 -286 0
1367 -17 -1366 0
-1367 17 0
-1367 1366 0
-1368 72 1367 259 69 0
1368 -72 0
1368 -1367 0
1368 -259 0
1368 -69 0
1369 -117 -1368 0
-1369 117 0
-1369 1368 0
-1370 46 1369 188 0
1370 -46 0
1370 -1369 0
1370 -188 0
1371 -142 -1370 0
-1371 142 0
-1371 1370 0
-1372 146 1000 1371 143 0
1372 -146 0
1372 -1000 0
1372 -1371 0
1372 -143 0
1373 -713 -1372 0
-1373 713 0
-1373 1372 0
-1374 872 1373 1132 0
1374 -872 0
1374 -1373 0
1374 -1132 0
1375 -887 -1374 0
-1375 887 0
-1375 1374 0
-1376 15 1279 0
1376 -15 0
1376 -1279 0
1377 -17 -1376 0
-1377 17 0
-1377 1376 0
-1378 72 1377 259 69 0
1378 -72 0
1378 -1377 0
1378 -259 0
1378 -69 0
1379 -74 -1378 0
-1379 74 0
-1379 1378 0
-1380 76 1375 1379 0
1380 -76 0
1380 -1375 0
1380 -1379 0
1381 -86 -1380 0
-1381 86 0
-1381 1380 0
-1382 3 1365 1381 0
1382 -3 0
1382 -1365 0
1382 -1381 0
1383 -5 -1382 0
-1383 5 0
-1383 1382 0
-1384 7 1383 0
1384 -7 0
1384 -1383 0
1385 -9 -1384 0
-1385 9 0
-1385 1384 0
-1386 11 1385 0
1386 -11 0
1386 -1385 0
1387 -50 -1386 0
-1387 50 0
-1387 1386 0
-1388 52 1180 1291 1351 1387 0
1388 -52 0
1388 -1180 0
1388 -1291 0
1388 -1351 0
1388 -1387 0
1389 -54 -1388 0
-1389 54 0
-1389 1388 0
-1390 146 1000 1227 143 0
1390 -146 0
1390 -1000 0
1390 -1227 0
1390 -143 0
1391 -713 -1390 0
-1391 713 0
-1391 1390 0
-1392 872 1391 1132 0
1392 -872 0
1392 -1391 0
1392 -1132 0
1393 -887 -1392 0
-1393 887 0
-1393 1392 0
-1394 146 1000 176 143 0
1394 -146 0
1394 -1000 0
1394 -176 0
1394 -143 0
1395 -148 -1394 0
-1395 148 0
-1395 1394 0
-1396 173 1395 179 0
1396 -173 0
1396 -1395 0
1396 -179 0
1397 -182 -1396 0
-1397 182 0
-1397 1396 0
1398 -184 -1396 0
-1398 184 0
-1398 1396 0
-1399 3 1398 0
1399 -3 0
1399 -1398 0
1400 -2 -1399 0
-1400 2 0
-1400 1399 0
1401 -184 -1278 0
-1401 184 0
-1401 1278 0
-1402 3 1401 0
1402 -3 0
1402 -1401 0
1403 -5 -1402 0
-1403 5 0
-1403 1402 0
-1404 7 1403 0
1404 -7 0
1404 -1403 0
1405 -9 -1404 0
-1405 9 0
-1405 1404 0
-1406 11 1405 0
1406 -11 0
1406 -1405 0
1407 -13 -1406 0
-1407 13 0
-1407 1406 0
-1408 15 1397 1400 1407 0
1408 -15 0
1408 -1397 0
1408 -1400 0
1408 -1407 0
1409 -17 -1408 0
-1409 17 0
-1409 1408 0
-1410 72 1409 259 69 0
1410 -72 0
1410 -1409 0
1410 -259 0
1410 -69 0
1411 -74 -1410 0
-1411 74 0
-1411 1410 0
-1412 76 1393 1411 0
1412 -76 0
1412 -1393 0
1412 -1411 0
1413 -107 -1412 0
-1413 107 0
-1413 1412 0
1414 -44 -1145 0
-1414 44 0
-1414 1145 0
-1415 46 1414 0
1415 -46 0
1415 -1414 0
1416 -142 -1415 0
-1416 142 0
-1416 1415 0
-1417 146 1294 1416 143 0
1417 -146 0
1417 -1294 0
1417 -1416 0
1417 -143 0
1418 -148 -1417 0
-1418 148 0
-1418 1417 0
-1419 872 1022 1132 0
1419 -872 0
1419 -1022 0
1419 -1132 0
1420 -887 -1419 0
-1420 887 0
-1420 1419 0
-1421 76 1420 0
1421 -76 0
1421 -1420 0
1422 -86 -1421 0
-1422 86 0
-1422 1421 0
-1423 3 1422 0
1423 -3 0
1423 -1422 0
1424 -5 -1423 0
-1424 5 0
-1424 1423 0
-1425 7 1424 0
1425 -7 0
1425 -1424 0
1426 -38 -1425 0
-1426 38 0
-1426 1425 0
-1427 42 1426 39 0
1427 -42 0
1427 -1426 0
1427 -39 0
1428 -171 -1427 0
-1428 171 0
-1428 1427 0
-1429 173 1418 1428 0
1429 -173 0
1429 -1418 0
1429 -1428 0
1430 -182 -1429 0
-1430 182 0
-1430 1429 0
1431 -713 -509 0
-1431 713 0
-1431 509 0
-1432 872 1431 1132 0
1432 -872 0
1432 -1431 0
1432 -1132 0
1433 -887 -1432 0
-1433 887 0
-1433 1432 0
-1434 76 1433 0
1434 -76 0
1434 -1433 0
1435 -84 -1434 0
-1435 84 0
-1435 1434 0
1436 -44 -1151 0
-1436 44 0
-1436 1151 0
-1437 46 1436 0
1437 -46 0
1437 -1436 0
1438 -142 -1437 0
-1438 142 0
-1438 1437 0
-1439 146 1294 1438 143 0
1439 -146 0
1439 -1294 0
1439 -1438 0
1439 -143 0
1440 -148 -1439 0
-1440 148 0
-1440 1439 0
-1441 173 1440 1152 0
1441 -173 0
1441 -1440 0
1441 -1152 0
1442 -184 -1441 0
-1442 184 0
-1442 1441 0
-1443 146 149 1438 143 0
1443 -146 0
1443 -149 0
1443 -1438 0
1443 -143 0
1444 -713 -1443 0
-1444 713 0
-1444 1443 0
-1445 872 1444 1132 0
1445 -872 0
1445 -1444 0
1445 -1132 0
1446 -887 -1445 0
-1446 887 0
-1446 1445 0
-1447 76 1446 0
1447 -76 0
1447 -1446 0
1448 -86 -1447 0
-1448 86 0
-1448 1447 0
-1449 3 1442 1448 0
1449 -3 0
1449 -1442 0
1449 -1448 0
1450 -2 -1449 0
-1450 2 0
-1450 1449 0
-1451 146 1294 190 143 0
1451 -146 0
1451 -1294 0
1451 -190 0
1451 -143 0
1452 -148 -1451 0
-1452 148 0
-1452 1451 0
-1453 173 1452 193 0
1453 -173 0
1453 -1452 0
1453 -193 0
1454 -184 -1453 0
-1454 184 0
-1454 1453 0
1455 -713 -352 0
-1455 713 0
-1455 352 0
-1456 872 1455 1132 0
1456 -872 0
1456 -1455 0
1456 -1132 0
1457 -887 -1456 0
-1457 887 0
-1457 1456 0
-1458 76 1457 0
1458 -76 0
1458 -1457 0
1459 -86 -1458 0
-1459 86 0
-1459 1458 0
-1460 3 1454 1459 0
1460 -3 0
1460 -1454 0
1460 -1459 0
1461 -5 -1460 0
-1461 5 0
-1461 1460 0
-1462 7 1461 0
1462 -7 0
1462 -1461 0
1463 -9 -1462 0
-1463 9 0
-1463 1462 0
-1464 11 1463 0
1464 -11 0
1464 -1463 0
1465 -13 -1464 0
-1465 13 0
-1465 1464 0
-1466 15 1430 1435 1450 1465 0
1466 -15 0
1466 -1430 0
1466 -1435 0
1466 -1450 0
1466 -1465 0
1467 -17 -1466 0
-1467 17 0
-1467 1466 0
-1468 872 1431 0
1468 -872 0
1468 -1431 0
1469 -887 -1468 0
-1469 887 0
-1469 1468 0
-1470 76 1469 0
1470 -76 0
1470 -1469 0
1471 -112 -1470 0
-1471 112 0
-1471 1470 0
-1472 66 1471 63 0
1472 -66 0
1472 -1471 0
1472 -63 0
1473 -68 -1472 0
-1473 68 0
-1473 1472 0
-1474 72 1467 1473 69 0
1474 -72 0
1474 -1467 0
1474 -1473 0
1474 -69 0
1475 -477 -1474 0
-1475 477 0
-1475 1474 0
1476 -56 -1288 0
-1476 56 0
-1476 1288 0
-1477 60 1389 1413 1475 1476 57 0
1477 -60 0
1477 -1389 0
1477 -1413 0
1477 -1475 0
1477 -1476 0
1477 -57 0
1478 -481 -1477 0
-1478 481 0
-1478 1477 0
1479 -870 -65 0
-1479 870 0
-1479 65 0
-1480 872 1479 0
1480 -872 0
1480 -1479 0
1481 -887 -1480 0
-1481 887 0
-1481 1480 0
-1482 76 1481 0
1482 -76 0
1482 -1481 0
1483 -78 -1482 0
-1483 78 0
-1483 1482 0
-1484 80 1483 0
1484 -80 0
1484 -1483 0
1485 -82 -1484 0
-1485 82 0
-1485 1484 0
1486 -38 -933 0
-1486 38 0
-1486 933 0
-1487 42 1486 39 0
1487 -42 0
1487 -1486 0
1487 -39 0
1488 -44 -1487 0
-1488 44 0
-1488 1487 0
-1489 46 1488 0
1489 -46 0
1489 -1488 0
1490 -142 -1489 0
-1490 142 0
-1490 1489 0
-1491 146 1485 1490 143 0
1491 -146 0
1491 -1485 0
1491 -1490 0
1491 -143 0
1492 -148 -1491 0
-1492 148 0
-1492 1491 0
1493 -870 -159 0
-1493 870 0
-1493 159 0
-1494 872 1022 1493 0
1494 -872 0
1494 -1022 0
1494 -1493 0
1495 -887 -1494 0
-1495 887 0
-1495 1494 0
-1496 76 1495 0
1496 -76 0
1496 -1495 0
1497 -86 -1496 0
-1497 86 0
-1497 1496 0
-1498 3 1497 0
1498 -3 0
1498 -1497 0
1499 -5 -1498 0
-1499 5 0
-1499 1498 0
-1500 7 1499 0
1500 -7 0
1500 -1499 0
1501 -38 -1500 0
-1501 38 0
-1501 1500 0
-1502 42 1501 39 0
1502 -42 0
1502 -1501 0
1502 -39 0
1503 -171 -1502 0
-1503 171 0
-1503 1502 0
-1504 173 1492 1503 0
1504 -173 0
1504 -1492 0
1504 -1503 0
1505 -182 -1504 0
-1505 182 0
-1505 1504 0
1506 -870 -521 0
-1506 870 0
-1506 521 0
-1507 872 1431 1506 0
1507 -872 0
1507 -1431 0
1507 -1506 0
1508 -887 -1507 0
-1508 887 0
-1508 1507 0
-1509 76 1508 0
1509 -76 0
1509 -1508 0
1510 -84 -1509 0
-1510 84 0
-1510 1509 0
-1511 146 1485 1438 143 0
1511 -146 0
1511 -1485 0
1511 -1438 0
1511 -143 0
1512 -148 -1511 0
-1512 148 0
-1512 1511 0
-1513 173 1512 1152 0
1513 -173 0
1513 -1512 0
1513 -1152 0
1514 -184 -1513 0
-1514 184 0
-1514 1513 0
1515 -153 -1443 0
-1515 153 0
-1515 1443 0
1516 -26 -7 0
-1516 26 0
-1516 7 0
-1517 34 511 98 23 1516 27 30 0
1517 -34 0
1517 -511 0
1517 -98 0
1517 -23 0
1517 -1516 0
1517 -27 0
1517 -30 0
1518 -36 -1517 0
-1518 36 0
-1518 1517 0
1519 -48 -1437 0
-1519 48 0
-1519 1437 0
1520 -9 -7 0
-1520 9 0
-1520 7 0
-1521 11 1520 0
1521 -11 0
1521 -1520 0
1522 -50 -1521 0
-1522 50 0
-1522 1521 0
-1523 52 1515 1518 1519 1522 0
1523 -52 0
1523 -1515 0
1523 -1518 0
1523 -1519 0
1523 -1522 0
1524 -54 -1523 0
-1524 54 0
-1524 1523 0
1525 -56 -7 0
-1525 56 0
-1525 7 0
-1526 60 1524 1525 57 0
1526 -60 0
1526 -1524 0
1526 -1525 0
1526 -57 0
1527 -62 -1526 0
-1527 62 0
-1527 1526 0
-1528 66 1527 63 0
1528 -66 0
1528 -1527 0
1528 -63 0
1529 -870 -1528 0
-1529 870 0
-1529 1528 0
-1530 872 1444 1529 0
1530 -872 0
1530 -1444 0
1530 -1529 0
1531 -887 -1530 0
-1531 887 0
-1531 1530 0
-1532 76 1531 0
1532 -76 0
1532 -1531 0
1533 -86 -1532 0
-1533 86 0
-1533 1532 0
-1534 3 1514 1533 0
1534 -3 0
1534 -1514 0
1534 -1533 0
1535 -2 -1534 0
-1535 2 0
-1535 1534 0
-1536 34 23 27 30 0
1536 -34 0
1536 -23 0
1536 -27 0
1536 -30 0
1537 -36 -1536 0
-1537 36 0
-1537 1536 0
1538 -48 -189 0
-1538 48 0
-1538 189 0
-1539 52 1537 1538 123 0
1539 -52 0
1539 -1537 0
1539 -1538 0
1539 -123 0
1540 -54 -1539 0
-1540 54 0
-1540 1539 0
-1541 60 1540 57 0
1541 -60 0
1541 -1540 0
1541 -57 0
1542 -62 -1541 0
-1542 62 0
-1542 1541 0
-1543 66 1542 63 0
1543 -66 0
1543 -1542 0
1543 -63 0
1544 -870 -1543 0
-1544 870 0
-1544 1543 0
-1545 872 1544 0
1545 -872 0
1545 -1544 0
1546 -887 -1545 0
-1546 887 0
-1546 1545 0
-1547 76 1546 0
1547 -76 0
1547 -1546 0
1548 -78 -1547 0
-1548 78 0
-1548 1547 0
-1549 80 1548 0
1549 -80 0
1549 -1548 0
1550 -82 -1549 0
-1550 82 0
-1550 1549 0
-1551 146 1550 190 143 0
1551 -146 0
1551 -1550 0
1551 -190 0
1551 -143 0
1552 -148 -1551 0
-1552 148 0
-1552 1551 0
-1553 173 1552 193 0
1553 -173 0
1553 -1552 0
1553 -193 0
1554 -184 -1553 0
-1554 184 0
-1554 1553 0
1555 -153 -352 0
-1555 153 0
-1555 352 0
1556 -217 -354 0
-1556 217 0
-1556 354 0
-1557 34 1556 98 23 27 30 0
1557 -34 0
1557 -1556 0
1557 -98 0
1557 -23 0
1557 -27 0
1557 -30 0
1558 -36 -1557 0
-1558 36 0
-1558 1557 0
-1559 52 1555 1558 1538 123 0
1559 -52 0
1559 -1555 0
1559 -1558 0
1559 -1538 0
1559 -123 0
1560 -54 -1559 0
-1560 54 0
-1560 1559 0
-1561 60 1560 57 0
1561 -60 0
1561 -1560 0
1561 -57 0
1562 -62 -1561 0
-1562 62 0
-1562 1561 0
-1563 66 1562 63 0
1563 -66 0
1563 -1562 0
1563 -63 0
1564 -870 -1563 0
-1564 870 0
-1564 1563 0
-1565 872 1455 1564 0
1565 -872 0
1565 -1455 0
1565 -1564 0
1566 -887 -1565 0
-1566 887 0
-1566 1565 0
-1567 76 1566 0
1567 -76 0
1567 -1566 0
1568 -86 -1567 0
-1568 86 0
-1568 1567 0
-1569 3 1554 1568 0
1569 -3 0
1569 -1554 0
1569 -1568 0
1570 -5 -1569 0
-1570 5 0
-1570 1569 0
-1571 7 1570 0
1571 -7 0
1571 -1570 0
1572 -9 -1571 0
-1572 9 0
-1572 1571 0
-1573 11 1572 0
1573 -11 0
1573 -1572 0
1574 -13 -1573 0
-1574 13 0
-1574 1573 0
-1575 15 1505 1510 1535 1574 0
1575 -15 0
1575 -1505 0
1575 -1510 0
1575 -1535 0
1575 -1574 0
1576 -17 -1575 0
-1576 17 0
-1576 1575 0
1577 -82 -942 0
-1577 82 0
-1577 942 0
-1578 3 205 944 0
1578 -3 0
1578 -205 0
1578 -944 0
1579 -5 -1578 0
-1579 5 0
-1579 1578 0
-1580 7 1579 0
1580 -7 0
1580 -1579 0
1581 -38 -1580 0
-1581 38 0
-1581 1580 0
-1582 42 1581 39 0
1582 -42 0
1582 -1581 0
1582 -39 0
1583 -44 -1582 0
-1583 44 0
-1583 1582 0
-1584 46 1583 0
1584 -46 0
1584 -1583 0
1585 -142 -1584 0
-1585 142 0
-1585 1584 0
-1586 146 1577 1585 143 0
1586 -146 0
1586 -1577 0
1586 -1585 0
1586 -143 0
1587 -153 -1586 0
-1587 153 0
-1587 1586 0
1588 -38 -947 0
-1588 38 0
-1588 947 0
-1589 42 1588 39 0
1589 -42 0
1589 -1588 0
1589 -39 0
1590 -44 -1589 0
-1590 44 0
-1590 1589 0
-1591 46 1590 0
1591 -46 0
1591 -1590 0
1592 -142 -1591 0
-1592 142 0
-1592 1591 0
-1593 146 1577 1592 143 0
1593 -146 0
1593 -1577 0
1593 -1592 0
1593 -143 0
1594 -148 -1593 0
-1594 148 0
-1594 1593 0
1595 -887 -1023 0
-1595 887 0
-1595 1023 0
-1596 76 1595 0
1596 -76 0
1596 -1595 0
1597 -86 -1596 0
-1597 86 0
-1597 1596 0
-1598 3 1597 0
1598 -3 0
1598 -1597 0
1599 -5 -1598 0
-1599 5 0
-1599 1598 0
-1600 7 1599 0
1600 -7 0
1600 -1599 0
1601 -38 -1600 0
-1601 38 0
-1601 1600 0
-1602 42 1601 39 0
1602 -42 0
1602 -1601 0
1602 -39 0
1603 -171 -1602 0
-1603 171 0
-1603 1602 0
-1604 173 1594 1603 0
1604 -173 0
1604 -1594 0
1604 -1603 0
1605 -217 -1604 0
-1605 217 0
-1605 1604 0
1606 -887 -1114 0
-1606 887 0
-1606 1114 0
-1607 76 1606 0
1607 -76 0
1607 -1606 0
1608 -78 -1607 0
-1608 78 0
-1608 1607 0
-1609 80 1608 0
1609 -80 0
1609 -1608 0
1610 -99 -1609 0
-1610 99 0
-1610 1609 0
1611 -713 -487 0
-1611 713 0
-1611 487 0
-1612 872 1611 0
1612 -872 0
1612 -1611 0
1613 -889 -1612 0
-1613 889 0
-1613 1612 0
-1614 22 1613 18 0
1614 -22 0
1614 -1613 0
1614 -18 0
1615 -24 -1614 0
-1615 24 0
-1615 1614 0
-1616 146 1577 190 143 0
1616 -146 0
1616 -1577 0
1616 -190 0
1616 -143 0
1617 -148 -1616 0
-1617 148 0
-1617 1616 0
-1618 173 1617 193 0
1618 -173 0
1618 -1617 0
1618 -193 0
1619 -184 -1618 0
-1619 184 0
-1619 1618 0
-1620 3 1619 1459 0
1620 -3 0
1620 -1619 0
1620 -1459 0
1621 -5 -1620 0
-1621 5 0
-1621 1620 0
-1622 7 1621 0
1622 -7 0
1622 -1621 0
1623 -26 -1622 0
-1623 26 0
-1623 1622 0
-1624 34 1605 1610 1615 1623 27 30 0
1624 -34 0
1624 -1605 0
1624 -1610 0
1624 -1615 0
1624 -1623 0
1624 -27 0
1624 -30 0
1625 -36 -1624 0
-1625 36 0
-1625 1624 0
-1626 146 1577 143 0
1626 -146 0
1626 -1577 0
1626 -143 0
1627 -148 -1626 0
-1627 148 0
-1627 1626 0
-1628 173 1627 193 0
1628 -173 0
1628 -1627 0
1628 -193 0
1629 -184 -1628 0
-1629 184 0
-1629 1628 0
-1630 3 1629 1301 0
1630 -3 0
1630 -1629 0
1630 -1301 0
1631 -5 -1630 0
-1631 5 0
-1631 1630 0
-1632 7 1631 0
1632 -7 0
1632 -1631 0
1633 -38 -1632 0
-1633 38 0
-1633 1632 0
-1634 42 1633 39 0
1634 -42 0
1634 -1633 0
1634 -39 0
1635 -44 -1634 0
-1635 44 0
-1635 1634 0
-1636 46 1635 0
1636 -46 0
1636 -1635 0
1637 -48 -1636 0
-1637 48 0
-1637 1636 0
1638 -9 -1622 0
-1638 9 0
-1638 1622 0
-1639 11 1638 0
1639 -11 0
1639 -1638 0
1640 -50 -1639 0
-1640 50 0
-1640 1639 0
-1641 52 1587 1625 1637 1640 0
1641 -52 0
1641 -1587 0
1641 -1625 0
1641 -1637 0
1641 -1640 0
1642 -54 -1641 0
-1642 54 0
-1642 1641 0
1643 -107 -1470 0
-1643 107 0
-1643 1470 0
1644 -56 -1622 0
-1644 56 0
-1644 1622 0
-1645 60 1642 1643 1644 57 0
1645 -60 0
1645 -1642 0
1645 -1643 0
1645 -1644 0
1645 -57 0
1646 -62 -1645 0
-1646 62 0
-1646 1645 0
-1647 66 1646 1471 63 0
1647 -66 0
1647 -1646 0
1647 -1471 0
1647 -63 0
1648 -68 -1647 0
-1648 68 0
-1648 1647 0
-1649 72 1576 1648 69 0
1649 -72 0
1649 -1576 0
1649 -1648 0
1649 -69 0
1650 -508 -1649 0
-1650 508 0
-1650 1649 0
-1651 34 528 98 23 529 27 30 0
1651 -34 0
1651 -528 0
1651 -98 0
1651 -23 0
1651 -529 0
1651 -27 0
1651 -30 0
1652 -36 -1651 0
-1652 36 0
-1652 1651 0
-1653 52 1652 533 0
1653 -52 0
1653 -1652 0
1653 -533 0
1654 -54 -1653 0
-1654 54 0
-1654 1653 0
-1655 60 1654 536 57 0
1655 -60 0
1655 -1654 0
1655 -536 0
1655 -57 0
1656 -62 -1655 0
-1656 62 0
-1656 1655 0
-1657 66 1656 63 0
1657 -66 0
1657 -1656 0
1657 -63 0
1658 -68 -1657 0
-1658 68 0
-1658 1657 0
-1659 72 1223 1658 69 0
1659 -72 0
1659 -1223 0
1659 -1658 0
1659 -69 0
1660 -117 -1659 0
-1660 117 0
-1660 1659 0
-1661 46 1660 211 0
1661 -46 0
1661 -1660 0
1661 -211 0
1662 -142 -1661 0
-1662 142 0
-1662 1661 0
-1663 146 1000 1662 143 0
1663 -146 0
1663 -1000 0
1663 -1662 0
1663 -143 0
1664 -713 -1663 0
-1664 713 0
-1664 1663 0
-1665 72 1223 69 0
1665 -72 0
1665 -1223 0
1665 -69 0
1666 -117 -1665 0
-1666 117 0
-1666 1665 0
-1667 46 1666 211 0
1667 -46 0
1667 -1666 0
1667 -211 0
1668 -142 -1667 0
-1668 142 0
-1668 1667 0
-1669 146 1000 1668 143 0
1669 -146 0
1669 -1000 0
1669 -1668 0
1669 -143 0
1670 -153 -1669 0
-1670 153 0
-1670 1669 0
-1671 146 719 1064 143 0
1671 -146 0
1671 -719 0
1671 -1064 0
1671 -143 0
1672 -148 -1671 0
-1672 148 0
-1672 1671 0
-1673 173 1672 179 0
1673 -173 0
1673 -1672 0
1673 -179 0
1674 -217 -1673 0
-1674 217 0
-1674 1673 0
-1675 146 789 1070 143 0
1675 -146 0
1675 -789 0
1675 -1070 0
1675 -143 0
1676 -148 -1675 0
-1676 148 0
-1676 1675 0
-1677 173 1676 193 0
1677 -173 0
1677 -1676 0
1677 -193 0
1678 -184 -1677 0
-1678 184 0
-1678 1677 0
-1679 3 1678 0
1679 -3 0
1679 -1678 0
1680 -5 -1679 0
-1680 5 0
-1680 1679 0
-1681 7 1680 0
1681 -7 0
1681 -1680 0
1682 -26 -1681 0
-1682 26 0
-1682 1681 0
-1683 34 1674 977 23 1682 27 30 0
1683 -34 0
1683 -1674 0
1683 -977 0
1683 -23 0
1683 -1682 0
1683 -27 0
1683 -30 0
1684 -36 -1683 0
-1684 36 0
-1684 1683 0
-1685 3 372 0
1685 -3 0
1685 -372 0
1686 -2 -1685 0
-1686 2 0
-1686 1685 0
-1687 15 371 1686 382 0
1687 -15 0
1687 -371 0
1687 -1686 0
1687 -382 0
1688 -17 -1687 0
-1688 17 0
-1688 1687 0
-1689 72 1688 69 0
1689 -72 0
1689 -1688 0
1689 -69 0
1690 -117 -1689 0
-1690 117 0
-1690 1689 0
-1691 3 813 0
1691 -3 0
1691 -813 0
1692 -5 -1691 0
-1692 5 0
-1692 1691 0
-1693 7 1692 0
1693 -7 0
1693 -1692 0
1694 -38 -1693 0
-1694 38 0
-1694 1693 0
-1695 42 1694 39 0
1695 -42 0
1695 -1694 0
1695 -39 0
1696 -44 -1695 0
-1696 44 0
-1696 1695 0
-1697 46 1690 1696 0
1697 -46 0
1697 -1690 0
1697 -1696 0
1698 -48 -1697 0
-1698 48 0
-1698 1697 0
-1699 146 831 1092 143 0
1699 -146 0
1699 -831 0
1699 -1092 0
1699 -143 0
1700 -148 -1699 0
-1700 148 0
-1700 1699 0
-1701 173 1700 193 0
1701 -173 0
1701 -1700 0
1701 -193 0
1702 -184 -1701 0
-1702 184 0
-1702 1701 0
-1703 3 1702 0
1703 -3 0
1703 -1702 0
1704 -5 -1703 0
-1704 5 0
-1704 1703 0
-1705 7 1704 0
1705 -7 0
1705 -1704 0
1706 -9 -1705 0
-1706 9 0
-1706 1705 0
-1707 11 1706 0
1707 -11 0
1707 -1706 0
1708 -50 -1707 0
-1708 50 0
-1708 1707 0
-1709 52 1670 1684 1698 1708 0
1709 -52 0
1709 -1670 0
1709 -1684 0
1709 -1698 0
1709 -1708 0
1710 -54 -1709 0
-1710 54 0
-1710 1709 0
1711 -477 -747 0
-1711 477 0
-1711 747 0
1712 -56 -1681 0
-1712 56 0
-1712 1681 0
-1713 60 1710 1711 1712 57 0
1713 -60 0
1713 -1710 0
1713 -1711 0
1713 -1712 0
1713 -57 0
1714 -62 -1713 0
-1714 62 0
-1714 1713 0
-1715 66 1714 63 0
1715 -66 0
1715 -1714 0
1715 -63 0
1716 -870 -1715 0
-1716 870 0
-1716 1715 0
-1717 872 1664 1716 0
1717 -872 0
1717 -1664 0
1717 -1716 0
1718 -887 -1717 0
-1718 887 0
-1718 1717 0
-1719 146 1000 213 143 0
1719 -146 0
1719 -1000 0
1719 -213 0
1719 -143 0
1720 -153 -1719 0
-1720 153 0
-1720 1719 0
1721 -217 -1396 0
-1721 217 0
-1721 1396 0
1722 -889 -1468 0
-1722 889 0
-1722 1468 0
-1723 22 1722 18 0
1723 -22 0
1723 -1722 0
1723 -18 0
1724 -24 -1723 0
-1724 24 0
-1724 1723 0
1725 -26 -1404 0
-1725 26 0
-1725 1404 0
-1726 34 1721 977 1724 1725 27 30 0
1726 -34 0
1726 -1721 0
1726 -977 0
1726 -1724 0
1726 -1725 0
1726 -27 0
1726 -30 0
1727 -36 -1726 0
-1727 36 0
-1727 1726 0
-1728 3 1316 0
1728 -3 0
1728 -1316 0
1729 -5 -1728 0
-1729 5 0
-1729 1728 0
-1730 7 1729 0
1730 -7 0
1730 -1729 0
1731 -38 -1730 0
-1731 38 0
-1731 1730 0
-1732 42 1731 39 0
1732 -42 0
1732 -1731 0
1732 -39 0
1733 -44 -1732 0
-1733 44 0
-1733 1732 0
-1734 46 1733 0
1734 -46 0
1734 -1733 0
1735 -48 -1734 0
-1735 48 0
-1735 1734 0
1736 -50 -1406 0
-1736 50 0
-1736 1406 0
-1737 52 1720 1727 1735 1736 0
1737 -52 0
1737 -1720 0
1737 -1727 0
1737 -1735 0
1737 -1736 0
1738 -54 -1737 0
-1738 54 0
-1738 1737 0
1739 -56 -1404 0
-1739 56 0
-1739 1404 0
-1740 60 1738 1739 57 0
1740 -60 0
1740 -1738 0
1740 -1739 0
1740 -57 0
1741 -62 -1740 0
-1741 62 0
-1741 1740 0
-1742 66 1741 63 0
1742 -66 0
1742 -1741 0
1742 -63 0
1743 -68 -1742 0
-1743 68 0
-1743 1742 0
-1744 72 1409 1743 69 0
1744 -72 0
1744 -1409 0
1744 -1743 0
1744 -69 0
1745 -74 -1744 0
-1745 74 0
-1745 1744 0
-1746 76 1718 1745 0
1746 -76 0
1746 -1718 0
1746 -1745 0
1747 -527 -1746 0
-1747 527 0
-1747 1746 0
1748 -48 -1667 0
-1748 48 0
-1748 1667 0
-1749 52 531 1748 533 0
1749 -52 0
1749 -531 0
1749 -1748 0
1749 -533 0
1750 -54 -1749 0
-1750 54 0
-1750 1749 0
1751 -477 -1665 0
-1751 477 0
-1751 1665 0
-1752 60 1750 1751 536 57 0
1752 -60 0
1752 -1750 0
1752 -1751 0
1752 -536 0
1752 -57 0
1753 -62 -1752 0
-1753 62 0
-1753 1752 0
-1754 66 1753 63 0
1754 -66 0
1754 -1753 0
1754 -63 0
1755 -870 -1754 0
-1755 870 0
-1755 1754 0
-1756 872 1755 0
1756 -872 0
1756 -1755 0
1757 -887 -1756 0
-1757 887 0
-1757 1756 0
-1758 34 528 891 529 27 30 0
1758 -34 0
1758 -528 0
1758 -891 0
1758 -529 0
1758 -27 0
1758 -30 0
1759 -36 -1758 0
-1759 36 0
-1759 1758 0
-1760 52 1759 532 533 0
1760 -52 0
1760 -1759 0
1760 -532 0
1760 -533 0
1761 -54 -1760 0
-1761 54 0
-1761 1760 0
-1762 60 1761 536 57 0
1762 -60 0
1762 -1761 0
1762 -536 0
1762 -57 0
1763 -62 -1762 0
-1763 62 0
-1763 1762 0
-1764 66 1763 63 0
1764 -66 0
1764 -1763 0
1764 -63 0
1765 -68 -1764 0
-1765 68 0
-1765 1764 0
-1766 72 1223 1765 69 0
1766 -72 0
1766 -1223 0
1766 -1765 0
1766 -69 0
1767 -74 -1766 0
-1767 74 0
-1767 1766 0
-1768 76 1757 1767 0
1768 -76 0
1768 -1757 0
1768 -1767 0
1769 -78 -1768 0
-1769 78 0
-1769 1768 0
-1770 80 1769 0
1770 -80 0
1770 -1769 0
1771 -82 -1770 0
-1771 82 0
-1771 1770 0
1772 -171 -1487 0
-1772 171 0
-1772 1487 0
-1773 173 1772 0
1773 -173 0
1773 -1772 0
1774 -182 -1773 0
-1774 182 0
-1774 1773 0
1775 -870 -1657 0
-1775 870 0
-1775 1657 0
-1776 872 1775 0
1776 -872 0
1776 -1775 0
1777 -887 -1776 0
-1777 887 0
-1777 1776 0
-1778 76 1777 0
1778 -76 0
1778 -1777 0
1779 -84 -1778 0
-1779 84 0
-1779 1778 0
-1780 34 528 98 23 1516 27 30 0
1780 -34 0
1780 -528 0
1780 -98 0
1780 -23 0
1780 -1516 0
1780 -27 0
1780 -30 0
1781 -36 -1780 0
-1781 36 0
-1781 1780 0
-1782 52 1781 1522 0
1782 -52 0
1782 -1781 0
1782 -1522 0
1783 -54 -1782 0
-1783 54 0
-1783 1782 0
-1784 60 1783 1525 57 0
1784 -60 0
1784 -1783 0
1784 -1525 0
1784 -57 0
1785 -62 -1784 0
-1785 62 0
-1785 1784 0
-1786 66 1785 63 0
1786 -66 0
1786 -1785 0
1786 -63 0
1787 -870 -1786 0
-1787 870 0
-1787 1786 0
-1788 872 1787 0
1788 -872 0
1788 -1787 0
1789 -887 -1788 0
-1789 887 0
-1789 1788 0
-1790 76 1789 0
1790 -76 0
1790 -1789 0
1791 -86 -1790 0
-1791 86 0
-1791 1790 0
-1792 3 1154 1791 0
1792 -3 0
1792 -1154 0
1792 -1791 0
1793 -2 -1792 0
-1793 2 0
-1793 1792 0
1794 -870 -568 0
-1794 870 0
-1794 568 0
-1795 872 1794 0
1795 -872 0
1795 -1794 0
1796 -887 -1795 0
-1796 887 0
-1796 1795 0
-1797 76 1796 0
1797 -76 0
1797 -1796 0
1798 -86 -1797 0
-1798 86 0
-1798 1797 0
-1799 3 205 1798 0
1799 -3 0
1799 -205 0
1799 -1798 0
1800 -5 -1799 0
-1800 5 0
-1800 1799 0
-1801 7 1800 0
1801 -7 0
1801 -1800 0
1802 -9 -1801 0
-1802 9 0
-1802 1801 0
-1803 11 1802 0
1803 -11 0
1803 -1802 0
1804 -13 -1803 0
-1804 13 0
-1804 1803 0
-1805 15 1774 1779 1793 1804 0
1805 -15 0
1805 -1774 0
1805 -1779 0
1805 -1793 0
1805 -1804 0
1806 -17 -1805 0
-1806 17 0
-1806 1805 0
1807 -171 -1589 0
-1807 171 0
-1807 1589 0
-1808 173 1807 0
1808 -173 0
1808 -1807 0
1809 -217 -1808 0
-1809 217 0
-1809 1808 0
1810 -26 -1580 0
-1810 26 0
-1810 1580 0
-1811 34 1809 943 891 1810 27 30 0
1811 -34 0
1811 -1809 0
1811 -943 0
1811 -891 0
1811 -1810 0
1811 -27 0
1811 -30 0
1812 -36 -1811 0
-1812 36 0
-1812 1811 0
1813 -9 -1580 0
-1813 9 0
-1813 1580 0
-1814 11 1813 0
1814 -11 0
1814 -1813 0
1815 -50 -1814 0
-1815 50 0
-1815 1814 0
-1816 52 1812 1815 0
1816 -52 0
1816 -1812 0
1816 -1815 0
1817 -54 -1816 0
-1817 54 0
-1817 1816 0
1818 -56 -1580 0
-1818 56 0
-1818 1580 0
-1819 60 1817 956 1818 57 0
1819 -60 0
1819 -1817 0
1819 -956 0
1819 -1818 0
1819 -57 0
1820 -62 -1819 0
-1820 62 0
-1820 1819 0
-1821 66 1820 960 63 0
1821 -66 0
1821 -1820 0
1821 -960 0
1821 -63 0
1822 -68 -1821 0
-1822 68 0
-1822 1821 0
-1823 72 1806 1822 69 0
1823 -72 0
1823 -1806 0
1823 -1822 0
1823 -69 0
1824 -117 -1823 0
-1824 117 0
-1824 1823 0
-1825 34 561 977 23 27 30 0
1825 -34 0
1825 -561 0
1825 -977 0
1825 -23 0
1825 -27 0
1825 -30 0
1826 -36 -1825 0
-1826 36 0
-1826 1825 0
-1827 52 1826 123 0
1827 -52 0
1827 -1826 0
1827 -123 0
1828 -54 -1827 0
-1828 54 0
-1828 1827 0
1829 -477 -759 0
-1829 477 0
-1829 759 0
-1830 60 1828 1829 57 0
1830 -60 0
1830 -1828 0
1830 -1829 0
1830 -57 0
1831 -62 -1830 0
-1831 62 0
-1831 1830 0
-1832 66 1831 63 0
1832 -66 0
1832 -1831 0
1832 -63 0
1833 -870 -1832 0
-1833 870 0
-1833 1832 0
-1834 872 1833 0
1834 -872 0
1834 -1833 0
1835 -887 -1834 0
-1835 887 0
-1835 1834 0
-1836 34 561 977 891 27 30 0
1836 -34 0
1836 -561 0
1836 -977 0
1836 -891 0
1836 -27 0
1836 -30 0
1837 -36 -1836 0
-1837 36 0
-1837 1836 0
-1838 52 1837 123 0
1838 -52 0
1838 -1837 0
1838 -123 0
1839 -54 -1838 0
-1839 54 0
-1839 1838 0
-1840 60 1839 57 0
1840 -60 0
1840 -1839 0
1840 -57 0
1841 -62 -1840 0
-1841 62 0
-1841 1840 0
-1842 66 1841 63 0
1842 -66 0
1842 -1841 0
1842 -63 0
1843 -68 -1842 0
-1843 68 0
-1843 1842 0
-1844 72 288 1843 69 0
1844 -72 0
1844 -288 0
1844 -1843 0
1844 -69 0
1845 -74 -1844 0
-1845 74 0
-1845 1844 0
-1846 76 1835 1845 0
1846 -76 0
1846 -1835 0
1846 -1845 0
1847 -86 -1846 0
-1847 86 0
-1847 1846 0
-1848 3 205 1847 0
1848 -3 0
1848 -205 0
1848 -1847 0
1849 -5 -1848 0
-1849 5 0
-1849 1848 0
-1850 7 1849 0
1850 -7 0
1850 -1849 0
1851 -38 -1850 0
-1851 38 0
-1851 1850 0
-1852 42 1851 39 0
1852 -42 0
1852 -1851 0
1852 -39 0
1853 -44 -1852 0
-1853 44 0
-1853 1852 0
-1854 46 1824 1853 0
1854 -46 0
1854 -1824 0
1854 -1853 0
1855 -142 -1854 0
-1855 142 0
-1855 1854 0
-1856 146 1771 1855 143 0
1856 -146 0
1856 -1771 0
1856 -1855 0
1856 -143 0
1857 -584 -1856 0
-1857 584 0
-1857 1856 0
1858 -586 -1045 0
-1858 586 0
-1858 1045 0
-1859 588 1857 1858 0
1859 -588 0
1859 -1857 0
1859 -1858 0
1860 -590 -1859 0
-1860 590 0
-1860 1859 0
-1861 592 1046 1131 1478 1650 1747 1860 0
1861 -592 0
1861 -1046 0
1861 -1131 0
1861 -1478 0
1861 -1650 0
1861 -1747 0
1861 -1860 0
1862 -1863 -1861 0
-1862 1863 0
-1862 1861 0
-1864 1865 873 1862 0
1864 -1865 0
1864 -873 0
1864 -1862 0
1866 -1864 -1867 0
-1866 1864 0
-1866 1867 0
1866 0
