c BC-S1.2
p cnf 83 158
1 -2 -3 0
-1 2 0
-1 3 0
4 -5 -3 0
-4 5 0
-4 3 0
6 -7 -3 0
-6 7 0
-6 3 0
-8 9 6 0
8 -9 0
8 -6 0
10 -11 -8 0
-10 11 0
-10 8 0
12 -13 -14 0
-12 13 0
-12 14 0
-15 16 12 0
15 -16 0
15 -12 0
17 -18 -15 0
-17 18 0
-17 15 0
19 -20 -16 0
-19 20 0
-19 16 0
-21 14 19 0
21 -14 0
21 -19 0
22 -23 -21 0
-22 23 0
-22 21 0
-24 25 10 17 22 0
24 -25 0
24 -10 0
24 -17 0
24 -22 0
26 -27 -24 0
-26 27 0
-26 24 0
28 -29 -30 0
-28 29 0
-28 30 0
-31 32 26 28 0
31 -32 0
31 -26 0
31 -28 0
33 -34 -31 0
-33 34 0
-33 31 0
35 -36 -37 0
-35 36 0
-35 37 0
-38 39 33 35 0
38 -39 0
38 -33 0
38 -35 0
40 -41 -38 0
-40 41 0
-40 38 0
-42 43 40 0
42 -43 0
42 -40 0
44 -45 -42 0
-44 45 0
-44 42 0
-46 47 4 44 0
46 -47 0
46 -4 0
46 -44 0
48 -49 -46 0
-48 49 0
-48 46 0
-50 47 4 0
50 -47 0
50 -4 0
51 -52 -50 0
-51 52 0
-51 50 0
-53 43 51 0
53 -43 0
53 -51 0
54 -55 -53 0
-54 55 0
-54 53 0
-56 39 54 35 0
56 -39 0
56 -54 0
56 -35 0
57 -58 -56 0
-57 58 0
-57 56 0
-59 32 28 57 0
59 -32 0
59 -28 0
59 -57 0
60 -61 -59 0
-60 61 0
-60 59 0
-62 25 10 60 0
62 -25 0
62 -10 0
62 -60 0
63 -64 -62 0
-63 64 0
-63 62 0
-65 25 10 0
65 -25 0
65 -10 0
66 -27 -65 0
-66 27 0
-66 65 0
-67 32 66 28 0
67 -32 0
67 -66 0
67 -28 0
68 -34 -67 0
-68 34 0
-68 67 0
-69 39 68 54 35 0
69 -39 0
69 -68 0
69 -54 0
69 -35 0
70 -71 -69 0
-70 71 0
-70 69 0
-72 14 63 70 0
72 -14 0
72 -63 0
72 -70 0
73 -13 -72 0
-73 13 0
-73 72 0
-74 16 73 0
74 -16 0
74 -73 0
75 -76 -74 0
-75 76 0
-75 74 0
-77 43 51 40 0
77 -43 0
77 -51 0
77 -40 0
78 -79 -77 0
-78 79 0
-78 77 0
-80 81 1 48 75 78 0
80 -81 0
80 -1 0
80 -48 0
80 -75 0
80 -78 0
82 -80 -83 0
-82 80 0
-82 83 0
82 0
