c BC-S1.2
p cnf 100 218
1 -2 -3 0
-1 2 0
-1 3 0
4 -5 -6 0
-4 5 0
-4 6 0
7 -8 -9 0
-7 8 0
-7 9 0
-10 11 7 0
10 -11 0
10 -7 0
12 -13 -10 0
-12 13 0
-12 10 0
-14 15 4 12 0
14 -15 0
14 -4 0
14 -12 0
16 -17 -14 0
-16 17 0
-16 14 0
-18 19 1 16 0
18 -19 0
18 -1 0
18 -16 0
20 -21 -18 0
-20 21 0
-20 18 0
22 -23 -18 0
-22 23 0
-22 18 0
-24 15 22 4 12 0
24 -15 0
24 -22 0
24 -4 0
24 -12 0
25 -26 -24 0
-25 26 0
-25 24 0
-27 11 25 7 0
27 -11 0
27 -25 0
27 -7 0
28 -29 -27 0
-28 29 0
-28 27 0
-30 31 20 28 0
30 -31 0
30 -20 0
30 -28 0
32 -33 -30 0
-32 33 0
-32 30 0
-34 35 32 0
34 -35 0
34 -32 0
36 -37 -34 0
-36 37 0
-36 34 0
-38 39 36 0
38 -39 0
38 -36 0
40 -41 -38 0
-40 41 0
-40 38 0
-42 43 40 0
42 -43 0
42 -40 0
44 -45 -42 0
-44 45 0
-44 42 0
-46 47 44 0
46 -47 0
46 -44 0
48 -49 -46 0
-48 49 0
-48 46 0
50 -51 -43 0
-50 51 0
-50 43 0
52 -45 -43 0
-52 45 0
-52 43 0
-53 47 52 0
53 -47 0
53 -52 0
54 -55 -53 0
-54 55 0
-54 53 0
56 -57 -43 0
-56 57 0
-56 43 0
-58 3 56 0
58 -3 0
58 -56 0
59 -2 -58 0
-59 2 0
-59 58 0
-60 19 59 16 0
60 -19 0
60 -59 0
60 -16 0
61 -21 -60 0
-61 21 0
-61 60 0
62 -23 -60 0
-62 23 0
-62 60 0
-63 15 62 4 12 0
63 -15 0
63 -62 0
63 -4 0
63 -12 0
64 -26 -63 0
-64 26 0
-64 63 0
-65 11 64 7 0
65 -11 0
65 -64 0
65 -7 0
66 -29 -65 0
-66 29 0
-66 65 0
-67 31 61 66 0
67 -31 0
67 -61 0
67 -66 0
68 -33 -67 0
-68 33 0
-68 67 0
-69 35 68 0
69 -35 0
69 -68 0
70 -37 -69 0
-70 37 0
-70 69 0
-71 39 50 54 70 0
71 -39 0
71 -50 0
71 -54 0
71 -70 0
72 -73 -71 0
-72 73 0
-72 71 0
74 -33 -31 0
-74 33 0
-74 31 0
-75 35 74 0
75 -35 0
75 -74 0
76 -37 -75 0
-76 37 0
-76 75 0
-77 39 54 76 0
77 -39 0
77 -54 0
77 -76 0
78 -41 -77 0
-78 41 0
-78 77 0
-79 43 78 0
79 -43 0
79 -78 0
80 -57 -79 0
-80 57 0
-80 79 0
-81 3 80 0
81 -3 0
81 -80 0
82 -2 -81 0
-82 2 0
-82 81 0
83 -84 -75 0
-83 84 0
-83 75 0
85 -86 -35 0
-85 86 0
-85 35 0
-87 31 85 0
87 -31 0
87 -85 0
88 -89 -87 0
-88 89 0
-88 87 0
-90 19 82 83 88 16 0
90 -19 0
90 -82 0
90 -83 0
90 -88 0
90 -16 0
91 -23 -90 0
-91 23 0
-91 90 0
-92 15 91 4 12 0
92 -15 0
92 -91 0
92 -4 0
92 -12 0
93 -26 -92 0
-93 26 0
-93 92 0
-94 11 93 7 0
94 -11 0
94 -93 0
94 -7 0
95 -96 -94 0
-95 96 0
-95 94 0
-97 98 48 72 95 0
97 -98 0
97 -48 0
97 -72 0
97 -95 0
99 -97 -100 0
-99 97 0
-99 100 0
99 0
