c BC-S1.2
p cnf 144 340
1 -2 -3 0
-1 2 0
-1 3 0
4 -5 -3 0
-4 5 0
-4 3 0
-6 7 4 0
6 -7 0
6 -4 0
8 -9 -6 0
-8 9 0
-8 6 0
10 -11 -6 0
-10 11 0
-10 6 0
-12 13 10 0
12 -13 0
12 -10 0
14 -15 -12 0
-14 15 0
-14 12 0
-16 17 14 0
16 -17 0
16 -14 0
18 -19 -16 0
-18 19 0
-18 16 0
-20 21 18 0
20 -21 0
20 -18 0
22 -23 -20 0
-22 23 0
-22 20 0
-24 25 22 0
24 -25 0
24 -22 0
26 -27 -24 0
-26 27 0
-26 24 0
-28 29 1 8 26 0
28 -29 0
28 -1 0
28 -8 0
28 -26 0
30 -31 -28 0
-30 31 0
-30 28 0
32 -33 -16 0
-32 33 0
-32 16 0
-34 35 30 32 0
34 -35 0
34 -30 0
34 -32 0
36 -37 -34 0
-36 37 0
-36 34 0
38 -39 -24 0
-38 39 0
-38 24 0
-40 41 36 38 0
40 -41 0
40 -36 0
40 -38 0
42 -43 -40 0
-42 43 0
-42 40 0
44 -45 -3 0
-44 45 0
-44 3 0
46 -47 -3 0
-46 47 0
-46 3 0
48 -49 -16 0
-48 49 0
-48 16 0
-50 51 46 48 0
50 -51 0
50 -46 0
50 -48 0
52 -53 -50 0
-52 53 0
-52 50 0
54 -55 -16 0
-54 55 0
-54 16 0
-56 57 52 54 0
56 -57 0
56 -52 0
56 -54 0
58 -59 -56 0
-58 59 0
-58 56 0
-60 61 42 44 58 0
60 -61 0
60 -42 0
60 -44 0
60 -58 0
62 -63 -60 0
-62 63 0
-62 60 0
64 -23 -21 0
-64 23 0
-64 21 0
-65 25 64 0
65 -25 0
65 -64 0
66 -27 -65 0
-66 27 0
-66 65 0
-67 29 1 8 66 0
67 -29 0
67 -1 0
67 -8 0
67 -66 0
68 -31 -67 0
-68 31 0
-68 67 0
-69 35 68 0
69 -35 0
69 -68 0
70 -37 -69 0
-70 37 0
-70 69 0
71 -39 -65 0
-71 39 0
-71 65 0
-72 41 70 71 0
72 -41 0
72 -70 0
72 -71 0
73 -43 -72 0
-73 43 0
-73 72 0
74 -59 -57 0
-74 59 0
-74 57 0
-75 61 73 44 74 0
75 -61 0
75 -73 0
75 -44 0
75 -74 0
76 -77 -75 0
-76 77 0
-76 75 0
-78 13 76 10 0
78 -13 0
78 -76 0
78 -10 0
79 -15 -78 0
-79 15 0
-79 78 0
-80 17 79 0
80 -17 0
80 -79 0
81 -49 -80 0
-81 49 0
-81 80 0
-82 51 46 81 0
82 -51 0
82 -46 0
82 -81 0
83 -84 -82 0
-83 84 0
-83 82 0
-85 86 62 83 0
85 -86 0
85 -62 0
85 -83 0
87 -88 -85 0
-87 88 0
-87 85 0
-89 51 46 0
89 -51 0
89 -46 0
90 -84 -89 0
-90 84 0
-90 89 0
-91 86 90 0
91 -86 0
91 -90 0
92 -93 -91 0
-92 93 0
-92 91 0
-94 3 92 0
94 -3 0
94 -92 0
95 -2 -94 0
-95 2 0
-95 94 0
96 -5 -94 0
-96 5 0
-96 94 0
-97 7 96 0
97 -7 0
97 -96 0
98 -9 -97 0
-98 9 0
-98 97 0
99 -27 -25 0
-99 27 0
-99 25 0
-100 29 95 98 99 0
100 -29 0
100 -95 0
100 -98 0
100 -99 0
101 -31 -100 0
-101 31 0
-101 100 0
-102 35 101 0
102 -35 0
102 -101 0
103 -37 -102 0
-103 37 0
-103 102 0
104 -39 -25 0
-104 39 0
-104 25 0
-105 41 103 104 0
105 -41 0
105 -103 0
105 -104 0
106 -43 -105 0
-106 43 0
-106 105 0
107 -45 -94 0
-107 45 0
-107 94 0
108 -93 -86 0
-108 93 0
-108 86 0
-109 3 108 0
109 -3 0
109 -108 0
110 -47 -109 0
-110 47 0
-110 109 0
-111 51 110 0
111 -51 0
111 -110 0
112 -53 -111 0
-112 53 0
-112 111 0
-113 57 112 0
113 -57 0
113 -112 0
114 -59 -113 0
-114 59 0
-114 113 0
-115 61 106 107 114 0
115 -61 0
115 -106 0
115 -107 0
115 -114 0
116 -77 -115 0
-116 77 0
-116 115 0
-117 29 99 0
117 -29 0
117 -99 0
118 -31 -117 0
-118 31 0
-118 117 0
-119 35 118 0
119 -35 0
119 -118 0
120 -37 -119 0
-120 37 0
-120 119 0
-121 41 120 104 0
121 -41 0
121 -120 0
121 -104 0
122 -43 -121 0
-122 43 0
-122 121 0
123 -53 -89 0
-123 53 0
-123 89 0
-124 57 123 0
124 -57 0
124 -123 0
125 -59 -124 0
-125 59 0
-125 124 0
-126 61 122 44 125 0
126 -61 0
126 -122 0
126 -44 0
126 -125 0
127 -63 -126 0
-127 63 0
-127 126 0
-128 86 127 90 0
128 -86 0
128 -127 0
128 -90 0
129 -93 -128 0
-129 93 0
-129 128 0
-130 3 129 0
130 -3 0
130 -129 0
131 -5 -130 0
-131 5 0
-131 130 0
-132 7 131 0
132 -7 0
132 -131 0
133 -11 -132 0
-133 11 0
-133 132 0
-134 13 116 133 0
134 -13 0
134 -116 0
134 -133 0
135 -15 -134 0
-135 15 0
-135 134 0
-136 17 135 0
136 -17 0
136 -135 0
137 -19 -136 0
-137 19 0
-137 136 0
-138 21 137 0
138 -21 0
138 -137 0
139 -140 -138 0
-139 140 0
-139 138 0
-141 142 87 139 0
141 -142 0
141 -87 0
141 -139 0
143 -141 -144 0
-143 141 0
-143 144 0
143 0
