c BC-S1.2
p cnf 464 1353
1 -2 -3 0
-1 2 0
-1 3 0
4 -5 -6 0
-4 5 0
-4 6 0
-7 8 4 0
7 -8 0
7 -4 0
9 -10 -7 0
-9 10 0
-9 7 0
11 -12 -13 0
-11 12 0
-11 13 0
14 -15 -7 0
-14 15 0
-14 7 0
16 -17 -18 0
-16 17 0
-16 18 0
19 -20 -21 0
-19 20 0
-19 21 0
22 -23 -24 0
-22 23 0
-22 24 0
25 -26 -27 0
-25 26 0
-25 27 0
28 -29 -30 0
-28 29 0
-28 30 0
-31 32 28 0
31 -32 0
31 -28 0
33 -34 -31 0
-33 34 0
-33 31 0
-35 36 22 25 33 0
35 -36 0
35 -22 0
35 -25 0
35 -33 0
37 -38 -35 0
-37 38 0
-37 35 0
39 -40 -8 0
-39 40 0
-39 8 0
-41 6 39 0
41 -6 0
41 -39 0
42 -43 -41 0
-42 43 0
-42 41 0
-44 36 25 33 0
44 -36 0
44 -25 0
44 -33 0
45 -46 -44 0
-45 46 0
-45 44 0
-47 24 45 0
47 -24 0
47 -45 0
48 -49 -47 0
-48 49 0
-48 47 0
50 -51 -52 0
-50 51 0
-50 52 0
-53 54 48 50 0
53 -54 0
53 -48 0
53 -50 0
55 -56 -53 0
-55 56 0
-55 53 0
-57 58 14 16 19 37 42 55 0
57 -58 0
57 -14 0
57 -16 0
57 -19 0
57 -37 0
57 -42 0
57 -55 0
59 -60 -57 0
-59 60 0
-59 57 0
-61 62 59 0
61 -62 0
61 -59 0
63 -64 -61 0
-63 64 0
-63 61 0
65 -66 -57 0
-65 66 0
-65 57 0
-67 68 65 0
67 -68 0
67 -65 0
69 -70 -67 0
-69 70 0
-69 67 0
71 -72 -73 0
-71 72 0
-71 73 0
74 -75 -21 0
-74 75 0
-74 21 0
76 -77 -57 0
-76 77 0
-76 57 0
-78 79 76 0
78 -79 0
78 -76 0
80 -81 -78 0
-80 81 0
-80 78 0
82 -49 -24 0
-82 49 0
-82 24 0
-83 54 82 50 0
83 -54 0
83 -82 0
83 -50 0
84 -56 -83 0
-84 56 0
-84 83 0
-85 58 14 16 19 42 84 0
85 -58 0
85 -14 0
85 -16 0
85 -19 0
85 -42 0
85 -84 0
86 -87 -85 0
-86 87 0
-86 85 0
-88 32 28 86 0
88 -32 0
88 -28 0
88 -86 0
89 -34 -88 0
-89 34 0
-89 88 0
-90 36 22 25 89 0
90 -36 0
90 -22 0
90 -25 0
90 -89 0
91 -92 -90 0
-91 92 0
-91 90 0
-93 36 22 25 0
93 -36 0
93 -22 0
93 -25 0
94 -38 -93 0
-94 38 0
-94 93 0
-95 36 25 0
95 -36 0
95 -25 0
96 -46 -95 0
-96 46 0
-96 95 0
-97 24 96 0
97 -24 0
97 -96 0
98 -49 -97 0
-98 49 0
-98 97 0
-99 54 98 50 0
99 -54 0
99 -98 0
99 -50 0
100 -56 -99 0
-100 56 0
-100 99 0
-101 58 14 16 19 94 42 100 0
101 -58 0
101 -14 0
101 -16 0
101 -19 0
101 -94 0
101 -42 0
101 -100 0
102 -87 -101 0
-102 87 0
-102 101 0
-103 32 102 0
103 -32 0
103 -102 0
104 -105 -103 0
-104 105 0
-104 103 0
-106 30 104 0
106 -30 0
106 -104 0
107 -108 -106 0
-107 108 0
-107 106 0
109 -110 -27 0
-109 110 0
-109 27 0
111 -87 -57 0
-111 87 0
-111 57 0
-112 32 28 111 0
112 -32 0
112 -28 0
112 -111 0
113 -114 -112 0
-113 114 0
-113 112 0
115 -116 -41 0
-115 116 0
-115 41 0
117 -118 -57 0
-117 118 0
-117 57 0
-119 120 9 11 63 69 71 74 80 91 107 109 113 115 117 0
119 -120 0
119 -9 0
119 -11 0
119 -63 0
119 -69 0
119 -71 0
119 -74 0
119 -80 0
119 -91 0
119 -107 0
119 -109 0
119 -113 0
119 -115 0
119 -117 0
121 -122 -119 0
-121 122 0
-121 119 0
-123 124 121 0
123 -124 0
123 -121 0
125 -126 -123 0
-125 126 0
-125 123 0
127 -128 -129 0
-127 128 0
-127 129 0
130 -131 -132 0
-130 131 0
-130 132 0
-133 134 1 125 127 130 0
133 -134 0
133 -1 0
133 -125 0
133 -127 0
133 -130 0
135 -136 -133 0
-135 136 0
-135 133 0
137 -138 -133 0
-137 138 0
-137 133 0
139 -140 -133 0
-139 140 0
-139 133 0
141 -142 -3 0
-141 142 0
-141 3 0
-143 58 16 19 37 55 0
143 -58 0
143 -16 0
143 -19 0
143 -37 0
143 -55 0
144 -60 -143 0
-144 60 0
-144 143 0
-145 62 144 0
145 -62 0
145 -144 0
146 -64 -145 0
-146 64 0
-146 145 0
147 -66 -143 0
-147 66 0
-147 143 0
-148 68 147 0
148 -68 0
148 -147 0
149 -70 -148 0
-149 70 0
-149 148 0
150 -77 -143 0
-150 77 0
-150 143 0
-151 79 150 0
151 -79 0
151 -150 0
152 -81 -151 0
-152 81 0
-152 151 0
-153 58 16 19 84 0
153 -58 0
153 -16 0
153 -19 0
153 -84 0
154 -87 -153 0
-154 87 0
-154 153 0
-155 32 28 154 0
155 -32 0
155 -28 0
155 -154 0
156 -34 -155 0
-156 34 0
-156 155 0
-157 36 22 25 156 0
157 -36 0
157 -22 0
157 -25 0
157 -156 0
158 -92 -157 0
-158 92 0
-158 157 0
-159 58 16 19 94 100 0
159 -58 0
159 -16 0
159 -19 0
159 -94 0
159 -100 0
160 -87 -159 0
-160 87 0
-160 159 0
-161 32 160 0
161 -32 0
161 -160 0
162 -105 -161 0
-162 105 0
-162 161 0
-163 30 162 0
163 -30 0
163 -162 0
164 -108 -163 0
-164 108 0
-164 163 0
165 -87 -143 0
-165 87 0
-165 143 0
-166 32 28 165 0
166 -32 0
166 -28 0
166 -165 0
167 -114 -166 0
-167 114 0
-167 166 0
168 -118 -143 0
-168 118 0
-168 143 0
-169 120 11 146 149 71 74 152 158 164 109 167 168 0
169 -120 0
169 -11 0
169 -146 0
169 -149 0
169 -71 0
169 -74 0
169 -152 0
169 -158 0
169 -164 0
169 -109 0
169 -167 0
169 -168 0
170 -122 -169 0
-170 122 0
-170 169 0
-171 124 170 0
171 -124 0
171 -170 0
172 -126 -171 0
-172 126 0
-172 171 0
-173 134 1 172 127 130 0
173 -134 0
173 -1 0
173 -172 0
173 -127 0
173 -130 0
174 -175 -173 0
-174 175 0
-174 173 0
-176 6 174 0
176 -6 0
176 -174 0
177 -5 -176 0
-177 5 0
-177 176 0
-178 8 177 0
178 -8 0
178 -177 0
179 -180 -178 0
-179 180 0
-179 178 0
181 -182 -13 0
-181 182 0
-181 13 0
-183 134 1 127 130 0
183 -134 0
183 -1 0
183 -127 0
183 -130 0
184 -175 -183 0
-184 175 0
-184 183 0
-185 6 184 0
185 -6 0
185 -184 0
186 -5 -185 0
-186 5 0
-186 185 0
-187 8 186 0
187 -8 0
187 -186 0
188 -10 -187 0
-188 10 0
-188 187 0
189 -15 -187 0
-189 15 0
-189 187 0
-190 6 184 39 0
190 -6 0
190 -184 0
190 -39 0
191 -43 -190 0
-191 43 0
-191 190 0
-192 58 189 16 19 37 191 55 0
192 -58 0
192 -189 0
192 -16 0
192 -19 0
192 -37 0
192 -191 0
192 -55 0
193 -60 -192 0
-193 60 0
-193 192 0
-194 62 193 0
194 -62 0
194 -193 0
195 -64 -194 0
-195 64 0
-195 194 0
196 -66 -192 0
-196 66 0
-196 192 0
-197 68 196 0
197 -68 0
197 -196 0
198 -70 -197 0
-198 70 0
-198 197 0
199 -200 -183 0
-199 200 0
-199 183 0
-201 73 199 0
201 -73 0
201 -199 0
202 -72 -201 0
-202 72 0
-202 201 0
203 -77 -192 0
-203 77 0
-203 192 0
-204 79 203 0
204 -79 0
204 -203 0
205 -81 -204 0
-205 81 0
-205 204 0
-206 58 189 16 19 191 84 0
206 -58 0
206 -189 0
206 -16 0
206 -19 0
206 -191 0
206 -84 0
207 -87 -206 0
-207 87 0
-207 206 0
-208 32 28 207 0
208 -32 0
208 -28 0
208 -207 0
209 -34 -208 0
-209 34 0
-209 208 0
-210 36 22 25 209 0
210 -36 0
210 -22 0
210 -25 0
210 -209 0
211 -92 -210 0
-211 92 0
-211 210 0
-212 58 189 16 19 94 191 100 0
212 -58 0
212 -189 0
212 -16 0
212 -19 0
212 -94 0
212 -191 0
212 -100 0
213 -87 -212 0
-213 87 0
-213 212 0
-214 32 213 0
214 -32 0
214 -213 0
215 -105 -214 0
-215 105 0
-215 214 0
-216 30 215 0
216 -30 0
216 -215 0
217 -108 -216 0
-217 108 0
-217 216 0
218 -87 -192 0
-218 87 0
-218 192 0
-219 32 28 218 0
219 -32 0
219 -28 0
219 -218 0
220 -114 -219 0
-220 114 0
-220 219 0
221 -116 -190 0
-221 116 0
-221 190 0
222 -118 -192 0
-222 118 0
-222 192 0
-223 120 188 11 195 198 202 74 205 211 217 109 220 221 222 0
223 -120 0
223 -188 0
223 -11 0
223 -195 0
223 -198 0
223 -202 0
223 -74 0
223 -205 0
223 -211 0
223 -217 0
223 -109 0
223 -220 0
223 -221 0
223 -222 0
224 -122 -223 0
-224 122 0
-224 223 0
-225 124 224 0
225 -124 0
225 -224 0
226 -227 -225 0
-226 227 0
-226 225 0
228 -229 -27 0
-228 229 0
-228 27 0
230 -126 -124 0
-230 126 0
-230 124 0
-231 134 1 230 127 130 0
231 -134 0
231 -1 0
231 -230 0
231 -127 0
231 -130 0
232 -175 -231 0
-232 175 0
-232 231 0
-233 6 232 0
233 -6 0
233 -232 0
234 -5 -233 0
-234 5 0
-234 233 0
-235 8 234 0
235 -8 0
235 -234 0
236 -10 -235 0
-236 10 0
-236 235 0
237 -15 -235 0
-237 15 0
-237 235 0
-238 6 232 39 0
238 -6 0
238 -232 0
238 -39 0
239 -43 -238 0
-239 43 0
-239 238 0
-240 54 48 0
240 -54 0
240 -48 0
241 -56 -240 0
-241 56 0
-241 240 0
-242 58 237 16 19 37 239 241 0
242 -58 0
242 -237 0
242 -16 0
242 -19 0
242 -37 0
242 -239 0
242 -241 0
243 -60 -242 0
-243 60 0
-243 242 0
-244 62 243 0
244 -62 0
244 -243 0
245 -64 -244 0
-245 64 0
-245 244 0
246 -66 -242 0
-246 66 0
-246 242 0
-247 68 246 0
247 -68 0
247 -246 0
248 -70 -247 0
-248 70 0
-248 247 0
249 -200 -231 0
-249 200 0
-249 231 0
-250 73 249 0
250 -73 0
250 -249 0
251 -72 -250 0
-251 72 0
-251 250 0
252 -77 -242 0
-252 77 0
-252 242 0
-253 79 252 0
253 -79 0
253 -252 0
254 -81 -253 0
-254 81 0
-254 253 0
-255 54 82 0
255 -54 0
255 -82 0
256 -56 -255 0
-256 56 0
-256 255 0
-257 58 237 16 19 239 256 0
257 -58 0
257 -237 0
257 -16 0
257 -19 0
257 -239 0
257 -256 0
258 -87 -257 0
-258 87 0
-258 257 0
-259 32 28 258 0
259 -32 0
259 -28 0
259 -258 0
260 -34 -259 0
-260 34 0
-260 259 0
-261 36 22 25 260 0
261 -36 0
261 -22 0
261 -25 0
261 -260 0
262 -92 -261 0
-262 92 0
-262 261 0
-263 54 98 0
263 -54 0
263 -98 0
264 -56 -263 0
-264 56 0
-264 263 0
-265 58 237 16 19 94 239 264 0
265 -58 0
265 -237 0
265 -16 0
265 -19 0
265 -94 0
265 -239 0
265 -264 0
266 -87 -265 0
-266 87 0
-266 265 0
-267 32 266 0
267 -32 0
267 -266 0
268 -105 -267 0
-268 105 0
-268 267 0
-269 30 268 0
269 -30 0
269 -268 0
270 -108 -269 0
-270 108 0
-270 269 0
271 -87 -242 0
-271 87 0
-271 242 0
-272 32 28 271 0
272 -32 0
272 -28 0
272 -271 0
273 -114 -272 0
-273 114 0
-273 272 0
274 -116 -238 0
-274 116 0
-274 238 0
275 -118 -242 0
-275 118 0
-275 242 0
-276 120 236 11 245 248 251 74 254 262 270 109 273 274 275 0
276 -120 0
276 -236 0
276 -11 0
276 -245 0
276 -248 0
276 -251 0
276 -74 0
276 -254 0
276 -262 0
276 -270 0
276 -109 0
276 -273 0
276 -274 0
276 -275 0
277 -278 -276 0
-277 278 0
-277 276 0
-279 52 277 0
279 -52 0
279 -277 0
280 -281 -279 0
-280 281 0
-280 279 0
282 -64 -62 0
-282 64 0
-282 62 0
283 -70 -68 0
-283 70 0
-283 68 0
284 -81 -79 0
-284 81 0
-284 79 0
285 -92 -35 0
-285 92 0
-285 35 0
286 -105 -32 0
-286 105 0
-286 32 0
-287 30 286 0
287 -30 0
287 -286 0
288 -108 -287 0
-288 108 0
-288 287 0
289 -114 -31 0
-289 114 0
-289 31 0
-290 120 11 282 283 71 74 284 285 288 109 289 0
290 -120 0
290 -11 0
290 -282 0
290 -283 0
290 -71 0
290 -74 0
290 -284 0
290 -285 0
290 -288 0
290 -109 0
290 -289 0
291 -122 -290 0
-291 122 0
-291 290 0
-292 124 291 0
292 -124 0
292 -291 0
293 -126 -292 0
-293 126 0
-293 292 0
-294 134 1 293 127 130 0
294 -134 0
294 -1 0
294 -293 0
294 -127 0
294 -130 0
295 -175 -294 0
-295 175 0
-295 294 0
-296 6 295 0
296 -6 0
296 -295 0
297 -5 -296 0
-297 5 0
-297 296 0
-298 8 297 0
298 -8 0
298 -297 0
299 -15 -298 0
-299 15 0
-299 298 0
-300 120 236 11 282 283 251 74 284 285 288 109 289 274 0
300 -120 0
300 -236 0
300 -11 0
300 -282 0
300 -283 0
300 -251 0
300 -74 0
300 -284 0
300 -285 0
300 -288 0
300 -109 0
300 -289 0
300 -274 0
301 -302 -300 0
-301 302 0
-301 300 0
-303 18 301 0
303 -18 0
303 -301 0
304 -17 -303 0
-304 17 0
-304 303 0
305 -10 -8 0
-305 10 0
-305 8 0
-306 120 305 11 282 283 71 74 284 285 288 109 289 115 0
306 -120 0
306 -305 0
306 -11 0
306 -282 0
306 -283 0
306 -71 0
306 -74 0
306 -284 0
306 -285 0
306 -288 0
306 -109 0
306 -289 0
306 -115 0
307 -122 -306 0
-307 122 0
-307 306 0
-308 124 307 0
308 -124 0
308 -307 0
309 -126 -308 0
-309 126 0
-309 308 0
-310 134 1 309 127 130 0
310 -134 0
310 -1 0
310 -309 0
310 -127 0
310 -130 0
311 -175 -310 0
-311 175 0
-311 310 0
-312 6 311 39 0
312 -6 0
312 -311 0
312 -39 0
313 -43 -312 0
-313 43 0
-313 312 0
314 -278 -300 0
-314 278 0
-314 300 0
-315 52 314 0
315 -52 0
315 -314 0
316 -51 -315 0
-316 51 0
-316 315 0
317 -318 -300 0
-317 318 0
-317 300 0
-319 54 48 316 317 0
319 -54 0
319 -48 0
319 -316 0
319 -317 0
320 -56 -319 0
-320 56 0
-320 319 0
-321 58 299 304 19 37 313 320 0
321 -58 0
321 -299 0
321 -304 0
321 -19 0
321 -37 0
321 -313 0
321 -320 0
322 -323 -321 0
-322 323 0
-322 321 0
-324 325 139 141 179 181 226 228 280 322 0
324 -325 0
324 -139 0
324 -141 0
324 -179 0
324 -181 0
324 -226 0
324 -228 0
324 -280 0
324 -322 0
326 -327 -324 0
-326 327 0
-326 324 0
328 -329 -3 0
-328 329 0
-328 3 0
330 -331 -225 0
-330 331 0
-330 225 0
-332 333 137 326 328 330 0
332 -333 0
332 -137 0
332 -326 0
332 -328 0
332 -330 0
334 -335 -332 0
-334 335 0
-334 332 0
336 -337 -338 0
-336 337 0
-336 338 0
-339 340 336 0
339 -340 0
339 -336 0
341 -342 -339 0
-341 342 0
-341 339 0
-343 344 341 0
343 -344 0
343 -341 0
345 -346 -343 0
-345 346 0
-345 343 0
-347 348 345 0
347 -348 0
347 -345 0
349 -350 -347 0
-349 350 0
-349 347 0
351 -352 -347 0
-351 352 0
-351 347 0
-353 344 351 341 0
353 -344 0
353 -351 0
353 -341 0
354 -355 -353 0
-354 355 0
-354 353 0
356 -357 -3 0
-356 357 0
-356 3 0
358 -359 -178 0
-358 359 0
-358 178 0
360 -361 -347 0
-360 361 0
-360 347 0
362 -352 -348 0
-362 352 0
-362 348 0
-363 344 362 0
363 -344 0
363 -362 0
364 -365 -363 0
-364 365 0
-364 363 0
366 -367 -363 0
-366 367 0
-366 363 0
-368 338 366 0
368 -338 0
368 -366 0
369 -337 -368 0
-369 337 0
-369 368 0
-370 340 364 369 0
370 -340 0
370 -364 0
370 -369 0
371 -372 -370 0
-371 372 0
-371 370 0
-373 374 360 371 0
373 -374 0
373 -360 0
373 -371 0
375 -376 -373 0
-375 376 0
-375 373 0
377 -378 -379 0
-377 378 0
-377 379 0
-380 120 9 11 63 69 74 80 91 107 109 113 115 117 0
380 -120 0
380 -9 0
380 -11 0
380 -63 0
380 -69 0
380 -74 0
380 -80 0
380 -91 0
380 -107 0
380 -109 0
380 -113 0
380 -115 0
380 -117 0
381 -122 -380 0
-381 122 0
-381 380 0
-382 124 381 0
382 -124 0
382 -381 0
383 -126 -382 0
-383 126 0
-383 382 0
-384 134 1 383 127 130 0
384 -134 0
384 -1 0
384 -383 0
384 -127 0
384 -130 0
385 -200 -384 0
-385 200 0
-385 384 0
-386 73 385 0
386 -73 0
386 -385 0
387 -388 -386 0
-387 388 0
-387 386 0
389 -108 -30 0
-389 108 0
-389 30 0
-390 120 11 282 283 71 74 284 389 109 289 0
390 -120 0
390 -11 0
390 -282 0
390 -283 0
390 -71 0
390 -74 0
390 -284 0
390 -389 0
390 -109 0
390 -289 0
391 -122 -390 0
-391 122 0
-391 390 0
-392 124 391 0
392 -124 0
392 -391 0
393 -126 -392 0
-393 126 0
-393 392 0
-394 134 1 393 127 130 0
394 -134 0
394 -1 0
394 -393 0
394 -127 0
394 -130 0
395 -175 -394 0
-395 175 0
-395 394 0
-396 6 395 0
396 -6 0
396 -395 0
397 -5 -396 0
-397 5 0
-397 396 0
-398 8 397 0
398 -8 0
398 -397 0
399 -15 -398 0
-399 15 0
-399 398 0
-400 120 236 11 282 283 251 74 284 389 109 289 274 0
400 -120 0
400 -236 0
400 -11 0
400 -282 0
400 -283 0
400 -251 0
400 -74 0
400 -284 0
400 -389 0
400 -109 0
400 -289 0
400 -274 0
401 -302 -400 0
-401 302 0
-401 400 0
-402 18 401 0
402 -18 0
402 -401 0
403 -17 -402 0
-403 17 0
-403 402 0
-404 120 305 11 282 283 71 74 284 389 109 289 115 0
404 -120 0
404 -305 0
404 -11 0
404 -282 0
404 -283 0
404 -71 0
404 -74 0
404 -284 0
404 -389 0
404 -109 0
404 -289 0
404 -115 0
405 -122 -404 0
-405 122 0
-405 404 0
-406 124 405 0
406 -124 0
406 -405 0
407 -126 -406 0
-407 126 0
-407 406 0
-408 134 1 407 127 130 0
408 -134 0
408 -1 0
408 -407 0
408 -127 0
408 -130 0
409 -175 -408 0
-409 175 0
-409 408 0
-410 6 409 39 0
410 -6 0
410 -409 0
410 -39 0
411 -43 -410 0
-411 43 0
-411 410 0
-412 58 399 403 19 411 0
412 -58 0
412 -399 0
412 -403 0
412 -19 0
412 -411 0
413 -87 -412 0
-413 87 0
-413 412 0
-414 32 28 413 0
414 -32 0
414 -28 0
414 -413 0
415 -34 -414 0
-415 34 0
-415 414 0
-416 36 25 415 0
416 -36 0
416 -25 0
416 -415 0
417 -46 -416 0
-417 46 0
-417 416 0
-418 24 417 0
418 -24 0
418 -417 0
419 -49 -418 0
-419 49 0
-419 418 0
-420 58 237 16 19 37 239 0
420 -58 0
420 -237 0
420 -16 0
420 -19 0
420 -37 0
420 -239 0
421 -60 -420 0
-421 60 0
-421 420 0
-422 62 421 0
422 -62 0
422 -421 0
423 -64 -422 0
-423 64 0
-423 422 0
424 -66 -420 0
-424 66 0
-424 420 0
-425 68 424 0
425 -68 0
425 -424 0
426 -70 -425 0
-426 70 0
-426 425 0
427 -77 -420 0
-427 77 0
-427 420 0
-428 79 427 0
428 -79 0
428 -427 0
429 -81 -428 0
-429 81 0
-429 428 0
-430 58 237 16 19 239 0
430 -58 0
430 -237 0
430 -16 0
430 -19 0
430 -239 0
431 -87 -430 0
-431 87 0
-431 430 0
-432 32 28 431 0
432 -32 0
432 -28 0
432 -431 0
433 -34 -432 0
-433 34 0
-433 432 0
-434 36 22 25 433 0
434 -36 0
434 -22 0
434 -25 0
434 -433 0
435 -92 -434 0
-435 92 0
-435 434 0
-436 58 237 16 19 94 239 0
436 -58 0
436 -237 0
436 -16 0
436 -19 0
436 -94 0
436 -239 0
437 -87 -436 0
-437 87 0
-437 436 0
-438 32 437 0
438 -32 0
438 -437 0
439 -105 -438 0
-439 105 0
-439 438 0
-440 30 439 0
440 -30 0
440 -439 0
441 -108 -440 0
-441 108 0
-441 440 0
442 -87 -420 0
-442 87 0
-442 420 0
-443 32 28 442 0
443 -32 0
443 -28 0
443 -442 0
444 -114 -443 0
-444 114 0
-444 443 0
445 -118 -420 0
-445 118 0
-445 420 0
-446 120 236 11 423 426 251 74 429 435 441 109 444 274 445 0
446 -120 0
446 -236 0
446 -11 0
446 -423 0
446 -426 0
446 -251 0
446 -74 0
446 -429 0
446 -435 0
446 -441 0
446 -109 0
446 -444 0
446 -274 0
446 -445 0
447 -278 -446 0
-447 278 0
-447 446 0
-448 52 447 0
448 -52 0
448 -447 0
449 -51 -448 0
-449 51 0
-449 448 0
-450 58 299 304 19 37 313 0
450 -58 0
450 -299 0
450 -304 0
450 -19 0
450 -37 0
450 -313 0
451 -452 -450 0
-451 452 0
-451 450 0
453 -318 -446 0
-453 318 0
-453 446 0
-454 54 419 449 451 453 0
454 -54 0
454 -419 0
454 -449 0
454 -451 0
454 -453 0
455 -456 -454 0
-455 456 0
-455 454 0
-457 458 135 334 349 354 356 358 375 377 387 455 0
457 -458 0
457 -135 0
457 -334 0
457 -349 0
457 -354 0
457 -356 0
457 -358 0
457 -375 0
457 -377 0
457 -387 0
457 -455 0
459 -460 -457 0
-459 460 0
-459 457 0
-461 462 459 0
461 -462 0
461 -459 0
463 -461 -464 0
-463 461 0
-463 464 0
463 0
