c BC-S1.2
p cnf 295 847
1 -2 -3 0
-1 2 0
-1 3 0
4 -5 -3 0
-4 5 0
-4 3 0
6 -7 -3 0
-6 7 0
-6 3 0
-8 9 6 0
8 -9 0
8 -6 0
10 -11 -8 0
-10 11 0
-10 8 0
12 -13 -3 0
-12 13 0
-12 3 0
14 -15 -16 0
-14 15 0
-14 16 0
-17 18 10 12 14 0
17 -18 0
17 -10 0
17 -12 0
17 -14 0
19 -20 -17 0
-19 20 0
-19 17 0
21 -22 -16 0
-21 22 0
-21 16 0
-23 24 21 0
23 -24 0
23 -21 0
25 -26 -23 0
-25 26 0
-25 23 0
-27 28 19 25 0
27 -28 0
27 -19 0
27 -25 0
29 -30 -27 0
-29 30 0
-29 27 0
31 -32 -16 0
-31 32 0
-31 16 0
-33 34 31 0
33 -34 0
33 -31 0
35 -36 -33 0
-35 36 0
-35 33 0
-37 38 4 29 35 0
37 -38 0
37 -4 0
37 -29 0
37 -35 0
39 -40 -37 0
-39 40 0
-39 37 0
-41 38 4 35 0
41 -38 0
41 -4 0
41 -35 0
42 -43 -41 0
-42 43 0
-42 41 0
-44 18 42 10 12 14 0
44 -18 0
44 -42 0
44 -10 0
44 -12 0
44 -14 0
45 -20 -44 0
-45 20 0
-45 44 0
-46 28 45 25 0
46 -28 0
46 -45 0
46 -25 0
47 -48 -46 0
-47 48 0
-47 46 0
49 -50 -23 0
-49 50 0
-49 23 0
-51 52 39 47 49 0
51 -52 0
51 -39 0
51 -47 0
51 -49 0
53 -54 -51 0
-53 54 0
-53 51 0
-55 52 49 0
55 -52 0
55 -49 0
56 -57 -55 0
-56 57 0
-56 55 0
-58 18 10 12 56 14 0
58 -18 0
58 -10 0
58 -12 0
58 -56 0
58 -14 0
59 -20 -58 0
-59 20 0
-59 58 0
-60 28 59 25 0
60 -28 0
60 -59 0
60 -25 0
61 -30 -60 0
-61 30 0
-61 60 0
-62 38 4 61 35 0
62 -38 0
62 -4 0
62 -61 0
62 -35 0
63 -64 -62 0
-63 64 0
-63 62 0
-65 66 63 0
65 -66 0
65 -63 0
67 -68 -65 0
-67 68 0
-67 65 0
69 -70 -65 0
-69 70 0
-69 65 0
-71 72 69 0
71 -72 0
71 -69 0
73 -74 -71 0
-73 74 0
-73 71 0
-75 76 53 67 73 0
75 -76 0
75 -53 0
75 -67 0
75 -73 0
77 -78 -75 0
-77 78 0
-77 75 0
79 -54 -55 0
-79 54 0
-79 55 0
80 -68 -66 0
-80 68 0
-80 66 0
81 -70 -66 0
-81 70 0
-81 66 0
-82 72 81 0
82 -72 0
82 -81 0
83 -74 -82 0
-83 74 0
-83 82 0
-84 76 79 80 83 0
84 -76 0
84 -79 0
84 -80 0
84 -83 0
85 -86 -84 0
-85 86 0
-85 84 0
-87 76 80 83 0
87 -76 0
87 -80 0
87 -83 0
88 -89 -87 0
-88 89 0
-88 87 0
-90 16 88 0
90 -16 0
90 -88 0
91 -22 -90 0
-91 22 0
-91 90 0
-92 24 91 0
92 -24 0
92 -91 0
93 -50 -92 0
-93 50 0
-93 92 0
-94 52 93 0
94 -52 0
94 -93 0
95 -57 -94 0
-95 57 0
-95 94 0
96 -89 -84 0
-96 89 0
-96 84 0
-97 16 96 0
97 -16 0
97 -96 0
98 -15 -97 0
-98 15 0
-98 97 0
-99 18 85 10 12 95 98 0
99 -18 0
99 -85 0
99 -10 0
99 -12 0
99 -95 0
99 -98 0
100 -20 -99 0
-100 20 0
-100 99 0
101 -54 -52 0
-101 54 0
-101 52 0
-102 76 101 80 83 0
102 -76 0
102 -101 0
102 -80 0
102 -83 0
103 -89 -102 0
-103 89 0
-103 102 0
-104 16 103 0
104 -16 0
104 -103 0
105 -22 -104 0
-105 22 0
-105 104 0
-106 24 105 0
106 -24 0
106 -105 0
107 -26 -106 0
-107 26 0
-107 106 0
-108 28 100 107 0
108 -28 0
108 -100 0
108 -107 0
109 -30 -108 0
-109 30 0
-109 108 0
-110 18 10 12 0
110 -18 0
110 -10 0
110 -12 0
111 -20 -110 0
-111 20 0
-111 110 0
-112 28 111 25 0
112 -28 0
112 -111 0
112 -25 0
113 -48 -112 0
-113 48 0
-113 112 0
-114 52 113 49 0
114 -52 0
114 -113 0
114 -49 0
115 -54 -114 0
-115 54 0
-115 114 0
-116 76 115 80 83 0
116 -76 0
116 -115 0
116 -80 0
116 -83 0
117 -89 -116 0
-117 89 0
-117 116 0
-118 16 117 0
118 -16 0
118 -117 0
119 -32 -118 0
-119 32 0
-119 118 0
-120 34 119 0
120 -34 0
120 -119 0
121 -36 -120 0
-121 36 0
-121 120 0
-122 38 4 109 121 0
122 -38 0
122 -4 0
122 -109 0
122 -121 0
123 -124 -122 0
-123 124 0
-123 122 0
-125 76 79 83 0
125 -76 0
125 -79 0
125 -83 0
126 -86 -125 0
-126 86 0
-126 125 0
-127 76 83 0
127 -76 0
127 -83 0
128 -89 -127 0
-128 89 0
-128 127 0
-129 16 128 0
129 -16 0
129 -128 0
130 -22 -129 0
-130 22 0
-130 129 0
-131 24 130 0
131 -24 0
131 -130 0
132 -50 -131 0
-132 50 0
-132 131 0
-133 52 132 0
133 -52 0
133 -132 0
134 -57 -133 0
-134 57 0
-134 133 0
135 -89 -125 0
-135 89 0
-135 125 0
-136 16 135 0
136 -16 0
136 -135 0
137 -15 -136 0
-137 15 0
-137 136 0
-138 18 126 10 12 134 137 0
138 -18 0
138 -126 0
138 -10 0
138 -12 0
138 -134 0
138 -137 0
139 -20 -138 0
-139 20 0
-139 138 0
-140 76 101 83 0
140 -76 0
140 -101 0
140 -83 0
141 -89 -140 0
-141 89 0
-141 140 0
-142 16 141 0
142 -16 0
142 -141 0
143 -22 -142 0
-143 22 0
-143 142 0
-144 24 143 0
144 -24 0
144 -143 0
145 -26 -144 0
-145 26 0
-145 144 0
-146 28 139 145 0
146 -28 0
146 -139 0
146 -145 0
147 -30 -146 0
-147 30 0
-147 146 0
-148 76 115 83 0
148 -76 0
148 -115 0
148 -83 0
149 -89 -148 0
-149 89 0
-149 148 0
-150 16 149 0
150 -16 0
150 -149 0
151 -32 -150 0
-151 32 0
-151 150 0
-152 34 151 0
152 -34 0
152 -151 0
153 -36 -152 0
-153 36 0
-153 152 0
-154 38 4 147 153 0
154 -38 0
154 -4 0
154 -147 0
154 -153 0
155 -64 -154 0
-155 64 0
-155 154 0
-156 66 155 0
156 -66 0
156 -155 0
157 -158 -156 0
-157 158 0
-157 156 0
-159 160 77 123 157 0
159 -160 0
159 -77 0
159 -123 0
159 -157 0
161 -162 -159 0
-161 162 0
-161 159 0
163 -158 -66 0
-163 158 0
-163 66 0
-164 160 163 0
164 -160 0
164 -163 0
165 -166 -164 0
-165 166 0
-165 164 0
-167 16 165 0
167 -16 0
167 -165 0
168 -22 -167 0
-168 22 0
-168 167 0
-169 24 168 0
169 -24 0
169 -168 0
170 -50 -169 0
-170 50 0
-170 169 0
-171 52 170 0
171 -52 0
171 -170 0
172 -54 -171 0
-172 54 0
-172 171 0
173 -174 -164 0
-173 174 0
-173 164 0
-175 72 173 81 0
175 -72 0
175 -173 0
175 -81 0
176 -74 -175 0
-176 74 0
-176 175 0
-177 76 172 80 176 0
177 -76 0
177 -172 0
177 -80 0
177 -176 0
178 -86 -177 0
-178 86 0
-178 177 0
-179 76 80 176 0
179 -76 0
179 -80 0
179 -176 0
180 -89 -179 0
-180 89 0
-180 179 0
181 -78 -87 0
-181 78 0
-181 87 0
-182 160 181 163 0
182 -160 0
182 -181 0
182 -163 0
183 -166 -182 0
-183 166 0
-183 182 0
-184 16 180 183 0
184 -16 0
184 -180 0
184 -183 0
185 -22 -184 0
-185 22 0
-185 184 0
-186 24 185 0
186 -24 0
186 -185 0
187 -50 -186 0
-187 50 0
-187 186 0
-188 52 187 0
188 -52 0
188 -187 0
189 -57 -188 0
-189 57 0
-189 188 0
190 -50 -24 0
-190 50 0
-190 24 0
-191 52 190 0
191 -52 0
191 -190 0
192 -54 -191 0
-192 54 0
-192 191 0
-193 76 192 80 176 0
193 -76 0
193 -192 0
193 -80 0
193 -176 0
194 -89 -193 0
-194 89 0
-194 193 0
195 -78 -84 0
-195 78 0
-195 84 0
-196 160 195 163 0
196 -160 0
196 -195 0
196 -163 0
197 -166 -196 0
-197 166 0
-197 196 0
-198 16 194 197 0
198 -16 0
198 -194 0
198 -197 0
199 -15 -198 0
-199 15 0
-199 198 0
-200 18 178 10 12 189 199 0
200 -18 0
200 -178 0
200 -10 0
200 -12 0
200 -189 0
200 -199 0
201 -20 -200 0
-201 20 0
-201 200 0
-202 76 101 80 176 0
202 -76 0
202 -101 0
202 -80 0
202 -176 0
203 -89 -202 0
-203 89 0
-203 202 0
204 -78 -102 0
-204 78 0
-204 102 0
-205 160 204 163 0
205 -160 0
205 -204 0
205 -163 0
206 -166 -205 0
-206 166 0
-206 205 0
-207 16 203 206 0
207 -16 0
207 -203 0
207 -206 0
208 -22 -207 0
-208 22 0
-208 207 0
-209 24 208 0
209 -24 0
209 -208 0
210 -26 -209 0
-210 26 0
-210 209 0
-211 28 201 210 0
211 -28 0
211 -201 0
211 -210 0
212 -30 -211 0
-212 30 0
-212 211 0
213 -26 -24 0
-213 26 0
-213 24 0
-214 28 111 213 0
214 -28 0
214 -111 0
214 -213 0
215 -48 -214 0
-215 48 0
-215 214 0
-216 52 215 190 0
216 -52 0
216 -215 0
216 -190 0
217 -54 -216 0
-217 54 0
-217 216 0
-218 76 217 80 176 0
218 -76 0
218 -217 0
218 -80 0
218 -176 0
219 -89 -218 0
-219 89 0
-219 218 0
220 -78 -116 0
-220 78 0
-220 116 0
-221 160 220 163 0
221 -160 0
221 -220 0
221 -163 0
222 -166 -221 0
-222 166 0
-222 221 0
-223 16 219 222 0
223 -16 0
223 -219 0
223 -222 0
224 -32 -223 0
-224 32 0
-224 223 0
-225 34 224 0
225 -34 0
225 -224 0
226 -36 -225 0
-226 36 0
-226 225 0
-227 38 4 212 226 0
227 -38 0
227 -4 0
227 -212 0
227 -226 0
228 -229 -227 0
-228 229 0
-228 227 0
230 -231 -159 0
-230 231 0
-230 159 0
-232 233 228 230 0
232 -233 0
232 -228 0
232 -230 0
234 -235 -232 0
-234 235 0
-234 232 0
236 -30 -214 0
-236 30 0
-236 214 0
-237 38 4 236 0
237 -38 0
237 -4 0
237 -236 0
238 -40 -237 0
-238 40 0
-238 237 0
-239 38 4 0
239 -38 0
239 -4 0
240 -43 -239 0
-240 43 0
-240 239 0
-241 18 240 10 12 0
241 -18 0
241 -240 0
241 -10 0
241 -12 0
242 -20 -241 0
-242 20 0
-242 241 0
-243 28 242 213 0
243 -28 0
243 -242 0
243 -213 0
244 -48 -243 0
-244 48 0
-244 243 0
-245 52 238 244 190 0
245 -52 0
245 -238 0
245 -244 0
245 -190 0
246 -54 -245 0
-246 54 0
-246 245 0
247 -57 -191 0
-247 57 0
-247 191 0
-248 18 10 12 247 0
248 -18 0
248 -10 0
248 -12 0
248 -247 0
249 -20 -248 0
-249 20 0
-249 248 0
-250 28 249 213 0
250 -28 0
250 -249 0
250 -213 0
251 -30 -250 0
-251 30 0
-251 250 0
-252 38 4 251 0
252 -38 0
252 -4 0
252 -251 0
253 -64 -252 0
-253 64 0
-253 252 0
-254 66 253 0
254 -66 0
254 -253 0
255 -68 -254 0
-255 68 0
-255 254 0
256 -124 -252 0
-256 124 0
-256 252 0
257 -158 -254 0
-257 158 0
-257 254 0
-258 160 256 257 0
258 -160 0
258 -256 0
258 -257 0
259 -174 -258 0
-259 174 0
-259 258 0
260 -70 -254 0
-260 70 0
-260 254 0
-261 72 259 260 0
261 -72 0
261 -259 0
261 -260 0
262 -74 -261 0
-262 74 0
-262 261 0
-263 76 246 255 262 0
263 -76 0
263 -246 0
263 -255 0
263 -262 0
264 -89 -263 0
-264 89 0
-264 263 0
-265 52 238 244 49 0
265 -52 0
265 -238 0
265 -244 0
265 -49 0
266 -54 -265 0
-266 54 0
-266 265 0
-267 72 260 0
267 -72 0
267 -260 0
268 -74 -267 0
-268 74 0
-268 267 0
-269 76 266 255 268 0
269 -76 0
269 -266 0
269 -255 0
269 -268 0
270 -78 -269 0
-270 78 0
-270 269 0
-271 18 85 10 12 247 0
271 -18 0
271 -85 0
271 -10 0
271 -12 0
271 -247 0
272 -20 -271 0
-272 20 0
-272 271 0
-273 28 272 213 0
273 -28 0
273 -272 0
273 -213 0
274 -30 -273 0
-274 30 0
-274 273 0
-275 38 4 274 0
275 -38 0
275 -4 0
275 -274 0
276 -124 -275 0
-276 124 0
-276 275 0
-277 18 126 10 12 247 0
277 -18 0
277 -126 0
277 -10 0
277 -12 0
277 -247 0
278 -20 -277 0
-278 20 0
-278 277 0
-279 28 278 213 0
279 -28 0
279 -278 0
279 -213 0
280 -30 -279 0
-280 30 0
-280 279 0
-281 38 4 280 0
281 -38 0
281 -4 0
281 -280 0
282 -64 -281 0
-282 64 0
-282 281 0
-283 66 282 0
283 -66 0
283 -282 0
284 -158 -283 0
-284 158 0
-284 283 0
-285 160 270 276 284 0
285 -160 0
285 -270 0
285 -276 0
285 -284 0
286 -166 -285 0
-286 166 0
-286 285 0
-287 16 264 286 0
287 -16 0
287 -264 0
287 -286 0
288 -32 -287 0
-288 32 0
-288 287 0
-289 34 288 0
289 -34 0
289 -288 0
290 -291 -289 0
-290 291 0
-290 289 0
-292 293 1 161 234 290 0
292 -293 0
292 -1 0
292 -161 0
292 -234 0
292 -290 0
294 -292 -295 0
-294 292 0
-294 295 0
294 0
