c BC-S1.2
p cnf 507 1808
1 -2 -3 0
-1 2 0
-1 3 0
4 -5 -6 0
-4 5 0
-4 6 0
7 -8 -9 0
-7 8 0
-7 9 0
-10 11 1 4 7 0
10 -11 0
10 -1 0
10 -4 0
10 -7 0
12 -13 -10 0
-12 13 0
-12 10 0
14 -15 -3 0
-14 15 0
-14 3 0
16 -17 -18 0
-16 17 0
-16 18 0
19 -20 -21 0
-19 20 0
-19 21 0
22 -23 -24 0
-22 23 0
-22 24 0
25 -26 -27 0
-25 26 0
-25 27 0
28 -29 -30 0
-28 29 0
-28 30 0
-31 32 28 0
31 -32 0
31 -28 0
33 -34 -31 0
-33 34 0
-33 31 0
35 -36 -18 0
-35 36 0
-35 18 0
37 -38 -9 0
-37 38 0
-37 9 0
39 -40 -24 0
-39 40 0
-39 24 0
41 -42 -27 0
-41 42 0
-41 27 0
43 -44 -45 0
-43 44 0
-43 45 0
46 -47 -48 0
-46 47 0
-46 48 0
49 -50 -21 0
-49 50 0
-49 21 0
-51 52 49 0
51 -52 0
51 -49 0
53 -54 -51 0
-53 54 0
-53 51 0
-55 56 53 0
55 -56 0
55 -53 0
57 -58 -55 0
-57 58 0
-57 55 0
59 -60 -61 0
-59 60 0
-59 61 0
-62 63 57 59 0
62 -63 0
62 -57 0
62 -59 0
64 -65 -62 0
-64 65 0
-64 62 0
-66 67 64 0
66 -67 0
66 -64 0
68 -69 -66 0
-68 69 0
-68 66 0
70 -71 -21 0
-70 71 0
-70 21 0
-72 63 57 0
72 -63 0
72 -57 0
73 -74 -72 0
-73 74 0
-73 72 0
-75 61 73 0
75 -61 0
75 -73 0
76 -77 -75 0
-76 77 0
-76 75 0
78 -79 -30 0
-78 79 0
-78 30 0
80 -81 -51 0
-80 81 0
-80 51 0
-82 83 33 35 37 39 41 43 46 68 70 76 78 80 0
82 -83 0
82 -33 0
82 -35 0
82 -37 0
82 -39 0
82 -41 0
82 -43 0
82 -46 0
82 -68 0
82 -70 0
82 -76 0
82 -78 0
82 -80 0
84 -85 -82 0
-84 85 0
-84 82 0
-86 87 84 0
86 -87 0
86 -84 0
88 -89 -86 0
-88 89 0
-88 86 0
90 -91 -87 0
-90 91 0
-90 87 0
-92 83 33 35 37 39 41 90 43 46 68 70 76 78 80 0
92 -83 0
92 -33 0
92 -35 0
92 -37 0
92 -39 0
92 -41 0
92 -90 0
92 -43 0
92 -46 0
92 -68 0
92 -70 0
92 -76 0
92 -78 0
92 -80 0
93 -94 -92 0
-93 94 0
-93 92 0
-95 96 93 0
95 -96 0
95 -93 0
97 -98 -95 0
-97 98 0
-97 95 0
99 -100 -48 0
-99 100 0
-99 48 0
101 -69 -67 0
-101 69 0
-101 67 0
-102 83 33 35 37 39 41 90 43 46 101 70 78 80 0
102 -83 0
102 -33 0
102 -35 0
102 -37 0
102 -39 0
102 -41 0
102 -90 0
102 -43 0
102 -46 0
102 -101 0
102 -70 0
102 -78 0
102 -80 0
103 -104 -102 0
-103 104 0
-103 102 0
-105 61 103 0
105 -61 0
105 -103 0
106 -60 -105 0
-106 60 0
-106 105 0
107 -77 -61 0
-107 77 0
-107 61 0
-108 83 33 35 37 39 41 90 43 46 68 70 107 78 80 0
108 -83 0
108 -33 0
108 -35 0
108 -37 0
108 -39 0
108 -41 0
108 -90 0
108 -43 0
108 -46 0
108 -68 0
108 -70 0
108 -107 0
108 -78 0
108 -80 0
109 -110 -108 0
-109 110 0
-109 108 0
-111 63 57 106 109 0
111 -63 0
111 -57 0
111 -106 0
111 -109 0
112 -113 -111 0
-112 113 0
-112 111 0
114 -110 -102 0
-114 110 0
-114 102 0
-115 63 57 114 0
115 -63 0
115 -57 0
115 -114 0
116 -74 -115 0
-116 74 0
-116 115 0
117 -65 -72 0
-117 65 0
-117 72 0
-118 67 117 0
118 -67 0
118 -117 0
119 -69 -118 0
-119 69 0
-119 118 0
-120 83 33 35 37 39 41 90 43 46 119 70 76 78 80 0
120 -83 0
120 -33 0
120 -35 0
120 -37 0
120 -39 0
120 -41 0
120 -90 0
120 -43 0
120 -46 0
120 -119 0
120 -70 0
120 -76 0
120 -78 0
120 -80 0
121 -104 -120 0
-121 104 0
-121 120 0
-122 61 116 121 0
122 -61 0
122 -116 0
122 -121 0
123 -124 -122 0
-123 124 0
-123 122 0
125 -126 -51 0
-125 126 0
-125 51 0
127 -128 -92 0
-127 128 0
-127 92 0
-129 130 22 25 88 97 99 112 123 125 127 0
129 -130 0
129 -22 0
129 -25 0
129 -88 0
129 -97 0
129 -99 0
129 -112 0
129 -123 0
129 -125 0
129 -127 0
131 -132 -129 0
-131 132 0
-131 129 0
-133 134 12 14 16 19 131 0
133 -134 0
133 -12 0
133 -14 0
133 -16 0
133 -19 0
133 -131 0
135 -136 -133 0
-135 136 0
-135 133 0
137 -138 -139 0
-137 138 0
-137 139 0
140 -141 -142 0
-140 141 0
-140 142 0
-143 144 137 140 0
143 -144 0
143 -137 0
143 -140 0
145 -146 -143 0
-145 146 0
-145 143 0
147 -148 -142 0
-147 148 0
-147 142 0
-149 150 145 147 0
149 -150 0
149 -145 0
149 -147 0
151 -152 -149 0
-151 152 0
-151 149 0
153 -154 -139 0
-153 154 0
-153 139 0
-155 156 151 153 0
155 -156 0
155 -151 0
155 -153 0
157 -158 -155 0
-157 158 0
-157 155 0
159 -160 -143 0
-159 160 0
-159 143 0
-161 83 35 37 39 41 43 46 68 70 76 78 80 0
161 -83 0
161 -35 0
161 -37 0
161 -39 0
161 -41 0
161 -43 0
161 -46 0
161 -68 0
161 -70 0
161 -76 0
161 -78 0
161 -80 0
162 -85 -161 0
-162 85 0
-162 161 0
-163 87 162 0
163 -87 0
163 -162 0
164 -89 -163 0
-164 89 0
-164 163 0
-165 83 35 37 39 41 90 43 46 68 70 76 78 80 0
165 -83 0
165 -35 0
165 -37 0
165 -39 0
165 -41 0
165 -90 0
165 -43 0
165 -46 0
165 -68 0
165 -70 0
165 -76 0
165 -78 0
165 -80 0
166 -94 -165 0
-166 94 0
-166 165 0
-167 96 166 0
167 -96 0
167 -166 0
168 -98 -167 0
-168 98 0
-168 167 0
-169 83 35 37 39 41 90 43 46 101 70 78 80 0
169 -83 0
169 -35 0
169 -37 0
169 -39 0
169 -41 0
169 -90 0
169 -43 0
169 -46 0
169 -101 0
169 -70 0
169 -78 0
169 -80 0
170 -104 -169 0
-170 104 0
-170 169 0
-171 61 170 0
171 -61 0
171 -170 0
172 -60 -171 0
-172 60 0
-172 171 0
-173 83 35 37 39 41 90 43 46 68 70 107 78 80 0
173 -83 0
173 -35 0
173 -37 0
173 -39 0
173 -41 0
173 -90 0
173 -43 0
173 -46 0
173 -68 0
173 -70 0
173 -107 0
173 -78 0
173 -80 0
174 -110 -173 0
-174 110 0
-174 173 0
-175 63 57 172 174 0
175 -63 0
175 -57 0
175 -172 0
175 -174 0
176 -113 -175 0
-176 113 0
-176 175 0
177 -110 -169 0
-177 110 0
-177 169 0
-178 63 57 177 0
178 -63 0
178 -57 0
178 -177 0
179 -74 -178 0
-179 74 0
-179 178 0
-180 83 35 37 39 41 90 43 46 119 70 76 78 80 0
180 -83 0
180 -35 0
180 -37 0
180 -39 0
180 -41 0
180 -90 0
180 -43 0
180 -46 0
180 -119 0
180 -70 0
180 -76 0
180 -78 0
180 -80 0
181 -104 -180 0
-181 104 0
-181 180 0
-182 61 179 181 0
182 -61 0
182 -179 0
182 -181 0
183 -124 -182 0
-183 124 0
-183 182 0
184 -128 -165 0
-184 128 0
-184 165 0
-185 130 22 25 164 168 99 176 183 125 184 0
185 -130 0
185 -22 0
185 -25 0
185 -164 0
185 -168 0
185 -99 0
185 -176 0
185 -183 0
185 -125 0
185 -184 0
186 -132 -185 0
-186 132 0
-186 185 0
-187 134 12 14 16 19 186 0
187 -134 0
187 -12 0
187 -14 0
187 -16 0
187 -19 0
187 -186 0
188 -189 -187 0
-188 189 0
-188 187 0
-190 11 1 4 0
190 -11 0
190 -1 0
190 -4 0
191 -13 -190 0
-191 13 0
-191 190 0
-192 134 191 14 16 19 0
192 -134 0
192 -191 0
192 -14 0
192 -16 0
192 -19 0
193 -194 -192 0
-193 194 0
-193 192 0
-195 9 193 0
195 -9 0
195 -193 0
196 -38 -195 0
-196 38 0
-196 195 0
-197 134 12 14 16 19 0
197 -134 0
197 -12 0
197 -14 0
197 -16 0
197 -19 0
198 -199 -197 0
-198 199 0
-198 197 0
-200 67 198 64 0
200 -67 0
200 -198 0
200 -64 0
201 -69 -200 0
-201 69 0
-201 200 0
-202 83 35 196 39 41 43 46 201 70 76 78 80 0
202 -83 0
202 -35 0
202 -196 0
202 -39 0
202 -41 0
202 -43 0
202 -46 0
202 -201 0
202 -70 0
202 -76 0
202 -78 0
202 -80 0
203 -85 -202 0
-203 85 0
-203 202 0
-204 87 203 0
204 -87 0
204 -203 0
205 -89 -204 0
-205 89 0
-205 204 0
-206 83 35 196 39 41 90 43 46 201 70 76 78 80 0
206 -83 0
206 -35 0
206 -196 0
206 -39 0
206 -41 0
206 -90 0
206 -43 0
206 -46 0
206 -201 0
206 -70 0
206 -76 0
206 -78 0
206 -80 0
207 -94 -206 0
-207 94 0
-207 206 0
-208 96 207 0
208 -96 0
208 -207 0
209 -98 -208 0
-209 98 0
-209 208 0
-210 67 198 0
210 -67 0
210 -198 0
211 -69 -210 0
-211 69 0
-211 210 0
-212 83 35 196 39 41 90 43 46 211 70 78 80 0
212 -83 0
212 -35 0
212 -196 0
212 -39 0
212 -41 0
212 -90 0
212 -43 0
212 -46 0
212 -211 0
212 -70 0
212 -78 0
212 -80 0
213 -104 -212 0
-213 104 0
-213 212 0
-214 61 213 0
214 -61 0
214 -213 0
215 -60 -214 0
-215 60 0
-215 214 0
-216 83 35 196 39 41 90 43 46 201 70 107 78 80 0
216 -83 0
216 -35 0
216 -196 0
216 -39 0
216 -41 0
216 -90 0
216 -43 0
216 -46 0
216 -201 0
216 -70 0
216 -107 0
216 -78 0
216 -80 0
217 -110 -216 0
-217 110 0
-217 216 0
-218 63 57 215 217 0
218 -63 0
218 -57 0
218 -215 0
218 -217 0
219 -113 -218 0
-219 113 0
-219 218 0
220 -110 -212 0
-220 110 0
-220 212 0
-221 63 57 220 0
221 -63 0
221 -57 0
221 -220 0
222 -74 -221 0
-222 74 0
-222 221 0
-223 67 198 117 0
223 -67 0
223 -198 0
223 -117 0
224 -69 -223 0
-224 69 0
-224 223 0
-225 83 35 196 39 41 90 43 46 224 70 76 78 80 0
225 -83 0
225 -35 0
225 -196 0
225 -39 0
225 -41 0
225 -90 0
225 -43 0
225 -46 0
225 -224 0
225 -70 0
225 -76 0
225 -78 0
225 -80 0
226 -104 -225 0
-226 104 0
-226 225 0
-227 61 222 226 0
227 -61 0
227 -222 0
227 -226 0
228 -124 -227 0
-228 124 0
-228 227 0
229 -128 -206 0
-229 128 0
-229 206 0
-230 130 22 25 205 209 99 219 228 125 229 0
230 -130 0
230 -22 0
230 -25 0
230 -205 0
230 -209 0
230 -99 0
230 -219 0
230 -228 0
230 -125 0
230 -229 0
231 -232 -230 0
-231 232 0
-231 230 0
-233 30 231 0
233 -30 0
233 -231 0
234 -29 -233 0
-234 29 0
-234 233 0
235 -236 -230 0
-235 236 0
-235 230 0
-237 32 188 234 235 0
237 -32 0
237 -188 0
237 -234 0
237 -235 0
238 -239 -237 0
-238 239 0
-238 237 0
240 -241 -139 0
-240 241 0
-240 139 0
242 -89 -87 0
-242 89 0
-242 87 0
243 -98 -96 0
-243 98 0
-243 96 0
244 -113 -62 0
-244 113 0
-244 62 0
245 -124 -75 0
-245 124 0
-245 75 0
-246 130 22 25 242 243 99 244 245 125 0
246 -130 0
246 -22 0
246 -25 0
246 -242 0
246 -243 0
246 -99 0
246 -244 0
246 -245 0
246 -125 0
247 -132 -246 0
-247 132 0
-247 246 0
-248 134 12 14 16 19 247 0
248 -134 0
248 -12 0
248 -14 0
248 -16 0
248 -19 0
248 -247 0
249 -189 -248 0
-249 189 0
-249 248 0
250 -232 -246 0
-250 232 0
-250 246 0
-251 30 250 0
251 -30 0
251 -250 0
252 -29 -251 0
-252 29 0
-252 251 0
253 -236 -246 0
-253 236 0
-253 246 0
-254 32 249 252 253 0
254 -32 0
254 -249 0
254 -252 0
254 -253 0
255 -34 -254 0
-255 34 0
-255 254 0
-256 134 191 14 16 19 247 0
256 -134 0
256 -191 0
256 -14 0
256 -16 0
256 -19 0
256 -247 0
257 -194 -256 0
-257 194 0
-257 256 0
-258 9 257 0
258 -9 0
258 -257 0
259 -38 -258 0
-259 38 0
-259 258 0
-260 130 22 242 243 99 244 245 125 0
260 -130 0
260 -22 0
260 -242 0
260 -243 0
260 -99 0
260 -244 0
260 -245 0
260 -125 0
261 -262 -260 0
-261 262 0
-261 260 0
-263 27 261 0
263 -27 0
263 -261 0
264 -42 -263 0
-264 42 0
-264 263 0
265 -199 -248 0
-265 199 0
-265 248 0
-266 67 265 64 0
266 -67 0
266 -265 0
266 -64 0
267 -69 -266 0
-267 69 0
-267 266 0
268 -79 -251 0
-268 79 0
-268 251 0
-269 83 255 35 259 39 264 90 46 267 70 76 268 80 0
269 -83 0
269 -255 0
269 -35 0
269 -259 0
269 -39 0
269 -264 0
269 -90 0
269 -46 0
269 -267 0
269 -70 0
269 -76 0
269 -268 0
269 -80 0
270 -271 -269 0
-270 271 0
-270 269 0
-272 45 270 0
272 -45 0
272 -270 0
273 -274 -272 0
-273 274 0
-273 272 0
275 -276 -277 0
-275 276 0
-275 277 0
278 -279 -51 0
-278 279 0
-278 51 0
-280 281 135 157 159 238 240 273 275 278 0
280 -281 0
280 -135 0
280 -157 0
280 -159 0
280 -238 0
280 -240 0
280 -273 0
280 -275 0
280 -278 0
282 -283 -280 0
-282 283 0
-282 280 0
284 -232 -185 0
-284 232 0
-284 185 0
-285 30 284 0
285 -30 0
285 -284 0
286 -29 -285 0
-286 29 0
-286 285 0
287 -236 -185 0
-287 236 0
-287 185 0
-288 32 286 287 0
288 -32 0
288 -286 0
288 -287 0
289 -239 -288 0
-289 239 0
-289 288 0
-290 32 252 253 0
290 -32 0
290 -252 0
290 -253 0
291 -34 -290 0
-291 34 0
-291 290 0
-292 83 291 35 37 39 264 90 46 68 70 76 268 80 0
292 -83 0
292 -291 0
292 -35 0
292 -37 0
292 -39 0
292 -264 0
292 -90 0
292 -46 0
292 -68 0
292 -70 0
292 -76 0
292 -268 0
292 -80 0
293 -271 -292 0
-293 271 0
-293 292 0
-294 45 293 0
294 -45 0
294 -293 0
295 -274 -294 0
-295 274 0
-295 294 0
-296 281 157 159 289 240 295 275 278 0
296 -281 0
296 -157 0
296 -159 0
296 -289 0
296 -240 0
296 -295 0
296 -275 0
296 -278 0
297 -298 -296 0
-297 298 0
-297 296 0
299 -300 -296 0
-299 300 0
-299 296 0
301 -302 -296 0
-301 302 0
-301 296 0
-303 3 301 0
303 -3 0
303 -301 0
304 -2 -303 0
-304 2 0
-304 303 0
305 -306 -296 0
-305 306 0
-305 296 0
-307 6 305 0
307 -6 0
307 -305 0
308 -5 -307 0
-308 5 0
-308 307 0
309 -310 -296 0
-309 310 0
-309 296 0
-311 9 309 0
311 -9 0
311 -309 0
312 -8 -311 0
-312 8 0
-312 311 0
-313 11 299 304 308 312 0
313 -11 0
313 -299 0
313 -304 0
313 -308 0
313 -312 0
314 -13 -313 0
-314 13 0
-314 313 0
315 -15 -303 0
-315 15 0
-315 303 0
316 -239 -31 0
-316 239 0
-316 31 0
317 -274 -45 0
-317 274 0
-317 45 0
-318 281 157 159 316 240 317 275 278 0
318 -281 0
318 -157 0
318 -159 0
318 -316 0
318 -240 0
318 -317 0
318 -275 0
318 -278 0
319 -310 -318 0
-319 310 0
-319 318 0
-320 9 319 0
320 -9 0
320 -319 0
321 -38 -320 0
-321 38 0
-321 320 0
-322 83 33 35 321 39 41 43 46 68 70 76 78 80 0
322 -83 0
322 -33 0
322 -35 0
322 -321 0
322 -39 0
322 -41 0
322 -43 0
322 -46 0
322 -68 0
322 -70 0
322 -76 0
322 -78 0
322 -80 0
323 -85 -322 0
-323 85 0
-323 322 0
-324 87 323 0
324 -87 0
324 -323 0
325 -89 -324 0
-325 89 0
-325 324 0
-326 83 33 35 321 39 41 90 43 46 68 70 76 78 80 0
326 -83 0
326 -33 0
326 -35 0
326 -321 0
326 -39 0
326 -41 0
326 -90 0
326 -43 0
326 -46 0
326 -68 0
326 -70 0
326 -76 0
326 -78 0
326 -80 0
327 -94 -326 0
-327 94 0
-327 326 0
-328 96 327 0
328 -96 0
328 -327 0
329 -98 -328 0
-329 98 0
-329 328 0
-330 83 33 35 321 39 41 90 43 46 101 70 78 80 0
330 -83 0
330 -33 0
330 -35 0
330 -321 0
330 -39 0
330 -41 0
330 -90 0
330 -43 0
330 -46 0
330 -101 0
330 -70 0
330 -78 0
330 -80 0
331 -104 -330 0
-331 104 0
-331 330 0
-332 61 331 0
332 -61 0
332 -331 0
333 -60 -332 0
-333 60 0
-333 332 0
-334 83 33 35 321 39 41 90 43 46 68 70 107 78 80 0
334 -83 0
334 -33 0
334 -35 0
334 -321 0
334 -39 0
334 -41 0
334 -90 0
334 -43 0
334 -46 0
334 -68 0
334 -70 0
334 -107 0
334 -78 0
334 -80 0
335 -110 -334 0
-335 110 0
-335 334 0
-336 63 57 333 335 0
336 -63 0
336 -57 0
336 -333 0
336 -335 0
337 -113 -336 0
-337 113 0
-337 336 0
338 -110 -330 0
-338 110 0
-338 330 0
-339 63 57 338 0
339 -63 0
339 -57 0
339 -338 0
340 -74 -339 0
-340 74 0
-340 339 0
-341 83 33 35 321 39 41 90 43 46 119 70 76 78 80 0
341 -83 0
341 -33 0
341 -35 0
341 -321 0
341 -39 0
341 -41 0
341 -90 0
341 -43 0
341 -46 0
341 -119 0
341 -70 0
341 -76 0
341 -78 0
341 -80 0
342 -104 -341 0
-342 104 0
-342 341 0
-343 61 340 342 0
343 -61 0
343 -340 0
343 -342 0
344 -124 -343 0
-344 124 0
-344 343 0
345 -128 -326 0
-345 128 0
-345 326 0
-346 130 22 25 325 329 99 337 344 125 345 0
346 -130 0
346 -22 0
346 -25 0
346 -325 0
346 -329 0
346 -99 0
346 -337 0
346 -344 0
346 -125 0
346 -345 0
347 -132 -346 0
-347 132 0
-347 346 0
-348 134 297 314 315 16 19 347 0
348 -134 0
348 -297 0
348 -314 0
348 -315 0
348 -16 0
348 -19 0
348 -347 0
349 -350 -348 0
-349 350 0
-349 348 0
-351 134 191 14 16 19 131 0
351 -134 0
351 -191 0
351 -14 0
351 -16 0
351 -19 0
351 -131 0
352 -136 -351 0
-352 136 0
-352 351 0
-353 134 191 14 16 19 186 0
353 -134 0
353 -191 0
353 -14 0
353 -16 0
353 -19 0
353 -186 0
354 -189 -353 0
-354 189 0
-354 353 0
355 -199 -192 0
-355 199 0
-355 192 0
-356 67 355 64 0
356 -67 0
356 -355 0
356 -64 0
357 -69 -356 0
-357 69 0
-357 356 0
-358 83 35 196 39 41 43 46 357 70 76 78 80 0
358 -83 0
358 -35 0
358 -196 0
358 -39 0
358 -41 0
358 -43 0
358 -46 0
358 -357 0
358 -70 0
358 -76 0
358 -78 0
358 -80 0
359 -85 -358 0
-359 85 0
-359 358 0
-360 87 359 0
360 -87 0
360 -359 0
361 -89 -360 0
-361 89 0
-361 360 0
-362 83 35 196 39 41 90 43 46 357 70 76 78 80 0
362 -83 0
362 -35 0
362 -196 0
362 -39 0
362 -41 0
362 -90 0
362 -43 0
362 -46 0
362 -357 0
362 -70 0
362 -76 0
362 -78 0
362 -80 0
363 -94 -362 0
-363 94 0
-363 362 0
-364 96 363 0
364 -96 0
364 -363 0
365 -98 -364 0
-365 98 0
-365 364 0
-366 67 355 0
366 -67 0
366 -355 0
367 -69 -366 0
-367 69 0
-367 366 0
-368 83 35 196 39 41 90 43 46 367 70 78 80 0
368 -83 0
368 -35 0
368 -196 0
368 -39 0
368 -41 0
368 -90 0
368 -43 0
368 -46 0
368 -367 0
368 -70 0
368 -78 0
368 -80 0
369 -104 -368 0
-369 104 0
-369 368 0
-370 61 369 0
370 -61 0
370 -369 0
371 -60 -370 0
-371 60 0
-371 370 0
-372 83 35 196 39 41 90 43 46 357 70 107 78 80 0
372 -83 0
372 -35 0
372 -196 0
372 -39 0
372 -41 0
372 -90 0
372 -43 0
372 -46 0
372 -357 0
372 -70 0
372 -107 0
372 -78 0
372 -80 0
373 -110 -372 0
-373 110 0
-373 372 0
-374 63 57 371 373 0
374 -63 0
374 -57 0
374 -371 0
374 -373 0
375 -113 -374 0
-375 113 0
-375 374 0
376 -110 -368 0
-376 110 0
-376 368 0
-377 63 57 376 0
377 -63 0
377 -57 0
377 -376 0
378 -74 -377 0
-378 74 0
-378 377 0
-379 67 355 117 0
379 -67 0
379 -355 0
379 -117 0
380 -69 -379 0
-380 69 0
-380 379 0
-381 83 35 196 39 41 90 43 46 380 70 76 78 80 0
381 -83 0
381 -35 0
381 -196 0
381 -39 0
381 -41 0
381 -90 0
381 -43 0
381 -46 0
381 -380 0
381 -70 0
381 -76 0
381 -78 0
381 -80 0
382 -104 -381 0
-382 104 0
-382 381 0
-383 61 378 382 0
383 -61 0
383 -378 0
383 -382 0
384 -124 -383 0
-384 124 0
-384 383 0
385 -128 -362 0
-385 128 0
-385 362 0
-386 130 22 25 361 365 99 375 384 125 385 0
386 -130 0
386 -22 0
386 -25 0
386 -361 0
386 -365 0
386 -99 0
386 -375 0
386 -384 0
386 -125 0
386 -385 0
387 -232 -386 0
-387 232 0
-387 386 0
-388 30 387 0
388 -30 0
388 -387 0
389 -29 -388 0
-389 29 0
-389 388 0
390 -236 -386 0
-390 236 0
-390 386 0
-391 32 354 389 390 0
391 -32 0
391 -354 0
391 -389 0
391 -390 0
392 -239 -391 0
-392 239 0
-392 391 0
393 -189 -256 0
-393 189 0
-393 256 0
-394 32 393 252 253 0
394 -32 0
394 -393 0
394 -252 0
394 -253 0
395 -34 -394 0
-395 34 0
-395 394 0
396 -199 -256 0
-396 199 0
-396 256 0
-397 67 396 64 0
397 -67 0
397 -396 0
397 -64 0
398 -69 -397 0
-398 69 0
-398 397 0
-399 83 395 35 39 264 90 46 398 70 76 268 80 0
399 -83 0
399 -395 0
399 -35 0
399 -39 0
399 -264 0
399 -90 0
399 -46 0
399 -398 0
399 -70 0
399 -76 0
399 -268 0
399 -80 0
400 -271 -399 0
-400 271 0
-400 399 0
-401 45 400 0
401 -45 0
401 -400 0
402 -274 -401 0
-402 274 0
-402 401 0
-403 281 352 157 159 392 240 402 275 278 0
403 -281 0
403 -352 0
403 -157 0
403 -159 0
403 -392 0
403 -240 0
403 -402 0
403 -275 0
403 -278 0
404 -310 -403 0
-404 310 0
-404 403 0
-405 11 299 304 308 0
405 -11 0
405 -299 0
405 -304 0
405 -308 0
406 -13 -405 0
-406 13 0
-406 405 0
-407 83 33 35 39 41 43 46 68 70 76 78 80 0
407 -83 0
407 -33 0
407 -35 0
407 -39 0
407 -41 0
407 -43 0
407 -46 0
407 -68 0
407 -70 0
407 -76 0
407 -78 0
407 -80 0
408 -85 -407 0
-408 85 0
-408 407 0
-409 87 408 0
409 -87 0
409 -408 0
410 -89 -409 0
-410 89 0
-410 409 0
-411 83 33 35 39 41 90 43 46 68 70 76 78 80 0
411 -83 0
411 -33 0
411 -35 0
411 -39 0
411 -41 0
411 -90 0
411 -43 0
411 -46 0
411 -68 0
411 -70 0
411 -76 0
411 -78 0
411 -80 0
412 -94 -411 0
-412 94 0
-412 411 0
-413 96 412 0
413 -96 0
413 -412 0
414 -98 -413 0
-414 98 0
-414 413 0
-415 83 33 35 39 41 90 43 46 101 70 78 80 0
415 -83 0
415 -33 0
415 -35 0
415 -39 0
415 -41 0
415 -90 0
415 -43 0
415 -46 0
415 -101 0
415 -70 0
415 -78 0
415 -80 0
416 -104 -415 0
-416 104 0
-416 415 0
-417 61 416 0
417 -61 0
417 -416 0
418 -60 -417 0
-418 60 0
-418 417 0
-419 83 33 35 39 41 90 43 46 68 70 107 78 80 0
419 -83 0
419 -33 0
419 -35 0
419 -39 0
419 -41 0
419 -90 0
419 -43 0
419 -46 0
419 -68 0
419 -70 0
419 -107 0
419 -78 0
419 -80 0
420 -110 -419 0
-420 110 0
-420 419 0
-421 63 57 418 420 0
421 -63 0
421 -57 0
421 -418 0
421 -420 0
422 -113 -421 0
-422 113 0
-422 421 0
423 -110 -415 0
-423 110 0
-423 415 0
-424 63 57 423 0
424 -63 0
424 -57 0
424 -423 0
425 -74 -424 0
-425 74 0
-425 424 0
-426 83 33 35 39 41 90 43 46 119 70 76 78 80 0
426 -83 0
426 -33 0
426 -35 0
426 -39 0
426 -41 0
426 -90 0
426 -43 0
426 -46 0
426 -119 0
426 -70 0
426 -76 0
426 -78 0
426 -80 0
427 -104 -426 0
-427 104 0
-427 426 0
-428 61 425 427 0
428 -61 0
428 -425 0
428 -427 0
429 -124 -428 0
-429 124 0
-429 428 0
430 -128 -411 0
-430 128 0
-430 411 0
-431 130 22 25 410 414 99 422 429 125 430 0
431 -130 0
431 -22 0
431 -25 0
431 -410 0
431 -414 0
431 -99 0
431 -422 0
431 -429 0
431 -125 0
431 -430 0
432 -132 -431 0
-432 132 0
-432 431 0
-433 134 297 406 315 16 19 432 0
433 -134 0
433 -297 0
433 -406 0
433 -315 0
433 -16 0
433 -19 0
433 -432 0
434 -194 -433 0
-434 194 0
-434 433 0
-435 9 404 434 0
435 -9 0
435 -404 0
435 -434 0
436 -437 -435 0
-436 437 0
-436 435 0
438 -439 -280 0
-438 439 0
-438 280 0
-440 441 438 0
440 -441 0
440 -438 0
442 -443 -440 0
-442 443 0
-442 440 0
-444 281 157 159 240 317 275 278 0
444 -281 0
444 -157 0
444 -159 0
444 -240 0
444 -317 0
444 -275 0
444 -278 0
445 -298 -444 0
-445 298 0
-445 444 0
446 -300 -444 0
-446 300 0
-446 444 0
447 -302 -444 0
-447 302 0
-447 444 0
-448 3 447 0
448 -3 0
448 -447 0
449 -2 -448 0
-449 2 0
-449 448 0
450 -306 -444 0
-450 306 0
-450 444 0
-451 6 450 0
451 -6 0
451 -450 0
452 -5 -451 0
-452 5 0
-452 451 0
453 -310 -444 0
-453 310 0
-453 444 0
-454 9 453 0
454 -9 0
454 -453 0
455 -8 -454 0
-455 8 0
-455 454 0
-456 11 446 449 452 455 0
456 -11 0
456 -446 0
456 -449 0
456 -452 0
456 -455 0
457 -13 -456 0
-457 13 0
-457 456 0
458 -15 -448 0
-458 15 0
-458 448 0
-459 134 445 457 458 16 19 247 0
459 -134 0
459 -445 0
459 -457 0
459 -458 0
459 -16 0
459 -19 0
459 -247 0
460 -189 -459 0
-460 189 0
-460 459 0
-461 32 460 252 253 0
461 -32 0
461 -460 0
461 -252 0
461 -253 0
462 -34 -461 0
-462 34 0
-462 461 0
463 -136 -256 0
-463 136 0
-463 256 0
464 -239 -394 0
-464 239 0
-464 394 0
-465 281 463 157 159 464 240 317 275 278 0
465 -281 0
465 -463 0
465 -157 0
465 -159 0
465 -464 0
465 -240 0
465 -317 0
465 -275 0
465 -278 0
466 -310 -465 0
-466 310 0
-466 465 0
467 -239 -290 0
-467 239 0
-467 290 0
-468 281 157 159 467 240 317 275 278 0
468 -281 0
468 -157 0
468 -159 0
468 -467 0
468 -240 0
468 -317 0
468 -275 0
468 -278 0
469 -298 -468 0
-469 298 0
-469 468 0
470 -300 -468 0
-470 300 0
-470 468 0
471 -302 -468 0
-471 302 0
-471 468 0
-472 3 471 0
472 -3 0
472 -471 0
473 -2 -472 0
-473 2 0
-473 472 0
474 -306 -468 0
-474 306 0
-474 468 0
-475 6 474 0
475 -6 0
475 -474 0
476 -5 -475 0
-476 5 0
-476 475 0
-477 11 470 473 476 0
477 -11 0
477 -470 0
477 -473 0
477 -476 0
478 -13 -477 0
-478 13 0
-478 477 0
479 -15 -472 0
-479 15 0
-479 472 0
-480 134 469 478 479 16 19 247 0
480 -134 0
480 -469 0
480 -478 0
480 -479 0
480 -16 0
480 -19 0
480 -247 0
481 -194 -480 0
-481 194 0
-481 480 0
-482 9 466 481 0
482 -9 0
482 -466 0
482 -481 0
483 -38 -482 0
-483 38 0
-483 482 0
484 -310 -468 0
-484 310 0
-484 468 0
-485 9 484 0
485 -9 0
485 -484 0
486 -8 -485 0
-486 8 0
-486 485 0
-487 11 470 473 476 486 0
487 -11 0
487 -470 0
487 -473 0
487 -476 0
487 -486 0
488 -13 -487 0
-488 13 0
-488 487 0
-489 134 469 488 479 16 19 247 0
489 -134 0
489 -469 0
489 -488 0
489 -479 0
489 -16 0
489 -19 0
489 -247 0
490 -199 -489 0
-490 199 0
-490 489 0
-491 67 490 64 0
491 -67 0
491 -490 0
491 -64 0
492 -69 -491 0
-492 69 0
-492 491 0
-493 83 462 35 483 39 264 90 46 492 70 76 268 80 0
493 -83 0
493 -462 0
493 -35 0
493 -483 0
493 -39 0
493 -264 0
493 -90 0
493 -46 0
493 -492 0
493 -70 0
493 -76 0
493 -268 0
493 -80 0
494 -271 -493 0
-494 271 0
-494 493 0
-495 45 494 0
495 -45 0
495 -494 0
496 -497 -495 0
-496 497 0
-496 495 0
-498 281 135 157 159 238 240 273 278 0
498 -281 0
498 -135 0
498 -157 0
498 -159 0
498 -238 0
498 -240 0
498 -273 0
498 -278 0
499 -500 -498 0
-499 500 0
-499 498 0
-501 277 499 0
501 -277 0
501 -499 0
502 -503 -501 0
-502 503 0
-502 501 0
-504 505 282 349 436 442 496 502 0
504 -505 0
504 -282 0
504 -349 0
504 -436 0
504 -442 0
504 -496 0
504 -502 0
506 -504 -507 0
-506 504 0
-506 507 0
506 0
