c BC-S1.2
p cnf 221 518
1 -2 -3 0
-1 2 0
-1 3 0
4 -5 -6 0
-4 5 0
-4 6 0
7 -8 -9 0
-7 8 0
-7 9 0
10 -11 -12 0
-10 11 0
-10 12 0
13 -14 -15 0
-13 14 0
-13 15 0
-16 17 13 0
16 -17 0
16 -13 0
18 -19 -16 0
-18 19 0
-18 16 0
-20 21 18 0
20 -21 0
20 -18 0
22 -23 -20 0
-22 23 0
-22 20 0
24 -25 -3 0
-24 25 0
-24 3 0
-26 27 10 22 24 0
26 -27 0
26 -10 0
26 -22 0
26 -24 0
28 -29 -26 0
-28 29 0
-28 26 0
-30 31 28 0
30 -31 0
30 -28 0
32 -33 -30 0
-32 33 0
-32 30 0
34 -35 -26 0
-34 35 0
-34 26 0
-36 37 34 0
36 -37 0
36 -34 0
38 -39 -36 0
-38 39 0
-38 36 0
40 -41 -26 0
-40 41 0
-40 26 0
-42 43 40 0
42 -43 0
42 -40 0
44 -45 -42 0
-44 45 0
-44 42 0
46 -47 -26 0
-46 47 0
-46 26 0
-48 49 46 0
48 -49 0
48 -46 0
50 -51 -48 0
-50 51 0
-50 48 0
-52 27 10 24 0
52 -27 0
52 -10 0
52 -24 0
53 -54 -52 0
-53 54 0
-53 52 0
-55 17 13 53 0
55 -17 0
55 -13 0
55 -53 0
56 -19 -55 0
-56 19 0
-56 55 0
57 -58 -52 0
-57 58 0
-57 52 0
-59 21 56 57 0
59 -21 0
59 -56 0
59 -57 0
60 -61 -59 0
-60 61 0
-60 59 0
62 -63 -59 0
-62 63 0
-62 59 0
-64 65 62 0
64 -65 0
64 -62 0
66 -67 -64 0
-66 67 0
-66 64 0
68 -69 -3 0
-68 69 0
-68 3 0
70 -71 -26 0
-70 71 0
-70 26 0
-72 73 4 7 32 38 44 50 60 66 68 70 0
72 -73 0
72 -4 0
72 -7 0
72 -32 0
72 -38 0
72 -44 0
72 -50 0
72 -60 0
72 -66 0
72 -68 0
72 -70 0
74 -75 -72 0
-74 75 0
-74 72 0
-76 77 1 74 0
76 -77 0
76 -1 0
76 -74 0
78 -79 -76 0
-78 79 0
-78 76 0
80 -33 -31 0
-80 33 0
-80 31 0
81 -39 -37 0
-81 39 0
-81 37 0
82 -45 -43 0
-82 45 0
-82 43 0
83 -51 -49 0
-83 51 0
-83 49 0
84 -61 -20 0
-84 61 0
-84 20 0
85 -63 -20 0
-85 63 0
-85 20 0
-86 65 85 0
86 -65 0
86 -85 0
87 -67 -86 0
-87 67 0
-87 86 0
-88 73 4 7 80 81 82 83 84 87 68 0
88 -73 0
88 -4 0
88 -7 0
88 -80 0
88 -81 0
88 -82 0
88 -83 0
88 -84 0
88 -87 0
88 -68 0
89 -90 -88 0
-89 90 0
-89 88 0
-91 12 89 0
91 -12 0
91 -89 0
92 -11 -91 0
-92 11 0
-92 91 0
93 -67 -65 0
-93 67 0
-93 65 0
-94 73 4 7 80 81 82 83 93 68 0
94 -73 0
94 -4 0
94 -7 0
94 -80 0
94 -81 0
94 -82 0
94 -83 0
94 -93 0
94 -68 0
95 -96 -94 0
-95 96 0
-95 94 0
-97 15 95 0
97 -15 0
97 -95 0
98 -14 -97 0
-98 14 0
-98 97 0
99 -100 -94 0
-99 100 0
-99 94 0
-101 17 98 99 0
101 -17 0
101 -98 0
101 -99 0
102 -19 -101 0
-102 19 0
-102 101 0
-103 21 102 0
103 -21 0
103 -102 0
104 -23 -103 0
-104 23 0
-104 103 0
105 -106 -88 0
-105 106 0
-105 88 0
-107 27 92 104 24 105 0
107 -27 0
107 -92 0
107 -104 0
107 -24 0
107 -105 0
108 -109 -107 0
-108 109 0
-108 107 0
-110 111 78 108 0
110 -111 0
110 -78 0
110 -108 0
112 -113 -110 0
-112 113 0
-112 110 0
114 -115 -116 0
-114 115 0
-114 116 0
-117 118 114 0
117 -118 0
117 -114 0
119 -120 -117 0
-119 120 0
-119 117 0
-121 122 119 0
121 -122 0
121 -119 0
123 -124 -121 0
-123 124 0
-123 121 0
125 -126 -116 0
-125 126 0
-125 116 0
-127 128 123 125 0
127 -128 0
127 -123 0
127 -125 0
129 -130 -127 0
-129 130 0
-129 127 0
131 -132 -121 0
-131 132 0
-131 121 0
133 -134 -110 0
-133 134 0
-133 110 0
-135 136 133 0
135 -136 0
135 -133 0
137 -138 -135 0
-137 138 0
-137 135 0
139 -140 -141 0
-139 140 0
-139 141 0
142 -143 -144 0
-142 143 0
-142 144 0
-145 146 112 129 131 137 139 142 0
145 -146 0
145 -112 0
145 -129 0
145 -131 0
145 -137 0
145 -139 0
145 -142 0
147 -148 -145 0
-147 148 0
-147 145 0
149 -138 -136 0
-149 138 0
-149 136 0
-150 146 129 131 149 139 142 0
150 -146 0
150 -129 0
150 -131 0
150 -149 0
150 -139 0
150 -142 0
151 -152 -150 0
-151 152 0
-151 150 0
-153 3 151 0
153 -3 0
153 -151 0
154 -2 -153 0
-154 2 0
-154 153 0
155 -156 -150 0
-155 156 0
-155 150 0
-157 9 155 0
157 -9 0
157 -155 0
158 -8 -157 0
-158 8 0
-158 157 0
159 -25 -153 0
-159 25 0
-159 153 0
-160 27 10 22 159 0
160 -27 0
160 -10 0
160 -22 0
160 -159 0
161 -29 -160 0
-161 29 0
-161 160 0
-162 31 161 0
162 -31 0
162 -161 0
163 -33 -162 0
-163 33 0
-163 162 0
164 -35 -160 0
-164 35 0
-164 160 0
-165 37 164 0
165 -37 0
165 -164 0
166 -39 -165 0
-166 39 0
-166 165 0
167 -41 -160 0
-167 41 0
-167 160 0
-168 43 167 0
168 -43 0
168 -167 0
169 -45 -168 0
-169 45 0
-169 168 0
170 -47 -160 0
-170 47 0
-170 160 0
-171 49 170 0
171 -49 0
171 -170 0
172 -51 -171 0
-172 51 0
-172 171 0
-173 27 10 159 0
173 -27 0
173 -10 0
173 -159 0
174 -54 -173 0
-174 54 0
-174 173 0
-175 17 13 174 0
175 -17 0
175 -13 0
175 -174 0
176 -19 -175 0
-176 19 0
-176 175 0
177 -58 -173 0
-177 58 0
-177 173 0
-178 21 176 177 0
178 -21 0
178 -176 0
178 -177 0
179 -61 -178 0
-179 61 0
-179 178 0
180 -63 -178 0
-180 63 0
-180 178 0
-181 65 180 0
181 -65 0
181 -180 0
182 -67 -181 0
-182 67 0
-182 181 0
183 -69 -153 0
-183 69 0
-183 153 0
184 -71 -160 0
-184 71 0
-184 160 0
-185 73 4 158 163 166 169 172 179 182 183 184 0
185 -73 0
185 -4 0
185 -158 0
185 -163 0
185 -166 0
185 -169 0
185 -172 0
185 -179 0
185 -182 0
185 -183 0
185 -184 0
186 -75 -185 0
-186 75 0
-186 185 0
-187 77 154 186 0
187 -77 0
187 -154 0
187 -186 0
188 -79 -187 0
-188 79 0
-188 187 0
-189 73 4 158 80 81 82 83 84 87 183 0
189 -73 0
189 -4 0
189 -158 0
189 -80 0
189 -81 0
189 -82 0
189 -83 0
189 -84 0
189 -87 0
189 -183 0
190 -90 -189 0
-190 90 0
-190 189 0
-191 12 190 0
191 -12 0
191 -190 0
192 -11 -191 0
-192 11 0
-192 191 0
-193 73 4 158 80 81 82 83 93 183 0
193 -73 0
193 -4 0
193 -158 0
193 -80 0
193 -81 0
193 -82 0
193 -83 0
193 -93 0
193 -183 0
194 -96 -193 0
-194 96 0
-194 193 0
-195 15 194 0
195 -15 0
195 -194 0
196 -14 -195 0
-196 14 0
-196 195 0
197 -100 -193 0
-197 100 0
-197 193 0
-198 17 196 197 0
198 -17 0
198 -196 0
198 -197 0
199 -19 -198 0
-199 19 0
-199 198 0
-200 21 199 0
200 -21 0
200 -199 0
201 -23 -200 0
-201 23 0
-201 200 0
202 -106 -189 0
-202 106 0
-202 189 0
-203 27 192 201 159 202 0
203 -27 0
203 -192 0
203 -201 0
203 -159 0
203 -202 0
204 -109 -203 0
-204 109 0
-204 203 0
-205 111 188 204 0
205 -111 0
205 -188 0
205 -204 0
206 -207 -205 0
-206 207 0
-206 205 0
208 -209 -141 0
-208 209 0
-208 141 0
-210 211 147 206 208 0
210 -211 0
210 -147 0
210 -206 0
210 -208 0
212 -213 -210 0
-212 213 0
-212 210 0
-214 215 212 0
214 -215 0
214 -212 0
216 -217 -214 0
-216 217 0
-216 214 0
-218 219 216 0
218 -219 0
218 -216 0
220 -218 -221 0
-220 218 0
-220 221 0
220 0
