c BC-S1.2
p cnf 70 113
1 -2 -3 0
-1 2 0
-1 3 0
4 -5 -6 0
-4 5 0
-4 6 0
-7 8 4 0
7 -8 0
7 -4 0
9 -10 -7 0
-9 10 0
-9 7 0
11 -12 -8 0
-11 12 0
-11 8 0
-13 6 11 0
13 -6 0
13 -11 0
14 -15 -13 0
-14 15 0
-14 13 0
16 -17 -18 0
-16 17 0
-16 18 0
-19 20 16 0
19 -20 0
19 -16 0
21 -22 -19 0
-21 22 0
-21 19 0
23 -24 -25 0
-23 24 0
-23 25 0
-26 27 21 23 0
26 -27 0
26 -21 0
26 -23 0
28 -29 -26 0
-28 29 0
-28 26 0
-30 31 14 28 0
30 -31 0
30 -14 0
30 -28 0
32 -33 -30 0
-32 33 0
-32 30 0
-34 35 9 32 0
34 -35 0
34 -9 0
34 -32 0
36 -37 -34 0
-36 37 0
-36 34 0
-38 39 36 0
38 -39 0
38 -36 0
40 -41 -38 0
-40 41 0
-40 38 0
42 -43 -26 0
-42 43 0
-42 26 0
-44 45 40 42 0
44 -45 0
44 -40 0
44 -42 0
46 -47 -44 0
-46 47 0
-46 44 0
48 -49 -44 0
-48 49 0
-48 44 0
-50 27 48 21 23 0
50 -27 0
50 -48 0
50 -21 0
50 -23 0
51 -52 -50 0
-51 52 0
-51 50 0
-53 20 16 51 0
53 -20 0
53 -16 0
53 -51 0
54 -55 -53 0
-54 55 0
-54 53 0
56 -57 -58 0
-56 57 0
-56 58 0
-59 60 56 0
59 -60 0
59 -56 0
61 -62 -59 0
-61 62 0
-61 59 0
-63 64 1 46 54 61 0
63 -64 0
63 -1 0
63 -46 0
63 -54 0
63 -61 0
65 -66 -63 0
-65 66 0
-65 63 0
-67 68 65 0
67 -68 0
67 -65 0
69 -67 -70 0
-69 67 0
-69 70 0
69 0
