c BC-S1.2
p cnf 39 60
1 -2 -3 0
-1 2 0
-1 3 0
-4 5 1 0
4 -5 0
4 -1 0
6 -7 -4 0
-6 7 0
-6 4 0
8 -9 -10 0
-8 9 0
-8 10 0
-11 12 6 8 0
11 -12 0
11 -6 0
11 -8 0
13 -14 -11 0
-13 14 0
-13 11 0
15 -16 -10 0
-15 16 0
-15 10 0
17 -18 -11 0
-17 18 0
-17 11 0
19 -20 -3 0
-19 20 0
-19 3 0
21 -22 -23 0
-21 22 0
-21 23 0
-24 25 15 17 19 21 0
24 -25 0
24 -15 0
24 -17 0
24 -19 0
24 -21 0
26 -27 -24 0
-26 27 0
-26 24 0
-28 29 13 26 0
28 -29 0
28 -13 0
28 -26 0
30 -31 -28 0
-30 31 0
-30 28 0
-32 33 30 0
32 -33 0
32 -30 0
34 -35 -32 0
-34 35 0
-34 32 0
-36 37 34 0
36 -37 0
36 -34 0
38 -36 -39 0
-38 36 0
-38 39 0
38 0
