c BC-S1.2
p cnf 73 150
1 -2 -3 0
-1 2 0
-1 3 0
4 -5 -3 0
-4 5 0
-4 3 0
6 -7 -8 0
-6 7 0
-6 8 0
-9 10 6 0
9 -10 0
9 -6 0
11 -12 -9 0
-11 12 0
-11 9 0
-13 14 11 0
13 -14 0
13 -11 0
15 -16 -13 0
-15 16 0
-15 13 0
17 -18 -3 0
-17 18 0
-17 3 0
-19 20 17 0
19 -20 0
19 -17 0
21 -22 -19 0
-21 22 0
-21 19 0
23 -24 -8 0
-23 24 0
-23 8 0
-25 26 4 15 21 23 0
25 -26 0
25 -4 0
25 -15 0
25 -21 0
25 -23 0
27 -28 -25 0
-27 28 0
-27 25 0
29 -30 -13 0
-29 30 0
-29 13 0
31 -32 -19 0
-31 32 0
-31 19 0
-33 34 1 27 29 31 0
33 -34 0
33 -1 0
33 -27 0
33 -29 0
33 -31 0
35 -36 -33 0
-35 36 0
-35 33 0
-37 26 4 21 23 0
37 -26 0
37 -4 0
37 -21 0
37 -23 0
38 -28 -37 0
-38 28 0
-38 37 0
-39 34 1 38 31 0
39 -34 0
39 -1 0
39 -38 0
39 -31 0
40 -41 -39 0
-40 41 0
-40 39 0
-42 10 40 6 0
42 -10 0
42 -40 0
42 -6 0
43 -12 -42 0
-43 12 0
-43 42 0
-44 14 43 0
44 -14 0
44 -43 0
45 -46 -44 0
-45 46 0
-45 44 0
-47 48 35 45 0
47 -48 0
47 -35 0
47 -45 0
49 -50 -47 0
-49 50 0
-49 47 0
51 -16 -14 0
-51 16 0
-51 14 0
-52 26 4 51 21 23 0
52 -26 0
52 -4 0
52 -51 0
52 -21 0
52 -23 0
53 -28 -52 0
-53 28 0
-53 52 0
54 -30 -14 0
-54 30 0
-54 14 0
-55 34 1 53 54 31 0
55 -34 0
55 -1 0
55 -53 0
55 -54 0
55 -31 0
56 -41 -55 0
-56 41 0
-56 55 0
-57 10 56 6 0
57 -10 0
57 -56 0
57 -6 0
58 -59 -57 0
-58 59 0
-58 57 0
60 -61 -8 0
-60 61 0
-60 8 0
62 -63 -33 0
-62 63 0
-62 33 0
64 -65 -57 0
-64 65 0
-64 57 0
-66 67 62 64 0
66 -67 0
66 -62 0
66 -64 0
68 -69 -66 0
-68 69 0
-68 66 0
-70 71 49 58 60 68 0
70 -71 0
70 -49 0
70 -58 0
70 -60 0
70 -68 0
72 -70 -73 0
-72 70 0
-72 73 0
72 0
