c BC-S1.2
p cnf 128 313
1 -2 -3 0
-1 2 0
-1 3 0
4 -5 -3 0
-4 5 0
-4 3 0
6 -7 -3 0
-6 7 0
-6 3 0
8 -9 -10 0
-8 9 0
-8 10 0
-11 12 6 8 0
11 -12 0
11 -6 0
11 -8 0
13 -14 -11 0
-13 14 0
-13 11 0
15 -16 -10 0
-15 16 0
-15 10 0
-17 18 15 0
17 -18 0
17 -15 0
19 -20 -17 0
-19 20 0
-19 17 0
-21 22 4 13 19 0
21 -22 0
21 -4 0
21 -13 0
21 -19 0
23 -24 -21 0
-23 24 0
-23 21 0
-25 26 1 23 0
25 -26 0
25 -1 0
25 -23 0
27 -28 -25 0
-27 28 0
-27 25 0
-29 26 1 0
29 -26 0
29 -1 0
30 -31 -29 0
-30 31 0
-30 29 0
-32 12 6 30 8 0
32 -12 0
32 -6 0
32 -30 0
32 -8 0
33 -14 -32 0
-33 14 0
-33 32 0
-34 22 4 33 19 0
34 -22 0
34 -4 0
34 -33 0
34 -19 0
35 -36 -34 0
-35 36 0
-35 34 0
-37 38 27 35 0
37 -38 0
37 -27 0
37 -35 0
39 -40 -37 0
-39 40 0
-39 37 0
-41 22 4 19 0
41 -22 0
41 -4 0
41 -19 0
42 -24 -41 0
-42 24 0
-42 41 0
-43 26 1 42 0
43 -26 0
43 -1 0
43 -42 0
44 -28 -43 0
-44 28 0
-44 43 0
45 -36 -41 0
-45 36 0
-45 41 0
-46 38 44 45 0
46 -38 0
46 -44 0
46 -45 0
47 -48 -46 0
-47 48 0
-47 46 0
49 -50 -38 0
-49 50 0
-49 38 0
51 -52 -38 0
-51 52 0
-51 38 0
-53 10 51 0
53 -10 0
53 -51 0
54 -16 -53 0
-54 16 0
-54 53 0
-55 18 49 54 0
55 -18 0
55 -49 0
55 -54 0
56 -20 -55 0
-56 20 0
-56 55 0
-57 22 4 56 0
57 -22 0
57 -4 0
57 -56 0
58 -24 -57 0
-58 24 0
-58 57 0
-59 26 1 58 0
59 -26 0
59 -1 0
59 -58 0
60 -31 -59 0
-60 31 0
-60 59 0
61 -52 -46 0
-61 52 0
-61 46 0
62 -28 -29 0
-62 28 0
-62 29 0
-63 38 62 0
63 -38 0
63 -62 0
64 -50 -63 0
-64 50 0
-64 63 0
-65 18 64 0
65 -18 0
65 -64 0
66 -20 -65 0
-66 20 0
-66 65 0
-67 22 4 66 0
67 -22 0
67 -4 0
67 -66 0
68 -69 -67 0
-68 69 0
-68 67 0
-70 10 61 68 0
70 -10 0
70 -61 0
70 -68 0
71 -9 -70 0
-71 9 0
-71 70 0
-72 12 6 47 60 71 0
72 -12 0
72 -6 0
72 -47 0
72 -60 0
72 -71 0
73 -74 -72 0
-73 74 0
-73 72 0
-75 76 39 73 0
75 -76 0
75 -39 0
75 -73 0
77 -78 -75 0
-77 78 0
-77 75 0
79 -80 -3 0
-79 80 0
-79 3 0
81 -48 -38 0
-81 48 0
-81 38 0
82 -9 -53 0
-82 9 0
-82 53 0
-83 12 6 81 82 0
83 -12 0
83 -6 0
83 -81 0
83 -82 0
84 -14 -83 0
-84 14 0
-84 83 0
85 -40 -38 0
-85 40 0
-85 38 0
86 -74 -83 0
-86 74 0
-86 83 0
-87 76 85 86 0
87 -76 0
87 -85 0
87 -86 0
88 -89 -87 0
-88 89 0
-88 87 0
-90 18 49 54 88 0
90 -18 0
90 -49 0
90 -54 0
90 -88 0
91 -20 -90 0
-91 20 0
-91 90 0
-92 22 4 84 91 0
92 -22 0
92 -4 0
92 -84 0
92 -91 0
93 -24 -92 0
-93 24 0
-93 92 0
-94 26 1 93 0
94 -26 0
94 -1 0
94 -93 0
95 -96 -94 0
-95 96 0
-95 94 0
97 -48 -63 0
-97 48 0
-97 63 0
98 -52 -63 0
-98 52 0
-98 63 0
-99 10 98 0
99 -10 0
99 -98 0
100 -9 -99 0
-100 9 0
-100 99 0
-101 12 6 97 30 100 0
101 -12 0
101 -6 0
101 -97 0
101 -30 0
101 -100 0
102 -14 -101 0
-102 14 0
-102 101 0
103 -16 -99 0
-103 16 0
-103 99 0
104 -40 -63 0
-104 40 0
-104 63 0
105 -74 -101 0
-105 74 0
-105 101 0
-106 76 104 105 0
106 -76 0
106 -104 0
106 -105 0
107 -89 -106 0
-107 89 0
-107 106 0
-108 18 64 103 107 0
108 -18 0
108 -64 0
108 -103 0
108 -107 0
109 -20 -108 0
-109 20 0
-109 108 0
-110 22 4 102 109 0
110 -22 0
110 -4 0
110 -102 0
110 -109 0
111 -112 -110 0
-111 112 0
-111 110 0
113 -114 -94 0
-113 114 0
-113 94 0
115 -116 -110 0
-115 116 0
-115 110 0
-117 118 113 115 0
117 -118 0
117 -113 0
117 -115 0
119 -120 -117 0
-119 120 0
-119 117 0
-121 122 79 95 111 119 0
121 -122 0
121 -79 0
121 -95 0
121 -111 0
121 -119 0
123 -124 -121 0
-123 124 0
-123 121 0
-125 126 77 123 0
125 -126 0
125 -77 0
125 -123 0
127 -125 -128 0
-127 125 0
-127 128 0
127 0
