c BC-S1.2
p cnf 1706 6256
1 -2 -3 0
-1 2 0
-1 3 0
4 -5 -6 0
-4 5 0
-4 6 0
-7 8 4 0
7 -8 0
7 -4 0
9 -10 -7 0
-9 10 0
-9 7 0
11 -12 -13 0
-11 12 0
-11 13 0
14 -15 -16 0
-14 15 0
-14 16 0
17 -18 -19 0
-17 18 0
-17 19 0
20 -21 -22 0
-20 21 0
-20 22 0
23 -24 -25 0
-23 24 0
-23 25 0
-26 27 20 23 0
26 -27 0
26 -20 0
26 -23 0
28 -29 -26 0
-28 29 0
-28 26 0
-30 31 28 0
30 -31 0
30 -28 0
32 -33 -30 0
-32 33 0
-32 30 0
-34 35 32 0
34 -35 0
34 -32 0
36 -37 -34 0
-36 37 0
-36 34 0
38 -39 -25 0
-38 39 0
-38 25 0
-40 41 9 11 14 17 36 38 0
40 -41 0
40 -9 0
40 -11 0
40 -14 0
40 -17 0
40 -36 0
40 -38 0
42 -43 -40 0
-42 43 0
-42 40 0
-44 45 42 0
44 -45 0
44 -42 0
46 -47 -44 0
-46 47 0
-46 44 0
48 -49 -50 0
-48 49 0
-48 50 0
-51 41 9 11 17 36 38 0
51 -41 0
51 -9 0
51 -11 0
51 -17 0
51 -36 0
51 -38 0
52 -53 -51 0
-52 53 0
-52 51 0
-54 16 52 0
54 -16 0
54 -52 0
55 -56 -54 0
-55 56 0
-55 54 0
57 -10 -8 0
-57 10 0
-57 8 0
-58 41 57 11 14 17 36 38 0
58 -41 0
58 -57 0
58 -11 0
58 -14 0
58 -17 0
58 -36 0
58 -38 0
59 -60 -58 0
-59 60 0
-59 58 0
-61 6 59 0
61 -6 0
61 -59 0
62 -63 -61 0
-62 63 0
-62 61 0
-64 65 1 46 48 55 62 0
64 -65 0
64 -1 0
64 -46 0
64 -48 0
64 -55 0
64 -62 0
66 -67 -64 0
-66 67 0
-66 64 0
-68 65 46 48 55 62 0
68 -65 0
68 -46 0
68 -48 0
68 -55 0
68 -62 0
69 -70 -68 0
-69 70 0
-69 68 0
-71 3 69 0
71 -3 0
71 -69 0
72 -73 -71 0
-72 73 0
-72 71 0
74 -75 -76 0
-74 75 0
-74 76 0
-77 65 1 48 55 62 0
77 -65 0
77 -1 0
77 -48 0
77 -55 0
77 -62 0
78 -79 -77 0
-78 79 0
-78 77 0
-80 45 78 42 0
80 -45 0
80 -78 0
80 -42 0
81 -82 -80 0
-81 82 0
-81 80 0
-83 84 66 72 74 81 0
83 -84 0
83 -66 0
83 -72 0
83 -74 0
83 -81 0
85 -86 -83 0
-85 86 0
-85 83 0
87 -88 -89 0
-87 88 0
-87 89 0
-90 91 87 0
90 -91 0
90 -87 0
92 -93 -90 0
-92 93 0
-92 90 0
94 -95 -89 0
-94 95 0
-94 89 0
-96 97 92 94 0
96 -97 0
96 -92 0
96 -94 0
98 -99 -96 0
-98 99 0
-98 96 0
100 -101 -90 0
-100 101 0
-100 90 0
-102 103 100 0
102 -103 0
102 -100 0
104 -105 -102 0
-104 105 0
-104 102 0
-106 107 98 104 0
106 -107 0
106 -98 0
106 -104 0
108 -109 -106 0
-108 109 0
-108 106 0
110 -111 -90 0
-110 111 0
-110 90 0
-112 107 104 0
112 -107 0
112 -104 0
113 -114 -112 0
-113 114 0
-113 112 0
-115 97 113 92 94 0
115 -97 0
115 -113 0
115 -92 0
115 -94 0
116 -117 -115 0
-116 117 0
-116 115 0
-118 84 74 0
118 -84 0
118 -74 0
119 -120 -118 0
-119 120 0
-119 118 0
-121 45 119 42 0
121 -45 0
121 -119 0
121 -42 0
122 -47 -121 0
-122 47 0
-122 121 0
-123 65 122 48 55 62 0
123 -65 0
123 -122 0
123 -48 0
123 -55 0
123 -62 0
124 -70 -123 0
-124 70 0
-124 123 0
-125 3 124 0
125 -3 0
125 -124 0
126 -127 -125 0
-126 127 0
-126 125 0
-128 84 66 72 81 0
128 -84 0
128 -66 0
128 -72 0
128 -81 0
129 -130 -128 0
-129 130 0
-129 128 0
-131 76 129 0
131 -76 0
131 -129 0
132 -133 -131 0
-132 133 0
-132 131 0
134 -67 -77 0
-134 67 0
-134 77 0
-135 65 48 55 62 0
135 -65 0
135 -48 0
135 -55 0
135 -62 0
136 -70 -135 0
-136 70 0
-136 135 0
-137 3 136 0
137 -3 0
137 -136 0
138 -73 -137 0
-138 73 0
-138 137 0
-139 84 134 138 74 0
139 -84 0
139 -134 0
139 -138 0
139 -74 0
140 -120 -139 0
-140 120 0
-140 139 0
-141 45 78 140 42 0
141 -45 0
141 -78 0
141 -140 0
141 -42 0
142 -143 -141 0
-142 143 0
-142 141 0
144 -73 -3 0
-144 73 0
-144 3 0
-145 84 144 74 0
145 -84 0
145 -144 0
145 -74 0
146 -120 -145 0
-146 120 0
-146 145 0
-147 45 146 42 0
147 -45 0
147 -146 0
147 -42 0
148 -47 -147 0
-148 47 0
-148 147 0
-149 65 1 148 48 55 62 0
149 -65 0
149 -1 0
149 -148 0
149 -48 0
149 -55 0
149 -62 0
150 -151 -149 0
-150 151 0
-150 149 0
-152 153 150 0
152 -153 0
152 -150 0
154 -155 -152 0
-154 155 0
-154 152 0
156 -157 -31 0
-156 157 0
-156 31 0
158 -159 -31 0
-158 159 0
-158 31 0
-160 22 158 0
160 -22 0
160 -158 0
161 -21 -160 0
-161 21 0
-161 160 0
162 -33 -31 0
-162 33 0
-162 31 0
-163 35 162 0
163 -35 0
163 -162 0
164 -37 -163 0
-164 37 0
-164 163 0
-165 41 9 11 14 17 164 38 0
165 -41 0
165 -9 0
165 -11 0
165 -14 0
165 -17 0
165 -164 0
165 -38 0
166 -167 -165 0
-166 167 0
-166 165 0
-168 27 156 161 23 166 0
168 -27 0
168 -156 0
168 -161 0
168 -23 0
168 -166 0
169 -170 -168 0
-169 170 0
-169 168 0
-171 172 85 108 110 116 126 132 142 154 169 0
171 -172 0
171 -85 0
171 -108 0
171 -110 0
171 -116 0
171 -126 0
171 -132 0
171 -142 0
171 -154 0
171 -169 0
173 -174 -171 0
-173 174 0
-173 171 0
175 -82 -44 0
-175 82 0
-175 44 0
-176 84 144 74 175 0
176 -84 0
176 -144 0
176 -74 0
176 -175 0
177 -86 -176 0
-177 86 0
-177 176 0
178 -127 -3 0
-178 127 0
-178 3 0
-179 84 144 175 0
179 -84 0
179 -144 0
179 -175 0
180 -130 -179 0
-180 130 0
-180 179 0
-181 76 180 0
181 -76 0
181 -180 0
182 -133 -181 0
-182 133 0
-182 181 0
183 -143 -147 0
-183 143 0
-183 147 0
184 -155 -153 0
-184 155 0
-184 153 0
-185 172 177 108 110 116 178 182 183 184 169 0
185 -172 0
185 -177 0
185 -108 0
185 -110 0
185 -116 0
185 -178 0
185 -182 0
185 -183 0
185 -184 0
185 -169 0
186 -187 -185 0
-186 187 0
-186 185 0
188 -86 -145 0
-188 86 0
-188 145 0
-189 84 144 0
189 -84 0
189 -144 0
190 -130 -189 0
-190 130 0
-190 189 0
-191 76 190 0
191 -76 0
191 -190 0
192 -133 -191 0
-192 133 0
-192 191 0
-193 27 156 161 23 0
193 -27 0
193 -156 0
193 -161 0
193 -23 0
194 -170 -193 0
-194 170 0
-194 193 0
-195 172 188 108 110 116 178 192 184 194 0
195 -172 0
195 -188 0
195 -108 0
195 -110 0
195 -116 0
195 -178 0
195 -192 0
195 -184 0
195 -194 0
196 -197 -195 0
-196 197 0
-196 195 0
-198 8 196 4 0
198 -8 0
198 -196 0
198 -4 0
199 -10 -198 0
-199 10 0
-199 198 0
200 -201 -195 0
-200 201 0
-200 195 0
-202 16 200 0
202 -16 0
202 -200 0
203 -15 -202 0
-203 15 0
-203 202 0
-204 41 199 11 203 17 36 38 0
204 -41 0
204 -199 0
204 -11 0
204 -203 0
204 -17 0
204 -36 0
204 -38 0
205 -43 -204 0
-205 43 0
-205 204 0
-206 45 146 205 0
206 -45 0
206 -146 0
206 -205 0
207 -47 -206 0
-207 47 0
-207 206 0
208 -209 -185 0
-208 209 0
-208 185 0
-210 50 208 0
210 -50 0
210 -208 0
211 -49 -210 0
-211 49 0
-211 210 0
212 -43 -51 0
-212 43 0
-212 51 0
-213 45 212 0
213 -45 0
213 -212 0
214 -82 -213 0
-214 82 0
-214 213 0
-215 84 144 74 214 0
215 -84 0
215 -144 0
215 -74 0
215 -214 0
216 -86 -215 0
-216 86 0
-216 215 0
-217 84 144 214 0
217 -84 0
217 -144 0
217 -214 0
218 -130 -217 0
-218 130 0
-218 217 0
-219 76 218 0
219 -76 0
219 -218 0
220 -133 -219 0
-220 133 0
-220 219 0
-221 45 146 212 0
221 -45 0
221 -146 0
221 -212 0
222 -143 -221 0
-222 143 0
-222 221 0
-223 41 9 11 17 164 38 0
223 -41 0
223 -9 0
223 -11 0
223 -17 0
223 -164 0
223 -38 0
224 -167 -223 0
-224 167 0
-224 223 0
-225 27 156 161 23 224 0
225 -27 0
225 -156 0
225 -161 0
225 -23 0
225 -224 0
226 -170 -225 0
-226 170 0
-226 225 0
-227 172 216 108 110 116 178 220 222 184 226 0
227 -172 0
227 -216 0
227 -108 0
227 -110 0
227 -116 0
227 -178 0
227 -220 0
227 -222 0
227 -184 0
227 -226 0
228 -201 -227 0
-228 201 0
-228 227 0
229 -82 -45 0
-229 82 0
-229 45 0
-230 84 144 74 229 0
230 -84 0
230 -144 0
230 -74 0
230 -229 0
231 -86 -230 0
-231 86 0
-231 230 0
-232 84 144 229 0
232 -84 0
232 -144 0
232 -229 0
233 -130 -232 0
-233 130 0
-233 232 0
-234 76 233 0
234 -76 0
234 -233 0
235 -133 -234 0
-235 133 0
-235 234 0
-236 45 146 0
236 -45 0
236 -146 0
237 -143 -236 0
-237 143 0
-237 236 0
-238 172 231 108 110 116 178 235 237 184 194 0
238 -172 0
238 -231 0
238 -108 0
238 -110 0
238 -116 0
238 -178 0
238 -235 0
238 -237 0
238 -184 0
238 -194 0
239 -197 -238 0
-239 197 0
-239 238 0
-240 8 239 4 0
240 -8 0
240 -239 0
240 -4 0
241 -10 -240 0
-241 10 0
-241 240 0
-242 41 241 11 17 36 38 0
242 -41 0
242 -241 0
242 -11 0
242 -17 0
242 -36 0
242 -38 0
243 -53 -242 0
-243 53 0
-243 242 0
-244 16 228 243 0
244 -16 0
244 -228 0
244 -243 0
245 -56 -244 0
-245 56 0
-245 244 0
-246 8 239 0
246 -8 0
246 -239 0
247 -10 -246 0
-247 10 0
-247 246 0
248 -201 -238 0
-248 201 0
-248 238 0
-249 16 248 0
249 -16 0
249 -248 0
250 -15 -249 0
-250 15 0
-250 249 0
-251 41 247 11 250 17 36 38 0
251 -41 0
251 -247 0
251 -11 0
251 -250 0
251 -17 0
251 -36 0
251 -38 0
252 -60 -251 0
-252 60 0
-252 251 0
-253 6 252 0
253 -6 0
253 -252 0
254 -63 -253 0
-254 63 0
-254 253 0
-255 65 186 1 207 211 245 254 0
255 -65 0
255 -186 0
255 -1 0
255 -207 0
255 -211 0
255 -245 0
255 -254 0
256 -257 -255 0
-256 257 0
-256 255 0
258 -47 -45 0
-258 47 0
-258 45 0
259 -56 -16 0
-259 56 0
-259 16 0
260 -63 -6 0
-260 63 0
-260 6 0
-261 65 1 258 48 259 260 0
261 -65 0
261 -1 0
261 -258 0
261 -48 0
261 -259 0
261 -260 0
262 -67 -261 0
-262 67 0
-262 261 0
-263 65 258 48 259 260 0
263 -65 0
263 -258 0
263 -48 0
263 -259 0
263 -260 0
264 -70 -263 0
-264 70 0
-264 263 0
-265 3 264 0
265 -3 0
265 -264 0
266 -73 -265 0
-266 73 0
-266 265 0
267 -79 -261 0
-267 79 0
-267 261 0
-268 45 267 0
268 -45 0
268 -267 0
269 -82 -268 0
-269 82 0
-269 268 0
-270 84 262 266 74 269 0
270 -84 0
270 -262 0
270 -266 0
270 -74 0
270 -269 0
271 -86 -270 0
-271 86 0
-271 270 0
-272 45 119 0
272 -45 0
272 -119 0
273 -47 -272 0
-273 47 0
-273 272 0
-274 65 273 48 259 260 0
274 -65 0
274 -273 0
274 -48 0
274 -259 0
274 -260 0
275 -70 -274 0
-275 70 0
-275 274 0
-276 3 275 0
276 -3 0
276 -275 0
277 -127 -276 0
-277 127 0
-277 276 0
-278 84 262 266 269 0
278 -84 0
278 -262 0
278 -266 0
278 -269 0
279 -130 -278 0
-279 130 0
-279 278 0
-280 76 279 0
280 -76 0
280 -279 0
281 -133 -280 0
-281 133 0
-281 280 0
-282 65 1 48 259 260 0
282 -65 0
282 -1 0
282 -48 0
282 -259 0
282 -260 0
283 -79 -282 0
-283 79 0
-283 282 0
-284 84 262 266 74 0
284 -84 0
284 -262 0
284 -266 0
284 -74 0
285 -120 -284 0
-285 120 0
-285 284 0
-286 45 283 285 0
286 -45 0
286 -283 0
286 -285 0
287 -143 -286 0
-287 143 0
-287 286 0
288 -47 -236 0
-288 47 0
-288 236 0
-289 65 1 288 48 259 260 0
289 -65 0
289 -1 0
289 -288 0
289 -48 0
289 -259 0
289 -260 0
290 -151 -289 0
-290 151 0
-290 289 0
-291 153 290 0
291 -153 0
291 -290 0
292 -155 -291 0
-292 155 0
-292 291 0
-293 172 271 108 110 116 277 281 287 292 194 0
293 -172 0
293 -271 0
293 -108 0
293 -110 0
293 -116 0
293 -277 0
293 -281 0
293 -287 0
293 -292 0
293 -194 0
294 -197 -293 0
-294 197 0
-294 293 0
-295 8 294 4 0
295 -8 0
295 -294 0
295 -4 0
296 -10 -295 0
-296 10 0
-296 295 0
297 -201 -293 0
-297 201 0
-297 293 0
-298 16 297 0
298 -16 0
298 -297 0
299 -15 -298 0
-299 15 0
-299 298 0
-300 41 296 11 299 17 36 38 0
300 -41 0
300 -296 0
300 -11 0
300 -299 0
300 -17 0
300 -36 0
300 -38 0
301 -302 -300 0
-301 302 0
-301 300 0
-303 304 301 0
303 -304 0
303 -301 0
305 -306 -303 0
-305 306 0
-305 303 0
-307 172 188 108 110 116 178 192 184 169 0
307 -172 0
307 -188 0
307 -108 0
307 -110 0
307 -116 0
307 -178 0
307 -192 0
307 -184 0
307 -169 0
308 -187 -307 0
-308 187 0
-308 307 0
309 -209 -307 0
-309 209 0
-309 307 0
-310 50 309 0
310 -50 0
310 -309 0
311 -49 -310 0
-311 49 0
-311 310 0
-312 172 188 108 110 116 178 192 184 226 0
312 -172 0
312 -188 0
312 -108 0
312 -110 0
312 -116 0
312 -178 0
312 -192 0
312 -184 0
312 -226 0
313 -201 -312 0
-313 201 0
-313 312 0
-314 41 199 11 17 36 38 0
314 -41 0
314 -199 0
314 -11 0
314 -17 0
314 -36 0
314 -38 0
315 -53 -314 0
-315 53 0
-315 314 0
-316 16 313 315 0
316 -16 0
316 -313 0
316 -315 0
317 -56 -316 0
-317 56 0
-317 316 0
-318 8 196 0
318 -8 0
318 -196 0
319 -10 -318 0
-319 10 0
-319 318 0
-320 41 319 11 203 17 36 38 0
320 -41 0
320 -319 0
320 -11 0
320 -203 0
320 -17 0
320 -36 0
320 -38 0
321 -60 -320 0
-321 60 0
-321 320 0
-322 6 321 0
322 -6 0
322 -321 0
323 -63 -322 0
-323 63 0
-323 322 0
-324 65 308 1 311 317 323 0
324 -65 0
324 -308 0
324 -1 0
324 -311 0
324 -317 0
324 -323 0
325 -79 -324 0
-325 79 0
-325 324 0
326 -133 -76 0
-326 133 0
-326 76 0
-327 172 188 108 110 116 178 326 184 169 0
327 -172 0
327 -188 0
327 -108 0
327 -110 0
327 -116 0
327 -178 0
327 -326 0
327 -184 0
327 -169 0
328 -187 -327 0
-328 187 0
-328 327 0
329 -209 -327 0
-329 209 0
-329 327 0
-330 50 329 0
330 -50 0
330 -329 0
331 -49 -330 0
-331 49 0
-331 330 0
-332 172 188 108 110 116 178 326 184 226 0
332 -172 0
332 -188 0
332 -108 0
332 -110 0
332 -116 0
332 -178 0
332 -326 0
332 -184 0
332 -226 0
333 -201 -332 0
-333 201 0
-333 332 0
-334 172 188 108 110 116 178 326 184 194 0
334 -172 0
334 -188 0
334 -108 0
334 -110 0
334 -116 0
334 -178 0
334 -326 0
334 -184 0
334 -194 0
335 -197 -334 0
-335 197 0
-335 334 0
-336 8 335 4 0
336 -8 0
336 -335 0
336 -4 0
337 -10 -336 0
-337 10 0
-337 336 0
-338 41 337 11 17 36 38 0
338 -41 0
338 -337 0
338 -11 0
338 -17 0
338 -36 0
338 -38 0
339 -53 -338 0
-339 53 0
-339 338 0
-340 16 333 339 0
340 -16 0
340 -333 0
340 -339 0
341 -56 -340 0
-341 56 0
-341 340 0
-342 8 335 0
342 -8 0
342 -335 0
343 -10 -342 0
-343 10 0
-343 342 0
344 -201 -334 0
-344 201 0
-344 334 0
-345 16 344 0
345 -16 0
345 -344 0
346 -15 -345 0
-346 15 0
-346 345 0
-347 41 343 11 346 17 36 38 0
347 -41 0
347 -343 0
347 -11 0
347 -346 0
347 -17 0
347 -36 0
347 -38 0
348 -60 -347 0
-348 60 0
-348 347 0
-349 6 348 0
349 -6 0
349 -348 0
350 -63 -349 0
-350 63 0
-350 349 0
-351 65 328 1 331 341 350 0
351 -65 0
351 -328 0
351 -1 0
351 -331 0
351 -341 0
351 -350 0
352 -67 -351 0
-352 67 0
-352 351 0
-353 172 108 110 116 178 326 184 169 0
353 -172 0
353 -108 0
353 -110 0
353 -116 0
353 -178 0
353 -326 0
353 -184 0
353 -169 0
354 -187 -353 0
-354 187 0
-354 353 0
355 -209 -353 0
-355 209 0
-355 353 0
-356 50 355 0
356 -50 0
356 -355 0
357 -49 -356 0
-357 49 0
-357 356 0
-358 172 108 110 116 178 326 184 226 0
358 -172 0
358 -108 0
358 -110 0
358 -116 0
358 -178 0
358 -326 0
358 -184 0
358 -226 0
359 -201 -358 0
-359 201 0
-359 358 0
-360 172 108 110 116 178 326 184 194 0
360 -172 0
360 -108 0
360 -110 0
360 -116 0
360 -178 0
360 -326 0
360 -184 0
360 -194 0
361 -197 -360 0
-361 197 0
-361 360 0
-362 8 361 4 0
362 -8 0
362 -361 0
362 -4 0
363 -10 -362 0
-363 10 0
-363 362 0
-364 41 363 11 17 36 38 0
364 -41 0
364 -363 0
364 -11 0
364 -17 0
364 -36 0
364 -38 0
365 -53 -364 0
-365 53 0
-365 364 0
-366 16 359 365 0
366 -16 0
366 -359 0
366 -365 0
367 -56 -366 0
-367 56 0
-367 366 0
-368 8 361 0
368 -8 0
368 -361 0
369 -10 -368 0
-369 10 0
-369 368 0
370 -201 -360 0
-370 201 0
-370 360 0
-371 16 370 0
371 -16 0
371 -370 0
372 -15 -371 0
-372 15 0
-372 371 0
-373 41 369 11 372 17 36 38 0
373 -41 0
373 -369 0
373 -11 0
373 -372 0
373 -17 0
373 -36 0
373 -38 0
374 -60 -373 0
-374 60 0
-374 373 0
-375 6 374 0
375 -6 0
375 -374 0
376 -63 -375 0
-376 63 0
-376 375 0
-377 65 354 357 367 376 0
377 -65 0
377 -354 0
377 -357 0
377 -367 0
377 -376 0
378 -70 -377 0
-378 70 0
-378 377 0
-379 3 378 0
379 -3 0
379 -378 0
380 -73 -379 0
-380 73 0
-380 379 0
-381 84 352 380 74 0
381 -84 0
381 -352 0
381 -380 0
381 -74 0
382 -120 -381 0
-382 120 0
-382 381 0
383 -86 -284 0
-383 86 0
-383 284 0
-384 65 48 259 260 0
384 -65 0
384 -48 0
384 -259 0
384 -260 0
385 -70 -384 0
-385 70 0
-385 384 0
-386 3 385 0
386 -3 0
386 -385 0
387 -127 -386 0
-387 127 0
-387 386 0
-388 84 262 266 0
388 -84 0
388 -262 0
388 -266 0
389 -130 -388 0
-389 130 0
-389 388 0
-390 76 389 0
390 -76 0
390 -389 0
391 -133 -390 0
-391 133 0
-391 390 0
392 -151 -282 0
-392 151 0
-392 282 0
-393 153 392 0
393 -153 0
393 -392 0
394 -155 -393 0
-394 155 0
-394 393 0
-395 172 383 108 110 116 387 391 394 194 0
395 -172 0
395 -383 0
395 -108 0
395 -110 0
395 -116 0
395 -387 0
395 -391 0
395 -394 0
395 -194 0
396 -197 -395 0
-396 197 0
-396 395 0
-397 8 396 4 0
397 -8 0
397 -396 0
397 -4 0
398 -10 -397 0
-398 10 0
-398 397 0
399 -201 -395 0
-399 201 0
-399 395 0
-400 16 399 0
400 -16 0
400 -399 0
401 -15 -400 0
-401 15 0
-401 400 0
-402 41 398 11 401 17 36 38 0
402 -41 0
402 -398 0
402 -11 0
402 -401 0
402 -17 0
402 -36 0
402 -38 0
403 -43 -402 0
-403 43 0
-403 402 0
-404 45 325 382 403 0
404 -45 0
404 -325 0
404 -382 0
404 -403 0
405 -406 -404 0
-405 406 0
-405 404 0
-407 172 271 108 110 116 277 281 287 292 0
407 -172 0
407 -271 0
407 -108 0
407 -110 0
407 -116 0
407 -277 0
407 -281 0
407 -287 0
407 -292 0
408 -197 -407 0
-408 197 0
-408 407 0
-409 8 408 4 0
409 -8 0
409 -408 0
409 -4 0
410 -10 -409 0
-410 10 0
-410 409 0
411 -201 -407 0
-411 201 0
-411 407 0
-412 16 411 0
412 -16 0
412 -411 0
413 -15 -412 0
-413 15 0
-413 412 0
-414 41 410 11 413 17 38 0
414 -41 0
414 -410 0
414 -11 0
414 -413 0
414 -17 0
414 -38 0
415 -167 -414 0
-415 167 0
-415 414 0
-416 27 20 23 415 0
416 -27 0
416 -20 0
416 -23 0
416 -415 0
417 -29 -416 0
-417 29 0
-417 416 0
-418 31 417 0
418 -31 0
418 -417 0
419 -33 -418 0
-419 33 0
-419 418 0
-420 35 419 0
420 -35 0
420 -419 0
421 -422 -420 0
-421 422 0
-421 420 0
-423 424 173 256 305 405 421 0
423 -424 0
423 -173 0
423 -256 0
423 -305 0
423 -405 0
423 -421 0
425 -426 -423 0
-425 426 0
-425 423 0
-427 41 11 14 17 36 38 0
427 -41 0
427 -11 0
427 -14 0
427 -17 0
427 -36 0
427 -38 0
428 -43 -427 0
-428 43 0
-428 427 0
-429 45 146 428 0
429 -45 0
429 -146 0
429 -428 0
430 -47 -429 0
-430 47 0
-430 429 0
-431 41 11 17 36 38 0
431 -41 0
431 -11 0
431 -17 0
431 -36 0
431 -38 0
432 -53 -431 0
-432 53 0
-432 431 0
-433 16 432 0
433 -16 0
433 -432 0
434 -56 -433 0
-434 56 0
-434 433 0
435 -60 -427 0
-435 60 0
-435 427 0
-436 6 435 0
436 -6 0
436 -435 0
437 -63 -436 0
-437 63 0
-437 436 0
-438 65 1 430 48 434 437 0
438 -65 0
438 -1 0
438 -430 0
438 -48 0
438 -434 0
438 -437 0
439 -257 -438 0
-439 257 0
-439 438 0
440 -302 -427 0
-440 302 0
-440 427 0
-441 304 440 0
441 -304 0
441 -440 0
442 -306 -441 0
-442 306 0
-442 441 0
-443 65 1 48 434 437 0
443 -65 0
443 -1 0
443 -48 0
443 -434 0
443 -437 0
444 -79 -443 0
-444 79 0
-444 443 0
445 -67 -443 0
-445 67 0
-445 443 0
-446 65 48 434 437 0
446 -65 0
446 -48 0
446 -434 0
446 -437 0
447 -70 -446 0
-447 70 0
-447 446 0
-448 3 447 0
448 -3 0
448 -447 0
449 -73 -448 0
-449 73 0
-449 448 0
-450 84 445 449 74 0
450 -84 0
450 -445 0
450 -449 0
450 -74 0
451 -120 -450 0
-451 120 0
-451 450 0
-452 45 444 451 428 0
452 -45 0
452 -444 0
452 -451 0
452 -428 0
453 -406 -452 0
-453 406 0
-453 452 0
-454 41 11 14 17 38 0
454 -41 0
454 -11 0
454 -14 0
454 -17 0
454 -38 0
455 -167 -454 0
-455 167 0
-455 454 0
-456 27 20 23 455 0
456 -27 0
456 -20 0
456 -23 0
456 -455 0
457 -29 -456 0
-457 29 0
-457 456 0
-458 31 457 0
458 -31 0
458 -457 0
459 -33 -458 0
-459 33 0
-459 458 0
-460 35 459 0
460 -35 0
460 -459 0
461 -422 -460 0
-461 422 0
-461 460 0
-462 424 439 442 453 461 0
462 -424 0
462 -439 0
462 -442 0
462 -453 0
462 -461 0
463 -464 -462 0
-463 464 0
-463 462 0
-465 45 428 0
465 -45 0
465 -428 0
466 -406 -465 0
-466 406 0
-466 465 0
-467 424 442 466 461 0
467 -424 0
467 -442 0
467 -466 0
467 -461 0
468 -469 -467 0
-468 469 0
-468 467 0
-470 3 468 0
470 -3 0
470 -468 0
471 -2 -470 0
-471 2 0
-471 470 0
472 -306 -304 0
-472 306 0
-472 304 0
-473 424 472 0
473 -424 0
473 -472 0
474 -475 -473 0
-474 475 0
-474 473 0
476 -477 -473 0
-476 477 0
-476 473 0
-478 25 476 0
478 -25 0
478 -476 0
479 -24 -478 0
-479 24 0
-479 478 0
-480 27 20 479 0
480 -27 0
480 -20 0
480 -479 0
481 -29 -480 0
-481 29 0
-481 480 0
-482 31 481 0
482 -31 0
482 -481 0
483 -33 -482 0
-483 33 0
-483 482 0
-484 35 474 483 0
484 -35 0
484 -474 0
484 -483 0
485 -37 -484 0
-485 37 0
-485 484 0
-486 27 20 0
486 -27 0
486 -20 0
487 -29 -486 0
-487 29 0
-487 486 0
-488 31 487 0
488 -31 0
488 -487 0
489 -33 -488 0
-489 33 0
-489 488 0
-490 35 489 0
490 -35 0
490 -489 0
491 -422 -490 0
-491 422 0
-491 490 0
-492 424 472 491 0
492 -424 0
492 -472 0
492 -491 0
493 -477 -492 0
-493 477 0
-493 492 0
-494 25 493 0
494 -25 0
494 -493 0
495 -39 -494 0
-495 39 0
-495 494 0
-496 41 11 14 17 485 495 0
496 -41 0
496 -11 0
496 -14 0
496 -17 0
496 -485 0
496 -495 0
497 -43 -496 0
-497 43 0
-497 496 0
-498 45 497 0
498 -45 0
498 -497 0
499 -47 -498 0
-499 47 0
-499 498 0
500 -406 -45 0
-500 406 0
-500 45 0
-501 424 472 500 0
501 -424 0
501 -472 0
501 -500 0
502 -475 -501 0
-502 475 0
-502 501 0
503 -477 -501 0
-503 477 0
-503 501 0
-504 25 503 0
504 -25 0
504 -503 0
505 -24 -504 0
-505 24 0
-505 504 0
-506 27 20 505 0
506 -27 0
506 -20 0
506 -505 0
507 -29 -506 0
-507 29 0
-507 506 0
-508 31 507 0
508 -31 0
508 -507 0
509 -33 -508 0
-509 33 0
-509 508 0
-510 35 502 509 0
510 -35 0
510 -502 0
510 -509 0
511 -37 -510 0
-511 37 0
-511 510 0
-512 424 472 500 491 0
512 -424 0
512 -472 0
512 -500 0
512 -491 0
513 -477 -512 0
-513 477 0
-513 512 0
-514 25 513 0
514 -25 0
514 -513 0
515 -39 -514 0
-515 39 0
-515 514 0
-516 41 11 17 511 515 0
516 -41 0
516 -11 0
516 -17 0
516 -511 0
516 -515 0
517 -53 -516 0
-517 53 0
-517 516 0
-518 16 517 0
518 -16 0
518 -517 0
519 -56 -518 0
-519 56 0
-519 518 0
-520 41 11 14 17 511 515 0
520 -41 0
520 -11 0
520 -14 0
520 -17 0
520 -511 0
520 -515 0
521 -60 -520 0
-521 60 0
-521 520 0
-522 6 521 0
522 -6 0
522 -521 0
523 -63 -522 0
-523 63 0
-523 522 0
-524 65 471 499 48 519 523 0
524 -65 0
524 -471 0
524 -499 0
524 -48 0
524 -519 0
524 -523 0
525 -67 -524 0
-525 67 0
-525 524 0
526 -47 -465 0
-526 47 0
-526 465 0
-527 65 1 526 48 434 437 0
527 -65 0
527 -1 0
527 -526 0
527 -48 0
527 -434 0
527 -437 0
528 -257 -527 0
-528 257 0
-528 527 0
-529 45 444 428 0
529 -45 0
529 -444 0
529 -428 0
530 -406 -529 0
-530 406 0
-530 529 0
-531 424 528 442 530 461 0
531 -424 0
531 -528 0
531 -442 0
531 -530 0
531 -461 0
532 -533 -531 0
-532 533 0
-532 531 0
-534 65 499 48 519 523 0
534 -65 0
534 -499 0
534 -48 0
534 -519 0
534 -523 0
535 -70 -534 0
-535 70 0
-535 534 0
-536 65 526 48 434 437 0
536 -65 0
536 -526 0
536 -48 0
536 -434 0
536 -437 0
537 -257 -536 0
-537 257 0
-537 536 0
538 -79 -446 0
-538 79 0
-538 446 0
-539 45 538 428 0
539 -45 0
539 -538 0
539 -428 0
540 -406 -539 0
-540 406 0
-540 539 0
-541 424 537 442 540 461 0
541 -424 0
541 -537 0
541 -442 0
541 -540 0
541 -461 0
542 -469 -541 0
-542 469 0
-542 541 0
-543 3 535 542 0
543 -3 0
543 -535 0
543 -542 0
544 -73 -543 0
-544 73 0
-544 543 0
-545 424 442 461 0
545 -424 0
545 -442 0
545 -461 0
546 -469 -545 0
-546 469 0
-546 545 0
-547 3 546 0
547 -3 0
547 -546 0
548 -2 -547 0
-548 2 0
-548 547 0
-549 41 11 17 485 495 0
549 -41 0
549 -11 0
549 -17 0
549 -485 0
549 -495 0
550 -53 -549 0
-550 53 0
-550 549 0
-551 16 550 0
551 -16 0
551 -550 0
552 -56 -551 0
-552 56 0
-552 551 0
553 -60 -496 0
-553 60 0
-553 496 0
-554 6 553 0
554 -6 0
554 -553 0
555 -63 -554 0
-555 63 0
-555 554 0
-556 65 548 48 552 555 0
556 -65 0
556 -548 0
556 -48 0
556 -552 0
556 -555 0
557 -79 -556 0
-557 79 0
-557 556 0
558 -257 -261 0
-558 257 0
-558 261 0
-559 424 558 472 0
559 -424 0
559 -558 0
559 -472 0
560 -475 -559 0
-560 475 0
-560 559 0
561 -477 -559 0
-561 477 0
-561 559 0
-562 25 561 0
562 -25 0
562 -561 0
563 -24 -562 0
-563 24 0
-563 562 0
-564 27 20 563 0
564 -27 0
564 -20 0
564 -563 0
565 -29 -564 0
-565 29 0
-565 564 0
-566 31 565 0
566 -31 0
566 -565 0
567 -33 -566 0
-567 33 0
-567 566 0
-568 35 560 567 0
568 -35 0
568 -560 0
568 -567 0
569 -37 -568 0
-569 37 0
-569 568 0
-570 424 558 472 491 0
570 -424 0
570 -558 0
570 -472 0
570 -491 0
571 -477 -570 0
-571 477 0
-571 570 0
-572 25 571 0
572 -25 0
572 -571 0
573 -39 -572 0
-573 39 0
-573 572 0
-574 41 11 14 17 569 573 0
574 -41 0
574 -11 0
574 -14 0
574 -17 0
574 -569 0
574 -573 0
575 -43 -574 0
-575 43 0
-575 574 0
-576 45 557 575 0
576 -45 0
576 -557 0
576 -575 0
577 -82 -576 0
-577 82 0
-577 576 0
-578 84 525 532 544 74 577 0
578 -84 0
578 -525 0
578 -532 0
578 -544 0
578 -74 0
578 -577 0
579 -86 -578 0
-579 86 0
-579 578 0
580 -533 -545 0
-580 533 0
-580 545 0
-581 84 580 74 0
581 -84 0
581 -580 0
581 -74 0
582 -120 -581 0
-582 120 0
-582 581 0
-583 45 582 497 0
583 -45 0
583 -582 0
583 -497 0
584 -47 -583 0
-584 47 0
-584 583 0
585 -406 -272 0
-585 406 0
-585 272 0
-586 424 472 585 0
586 -424 0
586 -472 0
586 -585 0
587 -475 -586 0
-587 475 0
-587 586 0
588 -477 -586 0
-588 477 0
-588 586 0
-589 25 588 0
589 -25 0
589 -588 0
590 -24 -589 0
-590 24 0
-590 589 0
-591 27 20 590 0
591 -27 0
591 -20 0
591 -590 0
592 -29 -591 0
-592 29 0
-592 591 0
-593 31 592 0
593 -31 0
593 -592 0
594 -33 -593 0
-594 33 0
-594 593 0
-595 35 587 594 0
595 -35 0
595 -587 0
595 -594 0
596 -37 -595 0
-596 37 0
-596 595 0
-597 424 472 585 491 0
597 -424 0
597 -472 0
597 -585 0
597 -491 0
598 -477 -597 0
-598 477 0
-598 597 0
-599 25 598 0
599 -25 0
599 -598 0
600 -39 -599 0
-600 39 0
-600 599 0
-601 41 11 17 596 600 0
601 -41 0
601 -11 0
601 -17 0
601 -596 0
601 -600 0
602 -53 -601 0
-602 53 0
-602 601 0
-603 16 602 0
603 -16 0
603 -602 0
604 -56 -603 0
-604 56 0
-604 603 0
-605 41 11 14 17 596 600 0
605 -41 0
605 -11 0
605 -14 0
605 -17 0
605 -596 0
605 -600 0
606 -60 -605 0
-606 60 0
-606 605 0
-607 6 606 0
607 -6 0
607 -606 0
608 -63 -607 0
-608 63 0
-608 607 0
-609 65 584 48 604 608 0
609 -65 0
609 -584 0
609 -48 0
609 -604 0
609 -608 0
610 -70 -609 0
-610 70 0
-610 609 0
-611 45 119 428 0
611 -45 0
611 -119 0
611 -428 0
612 -47 -611 0
-612 47 0
-612 611 0
-613 65 612 48 434 437 0
613 -65 0
613 -612 0
613 -48 0
613 -434 0
613 -437 0
614 -257 -613 0
-614 257 0
-614 613 0
615 -67 -446 0
-615 67 0
-615 446 0
-616 84 615 74 0
616 -84 0
616 -615 0
616 -74 0
617 -120 -616 0
-617 120 0
-617 616 0
-618 45 538 617 428 0
618 -45 0
618 -538 0
618 -617 0
618 -428 0
619 -406 -618 0
-619 406 0
-619 618 0
-620 424 614 442 619 461 0
620 -424 0
620 -614 0
620 -442 0
620 -619 0
620 -461 0
621 -469 -620 0
-621 469 0
-621 620 0
-622 3 610 621 0
622 -3 0
622 -610 0
622 -621 0
623 -127 -622 0
-623 127 0
-623 622 0
-624 84 525 532 544 577 0
624 -84 0
624 -525 0
624 -532 0
624 -544 0
624 -577 0
625 -130 -624 0
-625 130 0
-625 624 0
-626 76 625 0
626 -76 0
626 -625 0
627 -133 -626 0
-627 133 0
-627 626 0
628 -67 -556 0
-628 67 0
-628 556 0
629 -257 -443 0
-629 257 0
-629 443 0
-630 424 629 442 461 0
630 -424 0
630 -629 0
630 -442 0
630 -461 0
631 -533 -630 0
-631 533 0
-631 630 0
-632 65 48 552 555 0
632 -65 0
632 -48 0
632 -552 0
632 -555 0
633 -70 -632 0
-633 70 0
-633 632 0
634 -257 -446 0
-634 257 0
-634 446 0
-635 424 634 442 461 0
635 -424 0
635 -634 0
635 -442 0
635 -461 0
636 -469 -635 0
-636 469 0
-636 635 0
-637 3 633 636 0
637 -3 0
637 -633 0
637 -636 0
638 -73 -637 0
-638 73 0
-638 637 0
-639 84 628 631 638 74 0
639 -84 0
639 -628 0
639 -631 0
639 -638 0
639 -74 0
640 -120 -639 0
-640 120 0
-640 639 0
641 -257 -282 0
-641 257 0
-641 282 0
-642 424 641 472 0
642 -424 0
642 -641 0
642 -472 0
643 -475 -642 0
-643 475 0
-643 642 0
644 -477 -642 0
-644 477 0
-644 642 0
-645 25 644 0
645 -25 0
645 -644 0
646 -24 -645 0
-646 24 0
-646 645 0
-647 27 20 646 0
647 -27 0
647 -20 0
647 -646 0
648 -29 -647 0
-648 29 0
-648 647 0
-649 31 648 0
649 -31 0
649 -648 0
650 -33 -649 0
-650 33 0
-650 649 0
-651 35 643 650 0
651 -35 0
651 -643 0
651 -650 0
652 -37 -651 0
-652 37 0
-652 651 0
-653 424 641 472 491 0
653 -424 0
653 -641 0
653 -472 0
653 -491 0
654 -477 -653 0
-654 477 0
-654 653 0
-655 25 654 0
655 -25 0
655 -654 0
656 -39 -655 0
-656 39 0
-656 655 0
-657 41 11 14 17 652 656 0
657 -41 0
657 -11 0
657 -14 0
657 -17 0
657 -652 0
657 -656 0
658 -43 -657 0
-658 43 0
-658 657 0
-659 45 557 640 658 0
659 -45 0
659 -557 0
659 -640 0
659 -658 0
660 -143 -659 0
-660 143 0
-660 659 0
661 -406 -611 0
-661 406 0
-661 611 0
-662 424 442 661 461 0
662 -424 0
662 -442 0
662 -661 0
662 -461 0
663 -469 -662 0
-663 469 0
-663 662 0
-664 3 663 0
664 -3 0
664 -663 0
665 -2 -664 0
-665 2 0
-665 664 0
666 -73 -547 0
-666 73 0
-666 547 0
-667 84 580 666 74 0
667 -84 0
667 -580 0
667 -666 0
667 -74 0
668 -120 -667 0
-668 120 0
-668 667 0
-669 45 668 497 0
669 -45 0
669 -668 0
669 -497 0
670 -47 -669 0
-670 47 0
-670 669 0
671 -406 -236 0
-671 406 0
-671 236 0
-672 424 472 671 0
672 -424 0
672 -472 0
672 -671 0
673 -475 -672 0
-673 475 0
-673 672 0
674 -477 -672 0
-674 477 0
-674 672 0
-675 25 674 0
675 -25 0
675 -674 0
676 -24 -675 0
-676 24 0
-676 675 0
-677 27 20 676 0
677 -27 0
677 -20 0
677 -676 0
678 -29 -677 0
-678 29 0
-678 677 0
-679 31 678 0
679 -31 0
679 -678 0
680 -33 -679 0
-680 33 0
-680 679 0
-681 35 673 680 0
681 -35 0
681 -673 0
681 -680 0
682 -37 -681 0
-682 37 0
-682 681 0
-683 424 472 671 491 0
683 -424 0
683 -472 0
683 -671 0
683 -491 0
684 -477 -683 0
-684 477 0
-684 683 0
-685 25 684 0
685 -25 0
685 -684 0
686 -39 -685 0
-686 39 0
-686 685 0
-687 41 11 17 682 686 0
687 -41 0
687 -11 0
687 -17 0
687 -682 0
687 -686 0
688 -53 -687 0
-688 53 0
-688 687 0
-689 16 688 0
689 -16 0
689 -688 0
690 -56 -689 0
-690 56 0
-690 689 0
-691 41 11 14 17 682 686 0
691 -41 0
691 -11 0
691 -14 0
691 -17 0
691 -682 0
691 -686 0
692 -60 -691 0
-692 60 0
-692 691 0
-693 6 692 0
693 -6 0
693 -692 0
694 -63 -693 0
-694 63 0
-694 693 0
-695 65 665 670 48 690 694 0
695 -65 0
695 -665 0
695 -670 0
695 -48 0
695 -690 0
695 -694 0
696 -151 -695 0
-696 151 0
-696 695 0
-697 153 696 0
697 -153 0
697 -696 0
698 -155 -697 0
-698 155 0
-698 697 0
-699 41 11 14 17 164 38 0
699 -41 0
699 -11 0
699 -14 0
699 -17 0
699 -164 0
699 -38 0
700 -43 -699 0
-700 43 0
-700 699 0
-701 45 146 700 0
701 -45 0
701 -146 0
701 -700 0
702 -47 -701 0
-702 47 0
-702 701 0
-703 41 11 17 164 38 0
703 -41 0
703 -11 0
703 -17 0
703 -164 0
703 -38 0
704 -53 -703 0
-704 53 0
-704 703 0
-705 16 704 0
705 -16 0
705 -704 0
706 -56 -705 0
-706 56 0
-706 705 0
707 -60 -699 0
-707 60 0
-707 699 0
-708 6 707 0
708 -6 0
708 -707 0
709 -63 -708 0
-709 63 0
-709 708 0
-710 65 1 702 48 706 709 0
710 -65 0
710 -1 0
710 -702 0
710 -48 0
710 -706 0
710 -709 0
711 -257 -710 0
-711 257 0
-711 710 0
712 -302 -699 0
-712 302 0
-712 699 0
-713 304 712 0
713 -304 0
713 -712 0
714 -306 -713 0
-714 306 0
-714 713 0
-715 65 1 48 706 709 0
715 -65 0
715 -1 0
715 -48 0
715 -706 0
715 -709 0
716 -79 -715 0
-716 79 0
-716 715 0
717 -67 -715 0
-717 67 0
-717 715 0
-718 65 48 706 709 0
718 -65 0
718 -48 0
718 -706 0
718 -709 0
719 -70 -718 0
-719 70 0
-719 718 0
-720 3 719 0
720 -3 0
720 -719 0
721 -73 -720 0
-721 73 0
-721 720 0
-722 84 717 721 74 0
722 -84 0
722 -717 0
722 -721 0
722 -74 0
723 -120 -722 0
-723 120 0
-723 722 0
-724 45 716 723 700 0
724 -45 0
724 -716 0
724 -723 0
724 -700 0
725 -406 -724 0
-725 406 0
-725 724 0
726 -422 -163 0
-726 422 0
-726 163 0
-727 424 711 714 725 726 0
727 -424 0
727 -711 0
727 -714 0
727 -725 0
727 -726 0
728 -477 -727 0
-728 477 0
-728 727 0
-729 25 728 0
729 -25 0
729 -728 0
730 -24 -729 0
-730 24 0
-730 729 0
731 -257 -289 0
-731 257 0
-731 289 0
732 -406 -286 0
-732 406 0
-732 286 0
-733 424 731 472 732 0
733 -424 0
733 -731 0
733 -472 0
733 -732 0
734 -475 -733 0
-734 475 0
-734 733 0
-735 35 734 162 0
735 -35 0
735 -734 0
735 -162 0
736 -37 -735 0
-736 37 0
-736 735 0
-737 424 731 472 732 726 0
737 -424 0
737 -731 0
737 -472 0
737 -732 0
737 -726 0
738 -477 -737 0
-738 477 0
-738 737 0
-739 25 738 0
739 -25 0
739 -738 0
740 -39 -739 0
-740 39 0
-740 739 0
-741 41 11 14 17 736 740 0
741 -41 0
741 -11 0
741 -14 0
741 -17 0
741 -736 0
741 -740 0
742 -167 -741 0
-742 167 0
-742 741 0
-743 27 156 161 730 742 0
743 -27 0
743 -156 0
743 -161 0
743 -730 0
743 -742 0
744 -170 -743 0
-744 170 0
-744 743 0
-745 172 463 579 108 110 116 623 627 660 698 744 0
745 -172 0
745 -463 0
745 -579 0
745 -108 0
745 -110 0
745 -116 0
745 -623 0
745 -627 0
745 -660 0
745 -698 0
745 -744 0
746 -197 -745 0
-746 197 0
-746 745 0
747 -67 -527 0
-747 67 0
-747 527 0
748 -70 -536 0
-748 70 0
-748 536 0
-749 3 748 0
749 -3 0
749 -748 0
750 -73 -749 0
-750 73 0
-750 749 0
751 -82 -529 0
-751 82 0
-751 529 0
-752 84 747 750 74 751 0
752 -84 0
752 -747 0
752 -750 0
752 -74 0
752 -751 0
753 -86 -752 0
-753 86 0
-753 752 0
754 -70 -613 0
-754 70 0
-754 613 0
-755 3 754 0
755 -3 0
755 -754 0
756 -127 -755 0
-756 127 0
-756 755 0
-757 84 747 750 751 0
757 -84 0
757 -747 0
757 -750 0
757 -751 0
758 -130 -757 0
-758 130 0
-758 757 0
-759 76 758 0
759 -76 0
759 -758 0
760 -133 -759 0
-760 133 0
-760 759 0
761 -143 -452 0
-761 143 0
-761 452 0
762 -151 -438 0
-762 151 0
-762 438 0
-763 153 762 0
763 -153 0
763 -762 0
764 -155 -763 0
-764 155 0
-764 763 0
765 -167 -699 0
-765 167 0
-765 699 0
-766 27 156 161 23 765 0
766 -27 0
766 -156 0
766 -161 0
766 -23 0
766 -765 0
767 -170 -766 0
-767 170 0
-767 766 0
-768 172 753 108 110 116 756 760 761 764 767 0
768 -172 0
768 -753 0
768 -108 0
768 -110 0
768 -116 0
768 -756 0
768 -760 0
768 -761 0
768 -764 0
768 -767 0
769 -174 -768 0
-769 174 0
-769 768 0
770 -82 -465 0
-770 82 0
-770 465 0
-771 84 144 74 770 0
771 -84 0
771 -144 0
771 -74 0
771 -770 0
772 -86 -771 0
-772 86 0
-772 771 0
-773 84 144 770 0
773 -84 0
773 -144 0
773 -770 0
774 -130 -773 0
-774 130 0
-774 773 0
-775 76 774 0
775 -76 0
775 -774 0
776 -133 -775 0
-776 133 0
-776 775 0
777 -143 -429 0
-777 143 0
-777 429 0
-778 172 772 108 110 116 178 776 777 184 767 0
778 -172 0
778 -772 0
778 -108 0
778 -110 0
778 -116 0
778 -178 0
778 -776 0
778 -777 0
778 -184 0
778 -767 0
779 -187 -778 0
-779 187 0
-779 778 0
-780 41 11 203 17 36 38 0
780 -41 0
780 -11 0
780 -203 0
780 -17 0
780 -36 0
780 -38 0
781 -43 -780 0
-781 43 0
-781 780 0
-782 45 146 781 0
782 -45 0
782 -146 0
782 -781 0
783 -47 -782 0
-783 47 0
-783 782 0
784 -209 -778 0
-784 209 0
-784 778 0
-785 50 784 0
785 -50 0
785 -784 0
786 -49 -785 0
-786 49 0
-786 785 0
787 -43 -431 0
-787 43 0
-787 431 0
-788 45 787 0
788 -45 0
788 -787 0
789 -82 -788 0
-789 82 0
-789 788 0
-790 84 144 74 789 0
790 -84 0
790 -144 0
790 -74 0
790 -789 0
791 -86 -790 0
-791 86 0
-791 790 0
-792 84 144 789 0
792 -84 0
792 -144 0
792 -789 0
793 -130 -792 0
-793 130 0
-793 792 0
-794 76 793 0
794 -76 0
794 -793 0
795 -133 -794 0
-795 133 0
-795 794 0
-796 45 146 787 0
796 -45 0
796 -146 0
796 -787 0
797 -143 -796 0
-797 143 0
-797 796 0
798 -167 -703 0
-798 167 0
-798 703 0
-799 27 156 161 23 798 0
799 -27 0
799 -156 0
799 -161 0
799 -23 0
799 -798 0
800 -170 -799 0
-800 170 0
-800 799 0
-801 172 791 108 110 116 178 795 797 184 800 0
801 -172 0
801 -791 0
801 -108 0
801 -110 0
801 -116 0
801 -178 0
801 -795 0
801 -797 0
801 -184 0
801 -800 0
802 -201 -801 0
-802 201 0
-802 801 0
-803 16 802 432 0
803 -16 0
803 -802 0
803 -432 0
804 -56 -803 0
-804 56 0
-804 803 0
-805 41 11 250 17 36 38 0
805 -41 0
805 -11 0
805 -250 0
805 -17 0
805 -36 0
805 -38 0
806 -60 -805 0
-806 60 0
-806 805 0
-807 6 806 0
807 -6 0
807 -806 0
808 -63 -807 0
-808 63 0
-808 807 0
-809 65 779 1 783 786 804 808 0
809 -65 0
809 -779 0
809 -1 0
809 -783 0
809 -786 0
809 -804 0
809 -808 0
810 -257 -809 0
-810 257 0
-810 809 0
-811 41 11 299 17 36 38 0
811 -41 0
811 -11 0
811 -299 0
811 -17 0
811 -36 0
811 -38 0
812 -302 -811 0
-812 302 0
-812 811 0
-813 304 812 0
813 -304 0
813 -812 0
814 -306 -813 0
-814 306 0
-814 813 0
-815 172 188 108 110 116 178 192 184 767 0
815 -172 0
815 -188 0
815 -108 0
815 -110 0
815 -116 0
815 -178 0
815 -192 0
815 -184 0
815 -767 0
816 -187 -815 0
-816 187 0
-816 815 0
817 -209 -815 0
-817 209 0
-817 815 0
-818 50 817 0
818 -50 0
818 -817 0
819 -49 -818 0
-819 49 0
-819 818 0
-820 172 188 108 110 116 178 192 184 800 0
820 -172 0
820 -188 0
820 -108 0
820 -110 0
820 -116 0
820 -178 0
820 -192 0
820 -184 0
820 -800 0
821 -201 -820 0
-821 201 0
-821 820 0
-822 16 821 432 0
822 -16 0
822 -821 0
822 -432 0
823 -56 -822 0
-823 56 0
-823 822 0
824 -60 -780 0
-824 60 0
-824 780 0
-825 6 824 0
825 -6 0
825 -824 0
826 -63 -825 0
-826 63 0
-826 825 0
-827 65 816 1 819 823 826 0
827 -65 0
827 -816 0
827 -1 0
827 -819 0
827 -823 0
827 -826 0
828 -79 -827 0
-828 79 0
-828 827 0
-829 172 188 108 110 116 178 326 184 767 0
829 -172 0
829 -188 0
829 -108 0
829 -110 0
829 -116 0
829 -178 0
829 -326 0
829 -184 0
829 -767 0
830 -187 -829 0
-830 187 0
-830 829 0
831 -209 -829 0
-831 209 0
-831 829 0
-832 50 831 0
832 -50 0
832 -831 0
833 -49 -832 0
-833 49 0
-833 832 0
-834 172 188 108 110 116 178 326 184 800 0
834 -172 0
834 -188 0
834 -108 0
834 -110 0
834 -116 0
834 -178 0
834 -326 0
834 -184 0
834 -800 0
835 -201 -834 0
-835 201 0
-835 834 0
-836 16 835 432 0
836 -16 0
836 -835 0
836 -432 0
837 -56 -836 0
-837 56 0
-837 836 0
-838 41 11 346 17 36 38 0
838 -41 0
838 -11 0
838 -346 0
838 -17 0
838 -36 0
838 -38 0
839 -60 -838 0
-839 60 0
-839 838 0
-840 6 839 0
840 -6 0
840 -839 0
841 -63 -840 0
-841 63 0
-841 840 0
-842 65 830 1 833 837 841 0
842 -65 0
842 -830 0
842 -1 0
842 -833 0
842 -837 0
842 -841 0
843 -67 -842 0
-843 67 0
-843 842 0
-844 172 108 110 116 178 326 184 767 0
844 -172 0
844 -108 0
844 -110 0
844 -116 0
844 -178 0
844 -326 0
844 -184 0
844 -767 0
845 -187 -844 0
-845 187 0
-845 844 0
846 -209 -844 0
-846 209 0
-846 844 0
-847 50 846 0
847 -50 0
847 -846 0
848 -49 -847 0
-848 49 0
-848 847 0
-849 172 108 110 116 178 326 184 800 0
849 -172 0
849 -108 0
849 -110 0
849 -116 0
849 -178 0
849 -326 0
849 -184 0
849 -800 0
850 -201 -849 0
-850 201 0
-850 849 0
-851 16 850 432 0
851 -16 0
851 -850 0
851 -432 0
852 -56 -851 0
-852 56 0
-852 851 0
-853 41 11 372 17 36 38 0
853 -41 0
853 -11 0
853 -372 0
853 -17 0
853 -36 0
853 -38 0
854 -60 -853 0
-854 60 0
-854 853 0
-855 6 854 0
855 -6 0
855 -854 0
856 -63 -855 0
-856 63 0
-856 855 0
-857 65 845 848 852 856 0
857 -65 0
857 -845 0
857 -848 0
857 -852 0
857 -856 0
858 -70 -857 0
-858 70 0
-858 857 0
-859 3 858 0
859 -3 0
859 -858 0
860 -73 -859 0
-860 73 0
-860 859 0
-861 84 843 860 74 0
861 -84 0
861 -843 0
861 -860 0
861 -74 0
862 -120 -861 0
-862 120 0
-862 861 0
-863 41 11 401 17 36 38 0
863 -41 0
863 -11 0
863 -401 0
863 -17 0
863 -36 0
863 -38 0
864 -43 -863 0
-864 43 0
-864 863 0
-865 45 828 862 864 0
865 -45 0
865 -828 0
865 -862 0
865 -864 0
866 -406 -865 0
-866 406 0
-866 865 0
-867 41 11 413 17 38 0
867 -41 0
867 -11 0
867 -413 0
867 -17 0
867 -38 0
868 -167 -867 0
-868 167 0
-868 867 0
-869 27 20 23 868 0
869 -27 0
869 -20 0
869 -23 0
869 -868 0
870 -29 -869 0
-870 29 0
-870 869 0
-871 31 870 0
871 -31 0
871 -870 0
872 -33 -871 0
-872 33 0
-872 871 0
-873 35 872 0
873 -35 0
873 -872 0
874 -422 -873 0
-874 422 0
-874 873 0
-875 424 769 810 814 866 874 0
875 -424 0
875 -769 0
875 -810 0
875 -814 0
875 -866 0
875 -874 0
876 -877 -875 0
-876 877 0
-876 875 0
878 -422 -34 0
-878 422 0
-878 34 0
-879 424 731 472 732 878 0
879 -424 0
879 -731 0
879 -472 0
879 -732 0
879 -878 0
880 -464 -879 0
-880 464 0
-880 879 0
-881 424 472 500 878 0
881 -424 0
881 -472 0
881 -500 0
881 -878 0
882 -469 -881 0
-882 469 0
-882 881 0
-883 3 882 0
883 -3 0
883 -882 0
884 -2 -883 0
-884 2 0
-884 883 0
-885 65 884 258 48 259 260 0
885 -65 0
885 -884 0
885 -258 0
885 -48 0
885 -259 0
885 -260 0
886 -67 -885 0
-886 67 0
-886 885 0
887 -406 -268 0
-887 406 0
-887 268 0
-888 424 558 472 887 878 0
888 -424 0
888 -558 0
888 -472 0
888 -887 0
888 -878 0
889 -533 -888 0
-889 533 0
-889 888 0
890 -257 -263 0
-890 257 0
-890 263 0
891 -79 -263 0
-891 79 0
-891 263 0
-892 45 891 0
892 -45 0
892 -891 0
893 -406 -892 0
-893 406 0
-893 892 0
-894 424 890 472 893 878 0
894 -424 0
894 -890 0
894 -472 0
894 -893 0
894 -878 0
895 -469 -894 0
-895 469 0
-895 894 0
-896 3 264 895 0
896 -3 0
896 -264 0
896 -895 0
897 -73 -896 0
-897 73 0
-897 896 0
-898 424 472 878 0
898 -424 0
898 -472 0
898 -878 0
899 -469 -898 0
-899 469 0
-899 898 0
-900 3 899 0
900 -3 0
900 -899 0
901 -2 -900 0
-901 2 0
-901 900 0
-902 65 901 48 259 260 0
902 -65 0
902 -901 0
902 -48 0
902 -259 0
902 -260 0
903 -79 -902 0
-903 79 0
-903 902 0
-904 45 903 0
904 -45 0
904 -903 0
905 -82 -904 0
-905 82 0
-905 904 0
-906 84 886 889 897 74 905 0
906 -84 0
906 -886 0
906 -889 0
906 -897 0
906 -74 0
906 -905 0
907 -86 -906 0
-907 86 0
-907 906 0
908 -533 -898 0
-908 533 0
-908 898 0
-909 84 908 74 0
909 -84 0
909 -908 0
909 -74 0
910 -120 -909 0
-910 120 0
-910 909 0
-911 45 910 0
911 -45 0
911 -910 0
912 -47 -911 0
-912 47 0
-912 911 0
-913 65 912 48 259 260 0
913 -65 0
913 -912 0
913 -48 0
913 -259 0
913 -260 0
914 -70 -913 0
-914 70 0
-914 913 0
915 -257 -274 0
-915 257 0
-915 274 0
916 -79 -384 0
-916 79 0
-916 384 0
917 -67 -263 0
-917 67 0
-917 263 0
-918 84 917 74 0
918 -84 0
918 -917 0
918 -74 0
919 -120 -918 0
-919 120 0
-919 918 0
-920 45 916 919 0
920 -45 0
920 -916 0
920 -919 0
921 -406 -920 0
-921 406 0
-921 920 0
-922 424 915 472 921 878 0
922 -424 0
922 -915 0
922 -472 0
922 -921 0
922 -878 0
923 -469 -922 0
-923 469 0
-923 922 0
-924 3 914 923 0
924 -3 0
924 -914 0
924 -923 0
925 -127 -924 0
-925 127 0
-925 924 0
-926 84 886 889 897 905 0
926 -84 0
926 -886 0
926 -889 0
926 -897 0
926 -905 0
927 -130 -926 0
-927 130 0
-927 926 0
-928 76 927 0
928 -76 0
928 -927 0
929 -133 -928 0
-929 133 0
-929 928 0
930 -67 -902 0
-930 67 0
-930 902 0
-931 424 558 472 878 0
931 -424 0
931 -558 0
931 -472 0
931 -878 0
932 -533 -931 0
-932 533 0
-932 931 0
-933 424 890 472 878 0
933 -424 0
933 -890 0
933 -472 0
933 -878 0
934 -469 -933 0
-934 469 0
-934 933 0
-935 3 264 934 0
935 -3 0
935 -264 0
935 -934 0
936 -73 -935 0
-936 73 0
-936 935 0
-937 84 930 932 936 74 0
937 -84 0
937 -930 0
937 -932 0
937 -936 0
937 -74 0
938 -120 -937 0
-938 120 0
-938 937 0
-939 45 903 938 0
939 -45 0
939 -903 0
939 -938 0
940 -143 -939 0
-940 143 0
-940 939 0
-941 424 472 585 878 0
941 -424 0
941 -472 0
941 -585 0
941 -878 0
942 -469 -941 0
-942 469 0
-942 941 0
-943 3 942 0
943 -3 0
943 -942 0
944 -2 -943 0
-944 2 0
-944 943 0
945 -73 -900 0
-945 73 0
-945 900 0
-946 84 908 945 74 0
946 -84 0
946 -908 0
946 -945 0
946 -74 0
947 -120 -946 0
-947 120 0
-947 946 0
-948 45 947 0
948 -45 0
948 -947 0
949 -47 -948 0
-949 47 0
-949 948 0
-950 65 944 949 48 259 260 0
950 -65 0
950 -944 0
950 -949 0
950 -48 0
950 -259 0
950 -260 0
951 -151 -950 0
-951 151 0
-951 950 0
-952 153 951 0
952 -153 0
952 -951 0
953 -155 -952 0
-953 155 0
-953 952 0
954 -24 -739 0
-954 24 0
-954 739 0
-955 27 156 161 954 0
955 -27 0
955 -156 0
955 -161 0
955 -954 0
956 -170 -955 0
-956 170 0
-956 955 0
-957 172 880 907 108 110 116 925 929 940 953 956 0
957 -172 0
957 -880 0
957 -907 0
957 -108 0
957 -110 0
957 -116 0
957 -925 0
957 -929 0
957 -940 0
957 -953 0
957 -956 0
958 -201 -957 0
-958 201 0
-958 957 0
-959 16 958 0
959 -16 0
959 -958 0
960 -15 -959 0
-960 15 0
-960 959 0
961 -174 -293 0
-961 174 0
-961 293 0
962 -187 -238 0
-962 187 0
-962 238 0
963 -209 -238 0
-963 209 0
-963 238 0
-964 50 963 0
964 -50 0
964 -963 0
965 -49 -964 0
-965 49 0
-965 964 0
966 -56 -249 0
-966 56 0
-966 249 0
-967 65 962 1 288 965 966 260 0
967 -65 0
967 -962 0
967 -1 0
967 -288 0
967 -965 0
967 -966 0
967 -260 0
968 -257 -967 0
-968 257 0
-968 967 0
969 -187 -195 0
-969 187 0
-969 195 0
970 -209 -195 0
-970 209 0
-970 195 0
-971 50 970 0
971 -50 0
971 -970 0
972 -49 -971 0
-972 49 0
-972 971 0
973 -56 -202 0
-973 56 0
-973 202 0
-974 65 969 1 972 973 260 0
974 -65 0
974 -969 0
974 -1 0
974 -972 0
974 -973 0
974 -260 0
975 -79 -974 0
-975 79 0
-975 974 0
976 -187 -334 0
-976 187 0
-976 334 0
977 -209 -334 0
-977 209 0
-977 334 0
-978 50 977 0
978 -50 0
978 -977 0
979 -49 -978 0
-979 49 0
-979 978 0
980 -56 -345 0
-980 56 0
-980 345 0
-981 65 976 1 979 980 260 0
981 -65 0
981 -976 0
981 -1 0
981 -979 0
981 -980 0
981 -260 0
982 -67 -981 0
-982 67 0
-982 981 0
983 -187 -360 0
-983 187 0
-983 360 0
984 -209 -360 0
-984 209 0
-984 360 0
-985 50 984 0
985 -50 0
985 -984 0
986 -49 -985 0
-986 49 0
-986 985 0
987 -56 -371 0
-987 56 0
-987 371 0
-988 65 983 986 987 260 0
988 -65 0
988 -983 0
988 -986 0
988 -987 0
988 -260 0
989 -70 -988 0
-989 70 0
-989 988 0
-990 3 989 0
990 -3 0
990 -989 0
991 -73 -990 0
-991 73 0
-991 990 0
-992 84 982 991 74 0
992 -84 0
992 -982 0
992 -991 0
992 -74 0
993 -120 -992 0
-993 120 0
-993 992 0
-994 45 975 993 0
994 -45 0
994 -975 0
994 -993 0
995 -406 -994 0
-995 406 0
-995 994 0
-996 424 961 968 472 995 0
996 -424 0
996 -961 0
996 -968 0
996 -472 0
996 -995 0
997 -475 -996 0
-997 475 0
-997 996 0
998 -174 -407 0
-998 174 0
-998 407 0
-999 172 231 108 110 116 178 235 237 184 0
999 -172 0
999 -231 0
999 -108 0
999 -110 0
999 -116 0
999 -178 0
999 -235 0
999 -237 0
999 -184 0
1000 -187 -999 0
-1000 187 0
-1000 999 0
1001 -209 -999 0
-1001 209 0
-1001 999 0
-1002 50 1001 0
1002 -50 0
1002 -1001 0
1003 -49 -1002 0
-1003 49 0
-1003 1002 0
1004 -201 -999 0
-1004 201 0
-1004 999 0
-1005 16 1004 0
1005 -16 0
1005 -1004 0
1006 -56 -1005 0
-1006 56 0
-1006 1005 0
-1007 65 1000 1 288 1003 1006 260 0
1007 -65 0
1007 -1000 0
1007 -1 0
1007 -288 0
1007 -1003 0
1007 -1006 0
1007 -260 0
1008 -257 -1007 0
-1008 257 0
-1008 1007 0
-1009 172 188 108 110 116 178 192 184 0
1009 -172 0
1009 -188 0
1009 -108 0
1009 -110 0
1009 -116 0
1009 -178 0
1009 -192 0
1009 -184 0
1010 -187 -1009 0
-1010 187 0
-1010 1009 0
1011 -209 -1009 0
-1011 209 0
-1011 1009 0
-1012 50 1011 0
1012 -50 0
1012 -1011 0
1013 -49 -1012 0
-1013 49 0
-1013 1012 0
1014 -201 -1009 0
-1014 201 0
-1014 1009 0
-1015 16 1014 0
1015 -16 0
1015 -1014 0
1016 -56 -1015 0
-1016 56 0
-1016 1015 0
-1017 65 1010 1 1013 1016 260 0
1017 -65 0
1017 -1010 0
1017 -1 0
1017 -1013 0
1017 -1016 0
1017 -260 0
1018 -79 -1017 0
-1018 79 0
-1018 1017 0
-1019 172 188 108 110 116 178 326 184 0
1019 -172 0
1019 -188 0
1019 -108 0
1019 -110 0
1019 -116 0
1019 -178 0
1019 -326 0
1019 -184 0
1020 -187 -1019 0
-1020 187 0
-1020 1019 0
1021 -209 -1019 0
-1021 209 0
-1021 1019 0
-1022 50 1021 0
1022 -50 0
1022 -1021 0
1023 -49 -1022 0
-1023 49 0
-1023 1022 0
1024 -201 -1019 0
-1024 201 0
-1024 1019 0
-1025 16 1024 0
1025 -16 0
1025 -1024 0
1026 -56 -1025 0
-1026 56 0
-1026 1025 0
-1027 65 1020 1 1023 1026 260 0
1027 -65 0
1027 -1020 0
1027 -1 0
1027 -1023 0
1027 -1026 0
1027 -260 0
1028 -67 -1027 0
-1028 67 0
-1028 1027 0
-1029 172 108 110 116 178 326 184 0
1029 -172 0
1029 -108 0
1029 -110 0
1029 -116 0
1029 -178 0
1029 -326 0
1029 -184 0
1030 -187 -1029 0
-1030 187 0
-1030 1029 0
1031 -209 -1029 0
-1031 209 0
-1031 1029 0
-1032 50 1031 0
1032 -50 0
1032 -1031 0
1033 -49 -1032 0
-1033 49 0
-1033 1032 0
1034 -201 -1029 0
-1034 201 0
-1034 1029 0
-1035 16 1034 0
1035 -16 0
1035 -1034 0
1036 -56 -1035 0
-1036 56 0
-1036 1035 0
-1037 65 1030 1033 1036 260 0
1037 -65 0
1037 -1030 0
1037 -1033 0
1037 -1036 0
1037 -260 0
1038 -70 -1037 0
-1038 70 0
-1038 1037 0
-1039 3 1038 0
1039 -3 0
1039 -1038 0
1040 -73 -1039 0
-1040 73 0
-1040 1039 0
-1041 84 1028 1040 74 0
1041 -84 0
1041 -1028 0
1041 -1040 0
1041 -74 0
1042 -120 -1041 0
-1042 120 0
-1042 1041 0
-1043 45 1018 1042 0
1043 -45 0
1043 -1018 0
1043 -1042 0
1044 -406 -1043 0
-1044 406 0
-1044 1043 0
-1045 424 998 1008 472 1044 0
1045 -424 0
1045 -998 0
1045 -1008 0
1045 -472 0
1045 -1044 0
1046 -477 -1045 0
-1046 477 0
-1046 1045 0
-1047 25 1046 0
1047 -25 0
1047 -1046 0
1048 -24 -1047 0
-1048 24 0
-1048 1047 0
-1049 27 20 1048 0
1049 -27 0
1049 -20 0
1049 -1048 0
1050 -29 -1049 0
-1050 29 0
-1050 1049 0
-1051 31 1050 0
1051 -31 0
1051 -1050 0
1052 -33 -1051 0
-1052 33 0
-1052 1051 0
-1053 35 997 1052 0
1053 -35 0
1053 -997 0
1053 -1052 0
1054 -37 -1053 0
-1054 37 0
-1054 1053 0
-1055 27 156 161 0
1055 -27 0
1055 -156 0
1055 -161 0
1056 -170 -1055 0
-1056 170 0
-1056 1055 0
-1057 172 271 108 110 116 277 281 287 292 1056 0
1057 -172 0
1057 -271 0
1057 -108 0
1057 -110 0
1057 -116 0
1057 -277 0
1057 -281 0
1057 -287 0
1057 -292 0
1057 -1056 0
1058 -174 -1057 0
-1058 174 0
-1058 1057 0
-1059 172 231 108 110 116 178 235 237 184 1056 0
1059 -172 0
1059 -231 0
1059 -108 0
1059 -110 0
1059 -116 0
1059 -178 0
1059 -235 0
1059 -237 0
1059 -184 0
1059 -1056 0
1060 -187 -1059 0
-1060 187 0
-1060 1059 0
1061 -209 -1059 0
-1061 209 0
-1061 1059 0
-1062 50 1061 0
1062 -50 0
1062 -1061 0
1063 -49 -1062 0
-1063 49 0
-1063 1062 0
1064 -201 -1059 0
-1064 201 0
-1064 1059 0
-1065 16 1064 0
1065 -16 0
1065 -1064 0
1066 -56 -1065 0
-1066 56 0
-1066 1065 0
-1067 65 1060 1 288 1063 1066 260 0
1067 -65 0
1067 -1060 0
1067 -1 0
1067 -288 0
1067 -1063 0
1067 -1066 0
1067 -260 0
1068 -257 -1067 0
-1068 257 0
-1068 1067 0
-1069 172 188 108 110 116 178 192 184 1056 0
1069 -172 0
1069 -188 0
1069 -108 0
1069 -110 0
1069 -116 0
1069 -178 0
1069 -192 0
1069 -184 0
1069 -1056 0
1070 -187 -1069 0
-1070 187 0
-1070 1069 0
1071 -209 -1069 0
-1071 209 0
-1071 1069 0
-1072 50 1071 0
1072 -50 0
1072 -1071 0
1073 -49 -1072 0
-1073 49 0
-1073 1072 0
1074 -201 -1069 0
-1074 201 0
-1074 1069 0
-1075 16 1074 0
1075 -16 0
1075 -1074 0
1076 -56 -1075 0
-1076 56 0
-1076 1075 0
-1077 65 1070 1 1073 1076 260 0
1077 -65 0
1077 -1070 0
1077 -1 0
1077 -1073 0
1077 -1076 0
1077 -260 0
1078 -79 -1077 0
-1078 79 0
-1078 1077 0
-1079 172 188 108 110 116 178 326 184 1056 0
1079 -172 0
1079 -188 0
1079 -108 0
1079 -110 0
1079 -116 0
1079 -178 0
1079 -326 0
1079 -184 0
1079 -1056 0
1080 -187 -1079 0
-1080 187 0
-1080 1079 0
1081 -209 -1079 0
-1081 209 0
-1081 1079 0
-1082 50 1081 0
1082 -50 0
1082 -1081 0
1083 -49 -1082 0
-1083 49 0
-1083 1082 0
1084 -201 -1079 0
-1084 201 0
-1084 1079 0
-1085 16 1084 0
1085 -16 0
1085 -1084 0
1086 -56 -1085 0
-1086 56 0
-1086 1085 0
-1087 65 1080 1 1083 1086 260 0
1087 -65 0
1087 -1080 0
1087 -1 0
1087 -1083 0
1087 -1086 0
1087 -260 0
1088 -67 -1087 0
-1088 67 0
-1088 1087 0
-1089 172 108 110 116 178 326 184 1056 0
1089 -172 0
1089 -108 0
1089 -110 0
1089 -116 0
1089 -178 0
1089 -326 0
1089 -184 0
1089 -1056 0
1090 -187 -1089 0
-1090 187 0
-1090 1089 0
1091 -209 -1089 0
-1091 209 0
-1091 1089 0
-1092 50 1091 0
1092 -50 0
1092 -1091 0
1093 -49 -1092 0
-1093 49 0
-1093 1092 0
1094 -201 -1089 0
-1094 201 0
-1094 1089 0
-1095 16 1094 0
1095 -16 0
1095 -1094 0
1096 -56 -1095 0
-1096 56 0
-1096 1095 0
-1097 65 1090 1093 1096 260 0
1097 -65 0
1097 -1090 0
1097 -1093 0
1097 -1096 0
1097 -260 0
1098 -70 -1097 0
-1098 70 0
-1098 1097 0
-1099 3 1098 0
1099 -3 0
1099 -1098 0
1100 -73 -1099 0
-1100 73 0
-1100 1099 0
-1101 84 1088 1100 74 0
1101 -84 0
1101 -1088 0
1101 -1100 0
1101 -74 0
1102 -120 -1101 0
-1102 120 0
-1102 1101 0
-1103 45 1078 1102 0
1103 -45 0
1103 -1078 0
1103 -1102 0
1104 -406 -1103 0
-1104 406 0
-1104 1103 0
-1105 424 1058 1068 472 1104 491 0
1105 -424 0
1105 -1058 0
1105 -1068 0
1105 -472 0
1105 -1104 0
1105 -491 0
1106 -477 -1105 0
-1106 477 0
-1106 1105 0
-1107 25 1106 0
1107 -25 0
1107 -1106 0
1108 -39 -1107 0
-1108 39 0
-1108 1107 0
-1109 41 11 960 17 1054 1108 0
1109 -41 0
1109 -11 0
1109 -960 0
1109 -17 0
1109 -1054 0
1109 -1108 0
1110 -60 -1109 0
-1110 60 0
-1110 1109 0
-1111 6 1110 0
1111 -6 0
1111 -1110 0
1112 -5 -1111 0
-1112 5 0
-1112 1111 0
1113 -1114 -1109 0
-1113 1114 0
-1113 1109 0
-1115 8 746 876 1112 1113 0
1115 -8 0
1115 -746 0
1115 -876 0
1115 -1112 0
1115 -1113 0
1116 -1117 -1115 0
-1116 1117 0
-1116 1115 0
1118 -1119 -19 0
-1118 1119 0
-1118 19 0
1120 -43 -165 0
-1120 43 0
-1120 165 0
-1121 45 1120 0
1121 -45 0
1121 -1120 0
1122 -47 -1121 0
-1122 47 0
-1122 1121 0
1123 -53 -223 0
-1123 53 0
-1123 223 0
-1124 16 1123 0
1124 -16 0
1124 -1123 0
1125 -56 -1124 0
-1125 56 0
-1125 1124 0
-1126 41 57 11 14 17 164 38 0
1126 -41 0
1126 -57 0
1126 -11 0
1126 -14 0
1126 -17 0
1126 -164 0
1126 -38 0
1127 -60 -1126 0
-1127 60 0
-1127 1126 0
-1128 6 1127 0
1128 -6 0
1128 -1127 0
1129 -63 -1128 0
-1129 63 0
-1129 1128 0
-1130 65 1 1122 48 1125 1129 0
1130 -65 0
1130 -1 0
1130 -1122 0
1130 -48 0
1130 -1125 0
1130 -1129 0
1131 -67 -1130 0
-1131 67 0
-1131 1130 0
-1132 65 1122 48 1125 1129 0
1132 -65 0
1132 -1122 0
1132 -48 0
1132 -1125 0
1132 -1129 0
1133 -70 -1132 0
-1133 70 0
-1133 1132 0
-1134 3 1133 0
1134 -3 0
1134 -1133 0
1135 -73 -1134 0
-1135 73 0
-1135 1134 0
-1136 65 1 48 1125 1129 0
1136 -65 0
1136 -1 0
1136 -48 0
1136 -1125 0
1136 -1129 0
1137 -79 -1136 0
-1137 79 0
-1137 1136 0
-1138 45 1137 1120 0
1138 -45 0
1138 -1137 0
1138 -1120 0
1139 -82 -1138 0
-1139 82 0
-1139 1138 0
-1140 84 1131 1135 74 1139 0
1140 -84 0
1140 -1131 0
1140 -1135 0
1140 -74 0
1140 -1139 0
1141 -86 -1140 0
-1141 86 0
-1141 1140 0
-1142 45 119 1120 0
1142 -45 0
1142 -119 0
1142 -1120 0
1143 -47 -1142 0
-1143 47 0
-1143 1142 0
-1144 65 1143 48 1125 1129 0
1144 -65 0
1144 -1143 0
1144 -48 0
1144 -1125 0
1144 -1129 0
1145 -70 -1144 0
-1145 70 0
-1145 1144 0
-1146 3 1145 0
1146 -3 0
1146 -1145 0
1147 -127 -1146 0
-1147 127 0
-1147 1146 0
-1148 84 1131 1135 1139 0
1148 -84 0
1148 -1131 0
1148 -1135 0
1148 -1139 0
1149 -130 -1148 0
-1149 130 0
-1149 1148 0
-1150 76 1149 0
1150 -76 0
1150 -1149 0
1151 -133 -1150 0
-1151 133 0
-1151 1150 0
1152 -67 -1136 0
-1152 67 0
-1152 1136 0
-1153 65 48 1125 1129 0
1153 -65 0
1153 -48 0
1153 -1125 0
1153 -1129 0
1154 -70 -1153 0
-1154 70 0
-1154 1153 0
-1155 3 1154 0
1155 -3 0
1155 -1154 0
1156 -73 -1155 0
-1156 73 0
-1156 1155 0
-1157 84 1152 1156 74 0
1157 -84 0
1157 -1152 0
1157 -1156 0
1157 -74 0
1158 -120 -1157 0
-1158 120 0
-1158 1157 0
-1159 45 1137 1158 1120 0
1159 -45 0
1159 -1137 0
1159 -1158 0
1159 -1120 0
1160 -143 -1159 0
-1160 143 0
-1160 1159 0
-1161 45 146 1120 0
1161 -45 0
1161 -146 0
1161 -1120 0
1162 -47 -1161 0
-1162 47 0
-1162 1161 0
-1163 65 1 1162 48 1125 1129 0
1163 -65 0
1163 -1 0
1163 -1162 0
1163 -48 0
1163 -1125 0
1163 -1129 0
1164 -151 -1163 0
-1164 151 0
-1164 1163 0
-1165 153 1164 0
1165 -153 0
1165 -1164 0
1166 -155 -1165 0
-1166 155 0
-1166 1165 0
-1167 172 1141 108 110 116 1147 1151 1160 1166 0
1167 -172 0
1167 -1141 0
1167 -108 0
1167 -110 0
1167 -116 0
1167 -1147 0
1167 -1151 0
1167 -1160 0
1167 -1166 0
1168 -174 -1167 0
-1168 174 0
-1168 1167 0
1169 -82 -1121 0
-1169 82 0
-1169 1121 0
-1170 84 144 74 1169 0
1170 -84 0
1170 -144 0
1170 -74 0
1170 -1169 0
1171 -86 -1170 0
-1171 86 0
-1171 1170 0
-1172 84 144 1169 0
1172 -84 0
1172 -144 0
1172 -1169 0
1173 -130 -1172 0
-1173 130 0
-1173 1172 0
-1174 76 1173 0
1174 -76 0
1174 -1173 0
1175 -133 -1174 0
-1175 133 0
-1175 1174 0
1176 -143 -1161 0
-1176 143 0
-1176 1161 0
-1177 172 1171 108 110 116 178 1175 1176 184 0
1177 -172 0
1177 -1171 0
1177 -108 0
1177 -110 0
1177 -116 0
1177 -178 0
1177 -1175 0
1177 -1176 0
1177 -184 0
1178 -187 -1177 0
-1178 187 0
-1178 1177 0
1179 -197 -1009 0
-1179 197 0
-1179 1009 0
-1180 8 1179 4 0
1180 -8 0
1180 -1179 0
1180 -4 0
1181 -10 -1180 0
-1181 10 0
-1181 1180 0
1182 -15 -1015 0
-1182 15 0
-1182 1015 0
-1183 41 1181 11 1182 17 164 38 0
1183 -41 0
1183 -1181 0
1183 -11 0
1183 -1182 0
1183 -17 0
1183 -164 0
1183 -38 0
1184 -43 -1183 0
-1184 43 0
-1184 1183 0
-1185 45 146 1184 0
1185 -45 0
1185 -146 0
1185 -1184 0
1186 -47 -1185 0
-1186 47 0
-1186 1185 0
1187 -209 -1177 0
-1187 209 0
-1187 1177 0
-1188 50 1187 0
1188 -50 0
1188 -1187 0
1189 -49 -1188 0
-1189 49 0
-1189 1188 0
1190 -43 -223 0
-1190 43 0
-1190 223 0
-1191 45 1190 0
1191 -45 0
1191 -1190 0
1192 -82 -1191 0
-1192 82 0
-1192 1191 0
-1193 84 144 74 1192 0
1193 -84 0
1193 -144 0
1193 -74 0
1193 -1192 0
1194 -86 -1193 0
-1194 86 0
-1194 1193 0
-1195 84 144 1192 0
1195 -84 0
1195 -144 0
1195 -1192 0
1196 -130 -1195 0
-1196 130 0
-1196 1195 0
-1197 76 1196 0
1197 -76 0
1197 -1196 0
1198 -133 -1197 0
-1198 133 0
-1198 1197 0
-1199 45 146 1190 0
1199 -45 0
1199 -146 0
1199 -1190 0
1200 -143 -1199 0
-1200 143 0
-1200 1199 0
-1201 172 1194 108 110 116 178 1198 1200 184 0
1201 -172 0
1201 -1194 0
1201 -108 0
1201 -110 0
1201 -116 0
1201 -178 0
1201 -1198 0
1201 -1200 0
1201 -184 0
1202 -201 -1201 0
-1202 201 0
-1202 1201 0
1203 -197 -999 0
-1203 197 0
-1203 999 0
-1204 8 1203 4 0
1204 -8 0
1204 -1203 0
1204 -4 0
1205 -10 -1204 0
-1205 10 0
-1205 1204 0
-1206 41 1205 11 17 164 38 0
1206 -41 0
1206 -1205 0
1206 -11 0
1206 -17 0
1206 -164 0
1206 -38 0
1207 -53 -1206 0
-1207 53 0
-1207 1206 0
-1208 16 1202 1207 0
1208 -16 0
1208 -1202 0
1208 -1207 0
1209 -56 -1208 0
-1209 56 0
-1209 1208 0
-1210 8 1203 0
1210 -8 0
1210 -1203 0
1211 -10 -1210 0
-1211 10 0
-1211 1210 0
1212 -15 -1005 0
-1212 15 0
-1212 1005 0
-1213 41 1211 11 1212 17 164 38 0
1213 -41 0
1213 -1211 0
1213 -11 0
1213 -1212 0
1213 -17 0
1213 -164 0
1213 -38 0
1214 -60 -1213 0
-1214 60 0
-1214 1213 0
-1215 6 1214 0
1215 -6 0
1215 -1214 0
1216 -63 -1215 0
-1216 63 0
-1216 1215 0
-1217 65 1178 1 1186 1189 1209 1216 0
1217 -65 0
1217 -1178 0
1217 -1 0
1217 -1186 0
1217 -1189 0
1217 -1209 0
1217 -1216 0
1218 -257 -1217 0
-1218 257 0
-1218 1217 0
-1219 41 410 11 413 17 164 38 0
1219 -41 0
1219 -410 0
1219 -11 0
1219 -413 0
1219 -17 0
1219 -164 0
1219 -38 0
1220 -302 -1219 0
-1220 302 0
-1220 1219 0
-1221 304 1220 0
1221 -304 0
1221 -1220 0
1222 -306 -1221 0
-1222 306 0
-1222 1221 0
-1223 41 1181 11 17 164 38 0
1223 -41 0
1223 -1181 0
1223 -11 0
1223 -17 0
1223 -164 0
1223 -38 0
1224 -53 -1223 0
-1224 53 0
-1224 1223 0
-1225 16 1014 1224 0
1225 -16 0
1225 -1014 0
1225 -1224 0
1226 -56 -1225 0
-1226 56 0
-1226 1225 0
-1227 8 1179 0
1227 -8 0
1227 -1179 0
1228 -10 -1227 0
-1228 10 0
-1228 1227 0
-1229 41 1228 11 1182 17 164 38 0
1229 -41 0
1229 -1228 0
1229 -11 0
1229 -1182 0
1229 -17 0
1229 -164 0
1229 -38 0
1230 -60 -1229 0
-1230 60 0
-1230 1229 0
-1231 6 1230 0
1231 -6 0
1231 -1230 0
1232 -63 -1231 0
-1232 63 0
-1232 1231 0
-1233 65 1010 1 1013 1226 1232 0
1233 -65 0
1233 -1010 0
1233 -1 0
1233 -1013 0
1233 -1226 0
1233 -1232 0
1234 -79 -1233 0
-1234 79 0
-1234 1233 0
1235 -197 -1019 0
-1235 197 0
-1235 1019 0
-1236 8 1235 4 0
1236 -8 0
1236 -1235 0
1236 -4 0
1237 -10 -1236 0
-1237 10 0
-1237 1236 0
-1238 41 1237 11 17 164 38 0
1238 -41 0
1238 -1237 0
1238 -11 0
1238 -17 0
1238 -164 0
1238 -38 0
1239 -53 -1238 0
-1239 53 0
-1239 1238 0
-1240 16 1024 1239 0
1240 -16 0
1240 -1024 0
1240 -1239 0
1241 -56 -1240 0
-1241 56 0
-1241 1240 0
-1242 8 1235 0
1242 -8 0
1242 -1235 0
1243 -10 -1242 0
-1243 10 0
-1243 1242 0
1244 -15 -1025 0
-1244 15 0
-1244 1025 0
-1245 41 1243 11 1244 17 164 38 0
1245 -41 0
1245 -1243 0
1245 -11 0
1245 -1244 0
1245 -17 0
1245 -164 0
1245 -38 0
1246 -60 -1245 0
-1246 60 0
-1246 1245 0
-1247 6 1246 0
1247 -6 0
1247 -1246 0
1248 -63 -1247 0
-1248 63 0
-1248 1247 0
-1249 65 1020 1 1023 1241 1248 0
1249 -65 0
1249 -1020 0
1249 -1 0
1249 -1023 0
1249 -1241 0
1249 -1248 0
1250 -67 -1249 0
-1250 67 0
-1250 1249 0
1251 -197 -1029 0
-1251 197 0
-1251 1029 0
-1252 8 1251 4 0
1252 -8 0
1252 -1251 0
1252 -4 0
1253 -10 -1252 0
-1253 10 0
-1253 1252 0
-1254 41 1253 11 17 164 38 0
1254 -41 0
1254 -1253 0
1254 -11 0
1254 -17 0
1254 -164 0
1254 -38 0
1255 -53 -1254 0
-1255 53 0
-1255 1254 0
-1256 16 1034 1255 0
1256 -16 0
1256 -1034 0
1256 -1255 0
1257 -56 -1256 0
-1257 56 0
-1257 1256 0
-1258 8 1251 0
1258 -8 0
1258 -1251 0
1259 -10 -1258 0
-1259 10 0
-1259 1258 0
1260 -15 -1035 0
-1260 15 0
-1260 1035 0
-1261 41 1259 11 1260 17 164 38 0
1261 -41 0
1261 -1259 0
1261 -11 0
1261 -1260 0
1261 -17 0
1261 -164 0
1261 -38 0
1262 -60 -1261 0
-1262 60 0
-1262 1261 0
-1263 6 1262 0
1263 -6 0
1263 -1262 0
1264 -63 -1263 0
-1264 63 0
-1264 1263 0
-1265 65 1030 1033 1257 1264 0
1265 -65 0
1265 -1030 0
1265 -1033 0
1265 -1257 0
1265 -1264 0
1266 -70 -1265 0
-1266 70 0
-1266 1265 0
-1267 3 1266 0
1267 -3 0
1267 -1266 0
1268 -73 -1267 0
-1268 73 0
-1268 1267 0
-1269 84 1250 1268 74 0
1269 -84 0
1269 -1250 0
1269 -1268 0
1269 -74 0
1270 -120 -1269 0
-1270 120 0
-1270 1269 0
-1271 172 383 108 110 116 387 391 394 0
1271 -172 0
1271 -383 0
1271 -108 0
1271 -110 0
1271 -116 0
1271 -387 0
1271 -391 0
1271 -394 0
1272 -197 -1271 0
-1272 197 0
-1272 1271 0
-1273 8 1272 4 0
1273 -8 0
1273 -1272 0
1273 -4 0
1274 -10 -1273 0
-1274 10 0
-1274 1273 0
1275 -201 -1271 0
-1275 201 0
-1275 1271 0
-1276 16 1275 0
1276 -16 0
1276 -1275 0
1277 -15 -1276 0
-1277 15 0
-1277 1276 0
-1278 41 1274 11 1277 17 164 38 0
1278 -41 0
1278 -1274 0
1278 -11 0
1278 -1277 0
1278 -17 0
1278 -164 0
1278 -38 0
1279 -43 -1278 0
-1279 43 0
-1279 1278 0
-1280 45 1234 1270 1279 0
1280 -45 0
1280 -1234 0
1280 -1270 0
1280 -1279 0
1281 -406 -1280 0
-1281 406 0
-1281 1280 0
-1282 424 1168 1218 1222 1281 726 0
1282 -424 0
1282 -1168 0
1282 -1218 0
1282 -1222 0
1282 -1281 0
1282 -726 0
1283 -477 -1282 0
-1283 477 0
-1283 1282 0
-1284 25 1283 0
1284 -25 0
1284 -1283 0
1285 -24 -1284 0
-1285 24 0
-1285 1284 0
1286 -464 -737 0
-1286 464 0
-1286 737 0
-1287 424 472 500 726 0
1287 -424 0
1287 -472 0
1287 -500 0
1287 -726 0
1288 -469 -1287 0
-1288 469 0
-1288 1287 0
-1289 3 1288 0
1289 -3 0
1289 -1288 0
1290 -2 -1289 0
-1290 2 0
-1290 1289 0
-1291 65 1290 258 48 259 260 0
1291 -65 0
1291 -1290 0
1291 -258 0
1291 -48 0
1291 -259 0
1291 -260 0
1292 -67 -1291 0
-1292 67 0
-1292 1291 0
-1293 424 558 472 887 726 0
1293 -424 0
1293 -558 0
1293 -472 0
1293 -887 0
1293 -726 0
1294 -533 -1293 0
-1294 533 0
-1294 1293 0
-1295 424 890 472 893 726 0
1295 -424 0
1295 -890 0
1295 -472 0
1295 -893 0
1295 -726 0
1296 -469 -1295 0
-1296 469 0
-1296 1295 0
-1297 3 264 1296 0
1297 -3 0
1297 -264 0
1297 -1296 0
1298 -73 -1297 0
-1298 73 0
-1298 1297 0
-1299 65 1290 48 259 260 0
1299 -65 0
1299 -1290 0
1299 -48 0
1299 -259 0
1299 -260 0
1300 -79 -1299 0
-1300 79 0
-1300 1299 0
-1301 45 1300 0
1301 -45 0
1301 -1300 0
1302 -82 -1301 0
-1302 82 0
-1302 1301 0
-1303 84 1292 1294 1298 74 1302 0
1303 -84 0
1303 -1292 0
1303 -1294 0
1303 -1298 0
1303 -74 0
1303 -1302 0
1304 -86 -1303 0
-1304 86 0
-1304 1303 0
1305 -533 -1287 0
-1305 533 0
-1305 1287 0
-1306 84 1305 74 0
1306 -84 0
1306 -1305 0
1306 -74 0
1307 -120 -1306 0
-1307 120 0
-1307 1306 0
-1308 45 1307 0
1308 -45 0
1308 -1307 0
1309 -47 -1308 0
-1309 47 0
-1309 1308 0
-1310 65 1309 48 259 260 0
1310 -65 0
1310 -1309 0
1310 -48 0
1310 -259 0
1310 -260 0
1311 -70 -1310 0
-1311 70 0
-1311 1310 0
-1312 424 915 472 921 726 0
1312 -424 0
1312 -915 0
1312 -472 0
1312 -921 0
1312 -726 0
1313 -469 -1312 0
-1313 469 0
-1313 1312 0
-1314 3 1311 1313 0
1314 -3 0
1314 -1311 0
1314 -1313 0
1315 -127 -1314 0
-1315 127 0
-1315 1314 0
-1316 84 1292 1294 1298 1302 0
1316 -84 0
1316 -1292 0
1316 -1294 0
1316 -1298 0
1316 -1302 0
1317 -130 -1316 0
-1317 130 0
-1317 1316 0
-1318 76 1317 0
1318 -76 0
1318 -1317 0
1319 -133 -1318 0
-1319 133 0
-1319 1318 0
-1320 424 472 726 0
1320 -424 0
1320 -472 0
1320 -726 0
1321 -469 -1320 0
-1321 469 0
-1321 1320 0
-1322 3 1321 0
1322 -3 0
1322 -1321 0
1323 -2 -1322 0
-1323 2 0
-1323 1322 0
-1324 65 1323 48 259 260 0
1324 -65 0
1324 -1323 0
1324 -48 0
1324 -259 0
1324 -260 0
1325 -79 -1324 0
-1325 79 0
-1325 1324 0
1326 -67 -1299 0
-1326 67 0
-1326 1299 0
-1327 424 558 472 726 0
1327 -424 0
1327 -558 0
1327 -472 0
1327 -726 0
1328 -533 -1327 0
-1328 533 0
-1328 1327 0
-1329 424 890 472 726 0
1329 -424 0
1329 -890 0
1329 -472 0
1329 -726 0
1330 -469 -1329 0
-1330 469 0
-1330 1329 0
-1331 3 264 1330 0
1331 -3 0
1331 -264 0
1331 -1330 0
1332 -73 -1331 0
-1332 73 0
-1332 1331 0
-1333 84 1326 1328 1332 74 0
1333 -84 0
1333 -1326 0
1333 -1328 0
1333 -1332 0
1333 -74 0
1334 -120 -1333 0
-1334 120 0
-1334 1333 0
-1335 45 1325 1334 0
1335 -45 0
1335 -1325 0
1335 -1334 0
1336 -143 -1335 0
-1336 143 0
-1336 1335 0
-1337 424 472 585 726 0
1337 -424 0
1337 -472 0
1337 -585 0
1337 -726 0
1338 -469 -1337 0
-1338 469 0
-1338 1337 0
-1339 3 1338 0
1339 -3 0
1339 -1338 0
1340 -2 -1339 0
-1340 2 0
-1340 1339 0
1341 -73 -1289 0
-1341 73 0
-1341 1289 0
-1342 84 1305 1341 74 0
1342 -84 0
1342 -1305 0
1342 -1341 0
1342 -74 0
1343 -120 -1342 0
-1343 120 0
-1343 1342 0
-1344 45 1343 0
1344 -45 0
1344 -1343 0
1345 -47 -1344 0
-1345 47 0
-1345 1344 0
-1346 65 1340 1345 48 259 260 0
1346 -65 0
1346 -1340 0
1346 -1345 0
1346 -48 0
1346 -259 0
1346 -260 0
1347 -151 -1346 0
-1347 151 0
-1347 1346 0
-1348 153 1347 0
1348 -153 0
1348 -1347 0
1349 -155 -1348 0
-1349 155 0
-1349 1348 0
-1350 172 1286 1304 108 110 116 1315 1319 1336 1349 0
1350 -172 0
1350 -1286 0
1350 -1304 0
1350 -108 0
1350 -110 0
1350 -116 0
1350 -1315 0
1350 -1319 0
1350 -1336 0
1350 -1349 0
1351 -197 -1350 0
-1351 197 0
-1351 1350 0
-1352 424 998 1008 472 1044 726 0
1352 -424 0
1352 -998 0
1352 -1008 0
1352 -472 0
1352 -1044 0
1352 -726 0
1353 -877 -1352 0
-1353 877 0
-1353 1352 0
-1354 8 1351 1353 4 0
1354 -8 0
1354 -1351 0
1354 -1353 0
1354 -4 0
1355 -10 -1354 0
-1355 10 0
-1355 1354 0
1356 -201 -1350 0
-1356 201 0
-1356 1350 0
-1357 16 1356 0
1357 -16 0
1357 -1356 0
1358 -15 -1357 0
-1358 15 0
-1358 1357 0
1359 -475 -1045 0
-1359 475 0
-1359 1045 0
-1360 35 1359 162 0
1360 -35 0
1360 -1359 0
1360 -162 0
1361 -37 -1360 0
-1361 37 0
-1361 1360 0
1362 -477 -1352 0
-1362 477 0
-1362 1352 0
-1363 25 1362 0
1363 -25 0
1363 -1362 0
1364 -39 -1363 0
-1364 39 0
-1364 1363 0
-1365 41 1355 11 1358 17 1361 1364 0
1365 -41 0
1365 -1355 0
1365 -11 0
1365 -1358 0
1365 -17 0
1365 -1361 0
1365 -1364 0
1366 -167 -1365 0
-1366 167 0
-1366 1365 0
-1367 27 1285 1366 0
1367 -27 0
1367 -1285 0
1367 -1366 0
1368 -29 -1367 0
-1368 29 0
-1368 1367 0
-1369 31 1368 0
1369 -31 0
1369 -1368 0
1370 -159 -1369 0
-1370 159 0
-1370 1369 0
-1371 22 1370 0
1371 -22 0
1371 -1370 0
1372 -1373 -1371 0
-1372 1373 0
-1372 1371 0
-1374 41 9 11 14 17 38 0
1374 -41 0
1374 -9 0
1374 -11 0
1374 -14 0
1374 -17 0
1374 -38 0
1375 -43 -1374 0
-1375 43 0
-1375 1374 0
-1376 45 1375 0
1376 -45 0
1376 -1375 0
1377 -47 -1376 0
-1377 47 0
-1377 1376 0
-1378 41 9 11 17 38 0
1378 -41 0
1378 -9 0
1378 -11 0
1378 -17 0
1378 -38 0
1379 -53 -1378 0
-1379 53 0
-1379 1378 0
-1380 16 1379 0
1380 -16 0
1380 -1379 0
1381 -56 -1380 0
-1381 56 0
-1381 1380 0
-1382 41 57 11 14 17 38 0
1382 -41 0
1382 -57 0
1382 -11 0
1382 -14 0
1382 -17 0
1382 -38 0
1383 -60 -1382 0
-1383 60 0
-1383 1382 0
-1384 6 1383 0
1384 -6 0
1384 -1383 0
1385 -63 -1384 0
-1385 63 0
-1385 1384 0
-1386 65 1 1377 48 1381 1385 0
1386 -65 0
1386 -1 0
1386 -1377 0
1386 -48 0
1386 -1381 0
1386 -1385 0
1387 -67 -1386 0
-1387 67 0
-1387 1386 0
-1388 65 1377 48 1381 1385 0
1388 -65 0
1388 -1377 0
1388 -48 0
1388 -1381 0
1388 -1385 0
1389 -70 -1388 0
-1389 70 0
-1389 1388 0
-1390 3 1389 0
1390 -3 0
1390 -1389 0
1391 -73 -1390 0
-1391 73 0
-1391 1390 0
-1392 65 1 48 1381 1385 0
1392 -65 0
1392 -1 0
1392 -48 0
1392 -1381 0
1392 -1385 0
1393 -79 -1392 0
-1393 79 0
-1393 1392 0
-1394 45 1393 1375 0
1394 -45 0
1394 -1393 0
1394 -1375 0
1395 -82 -1394 0
-1395 82 0
-1395 1394 0
-1396 84 1387 1391 74 1395 0
1396 -84 0
1396 -1387 0
1396 -1391 0
1396 -74 0
1396 -1395 0
1397 -86 -1396 0
-1397 86 0
-1397 1396 0
-1398 45 119 1375 0
1398 -45 0
1398 -119 0
1398 -1375 0
1399 -47 -1398 0
-1399 47 0
-1399 1398 0
-1400 65 1399 48 1381 1385 0
1400 -65 0
1400 -1399 0
1400 -48 0
1400 -1381 0
1400 -1385 0
1401 -70 -1400 0
-1401 70 0
-1401 1400 0
-1402 3 1401 0
1402 -3 0
1402 -1401 0
1403 -127 -1402 0
-1403 127 0
-1403 1402 0
-1404 84 1387 1391 1395 0
1404 -84 0
1404 -1387 0
1404 -1391 0
1404 -1395 0
1405 -130 -1404 0
-1405 130 0
-1405 1404 0
-1406 76 1405 0
1406 -76 0
1406 -1405 0
1407 -133 -1406 0
-1407 133 0
-1407 1406 0
1408 -67 -1392 0
-1408 67 0
-1408 1392 0
-1409 65 48 1381 1385 0
1409 -65 0
1409 -48 0
1409 -1381 0
1409 -1385 0
1410 -70 -1409 0
-1410 70 0
-1410 1409 0
-1411 3 1410 0
1411 -3 0
1411 -1410 0
1412 -73 -1411 0
-1412 73 0
-1412 1411 0
-1413 84 1408 1412 74 0
1413 -84 0
1413 -1408 0
1413 -1412 0
1413 -74 0
1414 -120 -1413 0
-1414 120 0
-1414 1413 0
-1415 45 1393 1414 1375 0
1415 -45 0
1415 -1393 0
1415 -1414 0
1415 -1375 0
1416 -143 -1415 0
-1416 143 0
-1416 1415 0
-1417 45 146 1375 0
1417 -45 0
1417 -146 0
1417 -1375 0
1418 -47 -1417 0
-1418 47 0
-1418 1417 0
-1419 65 1 1418 48 1381 1385 0
1419 -65 0
1419 -1 0
1419 -1418 0
1419 -48 0
1419 -1381 0
1419 -1385 0
1420 -151 -1419 0
-1420 151 0
-1420 1419 0
-1421 153 1420 0
1421 -153 0
1421 -1420 0
1422 -155 -1421 0
-1422 155 0
-1422 1421 0
1423 -167 -1374 0
-1423 167 0
-1423 1374 0
-1424 27 156 161 23 1423 0
1424 -27 0
1424 -156 0
1424 -161 0
1424 -23 0
1424 -1423 0
1425 -170 -1424 0
-1425 170 0
-1425 1424 0
-1426 172 1397 108 110 116 1403 1407 1416 1422 1425 0
1426 -172 0
1426 -1397 0
1426 -108 0
1426 -110 0
1426 -116 0
1426 -1403 0
1426 -1407 0
1426 -1416 0
1426 -1422 0
1426 -1425 0
1427 -174 -1426 0
-1427 174 0
-1427 1426 0
1428 -82 -1376 0
-1428 82 0
-1428 1376 0
-1429 84 144 74 1428 0
1429 -84 0
1429 -144 0
1429 -74 0
1429 -1428 0
1430 -86 -1429 0
-1430 86 0
-1430 1429 0
-1431 84 144 1428 0
1431 -84 0
1431 -144 0
1431 -1428 0
1432 -130 -1431 0
-1432 130 0
-1432 1431 0
-1433 76 1432 0
1433 -76 0
1433 -1432 0
1434 -133 -1433 0
-1434 133 0
-1434 1433 0
1435 -143 -1417 0
-1435 143 0
-1435 1417 0
-1436 172 1430 108 110 116 178 1434 1435 184 1425 0
1436 -172 0
1436 -1430 0
1436 -108 0
1436 -110 0
1436 -116 0
1436 -178 0
1436 -1434 0
1436 -1435 0
1436 -184 0
1436 -1425 0
1437 -187 -1436 0
-1437 187 0
-1437 1436 0
-1438 41 199 11 203 17 38 0
1438 -41 0
1438 -199 0
1438 -11 0
1438 -203 0
1438 -17 0
1438 -38 0
1439 -43 -1438 0
-1439 43 0
-1439 1438 0
-1440 45 146 1439 0
1440 -45 0
1440 -146 0
1440 -1439 0
1441 -47 -1440 0
-1441 47 0
-1441 1440 0
1442 -209 -1436 0
-1442 209 0
-1442 1436 0
-1443 50 1442 0
1443 -50 0
1443 -1442 0
1444 -49 -1443 0
-1444 49 0
-1444 1443 0
1445 -43 -1378 0
-1445 43 0
-1445 1378 0
-1446 45 1445 0
1446 -45 0
1446 -1445 0
1447 -82 -1446 0
-1447 82 0
-1447 1446 0
-1448 84 144 74 1447 0
1448 -84 0
1448 -144 0
1448 -74 0
1448 -1447 0
1449 -86 -1448 0
-1449 86 0
-1449 1448 0
-1450 84 144 1447 0
1450 -84 0
1450 -144 0
1450 -1447 0
1451 -130 -1450 0
-1451 130 0
-1451 1450 0
-1452 76 1451 0
1452 -76 0
1452 -1451 0
1453 -133 -1452 0
-1453 133 0
-1453 1452 0
-1454 45 146 1445 0
1454 -45 0
1454 -146 0
1454 -1445 0
1455 -143 -1454 0
-1455 143 0
-1455 1454 0
1456 -167 -1378 0
-1456 167 0
-1456 1378 0
-1457 27 156 161 23 1456 0
1457 -27 0
1457 -156 0
1457 -161 0
1457 -23 0
1457 -1456 0
1458 -170 -1457 0
-1458 170 0
-1458 1457 0
-1459 172 1449 108 110 116 178 1453 1455 184 1458 0
1459 -172 0
1459 -1449 0
1459 -108 0
1459 -110 0
1459 -116 0
1459 -178 0
1459 -1453 0
1459 -1455 0
1459 -184 0
1459 -1458 0
1460 -201 -1459 0
-1460 201 0
-1460 1459 0
-1461 41 241 11 17 38 0
1461 -41 0
1461 -241 0
1461 -11 0
1461 -17 0
1461 -38 0
1462 -53 -1461 0
-1462 53 0
-1462 1461 0
-1463 16 1460 1462 0
1463 -16 0
1463 -1460 0
1463 -1462 0
1464 -56 -1463 0
-1464 56 0
-1464 1463 0
-1465 41 247 11 250 17 38 0
1465 -41 0
1465 -247 0
1465 -11 0
1465 -250 0
1465 -17 0
1465 -38 0
1466 -60 -1465 0
-1466 60 0
-1466 1465 0
-1467 6 1466 0
1467 -6 0
1467 -1466 0
1468 -63 -1467 0
-1468 63 0
-1468 1467 0
-1469 65 1437 1 1441 1444 1464 1468 0
1469 -65 0
1469 -1437 0
1469 -1 0
1469 -1441 0
1469 -1444 0
1469 -1464 0
1469 -1468 0
1470 -257 -1469 0
-1470 257 0
-1470 1469 0
-1471 41 296 11 299 17 38 0
1471 -41 0
1471 -296 0
1471 -11 0
1471 -299 0
1471 -17 0
1471 -38 0
1472 -302 -1471 0
-1472 302 0
-1472 1471 0
-1473 304 1472 0
1473 -304 0
1473 -1472 0
1474 -306 -1473 0
-1474 306 0
-1474 1473 0
-1475 172 188 108 110 116 178 192 184 1425 0
1475 -172 0
1475 -188 0
1475 -108 0
1475 -110 0
1475 -116 0
1475 -178 0
1475 -192 0
1475 -184 0
1475 -1425 0
1476 -187 -1475 0
-1476 187 0
-1476 1475 0
1477 -209 -1475 0
-1477 209 0
-1477 1475 0
-1478 50 1477 0
1478 -50 0
1478 -1477 0
1479 -49 -1478 0
-1479 49 0
-1479 1478 0
-1480 172 188 108 110 116 178 192 184 1458 0
1480 -172 0
1480 -188 0
1480 -108 0
1480 -110 0
1480 -116 0
1480 -178 0
1480 -192 0
1480 -184 0
1480 -1458 0
1481 -201 -1480 0
-1481 201 0
-1481 1480 0
-1482 41 199 11 17 38 0
1482 -41 0
1482 -199 0
1482 -11 0
1482 -17 0
1482 -38 0
1483 -53 -1482 0
-1483 53 0
-1483 1482 0
-1484 16 1481 1483 0
1484 -16 0
1484 -1481 0
1484 -1483 0
1485 -56 -1484 0
-1485 56 0
-1485 1484 0
-1486 41 319 11 203 17 38 0
1486 -41 0
1486 -319 0
1486 -11 0
1486 -203 0
1486 -17 0
1486 -38 0
1487 -60 -1486 0
-1487 60 0
-1487 1486 0
-1488 6 1487 0
1488 -6 0
1488 -1487 0
1489 -63 -1488 0
-1489 63 0
-1489 1488 0
-1490 65 1476 1 1479 1485 1489 0
1490 -65 0
1490 -1476 0
1490 -1 0
1490 -1479 0
1490 -1485 0
1490 -1489 0
1491 -79 -1490 0
-1491 79 0
-1491 1490 0
-1492 172 188 108 110 116 178 326 184 1425 0
1492 -172 0
1492 -188 0
1492 -108 0
1492 -110 0
1492 -116 0
1492 -178 0
1492 -326 0
1492 -184 0
1492 -1425 0
1493 -187 -1492 0
-1493 187 0
-1493 1492 0
1494 -209 -1492 0
-1494 209 0
-1494 1492 0
-1495 50 1494 0
1495 -50 0
1495 -1494 0
1496 -49 -1495 0
-1496 49 0
-1496 1495 0
-1497 172 188 108 110 116 178 326 184 1458 0
1497 -172 0
1497 -188 0
1497 -108 0
1497 -110 0
1497 -116 0
1497 -178 0
1497 -326 0
1497 -184 0
1497 -1458 0
1498 -201 -1497 0
-1498 201 0
-1498 1497 0
-1499 41 337 11 17 38 0
1499 -41 0
1499 -337 0
1499 -11 0
1499 -17 0
1499 -38 0
1500 -53 -1499 0
-1500 53 0
-1500 1499 0
-1501 16 1498 1500 0
1501 -16 0
1501 -1498 0
1501 -1500 0
1502 -56 -1501 0
-1502 56 0
-1502 1501 0
-1503 41 343 11 346 17 38 0
1503 -41 0
1503 -343 0
1503 -11 0
1503 -346 0
1503 -17 0
1503 -38 0
1504 -60 -1503 0
-1504 60 0
-1504 1503 0
-1505 6 1504 0
1505 -6 0
1505 -1504 0
1506 -63 -1505 0
-1506 63 0
-1506 1505 0
-1507 65 1493 1 1496 1502 1506 0
1507 -65 0
1507 -1493 0
1507 -1 0
1507 -1496 0
1507 -1502 0
1507 -1506 0
1508 -67 -1507 0
-1508 67 0
-1508 1507 0
-1509 172 108 110 116 178 326 184 1425 0
1509 -172 0
1509 -108 0
1509 -110 0
1509 -116 0
1509 -178 0
1509 -326 0
1509 -184 0
1509 -1425 0
1510 -187 -1509 0
-1510 187 0
-1510 1509 0
1511 -209 -1509 0
-1511 209 0
-1511 1509 0
-1512 50 1511 0
1512 -50 0
1512 -1511 0
1513 -49 -1512 0
-1513 49 0
-1513 1512 0
-1514 172 108 110 116 178 326 184 1458 0
1514 -172 0
1514 -108 0
1514 -110 0
1514 -116 0
1514 -178 0
1514 -326 0
1514 -184 0
1514 -1458 0
1515 -201 -1514 0
-1515 201 0
-1515 1514 0
-1516 41 363 11 17 38 0
1516 -41 0
1516 -363 0
1516 -11 0
1516 -17 0
1516 -38 0
1517 -53 -1516 0
-1517 53 0
-1517 1516 0
-1518 16 1515 1517 0
1518 -16 0
1518 -1515 0
1518 -1517 0
1519 -56 -1518 0
-1519 56 0
-1519 1518 0
-1520 41 369 11 372 17 38 0
1520 -41 0
1520 -369 0
1520 -11 0
1520 -372 0
1520 -17 0
1520 -38 0
1521 -60 -1520 0
-1521 60 0
-1521 1520 0
-1522 6 1521 0
1522 -6 0
1522 -1521 0
1523 -63 -1522 0
-1523 63 0
-1523 1522 0
-1524 65 1510 1513 1519 1523 0
1524 -65 0
1524 -1510 0
1524 -1513 0
1524 -1519 0
1524 -1523 0
1525 -70 -1524 0
-1525 70 0
-1525 1524 0
-1526 3 1525 0
1526 -3 0
1526 -1525 0
1527 -73 -1526 0
-1527 73 0
-1527 1526 0
-1528 84 1508 1527 74 0
1528 -84 0
1528 -1508 0
1528 -1527 0
1528 -74 0
1529 -120 -1528 0
-1529 120 0
-1529 1528 0
-1530 41 398 11 401 17 38 0
1530 -41 0
1530 -398 0
1530 -11 0
1530 -401 0
1530 -17 0
1530 -38 0
1531 -43 -1530 0
-1531 43 0
-1531 1530 0
-1532 45 1491 1529 1531 0
1532 -45 0
1532 -1491 0
1532 -1529 0
1532 -1531 0
1533 -406 -1532 0
-1533 406 0
-1533 1532 0
-1534 424 1427 1470 1474 1533 0
1534 -424 0
1534 -1427 0
1534 -1470 0
1534 -1474 0
1534 -1533 0
1535 -475 -1534 0
-1535 475 0
-1535 1534 0
-1536 172 1397 108 110 116 1403 1407 1416 1422 0
1536 -172 0
1536 -1397 0
1536 -108 0
1536 -110 0
1536 -116 0
1536 -1403 0
1536 -1407 0
1536 -1416 0
1536 -1422 0
1537 -174 -1536 0
-1537 174 0
-1537 1536 0
-1538 172 1430 108 110 116 178 1434 1435 184 0
1538 -172 0
1538 -1430 0
1538 -108 0
1538 -110 0
1538 -116 0
1538 -178 0
1538 -1434 0
1538 -1435 0
1538 -184 0
1539 -187 -1538 0
-1539 187 0
-1539 1538 0
-1540 41 1181 11 1182 17 38 0
1540 -41 0
1540 -1181 0
1540 -11 0
1540 -1182 0
1540 -17 0
1540 -38 0
1541 -43 -1540 0
-1541 43 0
-1541 1540 0
-1542 45 146 1541 0
1542 -45 0
1542 -146 0
1542 -1541 0
1543 -47 -1542 0
-1543 47 0
-1543 1542 0
1544 -209 -1538 0
-1544 209 0
-1544 1538 0
-1545 50 1544 0
1545 -50 0
1545 -1544 0
1546 -49 -1545 0
-1546 49 0
-1546 1545 0
-1547 172 1449 108 110 116 178 1453 1455 184 0
1547 -172 0
1547 -1449 0
1547 -108 0
1547 -110 0
1547 -116 0
1547 -178 0
1547 -1453 0
1547 -1455 0
1547 -184 0
1548 -201 -1547 0
-1548 201 0
-1548 1547 0
-1549 41 1205 11 17 38 0
1549 -41 0
1549 -1205 0
1549 -11 0
1549 -17 0
1549 -38 0
1550 -53 -1549 0
-1550 53 0
-1550 1549 0
-1551 16 1548 1550 0
1551 -16 0
1551 -1548 0
1551 -1550 0
1552 -56 -1551 0
-1552 56 0
-1552 1551 0
-1553 41 1211 11 1212 17 38 0
1553 -41 0
1553 -1211 0
1553 -11 0
1553 -1212 0
1553 -17 0
1553 -38 0
1554 -60 -1553 0
-1554 60 0
-1554 1553 0
-1555 6 1554 0
1555 -6 0
1555 -1554 0
1556 -63 -1555 0
-1556 63 0
-1556 1555 0
-1557 65 1539 1 1543 1546 1552 1556 0
1557 -65 0
1557 -1539 0
1557 -1 0
1557 -1543 0
1557 -1546 0
1557 -1552 0
1557 -1556 0
1558 -257 -1557 0
-1558 257 0
-1558 1557 0
1559 -302 -414 0
-1559 302 0
-1559 414 0
-1560 304 1559 0
1560 -304 0
1560 -1559 0
1561 -306 -1560 0
-1561 306 0
-1561 1560 0
-1562 41 1181 11 17 38 0
1562 -41 0
1562 -1181 0
1562 -11 0
1562 -17 0
1562 -38 0
1563 -53 -1562 0
-1563 53 0
-1563 1562 0
-1564 16 1014 1563 0
1564 -16 0
1564 -1014 0
1564 -1563 0
1565 -56 -1564 0
-1565 56 0
-1565 1564 0
-1566 41 1228 11 1182 17 38 0
1566 -41 0
1566 -1228 0
1566 -11 0
1566 -1182 0
1566 -17 0
1566 -38 0
1567 -60 -1566 0
-1567 60 0
-1567 1566 0
-1568 6 1567 0
1568 -6 0
1568 -1567 0
1569 -63 -1568 0
-1569 63 0
-1569 1568 0
-1570 65 1010 1 1013 1565 1569 0
1570 -65 0
1570 -1010 0
1570 -1 0
1570 -1013 0
1570 -1565 0
1570 -1569 0
1571 -79 -1570 0
-1571 79 0
-1571 1570 0
-1572 41 1237 11 17 38 0
1572 -41 0
1572 -1237 0
1572 -11 0
1572 -17 0
1572 -38 0
1573 -53 -1572 0
-1573 53 0
-1573 1572 0
-1574 16 1024 1573 0
1574 -16 0
1574 -1024 0
1574 -1573 0
1575 -56 -1574 0
-1575 56 0
-1575 1574 0
-1576 41 1243 11 1244 17 38 0
1576 -41 0
1576 -1243 0
1576 -11 0
1576 -1244 0
1576 -17 0
1576 -38 0
1577 -60 -1576 0
-1577 60 0
-1577 1576 0
-1578 6 1577 0
1578 -6 0
1578 -1577 0
1579 -63 -1578 0
-1579 63 0
-1579 1578 0
-1580 65 1020 1 1023 1575 1579 0
1580 -65 0
1580 -1020 0
1580 -1 0
1580 -1023 0
1580 -1575 0
1580 -1579 0
1581 -67 -1580 0
-1581 67 0
-1581 1580 0
-1582 41 1253 11 17 38 0
1582 -41 0
1582 -1253 0
1582 -11 0
1582 -17 0
1582 -38 0
1583 -53 -1582 0
-1583 53 0
-1583 1582 0
-1584 16 1034 1583 0
1584 -16 0
1584 -1034 0
1584 -1583 0
1585 -56 -1584 0
-1585 56 0
-1585 1584 0
-1586 41 1259 11 1260 17 38 0
1586 -41 0
1586 -1259 0
1586 -11 0
1586 -1260 0
1586 -17 0
1586 -38 0
1587 -60 -1586 0
-1587 60 0
-1587 1586 0
-1588 6 1587 0
1588 -6 0
1588 -1587 0
1589 -63 -1588 0
-1589 63 0
-1589 1588 0
-1590 65 1030 1033 1585 1589 0
1590 -65 0
1590 -1030 0
1590 -1033 0
1590 -1585 0
1590 -1589 0
1591 -70 -1590 0
-1591 70 0
-1591 1590 0
-1592 3 1591 0
1592 -3 0
1592 -1591 0
1593 -73 -1592 0
-1593 73 0
-1593 1592 0
-1594 84 1581 1593 74 0
1594 -84 0
1594 -1581 0
1594 -1593 0
1594 -74 0
1595 -120 -1594 0
-1595 120 0
-1595 1594 0
-1596 41 1274 11 1277 17 38 0
1596 -41 0
1596 -1274 0
1596 -11 0
1596 -1277 0
1596 -17 0
1596 -38 0
1597 -43 -1596 0
-1597 43 0
-1597 1596 0
-1598 45 1571 1595 1597 0
1598 -45 0
1598 -1571 0
1598 -1595 0
1598 -1597 0
1599 -406 -1598 0
-1599 406 0
-1599 1598 0
-1600 424 1537 1558 1561 1599 0
1600 -424 0
1600 -1537 0
1600 -1558 0
1600 -1561 0
1600 -1599 0
1601 -477 -1600 0
-1601 477 0
-1601 1600 0
-1602 25 1601 0
1602 -25 0
1602 -1601 0
1603 -24 -1602 0
-1603 24 0
-1603 1602 0
1604 -464 -733 0
-1604 464 0
-1604 733 0
1605 -469 -501 0
-1605 469 0
-1605 501 0
-1606 3 1605 0
1606 -3 0
1606 -1605 0
1607 -2 -1606 0
-1607 2 0
-1607 1606 0
-1608 65 1607 258 48 259 260 0
1608 -65 0
1608 -1607 0
1608 -258 0
1608 -48 0
1608 -259 0
1608 -260 0
1609 -67 -1608 0
-1609 67 0
-1609 1608 0
-1610 424 558 472 887 0
1610 -424 0
1610 -558 0
1610 -472 0
1610 -887 0
1611 -533 -1610 0
-1611 533 0
-1611 1610 0
-1612 424 890 472 893 0
1612 -424 0
1612 -890 0
1612 -472 0
1612 -893 0
1613 -469 -1612 0
-1613 469 0
-1613 1612 0
-1614 3 264 1613 0
1614 -3 0
1614 -264 0
1614 -1613 0
1615 -73 -1614 0
-1615 73 0
-1615 1614 0
1616 -79 -1608 0
-1616 79 0
-1616 1608 0
-1617 45 1616 0
1617 -45 0
1617 -1616 0
1618 -82 -1617 0
-1618 82 0
-1618 1617 0
-1619 84 1609 1611 1615 74 1618 0
1619 -84 0
1619 -1609 0
1619 -1611 0
1619 -1615 0
1619 -74 0
1619 -1618 0
1620 -86 -1619 0
-1620 86 0
-1620 1619 0
1621 -533 -473 0
-1621 533 0
-1621 473 0
-1622 84 1621 74 0
1622 -84 0
1622 -1621 0
1622 -74 0
1623 -120 -1622 0
-1623 120 0
-1623 1622 0
-1624 45 1623 0
1624 -45 0
1624 -1623 0
1625 -47 -1624 0
-1625 47 0
-1625 1624 0
-1626 65 1625 48 259 260 0
1626 -65 0
1626 -1625 0
1626 -48 0
1626 -259 0
1626 -260 0
1627 -70 -1626 0
-1627 70 0
-1627 1626 0
-1628 424 915 472 921 0
1628 -424 0
1628 -915 0
1628 -472 0
1628 -921 0
1629 -469 -1628 0
-1629 469 0
-1629 1628 0
-1630 3 1627 1629 0
1630 -3 0
1630 -1627 0
1630 -1629 0
1631 -127 -1630 0
-1631 127 0
-1631 1630 0
-1632 84 1609 1611 1615 1618 0
1632 -84 0
1632 -1609 0
1632 -1611 0
1632 -1615 0
1632 -1618 0
1633 -130 -1632 0
-1633 130 0
-1633 1632 0
-1634 76 1633 0
1634 -76 0
1634 -1633 0
1635 -133 -1634 0
-1635 133 0
-1635 1634 0
1636 -469 -473 0
-1636 469 0
-1636 473 0
-1637 3 1636 0
1637 -3 0
1637 -1636 0
1638 -2 -1637 0
-1638 2 0
-1638 1637 0
-1639 65 1638 48 259 260 0
1639 -65 0
1639 -1638 0
1639 -48 0
1639 -259 0
1639 -260 0
1640 -79 -1639 0
-1640 79 0
-1640 1639 0
1641 -533 -559 0
-1641 533 0
-1641 559 0
-1642 424 890 472 0
1642 -424 0
1642 -890 0
1642 -472 0
1643 -469 -1642 0
-1643 469 0
-1643 1642 0
-1644 3 264 1643 0
1644 -3 0
1644 -264 0
1644 -1643 0
1645 -73 -1644 0
-1645 73 0
-1645 1644 0
-1646 84 1609 1641 1645 74 0
1646 -84 0
1646 -1609 0
1646 -1641 0
1646 -1645 0
1646 -74 0
1647 -120 -1646 0
-1647 120 0
-1647 1646 0
-1648 45 1640 1647 0
1648 -45 0
1648 -1640 0
1648 -1647 0
1649 -143 -1648 0
-1649 143 0
-1649 1648 0
1650 -469 -586 0
-1650 469 0
-1650 586 0
-1651 3 1650 0
1651 -3 0
1651 -1650 0
1652 -2 -1651 0
-1652 2 0
-1652 1651 0
1653 -73 -1606 0
-1653 73 0
-1653 1606 0
-1654 84 1621 1653 74 0
1654 -84 0
1654 -1621 0
1654 -1653 0
1654 -74 0
1655 -120 -1654 0
-1655 120 0
-1655 1654 0
-1656 45 1655 0
1656 -45 0
1656 -1655 0
1657 -47 -1656 0
-1657 47 0
-1657 1656 0
-1658 65 1652 1657 48 259 260 0
1658 -65 0
1658 -1652 0
1658 -1657 0
1658 -48 0
1658 -259 0
1658 -260 0
1659 -151 -1658 0
-1659 151 0
-1659 1658 0
-1660 153 1659 0
1660 -153 0
1660 -1659 0
1661 -155 -1660 0
-1661 155 0
-1661 1660 0
-1662 172 1604 1620 108 110 116 1631 1635 1649 1661 0
1662 -172 0
1662 -1604 0
1662 -1620 0
1662 -108 0
1662 -110 0
1662 -116 0
1662 -1631 0
1662 -1635 0
1662 -1649 0
1662 -1661 0
1663 -197 -1662 0
-1663 197 0
-1663 1662 0
1664 -877 -1045 0
-1664 877 0
-1664 1045 0
-1665 8 1663 1664 4 0
1665 -8 0
1665 -1663 0
1665 -1664 0
1665 -4 0
1666 -10 -1665 0
-1666 10 0
-1666 1665 0
1667 -201 -1662 0
-1667 201 0
-1667 1662 0
-1668 16 1667 0
1668 -16 0
1668 -1667 0
1669 -15 -1668 0
-1669 15 0
-1669 1668 0
1670 -39 -1047 0
-1670 39 0
-1670 1047 0
-1671 41 1666 11 1669 17 1670 0
1671 -41 0
1671 -1666 0
1671 -11 0
1671 -1669 0
1671 -17 0
1671 -1670 0
1672 -167 -1671 0
-1672 167 0
-1672 1671 0
-1673 27 20 1603 1672 0
1673 -27 0
1673 -20 0
1673 -1603 0
1673 -1672 0
1674 -29 -1673 0
-1674 29 0
-1674 1673 0
-1675 31 1674 0
1675 -31 0
1675 -1674 0
1676 -33 -1675 0
-1676 33 0
-1676 1675 0
-1677 35 1535 1676 0
1677 -35 0
1677 -1535 0
1677 -1676 0
1678 -1679 -1677 0
-1678 1679 0
-1678 1677 0
1680 -197 -957 0
-1680 197 0
-1680 957 0
-1681 424 961 968 472 995 878 0
1681 -424 0
1681 -961 0
1681 -968 0
1681 -472 0
1681 -995 0
1681 -878 0
1682 -877 -1681 0
-1682 877 0
-1682 1681 0
-1683 8 1680 1682 4 0
1683 -8 0
1683 -1680 0
1683 -1682 0
1683 -4 0
1684 -10 -1683 0
-1684 10 0
-1684 1683 0
-1685 41 1684 11 960 17 1054 1108 0
1685 -41 0
1685 -1684 0
1685 -11 0
1685 -960 0
1685 -17 0
1685 -1054 0
1685 -1108 0
1686 -1687 -1685 0
-1686 1687 0
-1686 1685 0
-1688 1689 1372 1678 1686 0
1688 -1689 0
1688 -1372 0
1688 -1678 0
1688 -1686 0
1690 -1691 -1688 0
-1690 1691 0
-1690 1688 0
-1692 8 1680 1682 0
1692 -8 0
1692 -1680 0
1692 -1682 0
1693 -10 -1692 0
-1693 10 0
-1693 1692 0
-1694 41 1693 11 960 17 1054 1108 0
1694 -41 0
1694 -1693 0
1694 -11 0
1694 -960 0
1694 -17 0
1694 -1054 0
1694 -1108 0
1695 -60 -1694 0
-1695 60 0
-1695 1694 0
-1696 6 1695 0
1696 -6 0
1696 -1695 0
1697 -1698 -1696 0
-1697 1698 0
-1697 1696 0
-1699 1700 425 1116 1118 1690 1697 0
1699 -1700 0
1699 -425 0
1699 -1116 0
1699 -1118 0
1699 -1690 0
1699 -1697 0
1701 -1702 -1699 0
-1701 1702 0
-1701 1699 0
-1703 1704 1701 0
1703 -1704 0
1703 -1701 0
1705 -1703 -1706 0
-1705 1703 0
-1705 1706 0
1705 0
