c BC-S1.2
p cnf 1287 4260
1 -2 -3 0
-1 2 0
-1 3 0
-4 5 1 0
4 -5 0
4 -1 0
6 -7 -4 0
-6 7 0
-6 4 0
-8 9 6 0
8 -9 0
8 -6 0
10 -11 -8 0
-10 11 0
-10 8 0
-12 13 10 0
12 -13 0
12 -10 0
14 -15 -12 0
-14 15 0
-14 12 0
16 -17 -18 0
-16 17 0
-16 18 0
-19 20 14 16 0
19 -20 0
19 -14 0
19 -16 0
21 -22 -19 0
-21 22 0
-21 19 0
-23 24 21 0
23 -24 0
23 -21 0
25 -26 -23 0
-25 26 0
-25 23 0
27 -28 -23 0
-27 28 0
-27 23 0
29 -30 -19 0
-29 30 0
-29 19 0
31 -32 -23 0
-31 32 0
-31 23 0
-33 34 31 0
33 -34 0
33 -31 0
35 -36 -33 0
-35 36 0
-35 33 0
-37 38 27 29 35 0
37 -38 0
37 -27 0
37 -29 0
37 -35 0
39 -40 -37 0
-39 40 0
-39 37 0
41 -42 -3 0
-41 42 0
-41 3 0
43 -44 -8 0
-43 44 0
-43 8 0
-45 46 41 43 0
45 -46 0
45 -41 0
45 -43 0
47 -48 -45 0
-47 48 0
-47 45 0
49 -50 -12 0
-49 50 0
-49 12 0
-51 52 25 39 47 49 0
51 -52 0
51 -25 0
51 -39 0
51 -47 0
51 -49 0
53 -54 -51 0
-53 54 0
-53 51 0
55 -36 -34 0
-55 36 0
-55 34 0
-56 38 29 55 0
56 -38 0
56 -29 0
56 -55 0
57 -40 -56 0
-57 40 0
-57 56 0
-58 52 57 47 49 0
58 -52 0
58 -57 0
58 -47 0
58 -49 0
59 -60 -58 0
-59 60 0
-59 58 0
-61 20 59 14 16 0
61 -20 0
61 -59 0
61 -14 0
61 -16 0
62 -22 -61 0
-62 22 0
-62 61 0
-63 24 62 0
63 -24 0
63 -62 0
64 -65 -63 0
-64 65 0
-64 63 0
66 -26 -24 0
-66 26 0
-66 24 0
67 -28 -24 0
-67 28 0
-67 24 0
68 -32 -24 0
-68 32 0
-68 24 0
-69 34 68 0
69 -34 0
69 -68 0
70 -36 -69 0
-70 36 0
-70 69 0
-71 38 67 29 70 0
71 -38 0
71 -67 0
71 -29 0
71 -70 0
72 -40 -71 0
-72 40 0
-72 71 0
-73 52 66 72 47 49 0
73 -52 0
73 -66 0
73 -72 0
73 -47 0
73 -49 0
74 -60 -73 0
-74 60 0
-74 73 0
-75 20 74 14 16 0
75 -20 0
75 -74 0
75 -14 0
75 -16 0
76 -77 -75 0
-76 77 0
-76 75 0
78 -79 -8 0
-78 79 0
-78 8 0
80 -81 -75 0
-80 81 0
-80 75 0
82 -83 -18 0
-82 83 0
-82 18 0
-84 85 80 82 0
84 -85 0
84 -80 0
84 -82 0
86 -87 -84 0
-86 87 0
-86 84 0
88 -89 -51 0
-88 89 0
-88 51 0
90 -91 -51 0
-90 91 0
-90 51 0
92 -93 -75 0
-92 93 0
-92 75 0
94 -95 -96 0
-94 95 0
-94 96 0
-97 98 90 92 94 0
97 -98 0
97 -90 0
97 -92 0
97 -94 0
99 -100 -97 0
-99 100 0
-99 97 0
-101 102 88 99 0
101 -102 0
101 -88 0
101 -99 0
103 -104 -101 0
-103 104 0
-103 101 0
-105 106 53 64 76 78 86 103 0
105 -106 0
105 -53 0
105 -64 0
105 -76 0
105 -78 0
105 -86 0
105 -103 0
107 -108 -105 0
-107 108 0
-107 105 0
-109 85 82 0
109 -85 0
109 -82 0
110 -87 -109 0
-110 87 0
-110 109 0
-111 98 94 0
111 -98 0
111 -94 0
112 -100 -111 0
-112 100 0
-112 111 0
-113 102 112 0
113 -102 0
113 -112 0
114 -104 -113 0
-114 104 0
-114 113 0
-115 106 78 110 114 0
115 -106 0
115 -78 0
115 -110 0
115 -114 0
116 -117 -115 0
-116 117 0
-116 115 0
-118 38 116 55 0
118 -38 0
118 -116 0
118 -55 0
119 -40 -118 0
-119 40 0
-119 118 0
120 -121 -115 0
-120 121 0
-120 115 0
122 -7 -5 0
-122 7 0
-122 5 0
-123 9 122 0
123 -9 0
123 -122 0
124 -79 -123 0
-124 79 0
-124 123 0
-125 106 124 110 114 0
125 -106 0
125 -124 0
125 -110 0
125 -114 0
126 -127 -125 0
-126 127 0
-126 125 0
-128 3 126 0
128 -3 0
128 -126 0
129 -42 -128 0
-129 42 0
-129 128 0
-130 106 110 114 0
130 -106 0
130 -110 0
130 -114 0
131 -127 -130 0
-131 127 0
-131 130 0
-132 3 131 0
132 -3 0
132 -131 0
133 -2 -132 0
-133 2 0
-133 132 0
-134 5 133 0
134 -5 0
134 -133 0
135 -7 -134 0
-135 7 0
-135 134 0
-136 9 135 0
136 -9 0
136 -135 0
137 -44 -136 0
-137 44 0
-137 136 0
-138 46 120 129 137 0
138 -46 0
138 -120 0
138 -129 0
138 -137 0
139 -48 -138 0
-139 48 0
-139 138 0
140 -11 -136 0
-140 11 0
-140 136 0
-141 13 140 0
141 -13 0
141 -140 0
142 -50 -141 0
-142 50 0
-142 141 0
-143 52 119 139 142 0
143 -52 0
143 -119 0
143 -139 0
143 -142 0
144 -60 -143 0
-144 60 0
-144 143 0
-145 38 55 0
145 -38 0
145 -55 0
146 -40 -145 0
-146 40 0
-146 145 0
-147 46 41 0
147 -46 0
147 -41 0
148 -48 -147 0
-148 48 0
-148 147 0
-149 52 146 148 0
149 -52 0
149 -146 0
149 -148 0
150 -54 -149 0
-150 54 0
-150 149 0
151 -89 -149 0
-151 89 0
-151 149 0
152 -91 -149 0
-152 91 0
-152 149 0
-153 98 152 94 0
153 -98 0
153 -152 0
153 -94 0
154 -100 -153 0
-154 100 0
-154 153 0
-155 102 151 154 0
155 -102 0
155 -151 0
155 -154 0
156 -104 -155 0
-156 104 0
-156 155 0
-157 106 150 110 156 0
157 -106 0
157 -150 0
157 -110 0
157 -156 0
158 -127 -157 0
-158 127 0
-158 157 0
-159 3 158 0
159 -3 0
159 -158 0
160 -2 -159 0
-160 2 0
-160 159 0
-161 5 160 0
161 -5 0
161 -160 0
162 -7 -161 0
-162 7 0
-162 161 0
-163 9 162 0
163 -9 0
163 -162 0
164 -11 -163 0
-164 11 0
-164 163 0
-165 13 164 0
165 -13 0
165 -164 0
166 -15 -165 0
-166 15 0
-166 165 0
-167 20 144 166 16 0
167 -20 0
167 -144 0
167 -166 0
167 -16 0
168 -22 -167 0
-168 22 0
-168 167 0
-169 24 168 0
169 -24 0
169 -168 0
170 -171 -169 0
-170 171 0
-170 169 0
-172 52 25 39 49 0
172 -52 0
172 -25 0
172 -39 0
172 -49 0
173 -54 -172 0
-173 54 0
-173 172 0
-174 52 57 49 0
174 -52 0
174 -57 0
174 -49 0
175 -60 -174 0
-175 60 0
-175 174 0
-176 20 175 14 16 0
176 -20 0
176 -175 0
176 -14 0
176 -16 0
177 -22 -176 0
-177 22 0
-177 176 0
-178 24 177 0
178 -24 0
178 -177 0
179 -65 -178 0
-179 65 0
-179 178 0
-180 52 66 72 49 0
180 -52 0
180 -66 0
180 -72 0
180 -49 0
181 -60 -180 0
-181 60 0
-181 180 0
-182 20 181 14 16 0
182 -20 0
182 -181 0
182 -14 0
182 -16 0
183 -77 -182 0
-183 77 0
-183 182 0
184 -81 -182 0
-184 81 0
-184 182 0
-185 85 184 82 0
185 -85 0
185 -184 0
185 -82 0
186 -87 -185 0
-186 87 0
-186 185 0
187 -89 -172 0
-187 89 0
-187 172 0
188 -91 -172 0
-188 91 0
-188 172 0
189 -93 -182 0
-189 93 0
-189 182 0
-190 98 188 189 94 0
190 -98 0
190 -188 0
190 -189 0
190 -94 0
191 -100 -190 0
-191 100 0
-191 190 0
-192 102 187 191 0
192 -102 0
192 -187 0
192 -191 0
193 -104 -192 0
-193 104 0
-193 192 0
-194 106 173 179 183 78 186 193 0
194 -106 0
194 -173 0
194 -179 0
194 -183 0
194 -78 0
194 -186 0
194 -193 0
195 -121 -194 0
-195 121 0
-195 194 0
196 -11 -123 0
-196 11 0
-196 123 0
-197 13 196 0
197 -13 0
197 -196 0
198 -15 -197 0
-198 15 0
-198 197 0
-199 20 198 16 0
199 -20 0
199 -198 0
199 -16 0
200 -22 -199 0
-200 22 0
-200 199 0
-201 24 200 0
201 -24 0
201 -200 0
202 -26 -201 0
-202 26 0
-202 201 0
203 -28 -201 0
-203 28 0
-203 201 0
204 -30 -199 0
-204 30 0
-204 199 0
205 -32 -201 0
-205 32 0
-205 201 0
-206 34 205 0
206 -34 0
206 -205 0
207 -36 -206 0
-207 36 0
-207 206 0
-208 38 203 204 207 0
208 -38 0
208 -203 0
208 -204 0
208 -207 0
209 -40 -208 0
-209 40 0
-209 208 0
210 -50 -197 0
-210 50 0
-210 197 0
-211 52 202 209 210 0
211 -52 0
211 -202 0
211 -209 0
211 -210 0
212 -54 -211 0
-212 54 0
-212 211 0
-213 52 146 210 0
213 -52 0
213 -146 0
213 -210 0
214 -60 -213 0
-214 60 0
-214 213 0
-215 20 214 198 16 0
215 -20 0
215 -214 0
215 -198 0
215 -16 0
216 -22 -215 0
-216 22 0
-216 215 0
-217 24 216 0
217 -24 0
217 -216 0
218 -65 -217 0
-218 65 0
-218 217 0
-219 38 67 70 0
219 -38 0
219 -67 0
219 -70 0
220 -40 -219 0
-220 40 0
-220 219 0
-221 52 66 220 210 0
221 -52 0
221 -66 0
221 -220 0
221 -210 0
222 -60 -221 0
-222 60 0
-222 221 0
-223 20 222 198 16 0
223 -20 0
223 -222 0
223 -198 0
223 -16 0
224 -77 -223 0
-224 77 0
-224 223 0
225 -81 -223 0
-225 81 0
-225 223 0
-226 85 225 82 0
226 -85 0
226 -225 0
226 -82 0
227 -87 -226 0
-227 87 0
-227 226 0
228 -89 -211 0
-228 89 0
-228 211 0
229 -91 -211 0
-229 91 0
-229 211 0
230 -93 -223 0
-230 93 0
-230 223 0
-231 98 229 230 94 0
231 -98 0
231 -229 0
231 -230 0
231 -94 0
232 -100 -231 0
-232 100 0
-232 231 0
-233 102 228 232 0
233 -102 0
233 -228 0
233 -232 0
234 -104 -233 0
-234 104 0
-234 233 0
-235 106 212 218 224 124 227 234 0
235 -106 0
235 -212 0
235 -218 0
235 -224 0
235 -124 0
235 -227 0
235 -234 0
236 -127 -235 0
-236 127 0
-236 235 0
-237 3 236 0
237 -3 0
237 -236 0
238 -42 -237 0
-238 42 0
-238 237 0
239 -15 -13 0
-239 15 0
-239 13 0
-240 20 239 16 0
240 -20 0
240 -239 0
240 -16 0
241 -22 -240 0
-241 22 0
-241 240 0
-242 24 241 0
242 -24 0
242 -241 0
243 -26 -242 0
-243 26 0
-243 242 0
244 -28 -242 0
-244 28 0
-244 242 0
245 -30 -240 0
-245 30 0
-245 240 0
246 -32 -242 0
-246 32 0
-246 242 0
-247 34 246 0
247 -34 0
247 -246 0
248 -36 -247 0
-248 36 0
-248 247 0
-249 38 244 245 248 0
249 -38 0
249 -244 0
249 -245 0
249 -248 0
250 -40 -249 0
-250 40 0
-250 249 0
251 -50 -13 0
-251 50 0
-251 13 0
-252 52 243 250 251 0
252 -52 0
252 -243 0
252 -250 0
252 -251 0
253 -54 -252 0
-253 54 0
-253 252 0
-254 52 146 251 0
254 -52 0
254 -146 0
254 -251 0
255 -60 -254 0
-255 60 0
-255 254 0
-256 20 255 239 16 0
256 -20 0
256 -255 0
256 -239 0
256 -16 0
257 -22 -256 0
-257 22 0
-257 256 0
-258 24 257 0
258 -24 0
258 -257 0
259 -65 -258 0
-259 65 0
-259 258 0
-260 52 66 220 251 0
260 -52 0
260 -66 0
260 -220 0
260 -251 0
261 -60 -260 0
-261 60 0
-261 260 0
-262 20 261 239 16 0
262 -20 0
262 -261 0
262 -239 0
262 -16 0
263 -77 -262 0
-263 77 0
-263 262 0
264 -81 -262 0
-264 81 0
-264 262 0
-265 85 264 82 0
265 -85 0
265 -264 0
265 -82 0
266 -87 -265 0
-266 87 0
-266 265 0
267 -89 -252 0
-267 89 0
-267 252 0
268 -91 -252 0
-268 91 0
-268 252 0
269 -93 -262 0
-269 93 0
-269 262 0
-270 98 268 269 94 0
270 -98 0
270 -268 0
270 -269 0
270 -94 0
271 -100 -270 0
-271 100 0
-271 270 0
-272 102 267 271 0
272 -102 0
272 -267 0
272 -271 0
273 -104 -272 0
-273 104 0
-273 272 0
-274 106 253 259 263 266 273 0
274 -106 0
274 -253 0
274 -259 0
274 -263 0
274 -266 0
274 -273 0
275 -127 -274 0
-275 127 0
-275 274 0
-276 3 275 0
276 -3 0
276 -275 0
277 -2 -276 0
-277 2 0
-277 276 0
-278 5 277 0
278 -5 0
278 -277 0
279 -7 -278 0
-279 7 0
-279 278 0
-280 9 279 0
280 -9 0
280 -279 0
281 -44 -280 0
-281 44 0
-281 280 0
-282 46 195 238 281 0
282 -46 0
282 -195 0
282 -238 0
282 -281 0
283 -284 -282 0
-283 284 0
-283 282 0
-285 20 16 0
285 -20 0
285 -16 0
286 -22 -285 0
-286 22 0
-286 285 0
-287 24 286 0
287 -24 0
287 -286 0
288 -26 -287 0
-288 26 0
-288 287 0
289 -28 -287 0
-289 28 0
-289 287 0
290 -30 -285 0
-290 30 0
-290 285 0
291 -32 -287 0
-291 32 0
-291 287 0
-292 34 291 0
292 -34 0
292 -291 0
293 -36 -292 0
-293 36 0
-293 292 0
-294 38 289 290 293 0
294 -38 0
294 -289 0
294 -290 0
294 -293 0
295 -40 -294 0
-295 40 0
-295 294 0
-296 52 288 295 148 0
296 -52 0
296 -288 0
296 -295 0
296 -148 0
297 -54 -296 0
-297 54 0
-297 296 0
298 -60 -149 0
-298 60 0
-298 149 0
-299 20 298 16 0
299 -20 0
299 -298 0
299 -16 0
300 -22 -299 0
-300 22 0
-300 299 0
-301 24 300 0
301 -24 0
301 -300 0
302 -65 -301 0
-302 65 0
-302 301 0
-303 52 66 220 148 0
303 -52 0
303 -66 0
303 -220 0
303 -148 0
304 -60 -303 0
-304 60 0
-304 303 0
-305 20 304 16 0
305 -20 0
305 -304 0
305 -16 0
306 -77 -305 0
-306 77 0
-306 305 0
307 -81 -305 0
-307 81 0
-307 305 0
-308 85 307 82 0
308 -85 0
308 -307 0
308 -82 0
309 -87 -308 0
-309 87 0
-309 308 0
310 -89 -296 0
-310 89 0
-310 296 0
311 -91 -296 0
-311 91 0
-311 296 0
312 -93 -305 0
-312 93 0
-312 305 0
-313 98 311 312 94 0
313 -98 0
313 -311 0
313 -312 0
313 -94 0
314 -100 -313 0
-314 100 0
-314 313 0
-315 102 310 314 0
315 -102 0
315 -310 0
315 -314 0
316 -104 -315 0
-316 104 0
-316 315 0
-317 106 297 302 306 309 316 0
317 -106 0
317 -297 0
317 -302 0
317 -306 0
317 -309 0
317 -316 0
318 -127 -317 0
-318 127 0
-318 317 0
-319 3 318 0
319 -3 0
319 -318 0
320 -2 -319 0
-320 2 0
-320 319 0
-321 5 320 0
321 -5 0
321 -320 0
322 -7 -321 0
-322 7 0
-322 321 0
-323 9 322 0
323 -9 0
323 -322 0
324 -11 -323 0
-324 11 0
-324 323 0
-325 13 324 0
325 -13 0
325 -324 0
326 -327 -325 0
-326 327 0
-326 325 0
-328 38 116 0
328 -38 0
328 -116 0
329 -40 -328 0
-329 40 0
-329 328 0
-330 52 329 139 142 0
330 -52 0
330 -329 0
330 -139 0
330 -142 0
331 -60 -330 0
-331 60 0
-331 330 0
332 -40 -38 0
-332 40 0
-332 38 0
-333 52 332 148 0
333 -52 0
333 -332 0
333 -148 0
334 -54 -333 0
-334 54 0
-334 333 0
335 -89 -333 0
-335 89 0
-335 333 0
336 -91 -333 0
-336 91 0
-336 333 0
-337 98 336 94 0
337 -98 0
337 -336 0
337 -94 0
338 -100 -337 0
-338 100 0
-338 337 0
-339 102 335 338 0
339 -102 0
339 -335 0
339 -338 0
340 -104 -339 0
-340 104 0
-340 339 0
-341 106 334 110 340 0
341 -106 0
341 -334 0
341 -110 0
341 -340 0
342 -127 -341 0
-342 127 0
-342 341 0
-343 3 342 0
343 -3 0
343 -342 0
344 -2 -343 0
-344 2 0
-344 343 0
-345 5 344 0
345 -5 0
345 -344 0
346 -7 -345 0
-346 7 0
-346 345 0
-347 9 346 0
347 -9 0
347 -346 0
348 -11 -347 0
-348 11 0
-348 347 0
-349 13 348 0
349 -13 0
349 -348 0
350 -15 -349 0
-350 15 0
-350 349 0
-351 20 331 350 16 0
351 -20 0
351 -331 0
351 -350 0
351 -16 0
352 -22 -351 0
-352 22 0
-352 351 0
-353 24 352 0
353 -24 0
353 -352 0
354 -32 -353 0
-354 32 0
-354 353 0
-355 34 354 0
355 -34 0
355 -354 0
356 -357 -355 0
-356 357 0
-356 355 0
358 -359 -18 0
-358 359 0
-358 18 0
-360 361 107 170 283 326 356 358 0
360 -361 0
360 -107 0
360 -170 0
360 -283 0
360 -326 0
360 -356 0
360 -358 0
362 -363 -360 0
-362 363 0
-362 360 0
364 -284 -147 0
-364 284 0
-364 147 0
365 -357 -34 0
-365 357 0
-365 34 0
-366 361 364 365 358 0
366 -361 0
366 -364 0
366 -365 0
366 -358 0
367 -368 -366 0
-367 368 0
-367 366 0
-369 5 367 0
369 -5 0
369 -367 0
370 -7 -369 0
-370 7 0
-370 369 0
-371 9 370 0
371 -9 0
371 -370 0
372 -11 -371 0
-372 11 0
-372 371 0
-373 13 372 0
373 -13 0
373 -372 0
374 -15 -373 0
-374 15 0
-374 373 0
-375 20 374 16 0
375 -20 0
375 -374 0
375 -16 0
376 -22 -375 0
-376 22 0
-376 375 0
-377 24 376 0
377 -24 0
377 -376 0
378 -26 -377 0
-378 26 0
-378 377 0
379 -28 -377 0
-379 28 0
-379 377 0
380 -171 -24 0
-380 171 0
-380 24 0
381 -357 -69 0
-381 357 0
-381 69 0
-382 361 380 364 381 358 0
382 -361 0
382 -380 0
382 -364 0
382 -381 0
382 -358 0
383 -368 -382 0
-383 368 0
-383 382 0
-384 5 383 0
384 -5 0
384 -383 0
385 -7 -384 0
-385 7 0
-385 384 0
-386 9 385 0
386 -9 0
386 -385 0
387 -11 -386 0
-387 11 0
-387 386 0
-388 13 387 0
388 -13 0
388 -387 0
389 -15 -388 0
-389 15 0
-389 388 0
-390 20 389 16 0
390 -20 0
390 -389 0
390 -16 0
391 -30 -390 0
-391 30 0
-391 390 0
392 -32 -377 0
-392 32 0
-392 377 0
-393 34 392 0
393 -34 0
393 -392 0
394 -36 -393 0
-394 36 0
-394 393 0
-395 38 379 391 394 0
395 -38 0
395 -379 0
395 -391 0
395 -394 0
396 -40 -395 0
-396 40 0
-396 395 0
397 -171 -242 0
-397 171 0
-397 242 0
398 -327 -13 0
-398 327 0
-398 13 0
399 -357 -247 0
-399 357 0
-399 247 0
-400 361 397 364 398 399 358 0
400 -361 0
400 -397 0
400 -364 0
400 -398 0
400 -399 0
400 -358 0
401 -368 -400 0
-401 368 0
-401 400 0
-402 5 401 0
402 -5 0
402 -401 0
403 -7 -402 0
-403 7 0
-403 402 0
-404 9 403 0
404 -9 0
404 -403 0
405 -44 -404 0
-405 44 0
-405 404 0
-406 46 41 405 0
406 -46 0
406 -41 0
406 -405 0
407 -48 -406 0
-407 48 0
-407 406 0
408 -171 -287 0
-408 171 0
-408 287 0
409 -357 -292 0
-409 357 0
-409 292 0
-410 361 408 364 409 358 0
410 -361 0
410 -408 0
410 -364 0
410 -409 0
410 -358 0
411 -368 -410 0
-411 368 0
-411 410 0
-412 5 411 0
412 -5 0
412 -411 0
413 -7 -412 0
-413 7 0
-413 412 0
-414 9 413 0
414 -9 0
414 -413 0
415 -11 -414 0
-415 11 0
-415 414 0
-416 13 415 0
416 -13 0
416 -415 0
417 -50 -416 0
-417 50 0
-417 416 0
-418 52 378 396 407 417 0
418 -52 0
418 -378 0
418 -396 0
418 -407 0
418 -417 0
419 -54 -418 0
-419 54 0
-419 418 0
-420 361 364 398 365 358 0
420 -361 0
420 -364 0
420 -398 0
420 -365 0
420 -358 0
421 -368 -420 0
-421 368 0
-421 420 0
-422 5 421 0
422 -5 0
422 -421 0
423 -7 -422 0
-423 7 0
-423 422 0
-424 9 423 0
424 -9 0
424 -423 0
425 -44 -424 0
-425 44 0
-425 424 0
-426 46 41 425 0
426 -46 0
426 -41 0
426 -425 0
427 -48 -426 0
-427 48 0
-427 426 0
428 -50 -373 0
-428 50 0
-428 373 0
-429 52 146 427 428 0
429 -52 0
429 -146 0
429 -427 0
429 -428 0
430 -60 -429 0
-430 60 0
-430 429 0
-431 20 430 374 16 0
431 -20 0
431 -430 0
431 -374 0
431 -16 0
432 -22 -431 0
-432 22 0
-432 431 0
-433 24 432 0
433 -24 0
433 -432 0
434 -65 -433 0
-434 65 0
-434 433 0
-435 361 380 364 398 381 358 0
435 -361 0
435 -380 0
435 -364 0
435 -398 0
435 -381 0
435 -358 0
436 -368 -435 0
-436 368 0
-436 435 0
-437 5 436 0
437 -5 0
437 -436 0
438 -7 -437 0
-438 7 0
-438 437 0
-439 9 438 0
439 -9 0
439 -438 0
440 -44 -439 0
-440 44 0
-440 439 0
-441 46 41 440 0
441 -46 0
441 -41 0
441 -440 0
442 -48 -441 0
-442 48 0
-442 441 0
443 -50 -388 0
-443 50 0
-443 388 0
-444 52 66 220 442 443 0
444 -52 0
444 -66 0
444 -220 0
444 -442 0
444 -443 0
445 -60 -444 0
-445 60 0
-445 444 0
-446 20 445 389 16 0
446 -20 0
446 -445 0
446 -389 0
446 -16 0
447 -77 -446 0
-447 77 0
-447 446 0
-448 52 146 148 251 0
448 -52 0
448 -146 0
448 -148 0
448 -251 0
449 -60 -448 0
-449 60 0
-449 448 0
-450 20 449 239 16 0
450 -20 0
450 -449 0
450 -239 0
450 -16 0
451 -22 -450 0
-451 22 0
-451 450 0
-452 24 451 0
452 -24 0
452 -451 0
453 -171 -452 0
-453 171 0
-453 452 0
-454 52 332 148 251 0
454 -52 0
454 -332 0
454 -148 0
454 -251 0
455 -60 -454 0
-455 60 0
-455 454 0
-456 20 455 239 16 0
456 -20 0
456 -455 0
456 -239 0
456 -16 0
457 -22 -456 0
-457 22 0
-457 456 0
-458 24 457 0
458 -24 0
458 -457 0
459 -32 -458 0
-459 32 0
-459 458 0
-460 34 459 0
460 -34 0
460 -459 0
461 -357 -460 0
-461 357 0
-461 460 0
-462 361 453 364 398 461 358 0
462 -361 0
462 -453 0
462 -364 0
462 -398 0
462 -461 0
462 -358 0
463 -368 -462 0
-463 368 0
-463 462 0
-464 5 463 0
464 -5 0
464 -463 0
465 -7 -464 0
-465 7 0
-465 464 0
-466 9 465 0
466 -9 0
466 -465 0
467 -79 -466 0
-467 79 0
-467 466 0
468 -81 -446 0
-468 81 0
-468 446 0
-469 85 468 82 0
469 -85 0
469 -468 0
469 -82 0
470 -87 -469 0
-470 87 0
-470 469 0
471 -89 -418 0
-471 89 0
-471 418 0
472 -91 -418 0
-472 91 0
-472 418 0
473 -93 -446 0
-473 93 0
-473 446 0
474 -44 -123 0
-474 44 0
-474 123 0
-475 46 41 474 0
475 -46 0
475 -41 0
475 -474 0
476 -48 -475 0
-476 48 0
-476 475 0
-477 52 146 476 210 0
477 -52 0
477 -146 0
477 -476 0
477 -210 0
478 -60 -477 0
-478 60 0
-478 477 0
-479 20 478 198 16 0
479 -20 0
479 -478 0
479 -198 0
479 -16 0
480 -22 -479 0
-480 22 0
-480 479 0
-481 24 480 0
481 -24 0
481 -480 0
482 -171 -481 0
-482 171 0
-482 481 0
483 -284 -475 0
-483 284 0
-483 475 0
484 -327 -197 0
-484 327 0
-484 197 0
-485 52 332 476 210 0
485 -52 0
485 -332 0
485 -476 0
485 -210 0
486 -60 -485 0
-486 60 0
-486 485 0
-487 20 486 198 16 0
487 -20 0
487 -486 0
487 -198 0
487 -16 0
488 -22 -487 0
-488 22 0
-488 487 0
-489 24 488 0
489 -24 0
489 -488 0
490 -32 -489 0
-490 32 0
-490 489 0
-491 34 490 0
491 -34 0
491 -490 0
492 -357 -491 0
-492 357 0
-492 491 0
-493 361 482 483 484 492 358 0
493 -361 0
493 -482 0
493 -483 0
493 -484 0
493 -492 0
493 -358 0
494 -495 -493 0
-494 495 0
-494 493 0
496 -497 -493 0
-496 497 0
-496 493 0
-498 96 496 0
498 -96 0
498 -496 0
499 -95 -498 0
-499 95 0
-499 498 0
-500 98 472 473 494 499 0
500 -98 0
500 -472 0
500 -473 0
500 -494 0
500 -499 0
501 -100 -500 0
-501 100 0
-501 500 0
-502 102 471 501 0
502 -102 0
502 -471 0
502 -501 0
503 -104 -502 0
-503 104 0
-503 502 0
-504 106 419 434 447 467 470 503 0
504 -106 0
504 -419 0
504 -434 0
504 -447 0
504 -467 0
504 -470 0
504 -503 0
505 -127 -504 0
-505 127 0
-505 504 0
-506 3 505 0
506 -3 0
506 -505 0
507 -508 -506 0
-507 508 0
-507 506 0
-509 510 362 507 0
509 -510 0
509 -362 0
509 -507 0
511 -512 -509 0
-511 512 0
-511 509 0
513 -327 -12 0
-513 327 0
-513 12 0
-514 361 513 365 358 0
514 -361 0
514 -513 0
514 -365 0
514 -358 0
515 -363 -514 0
-515 363 0
-515 514 0
516 -508 -3 0
-516 508 0
-516 3 0
-517 510 515 516 0
517 -510 0
517 -515 0
517 -516 0
518 -519 -517 0
-518 519 0
-518 517 0
-520 510 516 0
520 -510 0
520 -516 0
521 -522 -520 0
-521 522 0
-521 520 0
-523 18 521 0
523 -18 0
523 -521 0
524 -359 -523 0
-524 359 0
-524 523 0
-525 361 364 365 524 0
525 -361 0
525 -364 0
525 -365 0
525 -524 0
526 -368 -525 0
-526 368 0
-526 525 0
-527 5 526 1 0
527 -5 0
527 -526 0
527 -1 0
528 -7 -527 0
-528 7 0
-528 527 0
-529 9 528 0
529 -9 0
529 -528 0
530 -11 -529 0
-530 11 0
-530 529 0
-531 13 530 0
531 -13 0
531 -530 0
532 -15 -531 0
-532 15 0
-532 531 0
533 -522 -517 0
-533 522 0
-533 517 0
-534 18 533 0
534 -18 0
534 -533 0
535 -17 -534 0
-535 17 0
-535 534 0
-536 20 532 535 0
536 -20 0
536 -532 0
536 -535 0
537 -22 -536 0
-537 22 0
-537 536 0
-538 24 518 537 0
538 -24 0
538 -518 0
538 -537 0
539 -26 -538 0
-539 26 0
-539 538 0
540 -171 -23 0
-540 171 0
-540 23 0
541 -357 -33 0
-541 357 0
-541 33 0
-542 361 540 513 541 358 0
542 -361 0
542 -540 0
542 -513 0
542 -541 0
542 -358 0
543 -363 -542 0
-543 363 0
-543 542 0
-544 510 543 516 0
544 -510 0
544 -543 0
544 -516 0
545 -546 -544 0
-545 546 0
-545 544 0
547 -28 -538 0
-547 28 0
-547 538 0
548 -519 -520 0
-548 519 0
-548 520 0
-549 24 548 0
549 -24 0
549 -548 0
550 -171 -549 0
-550 171 0
-550 549 0
551 -32 -549 0
-551 32 0
-551 549 0
-552 34 551 0
552 -34 0
552 -551 0
553 -357 -552 0
-553 357 0
-553 552 0
-554 361 550 364 553 524 0
554 -361 0
554 -550 0
554 -364 0
554 -553 0
554 -524 0
555 -368 -554 0
-555 368 0
-555 554 0
-556 5 555 1 0
556 -5 0
556 -555 0
556 -1 0
557 -7 -556 0
-557 7 0
-557 556 0
-558 9 557 0
558 -9 0
558 -557 0
559 -11 -558 0
-559 11 0
-559 558 0
-560 13 559 0
560 -13 0
560 -559 0
561 -15 -560 0
-561 15 0
-561 560 0
-562 361 380 513 381 358 0
562 -361 0
562 -380 0
562 -513 0
562 -381 0
562 -358 0
563 -363 -562 0
-563 363 0
-563 562 0
-564 510 563 516 0
564 -510 0
564 -563 0
564 -516 0
565 -522 -564 0
-565 522 0
-565 564 0
-566 18 565 0
566 -18 0
566 -565 0
567 -17 -566 0
-567 17 0
-567 566 0
-568 20 561 567 0
568 -20 0
568 -561 0
568 -567 0
569 -30 -568 0
-569 30 0
-569 568 0
570 -32 -538 0
-570 32 0
-570 538 0
-571 34 570 0
571 -34 0
571 -570 0
572 -36 -571 0
-572 36 0
-572 571 0
-573 38 547 569 572 0
573 -38 0
573 -547 0
573 -569 0
573 -572 0
574 -40 -573 0
-574 40 0
-574 573 0
575 -17 -523 0
-575 17 0
-575 523 0
-576 20 575 0
576 -20 0
576 -575 0
577 -22 -576 0
-577 22 0
-577 576 0
-578 24 548 577 0
578 -24 0
578 -548 0
578 -577 0
579 -171 -578 0
-579 171 0
-579 578 0
580 -32 -578 0
-580 32 0
-580 578 0
-581 34 580 0
581 -34 0
581 -580 0
582 -357 -581 0
-582 357 0
-582 581 0
-583 361 579 364 582 524 0
583 -361 0
583 -579 0
583 -364 0
583 -582 0
583 -524 0
584 -368 -583 0
-584 368 0
-584 583 0
-585 5 584 1 0
585 -5 0
585 -584 0
585 -1 0
586 -7 -585 0
-586 7 0
-586 585 0
-587 9 586 0
587 -9 0
587 -586 0
588 -11 -587 0
-588 11 0
-588 587 0
-589 13 588 0
589 -13 0
589 -588 0
590 -50 -589 0
-590 50 0
-590 589 0
-591 52 539 545 574 590 0
591 -52 0
591 -539 0
591 -545 0
591 -574 0
591 -590 0
592 -54 -591 0
-592 54 0
-592 591 0
593 -171 -178 0
-593 171 0
-593 178 0
-594 52 329 49 0
594 -52 0
594 -329 0
594 -49 0
595 -60 -594 0
-595 60 0
-595 594 0
-596 20 595 14 16 0
596 -20 0
596 -595 0
596 -14 0
596 -16 0
597 -22 -596 0
-597 22 0
-597 596 0
-598 24 597 0
598 -24 0
598 -597 0
599 -32 -598 0
-599 32 0
-599 598 0
-600 34 599 0
600 -34 0
600 -599 0
601 -357 -600 0
-601 357 0
-601 600 0
-602 361 593 513 601 358 0
602 -361 0
602 -593 0
602 -513 0
602 -601 0
602 -358 0
603 -363 -602 0
-603 363 0
-603 602 0
-604 510 603 516 0
604 -510 0
604 -603 0
604 -516 0
605 -606 -604 0
-605 606 0
-605 604 0
607 -546 -517 0
-607 546 0
-607 517 0
608 -50 -531 0
-608 50 0
-608 531 0
-609 52 607 146 608 0
609 -52 0
609 -607 0
609 -146 0
609 -608 0
610 -60 -609 0
-610 60 0
-610 609 0
-611 20 610 532 535 0
611 -20 0
611 -610 0
611 -532 0
611 -535 0
612 -22 -611 0
-612 22 0
-612 611 0
-613 24 518 612 0
613 -24 0
613 -518 0
613 -612 0
614 -65 -613 0
-614 65 0
-614 613 0
-615 24 518 0
615 -24 0
615 -518 0
616 -26 -615 0
-616 26 0
-616 615 0
617 -546 -564 0
-617 546 0
-617 564 0
618 -28 -615 0
-618 28 0
-618 615 0
619 -32 -615 0
-619 32 0
-619 615 0
-620 34 619 0
620 -34 0
620 -619 0
621 -36 -620 0
-621 36 0
-621 620 0
-622 38 618 621 0
622 -38 0
622 -618 0
622 -621 0
623 -40 -622 0
-623 40 0
-623 622 0
624 -50 -560 0
-624 50 0
-624 560 0
-625 52 616 617 623 624 0
625 -52 0
625 -616 0
625 -617 0
625 -623 0
625 -624 0
626 -60 -625 0
-626 60 0
-626 625 0
-627 20 626 561 567 0
627 -20 0
627 -626 0
627 -561 0
627 -567 0
628 -77 -627 0
-628 77 0
-628 627 0
629 -546 -520 0
-629 546 0
-629 520 0
-630 52 629 146 251 0
630 -52 0
630 -629 0
630 -146 0
630 -251 0
631 -60 -630 0
-631 60 0
-631 630 0
-632 20 631 239 575 0
632 -20 0
632 -631 0
632 -239 0
632 -575 0
633 -22 -632 0
-633 22 0
-633 632 0
-634 24 548 633 0
634 -24 0
634 -548 0
634 -633 0
635 -171 -634 0
-635 171 0
-635 634 0
-636 52 629 332 251 0
636 -52 0
636 -629 0
636 -332 0
636 -251 0
637 -60 -636 0
-637 60 0
-637 636 0
-638 20 637 239 575 0
638 -20 0
638 -637 0
638 -239 0
638 -575 0
639 -22 -638 0
-639 22 0
-639 638 0
-640 24 548 639 0
640 -24 0
640 -548 0
640 -639 0
641 -32 -640 0
-641 32 0
-641 640 0
-642 34 641 0
642 -34 0
642 -641 0
643 -357 -642 0
-643 357 0
-643 642 0
-644 361 635 364 398 643 524 0
644 -361 0
644 -635 0
644 -364 0
644 -398 0
644 -643 0
644 -524 0
645 -368 -644 0
-645 368 0
-645 644 0
-646 5 645 1 0
646 -5 0
646 -645 0
646 -1 0
647 -7 -646 0
-647 7 0
-647 646 0
-648 9 647 0
648 -9 0
648 -647 0
649 -79 -648 0
-649 79 0
-649 648 0
650 -81 -627 0
-650 81 0
-650 627 0
-651 52 146 49 0
651 -52 0
651 -146 0
651 -49 0
652 -60 -651 0
-652 60 0
-652 651 0
-653 20 652 14 0
653 -20 0
653 -652 0
653 -14 0
654 -22 -653 0
-654 22 0
-654 653 0
-655 24 654 0
655 -24 0
655 -654 0
656 -171 -655 0
-656 171 0
-656 655 0
-657 52 332 49 0
657 -52 0
657 -332 0
657 -49 0
658 -60 -657 0
-658 60 0
-658 657 0
-659 20 658 14 0
659 -20 0
659 -658 0
659 -14 0
660 -22 -659 0
-660 22 0
-660 659 0
-661 24 660 0
661 -24 0
661 -660 0
662 -32 -661 0
-662 32 0
-662 661 0
-663 34 662 0
663 -34 0
663 -662 0
664 -357 -663 0
-664 357 0
-664 663 0
-665 361 656 513 664 358 0
665 -361 0
665 -656 0
665 -513 0
665 -664 0
665 -358 0
666 -363 -665 0
-666 363 0
-666 665 0
-667 510 666 516 0
667 -510 0
667 -666 0
667 -516 0
668 -522 -667 0
-668 522 0
-668 667 0
-669 18 668 0
669 -18 0
669 -668 0
670 -83 -669 0
-670 83 0
-670 669 0
-671 85 650 670 0
671 -85 0
671 -650 0
671 -670 0
672 -87 -671 0
-672 87 0
-672 671 0
673 -89 -591 0
-673 89 0
-673 591 0
674 -91 -591 0
-674 91 0
-674 591 0
675 -93 -627 0
-675 93 0
-675 627 0
-676 52 629 146 49 0
676 -52 0
676 -629 0
676 -146 0
676 -49 0
677 -60 -676 0
-677 60 0
-677 676 0
-678 20 677 14 575 0
678 -20 0
678 -677 0
678 -14 0
678 -575 0
679 -22 -678 0
-679 22 0
-679 678 0
-680 24 548 679 0
680 -24 0
680 -548 0
680 -679 0
681 -171 -680 0
-681 171 0
-681 680 0
-682 52 629 332 49 0
682 -52 0
682 -629 0
682 -332 0
682 -49 0
683 -60 -682 0
-683 60 0
-683 682 0
-684 20 683 14 575 0
684 -20 0
684 -683 0
684 -14 0
684 -575 0
685 -22 -684 0
-685 22 0
-685 684 0
-686 24 548 685 0
686 -24 0
686 -548 0
686 -685 0
687 -32 -686 0
-687 32 0
-687 686 0
-688 34 687 0
688 -34 0
688 -687 0
689 -357 -688 0
-689 357 0
-689 688 0
-690 361 681 513 689 524 0
690 -361 0
690 -681 0
690 -513 0
690 -689 0
690 -524 0
691 -495 -690 0
-691 495 0
-691 690 0
-692 20 652 14 16 0
692 -20 0
692 -652 0
692 -14 0
692 -16 0
693 -22 -692 0
-693 22 0
-693 692 0
-694 24 693 0
694 -24 0
694 -693 0
695 -171 -694 0
-695 171 0
-695 694 0
-696 20 658 14 16 0
696 -20 0
696 -658 0
696 -14 0
696 -16 0
697 -22 -696 0
-697 22 0
-697 696 0
-698 24 697 0
698 -24 0
698 -697 0
699 -32 -698 0
-699 32 0
-699 698 0
-700 34 699 0
700 -34 0
700 -699 0
701 -357 -700 0
-701 357 0
-701 700 0
-702 361 695 513 701 358 0
702 -361 0
702 -695 0
702 -513 0
702 -701 0
702 -358 0
703 -363 -702 0
-703 363 0
-703 702 0
-704 510 703 516 0
704 -510 0
704 -703 0
704 -516 0
705 -706 -704 0
-705 706 0
-705 704 0
707 -497 -690 0
-707 497 0
-707 690 0
-708 96 705 707 0
708 -96 0
708 -705 0
708 -707 0
709 -95 -708 0
-709 95 0
-709 708 0
-710 98 674 675 691 709 0
710 -98 0
710 -674 0
710 -675 0
710 -691 0
710 -709 0
711 -100 -710 0
-711 100 0
-711 710 0
-712 102 673 711 0
712 -102 0
712 -673 0
712 -711 0
713 -104 -712 0
-713 104 0
-713 712 0
-714 106 592 605 614 628 649 672 713 0
714 -106 0
714 -592 0
714 -605 0
714 -614 0
714 -628 0
714 -649 0
714 -672 0
714 -713 0
715 -121 -714 0
-715 121 0
-715 714 0
-716 361 483 484 365 358 0
716 -361 0
716 -483 0
716 -484 0
716 -365 0
716 -358 0
717 -363 -716 0
-717 363 0
-717 716 0
-718 510 717 516 0
718 -510 0
718 -717 0
718 -516 0
719 -519 -718 0
-719 519 0
-719 718 0
-720 5 526 0
720 -5 0
720 -526 0
721 -7 -720 0
-721 7 0
-721 720 0
-722 9 721 0
722 -9 0
722 -721 0
723 -11 -722 0
-723 11 0
-723 722 0
-724 13 723 0
724 -13 0
724 -723 0
725 -15 -724 0
-725 15 0
-725 724 0
726 -522 -718 0
-726 522 0
-726 718 0
-727 18 726 0
727 -18 0
727 -726 0
728 -17 -727 0
-728 17 0
-728 727 0
-729 20 725 728 0
729 -20 0
729 -725 0
729 -728 0
730 -22 -729 0
-730 22 0
-730 729 0
-731 24 719 730 0
731 -24 0
731 -719 0
731 -730 0
732 -26 -731 0
-732 26 0
-732 731 0
733 -171 -201 0
-733 171 0
-733 201 0
734 -357 -206 0
-734 357 0
-734 206 0
-735 361 733 483 484 734 358 0
735 -361 0
735 -733 0
735 -483 0
735 -484 0
735 -734 0
735 -358 0
736 -363 -735 0
-736 363 0
-736 735 0
-737 510 736 516 0
737 -510 0
737 -736 0
737 -516 0
738 -546 -737 0
-738 546 0
-738 737 0
739 -28 -731 0
-739 28 0
-739 731 0
-740 5 555 0
740 -5 0
740 -555 0
741 -7 -740 0
-741 7 0
-741 740 0
-742 9 741 0
742 -9 0
742 -741 0
743 -11 -742 0
-743 11 0
-743 742 0
-744 13 743 0
744 -13 0
744 -743 0
745 -15 -744 0
-745 15 0
-745 744 0
-746 361 380 483 484 381 358 0
746 -361 0
746 -380 0
746 -483 0
746 -484 0
746 -381 0
746 -358 0
747 -363 -746 0
-747 363 0
-747 746 0
-748 510 747 516 0
748 -510 0
748 -747 0
748 -516 0
749 -522 -748 0
-749 522 0
-749 748 0
-750 18 749 0
750 -18 0
750 -749 0
751 -17 -750 0
-751 17 0
-751 750 0
-752 20 745 751 0
752 -20 0
752 -745 0
752 -751 0
753 -30 -752 0
-753 30 0
-753 752 0
754 -32 -731 0
-754 32 0
-754 731 0
-755 34 754 0
755 -34 0
755 -754 0
756 -36 -755 0
-756 36 0
-756 755 0
-757 38 739 753 756 0
757 -38 0
757 -739 0
757 -753 0
757 -756 0
758 -40 -757 0
-758 40 0
-758 757 0
-759 5 584 0
759 -5 0
759 -584 0
760 -7 -759 0
-760 7 0
-760 759 0
-761 9 760 0
761 -9 0
761 -760 0
762 -11 -761 0
-762 11 0
-762 761 0
-763 13 762 0
763 -13 0
763 -762 0
764 -50 -763 0
-764 50 0
-764 763 0
-765 52 732 738 758 764 0
765 -52 0
765 -732 0
765 -738 0
765 -758 0
765 -764 0
766 -54 -765 0
-766 54 0
-766 765 0
767 -171 -217 0
-767 171 0
-767 217 0
-768 52 332 210 0
768 -52 0
768 -332 0
768 -210 0
769 -60 -768 0
-769 60 0
-769 768 0
-770 20 769 198 16 0
770 -20 0
770 -769 0
770 -198 0
770 -16 0
771 -22 -770 0
-771 22 0
-771 770 0
-772 24 771 0
772 -24 0
772 -771 0
773 -32 -772 0
-773 32 0
-773 772 0
-774 34 773 0
774 -34 0
774 -773 0
775 -357 -774 0
-775 357 0
-775 774 0
-776 361 767 483 484 775 358 0
776 -361 0
776 -767 0
776 -483 0
776 -484 0
776 -775 0
776 -358 0
777 -363 -776 0
-777 363 0
-777 776 0
-778 510 777 516 0
778 -510 0
778 -777 0
778 -516 0
779 -606 -778 0
-779 606 0
-779 778 0
780 -546 -718 0
-780 546 0
-780 718 0
781 -50 -724 0
-781 50 0
-781 724 0
-782 52 780 146 781 0
782 -52 0
782 -780 0
782 -146 0
782 -781 0
783 -60 -782 0
-783 60 0
-783 782 0
-784 20 783 725 728 0
784 -20 0
784 -783 0
784 -725 0
784 -728 0
785 -22 -784 0
-785 22 0
-785 784 0
-786 24 719 785 0
786 -24 0
786 -719 0
786 -785 0
787 -65 -786 0
-787 65 0
-787 786 0
-788 24 719 0
788 -24 0
788 -719 0
789 -26 -788 0
-789 26 0
-789 788 0
790 -546 -748 0
-790 546 0
-790 748 0
791 -28 -788 0
-791 28 0
-791 788 0
792 -32 -788 0
-792 32 0
-792 788 0
-793 34 792 0
793 -34 0
793 -792 0
794 -36 -793 0
-794 36 0
-794 793 0
-795 38 791 794 0
795 -38 0
795 -791 0
795 -794 0
796 -40 -795 0
-796 40 0
-796 795 0
797 -50 -744 0
-797 50 0
-797 744 0
-798 52 789 790 796 797 0
798 -52 0
798 -789 0
798 -790 0
798 -796 0
798 -797 0
799 -60 -798 0
-799 60 0
-799 798 0
-800 20 799 745 751 0
800 -20 0
800 -799 0
800 -745 0
800 -751 0
801 -77 -800 0
-801 77 0
-801 800 0
-802 5 645 0
802 -5 0
802 -645 0
803 -7 -802 0
-803 7 0
-803 802 0
-804 9 803 0
804 -9 0
804 -803 0
805 -79 -804 0
-805 79 0
-805 804 0
806 -81 -800 0
-806 81 0
-806 800 0
-807 20 214 198 0
807 -20 0
807 -214 0
807 -198 0
808 -22 -807 0
-808 22 0
-808 807 0
-809 24 808 0
809 -24 0
809 -808 0
810 -171 -809 0
-810 171 0
-810 809 0
-811 20 769 198 0
811 -20 0
811 -769 0
811 -198 0
812 -22 -811 0
-812 22 0
-812 811 0
-813 24 812 0
813 -24 0
813 -812 0
814 -32 -813 0
-814 32 0
-814 813 0
-815 34 814 0
815 -34 0
815 -814 0
816 -357 -815 0
-816 357 0
-816 815 0
-817 361 810 483 484 816 358 0
817 -361 0
817 -810 0
817 -483 0
817 -484 0
817 -816 0
817 -358 0
818 -363 -817 0
-818 363 0
-818 817 0
-819 510 818 516 0
819 -510 0
819 -818 0
819 -516 0
820 -522 -819 0
-820 522 0
-820 819 0
-821 18 820 0
821 -18 0
821 -820 0
822 -83 -821 0
-822 83 0
-822 821 0
-823 85 806 822 0
823 -85 0
823 -806 0
823 -822 0
824 -87 -823 0
-824 87 0
-824 823 0
825 -89 -765 0
-825 89 0
-825 765 0
826 -91 -765 0
-826 91 0
-826 765 0
827 -93 -800 0
-827 93 0
-827 800 0
-828 52 629 146 210 0
828 -52 0
828 -629 0
828 -146 0
828 -210 0
829 -60 -828 0
-829 60 0
-829 828 0
-830 20 829 198 575 0
830 -20 0
830 -829 0
830 -198 0
830 -575 0
831 -22 -830 0
-831 22 0
-831 830 0
-832 24 548 831 0
832 -24 0
832 -548 0
832 -831 0
833 -171 -832 0
-833 171 0
-833 832 0
-834 52 629 332 210 0
834 -52 0
834 -629 0
834 -332 0
834 -210 0
835 -60 -834 0
-835 60 0
-835 834 0
-836 20 835 198 575 0
836 -20 0
836 -835 0
836 -198 0
836 -575 0
837 -22 -836 0
-837 22 0
-837 836 0
-838 24 548 837 0
838 -24 0
838 -548 0
838 -837 0
839 -32 -838 0
-839 32 0
-839 838 0
-840 34 839 0
840 -34 0
840 -839 0
841 -357 -840 0
-841 357 0
-841 840 0
-842 361 833 483 484 841 524 0
842 -361 0
842 -833 0
842 -483 0
842 -484 0
842 -841 0
842 -524 0
843 -495 -842 0
-843 495 0
-843 842 0
844 -706 -778 0
-844 706 0
-844 778 0
845 -497 -842 0
-845 497 0
-845 842 0
-846 96 844 845 0
846 -96 0
846 -844 0
846 -845 0
847 -95 -846 0
-847 95 0
-847 846 0
-848 98 826 827 843 847 0
848 -98 0
848 -826 0
848 -827 0
848 -843 0
848 -847 0
849 -100 -848 0
-849 100 0
-849 848 0
-850 102 825 849 0
850 -102 0
850 -825 0
850 -849 0
851 -104 -850 0
-851 104 0
-851 850 0
-852 106 766 779 787 801 805 824 851 0
852 -106 0
852 -766 0
852 -779 0
852 -787 0
852 -801 0
852 -805 0
852 -824 0
852 -851 0
853 -127 -852 0
-853 127 0
-853 852 0
-854 3 853 0
854 -3 0
854 -853 0
855 -42 -854 0
-855 42 0
-855 854 0
-856 20 239 575 0
856 -20 0
856 -239 0
856 -575 0
857 -22 -856 0
-857 22 0
-857 856 0
-858 24 548 857 0
858 -24 0
858 -548 0
858 -857 0
859 -26 -858 0
-859 26 0
-859 858 0
860 -28 -858 0
-860 28 0
-860 858 0
861 -30 -856 0
-861 30 0
-861 856 0
862 -32 -858 0
-862 32 0
-862 858 0
-863 34 862 0
863 -34 0
863 -862 0
864 -36 -863 0
-864 36 0
-864 863 0
-865 38 860 861 864 0
865 -38 0
865 -860 0
865 -861 0
865 -864 0
866 -40 -865 0
-866 40 0
-866 865 0
-867 52 859 629 866 251 0
867 -52 0
867 -859 0
867 -629 0
867 -866 0
867 -251 0
868 -54 -867 0
-868 54 0
-868 867 0
869 -606 -520 0
-869 606 0
-869 520 0
870 -65 -634 0
-870 65 0
-870 634 0
871 -26 -549 0
-871 26 0
-871 549 0
872 -28 -549 0
-872 28 0
-872 549 0
873 -36 -552 0
-873 36 0
-873 552 0
-874 38 872 873 0
874 -38 0
874 -872 0
874 -873 0
875 -40 -874 0
-875 40 0
-875 874 0
-876 52 871 629 875 251 0
876 -52 0
876 -871 0
876 -629 0
876 -875 0
876 -251 0
877 -60 -876 0
-877 60 0
-877 876 0
-878 20 877 239 575 0
878 -20 0
878 -877 0
878 -239 0
878 -575 0
879 -77 -878 0
-879 77 0
-879 878 0
880 -81 -878 0
-880 81 0
-880 878 0
881 -83 -523 0
-881 83 0
-881 523 0
-882 85 880 881 0
882 -85 0
882 -880 0
882 -881 0
883 -87 -882 0
-883 87 0
-883 882 0
884 -89 -867 0
-884 89 0
-884 867 0
885 -91 -867 0
-885 91 0
-885 867 0
886 -93 -878 0
-886 93 0
-886 878 0
887 -706 -520 0
-887 706 0
-887 520 0
-888 96 887 0
888 -96 0
888 -887 0
889 -95 -888 0
-889 95 0
-889 888 0
-890 98 885 886 889 0
890 -98 0
890 -885 0
890 -886 0
890 -889 0
891 -100 -890 0
-891 100 0
-891 890 0
-892 102 884 891 0
892 -102 0
892 -884 0
892 -891 0
893 -104 -892 0
-893 104 0
-893 892 0
-894 106 868 869 870 879 883 893 0
894 -106 0
894 -868 0
894 -869 0
894 -870 0
894 -879 0
894 -883 0
894 -893 0
895 -108 -894 0
-895 108 0
-895 894 0
-896 52 250 251 0
896 -52 0
896 -250 0
896 -251 0
897 -54 -896 0
-897 54 0
-897 896 0
898 -77 -256 0
-898 77 0
-898 256 0
899 -81 -256 0
-899 81 0
-899 256 0
-900 85 899 82 0
900 -85 0
900 -899 0
900 -82 0
901 -87 -900 0
-901 87 0
-901 900 0
902 -89 -896 0
-902 89 0
-902 896 0
903 -91 -896 0
-903 91 0
-903 896 0
904 -93 -256 0
-904 93 0
-904 256 0
-905 98 903 904 94 0
905 -98 0
905 -903 0
905 -904 0
905 -94 0
906 -100 -905 0
-906 100 0
-906 905 0
-907 102 902 906 0
907 -102 0
907 -902 0
907 -906 0
908 -104 -907 0
-908 104 0
-908 907 0
-909 106 897 898 901 908 0
909 -106 0
909 -897 0
909 -898 0
909 -901 0
909 -908 0
910 -127 -909 0
-910 127 0
-910 909 0
-911 3 910 0
911 -3 0
911 -910 0
912 -508 -911 0
-912 508 0
-912 911 0
-913 510 912 0
913 -510 0
913 -912 0
914 -519 -913 0
-914 519 0
-914 913 0
915 -508 -132 0
-915 508 0
-915 132 0
-916 510 915 0
916 -510 0
916 -915 0
917 -546 -916 0
-917 546 0
-917 916 0
-918 85 881 0
918 -85 0
918 -881 0
919 -87 -918 0
-919 87 0
-919 918 0
-920 98 889 0
920 -98 0
920 -889 0
921 -100 -920 0
-921 100 0
-921 920 0
-922 102 921 0
922 -102 0
922 -921 0
923 -104 -922 0
-923 104 0
-923 922 0
-924 106 869 919 923 0
924 -106 0
924 -869 0
924 -919 0
924 -923 0
925 -117 -924 0
-925 117 0
-925 924 0
-926 38 925 55 0
926 -38 0
926 -925 0
926 -55 0
927 -40 -926 0
-927 40 0
-927 926 0
-928 52 917 927 251 0
928 -52 0
928 -917 0
928 -927 0
928 -251 0
929 -60 -928 0
-929 60 0
-929 928 0
930 -54 -254 0
-930 54 0
-930 254 0
931 -89 -254 0
-931 89 0
-931 254 0
932 -91 -254 0
-932 91 0
-932 254 0
-933 98 932 94 0
933 -98 0
933 -932 0
933 -94 0
934 -100 -933 0
-934 100 0
-934 933 0
-935 102 931 934 0
935 -102 0
935 -931 0
935 -934 0
936 -104 -935 0
-936 104 0
-936 935 0
-937 106 930 110 936 0
937 -106 0
937 -930 0
937 -110 0
937 -936 0
938 -127 -937 0
-938 127 0
-938 937 0
-939 3 938 0
939 -3 0
939 -938 0
940 -508 -939 0
-940 508 0
-940 939 0
-941 510 940 0
941 -510 0
941 -940 0
942 -522 -941 0
-942 522 0
-942 941 0
-943 18 942 0
943 -18 0
943 -942 0
944 -17 -943 0
-944 17 0
-944 943 0
-945 20 929 239 944 0
945 -20 0
945 -929 0
945 -239 0
945 -944 0
946 -22 -945 0
-946 22 0
-946 945 0
-947 24 914 946 0
947 -24 0
947 -914 0
947 -946 0
948 -171 -947 0
-948 171 0
-948 947 0
-949 38 245 0
949 -38 0
949 -245 0
950 -40 -949 0
-950 40 0
-950 949 0
-951 52 950 251 0
951 -52 0
951 -950 0
951 -251 0
952 -54 -951 0
-952 54 0
-952 951 0
-953 20 637 239 16 0
953 -20 0
953 -637 0
953 -239 0
953 -16 0
954 -77 -953 0
-954 77 0
-954 953 0
955 -81 -953 0
-955 81 0
-955 953 0
-956 85 955 82 0
956 -85 0
956 -955 0
956 -82 0
957 -87 -956 0
-957 87 0
-957 956 0
958 -89 -951 0
-958 89 0
-958 951 0
959 -91 -951 0
-959 91 0
-959 951 0
960 -93 -953 0
-960 93 0
-960 953 0
-961 98 959 960 94 0
961 -98 0
961 -959 0
961 -960 0
961 -94 0
962 -100 -961 0
-962 100 0
-962 961 0
-963 102 958 962 0
963 -102 0
963 -958 0
963 -962 0
964 -104 -963 0
-964 104 0
-964 963 0
-965 106 952 954 957 964 0
965 -106 0
965 -952 0
965 -954 0
965 -957 0
965 -964 0
966 -127 -965 0
-966 127 0
-966 965 0
-967 3 966 0
967 -3 0
967 -966 0
968 -508 -967 0
-968 508 0
-968 967 0
-969 510 968 0
969 -510 0
969 -968 0
970 -519 -969 0
-970 519 0
-970 969 0
-971 38 925 0
971 -38 0
971 -925 0
972 -40 -971 0
-972 40 0
-972 971 0
-973 52 917 972 251 0
973 -52 0
973 -917 0
973 -972 0
973 -251 0
974 -60 -973 0
-974 60 0
-974 973 0
975 -54 -636 0
-975 54 0
-975 636 0
976 -89 -636 0
-976 89 0
-976 636 0
977 -91 -636 0
-977 91 0
-977 636 0
-978 98 977 94 0
978 -98 0
978 -977 0
978 -94 0
979 -100 -978 0
-979 100 0
-979 978 0
-980 102 976 979 0
980 -102 0
980 -976 0
980 -979 0
981 -104 -980 0
-981 104 0
-981 980 0
-982 106 975 110 981 0
982 -106 0
982 -975 0
982 -110 0
982 -981 0
983 -127 -982 0
-983 127 0
-983 982 0
-984 3 983 0
984 -3 0
984 -983 0
985 -508 -984 0
-985 508 0
-985 984 0
-986 510 985 0
986 -510 0
986 -985 0
987 -522 -986 0
-987 522 0
-987 986 0
-988 18 987 0
988 -18 0
988 -987 0
989 -17 -988 0
-989 17 0
-989 988 0
-990 20 974 239 989 0
990 -20 0
990 -974 0
990 -239 0
990 -989 0
991 -22 -990 0
-991 22 0
-991 990 0
-992 24 970 991 0
992 -24 0
992 -970 0
992 -991 0
993 -32 -992 0
-993 32 0
-993 992 0
-994 34 993 0
994 -34 0
994 -993 0
995 -357 -994 0
-995 357 0
-995 994 0
-996 20 239 0
996 -20 0
996 -239 0
997 -22 -996 0
-997 22 0
-997 996 0
-998 24 997 0
998 -24 0
998 -997 0
999 -26 -998 0
-999 26 0
-999 998 0
1000 -28 -998 0
-1000 28 0
-1000 998 0
1001 -30 -996 0
-1001 30 0
-1001 996 0
1002 -32 -998 0
-1002 32 0
-1002 998 0
-1003 34 1002 0
1003 -34 0
1003 -1002 0
1004 -36 -1003 0
-1004 36 0
-1004 1003 0
-1005 38 1000 1001 1004 0
1005 -38 0
1005 -1000 0
1005 -1001 0
1005 -1004 0
1006 -40 -1005 0
-1006 40 0
-1006 1005 0
-1007 52 999 1006 251 0
1007 -52 0
1007 -999 0
1007 -1006 0
1007 -251 0
1008 -54 -1007 0
-1008 54 0
-1008 1007 0
-1009 20 255 239 0
1009 -20 0
1009 -255 0
1009 -239 0
1010 -22 -1009 0
-1010 22 0
-1010 1009 0
-1011 24 1010 0
1011 -24 0
1011 -1010 0
1012 -65 -1011 0
-1012 65 0
-1012 1011 0
-1013 20 261 239 0
1013 -20 0
1013 -261 0
1013 -239 0
1014 -77 -1013 0
-1014 77 0
-1014 1013 0
1015 -81 -1013 0
-1015 81 0
-1015 1013 0
-1016 85 1015 82 0
1016 -85 0
1016 -1015 0
1016 -82 0
1017 -87 -1016 0
-1017 87 0
-1017 1016 0
1018 -89 -1007 0
-1018 89 0
-1018 1007 0
1019 -91 -1007 0
-1019 91 0
-1019 1007 0
1020 -93 -1013 0
-1020 93 0
-1020 1013 0
-1021 98 1019 1020 94 0
1021 -98 0
1021 -1019 0
1021 -1020 0
1021 -94 0
1022 -100 -1021 0
-1022 100 0
-1022 1021 0
-1023 102 1018 1022 0
1023 -102 0
1023 -1018 0
1023 -1022 0
1024 -104 -1023 0
-1024 104 0
-1024 1023 0
-1025 106 1008 1012 1014 1017 1024 0
1025 -106 0
1025 -1008 0
1025 -1012 0
1025 -1014 0
1025 -1017 0
1025 -1024 0
1026 -127 -1025 0
-1026 127 0
-1026 1025 0
-1027 3 1026 0
1027 -3 0
1027 -1026 0
1028 -508 -1027 0
-1028 508 0
-1028 1027 0
-1029 510 1028 0
1029 -510 0
1029 -1028 0
1030 -522 -1029 0
-1030 522 0
-1030 1029 0
-1031 18 1030 0
1031 -18 0
1031 -1030 0
1032 -359 -1031 0
-1032 359 0
-1032 1031 0
-1033 361 895 948 398 995 1032 0
1033 -361 0
1033 -895 0
1033 -948 0
1033 -398 0
1033 -995 0
1033 -1032 0
1034 -368 -1033 0
-1034 368 0
-1034 1033 0
1035 -363 -400 0
-1035 363 0
-1035 400 0
-1036 510 1035 516 0
1036 -510 0
1036 -1035 0
1036 -516 0
1037 -519 -1036 0
-1037 519 0
-1037 1036 0
1038 -363 -420 0
-1038 363 0
-1038 420 0
-1039 510 1038 516 0
1039 -510 0
1039 -1038 0
1039 -516 0
1040 -522 -1039 0
-1040 522 0
-1040 1039 0
-1041 18 1040 0
1041 -18 0
1041 -1040 0
1042 -17 -1041 0
-1042 17 0
-1042 1041 0
-1043 20 239 1042 0
1043 -20 0
1043 -239 0
1043 -1042 0
1044 -22 -1043 0
-1044 22 0
-1044 1043 0
-1045 24 1037 1044 0
1045 -24 0
1045 -1037 0
1045 -1044 0
1046 -26 -1045 0
-1046 26 0
-1046 1045 0
1047 -546 -1036 0
-1047 546 0
-1047 1036 0
1048 -28 -1045 0
-1048 28 0
-1048 1045 0
1049 -363 -435 0
-1049 363 0
-1049 435 0
-1050 510 1049 516 0
1050 -510 0
1050 -1049 0
1050 -516 0
1051 -522 -1050 0
-1051 522 0
-1051 1050 0
-1052 18 1051 0
1052 -18 0
1052 -1051 0
1053 -17 -1052 0
-1053 17 0
-1053 1052 0
-1054 20 239 1053 0
1054 -20 0
1054 -239 0
1054 -1053 0
1055 -30 -1054 0
-1055 30 0
-1055 1054 0
1056 -519 -1039 0
-1056 519 0
-1056 1039 0
-1057 24 1056 1044 0
1057 -24 0
1057 -1056 0
1057 -1044 0
1058 -32 -1057 0
-1058 32 0
-1058 1057 0
-1059 34 1058 0
1059 -34 0
1059 -1058 0
1060 -36 -1059 0
-1060 36 0
-1060 1059 0
-1061 38 1048 1055 1060 0
1061 -38 0
1061 -1048 0
1061 -1055 0
1061 -1060 0
1062 -40 -1061 0
-1062 40 0
-1062 1061 0
-1063 52 1046 1047 1062 251 0
1063 -52 0
1063 -1046 0
1063 -1047 0
1063 -1062 0
1063 -251 0
1064 -54 -1063 0
-1064 54 0
-1064 1063 0
1065 -171 -258 0
-1065 171 0
-1065 258 0
1066 -22 -953 0
-1066 22 0
-1066 953 0
-1067 24 1066 0
1067 -24 0
1067 -1066 0
1068 -32 -1067 0
-1068 32 0
-1068 1067 0
-1069 34 1068 0
1069 -34 0
1069 -1068 0
1070 -357 -1069 0
-1070 357 0
-1070 1069 0
-1071 361 1065 364 398 1070 358 0
1071 -361 0
1071 -1065 0
1071 -364 0
1071 -398 0
1071 -1070 0
1071 -358 0
1072 -363 -1071 0
-1072 363 0
-1072 1071 0
-1073 510 1072 516 0
1073 -510 0
1073 -1072 0
1073 -516 0
1074 -606 -1073 0
-1074 606 0
-1074 1073 0
1075 -546 -1039 0
-1075 546 0
-1075 1039 0
-1076 52 1075 146 251 0
1076 -52 0
1076 -1075 0
1076 -146 0
1076 -251 0
1077 -60 -1076 0
-1077 60 0
-1077 1076 0
-1078 20 1077 239 1042 0
1078 -20 0
1078 -1077 0
1078 -239 0
1078 -1042 0
1079 -22 -1078 0
-1079 22 0
-1079 1078 0
-1080 24 1056 1079 0
1080 -24 0
1080 -1056 0
1080 -1079 0
1081 -65 -1080 0
-1081 65 0
-1081 1080 0
-1082 24 1056 0
1082 -24 0
1082 -1056 0
1083 -26 -1082 0
-1083 26 0
-1083 1082 0
1084 -546 -1050 0
-1084 546 0
-1084 1050 0
1085 -28 -1082 0
-1085 28 0
-1085 1082 0
1086 -32 -1082 0
-1086 32 0
-1086 1082 0
-1087 34 1086 0
1087 -34 0
1087 -1086 0
1088 -36 -1087 0
-1088 36 0
-1088 1087 0
-1089 38 1085 1088 0
1089 -38 0
1089 -1085 0
1089 -1088 0
1090 -40 -1089 0
-1090 40 0
-1090 1089 0
-1091 52 1083 1084 1090 251 0
1091 -52 0
1091 -1083 0
1091 -1084 0
1091 -1090 0
1091 -251 0
1092 -60 -1091 0
-1092 60 0
-1092 1091 0
-1093 20 1092 239 1053 0
1093 -20 0
1093 -1092 0
1093 -239 0
1093 -1053 0
1094 -77 -1093 0
-1094 77 0
-1094 1093 0
1095 -81 -1093 0
-1095 81 0
-1095 1093 0
1096 -171 -1011 0
-1096 171 0
-1096 1011 0
-1097 20 637 239 0
1097 -20 0
1097 -637 0
1097 -239 0
1098 -22 -1097 0
-1098 22 0
-1098 1097 0
-1099 24 1098 0
1099 -24 0
1099 -1098 0
1100 -32 -1099 0
-1100 32 0
-1100 1099 0
-1101 34 1100 0
1101 -34 0
1101 -1100 0
1102 -357 -1101 0
-1102 357 0
-1102 1101 0
-1103 361 1096 364 398 1102 358 0
1103 -361 0
1103 -1096 0
1103 -364 0
1103 -398 0
1103 -1102 0
1103 -358 0
1104 -363 -1103 0
-1104 363 0
-1104 1103 0
-1105 510 1104 516 0
1105 -510 0
1105 -1104 0
1105 -516 0
1106 -522 -1105 0
-1106 522 0
-1106 1105 0
-1107 18 1106 0
1107 -18 0
1107 -1106 0
1108 -83 -1107 0
-1108 83 0
-1108 1107 0
-1109 85 1095 1108 0
1109 -85 0
1109 -1095 0
1109 -1108 0
1110 -87 -1109 0
-1110 87 0
-1110 1109 0
1111 -89 -1063 0
-1111 89 0
-1111 1063 0
1112 -91 -1063 0
-1112 91 0
-1112 1063 0
1113 -93 -1093 0
-1113 93 0
-1113 1093 0
1114 -495 -644 0
-1114 495 0
-1114 644 0
1115 -706 -1073 0
-1115 706 0
-1115 1073 0
1116 -497 -644 0
-1116 497 0
-1116 644 0
-1117 96 1115 1116 0
1117 -96 0
1117 -1115 0
1117 -1116 0
1118 -95 -1117 0
-1118 95 0
-1118 1117 0
-1119 98 1112 1113 1114 1118 0
1119 -98 0
1119 -1112 0
1119 -1113 0
1119 -1114 0
1119 -1118 0
1120 -100 -1119 0
-1120 100 0
-1120 1119 0
-1121 102 1111 1120 0
1121 -102 0
1121 -1111 0
1121 -1120 0
1122 -104 -1121 0
-1122 104 0
-1122 1121 0
-1123 106 1064 1074 1081 1094 1110 1122 0
1123 -106 0
1123 -1064 0
1123 -1074 0
1123 -1081 0
1123 -1094 0
1123 -1110 0
1123 -1122 0
1124 -127 -1123 0
-1124 127 0
-1124 1123 0
-1125 3 1124 0
1125 -3 0
1125 -1124 0
1126 -2 -1125 0
-1126 2 0
-1126 1125 0
-1127 5 1034 1126 0
1127 -5 0
1127 -1034 0
1127 -1126 0
1128 -7 -1127 0
-1128 7 0
-1128 1127 0
-1129 9 1128 0
1129 -9 0
1129 -1128 0
1130 -44 -1129 0
-1130 44 0
-1130 1129 0
-1131 46 715 855 1130 0
1131 -46 0
1131 -715 0
1131 -855 0
1131 -1130 0
1132 -1133 -1131 0
-1132 1133 0
-1132 1131 0
-1134 1135 511 1132 0
1134 -1135 0
1134 -511 0
1134 -1132 0
1136 -1137 -1134 0
-1136 1137 0
-1136 1134 0
1138 -512 -704 0
-1138 512 0
-1138 704 0
-1139 1135 1138 0
1139 -1135 0
1139 -1138 0
1140 -1141 -1139 0
-1140 1141 0
-1140 1139 0
1142 -606 -704 0
-1142 606 0
-1142 704 0
1143 -1144 -1139 0
-1143 1144 0
-1143 1139 0
-1145 98 1143 674 675 691 709 0
1145 -98 0
1145 -1143 0
1145 -674 0
1145 -675 0
1145 -691 0
1145 -709 0
1146 -100 -1145 0
-1146 100 0
-1146 1145 0
-1147 102 673 1146 0
1147 -102 0
1147 -673 0
1147 -1146 0
1148 -104 -1147 0
-1148 104 0
-1148 1147 0
-1149 106 1140 592 1142 614 628 649 672 1148 0
1149 -106 0
1149 -1140 0
1149 -592 0
1149 -1142 0
1149 -614 0
1149 -628 0
1149 -649 0
1149 -672 0
1149 -1148 0
1150 -121 -1149 0
-1150 121 0
-1150 1149 0
1151 -512 -778 0
-1151 512 0
-1151 778 0
-1152 1135 1151 0
1152 -1135 0
1152 -1151 0
1153 -1141 -1152 0
-1153 1141 0
-1153 1152 0
1154 -1144 -1152 0
-1154 1144 0
-1154 1152 0
-1155 98 1154 826 827 843 847 0
1155 -98 0
1155 -1154 0
1155 -826 0
1155 -827 0
1155 -843 0
1155 -847 0
1156 -100 -1155 0
-1156 100 0
-1156 1155 0
-1157 102 825 1156 0
1157 -102 0
1157 -825 0
1157 -1156 0
1158 -104 -1157 0
-1158 104 0
-1158 1157 0
-1159 106 1153 766 779 787 801 805 824 1158 0
1159 -106 0
1159 -1153 0
1159 -766 0
1159 -779 0
1159 -787 0
1159 -801 0
1159 -805 0
1159 -824 0
1159 -1158 0
1160 -127 -1159 0
-1160 127 0
-1160 1159 0
-1161 3 1160 0
1161 -3 0
1161 -1160 0
1162 -42 -1161 0
-1162 42 0
-1162 1161 0
1163 -512 -520 0
-1163 512 0
-1163 520 0
-1164 1135 1163 0
1164 -1135 0
1164 -1163 0
1165 -1141 -1164 0
-1165 1141 0
-1165 1164 0
1166 -1144 -1164 0
-1166 1144 0
-1166 1164 0
-1167 98 1166 885 886 889 0
1167 -98 0
1167 -1166 0
1167 -885 0
1167 -886 0
1167 -889 0
1168 -100 -1167 0
-1168 100 0
-1168 1167 0
-1169 102 884 1168 0
1169 -102 0
1169 -884 0
1169 -1168 0
1170 -104 -1169 0
-1170 104 0
-1170 1169 0
-1171 106 1165 868 869 870 879 883 1170 0
1171 -106 0
1171 -1165 0
1171 -868 0
1171 -869 0
1171 -870 0
1171 -879 0
1171 -883 0
1171 -1170 0
1172 -108 -1171 0
-1172 108 0
-1172 1171 0
-1173 98 1166 903 904 94 0
1173 -98 0
1173 -1166 0
1173 -903 0
1173 -904 0
1173 -94 0
1174 -100 -1173 0
-1174 100 0
-1174 1173 0
-1175 102 902 1174 0
1175 -102 0
1175 -902 0
1175 -1174 0
1176 -104 -1175 0
-1176 104 0
-1176 1175 0
-1177 106 1165 897 898 901 1176 0
1177 -106 0
1177 -1165 0
1177 -897 0
1177 -898 0
1177 -901 0
1177 -1176 0
1178 -127 -1177 0
-1178 127 0
-1178 1177 0
-1179 3 1178 0
1179 -3 0
1179 -1178 0
1180 -508 -1179 0
-1180 508 0
-1180 1179 0
-1181 510 1180 0
1181 -510 0
1181 -1180 0
1182 -519 -1181 0
-1182 519 0
-1182 1181 0
-1183 98 1166 94 0
1183 -98 0
1183 -1166 0
1183 -94 0
1184 -100 -1183 0
-1184 100 0
-1184 1183 0
-1185 102 1184 0
1185 -102 0
1185 -1184 0
1186 -104 -1185 0
-1186 104 0
-1186 1185 0
-1187 106 1165 110 1186 0
1187 -106 0
1187 -1165 0
1187 -110 0
1187 -1186 0
1188 -127 -1187 0
-1188 127 0
-1188 1187 0
-1189 3 1188 0
1189 -3 0
1189 -1188 0
1190 -508 -1189 0
-1190 508 0
-1190 1189 0
-1191 510 1190 0
1191 -510 0
1191 -1190 0
1192 -546 -1191 0
-1192 546 0
-1192 1191 0
-1193 98 1166 889 0
1193 -98 0
1193 -1166 0
1193 -889 0
1194 -100 -1193 0
-1194 100 0
-1194 1193 0
-1195 102 1194 0
1195 -102 0
1195 -1194 0
1196 -104 -1195 0
-1196 104 0
-1196 1195 0
-1197 106 1165 869 919 1196 0
1197 -106 0
1197 -1165 0
1197 -869 0
1197 -919 0
1197 -1196 0
1198 -117 -1197 0
-1198 117 0
-1198 1197 0
-1199 38 1198 55 0
1199 -38 0
1199 -1198 0
1199 -55 0
1200 -40 -1199 0
-1200 40 0
-1200 1199 0
-1201 52 1192 1200 251 0
1201 -52 0
1201 -1192 0
1201 -1200 0
1201 -251 0
1202 -60 -1201 0
-1202 60 0
-1202 1201 0
-1203 98 1166 932 94 0
1203 -98 0
1203 -1166 0
1203 -932 0
1203 -94 0
1204 -100 -1203 0
-1204 100 0
-1204 1203 0
-1205 102 931 1204 0
1205 -102 0
1205 -931 0
1205 -1204 0
1206 -104 -1205 0
-1206 104 0
-1206 1205 0
-1207 106 1165 930 110 1206 0
1207 -106 0
1207 -1165 0
1207 -930 0
1207 -110 0
1207 -1206 0
1208 -127 -1207 0
-1208 127 0
-1208 1207 0
-1209 3 1208 0
1209 -3 0
1209 -1208 0
1210 -508 -1209 0
-1210 508 0
-1210 1209 0
-1211 510 1210 0
1211 -510 0
1211 -1210 0
1212 -522 -1211 0
-1212 522 0
-1212 1211 0
-1213 18 1212 0
1213 -18 0
1213 -1212 0
1214 -17 -1213 0
-1214 17 0
-1214 1213 0
-1215 20 1202 239 1214 0
1215 -20 0
1215 -1202 0
1215 -239 0
1215 -1214 0
1216 -22 -1215 0
-1216 22 0
-1216 1215 0
-1217 24 1182 1216 0
1217 -24 0
1217 -1182 0
1217 -1216 0
1218 -171 -1217 0
-1218 171 0
-1218 1217 0
-1219 98 1166 959 960 94 0
1219 -98 0
1219 -1166 0
1219 -959 0
1219 -960 0
1219 -94 0
1220 -100 -1219 0
-1220 100 0
-1220 1219 0
-1221 102 958 1220 0
1221 -102 0
1221 -958 0
1221 -1220 0
1222 -104 -1221 0
-1222 104 0
-1222 1221 0
-1223 106 1165 952 954 957 1222 0
1223 -106 0
1223 -1165 0
1223 -952 0
1223 -954 0
1223 -957 0
1223 -1222 0
1224 -127 -1223 0
-1224 127 0
-1224 1223 0
-1225 3 1224 0
1225 -3 0
1225 -1224 0
1226 -508 -1225 0
-1226 508 0
-1226 1225 0
-1227 510 1226 0
1227 -510 0
1227 -1226 0
1228 -519 -1227 0
-1228 519 0
-1228 1227 0
-1229 38 1198 0
1229 -38 0
1229 -1198 0
1230 -40 -1229 0
-1230 40 0
-1230 1229 0
-1231 52 1192 1230 251 0
1231 -52 0
1231 -1192 0
1231 -1230 0
1231 -251 0
1232 -60 -1231 0
-1232 60 0
-1232 1231 0
-1233 98 1166 977 94 0
1233 -98 0
1233 -1166 0
1233 -977 0
1233 -94 0
1234 -100 -1233 0
-1234 100 0
-1234 1233 0
-1235 102 976 1234 0
1235 -102 0
1235 -976 0
1235 -1234 0
1236 -104 -1235 0
-1236 104 0
-1236 1235 0
-1237 106 1165 975 110 1236 0
1237 -106 0
1237 -1165 0
1237 -975 0
1237 -110 0
1237 -1236 0
1238 -127 -1237 0
-1238 127 0
-1238 1237 0
-1239 3 1238 0
1239 -3 0
1239 -1238 0
1240 -508 -1239 0
-1240 508 0
-1240 1239 0
-1241 510 1240 0
1241 -510 0
1241 -1240 0
1242 -522 -1241 0
-1242 522 0
-1242 1241 0
-1243 18 1242 0
1243 -18 0
1243 -1242 0
1244 -17 -1243 0
-1244 17 0
-1244 1243 0
-1245 20 1232 239 1244 0
1245 -20 0
1245 -1232 0
1245 -239 0
1245 -1244 0
1246 -22 -1245 0
-1246 22 0
-1246 1245 0
-1247 24 1228 1246 0
1247 -24 0
1247 -1228 0
1247 -1246 0
1248 -32 -1247 0
-1248 32 0
-1248 1247 0
-1249 34 1248 0
1249 -34 0
1249 -1248 0
1250 -357 -1249 0
-1250 357 0
-1250 1249 0
-1251 98 1166 1019 1020 94 0
1251 -98 0
1251 -1166 0
1251 -1019 0
1251 -1020 0
1251 -94 0
1252 -100 -1251 0
-1252 100 0
-1252 1251 0
-1253 102 1018 1252 0
1253 -102 0
1253 -1018 0
1253 -1252 0
1254 -104 -1253 0
-1254 104 0
-1254 1253 0
-1255 106 1165 1008 1012 1014 1017 1254 0
1255 -106 0
1255 -1165 0
1255 -1008 0
1255 -1012 0
1255 -1014 0
1255 -1017 0
1255 -1254 0
1256 -127 -1255 0
-1256 127 0
-1256 1255 0
-1257 3 1256 0
1257 -3 0
1257 -1256 0
1258 -508 -1257 0
-1258 508 0
-1258 1257 0
-1259 510 1258 0
1259 -510 0
1259 -1258 0
1260 -522 -1259 0
-1260 522 0
-1260 1259 0
-1261 18 1260 0
1261 -18 0
1261 -1260 0
1262 -359 -1261 0
-1262 359 0
-1262 1261 0
-1263 361 1172 1218 398 1250 1262 0
1263 -361 0
1263 -1172 0
1263 -1218 0
1263 -398 0
1263 -1250 0
1263 -1262 0
1264 -368 -1263 0
-1264 368 0
-1264 1263 0
1265 -512 -1073 0
-1265 512 0
-1265 1073 0
-1266 1135 1265 0
1266 -1135 0
1266 -1265 0
1267 -1141 -1266 0
-1267 1141 0
-1267 1266 0
1268 -1144 -1266 0
-1268 1144 0
-1268 1266 0
-1269 98 1268 1112 1113 1114 1118 0
1269 -98 0
1269 -1268 0
1269 -1112 0
1269 -1113 0
1269 -1114 0
1269 -1118 0
1270 -100 -1269 0
-1270 100 0
-1270 1269 0
-1271 102 1111 1270 0
1271 -102 0
1271 -1111 0
1271 -1270 0
1272 -104 -1271 0
-1272 104 0
-1272 1271 0
-1273 106 1267 1064 1074 1081 1094 1110 1272 0
1273 -106 0
1273 -1267 0
1273 -1064 0
1273 -1074 0
1273 -1081 0
1273 -1094 0
1273 -1110 0
1273 -1272 0
1274 -127 -1273 0
-1274 127 0
-1274 1273 0
-1275 3 1274 0
1275 -3 0
1275 -1274 0
1276 -2 -1275 0
-1276 2 0
-1276 1275 0
-1277 5 1264 1276 0
1277 -5 0
1277 -1264 0
1277 -1276 0
1278 -7 -1277 0
-1278 7 0
-1278 1277 0
-1279 9 1278 0
1279 -9 0
1279 -1278 0
1280 -44 -1279 0
-1280 44 0
-1280 1279 0
-1281 46 1150 1162 1280 0
1281 -46 0
1281 -1150 0
1281 -1162 0
1281 -1280 0
1282 -1283 -1281 0
-1282 1283 0
-1282 1281 0
-1284 1285 1136 1282 0
1284 -1285 0
1284 -1136 0
1284 -1282 0
1286 -1284 -1287 0
-1286 1284 0
-1286 1287 0
1286 0
