c BC-S1.2
p cnf 116 293
1 -2 -3 0
-1 2 0
-1 3 0
4 -5 -3 0
-4 5 0
-4 3 0
6 -7 -3 0
-6 7 0
-6 3 0
8 -9 -10 0
-8 9 0
-8 10 0
-11 12 6 8 0
11 -12 0
11 -6 0
11 -8 0
13 -14 -11 0
-13 14 0
-13 11 0
15 -16 -10 0
-15 16 0
-15 10 0
17 -18 -11 0
-17 18 0
-17 11 0
-19 20 17 0
19 -20 0
19 -17 0
21 -22 -19 0
-21 22 0
-21 19 0
-23 24 15 21 0
23 -24 0
23 -15 0
23 -21 0
25 -26 -23 0
-25 26 0
-25 23 0
-27 28 4 13 25 0
27 -28 0
27 -4 0
27 -13 0
27 -25 0
29 -30 -27 0
-29 30 0
-29 27 0
-31 32 1 29 0
31 -32 0
31 -1 0
31 -29 0
33 -34 -31 0
-33 34 0
-33 31 0
-35 32 1 0
35 -32 0
35 -1 0
36 -37 -35 0
-36 37 0
-36 35 0
-38 12 6 36 8 0
38 -12 0
38 -6 0
38 -36 0
38 -8 0
39 -14 -38 0
-39 14 0
-39 38 0
40 -18 -38 0
-40 18 0
-40 38 0
-41 20 40 0
41 -20 0
41 -40 0
42 -22 -41 0
-42 22 0
-42 41 0
-43 24 15 42 0
43 -24 0
43 -15 0
43 -42 0
44 -26 -43 0
-44 26 0
-44 43 0
-45 28 4 39 44 0
45 -28 0
45 -4 0
45 -39 0
45 -44 0
46 -47 -45 0
-46 47 0
-46 45 0
-48 49 33 46 0
48 -49 0
48 -33 0
48 -46 0
50 -51 -48 0
-50 51 0
-50 48 0
52 -53 -49 0
-52 53 0
-52 49 0
54 -55 -49 0
-54 55 0
-54 49 0
-56 10 54 0
56 -10 0
56 -54 0
57 -9 -56 0
-57 9 0
-57 56 0
-58 12 6 52 57 0
58 -12 0
58 -6 0
58 -52 0
58 -57 0
59 -14 -58 0
-59 14 0
-59 58 0
60 -61 -49 0
-60 61 0
-60 49 0
62 -16 -56 0
-62 16 0
-62 56 0
63 -64 -49 0
-63 64 0
-63 49 0
65 -18 -58 0
-65 18 0
-65 58 0
-66 20 63 65 0
66 -20 0
66 -63 0
66 -65 0
67 -22 -66 0
-67 22 0
-67 66 0
-68 24 60 62 67 0
68 -24 0
68 -60 0
68 -62 0
68 -67 0
69 -26 -68 0
-69 26 0
-69 68 0
-70 28 4 59 69 0
70 -28 0
70 -4 0
70 -59 0
70 -69 0
71 -30 -70 0
-71 30 0
-71 70 0
-72 32 1 71 0
72 -32 0
72 -1 0
72 -71 0
73 -74 -72 0
-73 74 0
-73 72 0
-75 28 4 25 0
75 -28 0
75 -4 0
75 -25 0
76 -30 -75 0
-76 30 0
-76 75 0
-77 32 1 76 0
77 -32 0
77 -1 0
77 -76 0
78 -34 -77 0
-78 34 0
-78 77 0
-79 28 4 44 0
79 -28 0
79 -4 0
79 -44 0
80 -47 -79 0
-80 47 0
-80 79 0
-81 49 78 80 0
81 -49 0
81 -78 0
81 -80 0
82 -53 -81 0
-82 53 0
-82 81 0
-83 28 4 69 0
83 -28 0
83 -4 0
83 -69 0
84 -30 -83 0
-84 30 0
-84 83 0
-85 32 1 84 0
85 -32 0
85 -1 0
85 -84 0
86 -37 -85 0
-86 37 0
-86 85 0
87 -22 -20 0
-87 22 0
-87 20 0
-88 24 15 87 0
88 -24 0
88 -15 0
88 -87 0
89 -26 -88 0
-89 26 0
-89 88 0
-90 28 4 89 0
90 -28 0
90 -4 0
90 -89 0
91 -30 -90 0
-91 30 0
-91 90 0
-92 32 1 91 0
92 -32 0
92 -1 0
92 -91 0
93 -34 -92 0
-93 34 0
-93 92 0
94 -47 -90 0
-94 47 0
-94 90 0
-95 49 93 94 0
95 -49 0
95 -93 0
95 -94 0
96 -55 -95 0
-96 55 0
-96 95 0
97 -34 -35 0
-97 34 0
-97 35 0
-98 49 97 0
98 -49 0
98 -97 0
99 -61 -98 0
-99 61 0
-99 98 0
100 -64 -98 0
-100 64 0
-100 98 0
-101 20 100 0
101 -20 0
101 -100 0
102 -22 -101 0
-102 22 0
-102 101 0
-103 24 99 102 0
103 -24 0
103 -99 0
103 -102 0
104 -26 -103 0
-104 26 0
-104 103 0
-105 28 4 104 0
105 -28 0
105 -4 0
105 -104 0
106 -107 -105 0
-106 107 0
-106 105 0
-108 10 96 106 0
108 -10 0
108 -96 0
108 -106 0
109 -9 -108 0
-109 9 0
-109 108 0
-110 12 6 82 86 109 0
110 -12 0
110 -6 0
110 -82 0
110 -86 0
110 -109 0
111 -112 -110 0
-111 112 0
-111 110 0
-113 114 50 73 111 0
113 -114 0
113 -50 0
113 -73 0
113 -111 0
115 -113 -116 0
-115 113 0
-115 116 0
115 0
