c BC-S1.2
p cnf 2288 8906
1 -2 -3 0
-1 2 0
-1 3 0
-4 5 1 0
4 -5 0
4 -1 0
6 -7 -4 0
-6 7 0
-6 4 0
8 -9 -10 0
-8 9 0
-8 10 0
-11 12 8 0
11 -12 0
11 -8 0
13 -14 -11 0
-13 14 0
-13 11 0
15 -16 -10 0
-15 16 0
-15 10 0
-17 18 15 0
17 -18 0
17 -15 0
19 -20 -17 0
-19 20 0
-19 17 0
-21 22 19 0
21 -22 0
21 -19 0
23 -24 -21 0
-23 24 0
-23 21 0
-25 26 13 23 0
25 -26 0
25 -13 0
25 -23 0
27 -28 -25 0
-27 28 0
-27 25 0
29 -24 -22 0
-29 24 0
-29 22 0
-30 26 13 29 0
30 -26 0
30 -13 0
30 -29 0
31 -32 -30 0
-31 32 0
-31 30 0
-33 18 15 31 0
33 -18 0
33 -15 0
33 -31 0
34 -35 -33 0
-34 35 0
-34 33 0
36 -37 -38 0
-36 37 0
-36 38 0
39 -40 -41 0
-39 40 0
-39 41 0
42 -43 -44 0
-42 43 0
-42 44 0
45 -46 -47 0
-45 46 0
-45 47 0
-48 49 45 0
48 -49 0
48 -45 0
50 -51 -48 0
-50 51 0
-50 48 0
52 -53 -54 0
-52 53 0
-52 54 0
55 -56 -41 0
-55 56 0
-55 41 0
57 -58 -48 0
-57 58 0
-57 48 0
59 -60 -61 0
-59 60 0
-59 61 0
-62 63 52 55 57 59 0
62 -63 0
62 -52 0
62 -55 0
62 -57 0
62 -59 0
64 -65 -62 0
-64 65 0
-64 62 0
-66 67 64 0
66 -67 0
66 -64 0
68 -69 -66 0
-68 69 0
-68 66 0
70 -71 -62 0
-70 71 0
-70 62 0
-72 73 36 39 42 50 68 70 0
72 -73 0
72 -36 0
72 -39 0
72 -42 0
72 -50 0
72 -68 0
72 -70 0
74 -75 -72 0
-74 75 0
-74 72 0
-76 77 74 0
76 -77 0
76 -74 0
78 -79 -76 0
-78 79 0
-78 76 0
-80 26 23 0
80 -26 0
80 -23 0
81 -82 -80 0
-81 82 0
-81 80 0
-83 12 8 81 0
83 -12 0
83 -8 0
83 -81 0
84 -85 -83 0
-84 85 0
-84 83 0
86 -87 -88 0
-86 87 0
-86 88 0
89 -90 -91 0
-89 90 0
-89 91 0
92 -93 -44 0
-92 93 0
-92 44 0
94 -95 -96 0
-94 95 0
-94 96 0
-97 98 6 27 34 78 84 86 89 92 94 0
97 -98 0
97 -6 0
97 -27 0
97 -34 0
97 -78 0
97 -84 0
97 -86 0
97 -89 0
97 -92 0
97 -94 0
99 -100 -97 0
-99 100 0
-99 97 0
-101 98 27 34 78 84 86 89 92 94 0
101 -98 0
101 -27 0
101 -34 0
101 -78 0
101 -84 0
101 -86 0
101 -89 0
101 -92 0
101 -94 0
102 -103 -101 0
-102 103 0
-102 101 0
104 -105 -101 0
-104 105 0
-104 101 0
-106 3 104 0
106 -3 0
106 -104 0
107 -2 -106 0
-107 2 0
-107 106 0
-108 5 102 107 0
108 -5 0
108 -102 0
108 -107 0
109 -110 -108 0
-109 110 0
-109 108 0
111 -79 -77 0
-111 79 0
-111 77 0
-112 98 6 27 34 111 84 86 89 92 94 0
112 -98 0
112 -6 0
112 -27 0
112 -34 0
112 -111 0
112 -84 0
112 -86 0
112 -89 0
112 -92 0
112 -94 0
113 -114 -112 0
-113 114 0
-113 112 0
115 -116 -77 0
-115 116 0
-115 77 0
117 -118 -77 0
-117 118 0
-117 77 0
-119 61 117 0
119 -61 0
119 -117 0
120 -60 -119 0
-120 60 0
-120 119 0
-121 63 115 52 55 57 120 0
121 -63 0
121 -115 0
121 -52 0
121 -55 0
121 -57 0
121 -120 0
122 -65 -121 0
-122 65 0
-122 121 0
-123 67 113 122 0
123 -67 0
123 -113 0
123 -122 0
124 -69 -123 0
-124 69 0
-124 123 0
125 -71 -121 0
-125 71 0
-125 121 0
-126 73 36 39 42 50 124 125 0
126 -73 0
126 -36 0
126 -39 0
126 -42 0
126 -50 0
126 -124 0
126 -125 0
127 -128 -126 0
-127 128 0
-127 126 0
-129 130 99 109 127 0
129 -130 0
129 -99 0
129 -109 0
129 -127 0
131 -132 -129 0
-131 132 0
-131 129 0
133 -110 -4 0
-133 110 0
-133 4 0
-134 130 133 0
134 -130 0
134 -133 0
135 -136 -134 0
-135 136 0
-135 134 0
-137 73 36 135 39 42 50 68 70 0
137 -73 0
137 -36 0
137 -135 0
137 -39 0
137 -42 0
137 -50 0
137 -68 0
137 -70 0
138 -75 -137 0
-138 75 0
-138 137 0
-139 77 138 0
139 -77 0
139 -138 0
140 -79 -139 0
-140 79 0
-140 139 0
-141 98 6 27 34 140 84 86 92 94 0
141 -98 0
141 -6 0
141 -27 0
141 -34 0
141 -140 0
141 -84 0
141 -86 0
141 -92 0
141 -94 0
142 -143 -141 0
-142 143 0
-142 141 0
-144 91 142 0
144 -91 0
144 -142 0
145 -146 -144 0
-145 146 0
-145 144 0
147 -148 -44 0
-147 148 0
-147 44 0
-149 150 131 145 147 0
149 -150 0
149 -131 0
149 -145 0
149 -147 0
151 -152 -149 0
-151 152 0
-151 149 0
-153 67 122 0
153 -67 0
153 -122 0
154 -69 -153 0
-154 69 0
-154 153 0
-155 73 36 39 42 50 154 125 0
155 -73 0
155 -36 0
155 -39 0
155 -42 0
155 -50 0
155 -154 0
155 -125 0
156 -128 -155 0
-156 128 0
-156 155 0
-157 130 133 156 0
157 -130 0
157 -133 0
157 -156 0
158 -132 -157 0
-158 132 0
-158 157 0
159 -146 -91 0
-159 146 0
-159 91 0
-160 150 158 159 147 0
160 -150 0
160 -158 0
160 -159 0
160 -147 0
161 -162 -160 0
-161 162 0
-161 160 0
163 -136 -130 0
-163 136 0
-163 130 0
164 -132 -134 0
-164 132 0
-164 134 0
-165 150 164 159 147 0
165 -150 0
165 -164 0
165 -159 0
165 -147 0
166 -167 -165 0
-166 167 0
-166 165 0
-168 61 166 0
168 -61 0
168 -166 0
169 -60 -168 0
-169 60 0
-169 168 0
-170 63 52 55 57 169 0
170 -63 0
170 -52 0
170 -55 0
170 -57 0
170 -169 0
171 -65 -170 0
-171 65 0
-171 170 0
-172 67 171 0
172 -67 0
172 -171 0
173 -69 -172 0
-173 69 0
-173 172 0
174 -71 -170 0
-174 71 0
-174 170 0
-175 73 36 163 39 42 50 173 174 0
175 -73 0
175 -36 0
175 -163 0
175 -39 0
175 -42 0
175 -50 0
175 -173 0
175 -174 0
176 -75 -175 0
-176 75 0
-176 175 0
-177 77 176 0
177 -77 0
177 -176 0
178 -79 -177 0
-178 79 0
-178 177 0
179 -180 -160 0
-179 180 0
-179 160 0
-181 91 179 0
181 -91 0
181 -179 0
182 -90 -181 0
-182 90 0
-182 181 0
183 -184 -160 0
-183 184 0
-183 160 0
-185 96 183 0
185 -96 0
185 -183 0
186 -95 -185 0
-186 95 0
-186 185 0
-187 98 161 27 34 178 84 86 182 92 186 0
187 -98 0
187 -161 0
187 -27 0
187 -34 0
187 -178 0
187 -84 0
187 -86 0
187 -182 0
187 -92 0
187 -186 0
188 -103 -187 0
-188 103 0
-188 187 0
189 -100 -101 0
-189 100 0
-189 101 0
-190 98 27 34 111 84 86 89 92 94 0
190 -98 0
190 -27 0
190 -34 0
190 -111 0
190 -84 0
190 -86 0
190 -89 0
190 -92 0
190 -94 0
191 -114 -190 0
-191 114 0
-191 190 0
-192 67 191 122 0
192 -67 0
192 -191 0
192 -122 0
193 -69 -192 0
-193 69 0
-193 192 0
-194 73 36 39 42 50 193 125 0
194 -73 0
194 -36 0
194 -39 0
194 -42 0
194 -50 0
194 -193 0
194 -125 0
195 -128 -194 0
-195 128 0
-195 194 0
-196 130 189 195 0
196 -130 0
196 -189 0
196 -195 0
197 -132 -196 0
-197 132 0
-197 196 0
-198 98 27 34 140 84 86 92 94 0
198 -98 0
198 -27 0
198 -34 0
198 -140 0
198 -84 0
198 -86 0
198 -92 0
198 -94 0
199 -143 -198 0
-199 143 0
-199 198 0
-200 91 199 0
200 -91 0
200 -199 0
201 -146 -200 0
-201 146 0
-201 200 0
-202 150 197 201 147 0
202 -150 0
202 -197 0
202 -201 0
202 -147 0
203 -204 -202 0
-203 204 0
-203 202 0
-205 130 156 0
205 -130 0
205 -156 0
206 -132 -205 0
-206 132 0
-206 205 0
-207 150 206 159 147 0
207 -150 0
207 -206 0
207 -159 0
207 -147 0
208 -162 -207 0
-208 162 0
-208 207 0
209 -132 -130 0
-209 132 0
-209 130 0
-210 150 209 159 147 0
210 -150 0
210 -209 0
210 -159 0
210 -147 0
211 -167 -210 0
-211 167 0
-211 210 0
-212 61 211 0
212 -61 0
212 -211 0
213 -60 -212 0
-213 60 0
-213 212 0
-214 63 52 55 57 213 0
214 -63 0
214 -52 0
214 -55 0
214 -57 0
214 -213 0
215 -65 -214 0
-215 65 0
-215 214 0
-216 67 215 0
216 -67 0
216 -215 0
217 -69 -216 0
-217 69 0
-217 216 0
218 -71 -214 0
-218 71 0
-218 214 0
-219 73 36 163 39 42 50 217 218 0
219 -73 0
219 -36 0
219 -163 0
219 -39 0
219 -42 0
219 -50 0
219 -217 0
219 -218 0
220 -75 -219 0
-220 75 0
-220 219 0
-221 77 220 0
221 -77 0
221 -220 0
222 -79 -221 0
-222 79 0
-222 221 0
223 -180 -207 0
-223 180 0
-223 207 0
-224 91 223 0
224 -91 0
224 -223 0
225 -90 -224 0
-225 90 0
-225 224 0
226 -184 -207 0
-226 184 0
-226 207 0
-227 96 226 0
227 -96 0
227 -226 0
228 -95 -227 0
-228 95 0
-228 227 0
-229 98 208 27 34 222 84 86 225 92 228 0
229 -98 0
229 -208 0
229 -27 0
229 -34 0
229 -222 0
229 -84 0
229 -86 0
229 -225 0
229 -92 0
229 -228 0
230 -105 -229 0
-230 105 0
-230 229 0
-231 3 230 0
231 -3 0
231 -230 0
232 -2 -231 0
-232 2 0
-232 231 0
-233 5 188 203 232 0
233 -5 0
233 -188 0
233 -203 0
233 -232 0
234 -235 -233 0
-234 235 0
-234 233 0
236 -204 -160 0
-236 204 0
-236 160 0
-237 5 236 1 0
237 -5 0
237 -236 0
237 -1 0
238 -7 -237 0
-238 7 0
-238 237 0
239 -204 -210 0
-239 204 0
-239 210 0
-240 5 239 1 0
240 -5 0
240 -239 0
240 -1 0
241 -110 -240 0
-241 110 0
-241 240 0
-242 130 241 0
242 -130 0
242 -241 0
243 -136 -242 0
-243 136 0
-243 242 0
-244 73 36 243 39 42 50 173 174 0
244 -73 0
244 -36 0
244 -243 0
244 -39 0
244 -42 0
244 -50 0
244 -173 0
244 -174 0
245 -75 -244 0
-245 75 0
-245 244 0
-246 77 245 0
246 -77 0
246 -245 0
247 -79 -246 0
-247 79 0
-247 246 0
-248 98 161 238 27 34 247 84 86 182 92 186 0
248 -98 0
248 -161 0
248 -238 0
248 -27 0
248 -34 0
248 -247 0
248 -84 0
248 -86 0
248 -182 0
248 -92 0
248 -186 0
249 -250 -248 0
-249 250 0
-249 248 0
251 -252 -149 0
-251 252 0
-251 149 0
253 -254 -233 0
-253 254 0
-253 233 0
-255 256 249 251 253 0
255 -256 0
255 -249 0
255 -251 0
255 -253 0
257 -258 -255 0
-257 258 0
-257 255 0
259 -260 -38 0
-259 260 0
-259 38 0
-261 150 159 147 0
261 -150 0
261 -159 0
261 -147 0
262 -162 -261 0
-262 162 0
-262 261 0
263 -204 -261 0
-263 204 0
-263 261 0
-264 5 263 1 0
264 -5 0
264 -263 0
264 -1 0
265 -7 -264 0
-265 7 0
-265 264 0
-266 73 36 39 42 50 173 174 0
266 -73 0
266 -36 0
266 -39 0
266 -42 0
266 -50 0
266 -173 0
266 -174 0
267 -75 -266 0
-267 75 0
-267 266 0
-268 77 267 0
268 -77 0
268 -267 0
269 -79 -268 0
-269 79 0
-269 268 0
270 -180 -261 0
-270 180 0
-270 261 0
-271 91 270 0
271 -91 0
271 -270 0
272 -90 -271 0
-272 90 0
-272 271 0
273 -184 -261 0
-273 184 0
-273 261 0
-274 96 273 0
274 -96 0
274 -273 0
275 -95 -274 0
-275 95 0
-275 274 0
-276 98 262 265 27 34 269 84 86 272 92 275 0
276 -98 0
276 -262 0
276 -265 0
276 -27 0
276 -34 0
276 -269 0
276 -84 0
276 -86 0
276 -272 0
276 -92 0
276 -275 0
277 -100 -276 0
-277 100 0
-277 276 0
-278 73 36 39 42 50 217 218 0
278 -73 0
278 -36 0
278 -39 0
278 -42 0
278 -50 0
278 -217 0
278 -218 0
279 -75 -278 0
-279 75 0
-279 278 0
-280 77 279 0
280 -77 0
280 -279 0
281 -79 -280 0
-281 79 0
-281 280 0
-282 98 262 27 34 281 84 86 272 92 275 0
282 -98 0
282 -262 0
282 -27 0
282 -34 0
282 -281 0
282 -84 0
282 -86 0
282 -272 0
282 -92 0
282 -275 0
283 -103 -282 0
-283 103 0
-283 282 0
-284 98 27 34 78 84 86 92 94 0
284 -98 0
284 -27 0
284 -34 0
284 -78 0
284 -84 0
284 -86 0
284 -92 0
284 -94 0
285 -143 -284 0
-285 143 0
-285 284 0
-286 91 285 0
286 -91 0
286 -285 0
287 -146 -286 0
-287 146 0
-287 286 0
-288 150 287 147 0
288 -150 0
288 -287 0
288 -147 0
289 -204 -288 0
-289 204 0
-289 288 0
290 -105 -282 0
-290 105 0
-290 282 0
-291 3 290 0
291 -3 0
291 -290 0
292 -2 -291 0
-292 2 0
-292 291 0
-293 5 283 289 292 0
293 -5 0
293 -283 0
293 -289 0
293 -292 0
294 -110 -293 0
-294 110 0
-294 293 0
295 -162 -165 0
-295 162 0
-295 165 0
296 -204 -165 0
-296 204 0
-296 165 0
-297 5 296 1 0
297 -5 0
297 -296 0
297 -1 0
298 -7 -297 0
-298 7 0
-298 297 0
299 -180 -165 0
-299 180 0
-299 165 0
-300 91 299 0
300 -91 0
300 -299 0
301 -90 -300 0
-301 90 0
-301 300 0
302 -184 -165 0
-302 184 0
-302 165 0
-303 96 302 0
303 -96 0
303 -302 0
304 -95 -303 0
-304 95 0
-304 303 0
-305 98 295 298 27 34 111 84 86 301 92 304 0
305 -98 0
305 -295 0
305 -298 0
305 -27 0
305 -34 0
305 -111 0
305 -84 0
305 -86 0
305 -301 0
305 -92 0
305 -304 0
306 -114 -305 0
-306 114 0
-306 305 0
-307 98 6 27 34 111 84 86 92 94 0
307 -98 0
307 -6 0
307 -27 0
307 -34 0
307 -111 0
307 -84 0
307 -86 0
307 -92 0
307 -94 0
308 -143 -307 0
-308 143 0
-308 307 0
-309 91 308 0
309 -91 0
309 -308 0
310 -146 -309 0
-310 146 0
-310 309 0
-311 150 310 147 0
311 -150 0
311 -310 0
311 -147 0
312 -167 -311 0
-312 167 0
-312 311 0
-313 61 312 117 0
313 -61 0
313 -312 0
313 -117 0
314 -60 -313 0
-314 60 0
-314 313 0
-315 63 115 52 55 57 314 0
315 -63 0
315 -115 0
315 -52 0
315 -55 0
315 -57 0
315 -314 0
316 -65 -315 0
-316 65 0
-316 315 0
-317 67 306 316 0
317 -67 0
317 -306 0
317 -316 0
318 -69 -317 0
-318 69 0
-318 317 0
319 -71 -315 0
-319 71 0
-319 315 0
-320 73 36 39 42 50 318 319 0
320 -73 0
320 -36 0
320 -39 0
320 -42 0
320 -50 0
320 -318 0
320 -319 0
321 -128 -320 0
-321 128 0
-321 320 0
-322 130 277 294 321 0
322 -130 0
322 -277 0
322 -294 0
322 -321 0
323 -324 -322 0
-323 324 0
-323 322 0
-325 73 36 39 42 50 125 0
325 -73 0
325 -36 0
325 -39 0
325 -42 0
325 -50 0
325 -125 0
326 -128 -325 0
-326 128 0
-326 325 0
-327 130 133 326 0
327 -130 0
327 -133 0
327 -326 0
328 -132 -327 0
-328 132 0
-328 327 0
-329 150 328 159 147 0
329 -150 0
329 -328 0
329 -159 0
329 -147 0
330 -162 -329 0
-330 162 0
-330 329 0
331 -204 -329 0
-331 204 0
-331 329 0
-332 5 331 1 0
332 -5 0
332 -331 0
332 -1 0
333 -7 -332 0
-333 7 0
-333 332 0
-334 73 36 243 39 42 50 174 0
334 -73 0
334 -36 0
334 -243 0
334 -39 0
334 -42 0
334 -50 0
334 -174 0
335 -75 -334 0
-335 75 0
-335 334 0
-336 77 335 0
336 -77 0
336 -335 0
337 -79 -336 0
-337 79 0
-337 336 0
338 -180 -329 0
-338 180 0
-338 329 0
-339 91 338 0
339 -91 0
339 -338 0
340 -90 -339 0
-340 90 0
-340 339 0
341 -184 -329 0
-341 184 0
-341 329 0
-342 96 341 0
342 -96 0
342 -341 0
343 -95 -342 0
-343 95 0
-343 342 0
-344 98 330 333 27 34 337 84 86 340 92 343 0
344 -98 0
344 -330 0
344 -333 0
344 -27 0
344 -34 0
344 -337 0
344 -84 0
344 -86 0
344 -340 0
344 -92 0
344 -343 0
345 -114 -344 0
-345 114 0
-345 344 0
-346 98 295 298 27 34 84 86 301 92 304 0
346 -98 0
346 -295 0
346 -298 0
346 -27 0
346 -34 0
346 -84 0
346 -86 0
346 -301 0
346 -92 0
346 -304 0
347 -100 -346 0
-347 100 0
-347 346 0
348 -162 -210 0
-348 162 0
-348 210 0
349 -180 -210 0
-349 180 0
-349 210 0
-350 91 349 0
350 -91 0
350 -349 0
351 -90 -350 0
-351 90 0
-351 350 0
352 -184 -210 0
-352 184 0
-352 210 0
-353 96 352 0
353 -96 0
353 -352 0
354 -95 -353 0
-354 95 0
-354 353 0
-355 98 348 27 34 84 86 351 92 354 0
355 -98 0
355 -348 0
355 -27 0
355 -34 0
355 -84 0
355 -86 0
355 -351 0
355 -92 0
355 -354 0
356 -103 -355 0
-356 103 0
-356 355 0
-357 98 27 34 84 86 92 94 0
357 -98 0
357 -27 0
357 -34 0
357 -84 0
357 -86 0
357 -92 0
357 -94 0
358 -143 -357 0
-358 143 0
-358 357 0
-359 91 358 0
359 -91 0
359 -358 0
360 -146 -359 0
-360 146 0
-360 359 0
-361 150 360 147 0
361 -150 0
361 -360 0
361 -147 0
362 -204 -361 0
-362 204 0
-362 361 0
363 -105 -355 0
-363 105 0
-363 355 0
-364 3 363 0
364 -3 0
364 -363 0
365 -2 -364 0
-365 2 0
-365 364 0
-366 5 356 362 365 0
366 -5 0
366 -356 0
366 -362 0
366 -365 0
367 -110 -366 0
-367 110 0
-367 366 0
-368 130 347 367 0
368 -130 0
368 -347 0
368 -367 0
369 -136 -368 0
-369 136 0
-369 368 0
-370 73 36 369 39 42 50 0
370 -73 0
370 -36 0
370 -369 0
370 -39 0
370 -42 0
370 -50 0
371 -75 -370 0
-371 75 0
-371 370 0
-372 77 371 0
372 -77 0
372 -371 0
373 -116 -372 0
-373 116 0
-373 372 0
374 -100 -305 0
-374 100 0
-374 305 0
-375 98 348 27 34 111 84 86 351 92 354 0
375 -98 0
375 -348 0
375 -27 0
375 -34 0
375 -111 0
375 -84 0
375 -86 0
375 -351 0
375 -92 0
375 -354 0
376 -103 -375 0
-376 103 0
-376 375 0
-377 98 27 34 111 84 86 92 94 0
377 -98 0
377 -27 0
377 -34 0
377 -111 0
377 -84 0
377 -86 0
377 -92 0
377 -94 0
378 -143 -377 0
-378 143 0
-378 377 0
-379 91 378 0
379 -91 0
379 -378 0
380 -146 -379 0
-380 146 0
-380 379 0
-381 150 380 147 0
381 -150 0
381 -380 0
381 -147 0
382 -204 -381 0
-382 204 0
-382 381 0
383 -105 -375 0
-383 105 0
-383 375 0
-384 3 383 0
384 -3 0
384 -383 0
385 -2 -384 0
-385 2 0
-385 384 0
-386 5 376 382 385 0
386 -5 0
386 -376 0
386 -382 0
386 -385 0
387 -110 -386 0
-387 110 0
-387 386 0
-388 130 374 387 0
388 -130 0
388 -374 0
388 -387 0
389 -136 -388 0
-389 136 0
-389 388 0
-390 73 36 389 39 42 50 0
390 -73 0
390 -36 0
390 -389 0
390 -39 0
390 -42 0
390 -50 0
391 -392 -390 0
-391 392 0
-391 390 0
-393 54 391 0
393 -54 0
393 -391 0
394 -53 -393 0
-394 53 0
-394 393 0
-395 73 36 389 39 42 0
395 -73 0
395 -36 0
395 -389 0
395 -39 0
395 -42 0
396 -397 -395 0
-396 397 0
-396 395 0
-398 47 396 0
398 -47 0
398 -396 0
399 -46 -398 0
-399 46 0
-399 398 0
-400 49 399 0
400 -49 0
400 -399 0
401 -58 -400 0
-401 58 0
-401 400 0
-402 73 36 39 42 50 0
402 -73 0
402 -36 0
402 -39 0
402 -42 0
402 -50 0
403 -75 -402 0
-403 75 0
-403 402 0
-404 77 403 0
404 -77 0
404 -403 0
405 -79 -404 0
-405 79 0
-405 404 0
-406 98 6 27 34 405 84 86 89 92 94 0
406 -98 0
406 -6 0
406 -27 0
406 -34 0
406 -405 0
406 -84 0
406 -86 0
406 -89 0
406 -92 0
406 -94 0
407 -100 -406 0
-407 100 0
-407 406 0
-408 98 27 34 405 84 86 89 92 94 0
408 -98 0
408 -27 0
408 -34 0
408 -405 0
408 -84 0
408 -86 0
408 -89 0
408 -92 0
408 -94 0
409 -103 -408 0
-409 103 0
-409 408 0
410 -105 -408 0
-410 105 0
-410 408 0
-411 3 410 0
411 -3 0
411 -410 0
412 -2 -411 0
-412 2 0
-412 411 0
-413 5 409 412 0
413 -5 0
413 -409 0
413 -412 0
414 -110 -413 0
-414 110 0
-414 413 0
415 -128 -402 0
-415 128 0
-415 402 0
-416 130 407 414 415 0
416 -130 0
416 -407 0
416 -414 0
416 -415 0
417 -132 -416 0
-417 132 0
-417 416 0
-418 73 36 135 39 42 50 0
418 -73 0
418 -36 0
418 -135 0
418 -39 0
418 -42 0
418 -50 0
419 -75 -418 0
-419 75 0
-419 418 0
-420 77 419 0
420 -77 0
420 -419 0
421 -79 -420 0
-421 79 0
-421 420 0
-422 98 6 27 34 421 84 86 92 94 0
422 -98 0
422 -6 0
422 -27 0
422 -34 0
422 -421 0
422 -84 0
422 -86 0
422 -92 0
422 -94 0
423 -143 -422 0
-423 143 0
-423 422 0
-424 91 423 0
424 -91 0
424 -423 0
425 -146 -424 0
-425 146 0
-425 424 0
-426 150 417 425 147 0
426 -150 0
426 -417 0
426 -425 0
426 -147 0
427 -167 -426 0
-427 167 0
-427 426 0
428 -118 -372 0
-428 118 0
-428 372 0
429 -430 -390 0
-429 430 0
-429 390 0
-431 61 427 428 429 0
431 -61 0
431 -427 0
431 -428 0
431 -429 0
432 -60 -431 0
-432 60 0
-432 431 0
433 -434 -390 0
-433 434 0
-433 390 0
-435 63 373 394 55 401 432 433 0
435 -63 0
435 -373 0
435 -394 0
435 -55 0
435 -401 0
435 -432 0
435 -433 0
436 -65 -435 0
-436 65 0
-436 435 0
-437 67 345 436 0
437 -67 0
437 -345 0
437 -436 0
438 -439 -437 0
-438 439 0
-438 437 0
440 -100 -112 0
-440 100 0
-440 112 0
441 -103 -190 0
-441 103 0
-441 190 0
442 -105 -190 0
-442 105 0
-442 190 0
-443 3 442 0
443 -3 0
443 -442 0
444 -2 -443 0
-444 2 0
-444 443 0
-445 5 441 444 0
445 -5 0
445 -441 0
445 -444 0
446 -110 -445 0
-446 110 0
-446 445 0
-447 130 440 446 0
447 -130 0
447 -440 0
447 -446 0
448 -132 -447 0
-448 132 0
-448 447 0
-449 150 448 310 147 0
449 -150 0
449 -448 0
449 -310 0
449 -147 0
450 -167 -449 0
-450 167 0
-450 449 0
-451 61 450 117 0
451 -61 0
451 -450 0
451 -117 0
452 -60 -451 0
-452 60 0
-452 451 0
-453 63 115 52 55 57 452 0
453 -63 0
453 -115 0
453 -52 0
453 -55 0
453 -57 0
453 -452 0
454 -65 -453 0
-454 65 0
-454 453 0
-455 67 306 454 0
455 -67 0
455 -306 0
455 -454 0
456 -69 -455 0
-456 69 0
-456 455 0
457 -71 -453 0
-457 71 0
-457 453 0
-458 73 36 389 39 42 50 456 457 0
458 -73 0
458 -36 0
458 -389 0
458 -39 0
458 -42 0
458 -50 0
458 -456 0
458 -457 0
459 -460 -458 0
-459 460 0
-459 458 0
-461 462 438 459 0
461 -462 0
461 -438 0
461 -459 0
463 -464 -461 0
-463 464 0
-463 461 0
-465 466 151 234 257 259 323 463 0
465 -466 0
465 -151 0
465 -234 0
465 -257 0
465 -259 0
465 -323 0
465 -463 0
467 -468 -465 0
-467 468 0
-467 465 0
469 -152 -165 0
-469 152 0
-469 165 0
470 -235 -297 0
-470 235 0
-470 297 0
471 -252 -165 0
-471 252 0
-471 165 0
472 -254 -297 0
-472 254 0
-472 297 0
-473 256 471 472 0
473 -256 0
473 -471 0
473 -472 0
474 -258 -473 0
-474 258 0
-474 473 0
-475 61 166 117 0
475 -61 0
475 -166 0
475 -117 0
476 -60 -475 0
-476 60 0
-476 475 0
-477 63 115 52 55 57 476 0
477 -63 0
477 -115 0
477 -52 0
477 -55 0
477 -57 0
477 -476 0
478 -65 -477 0
-478 65 0
-478 477 0
-479 67 478 0
479 -67 0
479 -478 0
480 -439 -479 0
-480 439 0
-480 479 0
-481 462 480 0
481 -462 0
481 -480 0
482 -464 -481 0
-482 464 0
-482 481 0
-483 466 469 470 474 259 482 0
483 -466 0
483 -469 0
483 -470 0
483 -474 0
483 -259 0
483 -482 0
484 -485 -483 0
-484 485 0
-484 483 0
486 -439 -172 0
-486 439 0
-486 172 0
-487 462 486 0
487 -462 0
487 -486 0
488 -464 -487 0
-488 464 0
-488 487 0
-489 466 469 470 474 259 488 0
489 -466 0
489 -469 0
489 -470 0
489 -474 0
489 -259 0
489 -488 0
490 -491 -489 0
-490 491 0
-490 489 0
-492 77 490 0
492 -77 0
492 -490 0
493 -79 -492 0
-493 79 0
-493 492 0
-494 98 295 484 298 27 34 493 84 86 301 92 304 0
494 -98 0
494 -295 0
494 -484 0
494 -298 0
494 -27 0
494 -34 0
494 -493 0
494 -84 0
494 -86 0
494 -301 0
494 -92 0
494 -304 0
495 -100 -494 0
-495 100 0
-495 494 0
496 -152 -210 0
-496 152 0
-496 210 0
497 -252 -210 0
-497 252 0
-497 210 0
-498 256 497 0
498 -256 0
498 -497 0
499 -258 -498 0
-499 258 0
-499 498 0
-500 61 211 117 0
500 -61 0
500 -211 0
500 -117 0
501 -60 -500 0
-501 60 0
-501 500 0
-502 63 115 52 55 57 501 0
502 -63 0
502 -115 0
502 -52 0
502 -55 0
502 -57 0
502 -501 0
503 -65 -502 0
-503 65 0
-503 502 0
-504 67 503 0
504 -67 0
504 -503 0
505 -439 -504 0
-505 439 0
-505 504 0
-506 462 505 0
506 -462 0
506 -505 0
507 -464 -506 0
-507 464 0
-507 506 0
-508 466 496 499 259 507 0
508 -466 0
508 -496 0
508 -499 0
508 -259 0
508 -507 0
509 -485 -508 0
-509 485 0
-509 508 0
510 -439 -216 0
-510 439 0
-510 216 0
-511 462 510 0
511 -462 0
511 -510 0
512 -464 -511 0
-512 464 0
-512 511 0
-513 466 496 499 259 512 0
513 -466 0
513 -496 0
513 -499 0
513 -259 0
513 -512 0
514 -491 -513 0
-514 491 0
-514 513 0
-515 77 514 0
515 -77 0
515 -514 0
516 -79 -515 0
-516 79 0
-516 515 0
-517 98 348 509 27 34 516 84 86 351 92 354 0
517 -98 0
517 -348 0
517 -509 0
517 -27 0
517 -34 0
517 -516 0
517 -84 0
517 -86 0
517 -351 0
517 -92 0
517 -354 0
518 -103 -517 0
-518 103 0
-518 517 0
519 -439 -153 0
-519 439 0
-519 153 0
-520 462 519 0
520 -462 0
520 -519 0
521 -464 -520 0
-521 464 0
-521 520 0
-522 466 496 499 259 521 0
522 -466 0
522 -496 0
522 -499 0
522 -259 0
522 -521 0
523 -485 -522 0
-523 485 0
-523 522 0
524 -439 -66 0
-524 439 0
-524 66 0
-525 462 524 0
525 -462 0
525 -524 0
526 -464 -525 0
-526 464 0
-526 525 0
-527 466 496 499 259 526 0
527 -466 0
527 -496 0
527 -499 0
527 -259 0
527 -526 0
528 -491 -527 0
-528 491 0
-528 527 0
-529 77 528 0
529 -77 0
529 -528 0
530 -79 -529 0
-530 79 0
-530 529 0
-531 98 523 27 34 530 84 86 92 94 0
531 -98 0
531 -523 0
531 -27 0
531 -34 0
531 -530 0
531 -84 0
531 -86 0
531 -92 0
531 -94 0
532 -143 -531 0
-532 143 0
-532 531 0
-533 91 532 0
533 -91 0
533 -532 0
534 -146 -533 0
-534 146 0
-534 533 0
-535 150 534 147 0
535 -150 0
535 -534 0
535 -147 0
536 -204 -535 0
-536 204 0
-536 535 0
537 -105 -517 0
-537 105 0
-537 517 0
-538 3 537 0
538 -3 0
538 -537 0
539 -2 -538 0
-539 2 0
-539 538 0
-540 5 518 536 539 0
540 -5 0
540 -518 0
540 -536 0
540 -539 0
541 -110 -540 0
-541 110 0
-541 540 0
-542 130 495 541 0
542 -130 0
542 -495 0
542 -541 0
543 -136 -542 0
-543 136 0
-543 542 0
544 -324 -242 0
-544 324 0
-544 242 0
545 -464 -462 0
-545 464 0
-545 462 0
-546 466 469 470 474 259 544 545 0
546 -466 0
546 -469 0
546 -470 0
546 -474 0
546 -259 0
546 -544 0
546 -545 0
547 -485 -546 0
-547 485 0
-547 546 0
548 -491 -546 0
-548 491 0
-548 546 0
-549 77 548 0
549 -77 0
549 -548 0
550 -79 -549 0
-550 79 0
-550 549 0
-551 98 295 547 298 27 34 550 84 86 301 92 304 0
551 -98 0
551 -295 0
551 -547 0
551 -298 0
551 -27 0
551 -34 0
551 -550 0
551 -84 0
551 -86 0
551 -301 0
551 -92 0
551 -304 0
552 -114 -551 0
-552 114 0
-552 551 0
553 -152 -449 0
-553 152 0
-553 449 0
-554 98 295 27 34 111 84 86 301 92 304 0
554 -98 0
554 -295 0
554 -27 0
554 -34 0
554 -111 0
554 -84 0
554 -86 0
554 -301 0
554 -92 0
554 -304 0
555 -103 -554 0
-555 103 0
-555 554 0
556 -100 -190 0
-556 100 0
-556 190 0
-557 130 556 0
557 -130 0
557 -556 0
558 -132 -557 0
-558 132 0
-558 557 0
-559 150 558 380 147 0
559 -150 0
559 -558 0
559 -380 0
559 -147 0
560 -204 -559 0
-560 204 0
-560 559 0
-561 5 555 560 385 0
561 -5 0
561 -555 0
561 -560 0
561 -385 0
562 -235 -561 0
-562 235 0
-562 561 0
563 -250 -305 0
-563 250 0
-563 305 0
564 -252 -449 0
-564 252 0
-564 449 0
565 -254 -561 0
-565 254 0
-565 561 0
-566 256 563 564 565 0
566 -256 0
566 -563 0
566 -564 0
566 -565 0
567 -258 -566 0
-567 258 0
-567 566 0
568 -324 -388 0
-568 324 0
-568 388 0
-569 466 553 562 567 259 568 545 0
569 -466 0
569 -553 0
569 -562 0
569 -567 0
569 -259 0
569 -568 0
569 -545 0
570 -571 -569 0
-570 571 0
-570 569 0
-572 98 6 27 34 84 86 89 92 94 0
572 -98 0
572 -6 0
572 -27 0
572 -34 0
572 -84 0
572 -86 0
572 -89 0
572 -92 0
572 -94 0
573 -100 -572 0
-573 100 0
-573 572 0
-574 98 27 34 84 86 89 92 94 0
574 -98 0
574 -27 0
574 -34 0
574 -84 0
574 -86 0
574 -89 0
574 -92 0
574 -94 0
575 -103 -574 0
-575 103 0
-575 574 0
576 -105 -574 0
-576 105 0
-576 574 0
-577 3 576 0
577 -3 0
577 -576 0
578 -2 -577 0
-578 2 0
-578 577 0
-579 5 575 578 0
579 -5 0
579 -575 0
579 -578 0
580 -110 -579 0
-580 110 0
-580 579 0
-581 130 573 580 0
581 -130 0
581 -573 0
581 -580 0
582 -132 -581 0
-582 132 0
-582 581 0
-583 98 6 27 34 84 86 92 94 0
583 -98 0
583 -6 0
583 -27 0
583 -34 0
583 -84 0
583 -86 0
583 -92 0
583 -94 0
584 -143 -583 0
-584 143 0
-584 583 0
-585 91 584 0
585 -91 0
585 -584 0
586 -146 -585 0
-586 146 0
-586 585 0
-587 150 582 586 147 0
587 -150 0
587 -582 0
587 -586 0
587 -147 0
588 -152 -587 0
-588 152 0
-588 587 0
-589 98 295 27 34 84 86 301 92 304 0
589 -98 0
589 -295 0
589 -27 0
589 -34 0
589 -84 0
589 -86 0
589 -301 0
589 -92 0
589 -304 0
590 -103 -589 0
-590 103 0
-590 589 0
591 -100 -574 0
-591 100 0
-591 574 0
-592 130 591 0
592 -130 0
592 -591 0
593 -132 -592 0
-593 132 0
-593 592 0
-594 150 593 360 147 0
594 -150 0
594 -593 0
594 -360 0
594 -147 0
595 -204 -594 0
-595 204 0
-595 594 0
-596 5 590 595 365 0
596 -5 0
596 -590 0
596 -595 0
596 -365 0
597 -235 -596 0
-597 235 0
-597 596 0
598 -250 -346 0
-598 250 0
-598 346 0
599 -252 -587 0
-599 252 0
-599 587 0
600 -254 -596 0
-600 254 0
-600 596 0
-601 256 598 599 600 0
601 -256 0
601 -598 0
601 -599 0
601 -600 0
602 -258 -601 0
-602 258 0
-602 601 0
603 -324 -368 0
-603 324 0
-603 368 0
-604 466 588 597 602 259 603 545 0
604 -466 0
604 -588 0
604 -597 0
604 -602 0
604 -259 0
604 -603 0
604 -545 0
605 -491 -604 0
-605 491 0
-605 604 0
-606 77 605 0
606 -77 0
606 -605 0
607 -116 -606 0
-607 116 0
-607 606 0
608 -235 -4 0
-608 235 0
-608 4 0
609 -254 -4 0
-609 254 0
-609 4 0
-610 256 609 0
610 -256 0
610 -609 0
611 -258 -610 0
-611 258 0
-611 610 0
-612 466 608 611 259 545 0
612 -466 0
612 -608 0
612 -611 0
612 -259 0
612 -545 0
613 -485 -612 0
-613 485 0
-613 612 0
614 -491 -612 0
-614 491 0
-614 612 0
-615 77 614 0
615 -77 0
615 -614 0
616 -79 -615 0
-616 79 0
-616 615 0
-617 98 613 6 27 34 616 84 86 89 92 94 0
617 -98 0
617 -613 0
617 -6 0
617 -27 0
617 -34 0
617 -616 0
617 -84 0
617 -86 0
617 -89 0
617 -92 0
617 -94 0
618 -100 -617 0
-618 100 0
-618 617 0
-619 98 613 27 34 616 84 86 89 92 94 0
619 -98 0
619 -613 0
619 -27 0
619 -34 0
619 -616 0
619 -84 0
619 -86 0
619 -89 0
619 -92 0
619 -94 0
620 -103 -619 0
-620 103 0
-620 619 0
621 -258 -256 0
-621 258 0
-621 256 0
-622 466 621 259 545 0
622 -466 0
622 -621 0
622 -259 0
622 -545 0
623 -485 -622 0
-623 485 0
-623 622 0
624 -491 -622 0
-624 491 0
-624 622 0
-625 77 624 0
625 -77 0
625 -624 0
626 -79 -625 0
-626 79 0
-626 625 0
-627 98 623 27 34 626 84 86 89 92 94 0
627 -98 0
627 -623 0
627 -27 0
627 -34 0
627 -626 0
627 -84 0
627 -86 0
627 -89 0
627 -92 0
627 -94 0
628 -105 -627 0
-628 105 0
-628 627 0
-629 3 628 0
629 -3 0
629 -628 0
630 -2 -629 0
-630 2 0
-630 629 0
-631 5 620 630 0
631 -5 0
631 -620 0
631 -630 0
632 -110 -631 0
-632 110 0
-632 631 0
-633 130 618 632 0
633 -130 0
633 -618 0
633 -632 0
634 -132 -633 0
-634 132 0
-634 633 0
635 -324 -134 0
-635 324 0
-635 134 0
-636 466 469 470 474 259 635 545 0
636 -466 0
636 -469 0
636 -470 0
636 -474 0
636 -259 0
636 -635 0
636 -545 0
637 -485 -636 0
-637 485 0
-637 636 0
638 -491 -636 0
-638 491 0
-638 636 0
-639 77 638 0
639 -77 0
639 -638 0
640 -79 -639 0
-640 79 0
-640 639 0
-641 98 637 6 27 34 640 84 86 92 94 0
641 -98 0
641 -637 0
641 -6 0
641 -27 0
641 -34 0
641 -640 0
641 -84 0
641 -86 0
641 -92 0
641 -94 0
642 -143 -641 0
-642 143 0
-642 641 0
-643 91 642 0
643 -91 0
643 -642 0
644 -146 -643 0
-644 146 0
-644 643 0
-645 150 634 644 147 0
645 -150 0
645 -634 0
645 -644 0
645 -147 0
646 -167 -645 0
-646 167 0
-646 645 0
647 -118 -606 0
-647 118 0
-647 606 0
-648 61 646 647 0
648 -61 0
648 -646 0
648 -647 0
649 -60 -648 0
-649 60 0
-649 648 0
-650 63 570 607 52 55 57 649 0
650 -63 0
650 -570 0
650 -607 0
650 -52 0
650 -55 0
650 -57 0
650 -649 0
651 -65 -650 0
-651 65 0
-651 650 0
-652 67 552 651 0
652 -67 0
652 -552 0
652 -651 0
653 -69 -652 0
-653 69 0
-653 652 0
-654 67 306 0
654 -67 0
654 -306 0
655 -439 -654 0
-655 439 0
-655 654 0
-656 462 655 0
656 -462 0
656 -655 0
657 -464 -656 0
-657 464 0
-657 656 0
-658 466 553 562 567 259 568 657 0
658 -466 0
658 -553 0
658 -562 0
658 -567 0
658 -259 0
658 -568 0
658 -657 0
659 -571 -658 0
-659 571 0
-659 658 0
660 -114 -346 0
-660 114 0
-660 346 0
-661 67 660 0
661 -67 0
661 -660 0
662 -439 -661 0
-662 439 0
-662 661 0
-663 462 662 0
663 -462 0
663 -662 0
664 -464 -663 0
-664 464 0
-664 663 0
-665 466 588 597 602 259 603 664 0
665 -466 0
665 -588 0
665 -597 0
665 -602 0
665 -259 0
665 -603 0
665 -664 0
666 -491 -665 0
-666 491 0
-666 665 0
-667 77 666 0
667 -77 0
667 -666 0
668 -116 -667 0
-668 116 0
-668 667 0
669 -439 -67 0
-669 439 0
-669 67 0
-670 462 669 0
670 -462 0
670 -669 0
671 -464 -670 0
-671 464 0
-671 670 0
-672 466 608 611 259 671 0
672 -466 0
672 -608 0
672 -611 0
672 -259 0
672 -671 0
673 -485 -672 0
-673 485 0
-673 672 0
674 -491 -672 0
-674 491 0
-674 672 0
-675 77 674 0
675 -77 0
675 -674 0
676 -79 -675 0
-676 79 0
-676 675 0
-677 98 673 6 27 34 676 84 86 89 92 94 0
677 -98 0
677 -673 0
677 -6 0
677 -27 0
677 -34 0
677 -676 0
677 -84 0
677 -86 0
677 -89 0
677 -92 0
677 -94 0
678 -100 -677 0
-678 100 0
-678 677 0
-679 98 673 27 34 676 84 86 89 92 94 0
679 -98 0
679 -673 0
679 -27 0
679 -34 0
679 -676 0
679 -84 0
679 -86 0
679 -89 0
679 -92 0
679 -94 0
680 -103 -679 0
-680 103 0
-680 679 0
-681 466 621 259 671 0
681 -466 0
681 -621 0
681 -259 0
681 -671 0
682 -485 -681 0
-682 485 0
-682 681 0
683 -491 -681 0
-683 491 0
-683 681 0
-684 77 683 0
684 -77 0
684 -683 0
685 -79 -684 0
-685 79 0
-685 684 0
-686 98 682 27 34 685 84 86 89 92 94 0
686 -98 0
686 -682 0
686 -27 0
686 -34 0
686 -685 0
686 -84 0
686 -86 0
686 -89 0
686 -92 0
686 -94 0
687 -105 -686 0
-687 105 0
-687 686 0
-688 3 687 0
688 -3 0
688 -687 0
689 -2 -688 0
-689 2 0
-689 688 0
-690 5 680 689 0
690 -5 0
690 -680 0
690 -689 0
691 -110 -690 0
-691 110 0
-691 690 0
-692 130 678 691 0
692 -130 0
692 -678 0
692 -691 0
693 -132 -692 0
-693 132 0
-693 692 0
-694 466 469 470 474 259 635 671 0
694 -466 0
694 -469 0
694 -470 0
694 -474 0
694 -259 0
694 -635 0
694 -671 0
695 -485 -694 0
-695 485 0
-695 694 0
696 -491 -694 0
-696 491 0
-696 694 0
-697 77 696 0
697 -77 0
697 -696 0
698 -79 -697 0
-698 79 0
-698 697 0
-699 98 695 6 27 34 698 84 86 92 94 0
699 -98 0
699 -695 0
699 -6 0
699 -27 0
699 -34 0
699 -698 0
699 -84 0
699 -86 0
699 -92 0
699 -94 0
700 -143 -699 0
-700 143 0
-700 699 0
-701 91 700 0
701 -91 0
701 -700 0
702 -146 -701 0
-702 146 0
-702 701 0
-703 150 693 702 147 0
703 -150 0
703 -693 0
703 -702 0
703 -147 0
704 -167 -703 0
-704 167 0
-704 703 0
705 -118 -667 0
-705 118 0
-705 667 0
-706 61 704 705 0
706 -61 0
706 -704 0
706 -705 0
707 -60 -706 0
-707 60 0
-707 706 0
-708 63 659 668 52 55 57 707 0
708 -63 0
708 -659 0
708 -668 0
708 -52 0
708 -55 0
708 -57 0
708 -707 0
709 -71 -708 0
-709 71 0
-709 708 0
-710 73 36 543 39 42 50 653 709 0
710 -73 0
710 -36 0
710 -543 0
710 -39 0
710 -42 0
710 -50 0
710 -653 0
710 -709 0
711 -712 -710 0
-711 712 0
-711 710 0
-713 714 467 711 0
713 -714 0
713 -467 0
713 -711 0
715 -716 -713 0
-715 716 0
-715 713 0
-717 63 115 52 55 476 0
717 -63 0
717 -115 0
717 -52 0
717 -55 0
717 -476 0
718 -65 -717 0
-718 65 0
-718 717 0
-719 67 718 0
719 -67 0
719 -718 0
720 -439 -719 0
-720 439 0
-720 719 0
-721 462 720 0
721 -462 0
721 -720 0
722 -464 -721 0
-722 464 0
-722 721 0
-723 466 469 470 474 259 722 0
723 -466 0
723 -469 0
723 -470 0
723 -474 0
723 -259 0
723 -722 0
724 -485 -723 0
-724 485 0
-724 723 0
-725 63 52 55 169 0
725 -63 0
725 -52 0
725 -55 0
725 -169 0
726 -65 -725 0
-726 65 0
-726 725 0
-727 67 726 0
727 -67 0
727 -726 0
728 -439 -727 0
-728 439 0
-728 727 0
-729 462 728 0
729 -462 0
729 -728 0
730 -464 -729 0
-730 464 0
-730 729 0
-731 466 469 470 474 259 730 0
731 -466 0
731 -469 0
731 -470 0
731 -474 0
731 -259 0
731 -730 0
732 -491 -731 0
-732 491 0
-732 731 0
-733 77 732 0
733 -77 0
733 -732 0
734 -79 -733 0
-734 79 0
-734 733 0
-735 98 295 724 298 27 34 734 84 86 301 92 304 0
735 -98 0
735 -295 0
735 -724 0
735 -298 0
735 -27 0
735 -34 0
735 -734 0
735 -84 0
735 -86 0
735 -301 0
735 -92 0
735 -304 0
736 -100 -735 0
-736 100 0
-736 735 0
-737 63 115 52 55 501 0
737 -63 0
737 -115 0
737 -52 0
737 -55 0
737 -501 0
738 -65 -737 0
-738 65 0
-738 737 0
-739 67 738 0
739 -67 0
739 -738 0
740 -439 -739 0
-740 439 0
-740 739 0
-741 462 740 0
741 -462 0
741 -740 0
742 -464 -741 0
-742 464 0
-742 741 0
-743 466 496 499 259 742 0
743 -466 0
743 -496 0
743 -499 0
743 -259 0
743 -742 0
744 -485 -743 0
-744 485 0
-744 743 0
-745 63 52 55 213 0
745 -63 0
745 -52 0
745 -55 0
745 -213 0
746 -65 -745 0
-746 65 0
-746 745 0
-747 67 746 0
747 -67 0
747 -746 0
748 -439 -747 0
-748 439 0
-748 747 0
-749 462 748 0
749 -462 0
749 -748 0
750 -464 -749 0
-750 464 0
-750 749 0
-751 466 496 499 259 750 0
751 -466 0
751 -496 0
751 -499 0
751 -259 0
751 -750 0
752 -491 -751 0
-752 491 0
-752 751 0
-753 77 752 0
753 -77 0
753 -752 0
754 -79 -753 0
-754 79 0
-754 753 0
-755 98 348 744 27 34 754 84 86 351 92 354 0
755 -98 0
755 -348 0
755 -744 0
755 -27 0
755 -34 0
755 -754 0
755 -84 0
755 -86 0
755 -351 0
755 -92 0
755 -354 0
756 -103 -755 0
-756 103 0
-756 755 0
757 -491 -743 0
-757 491 0
-757 743 0
-758 77 757 0
758 -77 0
758 -757 0
759 -79 -758 0
-759 79 0
-759 758 0
-760 98 744 27 34 759 84 86 92 94 0
760 -98 0
760 -744 0
760 -27 0
760 -34 0
760 -759 0
760 -84 0
760 -86 0
760 -92 0
760 -94 0
761 -143 -760 0
-761 143 0
-761 760 0
-762 91 761 0
762 -91 0
762 -761 0
763 -146 -762 0
-763 146 0
-763 762 0
-764 150 763 147 0
764 -150 0
764 -763 0
764 -147 0
765 -204 -764 0
-765 204 0
-765 764 0
766 -105 -755 0
-766 105 0
-766 755 0
-767 3 766 0
767 -3 0
767 -766 0
768 -2 -767 0
-768 2 0
-768 767 0
-769 5 756 765 768 0
769 -5 0
769 -756 0
769 -765 0
769 -768 0
770 -110 -769 0
-770 110 0
-770 769 0
-771 130 736 770 0
771 -130 0
771 -736 0
771 -770 0
772 -136 -771 0
-772 136 0
-772 771 0
-773 63 570 607 52 55 649 0
773 -63 0
773 -570 0
773 -607 0
773 -52 0
773 -55 0
773 -649 0
774 -65 -773 0
-774 65 0
-774 773 0
-775 67 552 774 0
775 -67 0
775 -552 0
775 -774 0
776 -69 -775 0
-776 69 0
-776 775 0
-777 63 659 668 52 55 707 0
777 -63 0
777 -659 0
777 -668 0
777 -52 0
777 -55 0
777 -707 0
778 -71 -777 0
-778 71 0
-778 777 0
-779 73 36 772 39 42 776 778 0
779 -73 0
779 -36 0
779 -772 0
779 -39 0
779 -42 0
779 -776 0
779 -778 0
780 -397 -779 0
-780 397 0
-780 779 0
-781 47 780 0
781 -47 0
781 -780 0
782 -46 -781 0
-782 46 0
-782 781 0
-783 49 782 0
783 -49 0
783 -782 0
784 -785 -783 0
-784 785 0
-784 783 0
786 -69 -67 0
-786 69 0
-786 67 0
-787 73 36 163 39 42 50 786 0
787 -73 0
787 -36 0
787 -163 0
787 -39 0
787 -42 0
787 -50 0
787 -786 0
788 -75 -787 0
-788 75 0
-788 787 0
-789 77 788 0
789 -77 0
789 -788 0
790 -79 -789 0
-790 79 0
-790 789 0
-791 98 161 27 34 790 84 86 182 92 186 0
791 -98 0
791 -161 0
791 -27 0
791 -34 0
791 -790 0
791 -84 0
791 -86 0
791 -182 0
791 -92 0
791 -186 0
792 -103 -791 0
-792 103 0
-792 791 0
-793 98 208 27 34 790 84 86 225 92 228 0
793 -98 0
793 -208 0
793 -27 0
793 -34 0
793 -790 0
793 -84 0
793 -86 0
793 -225 0
793 -92 0
793 -228 0
794 -105 -793 0
-794 105 0
-794 793 0
-795 3 794 0
795 -3 0
795 -794 0
796 -2 -795 0
-796 2 0
-796 795 0
-797 5 792 203 796 0
797 -5 0
797 -792 0
797 -203 0
797 -796 0
798 -235 -797 0
-798 235 0
-798 797 0
799 -110 -237 0
-799 110 0
-799 237 0
-800 130 799 0
800 -130 0
800 -799 0
801 -136 -800 0
-801 136 0
-801 800 0
-802 73 36 801 39 42 50 786 0
802 -73 0
802 -36 0
802 -801 0
802 -39 0
802 -42 0
802 -50 0
802 -786 0
803 -75 -802 0
-803 75 0
-803 802 0
-804 77 803 0
804 -77 0
804 -803 0
805 -79 -804 0
-805 79 0
-805 804 0
-806 98 161 238 27 34 805 84 86 182 92 186 0
806 -98 0
806 -161 0
806 -238 0
806 -27 0
806 -34 0
806 -805 0
806 -84 0
806 -86 0
806 -182 0
806 -92 0
806 -186 0
807 -250 -806 0
-807 250 0
-807 806 0
808 -254 -797 0
-808 254 0
-808 797 0
-809 256 807 251 808 0
809 -256 0
809 -807 0
809 -251 0
809 -808 0
810 -258 -809 0
-810 258 0
-810 809 0
-811 73 36 39 42 50 786 0
811 -73 0
811 -36 0
811 -39 0
811 -42 0
811 -50 0
811 -786 0
812 -75 -811 0
-812 75 0
-812 811 0
-813 77 812 0
813 -77 0
813 -812 0
814 -79 -813 0
-814 79 0
-814 813 0
-815 98 262 265 27 34 814 84 86 272 92 275 0
815 -98 0
815 -262 0
815 -265 0
815 -27 0
815 -34 0
815 -814 0
815 -84 0
815 -86 0
815 -272 0
815 -92 0
815 -275 0
816 -100 -815 0
-816 100 0
-816 815 0
-817 98 262 27 34 814 84 86 272 92 275 0
817 -98 0
817 -262 0
817 -27 0
817 -34 0
817 -814 0
817 -84 0
817 -86 0
817 -272 0
817 -92 0
817 -275 0
818 -103 -817 0
-818 103 0
-818 817 0
819 -105 -817 0
-819 105 0
-819 817 0
-820 3 819 0
820 -3 0
820 -819 0
821 -2 -820 0
-821 2 0
-821 820 0
-822 5 818 289 821 0
822 -5 0
822 -818 0
822 -289 0
822 -821 0
823 -110 -822 0
-823 110 0
-823 822 0
824 -69 -654 0
-824 69 0
-824 654 0
-825 73 36 39 42 50 824 0
825 -73 0
825 -36 0
825 -39 0
825 -42 0
825 -50 0
825 -824 0
826 -128 -825 0
-826 128 0
-826 825 0
-827 130 816 823 826 0
827 -130 0
827 -816 0
827 -823 0
827 -826 0
828 -324 -827 0
-828 324 0
-828 827 0
-829 73 36 243 39 42 50 0
829 -73 0
829 -36 0
829 -243 0
829 -39 0
829 -42 0
829 -50 0
830 -75 -829 0
-830 75 0
-830 829 0
-831 77 830 0
831 -77 0
831 -830 0
832 -79 -831 0
-832 79 0
-832 831 0
-833 98 330 333 27 34 832 84 86 340 92 343 0
833 -98 0
833 -330 0
833 -333 0
833 -27 0
833 -34 0
833 -832 0
833 -84 0
833 -86 0
833 -340 0
833 -92 0
833 -343 0
834 -114 -833 0
-834 114 0
-834 833 0
-835 67 834 0
835 -67 0
835 -834 0
836 -439 -835 0
-836 439 0
-836 835 0
-837 98 161 238 27 34 111 84 86 182 92 186 0
837 -98 0
837 -161 0
837 -238 0
837 -27 0
837 -34 0
837 -111 0
837 -84 0
837 -86 0
837 -182 0
837 -92 0
837 -186 0
838 -100 -837 0
-838 100 0
-838 837 0
-839 98 161 27 34 111 84 86 182 92 186 0
839 -98 0
839 -161 0
839 -27 0
839 -34 0
839 -111 0
839 -84 0
839 -86 0
839 -182 0
839 -92 0
839 -186 0
840 -103 -839 0
-840 103 0
-840 839 0
-841 98 208 27 34 111 84 86 225 92 228 0
841 -98 0
841 -208 0
841 -27 0
841 -34 0
841 -111 0
841 -84 0
841 -86 0
841 -225 0
841 -92 0
841 -228 0
842 -105 -841 0
-842 105 0
-842 841 0
-843 3 842 0
843 -3 0
843 -842 0
844 -2 -843 0
-844 2 0
-844 843 0
-845 5 840 382 844 0
845 -5 0
845 -840 0
845 -382 0
845 -844 0
846 -110 -845 0
-846 110 0
-846 845 0
-847 130 838 846 0
847 -130 0
847 -838 0
847 -846 0
848 -136 -847 0
-848 136 0
-848 847 0
-849 73 36 848 39 42 50 824 0
849 -73 0
849 -36 0
849 -848 0
849 -39 0
849 -42 0
849 -50 0
849 -824 0
850 -460 -849 0
-850 460 0
-850 849 0
-851 462 836 850 0
851 -462 0
851 -836 0
851 -850 0
852 -464 -851 0
-852 464 0
-852 851 0
-853 466 151 798 810 259 828 852 0
853 -466 0
853 -151 0
853 -798 0
853 -810 0
853 -259 0
853 -828 0
853 -852 0
854 -571 -853 0
-854 571 0
-854 853 0
855 -114 -572 0
-855 114 0
-855 572 0
-856 67 855 64 0
856 -67 0
856 -855 0
856 -64 0
857 -69 -856 0
-857 69 0
-857 856 0
-858 73 36 39 42 50 857 70 0
858 -73 0
858 -36 0
858 -39 0
858 -42 0
858 -50 0
858 -857 0
858 -70 0
859 -128 -858 0
-859 128 0
-859 858 0
-860 130 573 580 859 0
860 -130 0
860 -573 0
860 -580 0
860 -859 0
861 -132 -860 0
-861 132 0
-861 860 0
-862 150 861 586 147 0
862 -150 0
862 -861 0
862 -586 0
862 -147 0
863 -152 -862 0
-863 152 0
-863 862 0
864 -128 -72 0
-864 128 0
-864 72 0
-865 130 133 864 0
865 -130 0
865 -133 0
865 -864 0
866 -132 -865 0
-866 132 0
-866 865 0
-867 150 866 159 147 0
867 -150 0
867 -866 0
867 -159 0
867 -147 0
868 -162 -867 0
-868 162 0
-868 867 0
869 -180 -867 0
-869 180 0
-869 867 0
-870 91 869 0
870 -91 0
870 -869 0
871 -90 -870 0
-871 90 0
-871 870 0
872 -184 -867 0
-872 184 0
-872 867 0
-873 96 872 0
873 -96 0
873 -872 0
874 -95 -873 0
-874 95 0
-874 873 0
-875 98 868 27 34 84 86 871 92 874 0
875 -98 0
875 -868 0
875 -27 0
875 -34 0
875 -84 0
875 -86 0
875 -871 0
875 -92 0
875 -874 0
876 -103 -875 0
-876 103 0
-876 875 0
877 -114 -574 0
-877 114 0
-877 574 0
-878 67 877 64 0
878 -67 0
878 -877 0
878 -64 0
879 -69 -878 0
-879 69 0
-879 878 0
-880 73 36 39 42 50 879 70 0
880 -73 0
880 -36 0
880 -39 0
880 -42 0
880 -50 0
880 -879 0
880 -70 0
881 -128 -880 0
-881 128 0
-881 880 0
-882 130 591 881 0
882 -130 0
882 -591 0
882 -881 0
883 -132 -882 0
-883 132 0
-883 882 0
-884 150 883 360 147 0
884 -150 0
884 -883 0
884 -360 0
884 -147 0
885 -204 -884 0
-885 204 0
-885 884 0
-886 130 864 0
886 -130 0
886 -864 0
887 -132 -886 0
-887 132 0
-887 886 0
-888 150 887 159 147 0
888 -150 0
888 -887 0
888 -159 0
888 -147 0
889 -162 -888 0
-889 162 0
-889 888 0
890 -180 -888 0
-890 180 0
-890 888 0
-891 91 890 0
891 -91 0
891 -890 0
892 -90 -891 0
-892 90 0
-892 891 0
893 -184 -888 0
-893 184 0
-893 888 0
-894 96 893 0
894 -96 0
894 -893 0
895 -95 -894 0
-895 95 0
-895 894 0
-896 98 889 27 34 84 86 892 92 895 0
896 -98 0
896 -889 0
896 -27 0
896 -34 0
896 -84 0
896 -86 0
896 -892 0
896 -92 0
896 -895 0
897 -105 -896 0
-897 105 0
-897 896 0
-898 3 897 0
898 -3 0
898 -897 0
899 -2 -898 0
-899 2 0
-899 898 0
-900 5 876 885 899 0
900 -5 0
900 -876 0
900 -885 0
900 -899 0
901 -235 -900 0
-901 235 0
-901 900 0
902 -204 -867 0
-902 204 0
-902 867 0
-903 5 902 1 0
903 -5 0
903 -902 0
903 -1 0
904 -7 -903 0
-904 7 0
-904 903 0
-905 98 868 904 27 34 84 86 871 92 874 0
905 -98 0
905 -868 0
905 -904 0
905 -27 0
905 -34 0
905 -84 0
905 -86 0
905 -871 0
905 -92 0
905 -874 0
906 -250 -905 0
-906 250 0
-906 905 0
907 -252 -862 0
-907 252 0
-907 862 0
908 -254 -900 0
-908 254 0
-908 900 0
-909 256 906 907 908 0
909 -256 0
909 -906 0
909 -907 0
909 -908 0
910 -258 -909 0
-910 258 0
-910 909 0
-911 98 262 265 27 34 84 86 272 92 275 0
911 -98 0
911 -262 0
911 -265 0
911 -27 0
911 -34 0
911 -84 0
911 -86 0
911 -272 0
911 -92 0
911 -275 0
912 -100 -911 0
-912 100 0
-912 911 0
-913 98 262 27 34 84 86 272 92 275 0
913 -98 0
913 -262 0
913 -27 0
913 -34 0
913 -84 0
913 -86 0
913 -272 0
913 -92 0
913 -275 0
914 -103 -913 0
-914 103 0
-914 913 0
915 -105 -913 0
-915 105 0
-915 913 0
-916 3 915 0
916 -3 0
916 -915 0
917 -2 -916 0
-917 2 0
-917 916 0
-918 5 914 362 917 0
918 -5 0
918 -914 0
918 -362 0
918 -917 0
919 -110 -918 0
-919 110 0
-919 918 0
920 -69 -661 0
-920 69 0
-920 661 0
-921 73 36 39 42 50 920 0
921 -73 0
921 -36 0
921 -39 0
921 -42 0
921 -50 0
921 -920 0
922 -128 -921 0
-922 128 0
-922 921 0
-923 130 912 919 922 0
923 -130 0
923 -912 0
923 -919 0
923 -922 0
924 -324 -923 0
-924 324 0
-924 923 0
-925 130 133 415 0
925 -130 0
925 -133 0
925 -415 0
926 -132 -925 0
-926 132 0
-926 925 0
-927 150 926 159 147 0
927 -150 0
927 -926 0
927 -159 0
927 -147 0
928 -162 -927 0
-928 162 0
-928 927 0
929 -204 -927 0
-929 204 0
-929 927 0
-930 5 929 1 0
930 -5 0
930 -929 0
930 -1 0
931 -7 -930 0
-931 7 0
-931 930 0
932 -180 -927 0
-932 180 0
-932 927 0
-933 91 932 0
933 -91 0
933 -932 0
934 -90 -933 0
-934 90 0
-934 933 0
935 -184 -927 0
-935 184 0
-935 927 0
-936 96 935 0
936 -96 0
936 -935 0
937 -95 -936 0
-937 95 0
-937 936 0
-938 98 928 931 27 34 84 86 934 92 937 0
938 -98 0
938 -928 0
938 -931 0
938 -27 0
938 -34 0
938 -84 0
938 -86 0
938 -934 0
938 -92 0
938 -937 0
939 -114 -938 0
-939 114 0
-939 938 0
-940 67 939 0
940 -67 0
940 -939 0
941 -439 -940 0
-941 439 0
-941 940 0
-942 5 356 289 365 0
942 -5 0
942 -356 0
942 -289 0
942 -365 0
943 -110 -942 0
-943 110 0
-943 942 0
-944 130 347 943 0
944 -130 0
944 -347 0
944 -943 0
945 -136 -944 0
-945 136 0
-945 944 0
-946 73 36 945 39 42 50 920 0
946 -73 0
946 -36 0
946 -945 0
946 -39 0
946 -42 0
946 -50 0
946 -920 0
947 -460 -946 0
-947 460 0
-947 946 0
-948 462 941 947 0
948 -462 0
948 -941 0
948 -947 0
949 -464 -948 0
-949 464 0
-949 948 0
-950 466 863 901 910 259 924 949 0
950 -466 0
950 -863 0
950 -901 0
950 -910 0
950 -259 0
950 -924 0
950 -949 0
951 -491 -950 0
-951 491 0
-951 950 0
-952 466 469 470 474 259 671 0
952 -466 0
952 -469 0
952 -470 0
952 -474 0
952 -259 0
952 -671 0
953 -485 -952 0
-953 485 0
-953 952 0
-954 98 295 953 298 27 34 84 86 301 92 304 0
954 -98 0
954 -295 0
954 -953 0
954 -298 0
954 -27 0
954 -34 0
954 -84 0
954 -86 0
954 -301 0
954 -92 0
954 -304 0
955 -100 -954 0
-955 100 0
-955 954 0
-956 466 496 499 259 671 0
956 -466 0
956 -496 0
956 -499 0
956 -259 0
956 -671 0
957 -485 -956 0
-957 485 0
-957 956 0
-958 98 348 957 27 34 84 86 351 92 354 0
958 -98 0
958 -348 0
958 -957 0
958 -27 0
958 -34 0
958 -84 0
958 -86 0
958 -351 0
958 -92 0
958 -354 0
959 -103 -958 0
-959 103 0
-959 958 0
-960 98 673 27 34 84 86 92 94 0
960 -98 0
960 -673 0
960 -27 0
960 -34 0
960 -84 0
960 -86 0
960 -92 0
960 -94 0
961 -143 -960 0
-961 143 0
-961 960 0
-962 91 961 0
962 -91 0
962 -961 0
963 -146 -962 0
-963 146 0
-963 962 0
-964 150 963 147 0
964 -150 0
964 -963 0
964 -147 0
965 -204 -964 0
-965 204 0
-965 964 0
966 -105 -958 0
-966 105 0
-966 958 0
-967 3 966 0
967 -3 0
967 -966 0
968 -2 -967 0
-968 2 0
-968 967 0
-969 5 959 965 968 0
969 -5 0
969 -959 0
969 -965 0
969 -968 0
970 -110 -969 0
-970 110 0
-970 969 0
-971 130 955 970 0
971 -130 0
971 -955 0
971 -970 0
972 -136 -971 0
-972 136 0
-972 971 0
-973 98 295 547 298 27 34 84 86 301 92 304 0
973 -98 0
973 -295 0
973 -547 0
973 -298 0
973 -27 0
973 -34 0
973 -84 0
973 -86 0
973 -301 0
973 -92 0
973 -304 0
974 -114 -973 0
-974 114 0
-974 973 0
-975 67 974 0
975 -67 0
975 -974 0
976 -69 -975 0
-976 69 0
-976 975 0
-977 73 36 972 39 42 50 976 0
977 -73 0
977 -36 0
977 -972 0
977 -39 0
977 -42 0
977 -50 0
977 -976 0
978 -75 -977 0
-978 75 0
-978 977 0
-979 77 951 978 0
979 -77 0
979 -951 0
979 -978 0
980 -116 -979 0
-980 116 0
-980 979 0
981 -491 -952 0
-981 491 0
-981 952 0
-982 77 981 0
982 -77 0
982 -981 0
983 -79 -982 0
-983 79 0
-983 982 0
-984 98 295 953 298 27 34 983 84 86 301 92 304 0
984 -98 0
984 -295 0
984 -953 0
984 -298 0
984 -27 0
984 -34 0
984 -983 0
984 -84 0
984 -86 0
984 -301 0
984 -92 0
984 -304 0
985 -100 -984 0
-985 100 0
-985 984 0
986 -491 -956 0
-986 491 0
-986 956 0
-987 77 986 0
987 -77 0
987 -986 0
988 -79 -987 0
-988 79 0
-988 987 0
-989 98 348 957 27 34 988 84 86 351 92 354 0
989 -98 0
989 -348 0
989 -957 0
989 -27 0
989 -34 0
989 -988 0
989 -84 0
989 -86 0
989 -351 0
989 -92 0
989 -354 0
990 -103 -989 0
-990 103 0
-990 989 0
-991 98 673 27 34 676 84 86 92 94 0
991 -98 0
991 -673 0
991 -27 0
991 -34 0
991 -676 0
991 -84 0
991 -86 0
991 -92 0
991 -94 0
992 -143 -991 0
-992 143 0
-992 991 0
-993 91 992 0
993 -91 0
993 -992 0
994 -146 -993 0
-994 146 0
-994 993 0
-995 150 994 147 0
995 -150 0
995 -994 0
995 -147 0
996 -204 -995 0
-996 204 0
-996 995 0
997 -105 -989 0
-997 105 0
-997 989 0
-998 3 997 0
998 -3 0
998 -997 0
999 -2 -998 0
-999 2 0
-999 998 0
-1000 5 990 996 999 0
1000 -5 0
1000 -990 0
1000 -996 0
1000 -999 0
1001 -110 -1000 0
-1001 110 0
-1001 1000 0
-1002 130 985 1001 0
1002 -130 0
1002 -985 0
1002 -1001 0
1003 -136 -1002 0
-1003 136 0
-1003 1002 0
-1004 67 552 0
1004 -67 0
1004 -552 0
1005 -69 -1004 0
-1005 69 0
-1005 1004 0
-1006 73 36 1003 39 42 50 1005 0
1006 -73 0
1006 -36 0
1006 -1003 0
1006 -39 0
1006 -42 0
1006 -50 0
1006 -1005 0
1007 -392 -1006 0
-1007 392 0
-1007 1006 0
-1008 54 1007 0
1008 -54 0
1008 -1007 0
1009 -53 -1008 0
-1009 53 0
-1009 1008 0
-1010 73 36 1003 39 42 1005 0
1010 -73 0
1010 -36 0
1010 -1003 0
1010 -39 0
1010 -42 0
1010 -1005 0
1011 -397 -1010 0
-1011 397 0
-1011 1010 0
-1012 47 1011 0
1012 -47 0
1012 -1011 0
1013 -46 -1012 0
-1013 46 0
-1013 1012 0
-1014 49 1013 0
1014 -49 0
1014 -1013 0
1015 -58 -1014 0
-1015 58 0
-1015 1014 0
1016 -460 -811 0
-1016 460 0
-1016 811 0
-1017 462 669 1016 0
1017 -462 0
1017 -669 0
1017 -1016 0
1018 -464 -1017 0
-1018 464 0
-1018 1017 0
-1019 466 608 611 259 1018 0
1019 -466 0
1019 -608 0
1019 -611 0
1019 -259 0
1019 -1018 0
1020 -485 -1019 0
-1020 485 0
-1020 1019 0
1021 -491 -1019 0
-1021 491 0
-1021 1019 0
-1022 77 1021 812 0
1022 -77 0
1022 -1021 0
1022 -812 0
1023 -79 -1022 0
-1023 79 0
-1023 1022 0
-1024 98 1020 6 27 34 1023 84 86 89 92 94 0
1024 -98 0
1024 -1020 0
1024 -6 0
1024 -27 0
1024 -34 0
1024 -1023 0
1024 -84 0
1024 -86 0
1024 -89 0
1024 -92 0
1024 -94 0
1025 -100 -1024 0
-1025 100 0
-1025 1024 0
-1026 466 611 259 1018 0
1026 -466 0
1026 -611 0
1026 -259 0
1026 -1018 0
1027 -485 -1026 0
-1027 485 0
-1027 1026 0
1028 -491 -1026 0
-1028 491 0
-1028 1026 0
-1029 77 1028 812 0
1029 -77 0
1029 -1028 0
1029 -812 0
1030 -79 -1029 0
-1030 79 0
-1030 1029 0
-1031 98 1027 27 34 1030 84 86 89 92 94 0
1031 -98 0
1031 -1027 0
1031 -27 0
1031 -34 0
1031 -1030 0
1031 -84 0
1031 -86 0
1031 -89 0
1031 -92 0
1031 -94 0
1032 -103 -1031 0
-1032 103 0
-1032 1031 0
-1033 466 621 259 1018 0
1033 -466 0
1033 -621 0
1033 -259 0
1033 -1018 0
1034 -485 -1033 0
-1034 485 0
-1034 1033 0
1035 -491 -1033 0
-1035 491 0
-1035 1033 0
-1036 77 1035 812 0
1036 -77 0
1036 -1035 0
1036 -812 0
1037 -79 -1036 0
-1037 79 0
-1037 1036 0
-1038 98 1034 27 34 1037 84 86 89 92 94 0
1038 -98 0
1038 -1034 0
1038 -27 0
1038 -34 0
1038 -1037 0
1038 -84 0
1038 -86 0
1038 -89 0
1038 -92 0
1038 -94 0
1039 -105 -1038 0
-1039 105 0
-1039 1038 0
-1040 3 1039 0
1040 -3 0
1040 -1039 0
1041 -2 -1040 0
-1041 2 0
-1041 1040 0
-1042 5 1032 1041 0
1042 -5 0
1042 -1032 0
1042 -1041 0
1043 -110 -1042 0
-1043 110 0
-1043 1042 0
1044 -114 -617 0
-1044 114 0
-1044 617 0
-1045 67 1044 0
1045 -67 0
1045 -1044 0
1046 -69 -1045 0
-1046 69 0
-1046 1045 0
-1047 73 36 39 42 50 1046 0
1047 -73 0
1047 -36 0
1047 -39 0
1047 -42 0
1047 -50 0
1047 -1046 0
1048 -128 -1047 0
-1048 128 0
-1048 1047 0
-1049 130 1025 1043 1048 0
1049 -130 0
1049 -1025 0
1049 -1043 0
1049 -1048 0
1050 -132 -1049 0
-1050 132 0
-1050 1049 0
1051 -128 -811 0
-1051 128 0
-1051 811 0
-1052 130 133 1051 0
1052 -130 0
1052 -133 0
1052 -1051 0
1053 -324 -1052 0
-1053 324 0
-1053 1052 0
-1054 73 36 135 39 42 50 786 0
1054 -73 0
1054 -36 0
1054 -135 0
1054 -39 0
1054 -42 0
1054 -50 0
1054 -786 0
1055 -460 -1054 0
-1055 460 0
-1055 1054 0
-1056 462 669 1055 0
1056 -462 0
1056 -669 0
1056 -1055 0
1057 -464 -1056 0
-1057 464 0
-1057 1056 0
-1058 466 608 611 259 1053 1057 0
1058 -466 0
1058 -608 0
1058 -611 0
1058 -259 0
1058 -1053 0
1058 -1057 0
1059 -485 -1058 0
-1059 485 0
-1059 1058 0
1060 -491 -1058 0
-1060 491 0
-1060 1058 0
1061 -75 -1054 0
-1061 75 0
-1061 1054 0
-1062 77 1060 1061 0
1062 -77 0
1062 -1060 0
1062 -1061 0
1063 -79 -1062 0
-1063 79 0
-1063 1062 0
-1064 98 1059 6 27 34 1063 84 86 92 94 0
1064 -98 0
1064 -1059 0
1064 -6 0
1064 -27 0
1064 -34 0
1064 -1063 0
1064 -84 0
1064 -86 0
1064 -92 0
1064 -94 0
1065 -143 -1064 0
-1065 143 0
-1065 1064 0
-1066 91 1065 0
1066 -91 0
1066 -1065 0
1067 -146 -1066 0
-1067 146 0
-1067 1066 0
-1068 150 1050 1067 147 0
1068 -150 0
1068 -1050 0
1068 -1067 0
1068 -147 0
1069 -167 -1068 0
-1069 167 0
-1069 1068 0
-1070 67 855 0
1070 -67 0
1070 -855 0
1071 -69 -1070 0
-1071 69 0
-1071 1070 0
-1072 73 36 39 42 50 1071 0
1072 -73 0
1072 -36 0
1072 -39 0
1072 -42 0
1072 -50 0
1072 -1071 0
1073 -128 -1072 0
-1073 128 0
-1073 1072 0
-1074 130 573 580 1073 0
1074 -130 0
1074 -573 0
1074 -580 0
1074 -1073 0
1075 -132 -1074 0
-1075 132 0
-1075 1074 0
-1076 150 1075 586 147 0
1076 -150 0
1076 -1075 0
1076 -586 0
1076 -147 0
1077 -152 -1076 0
-1077 152 0
-1077 1076 0
1078 -132 -1052 0
-1078 132 0
-1078 1052 0
-1079 150 1078 159 147 0
1079 -150 0
1079 -1078 0
1079 -159 0
1079 -147 0
1080 -162 -1079 0
-1080 162 0
-1080 1079 0
1081 -180 -1079 0
-1081 180 0
-1081 1079 0
-1082 91 1081 0
1082 -91 0
1082 -1081 0
1083 -90 -1082 0
-1083 90 0
-1083 1082 0
1084 -184 -1079 0
-1084 184 0
-1084 1079 0
-1085 96 1084 0
1085 -96 0
1085 -1084 0
1086 -95 -1085 0
-1086 95 0
-1086 1085 0
-1087 98 1080 27 34 84 86 1083 92 1086 0
1087 -98 0
1087 -1080 0
1087 -27 0
1087 -34 0
1087 -84 0
1087 -86 0
1087 -1083 0
1087 -92 0
1087 -1086 0
1088 -103 -1087 0
-1088 103 0
-1088 1087 0
-1089 67 877 0
1089 -67 0
1089 -877 0
1090 -69 -1089 0
-1090 69 0
-1090 1089 0
-1091 73 36 39 42 50 1090 0
1091 -73 0
1091 -36 0
1091 -39 0
1091 -42 0
1091 -50 0
1091 -1090 0
1092 -128 -1091 0
-1092 128 0
-1092 1091 0
-1093 130 591 1092 0
1093 -130 0
1093 -591 0
1093 -1092 0
1094 -132 -1093 0
-1094 132 0
-1094 1093 0
-1095 150 1094 360 147 0
1095 -150 0
1095 -1094 0
1095 -360 0
1095 -147 0
1096 -204 -1095 0
-1096 204 0
-1096 1095 0
-1097 130 1051 0
1097 -130 0
1097 -1051 0
1098 -132 -1097 0
-1098 132 0
-1098 1097 0
-1099 150 1098 159 147 0
1099 -150 0
1099 -1098 0
1099 -159 0
1099 -147 0
1100 -162 -1099 0
-1100 162 0
-1100 1099 0
1101 -180 -1099 0
-1101 180 0
-1101 1099 0
-1102 91 1101 0
1102 -91 0
1102 -1101 0
1103 -90 -1102 0
-1103 90 0
-1103 1102 0
1104 -184 -1099 0
-1104 184 0
-1104 1099 0
-1105 96 1104 0
1105 -96 0
1105 -1104 0
1106 -95 -1105 0
-1106 95 0
-1106 1105 0
-1107 98 1100 27 34 84 86 1103 92 1106 0
1107 -98 0
1107 -1100 0
1107 -27 0
1107 -34 0
1107 -84 0
1107 -86 0
1107 -1103 0
1107 -92 0
1107 -1106 0
1108 -105 -1107 0
-1108 105 0
-1108 1107 0
-1109 3 1108 0
1109 -3 0
1109 -1108 0
1110 -2 -1109 0
-1110 2 0
-1110 1109 0
-1111 5 1088 1096 1110 0
1111 -5 0
1111 -1088 0
1111 -1096 0
1111 -1110 0
1112 -235 -1111 0
-1112 235 0
-1112 1111 0
1113 -204 -1079 0
-1113 204 0
-1113 1079 0
-1114 5 1113 1 0
1114 -5 0
1114 -1113 0
1114 -1 0
1115 -7 -1114 0
-1115 7 0
-1115 1114 0
-1116 98 1080 1115 27 34 84 86 1083 92 1086 0
1116 -98 0
1116 -1080 0
1116 -1115 0
1116 -27 0
1116 -34 0
1116 -84 0
1116 -86 0
1116 -1083 0
1116 -92 0
1116 -1086 0
1117 -250 -1116 0
-1117 250 0
-1117 1116 0
1118 -252 -1076 0
-1118 252 0
-1118 1076 0
1119 -254 -1111 0
-1119 254 0
-1119 1111 0
-1120 256 1117 1118 1119 0
1120 -256 0
1120 -1117 0
1120 -1118 0
1120 -1119 0
1121 -258 -1120 0
-1121 258 0
-1121 1120 0
-1122 73 36 369 39 42 50 920 0
1122 -73 0
1122 -36 0
1122 -369 0
1122 -39 0
1122 -42 0
1122 -50 0
1122 -920 0
1123 -460 -1122 0
-1123 460 0
-1123 1122 0
-1124 462 941 1123 0
1124 -462 0
1124 -941 0
1124 -1123 0
1125 -464 -1124 0
-1125 464 0
-1125 1124 0
-1126 466 1077 1112 1121 259 924 1125 0
1126 -466 0
1126 -1077 0
1126 -1112 0
1126 -1121 0
1126 -259 0
1126 -924 0
1126 -1125 0
1127 -491 -1126 0
-1127 491 0
-1127 1126 0
-1128 77 1127 978 0
1128 -77 0
1128 -1127 0
1128 -978 0
1129 -118 -1128 0
-1129 118 0
-1129 1128 0
1130 -430 -1006 0
-1130 430 0
-1130 1006 0
-1131 61 1069 1129 1130 0
1131 -61 0
1131 -1069 0
1131 -1129 0
1131 -1130 0
1132 -60 -1131 0
-1132 60 0
-1132 1131 0
1133 -152 -160 0
-1133 152 0
-1133 160 0
1134 -235 -237 0
-1134 235 0
-1134 237 0
1135 -252 -160 0
-1135 252 0
-1135 160 0
1136 -254 -237 0
-1136 254 0
-1136 237 0
-1137 256 1135 1136 0
1137 -256 0
1137 -1135 0
1137 -1136 0
1138 -258 -1137 0
-1138 258 0
-1138 1137 0
-1139 466 1133 1134 1138 259 671 0
1139 -466 0
1139 -1133 0
1139 -1134 0
1139 -1138 0
1139 -259 0
1139 -671 0
1140 -485 -1139 0
-1140 485 0
-1140 1139 0
1141 -491 -1139 0
-1141 491 0
-1141 1139 0
-1142 77 1141 0
1142 -77 0
1142 -1141 0
1143 -79 -1142 0
-1143 79 0
-1143 1142 0
-1144 98 295 1140 298 27 34 1143 84 86 301 92 304 0
1144 -98 0
1144 -295 0
1144 -1140 0
1144 -298 0
1144 -27 0
1144 -34 0
1144 -1143 0
1144 -84 0
1144 -86 0
1144 -301 0
1144 -92 0
1144 -304 0
1145 -100 -1144 0
-1145 100 0
-1145 1144 0
-1146 256 1135 0
1146 -256 0
1146 -1135 0
1147 -258 -1146 0
-1147 258 0
-1147 1146 0
-1148 466 1133 1147 259 671 0
1148 -466 0
1148 -1133 0
1148 -1147 0
1148 -259 0
1148 -671 0
1149 -485 -1148 0
-1149 485 0
-1149 1148 0
1150 -491 -1148 0
-1150 491 0
-1150 1148 0
-1151 77 1150 0
1151 -77 0
1151 -1150 0
1152 -79 -1151 0
-1152 79 0
-1152 1151 0
-1153 98 348 1149 27 34 1152 84 86 351 92 354 0
1153 -98 0
1153 -348 0
1153 -1149 0
1153 -27 0
1153 -34 0
1153 -1152 0
1153 -84 0
1153 -86 0
1153 -351 0
1153 -92 0
1153 -354 0
1154 -103 -1153 0
-1154 103 0
-1154 1153 0
1155 -152 -207 0
-1155 152 0
-1155 207 0
1156 -252 -207 0
-1156 252 0
-1156 207 0
-1157 256 1156 0
1157 -256 0
1157 -1156 0
1158 -258 -1157 0
-1158 258 0
-1158 1157 0
-1159 466 1155 1158 259 671 0
1159 -466 0
1159 -1155 0
1159 -1158 0
1159 -259 0
1159 -671 0
1160 -485 -1159 0
-1160 485 0
-1160 1159 0
1161 -491 -1159 0
-1161 491 0
-1161 1159 0
-1162 77 1161 0
1162 -77 0
1162 -1161 0
1163 -79 -1162 0
-1163 79 0
-1163 1162 0
-1164 98 348 1160 27 34 1163 84 86 351 92 354 0
1164 -98 0
1164 -348 0
1164 -1160 0
1164 -27 0
1164 -34 0
1164 -1163 0
1164 -84 0
1164 -86 0
1164 -351 0
1164 -92 0
1164 -354 0
1165 -105 -1164 0
-1165 105 0
-1165 1164 0
-1166 3 1165 0
1166 -3 0
1166 -1165 0
1167 -2 -1166 0
-1167 2 0
-1167 1166 0
-1168 5 1154 996 1167 0
1168 -5 0
1168 -1154 0
1168 -996 0
1168 -1167 0
1169 -110 -1168 0
-1169 110 0
-1169 1168 0
-1170 130 1145 1169 0
1170 -130 0
1170 -1145 0
1170 -1169 0
1171 -136 -1170 0
-1171 136 0
-1171 1170 0
-1172 73 36 1171 39 42 50 1005 0
1172 -73 0
1172 -36 0
1172 -1171 0
1172 -39 0
1172 -42 0
1172 -50 0
1172 -1005 0
1173 -434 -1172 0
-1173 434 0
-1173 1172 0
-1174 63 854 980 1009 55 1015 1132 1173 0
1174 -63 0
1174 -854 0
1174 -980 0
1174 -1009 0
1174 -55 0
1174 -1015 0
1174 -1132 0
1174 -1173 0
1175 -1176 -1174 0
-1175 1176 0
-1175 1174 0
1177 -1178 -710 0
-1177 1178 0
-1177 710 0
-1179 1180 715 784 1175 1177 0
1179 -1180 0
1179 -715 0
1179 -784 0
1179 -1175 0
1179 -1177 0
1181 -1182 -1179 0
-1181 1182 0
-1181 1179 0
1183 -785 -48 0
-1183 785 0
-1183 48 0
1184 -1176 -62 0
-1184 1176 0
-1184 62 0
-1185 1180 1183 1184 0
1185 -1180 0
1185 -1183 0
1185 -1184 0
1186 -1187 -1185 0
-1186 1187 0
-1186 1185 0
1188 -1189 -1185 0
-1188 1189 0
-1188 1185 0
-1190 49 1188 45 0
1190 -49 0
1190 -1188 0
1190 -45 0
1191 -51 -1190 0
-1191 51 0
-1191 1190 0
1192 -1193 -1185 0
-1192 1193 0
-1192 1185 0
-1194 1180 1183 0
1194 -1180 0
1194 -1183 0
1195 -1189 -1194 0
-1195 1189 0
-1195 1194 0
-1196 49 1195 45 0
1196 -49 0
1196 -1195 0
1196 -45 0
1197 -58 -1196 0
-1197 58 0
-1197 1196 0
-1198 63 52 55 1192 1197 59 0
1198 -63 0
1198 -52 0
1198 -55 0
1198 -1192 0
1198 -1197 0
1198 -59 0
1199 -65 -1198 0
-1199 65 0
-1199 1198 0
-1200 67 1199 0
1200 -67 0
1200 -1199 0
1201 -69 -1200 0
-1201 69 0
-1201 1200 0
1202 -71 -1198 0
-1202 71 0
-1202 1198 0
-1203 73 36 39 42 1186 1191 1201 1202 0
1203 -73 0
1203 -36 0
1203 -39 0
1203 -42 0
1203 -1186 0
1203 -1191 0
1203 -1201 0
1203 -1202 0
1204 -75 -1203 0
-1204 75 0
-1204 1203 0
-1205 77 1204 0
1205 -77 0
1205 -1204 0
1206 -79 -1205 0
-1206 79 0
-1206 1205 0
-1207 98 6 27 34 1206 84 86 89 92 94 0
1207 -98 0
1207 -6 0
1207 -27 0
1207 -34 0
1207 -1206 0
1207 -84 0
1207 -86 0
1207 -89 0
1207 -92 0
1207 -94 0
1208 -100 -1207 0
-1208 100 0
-1208 1207 0
-1209 98 27 34 1206 84 86 89 92 94 0
1209 -98 0
1209 -27 0
1209 -34 0
1209 -1206 0
1209 -84 0
1209 -86 0
1209 -89 0
1209 -92 0
1209 -94 0
1210 -103 -1209 0
-1210 103 0
-1210 1209 0
1211 -105 -1209 0
-1211 105 0
-1211 1209 0
-1212 3 1211 0
1212 -3 0
1212 -1211 0
1213 -2 -1212 0
-1213 2 0
-1213 1212 0
-1214 5 1210 1213 0
1214 -5 0
1214 -1210 0
1214 -1213 0
1215 -110 -1214 0
-1215 110 0
-1215 1214 0
1216 -1176 -121 0
-1216 1176 0
-1216 121 0
-1217 1180 1183 1216 0
1217 -1180 0
1217 -1183 0
1217 -1216 0
1218 -1187 -1217 0
-1218 1187 0
-1218 1217 0
1219 -1189 -1217 0
-1219 1189 0
-1219 1217 0
-1220 49 1219 45 0
1220 -49 0
1220 -1219 0
1220 -45 0
1221 -51 -1220 0
-1221 51 0
-1221 1220 0
1222 -1193 -1194 0
-1222 1193 0
-1222 1194 0
-1223 63 115 52 55 1222 1197 120 0
1223 -63 0
1223 -115 0
1223 -52 0
1223 -55 0
1223 -1222 0
1223 -1197 0
1223 -120 0
1224 -65 -1223 0
-1224 65 0
-1224 1223 0
-1225 67 113 1224 0
1225 -67 0
1225 -113 0
1225 -1224 0
1226 -69 -1225 0
-1226 69 0
-1226 1225 0
1227 -71 -1223 0
-1227 71 0
-1227 1223 0
-1228 73 36 39 42 1218 1221 1226 1227 0
1228 -73 0
1228 -36 0
1228 -39 0
1228 -42 0
1228 -1218 0
1228 -1221 0
1228 -1226 0
1228 -1227 0
1229 -128 -1228 0
-1229 128 0
-1229 1228 0
-1230 130 1208 1215 1229 0
1230 -130 0
1230 -1208 0
1230 -1215 0
1230 -1229 0
1231 -132 -1230 0
-1231 132 0
-1231 1230 0
-1232 73 36 135 39 42 1186 1191 1201 1202 0
1232 -73 0
1232 -36 0
1232 -135 0
1232 -39 0
1232 -42 0
1232 -1186 0
1232 -1191 0
1232 -1201 0
1232 -1202 0
1233 -75 -1232 0
-1233 75 0
-1233 1232 0
-1234 77 1233 0
1234 -77 0
1234 -1233 0
1235 -79 -1234 0
-1235 79 0
-1235 1234 0
-1236 98 6 27 34 1235 84 86 92 94 0
1236 -98 0
1236 -6 0
1236 -27 0
1236 -34 0
1236 -1235 0
1236 -84 0
1236 -86 0
1236 -92 0
1236 -94 0
1237 -143 -1236 0
-1237 143 0
-1237 1236 0
-1238 91 1237 0
1238 -91 0
1238 -1237 0
1239 -146 -1238 0
-1239 146 0
-1239 1238 0
-1240 150 1231 1239 147 0
1240 -150 0
1240 -1231 0
1240 -1239 0
1240 -147 0
1241 -152 -1240 0
-1241 152 0
-1241 1240 0
-1242 67 1224 0
1242 -67 0
1242 -1224 0
1243 -69 -1242 0
-1243 69 0
-1243 1242 0
-1244 73 36 39 42 1218 1221 1243 1227 0
1244 -73 0
1244 -36 0
1244 -39 0
1244 -42 0
1244 -1218 0
1244 -1221 0
1244 -1243 0
1244 -1227 0
1245 -128 -1244 0
-1245 128 0
-1245 1244 0
-1246 130 133 1245 0
1246 -130 0
1246 -133 0
1246 -1245 0
1247 -132 -1246 0
-1247 132 0
-1247 1246 0
-1248 150 1247 159 147 0
1248 -150 0
1248 -1247 0
1248 -159 0
1248 -147 0
1249 -162 -1248 0
-1249 162 0
-1249 1248 0
1250 -1176 -170 0
-1250 1176 0
-1250 170 0
-1251 1180 1183 1250 0
1251 -1180 0
1251 -1183 0
1251 -1250 0
1252 -1187 -1251 0
-1252 1187 0
-1252 1251 0
1253 -1189 -1251 0
-1253 1189 0
-1253 1251 0
-1254 49 1253 45 0
1254 -49 0
1254 -1253 0
1254 -45 0
1255 -51 -1254 0
-1255 51 0
-1255 1254 0
-1256 63 52 55 1222 1197 169 0
1256 -63 0
1256 -52 0
1256 -55 0
1256 -1222 0
1256 -1197 0
1256 -169 0
1257 -65 -1256 0
-1257 65 0
-1257 1256 0
-1258 67 1257 0
1258 -67 0
1258 -1257 0
1259 -69 -1258 0
-1259 69 0
-1259 1258 0
1260 -71 -1256 0
-1260 71 0
-1260 1256 0
-1261 73 36 163 39 42 1252 1255 1259 1260 0
1261 -73 0
1261 -36 0
1261 -163 0
1261 -39 0
1261 -42 0
1261 -1252 0
1261 -1255 0
1261 -1259 0
1261 -1260 0
1262 -75 -1261 0
-1262 75 0
-1262 1261 0
-1263 77 1262 0
1263 -77 0
1263 -1262 0
1264 -79 -1263 0
-1264 79 0
-1264 1263 0
1265 -180 -1248 0
-1265 180 0
-1265 1248 0
-1266 91 1265 0
1266 -91 0
1266 -1265 0
1267 -90 -1266 0
-1267 90 0
-1267 1266 0
1268 -184 -1248 0
-1268 184 0
-1268 1248 0
-1269 96 1268 0
1269 -96 0
1269 -1268 0
1270 -95 -1269 0
-1270 95 0
-1270 1269 0
-1271 98 1249 27 34 1264 84 86 1267 92 1270 0
1271 -98 0
1271 -1249 0
1271 -27 0
1271 -34 0
1271 -1264 0
1271 -84 0
1271 -86 0
1271 -1267 0
1271 -92 0
1271 -1270 0
1272 -103 -1271 0
-1272 103 0
-1272 1271 0
1273 -100 -1209 0
-1273 100 0
-1273 1209 0
-1274 67 191 1224 0
1274 -67 0
1274 -191 0
1274 -1224 0
1275 -69 -1274 0
-1275 69 0
-1275 1274 0
-1276 73 36 39 42 1218 1221 1275 1227 0
1276 -73 0
1276 -36 0
1276 -39 0
1276 -42 0
1276 -1218 0
1276 -1221 0
1276 -1275 0
1276 -1227 0
1277 -128 -1276 0
-1277 128 0
-1277 1276 0
-1278 130 1273 1277 0
1278 -130 0
1278 -1273 0
1278 -1277 0
1279 -132 -1278 0
-1279 132 0
-1279 1278 0
-1280 98 27 34 1235 84 86 92 94 0
1280 -98 0
1280 -27 0
1280 -34 0
1280 -1235 0
1280 -84 0
1280 -86 0
1280 -92 0
1280 -94 0
1281 -143 -1280 0
-1281 143 0
-1281 1280 0
-1282 91 1281 0
1282 -91 0
1282 -1281 0
1283 -146 -1282 0
-1283 146 0
-1283 1282 0
-1284 150 1279 1283 147 0
1284 -150 0
1284 -1279 0
1284 -1283 0
1284 -147 0
1285 -204 -1284 0
-1285 204 0
-1285 1284 0
-1286 130 1245 0
1286 -130 0
1286 -1245 0
1287 -132 -1286 0
-1287 132 0
-1287 1286 0
-1288 150 1287 159 147 0
1288 -150 0
1288 -1287 0
1288 -159 0
1288 -147 0
1289 -162 -1288 0
-1289 162 0
-1289 1288 0
1290 -1176 -214 0
-1290 1176 0
-1290 214 0
-1291 1180 1183 1290 0
1291 -1180 0
1291 -1183 0
1291 -1290 0
1292 -1187 -1291 0
-1292 1187 0
-1292 1291 0
1293 -1189 -1291 0
-1293 1189 0
-1293 1291 0
-1294 49 1293 45 0
1294 -49 0
1294 -1293 0
1294 -45 0
1295 -51 -1294 0
-1295 51 0
-1295 1294 0
-1296 63 52 55 1222 1197 213 0
1296 -63 0
1296 -52 0
1296 -55 0
1296 -1222 0
1296 -1197 0
1296 -213 0
1297 -65 -1296 0
-1297 65 0
-1297 1296 0
-1298 67 1297 0
1298 -67 0
1298 -1297 0
1299 -69 -1298 0
-1299 69 0
-1299 1298 0
1300 -71 -1296 0
-1300 71 0
-1300 1296 0
-1301 73 36 163 39 42 1292 1295 1299 1300 0
1301 -73 0
1301 -36 0
1301 -163 0
1301 -39 0
1301 -42 0
1301 -1292 0
1301 -1295 0
1301 -1299 0
1301 -1300 0
1302 -75 -1301 0
-1302 75 0
-1302 1301 0
-1303 77 1302 0
1303 -77 0
1303 -1302 0
1304 -79 -1303 0
-1304 79 0
-1304 1303 0
1305 -180 -1288 0
-1305 180 0
-1305 1288 0
-1306 91 1305 0
1306 -91 0
1306 -1305 0
1307 -90 -1306 0
-1307 90 0
-1307 1306 0
1308 -184 -1288 0
-1308 184 0
-1308 1288 0
-1309 96 1308 0
1309 -96 0
1309 -1308 0
1310 -95 -1309 0
-1310 95 0
-1310 1309 0
-1311 98 1289 27 34 1304 84 86 1307 92 1310 0
1311 -98 0
1311 -1289 0
1311 -27 0
1311 -34 0
1311 -1304 0
1311 -84 0
1311 -86 0
1311 -1307 0
1311 -92 0
1311 -1310 0
1312 -105 -1311 0
-1312 105 0
-1312 1311 0
-1313 3 1312 0
1313 -3 0
1313 -1312 0
1314 -2 -1313 0
-1314 2 0
-1314 1313 0
-1315 5 1272 1285 1314 0
1315 -5 0
1315 -1272 0
1315 -1285 0
1315 -1314 0
1316 -235 -1315 0
-1316 235 0
-1316 1315 0
1317 -204 -1248 0
-1317 204 0
-1317 1248 0
-1318 5 1317 1 0
1318 -5 0
1318 -1317 0
1318 -1 0
1319 -7 -1318 0
-1319 7 0
-1319 1318 0
-1320 73 36 243 39 42 1252 1255 1259 1260 0
1320 -73 0
1320 -36 0
1320 -243 0
1320 -39 0
1320 -42 0
1320 -1252 0
1320 -1255 0
1320 -1259 0
1320 -1260 0
1321 -75 -1320 0
-1321 75 0
-1321 1320 0
-1322 77 1321 0
1322 -77 0
1322 -1321 0
1323 -79 -1322 0
-1323 79 0
-1323 1322 0
-1324 98 1249 1319 27 34 1323 84 86 1267 92 1270 0
1324 -98 0
1324 -1249 0
1324 -1319 0
1324 -27 0
1324 -34 0
1324 -1323 0
1324 -84 0
1324 -86 0
1324 -1267 0
1324 -92 0
1324 -1270 0
1325 -250 -1324 0
-1325 250 0
-1325 1324 0
1326 -252 -1240 0
-1326 252 0
-1326 1240 0
1327 -254 -1315 0
-1327 254 0
-1327 1315 0
-1328 256 1325 1326 1327 0
1328 -256 0
1328 -1325 0
1328 -1326 0
1328 -1327 0
1329 -258 -1328 0
-1329 258 0
-1329 1328 0
-1330 73 36 39 42 1252 1255 1259 1260 0
1330 -73 0
1330 -36 0
1330 -39 0
1330 -42 0
1330 -1252 0
1330 -1255 0
1330 -1259 0
1330 -1260 0
1331 -75 -1330 0
-1331 75 0
-1331 1330 0
-1332 77 1331 0
1332 -77 0
1332 -1331 0
1333 -79 -1332 0
-1333 79 0
-1333 1332 0
-1334 98 262 265 27 34 1333 84 86 272 92 275 0
1334 -98 0
1334 -262 0
1334 -265 0
1334 -27 0
1334 -34 0
1334 -1333 0
1334 -84 0
1334 -86 0
1334 -272 0
1334 -92 0
1334 -275 0
1335 -100 -1334 0
-1335 100 0
-1335 1334 0
-1336 73 36 39 42 1292 1295 1299 1300 0
1336 -73 0
1336 -36 0
1336 -39 0
1336 -42 0
1336 -1292 0
1336 -1295 0
1336 -1299 0
1336 -1300 0
1337 -75 -1336 0
-1337 75 0
-1337 1336 0
-1338 77 1337 0
1338 -77 0
1338 -1337 0
1339 -79 -1338 0
-1339 79 0
-1339 1338 0
-1340 98 262 27 34 1339 84 86 272 92 275 0
1340 -98 0
1340 -262 0
1340 -27 0
1340 -34 0
1340 -1339 0
1340 -84 0
1340 -86 0
1340 -272 0
1340 -92 0
1340 -275 0
1341 -103 -1340 0
-1341 103 0
-1341 1340 0
-1342 98 27 34 1206 84 86 92 94 0
1342 -98 0
1342 -27 0
1342 -34 0
1342 -1206 0
1342 -84 0
1342 -86 0
1342 -92 0
1342 -94 0
1343 -143 -1342 0
-1343 143 0
-1343 1342 0
-1344 91 1343 0
1344 -91 0
1344 -1343 0
1345 -146 -1344 0
-1345 146 0
-1345 1344 0
-1346 150 1345 147 0
1346 -150 0
1346 -1345 0
1346 -147 0
1347 -204 -1346 0
-1347 204 0
-1347 1346 0
1348 -105 -1340 0
-1348 105 0
-1348 1340 0
-1349 3 1348 0
1349 -3 0
1349 -1348 0
1350 -2 -1349 0
-1350 2 0
-1350 1349 0
-1351 5 1341 1347 1350 0
1351 -5 0
1351 -1341 0
1351 -1347 0
1351 -1350 0
1352 -110 -1351 0
-1352 110 0
-1352 1351 0
1353 -1176 -315 0
-1353 1176 0
-1353 315 0
-1354 1180 1183 1353 0
1354 -1180 0
1354 -1183 0
1354 -1353 0
1355 -1187 -1354 0
-1355 1187 0
-1355 1354 0
1356 -1189 -1354 0
-1356 1189 0
-1356 1354 0
-1357 49 1356 45 0
1357 -49 0
1357 -1356 0
1357 -45 0
1358 -51 -1357 0
-1358 51 0
-1358 1357 0
-1359 63 115 52 55 1222 1197 314 0
1359 -63 0
1359 -115 0
1359 -52 0
1359 -55 0
1359 -1222 0
1359 -1197 0
1359 -314 0
1360 -65 -1359 0
-1360 65 0
-1360 1359 0
-1361 67 306 1360 0
1361 -67 0
1361 -306 0
1361 -1360 0
1362 -69 -1361 0
-1362 69 0
-1362 1361 0
1363 -71 -1359 0
-1363 71 0
-1363 1359 0
-1364 73 36 39 42 1355 1358 1362 1363 0
1364 -73 0
1364 -36 0
1364 -39 0
1364 -42 0
1364 -1355 0
1364 -1358 0
1364 -1362 0
1364 -1363 0
1365 -128 -1364 0
-1365 128 0
-1365 1364 0
-1366 130 1335 1352 1365 0
1366 -130 0
1366 -1335 0
1366 -1352 0
1366 -1365 0
1367 -324 -1366 0
-1367 324 0
-1367 1366 0
-1368 73 36 39 42 1218 1221 1227 0
1368 -73 0
1368 -36 0
1368 -39 0
1368 -42 0
1368 -1218 0
1368 -1221 0
1368 -1227 0
1369 -128 -1368 0
-1369 128 0
-1369 1368 0
-1370 130 133 1369 0
1370 -130 0
1370 -133 0
1370 -1369 0
1371 -132 -1370 0
-1371 132 0
-1371 1370 0
-1372 150 1371 159 147 0
1372 -150 0
1372 -1371 0
1372 -159 0
1372 -147 0
1373 -162 -1372 0
-1373 162 0
-1373 1372 0
1374 -204 -1372 0
-1374 204 0
-1374 1372 0
-1375 5 1374 1 0
1375 -5 0
1375 -1374 0
1375 -1 0
1376 -7 -1375 0
-1376 7 0
-1376 1375 0
-1377 73 36 243 39 42 1252 1255 1260 0
1377 -73 0
1377 -36 0
1377 -243 0
1377 -39 0
1377 -42 0
1377 -1252 0
1377 -1255 0
1377 -1260 0
1378 -75 -1377 0
-1378 75 0
-1378 1377 0
-1379 77 1378 0
1379 -77 0
1379 -1378 0
1380 -79 -1379 0
-1380 79 0
-1380 1379 0
1381 -180 -1372 0
-1381 180 0
-1381 1372 0
-1382 91 1381 0
1382 -91 0
1382 -1381 0
1383 -90 -1382 0
-1383 90 0
-1383 1382 0
1384 -184 -1372 0
-1384 184 0
-1384 1372 0
-1385 96 1384 0
1385 -96 0
1385 -1384 0
1386 -95 -1385 0
-1386 95 0
-1386 1385 0
-1387 98 1373 1376 27 34 1380 84 86 1383 92 1386 0
1387 -98 0
1387 -1373 0
1387 -1376 0
1387 -27 0
1387 -34 0
1387 -1380 0
1387 -84 0
1387 -86 0
1387 -1383 0
1387 -92 0
1387 -1386 0
1388 -114 -1387 0
-1388 114 0
-1388 1387 0
1389 -1187 -1194 0
-1389 1187 0
-1389 1194 0
1390 -51 -1196 0
-1390 51 0
-1390 1196 0
-1391 73 36 369 39 42 1389 1390 0
1391 -73 0
1391 -36 0
1391 -369 0
1391 -39 0
1391 -42 0
1391 -1389 0
1391 -1390 0
1392 -75 -1391 0
-1392 75 0
-1392 1391 0
-1393 77 1392 0
1393 -77 0
1393 -1392 0
1394 -116 -1393 0
-1394 116 0
-1394 1393 0
-1395 73 36 389 39 42 1389 1390 0
1395 -73 0
1395 -36 0
1395 -389 0
1395 -39 0
1395 -42 0
1395 -1389 0
1395 -1390 0
1396 -392 -1395 0
-1396 392 0
-1396 1395 0
-1397 54 1396 0
1397 -54 0
1397 -1396 0
1398 -53 -1397 0
-1398 53 0
-1398 1397 0
1399 -785 -400 0
-1399 785 0
-1399 400 0
1400 -1178 -390 0
-1400 1178 0
-1400 390 0
-1401 1180 1399 1400 0
1401 -1180 0
1401 -1399 0
1401 -1400 0
1402 -1193 -1401 0
-1402 1193 0
-1402 1401 0
1403 -1178 -395 0
-1403 1178 0
-1403 395 0
-1404 1180 1403 0
1404 -1180 0
1404 -1403 0
1405 -1189 -1404 0
-1405 1189 0
-1405 1404 0
1406 -1187 -1180 0
-1406 1187 0
-1406 1180 0
-1407 73 36 389 39 42 1406 0
1407 -73 0
1407 -36 0
1407 -389 0
1407 -39 0
1407 -42 0
1407 -1406 0
1408 -397 -1407 0
-1408 397 0
-1408 1407 0
-1409 47 1408 0
1409 -47 0
1409 -1408 0
1410 -46 -1409 0
-1410 46 0
-1410 1409 0
-1411 49 1405 1410 0
1411 -49 0
1411 -1405 0
1411 -1410 0
1412 -58 -1411 0
-1412 58 0
-1412 1411 0
-1413 73 36 39 42 1389 1390 0
1413 -73 0
1413 -36 0
1413 -39 0
1413 -42 0
1413 -1389 0
1413 -1390 0
1414 -75 -1413 0
-1414 75 0
-1414 1413 0
-1415 77 1414 0
1415 -77 0
1415 -1414 0
1416 -79 -1415 0
-1416 79 0
-1416 1415 0
-1417 98 6 27 34 1416 84 86 89 92 94 0
1417 -98 0
1417 -6 0
1417 -27 0
1417 -34 0
1417 -1416 0
1417 -84 0
1417 -86 0
1417 -89 0
1417 -92 0
1417 -94 0
1418 -100 -1417 0
-1418 100 0
-1418 1417 0
-1419 98 27 34 1416 84 86 89 92 94 0
1419 -98 0
1419 -27 0
1419 -34 0
1419 -1416 0
1419 -84 0
1419 -86 0
1419 -89 0
1419 -92 0
1419 -94 0
1420 -103 -1419 0
-1420 103 0
-1420 1419 0
1421 -105 -1419 0
-1421 105 0
-1421 1419 0
-1422 3 1421 0
1422 -3 0
1422 -1421 0
1423 -2 -1422 0
-1423 2 0
-1423 1422 0
-1424 5 1420 1423 0
1424 -5 0
1424 -1420 0
1424 -1423 0
1425 -110 -1424 0
-1425 110 0
-1425 1424 0
1426 -128 -1413 0
-1426 128 0
-1426 1413 0
-1427 130 1418 1425 1426 0
1427 -130 0
1427 -1418 0
1427 -1425 0
1427 -1426 0
1428 -132 -1427 0
-1428 132 0
-1428 1427 0
-1429 73 36 135 39 42 1389 1390 0
1429 -73 0
1429 -36 0
1429 -135 0
1429 -39 0
1429 -42 0
1429 -1389 0
1429 -1390 0
1430 -75 -1429 0
-1430 75 0
-1430 1429 0
-1431 77 1430 0
1431 -77 0
1431 -1430 0
1432 -79 -1431 0
-1432 79 0
-1432 1431 0
-1433 98 6 27 34 1432 84 86 92 94 0
1433 -98 0
1433 -6 0
1433 -27 0
1433 -34 0
1433 -1432 0
1433 -84 0
1433 -86 0
1433 -92 0
1433 -94 0
1434 -143 -1433 0
-1434 143 0
-1434 1433 0
-1435 91 1434 0
1435 -91 0
1435 -1434 0
1436 -146 -1435 0
-1436 146 0
-1436 1435 0
-1437 150 1428 1436 147 0
1437 -150 0
1437 -1428 0
1437 -1436 0
1437 -147 0
1438 -167 -1437 0
-1438 167 0
-1438 1437 0
1439 -118 -1393 0
-1439 118 0
-1439 1393 0
1440 -430 -1395 0
-1440 430 0
-1440 1395 0
-1441 61 1438 1439 1440 0
1441 -61 0
1441 -1438 0
1441 -1439 0
1441 -1440 0
1442 -60 -1441 0
-1442 60 0
-1442 1441 0
1443 -434 -1395 0
-1443 434 0
-1443 1395 0
-1444 63 1394 1398 55 1402 1412 1442 1443 0
1444 -63 0
1444 -1394 0
1444 -1398 0
1444 -55 0
1444 -1402 0
1444 -1412 0
1444 -1442 0
1444 -1443 0
1445 -65 -1444 0
-1445 65 0
-1445 1444 0
-1446 67 1388 1445 0
1446 -67 0
1446 -1388 0
1446 -1445 0
1447 -439 -1446 0
-1447 439 0
-1447 1446 0
1448 -1176 -453 0
-1448 1176 0
-1448 453 0
-1449 1180 1183 1448 0
1449 -1180 0
1449 -1183 0
1449 -1448 0
1450 -1187 -1449 0
-1450 1187 0
-1450 1449 0
1451 -1189 -1449 0
-1451 1189 0
-1451 1449 0
-1452 49 1451 45 0
1452 -49 0
1452 -1451 0
1452 -45 0
1453 -51 -1452 0
-1453 51 0
-1453 1452 0
-1454 63 115 52 55 1222 1197 452 0
1454 -63 0
1454 -115 0
1454 -52 0
1454 -55 0
1454 -1222 0
1454 -1197 0
1454 -452 0
1455 -65 -1454 0
-1455 65 0
-1455 1454 0
-1456 67 306 1455 0
1456 -67 0
1456 -306 0
1456 -1455 0
1457 -69 -1456 0
-1457 69 0
-1457 1456 0
1458 -71 -1454 0
-1458 71 0
-1458 1454 0
-1459 73 36 389 39 42 1450 1453 1457 1458 0
1459 -73 0
1459 -36 0
1459 -389 0
1459 -39 0
1459 -42 0
1459 -1450 0
1459 -1453 0
1459 -1457 0
1459 -1458 0
1460 -460 -1459 0
-1460 460 0
-1460 1459 0
-1461 462 1447 1460 0
1461 -462 0
1461 -1447 0
1461 -1460 0
1462 -464 -1461 0
-1462 464 0
-1462 1461 0
-1463 466 1241 1316 1329 259 1367 1462 0
1463 -466 0
1463 -1241 0
1463 -1316 0
1463 -1329 0
1463 -259 0
1463 -1367 0
1463 -1462 0
1464 -468 -1463 0
-1464 468 0
-1464 1463 0
-1465 63 115 52 55 1222 1197 476 0
1465 -63 0
1465 -115 0
1465 -52 0
1465 -55 0
1465 -1222 0
1465 -1197 0
1465 -476 0
1466 -65 -1465 0
-1466 65 0
-1466 1465 0
-1467 67 1466 0
1467 -67 0
1467 -1466 0
1468 -439 -1467 0
-1468 439 0
-1468 1467 0
-1469 462 1468 0
1469 -462 0
1469 -1468 0
1470 -464 -1469 0
-1470 464 0
-1470 1469 0
-1471 466 469 470 474 259 1470 0
1471 -466 0
1471 -469 0
1471 -470 0
1471 -474 0
1471 -259 0
1471 -1470 0
1472 -485 -1471 0
-1472 485 0
-1472 1471 0
1473 -439 -1258 0
-1473 439 0
-1473 1258 0
-1474 462 1473 0
1474 -462 0
1474 -1473 0
1475 -464 -1474 0
-1475 464 0
-1475 1474 0
-1476 466 469 470 474 259 1475 0
1476 -466 0
1476 -469 0
1476 -470 0
1476 -474 0
1476 -259 0
1476 -1475 0
1477 -491 -1476 0
-1477 491 0
-1477 1476 0
-1478 77 1477 0
1478 -77 0
1478 -1477 0
1479 -79 -1478 0
-1479 79 0
-1479 1478 0
-1480 98 295 1472 298 27 34 1479 84 86 301 92 304 0
1480 -98 0
1480 -295 0
1480 -1472 0
1480 -298 0
1480 -27 0
1480 -34 0
1480 -1479 0
1480 -84 0
1480 -86 0
1480 -301 0
1480 -92 0
1480 -304 0
1481 -100 -1480 0
-1481 100 0
-1481 1480 0
-1482 63 115 52 55 1222 1197 501 0
1482 -63 0
1482 -115 0
1482 -52 0
1482 -55 0
1482 -1222 0
1482 -1197 0
1482 -501 0
1483 -65 -1482 0
-1483 65 0
-1483 1482 0
-1484 67 1483 0
1484 -67 0
1484 -1483 0
1485 -439 -1484 0
-1485 439 0
-1485 1484 0
-1486 462 1485 0
1486 -462 0
1486 -1485 0
1487 -464 -1486 0
-1487 464 0
-1487 1486 0
-1488 466 496 499 259 1487 0
1488 -466 0
1488 -496 0
1488 -499 0
1488 -259 0
1488 -1487 0
1489 -485 -1488 0
-1489 485 0
-1489 1488 0
1490 -439 -1298 0
-1490 439 0
-1490 1298 0
-1491 462 1490 0
1491 -462 0
1491 -1490 0
1492 -464 -1491 0
-1492 464 0
-1492 1491 0
-1493 466 496 499 259 1492 0
1493 -466 0
1493 -496 0
1493 -499 0
1493 -259 0
1493 -1492 0
1494 -491 -1493 0
-1494 491 0
-1494 1493 0
-1495 77 1494 0
1495 -77 0
1495 -1494 0
1496 -79 -1495 0
-1496 79 0
-1496 1495 0
-1497 98 348 1489 27 34 1496 84 86 351 92 354 0
1497 -98 0
1497 -348 0
1497 -1489 0
1497 -27 0
1497 -34 0
1497 -1496 0
1497 -84 0
1497 -86 0
1497 -351 0
1497 -92 0
1497 -354 0
1498 -103 -1497 0
-1498 103 0
-1498 1497 0
1499 -439 -1242 0
-1499 439 0
-1499 1242 0
-1500 462 1499 0
1500 -462 0
1500 -1499 0
1501 -464 -1500 0
-1501 464 0
-1501 1500 0
-1502 466 496 499 259 1501 0
1502 -466 0
1502 -496 0
1502 -499 0
1502 -259 0
1502 -1501 0
1503 -485 -1502 0
-1503 485 0
-1503 1502 0
1504 -439 -1200 0
-1504 439 0
-1504 1200 0
-1505 462 1504 0
1505 -462 0
1505 -1504 0
1506 -464 -1505 0
-1506 464 0
-1506 1505 0
-1507 466 496 499 259 1506 0
1507 -466 0
1507 -496 0
1507 -499 0
1507 -259 0
1507 -1506 0
1508 -491 -1507 0
-1508 491 0
-1508 1507 0
-1509 77 1508 0
1509 -77 0
1509 -1508 0
1510 -79 -1509 0
-1510 79 0
-1510 1509 0
-1511 98 1503 27 34 1510 84 86 92 94 0
1511 -98 0
1511 -1503 0
1511 -27 0
1511 -34 0
1511 -1510 0
1511 -84 0
1511 -86 0
1511 -92 0
1511 -94 0
1512 -143 -1511 0
-1512 143 0
-1512 1511 0
-1513 91 1512 0
1513 -91 0
1513 -1512 0
1514 -146 -1513 0
-1514 146 0
-1514 1513 0
-1515 150 1514 147 0
1515 -150 0
1515 -1514 0
1515 -147 0
1516 -204 -1515 0
-1516 204 0
-1516 1515 0
1517 -105 -1497 0
-1517 105 0
-1517 1497 0
-1518 3 1517 0
1518 -3 0
1518 -1517 0
1519 -2 -1518 0
-1519 2 0
-1519 1518 0
-1520 5 1498 1516 1519 0
1520 -5 0
1520 -1498 0
1520 -1516 0
1520 -1519 0
1521 -110 -1520 0
-1521 110 0
-1521 1520 0
-1522 130 1481 1521 0
1522 -130 0
1522 -1481 0
1522 -1521 0
1523 -136 -1522 0
-1523 136 0
-1523 1522 0
1524 -324 -847 0
-1524 324 0
-1524 847 0
-1525 466 553 562 567 259 1524 657 0
1525 -466 0
1525 -553 0
1525 -562 0
1525 -567 0
1525 -259 0
1525 -1524 0
1525 -657 0
1526 -571 -1525 0
-1526 571 0
-1526 1525 0
-1527 130 99 109 0
1527 -130 0
1527 -99 0
1527 -109 0
1528 -132 -1527 0
-1528 132 0
-1528 1527 0
-1529 150 1528 145 147 0
1529 -150 0
1529 -1528 0
1529 -145 0
1529 -147 0
1530 -152 -1529 0
-1530 152 0
-1530 1529 0
-1531 130 189 0
1531 -130 0
1531 -189 0
1532 -132 -1531 0
-1532 132 0
-1532 1531 0
-1533 150 1532 201 147 0
1533 -150 0
1533 -1532 0
1533 -201 0
1533 -147 0
1534 -204 -1533 0
-1534 204 0
-1534 1533 0
-1535 5 590 1534 365 0
1535 -5 0
1535 -590 0
1535 -1534 0
1535 -365 0
1536 -235 -1535 0
-1536 235 0
-1536 1535 0
1537 -252 -1529 0
-1537 252 0
-1537 1529 0
1538 -254 -1535 0
-1538 254 0
-1538 1535 0
-1539 256 598 1537 1538 0
1539 -256 0
1539 -598 0
1539 -1537 0
1539 -1538 0
1540 -258 -1539 0
-1540 258 0
-1540 1539 0
1541 -324 -944 0
-1541 324 0
-1541 944 0
-1542 466 1530 1536 1540 259 1541 664 0
1542 -466 0
1542 -1530 0
1542 -1536 0
1542 -1540 0
1542 -259 0
1542 -1541 0
1542 -664 0
1543 -491 -1542 0
-1543 491 0
-1543 1542 0
-1544 77 1543 0
1544 -77 0
1544 -1543 0
1545 -116 -1544 0
-1545 116 0
-1545 1544 0
-1546 63 1526 1545 52 55 57 707 0
1546 -63 0
1546 -1526 0
1546 -1545 0
1546 -52 0
1546 -55 0
1546 -57 0
1546 -707 0
1547 -1176 -1546 0
-1547 1176 0
-1547 1546 0
-1548 1180 1183 1547 0
1548 -1180 0
1548 -1183 0
1548 -1547 0
1549 -1187 -1548 0
-1549 1187 0
-1549 1548 0
1550 -1176 -708 0
-1550 1176 0
-1550 708 0
-1551 1180 1183 1550 0
1551 -1180 0
1551 -1183 0
1551 -1550 0
1552 -1189 -1551 0
-1552 1189 0
-1552 1551 0
-1553 49 1552 45 0
1553 -49 0
1553 -1552 0
1553 -45 0
1554 -51 -1553 0
-1554 51 0
-1554 1553 0
-1555 63 570 607 52 55 1222 1197 649 0
1555 -63 0
1555 -570 0
1555 -607 0
1555 -52 0
1555 -55 0
1555 -1222 0
1555 -1197 0
1555 -649 0
1556 -65 -1555 0
-1556 65 0
-1556 1555 0
-1557 67 552 1556 0
1557 -67 0
1557 -552 0
1557 -1556 0
1558 -69 -1557 0
-1558 69 0
-1558 1557 0
-1559 63 659 668 52 55 1222 1197 707 0
1559 -63 0
1559 -659 0
1559 -668 0
1559 -52 0
1559 -55 0
1559 -1222 0
1559 -1197 0
1559 -707 0
1560 -71 -1559 0
-1560 71 0
-1560 1559 0
-1561 73 36 1523 39 42 1549 1554 1558 1560 0
1561 -73 0
1561 -36 0
1561 -1523 0
1561 -39 0
1561 -42 0
1561 -1549 0
1561 -1554 0
1561 -1558 0
1561 -1560 0
1562 -712 -1561 0
-1562 712 0
-1562 1561 0
-1563 714 1464 1562 0
1563 -714 0
1563 -1464 0
1563 -1562 0
1564 -1565 -1563 0
-1564 1565 0
-1564 1563 0
1566 -468 -612 0
-1566 468 0
-1566 612 0
-1567 714 1566 0
1567 -714 0
1567 -1566 0
1568 -716 -1567 0
-1568 716 0
-1568 1567 0
1569 -571 -612 0
-1569 571 0
-1569 612 0
1570 -116 -615 0
-1570 116 0
-1570 615 0
1571 -118 -615 0
-1571 118 0
-1571 615 0
-1572 61 1571 0
1572 -61 0
1572 -1571 0
1573 -60 -1572 0
-1573 60 0
-1573 1572 0
-1574 63 1569 1570 52 55 57 1573 0
1574 -63 0
1574 -1569 0
1574 -1570 0
1574 -52 0
1574 -55 0
1574 -57 0
1574 -1573 0
1575 -1176 -1574 0
-1575 1176 0
-1575 1574 0
-1576 1180 1568 1183 1575 0
1576 -1180 0
1576 -1568 0
1576 -1183 0
1576 -1575 0
1577 -1187 -1576 0
-1577 1187 0
-1577 1576 0
1578 -1189 -1576 0
-1578 1189 0
-1578 1576 0
-1579 49 1578 45 0
1579 -49 0
1579 -1578 0
1579 -45 0
1580 -51 -1579 0
-1580 51 0
-1580 1579 0
1581 -1193 -1576 0
-1581 1193 0
-1581 1576 0
1582 -58 -1579 0
-1582 58 0
-1582 1579 0
-1583 63 1569 1570 52 55 1581 1582 1573 0
1583 -63 0
1583 -1569 0
1583 -1570 0
1583 -52 0
1583 -55 0
1583 -1581 0
1583 -1582 0
1583 -1573 0
1584 -71 -1583 0
-1584 71 0
-1584 1583 0
-1585 73 36 39 42 1577 1580 1584 0
1585 -73 0
1585 -36 0
1585 -39 0
1585 -42 0
1585 -1577 0
1585 -1580 0
1585 -1584 0
1586 -128 -1585 0
-1586 128 0
-1586 1585 0
-1587 130 133 1586 0
1587 -130 0
1587 -133 0
1587 -1586 0
1588 -132 -1587 0
-1588 132 0
-1588 1587 0
-1589 150 1588 159 147 0
1589 -150 0
1589 -1588 0
1589 -159 0
1589 -147 0
1590 -162 -1589 0
-1590 162 0
-1590 1589 0
-1591 1180 1568 1183 1216 0
1591 -1180 0
1591 -1568 0
1591 -1183 0
1591 -1216 0
1592 -1187 -1591 0
-1592 1187 0
-1592 1591 0
1593 -1189 -1591 0
-1593 1189 0
-1593 1591 0
-1594 49 1593 45 0
1594 -49 0
1594 -1593 0
1594 -45 0
1595 -51 -1594 0
-1595 51 0
-1595 1594 0
-1596 63 115 52 55 1581 1582 120 0
1596 -63 0
1596 -115 0
1596 -52 0
1596 -55 0
1596 -1581 0
1596 -1582 0
1596 -120 0
1597 -71 -1596 0
-1597 71 0
-1597 1596 0
-1598 73 36 39 42 1592 1595 1597 0
1598 -73 0
1598 -36 0
1598 -39 0
1598 -42 0
1598 -1592 0
1598 -1595 0
1598 -1597 0
1599 -128 -1598 0
-1599 128 0
-1599 1598 0
-1600 130 133 1599 0
1600 -130 0
1600 -133 0
1600 -1599 0
1601 -132 -1600 0
-1601 132 0
-1601 1600 0
-1602 150 1601 159 147 0
1602 -150 0
1602 -1601 0
1602 -159 0
1602 -147 0
1603 -152 -1602 0
-1603 152 0
-1603 1602 0
1604 -716 -714 0
-1604 716 0
-1604 714 0
-1605 1180 1604 1183 1216 0
1605 -1180 0
1605 -1604 0
1605 -1183 0
1605 -1216 0
1606 -1187 -1605 0
-1606 1187 0
-1606 1605 0
1607 -1189 -1605 0
-1607 1189 0
-1607 1605 0
-1608 49 1607 45 0
1608 -49 0
1608 -1607 0
1608 -45 0
1609 -51 -1608 0
-1609 51 0
-1609 1608 0
1610 -1193 -1605 0
-1610 1193 0
-1610 1605 0
1611 -58 -1608 0
-1611 58 0
-1611 1608 0
-1612 63 115 52 55 1610 1611 120 0
1612 -63 0
1612 -115 0
1612 -52 0
1612 -55 0
1612 -1610 0
1612 -1611 0
1612 -120 0
1613 -71 -1612 0
-1613 71 0
-1613 1612 0
-1614 73 36 39 42 1606 1609 1613 0
1614 -73 0
1614 -36 0
1614 -39 0
1614 -42 0
1614 -1606 0
1614 -1609 0
1614 -1613 0
1615 -128 -1614 0
-1615 128 0
-1615 1614 0
-1616 130 133 1615 0
1616 -130 0
1616 -133 0
1616 -1615 0
1617 -132 -1616 0
-1617 132 0
-1617 1616 0
-1618 150 1617 159 147 0
1618 -150 0
1618 -1617 0
1618 -159 0
1618 -147 0
1619 -204 -1618 0
-1619 204 0
-1619 1618 0
-1620 5 1619 1 0
1620 -5 0
1620 -1619 0
1620 -1 0
1621 -235 -1620 0
-1621 235 0
-1621 1620 0
1622 -252 -1618 0
-1622 252 0
-1622 1618 0
1623 -254 -1620 0
-1623 254 0
-1623 1620 0
-1624 256 1622 1623 0
1624 -256 0
1624 -1622 0
1624 -1623 0
1625 -258 -1624 0
-1625 258 0
-1625 1624 0
1626 -110 -264 0
-1626 110 0
-1626 264 0
1627 -1176 -477 0
-1627 1176 0
-1627 477 0
-1628 1180 1604 1183 1627 0
1628 -1180 0
1628 -1604 0
1628 -1183 0
1628 -1627 0
1629 -1187 -1628 0
-1629 1187 0
-1629 1628 0
1630 -1189 -1628 0
-1630 1189 0
-1630 1628 0
-1631 49 1630 45 0
1631 -49 0
1631 -1630 0
1631 -45 0
1632 -51 -1631 0
-1632 51 0
-1632 1631 0
-1633 1180 1604 1183 0
1633 -1180 0
1633 -1604 0
1633 -1183 0
1634 -1193 -1633 0
-1634 1193 0
-1634 1633 0
1635 -1189 -1633 0
-1635 1189 0
-1635 1633 0
-1636 49 1635 45 0
1636 -49 0
1636 -1635 0
1636 -45 0
1637 -58 -1636 0
-1637 58 0
-1637 1636 0
-1638 63 115 52 55 1634 1637 476 0
1638 -63 0
1638 -115 0
1638 -52 0
1638 -55 0
1638 -1634 0
1638 -1637 0
1638 -476 0
1639 -71 -1638 0
-1639 71 0
-1639 1638 0
-1640 73 36 39 42 1629 1632 1639 0
1640 -73 0
1640 -36 0
1640 -39 0
1640 -42 0
1640 -1629 0
1640 -1632 0
1640 -1639 0
1641 -128 -1640 0
-1641 128 0
-1641 1640 0
-1642 130 1626 1641 0
1642 -130 0
1642 -1626 0
1642 -1641 0
1643 -324 -1642 0
-1643 324 0
-1643 1642 0
-1644 73 36 243 39 42 1629 1632 1639 0
1644 -73 0
1644 -36 0
1644 -243 0
1644 -39 0
1644 -42 0
1644 -1629 0
1644 -1632 0
1644 -1639 0
1645 -460 -1644 0
-1645 460 0
-1645 1644 0
-1646 462 1645 0
1646 -462 0
1646 -1645 0
1647 -464 -1646 0
-1647 464 0
-1647 1646 0
-1648 466 1603 1621 1625 259 1643 1647 0
1648 -466 0
1648 -1603 0
1648 -1621 0
1648 -1625 0
1648 -259 0
1648 -1643 0
1648 -1647 0
1649 -485 -1648 0
-1649 485 0
-1649 1648 0
1650 -204 -1589 0
-1650 204 0
-1650 1589 0
-1651 5 1650 1 0
1651 -5 0
1651 -1650 0
1651 -1 0
1652 -7 -1651 0
-1652 7 0
-1652 1651 0
-1653 1180 1568 1183 1184 0
1653 -1180 0
1653 -1568 0
1653 -1183 0
1653 -1184 0
1654 -1187 -1653 0
-1654 1187 0
-1654 1653 0
1655 -1189 -1653 0
-1655 1189 0
-1655 1653 0
-1656 49 1655 45 0
1656 -49 0
1656 -1655 0
1656 -45 0
1657 -51 -1656 0
-1657 51 0
-1657 1656 0
1658 -1193 -1591 0
-1658 1193 0
-1658 1591 0
1659 -58 -1594 0
-1659 58 0
-1659 1594 0
-1660 63 52 55 1658 1659 59 0
1660 -63 0
1660 -52 0
1660 -55 0
1660 -1658 0
1660 -1659 0
1660 -59 0
1661 -71 -1660 0
-1661 71 0
-1661 1660 0
-1662 73 36 39 42 1654 1657 1661 0
1662 -73 0
1662 -36 0
1662 -39 0
1662 -42 0
1662 -1654 0
1662 -1657 0
1662 -1661 0
1663 -128 -1662 0
-1663 128 0
-1663 1662 0
-1664 130 133 1663 0
1664 -130 0
1664 -133 0
1664 -1663 0
1665 -132 -1664 0
-1665 132 0
-1665 1664 0
-1666 150 1665 159 147 0
1666 -150 0
1666 -1665 0
1666 -159 0
1666 -147 0
1667 -152 -1666 0
-1667 152 0
-1667 1666 0
-1668 1180 1604 1183 1184 0
1668 -1180 0
1668 -1604 0
1668 -1183 0
1668 -1184 0
1669 -1187 -1668 0
-1669 1187 0
-1669 1668 0
1670 -1189 -1668 0
-1670 1189 0
-1670 1668 0
-1671 49 1670 45 0
1671 -49 0
1671 -1670 0
1671 -45 0
1672 -51 -1671 0
-1672 51 0
-1672 1671 0
-1673 63 52 55 1610 1611 59 0
1673 -63 0
1673 -52 0
1673 -55 0
1673 -1610 0
1673 -1611 0
1673 -59 0
1674 -71 -1673 0
-1674 71 0
-1674 1673 0
-1675 73 36 39 42 1669 1672 1674 0
1675 -73 0
1675 -36 0
1675 -39 0
1675 -42 0
1675 -1669 0
1675 -1672 0
1675 -1674 0
1676 -128 -1675 0
-1676 128 0
-1676 1675 0
-1677 130 133 1676 0
1677 -130 0
1677 -133 0
1677 -1676 0
1678 -132 -1677 0
-1678 132 0
-1678 1677 0
-1679 150 1678 159 147 0
1679 -150 0
1679 -1678 0
1679 -159 0
1679 -147 0
1680 -204 -1679 0
-1680 204 0
-1680 1679 0
-1681 5 1680 1 0
1681 -5 0
1681 -1680 0
1681 -1 0
1682 -235 -1681 0
-1682 235 0
-1682 1681 0
1683 -252 -1679 0
-1683 252 0
-1683 1679 0
1684 -254 -1681 0
-1684 254 0
-1684 1681 0
-1685 256 1683 1684 0
1685 -256 0
1685 -1683 0
1685 -1684 0
1686 -258 -1685 0
-1686 258 0
-1686 1685 0
-1687 1180 1604 1183 1250 0
1687 -1180 0
1687 -1604 0
1687 -1183 0
1687 -1250 0
1688 -1187 -1687 0
-1688 1187 0
-1688 1687 0
1689 -1189 -1687 0
-1689 1189 0
-1689 1687 0
-1690 49 1689 45 0
1690 -49 0
1690 -1689 0
1690 -45 0
1691 -51 -1690 0
-1691 51 0
-1691 1690 0
-1692 63 52 55 1634 1637 169 0
1692 -63 0
1692 -52 0
1692 -55 0
1692 -1634 0
1692 -1637 0
1692 -169 0
1693 -71 -1692 0
-1693 71 0
-1693 1692 0
-1694 73 36 39 42 1688 1691 1693 0
1694 -73 0
1694 -36 0
1694 -39 0
1694 -42 0
1694 -1688 0
1694 -1691 0
1694 -1693 0
1695 -128 -1694 0
-1695 128 0
-1695 1694 0
-1696 130 1626 1695 0
1696 -130 0
1696 -1626 0
1696 -1695 0
1697 -324 -1696 0
-1697 324 0
-1697 1696 0
-1698 73 36 243 39 42 1688 1691 1693 0
1698 -73 0
1698 -36 0
1698 -243 0
1698 -39 0
1698 -42 0
1698 -1688 0
1698 -1691 0
1698 -1693 0
1699 -460 -1698 0
-1699 460 0
-1699 1698 0
-1700 462 1699 0
1700 -462 0
1700 -1699 0
1701 -464 -1700 0
-1701 464 0
-1701 1700 0
-1702 466 1667 1682 1686 259 1697 1701 0
1702 -466 0
1702 -1667 0
1702 -1682 0
1702 -1686 0
1702 -259 0
1702 -1697 0
1702 -1701 0
1703 -491 -1702 0
-1703 491 0
-1703 1702 0
1704 -468 -546 0
-1704 468 0
-1704 546 0
-1705 714 1704 0
1705 -714 0
1705 -1704 0
1706 -716 -1705 0
-1706 716 0
-1706 1705 0
1707 -571 -546 0
-1707 571 0
-1707 546 0
-1708 63 1707 52 55 57 169 0
1708 -63 0
1708 -1707 0
1708 -52 0
1708 -55 0
1708 -57 0
1708 -169 0
1709 -1176 -1708 0
-1709 1176 0
-1709 1708 0
-1710 1180 1706 1183 1709 0
1710 -1180 0
1710 -1706 0
1710 -1183 0
1710 -1709 0
1711 -1187 -1710 0
-1711 1187 0
-1711 1710 0
1712 -1189 -1710 0
-1712 1189 0
-1712 1710 0
-1713 49 1712 45 0
1713 -49 0
1713 -1712 0
1713 -45 0
1714 -51 -1713 0
-1714 51 0
-1714 1713 0
-1715 1180 1706 1183 0
1715 -1180 0
1715 -1706 0
1715 -1183 0
1716 -1193 -1715 0
-1716 1193 0
-1716 1715 0
1717 -1189 -1715 0
-1717 1189 0
-1717 1715 0
-1718 49 1717 45 0
1718 -49 0
1718 -1717 0
1718 -45 0
1719 -58 -1718 0
-1719 58 0
-1719 1718 0
-1720 63 1707 52 55 1716 1719 169 0
1720 -63 0
1720 -1707 0
1720 -52 0
1720 -55 0
1720 -1716 0
1720 -1719 0
1720 -169 0
1721 -71 -1720 0
-1721 71 0
-1721 1720 0
-1722 73 36 243 39 42 1711 1714 1721 0
1722 -73 0
1722 -36 0
1722 -243 0
1722 -39 0
1722 -42 0
1722 -1711 0
1722 -1714 0
1722 -1721 0
1723 -75 -1722 0
-1723 75 0
-1723 1722 0
-1724 77 1703 1723 0
1724 -77 0
1724 -1703 0
1724 -1723 0
1725 -79 -1724 0
-1725 79 0
-1725 1724 0
1726 -180 -1589 0
-1726 180 0
-1726 1589 0
-1727 91 1726 0
1727 -91 0
1727 -1726 0
1728 -90 -1727 0
-1728 90 0
-1728 1727 0
1729 -184 -1589 0
-1729 184 0
-1729 1589 0
-1730 96 1729 0
1730 -96 0
1730 -1729 0
1731 -95 -1730 0
-1731 95 0
-1731 1730 0
-1732 98 1590 1649 1652 27 34 1725 84 86 1728 92 1731 0
1732 -98 0
1732 -1590 0
1732 -1649 0
1732 -1652 0
1732 -27 0
1732 -34 0
1732 -1725 0
1732 -84 0
1732 -86 0
1732 -1728 0
1732 -92 0
1732 -1731 0
1733 -114 -1732 0
-1733 114 0
-1733 1732 0
-1734 73 36 39 42 1592 1595 0
1734 -73 0
1734 -36 0
1734 -39 0
1734 -42 0
1734 -1592 0
1734 -1595 0
1735 -75 -1734 0
-1735 75 0
-1735 1734 0
-1736 77 1735 0
1736 -77 0
1736 -1735 0
1737 -79 -1736 0
-1737 79 0
-1737 1736 0
-1738 98 6 27 34 1737 84 86 89 92 94 0
1738 -98 0
1738 -6 0
1738 -27 0
1738 -34 0
1738 -1737 0
1738 -84 0
1738 -86 0
1738 -89 0
1738 -92 0
1738 -94 0
1739 -100 -1738 0
-1739 100 0
-1739 1738 0
-1740 98 27 34 1737 84 86 89 92 94 0
1740 -98 0
1740 -27 0
1740 -34 0
1740 -1737 0
1740 -84 0
1740 -86 0
1740 -89 0
1740 -92 0
1740 -94 0
1741 -103 -1740 0
-1741 103 0
-1741 1740 0
-1742 73 36 39 42 1606 1609 0
1742 -73 0
1742 -36 0
1742 -39 0
1742 -42 0
1742 -1606 0
1742 -1609 0
1743 -75 -1742 0
-1743 75 0
-1743 1742 0
-1744 77 1743 0
1744 -77 0
1744 -1743 0
1745 -79 -1744 0
-1745 79 0
-1745 1744 0
-1746 98 27 34 1745 84 86 89 92 94 0
1746 -98 0
1746 -27 0
1746 -34 0
1746 -1745 0
1746 -84 0
1746 -86 0
1746 -89 0
1746 -92 0
1746 -94 0
1747 -105 -1746 0
-1747 105 0
-1747 1746 0
-1748 3 1747 0
1748 -3 0
1748 -1747 0
1749 -2 -1748 0
-1749 2 0
-1749 1748 0
-1750 5 1741 1749 0
1750 -5 0
1750 -1741 0
1750 -1749 0
1751 -110 -1750 0
-1751 110 0
-1751 1750 0
1752 -128 -1742 0
-1752 128 0
-1752 1742 0
-1753 130 1739 1751 1752 0
1753 -130 0
1753 -1739 0
1753 -1751 0
1753 -1752 0
1754 -132 -1753 0
-1754 132 0
-1754 1753 0
-1755 73 36 135 39 42 1606 1609 0
1755 -73 0
1755 -36 0
1755 -135 0
1755 -39 0
1755 -42 0
1755 -1606 0
1755 -1609 0
1756 -75 -1755 0
-1756 75 0
-1756 1755 0
-1757 77 1756 0
1757 -77 0
1757 -1756 0
1758 -79 -1757 0
-1758 79 0
-1758 1757 0
-1759 98 6 27 34 1758 84 86 92 94 0
1759 -98 0
1759 -6 0
1759 -27 0
1759 -34 0
1759 -1758 0
1759 -84 0
1759 -86 0
1759 -92 0
1759 -94 0
1760 -143 -1759 0
-1760 143 0
-1760 1759 0
-1761 91 1760 0
1761 -91 0
1761 -1760 0
1762 -146 -1761 0
-1762 146 0
-1762 1761 0
-1763 150 1754 1762 147 0
1763 -150 0
1763 -1754 0
1763 -1762 0
1763 -147 0
1764 -152 -1763 0
-1764 152 0
-1764 1763 0
-1765 130 133 1752 0
1765 -130 0
1765 -133 0
1765 -1752 0
1766 -132 -1765 0
-1766 132 0
-1766 1765 0
-1767 150 1766 159 147 0
1767 -150 0
1767 -1766 0
1767 -159 0
1767 -147 0
1768 -162 -1767 0
-1768 162 0
-1768 1767 0
1769 -1187 -1633 0
-1769 1187 0
-1769 1633 0
1770 -51 -1636 0
-1770 51 0
-1770 1636 0
-1771 73 36 163 39 42 1769 1770 0
1771 -73 0
1771 -36 0
1771 -163 0
1771 -39 0
1771 -42 0
1771 -1769 0
1771 -1770 0
1772 -75 -1771 0
-1772 75 0
-1772 1771 0
-1773 77 1772 0
1773 -77 0
1773 -1772 0
1774 -79 -1773 0
-1774 79 0
-1774 1773 0
1775 -180 -1767 0
-1775 180 0
-1775 1767 0
-1776 91 1775 0
1776 -91 0
1776 -1775 0
1777 -90 -1776 0
-1777 90 0
-1777 1776 0
1778 -184 -1767 0
-1778 184 0
-1778 1767 0
-1779 96 1778 0
1779 -96 0
1779 -1778 0
1780 -95 -1779 0
-1780 95 0
-1780 1779 0
-1781 98 1768 27 34 1774 84 86 1777 92 1780 0
1781 -98 0
1781 -1768 0
1781 -27 0
1781 -34 0
1781 -1774 0
1781 -84 0
1781 -86 0
1781 -1777 0
1781 -92 0
1781 -1780 0
1782 -103 -1781 0
-1782 103 0
-1782 1781 0
1783 -100 -1746 0
-1783 100 0
-1783 1746 0
-1784 130 1783 1752 0
1784 -130 0
1784 -1783 0
1784 -1752 0
1785 -132 -1784 0
-1785 132 0
-1785 1784 0
-1786 98 27 34 1758 84 86 92 94 0
1786 -98 0
1786 -27 0
1786 -34 0
1786 -1758 0
1786 -84 0
1786 -86 0
1786 -92 0
1786 -94 0
1787 -143 -1786 0
-1787 143 0
-1787 1786 0
-1788 91 1787 0
1788 -91 0
1788 -1787 0
1789 -146 -1788 0
-1789 146 0
-1789 1788 0
-1790 150 1785 1789 147 0
1790 -150 0
1790 -1785 0
1790 -1789 0
1790 -147 0
1791 -204 -1790 0
-1791 204 0
-1791 1790 0
-1792 130 1752 0
1792 -130 0
1792 -1752 0
1793 -132 -1792 0
-1793 132 0
-1793 1792 0
-1794 150 1793 159 147 0
1794 -150 0
1794 -1793 0
1794 -159 0
1794 -147 0
1795 -162 -1794 0
-1795 162 0
-1795 1794 0
1796 -180 -1794 0
-1796 180 0
-1796 1794 0
-1797 91 1796 0
1797 -91 0
1797 -1796 0
1798 -90 -1797 0
-1798 90 0
-1798 1797 0
1799 -184 -1794 0
-1799 184 0
-1799 1794 0
-1800 96 1799 0
1800 -96 0
1800 -1799 0
1801 -95 -1800 0
-1801 95 0
-1801 1800 0
-1802 98 1795 27 34 1774 84 86 1798 92 1801 0
1802 -98 0
1802 -1795 0
1802 -27 0
1802 -34 0
1802 -1774 0
1802 -84 0
1802 -86 0
1802 -1798 0
1802 -92 0
1802 -1801 0
1803 -105 -1802 0
-1803 105 0
-1803 1802 0
-1804 3 1803 0
1804 -3 0
1804 -1803 0
1805 -2 -1804 0
-1805 2 0
-1805 1804 0
-1806 5 1782 1791 1805 0
1806 -5 0
1806 -1782 0
1806 -1791 0
1806 -1805 0
1807 -235 -1806 0
-1807 235 0
-1807 1806 0
1808 -204 -1767 0
-1808 204 0
-1808 1767 0
-1809 5 1808 1 0
1809 -5 0
1809 -1808 0
1809 -1 0
1810 -7 -1809 0
-1810 7 0
-1810 1809 0
-1811 73 36 243 39 42 1769 1770 0
1811 -73 0
1811 -36 0
1811 -243 0
1811 -39 0
1811 -42 0
1811 -1769 0
1811 -1770 0
1812 -75 -1811 0
-1812 75 0
-1812 1811 0
-1813 77 1812 0
1813 -77 0
1813 -1812 0
1814 -79 -1813 0
-1814 79 0
-1814 1813 0
-1815 98 1768 1810 27 34 1814 84 86 1777 92 1780 0
1815 -98 0
1815 -1768 0
1815 -1810 0
1815 -27 0
1815 -34 0
1815 -1814 0
1815 -84 0
1815 -86 0
1815 -1777 0
1815 -92 0
1815 -1780 0
1816 -250 -1815 0
-1816 250 0
-1816 1815 0
-1817 98 6 27 34 1745 84 86 89 92 94 0
1817 -98 0
1817 -6 0
1817 -27 0
1817 -34 0
1817 -1745 0
1817 -84 0
1817 -86 0
1817 -89 0
1817 -92 0
1817 -94 0
1818 -100 -1817 0
-1818 100 0
-1818 1817 0
1819 -103 -1746 0
-1819 103 0
-1819 1746 0
-1820 5 1819 1749 0
1820 -5 0
1820 -1819 0
1820 -1749 0
1821 -110 -1820 0
-1821 110 0
-1821 1820 0
-1822 130 1818 1821 1752 0
1822 -130 0
1822 -1818 0
1822 -1821 0
1822 -1752 0
1823 -132 -1822 0
-1823 132 0
-1823 1822 0
-1824 150 1823 1762 147 0
1824 -150 0
1824 -1823 0
1824 -1762 0
1824 -147 0
1825 -252 -1824 0
-1825 252 0
-1825 1824 0
1826 -254 -1806 0
-1826 254 0
-1826 1806 0
-1827 256 1816 1825 1826 0
1827 -256 0
1827 -1816 0
1827 -1825 0
1827 -1826 0
1828 -258 -1827 0
-1828 258 0
-1828 1827 0
-1829 73 36 39 42 1769 1770 0
1829 -73 0
1829 -36 0
1829 -39 0
1829 -42 0
1829 -1769 0
1829 -1770 0
1830 -75 -1829 0
-1830 75 0
-1830 1829 0
-1831 77 1830 0
1831 -77 0
1831 -1830 0
1832 -79 -1831 0
-1832 79 0
-1832 1831 0
-1833 98 262 265 27 34 1832 84 86 272 92 275 0
1833 -98 0
1833 -262 0
1833 -265 0
1833 -27 0
1833 -34 0
1833 -1832 0
1833 -84 0
1833 -86 0
1833 -272 0
1833 -92 0
1833 -275 0
1834 -100 -1833 0
-1834 100 0
-1834 1833 0
-1835 98 262 27 34 1832 84 86 272 92 275 0
1835 -98 0
1835 -262 0
1835 -27 0
1835 -34 0
1835 -1832 0
1835 -84 0
1835 -86 0
1835 -272 0
1835 -92 0
1835 -275 0
1836 -103 -1835 0
-1836 103 0
-1836 1835 0
-1837 98 27 34 1737 84 86 92 94 0
1837 -98 0
1837 -27 0
1837 -34 0
1837 -1737 0
1837 -84 0
1837 -86 0
1837 -92 0
1837 -94 0
1838 -143 -1837 0
-1838 143 0
-1838 1837 0
-1839 91 1838 0
1839 -91 0
1839 -1838 0
1840 -146 -1839 0
-1840 146 0
-1840 1839 0
-1841 150 1840 147 0
1841 -150 0
1841 -1840 0
1841 -147 0
1842 -204 -1841 0
-1842 204 0
-1842 1841 0
1843 -105 -1835 0
-1843 105 0
-1843 1835 0
-1844 3 1843 0
1844 -3 0
1844 -1843 0
1845 -2 -1844 0
-1845 2 0
-1845 1844 0
-1846 5 1836 1842 1845 0
1846 -5 0
1846 -1836 0
1846 -1842 0
1846 -1845 0
1847 -110 -1846 0
-1847 110 0
-1847 1846 0
1848 -128 -1829 0
-1848 128 0
-1848 1829 0
-1849 130 1834 1847 1848 0
1849 -130 0
1849 -1834 0
1849 -1847 0
1849 -1848 0
1850 -324 -1849 0
-1850 324 0
-1850 1849 0
-1851 73 36 389 39 42 1769 1770 0
1851 -73 0
1851 -36 0
1851 -389 0
1851 -39 0
1851 -42 0
1851 -1769 0
1851 -1770 0
1852 -460 -1851 0
-1852 460 0
-1852 1851 0
-1853 462 1852 0
1853 -462 0
1853 -1852 0
1854 -464 -1853 0
-1854 464 0
-1854 1853 0
-1855 466 1764 1807 1828 259 1850 1854 0
1855 -466 0
1855 -1764 0
1855 -1807 0
1855 -1828 0
1855 -259 0
1855 -1850 0
1855 -1854 0
1856 -571 -1855 0
-1856 571 0
-1856 1855 0
-1857 130 573 580 1848 0
1857 -130 0
1857 -573 0
1857 -580 0
1857 -1848 0
1858 -132 -1857 0
-1858 132 0
-1858 1857 0
-1859 150 1858 586 147 0
1859 -150 0
1859 -1858 0
1859 -586 0
1859 -147 0
1860 -152 -1859 0
-1860 152 0
-1860 1859 0
-1861 130 133 1848 0
1861 -130 0
1861 -133 0
1861 -1848 0
1862 -132 -1861 0
-1862 132 0
-1862 1861 0
-1863 150 1862 159 147 0
1863 -150 0
1863 -1862 0
1863 -159 0
1863 -147 0
1864 -162 -1863 0
-1864 162 0
-1864 1863 0
1865 -180 -1863 0
-1865 180 0
-1865 1863 0
-1866 91 1865 0
1866 -91 0
1866 -1865 0
1867 -90 -1866 0
-1867 90 0
-1867 1866 0
1868 -184 -1863 0
-1868 184 0
-1868 1863 0
-1869 96 1868 0
1869 -96 0
1869 -1868 0
1870 -95 -1869 0
-1870 95 0
-1870 1869 0
-1871 98 1864 27 34 84 86 1867 92 1870 0
1871 -98 0
1871 -1864 0
1871 -27 0
1871 -34 0
1871 -84 0
1871 -86 0
1871 -1867 0
1871 -92 0
1871 -1870 0
1872 -103 -1871 0
-1872 103 0
-1872 1871 0
-1873 130 591 1848 0
1873 -130 0
1873 -591 0
1873 -1848 0
1874 -132 -1873 0
-1874 132 0
-1874 1873 0
-1875 150 1874 360 147 0
1875 -150 0
1875 -1874 0
1875 -360 0
1875 -147 0
1876 -204 -1875 0
-1876 204 0
-1876 1875 0
-1877 130 1848 0
1877 -130 0
1877 -1848 0
1878 -132 -1877 0
-1878 132 0
-1878 1877 0
-1879 150 1878 159 147 0
1879 -150 0
1879 -1878 0
1879 -159 0
1879 -147 0
1880 -162 -1879 0
-1880 162 0
-1880 1879 0
1881 -180 -1879 0
-1881 180 0
-1881 1879 0
-1882 91 1881 0
1882 -91 0
1882 -1881 0
1883 -90 -1882 0
-1883 90 0
-1883 1882 0
1884 -184 -1879 0
-1884 184 0
-1884 1879 0
-1885 96 1884 0
1885 -96 0
1885 -1884 0
1886 -95 -1885 0
-1886 95 0
-1886 1885 0
-1887 98 1880 27 34 84 86 1883 92 1886 0
1887 -98 0
1887 -1880 0
1887 -27 0
1887 -34 0
1887 -84 0
1887 -86 0
1887 -1883 0
1887 -92 0
1887 -1886 0
1888 -105 -1887 0
-1888 105 0
-1888 1887 0
-1889 3 1888 0
1889 -3 0
1889 -1888 0
1890 -2 -1889 0
-1890 2 0
-1890 1889 0
-1891 5 1872 1876 1890 0
1891 -5 0
1891 -1872 0
1891 -1876 0
1891 -1890 0
1892 -235 -1891 0
-1892 235 0
-1892 1891 0
1893 -204 -1863 0
-1893 204 0
-1893 1863 0
-1894 5 1893 1 0
1894 -5 0
1894 -1893 0
1894 -1 0
1895 -7 -1894 0
-1895 7 0
-1895 1894 0
-1896 98 1864 1895 27 34 84 86 1867 92 1870 0
1896 -98 0
1896 -1864 0
1896 -1895 0
1896 -27 0
1896 -34 0
1896 -84 0
1896 -86 0
1896 -1867 0
1896 -92 0
1896 -1870 0
1897 -250 -1896 0
-1897 250 0
-1897 1896 0
1898 -252 -1859 0
-1898 252 0
-1898 1859 0
1899 -254 -1891 0
-1899 254 0
-1899 1891 0
-1900 256 1897 1898 1899 0
1900 -256 0
1900 -1897 0
1900 -1898 0
1900 -1899 0
1901 -258 -1900 0
-1901 258 0
-1901 1900 0
-1902 130 912 919 1848 0
1902 -130 0
1902 -912 0
1902 -919 0
1902 -1848 0
1903 -324 -1902 0
-1903 324 0
-1903 1902 0
-1904 73 36 369 39 42 1769 1770 0
1904 -73 0
1904 -36 0
1904 -369 0
1904 -39 0
1904 -42 0
1904 -1769 0
1904 -1770 0
1905 -460 -1904 0
-1905 460 0
-1905 1904 0
-1906 462 1905 0
1906 -462 0
1906 -1905 0
1907 -464 -1906 0
-1907 464 0
-1907 1906 0
-1908 466 1860 1892 1901 259 1903 1907 0
1908 -466 0
1908 -1860 0
1908 -1892 0
1908 -1901 0
1908 -259 0
1908 -1903 0
1908 -1907 0
1909 -491 -1908 0
-1909 491 0
-1909 1908 0
-1910 466 469 470 474 259 545 0
1910 -466 0
1910 -469 0
1910 -470 0
1910 -474 0
1910 -259 0
1910 -545 0
1911 -485 -1910 0
-1911 485 0
-1911 1910 0
-1912 98 295 1911 298 27 34 84 86 301 92 304 0
1912 -98 0
1912 -295 0
1912 -1911 0
1912 -298 0
1912 -27 0
1912 -34 0
1912 -84 0
1912 -86 0
1912 -301 0
1912 -92 0
1912 -304 0
1913 -100 -1912 0
-1913 100 0
-1913 1912 0
-1914 466 496 499 259 545 0
1914 -466 0
1914 -496 0
1914 -499 0
1914 -259 0
1914 -545 0
1915 -485 -1914 0
-1915 485 0
-1915 1914 0
-1916 98 348 1915 27 34 84 86 351 92 354 0
1916 -98 0
1916 -348 0
1916 -1915 0
1916 -27 0
1916 -34 0
1916 -84 0
1916 -86 0
1916 -351 0
1916 -92 0
1916 -354 0
1917 -103 -1916 0
-1917 103 0
-1917 1916 0
-1918 98 613 27 34 84 86 92 94 0
1918 -98 0
1918 -613 0
1918 -27 0
1918 -34 0
1918 -84 0
1918 -86 0
1918 -92 0
1918 -94 0
1919 -143 -1918 0
-1919 143 0
-1919 1918 0
-1920 91 1919 0
1920 -91 0
1920 -1919 0
1921 -146 -1920 0
-1921 146 0
-1921 1920 0
-1922 150 1921 147 0
1922 -150 0
1922 -1921 0
1922 -147 0
1923 -204 -1922 0
-1923 204 0
-1923 1922 0
1924 -105 -1916 0
-1924 105 0
-1924 1916 0
-1925 3 1924 0
1925 -3 0
1925 -1924 0
1926 -2 -1925 0
-1926 2 0
-1926 1925 0
-1927 5 1917 1923 1926 0
1927 -5 0
1927 -1917 0
1927 -1923 0
1927 -1926 0
1928 -110 -1927 0
-1928 110 0
-1928 1927 0
-1929 130 1913 1928 0
1929 -130 0
1929 -1913 0
1929 -1928 0
1930 -136 -1929 0
-1930 136 0
-1930 1929 0
1931 -468 -604 0
-1931 468 0
-1931 604 0
-1932 714 1931 0
1932 -714 0
1932 -1931 0
1933 -716 -1932 0
-1933 716 0
-1933 1932 0
-1934 1180 1933 1183 0
1934 -1180 0
1934 -1933 0
1934 -1183 0
1935 -1187 -1934 0
-1935 1187 0
-1935 1934 0
1936 -1189 -1934 0
-1936 1189 0
-1936 1934 0
-1937 49 1936 45 0
1937 -49 0
1937 -1936 0
1937 -45 0
1938 -51 -1937 0
-1938 51 0
-1938 1937 0
-1939 73 36 1930 39 42 1935 1938 0
1939 -73 0
1939 -36 0
1939 -1930 0
1939 -39 0
1939 -42 0
1939 -1935 0
1939 -1938 0
1940 -75 -1939 0
-1940 75 0
-1940 1939 0
-1941 77 1909 1940 0
1941 -77 0
1941 -1909 0
1941 -1940 0
1942 -116 -1941 0
-1942 116 0
-1942 1941 0
1943 -491 -1910 0
-1943 491 0
-1943 1910 0
-1944 77 1943 0
1944 -77 0
1944 -1943 0
1945 -79 -1944 0
-1945 79 0
-1945 1944 0
-1946 98 295 1911 298 27 34 1945 84 86 301 92 304 0
1946 -98 0
1946 -295 0
1946 -1911 0
1946 -298 0
1946 -27 0
1946 -34 0
1946 -1945 0
1946 -84 0
1946 -86 0
1946 -301 0
1946 -92 0
1946 -304 0
1947 -100 -1946 0
-1947 100 0
-1947 1946 0
1948 -491 -1914 0
-1948 491 0
-1948 1914 0
-1949 77 1948 0
1949 -77 0
1949 -1948 0
1950 -79 -1949 0
-1950 79 0
-1950 1949 0
-1951 98 348 1915 27 34 1950 84 86 351 92 354 0
1951 -98 0
1951 -348 0
1951 -1915 0
1951 -27 0
1951 -34 0
1951 -1950 0
1951 -84 0
1951 -86 0
1951 -351 0
1951 -92 0
1951 -354 0
1952 -103 -1951 0
-1952 103 0
-1952 1951 0
-1953 98 613 27 34 616 84 86 92 94 0
1953 -98 0
1953 -613 0
1953 -27 0
1953 -34 0
1953 -616 0
1953 -84 0
1953 -86 0
1953 -92 0
1953 -94 0
1954 -143 -1953 0
-1954 143 0
-1954 1953 0
-1955 91 1954 0
1955 -91 0
1955 -1954 0
1956 -146 -1955 0
-1956 146 0
-1956 1955 0
-1957 150 1956 147 0
1957 -150 0
1957 -1956 0
1957 -147 0
1958 -204 -1957 0
-1958 204 0
-1958 1957 0
1959 -105 -1951 0
-1959 105 0
-1959 1951 0
-1960 3 1959 0
1960 -3 0
1960 -1959 0
1961 -2 -1960 0
-1961 2 0
-1961 1960 0
-1962 5 1952 1958 1961 0
1962 -5 0
1962 -1952 0
1962 -1958 0
1962 -1961 0
1963 -110 -1962 0
-1963 110 0
-1963 1962 0
-1964 130 1947 1963 0
1964 -130 0
1964 -1947 0
1964 -1963 0
1965 -136 -1964 0
-1965 136 0
-1965 1964 0
1966 -468 -569 0
-1966 468 0
-1966 569 0
-1967 714 1966 0
1967 -714 0
1967 -1966 0
1968 -716 -1967 0
-1968 716 0
-1968 1967 0
-1969 1180 1968 1183 0
1969 -1180 0
1969 -1968 0
1969 -1183 0
1970 -1187 -1969 0
-1970 1187 0
-1970 1969 0
1971 -1189 -1969 0
-1971 1189 0
-1971 1969 0
-1972 49 1971 45 0
1972 -49 0
1972 -1971 0
1972 -45 0
1973 -51 -1972 0
-1973 51 0
-1973 1972 0
-1974 73 36 1965 39 42 1970 1973 0
1974 -73 0
1974 -36 0
1974 -1965 0
1974 -39 0
1974 -42 0
1974 -1970 0
1974 -1973 0
1975 -392 -1974 0
-1975 392 0
-1975 1974 0
-1976 54 1975 0
1976 -54 0
1976 -1975 0
1977 -53 -1976 0
-1977 53 0
-1977 1976 0
1978 -75 -325 0
-1978 75 0
-1978 325 0
-1979 77 1978 0
1979 -77 0
1979 -1978 0
1980 -79 -1979 0
-1980 79 0
-1980 1979 0
-1981 98 6 27 34 1980 84 86 89 92 94 0
1981 -98 0
1981 -6 0
1981 -27 0
1981 -34 0
1981 -1980 0
1981 -84 0
1981 -86 0
1981 -89 0
1981 -92 0
1981 -94 0
1982 -100 -1981 0
-1982 100 0
-1982 1981 0
-1983 98 27 34 1980 84 86 89 92 94 0
1983 -98 0
1983 -27 0
1983 -34 0
1983 -1980 0
1983 -84 0
1983 -86 0
1983 -89 0
1983 -92 0
1983 -94 0
1984 -103 -1983 0
-1984 103 0
-1984 1983 0
1985 -105 -1983 0
-1985 105 0
-1985 1983 0
-1986 3 1985 0
1986 -3 0
1986 -1985 0
1987 -2 -1986 0
-1987 2 0
-1987 1986 0
-1988 5 1984 1987 0
1988 -5 0
1988 -1984 0
1988 -1987 0
1989 -110 -1988 0
-1989 110 0
-1989 1988 0
-1990 130 1982 1989 326 0
1990 -130 0
1990 -1982 0
1990 -1989 0
1990 -326 0
1991 -132 -1990 0
-1991 132 0
-1991 1990 0
-1992 150 1991 425 147 0
1992 -150 0
1992 -1991 0
1992 -425 0
1992 -147 0
1993 -152 -1992 0
-1993 152 0
-1993 1992 0
-1994 98 330 27 34 790 84 86 340 92 343 0
1994 -98 0
1994 -330 0
1994 -27 0
1994 -34 0
1994 -790 0
1994 -84 0
1994 -86 0
1994 -340 0
1994 -92 0
1994 -343 0
1995 -103 -1994 0
-1995 103 0
-1995 1994 0
1996 -100 -1983 0
-1996 100 0
-1996 1983 0
-1997 130 1996 326 0
1997 -130 0
1997 -1996 0
1997 -326 0
1998 -132 -1997 0
-1998 132 0
-1998 1997 0
-1999 98 27 34 421 84 86 92 94 0
1999 -98 0
1999 -27 0
1999 -34 0
1999 -421 0
1999 -84 0
1999 -86 0
1999 -92 0
1999 -94 0
2000 -143 -1999 0
-2000 143 0
-2000 1999 0
-2001 91 2000 0
2001 -91 0
2001 -2000 0
2002 -146 -2001 0
-2002 146 0
-2002 2001 0
-2003 150 1998 2002 147 0
2003 -150 0
2003 -1998 0
2003 -2002 0
2003 -147 0
2004 -204 -2003 0
-2004 204 0
-2004 2003 0
-2005 130 326 0
2005 -130 0
2005 -326 0
2006 -132 -2005 0
-2006 132 0
-2006 2005 0
-2007 150 2006 159 147 0
2007 -150 0
2007 -2006 0
2007 -159 0
2007 -147 0
2008 -162 -2007 0
-2008 162 0
-2008 2007 0
2009 -180 -2007 0
-2009 180 0
-2009 2007 0
-2010 91 2009 0
2010 -91 0
2010 -2009 0
2011 -90 -2010 0
-2011 90 0
-2011 2010 0
2012 -184 -2007 0
-2012 184 0
-2012 2007 0
-2013 96 2012 0
2013 -96 0
2013 -2012 0
2014 -95 -2013 0
-2014 95 0
-2014 2013 0
-2015 98 2008 27 34 790 84 86 2011 92 2014 0
2015 -98 0
2015 -2008 0
2015 -27 0
2015 -34 0
2015 -790 0
2015 -84 0
2015 -86 0
2015 -2011 0
2015 -92 0
2015 -2014 0
2016 -105 -2015 0
-2016 105 0
-2016 2015 0
-2017 3 2016 0
2017 -3 0
2017 -2016 0
2018 -2 -2017 0
-2018 2 0
-2018 2017 0
-2019 5 1995 2004 2018 0
2019 -5 0
2019 -1995 0
2019 -2004 0
2019 -2018 0
2020 -235 -2019 0
-2020 235 0
-2020 2019 0
2021 -250 -833 0
-2021 250 0
-2021 833 0
2022 -252 -1992 0
-2022 252 0
-2022 1992 0
2023 -254 -2019 0
-2023 254 0
-2023 2019 0
-2024 256 2021 2022 2023 0
2024 -256 0
2024 -2021 0
2024 -2022 0
2024 -2023 0
2025 -258 -2024 0
-2025 258 0
-2025 2024 0
-2026 98 262 265 27 34 405 84 86 272 92 275 0
2026 -98 0
2026 -262 0
2026 -265 0
2026 -27 0
2026 -34 0
2026 -405 0
2026 -84 0
2026 -86 0
2026 -272 0
2026 -92 0
2026 -275 0
2027 -100 -2026 0
-2027 100 0
-2027 2026 0
-2028 98 262 27 34 405 84 86 272 92 275 0
2028 -98 0
2028 -262 0
2028 -27 0
2028 -34 0
2028 -405 0
2028 -84 0
2028 -86 0
2028 -272 0
2028 -92 0
2028 -275 0
2029 -103 -2028 0
-2029 103 0
-2029 2028 0
-2030 98 27 34 1980 84 86 92 94 0
2030 -98 0
2030 -27 0
2030 -34 0
2030 -1980 0
2030 -84 0
2030 -86 0
2030 -92 0
2030 -94 0
2031 -143 -2030 0
-2031 143 0
-2031 2030 0
-2032 91 2031 0
2032 -91 0
2032 -2031 0
2033 -146 -2032 0
-2033 146 0
-2033 2032 0
-2034 150 2033 147 0
2034 -150 0
2034 -2033 0
2034 -147 0
2035 -204 -2034 0
-2035 204 0
-2035 2034 0
2036 -105 -2028 0
-2036 105 0
-2036 2028 0
-2037 3 2036 0
2037 -3 0
2037 -2036 0
2038 -2 -2037 0
-2038 2 0
-2038 2037 0
-2039 5 2029 2035 2038 0
2039 -5 0
2039 -2029 0
2039 -2035 0
2039 -2038 0
2040 -110 -2039 0
-2040 110 0
-2040 2039 0
-2041 130 2027 2040 415 0
2041 -130 0
2041 -2027 0
2041 -2040 0
2041 -415 0
2042 -324 -2041 0
-2042 324 0
-2042 2041 0
2043 -460 -390 0
-2043 460 0
-2043 390 0
-2044 462 2043 0
2044 -462 0
2044 -2043 0
2045 -464 -2044 0
-2045 464 0
-2045 2044 0
-2046 466 1993 2020 2025 259 2042 2045 0
2046 -466 0
2046 -1993 0
2046 -2020 0
2046 -2025 0
2046 -259 0
2046 -2042 0
2046 -2045 0
2047 -468 -2046 0
-2047 468 0
-2047 2046 0
-2048 73 36 1965 39 42 50 0
2048 -73 0
2048 -36 0
2048 -1965 0
2048 -39 0
2048 -42 0
2048 -50 0
2049 -712 -2048 0
-2049 712 0
-2049 2048 0
-2050 714 2047 2049 0
2050 -714 0
2050 -2047 0
2050 -2049 0
2051 -716 -2050 0
-2051 716 0
-2051 2050 0
-2052 73 36 1965 39 42 0
2052 -73 0
2052 -36 0
2052 -1965 0
2052 -39 0
2052 -42 0
2053 -397 -2052 0
-2053 397 0
-2053 2052 0
-2054 47 2053 0
2054 -47 0
2054 -2053 0
2055 -46 -2054 0
-2055 46 0
-2055 2054 0
-2056 49 2055 0
2056 -49 0
2056 -2055 0
2057 -785 -2056 0
-2057 785 0
-2057 2056 0
2058 -1178 -2048 0
-2058 1178 0
-2058 2048 0
-2059 1180 2051 2057 2058 0
2059 -1180 0
2059 -2051 0
2059 -2057 0
2059 -2058 0
2060 -1193 -2059 0
-2060 1193 0
-2060 2059 0
-2061 73 36 39 42 125 0
2061 -73 0
2061 -36 0
2061 -39 0
2061 -42 0
2061 -125 0
2062 -75 -2061 0
-2062 75 0
-2062 2061 0
-2063 77 2062 0
2063 -77 0
2063 -2062 0
2064 -79 -2063 0
-2064 79 0
-2064 2063 0
-2065 98 6 27 34 2064 84 86 89 92 94 0
2065 -98 0
2065 -6 0
2065 -27 0
2065 -34 0
2065 -2064 0
2065 -84 0
2065 -86 0
2065 -89 0
2065 -92 0
2065 -94 0
2066 -100 -2065 0
-2066 100 0
-2066 2065 0
-2067 98 27 34 2064 84 86 89 92 94 0
2067 -98 0
2067 -27 0
2067 -34 0
2067 -2064 0
2067 -84 0
2067 -86 0
2067 -89 0
2067 -92 0
2067 -94 0
2068 -103 -2067 0
-2068 103 0
-2068 2067 0
2069 -105 -2067 0
-2069 105 0
-2069 2067 0
-2070 3 2069 0
2070 -3 0
2070 -2069 0
2071 -2 -2070 0
-2071 2 0
-2071 2070 0
-2072 5 2068 2071 0
2072 -5 0
2072 -2068 0
2072 -2071 0
2073 -110 -2072 0
-2073 110 0
-2073 2072 0
2074 -128 -2061 0
-2074 128 0
-2074 2061 0
-2075 130 2066 2073 2074 0
2075 -130 0
2075 -2066 0
2075 -2073 0
2075 -2074 0
2076 -132 -2075 0
-2076 132 0
-2076 2075 0
-2077 73 36 135 39 42 125 0
2077 -73 0
2077 -36 0
2077 -135 0
2077 -39 0
2077 -42 0
2077 -125 0
2078 -75 -2077 0
-2078 75 0
-2078 2077 0
-2079 77 2078 0
2079 -77 0
2079 -2078 0
2080 -79 -2079 0
-2080 79 0
-2080 2079 0
-2081 98 6 27 34 2080 84 86 92 94 0
2081 -98 0
2081 -6 0
2081 -27 0
2081 -34 0
2081 -2080 0
2081 -84 0
2081 -86 0
2081 -92 0
2081 -94 0
2082 -143 -2081 0
-2082 143 0
-2082 2081 0
-2083 91 2082 0
2083 -91 0
2083 -2082 0
2084 -146 -2083 0
-2084 146 0
-2084 2083 0
-2085 150 2076 2084 147 0
2085 -150 0
2085 -2076 0
2085 -2084 0
2085 -147 0
2086 -152 -2085 0
-2086 152 0
-2086 2085 0
-2087 130 133 2074 0
2087 -130 0
2087 -133 0
2087 -2074 0
2088 -132 -2087 0
-2088 132 0
-2088 2087 0
-2089 150 2088 159 147 0
2089 -150 0
2089 -2088 0
2089 -159 0
2089 -147 0
2090 -162 -2089 0
-2090 162 0
-2090 2089 0
-2091 73 36 163 39 42 0
2091 -73 0
2091 -36 0
2091 -163 0
2091 -39 0
2091 -42 0
2092 -75 -2091 0
-2092 75 0
-2092 2091 0
-2093 77 2092 0
2093 -77 0
2093 -2092 0
2094 -79 -2093 0
-2094 79 0
-2094 2093 0
2095 -180 -2089 0
-2095 180 0
-2095 2089 0
-2096 91 2095 0
2096 -91 0
2096 -2095 0
2097 -90 -2096 0
-2097 90 0
-2097 2096 0
2098 -184 -2089 0
-2098 184 0
-2098 2089 0
-2099 96 2098 0
2099 -96 0
2099 -2098 0
2100 -95 -2099 0
-2100 95 0
-2100 2099 0
-2101 98 2090 27 34 2094 84 86 2097 92 2100 0
2101 -98 0
2101 -2090 0
2101 -27 0
2101 -34 0
2101 -2094 0
2101 -84 0
2101 -86 0
2101 -2097 0
2101 -92 0
2101 -2100 0
2102 -103 -2101 0
-2102 103 0
-2102 2101 0
2103 -100 -2067 0
-2103 100 0
-2103 2067 0
-2104 130 2103 2074 0
2104 -130 0
2104 -2103 0
2104 -2074 0
2105 -132 -2104 0
-2105 132 0
-2105 2104 0
-2106 98 27 34 2080 84 86 92 94 0
2106 -98 0
2106 -27 0
2106 -34 0
2106 -2080 0
2106 -84 0
2106 -86 0
2106 -92 0
2106 -94 0
2107 -143 -2106 0
-2107 143 0
-2107 2106 0
-2108 91 2107 0
2108 -91 0
2108 -2107 0
2109 -146 -2108 0
-2109 146 0
-2109 2108 0
-2110 150 2105 2109 147 0
2110 -150 0
2110 -2105 0
2110 -2109 0
2110 -147 0
2111 -204 -2110 0
-2111 204 0
-2111 2110 0
-2112 130 2074 0
2112 -130 0
2112 -2074 0
2113 -132 -2112 0
-2113 132 0
-2113 2112 0
-2114 150 2113 159 147 0
2114 -150 0
2114 -2113 0
2114 -159 0
2114 -147 0
2115 -162 -2114 0
-2115 162 0
-2115 2114 0
2116 -180 -2114 0
-2116 180 0
-2116 2114 0
-2117 91 2116 0
2117 -91 0
2117 -2116 0
2118 -90 -2117 0
-2118 90 0
-2118 2117 0
2119 -184 -2114 0
-2119 184 0
-2119 2114 0
-2120 96 2119 0
2120 -96 0
2120 -2119 0
2121 -95 -2120 0
-2121 95 0
-2121 2120 0
-2122 98 2115 27 34 2094 84 86 2118 92 2121 0
2122 -98 0
2122 -2115 0
2122 -27 0
2122 -34 0
2122 -2094 0
2122 -84 0
2122 -86 0
2122 -2118 0
2122 -92 0
2122 -2121 0
2123 -105 -2122 0
-2123 105 0
-2123 2122 0
-2124 3 2123 0
2124 -3 0
2124 -2123 0
2125 -2 -2124 0
-2125 2 0
-2125 2124 0
-2126 5 2102 2111 2125 0
2126 -5 0
2126 -2102 0
2126 -2111 0
2126 -2125 0
2127 -235 -2126 0
-2127 235 0
-2127 2126 0
2128 -204 -2089 0
-2128 204 0
-2128 2089 0
-2129 5 2128 1 0
2129 -5 0
2129 -2128 0
2129 -1 0
2130 -7 -2129 0
-2130 7 0
-2130 2129 0
-2131 73 36 243 39 42 0
2131 -73 0
2131 -36 0
2131 -243 0
2131 -39 0
2131 -42 0
2132 -75 -2131 0
-2132 75 0
-2132 2131 0
-2133 77 2132 0
2133 -77 0
2133 -2132 0
2134 -79 -2133 0
-2134 79 0
-2134 2133 0
-2135 98 2090 2130 27 34 2134 84 86 2097 92 2100 0
2135 -98 0
2135 -2090 0
2135 -2130 0
2135 -27 0
2135 -34 0
2135 -2134 0
2135 -84 0
2135 -86 0
2135 -2097 0
2135 -92 0
2135 -2100 0
2136 -250 -2135 0
-2136 250 0
-2136 2135 0
2137 -252 -2085 0
-2137 252 0
-2137 2085 0
2138 -254 -2126 0
-2138 254 0
-2138 2126 0
-2139 256 2136 2137 2138 0
2139 -256 0
2139 -2136 0
2139 -2137 0
2139 -2138 0
2140 -258 -2139 0
-2140 258 0
-2140 2139 0
-2141 73 36 39 42 0
2141 -73 0
2141 -36 0
2141 -39 0
2141 -42 0
2142 -75 -2141 0
-2142 75 0
-2142 2141 0
-2143 77 2142 0
2143 -77 0
2143 -2142 0
2144 -79 -2143 0
-2144 79 0
-2144 2143 0
-2145 98 262 265 27 34 2144 84 86 272 92 275 0
2145 -98 0
2145 -262 0
2145 -265 0
2145 -27 0
2145 -34 0
2145 -2144 0
2145 -84 0
2145 -86 0
2145 -272 0
2145 -92 0
2145 -275 0
2146 -100 -2145 0
-2146 100 0
-2146 2145 0
-2147 98 262 27 34 2144 84 86 272 92 275 0
2147 -98 0
2147 -262 0
2147 -27 0
2147 -34 0
2147 -2144 0
2147 -84 0
2147 -86 0
2147 -272 0
2147 -92 0
2147 -275 0
2148 -103 -2147 0
-2148 103 0
-2148 2147 0
-2149 98 27 34 2144 84 86 92 94 0
2149 -98 0
2149 -27 0
2149 -34 0
2149 -2144 0
2149 -84 0
2149 -86 0
2149 -92 0
2149 -94 0
2150 -143 -2149 0
-2150 143 0
-2150 2149 0
-2151 91 2150 0
2151 -91 0
2151 -2150 0
2152 -146 -2151 0
-2152 146 0
-2152 2151 0
-2153 150 2152 147 0
2153 -150 0
2153 -2152 0
2153 -147 0
2154 -204 -2153 0
-2154 204 0
-2154 2153 0
2155 -105 -2147 0
-2155 105 0
-2155 2147 0
-2156 3 2155 0
2156 -3 0
2156 -2155 0
2157 -2 -2156 0
-2157 2 0
-2157 2156 0
-2158 5 2148 2154 2157 0
2158 -5 0
2158 -2148 0
2158 -2154 0
2158 -2157 0
2159 -110 -2158 0
-2159 110 0
-2159 2158 0
2160 -128 -2141 0
-2160 128 0
-2160 2141 0
-2161 130 2146 2159 2160 0
2161 -130 0
2161 -2146 0
2161 -2159 0
2161 -2160 0
2162 -324 -2161 0
-2162 324 0
-2162 2161 0
2163 -460 -395 0
-2163 460 0
-2163 395 0
-2164 462 2163 0
2164 -462 0
2164 -2163 0
2165 -464 -2164 0
-2165 464 0
-2165 2164 0
-2166 466 2086 2127 2140 259 2162 2165 0
2166 -466 0
2166 -2086 0
2166 -2127 0
2166 -2140 0
2166 -259 0
2166 -2162 0
2166 -2165 0
2167 -468 -2166 0
-2167 468 0
-2167 2166 0
2168 -712 -2052 0
-2168 712 0
-2168 2052 0
-2169 714 2167 2168 0
2169 -714 0
2169 -2167 0
2169 -2168 0
2170 -716 -2169 0
-2170 716 0
-2170 2169 0
2171 -1178 -2052 0
-2171 1178 0
-2171 2052 0
-2172 1180 2170 2171 0
2172 -1180 0
2172 -2170 0
2172 -2171 0
2173 -1189 -2172 0
-2173 1189 0
-2173 2172 0
-2174 1180 1968 0
2174 -1180 0
2174 -1968 0
2175 -1187 -2174 0
-2175 1187 0
-2175 2174 0
-2176 73 36 1965 39 42 2175 0
2176 -73 0
2176 -36 0
2176 -1965 0
2176 -39 0
2176 -42 0
2176 -2175 0
2177 -397 -2176 0
-2177 397 0
-2177 2176 0
-2178 47 2177 0
2178 -47 0
2178 -2177 0
2179 -46 -2178 0
-2179 46 0
-2179 2178 0
-2180 49 2173 2179 0
2180 -49 0
2180 -2173 0
2180 -2179 0
2181 -58 -2180 0
-2181 58 0
-2181 2180 0
2182 -460 -1829 0
-2182 460 0
-2182 1829 0
-2183 462 2182 0
2183 -462 0
2183 -2182 0
2184 -464 -2183 0
-2184 464 0
-2184 2183 0
-2185 466 608 611 259 2184 0
2185 -466 0
2185 -608 0
2185 -611 0
2185 -259 0
2185 -2184 0
2186 -485 -2185 0
-2186 485 0
-2186 2185 0
2187 -491 -2185 0
-2187 491 0
-2187 2185 0
-2188 1180 1568 1183 0
2188 -1180 0
2188 -1568 0
2188 -1183 0
2189 -1187 -2188 0
-2189 1187 0
-2189 2188 0
2190 -1189 -2188 0
-2190 1189 0
-2190 2188 0
-2191 49 2190 45 0
2191 -49 0
2191 -2190 0
2191 -45 0
2192 -51 -2191 0
-2192 51 0
-2192 2191 0
-2193 73 36 39 42 2189 2192 0
2193 -73 0
2193 -36 0
2193 -39 0
2193 -42 0
2193 -2189 0
2193 -2192 0
2194 -75 -2193 0
-2194 75 0
-2194 2193 0
-2195 77 2187 2194 0
2195 -77 0
2195 -2187 0
2195 -2194 0
2196 -79 -2195 0
-2196 79 0
-2196 2195 0
-2197 98 2186 6 27 34 2196 84 86 89 92 94 0
2197 -98 0
2197 -2186 0
2197 -6 0
2197 -27 0
2197 -34 0
2197 -2196 0
2197 -84 0
2197 -86 0
2197 -89 0
2197 -92 0
2197 -94 0
2198 -100 -2197 0
-2198 100 0
-2198 2197 0
-2199 466 611 259 2184 0
2199 -466 0
2199 -611 0
2199 -259 0
2199 -2184 0
2200 -485 -2199 0
-2200 485 0
-2200 2199 0
2201 -491 -2199 0
-2201 491 0
-2201 2199 0
-2202 77 2201 2194 0
2202 -77 0
2202 -2201 0
2202 -2194 0
2203 -79 -2202 0
-2203 79 0
-2203 2202 0
-2204 98 2200 27 34 2203 84 86 89 92 94 0
2204 -98 0
2204 -2200 0
2204 -27 0
2204 -34 0
2204 -2203 0
2204 -84 0
2204 -86 0
2204 -89 0
2204 -92 0
2204 -94 0
2205 -103 -2204 0
-2205 103 0
-2205 2204 0
-2206 466 621 259 2184 0
2206 -466 0
2206 -621 0
2206 -259 0
2206 -2184 0
2207 -485 -2206 0
-2207 485 0
-2207 2206 0
2208 -491 -2206 0
-2208 491 0
-2208 2206 0
2209 -468 -622 0
-2209 468 0
-2209 622 0
-2210 714 2209 0
2210 -714 0
2210 -2209 0
2211 -716 -2210 0
-2211 716 0
-2211 2210 0
-2212 1180 2211 1183 0
2212 -1180 0
2212 -2211 0
2212 -1183 0
2213 -1187 -2212 0
-2213 1187 0
-2213 2212 0
2214 -1189 -2212 0
-2214 1189 0
-2214 2212 0
-2215 49 2214 45 0
2215 -49 0
2215 -2214 0
2215 -45 0
2216 -51 -2215 0
-2216 51 0
-2216 2215 0
-2217 73 36 39 42 2213 2216 0
2217 -73 0
2217 -36 0
2217 -39 0
2217 -42 0
2217 -2213 0
2217 -2216 0
2218 -75 -2217 0
-2218 75 0
-2218 2217 0
-2219 77 2208 2218 0
2219 -77 0
2219 -2208 0
2219 -2218 0
2220 -79 -2219 0
-2220 79 0
-2220 2219 0
-2221 98 2207 27 34 2220 84 86 89 92 94 0
2221 -98 0
2221 -2207 0
2221 -27 0
2221 -34 0
2221 -2220 0
2221 -84 0
2221 -86 0
2221 -89 0
2221 -92 0
2221 -94 0
2222 -105 -2221 0
-2222 105 0
-2222 2221 0
-2223 3 2222 0
2223 -3 0
2223 -2222 0
2224 -2 -2223 0
-2224 2 0
-2224 2223 0
-2225 5 2205 2224 0
2225 -5 0
2225 -2205 0
2225 -2224 0
2226 -110 -2225 0
-2226 110 0
-2226 2225 0
2227 -235 -445 0
-2227 235 0
-2227 445 0
2228 -250 -112 0
-2228 250 0
-2228 112 0
2229 -254 -445 0
-2229 254 0
-2229 445 0
-2230 256 2228 2229 0
2230 -256 0
2230 -2228 0
2230 -2229 0
2231 -258 -2230 0
-2231 258 0
-2231 2230 0
-2232 466 2227 2231 259 545 0
2232 -466 0
2232 -2227 0
2232 -2231 0
2232 -259 0
2232 -545 0
2233 -468 -2232 0
-2233 468 0
-2233 2232 0
-2234 714 2233 0
2234 -714 0
2234 -2233 0
2235 -716 -2234 0
-2235 716 0
-2235 2234 0
-2236 1180 2235 1183 0
2236 -1180 0
2236 -2235 0
2236 -1183 0
2237 -1187 -2236 0
-2237 1187 0
-2237 2236 0
2238 -1189 -2236 0
-2238 1189 0
-2238 2236 0
-2239 49 2238 45 0
2239 -49 0
2239 -2238 0
2239 -45 0
2240 -51 -2239 0
-2240 51 0
-2240 2239 0
-2241 73 36 39 42 2237 2240 0
2241 -73 0
2241 -36 0
2241 -39 0
2241 -42 0
2241 -2237 0
2241 -2240 0
2242 -128 -2241 0
-2242 128 0
-2242 2241 0
-2243 130 2198 2226 2242 0
2243 -130 0
2243 -2198 0
2243 -2226 0
2243 -2242 0
2244 -132 -2243 0
-2244 132 0
-2244 2243 0
2245 -324 -1861 0
-2245 324 0
-2245 1861 0
-2246 73 36 135 39 42 1769 1770 0
2246 -73 0
2246 -36 0
2246 -135 0
2246 -39 0
2246 -42 0
2246 -1769 0
2246 -1770 0
2247 -460 -2246 0
-2247 460 0
-2247 2246 0
-2248 462 2247 0
2248 -462 0
2248 -2247 0
2249 -464 -2248 0
-2249 464 0
-2249 2248 0
-2250 466 608 611 259 2245 2249 0
2250 -466 0
2250 -608 0
2250 -611 0
2250 -259 0
2250 -2245 0
2250 -2249 0
2251 -485 -2250 0
-2251 485 0
-2251 2250 0
2252 -491 -2250 0
-2252 491 0
-2252 2250 0
2253 -468 -636 0
-2253 468 0
-2253 636 0
-2254 714 2253 0
2254 -714 0
2254 -2253 0
2255 -716 -2254 0
-2255 716 0
-2255 2254 0
-2256 1180 2255 1183 0
2256 -1180 0
2256 -2255 0
2256 -1183 0
2257 -1187 -2256 0
-2257 1187 0
-2257 2256 0
2258 -1189 -2256 0
-2258 1189 0
-2258 2256 0
-2259 49 2258 45 0
2259 -49 0
2259 -2258 0
2259 -45 0
2260 -51 -2259 0
-2260 51 0
-2260 2259 0
-2261 73 36 135 39 42 2257 2260 0
2261 -73 0
2261 -36 0
2261 -135 0
2261 -39 0
2261 -42 0
2261 -2257 0
2261 -2260 0
2262 -75 -2261 0
-2262 75 0
-2262 2261 0
-2263 77 2252 2262 0
2263 -77 0
2263 -2252 0
2263 -2262 0
2264 -79 -2263 0
-2264 79 0
-2264 2263 0
-2265 98 2251 6 27 34 2264 84 86 92 94 0
2265 -98 0
2265 -2251 0
2265 -6 0
2265 -27 0
2265 -34 0
2265 -2264 0
2265 -84 0
2265 -86 0
2265 -92 0
2265 -94 0
2266 -143 -2265 0
-2266 143 0
-2266 2265 0
-2267 91 2266 0
2267 -91 0
2267 -2266 0
2268 -146 -2267 0
-2268 146 0
-2268 2267 0
-2269 150 2244 2268 147 0
2269 -150 0
2269 -2244 0
2269 -2268 0
2269 -147 0
2270 -167 -2269 0
-2270 167 0
-2270 2269 0
2271 -118 -1941 0
-2271 118 0
-2271 1941 0
2272 -430 -1974 0
-2272 430 0
-2272 1974 0
-2273 61 2270 2271 2272 0
2273 -61 0
2273 -2270 0
2273 -2271 0
2273 -2272 0
2274 -60 -2273 0
-2274 60 0
-2274 2273 0
2275 -434 -1974 0
-2275 434 0
-2275 1974 0
-2276 63 1856 1942 1977 55 2060 2181 2274 2275 0
2276 -63 0
2276 -1856 0
2276 -1942 0
2276 -1977 0
2276 -55 0
2276 -2060 0
2276 -2181 0
2276 -2274 0
2276 -2275 0
2277 -65 -2276 0
-2277 65 0
-2277 2276 0
-2278 67 1733 2277 0
2278 -67 0
2278 -1733 0
2278 -2277 0
2279 -2280 -2278 0
-2279 2280 0
-2279 2278 0
-2281 2282 1564 2279 0
2281 -2282 0
2281 -1564 0
2281 -2279 0
2283 -2284 -2281 0
-2283 2284 0
-2283 2281 0
-2285 2286 1181 2283 0
2285 -2286 0
2285 -1181 0
2285 -2283 0
2287 -2285 -2288 0
-2287 2285 0
-2287 2288 0
2287 0
