c BC-S1.2
p cnf 702 2172
1 -2 -3 0
-1 2 0
-1 3 0
4 -5 -6 0
-4 5 0
-4 6 0
7 -8 -9 0
-7 8 0
-7 9 0
10 -11 -12 0
-10 11 0
-10 12 0
13 -14 -15 0
-13 14 0
-13 15 0
16 -17 -18 0
-16 17 0
-16 18 0
-19 20 10 13 16 0
19 -20 0
19 -10 0
19 -13 0
19 -16 0
21 -22 -19 0
-21 22 0
-21 19 0
-23 24 7 21 0
23 -24 0
23 -7 0
23 -21 0
25 -26 -23 0
-25 26 0
-25 23 0
-27 28 25 0
27 -28 0
27 -25 0
29 -30 -27 0
-29 30 0
-29 27 0
-31 32 29 0
31 -32 0
31 -29 0
33 -34 -31 0
-33 34 0
-33 31 0
35 -36 -37 0
-35 36 0
-35 37 0
38 -30 -28 0
-38 30 0
-38 28 0
-39 32 38 0
39 -32 0
39 -38 0
40 -41 -39 0
-40 41 0
-40 39 0
-42 24 40 7 0
42 -24 0
42 -40 0
42 -7 0
43 -44 -42 0
-43 44 0
-43 42 0
-45 20 10 13 16 43 0
45 -20 0
45 -10 0
45 -13 0
45 -16 0
45 -43 0
46 -47 -45 0
-46 47 0
-46 45 0
-48 49 35 46 0
48 -49 0
48 -35 0
48 -46 0
50 -51 -48 0
-50 51 0
-50 48 0
-52 53 33 50 0
52 -53 0
52 -33 0
52 -50 0
54 -55 -52 0
-54 55 0
-54 52 0
-56 24 7 0
56 -24 0
56 -7 0
57 -44 -56 0
-57 44 0
-57 56 0
-58 20 10 13 16 57 0
58 -20 0
58 -10 0
58 -13 0
58 -16 0
58 -57 0
59 -47 -58 0
-59 47 0
-59 58 0
-60 49 35 59 0
60 -49 0
60 -35 0
60 -59 0
61 -51 -60 0
-61 51 0
-61 60 0
-62 53 61 0
62 -53 0
62 -61 0
63 -64 -62 0
-63 64 0
-63 62 0
-65 32 63 0
65 -32 0
65 -63 0
66 -67 -65 0
-66 67 0
-66 65 0
68 -47 -19 0
-68 47 0
-68 19 0
-69 49 35 68 0
69 -49 0
69 -35 0
69 -68 0
70 -51 -69 0
-70 51 0
-70 69 0
-71 53 70 0
71 -53 0
71 -70 0
72 -64 -71 0
-72 64 0
-72 71 0
-73 32 72 0
73 -32 0
73 -72 0
74 -41 -73 0
-74 41 0
-74 73 0
75 -34 -73 0
-75 34 0
-75 73 0
-76 53 75 70 0
76 -53 0
76 -75 0
76 -70 0
77 -78 -76 0
-77 78 0
-77 76 0
-79 20 10 13 77 16 0
79 -20 0
79 -10 0
79 -13 0
79 -77 0
79 -16 0
80 -22 -79 0
-80 22 0
-80 79 0
-81 24 74 7 80 0
81 -24 0
81 -74 0
81 -7 0
81 -80 0
82 -26 -81 0
-82 26 0
-82 81 0
-83 28 66 82 0
83 -28 0
83 -66 0
83 -82 0
84 -85 -83 0
-84 85 0
-84 83 0
-86 87 54 84 0
86 -87 0
86 -54 0
86 -84 0
88 -89 -86 0
-88 89 0
-88 86 0
90 -91 -9 0
-90 91 0
-90 9 0
-92 93 1 4 88 90 0
92 -93 0
92 -1 0
92 -4 0
92 -88 0
92 -90 0
94 -95 -92 0
-94 95 0
-94 92 0
96 -97 -92 0
-96 97 0
-96 92 0
-98 93 4 88 90 0
98 -93 0
98 -4 0
98 -88 0
98 -90 0
99 -100 -98 0
-99 100 0
-99 98 0
-101 3 99 0
101 -3 0
101 -99 0
102 -103 -101 0
-102 103 0
-102 101 0
104 -105 -106 0
-104 105 0
-104 106 0
107 -108 -109 0
-107 108 0
-107 109 0
110 -111 -18 0
-110 111 0
-110 18 0
-112 113 96 102 104 107 110 0
112 -113 0
112 -96 0
112 -102 0
112 -104 0
112 -107 0
112 -110 0
114 -115 -112 0
-114 115 0
-114 112 0
116 -117 -92 0
-116 117 0
-116 92 0
118 -119 -101 0
-118 119 0
-118 101 0
-120 121 114 116 118 0
120 -121 0
120 -114 0
120 -116 0
120 -118 0
122 -123 -120 0
-122 123 0
-122 120 0
124 -125 -126 0
-124 125 0
-124 126 0
-127 128 124 0
127 -128 0
127 -124 0
129 -130 -127 0
-129 130 0
-129 127 0
131 -132 -126 0
-131 132 0
-131 126 0
-133 134 129 131 0
133 -134 0
133 -129 0
133 -131 0
135 -136 -133 0
-135 136 0
-135 133 0
-137 138 135 0
137 -138 0
137 -135 0
139 -140 -137 0
-139 140 0
-139 137 0
141 -142 -137 0
-141 142 0
-141 137 0
143 -144 -127 0
-143 144 0
-143 127 0
-145 146 141 143 0
145 -146 0
145 -141 0
145 -143 0
147 -148 -145 0
-147 148 0
-147 145 0
149 -150 -151 0
-149 150 0
-149 151 0
152 -153 -120 0
-152 153 0
-152 120 0
-154 155 152 0
154 -155 0
154 -152 0
156 -157 -154 0
-156 157 0
-156 154 0
158 -159 -112 0
-158 159 0
-158 112 0
-160 161 158 0
160 -161 0
160 -158 0
162 -163 -160 0
-162 163 0
-162 160 0
-164 165 94 122 139 147 149 156 162 0
164 -165 0
164 -94 0
164 -122 0
164 -139 0
164 -147 0
164 -149 0
164 -156 0
164 -162 0
166 -167 -164 0
-166 167 0
-166 164 0
-168 113 104 107 110 0
168 -113 0
168 -104 0
168 -107 0
168 -110 0
169 -115 -168 0
-169 115 0
-169 168 0
-170 121 169 0
170 -121 0
170 -169 0
171 -123 -170 0
-171 123 0
-171 170 0
172 -153 -170 0
-172 153 0
-172 170 0
-173 155 172 0
173 -155 0
173 -172 0
174 -157 -173 0
-174 157 0
-174 173 0
175 -159 -168 0
-175 159 0
-175 168 0
-176 161 175 0
176 -161 0
176 -175 0
177 -163 -176 0
-177 163 0
-177 176 0
-178 165 171 139 147 149 174 177 0
178 -165 0
178 -171 0
178 -139 0
178 -147 0
178 -149 0
178 -174 0
178 -177 0
179 -180 -178 0
-179 180 0
-179 178 0
-181 3 179 0
181 -3 0
181 -179 0
182 -2 -181 0
-182 2 0
-182 181 0
183 -103 -3 0
-183 103 0
-183 3 0
-184 113 183 104 107 110 0
184 -113 0
184 -183 0
184 -104 0
184 -107 0
184 -110 0
185 -115 -184 0
-185 115 0
-185 184 0
186 -119 -3 0
-186 119 0
-186 3 0
-187 121 185 186 0
187 -121 0
187 -185 0
187 -186 0
188 -123 -187 0
-188 123 0
-188 187 0
189 -153 -187 0
-189 153 0
-189 187 0
-190 155 189 0
190 -155 0
190 -189 0
191 -157 -190 0
-191 157 0
-191 190 0
192 -159 -184 0
-192 159 0
-192 184 0
-193 161 192 0
193 -161 0
193 -192 0
194 -163 -193 0
-194 163 0
-194 193 0
-195 165 188 139 147 149 191 194 0
195 -165 0
195 -188 0
195 -139 0
195 -147 0
195 -149 0
195 -191 0
195 -194 0
196 -197 -195 0
-196 197 0
-196 195 0
-198 24 196 7 21 0
198 -24 0
198 -196 0
198 -7 0
198 -21 0
199 -26 -198 0
-199 26 0
-199 198 0
-200 28 199 0
200 -28 0
200 -199 0
201 -30 -200 0
-201 30 0
-201 200 0
-202 32 201 0
202 -32 0
202 -201 0
203 -34 -202 0
-203 34 0
-203 202 0
-204 24 196 40 7 0
204 -24 0
204 -196 0
204 -40 0
204 -7 0
205 -44 -204 0
-205 44 0
-205 204 0
-206 20 10 13 16 205 0
206 -20 0
206 -10 0
206 -13 0
206 -16 0
206 -205 0
207 -47 -206 0
-207 47 0
-207 206 0
-208 49 35 207 0
208 -49 0
208 -35 0
208 -207 0
209 -51 -208 0
-209 51 0
-209 208 0
-210 53 203 209 0
210 -53 0
210 -203 0
210 -209 0
211 -55 -210 0
-211 55 0
-211 210 0
-212 24 196 7 0
212 -24 0
212 -196 0
212 -7 0
213 -44 -212 0
-213 44 0
-213 212 0
-214 20 10 13 16 213 0
214 -20 0
214 -10 0
214 -13 0
214 -16 0
214 -213 0
215 -47 -214 0
-215 47 0
-215 214 0
-216 49 35 215 0
216 -49 0
216 -35 0
216 -215 0
217 -51 -216 0
-217 51 0
-217 216 0
-218 53 217 0
218 -53 0
218 -217 0
219 -64 -218 0
-219 64 0
-219 218 0
-220 32 219 0
220 -32 0
220 -219 0
221 -67 -220 0
-221 67 0
-221 220 0
-222 24 196 74 7 80 0
222 -24 0
222 -196 0
222 -74 0
222 -7 0
222 -80 0
223 -26 -222 0
-223 26 0
-223 222 0
-224 28 221 223 0
224 -28 0
224 -221 0
224 -223 0
225 -85 -224 0
-225 85 0
-225 224 0
-226 87 211 225 0
226 -87 0
226 -211 0
226 -225 0
227 -89 -226 0
-227 89 0
-227 226 0
-228 93 182 4 227 90 0
228 -93 0
228 -182 0
228 -4 0
228 -227 0
228 -90 0
229 -230 -228 0
-229 230 0
-229 228 0
-231 232 166 229 0
231 -232 0
231 -166 0
231 -229 0
233 -234 -231 0
-233 234 0
-233 231 0
235 -236 -12 0
-235 236 0
-235 12 0
237 -238 -232 0
-237 238 0
-237 232 0
-239 18 237 0
239 -18 0
239 -237 0
240 -111 -239 0
-240 111 0
-240 239 0
-241 113 104 107 240 0
241 -113 0
241 -104 0
241 -107 0
241 -240 0
242 -115 -241 0
-242 115 0
-242 241 0
-243 121 242 0
243 -121 0
243 -242 0
244 -123 -243 0
-244 123 0
-244 243 0
245 -153 -243 0
-245 153 0
-245 243 0
-246 155 245 0
246 -155 0
246 -245 0
247 -157 -246 0
-247 157 0
-247 246 0
248 -159 -241 0
-248 159 0
-248 241 0
-249 161 248 0
249 -161 0
249 -248 0
250 -163 -249 0
-250 163 0
-250 249 0
-251 165 244 139 147 149 247 250 0
251 -165 0
251 -244 0
251 -139 0
251 -147 0
251 -149 0
251 -247 0
251 -250 0
252 -180 -251 0
-252 180 0
-252 251 0
-253 3 252 0
253 -3 0
253 -252 0
254 -2 -253 0
-254 2 0
-254 253 0
-255 113 183 104 107 240 0
255 -113 0
255 -183 0
255 -104 0
255 -107 0
255 -240 0
256 -115 -255 0
-256 115 0
-256 255 0
-257 121 256 186 0
257 -121 0
257 -256 0
257 -186 0
258 -123 -257 0
-258 123 0
-258 257 0
259 -153 -257 0
-259 153 0
-259 257 0
-260 155 259 0
260 -155 0
260 -259 0
261 -157 -260 0
-261 157 0
-261 260 0
262 -159 -255 0
-262 159 0
-262 255 0
-263 161 262 0
263 -161 0
263 -262 0
264 -163 -263 0
-264 163 0
-264 263 0
-265 165 258 139 147 149 261 264 0
265 -165 0
265 -258 0
265 -139 0
265 -147 0
265 -149 0
265 -261 0
265 -264 0
266 -197 -265 0
-266 197 0
-266 265 0
-267 24 266 7 0
267 -24 0
267 -266 0
267 -7 0
268 -26 -267 0
-268 26 0
-268 267 0
-269 28 268 0
269 -28 0
269 -268 0
270 -30 -269 0
-270 30 0
-270 269 0
-271 32 270 0
271 -32 0
271 -270 0
272 -34 -271 0
-272 34 0
-272 271 0
-273 49 35 0
273 -49 0
273 -35 0
274 -51 -273 0
-274 51 0
-274 273 0
-275 53 272 274 0
275 -53 0
275 -272 0
275 -274 0
276 -55 -275 0
-276 55 0
-276 275 0
-277 53 274 0
277 -53 0
277 -274 0
278 -64 -277 0
-278 64 0
-278 277 0
-279 32 278 0
279 -32 0
279 -278 0
280 -67 -279 0
-280 67 0
-280 279 0
281 -41 -279 0
-281 41 0
-281 279 0
-282 24 266 281 7 0
282 -24 0
282 -266 0
282 -281 0
282 -7 0
283 -26 -282 0
-283 26 0
-283 282 0
-284 28 280 283 0
284 -28 0
284 -280 0
284 -283 0
285 -85 -284 0
-285 85 0
-285 284 0
-286 87 276 285 0
286 -87 0
286 -276 0
286 -285 0
287 -89 -286 0
-287 89 0
-287 286 0
-288 93 254 4 287 90 0
288 -93 0
288 -254 0
288 -4 0
288 -287 0
288 -90 0
289 -290 -288 0
-289 290 0
-289 288 0
291 -26 -56 0
-291 26 0
-291 56 0
-292 28 291 0
292 -28 0
292 -291 0
293 -30 -292 0
-293 30 0
-293 292 0
-294 32 293 0
294 -32 0
294 -293 0
295 -34 -294 0
-295 34 0
-295 294 0
-296 53 295 274 0
296 -53 0
296 -295 0
296 -274 0
297 -55 -296 0
-297 55 0
-297 296 0
-298 24 74 7 0
298 -24 0
298 -74 0
298 -7 0
299 -26 -298 0
-299 26 0
-299 298 0
-300 28 66 299 0
300 -28 0
300 -66 0
300 -299 0
301 -85 -300 0
-301 85 0
-301 300 0
-302 87 297 301 0
302 -87 0
302 -297 0
302 -301 0
303 -89 -302 0
-303 89 0
-303 302 0
-304 93 1 4 303 90 0
304 -93 0
304 -1 0
304 -4 0
304 -303 0
304 -90 0
305 -95 -304 0
-305 95 0
-305 304 0
306 -97 -304 0
-306 97 0
-306 304 0
-307 93 4 303 90 0
307 -93 0
307 -4 0
307 -303 0
307 -90 0
308 -100 -307 0
-308 100 0
-308 307 0
-309 3 308 0
309 -3 0
309 -308 0
310 -103 -309 0
-310 103 0
-310 309 0
-311 113 306 310 104 107 110 0
311 -113 0
311 -306 0
311 -310 0
311 -104 0
311 -107 0
311 -110 0
312 -115 -311 0
-312 115 0
-312 311 0
313 -117 -304 0
-313 117 0
-313 304 0
314 -119 -309 0
-314 119 0
-314 309 0
-315 121 312 313 314 0
315 -121 0
315 -312 0
315 -313 0
315 -314 0
316 -123 -315 0
-316 123 0
-316 315 0
317 -153 -315 0
-317 153 0
-317 315 0
-318 155 317 0
318 -155 0
318 -317 0
319 -157 -318 0
-319 157 0
-319 318 0
320 -159 -311 0
-320 159 0
-320 311 0
-321 161 320 0
321 -161 0
321 -320 0
322 -163 -321 0
-322 163 0
-322 321 0
-323 165 305 316 139 147 149 319 322 0
323 -165 0
323 -305 0
323 -316 0
323 -139 0
323 -147 0
323 -149 0
323 -319 0
323 -322 0
324 -167 -323 0
-324 167 0
-324 323 0
325 -26 -212 0
-325 26 0
-325 212 0
-326 28 325 0
326 -28 0
326 -325 0
327 -30 -326 0
-327 30 0
-327 326 0
-328 32 327 0
328 -32 0
328 -327 0
329 -34 -328 0
-329 34 0
-329 328 0
-330 53 329 274 0
330 -53 0
330 -329 0
330 -274 0
331 -55 -330 0
-331 55 0
-331 330 0
-332 24 196 74 7 0
332 -24 0
332 -196 0
332 -74 0
332 -7 0
333 -26 -332 0
-333 26 0
-333 332 0
-334 28 280 333 0
334 -28 0
334 -280 0
334 -333 0
335 -85 -334 0
-335 85 0
-335 334 0
-336 87 331 335 0
336 -87 0
336 -331 0
336 -335 0
337 -89 -336 0
-337 89 0
-337 336 0
-338 93 182 4 337 90 0
338 -93 0
338 -182 0
338 -4 0
338 -337 0
338 -90 0
339 -230 -338 0
-339 230 0
-339 338 0
-340 232 324 339 0
340 -232 0
340 -324 0
340 -339 0
341 -342 -340 0
-341 342 0
-341 340 0
343 -89 -87 0
-343 89 0
-343 87 0
-344 93 1 4 343 90 0
344 -93 0
344 -1 0
344 -4 0
344 -343 0
344 -90 0
345 -95 -344 0
-345 95 0
-345 344 0
346 -97 -344 0
-346 97 0
-346 344 0
-347 93 4 343 90 0
347 -93 0
347 -4 0
347 -343 0
347 -90 0
348 -100 -347 0
-348 100 0
-348 347 0
-349 3 348 0
349 -3 0
349 -348 0
350 -103 -349 0
-350 103 0
-350 349 0
351 -230 -344 0
-351 230 0
-351 344 0
-352 232 351 0
352 -232 0
352 -351 0
353 -238 -352 0
-353 238 0
-353 352 0
-354 18 353 0
354 -18 0
354 -353 0
355 -111 -354 0
-355 111 0
-355 354 0
-356 113 346 350 104 107 355 0
356 -113 0
356 -346 0
356 -350 0
356 -104 0
356 -107 0
356 -355 0
357 -115 -356 0
-357 115 0
-357 356 0
358 -117 -344 0
-358 117 0
-358 344 0
359 -119 -349 0
-359 119 0
-359 349 0
-360 121 357 358 359 0
360 -121 0
360 -357 0
360 -358 0
360 -359 0
361 -123 -360 0
-361 123 0
-361 360 0
362 -153 -360 0
-362 153 0
-362 360 0
-363 155 362 0
363 -155 0
363 -362 0
364 -157 -363 0
-364 157 0
-364 363 0
365 -159 -356 0
-365 159 0
-365 356 0
-366 161 365 0
366 -161 0
366 -365 0
367 -163 -366 0
-367 163 0
-367 366 0
-368 165 345 361 139 147 149 364 367 0
368 -165 0
368 -345 0
368 -361 0
368 -139 0
368 -147 0
368 -149 0
368 -364 0
368 -367 0
369 -197 -368 0
-369 197 0
-369 368 0
-370 24 369 7 0
370 -24 0
370 -369 0
370 -7 0
371 -26 -370 0
-371 26 0
-371 370 0
-372 28 371 0
372 -28 0
372 -371 0
373 -30 -372 0
-373 30 0
-373 372 0
-374 32 373 0
374 -32 0
374 -373 0
375 -34 -374 0
-375 34 0
-375 374 0
-376 53 375 274 0
376 -53 0
376 -375 0
376 -274 0
377 -78 -376 0
-377 78 0
-377 376 0
-378 24 281 7 0
378 -24 0
378 -281 0
378 -7 0
379 -26 -378 0
-379 26 0
-379 378 0
-380 28 280 379 0
380 -28 0
380 -280 0
380 -379 0
381 -85 -380 0
-381 85 0
-381 380 0
-382 87 297 381 0
382 -87 0
382 -297 0
382 -381 0
383 -89 -382 0
-383 89 0
-383 382 0
-384 93 1 4 383 90 0
384 -93 0
384 -1 0
384 -4 0
384 -383 0
384 -90 0
385 -95 -384 0
-385 95 0
-385 384 0
386 -97 -384 0
-386 97 0
-386 384 0
-387 93 4 383 90 0
387 -93 0
387 -4 0
387 -383 0
387 -90 0
388 -100 -387 0
-388 100 0
-388 387 0
-389 3 388 0
389 -3 0
389 -388 0
390 -103 -389 0
-390 103 0
-390 389 0
-391 113 386 390 104 107 110 0
391 -113 0
391 -386 0
391 -390 0
391 -104 0
391 -107 0
391 -110 0
392 -115 -391 0
-392 115 0
-392 391 0
393 -117 -384 0
-393 117 0
-393 384 0
394 -119 -389 0
-394 119 0
-394 389 0
-395 121 392 393 394 0
395 -121 0
395 -392 0
395 -393 0
395 -394 0
396 -123 -395 0
-396 123 0
-396 395 0
397 -153 -395 0
-397 153 0
-397 395 0
-398 155 397 0
398 -155 0
398 -397 0
399 -157 -398 0
-399 157 0
-399 398 0
400 -159 -391 0
-400 159 0
-400 391 0
-401 161 400 0
401 -161 0
401 -400 0
402 -163 -401 0
-402 163 0
-402 401 0
-403 165 385 396 139 147 149 399 402 0
403 -165 0
403 -385 0
403 -396 0
403 -139 0
403 -147 0
403 -149 0
403 -399 0
403 -402 0
404 -167 -403 0
-404 167 0
-404 403 0
-405 24 196 281 7 0
405 -24 0
405 -196 0
405 -281 0
405 -7 0
406 -26 -405 0
-406 26 0
-406 405 0
-407 28 280 406 0
407 -28 0
407 -280 0
407 -406 0
408 -85 -407 0
-408 85 0
-408 407 0
-409 87 331 408 0
409 -87 0
409 -331 0
409 -408 0
410 -89 -409 0
-410 89 0
-410 409 0
-411 93 182 4 410 90 0
411 -93 0
411 -182 0
411 -4 0
411 -410 0
411 -90 0
412 -230 -411 0
-412 230 0
-412 411 0
-413 232 404 412 0
413 -232 0
413 -404 0
413 -412 0
414 -238 -413 0
-414 238 0
-414 413 0
-415 18 414 0
415 -18 0
415 -414 0
416 -17 -415 0
-416 17 0
-416 415 0
417 -34 -39 0
-417 34 0
-417 39 0
-418 53 417 274 0
418 -53 0
418 -417 0
418 -274 0
419 -55 -418 0
-419 55 0
-419 418 0
-420 28 280 0
420 -28 0
420 -280 0
421 -85 -420 0
-421 85 0
-421 420 0
-422 87 419 421 0
422 -87 0
422 -419 0
422 -421 0
423 -89 -422 0
-423 89 0
-423 422 0
-424 93 1 4 423 90 0
424 -93 0
424 -1 0
424 -4 0
424 -423 0
424 -90 0
425 -95 -424 0
-425 95 0
-425 424 0
426 -97 -424 0
-426 97 0
-426 424 0
-427 93 4 423 90 0
427 -93 0
427 -4 0
427 -423 0
427 -90 0
428 -100 -427 0
-428 100 0
-428 427 0
-429 3 428 0
429 -3 0
429 -428 0
430 -103 -429 0
-430 103 0
-430 429 0
431 -230 -424 0
-431 230 0
-431 424 0
-432 232 431 0
432 -232 0
432 -431 0
433 -238 -432 0
-433 238 0
-433 432 0
-434 18 433 0
434 -18 0
434 -433 0
435 -111 -434 0
-435 111 0
-435 434 0
-436 113 426 430 104 107 435 0
436 -113 0
436 -426 0
436 -430 0
436 -104 0
436 -107 0
436 -435 0
437 -115 -436 0
-437 115 0
-437 436 0
438 -117 -424 0
-438 117 0
-438 424 0
439 -119 -429 0
-439 119 0
-439 429 0
-440 121 437 438 439 0
440 -121 0
440 -437 0
440 -438 0
440 -439 0
441 -123 -440 0
-441 123 0
-441 440 0
442 -153 -440 0
-442 153 0
-442 440 0
-443 155 442 0
443 -155 0
443 -442 0
444 -157 -443 0
-444 157 0
-444 443 0
445 -159 -436 0
-445 159 0
-445 436 0
-446 161 445 0
446 -161 0
446 -445 0
447 -163 -446 0
-447 163 0
-447 446 0
-448 165 425 441 139 147 149 444 447 0
448 -165 0
448 -425 0
448 -441 0
448 -139 0
448 -147 0
448 -149 0
448 -444 0
448 -447 0
449 -197 -448 0
-449 197 0
-449 448 0
-450 32 278 38 0
450 -32 0
450 -278 0
450 -38 0
451 -41 -450 0
-451 41 0
-451 450 0
-452 24 449 451 7 0
452 -24 0
452 -449 0
452 -451 0
452 -7 0
453 -44 -452 0
-453 44 0
-453 452 0
-454 20 289 341 10 13 377 416 453 0
454 -20 0
454 -289 0
454 -341 0
454 -10 0
454 -13 0
454 -377 0
454 -416 0
454 -453 0
455 -456 -454 0
-455 456 0
-455 454 0
-457 458 455 0
457 -458 0
457 -455 0
459 -460 -457 0
-459 460 0
-459 457 0
461 -462 -454 0
-461 462 0
-461 454 0
-463 464 461 0
463 -464 0
463 -461 0
465 -466 -463 0
-465 466 0
-465 463 0
467 -468 -15 0
-467 468 0
-467 15 0
469 -470 -454 0
-469 470 0
-469 454 0
-471 472 469 0
471 -472 0
471 -469 0
473 -474 -471 0
-473 474 0
-473 471 0
-475 93 254 4 343 90 0
475 -93 0
475 -254 0
475 -4 0
475 -343 0
475 -90 0
476 -290 -475 0
-476 290 0
-476 475 0
-477 113 346 350 104 107 110 0
477 -113 0
477 -346 0
477 -350 0
477 -104 0
477 -107 0
477 -110 0
478 -115 -477 0
-478 115 0
-478 477 0
-479 121 478 358 359 0
479 -121 0
479 -478 0
479 -358 0
479 -359 0
480 -123 -479 0
-480 123 0
-480 479 0
481 -153 -479 0
-481 153 0
-481 479 0
-482 155 481 0
482 -155 0
482 -481 0
483 -157 -482 0
-483 157 0
-483 482 0
484 -159 -477 0
-484 159 0
-484 477 0
-485 161 484 0
485 -161 0
485 -484 0
486 -163 -485 0
-486 163 0
-486 485 0
-487 165 345 480 139 147 149 483 486 0
487 -165 0
487 -345 0
487 -480 0
487 -139 0
487 -147 0
487 -149 0
487 -483 0
487 -486 0
488 -167 -487 0
-488 167 0
-488 487 0
-489 93 182 4 343 90 0
489 -93 0
489 -182 0
489 -4 0
489 -343 0
489 -90 0
490 -230 -489 0
-490 230 0
-490 489 0
-491 232 488 490 0
491 -232 0
491 -488 0
491 -490 0
492 -342 -491 0
-492 342 0
-492 491 0
493 -238 -491 0
-493 238 0
-493 491 0
-494 18 493 0
494 -18 0
494 -493 0
495 -17 -494 0
-495 17 0
-495 494 0
-496 20 476 492 10 13 495 0
496 -20 0
496 -476 0
496 -492 0
496 -10 0
496 -13 0
496 -495 0
497 -22 -496 0
-497 22 0
-497 496 0
-498 24 369 7 497 0
498 -24 0
498 -369 0
498 -7 0
498 -497 0
499 -26 -498 0
-499 26 0
-499 498 0
-500 28 499 0
500 -28 0
500 -499 0
501 -30 -500 0
-501 30 0
-501 500 0
-502 32 501 0
502 -32 0
502 -501 0
503 -34 -502 0
-503 34 0
-503 502 0
504 -67 -32 0
-504 67 0
-504 32 0
505 -41 -32 0
-505 41 0
-505 32 0
-506 24 266 505 7 0
506 -24 0
506 -266 0
506 -505 0
506 -7 0
507 -26 -506 0
-507 26 0
-507 506 0
-508 28 504 507 0
508 -28 0
508 -504 0
508 -507 0
509 -85 -508 0
-509 85 0
-509 508 0
-510 87 509 0
510 -87 0
510 -509 0
511 -89 -510 0
-511 89 0
-511 510 0
-512 93 254 4 511 90 0
512 -93 0
512 -254 0
512 -4 0
512 -511 0
512 -90 0
513 -290 -512 0
-513 290 0
-513 512 0
-514 24 505 7 0
514 -24 0
514 -505 0
514 -7 0
515 -26 -514 0
-515 26 0
-515 514 0
-516 28 504 515 0
516 -28 0
516 -504 0
516 -515 0
517 -85 -516 0
-517 85 0
-517 516 0
-518 87 517 0
518 -87 0
518 -517 0
519 -89 -518 0
-519 89 0
-519 518 0
-520 93 1 4 519 90 0
520 -93 0
520 -1 0
520 -4 0
520 -519 0
520 -90 0
521 -95 -520 0
-521 95 0
-521 520 0
522 -97 -520 0
-522 97 0
-522 520 0
-523 93 4 519 90 0
523 -93 0
523 -4 0
523 -519 0
523 -90 0
524 -100 -523 0
-524 100 0
-524 523 0
-525 3 524 0
525 -3 0
525 -524 0
526 -103 -525 0
-526 103 0
-526 525 0
-527 113 522 526 104 107 110 0
527 -113 0
527 -522 0
527 -526 0
527 -104 0
527 -107 0
527 -110 0
528 -115 -527 0
-528 115 0
-528 527 0
529 -117 -520 0
-529 117 0
-529 520 0
530 -119 -525 0
-530 119 0
-530 525 0
-531 121 528 529 530 0
531 -121 0
531 -528 0
531 -529 0
531 -530 0
532 -123 -531 0
-532 123 0
-532 531 0
533 -153 -531 0
-533 153 0
-533 531 0
-534 155 533 0
534 -155 0
534 -533 0
535 -157 -534 0
-535 157 0
-535 534 0
536 -159 -527 0
-536 159 0
-536 527 0
-537 161 536 0
537 -161 0
537 -536 0
538 -163 -537 0
-538 163 0
-538 537 0
-539 165 521 532 139 147 149 535 538 0
539 -165 0
539 -521 0
539 -532 0
539 -139 0
539 -147 0
539 -149 0
539 -535 0
539 -538 0
540 -167 -539 0
-540 167 0
-540 539 0
-541 24 196 505 7 0
541 -24 0
541 -196 0
541 -505 0
541 -7 0
542 -26 -541 0
-542 26 0
-542 541 0
-543 28 504 542 0
543 -28 0
543 -504 0
543 -542 0
544 -85 -543 0
-544 85 0
-544 543 0
-545 87 544 0
545 -87 0
545 -544 0
546 -89 -545 0
-546 89 0
-546 545 0
-547 93 182 4 546 90 0
547 -93 0
547 -182 0
547 -4 0
547 -546 0
547 -90 0
548 -230 -547 0
-548 230 0
-548 547 0
-549 232 540 548 0
549 -232 0
549 -540 0
549 -548 0
550 -342 -549 0
-550 342 0
-550 549 0
551 -238 -549 0
-551 238 0
-551 549 0
-552 18 551 0
552 -18 0
552 -551 0
553 -17 -552 0
-553 17 0
-553 552 0
-554 28 504 0
554 -28 0
554 -504 0
555 -85 -554 0
-555 85 0
-555 554 0
-556 87 555 0
556 -87 0
556 -555 0
557 -89 -556 0
-557 89 0
-557 556 0
-558 93 1 4 557 90 0
558 -93 0
558 -1 0
558 -4 0
558 -557 0
558 -90 0
559 -95 -558 0
-559 95 0
-559 558 0
560 -97 -558 0
-560 97 0
-560 558 0
-561 93 4 557 90 0
561 -93 0
561 -4 0
561 -557 0
561 -90 0
562 -100 -561 0
-562 100 0
-562 561 0
-563 3 562 0
563 -3 0
563 -562 0
564 -103 -563 0
-564 103 0
-564 563 0
565 -230 -558 0
-565 230 0
-565 558 0
-566 232 565 0
566 -232 0
566 -565 0
567 -238 -566 0
-567 238 0
-567 566 0
-568 18 567 0
568 -18 0
568 -567 0
569 -111 -568 0
-569 111 0
-569 568 0
-570 113 560 564 104 107 569 0
570 -113 0
570 -560 0
570 -564 0
570 -104 0
570 -107 0
570 -569 0
571 -115 -570 0
-571 115 0
-571 570 0
572 -117 -558 0
-572 117 0
-572 558 0
573 -119 -563 0
-573 119 0
-573 563 0
-574 121 571 572 573 0
574 -121 0
574 -571 0
574 -572 0
574 -573 0
575 -123 -574 0
-575 123 0
-575 574 0
576 -153 -574 0
-576 153 0
-576 574 0
-577 155 576 0
577 -155 0
577 -576 0
578 -157 -577 0
-578 157 0
-578 577 0
579 -159 -570 0
-579 159 0
-579 570 0
-580 161 579 0
580 -161 0
580 -579 0
581 -163 -580 0
-581 163 0
-581 580 0
-582 165 559 575 139 147 149 578 581 0
582 -165 0
582 -559 0
582 -575 0
582 -139 0
582 -147 0
582 -149 0
582 -578 0
582 -581 0
583 -197 -582 0
-583 197 0
-583 582 0
-584 24 583 40 7 0
584 -24 0
584 -583 0
584 -40 0
584 -7 0
585 -44 -584 0
-585 44 0
-585 584 0
-586 20 513 550 10 13 553 585 0
586 -20 0
586 -513 0
586 -550 0
586 -10 0
586 -13 0
586 -553 0
586 -585 0
587 -47 -586 0
-587 47 0
-587 586 0
-588 49 35 587 0
588 -49 0
588 -35 0
588 -587 0
589 -51 -588 0
-589 51 0
-589 588 0
-590 53 503 589 0
590 -53 0
590 -503 0
590 -589 0
591 -592 -590 0
-591 592 0
-591 590 0
593 -594 -9 0
-593 594 0
-593 9 0
-595 53 503 0
595 -53 0
595 -503 0
596 -597 -595 0
-596 597 0
-596 595 0
-598 53 272 0
598 -53 0
598 -272 0
599 -55 -598 0
-599 55 0
-599 598 0
600 -64 -53 0
-600 64 0
-600 53 0
-601 32 600 0
601 -32 0
601 -600 0
602 -67 -601 0
-602 67 0
-602 601 0
603 -41 -601 0
-603 41 0
-603 601 0
-604 24 266 603 7 0
604 -24 0
604 -266 0
604 -603 0
604 -7 0
605 -26 -604 0
-605 26 0
-605 604 0
-606 28 602 605 0
606 -28 0
606 -602 0
606 -605 0
607 -85 -606 0
-607 85 0
-607 606 0
-608 87 599 607 0
608 -87 0
608 -599 0
608 -607 0
609 -89 -608 0
-609 89 0
-609 608 0
-610 93 254 4 609 90 0
610 -93 0
610 -254 0
610 -4 0
610 -609 0
610 -90 0
611 -290 -610 0
-611 290 0
-611 610 0
-612 53 295 0
612 -53 0
612 -295 0
613 -55 -612 0
-613 55 0
-613 612 0
-614 24 603 7 0
614 -24 0
614 -603 0
614 -7 0
615 -26 -614 0
-615 26 0
-615 614 0
-616 28 602 615 0
616 -28 0
616 -602 0
616 -615 0
617 -85 -616 0
-617 85 0
-617 616 0
-618 87 613 617 0
618 -87 0
618 -613 0
618 -617 0
619 -89 -618 0
-619 89 0
-619 618 0
-620 93 1 4 619 90 0
620 -93 0
620 -1 0
620 -4 0
620 -619 0
620 -90 0
621 -95 -620 0
-621 95 0
-621 620 0
622 -97 -620 0
-622 97 0
-622 620 0
-623 93 4 619 90 0
623 -93 0
623 -4 0
623 -619 0
623 -90 0
624 -100 -623 0
-624 100 0
-624 623 0
-625 3 624 0
625 -3 0
625 -624 0
626 -103 -625 0
-626 103 0
-626 625 0
-627 113 622 626 104 107 110 0
627 -113 0
627 -622 0
627 -626 0
627 -104 0
627 -107 0
627 -110 0
628 -115 -627 0
-628 115 0
-628 627 0
629 -117 -620 0
-629 117 0
-629 620 0
630 -119 -625 0
-630 119 0
-630 625 0
-631 121 628 629 630 0
631 -121 0
631 -628 0
631 -629 0
631 -630 0
632 -123 -631 0
-632 123 0
-632 631 0
633 -153 -631 0
-633 153 0
-633 631 0
-634 155 633 0
634 -155 0
634 -633 0
635 -157 -634 0
-635 157 0
-635 634 0
636 -159 -627 0
-636 159 0
-636 627 0
-637 161 636 0
637 -161 0
637 -636 0
638 -163 -637 0
-638 163 0
-638 637 0
-639 165 621 632 139 147 149 635 638 0
639 -165 0
639 -621 0
639 -632 0
639 -139 0
639 -147 0
639 -149 0
639 -635 0
639 -638 0
640 -167 -639 0
-640 167 0
-640 639 0
-641 53 329 0
641 -53 0
641 -329 0
642 -55 -641 0
-642 55 0
-642 641 0
-643 24 196 603 7 0
643 -24 0
643 -196 0
643 -603 0
643 -7 0
644 -26 -643 0
-644 26 0
-644 643 0
-645 28 602 644 0
645 -28 0
645 -602 0
645 -644 0
646 -85 -645 0
-646 85 0
-646 645 0
-647 87 642 646 0
647 -87 0
647 -642 0
647 -646 0
648 -89 -647 0
-648 89 0
-648 647 0
-649 93 182 4 648 90 0
649 -93 0
649 -182 0
649 -4 0
649 -648 0
649 -90 0
650 -230 -649 0
-650 230 0
-650 649 0
-651 232 640 650 0
651 -232 0
651 -640 0
651 -650 0
652 -342 -651 0
-652 342 0
-652 651 0
-653 53 375 0
653 -53 0
653 -375 0
654 -78 -653 0
-654 78 0
-654 653 0
655 -238 -651 0
-655 238 0
-655 651 0
-656 18 655 0
656 -18 0
656 -655 0
657 -17 -656 0
-657 17 0
-657 656 0
-658 53 417 0
658 -53 0
658 -417 0
659 -55 -658 0
-659 55 0
-659 658 0
-660 28 602 0
660 -28 0
660 -602 0
661 -85 -660 0
-661 85 0
-661 660 0
-662 87 659 661 0
662 -87 0
662 -659 0
662 -661 0
663 -89 -662 0
-663 89 0
-663 662 0
-664 93 1 4 663 90 0
664 -93 0
664 -1 0
664 -4 0
664 -663 0
664 -90 0
665 -95 -664 0
-665 95 0
-665 664 0
666 -97 -664 0
-666 97 0
-666 664 0
-667 93 4 663 90 0
667 -93 0
667 -4 0
667 -663 0
667 -90 0
668 -100 -667 0
-668 100 0
-668 667 0
-669 3 668 0
669 -3 0
669 -668 0
670 -103 -669 0
-670 103 0
-670 669 0
671 -230 -664 0
-671 230 0
-671 664 0
-672 232 671 0
672 -232 0
672 -671 0
673 -238 -672 0
-673 238 0
-673 672 0
-674 18 673 0
674 -18 0
674 -673 0
675 -111 -674 0
-675 111 0
-675 674 0
-676 113 666 670 104 107 675 0
676 -113 0
676 -666 0
676 -670 0
676 -104 0
676 -107 0
676 -675 0
677 -115 -676 0
-677 115 0
-677 676 0
678 -117 -664 0
-678 117 0
-678 664 0
679 -119 -669 0
-679 119 0
-679 669 0
-680 121 677 678 679 0
680 -121 0
680 -677 0
680 -678 0
680 -679 0
681 -123 -680 0
-681 123 0
-681 680 0
682 -153 -680 0
-682 153 0
-682 680 0
-683 155 682 0
683 -155 0
683 -682 0
684 -157 -683 0
-684 157 0
-684 683 0
685 -159 -676 0
-685 159 0
-685 676 0
-686 161 685 0
686 -161 0
686 -685 0
687 -163 -686 0
-687 163 0
-687 686 0
-688 165 665 681 139 147 149 684 687 0
688 -165 0
688 -665 0
688 -681 0
688 -139 0
688 -147 0
688 -149 0
688 -684 0
688 -687 0
689 -197 -688 0
-689 197 0
-689 688 0
-690 32 600 38 0
690 -32 0
690 -600 0
690 -38 0
691 -41 -690 0
-691 41 0
-691 690 0
-692 24 689 691 7 0
692 -24 0
692 -689 0
692 -691 0
692 -7 0
693 -44 -692 0
-693 44 0
-693 692 0
-694 20 611 652 10 13 654 657 693 0
694 -20 0
694 -611 0
694 -652 0
694 -10 0
694 -13 0
694 -654 0
694 -657 0
694 -693 0
695 -47 -694 0
-695 47 0
-695 694 0
-696 49 596 35 695 0
696 -49 0
696 -596 0
696 -35 0
696 -695 0
697 -698 -696 0
-697 698 0
-697 696 0
-699 700 233 235 459 465 467 473 591 593 697 0
699 -700 0
699 -233 0
699 -235 0
699 -459 0
699 -465 0
699 -467 0
699 -473 0
699 -591 0
699 -593 0
699 -697 0
701 -699 -702 0
-701 699 0
-701 702 0
701 0
