c BC-S1.2
p cnf 2108 7759
1 -2 -3 0
-1 2 0
-1 3 0
-4 5 1 0
4 -5 0
4 -1 0
6 -7 -4 0
-6 7 0
-6 4 0
8 -9 -3 0
-8 9 0
-8 3 0
10 -11 -4 0
-10 11 0
-10 4 0
12 -13 -4 0
-12 13 0
-12 4 0
14 -15 -16 0
-14 15 0
-14 16 0
17 -18 -3 0
-17 18 0
-17 3 0
19 -20 -4 0
-19 20 0
-19 4 0
-21 22 19 0
21 -22 0
21 -19 0
23 -24 -21 0
-23 24 0
-23 21 0
-25 26 17 23 0
25 -26 0
25 -17 0
25 -23 0
27 -28 -25 0
-27 28 0
-27 25 0
-29 30 12 14 27 0
29 -30 0
29 -12 0
29 -14 0
29 -27 0
31 -32 -29 0
-31 32 0
-31 29 0
33 -34 -16 0
-33 34 0
-33 16 0
-35 36 31 33 0
35 -36 0
35 -31 0
35 -33 0
37 -38 -35 0
-37 38 0
-37 35 0
-39 40 10 37 0
39 -40 0
39 -10 0
39 -37 0
41 -42 -39 0
-41 42 0
-41 39 0
43 -44 -35 0
-43 44 0
-43 35 0
-45 46 43 0
45 -46 0
45 -43 0
47 -48 -45 0
-47 48 0
-47 45 0
-49 50 8 41 47 0
49 -50 0
49 -8 0
49 -41 0
49 -47 0
51 -52 -49 0
-51 52 0
-51 49 0
-53 54 51 0
53 -54 0
53 -51 0
55 -56 -53 0
-55 56 0
-55 53 0
57 -58 -21 0
-57 58 0
-57 21 0
59 -60 -16 0
-59 60 0
-59 16 0
61 -62 -3 0
-61 62 0
-61 3 0
63 -64 -16 0
-63 64 0
-63 16 0
-65 66 61 63 0
65 -66 0
65 -61 0
65 -63 0
67 -68 -65 0
-67 68 0
-67 65 0
69 -70 -4 0
-69 70 0
-69 4 0
71 -72 -4 0
-71 72 0
-71 4 0
73 -74 -29 0
-73 74 0
-73 29 0
-75 76 71 73 0
75 -76 0
75 -71 0
75 -73 0
77 -78 -75 0
-77 78 0
-77 75 0
79 -80 -4 0
-79 80 0
-79 4 0
-81 82 79 0
81 -82 0
81 -79 0
83 -84 -81 0
-83 84 0
-83 81 0
-85 86 83 0
85 -86 0
85 -83 0
87 -88 -85 0
-87 88 0
-87 85 0
-89 90 69 77 87 0
89 -90 0
89 -69 0
89 -77 0
89 -87 0
91 -92 -89 0
-91 92 0
-91 89 0
-93 94 91 0
93 -94 0
93 -91 0
95 -96 -93 0
-95 96 0
-95 93 0
-97 98 6 55 57 59 67 95 0
97 -98 0
97 -6 0
97 -55 0
97 -57 0
97 -59 0
97 -67 0
97 -95 0
99 -100 -97 0
-99 100 0
-99 97 0
-101 36 33 0
101 -36 0
101 -33 0
102 -38 -101 0
-102 38 0
-102 101 0
-103 40 10 102 0
103 -40 0
103 -10 0
103 -102 0
104 -42 -103 0
-104 42 0
-104 103 0
105 -44 -101 0
-105 44 0
-105 101 0
-106 46 105 0
106 -46 0
106 -105 0
107 -48 -106 0
-107 48 0
-107 106 0
-108 50 8 104 107 0
108 -50 0
108 -8 0
108 -104 0
108 -107 0
109 -52 -108 0
-109 52 0
-109 108 0
-110 54 109 0
110 -54 0
110 -109 0
111 -56 -110 0
-111 56 0
-111 110 0
112 -96 -94 0
-112 96 0
-112 94 0
-113 98 6 111 57 59 67 112 0
113 -98 0
113 -6 0
113 -111 0
113 -57 0
113 -59 0
113 -67 0
113 -112 0
114 -115 -113 0
-114 115 0
-114 113 0
-116 30 114 12 14 27 0
116 -30 0
116 -114 0
116 -12 0
116 -14 0
116 -27 0
117 -74 -116 0
-117 74 0
-117 116 0
-118 76 71 117 0
118 -76 0
118 -71 0
118 -117 0
119 -78 -118 0
-119 78 0
-119 118 0
-120 90 69 119 87 0
120 -90 0
120 -69 0
120 -119 0
120 -87 0
121 -122 -120 0
-121 122 0
-121 120 0
123 -124 -4 0
-123 124 0
-123 4 0
125 -126 -21 0
-125 126 0
-125 21 0
-127 90 69 87 0
127 -90 0
127 -69 0
127 -87 0
128 -92 -127 0
-128 92 0
-128 127 0
-129 94 128 0
129 -94 0
129 -128 0
130 -96 -129 0
-130 96 0
-130 129 0
-131 98 6 111 57 59 67 130 0
131 -98 0
131 -6 0
131 -111 0
131 -57 0
131 -59 0
131 -67 0
131 -130 0
132 -115 -131 0
-132 115 0
-132 131 0
-133 30 132 12 14 27 0
133 -30 0
133 -132 0
133 -12 0
133 -14 0
133 -27 0
134 -74 -133 0
-134 74 0
-134 133 0
-135 76 71 134 0
135 -76 0
135 -71 0
135 -134 0
136 -137 -135 0
-136 137 0
-136 135 0
-138 98 6 57 59 67 95 0
138 -98 0
138 -6 0
138 -57 0
138 -59 0
138 -67 0
138 -95 0
139 -140 -138 0
-139 140 0
-139 138 0
141 -115 -138 0
-141 115 0
-141 138 0
-142 30 141 12 14 27 0
142 -30 0
142 -141 0
142 -12 0
142 -14 0
142 -27 0
143 -32 -142 0
-143 32 0
-143 142 0
-144 36 143 33 0
144 -36 0
144 -143 0
144 -33 0
145 -38 -144 0
-145 38 0
-145 144 0
-146 40 139 10 145 0
146 -40 0
146 -139 0
146 -10 0
146 -145 0
147 -42 -146 0
-147 42 0
-147 146 0
148 -44 -144 0
-148 44 0
-148 144 0
-149 46 148 0
149 -46 0
149 -148 0
150 -48 -149 0
-150 48 0
-150 149 0
-151 50 8 147 150 0
151 -50 0
151 -8 0
151 -147 0
151 -150 0
152 -52 -151 0
-152 52 0
-152 151 0
-153 54 152 0
153 -54 0
153 -152 0
154 -155 -153 0
-154 155 0
-154 153 0
-156 157 154 0
156 -157 0
156 -154 0
158 -159 -156 0
-158 159 0
-158 156 0
160 -161 -120 0
-160 161 0
-160 120 0
-162 163 160 0
162 -163 0
162 -160 0
164 -165 -162 0
-164 165 0
-164 162 0
-166 98 6 111 57 59 67 0
166 -98 0
166 -6 0
166 -111 0
166 -57 0
166 -59 0
166 -67 0
167 -115 -166 0
-167 115 0
-167 166 0
-168 30 167 12 14 27 0
168 -30 0
168 -167 0
168 -12 0
168 -14 0
168 -27 0
169 -74 -168 0
-169 74 0
-169 168 0
-170 76 71 169 0
170 -76 0
170 -71 0
170 -169 0
171 -78 -170 0
-171 78 0
-171 170 0
-172 90 69 171 87 0
172 -90 0
172 -69 0
172 -171 0
172 -87 0
173 -92 -172 0
-173 92 0
-173 172 0
-174 94 173 0
174 -94 0
174 -173 0
175 -176 -174 0
-175 176 0
-175 174 0
-177 178 99 121 123 125 136 158 164 175 0
177 -178 0
177 -99 0
177 -121 0
177 -123 0
177 -125 0
177 -136 0
177 -158 0
177 -164 0
177 -175 0
179 -180 -177 0
-179 180 0
-179 177 0
-181 182 179 0
181 -182 0
181 -179 0
183 -184 -181 0
-183 184 0
-183 181 0
185 -186 -182 0
-185 186 0
-185 182 0
187 -24 -22 0
-187 24 0
-187 22 0
-188 26 17 187 0
188 -26 0
188 -17 0
188 -187 0
189 -28 -188 0
-189 28 0
-189 188 0
-190 30 185 14 189 0
190 -30 0
190 -185 0
190 -14 0
190 -189 0
191 -74 -190 0
-191 74 0
-191 190 0
-192 76 191 0
192 -76 0
192 -191 0
193 -78 -192 0
-193 78 0
-193 192 0
194 -84 -82 0
-194 84 0
-194 82 0
-195 86 194 0
195 -86 0
195 -194 0
196 -88 -195 0
-196 88 0
-196 195 0
-197 90 193 196 0
197 -90 0
197 -193 0
197 -196 0
198 -122 -197 0
-198 122 0
-198 197 0
199 -126 -22 0
-199 126 0
-199 22 0
200 -137 -192 0
-200 137 0
-200 192 0
201 -32 -190 0
-201 32 0
-201 190 0
-202 36 201 33 0
202 -36 0
202 -201 0
202 -33 0
203 -44 -202 0
-203 44 0
-203 202 0
-204 46 203 0
204 -46 0
204 -203 0
205 -48 -204 0
-205 48 0
-205 204 0
-206 50 8 205 0
206 -50 0
206 -8 0
206 -205 0
207 -52 -206 0
-207 52 0
-207 206 0
-208 54 207 0
208 -54 0
208 -207 0
209 -155 -208 0
-209 155 0
-209 208 0
210 -211 -182 0
-210 211 0
-210 182 0
-212 157 209 210 0
212 -157 0
212 -209 0
212 -210 0
213 -159 -212 0
-213 159 0
-213 212 0
214 -161 -197 0
-214 161 0
-214 197 0
215 -216 -182 0
-215 216 0
-215 182 0
-217 163 214 215 0
217 -163 0
217 -214 0
217 -215 0
218 -165 -217 0
-218 165 0
-218 217 0
219 -92 -197 0
-219 92 0
-219 197 0
-220 94 219 0
220 -94 0
220 -219 0
221 -176 -220 0
-221 176 0
-221 220 0
-222 178 198 199 200 213 218 221 0
222 -178 0
222 -198 0
222 -199 0
222 -200 0
222 -213 0
222 -218 0
222 -221 0
223 -224 -222 0
-223 224 0
-223 222 0
-225 3 223 0
225 -3 0
225 -223 0
226 -2 -225 0
-226 2 0
-226 225 0
227 -122 -89 0
-227 122 0
-227 89 0
228 -137 -75 0
-228 137 0
-228 75 0
-229 50 8 47 0
229 -50 0
229 -8 0
229 -47 0
230 -52 -229 0
-230 52 0
-230 229 0
-231 54 230 0
231 -54 0
231 -230 0
232 -155 -231 0
-232 155 0
-232 231 0
-233 157 232 0
233 -157 0
233 -232 0
234 -159 -233 0
-234 159 0
-234 233 0
235 -161 -89 0
-235 161 0
-235 89 0
-236 163 235 0
236 -163 0
236 -235 0
237 -165 -236 0
-237 165 0
-237 236 0
238 -176 -93 0
-238 176 0
-238 93 0
-239 178 227 123 125 228 234 237 238 0
239 -178 0
239 -227 0
239 -123 0
239 -125 0
239 -228 0
239 -234 0
239 -237 0
239 -238 0
240 -180 -239 0
-240 180 0
-240 239 0
-241 182 240 0
241 -182 0
241 -240 0
242 -243 -241 0
-242 243 0
-242 241 0
-244 5 226 242 0
244 -5 0
244 -226 0
244 -242 0
245 -7 -244 0
-245 7 0
-245 244 0
246 -243 -182 0
-246 243 0
-246 182 0
-247 5 1 246 0
247 -5 0
247 -1 0
247 -246 0
248 -70 -247 0
-248 70 0
-248 247 0
249 -72 -247 0
-249 72 0
-249 247 0
250 -13 -247 0
-250 13 0
-250 247 0
251 -20 -247 0
-251 20 0
-251 247 0
-252 22 251 0
252 -22 0
252 -251 0
253 -24 -252 0
-253 24 0
-253 252 0
-254 26 17 253 0
254 -26 0
254 -17 0
254 -253 0
255 -28 -254 0
-255 28 0
-255 254 0
-256 30 250 185 14 255 0
256 -30 0
256 -250 0
256 -185 0
256 -14 0
256 -255 0
257 -74 -256 0
-257 74 0
-257 256 0
-258 76 249 257 0
258 -76 0
258 -249 0
258 -257 0
259 -78 -258 0
-259 78 0
-259 258 0
260 -80 -247 0
-260 80 0
-260 247 0
-261 82 260 0
261 -82 0
261 -260 0
262 -84 -261 0
-262 84 0
-262 261 0
-263 86 262 0
263 -86 0
263 -262 0
264 -88 -263 0
-264 88 0
-264 263 0
-265 90 248 259 264 0
265 -90 0
265 -248 0
265 -259 0
265 -264 0
266 -122 -265 0
-266 122 0
-266 265 0
267 -124 -247 0
-267 124 0
-267 247 0
268 -126 -252 0
-268 126 0
-268 252 0
269 -137 -258 0
-269 137 0
-269 258 0
-270 157 210 0
270 -157 0
270 -210 0
271 -159 -270 0
-271 159 0
-271 270 0
272 -161 -265 0
-272 161 0
-272 265 0
-273 163 272 215 0
273 -163 0
273 -272 0
273 -215 0
274 -165 -273 0
-274 165 0
-274 273 0
275 -92 -265 0
-275 92 0
-275 265 0
-276 94 275 0
276 -94 0
276 -275 0
277 -176 -276 0
-277 176 0
-277 276 0
-278 178 266 267 268 269 271 274 277 0
278 -178 0
278 -266 0
278 -267 0
278 -268 0
278 -269 0
278 -271 0
278 -274 0
278 -277 0
279 -280 -278 0
-279 280 0
-279 278 0
-281 5 246 0
281 -5 0
281 -246 0
282 -70 -281 0
-282 70 0
-282 281 0
283 -72 -281 0
-283 72 0
-283 281 0
284 -13 -281 0
-284 13 0
-284 281 0
285 -20 -281 0
-285 20 0
-285 281 0
-286 22 285 0
286 -22 0
286 -285 0
287 -24 -286 0
-287 24 0
-287 286 0
-288 26 17 287 0
288 -26 0
288 -17 0
288 -287 0
289 -28 -288 0
-289 28 0
-289 288 0
-290 30 284 185 14 289 0
290 -30 0
290 -284 0
290 -185 0
290 -14 0
290 -289 0
291 -74 -290 0
-291 74 0
-291 290 0
-292 76 283 291 0
292 -76 0
292 -283 0
292 -291 0
293 -78 -292 0
-293 78 0
-293 292 0
294 -80 -281 0
-294 80 0
-294 281 0
-295 82 294 0
295 -82 0
295 -294 0
296 -84 -295 0
-296 84 0
-296 295 0
-297 86 296 0
297 -86 0
297 -296 0
298 -88 -297 0
-298 88 0
-298 297 0
-299 90 282 293 298 0
299 -90 0
299 -282 0
299 -293 0
299 -298 0
300 -122 -299 0
-300 122 0
-300 299 0
301 -124 -281 0
-301 124 0
-301 281 0
302 -126 -286 0
-302 126 0
-302 286 0
303 -137 -292 0
-303 137 0
-303 292 0
304 -161 -299 0
-304 161 0
-304 299 0
-305 163 304 215 0
305 -163 0
305 -304 0
305 -215 0
306 -165 -305 0
-306 165 0
-306 305 0
307 -92 -299 0
-307 92 0
-307 299 0
-308 94 307 0
308 -94 0
308 -307 0
309 -176 -308 0
-309 176 0
-309 308 0
-310 178 300 301 302 303 271 306 309 0
310 -178 0
310 -300 0
310 -301 0
310 -302 0
310 -303 0
310 -271 0
310 -306 0
310 -309 0
311 -224 -310 0
-311 224 0
-311 310 0
-312 3 311 0
312 -3 0
312 -311 0
313 -9 -312 0
-313 9 0
-313 312 0
314 -315 -278 0
-314 315 0
-314 278 0
316 -78 -76 0
-316 78 0
-316 76 0
-317 90 316 196 0
317 -90 0
317 -316 0
317 -196 0
318 -122 -317 0
-318 122 0
-318 317 0
319 -137 -76 0
-319 137 0
-319 76 0
320 -161 -317 0
-320 161 0
-320 317 0
-321 163 320 215 0
321 -163 0
321 -320 0
321 -215 0
322 -165 -321 0
-322 165 0
-322 321 0
323 -92 -317 0
-323 92 0
-323 317 0
-324 94 323 0
324 -94 0
324 -323 0
325 -176 -324 0
-325 176 0
-325 324 0
-326 178 318 199 319 271 322 325 0
326 -178 0
326 -318 0
326 -199 0
326 -319 0
326 -271 0
326 -322 0
326 -325 0
327 -224 -326 0
-327 224 0
-327 326 0
-328 3 327 0
328 -3 0
328 -327 0
329 -2 -328 0
-329 2 0
-329 328 0
330 -180 -326 0
-330 180 0
-330 326 0
-331 182 330 0
331 -182 0
331 -330 0
332 -243 -331 0
-332 243 0
-332 331 0
-333 5 329 332 0
333 -5 0
333 -329 0
333 -332 0
334 -13 -333 0
-334 13 0
-334 333 0
-335 178 227 123 125 228 271 237 238 0
335 -178 0
335 -227 0
335 -123 0
335 -125 0
335 -228 0
335 -271 0
335 -237 0
335 -238 0
336 -180 -335 0
-336 180 0
-336 335 0
-337 182 336 0
337 -182 0
337 -336 0
338 -186 -337 0
-338 186 0
-338 337 0
-339 76 283 0
339 -76 0
339 -283 0
340 -78 -339 0
-340 78 0
-340 339 0
-341 90 282 340 298 0
341 -90 0
341 -282 0
341 -340 0
341 -298 0
342 -122 -341 0
-342 122 0
-342 341 0
343 -137 -339 0
-343 137 0
-343 339 0
344 -161 -341 0
-344 161 0
-344 341 0
-345 163 344 215 0
345 -163 0
345 -344 0
345 -215 0
346 -165 -345 0
-346 165 0
-346 345 0
347 -92 -341 0
-347 92 0
-347 341 0
-348 94 347 0
348 -94 0
348 -347 0
349 -176 -348 0
-349 176 0
-349 348 0
-350 178 342 301 302 343 271 346 349 0
350 -178 0
350 -342 0
350 -301 0
350 -302 0
350 -343 0
350 -271 0
350 -346 0
350 -349 0
351 -224 -350 0
-351 224 0
-351 350 0
-352 3 351 0
352 -3 0
352 -351 0
353 -18 -352 0
-353 18 0
-353 352 0
354 -20 -333 0
-354 20 0
-354 333 0
-355 22 354 0
355 -22 0
355 -354 0
356 -24 -355 0
-356 24 0
-356 355 0
-357 26 353 356 0
357 -26 0
357 -353 0
357 -356 0
358 -28 -357 0
-358 28 0
-358 357 0
-359 30 334 338 14 358 0
359 -30 0
359 -334 0
359 -338 0
359 -14 0
359 -358 0
360 -32 -359 0
-360 32 0
-360 359 0
-361 36 314 360 33 0
361 -36 0
361 -314 0
361 -360 0
361 -33 0
362 -44 -361 0
-362 44 0
-362 361 0
-363 46 362 0
363 -46 0
363 -362 0
364 -48 -363 0
-364 48 0
-364 363 0
-365 50 313 364 0
365 -50 0
365 -313 0
365 -364 0
366 -52 -365 0
-366 52 0
-366 365 0
-367 54 279 366 0
367 -54 0
367 -279 0
367 -366 0
368 -56 -367 0
-368 56 0
-368 367 0
-369 26 17 0
369 -26 0
369 -17 0
370 -28 -369 0
-370 28 0
-370 369 0
-371 30 185 14 370 0
371 -30 0
371 -185 0
371 -14 0
371 -370 0
372 -74 -371 0
-372 74 0
-372 371 0
-373 76 372 0
373 -76 0
373 -372 0
374 -78 -373 0
-374 78 0
-374 373 0
-375 90 374 196 0
375 -90 0
375 -374 0
375 -196 0
376 -122 -375 0
-376 122 0
-376 375 0
377 -137 -373 0
-377 137 0
-377 373 0
378 -32 -371 0
-378 32 0
-378 371 0
-379 36 378 33 0
379 -36 0
379 -378 0
379 -33 0
380 -44 -379 0
-380 44 0
-380 379 0
-381 46 380 0
381 -46 0
381 -380 0
382 -48 -381 0
-382 48 0
-382 381 0
-383 50 8 382 0
383 -50 0
383 -8 0
383 -382 0
384 -52 -383 0
-384 52 0
-384 383 0
-385 54 384 0
385 -54 0
385 -384 0
386 -155 -385 0
-386 155 0
-386 385 0
-387 157 386 210 0
387 -157 0
387 -386 0
387 -210 0
388 -159 -387 0
-388 159 0
-388 387 0
389 -161 -375 0
-389 161 0
-389 375 0
-390 163 389 215 0
390 -163 0
390 -389 0
390 -215 0
391 -165 -390 0
-391 165 0
-391 390 0
392 -92 -375 0
-392 92 0
-392 375 0
-393 94 392 0
393 -94 0
393 -392 0
394 -176 -393 0
-394 176 0
-394 393 0
-395 178 376 199 377 388 391 394 0
395 -178 0
395 -376 0
395 -199 0
395 -377 0
395 -388 0
395 -391 0
395 -394 0
396 -224 -395 0
-396 224 0
-396 395 0
-397 3 396 0
397 -3 0
397 -396 0
398 -2 -397 0
-398 2 0
-398 397 0
-399 30 12 14 370 0
399 -30 0
399 -12 0
399 -14 0
399 -370 0
400 -74 -399 0
-400 74 0
-400 399 0
-401 76 71 400 0
401 -76 0
401 -71 0
401 -400 0
402 -78 -401 0
-402 78 0
-402 401 0
-403 90 69 402 87 0
403 -90 0
403 -69 0
403 -402 0
403 -87 0
404 -122 -403 0
-404 122 0
-404 403 0
405 -137 -401 0
-405 137 0
-405 401 0
406 -32 -399 0
-406 32 0
-406 399 0
-407 36 406 33 0
407 -36 0
407 -406 0
407 -33 0
408 -44 -407 0
-408 44 0
-408 407 0
-409 46 408 0
409 -46 0
409 -408 0
410 -48 -409 0
-410 48 0
-410 409 0
-411 50 8 410 0
411 -50 0
411 -8 0
411 -410 0
412 -52 -411 0
-412 52 0
-412 411 0
-413 54 412 0
413 -54 0
413 -412 0
414 -155 -413 0
-414 155 0
-414 413 0
-415 157 414 0
415 -157 0
415 -414 0
416 -159 -415 0
-416 159 0
-416 415 0
417 -161 -403 0
-417 161 0
-417 403 0
-418 163 417 0
418 -163 0
418 -417 0
419 -165 -418 0
-419 165 0
-419 418 0
420 -92 -403 0
-420 92 0
-420 403 0
-421 94 420 0
421 -94 0
421 -420 0
422 -176 -421 0
-422 176 0
-422 421 0
-423 178 404 123 199 405 416 419 422 0
423 -178 0
423 -404 0
423 -123 0
423 -199 0
423 -405 0
423 -416 0
423 -419 0
423 -422 0
424 -180 -423 0
-424 180 0
-424 423 0
-425 182 424 0
425 -182 0
425 -424 0
426 -243 -425 0
-426 243 0
-426 425 0
-427 5 398 426 0
427 -5 0
427 -398 0
427 -426 0
428 -20 -427 0
-428 20 0
-428 427 0
-429 22 428 0
429 -22 0
429 -428 0
430 -58 -429 0
-430 58 0
-430 429 0
431 -432 -241 0
-431 432 0
-431 241 0
433 -32 -290 0
-433 32 0
-433 290 0
-434 36 433 33 0
434 -36 0
434 -433 0
434 -33 0
435 -44 -434 0
-435 44 0
-435 434 0
-436 46 435 0
436 -46 0
436 -435 0
437 -48 -436 0
-437 48 0
-437 436 0
-438 50 8 437 0
438 -50 0
438 -8 0
438 -437 0
439 -52 -438 0
-439 52 0
-439 438 0
-440 54 439 0
440 -54 0
440 -439 0
441 -155 -440 0
-441 155 0
-441 440 0
-442 157 441 210 0
442 -157 0
442 -441 0
442 -210 0
443 -159 -442 0
-443 159 0
-443 442 0
-444 178 300 301 302 303 443 306 309 0
444 -178 0
444 -300 0
444 -301 0
444 -302 0
444 -303 0
444 -443 0
444 -306 0
444 -309 0
445 -224 -444 0
-445 224 0
-445 444 0
-446 3 445 0
446 -3 0
446 -445 0
447 -62 -446 0
-447 62 0
-447 446 0
-448 66 447 63 0
448 -66 0
448 -447 0
448 -63 0
449 -68 -448 0
-449 68 0
-449 448 0
-450 178 199 200 213 218 0
450 -178 0
450 -199 0
450 -200 0
450 -213 0
450 -218 0
451 -224 -450 0
-451 224 0
-451 450 0
-452 3 451 0
452 -3 0
452 -451 0
453 -2 -452 0
-453 2 0
-453 452 0
454 -165 -163 0
-454 165 0
-454 163 0
-455 178 123 125 228 234 454 0
455 -178 0
455 -123 0
455 -125 0
455 -228 0
455 -234 0
455 -454 0
456 -180 -455 0
-456 180 0
-456 455 0
-457 182 456 0
457 -182 0
457 -456 0
458 -243 -457 0
-458 243 0
-458 457 0
-459 5 453 458 0
459 -5 0
459 -453 0
459 -458 0
460 -70 -459 0
-460 70 0
-460 459 0
-461 163 215 0
461 -163 0
461 -215 0
462 -165 -461 0
-462 165 0
-462 461 0
-463 178 199 200 213 462 0
463 -178 0
463 -199 0
463 -200 0
463 -213 0
463 -462 0
464 -224 -463 0
-464 224 0
-464 463 0
-465 3 464 0
465 -3 0
465 -464 0
466 -2 -465 0
-466 2 0
-466 465 0
-467 178 123 125 234 454 0
467 -178 0
467 -123 0
467 -125 0
467 -234 0
467 -454 0
468 -180 -467 0
-468 180 0
-468 467 0
-469 182 468 0
469 -182 0
469 -468 0
470 -243 -469 0
-470 243 0
-470 469 0
-471 5 466 470 0
471 -5 0
471 -466 0
471 -470 0
472 -72 -471 0
-472 72 0
-472 471 0
-473 178 199 319 213 462 0
473 -178 0
473 -199 0
473 -319 0
473 -213 0
473 -462 0
474 -224 -473 0
-474 224 0
-474 473 0
-475 3 474 0
475 -3 0
475 -474 0
476 -2 -475 0
-476 2 0
-476 475 0
-477 50 8 107 0
477 -50 0
477 -8 0
477 -107 0
478 -52 -477 0
-478 52 0
-478 477 0
-479 54 478 0
479 -54 0
479 -478 0
480 -155 -479 0
-480 155 0
-480 479 0
-481 157 480 0
481 -157 0
481 -480 0
482 -159 -481 0
-482 159 0
-482 481 0
-483 178 123 125 319 482 454 0
483 -178 0
483 -123 0
483 -125 0
483 -319 0
483 -482 0
483 -454 0
484 -180 -483 0
-484 180 0
-484 483 0
-485 182 484 0
485 -182 0
485 -484 0
486 -243 -485 0
-486 243 0
-486 485 0
-487 5 476 486 0
487 -5 0
487 -476 0
487 -486 0
488 -13 -487 0
-488 13 0
-488 487 0
-489 178 123 125 482 454 0
489 -178 0
489 -123 0
489 -125 0
489 -482 0
489 -454 0
490 -180 -489 0
-490 180 0
-490 489 0
-491 182 490 0
491 -182 0
491 -490 0
492 -186 -491 0
-492 186 0
-492 491 0
-493 157 480 210 0
493 -157 0
493 -480 0
493 -210 0
494 -159 -493 0
-494 159 0
-494 493 0
-495 178 301 302 343 494 462 0
495 -178 0
495 -301 0
495 -302 0
495 -343 0
495 -494 0
495 -462 0
496 -224 -495 0
-496 224 0
-496 495 0
-497 3 496 0
497 -3 0
497 -496 0
498 -18 -497 0
-498 18 0
-498 497 0
-499 178 199 319 494 462 0
499 -178 0
499 -199 0
499 -319 0
499 -494 0
499 -462 0
500 -224 -499 0
-500 224 0
-500 499 0
-501 3 500 0
501 -3 0
501 -500 0
502 -2 -501 0
-502 2 0
-502 501 0
-503 178 123 199 319 482 454 0
503 -178 0
503 -123 0
503 -199 0
503 -319 0
503 -482 0
503 -454 0
504 -180 -503 0
-504 180 0
-504 503 0
-505 182 504 0
505 -182 0
505 -504 0
506 -243 -505 0
-506 243 0
-506 505 0
-507 5 502 506 0
507 -5 0
507 -502 0
507 -506 0
508 -20 -507 0
-508 20 0
-508 507 0
-509 22 508 0
509 -22 0
509 -508 0
510 -24 -509 0
-510 24 0
-510 509 0
-511 26 498 510 0
511 -26 0
511 -498 0
511 -510 0
512 -28 -511 0
-512 28 0
-512 511 0
-513 30 488 492 14 512 0
513 -30 0
513 -488 0
513 -492 0
513 -14 0
513 -512 0
514 -74 -513 0
-514 74 0
-514 513 0
-515 76 472 514 0
515 -76 0
515 -472 0
515 -514 0
516 -78 -515 0
-516 78 0
-516 515 0
517 -32 -256 0
-517 32 0
-517 256 0
-518 36 517 33 0
518 -36 0
518 -517 0
518 -33 0
519 -44 -518 0
-519 44 0
-519 518 0
-520 46 519 0
520 -46 0
520 -519 0
521 -48 -520 0
-521 48 0
-521 520 0
-522 50 8 521 0
522 -50 0
522 -8 0
522 -521 0
523 -52 -522 0
-523 52 0
-523 522 0
-524 54 523 0
524 -54 0
524 -523 0
525 -155 -524 0
-525 155 0
-525 524 0
-526 157 525 210 0
526 -157 0
526 -525 0
526 -210 0
527 -159 -526 0
-527 159 0
-527 526 0
-528 178 267 268 269 527 462 0
528 -178 0
528 -267 0
528 -268 0
528 -269 0
528 -527 0
528 -462 0
529 -530 -528 0
-529 530 0
-529 528 0
-531 5 466 458 0
531 -5 0
531 -466 0
531 -458 0
532 -80 -531 0
-532 80 0
-532 531 0
533 -534 -528 0
-533 534 0
-533 528 0
-535 82 532 533 0
535 -82 0
535 -532 0
535 -533 0
536 -84 -535 0
-536 84 0
-536 535 0
-537 86 529 536 0
537 -86 0
537 -529 0
537 -536 0
538 -88 -537 0
-538 88 0
-538 537 0
-539 90 460 516 538 0
539 -90 0
539 -460 0
539 -516 0
539 -538 0
540 -92 -539 0
-540 92 0
-540 539 0
-541 94 540 0
541 -94 0
541 -540 0
542 -96 -541 0
-542 96 0
-542 541 0
-543 98 245 368 430 431 59 449 542 0
543 -98 0
543 -245 0
543 -368 0
543 -430 0
543 -431 0
543 -59 0
543 -449 0
543 -542 0
544 -140 -543 0
-544 140 0
-544 543 0
545 -56 -208 0
-545 56 0
-545 208 0
546 -58 -22 0
-546 58 0
-546 22 0
547 -432 -182 0
-547 432 0
-547 182 0
548 -96 -220 0
-548 96 0
-548 220 0
-549 98 545 546 547 59 67 548 0
549 -98 0
549 -545 0
549 -546 0
549 -547 0
549 -59 0
549 -67 0
549 -548 0
550 -100 -549 0
-550 100 0
-550 549 0
-551 98 545 546 547 59 67 112 0
551 -98 0
551 -545 0
551 -546 0
551 -547 0
551 -59 0
551 -67 0
551 -112 0
552 -115 -551 0
-552 115 0
-552 551 0
-553 30 552 185 14 189 0
553 -30 0
553 -552 0
553 -185 0
553 -14 0
553 -189 0
554 -74 -553 0
-554 74 0
-554 553 0
-555 76 554 0
555 -76 0
555 -554 0
556 -78 -555 0
-556 78 0
-556 555 0
-557 90 556 196 0
557 -90 0
557 -556 0
557 -196 0
558 -122 -557 0
-558 122 0
-558 557 0
-559 90 196 0
559 -90 0
559 -196 0
560 -92 -559 0
-560 92 0
-560 559 0
-561 94 560 0
561 -94 0
561 -560 0
562 -96 -561 0
-562 96 0
-562 561 0
-563 98 545 546 547 59 67 562 0
563 -98 0
563 -545 0
563 -546 0
563 -547 0
563 -59 0
563 -67 0
563 -562 0
564 -115 -563 0
-564 115 0
-564 563 0
-565 30 564 185 14 189 0
565 -30 0
565 -564 0
565 -185 0
565 -14 0
565 -189 0
566 -74 -565 0
-566 74 0
-566 565 0
-567 76 566 0
567 -76 0
567 -566 0
568 -137 -567 0
-568 137 0
-568 567 0
569 -96 -324 0
-569 96 0
-569 324 0
-570 98 546 547 59 67 569 0
570 -98 0
570 -546 0
570 -547 0
570 -59 0
570 -67 0
570 -569 0
571 -115 -570 0
-571 115 0
-571 570 0
-572 30 571 185 14 189 0
572 -30 0
572 -571 0
572 -185 0
572 -14 0
572 -189 0
573 -32 -572 0
-573 32 0
-573 572 0
-574 36 573 33 0
574 -36 0
574 -573 0
574 -33 0
575 -44 -574 0
-575 44 0
-575 574 0
-576 46 575 0
576 -46 0
576 -575 0
577 -48 -576 0
-577 48 0
-577 576 0
-578 50 8 577 0
578 -50 0
578 -8 0
578 -577 0
579 -52 -578 0
-579 52 0
-579 578 0
-580 54 579 0
580 -54 0
580 -579 0
581 -155 -580 0
-581 155 0
-581 580 0
-582 157 581 210 0
582 -157 0
582 -581 0
582 -210 0
583 -159 -582 0
-583 159 0
-583 582 0
584 -161 -557 0
-584 161 0
-584 557 0
-585 163 584 215 0
585 -163 0
585 -584 0
585 -215 0
586 -165 -585 0
-586 165 0
-586 585 0
-587 98 545 546 547 59 67 0
587 -98 0
587 -545 0
587 -546 0
587 -547 0
587 -59 0
587 -67 0
588 -115 -587 0
-588 115 0
-588 587 0
-589 30 588 185 14 189 0
589 -30 0
589 -588 0
589 -185 0
589 -14 0
589 -189 0
590 -74 -589 0
-590 74 0
-590 589 0
-591 76 590 0
591 -76 0
591 -590 0
592 -78 -591 0
-592 78 0
-592 591 0
-593 90 592 196 0
593 -90 0
593 -592 0
593 -196 0
594 -92 -593 0
-594 92 0
-594 593 0
-595 94 594 0
595 -94 0
595 -594 0
596 -176 -595 0
-596 176 0
-596 595 0
-597 178 550 558 199 568 583 586 596 0
597 -178 0
597 -550 0
597 -558 0
597 -199 0
597 -568 0
597 -583 0
597 -586 0
597 -596 0
598 -224 -597 0
-598 224 0
-598 597 0
-599 3 598 0
599 -3 0
599 -598 0
600 -2 -599 0
-600 2 0
-600 599 0
601 -56 -231 0
-601 56 0
-601 231 0
-602 98 601 57 59 67 95 0
602 -98 0
602 -601 0
602 -57 0
602 -59 0
602 -67 0
602 -95 0
603 -100 -602 0
-603 100 0
-603 602 0
604 -56 -479 0
-604 56 0
-604 479 0
-605 98 604 57 59 67 112 0
605 -98 0
605 -604 0
605 -57 0
605 -59 0
605 -67 0
605 -112 0
606 -115 -605 0
-606 115 0
-606 605 0
-607 30 606 12 14 27 0
607 -30 0
607 -606 0
607 -12 0
607 -14 0
607 -27 0
608 -74 -607 0
-608 74 0
-608 607 0
-609 76 71 608 0
609 -76 0
609 -71 0
609 -608 0
610 -78 -609 0
-610 78 0
-610 609 0
-611 90 69 610 87 0
611 -90 0
611 -69 0
611 -610 0
611 -87 0
612 -122 -611 0
-612 122 0
-612 611 0
-613 98 604 57 59 67 130 0
613 -98 0
613 -604 0
613 -57 0
613 -59 0
613 -67 0
613 -130 0
614 -115 -613 0
-614 115 0
-614 613 0
-615 30 614 12 14 27 0
615 -30 0
615 -614 0
615 -12 0
615 -14 0
615 -27 0
616 -74 -615 0
-616 74 0
-616 615 0
-617 76 71 616 0
617 -76 0
617 -71 0
617 -616 0
618 -137 -617 0
-618 137 0
-618 617 0
-619 30 571 12 14 27 0
619 -30 0
619 -571 0
619 -12 0
619 -14 0
619 -27 0
620 -32 -619 0
-620 32 0
-620 619 0
-621 36 620 33 0
621 -36 0
621 -620 0
621 -33 0
622 -44 -621 0
-622 44 0
-622 621 0
-623 46 622 0
623 -46 0
623 -622 0
624 -48 -623 0
-624 48 0
-624 623 0
-625 50 8 624 0
625 -50 0
625 -8 0
625 -624 0
626 -52 -625 0
-626 52 0
-626 625 0
-627 54 626 0
627 -54 0
627 -626 0
628 -155 -627 0
-628 155 0
-628 627 0
-629 157 628 0
629 -157 0
629 -628 0
630 -159 -629 0
-630 159 0
-630 629 0
631 -161 -611 0
-631 161 0
-631 611 0
-632 163 631 0
632 -163 0
632 -631 0
633 -165 -632 0
-633 165 0
-633 632 0
-634 98 604 57 59 67 0
634 -98 0
634 -604 0
634 -57 0
634 -59 0
634 -67 0
635 -115 -634 0
-635 115 0
-635 634 0
-636 30 635 12 14 27 0
636 -30 0
636 -635 0
636 -12 0
636 -14 0
636 -27 0
637 -74 -636 0
-637 74 0
-637 636 0
-638 76 71 637 0
638 -76 0
638 -71 0
638 -637 0
639 -78 -638 0
-639 78 0
-639 638 0
-640 90 69 639 87 0
640 -90 0
640 -69 0
640 -639 0
640 -87 0
641 -92 -640 0
-641 92 0
-641 640 0
-642 94 641 0
642 -94 0
642 -641 0
643 -176 -642 0
-643 176 0
-643 642 0
-644 178 603 612 123 125 618 630 633 643 0
644 -178 0
644 -603 0
644 -612 0
644 -123 0
644 -125 0
644 -618 0
644 -630 0
644 -633 0
644 -643 0
645 -180 -644 0
-645 180 0
-645 644 0
-646 182 645 0
646 -182 0
646 -645 0
647 -243 -646 0
-647 243 0
-647 646 0
-648 5 600 647 0
648 -5 0
648 -600 0
648 -647 0
649 -11 -648 0
-649 11 0
-649 648 0
650 -7 -247 0
-650 7 0
-650 247 0
651 -56 -524 0
-651 56 0
-651 524 0
652 -58 -252 0
-652 58 0
-652 252 0
653 -96 -276 0
-653 96 0
-653 276 0
-654 98 650 651 652 547 59 67 653 0
654 -98 0
654 -650 0
654 -651 0
654 -652 0
654 -547 0
654 -59 0
654 -67 0
654 -653 0
655 -100 -654 0
-655 100 0
-655 654 0
-656 98 650 604 652 547 59 67 112 0
656 -98 0
656 -650 0
656 -604 0
656 -652 0
656 -547 0
656 -59 0
656 -67 0
656 -112 0
657 -115 -656 0
-657 115 0
-657 656 0
-658 30 657 250 185 14 255 0
658 -30 0
658 -657 0
658 -250 0
658 -185 0
658 -14 0
658 -255 0
659 -74 -658 0
-659 74 0
-659 658 0
-660 76 249 659 0
660 -76 0
660 -249 0
660 -659 0
661 -78 -660 0
-661 78 0
-661 660 0
-662 90 248 661 264 0
662 -90 0
662 -248 0
662 -661 0
662 -264 0
663 -122 -662 0
-663 122 0
-663 662 0
-664 90 248 264 0
664 -90 0
664 -248 0
664 -264 0
665 -92 -664 0
-665 92 0
-665 664 0
-666 94 665 0
666 -94 0
666 -665 0
667 -96 -666 0
-667 96 0
-667 666 0
-668 98 650 604 652 547 59 67 667 0
668 -98 0
668 -650 0
668 -604 0
668 -652 0
668 -547 0
668 -59 0
668 -67 0
668 -667 0
669 -115 -668 0
-669 115 0
-669 668 0
-670 30 669 250 185 14 255 0
670 -30 0
670 -669 0
670 -250 0
670 -185 0
670 -14 0
670 -255 0
671 -74 -670 0
-671 74 0
-671 670 0
-672 76 249 671 0
672 -76 0
672 -249 0
672 -671 0
673 -137 -672 0
-673 137 0
-673 672 0
-674 76 249 0
674 -76 0
674 -249 0
675 -78 -674 0
-675 78 0
-675 674 0
-676 90 248 675 264 0
676 -90 0
676 -248 0
676 -675 0
676 -264 0
677 -92 -676 0
-677 92 0
-677 676 0
-678 94 677 0
678 -94 0
678 -677 0
679 -96 -678 0
-679 96 0
-679 678 0
-680 98 650 652 547 59 67 679 0
680 -98 0
680 -650 0
680 -652 0
680 -547 0
680 -59 0
680 -67 0
680 -679 0
681 -115 -680 0
-681 115 0
-681 680 0
-682 30 681 250 185 14 255 0
682 -30 0
682 -681 0
682 -250 0
682 -185 0
682 -14 0
682 -255 0
683 -32 -682 0
-683 32 0
-683 682 0
-684 36 683 33 0
684 -36 0
684 -683 0
684 -33 0
685 -44 -684 0
-685 44 0
-685 684 0
-686 46 685 0
686 -46 0
686 -685 0
687 -48 -686 0
-687 48 0
-687 686 0
-688 50 8 687 0
688 -50 0
688 -8 0
688 -687 0
689 -52 -688 0
-689 52 0
-689 688 0
-690 54 689 0
690 -54 0
690 -689 0
691 -155 -690 0
-691 155 0
-691 690 0
-692 157 691 210 0
692 -157 0
692 -691 0
692 -210 0
693 -159 -692 0
-693 159 0
-693 692 0
694 -161 -662 0
-694 161 0
-694 662 0
-695 163 694 215 0
695 -163 0
695 -694 0
695 -215 0
696 -165 -695 0
-696 165 0
-696 695 0
-697 98 650 604 652 547 59 67 0
697 -98 0
697 -650 0
697 -604 0
697 -652 0
697 -547 0
697 -59 0
697 -67 0
698 -115 -697 0
-698 115 0
-698 697 0
-699 30 698 250 185 14 255 0
699 -30 0
699 -698 0
699 -250 0
699 -185 0
699 -14 0
699 -255 0
700 -74 -699 0
-700 74 0
-700 699 0
-701 76 249 700 0
701 -76 0
701 -249 0
701 -700 0
702 -78 -701 0
-702 78 0
-702 701 0
-703 90 248 702 264 0
703 -90 0
703 -248 0
703 -702 0
703 -264 0
704 -92 -703 0
-704 92 0
-704 703 0
-705 94 704 0
705 -94 0
705 -704 0
706 -176 -705 0
-706 176 0
-706 705 0
-707 178 655 663 267 268 673 693 696 706 0
707 -178 0
707 -655 0
707 -663 0
707 -267 0
707 -268 0
707 -673 0
707 -693 0
707 -696 0
707 -706 0
708 -709 -707 0
-708 709 0
-708 707 0
710 -48 -46 0
-710 48 0
-710 46 0
-711 50 8 710 0
711 -50 0
711 -8 0
711 -710 0
712 -52 -711 0
-712 52 0
-712 711 0
-713 54 712 0
713 -54 0
713 -712 0
714 -56 -713 0
-714 56 0
-714 713 0
-715 98 650 714 652 547 59 67 653 0
715 -98 0
715 -650 0
715 -714 0
715 -652 0
715 -547 0
715 -59 0
715 -67 0
715 -653 0
716 -100 -715 0
-716 100 0
-716 715 0
-717 98 650 714 652 547 59 67 112 0
717 -98 0
717 -650 0
717 -714 0
717 -652 0
717 -547 0
717 -59 0
717 -67 0
717 -112 0
718 -115 -717 0
-718 115 0
-718 717 0
-719 30 718 250 185 14 255 0
719 -30 0
719 -718 0
719 -250 0
719 -185 0
719 -14 0
719 -255 0
720 -74 -719 0
-720 74 0
-720 719 0
-721 76 249 720 0
721 -76 0
721 -249 0
721 -720 0
722 -78 -721 0
-722 78 0
-722 721 0
-723 90 248 722 264 0
723 -90 0
723 -248 0
723 -722 0
723 -264 0
724 -122 -723 0
-724 122 0
-724 723 0
-725 98 650 714 652 547 59 67 667 0
725 -98 0
725 -650 0
725 -714 0
725 -652 0
725 -547 0
725 -59 0
725 -67 0
725 -667 0
726 -115 -725 0
-726 115 0
-726 725 0
-727 30 726 250 185 14 255 0
727 -30 0
727 -726 0
727 -250 0
727 -185 0
727 -14 0
727 -255 0
728 -74 -727 0
-728 74 0
-728 727 0
-729 76 249 728 0
729 -76 0
729 -249 0
729 -728 0
730 -137 -729 0
-730 137 0
-730 729 0
731 -155 -713 0
-731 155 0
-731 713 0
-732 157 731 210 0
732 -157 0
732 -731 0
732 -210 0
733 -159 -732 0
-733 159 0
-733 732 0
734 -161 -723 0
-734 161 0
-734 723 0
-735 163 734 215 0
735 -163 0
735 -734 0
735 -215 0
736 -165 -735 0
-736 165 0
-736 735 0
-737 98 650 714 652 547 59 67 0
737 -98 0
737 -650 0
737 -714 0
737 -652 0
737 -547 0
737 -59 0
737 -67 0
738 -115 -737 0
-738 115 0
-738 737 0
-739 30 738 250 185 14 255 0
739 -30 0
739 -738 0
739 -250 0
739 -185 0
739 -14 0
739 -255 0
740 -74 -739 0
-740 74 0
-740 739 0
-741 76 249 740 0
741 -76 0
741 -249 0
741 -740 0
742 -78 -741 0
-742 78 0
-742 741 0
-743 90 248 742 264 0
743 -90 0
743 -248 0
743 -742 0
743 -264 0
744 -92 -743 0
-744 92 0
-744 743 0
-745 94 744 0
745 -94 0
745 -744 0
746 -176 -745 0
-746 176 0
-746 745 0
-747 178 716 724 267 268 730 733 736 746 0
747 -178 0
747 -716 0
747 -724 0
747 -267 0
747 -268 0
747 -730 0
747 -733 0
747 -736 0
747 -746 0
748 -315 -747 0
-748 315 0
-748 747 0
-749 178 318 199 319 733 322 325 0
749 -178 0
749 -318 0
749 -199 0
749 -319 0
749 -733 0
749 -322 0
749 -325 0
750 -224 -749 0
-750 224 0
-750 749 0
-751 3 750 0
751 -3 0
751 -750 0
752 -2 -751 0
-752 2 0
-752 751 0
753 -180 -749 0
-753 180 0
-753 749 0
-754 182 753 0
754 -182 0
754 -753 0
755 -243 -754 0
-755 243 0
-755 754 0
-756 5 752 755 0
756 -5 0
756 -752 0
756 -755 0
757 -7 -756 0
-757 7 0
-757 756 0
758 -122 -676 0
-758 122 0
-758 676 0
759 -137 -674 0
-759 137 0
-759 674 0
760 -161 -676 0
-760 161 0
-760 676 0
-761 163 760 215 0
761 -163 0
761 -760 0
761 -215 0
762 -165 -761 0
-762 165 0
-762 761 0
763 -176 -678 0
-763 176 0
-763 678 0
-764 178 758 267 268 759 271 762 763 0
764 -178 0
764 -758 0
764 -267 0
764 -268 0
764 -759 0
764 -271 0
764 -762 0
764 -763 0
765 -280 -764 0
-765 280 0
-765 764 0
766 -9 -352 0
-766 9 0
-766 352 0
-767 50 766 710 0
767 -50 0
767 -766 0
767 -710 0
768 -52 -767 0
-768 52 0
-768 767 0
-769 54 765 768 0
769 -54 0
769 -765 0
769 -768 0
770 -56 -769 0
-770 56 0
-770 769 0
771 -20 -756 0
-771 20 0
-771 756 0
-772 22 771 0
772 -22 0
772 -771 0
773 -58 -772 0
-773 58 0
-773 772 0
-774 178 227 123 125 228 733 237 238 0
774 -178 0
774 -227 0
774 -123 0
774 -125 0
774 -228 0
774 -733 0
774 -237 0
774 -238 0
775 -180 -774 0
-775 180 0
-775 774 0
-776 182 775 0
776 -182 0
776 -775 0
777 -432 -776 0
-777 432 0
-777 776 0
-778 178 342 301 302 343 733 346 349 0
778 -178 0
778 -342 0
778 -301 0
778 -302 0
778 -343 0
778 -733 0
778 -346 0
778 -349 0
779 -224 -778 0
-779 224 0
-779 778 0
-780 3 779 0
780 -3 0
780 -779 0
781 -62 -780 0
-781 62 0
-781 780 0
-782 66 781 63 0
782 -66 0
782 -781 0
782 -63 0
783 -68 -782 0
-783 68 0
-783 782 0
-784 178 199 319 733 322 0
784 -178 0
784 -199 0
784 -319 0
784 -733 0
784 -322 0
785 -224 -784 0
-785 224 0
-785 784 0
-786 3 785 0
786 -3 0
786 -785 0
787 -2 -786 0
-787 2 0
-787 786 0
788 -180 -784 0
-788 180 0
-788 784 0
-789 182 788 0
789 -182 0
789 -788 0
790 -243 -789 0
-790 243 0
-790 789 0
-791 5 787 790 0
791 -5 0
791 -787 0
791 -790 0
792 -70 -791 0
-792 70 0
-792 791 0
-793 178 199 319 733 462 0
793 -178 0
793 -199 0
793 -319 0
793 -733 0
793 -462 0
794 -224 -793 0
-794 224 0
-794 793 0
-795 3 794 0
795 -3 0
795 -794 0
796 -2 -795 0
-796 2 0
-796 795 0
797 -180 -793 0
-797 180 0
-797 793 0
-798 182 797 0
798 -182 0
798 -797 0
799 -243 -798 0
-799 243 0
-799 798 0
-800 5 796 799 0
800 -5 0
800 -796 0
800 -799 0
801 -72 -800 0
-801 72 0
-801 800 0
-802 76 801 0
802 -76 0
802 -801 0
803 -78 -802 0
-803 78 0
-803 802 0
-804 178 267 268 759 733 462 0
804 -178 0
804 -267 0
804 -268 0
804 -759 0
804 -733 0
804 -462 0
805 -530 -804 0
-805 530 0
-805 804 0
806 -80 -800 0
-806 80 0
-806 800 0
807 -534 -804 0
-807 534 0
-807 804 0
-808 82 806 807 0
808 -82 0
808 -806 0
808 -807 0
809 -84 -808 0
-809 84 0
-809 808 0
-810 86 805 809 0
810 -86 0
810 -805 0
810 -809 0
811 -88 -810 0
-811 88 0
-811 810 0
-812 90 792 803 811 0
812 -90 0
812 -792 0
812 -803 0
812 -811 0
813 -92 -812 0
-813 92 0
-813 812 0
-814 94 813 0
814 -94 0
814 -813 0
815 -96 -814 0
-815 96 0
-815 814 0
-816 98 757 770 773 777 59 783 815 0
816 -98 0
816 -757 0
816 -770 0
816 -773 0
816 -777 0
816 -59 0
816 -783 0
816 -815 0
817 -115 -816 0
-817 115 0
-817 816 0
-818 98 714 546 547 59 67 569 0
818 -98 0
818 -714 0
818 -546 0
818 -547 0
818 -59 0
818 -67 0
818 -569 0
819 -100 -818 0
-819 100 0
-819 818 0
-820 178 819 318 199 319 733 322 325 0
820 -178 0
820 -819 0
820 -318 0
820 -199 0
820 -319 0
820 -733 0
820 -322 0
820 -325 0
821 -224 -820 0
-821 224 0
-821 820 0
-822 3 821 0
822 -3 0
822 -821 0
823 -2 -822 0
-823 2 0
-823 822 0
824 -180 -820 0
-824 180 0
-824 820 0
-825 182 824 0
825 -182 0
825 -824 0
826 -243 -825 0
-826 243 0
-826 825 0
-827 5 823 826 0
827 -5 0
827 -823 0
827 -826 0
828 -13 -827 0
-828 13 0
-828 827 0
-829 98 6 714 57 59 67 95 0
829 -98 0
829 -6 0
829 -714 0
829 -57 0
829 -59 0
829 -67 0
829 -95 0
830 -100 -829 0
-830 100 0
-830 829 0
-831 178 830 758 123 125 759 733 762 763 0
831 -178 0
831 -830 0
831 -758 0
831 -123 0
831 -125 0
831 -759 0
831 -733 0
831 -762 0
831 -763 0
832 -180 -831 0
-832 180 0
-832 831 0
-833 182 832 0
833 -182 0
833 -832 0
834 -186 -833 0
-834 186 0
-834 833 0
835 -7 -281 0
-835 7 0
-835 281 0
836 -58 -286 0
-836 58 0
-836 286 0
837 -96 -348 0
-837 96 0
-837 348 0
-838 98 835 714 836 547 59 67 837 0
838 -98 0
838 -835 0
838 -714 0
838 -836 0
838 -547 0
838 -59 0
838 -67 0
838 -837 0
839 -100 -838 0
-839 100 0
-839 838 0
-840 178 839 342 301 302 343 733 346 349 0
840 -178 0
840 -839 0
840 -342 0
840 -301 0
840 -302 0
840 -343 0
840 -733 0
840 -346 0
840 -349 0
841 -224 -840 0
-841 224 0
-841 840 0
-842 3 841 0
842 -3 0
842 -841 0
843 -18 -842 0
-843 18 0
-843 842 0
844 -20 -827 0
-844 20 0
-844 827 0
-845 22 844 0
845 -22 0
845 -844 0
846 -24 -845 0
-846 24 0
-846 845 0
-847 26 843 846 0
847 -26 0
847 -843 0
847 -846 0
848 -28 -847 0
-848 28 0
-848 847 0
-849 30 817 828 834 14 848 0
849 -30 0
849 -817 0
849 -828 0
849 -834 0
849 -14 0
849 -848 0
850 -32 -849 0
-850 32 0
-850 849 0
851 -56 -54 0
-851 56 0
-851 54 0
852 -96 -308 0
-852 96 0
-852 308 0
-853 98 835 851 836 547 59 67 852 0
853 -98 0
853 -835 0
853 -851 0
853 -836 0
853 -547 0
853 -59 0
853 -67 0
853 -852 0
854 -100 -853 0
-854 100 0
-854 853 0
-855 98 835 604 836 547 59 67 112 0
855 -98 0
855 -835 0
855 -604 0
855 -836 0
855 -547 0
855 -59 0
855 -67 0
855 -112 0
856 -115 -855 0
-856 115 0
-856 855 0
-857 30 856 284 185 14 289 0
857 -30 0
857 -856 0
857 -284 0
857 -185 0
857 -14 0
857 -289 0
858 -74 -857 0
-858 74 0
-858 857 0
-859 76 283 858 0
859 -76 0
859 -283 0
859 -858 0
860 -78 -859 0
-860 78 0
-860 859 0
-861 90 282 860 298 0
861 -90 0
861 -282 0
861 -860 0
861 -298 0
862 -122 -861 0
-862 122 0
-862 861 0
-863 90 282 298 0
863 -90 0
863 -282 0
863 -298 0
864 -92 -863 0
-864 92 0
-864 863 0
-865 94 864 0
865 -94 0
865 -864 0
866 -96 -865 0
-866 96 0
-866 865 0
-867 98 835 604 836 547 59 67 866 0
867 -98 0
867 -835 0
867 -604 0
867 -836 0
867 -547 0
867 -59 0
867 -67 0
867 -866 0
868 -115 -867 0
-868 115 0
-868 867 0
-869 30 868 284 185 14 289 0
869 -30 0
869 -868 0
869 -284 0
869 -185 0
869 -14 0
869 -289 0
870 -74 -869 0
-870 74 0
-870 869 0
-871 76 283 870 0
871 -76 0
871 -283 0
871 -870 0
872 -137 -871 0
-872 137 0
-872 871 0
873 -155 -54 0
-873 155 0
-873 54 0
-874 157 873 210 0
874 -157 0
874 -873 0
874 -210 0
875 -159 -874 0
-875 159 0
-875 874 0
876 -161 -861 0
-876 161 0
-876 861 0
-877 163 876 215 0
877 -163 0
877 -876 0
877 -215 0
878 -165 -877 0
-878 165 0
-878 877 0
-879 98 835 604 836 547 59 67 0
879 -98 0
879 -835 0
879 -604 0
879 -836 0
879 -547 0
879 -59 0
879 -67 0
880 -115 -879 0
-880 115 0
-880 879 0
-881 30 880 284 185 14 289 0
881 -30 0
881 -880 0
881 -284 0
881 -185 0
881 -14 0
881 -289 0
882 -74 -881 0
-882 74 0
-882 881 0
-883 76 283 882 0
883 -76 0
883 -283 0
883 -882 0
884 -78 -883 0
-884 78 0
-884 883 0
-885 90 282 884 298 0
885 -90 0
885 -282 0
885 -884 0
885 -298 0
886 -92 -885 0
-886 92 0
-886 885 0
-887 94 886 0
887 -94 0
887 -886 0
888 -176 -887 0
-888 176 0
-888 887 0
-889 178 854 862 301 302 872 875 878 888 0
889 -178 0
889 -854 0
889 -862 0
889 -301 0
889 -302 0
889 -872 0
889 -875 0
889 -878 0
889 -888 0
890 -224 -889 0
-890 224 0
-890 889 0
-891 3 890 0
891 -3 0
891 -890 0
892 -9 -891 0
-892 9 0
-892 891 0
-893 50 892 710 0
893 -50 0
893 -892 0
893 -710 0
894 -895 -893 0
-894 895 0
-894 893 0
-896 36 748 850 894 33 0
896 -36 0
896 -748 0
896 -850 0
896 -894 0
896 -33 0
897 -38 -896 0
-897 38 0
-897 896 0
-898 40 544 649 708 897 0
898 -40 0
898 -544 0
898 -649 0
898 -708 0
898 -897 0
899 -900 -898 0
-899 900 0
-899 898 0
-901 30 681 12 14 27 0
901 -30 0
901 -681 0
901 -12 0
901 -14 0
901 -27 0
902 -32 -901 0
-902 32 0
-902 901 0
-903 36 902 33 0
903 -36 0
903 -902 0
903 -33 0
904 -38 -903 0
-904 38 0
-904 903 0
-905 40 139 10 904 0
905 -40 0
905 -139 0
905 -10 0
905 -904 0
906 -42 -905 0
-906 42 0
-906 905 0
907 -44 -903 0
-907 44 0
-907 903 0
-908 46 907 0
908 -46 0
908 -907 0
909 -48 -908 0
-909 48 0
-909 908 0
-910 50 8 906 909 0
910 -50 0
910 -8 0
910 -906 0
910 -909 0
911 -52 -910 0
-911 52 0
-911 910 0
-912 54 911 0
912 -54 0
912 -911 0
913 -155 -912 0
-913 155 0
-913 912 0
-914 157 913 0
914 -157 0
914 -913 0
915 -159 -914 0
-915 159 0
-915 914 0
-916 178 99 121 123 125 136 915 164 175 0
916 -178 0
916 -99 0
916 -121 0
916 -123 0
916 -125 0
916 -136 0
916 -915 0
916 -164 0
916 -175 0
917 -180 -916 0
-917 180 0
-917 916 0
-918 182 917 0
918 -182 0
918 -917 0
919 -920 -918 0
-919 920 0
-919 918 0
921 -11 -281 0
-921 11 0
-921 281 0
922 -38 -434 0
-922 38 0
-922 434 0
-923 40 921 922 0
923 -40 0
923 -921 0
923 -922 0
924 -42 -923 0
-924 42 0
-924 923 0
-925 50 8 924 437 0
925 -50 0
925 -8 0
925 -924 0
925 -437 0
926 -52 -925 0
-926 52 0
-926 925 0
-927 54 926 0
927 -54 0
927 -926 0
928 -56 -927 0
-928 56 0
-928 927 0
-929 98 835 928 836 547 59 67 852 0
929 -98 0
929 -835 0
929 -928 0
929 -836 0
929 -547 0
929 -59 0
929 -67 0
929 -852 0
930 -100 -929 0
-930 100 0
-930 929 0
-931 98 835 928 836 547 59 67 112 0
931 -98 0
931 -835 0
931 -928 0
931 -836 0
931 -547 0
931 -59 0
931 -67 0
931 -112 0
932 -115 -931 0
-932 115 0
-932 931 0
-933 30 932 284 185 14 289 0
933 -30 0
933 -932 0
933 -284 0
933 -185 0
933 -14 0
933 -289 0
934 -74 -933 0
-934 74 0
-934 933 0
-935 76 283 934 0
935 -76 0
935 -283 0
935 -934 0
936 -78 -935 0
-936 78 0
-936 935 0
-937 90 282 936 298 0
937 -90 0
937 -282 0
937 -936 0
937 -298 0
938 -122 -937 0
-938 122 0
-938 937 0
-939 98 835 928 836 547 59 67 866 0
939 -98 0
939 -835 0
939 -928 0
939 -836 0
939 -547 0
939 -59 0
939 -67 0
939 -866 0
940 -115 -939 0
-940 115 0
-940 939 0
-941 30 940 284 185 14 289 0
941 -30 0
941 -940 0
941 -284 0
941 -185 0
941 -14 0
941 -289 0
942 -74 -941 0
-942 74 0
-942 941 0
-943 76 283 942 0
943 -76 0
943 -283 0
943 -942 0
944 -137 -943 0
-944 137 0
-944 943 0
-945 98 835 836 547 59 67 852 0
945 -98 0
945 -835 0
945 -836 0
945 -547 0
945 -59 0
945 -67 0
945 -852 0
946 -140 -945 0
-946 140 0
-946 945 0
-947 98 835 836 547 59 67 837 0
947 -98 0
947 -835 0
947 -836 0
947 -547 0
947 -59 0
947 -67 0
947 -837 0
948 -115 -947 0
-948 115 0
-948 947 0
-949 30 948 284 185 14 289 0
949 -30 0
949 -948 0
949 -284 0
949 -185 0
949 -14 0
949 -289 0
950 -32 -949 0
-950 32 0
-950 949 0
-951 36 950 33 0
951 -36 0
951 -950 0
951 -33 0
952 -38 -951 0
-952 38 0
-952 951 0
-953 40 946 921 952 0
953 -40 0
953 -946 0
953 -921 0
953 -952 0
954 -42 -953 0
-954 42 0
-954 953 0
955 -44 -951 0
-955 44 0
-955 951 0
-956 46 955 0
956 -46 0
956 -955 0
957 -48 -956 0
-957 48 0
-957 956 0
-958 50 8 954 957 0
958 -50 0
958 -8 0
958 -954 0
958 -957 0
959 -52 -958 0
-959 52 0
-959 958 0
-960 54 959 0
960 -54 0
960 -959 0
961 -155 -960 0
-961 155 0
-961 960 0
-962 157 961 210 0
962 -157 0
962 -961 0
962 -210 0
963 -159 -962 0
-963 159 0
-963 962 0
964 -161 -937 0
-964 161 0
-964 937 0
-965 163 964 215 0
965 -163 0
965 -964 0
965 -215 0
966 -165 -965 0
-966 165 0
-966 965 0
-967 98 835 928 836 547 59 67 0
967 -98 0
967 -835 0
967 -928 0
967 -836 0
967 -547 0
967 -59 0
967 -67 0
968 -115 -967 0
-968 115 0
-968 967 0
-969 30 968 284 185 14 289 0
969 -30 0
969 -968 0
969 -284 0
969 -185 0
969 -14 0
969 -289 0
970 -74 -969 0
-970 74 0
-970 969 0
-971 76 283 970 0
971 -76 0
971 -283 0
971 -970 0
972 -78 -971 0
-972 78 0
-972 971 0
-973 90 282 972 298 0
973 -90 0
973 -282 0
973 -972 0
973 -298 0
974 -92 -973 0
-974 92 0
-974 973 0
-975 94 974 0
975 -94 0
975 -974 0
976 -176 -975 0
-976 176 0
-976 975 0
-977 178 930 938 301 302 944 963 966 976 0
977 -178 0
977 -930 0
977 -938 0
977 -301 0
977 -302 0
977 -944 0
977 -963 0
977 -966 0
977 -976 0
978 -224 -977 0
-978 224 0
-978 977 0
-979 3 978 0
979 -3 0
979 -978 0
980 -981 -979 0
-980 981 0
-980 979 0
982 -155 -927 0
-982 155 0
-982 927 0
-983 157 982 210 0
983 -157 0
983 -982 0
983 -210 0
984 -159 -983 0
-984 159 0
-984 983 0
-985 178 198 199 200 984 218 221 0
985 -178 0
985 -198 0
985 -199 0
985 -200 0
985 -984 0
985 -218 0
985 -221 0
986 -224 -985 0
-986 224 0
-986 985 0
-987 3 986 0
987 -3 0
987 -986 0
988 -2 -987 0
-988 2 0
-988 987 0
989 -155 -53 0
-989 155 0
-989 53 0
-990 157 989 0
990 -157 0
990 -989 0
991 -159 -990 0
-991 159 0
-991 990 0
-992 178 227 123 125 228 991 237 238 0
992 -178 0
992 -227 0
992 -123 0
992 -125 0
992 -228 0
992 -991 0
992 -237 0
992 -238 0
993 -180 -992 0
-993 180 0
-993 992 0
-994 182 993 0
994 -182 0
994 -993 0
995 -243 -994 0
-995 243 0
-995 994 0
-996 5 988 995 0
996 -5 0
996 -988 0
996 -995 0
997 -7 -996 0
-997 7 0
-997 996 0
-998 178 198 199 200 271 218 221 0
998 -178 0
998 -198 0
998 -199 0
998 -200 0
998 -271 0
998 -218 0
998 -221 0
999 -224 -998 0
-999 224 0
-999 998 0
-1000 3 999 0
1000 -3 0
1000 -999 0
1001 -2 -1000 0
-1001 2 0
-1001 1000 0
1002 -243 -337 0
-1002 243 0
-1002 337 0
-1003 5 1001 1002 0
1003 -5 0
1003 -1001 0
1003 -1002 0
1004 -11 -1003 0
-1004 11 0
-1004 1003 0
1005 -709 -278 0
-1005 709 0
-1005 278 0
1006 -38 -361 0
-1006 38 0
-1006 361 0
-1007 40 1004 1005 1006 0
1007 -40 0
1007 -1004 0
1007 -1005 0
1007 -1006 0
1008 -42 -1007 0
-1008 42 0
-1008 1007 0
-1009 50 313 1008 364 0
1009 -50 0
1009 -313 0
1009 -1008 0
1009 -364 0
1010 -52 -1009 0
-1010 52 0
-1010 1009 0
-1011 54 279 1010 0
1011 -54 0
1011 -279 0
1011 -1010 0
1012 -56 -1011 0
-1012 56 0
-1012 1011 0
1013 -38 -379 0
-1013 38 0
-1013 379 0
-1014 40 921 1013 0
1014 -40 0
1014 -921 0
1014 -1013 0
1015 -42 -1014 0
-1015 42 0
-1015 1014 0
-1016 50 8 1015 382 0
1016 -50 0
1016 -8 0
1016 -1015 0
1016 -382 0
1017 -52 -1016 0
-1017 52 0
-1017 1016 0
-1018 54 1017 0
1018 -54 0
1018 -1017 0
1019 -155 -1018 0
-1019 155 0
-1019 1018 0
-1020 157 1019 210 0
1020 -157 0
1020 -1019 0
1020 -210 0
1021 -159 -1020 0
-1021 159 0
-1021 1020 0
-1022 178 376 199 377 1021 391 394 0
1022 -178 0
1022 -376 0
1022 -199 0
1022 -377 0
1022 -1021 0
1022 -391 0
1022 -394 0
1023 -224 -1022 0
-1023 224 0
-1023 1022 0
-1024 3 1023 0
1024 -3 0
1024 -1023 0
1025 -2 -1024 0
-1025 2 0
-1025 1024 0
1026 -38 -407 0
-1026 38 0
-1026 407 0
-1027 40 10 1026 0
1027 -40 0
1027 -10 0
1027 -1026 0
1028 -42 -1027 0
-1028 42 0
-1028 1027 0
-1029 50 8 1028 410 0
1029 -50 0
1029 -8 0
1029 -1028 0
1029 -410 0
1030 -52 -1029 0
-1030 52 0
-1030 1029 0
-1031 54 1030 0
1031 -54 0
1031 -1030 0
1032 -155 -1031 0
-1032 155 0
-1032 1031 0
-1033 157 1032 0
1033 -157 0
1033 -1032 0
1034 -159 -1033 0
-1034 159 0
-1034 1033 0
-1035 178 404 123 199 405 1034 419 422 0
1035 -178 0
1035 -404 0
1035 -123 0
1035 -199 0
1035 -405 0
1035 -1034 0
1035 -419 0
1035 -422 0
1036 -180 -1035 0
-1036 180 0
-1036 1035 0
-1037 182 1036 0
1037 -182 0
1037 -1036 0
1038 -243 -1037 0
-1038 243 0
-1038 1037 0
-1039 5 1025 1038 0
1039 -5 0
1039 -1025 0
1039 -1038 0
1040 -20 -1039 0
-1040 20 0
-1040 1039 0
-1041 22 1040 0
1041 -22 0
1041 -1040 0
1042 -58 -1041 0
-1042 58 0
-1042 1041 0
1043 -432 -994 0
-1043 432 0
-1043 994 0
-1044 178 300 301 302 303 984 306 309 0
1044 -178 0
1044 -300 0
1044 -301 0
1044 -302 0
1044 -303 0
1044 -984 0
1044 -306 0
1044 -309 0
1045 -224 -1044 0
-1045 224 0
-1045 1044 0
-1046 3 1045 0
1046 -3 0
1046 -1045 0
1047 -62 -1046 0
-1047 62 0
-1047 1046 0
-1048 66 1047 63 0
1048 -66 0
1048 -1047 0
1048 -63 0
1049 -68 -1048 0
-1049 68 0
-1049 1048 0
-1050 178 199 200 984 218 0
1050 -178 0
1050 -199 0
1050 -200 0
1050 -984 0
1050 -218 0
1051 -224 -1050 0
-1051 224 0
-1051 1050 0
-1052 3 1051 0
1052 -3 0
1052 -1051 0
1053 -2 -1052 0
-1053 2 0
-1053 1052 0
-1054 178 123 125 228 991 454 0
1054 -178 0
1054 -123 0
1054 -125 0
1054 -228 0
1054 -991 0
1054 -454 0
1055 -180 -1054 0
-1055 180 0
-1055 1054 0
-1056 182 1055 0
1056 -182 0
1056 -1055 0
1057 -243 -1056 0
-1057 243 0
-1057 1056 0
-1058 5 1053 1057 0
1058 -5 0
1058 -1053 0
1058 -1057 0
1059 -70 -1058 0
-1059 70 0
-1059 1058 0
-1060 178 199 200 984 462 0
1060 -178 0
1060 -199 0
1060 -200 0
1060 -984 0
1060 -462 0
1061 -224 -1060 0
-1061 224 0
-1061 1060 0
-1062 3 1061 0
1062 -3 0
1062 -1061 0
1063 -2 -1062 0
-1063 2 0
-1063 1062 0
-1064 178 123 125 991 454 0
1064 -178 0
1064 -123 0
1064 -125 0
1064 -991 0
1064 -454 0
1065 -180 -1064 0
-1065 180 0
-1065 1064 0
-1066 182 1065 0
1066 -182 0
1066 -1065 0
1067 -243 -1066 0
-1067 243 0
-1067 1066 0
-1068 5 1063 1067 0
1068 -5 0
1068 -1063 0
1068 -1067 0
1069 -72 -1068 0
-1069 72 0
-1069 1068 0
-1070 40 921 102 0
1070 -40 0
1070 -921 0
1070 -102 0
1071 -42 -1070 0
-1071 42 0
-1071 1070 0
-1072 50 8 1071 107 0
1072 -50 0
1072 -8 0
1072 -1071 0
1072 -107 0
1073 -52 -1072 0
-1073 52 0
-1073 1072 0
-1074 54 1073 0
1074 -54 0
1074 -1073 0
1075 -155 -1074 0
-1075 155 0
-1075 1074 0
-1076 157 1075 210 0
1076 -157 0
1076 -1075 0
1076 -210 0
1077 -159 -1076 0
-1077 159 0
-1077 1076 0
-1078 178 199 319 1077 462 0
1078 -178 0
1078 -199 0
1078 -319 0
1078 -1077 0
1078 -462 0
1079 -224 -1078 0
-1079 224 0
-1079 1078 0
-1080 3 1079 0
1080 -3 0
1080 -1079 0
1081 -2 -1080 0
-1081 2 0
-1081 1080 0
1082 -155 -110 0
-1082 155 0
-1082 110 0
-1083 157 1082 0
1083 -157 0
1083 -1082 0
1084 -159 -1083 0
-1084 159 0
-1084 1083 0
-1085 178 123 125 319 1084 454 0
1085 -178 0
1085 -123 0
1085 -125 0
1085 -319 0
1085 -1084 0
1085 -454 0
1086 -180 -1085 0
-1086 180 0
-1086 1085 0
-1087 182 1086 0
1087 -182 0
1087 -1086 0
1088 -243 -1087 0
-1088 243 0
-1088 1087 0
-1089 5 1081 1088 0
1089 -5 0
1089 -1081 0
1089 -1088 0
1090 -13 -1089 0
-1090 13 0
-1090 1089 0
-1091 178 123 125 1084 454 0
1091 -178 0
1091 -123 0
1091 -125 0
1091 -1084 0
1091 -454 0
1092 -180 -1091 0
-1092 180 0
-1092 1091 0
-1093 182 1092 0
1093 -182 0
1093 -1092 0
1094 -186 -1093 0
-1094 186 0
-1094 1093 0
-1095 178 301 302 343 1077 462 0
1095 -178 0
1095 -301 0
1095 -302 0
1095 -343 0
1095 -1077 0
1095 -462 0
1096 -224 -1095 0
-1096 224 0
-1096 1095 0
-1097 3 1096 0
1097 -3 0
1097 -1096 0
1098 -18 -1097 0
-1098 18 0
-1098 1097 0
-1099 178 123 199 319 1084 454 0
1099 -178 0
1099 -123 0
1099 -199 0
1099 -319 0
1099 -1084 0
1099 -454 0
1100 -180 -1099 0
-1100 180 0
-1100 1099 0
-1101 182 1100 0
1101 -182 0
1101 -1100 0
1102 -243 -1101 0
-1102 243 0
-1102 1101 0
-1103 5 1081 1102 0
1103 -5 0
1103 -1081 0
1103 -1102 0
1104 -20 -1103 0
-1104 20 0
-1104 1103 0
-1105 22 1104 0
1105 -22 0
1105 -1104 0
1106 -24 -1105 0
-1106 24 0
-1106 1105 0
-1107 26 1098 1106 0
1107 -26 0
1107 -1098 0
1107 -1106 0
1108 -28 -1107 0
-1108 28 0
-1108 1107 0
-1109 30 1090 1094 14 1108 0
1109 -30 0
1109 -1090 0
1109 -1094 0
1109 -14 0
1109 -1108 0
1110 -74 -1109 0
-1110 74 0
-1110 1109 0
-1111 76 1069 1110 0
1111 -76 0
1111 -1069 0
1111 -1110 0
1112 -78 -1111 0
-1112 78 0
-1112 1111 0
1113 -11 -247 0
-1113 11 0
-1113 247 0
1114 -38 -518 0
-1114 38 0
-1114 518 0
-1115 40 1113 1114 0
1115 -40 0
1115 -1113 0
1115 -1114 0
1116 -42 -1115 0
-1116 42 0
-1116 1115 0
-1117 50 8 1116 521 0
1117 -50 0
1117 -8 0
1117 -1116 0
1117 -521 0
1118 -52 -1117 0
-1118 52 0
-1118 1117 0
-1119 54 1118 0
1119 -54 0
1119 -1118 0
1120 -155 -1119 0
-1120 155 0
-1120 1119 0
-1121 157 1120 210 0
1121 -157 0
1121 -1120 0
1121 -210 0
1122 -159 -1121 0
-1122 159 0
-1122 1121 0
-1123 178 267 268 269 1122 462 0
1123 -178 0
1123 -267 0
1123 -268 0
1123 -269 0
1123 -1122 0
1123 -462 0
1124 -530 -1123 0
-1124 530 0
-1124 1123 0
-1125 5 1063 1057 0
1125 -5 0
1125 -1063 0
1125 -1057 0
1126 -80 -1125 0
-1126 80 0
-1126 1125 0
1127 -534 -1123 0
-1127 534 0
-1127 1123 0
-1128 82 1126 1127 0
1128 -82 0
1128 -1126 0
1128 -1127 0
1129 -84 -1128 0
-1129 84 0
-1129 1128 0
-1130 86 1124 1129 0
1130 -86 0
1130 -1124 0
1130 -1129 0
1131 -88 -1130 0
-1131 88 0
-1131 1130 0
-1132 90 1059 1112 1131 0
1132 -90 0
1132 -1059 0
1132 -1112 0
1132 -1131 0
1133 -92 -1132 0
-1133 92 0
-1133 1132 0
-1134 94 1133 0
1134 -94 0
1134 -1133 0
1135 -96 -1134 0
-1135 96 0
-1135 1134 0
-1136 98 997 1012 1042 1043 59 1049 1135 0
1136 -98 0
1136 -997 0
1136 -1012 0
1136 -1042 0
1136 -1043 0
1136 -59 0
1136 -1049 0
1136 -1135 0
1137 -1138 -1136 0
-1137 1138 0
-1137 1136 0
-1139 98 650 652 547 59 67 653 0
1139 -98 0
1139 -650 0
1139 -652 0
1139 -547 0
1139 -59 0
1139 -67 0
1139 -653 0
1140 -100 -1139 0
-1140 100 0
-1140 1139 0
-1141 98 650 652 547 59 67 112 0
1141 -98 0
1141 -650 0
1141 -652 0
1141 -547 0
1141 -59 0
1141 -67 0
1141 -112 0
1142 -115 -1141 0
-1142 115 0
-1142 1141 0
-1143 30 1142 250 185 14 255 0
1143 -30 0
1143 -1142 0
1143 -250 0
1143 -185 0
1143 -14 0
1143 -255 0
1144 -74 -1143 0
-1144 74 0
-1144 1143 0
-1145 76 249 1144 0
1145 -76 0
1145 -249 0
1145 -1144 0
1146 -78 -1145 0
-1146 78 0
-1146 1145 0
-1147 90 248 1146 264 0
1147 -90 0
1147 -248 0
1147 -1146 0
1147 -264 0
1148 -122 -1147 0
-1148 122 0
-1148 1147 0
-1149 98 650 652 547 59 67 667 0
1149 -98 0
1149 -650 0
1149 -652 0
1149 -547 0
1149 -59 0
1149 -67 0
1149 -667 0
1150 -115 -1149 0
-1150 115 0
-1150 1149 0
-1151 30 1150 250 185 14 255 0
1151 -30 0
1151 -1150 0
1151 -250 0
1151 -185 0
1151 -14 0
1151 -255 0
1152 -74 -1151 0
-1152 74 0
-1152 1151 0
-1153 76 249 1152 0
1153 -76 0
1153 -249 0
1153 -1152 0
1154 -137 -1153 0
-1154 137 0
-1154 1153 0
1155 -161 -1147 0
-1155 161 0
-1155 1147 0
-1156 163 1155 215 0
1156 -163 0
1156 -1155 0
1156 -215 0
1157 -165 -1156 0
-1157 165 0
-1157 1156 0
-1158 98 650 652 547 59 67 0
1158 -98 0
1158 -650 0
1158 -652 0
1158 -547 0
1158 -59 0
1158 -67 0
1159 -115 -1158 0
-1159 115 0
-1159 1158 0
-1160 30 1159 250 185 14 255 0
1160 -30 0
1160 -1159 0
1160 -250 0
1160 -185 0
1160 -14 0
1160 -255 0
1161 -74 -1160 0
-1161 74 0
-1161 1160 0
-1162 76 249 1161 0
1162 -76 0
1162 -249 0
1162 -1161 0
1163 -78 -1162 0
-1163 78 0
-1163 1162 0
-1164 90 248 1163 264 0
1164 -90 0
1164 -248 0
1164 -1163 0
1164 -264 0
1165 -92 -1164 0
-1165 92 0
-1165 1164 0
-1166 94 1165 0
1166 -94 0
1166 -1165 0
1167 -176 -1166 0
-1167 176 0
-1167 1166 0
-1168 178 1140 1148 267 268 1154 271 1157 1167 0
1168 -178 0
1168 -1140 0
1168 -1148 0
1168 -267 0
1168 -268 0
1168 -1154 0
1168 -271 0
1168 -1157 0
1168 -1167 0
1169 -280 -1168 0
-1169 280 0
-1169 1168 0
1170 -100 -945 0
-1170 100 0
-1170 945 0
-1171 98 835 836 547 59 67 112 0
1171 -98 0
1171 -835 0
1171 -836 0
1171 -547 0
1171 -59 0
1171 -67 0
1171 -112 0
1172 -115 -1171 0
-1172 115 0
-1172 1171 0
-1173 30 1172 284 185 14 289 0
1173 -30 0
1173 -1172 0
1173 -284 0
1173 -185 0
1173 -14 0
1173 -289 0
1174 -74 -1173 0
-1174 74 0
-1174 1173 0
-1175 76 283 1174 0
1175 -76 0
1175 -283 0
1175 -1174 0
1176 -78 -1175 0
-1176 78 0
-1176 1175 0
-1177 90 282 1176 298 0
1177 -90 0
1177 -282 0
1177 -1176 0
1177 -298 0
1178 -122 -1177 0
-1178 122 0
-1178 1177 0
-1179 98 835 836 547 59 67 866 0
1179 -98 0
1179 -835 0
1179 -836 0
1179 -547 0
1179 -59 0
1179 -67 0
1179 -866 0
1180 -115 -1179 0
-1180 115 0
-1180 1179 0
-1181 30 1180 284 185 14 289 0
1181 -30 0
1181 -1180 0
1181 -284 0
1181 -185 0
1181 -14 0
1181 -289 0
1182 -74 -1181 0
-1182 74 0
-1182 1181 0
-1183 76 283 1182 0
1183 -76 0
1183 -283 0
1183 -1182 0
1184 -137 -1183 0
-1184 137 0
-1184 1183 0
1185 -161 -1177 0
-1185 161 0
-1185 1177 0
-1186 163 1185 215 0
1186 -163 0
1186 -1185 0
1186 -215 0
1187 -165 -1186 0
-1187 165 0
-1187 1186 0
-1188 98 835 836 547 59 67 0
1188 -98 0
1188 -835 0
1188 -836 0
1188 -547 0
1188 -59 0
1188 -67 0
1189 -115 -1188 0
-1189 115 0
-1189 1188 0
-1190 30 1189 284 185 14 289 0
1190 -30 0
1190 -1189 0
1190 -284 0
1190 -185 0
1190 -14 0
1190 -289 0
1191 -74 -1190 0
-1191 74 0
-1191 1190 0
-1192 76 283 1191 0
1192 -76 0
1192 -283 0
1192 -1191 0
1193 -78 -1192 0
-1193 78 0
-1193 1192 0
-1194 90 282 1193 298 0
1194 -90 0
1194 -282 0
1194 -1193 0
1194 -298 0
1195 -92 -1194 0
-1195 92 0
-1195 1194 0
-1196 94 1195 0
1196 -94 0
1196 -1195 0
1197 -176 -1196 0
-1197 176 0
-1197 1196 0
-1198 178 1170 1178 301 302 1184 271 1187 1197 0
1198 -178 0
1198 -1170 0
1198 -1178 0
1198 -301 0
1198 -302 0
1198 -1184 0
1198 -271 0
1198 -1187 0
1198 -1197 0
1199 -224 -1198 0
-1199 224 0
-1199 1198 0
-1200 3 1199 0
1200 -3 0
1200 -1199 0
1201 -9 -1200 0
-1201 9 0
-1201 1200 0
1202 -7 -1003 0
-1202 7 0
-1202 1003 0
-1203 178 376 199 377 271 391 394 0
1203 -178 0
1203 -376 0
1203 -199 0
1203 -377 0
1203 -271 0
1203 -391 0
1203 -394 0
1204 -224 -1203 0
-1204 224 0
-1204 1203 0
-1205 3 1204 0
1205 -3 0
1205 -1204 0
1206 -2 -1205 0
-1206 2 0
-1206 1205 0
-1207 178 404 123 199 405 271 419 422 0
1207 -178 0
1207 -404 0
1207 -123 0
1207 -199 0
1207 -405 0
1207 -271 0
1207 -419 0
1207 -422 0
1208 -180 -1207 0
-1208 180 0
-1208 1207 0
-1209 182 1208 0
1209 -182 0
1209 -1208 0
1210 -243 -1209 0
-1210 243 0
-1210 1209 0
-1211 5 1206 1210 0
1211 -5 0
1211 -1206 0
1211 -1210 0
1212 -20 -1211 0
-1212 20 0
-1212 1211 0
-1213 22 1212 0
1213 -22 0
1213 -1212 0
1214 -58 -1213 0
-1214 58 0
-1214 1213 0
1215 -432 -337 0
-1215 432 0
-1215 337 0
1216 -62 -312 0
-1216 62 0
-1216 312 0
-1217 66 1216 63 0
1217 -66 0
1217 -1216 0
1217 -63 0
1218 -68 -1217 0
-1218 68 0
-1218 1217 0
-1219 178 199 200 271 218 0
1219 -178 0
1219 -199 0
1219 -200 0
1219 -271 0
1219 -218 0
1220 -224 -1219 0
-1220 224 0
-1220 1219 0
-1221 3 1220 0
1221 -3 0
1221 -1220 0
1222 -2 -1221 0
-1222 2 0
-1222 1221 0
-1223 178 123 125 228 271 454 0
1223 -178 0
1223 -123 0
1223 -125 0
1223 -228 0
1223 -271 0
1223 -454 0
1224 -180 -1223 0
-1224 180 0
-1224 1223 0
-1225 182 1224 0
1225 -182 0
1225 -1224 0
1226 -243 -1225 0
-1226 243 0
-1226 1225 0
-1227 5 1222 1226 0
1227 -5 0
1227 -1222 0
1227 -1226 0
1228 -70 -1227 0
-1228 70 0
-1228 1227 0
-1229 178 199 200 271 462 0
1229 -178 0
1229 -199 0
1229 -200 0
1229 -271 0
1229 -462 0
1230 -224 -1229 0
-1230 224 0
-1230 1229 0
-1231 3 1230 0
1231 -3 0
1231 -1230 0
1232 -2 -1231 0
-1232 2 0
-1232 1231 0
-1233 178 123 125 271 454 0
1233 -178 0
1233 -123 0
1233 -125 0
1233 -271 0
1233 -454 0
1234 -180 -1233 0
-1234 180 0
-1234 1233 0
-1235 182 1234 0
1235 -182 0
1235 -1234 0
1236 -243 -1235 0
-1236 243 0
-1236 1235 0
-1237 5 1232 1236 0
1237 -5 0
1237 -1232 0
1237 -1236 0
1238 -72 -1237 0
-1238 72 0
-1238 1237 0
-1239 178 199 319 271 462 0
1239 -178 0
1239 -199 0
1239 -319 0
1239 -271 0
1239 -462 0
1240 -224 -1239 0
-1240 224 0
-1240 1239 0
-1241 3 1240 0
1241 -3 0
1241 -1240 0
1242 -2 -1241 0
-1242 2 0
-1242 1241 0
-1243 5 1242 1236 0
1243 -5 0
1243 -1242 0
1243 -1236 0
1244 -13 -1243 0
-1244 13 0
-1244 1243 0
1245 -186 -1235 0
-1245 186 0
-1245 1235 0
-1246 178 301 302 343 271 462 0
1246 -178 0
1246 -301 0
1246 -302 0
1246 -343 0
1246 -271 0
1246 -462 0
1247 -224 -1246 0
-1247 224 0
-1247 1246 0
-1248 3 1247 0
1248 -3 0
1248 -1247 0
1249 -18 -1248 0
-1249 18 0
-1249 1248 0
1250 -180 -1239 0
-1250 180 0
-1250 1239 0
-1251 182 1250 0
1251 -182 0
1251 -1250 0
1252 -243 -1251 0
-1252 243 0
-1252 1251 0
-1253 5 1242 1252 0
1253 -5 0
1253 -1242 0
1253 -1252 0
1254 -20 -1253 0
-1254 20 0
-1254 1253 0
-1255 22 1254 0
1255 -22 0
1255 -1254 0
1256 -24 -1255 0
-1256 24 0
-1256 1255 0
-1257 26 1249 1256 0
1257 -26 0
1257 -1249 0
1257 -1256 0
1258 -28 -1257 0
-1258 28 0
-1258 1257 0
-1259 30 1244 1245 14 1258 0
1259 -30 0
1259 -1244 0
1259 -1245 0
1259 -14 0
1259 -1258 0
1260 -74 -1259 0
-1260 74 0
-1260 1259 0
-1261 76 1238 1260 0
1261 -76 0
1261 -1238 0
1261 -1260 0
1262 -78 -1261 0
-1262 78 0
-1262 1261 0
-1263 178 267 268 269 271 462 0
1263 -178 0
1263 -267 0
1263 -268 0
1263 -269 0
1263 -271 0
1263 -462 0
1264 -530 -1263 0
-1264 530 0
-1264 1263 0
-1265 5 1232 1226 0
1265 -5 0
1265 -1232 0
1265 -1226 0
1266 -80 -1265 0
-1266 80 0
-1266 1265 0
1267 -534 -1263 0
-1267 534 0
-1267 1263 0
-1268 82 1266 1267 0
1268 -82 0
1268 -1266 0
1268 -1267 0
1269 -84 -1268 0
-1269 84 0
-1269 1268 0
-1270 86 1264 1269 0
1270 -86 0
1270 -1264 0
1270 -1269 0
1271 -88 -1270 0
-1271 88 0
-1271 1270 0
-1272 90 1228 1262 1271 0
1272 -90 0
1272 -1228 0
1272 -1262 0
1272 -1271 0
1273 -92 -1272 0
-1273 92 0
-1273 1272 0
-1274 94 1273 0
1274 -94 0
1274 -1273 0
1275 -96 -1274 0
-1275 96 0
-1275 1274 0
-1276 98 1202 1214 1215 59 1218 1275 0
1276 -98 0
1276 -1202 0
1276 -1214 0
1276 -1215 0
1276 -59 0
1276 -1218 0
1276 -1275 0
1277 -140 -1276 0
-1277 140 0
-1277 1276 0
-1278 98 546 547 59 67 548 0
1278 -98 0
1278 -546 0
1278 -547 0
1278 -59 0
1278 -67 0
1278 -548 0
1279 -100 -1278 0
-1279 100 0
-1279 1278 0
-1280 90 1176 196 0
1280 -90 0
1280 -1176 0
1280 -196 0
1281 -122 -1280 0
-1281 122 0
-1281 1280 0
-1282 98 546 547 59 67 562 0
1282 -98 0
1282 -546 0
1282 -547 0
1282 -59 0
1282 -67 0
1282 -562 0
1283 -115 -1282 0
-1283 115 0
-1283 1282 0
-1284 30 1283 185 14 189 0
1284 -30 0
1284 -1283 0
1284 -185 0
1284 -14 0
1284 -189 0
1285 -74 -1284 0
-1285 74 0
-1285 1284 0
-1286 76 1285 0
1286 -76 0
1286 -1285 0
1287 -137 -1286 0
-1287 137 0
-1287 1286 0
1288 -161 -1280 0
-1288 161 0
-1288 1280 0
-1289 163 1288 215 0
1289 -163 0
1289 -1288 0
1289 -215 0
1290 -165 -1289 0
-1290 165 0
-1290 1289 0
-1291 90 1193 196 0
1291 -90 0
1291 -1193 0
1291 -196 0
1292 -92 -1291 0
-1292 92 0
-1292 1291 0
-1293 94 1292 0
1293 -94 0
1293 -1292 0
1294 -176 -1293 0
-1294 176 0
-1294 1293 0
-1295 178 1279 1281 199 1287 271 1290 1294 0
1295 -178 0
1295 -1279 0
1295 -1281 0
1295 -199 0
1295 -1287 0
1295 -271 0
1295 -1290 0
1295 -1294 0
1296 -224 -1295 0
-1296 224 0
-1296 1295 0
-1297 3 1296 0
1297 -3 0
1297 -1296 0
1298 -2 -1297 0
-1298 2 0
-1298 1297 0
-1299 98 57 59 67 95 0
1299 -98 0
1299 -57 0
1299 -59 0
1299 -67 0
1299 -95 0
1300 -100 -1299 0
-1300 100 0
-1300 1299 0
-1301 98 57 59 67 112 0
1301 -98 0
1301 -57 0
1301 -59 0
1301 -67 0
1301 -112 0
1302 -115 -1301 0
-1302 115 0
-1302 1301 0
-1303 30 1302 12 14 27 0
1303 -30 0
1303 -1302 0
1303 -12 0
1303 -14 0
1303 -27 0
1304 -74 -1303 0
-1304 74 0
-1304 1303 0
-1305 76 71 1304 0
1305 -76 0
1305 -71 0
1305 -1304 0
1306 -78 -1305 0
-1306 78 0
-1306 1305 0
-1307 90 69 1306 87 0
1307 -90 0
1307 -69 0
1307 -1306 0
1307 -87 0
1308 -122 -1307 0
-1308 122 0
-1308 1307 0
-1309 30 1283 12 14 27 0
1309 -30 0
1309 -1283 0
1309 -12 0
1309 -14 0
1309 -27 0
1310 -74 -1309 0
-1310 74 0
-1310 1309 0
-1311 76 71 1310 0
1311 -76 0
1311 -71 0
1311 -1310 0
1312 -137 -1311 0
-1312 137 0
-1312 1311 0
1313 -161 -1307 0
-1313 161 0
-1313 1307 0
-1314 163 1313 0
1314 -163 0
1314 -1313 0
1315 -165 -1314 0
-1315 165 0
-1315 1314 0
-1316 98 57 59 67 0
1316 -98 0
1316 -57 0
1316 -59 0
1316 -67 0
1317 -115 -1316 0
-1317 115 0
-1317 1316 0
-1318 30 1317 12 14 27 0
1318 -30 0
1318 -1317 0
1318 -12 0
1318 -14 0
1318 -27 0
1319 -74 -1318 0
-1319 74 0
-1319 1318 0
-1320 76 71 1319 0
1320 -76 0
1320 -71 0
1320 -1319 0
1321 -78 -1320 0
-1321 78 0
-1321 1320 0
-1322 90 69 1321 87 0
1322 -90 0
1322 -69 0
1322 -1321 0
1322 -87 0
1323 -92 -1322 0
-1323 92 0
-1323 1322 0
-1324 94 1323 0
1324 -94 0
1324 -1323 0
1325 -176 -1324 0
-1325 176 0
-1325 1324 0
-1326 178 1300 1308 123 125 1312 271 1315 1325 0
1326 -178 0
1326 -1300 0
1326 -1308 0
1326 -123 0
1326 -125 0
1326 -1312 0
1326 -271 0
1326 -1315 0
1326 -1325 0
1327 -180 -1326 0
-1327 180 0
-1327 1326 0
-1328 182 1327 0
1328 -182 0
1328 -1327 0
1329 -243 -1328 0
-1329 243 0
-1329 1328 0
-1330 5 1298 1329 0
1330 -5 0
1330 -1298 0
1330 -1329 0
1331 -11 -1330 0
-1331 11 0
-1331 1330 0
1332 -709 -1168 0
-1332 709 0
-1332 1168 0
1333 -315 -1168 0
-1333 315 0
-1333 1168 0
1334 -7 -333 0
-1334 7 0
-1334 333 0
1335 -58 -355 0
-1335 58 0
-1335 355 0
1336 -62 -352 0
-1336 62 0
-1336 352 0
-1337 66 1336 63 0
1337 -66 0
1337 -1336 0
1337 -63 0
1338 -68 -1337 0
-1338 68 0
-1338 1337 0
-1339 5 1242 1226 0
1339 -5 0
1339 -1242 0
1339 -1226 0
1340 -70 -1339 0
-1340 70 0
-1340 1339 0
1341 -72 -1243 0
-1341 72 0
-1341 1243 0
-1342 76 1341 0
1342 -76 0
1342 -1341 0
1343 -78 -1342 0
-1343 78 0
-1343 1342 0
-1344 178 267 268 759 271 462 0
1344 -178 0
1344 -267 0
1344 -268 0
1344 -759 0
1344 -271 0
1344 -462 0
1345 -530 -1344 0
-1345 530 0
-1345 1344 0
1346 -80 -1339 0
-1346 80 0
-1346 1339 0
1347 -534 -1344 0
-1347 534 0
-1347 1344 0
-1348 82 1346 1347 0
1348 -82 0
1348 -1346 0
1348 -1347 0
1349 -84 -1348 0
-1349 84 0
-1349 1348 0
-1350 86 1345 1349 0
1350 -86 0
1350 -1345 0
1350 -1349 0
1351 -88 -1350 0
-1351 88 0
-1351 1350 0
-1352 90 1340 1343 1351 0
1352 -90 0
1352 -1340 0
1352 -1343 0
1352 -1351 0
1353 -92 -1352 0
-1353 92 0
-1353 1352 0
-1354 94 1353 0
1354 -94 0
1354 -1353 0
1355 -96 -1354 0
-1355 96 0
-1355 1354 0
-1356 98 1334 1335 1215 59 1338 1355 0
1356 -98 0
1356 -1334 0
1356 -1335 0
1356 -1215 0
1356 -59 0
1356 -1338 0
1356 -1355 0
1357 -115 -1356 0
-1357 115 0
-1357 1356 0
1358 -100 -570 0
-1358 100 0
-1358 570 0
-1359 178 1358 318 199 319 271 322 325 0
1359 -178 0
1359 -1358 0
1359 -318 0
1359 -199 0
1359 -319 0
1359 -271 0
1359 -322 0
1359 -325 0
1360 -224 -1359 0
-1360 224 0
-1360 1359 0
-1361 3 1360 0
1361 -3 0
1361 -1360 0
1362 -2 -1361 0
-1362 2 0
-1362 1361 0
1363 -180 -1359 0
-1363 180 0
-1363 1359 0
-1364 182 1363 0
1364 -182 0
1364 -1363 0
1365 -243 -1364 0
-1365 243 0
-1365 1364 0
-1366 5 1362 1365 0
1366 -5 0
1366 -1362 0
1366 -1365 0
1367 -13 -1366 0
-1367 13 0
-1367 1366 0
1368 -100 -138 0
-1368 100 0
-1368 138 0
-1369 178 1368 758 123 125 759 271 762 763 0
1369 -178 0
1369 -1368 0
1369 -758 0
1369 -123 0
1369 -125 0
1369 -759 0
1369 -271 0
1369 -762 0
1369 -763 0
1370 -180 -1369 0
-1370 180 0
-1370 1369 0
-1371 182 1370 0
1371 -182 0
1371 -1370 0
1372 -186 -1371 0
-1372 186 0
-1372 1371 0
1373 -100 -947 0
-1373 100 0
-1373 947 0
-1374 178 1373 342 301 302 343 271 346 349 0
1374 -178 0
1374 -1373 0
1374 -342 0
1374 -301 0
1374 -302 0
1374 -343 0
1374 -271 0
1374 -346 0
1374 -349 0
1375 -224 -1374 0
-1375 224 0
-1375 1374 0
-1376 3 1375 0
1376 -3 0
1376 -1375 0
1377 -18 -1376 0
-1377 18 0
-1377 1376 0
1378 -20 -1366 0
-1378 20 0
-1378 1366 0
-1379 22 1378 0
1379 -22 0
1379 -1378 0
1380 -24 -1379 0
-1380 24 0
-1380 1379 0
-1381 26 1377 1380 0
1381 -26 0
1381 -1377 0
1381 -1380 0
1382 -28 -1381 0
-1382 28 0
-1382 1381 0
-1383 30 1357 1367 1372 14 1382 0
1383 -30 0
1383 -1357 0
1383 -1367 0
1383 -1372 0
1383 -14 0
1383 -1382 0
1384 -32 -1383 0
-1384 32 0
-1384 1383 0
-1385 36 1333 1384 33 0
1385 -36 0
1385 -1333 0
1385 -1384 0
1385 -33 0
1386 -38 -1385 0
-1386 38 0
-1386 1385 0
-1387 40 1277 1331 1332 1386 0
1387 -40 0
1387 -1277 0
1387 -1331 0
1387 -1332 0
1387 -1386 0
1388 -42 -1387 0
-1388 42 0
-1388 1387 0
1389 -44 -1385 0
-1389 44 0
-1389 1385 0
-1390 46 1389 0
1390 -46 0
1390 -1389 0
1391 -48 -1390 0
-1391 48 0
-1391 1390 0
-1392 50 1201 1388 1391 0
1392 -50 0
1392 -1201 0
1392 -1388 0
1392 -1391 0
1393 -52 -1392 0
-1393 52 0
-1393 1392 0
-1394 54 1169 1393 0
1394 -54 0
1394 -1169 0
1394 -1393 0
1395 -1396 -1394 0
-1395 1396 0
-1395 1394 0
-1397 50 8 1116 0
1397 -50 0
1397 -8 0
1397 -1116 0
1398 -52 -1397 0
-1398 52 0
-1398 1397 0
-1399 54 1398 0
1399 -54 0
1399 -1398 0
1400 -56 -1399 0
-1400 56 0
-1400 1399 0
-1401 98 650 1400 652 547 59 67 653 0
1401 -98 0
1401 -650 0
1401 -1400 0
1401 -652 0
1401 -547 0
1401 -59 0
1401 -67 0
1401 -653 0
1402 -100 -1401 0
-1402 100 0
-1402 1401 0
-1403 98 650 1400 652 547 59 67 112 0
1403 -98 0
1403 -650 0
1403 -1400 0
1403 -652 0
1403 -547 0
1403 -59 0
1403 -67 0
1403 -112 0
1404 -115 -1403 0
-1404 115 0
-1404 1403 0
-1405 30 1404 250 185 14 255 0
1405 -30 0
1405 -1404 0
1405 -250 0
1405 -185 0
1405 -14 0
1405 -255 0
1406 -74 -1405 0
-1406 74 0
-1406 1405 0
-1407 76 249 1406 0
1407 -76 0
1407 -249 0
1407 -1406 0
1408 -78 -1407 0
-1408 78 0
-1408 1407 0
-1409 90 248 1408 264 0
1409 -90 0
1409 -248 0
1409 -1408 0
1409 -264 0
1410 -122 -1409 0
-1410 122 0
-1410 1409 0
-1411 98 650 1400 652 547 59 67 667 0
1411 -98 0
1411 -650 0
1411 -1400 0
1411 -652 0
1411 -547 0
1411 -59 0
1411 -67 0
1411 -667 0
1412 -115 -1411 0
-1412 115 0
-1412 1411 0
-1413 30 1412 250 185 14 255 0
1413 -30 0
1413 -1412 0
1413 -250 0
1413 -185 0
1413 -14 0
1413 -255 0
1414 -74 -1413 0
-1414 74 0
-1414 1413 0
-1415 76 249 1414 0
1415 -76 0
1415 -249 0
1415 -1414 0
1416 -137 -1415 0
-1416 137 0
-1416 1415 0
1417 -140 -1139 0
-1417 140 0
-1417 1139 0
-1418 40 1417 1113 0
1418 -40 0
1418 -1417 0
1418 -1113 0
1419 -42 -1418 0
-1419 42 0
-1419 1418 0
-1420 50 8 1419 0
1420 -50 0
1420 -8 0
1420 -1419 0
1421 -52 -1420 0
-1421 52 0
-1421 1420 0
-1422 54 1421 0
1422 -54 0
1422 -1421 0
1423 -155 -1422 0
-1423 155 0
-1423 1422 0
-1424 157 1423 210 0
1424 -157 0
1424 -1423 0
1424 -210 0
1425 -159 -1424 0
-1425 159 0
-1425 1424 0
1426 -161 -1409 0
-1426 161 0
-1426 1409 0
-1427 163 1426 215 0
1427 -163 0
1427 -1426 0
1427 -215 0
1428 -165 -1427 0
-1428 165 0
-1428 1427 0
-1429 98 650 1400 652 547 59 67 0
1429 -98 0
1429 -650 0
1429 -1400 0
1429 -652 0
1429 -547 0
1429 -59 0
1429 -67 0
1430 -115 -1429 0
-1430 115 0
-1430 1429 0
-1431 30 1430 250 185 14 255 0
1431 -30 0
1431 -1430 0
1431 -250 0
1431 -185 0
1431 -14 0
1431 -255 0
1432 -74 -1431 0
-1432 74 0
-1432 1431 0
-1433 76 249 1432 0
1433 -76 0
1433 -249 0
1433 -1432 0
1434 -78 -1433 0
-1434 78 0
-1434 1433 0
-1435 90 248 1434 264 0
1435 -90 0
1435 -248 0
1435 -1434 0
1435 -264 0
1436 -92 -1435 0
-1436 92 0
-1436 1435 0
-1437 94 1436 0
1437 -94 0
1437 -1436 0
1438 -176 -1437 0
-1438 176 0
-1438 1437 0
-1439 178 1402 1410 267 268 1416 1425 1428 1438 0
1439 -178 0
1439 -1402 0
1439 -1410 0
1439 -267 0
1439 -268 0
1439 -1416 0
1439 -1425 0
1439 -1428 0
1439 -1438 0
1440 -315 -1439 0
-1440 315 0
-1440 1439 0
-1441 40 921 0
1441 -40 0
1441 -921 0
1442 -42 -1441 0
-1442 42 0
-1442 1441 0
-1443 50 8 1442 0
1443 -50 0
1443 -8 0
1443 -1442 0
1444 -52 -1443 0
-1444 52 0
-1444 1443 0
-1445 54 1444 0
1445 -54 0
1445 -1444 0
1446 -155 -1445 0
-1446 155 0
-1446 1445 0
-1447 157 1446 210 0
1447 -157 0
1447 -1446 0
1447 -210 0
1448 -159 -1447 0
-1448 159 0
-1448 1447 0
-1449 178 318 199 319 1448 322 325 0
1449 -178 0
1449 -318 0
1449 -199 0
1449 -319 0
1449 -1448 0
1449 -322 0
1449 -325 0
1450 -224 -1449 0
-1450 224 0
-1450 1449 0
-1451 3 1450 0
1451 -3 0
1451 -1450 0
1452 -2 -1451 0
-1452 2 0
-1452 1451 0
-1453 40 10 0
1453 -40 0
1453 -10 0
1454 -42 -1453 0
-1454 42 0
-1454 1453 0
-1455 50 8 1454 0
1455 -50 0
1455 -8 0
1455 -1454 0
1456 -52 -1455 0
-1456 52 0
-1456 1455 0
-1457 54 1456 0
1457 -54 0
1457 -1456 0
1458 -155 -1457 0
-1458 155 0
-1458 1457 0
-1459 157 1458 0
1459 -157 0
1459 -1458 0
1460 -159 -1459 0
-1460 159 0
-1460 1459 0
-1461 178 227 123 125 228 1460 237 238 0
1461 -178 0
1461 -227 0
1461 -123 0
1461 -125 0
1461 -228 0
1461 -1460 0
1461 -237 0
1461 -238 0
1462 -180 -1461 0
-1462 180 0
-1462 1461 0
-1463 182 1462 0
1463 -182 0
1463 -1462 0
1464 -243 -1463 0
-1464 243 0
-1464 1463 0
-1465 5 1452 1464 0
1465 -5 0
1465 -1452 0
1465 -1464 0
1466 -7 -1465 0
-1466 7 0
-1466 1465 0
1467 -11 -333 0
-1467 11 0
-1467 333 0
1468 -709 -764 0
-1468 709 0
-1468 764 0
-1469 40 1467 1468 0
1469 -40 0
1469 -1467 0
1469 -1468 0
1470 -42 -1469 0
-1470 42 0
-1470 1469 0
-1471 50 766 1470 0
1471 -50 0
1471 -766 0
1471 -1470 0
1472 -52 -1471 0
-1472 52 0
-1472 1471 0
-1473 54 765 1472 0
1473 -54 0
1473 -765 0
1473 -1472 0
1474 -56 -1473 0
-1474 56 0
-1474 1473 0
-1475 178 318 123 199 319 1460 322 325 0
1475 -178 0
1475 -318 0
1475 -123 0
1475 -199 0
1475 -319 0
1475 -1460 0
1475 -322 0
1475 -325 0
1476 -180 -1475 0
-1476 180 0
-1476 1475 0
-1477 182 1476 0
1477 -182 0
1477 -1476 0
1478 -243 -1477 0
-1478 243 0
-1478 1477 0
-1479 5 1452 1478 0
1479 -5 0
1479 -1452 0
1479 -1478 0
1480 -20 -1479 0
-1480 20 0
-1480 1479 0
-1481 22 1480 0
1481 -22 0
1481 -1480 0
1482 -58 -1481 0
-1482 58 0
-1482 1481 0
1483 -432 -1463 0
-1483 432 0
-1483 1463 0
-1484 178 342 301 302 343 1448 346 349 0
1484 -178 0
1484 -342 0
1484 -301 0
1484 -302 0
1484 -343 0
1484 -1448 0
1484 -346 0
1484 -349 0
1485 -224 -1484 0
-1485 224 0
-1485 1484 0
-1486 3 1485 0
1486 -3 0
1486 -1485 0
1487 -62 -1486 0
-1487 62 0
-1487 1486 0
-1488 66 1487 63 0
1488 -66 0
1488 -1487 0
1488 -63 0
1489 -68 -1488 0
-1489 68 0
-1489 1488 0
-1490 178 199 319 1448 322 0
1490 -178 0
1490 -199 0
1490 -319 0
1490 -1448 0
1490 -322 0
1491 -224 -1490 0
-1491 224 0
-1491 1490 0
-1492 3 1491 0
1492 -3 0
1492 -1491 0
1493 -2 -1492 0
-1493 2 0
-1493 1492 0
-1494 178 123 125 228 1460 322 0
1494 -178 0
1494 -123 0
1494 -125 0
1494 -228 0
1494 -1460 0
1494 -322 0
1495 -180 -1494 0
-1495 180 0
-1495 1494 0
-1496 182 1495 0
1496 -182 0
1496 -1495 0
1497 -243 -1496 0
-1497 243 0
-1497 1496 0
-1498 5 1493 1497 0
1498 -5 0
1498 -1493 0
1498 -1497 0
1499 -70 -1498 0
-1499 70 0
-1499 1498 0
-1500 178 199 319 1448 462 0
1500 -178 0
1500 -199 0
1500 -319 0
1500 -1448 0
1500 -462 0
1501 -224 -1500 0
-1501 224 0
-1501 1500 0
-1502 3 1501 0
1502 -3 0
1502 -1501 0
1503 -2 -1502 0
-1503 2 0
-1503 1502 0
-1504 178 123 125 319 1460 454 0
1504 -178 0
1504 -123 0
1504 -125 0
1504 -319 0
1504 -1460 0
1504 -454 0
1505 -180 -1504 0
-1505 180 0
-1505 1504 0
-1506 182 1505 0
1506 -182 0
1506 -1505 0
1507 -243 -1506 0
-1507 243 0
-1507 1506 0
-1508 5 1503 1507 0
1508 -5 0
1508 -1503 0
1508 -1507 0
1509 -72 -1508 0
-1509 72 0
-1509 1508 0
-1510 76 1509 0
1510 -76 0
1510 -1509 0
1511 -78 -1510 0
-1511 78 0
-1511 1510 0
-1512 40 1113 0
1512 -40 0
1512 -1113 0
1513 -42 -1512 0
-1513 42 0
-1513 1512 0
-1514 50 8 1513 0
1514 -50 0
1514 -8 0
1514 -1513 0
1515 -52 -1514 0
-1515 52 0
-1515 1514 0
-1516 54 1515 0
1516 -54 0
1516 -1515 0
1517 -155 -1516 0
-1517 155 0
-1517 1516 0
-1518 157 1517 210 0
1518 -157 0
1518 -1517 0
1518 -210 0
1519 -159 -1518 0
-1519 159 0
-1519 1518 0
-1520 178 267 268 759 1519 462 0
1520 -178 0
1520 -267 0
1520 -268 0
1520 -759 0
1520 -1519 0
1520 -462 0
1521 -530 -1520 0
-1521 530 0
-1521 1520 0
1522 -80 -1508 0
-1522 80 0
-1522 1508 0
1523 -534 -1520 0
-1523 534 0
-1523 1520 0
-1524 82 1522 1523 0
1524 -82 0
1524 -1522 0
1524 -1523 0
1525 -84 -1524 0
-1525 84 0
-1525 1524 0
-1526 86 1521 1525 0
1526 -86 0
1526 -1521 0
1526 -1525 0
1527 -88 -1526 0
-1527 88 0
-1527 1526 0
-1528 90 1499 1511 1527 0
1528 -90 0
1528 -1499 0
1528 -1511 0
1528 -1527 0
1529 -92 -1528 0
-1529 92 0
-1529 1528 0
-1530 94 1529 0
1530 -94 0
1530 -1529 0
1531 -96 -1530 0
-1531 96 0
-1531 1530 0
-1532 98 1466 1474 1482 1483 59 1489 1531 0
1532 -98 0
1532 -1466 0
1532 -1474 0
1532 -1482 0
1532 -1483 0
1532 -59 0
1532 -1489 0
1532 -1531 0
1533 -115 -1532 0
-1533 115 0
-1533 1532 0
1534 -56 -1445 0
-1534 56 0
-1534 1445 0
-1535 98 1534 546 547 59 67 569 0
1535 -98 0
1535 -1534 0
1535 -546 0
1535 -547 0
1535 -59 0
1535 -67 0
1535 -569 0
1536 -100 -1535 0
-1536 100 0
-1536 1535 0
1537 -140 -570 0
-1537 140 0
-1537 570 0
-1538 40 1537 921 0
1538 -40 0
1538 -1537 0
1538 -921 0
1539 -42 -1538 0
-1539 42 0
-1539 1538 0
-1540 50 8 1539 0
1540 -50 0
1540 -8 0
1540 -1539 0
1541 -52 -1540 0
-1541 52 0
-1541 1540 0
-1542 54 1541 0
1542 -54 0
1542 -1541 0
1543 -155 -1542 0
-1543 155 0
-1543 1542 0
-1544 157 1543 210 0
1544 -157 0
1544 -1543 0
1544 -210 0
1545 -159 -1544 0
-1545 159 0
-1545 1544 0
-1546 178 1536 318 199 319 1545 322 325 0
1546 -178 0
1546 -1536 0
1546 -318 0
1546 -199 0
1546 -319 0
1546 -1545 0
1546 -322 0
1546 -325 0
1547 -224 -1546 0
-1547 224 0
-1547 1546 0
-1548 3 1547 0
1548 -3 0
1548 -1547 0
1549 -2 -1548 0
-1549 2 0
-1549 1548 0
1550 -56 -1457 0
-1550 56 0
-1550 1457 0
-1551 98 1550 57 59 67 569 0
1551 -98 0
1551 -1550 0
1551 -57 0
1551 -59 0
1551 -67 0
1551 -569 0
1552 -100 -1551 0
-1552 100 0
-1552 1551 0
-1553 40 1537 10 0
1553 -40 0
1553 -1537 0
1553 -10 0
1554 -42 -1553 0
-1554 42 0
-1554 1553 0
-1555 50 8 1554 0
1555 -50 0
1555 -8 0
1555 -1554 0
1556 -52 -1555 0
-1556 52 0
-1556 1555 0
-1557 54 1556 0
1557 -54 0
1557 -1556 0
1558 -155 -1557 0
-1558 155 0
-1558 1557 0
-1559 157 1558 0
1559 -157 0
1559 -1558 0
1560 -159 -1559 0
-1560 159 0
-1560 1559 0
-1561 178 1552 318 123 125 319 1560 322 325 0
1561 -178 0
1561 -1552 0
1561 -318 0
1561 -123 0
1561 -125 0
1561 -319 0
1561 -1560 0
1561 -322 0
1561 -325 0
1562 -180 -1561 0
-1562 180 0
-1562 1561 0
-1563 182 1562 0
1563 -182 0
1563 -1562 0
1564 -243 -1563 0
-1564 243 0
-1564 1563 0
-1565 5 1549 1564 0
1565 -5 0
1565 -1549 0
1565 -1564 0
1566 -13 -1565 0
-1566 13 0
-1566 1565 0
-1567 98 6 1550 57 59 67 95 0
1567 -98 0
1567 -6 0
1567 -1550 0
1567 -57 0
1567 -59 0
1567 -67 0
1567 -95 0
1568 -100 -1567 0
-1568 100 0
-1568 1567 0
-1569 40 139 10 0
1569 -40 0
1569 -139 0
1569 -10 0
1570 -42 -1569 0
-1570 42 0
-1570 1569 0
-1571 50 8 1570 0
1571 -50 0
1571 -8 0
1571 -1570 0
1572 -52 -1571 0
-1572 52 0
-1572 1571 0
-1573 54 1572 0
1573 -54 0
1573 -1572 0
1574 -155 -1573 0
-1574 155 0
-1574 1573 0
-1575 157 1574 0
1575 -157 0
1575 -1574 0
1576 -159 -1575 0
-1576 159 0
-1576 1575 0
-1577 178 1568 758 123 125 759 1576 762 763 0
1577 -178 0
1577 -1568 0
1577 -758 0
1577 -123 0
1577 -125 0
1577 -759 0
1577 -1576 0
1577 -762 0
1577 -763 0
1578 -180 -1577 0
-1578 180 0
-1578 1577 0
-1579 182 1578 0
1579 -182 0
1579 -1578 0
1580 -186 -1579 0
-1580 186 0
-1580 1579 0
-1581 98 835 1534 836 547 59 67 837 0
1581 -98 0
1581 -835 0
1581 -1534 0
1581 -836 0
1581 -547 0
1581 -59 0
1581 -67 0
1581 -837 0
1582 -100 -1581 0
-1582 100 0
-1582 1581 0
1583 -140 -947 0
-1583 140 0
-1583 947 0
-1584 40 1583 921 0
1584 -40 0
1584 -1583 0
1584 -921 0
1585 -42 -1584 0
-1585 42 0
-1585 1584 0
-1586 50 8 1585 0
1586 -50 0
1586 -8 0
1586 -1585 0
1587 -52 -1586 0
-1587 52 0
-1587 1586 0
-1588 54 1587 0
1588 -54 0
1588 -1587 0
1589 -155 -1588 0
-1589 155 0
-1589 1588 0
-1590 157 1589 210 0
1590 -157 0
1590 -1589 0
1590 -210 0
1591 -159 -1590 0
-1591 159 0
-1591 1590 0
-1592 178 1582 342 301 302 343 1591 346 349 0
1592 -178 0
1592 -1582 0
1592 -342 0
1592 -301 0
1592 -302 0
1592 -343 0
1592 -1591 0
1592 -346 0
1592 -349 0
1593 -224 -1592 0
-1593 224 0
-1593 1592 0
-1594 3 1593 0
1594 -3 0
1594 -1593 0
1595 -18 -1594 0
-1595 18 0
-1595 1594 0
-1596 98 1550 546 59 67 569 0
1596 -98 0
1596 -1550 0
1596 -546 0
1596 -59 0
1596 -67 0
1596 -569 0
1597 -100 -1596 0
-1597 100 0
-1597 1596 0
-1598 178 1597 318 123 199 319 1560 322 325 0
1598 -178 0
1598 -1597 0
1598 -318 0
1598 -123 0
1598 -199 0
1598 -319 0
1598 -1560 0
1598 -322 0
1598 -325 0
1599 -180 -1598 0
-1599 180 0
-1599 1598 0
-1600 182 1599 0
1600 -182 0
1600 -1599 0
1601 -243 -1600 0
-1601 243 0
-1601 1600 0
-1602 5 1549 1601 0
1602 -5 0
1602 -1549 0
1602 -1601 0
1603 -20 -1602 0
-1603 20 0
-1603 1602 0
-1604 22 1603 0
1604 -22 0
1604 -1603 0
1605 -24 -1604 0
-1605 24 0
-1605 1604 0
-1606 26 1595 1605 0
1606 -26 0
1606 -1595 0
1606 -1605 0
1607 -28 -1606 0
-1607 28 0
-1607 1606 0
-1608 30 1533 1566 1580 14 1607 0
1608 -30 0
1608 -1533 0
1608 -1566 0
1608 -1580 0
1608 -14 0
1608 -1607 0
1609 -32 -1608 0
-1609 32 0
-1609 1608 0
-1610 98 835 851 836 547 59 67 112 0
1610 -98 0
1610 -835 0
1610 -851 0
1610 -836 0
1610 -547 0
1610 -59 0
1610 -67 0
1610 -112 0
1611 -115 -1610 0
-1611 115 0
-1611 1610 0
-1612 30 1611 284 185 14 289 0
1612 -30 0
1612 -1611 0
1612 -284 0
1612 -185 0
1612 -14 0
1612 -289 0
1613 -74 -1612 0
-1613 74 0
-1613 1612 0
-1614 76 283 1613 0
1614 -76 0
1614 -283 0
1614 -1613 0
1615 -78 -1614 0
-1615 78 0
-1615 1614 0
-1616 90 282 1615 298 0
1616 -90 0
1616 -282 0
1616 -1615 0
1616 -298 0
1617 -122 -1616 0
-1617 122 0
-1617 1616 0
-1618 98 835 851 836 547 59 67 866 0
1618 -98 0
1618 -835 0
1618 -851 0
1618 -836 0
1618 -547 0
1618 -59 0
1618 -67 0
1618 -866 0
1619 -115 -1618 0
-1619 115 0
-1619 1618 0
-1620 30 1619 284 185 14 289 0
1620 -30 0
1620 -1619 0
1620 -284 0
1620 -185 0
1620 -14 0
1620 -289 0
1621 -74 -1620 0
-1621 74 0
-1621 1620 0
-1622 76 283 1621 0
1622 -76 0
1622 -283 0
1622 -1621 0
1623 -137 -1622 0
-1623 137 0
-1623 1622 0
1624 -161 -1616 0
-1624 161 0
-1624 1616 0
-1625 163 1624 215 0
1625 -163 0
1625 -1624 0
1625 -215 0
1626 -165 -1625 0
-1626 165 0
-1626 1625 0
-1627 98 835 851 836 547 59 67 0
1627 -98 0
1627 -835 0
1627 -851 0
1627 -836 0
1627 -547 0
1627 -59 0
1627 -67 0
1628 -115 -1627 0
-1628 115 0
-1628 1627 0
-1629 30 1628 284 185 14 289 0
1629 -30 0
1629 -1628 0
1629 -284 0
1629 -185 0
1629 -14 0
1629 -289 0
1630 -74 -1629 0
-1630 74 0
-1630 1629 0
-1631 76 283 1630 0
1631 -76 0
1631 -283 0
1631 -1630 0
1632 -78 -1631 0
-1632 78 0
-1632 1631 0
-1633 90 282 1632 298 0
1633 -90 0
1633 -282 0
1633 -1632 0
1633 -298 0
1634 -92 -1633 0
-1634 92 0
-1634 1633 0
-1635 94 1634 0
1635 -94 0
1635 -1634 0
1636 -176 -1635 0
-1636 176 0
-1636 1635 0
-1637 178 854 1617 301 302 1623 875 1626 1636 0
1637 -178 0
1637 -854 0
1637 -1617 0
1637 -301 0
1637 -302 0
1637 -1623 0
1637 -875 0
1637 -1626 0
1637 -1636 0
1638 -224 -1637 0
-1638 224 0
-1638 1637 0
-1639 3 1638 0
1639 -3 0
1639 -1638 0
1640 -9 -1639 0
-1640 9 0
-1640 1639 0
-1641 178 198 199 200 875 218 221 0
1641 -178 0
1641 -198 0
1641 -199 0
1641 -200 0
1641 -875 0
1641 -218 0
1641 -221 0
1642 -224 -1641 0
-1642 224 0
-1642 1641 0
-1643 3 1642 0
1643 -3 0
1643 -1642 0
1644 -2 -1643 0
-1644 2 0
-1644 1643 0
-1645 178 227 123 125 228 875 237 238 0
1645 -178 0
1645 -227 0
1645 -123 0
1645 -125 0
1645 -228 0
1645 -875 0
1645 -237 0
1645 -238 0
1646 -180 -1645 0
-1646 180 0
-1646 1645 0
-1647 182 1646 0
1647 -182 0
1647 -1646 0
1648 -243 -1647 0
-1648 243 0
-1648 1647 0
-1649 5 1644 1648 0
1649 -5 0
1649 -1644 0
1649 -1648 0
1650 -7 -1649 0
-1650 7 0
-1650 1649 0
-1651 54 279 0
1651 -54 0
1651 -279 0
1652 -56 -1651 0
-1652 56 0
-1652 1651 0
-1653 178 376 199 377 875 391 394 0
1653 -178 0
1653 -376 0
1653 -199 0
1653 -377 0
1653 -875 0
1653 -391 0
1653 -394 0
1654 -224 -1653 0
-1654 224 0
-1654 1653 0
-1655 3 1654 0
1655 -3 0
1655 -1654 0
1656 -2 -1655 0
-1656 2 0
-1656 1655 0
-1657 178 404 123 199 405 875 419 422 0
1657 -178 0
1657 -404 0
1657 -123 0
1657 -199 0
1657 -405 0
1657 -875 0
1657 -419 0
1657 -422 0
1658 -180 -1657 0
-1658 180 0
-1658 1657 0
-1659 182 1658 0
1659 -182 0
1659 -1658 0
1660 -243 -1659 0
-1660 243 0
-1660 1659 0
-1661 5 1656 1660 0
1661 -5 0
1661 -1656 0
1661 -1660 0
1662 -20 -1661 0
-1662 20 0
-1662 1661 0
-1663 22 1662 0
1663 -22 0
1663 -1662 0
1664 -58 -1663 0
-1664 58 0
-1664 1663 0
1665 -432 -1647 0
-1665 432 0
-1665 1647 0
-1666 178 300 301 302 303 875 306 309 0
1666 -178 0
1666 -300 0
1666 -301 0
1666 -302 0
1666 -303 0
1666 -875 0
1666 -306 0
1666 -309 0
1667 -224 -1666 0
-1667 224 0
-1667 1666 0
-1668 3 1667 0
1668 -3 0
1668 -1667 0
1669 -62 -1668 0
-1669 62 0
-1669 1668 0
-1670 66 1669 63 0
1670 -66 0
1670 -1669 0
1670 -63 0
1671 -68 -1670 0
-1671 68 0
-1671 1670 0
-1672 178 199 200 875 218 0
1672 -178 0
1672 -199 0
1672 -200 0
1672 -875 0
1672 -218 0
1673 -224 -1672 0
-1673 224 0
-1673 1672 0
-1674 3 1673 0
1674 -3 0
1674 -1673 0
1675 -2 -1674 0
-1675 2 0
-1675 1674 0
-1676 178 123 125 228 875 454 0
1676 -178 0
1676 -123 0
1676 -125 0
1676 -228 0
1676 -875 0
1676 -454 0
1677 -180 -1676 0
-1677 180 0
-1677 1676 0
-1678 182 1677 0
1678 -182 0
1678 -1677 0
1679 -243 -1678 0
-1679 243 0
-1679 1678 0
-1680 5 1675 1679 0
1680 -5 0
1680 -1675 0
1680 -1679 0
1681 -70 -1680 0
-1681 70 0
-1681 1680 0
-1682 178 199 200 875 462 0
1682 -178 0
1682 -199 0
1682 -200 0
1682 -875 0
1682 -462 0
1683 -224 -1682 0
-1683 224 0
-1683 1682 0
-1684 3 1683 0
1684 -3 0
1684 -1683 0
1685 -2 -1684 0
-1685 2 0
-1685 1684 0
-1686 178 123 125 875 454 0
1686 -178 0
1686 -123 0
1686 -125 0
1686 -875 0
1686 -454 0
1687 -180 -1686 0
-1687 180 0
-1687 1686 0
-1688 182 1687 0
1688 -182 0
1688 -1687 0
1689 -243 -1688 0
-1689 243 0
-1689 1688 0
-1690 5 1685 1689 0
1690 -5 0
1690 -1685 0
1690 -1689 0
1691 -72 -1690 0
-1691 72 0
-1691 1690 0
-1692 178 199 319 875 462 0
1692 -178 0
1692 -199 0
1692 -319 0
1692 -875 0
1692 -462 0
1693 -224 -1692 0
-1693 224 0
-1693 1692 0
-1694 3 1693 0
1694 -3 0
1694 -1693 0
1695 -2 -1694 0
-1695 2 0
-1695 1694 0
-1696 5 1695 1689 0
1696 -5 0
1696 -1695 0
1696 -1689 0
1697 -13 -1696 0
-1697 13 0
-1697 1696 0
1698 -186 -1688 0
-1698 186 0
-1698 1688 0
-1699 178 301 302 343 875 462 0
1699 -178 0
1699 -301 0
1699 -302 0
1699 -343 0
1699 -875 0
1699 -462 0
1700 -224 -1699 0
-1700 224 0
-1700 1699 0
-1701 3 1700 0
1701 -3 0
1701 -1700 0
1702 -18 -1701 0
-1702 18 0
-1702 1701 0
1703 -180 -1692 0
-1703 180 0
-1703 1692 0
-1704 182 1703 0
1704 -182 0
1704 -1703 0
1705 -243 -1704 0
-1705 243 0
-1705 1704 0
-1706 5 1695 1705 0
1706 -5 0
1706 -1695 0
1706 -1705 0
1707 -20 -1706 0
-1707 20 0
-1707 1706 0
-1708 22 1707 0
1708 -22 0
1708 -1707 0
1709 -24 -1708 0
-1709 24 0
-1709 1708 0
-1710 26 1702 1709 0
1710 -26 0
1710 -1702 0
1710 -1709 0
1711 -28 -1710 0
-1711 28 0
-1711 1710 0
-1712 30 1697 1698 14 1711 0
1712 -30 0
1712 -1697 0
1712 -1698 0
1712 -14 0
1712 -1711 0
1713 -74 -1712 0
-1713 74 0
-1713 1712 0
-1714 76 1691 1713 0
1714 -76 0
1714 -1691 0
1714 -1713 0
1715 -78 -1714 0
-1715 78 0
-1715 1714 0
-1716 178 267 268 269 875 462 0
1716 -178 0
1716 -267 0
1716 -268 0
1716 -269 0
1716 -875 0
1716 -462 0
1717 -530 -1716 0
-1717 530 0
-1717 1716 0
-1718 5 1685 1679 0
1718 -5 0
1718 -1685 0
1718 -1679 0
1719 -80 -1718 0
-1719 80 0
-1719 1718 0
1720 -534 -1716 0
-1720 534 0
-1720 1716 0
-1721 82 1719 1720 0
1721 -82 0
1721 -1719 0
1721 -1720 0
1722 -84 -1721 0
-1722 84 0
-1722 1721 0
-1723 86 1717 1722 0
1723 -86 0
1723 -1717 0
1723 -1722 0
1724 -88 -1723 0
-1724 88 0
-1724 1723 0
-1725 90 1681 1715 1724 0
1725 -90 0
1725 -1681 0
1725 -1715 0
1725 -1724 0
1726 -92 -1725 0
-1726 92 0
-1726 1725 0
-1727 94 1726 0
1727 -94 0
1727 -1726 0
1728 -96 -1727 0
-1728 96 0
-1728 1727 0
-1729 98 1650 1652 1664 1665 59 1671 1728 0
1729 -98 0
1729 -1650 0
1729 -1652 0
1729 -1664 0
1729 -1665 0
1729 -59 0
1729 -1671 0
1729 -1728 0
1730 -140 -1729 0
-1730 140 0
-1730 1729 0
-1731 98 851 546 547 59 67 548 0
1731 -98 0
1731 -851 0
1731 -546 0
1731 -547 0
1731 -59 0
1731 -67 0
1731 -548 0
1732 -100 -1731 0
-1732 100 0
-1732 1731 0
-1733 90 1615 196 0
1733 -90 0
1733 -1615 0
1733 -196 0
1734 -122 -1733 0
-1734 122 0
-1734 1733 0
-1735 98 851 546 547 59 67 562 0
1735 -98 0
1735 -851 0
1735 -546 0
1735 -547 0
1735 -59 0
1735 -67 0
1735 -562 0
1736 -115 -1735 0
-1736 115 0
-1736 1735 0
-1737 30 1736 185 14 189 0
1737 -30 0
1737 -1736 0
1737 -185 0
1737 -14 0
1737 -189 0
1738 -74 -1737 0
-1738 74 0
-1738 1737 0
-1739 76 1738 0
1739 -76 0
1739 -1738 0
1740 -137 -1739 0
-1740 137 0
-1740 1739 0
1741 -161 -1733 0
-1741 161 0
-1741 1733 0
-1742 163 1741 215 0
1742 -163 0
1742 -1741 0
1742 -215 0
1743 -165 -1742 0
-1743 165 0
-1743 1742 0
-1744 90 1632 196 0
1744 -90 0
1744 -1632 0
1744 -196 0
1745 -92 -1744 0
-1745 92 0
-1745 1744 0
-1746 94 1745 0
1746 -94 0
1746 -1745 0
1747 -176 -1746 0
-1747 176 0
-1747 1746 0
-1748 178 1732 1734 199 1740 875 1743 1747 0
1748 -178 0
1748 -1732 0
1748 -1734 0
1748 -199 0
1748 -1740 0
1748 -875 0
1748 -1743 0
1748 -1747 0
1749 -224 -1748 0
-1749 224 0
-1749 1748 0
-1750 3 1749 0
1750 -3 0
1750 -1749 0
1751 -2 -1750 0
-1751 2 0
-1751 1750 0
-1752 98 851 57 59 67 95 0
1752 -98 0
1752 -851 0
1752 -57 0
1752 -59 0
1752 -67 0
1752 -95 0
1753 -100 -1752 0
-1753 100 0
-1753 1752 0
-1754 98 851 57 59 67 112 0
1754 -98 0
1754 -851 0
1754 -57 0
1754 -59 0
1754 -67 0
1754 -112 0
1755 -115 -1754 0
-1755 115 0
-1755 1754 0
-1756 30 1755 12 14 27 0
1756 -30 0
1756 -1755 0
1756 -12 0
1756 -14 0
1756 -27 0
1757 -74 -1756 0
-1757 74 0
-1757 1756 0
-1758 76 71 1757 0
1758 -76 0
1758 -71 0
1758 -1757 0
1759 -78 -1758 0
-1759 78 0
-1759 1758 0
-1760 90 69 1759 87 0
1760 -90 0
1760 -69 0
1760 -1759 0
1760 -87 0
1761 -122 -1760 0
-1761 122 0
-1761 1760 0
-1762 30 1736 12 14 27 0
1762 -30 0
1762 -1736 0
1762 -12 0
1762 -14 0
1762 -27 0
1763 -74 -1762 0
-1763 74 0
-1763 1762 0
-1764 76 71 1763 0
1764 -76 0
1764 -71 0
1764 -1763 0
1765 -137 -1764 0
-1765 137 0
-1765 1764 0
1766 -161 -1760 0
-1766 161 0
-1766 1760 0
-1767 163 1766 0
1767 -163 0
1767 -1766 0
1768 -165 -1767 0
-1768 165 0
-1768 1767 0
-1769 98 851 57 59 67 0
1769 -98 0
1769 -851 0
1769 -57 0
1769 -59 0
1769 -67 0
1770 -115 -1769 0
-1770 115 0
-1770 1769 0
-1771 30 1770 12 14 27 0
1771 -30 0
1771 -1770 0
1771 -12 0
1771 -14 0
1771 -27 0
1772 -74 -1771 0
-1772 74 0
-1772 1771 0
-1773 76 71 1772 0
1773 -76 0
1773 -71 0
1773 -1772 0
1774 -78 -1773 0
-1774 78 0
-1774 1773 0
-1775 90 69 1774 87 0
1775 -90 0
1775 -69 0
1775 -1774 0
1775 -87 0
1776 -92 -1775 0
-1776 92 0
-1776 1775 0
-1777 94 1776 0
1777 -94 0
1777 -1776 0
1778 -176 -1777 0
-1778 176 0
-1778 1777 0
-1779 178 1753 1761 123 125 1765 875 1768 1778 0
1779 -178 0
1779 -1753 0
1779 -1761 0
1779 -123 0
1779 -125 0
1779 -1765 0
1779 -875 0
1779 -1768 0
1779 -1778 0
1780 -180 -1779 0
-1780 180 0
-1780 1779 0
-1781 182 1780 0
1781 -182 0
1781 -1780 0
1782 -243 -1781 0
-1782 243 0
-1782 1781 0
-1783 5 1751 1782 0
1783 -5 0
1783 -1751 0
1783 -1782 0
1784 -11 -1783 0
-1784 11 0
-1784 1783 0
-1785 98 650 851 652 547 59 67 653 0
1785 -98 0
1785 -650 0
1785 -851 0
1785 -652 0
1785 -547 0
1785 -59 0
1785 -67 0
1785 -653 0
1786 -100 -1785 0
-1786 100 0
-1786 1785 0
-1787 98 650 851 652 547 59 67 112 0
1787 -98 0
1787 -650 0
1787 -851 0
1787 -652 0
1787 -547 0
1787 -59 0
1787 -67 0
1787 -112 0
1788 -115 -1787 0
-1788 115 0
-1788 1787 0
-1789 30 1788 250 185 14 255 0
1789 -30 0
1789 -1788 0
1789 -250 0
1789 -185 0
1789 -14 0
1789 -255 0
1790 -74 -1789 0
-1790 74 0
-1790 1789 0
-1791 76 249 1790 0
1791 -76 0
1791 -249 0
1791 -1790 0
1792 -78 -1791 0
-1792 78 0
-1792 1791 0
-1793 90 248 1792 264 0
1793 -90 0
1793 -248 0
1793 -1792 0
1793 -264 0
1794 -122 -1793 0
-1794 122 0
-1794 1793 0
-1795 98 650 851 652 547 59 67 667 0
1795 -98 0
1795 -650 0
1795 -851 0
1795 -652 0
1795 -547 0
1795 -59 0
1795 -67 0
1795 -667 0
1796 -115 -1795 0
-1796 115 0
-1796 1795 0
-1797 30 1796 250 185 14 255 0
1797 -30 0
1797 -1796 0
1797 -250 0
1797 -185 0
1797 -14 0
1797 -255 0
1798 -74 -1797 0
-1798 74 0
-1798 1797 0
-1799 76 249 1798 0
1799 -76 0
1799 -249 0
1799 -1798 0
1800 -137 -1799 0
-1800 137 0
-1800 1799 0
1801 -161 -1793 0
-1801 161 0
-1801 1793 0
-1802 163 1801 215 0
1802 -163 0
1802 -1801 0
1802 -215 0
1803 -165 -1802 0
-1803 165 0
-1803 1802 0
-1804 98 650 851 652 547 59 67 0
1804 -98 0
1804 -650 0
1804 -851 0
1804 -652 0
1804 -547 0
1804 -59 0
1804 -67 0
1805 -115 -1804 0
-1805 115 0
-1805 1804 0
-1806 30 1805 250 185 14 255 0
1806 -30 0
1806 -1805 0
1806 -250 0
1806 -185 0
1806 -14 0
1806 -255 0
1807 -74 -1806 0
-1807 74 0
-1807 1806 0
-1808 76 249 1807 0
1808 -76 0
1808 -249 0
1808 -1807 0
1809 -78 -1808 0
-1809 78 0
-1809 1808 0
-1810 90 248 1809 264 0
1810 -90 0
1810 -248 0
1810 -1809 0
1810 -264 0
1811 -92 -1810 0
-1811 92 0
-1811 1810 0
-1812 94 1811 0
1812 -94 0
1812 -1811 0
1813 -176 -1812 0
-1813 176 0
-1813 1812 0
-1814 178 1786 1794 267 268 1800 875 1803 1813 0
1814 -178 0
1814 -1786 0
1814 -1794 0
1814 -267 0
1814 -268 0
1814 -1800 0
1814 -875 0
1814 -1803 0
1814 -1813 0
1815 -709 -1814 0
-1815 709 0
-1815 1814 0
-1816 40 1730 1784 1815 0
1816 -40 0
1816 -1730 0
1816 -1784 0
1816 -1815 0
1817 -42 -1816 0
-1817 42 0
-1817 1816 0
-1818 50 1640 1817 0
1818 -50 0
1818 -1640 0
1818 -1817 0
1819 -895 -1818 0
-1819 895 0
-1819 1818 0
-1820 36 1440 1609 1819 33 0
1820 -36 0
1820 -1440 0
1820 -1609 0
1820 -1819 0
1820 -33 0
1821 -44 -1820 0
-1821 44 0
-1821 1820 0
-1822 46 1821 0
1822 -46 0
1822 -1821 0
1823 -1824 -1822 0
-1823 1824 0
-1823 1822 0
1825 -1826 -979 0
-1825 1826 0
-1825 979 0
-1827 98 928 546 547 59 67 112 0
1827 -98 0
1827 -928 0
1827 -546 0
1827 -547 0
1827 -59 0
1827 -67 0
1827 -112 0
1828 -100 -1827 0
-1828 100 0
-1828 1827 0
1829 -115 -1827 0
-1829 115 0
-1829 1827 0
-1830 30 1829 185 14 189 0
1830 -30 0
1830 -1829 0
1830 -185 0
1830 -14 0
1830 -189 0
1831 -74 -1830 0
-1831 74 0
-1831 1830 0
-1832 76 1831 0
1832 -76 0
1832 -1831 0
1833 -137 -1832 0
-1833 137 0
-1833 1832 0
1834 -140 -1171 0
-1834 140 0
-1834 1171 0
1835 -38 -574 0
-1835 38 0
-1835 574 0
-1836 40 1834 921 1835 0
1836 -40 0
1836 -1834 0
1836 -921 0
1836 -1835 0
1837 -42 -1836 0
-1837 42 0
-1837 1836 0
-1838 50 8 1837 577 0
1838 -50 0
1838 -8 0
1838 -1837 0
1838 -577 0
1839 -52 -1838 0
-1839 52 0
-1839 1838 0
-1840 54 1839 0
1840 -54 0
1840 -1839 0
1841 -155 -1840 0
-1841 155 0
-1841 1840 0
-1842 157 1841 210 0
1842 -157 0
1842 -1841 0
1842 -210 0
1843 -159 -1842 0
-1843 159 0
-1843 1842 0
1844 -176 -94 0
-1844 176 0
-1844 94 0
-1845 178 1828 199 1833 1843 462 1844 0
1845 -178 0
1845 -1828 0
1845 -199 0
1845 -1833 0
1845 -1843 0
1845 -462 0
1845 -1844 0
1846 -224 -1845 0
-1846 224 0
-1846 1845 0
-1847 3 1846 0
1847 -3 0
1847 -1846 0
1848 -2 -1847 0
-1848 2 0
-1848 1847 0
-1849 98 55 57 59 67 112 0
1849 -98 0
1849 -55 0
1849 -57 0
1849 -59 0
1849 -67 0
1849 -112 0
1850 -100 -1849 0
-1850 100 0
-1850 1849 0
-1851 98 111 57 59 67 112 0
1851 -98 0
1851 -111 0
1851 -57 0
1851 -59 0
1851 -67 0
1851 -112 0
1852 -115 -1851 0
-1852 115 0
-1852 1851 0
-1853 30 1852 12 14 27 0
1853 -30 0
1853 -1852 0
1853 -12 0
1853 -14 0
1853 -27 0
1854 -74 -1853 0
-1854 74 0
-1854 1853 0
-1855 76 71 1854 0
1855 -76 0
1855 -71 0
1855 -1854 0
1856 -137 -1855 0
-1856 137 0
-1856 1855 0
1857 -140 -1301 0
-1857 140 0
-1857 1301 0
1858 -38 -621 0
-1858 38 0
-1858 621 0
-1859 40 1857 10 1858 0
1859 -40 0
1859 -1857 0
1859 -10 0
1859 -1858 0
1860 -42 -1859 0
-1860 42 0
-1860 1859 0
-1861 50 8 1860 624 0
1861 -50 0
1861 -8 0
1861 -1860 0
1861 -624 0
1862 -52 -1861 0
-1862 52 0
-1862 1861 0
-1863 54 1862 0
1863 -54 0
1863 -1862 0
1864 -155 -1863 0
-1864 155 0
-1864 1863 0
-1865 157 1864 0
1865 -157 0
1865 -1864 0
1866 -159 -1865 0
-1866 159 0
-1866 1865 0
-1867 178 1850 123 125 1856 1866 454 1844 0
1867 -178 0
1867 -1850 0
1867 -123 0
1867 -125 0
1867 -1856 0
1867 -1866 0
1867 -454 0
1867 -1844 0
1868 -180 -1867 0
-1868 180 0
-1868 1867 0
-1869 182 1868 0
1869 -182 0
1869 -1868 0
1870 -243 -1869 0
-1870 243 0
-1870 1869 0
-1871 5 1848 1870 0
1871 -5 0
1871 -1848 0
1871 -1870 0
1872 -70 -1871 0
-1872 70 0
-1872 1871 0
1873 -32 -1173 0
-1873 32 0
-1873 1173 0
-1874 36 1873 33 0
1874 -36 0
1874 -1873 0
1874 -33 0
1875 -38 -1874 0
-1875 38 0
-1875 1874 0
-1876 40 1834 921 1875 0
1876 -40 0
1876 -1834 0
1876 -921 0
1876 -1875 0
1877 -42 -1876 0
-1877 42 0
-1877 1876 0
1878 -44 -1874 0
-1878 44 0
-1878 1874 0
-1879 46 1878 0
1879 -46 0
1879 -1878 0
1880 -48 -1879 0
-1880 48 0
-1880 1879 0
-1881 50 8 1877 1880 0
1881 -50 0
1881 -8 0
1881 -1877 0
1881 -1880 0
1882 -52 -1881 0
-1882 52 0
-1882 1881 0
-1883 54 1882 0
1883 -54 0
1883 -1882 0
1884 -155 -1883 0
-1884 155 0
-1884 1883 0
-1885 157 1884 210 0
1885 -157 0
1885 -1884 0
1885 -210 0
1886 -159 -1885 0
-1886 159 0
-1886 1885 0
-1887 178 1828 199 1886 462 1844 0
1887 -178 0
1887 -1828 0
1887 -199 0
1887 -1886 0
1887 -462 0
1887 -1844 0
1888 -224 -1887 0
-1888 224 0
-1888 1887 0
-1889 3 1888 0
1889 -3 0
1889 -1888 0
1890 -2 -1889 0
-1890 2 0
-1890 1889 0
1891 -32 -1303 0
-1891 32 0
-1891 1303 0
-1892 36 1891 33 0
1892 -36 0
1892 -1891 0
1892 -33 0
1893 -38 -1892 0
-1893 38 0
-1893 1892 0
-1894 40 1857 10 1893 0
1894 -40 0
1894 -1857 0
1894 -10 0
1894 -1893 0
1895 -42 -1894 0
-1895 42 0
-1895 1894 0
1896 -44 -1892 0
-1896 44 0
-1896 1892 0
-1897 46 1896 0
1897 -46 0
1897 -1896 0
1898 -48 -1897 0
-1898 48 0
-1898 1897 0
-1899 50 8 1895 1898 0
1899 -50 0
1899 -8 0
1899 -1895 0
1899 -1898 0
1900 -52 -1899 0
-1900 52 0
-1900 1899 0
-1901 54 1900 0
1901 -54 0
1901 -1900 0
1902 -155 -1901 0
-1902 155 0
-1902 1901 0
-1903 157 1902 0
1903 -157 0
1903 -1902 0
1904 -159 -1903 0
-1904 159 0
-1904 1903 0
-1905 178 1850 123 125 1904 454 1844 0
1905 -178 0
1905 -1850 0
1905 -123 0
1905 -125 0
1905 -1904 0
1905 -454 0
1905 -1844 0
1906 -180 -1905 0
-1906 180 0
-1906 1905 0
-1907 182 1906 0
1907 -182 0
1907 -1906 0
1908 -243 -1907 0
-1908 243 0
-1908 1907 0
-1909 5 1890 1908 0
1909 -5 0
1909 -1890 0
1909 -1908 0
1910 -72 -1909 0
-1910 72 0
-1910 1909 0
-1911 178 199 319 984 462 1844 0
1911 -178 0
1911 -199 0
1911 -319 0
1911 -984 0
1911 -462 0
1911 -1844 0
1912 -224 -1911 0
-1912 224 0
-1912 1911 0
-1913 3 1912 0
1913 -3 0
1913 -1912 0
1914 -2 -1913 0
-1914 2 0
-1914 1913 0
-1915 178 123 125 319 1084 454 1844 0
1915 -178 0
1915 -123 0
1915 -125 0
1915 -319 0
1915 -1084 0
1915 -454 0
1915 -1844 0
1916 -180 -1915 0
-1916 180 0
-1916 1915 0
-1917 182 1916 0
1917 -182 0
1917 -1916 0
1918 -243 -1917 0
-1918 243 0
-1918 1917 0
-1919 5 1914 1918 0
1919 -5 0
1919 -1914 0
1919 -1918 0
1920 -7 -1919 0
-1920 7 0
-1920 1919 0
-1921 178 267 268 271 462 1844 0
1921 -178 0
1921 -267 0
1921 -268 0
1921 -271 0
1921 -462 0
1921 -1844 0
1922 -280 -1921 0
-1922 280 0
-1922 1921 0
-1923 178 301 302 343 271 462 1844 0
1923 -178 0
1923 -301 0
1923 -302 0
1923 -343 0
1923 -271 0
1923 -462 0
1923 -1844 0
1924 -224 -1923 0
-1924 224 0
-1924 1923 0
-1925 3 1924 0
1925 -3 0
1925 -1924 0
1926 -9 -1925 0
-1926 9 0
-1926 1925 0
1927 -2 -1925 0
-1927 2 0
-1927 1925 0
-1928 178 123 125 319 271 454 1844 0
1928 -178 0
1928 -123 0
1928 -125 0
1928 -319 0
1928 -271 0
1928 -454 0
1928 -1844 0
1929 -180 -1928 0
-1929 180 0
-1929 1928 0
-1930 182 1929 0
1930 -182 0
1930 -1929 0
1931 -243 -1930 0
-1931 243 0
-1931 1930 0
-1932 5 1927 1931 0
1932 -5 0
1932 -1927 0
1932 -1931 0
1933 -11 -1932 0
-1933 11 0
-1933 1932 0
1934 -709 -1921 0
-1934 709 0
-1934 1921 0
1935 -315 -1921 0
-1935 315 0
-1935 1921 0
-1936 36 1935 33 0
1936 -36 0
1936 -1935 0
1936 -33 0
1937 -38 -1936 0
-1937 38 0
-1937 1936 0
-1938 40 1933 1934 1937 0
1938 -40 0
1938 -1933 0
1938 -1934 0
1938 -1937 0
1939 -42 -1938 0
-1939 42 0
-1939 1938 0
1940 -44 -1936 0
-1940 44 0
-1940 1936 0
-1941 46 1940 0
1941 -46 0
1941 -1940 0
1942 -48 -1941 0
-1942 48 0
-1942 1941 0
-1943 50 1926 1939 1942 0
1943 -50 0
1943 -1926 0
1943 -1939 0
1943 -1942 0
1944 -52 -1943 0
-1944 52 0
-1944 1943 0
-1945 54 1922 1944 0
1945 -54 0
1945 -1922 0
1945 -1944 0
1946 -56 -1945 0
-1946 56 0
-1946 1945 0
-1947 178 199 319 1021 462 1844 0
1947 -178 0
1947 -199 0
1947 -319 0
1947 -1021 0
1947 -462 0
1947 -1844 0
1948 -224 -1947 0
-1948 224 0
-1948 1947 0
-1949 3 1948 0
1949 -3 0
1949 -1948 0
1950 -2 -1949 0
-1950 2 0
-1950 1949 0
-1951 178 123 199 319 1084 454 1844 0
1951 -178 0
1951 -123 0
1951 -199 0
1951 -319 0
1951 -1084 0
1951 -454 0
1951 -1844 0
1952 -180 -1951 0
-1952 180 0
-1952 1951 0
-1953 182 1952 0
1953 -182 0
1953 -1952 0
1954 -243 -1953 0
-1954 243 0
-1954 1953 0
-1955 5 1950 1954 0
1955 -5 0
1955 -1950 0
1955 -1954 0
1956 -20 -1955 0
-1956 20 0
-1956 1955 0
-1957 22 1956 0
1957 -22 0
1957 -1956 0
1958 -58 -1957 0
-1958 58 0
-1958 1957 0
-1959 178 123 125 1084 454 1844 0
1959 -178 0
1959 -123 0
1959 -125 0
1959 -1084 0
1959 -454 0
1959 -1844 0
1960 -180 -1959 0
-1960 180 0
-1960 1959 0
-1961 182 1960 0
1961 -182 0
1961 -1960 0
1962 -432 -1961 0
-1962 432 0
-1962 1961 0
-1963 178 301 302 343 984 462 1844 0
1963 -178 0
1963 -301 0
1963 -302 0
1963 -343 0
1963 -984 0
1963 -462 0
1963 -1844 0
1964 -224 -1963 0
-1964 224 0
-1964 1963 0
-1965 3 1964 0
1965 -3 0
1965 -1964 0
1966 -62 -1965 0
-1966 62 0
-1966 1965 0
-1967 66 1966 63 0
1967 -66 0
1967 -1966 0
1967 -63 0
1968 -68 -1967 0
-1968 68 0
-1968 1967 0
-1969 98 1920 1946 1958 1962 59 1968 112 0
1969 -98 0
1969 -1920 0
1969 -1946 0
1969 -1958 0
1969 -1962 0
1969 -59 0
1969 -1968 0
1969 -112 0
1970 -115 -1969 0
-1970 115 0
-1970 1969 0
1971 -56 -1074 0
-1971 56 0
-1971 1074 0
-1972 98 1971 546 547 59 67 112 0
1972 -98 0
1972 -1971 0
1972 -546 0
1972 -547 0
1972 -59 0
1972 -67 0
1972 -112 0
1973 -100 -1972 0
-1973 100 0
-1973 1972 0
-1974 178 1973 199 319 1886 462 1844 0
1974 -178 0
1974 -1973 0
1974 -199 0
1974 -319 0
1974 -1886 0
1974 -462 0
1974 -1844 0
1975 -224 -1974 0
-1975 224 0
-1975 1974 0
-1976 3 1975 0
1976 -3 0
1976 -1975 0
1977 -2 -1976 0
-1977 2 0
-1977 1976 0
1978 -100 -1851 0
-1978 100 0
-1978 1851 0
-1979 178 1978 123 125 319 1904 454 1844 0
1979 -178 0
1979 -1978 0
1979 -123 0
1979 -125 0
1979 -319 0
1979 -1904 0
1979 -454 0
1979 -1844 0
1980 -180 -1979 0
-1980 180 0
-1980 1979 0
-1981 182 1980 0
1981 -182 0
1981 -1980 0
1982 -243 -1981 0
-1982 243 0
-1982 1981 0
-1983 5 1977 1982 0
1983 -5 0
1983 -1977 0
1983 -1982 0
1984 -13 -1983 0
-1984 13 0
-1984 1983 0
1985 -100 -113 0
-1985 100 0
-1985 113 0
1986 -140 -1141 0
-1986 140 0
-1986 1141 0
-1987 40 1986 10 102 0
1987 -40 0
1987 -1986 0
1987 -10 0
1987 -102 0
1988 -42 -1987 0
-1988 42 0
-1988 1987 0
-1989 50 8 1988 107 0
1989 -50 0
1989 -8 0
1989 -1988 0
1989 -107 0
1990 -52 -1989 0
-1990 52 0
-1990 1989 0
-1991 54 1990 0
1991 -54 0
1991 -1990 0
1992 -155 -1991 0
-1992 155 0
-1992 1991 0
-1993 157 1992 0
1993 -157 0
1993 -1992 0
1994 -159 -1993 0
-1994 159 0
-1994 1993 0
-1995 178 1985 123 125 1994 454 1844 0
1995 -178 0
1995 -1985 0
1995 -123 0
1995 -125 0
1995 -1994 0
1995 -454 0
1995 -1844 0
1996 -180 -1995 0
-1996 180 0
-1996 1995 0
-1997 182 1996 0
1997 -182 0
1997 -1996 0
1998 -186 -1997 0
-1998 186 0
-1998 1997 0
-1999 98 835 1971 836 547 59 67 112 0
1999 -98 0
1999 -835 0
1999 -1971 0
1999 -836 0
1999 -547 0
1999 -59 0
1999 -67 0
1999 -112 0
2000 -100 -1999 0
-2000 100 0
-2000 1999 0
-2001 40 1834 921 102 0
2001 -40 0
2001 -1834 0
2001 -921 0
2001 -102 0
2002 -42 -2001 0
-2002 42 0
-2002 2001 0
-2003 50 8 2002 107 0
2003 -50 0
2003 -8 0
2003 -2002 0
2003 -107 0
2004 -52 -2003 0
-2004 52 0
-2004 2003 0
-2005 54 2004 0
2005 -54 0
2005 -2004 0
2006 -155 -2005 0
-2006 155 0
-2006 2005 0
-2007 157 2006 210 0
2007 -157 0
2007 -2006 0
2007 -210 0
2008 -159 -2007 0
-2008 159 0
-2008 2007 0
-2009 178 2000 301 302 343 2008 462 1844 0
2009 -178 0
2009 -2000 0
2009 -301 0
2009 -302 0
2009 -343 0
2009 -2008 0
2009 -462 0
2009 -1844 0
2010 -224 -2009 0
-2010 224 0
-2010 2009 0
-2011 3 2010 0
2011 -3 0
2011 -2010 0
2012 -18 -2011 0
-2012 18 0
-2012 2011 0
-2013 98 546 547 59 67 112 0
2013 -98 0
2013 -546 0
2013 -547 0
2013 -59 0
2013 -67 0
2013 -112 0
2014 -140 -2013 0
-2014 140 0
-2014 2013 0
-2015 40 2014 921 102 0
2015 -40 0
2015 -2014 0
2015 -921 0
2015 -102 0
2016 -42 -2015 0
-2016 42 0
-2016 2015 0
-2017 50 8 2016 107 0
2017 -50 0
2017 -8 0
2017 -2016 0
2017 -107 0
2018 -52 -2017 0
-2018 52 0
-2018 2017 0
-2019 54 2018 0
2019 -54 0
2019 -2018 0
2020 -155 -2019 0
-2020 155 0
-2020 2019 0
-2021 157 2020 210 0
2021 -157 0
2021 -2020 0
2021 -210 0
2022 -159 -2021 0
-2022 159 0
-2022 2021 0
-2023 178 1973 199 319 2022 462 1844 0
2023 -178 0
2023 -1973 0
2023 -199 0
2023 -319 0
2023 -2022 0
2023 -462 0
2023 -1844 0
2024 -224 -2023 0
-2024 224 0
-2024 2023 0
-2025 3 2024 0
2025 -3 0
2025 -2024 0
2026 -2 -2025 0
-2026 2 0
-2026 2025 0
-2027 98 111 546 59 67 112 0
2027 -98 0
2027 -111 0
2027 -546 0
2027 -59 0
2027 -67 0
2027 -112 0
2028 -100 -2027 0
-2028 100 0
-2028 2027 0
-2029 40 2014 10 102 0
2029 -40 0
2029 -2014 0
2029 -10 0
2029 -102 0
2030 -42 -2029 0
-2030 42 0
-2030 2029 0
-2031 50 8 2030 107 0
2031 -50 0
2031 -8 0
2031 -2030 0
2031 -107 0
2032 -52 -2031 0
-2032 52 0
-2032 2031 0
-2033 54 2032 0
2033 -54 0
2033 -2032 0
2034 -155 -2033 0
-2034 155 0
-2034 2033 0
-2035 157 2034 0
2035 -157 0
2035 -2034 0
2036 -159 -2035 0
-2036 159 0
-2036 2035 0
-2037 178 2028 123 199 319 2036 454 1844 0
2037 -178 0
2037 -2028 0
2037 -123 0
2037 -199 0
2037 -319 0
2037 -2036 0
2037 -454 0
2037 -1844 0
2038 -180 -2037 0
-2038 180 0
-2038 2037 0
-2039 182 2038 0
2039 -182 0
2039 -2038 0
2040 -243 -2039 0
-2040 243 0
-2040 2039 0
-2041 5 2026 2040 0
2041 -5 0
2041 -2026 0
2041 -2040 0
2042 -20 -2041 0
-2042 20 0
-2042 2041 0
-2043 22 2042 0
2043 -22 0
2043 -2042 0
2044 -24 -2043 0
-2044 24 0
-2044 2043 0
-2045 26 2012 2044 0
2045 -26 0
2045 -2012 0
2045 -2044 0
2046 -28 -2045 0
-2046 28 0
-2046 2045 0
-2047 30 1970 1984 1998 14 2046 0
2047 -30 0
2047 -1970 0
2047 -1984 0
2047 -1998 0
2047 -14 0
2047 -2046 0
2048 -74 -2047 0
-2048 74 0
-2048 2047 0
-2049 76 1910 2048 0
2049 -76 0
2049 -1910 0
2049 -2048 0
2050 -78 -2049 0
-2050 78 0
-2050 2049 0
2051 -56 -1119 0
-2051 56 0
-2051 1119 0
-2052 98 650 2051 652 547 59 67 112 0
2052 -98 0
2052 -650 0
2052 -2051 0
2052 -652 0
2052 -547 0
2052 -59 0
2052 -67 0
2052 -112 0
2053 -100 -2052 0
-2053 100 0
-2053 2052 0
2054 -115 -2052 0
-2054 115 0
-2054 2052 0
-2055 30 2054 250 185 14 255 0
2055 -30 0
2055 -2054 0
2055 -250 0
2055 -185 0
2055 -14 0
2055 -255 0
2056 -74 -2055 0
-2056 74 0
-2056 2055 0
-2057 76 249 2056 0
2057 -76 0
2057 -249 0
2057 -2056 0
2058 -137 -2057 0
-2058 137 0
-2058 2057 0
2059 -32 -1143 0
-2059 32 0
-2059 1143 0
-2060 36 2059 33 0
2060 -36 0
2060 -2059 0
2060 -33 0
2061 -38 -2060 0
-2061 38 0
-2061 2060 0
-2062 40 1986 1113 2061 0
2062 -40 0
2062 -1986 0
2062 -1113 0
2062 -2061 0
2063 -42 -2062 0
-2063 42 0
-2063 2062 0
2064 -44 -2060 0
-2064 44 0
-2064 2060 0
-2065 46 2064 0
2065 -46 0
2065 -2064 0
2066 -48 -2065 0
-2066 48 0
-2066 2065 0
-2067 50 8 2063 2066 0
2067 -50 0
2067 -8 0
2067 -2063 0
2067 -2066 0
2068 -52 -2067 0
-2068 52 0
-2068 2067 0
-2069 54 2068 0
2069 -54 0
2069 -2068 0
2070 -155 -2069 0
-2070 155 0
-2070 2069 0
-2071 157 2070 210 0
2071 -157 0
2071 -2070 0
2071 -210 0
2072 -159 -2071 0
-2072 159 0
-2072 2071 0
-2073 178 2053 267 268 2058 2072 462 1844 0
2073 -178 0
2073 -2053 0
2073 -267 0
2073 -268 0
2073 -2058 0
2073 -2072 0
2073 -462 0
2073 -1844 0
2074 -530 -2073 0
-2074 530 0
-2074 2073 0
-2075 178 1828 199 1833 1886 462 1844 0
2075 -178 0
2075 -1828 0
2075 -199 0
2075 -1833 0
2075 -1886 0
2075 -462 0
2075 -1844 0
2076 -224 -2075 0
-2076 224 0
-2076 2075 0
-2077 3 2076 0
2077 -3 0
2077 -2076 0
2078 -2 -2077 0
-2078 2 0
-2078 2077 0
-2079 178 1850 123 125 1856 1904 454 1844 0
2079 -178 0
2079 -1850 0
2079 -123 0
2079 -125 0
2079 -1856 0
2079 -1904 0
2079 -454 0
2079 -1844 0
2080 -180 -2079 0
-2080 180 0
-2080 2079 0
-2081 182 2080 0
2081 -182 0
2081 -2080 0
2082 -243 -2081 0
-2082 243 0
-2082 2081 0
-2083 5 2078 2082 0
2083 -5 0
2083 -2078 0
2083 -2082 0
2084 -80 -2083 0
-2084 80 0
-2084 2083 0
2085 -534 -2073 0
-2085 534 0
-2085 2073 0
-2086 82 2084 2085 0
2086 -82 0
2086 -2084 0
2086 -2085 0
2087 -84 -2086 0
-2087 84 0
-2087 2086 0
-2088 86 2074 2087 0
2088 -86 0
2088 -2074 0
2088 -2087 0
2089 -88 -2088 0
-2089 88 0
-2089 2088 0
-2090 90 1872 2050 2089 0
2090 -90 0
2090 -1872 0
2090 -2050 0
2090 -2089 0
2091 -2092 -2090 0
-2091 2092 0
-2091 2090 0
-2093 2094 1825 2091 0
2093 -2094 0
2093 -1825 0
2093 -2091 0
2095 -2096 -2093 0
-2095 2096 0
-2095 2093 0
-2097 2098 980 1137 1395 1823 2095 0
2097 -2098 0
2097 -980 0
2097 -1137 0
2097 -1395 0
2097 -1823 0
2097 -2095 0
2099 -2100 -2097 0
-2099 2100 0
-2099 2097 0
-2101 2102 899 919 2099 0
2101 -2102 0
2101 -899 0
2101 -919 0
2101 -2099 0
2103 -2104 -2101 0
-2103 2104 0
-2103 2101 0
-2105 2106 183 2103 0
2105 -2106 0
2105 -183 0
2105 -2103 0
2107 -2105 -2108 0
-2107 2105 0
-2107 2108 0
2107 0
