c BC-S1.2
p cnf 444 1337
1 -2 -3 0
-1 2 0
-1 3 0
-4 5 1 0
4 -5 0
4 -1 0
6 -7 -4 0
-6 7 0
-6 4 0
8 -9 -10 0
-8 9 0
-8 10 0
11 -12 -3 0
-11 12 0
-11 3 0
-13 14 6 8 11 0
13 -14 0
13 -6 0
13 -8 0
13 -11 0
15 -16 -13 0
-15 16 0
-15 13 0
-17 18 15 0
17 -18 0
17 -15 0
19 -20 -17 0
-19 20 0
-19 17 0
21 -22 -23 0
-21 22 0
-21 23 0
24 -25 -17 0
-24 25 0
-24 17 0
-26 27 24 0
26 -27 0
26 -24 0
28 -29 -26 0
-28 29 0
-28 26 0
-30 31 19 21 28 0
30 -31 0
30 -19 0
30 -21 0
30 -28 0
32 -33 -30 0
-32 33 0
-32 30 0
-34 35 32 0
34 -35 0
34 -32 0
36 -37 -34 0
-36 37 0
-36 34 0
-38 39 36 0
38 -39 0
38 -36 0
40 -41 -38 0
-40 41 0
-40 38 0
42 -43 -39 0
-42 43 0
-42 39 0
-44 27 42 0
44 -27 0
44 -42 0
45 -29 -44 0
-45 29 0
-45 44 0
-46 31 21 45 0
46 -31 0
46 -21 0
46 -45 0
47 -33 -46 0
-47 33 0
-47 46 0
-48 35 47 0
48 -35 0
48 -47 0
49 -50 -48 0
-49 50 0
-49 48 0
-51 5 1 49 0
51 -5 0
51 -1 0
51 -49 0
52 -7 -51 0
-52 7 0
-52 51 0
53 -29 -27 0
-53 29 0
-53 27 0
-54 31 21 53 0
54 -31 0
54 -21 0
54 -53 0
55 -33 -54 0
-55 33 0
-55 54 0
-56 35 55 0
56 -35 0
56 -55 0
57 -37 -56 0
-57 37 0
-57 56 0
-58 39 57 0
58 -39 0
58 -57 0
59 -60 -58 0
-59 60 0
-59 58 0
-61 10 59 0
61 -10 0
61 -59 0
62 -9 -61 0
-62 9 0
-62 61 0
-63 14 52 62 11 0
63 -14 0
63 -52 0
63 -62 0
63 -11 0
64 -16 -63 0
-64 16 0
-64 63 0
65 -66 -48 0
-65 66 0
-65 48 0
-67 18 64 65 0
67 -18 0
67 -64 0
67 -65 0
68 -69 -67 0
-68 69 0
-68 67 0
-70 71 40 68 0
70 -71 0
70 -40 0
70 -68 0
72 -73 -70 0
-72 73 0
-72 70 0
74 -20 -18 0
-74 20 0
-74 18 0
75 -25 -18 0
-75 25 0
-75 18 0
-76 27 75 0
76 -27 0
76 -75 0
77 -29 -76 0
-77 29 0
-77 76 0
-78 31 74 21 77 0
78 -31 0
78 -74 0
78 -21 0
78 -77 0
79 -33 -78 0
-79 33 0
-79 78 0
-80 35 79 0
80 -35 0
80 -79 0
81 -37 -80 0
-81 37 0
-81 80 0
-82 39 81 0
82 -39 0
82 -81 0
83 -41 -82 0
-83 41 0
-83 82 0
-84 18 65 0
84 -18 0
84 -65 0
85 -69 -84 0
-85 69 0
-85 84 0
-86 71 83 85 0
86 -71 0
86 -83 0
86 -85 0
87 -88 -86 0
-87 88 0
-87 86 0
89 -90 -86 0
-89 90 0
-89 86 0
91 -41 -39 0
-91 41 0
-91 39 0
92 -69 -18 0
-92 69 0
-92 18 0
-93 71 91 92 0
93 -71 0
93 -91 0
93 -92 0
94 -95 -93 0
-94 95 0
-94 93 0
-96 23 94 0
96 -23 0
96 -94 0
97 -22 -96 0
-97 22 0
-97 96 0
-98 27 42 75 0
98 -27 0
98 -42 0
98 -75 0
99 -29 -98 0
-99 29 0
-99 98 0
-100 31 74 97 99 0
100 -31 0
100 -74 0
100 -97 0
100 -99 0
101 -33 -100 0
-101 33 0
-101 100 0
-102 35 101 0
102 -35 0
102 -101 0
103 -50 -102 0
-103 50 0
-103 102 0
-104 5 89 1 103 0
104 -5 0
104 -89 0
104 -1 0
104 -103 0
105 -7 -104 0
-105 7 0
-105 104 0
-106 31 74 97 77 0
106 -31 0
106 -74 0
106 -97 0
106 -77 0
107 -33 -106 0
-107 33 0
-107 106 0
-108 35 107 0
108 -35 0
108 -107 0
109 -37 -108 0
-109 37 0
-109 108 0
-110 39 109 0
110 -39 0
110 -109 0
111 -60 -110 0
-111 60 0
-111 110 0
-112 10 111 0
112 -10 0
112 -111 0
113 -9 -112 0
-113 9 0
-113 112 0
-114 14 87 105 113 11 0
114 -14 0
114 -87 0
114 -105 0
114 -113 0
114 -11 0
115 -116 -114 0
-115 116 0
-115 114 0
117 -118 -3 0
-117 118 0
-117 3 0
119 -88 -93 0
-119 88 0
-119 93 0
120 -90 -93 0
-120 90 0
-120 93 0
-121 5 120 1 0
121 -5 0
121 -120 0
121 -1 0
122 -7 -121 0
-122 7 0
-122 121 0
123 -60 -39 0
-123 60 0
-123 39 0
-124 10 123 0
124 -10 0
124 -123 0
125 -9 -124 0
-125 9 0
-125 124 0
-126 14 119 122 125 11 0
126 -14 0
126 -119 0
126 -122 0
126 -125 0
126 -11 0
127 -16 -126 0
-127 16 0
-127 126 0
-128 18 127 0
128 -18 0
128 -127 0
129 -20 -128 0
-129 20 0
-129 128 0
-130 14 6 125 11 0
130 -14 0
130 -6 0
130 -125 0
130 -11 0
131 -16 -130 0
-131 16 0
-131 130 0
-132 18 131 0
132 -18 0
132 -131 0
133 -69 -132 0
-133 69 0
-133 132 0
-134 71 91 133 0
134 -71 0
134 -91 0
134 -133 0
135 -95 -134 0
-135 95 0
-135 134 0
-136 23 135 0
136 -23 0
136 -135 0
137 -22 -136 0
-137 22 0
-137 136 0
138 -25 -128 0
-138 25 0
-138 128 0
-139 27 42 138 0
139 -27 0
139 -42 0
139 -138 0
140 -29 -139 0
-140 29 0
-140 139 0
-141 31 129 137 140 0
141 -31 0
141 -129 0
141 -137 0
141 -140 0
142 -33 -141 0
-142 33 0
-142 141 0
-143 35 142 0
143 -35 0
143 -142 0
144 -145 -143 0
-144 145 0
-144 143 0
-146 147 72 115 117 144 0
146 -147 0
146 -72 0
146 -115 0
146 -117 0
146 -144 0
148 -149 -146 0
-148 149 0
-148 146 0
-150 27 138 0
150 -27 0
150 -138 0
151 -29 -150 0
-151 29 0
-151 150 0
-152 31 129 137 151 0
152 -31 0
152 -129 0
152 -137 0
152 -151 0
153 -33 -152 0
-153 33 0
-153 152 0
-154 35 153 0
154 -35 0
154 -153 0
155 -37 -154 0
-155 37 0
-155 154 0
-156 39 155 0
156 -39 0
156 -155 0
157 -158 -156 0
-157 158 0
-157 156 0
-159 160 148 157 0
159 -160 0
159 -148 0
159 -157 0
161 -162 -159 0
-161 162 0
-161 159 0
-163 147 117 0
163 -147 0
163 -117 0
164 -149 -163 0
-164 149 0
-164 163 0
-165 160 164 0
165 -160 0
165 -164 0
166 -167 -165 0
-166 167 0
-166 165 0
-168 5 166 1 0
168 -5 0
168 -166 0
168 -1 0
169 -7 -168 0
-169 7 0
-169 168 0
-170 14 169 8 11 0
170 -14 0
170 -169 0
170 -8 0
170 -11 0
171 -16 -170 0
-171 16 0
-171 170 0
-172 18 171 0
172 -18 0
172 -171 0
173 -20 -172 0
-173 20 0
-173 172 0
174 -25 -172 0
-174 25 0
-174 172 0
-175 27 174 0
175 -27 0
175 -174 0
176 -29 -175 0
-176 29 0
-176 175 0
-177 31 173 21 176 0
177 -31 0
177 -173 0
177 -21 0
177 -176 0
178 -33 -177 0
-178 33 0
-178 177 0
-179 35 178 0
179 -35 0
179 -178 0
180 -37 -179 0
-180 37 0
-180 179 0
-181 39 180 0
181 -39 0
181 -180 0
182 -41 -181 0
-182 41 0
-182 181 0
183 -145 -48 0
-183 145 0
-183 48 0
-184 147 117 183 0
184 -147 0
184 -117 0
184 -183 0
185 -149 -184 0
-185 149 0
-185 184 0
186 -158 -58 0
-186 158 0
-186 58 0
-187 160 185 186 0
187 -160 0
187 -185 0
187 -186 0
188 -167 -187 0
-188 167 0
-188 187 0
-189 5 188 1 49 0
189 -5 0
189 -188 0
189 -1 0
189 -49 0
190 -7 -189 0
-190 7 0
-190 189 0
-191 14 190 62 11 0
191 -14 0
191 -190 0
191 -62 0
191 -11 0
192 -16 -191 0
-192 16 0
-192 191 0
-193 18 192 65 0
193 -18 0
193 -192 0
193 -65 0
194 -69 -193 0
-194 69 0
-194 193 0
-195 71 182 194 0
195 -71 0
195 -182 0
195 -194 0
196 -197 -195 0
-196 197 0
-196 195 0
198 -167 -160 0
-198 167 0
-198 160 0
-199 5 198 1 0
199 -5 0
199 -198 0
199 -1 0
200 -7 -199 0
-200 7 0
-200 199 0
-201 14 200 8 11 0
201 -14 0
201 -200 0
201 -8 0
201 -11 0
202 -16 -201 0
-202 16 0
-202 201 0
-203 18 202 0
203 -18 0
203 -202 0
204 -20 -203 0
-204 20 0
-204 203 0
205 -25 -203 0
-205 25 0
-205 203 0
-206 27 205 0
206 -27 0
206 -205 0
207 -29 -206 0
-207 29 0
-207 206 0
-208 31 204 21 207 0
208 -31 0
208 -204 0
208 -21 0
208 -207 0
209 -33 -208 0
-209 33 0
-209 208 0
-210 35 209 0
210 -35 0
210 -209 0
211 -37 -210 0
-211 37 0
-211 210 0
-212 39 211 0
212 -39 0
212 -211 0
213 -41 -212 0
-213 41 0
-213 212 0
-214 160 186 0
214 -160 0
214 -186 0
215 -167 -214 0
-215 167 0
-215 214 0
-216 5 215 1 49 0
216 -5 0
216 -215 0
216 -1 0
216 -49 0
217 -7 -216 0
-217 7 0
-217 216 0
-218 14 217 62 11 0
218 -14 0
218 -217 0
218 -62 0
218 -11 0
219 -16 -218 0
-219 16 0
-219 218 0
-220 18 219 65 0
220 -18 0
220 -219 0
220 -65 0
221 -69 -220 0
-221 69 0
-221 220 0
-222 71 213 221 0
222 -71 0
222 -213 0
222 -221 0
223 -73 -222 0
-223 73 0
-223 222 0
224 -158 -110 0
-224 158 0
-224 110 0
-225 160 224 0
225 -160 0
225 -224 0
226 -167 -225 0
-226 167 0
-226 225 0
-227 5 226 89 1 103 0
227 -5 0
227 -226 0
227 -89 0
227 -1 0
227 -103 0
228 -7 -227 0
-228 7 0
-228 227 0
-229 14 87 228 113 11 0
229 -14 0
229 -87 0
229 -228 0
229 -113 0
229 -11 0
230 -116 -229 0
-230 116 0
-230 229 0
231 -158 -39 0
-231 158 0
-231 39 0
-232 160 231 0
232 -160 0
232 -231 0
233 -167 -232 0
-233 167 0
-233 232 0
-234 5 233 120 1 0
234 -5 0
234 -233 0
234 -120 0
234 -1 0
235 -7 -234 0
-235 7 0
-235 234 0
-236 14 119 235 125 11 0
236 -14 0
236 -119 0
236 -235 0
236 -125 0
236 -11 0
237 -16 -236 0
-237 16 0
-237 236 0
-238 18 237 0
238 -18 0
238 -237 0
239 -20 -238 0
-239 20 0
-239 238 0
-240 5 233 1 0
240 -5 0
240 -233 0
240 -1 0
241 -7 -240 0
-241 7 0
-241 240 0
-242 14 241 125 11 0
242 -14 0
242 -241 0
242 -125 0
242 -11 0
243 -16 -242 0
-243 16 0
-243 242 0
-244 18 243 0
244 -18 0
244 -243 0
245 -69 -244 0
-245 69 0
-245 244 0
-246 71 91 245 0
246 -71 0
246 -91 0
246 -245 0
247 -95 -246 0
-247 95 0
-247 246 0
-248 23 247 0
248 -23 0
248 -247 0
249 -22 -248 0
-249 22 0
-249 248 0
250 -25 -238 0
-250 25 0
-250 238 0
-251 27 42 250 0
251 -27 0
251 -42 0
251 -250 0
252 -29 -251 0
-252 29 0
-252 251 0
-253 31 239 249 252 0
253 -31 0
253 -239 0
253 -249 0
253 -252 0
254 -33 -253 0
-254 33 0
-254 253 0
-255 35 254 0
255 -35 0
255 -254 0
256 -145 -255 0
-256 145 0
-256 255 0
-257 147 223 230 117 256 0
257 -147 0
257 -223 0
257 -230 0
257 -117 0
257 -256 0
258 -259 -257 0
-258 259 0
-258 257 0
260 -261 -3 0
-260 261 0
-260 3 0
262 -73 -93 0
-262 73 0
-262 93 0
-263 147 262 117 0
263 -147 0
263 -262 0
263 -117 0
264 -149 -263 0
-264 149 0
-264 263 0
-265 160 264 231 0
265 -160 0
265 -264 0
265 -231 0
266 -167 -265 0
-266 167 0
-266 265 0
-267 5 266 120 1 0
267 -5 0
267 -266 0
267 -120 0
267 -1 0
268 -7 -267 0
-268 7 0
-268 267 0
-269 14 119 268 125 11 0
269 -14 0
269 -119 0
269 -268 0
269 -125 0
269 -11 0
270 -16 -269 0
-270 16 0
-270 269 0
-271 18 270 0
271 -18 0
271 -270 0
272 -20 -271 0
-272 20 0
-272 271 0
-273 160 164 231 0
273 -160 0
273 -164 0
273 -231 0
274 -167 -273 0
-274 167 0
-274 273 0
-275 5 274 1 0
275 -5 0
275 -274 0
275 -1 0
276 -7 -275 0
-276 7 0
-276 275 0
-277 14 276 125 11 0
277 -14 0
277 -276 0
277 -125 0
277 -11 0
278 -16 -277 0
-278 16 0
-278 277 0
-279 18 278 0
279 -18 0
279 -278 0
280 -69 -279 0
-280 69 0
-280 279 0
-281 71 91 280 0
281 -71 0
281 -91 0
281 -280 0
282 -95 -281 0
-282 95 0
-282 281 0
-283 23 282 0
283 -23 0
283 -282 0
284 -22 -283 0
-284 22 0
-284 283 0
285 -25 -271 0
-285 25 0
-285 271 0
-286 27 42 285 0
286 -27 0
286 -42 0
286 -285 0
287 -29 -286 0
-287 29 0
-287 286 0
-288 31 272 284 287 0
288 -31 0
288 -272 0
288 -284 0
288 -287 0
289 -33 -288 0
-289 33 0
-289 288 0
-290 35 289 0
290 -35 0
290 -289 0
291 -292 -290 0
-291 292 0
-291 290 0
293 -41 -58 0
-293 41 0
-293 58 0
-294 71 293 0
294 -71 0
294 -293 0
295 -88 -294 0
-295 88 0
-295 294 0
296 -73 -294 0
-296 73 0
-296 294 0
-297 31 97 45 0
297 -31 0
297 -97 0
297 -45 0
298 -33 -297 0
-298 33 0
-298 297 0
-299 35 298 0
299 -35 0
299 -298 0
300 -145 -299 0
-300 145 0
-300 299 0
-301 147 296 117 300 0
301 -147 0
301 -296 0
301 -117 0
301 -300 0
302 -149 -301 0
-302 149 0
-302 301 0
-303 31 97 53 0
303 -31 0
303 -97 0
303 -53 0
304 -33 -303 0
-304 33 0
-304 303 0
-305 35 304 0
305 -35 0
305 -304 0
306 -37 -305 0
-306 37 0
-306 305 0
-307 39 306 0
307 -39 0
307 -306 0
308 -158 -307 0
-308 158 0
-308 307 0
-309 160 302 308 0
309 -160 0
309 -302 0
309 -308 0
310 -167 -309 0
-310 167 0
-310 309 0
311 -90 -294 0
-311 90 0
-311 294 0
312 -50 -299 0
-312 50 0
-312 299 0
-313 5 310 311 1 312 0
313 -5 0
313 -310 0
313 -311 0
313 -1 0
313 -312 0
314 -7 -313 0
-314 7 0
-314 313 0
315 -60 -307 0
-315 60 0
-315 307 0
-316 10 315 0
316 -10 0
316 -315 0
317 -9 -316 0
-317 9 0
-317 316 0
-318 14 295 314 317 11 0
318 -14 0
318 -295 0
318 -314 0
318 -317 0
318 -11 0
319 -16 -318 0
-319 16 0
-319 318 0
-320 71 91 0
320 -71 0
320 -91 0
321 -95 -320 0
-321 95 0
-321 320 0
-322 23 321 0
322 -23 0
322 -321 0
323 -22 -322 0
-323 22 0
-323 322 0
-324 31 323 45 0
324 -31 0
324 -323 0
324 -45 0
325 -33 -324 0
-325 33 0
-325 324 0
-326 35 325 0
326 -35 0
326 -325 0
327 -66 -326 0
-327 66 0
-327 326 0
-328 18 319 327 0
328 -18 0
328 -319 0
328 -327 0
329 -330 -328 0
-329 330 0
-329 328 0
-331 14 119 268 11 0
331 -14 0
331 -119 0
331 -268 0
331 -11 0
332 -16 -331 0
-332 16 0
-332 331 0
-333 18 332 0
333 -18 0
333 -332 0
334 -20 -333 0
-334 20 0
-334 333 0
-335 14 169 11 0
335 -14 0
335 -169 0
335 -11 0
336 -16 -335 0
-336 16 0
-336 335 0
-337 18 336 0
337 -18 0
337 -336 0
338 -69 -337 0
-338 69 0
-338 337 0
-339 71 91 338 0
339 -71 0
339 -91 0
339 -338 0
340 -95 -339 0
-340 95 0
-340 339 0
-341 23 340 0
341 -23 0
341 -340 0
342 -22 -341 0
-342 22 0
-342 341 0
343 -25 -333 0
-343 25 0
-343 333 0
-344 27 343 0
344 -27 0
344 -343 0
345 -29 -344 0
-345 29 0
-345 344 0
-346 31 334 342 345 0
346 -31 0
346 -334 0
346 -342 0
346 -345 0
347 -33 -346 0
-347 33 0
-347 346 0
-348 35 347 0
348 -35 0
348 -347 0
349 -37 -348 0
-349 37 0
-349 348 0
-350 39 349 0
350 -39 0
350 -349 0
351 -60 -350 0
-351 60 0
-351 350 0
-352 10 351 0
352 -10 0
352 -351 0
353 -354 -352 0
-353 354 0
-353 352 0
-355 356 161 196 258 260 291 329 353 0
355 -356 0
355 -161 0
355 -196 0
355 -258 0
355 -260 0
355 -291 0
355 -329 0
355 -353 0
357 -358 -355 0
-357 358 0
-357 355 0
359 -162 -265 0
-359 162 0
-359 265 0
360 -197 -93 0
-360 197 0
-360 93 0
361 -259 -263 0
-361 259 0
-361 263 0
362 -354 -10 0
-362 354 0
-362 10 0
-363 356 359 360 361 260 362 0
363 -356 0
363 -359 0
363 -360 0
363 -361 0
363 -260 0
363 -362 0
364 -365 -363 0
-364 365 0
-364 363 0
366 -367 -363 0
-366 367 0
-366 363 0
-368 5 266 120 366 1 0
368 -5 0
368 -266 0
368 -120 0
368 -366 0
368 -1 0
369 -7 -368 0
-369 7 0
-369 368 0
-370 14 119 364 369 8 11 0
370 -14 0
370 -119 0
370 -364 0
370 -369 0
370 -8 0
370 -11 0
371 -16 -370 0
-371 16 0
-371 370 0
-372 18 371 0
372 -18 0
372 -371 0
373 -20 -372 0
-373 20 0
-373 372 0
374 -162 -165 0
-374 162 0
-374 165 0
375 -259 -163 0
-375 259 0
-375 163 0
-376 356 374 375 260 362 0
376 -356 0
376 -374 0
376 -375 0
376 -260 0
376 -362 0
377 -365 -376 0
-377 365 0
-377 376 0
378 -367 -376 0
-378 367 0
-378 376 0
-379 5 166 378 1 0
379 -5 0
379 -166 0
379 -378 0
379 -1 0
380 -7 -379 0
-380 7 0
-380 379 0
-381 14 377 380 8 11 0
381 -14 0
381 -377 0
381 -380 0
381 -8 0
381 -11 0
382 -16 -381 0
-382 16 0
-382 381 0
-383 18 382 0
383 -18 0
383 -382 0
384 -69 -383 0
-384 69 0
-384 383 0
-385 71 91 384 0
385 -71 0
385 -91 0
385 -384 0
386 -95 -385 0
-386 95 0
-386 385 0
-387 23 386 0
387 -23 0
387 -386 0
388 -22 -387 0
-388 22 0
-388 387 0
-389 31 373 388 0
389 -31 0
389 -373 0
389 -388 0
390 -33 -389 0
-390 33 0
-390 389 0
-391 35 390 0
391 -35 0
391 -390 0
392 -37 -391 0
-392 37 0
-392 391 0
-393 39 392 0
393 -39 0
393 -392 0
394 -43 -393 0
-394 43 0
-394 393 0
-395 31 21 0
395 -31 0
395 -21 0
396 -33 -395 0
-396 33 0
-396 395 0
-397 35 396 0
397 -35 0
397 -396 0
398 -37 -397 0
-398 37 0
-398 397 0
-399 39 398 0
399 -39 0
399 -398 0
400 -41 -399 0
-400 41 0
-400 399 0
-401 71 400 0
401 -71 0
401 -400 0
402 -88 -401 0
-402 88 0
-402 401 0
403 -73 -401 0
-403 73 0
-403 401 0
-404 31 97 0
404 -31 0
404 -97 0
405 -33 -404 0
-405 33 0
-405 404 0
-406 35 405 0
406 -35 0
406 -405 0
407 -145 -406 0
-407 145 0
-407 406 0
-408 147 403 117 407 0
408 -147 0
408 -403 0
408 -117 0
408 -407 0
409 -149 -408 0
-409 149 0
-409 408 0
410 -37 -406 0
-410 37 0
-410 406 0
-411 39 410 0
411 -39 0
411 -410 0
412 -158 -411 0
-412 158 0
-412 411 0
-413 160 409 412 0
413 -160 0
413 -409 0
413 -412 0
414 -162 -413 0
-414 162 0
-414 413 0
415 -197 -401 0
-415 197 0
-415 401 0
416 -259 -408 0
-416 259 0
-416 408 0
417 -292 -406 0
-417 292 0
-417 406 0
418 -60 -411 0
-418 60 0
-418 411 0
-419 10 418 0
419 -10 0
419 -418 0
420 -354 -419 0
-420 354 0
-420 419 0
-421 356 414 415 416 260 417 420 0
421 -356 0
421 -414 0
421 -415 0
421 -416 0
421 -260 0
421 -417 0
421 -420 0
422 -365 -421 0
-422 365 0
-422 421 0
423 -167 -413 0
-423 167 0
-423 413 0
424 -90 -401 0
-424 90 0
-424 401 0
425 -367 -421 0
-425 367 0
-425 421 0
426 -50 -406 0
-426 50 0
-426 406 0
-427 5 423 424 425 1 426 0
427 -5 0
427 -423 0
427 -424 0
427 -425 0
427 -1 0
427 -426 0
428 -7 -427 0
-428 7 0
-428 427 0
429 -9 -419 0
-429 9 0
-429 419 0
-430 14 402 422 428 429 11 0
430 -14 0
430 -402 0
430 -422 0
430 -428 0
430 -429 0
430 -11 0
431 -16 -430 0
-431 16 0
-431 430 0
-432 31 323 0
432 -31 0
432 -323 0
433 -33 -432 0
-433 33 0
-433 432 0
-434 35 433 0
434 -35 0
434 -433 0
435 -66 -434 0
-435 66 0
-435 434 0
-436 18 431 435 0
436 -18 0
436 -431 0
436 -435 0
437 -25 -436 0
-437 25 0
-437 436 0
-438 27 394 437 0
438 -27 0
438 -394 0
438 -437 0
439 -440 -438 0
-439 440 0
-439 438 0
-441 442 357 439 0
441 -442 0
441 -357 0
441 -439 0
443 -441 -444 0
-443 441 0
-443 444 0
443 0
