c BC-S1.2
p cnf 127 310
1 -2 -3 0
-1 2 0
-1 3 0
4 -5 -6 0
-4 5 0
-4 6 0
7 -8 -9 0
-7 8 0
-7 9 0
-10 11 7 0
10 -11 0
10 -7 0
12 -13 -10 0
-12 13 0
-12 10 0
14 -15 -16 0
-14 15 0
-14 16 0
-17 18 12 14 0
17 -18 0
17 -12 0
17 -14 0
19 -20 -17 0
-19 20 0
-19 17 0
-21 22 19 0
21 -22 0
21 -19 0
23 -24 -21 0
-23 24 0
-23 21 0
25 -26 -21 0
-25 26 0
-25 21 0
-27 18 25 12 14 0
27 -18 0
27 -25 0
27 -12 0
27 -14 0
28 -29 -27 0
-28 29 0
-28 27 0
-30 11 7 28 0
30 -11 0
30 -7 0
30 -28 0
31 -32 -30 0
-31 32 0
-31 30 0
-33 34 1 4 23 31 0
33 -34 0
33 -1 0
33 -4 0
33 -23 0
33 -31 0
35 -36 -33 0
-35 36 0
-35 33 0
37 -29 -17 0
-37 29 0
-37 17 0
-38 11 7 37 0
38 -11 0
38 -7 0
38 -37 0
39 -32 -38 0
-39 32 0
-39 38 0
-40 34 1 4 39 0
40 -34 0
40 -1 0
40 -4 0
40 -39 0
41 -42 -40 0
-41 42 0
-41 40 0
-43 34 1 4 0
43 -34 0
43 -1 0
43 -4 0
44 -45 -43 0
-44 45 0
-44 43 0
-46 11 44 7 0
46 -11 0
46 -44 0
46 -7 0
47 -13 -46 0
-47 13 0
-47 46 0
-48 18 47 14 0
48 -18 0
48 -47 0
48 -14 0
49 -20 -48 0
-49 20 0
-49 48 0
-50 22 41 49 0
50 -22 0
50 -41 0
50 -49 0
51 -52 -50 0
-51 52 0
-51 50 0
-53 54 35 51 0
53 -54 0
53 -35 0
53 -51 0
55 -56 -53 0
-55 56 0
-55 53 0
57 -58 -54 0
-57 58 0
-57 54 0
59 -32 -10 0
-59 32 0
-59 10 0
-60 34 1 4 57 59 0
60 -34 0
60 -1 0
60 -4 0
60 -57 0
60 -59 0
61 -42 -60 0
-61 42 0
-61 60 0
-62 34 1 4 59 0
62 -34 0
62 -1 0
62 -4 0
62 -59 0
63 -36 -62 0
-63 36 0
-63 62 0
-64 54 63 0
64 -54 0
64 -63 0
65 -66 -64 0
-65 66 0
-65 64 0
-67 22 61 65 0
67 -22 0
67 -61 0
67 -65 0
68 -26 -67 0
-68 26 0
-68 67 0
69 -52 -22 0
-69 52 0
-69 22 0
-70 54 69 0
70 -54 0
70 -69 0
71 -58 -70 0
-71 58 0
-71 70 0
72 -66 -54 0
-72 66 0
-72 54 0
-73 22 72 0
73 -22 0
73 -72 0
74 -24 -73 0
-74 24 0
-74 73 0
-75 34 1 4 71 74 0
75 -34 0
75 -1 0
75 -4 0
75 -71 0
75 -74 0
76 -45 -75 0
-76 45 0
-76 75 0
-77 11 76 7 0
77 -11 0
77 -76 0
77 -7 0
78 -13 -77 0
-78 13 0
-78 77 0
-79 18 68 78 0
79 -18 0
79 -68 0
79 -78 0
80 -81 -79 0
-80 81 0
-80 79 0
-82 16 80 0
82 -16 0
82 -80 0
83 -84 -82 0
-83 84 0
-83 82 0
-85 86 55 83 0
85 -86 0
85 -55 0
85 -83 0
87 -88 -85 0
-87 88 0
-87 85 0
89 -90 -86 0
-89 90 0
-89 86 0
-91 54 89 0
91 -54 0
91 -89 0
92 -58 -91 0
-92 58 0
-92 91 0
-93 34 1 4 92 59 0
93 -34 0
93 -1 0
93 -4 0
93 -92 0
93 -59 0
94 -42 -93 0
-94 42 0
-94 93 0
-95 54 63 89 0
95 -54 0
95 -63 0
95 -89 0
96 -66 -95 0
-96 66 0
-96 95 0
-97 22 94 96 0
97 -22 0
97 -94 0
97 -96 0
98 -26 -97 0
-98 26 0
-98 97 0
-99 54 89 69 0
99 -54 0
99 -89 0
99 -69 0
100 -58 -99 0
-100 58 0
-100 99 0
101 -66 -91 0
-101 66 0
-101 91 0
-102 22 101 0
102 -22 0
102 -101 0
103 -24 -102 0
-103 24 0
-103 102 0
-104 34 1 4 100 103 0
104 -34 0
104 -1 0
104 -4 0
104 -100 0
104 -103 0
105 -45 -104 0
-105 45 0
-105 104 0
-106 11 105 7 0
106 -11 0
106 -105 0
106 -7 0
107 -13 -106 0
-107 13 0
-107 106 0
-108 18 98 107 0
108 -18 0
108 -98 0
108 -107 0
109 -81 -108 0
-109 81 0
-109 108 0
-110 16 109 0
110 -16 0
110 -109 0
111 -112 -110 0
-111 112 0
-111 110 0
-113 114 87 111 0
113 -114 0
113 -87 0
113 -111 0
115 -116 -113 0
-115 116 0
-115 113 0
117 -112 -82 0
-117 112 0
-117 82 0
-118 114 117 0
118 -114 0
118 -117 0
119 -120 -118 0
-119 120 0
-119 118 0
-121 86 119 55 83 0
121 -86 0
121 -119 0
121 -55 0
121 -83 0
122 -123 -121 0
-122 123 0
-122 121 0
-124 125 115 122 0
124 -125 0
124 -115 0
124 -122 0
126 -124 -127 0
-126 124 0
-126 127 0
126 0
