c BC-S1.2
p cnf 217 601
1 -2 -3 0
-1 2 0
-1 3 0
4 -5 -6 0
-4 5 0
-4 6 0
-7 8 1 4 0
7 -8 0
7 -1 0
7 -4 0
9 -10 -7 0
-9 10 0
-9 7 0
11 -12 -3 0
-11 12 0
-11 3 0
13 -14 -15 0
-13 14 0
-13 15 0
16 -17 -15 0
-16 17 0
-16 15 0
18 -19 -6 0
-18 19 0
-18 6 0
-20 21 16 18 0
20 -21 0
20 -16 0
20 -18 0
22 -23 -20 0
-22 23 0
-22 20 0
24 -25 -15 0
-24 25 0
-24 15 0
26 -27 -28 0
-26 27 0
-26 28 0
-29 30 24 26 0
29 -30 0
29 -24 0
29 -26 0
31 -32 -29 0
-31 32 0
-31 29 0
-33 34 13 22 31 0
33 -34 0
33 -13 0
33 -22 0
33 -31 0
35 -36 -33 0
-35 36 0
-35 33 0
37 -38 -28 0
-37 38 0
-37 28 0
-39 40 11 35 37 0
39 -40 0
39 -11 0
39 -35 0
39 -37 0
41 -42 -39 0
-41 42 0
-41 39 0
43 -44 -15 0
-43 44 0
-43 15 0
45 -46 -47 0
-45 46 0
-45 47 0
-48 49 9 41 43 45 0
48 -49 0
48 -9 0
48 -41 0
48 -43 0
48 -45 0
50 -51 -48 0
-50 51 0
-50 48 0
-52 8 1 0
52 -8 0
52 -1 0
53 -10 -52 0
-53 10 0
-53 52 0
-54 49 53 43 45 0
54 -49 0
54 -53 0
54 -43 0
54 -45 0
55 -56 -54 0
-55 56 0
-55 54 0
-57 6 55 0
57 -6 0
57 -55 0
58 -19 -57 0
-58 19 0
-58 57 0
-59 21 16 58 0
59 -21 0
59 -16 0
59 -58 0
60 -23 -59 0
-60 23 0
-60 59 0
-61 34 13 60 31 0
61 -34 0
61 -13 0
61 -60 0
61 -31 0
62 -36 -61 0
-62 36 0
-62 61 0
-63 40 11 62 37 0
63 -40 0
63 -11 0
63 -62 0
63 -37 0
64 -65 -63 0
-64 65 0
-64 63 0
-66 40 11 37 0
66 -40 0
66 -11 0
66 -37 0
67 -42 -66 0
-67 42 0
-67 66 0
-68 49 53 67 43 45 0
68 -49 0
68 -53 0
68 -67 0
68 -43 0
68 -45 0
69 -56 -68 0
-69 56 0
-69 68 0
-70 6 69 0
70 -6 0
70 -69 0
71 -19 -70 0
-71 19 0
-71 70 0
-72 21 16 71 0
72 -21 0
72 -16 0
72 -71 0
73 -23 -72 0
-73 23 0
-73 72 0
-74 34 13 73 31 0
74 -34 0
74 -13 0
74 -73 0
74 -31 0
75 -76 -74 0
-75 76 0
-75 74 0
-77 78 50 64 75 0
77 -78 0
77 -50 0
77 -64 0
77 -75 0
79 -80 -77 0
-79 80 0
-79 77 0
81 -65 -39 0
-81 65 0
-81 39 0
82 -76 -33 0
-82 76 0
-82 33 0
-83 78 81 82 0
83 -78 0
83 -81 0
83 -82 0
84 -85 -83 0
-84 85 0
-84 83 0
86 -87 -83 0
-86 87 0
-86 83 0
-88 6 86 0
88 -6 0
88 -86 0
89 -5 -88 0
-89 5 0
-89 88 0
-90 8 84 1 89 0
90 -8 0
90 -84 0
90 -1 0
90 -89 0
91 -10 -90 0
-91 10 0
-91 90 0
92 -87 -78 0
-92 87 0
-92 78 0
-93 6 92 0
93 -6 0
93 -92 0
94 -19 -93 0
-94 19 0
-94 93 0
-95 21 16 94 0
95 -21 0
95 -16 0
95 -94 0
96 -23 -95 0
-96 23 0
-96 95 0
-97 34 13 96 31 0
97 -34 0
97 -13 0
97 -96 0
97 -31 0
98 -36 -97 0
-98 36 0
-98 97 0
-99 40 11 98 37 0
99 -40 0
99 -11 0
99 -98 0
99 -37 0
100 -42 -99 0
-100 42 0
-100 99 0
-101 49 91 100 43 45 0
101 -49 0
101 -91 0
101 -100 0
101 -43 0
101 -45 0
102 -103 -101 0
-102 103 0
-102 101 0
104 -51 -54 0
-104 51 0
-104 54 0
-105 78 104 0
105 -78 0
105 -104 0
106 -87 -105 0
-106 87 0
-106 105 0
107 -85 -78 0
-107 85 0
-107 78 0
-108 8 107 1 0
108 -8 0
108 -107 0
108 -1 0
109 -10 -108 0
-109 10 0
-109 108 0
-110 49 109 43 45 0
110 -49 0
110 -109 0
110 -43 0
110 -45 0
111 -56 -110 0
-111 56 0
-111 110 0
-112 6 106 111 0
112 -6 0
112 -106 0
112 -111 0
113 -19 -112 0
-113 19 0
-113 112 0
-114 21 16 113 0
114 -21 0
114 -16 0
114 -113 0
115 -23 -114 0
-115 23 0
-115 114 0
-116 34 13 115 31 0
116 -34 0
116 -13 0
116 -115 0
116 -31 0
117 -36 -116 0
-117 36 0
-117 116 0
-118 40 11 117 37 0
118 -40 0
118 -11 0
118 -117 0
118 -37 0
119 -120 -118 0
-119 120 0
-119 118 0
121 -122 -15 0
-121 122 0
-121 15 0
123 -124 -29 0
-123 124 0
-123 29 0
-125 126 79 102 119 121 123 0
125 -126 0
125 -79 0
125 -102 0
125 -119 0
125 -121 0
125 -123 0
127 -128 -125 0
-127 128 0
-127 125 0
129 -130 -3 0
-129 130 0
-129 3 0
131 -132 -15 0
-131 132 0
-131 15 0
-133 134 127 129 131 0
133 -134 0
133 -127 0
133 -129 0
133 -131 0
135 -136 -133 0
-135 136 0
-135 133 0
137 -138 -3 0
-137 138 0
-137 3 0
-139 134 129 131 0
139 -134 0
139 -129 0
139 -131 0
140 -141 -139 0
-140 141 0
-140 139 0
-142 40 140 11 35 37 0
142 -40 0
142 -140 0
142 -11 0
142 -35 0
142 -37 0
143 -42 -142 0
-143 42 0
-143 142 0
144 -145 -139 0
-144 145 0
-144 139 0
-146 49 9 143 144 43 0
146 -49 0
146 -9 0
146 -143 0
146 -144 0
146 -43 0
147 -51 -146 0
-147 51 0
-147 146 0
-148 49 53 144 43 0
148 -49 0
148 -53 0
148 -144 0
148 -43 0
149 -56 -148 0
-149 56 0
-149 148 0
-150 6 149 0
150 -6 0
150 -149 0
151 -19 -150 0
-151 19 0
-151 150 0
-152 21 16 151 0
152 -21 0
152 -16 0
152 -151 0
153 -23 -152 0
-153 23 0
-153 152 0
-154 34 13 153 31 0
154 -34 0
154 -13 0
154 -153 0
154 -31 0
155 -36 -154 0
-155 36 0
-155 154 0
-156 40 140 11 155 37 0
156 -40 0
156 -140 0
156 -11 0
156 -155 0
156 -37 0
157 -65 -156 0
-157 65 0
-157 156 0
158 -159 -139 0
-158 159 0
-158 139 0
-160 40 140 11 37 0
160 -40 0
160 -140 0
160 -11 0
160 -37 0
161 -42 -160 0
-161 42 0
-161 160 0
-162 49 53 161 144 43 0
162 -49 0
162 -53 0
162 -161 0
162 -144 0
162 -43 0
163 -56 -162 0
-163 56 0
-163 162 0
-164 6 163 0
164 -6 0
164 -163 0
165 -19 -164 0
-165 19 0
-165 164 0
-166 21 16 165 0
166 -21 0
166 -16 0
166 -165 0
167 -23 -166 0
-167 23 0
-167 166 0
-168 34 13 167 31 0
168 -34 0
168 -13 0
168 -167 0
168 -31 0
169 -76 -168 0
-169 76 0
-169 168 0
-170 78 147 157 158 169 0
170 -78 0
170 -147 0
170 -157 0
170 -158 0
170 -169 0
171 -80 -170 0
-171 80 0
-171 170 0
172 -65 -142 0
-172 65 0
-172 142 0
-173 78 172 158 82 0
173 -78 0
173 -172 0
173 -158 0
173 -82 0
174 -85 -173 0
-174 85 0
-174 173 0
175 -87 -173 0
-175 87 0
-175 173 0
-176 6 175 0
176 -6 0
176 -175 0
177 -5 -176 0
-177 5 0
-177 176 0
-178 8 174 1 177 0
178 -8 0
178 -174 0
178 -1 0
178 -177 0
179 -10 -178 0
-179 10 0
-179 178 0
-180 78 158 0
180 -78 0
180 -158 0
181 -87 -180 0
-181 87 0
-181 180 0
-182 6 181 0
182 -6 0
182 -181 0
183 -19 -182 0
-183 19 0
-183 182 0
-184 21 16 183 0
184 -21 0
184 -16 0
184 -183 0
185 -23 -184 0
-185 23 0
-185 184 0
-186 34 13 185 31 0
186 -34 0
186 -13 0
186 -185 0
186 -31 0
187 -36 -186 0
-187 36 0
-187 186 0
-188 40 140 11 187 37 0
188 -40 0
188 -140 0
188 -11 0
188 -187 0
188 -37 0
189 -42 -188 0
-189 42 0
-189 188 0
-190 49 179 189 144 43 0
190 -49 0
190 -179 0
190 -189 0
190 -144 0
190 -43 0
191 -103 -190 0
-191 103 0
-191 190 0
192 -51 -148 0
-192 51 0
-192 148 0
-193 78 192 158 0
193 -78 0
193 -192 0
193 -158 0
194 -87 -193 0
-194 87 0
-194 193 0
195 -85 -180 0
-195 85 0
-195 180 0
-196 8 195 1 0
196 -8 0
196 -195 0
196 -1 0
197 -10 -196 0
-197 10 0
-197 196 0
-198 49 197 144 43 0
198 -49 0
198 -197 0
198 -144 0
198 -43 0
199 -56 -198 0
-199 56 0
-199 198 0
-200 6 194 199 0
200 -6 0
200 -194 0
200 -199 0
201 -19 -200 0
-201 19 0
-201 200 0
-202 21 16 201 0
202 -21 0
202 -16 0
202 -201 0
203 -23 -202 0
-203 23 0
-203 202 0
-204 34 13 203 31 0
204 -34 0
204 -13 0
204 -203 0
204 -31 0
205 -36 -204 0
-205 36 0
-205 204 0
-206 40 140 11 205 37 0
206 -40 0
206 -140 0
206 -11 0
206 -205 0
206 -37 0
207 -120 -206 0
-207 120 0
-207 206 0
-208 126 171 191 207 121 123 0
208 -126 0
208 -171 0
208 -191 0
208 -207 0
208 -121 0
208 -123 0
209 -210 -208 0
-209 210 0
-209 208 0
-211 47 209 0
211 -47 0
211 -209 0
212 -213 -211 0
-212 213 0
-212 211 0
-214 215 135 137 212 0
214 -215 0
214 -135 0
214 -137 0
214 -212 0
216 -214 -217 0
-216 214 0
-216 217 0
216 0
