c BC-S1.2
p cnf 727 2367
1 -2 -3 0
-1 2 0
-1 3 0
-4 5 1 0
4 -5 0
4 -1 0
6 -7 -4 0
-6 7 0
-6 4 0
-8 9 6 0
8 -9 0
8 -6 0
10 -11 -8 0
-10 11 0
-10 8 0
12 -13 -14 0
-12 13 0
-12 14 0
15 -16 -14 0
-15 16 0
-15 14 0
17 -18 -19 0
-17 18 0
-17 19 0
20 -21 -22 0
-20 21 0
-20 22 0
-23 24 17 20 0
23 -24 0
23 -17 0
23 -20 0
25 -26 -23 0
-25 26 0
-25 23 0
27 -28 -29 0
-27 28 0
-27 29 0
-30 31 15 25 27 0
30 -31 0
30 -15 0
30 -25 0
30 -27 0
32 -33 -30 0
-32 33 0
-32 30 0
34 -35 -29 0
-34 35 0
-34 29 0
-36 37 32 34 0
36 -37 0
36 -32 0
36 -34 0
38 -39 -36 0
-38 39 0
-38 36 0
-40 41 12 38 0
40 -41 0
40 -12 0
40 -38 0
42 -43 -40 0
-42 43 0
-42 40 0
-44 45 42 0
44 -45 0
44 -42 0
46 -47 -44 0
-46 47 0
-46 44 0
48 -49 -50 0
-48 49 0
-48 50 0
-51 52 46 48 0
51 -52 0
51 -46 0
51 -48 0
53 -54 -51 0
-53 54 0
-53 51 0
-55 31 15 27 0
55 -31 0
55 -15 0
55 -27 0
56 -57 -55 0
-56 57 0
-56 55 0
-58 19 56 0
58 -19 0
58 -56 0
59 -18 -58 0
-59 18 0
-59 58 0
60 -33 -55 0
-60 33 0
-60 55 0
-61 37 60 34 0
61 -37 0
61 -60 0
61 -34 0
62 -63 -61 0
-62 63 0
-62 61 0
-64 22 62 0
64 -22 0
64 -62 0
65 -21 -64 0
-65 21 0
-65 64 0
-66 24 59 65 0
66 -24 0
66 -59 0
66 -65 0
67 -68 -66 0
-67 68 0
-67 66 0
69 -70 -29 0
-69 70 0
-69 29 0
-71 72 53 67 69 0
71 -72 0
71 -53 0
71 -67 0
71 -69 0
73 -74 -71 0
-73 74 0
-73 71 0
75 -43 -41 0
-75 43 0
-75 41 0
-76 45 75 0
76 -45 0
76 -75 0
77 -47 -76 0
-77 47 0
-77 76 0
-78 52 77 48 0
78 -52 0
78 -77 0
78 -48 0
79 -54 -78 0
-79 54 0
-79 78 0
-80 24 17 0
80 -24 0
80 -17 0
81 -68 -80 0
-81 68 0
-81 80 0
-82 72 79 81 69 0
82 -72 0
82 -79 0
82 -81 0
82 -69 0
83 -84 -82 0
-83 84 0
-83 82 0
-85 14 83 0
85 -14 0
85 -83 0
86 -16 -85 0
-86 16 0
-86 85 0
87 -26 -80 0
-87 26 0
-87 80 0
-88 31 86 87 27 0
88 -31 0
88 -86 0
88 -87 0
88 -27 0
89 -33 -88 0
-89 33 0
-89 88 0
-90 37 89 34 0
90 -37 0
90 -89 0
90 -34 0
91 -63 -90 0
-91 63 0
-91 90 0
-92 22 91 0
92 -22 0
92 -91 0
93 -94 -92 0
-93 94 0
-93 92 0
-95 96 93 0
95 -96 0
95 -93 0
97 -98 -95 0
-97 98 0
-97 95 0
99 -47 -45 0
-99 47 0
-99 45 0
-100 52 99 48 0
100 -52 0
100 -99 0
100 -48 0
101 -54 -100 0
-101 54 0
-101 100 0
-102 72 101 67 69 0
102 -72 0
102 -101 0
102 -67 0
102 -69 0
103 -84 -102 0
-103 84 0
-103 102 0
-104 14 103 0
104 -14 0
104 -103 0
105 -13 -104 0
-105 13 0
-105 104 0
106 -68 -23 0
-106 68 0
-106 23 0
-107 72 101 106 69 0
107 -72 0
107 -101 0
107 -106 0
107 -69 0
108 -84 -107 0
-108 84 0
-108 107 0
-109 14 108 0
109 -14 0
109 -108 0
110 -16 -109 0
-110 16 0
-110 109 0
-111 31 110 25 27 0
111 -31 0
111 -110 0
111 -25 0
111 -27 0
112 -33 -111 0
-112 33 0
-112 111 0
-113 37 112 34 0
113 -37 0
113 -112 0
113 -34 0
114 -39 -113 0
-114 39 0
-114 113 0
-115 41 105 114 0
115 -41 0
115 -105 0
115 -114 0
116 -117 -115 0
-116 117 0
-116 115 0
-118 119 116 0
118 -119 0
118 -116 0
120 -121 -118 0
-120 121 0
-120 118 0
122 -123 -92 0
-122 123 0
-122 92 0
124 -39 -61 0
-124 39 0
-124 61 0
-125 41 124 0
125 -41 0
125 -124 0
126 -43 -125 0
-126 43 0
-126 125 0
-127 45 126 0
127 -45 0
127 -126 0
128 -47 -127 0
-128 47 0
-128 127 0
-129 52 128 48 0
129 -52 0
129 -128 0
129 -48 0
130 -54 -129 0
-130 54 0
-130 129 0
-131 72 130 69 0
131 -72 0
131 -130 0
131 -69 0
132 -84 -131 0
-132 84 0
-132 131 0
-133 14 132 0
133 -14 0
133 -132 0
134 -16 -133 0
-134 16 0
-134 133 0
-135 31 134 27 0
135 -31 0
135 -134 0
135 -27 0
136 -57 -135 0
-136 57 0
-136 135 0
-137 19 136 0
137 -19 0
137 -136 0
138 -18 -137 0
-138 18 0
-138 137 0
-139 72 79 69 0
139 -72 0
139 -79 0
139 -69 0
140 -84 -139 0
-140 84 0
-140 139 0
-141 14 140 0
141 -14 0
141 -140 0
142 -16 -141 0
-142 16 0
-142 141 0
-143 31 142 27 0
143 -31 0
143 -142 0
143 -27 0
144 -33 -143 0
-144 33 0
-144 143 0
-145 37 144 34 0
145 -37 0
145 -144 0
145 -34 0
146 -63 -145 0
-146 63 0
-146 145 0
-147 22 146 0
147 -22 0
147 -146 0
148 -21 -147 0
-148 21 0
-148 147 0
-149 24 138 148 0
149 -24 0
149 -138 0
149 -148 0
150 -151 -149 0
-150 151 0
-150 149 0
-152 153 10 73 97 120 122 150 0
152 -153 0
152 -10 0
152 -73 0
152 -97 0
152 -120 0
152 -122 0
152 -150 0
154 -155 -152 0
-154 155 0
-154 152 0
-156 52 48 0
156 -52 0
156 -48 0
157 -54 -156 0
-157 54 0
-157 156 0
158 -98 -96 0
-158 98 0
-158 96 0
-159 41 12 0
159 -41 0
159 -12 0
160 -117 -159 0
-160 117 0
-160 159 0
-161 119 160 0
161 -119 0
161 -160 0
162 -121 -161 0
-162 121 0
-162 161 0
-163 153 10 158 162 0
163 -153 0
163 -10 0
163 -158 0
163 -162 0
164 -165 -163 0
-164 165 0
-164 163 0
-166 37 164 60 34 0
166 -37 0
166 -164 0
166 -60 0
166 -34 0
167 -63 -166 0
-167 63 0
-167 166 0
-168 22 167 0
168 -22 0
168 -167 0
169 -21 -168 0
-169 21 0
-169 168 0
-170 24 59 169 0
170 -24 0
170 -59 0
170 -169 0
171 -68 -170 0
-171 68 0
-171 170 0
-172 72 157 171 69 0
172 -72 0
172 -157 0
172 -171 0
172 -69 0
173 -174 -172 0
-173 174 0
-173 172 0
175 -121 -119 0
-175 121 0
-175 119 0
-176 153 10 158 175 0
176 -153 0
176 -10 0
176 -158 0
176 -175 0
177 -165 -176 0
-177 165 0
-177 176 0
-178 37 177 60 34 0
178 -37 0
178 -177 0
178 -60 0
178 -34 0
179 -63 -178 0
-179 63 0
-179 178 0
-180 22 179 0
180 -22 0
180 -179 0
181 -21 -180 0
-181 21 0
-181 180 0
-182 24 59 181 0
182 -24 0
182 -59 0
182 -181 0
183 -68 -182 0
-183 68 0
-183 182 0
-184 72 157 183 69 0
184 -72 0
184 -157 0
184 -183 0
184 -69 0
185 -84 -184 0
-185 84 0
-185 184 0
-186 14 185 0
186 -14 0
186 -185 0
187 -13 -186 0
-187 13 0
-187 186 0
-188 24 59 20 0
188 -24 0
188 -59 0
188 -20 0
189 -68 -188 0
-189 68 0
-189 188 0
-190 72 157 189 69 0
190 -72 0
190 -157 0
190 -189 0
190 -69 0
191 -74 -190 0
-191 74 0
-191 190 0
192 -94 -22 0
-192 94 0
-192 22 0
-193 96 192 0
193 -96 0
193 -192 0
194 -98 -193 0
-194 98 0
-194 193 0
195 -123 -22 0
-195 123 0
-195 22 0
-196 72 157 69 0
196 -72 0
196 -157 0
196 -69 0
197 -84 -196 0
-197 84 0
-197 196 0
-198 14 197 0
198 -14 0
198 -197 0
199 -16 -198 0
-199 16 0
-199 198 0
-200 31 199 27 0
200 -31 0
200 -199 0
200 -27 0
201 -57 -200 0
-201 57 0
-201 200 0
-202 19 201 0
202 -19 0
202 -201 0
203 -18 -202 0
-203 18 0
-203 202 0
-204 24 203 20 0
204 -24 0
204 -203 0
204 -20 0
205 -151 -204 0
-205 151 0
-205 204 0
-206 153 10 191 194 175 195 205 0
206 -153 0
206 -10 0
206 -191 0
206 -194 0
206 -175 0
206 -195 0
206 -205 0
207 -165 -206 0
-207 165 0
-207 206 0
-208 72 157 106 69 0
208 -72 0
208 -157 0
208 -106 0
208 -69 0
209 -84 -208 0
-209 84 0
-209 208 0
-210 14 209 0
210 -14 0
210 -209 0
211 -16 -210 0
-211 16 0
-211 210 0
-212 31 211 25 27 0
212 -31 0
212 -211 0
212 -25 0
212 -27 0
213 -33 -212 0
-213 33 0
-213 212 0
-214 37 207 213 34 0
214 -37 0
214 -207 0
214 -213 0
214 -34 0
215 -39 -214 0
-215 39 0
-215 214 0
-216 41 187 215 0
216 -41 0
216 -187 0
216 -215 0
217 -43 -216 0
-217 43 0
-217 216 0
-218 45 173 217 0
218 -45 0
218 -173 0
218 -217 0
219 -220 -218 0
-219 220 0
-219 218 0
-221 153 10 194 175 195 0
221 -153 0
221 -10 0
221 -194 0
221 -175 0
221 -195 0
222 -165 -221 0
-222 165 0
-222 221 0
-223 37 222 60 34 0
223 -37 0
223 -222 0
223 -60 0
223 -34 0
224 -39 -223 0
-224 39 0
-224 223 0
-225 41 224 0
225 -41 0
225 -224 0
226 -43 -225 0
-226 43 0
-226 225 0
-227 45 226 0
227 -45 0
227 -226 0
228 -47 -227 0
-228 47 0
-228 227 0
-229 52 228 48 0
229 -52 0
229 -228 0
229 -48 0
230 -54 -229 0
-230 54 0
-230 229 0
-231 72 230 69 0
231 -72 0
231 -230 0
231 -69 0
232 -84 -231 0
-232 84 0
-232 231 0
-233 14 232 0
233 -14 0
233 -232 0
234 -16 -233 0
-234 16 0
-234 233 0
-235 31 234 27 0
235 -31 0
235 -234 0
235 -27 0
236 -57 -235 0
-236 57 0
-236 235 0
-237 19 236 0
237 -19 0
237 -236 0
238 -18 -237 0
-238 18 0
-238 237 0
239 -43 -159 0
-239 43 0
-239 159 0
-240 45 239 0
240 -45 0
240 -239 0
241 -47 -240 0
-241 47 0
-241 240 0
-242 52 241 48 0
242 -52 0
242 -241 0
242 -48 0
243 -54 -242 0
-243 54 0
-243 242 0
-244 72 243 69 0
244 -72 0
244 -243 0
244 -69 0
245 -74 -244 0
-245 74 0
-245 244 0
-246 72 101 69 0
246 -72 0
246 -101 0
246 -69 0
247 -84 -246 0
-247 84 0
-247 246 0
-248 14 247 0
248 -14 0
248 -247 0
249 -13 -248 0
-249 13 0
-249 248 0
-250 41 249 0
250 -41 0
250 -249 0
251 -117 -250 0
-251 117 0
-251 250 0
-252 119 251 0
252 -119 0
252 -251 0
253 -121 -252 0
-253 121 0
-253 252 0
-254 153 10 245 158 253 0
254 -153 0
254 -10 0
254 -245 0
254 -158 0
254 -253 0
255 -165 -254 0
-255 165 0
-255 254 0
-256 37 255 144 34 0
256 -37 0
256 -255 0
256 -144 0
256 -34 0
257 -63 -256 0
-257 63 0
-257 256 0
-258 22 257 0
258 -22 0
258 -257 0
259 -21 -258 0
-259 21 0
-259 258 0
-260 24 238 259 0
260 -24 0
260 -238 0
260 -259 0
261 -262 -260 0
-261 262 0
-261 260 0
-263 153 10 158 0
263 -153 0
263 -10 0
263 -158 0
264 -165 -263 0
-264 165 0
-264 263 0
-265 37 264 60 34 0
265 -37 0
265 -264 0
265 -60 0
265 -34 0
266 -63 -265 0
-266 63 0
-266 265 0
-267 22 266 0
267 -22 0
267 -266 0
268 -21 -267 0
-268 21 0
-268 267 0
-269 24 59 268 0
269 -24 0
269 -59 0
269 -268 0
270 -68 -269 0
-270 68 0
-270 269 0
-271 72 101 270 69 0
271 -72 0
271 -101 0
271 -270 0
271 -69 0
272 -84 -271 0
-272 84 0
-272 271 0
-273 14 272 0
273 -14 0
273 -272 0
274 -13 -273 0
-274 13 0
-274 273 0
-275 72 101 189 69 0
275 -72 0
275 -101 0
275 -189 0
275 -69 0
276 -74 -275 0
-276 74 0
-276 275 0
277 -16 -248 0
-277 16 0
-277 248 0
-278 31 277 27 0
278 -31 0
278 -277 0
278 -27 0
279 -57 -278 0
-279 57 0
-279 278 0
-280 19 279 0
280 -19 0
280 -279 0
281 -18 -280 0
-281 18 0
-281 280 0
-282 24 281 20 0
282 -24 0
282 -281 0
282 -20 0
283 -151 -282 0
-283 151 0
-283 282 0
-284 153 10 276 194 195 283 0
284 -153 0
284 -10 0
284 -276 0
284 -194 0
284 -195 0
284 -283 0
285 -165 -284 0
-285 165 0
-285 284 0
-286 37 285 112 34 0
286 -37 0
286 -285 0
286 -112 0
286 -34 0
287 -39 -286 0
-287 39 0
-287 286 0
-288 41 274 287 0
288 -41 0
288 -274 0
288 -287 0
289 -117 -288 0
-289 117 0
-289 288 0
-290 119 289 0
290 -119 0
290 -289 0
291 -292 -290 0
-291 292 0
-291 290 0
293 -294 -3 0
-293 294 0
-293 3 0
-295 296 154 219 261 291 293 0
295 -296 0
295 -154 0
295 -219 0
295 -261 0
295 -291 0
295 -293 0
297 -298 -295 0
-297 298 0
-297 295 0
-299 31 15 87 27 0
299 -31 0
299 -15 0
299 -87 0
299 -27 0
300 -33 -299 0
-300 33 0
-300 299 0
-301 37 300 34 0
301 -37 0
301 -300 0
301 -34 0
302 -63 -301 0
-302 63 0
-302 301 0
-303 22 302 0
303 -22 0
303 -302 0
304 -94 -303 0
-304 94 0
-304 303 0
-305 96 304 0
305 -96 0
305 -304 0
306 -98 -305 0
-306 98 0
-306 305 0
307 -117 -40 0
-307 117 0
-307 40 0
-308 119 307 0
308 -119 0
308 -307 0
309 -121 -308 0
-309 121 0
-309 308 0
310 -123 -303 0
-310 123 0
-310 303 0
311 -151 -66 0
-311 151 0
-311 66 0
-312 153 10 306 309 310 311 0
312 -153 0
312 -10 0
312 -306 0
312 -309 0
312 -310 0
312 -311 0
313 -155 -312 0
-313 155 0
-313 312 0
314 -151 -188 0
-314 151 0
-314 188 0
-315 153 10 194 175 195 314 0
315 -153 0
315 -10 0
315 -194 0
315 -175 0
315 -195 0
315 -314 0
316 -165 -315 0
-316 165 0
-316 315 0
-317 37 316 32 34 0
317 -37 0
317 -316 0
317 -32 0
317 -34 0
318 -39 -317 0
-318 39 0
-318 317 0
-319 41 12 318 0
319 -41 0
319 -12 0
319 -318 0
320 -43 -319 0
-320 43 0
-320 319 0
-321 45 320 0
321 -45 0
321 -320 0
322 -220 -321 0
-322 220 0
-322 321 0
323 -262 -170 0
-323 262 0
-323 170 0
-324 153 10 194 195 314 0
324 -153 0
324 -10 0
324 -194 0
324 -195 0
324 -314 0
325 -165 -324 0
-325 165 0
-325 324 0
-326 37 325 32 34 0
326 -37 0
326 -325 0
326 -32 0
326 -34 0
327 -39 -326 0
-327 39 0
-327 326 0
-328 41 12 327 0
328 -41 0
328 -12 0
328 -327 0
329 -117 -328 0
-329 117 0
-329 328 0
-330 119 329 0
330 -119 0
330 -329 0
331 -292 -330 0
-331 292 0
-331 330 0
-332 296 313 322 323 331 293 0
332 -296 0
332 -313 0
332 -322 0
332 -323 0
332 -331 0
332 -293 0
333 -334 -332 0
-333 334 0
-333 332 0
335 -262 -188 0
-335 262 0
-335 188 0
336 -292 -119 0
-336 292 0
-336 119 0
-337 296 335 336 293 0
337 -296 0
337 -335 0
337 -336 0
337 -293 0
338 -339 -337 0
-338 339 0
-338 337 0
-340 96 338 192 0
340 -96 0
340 -338 0
340 -192 0
341 -98 -340 0
-341 98 0
-341 340 0
-342 153 10 341 175 195 314 0
342 -153 0
342 -10 0
342 -341 0
342 -175 0
342 -195 0
342 -314 0
343 -165 -342 0
-343 165 0
-343 342 0
-344 37 343 32 34 0
344 -37 0
344 -343 0
344 -32 0
344 -34 0
345 -39 -344 0
-345 39 0
-345 344 0
-346 41 12 345 0
346 -41 0
346 -12 0
346 -345 0
347 -43 -346 0
-347 43 0
-347 346 0
-348 45 347 0
348 -45 0
348 -347 0
349 -47 -348 0
-349 47 0
-349 348 0
-350 52 349 48 0
350 -52 0
350 -349 0
350 -48 0
351 -54 -350 0
-351 54 0
-351 350 0
352 -220 -240 0
-352 220 0
-352 240 0
353 -292 -161 0
-353 292 0
-353 161 0
-354 296 352 353 293 0
354 -296 0
354 -352 0
354 -353 0
354 -293 0
355 -339 -354 0
-355 339 0
-355 354 0
-356 96 355 0
356 -96 0
356 -355 0
357 -98 -356 0
-357 98 0
-357 356 0
-358 153 10 357 162 0
358 -153 0
358 -10 0
358 -357 0
358 -162 0
359 -165 -358 0
-359 165 0
-359 358 0
-360 37 359 60 34 0
360 -37 0
360 -359 0
360 -60 0
360 -34 0
361 -63 -360 0
-361 63 0
-361 360 0
-362 22 361 0
362 -22 0
362 -361 0
363 -21 -362 0
-363 21 0
-363 362 0
-364 24 59 363 0
364 -24 0
364 -59 0
364 -363 0
365 -68 -364 0
-365 68 0
-365 364 0
-366 72 333 351 365 69 0
366 -72 0
366 -333 0
366 -351 0
366 -365 0
366 -69 0
367 -368 -366 0
-367 368 0
-367 366 0
369 -220 -44 0
-369 220 0
-369 44 0
370 -262 -66 0
-370 262 0
-370 66 0
371 -292 -308 0
-371 292 0
-371 308 0
-372 296 369 370 371 293 0
372 -296 0
372 -369 0
372 -370 0
372 -371 0
372 -293 0
373 -334 -372 0
-373 334 0
-373 372 0
-374 72 373 53 67 69 0
374 -72 0
374 -373 0
374 -53 0
374 -67 0
374 -69 0
375 -74 -374 0
-375 74 0
-375 374 0
-376 72 157 67 69 0
376 -72 0
376 -157 0
376 -67 0
376 -69 0
377 -174 -376 0
-377 174 0
-377 376 0
378 -84 -376 0
-378 84 0
-378 376 0
-379 14 378 0
379 -14 0
379 -378 0
380 -13 -379 0
-380 13 0
-380 379 0
-381 37 213 34 0
381 -37 0
381 -213 0
381 -34 0
382 -39 -381 0
-382 39 0
-382 381 0
-383 41 380 382 0
383 -41 0
383 -380 0
383 -382 0
384 -43 -383 0
-384 43 0
-384 383 0
-385 45 377 384 0
385 -45 0
385 -377 0
385 -384 0
386 -220 -385 0
-386 220 0
-386 385 0
387 -262 -149 0
-387 262 0
-387 149 0
388 -292 -118 0
-388 292 0
-388 118 0
-389 296 386 387 388 293 0
389 -296 0
389 -386 0
389 -387 0
389 -388 0
389 -293 0
390 -339 -389 0
-390 339 0
-390 389 0
391 -220 -76 0
-391 220 0
-391 76 0
392 -262 -80 0
-392 262 0
-392 80 0
393 -117 -41 0
-393 117 0
-393 41 0
-394 119 393 0
394 -119 0
394 -393 0
395 -292 -394 0
-395 292 0
-395 394 0
-396 296 391 392 395 293 0
396 -296 0
396 -391 0
396 -392 0
396 -395 0
396 -293 0
397 -334 -396 0
-397 334 0
-397 396 0
-398 72 397 79 81 69 0
398 -72 0
398 -397 0
398 -79 0
398 -81 0
398 -69 0
399 -84 -398 0
-399 84 0
-399 398 0
-400 14 399 0
400 -14 0
400 -399 0
401 -16 -400 0
-401 16 0
-401 400 0
-402 31 401 87 27 0
402 -31 0
402 -401 0
402 -87 0
402 -27 0
403 -33 -402 0
-403 33 0
-403 402 0
-404 37 403 34 0
404 -37 0
404 -403 0
404 -34 0
405 -63 -404 0
-405 63 0
-405 404 0
-406 22 405 0
406 -22 0
406 -405 0
407 -94 -406 0
-407 94 0
-407 406 0
-408 96 390 407 0
408 -96 0
408 -390 0
408 -407 0
409 -98 -408 0
-409 98 0
-409 408 0
410 -220 -45 0
-410 220 0
-410 45 0
-411 296 410 370 336 293 0
411 -296 0
411 -410 0
411 -370 0
411 -336 0
411 -293 0
412 -334 -411 0
-412 334 0
-412 411 0
-413 72 412 101 67 69 0
413 -72 0
413 -412 0
413 -101 0
413 -67 0
413 -69 0
414 -84 -413 0
-414 84 0
-414 413 0
-415 14 414 0
415 -14 0
415 -414 0
416 -13 -415 0
-416 13 0
-416 415 0
417 -262 -23 0
-417 262 0
-417 23 0
-418 296 410 417 336 293 0
418 -296 0
418 -410 0
418 -417 0
418 -336 0
418 -293 0
419 -334 -418 0
-419 334 0
-419 418 0
-420 72 419 101 106 69 0
420 -72 0
420 -419 0
420 -101 0
420 -106 0
420 -69 0
421 -84 -420 0
-421 84 0
-421 420 0
-422 14 421 0
422 -14 0
422 -421 0
423 -16 -422 0
-423 16 0
-423 422 0
-424 31 423 25 27 0
424 -31 0
424 -423 0
424 -25 0
424 -27 0
425 -33 -424 0
-425 33 0
-425 424 0
-426 37 425 34 0
426 -37 0
426 -425 0
426 -34 0
427 -39 -426 0
-427 39 0
-427 426 0
-428 41 416 427 0
428 -41 0
428 -416 0
428 -427 0
429 -117 -428 0
-429 117 0
-429 428 0
-430 119 429 0
430 -119 0
430 -429 0
431 -121 -430 0
-431 121 0
-431 430 0
432 -123 -406 0
-432 123 0
-432 406 0
433 -220 -127 0
-433 220 0
-433 127 0
434 -117 -125 0
-434 117 0
-434 125 0
-435 119 434 0
435 -119 0
435 -434 0
436 -292 -435 0
-436 292 0
-436 435 0
-437 296 433 436 293 0
437 -296 0
437 -433 0
437 -436 0
437 -293 0
438 -334 -437 0
-438 334 0
-438 437 0
-439 72 438 130 69 0
439 -72 0
439 -438 0
439 -130 0
439 -69 0
440 -84 -439 0
-440 84 0
-440 439 0
-441 14 440 0
441 -14 0
441 -440 0
442 -16 -441 0
-442 16 0
-442 441 0
-443 31 442 27 0
443 -31 0
443 -442 0
443 -27 0
444 -57 -443 0
-444 57 0
-444 443 0
-445 19 444 0
445 -19 0
445 -444 0
446 -18 -445 0
-446 18 0
-446 445 0
-447 72 397 79 69 0
447 -72 0
447 -397 0
447 -79 0
447 -69 0
448 -84 -447 0
-448 84 0
-448 447 0
-449 14 448 0
449 -14 0
449 -448 0
450 -16 -449 0
-450 16 0
-450 449 0
-451 31 450 27 0
451 -31 0
451 -450 0
451 -27 0
452 -33 -451 0
-452 33 0
-452 451 0
-453 37 452 34 0
453 -37 0
453 -452 0
453 -34 0
454 -63 -453 0
-454 63 0
-454 453 0
-455 22 454 0
455 -22 0
455 -454 0
456 -21 -455 0
-456 21 0
-456 455 0
-457 24 446 456 0
457 -24 0
457 -446 0
457 -456 0
458 -151 -457 0
-458 151 0
-458 457 0
-459 153 10 375 409 431 432 458 0
459 -153 0
459 -10 0
459 -375 0
459 -409 0
459 -431 0
459 -432 0
459 -458 0
460 -461 -459 0
-460 461 0
-460 459 0
-462 153 10 306 175 310 311 0
462 -153 0
462 -10 0
462 -306 0
462 -175 0
462 -310 0
462 -311 0
463 -155 -462 0
-463 155 0
-463 462 0
464 -262 -182 0
-464 262 0
-464 182 0
-465 296 463 410 464 336 293 0
465 -296 0
465 -463 0
465 -410 0
465 -464 0
465 -336 0
465 -293 0
466 -334 -465 0
-466 334 0
-466 465 0
-467 296 410 336 293 0
467 -296 0
467 -410 0
467 -336 0
467 -293 0
468 -339 -467 0
-468 339 0
-468 467 0
-469 96 468 0
469 -96 0
469 -468 0
470 -98 -469 0
-470 98 0
-470 469 0
-471 153 10 470 175 0
471 -153 0
471 -10 0
471 -470 0
471 -175 0
472 -165 -471 0
-472 165 0
-472 471 0
-473 37 472 60 34 0
473 -37 0
473 -472 0
473 -60 0
473 -34 0
474 -63 -473 0
-474 63 0
-474 473 0
-475 22 474 0
475 -22 0
475 -474 0
476 -21 -475 0
-476 21 0
-476 475 0
-477 24 59 476 0
477 -24 0
477 -59 0
477 -476 0
478 -68 -477 0
-478 68 0
-478 477 0
-479 72 466 101 478 69 0
479 -72 0
479 -466 0
479 -101 0
479 -478 0
479 -69 0
480 -84 -479 0
-480 84 0
-480 479 0
-481 14 480 0
481 -14 0
481 -480 0
482 -13 -481 0
-482 13 0
-482 481 0
-483 296 352 335 336 293 0
483 -296 0
483 -352 0
483 -335 0
483 -336 0
483 -293 0
484 -334 -483 0
-484 334 0
-484 483 0
-485 72 484 101 189 69 0
485 -72 0
485 -484 0
485 -101 0
485 -189 0
485 -69 0
486 -74 -485 0
-486 74 0
-486 485 0
487 -174 -190 0
-487 174 0
-487 190 0
-488 45 487 0
488 -45 0
488 -487 0
489 -220 -488 0
-489 220 0
-489 488 0
490 -262 -282 0
-490 262 0
-490 282 0
-491 296 489 490 336 293 0
491 -296 0
491 -489 0
491 -490 0
491 -336 0
491 -293 0
492 -339 -491 0
-492 339 0
-492 491 0
-493 96 492 192 0
493 -96 0
493 -492 0
493 -192 0
494 -98 -493 0
-494 98 0
-494 493 0
495 -334 -467 0
-495 334 0
-495 467 0
-496 72 495 101 69 0
496 -72 0
496 -495 0
496 -101 0
496 -69 0
497 -84 -496 0
-497 84 0
-497 496 0
-498 14 497 0
498 -14 0
498 -497 0
499 -16 -498 0
-499 16 0
-499 498 0
-500 31 499 27 0
500 -31 0
500 -499 0
500 -27 0
501 -57 -500 0
-501 57 0
-501 500 0
-502 19 501 0
502 -19 0
502 -501 0
503 -18 -502 0
-503 18 0
-503 502 0
-504 24 503 20 0
504 -24 0
504 -503 0
504 -20 0
505 -151 -504 0
-505 151 0
-505 504 0
-506 153 10 486 494 175 195 505 0
506 -153 0
506 -10 0
506 -486 0
506 -494 0
506 -175 0
506 -195 0
506 -505 0
507 -165 -506 0
-507 165 0
-507 506 0
508 -151 -23 0
-508 151 0
-508 23 0
-509 153 10 194 175 195 508 0
509 -153 0
509 -10 0
509 -194 0
509 -175 0
509 -195 0
509 -508 0
510 -155 -509 0
-510 155 0
-510 509 0
-511 296 510 410 417 336 293 0
511 -296 0
511 -510 0
511 -410 0
511 -417 0
511 -336 0
511 -293 0
512 -334 -511 0
-512 334 0
-512 511 0
-513 72 512 101 106 69 0
513 -72 0
513 -512 0
513 -101 0
513 -106 0
513 -69 0
514 -84 -513 0
-514 84 0
-514 513 0
-515 14 514 0
515 -14 0
515 -514 0
516 -16 -515 0
-516 16 0
-516 515 0
-517 31 516 25 27 0
517 -31 0
517 -516 0
517 -25 0
517 -27 0
518 -33 -517 0
-518 33 0
-518 517 0
-519 37 507 518 34 0
519 -37 0
519 -507 0
519 -518 0
519 -34 0
520 -39 -519 0
-520 39 0
-520 519 0
-521 41 482 520 0
521 -41 0
521 -482 0
521 -520 0
522 -523 -521 0
-522 523 0
-522 521 0
-524 153 10 306 310 311 0
524 -153 0
524 -10 0
524 -306 0
524 -310 0
524 -311 0
525 -155 -524 0
-525 155 0
-525 524 0
526 -262 -269 0
-526 262 0
-526 269 0
-527 296 525 410 526 336 293 0
527 -296 0
527 -525 0
527 -410 0
527 -526 0
527 -336 0
527 -293 0
528 -334 -527 0
-528 334 0
-528 527 0
-529 153 10 470 0
529 -153 0
529 -10 0
529 -470 0
530 -165 -529 0
-530 165 0
-530 529 0
-531 37 530 60 34 0
531 -37 0
531 -530 0
531 -60 0
531 -34 0
532 -63 -531 0
-532 63 0
-532 531 0
-533 22 532 0
533 -22 0
533 -532 0
534 -21 -533 0
-534 21 0
-534 533 0
-535 24 59 534 0
535 -24 0
535 -59 0
535 -534 0
536 -68 -535 0
-536 68 0
-536 535 0
-537 72 528 101 536 69 0
537 -72 0
537 -528 0
537 -101 0
537 -536 0
537 -69 0
538 -84 -537 0
-538 84 0
-538 537 0
-539 14 538 0
539 -14 0
539 -538 0
540 -13 -539 0
-540 13 0
-540 539 0
-541 153 10 486 494 195 505 0
541 -153 0
541 -10 0
541 -486 0
541 -494 0
541 -195 0
541 -505 0
542 -165 -541 0
-542 165 0
-542 541 0
-543 153 10 194 195 508 0
543 -153 0
543 -10 0
543 -194 0
543 -195 0
543 -508 0
544 -155 -543 0
-544 155 0
-544 543 0
-545 296 544 410 417 336 293 0
545 -296 0
545 -544 0
545 -410 0
545 -417 0
545 -336 0
545 -293 0
546 -334 -545 0
-546 334 0
-546 545 0
-547 72 546 101 106 69 0
547 -72 0
547 -546 0
547 -101 0
547 -106 0
547 -69 0
548 -84 -547 0
-548 84 0
-548 547 0
-549 14 548 0
549 -14 0
549 -548 0
550 -16 -549 0
-550 16 0
-550 549 0
-551 31 550 25 27 0
551 -31 0
551 -550 0
551 -25 0
551 -27 0
552 -33 -551 0
-552 33 0
-552 551 0
-553 37 542 552 34 0
553 -37 0
553 -542 0
553 -552 0
553 -34 0
554 -39 -553 0
-554 39 0
-554 553 0
-555 41 540 554 0
555 -41 0
555 -540 0
555 -554 0
556 -117 -555 0
-556 117 0
-556 555 0
-557 119 556 0
557 -119 0
557 -556 0
558 -559 -557 0
-558 559 0
-558 557 0
-560 561 460 522 558 0
560 -561 0
560 -460 0
560 -522 0
560 -558 0
562 -563 -560 0
-562 563 0
-562 560 0
-564 296 352 335 353 293 0
564 -296 0
564 -352 0
564 -335 0
564 -353 0
564 -293 0
565 -334 -564 0
-565 334 0
-565 564 0
-566 72 565 243 189 69 0
566 -72 0
566 -565 0
566 -243 0
566 -189 0
566 -69 0
567 -74 -566 0
-567 74 0
-567 566 0
568 -84 -190 0
-568 84 0
-568 190 0
-569 14 568 0
569 -14 0
569 -568 0
570 -13 -569 0
-570 13 0
-570 569 0
-571 41 570 0
571 -41 0
571 -570 0
572 -43 -571 0
-572 43 0
-572 571 0
-573 45 487 572 0
573 -45 0
573 -487 0
573 -572 0
574 -220 -573 0
-574 220 0
-574 573 0
-575 24 138 20 0
575 -24 0
575 -138 0
575 -20 0
576 -262 -575 0
-576 262 0
-576 575 0
577 -84 -275 0
-577 84 0
-577 275 0
-578 14 577 0
578 -14 0
578 -577 0
579 -13 -578 0
-579 13 0
-579 578 0
-580 41 579 0
580 -41 0
580 -579 0
581 -117 -580 0
-581 117 0
-581 580 0
-582 119 581 0
582 -119 0
582 -581 0
583 -292 -582 0
-583 292 0
-583 582 0
-584 296 574 576 583 293 0
584 -296 0
584 -574 0
584 -576 0
584 -583 0
584 -293 0
585 -339 -584 0
-585 339 0
-585 584 0
-586 96 585 192 0
586 -96 0
586 -585 0
586 -192 0
587 -98 -586 0
-587 98 0
-587 586 0
-588 296 410 335 336 293 0
588 -296 0
588 -410 0
588 -335 0
588 -336 0
588 -293 0
589 -334 -588 0
-589 334 0
-589 588 0
-590 72 589 101 189 69 0
590 -72 0
590 -589 0
590 -101 0
590 -189 0
590 -69 0
591 -84 -590 0
-591 84 0
-591 590 0
-592 14 591 0
592 -14 0
592 -591 0
593 -13 -592 0
-593 13 0
-593 592 0
-594 41 593 0
594 -41 0
594 -593 0
595 -117 -594 0
-595 117 0
-595 594 0
-596 119 595 0
596 -119 0
596 -595 0
597 -121 -596 0
-597 121 0
-597 596 0
-598 24 446 20 0
598 -24 0
598 -446 0
598 -20 0
599 -151 -598 0
-599 151 0
-599 598 0
-600 153 10 567 587 597 195 599 0
600 -153 0
600 -10 0
600 -567 0
600 -587 0
600 -597 0
600 -195 0
600 -599 0
601 -165 -600 0
-601 165 0
-601 600 0
602 -121 -394 0
-602 121 0
-602 394 0
-603 153 10 194 602 195 508 0
603 -153 0
603 -10 0
603 -194 0
603 -602 0
603 -195 0
603 -508 0
604 -155 -603 0
-604 155 0
-604 603 0
-605 296 604 391 417 395 293 0
605 -296 0
605 -604 0
605 -391 0
605 -417 0
605 -395 0
605 -293 0
606 -334 -605 0
-606 334 0
-606 605 0
-607 72 606 79 106 69 0
607 -72 0
607 -606 0
607 -79 0
607 -106 0
607 -69 0
608 -84 -607 0
-608 84 0
-608 607 0
-609 14 608 0
609 -14 0
609 -608 0
610 -16 -609 0
-610 16 0
-610 609 0
-611 31 610 25 27 0
611 -31 0
611 -610 0
611 -25 0
611 -27 0
612 -33 -611 0
-612 33 0
-612 611 0
-613 37 601 612 34 0
613 -37 0
613 -601 0
613 -612 0
613 -34 0
614 -615 -613 0
-614 615 0
-614 613 0
-616 37 34 0
616 -37 0
616 -34 0
617 -63 -616 0
-617 63 0
-617 616 0
-618 22 617 0
618 -22 0
618 -617 0
619 -94 -618 0
-619 94 0
-619 618 0
-620 96 619 0
620 -96 0
620 -619 0
621 -98 -620 0
-621 98 0
-621 620 0
622 -39 -616 0
-622 39 0
-622 616 0
-623 41 622 0
623 -41 0
623 -622 0
624 -117 -623 0
-624 117 0
-624 623 0
-625 119 624 0
625 -119 0
625 -624 0
626 -121 -625 0
-626 121 0
-626 625 0
627 -123 -618 0
-627 123 0
-627 618 0
-628 24 65 0
628 -24 0
628 -65 0
629 -151 -628 0
-629 151 0
-629 628 0
-630 153 10 621 626 627 629 0
630 -153 0
630 -10 0
630 -621 0
630 -626 0
630 -627 0
630 -629 0
631 -155 -630 0
-631 155 0
-631 630 0
-632 24 20 0
632 -24 0
632 -20 0
633 -151 -632 0
-633 151 0
-633 632 0
-634 153 10 194 175 195 633 0
634 -153 0
634 -10 0
634 -194 0
634 -175 0
634 -195 0
634 -633 0
635 -165 -634 0
-635 165 0
-635 634 0
-636 37 635 34 0
636 -37 0
636 -635 0
636 -34 0
637 -39 -636 0
-637 39 0
-637 636 0
-638 41 637 0
638 -41 0
638 -637 0
639 -43 -638 0
-639 43 0
-639 638 0
-640 45 639 0
640 -45 0
640 -639 0
641 -220 -640 0
-641 220 0
-641 640 0
-642 153 10 158 602 0
642 -153 0
642 -10 0
642 -158 0
642 -602 0
643 -165 -642 0
-643 165 0
-643 642 0
-644 37 643 60 34 0
644 -37 0
644 -643 0
644 -60 0
644 -34 0
645 -63 -644 0
-645 63 0
-645 644 0
-646 22 645 0
646 -22 0
646 -645 0
647 -21 -646 0
-647 21 0
-647 646 0
-648 24 647 0
648 -24 0
648 -647 0
649 -262 -648 0
-649 262 0
-649 648 0
-650 153 10 194 195 633 0
650 -153 0
650 -10 0
650 -194 0
650 -195 0
650 -633 0
651 -165 -650 0
-651 165 0
-651 650 0
-652 37 651 34 0
652 -37 0
652 -651 0
652 -34 0
653 -39 -652 0
-653 39 0
-653 652 0
-654 41 653 0
654 -41 0
654 -653 0
655 -117 -654 0
-655 117 0
-655 654 0
-656 119 655 0
656 -119 0
656 -655 0
657 -292 -656 0
-657 292 0
-657 656 0
-658 296 631 641 649 657 293 0
658 -296 0
658 -631 0
658 -641 0
658 -649 0
658 -657 0
658 -293 0
659 -334 -658 0
-659 334 0
-659 658 0
660 -262 -632 0
-660 262 0
-660 632 0
-661 296 660 336 293 0
661 -296 0
661 -660 0
661 -336 0
661 -293 0
662 -339 -661 0
-662 339 0
-662 661 0
-663 96 662 192 0
663 -96 0
663 -662 0
663 -192 0
664 -98 -663 0
-664 98 0
-664 663 0
-665 153 10 664 175 195 633 0
665 -153 0
665 -10 0
665 -664 0
665 -175 0
665 -195 0
665 -633 0
666 -165 -665 0
-666 165 0
-666 665 0
-667 37 666 34 0
667 -37 0
667 -666 0
667 -34 0
668 -39 -667 0
-668 39 0
-668 667 0
-669 41 668 0
669 -41 0
669 -668 0
670 -43 -669 0
-670 43 0
-670 669 0
-671 45 670 0
671 -45 0
671 -670 0
672 -47 -671 0
-672 47 0
-672 671 0
-673 52 672 48 0
673 -52 0
673 -672 0
673 -48 0
674 -54 -673 0
-674 54 0
-674 673 0
675 -339 -437 0
-675 339 0
-675 437 0
-676 96 675 0
676 -96 0
676 -675 0
677 -98 -676 0
-677 98 0
-677 676 0
-678 153 10 677 602 0
678 -153 0
678 -10 0
678 -677 0
678 -602 0
679 -165 -678 0
-679 165 0
-679 678 0
-680 37 679 60 34 0
680 -37 0
680 -679 0
680 -60 0
680 -34 0
681 -63 -680 0
-681 63 0
-681 680 0
-682 22 681 0
682 -22 0
682 -681 0
683 -21 -682 0
-683 21 0
-683 682 0
-684 24 683 0
684 -24 0
684 -683 0
685 -68 -684 0
-685 68 0
-685 684 0
-686 72 659 674 685 69 0
686 -72 0
686 -659 0
686 -674 0
686 -685 0
686 -69 0
687 -84 -686 0
-687 84 0
-687 686 0
-688 14 687 0
688 -14 0
688 -687 0
689 -16 -688 0
-689 16 0
-689 688 0
690 -334 -354 0
-690 334 0
-690 354 0
-691 72 690 243 69 0
691 -72 0
691 -690 0
691 -243 0
691 -69 0
692 -74 -691 0
-692 74 0
-692 691 0
693 -174 -196 0
-693 174 0
-693 196 0
694 -13 -198 0
-694 13 0
-694 198 0
-695 41 694 0
695 -41 0
695 -694 0
696 -43 -695 0
-696 43 0
-696 695 0
-697 45 693 696 0
697 -45 0
697 -693 0
697 -696 0
698 -220 -697 0
-698 220 0
-698 697 0
699 -292 -252 0
-699 292 0
-699 252 0
-700 296 698 699 293 0
700 -296 0
700 -698 0
700 -699 0
700 -293 0
701 -339 -700 0
-701 339 0
-701 700 0
-702 96 701 0
702 -96 0
702 -701 0
703 -98 -702 0
-703 98 0
-703 702 0
704 -13 -498 0
-704 13 0
-704 498 0
-705 41 704 0
705 -41 0
705 -704 0
706 -117 -705 0
-706 117 0
-706 705 0
-707 119 706 0
707 -119 0
707 -706 0
708 -121 -707 0
-708 121 0
-708 707 0
-709 153 10 692 703 708 0
709 -153 0
709 -10 0
709 -692 0
709 -703 0
709 -708 0
710 -165 -709 0
-710 165 0
-710 709 0
-711 37 710 34 0
711 -37 0
711 -710 0
711 -34 0
712 -63 -711 0
-712 63 0
-712 711 0
-713 22 712 0
713 -22 0
713 -712 0
714 -21 -713 0
-714 21 0
-714 713 0
-715 24 714 0
715 -24 0
715 -714 0
716 -26 -715 0
-716 26 0
-716 715 0
-717 31 689 716 27 0
717 -31 0
717 -689 0
717 -716 0
717 -27 0
718 -57 -717 0
-718 57 0
-718 717 0
-719 19 718 0
719 -19 0
719 -718 0
720 -721 -719 0
-720 721 0
-720 719 0
722 -723 -29 0
-722 723 0
-722 29 0
-724 725 297 367 562 614 720 722 0
724 -725 0
724 -297 0
724 -367 0
724 -562 0
724 -614 0
724 -720 0
724 -722 0
726 -724 -727 0
-726 724 0
-726 727 0
726 0
