c BC-S1.2
p cnf 152 376
1 -2 -3 0
-1 2 0
-1 3 0
4 -5 -6 0
-4 5 0
-4 6 0
7 -8 -9 0
-7 8 0
-7 9 0
-10 11 7 0
10 -11 0
10 -7 0
12 -13 -10 0
-12 13 0
-12 10 0
14 -15 -16 0
-14 15 0
-14 16 0
-17 18 12 14 0
17 -18 0
17 -12 0
17 -14 0
19 -20 -17 0
-19 20 0
-19 17 0
-21 22 19 0
21 -22 0
21 -19 0
23 -24 -21 0
-23 24 0
-23 21 0
-25 26 4 23 0
25 -26 0
25 -4 0
25 -23 0
27 -28 -25 0
-27 28 0
-27 25 0
29 -30 -21 0
-29 30 0
-29 21 0
-31 32 27 29 0
31 -32 0
31 -27 0
31 -29 0
33 -34 -31 0
-33 34 0
-33 31 0
-35 32 29 0
35 -32 0
35 -29 0
36 -37 -35 0
-36 37 0
-36 35 0
-38 26 36 4 23 0
38 -26 0
38 -36 0
38 -4 0
38 -23 0
39 -40 -38 0
-39 40 0
-39 38 0
-41 42 33 39 0
41 -42 0
41 -33 0
41 -39 0
43 -44 -41 0
-43 44 0
-43 41 0
-45 46 43 0
45 -46 0
45 -43 0
47 -48 -45 0
-47 48 0
-47 45 0
49 -50 -10 0
-49 50 0
-49 10 0
51 -52 -53 0
-51 52 0
-51 53 0
-54 55 51 0
54 -55 0
54 -51 0
56 -57 -54 0
-56 57 0
-56 54 0
-58 59 1 47 49 56 0
58 -59 0
58 -1 0
58 -47 0
58 -49 0
58 -56 0
60 -61 -58 0
-60 61 0
-60 58 0
-62 26 23 0
62 -26 0
62 -23 0
63 -28 -62 0
-63 28 0
-63 62 0
-64 32 63 29 0
64 -32 0
64 -63 0
64 -29 0
65 -34 -64 0
-65 34 0
-65 64 0
-66 26 36 23 0
66 -26 0
66 -36 0
66 -23 0
67 -40 -66 0
-67 40 0
-67 66 0
-68 42 65 67 0
68 -42 0
68 -65 0
68 -67 0
69 -44 -68 0
-69 44 0
-69 68 0
-70 46 69 0
70 -46 0
70 -69 0
71 -48 -70 0
-71 48 0
-71 70 0
-72 59 1 71 49 56 0
72 -59 0
72 -1 0
72 -71 0
72 -49 0
72 -56 0
73 -74 -72 0
-73 74 0
-73 72 0
75 -48 -46 0
-75 48 0
-75 46 0
-76 59 1 75 49 56 0
76 -59 0
76 -1 0
76 -75 0
76 -49 0
76 -56 0
77 -78 -76 0
-77 78 0
-77 76 0
-79 11 77 7 0
79 -11 0
79 -77 0
79 -7 0
80 -13 -79 0
-80 13 0
-80 79 0
-81 18 80 14 0
81 -18 0
81 -80 0
81 -14 0
82 -20 -81 0
-82 20 0
-82 81 0
-83 22 82 0
83 -22 0
83 -82 0
84 -30 -83 0
-84 30 0
-84 83 0
-85 32 84 0
85 -32 0
85 -84 0
86 -34 -85 0
-86 34 0
-86 85 0
87 -88 -46 0
-87 88 0
-87 46 0
-89 42 86 87 0
89 -42 0
89 -86 0
89 -87 0
90 -91 -89 0
-90 91 0
-90 89 0
-92 42 87 0
92 -42 0
92 -87 0
93 -94 -92 0
-93 94 0
-93 92 0
95 -44 -92 0
-95 44 0
-95 92 0
-96 46 95 0
96 -46 0
96 -95 0
97 -48 -96 0
-97 48 0
-97 96 0
-98 59 1 97 49 56 0
98 -59 0
98 -1 0
98 -97 0
98 -49 0
98 -56 0
99 -78 -98 0
-99 78 0
-99 98 0
-100 11 99 7 0
100 -11 0
100 -99 0
100 -7 0
101 -13 -100 0
-101 13 0
-101 100 0
-102 18 101 14 0
102 -18 0
102 -101 0
102 -14 0
103 -20 -102 0
-103 20 0
-103 102 0
-104 22 103 0
104 -22 0
104 -103 0
105 -30 -104 0
-105 30 0
-105 104 0
-106 32 93 105 0
106 -32 0
106 -93 0
106 -105 0
107 -37 -106 0
-107 37 0
-107 106 0
108 -34 -32 0
-108 34 0
-108 32 0
-109 42 108 0
109 -42 0
109 -108 0
110 -44 -109 0
-110 44 0
-110 109 0
-111 46 110 0
111 -46 0
111 -110 0
112 -48 -111 0
-112 48 0
-112 111 0
-113 59 1 112 49 56 0
113 -59 0
113 -1 0
113 -112 0
113 -49 0
113 -56 0
114 -78 -113 0
-114 78 0
-114 113 0
-115 11 114 7 0
115 -11 0
115 -114 0
115 -7 0
116 -13 -115 0
-116 13 0
-116 115 0
-117 18 116 14 0
117 -18 0
117 -116 0
117 -14 0
118 -20 -117 0
-118 20 0
-118 117 0
-119 22 118 0
119 -22 0
119 -118 0
120 -24 -119 0
-120 24 0
-120 119 0
-121 26 90 107 120 0
121 -26 0
121 -90 0
121 -107 0
121 -120 0
122 -123 -121 0
-122 123 0
-122 121 0
-124 6 73 122 0
124 -6 0
124 -73 0
124 -122 0
125 -126 -124 0
-125 126 0
-125 124 0
127 -24 -22 0
-127 24 0
-127 22 0
-128 26 4 127 0
128 -26 0
128 -4 0
128 -127 0
129 -28 -128 0
-129 28 0
-129 128 0
130 -30 -22 0
-130 30 0
-130 22 0
-131 32 129 130 0
131 -32 0
131 -129 0
131 -130 0
132 -34 -131 0
-132 34 0
-132 131 0
133 -37 -131 0
-133 37 0
-133 131 0
-134 26 133 4 127 0
134 -26 0
134 -133 0
134 -4 0
134 -127 0
135 -40 -134 0
-135 40 0
-135 134 0
-136 42 132 135 0
136 -42 0
136 -132 0
136 -135 0
137 -44 -136 0
-137 44 0
-137 136 0
-138 46 137 0
138 -46 0
138 -137 0
139 -48 -138 0
-139 48 0
-139 138 0
-140 59 1 139 49 56 0
140 -59 0
140 -1 0
140 -139 0
140 -49 0
140 -56 0
141 -78 -140 0
-141 78 0
-141 140 0
-142 11 141 7 0
142 -11 0
142 -141 0
142 -7 0
143 -13 -142 0
-143 13 0
-143 142 0
144 -145 -22 0
-144 145 0
-144 22 0
-146 18 143 144 14 0
146 -18 0
146 -143 0
146 -144 0
146 -14 0
147 -148 -146 0
-147 148 0
-147 146 0
-149 150 60 125 147 0
149 -150 0
149 -60 0
149 -125 0
149 -147 0
151 -149 -152 0
-151 149 0
-151 152 0
151 0
