c BC-S1.2
p cnf 718 2277
1 -2 -3 0
-1 2 0
-1 3 0
-4 5 1 0
4 -5 0
4 -1 0
6 -7 -4 0
-6 7 0
-6 4 0
-8 9 6 0
8 -9 0
8 -6 0
10 -11 -8 0
-10 11 0
-10 8 0
12 -13 -4 0
-12 13 0
-12 4 0
14 -15 -8 0
-14 15 0
-14 8 0
-16 17 14 0
16 -17 0
16 -14 0
18 -19 -16 0
-18 19 0
-18 16 0
20 -21 -3 0
-20 21 0
-20 3 0
-22 23 12 18 20 0
22 -23 0
22 -12 0
22 -18 0
22 -20 0
24 -25 -22 0
-24 25 0
-24 22 0
26 -27 -28 0
-26 27 0
-26 28 0
29 -30 -31 0
-29 30 0
-29 31 0
-32 33 26 29 0
32 -33 0
32 -26 0
32 -29 0
34 -35 -32 0
-34 35 0
-34 32 0
36 -37 -28 0
-36 37 0
-36 28 0
38 -39 -40 0
-38 39 0
-38 40 0
41 -42 -43 0
-41 42 0
-41 43 0
44 -45 -43 0
-44 45 0
-44 43 0
46 -47 -48 0
-46 47 0
-46 48 0
49 -50 -51 0
-49 50 0
-49 51 0
-52 53 49 0
52 -53 0
52 -49 0
54 -55 -52 0
-54 55 0
-54 52 0
-56 57 54 0
56 -57 0
56 -54 0
58 -59 -56 0
-58 59 0
-58 56 0
-60 61 58 0
60 -61 0
60 -58 0
62 -63 -60 0
-62 63 0
-62 60 0
64 -65 -66 0
-64 65 0
-64 66 0
-67 68 64 0
67 -68 0
67 -64 0
69 -70 -67 0
-69 70 0
-69 67 0
-71 72 62 69 0
71 -72 0
71 -62 0
71 -69 0
73 -74 -71 0
-73 74 0
-73 71 0
-75 76 44 46 73 0
75 -76 0
75 -44 0
75 -46 0
75 -73 0
77 -78 -75 0
-77 78 0
-77 75 0
-79 80 77 0
79 -80 0
79 -77 0
81 -82 -79 0
-81 82 0
-81 79 0
83 -84 -48 0
-83 84 0
-83 48 0
-85 76 44 46 0
85 -76 0
85 -44 0
85 -46 0
86 -87 -85 0
-86 87 0
-86 85 0
-88 57 54 86 0
88 -57 0
88 -54 0
88 -86 0
89 -59 -88 0
-89 59 0
-89 88 0
-90 61 89 0
90 -61 0
90 -89 0
91 -63 -90 0
-91 63 0
-91 90 0
92 -93 -85 0
-92 93 0
-92 85 0
-94 68 64 92 0
94 -68 0
94 -64 0
94 -92 0
95 -70 -94 0
-95 70 0
-95 94 0
96 -97 -85 0
-96 97 0
-96 85 0
-98 72 91 95 96 0
98 -72 0
98 -91 0
98 -95 0
98 -96 0
99 -100 -98 0
-99 100 0
-99 98 0
101 -102 -61 0
-101 102 0
-101 61 0
103 -63 -61 0
-103 63 0
-103 61 0
-104 72 103 95 96 0
104 -72 0
104 -103 0
104 -95 0
104 -96 0
105 -106 -104 0
-105 106 0
-105 104 0
-107 51 105 0
107 -51 0
107 -105 0
108 -50 -107 0
-108 50 0
-108 107 0
-109 53 101 108 0
109 -53 0
109 -101 0
109 -108 0
110 -55 -109 0
-110 55 0
-110 109 0
-111 72 103 69 0
111 -72 0
111 -103 0
111 -69 0
112 -74 -111 0
-112 74 0
-112 111 0
-113 76 44 46 112 0
113 -76 0
113 -44 0
113 -46 0
113 -112 0
114 -87 -113 0
-114 87 0
-114 113 0
-115 57 110 114 0
115 -57 0
115 -110 0
115 -114 0
116 -117 -115 0
-116 117 0
-116 115 0
118 -119 -75 0
-118 119 0
-118 75 0
-120 121 38 41 81 83 99 116 118 0
120 -121 0
120 -38 0
120 -41 0
120 -81 0
120 -83 0
120 -99 0
120 -116 0
120 -118 0
122 -123 -120 0
-122 123 0
-122 120 0
-124 125 122 0
124 -125 0
124 -122 0
126 -127 -124 0
-126 127 0
-126 124 0
128 -129 -130 0
-128 129 0
-128 130 0
131 -82 -80 0
-131 82 0
-131 80 0
-132 121 38 41 131 83 0
132 -121 0
132 -38 0
132 -41 0
132 -131 0
132 -83 0
133 -134 -132 0
-133 134 0
-133 132 0
-135 51 133 0
135 -51 0
135 -133 0
136 -50 -135 0
-136 50 0
-136 135 0
-137 53 136 0
137 -53 0
137 -136 0
138 -55 -137 0
-138 55 0
-138 137 0
139 -140 -132 0
-139 140 0
-139 132 0
-141 57 138 139 0
141 -57 0
141 -138 0
141 -139 0
142 -59 -141 0
-142 59 0
-142 141 0
-143 61 142 0
143 -61 0
143 -142 0
144 -63 -143 0
-144 63 0
-144 143 0
-145 53 101 49 0
145 -53 0
145 -101 0
145 -49 0
146 -55 -145 0
-146 55 0
-146 145 0
-147 57 146 0
147 -57 0
147 -146 0
148 -117 -147 0
-148 117 0
-148 147 0
-149 121 38 41 131 83 148 0
149 -121 0
149 -38 0
149 -41 0
149 -131 0
149 -83 0
149 -148 0
150 -151 -149 0
-150 151 0
-150 149 0
-152 66 150 0
152 -66 0
152 -150 0
153 -65 -152 0
-153 65 0
-153 152 0
154 -155 -149 0
-154 155 0
-154 149 0
-156 68 153 154 0
156 -68 0
156 -153 0
156 -154 0
157 -70 -156 0
-157 70 0
-157 156 0
-158 72 144 157 0
158 -72 0
158 -144 0
158 -157 0
159 -74 -158 0
-159 74 0
-159 158 0
-160 76 44 46 159 0
160 -76 0
160 -44 0
160 -46 0
160 -159 0
161 -162 -160 0
-161 162 0
-161 160 0
163 -164 -120 0
-163 164 0
-163 120 0
-165 166 161 163 0
165 -166 0
165 -161 0
165 -163 0
167 -168 -165 0
-167 168 0
-167 165 0
-169 170 34 36 126 128 167 0
169 -170 0
169 -34 0
169 -36 0
169 -126 0
169 -128 0
169 -167 0
171 -172 -169 0
-171 172 0
-171 169 0
173 -174 -32 0
-173 174 0
-173 32 0
-175 176 171 173 0
175 -176 0
175 -171 0
175 -173 0
177 -178 -175 0
-177 178 0
-177 175 0
-179 180 177 0
179 -180 0
179 -177 0
181 -182 -179 0
-181 182 0
-181 179 0
183 -184 -31 0
-183 184 0
-183 31 0
185 -162 -75 0
-185 162 0
-185 75 0
-186 166 185 0
186 -166 0
186 -185 0
187 -168 -186 0
-187 168 0
-187 186 0
-188 170 34 36 128 187 0
188 -170 0
188 -34 0
188 -36 0
188 -128 0
188 -187 0
189 -172 -188 0
-189 172 0
-189 188 0
-190 176 189 173 0
190 -176 0
190 -189 0
190 -173 0
191 -178 -190 0
-191 178 0
-191 190 0
-192 180 191 0
192 -180 0
192 -191 0
193 -194 -192 0
-193 194 0
-193 192 0
195 -196 -180 0
-195 196 0
-195 180 0
197 -198 -180 0
-197 198 0
-197 180 0
-199 76 197 44 46 73 0
199 -76 0
199 -197 0
199 -44 0
199 -46 0
199 -73 0
200 -162 -199 0
-200 162 0
-200 199 0
-201 166 195 200 0
201 -166 0
201 -195 0
201 -200 0
202 -168 -201 0
-202 168 0
-202 201 0
-203 170 34 36 128 202 0
203 -170 0
203 -34 0
203 -36 0
203 -128 0
203 -202 0
204 -172 -203 0
-204 172 0
-204 203 0
-205 176 204 173 0
205 -176 0
205 -204 0
205 -173 0
206 -207 -205 0
-206 207 0
-206 205 0
-208 40 206 0
208 -40 0
208 -206 0
209 -39 -208 0
-209 39 0
-209 208 0
-210 166 195 0
210 -166 0
210 -195 0
211 -168 -210 0
-211 168 0
-211 210 0
-212 170 34 36 128 211 0
212 -170 0
212 -34 0
212 -36 0
212 -128 0
212 -211 0
213 -172 -212 0
-213 172 0
-213 212 0
-214 176 213 173 0
214 -176 0
214 -213 0
214 -173 0
215 -216 -214 0
-215 216 0
-215 214 0
217 -168 -166 0
-217 168 0
-217 166 0
-218 170 34 36 128 217 0
218 -170 0
218 -34 0
218 -36 0
218 -128 0
218 -217 0
219 -172 -218 0
-219 172 0
-219 218 0
-220 176 219 173 0
220 -176 0
220 -219 0
220 -173 0
221 -178 -220 0
-221 178 0
-221 220 0
-222 180 221 0
222 -180 0
222 -221 0
223 -198 -222 0
-223 198 0
-223 222 0
224 -225 -214 0
-224 225 0
-224 214 0
-226 51 224 0
226 -51 0
226 -224 0
227 -50 -226 0
-227 50 0
-227 226 0
-228 53 227 0
228 -53 0
228 -227 0
229 -55 -228 0
-229 55 0
-229 228 0
-230 57 229 0
230 -57 0
230 -229 0
231 -59 -230 0
-231 59 0
-231 230 0
-232 61 231 0
232 -61 0
232 -231 0
233 -63 -232 0
-233 63 0
-233 232 0
-234 72 233 69 0
234 -72 0
234 -233 0
234 -69 0
235 -74 -234 0
-235 74 0
-235 234 0
-236 76 215 223 44 46 235 0
236 -76 0
236 -215 0
236 -223 0
236 -44 0
236 -46 0
236 -235 0
237 -78 -236 0
-237 78 0
-237 236 0
-238 80 237 0
238 -80 0
238 -237 0
239 -82 -238 0
-239 82 0
-239 238 0
-240 76 197 44 46 0
240 -76 0
240 -197 0
240 -44 0
240 -46 0
241 -162 -240 0
-241 162 0
-241 240 0
-242 166 195 241 0
242 -166 0
242 -195 0
242 -241 0
243 -168 -242 0
-243 168 0
-243 242 0
-244 170 34 36 128 243 0
244 -170 0
244 -34 0
244 -36 0
244 -128 0
244 -243 0
245 -172 -244 0
-245 172 0
-245 244 0
-246 176 245 173 0
246 -176 0
246 -245 0
246 -173 0
247 -225 -246 0
-247 225 0
-247 246 0
-248 51 247 0
248 -51 0
248 -247 0
249 -50 -248 0
-249 50 0
-249 248 0
-250 53 249 0
250 -53 0
250 -249 0
251 -55 -250 0
-251 55 0
-251 250 0
-252 76 215 223 44 46 0
252 -76 0
252 -215 0
252 -223 0
252 -44 0
252 -46 0
253 -87 -252 0
-253 87 0
-253 252 0
-254 57 251 253 0
254 -57 0
254 -251 0
254 -253 0
255 -59 -254 0
-255 59 0
-255 254 0
-256 61 255 0
256 -61 0
256 -255 0
257 -63 -256 0
-257 63 0
-257 256 0
258 -93 -252 0
-258 93 0
-258 252 0
-259 68 64 258 0
259 -68 0
259 -64 0
259 -258 0
260 -70 -259 0
-260 70 0
-260 259 0
261 -97 -252 0
-261 97 0
-261 252 0
-262 72 257 260 261 0
262 -72 0
262 -257 0
262 -260 0
262 -261 0
263 -100 -262 0
-263 100 0
-263 262 0
-264 76 197 44 46 112 0
264 -76 0
264 -197 0
264 -44 0
264 -46 0
264 -112 0
265 -162 -264 0
-265 162 0
-265 264 0
-266 166 195 265 0
266 -166 0
266 -195 0
266 -265 0
267 -168 -266 0
-267 168 0
-267 266 0
-268 170 34 36 128 267 0
268 -170 0
268 -34 0
268 -36 0
268 -128 0
268 -267 0
269 -172 -268 0
-269 172 0
-269 268 0
-270 176 269 173 0
270 -176 0
270 -269 0
270 -173 0
271 -225 -270 0
-271 225 0
-271 270 0
-272 72 103 260 261 0
272 -72 0
272 -103 0
272 -260 0
272 -261 0
273 -106 -272 0
-273 106 0
-273 272 0
-274 51 271 273 0
274 -51 0
274 -271 0
274 -273 0
275 -50 -274 0
-275 50 0
-275 274 0
-276 53 101 275 0
276 -53 0
276 -101 0
276 -275 0
277 -55 -276 0
-277 55 0
-277 276 0
-278 76 215 223 44 46 112 0
278 -76 0
278 -215 0
278 -223 0
278 -44 0
278 -46 0
278 -112 0
279 -87 -278 0
-279 87 0
-279 278 0
-280 57 277 279 0
280 -57 0
280 -277 0
280 -279 0
281 -117 -280 0
-281 117 0
-281 280 0
282 -119 -236 0
-282 119 0
-282 236 0
-283 121 193 209 41 239 83 263 281 282 0
283 -121 0
283 -193 0
283 -209 0
283 -41 0
283 -239 0
283 -83 0
283 -263 0
283 -281 0
283 -282 0
284 -123 -283 0
-284 123 0
-284 283 0
-285 125 284 0
285 -125 0
285 -284 0
286 -287 -285 0
-286 287 0
-286 285 0
288 -289 -130 0
-288 289 0
-288 130 0
-290 291 10 24 181 183 286 288 0
290 -291 0
290 -10 0
290 -24 0
290 -181 0
290 -183 0
290 -286 0
290 -288 0
292 -293 -290 0
-292 293 0
-292 290 0
294 -182 -180 0
-294 182 0
-294 180 0
295 -194 -180 0
-295 194 0
-295 180 0
296 -78 -199 0
-296 78 0
-296 199 0
-297 80 296 0
297 -80 0
297 -296 0
298 -82 -297 0
-298 82 0
-298 297 0
299 -87 -240 0
-299 87 0
-299 240 0
-300 57 54 299 0
300 -57 0
300 -54 0
300 -299 0
301 -59 -300 0
-301 59 0
-301 300 0
-302 61 301 0
302 -61 0
302 -301 0
303 -63 -302 0
-303 63 0
-303 302 0
304 -93 -240 0
-304 93 0
-304 240 0
-305 68 64 304 0
305 -68 0
305 -64 0
305 -304 0
306 -70 -305 0
-306 70 0
-306 305 0
307 -97 -240 0
-307 97 0
-307 240 0
-308 72 303 306 307 0
308 -72 0
308 -303 0
308 -306 0
308 -307 0
309 -100 -308 0
-309 100 0
-309 308 0
-310 72 103 306 307 0
310 -72 0
310 -103 0
310 -306 0
310 -307 0
311 -106 -310 0
-311 106 0
-311 310 0
-312 51 311 0
312 -51 0
312 -311 0
313 -50 -312 0
-313 50 0
-313 312 0
-314 53 101 313 0
314 -53 0
314 -101 0
314 -313 0
315 -55 -314 0
-315 55 0
-315 314 0
316 -87 -264 0
-316 87 0
-316 264 0
-317 57 315 316 0
317 -57 0
317 -315 0
317 -316 0
318 -117 -317 0
-318 117 0
-318 317 0
319 -119 -199 0
-319 119 0
-319 199 0
-320 121 295 38 41 298 83 309 318 319 0
320 -121 0
320 -295 0
320 -38 0
320 -41 0
320 -298 0
320 -83 0
320 -309 0
320 -318 0
320 -319 0
321 -123 -320 0
-321 123 0
-321 320 0
-322 125 321 0
322 -125 0
322 -321 0
323 -287 -322 0
-323 287 0
-323 322 0
-324 291 10 24 294 183 323 288 0
324 -291 0
324 -10 0
324 -24 0
324 -294 0
324 -183 0
324 -323 0
324 -288 0
325 -326 -324 0
-325 326 0
-325 324 0
327 -328 -324 0
-327 328 0
-327 324 0
329 -330 -324 0
-329 330 0
-329 324 0
331 -332 -324 0
-331 332 0
-331 324 0
-333 28 331 0
333 -28 0
333 -331 0
334 -27 -333 0
-334 27 0
-334 333 0
-335 33 329 334 29 0
335 -33 0
335 -329 0
335 -334 0
335 -29 0
336 -35 -335 0
-336 35 0
-336 335 0
337 -37 -333 0
-337 37 0
-337 333 0
-338 291 10 24 294 183 288 0
338 -291 0
338 -10 0
338 -24 0
338 -294 0
338 -183 0
338 -288 0
339 -340 -338 0
-339 340 0
-339 338 0
341 -342 -338 0
-341 342 0
-341 338 0
-343 57 341 54 0
343 -57 0
343 -341 0
343 -54 0
344 -59 -343 0
-344 59 0
-344 343 0
-345 61 344 0
345 -61 0
345 -344 0
346 -63 -345 0
-346 63 0
-346 345 0
-347 72 346 69 0
347 -72 0
347 -346 0
347 -69 0
348 -74 -347 0
-348 74 0
-348 347 0
-349 76 197 44 46 348 0
349 -76 0
349 -197 0
349 -44 0
349 -46 0
349 -348 0
350 -78 -349 0
-350 78 0
-350 349 0
-351 80 350 0
351 -80 0
351 -350 0
352 -82 -351 0
-352 82 0
-352 351 0
-353 57 341 54 299 0
353 -57 0
353 -341 0
353 -54 0
353 -299 0
354 -59 -353 0
-354 59 0
-354 353 0
-355 61 354 0
355 -61 0
355 -354 0
356 -63 -355 0
-356 63 0
-356 355 0
-357 72 356 306 307 0
357 -72 0
357 -356 0
357 -306 0
357 -307 0
358 -100 -357 0
-358 100 0
-358 357 0
-359 57 341 315 316 0
359 -57 0
359 -341 0
359 -315 0
359 -316 0
360 -117 -359 0
-360 117 0
-360 359 0
361 -119 -349 0
-361 119 0
-361 349 0
-362 121 295 38 41 352 83 358 360 361 0
362 -121 0
362 -295 0
362 -38 0
362 -41 0
362 -352 0
362 -83 0
362 -358 0
362 -360 0
362 -361 0
363 -123 -362 0
-363 123 0
-363 362 0
-364 125 339 363 0
364 -125 0
364 -339 0
364 -363 0
365 -127 -364 0
-365 127 0
-365 364 0
-366 121 295 38 41 131 83 0
366 -121 0
366 -295 0
366 -38 0
366 -41 0
366 -131 0
366 -83 0
367 -123 -366 0
-367 123 0
-367 366 0
-368 125 367 0
368 -125 0
368 -367 0
369 -287 -368 0
-369 287 0
-369 368 0
-370 291 10 24 294 183 369 288 0
370 -291 0
370 -10 0
370 -24 0
370 -294 0
370 -183 0
370 -369 0
370 -288 0
371 -342 -370 0
-371 342 0
-371 370 0
372 -134 -366 0
-372 134 0
-372 366 0
-373 51 372 0
373 -51 0
373 -372 0
374 -50 -373 0
-374 50 0
-374 373 0
-375 53 374 0
375 -53 0
375 -374 0
376 -55 -375 0
-376 55 0
-376 375 0
377 -140 -366 0
-377 140 0
-377 366 0
-378 57 371 376 377 0
378 -57 0
378 -371 0
378 -376 0
378 -377 0
379 -59 -378 0
-379 59 0
-379 378 0
-380 61 379 0
380 -61 0
380 -379 0
381 -63 -380 0
-381 63 0
-381 380 0
382 -287 -125 0
-382 287 0
-382 125 0
-383 291 10 24 294 183 382 288 0
383 -291 0
383 -10 0
383 -24 0
383 -294 0
383 -183 0
383 -382 0
383 -288 0
384 -342 -383 0
-384 342 0
-384 383 0
-385 57 384 146 0
385 -57 0
385 -384 0
385 -146 0
386 -117 -385 0
-386 117 0
-386 385 0
-387 121 295 38 41 131 83 386 0
387 -121 0
387 -295 0
387 -38 0
387 -41 0
387 -131 0
387 -83 0
387 -386 0
388 -151 -387 0
-388 151 0
-388 387 0
-389 66 388 0
389 -66 0
389 -388 0
390 -65 -389 0
-390 65 0
-390 389 0
391 -155 -387 0
-391 155 0
-391 387 0
-392 68 390 391 0
392 -68 0
392 -390 0
392 -391 0
393 -70 -392 0
-393 70 0
-393 392 0
-394 72 381 393 0
394 -72 0
394 -381 0
394 -393 0
395 -74 -394 0
-395 74 0
-395 394 0
-396 76 197 44 46 395 0
396 -76 0
396 -197 0
396 -44 0
396 -46 0
396 -395 0
397 -162 -396 0
-397 162 0
-397 396 0
-398 57 384 54 0
398 -57 0
398 -384 0
398 -54 0
399 -59 -398 0
-399 59 0
-399 398 0
-400 61 399 0
400 -61 0
400 -399 0
401 -63 -400 0
-401 63 0
-401 400 0
-402 72 401 69 0
402 -72 0
402 -401 0
402 -69 0
403 -74 -402 0
-403 74 0
-403 402 0
-404 76 197 44 46 403 0
404 -76 0
404 -197 0
404 -44 0
404 -46 0
404 -403 0
405 -78 -404 0
-405 78 0
-405 404 0
-406 80 405 0
406 -80 0
406 -405 0
407 -82 -406 0
-407 82 0
-407 406 0
-408 57 384 54 299 0
408 -57 0
408 -384 0
408 -54 0
408 -299 0
409 -59 -408 0
-409 59 0
-409 408 0
-410 61 409 0
410 -61 0
410 -409 0
411 -63 -410 0
-411 63 0
-411 410 0
-412 72 411 306 307 0
412 -72 0
412 -411 0
412 -306 0
412 -307 0
413 -100 -412 0
-413 100 0
-413 412 0
-414 57 384 315 316 0
414 -57 0
414 -384 0
414 -315 0
414 -316 0
415 -117 -414 0
-415 117 0
-415 414 0
416 -119 -404 0
-416 119 0
-416 404 0
-417 121 295 38 41 407 83 413 415 416 0
417 -121 0
417 -295 0
417 -38 0
417 -41 0
417 -407 0
417 -83 0
417 -413 0
417 -415 0
417 -416 0
418 -164 -417 0
-418 164 0
-418 417 0
-419 166 195 397 418 0
419 -166 0
419 -195 0
419 -397 0
419 -418 0
420 -168 -419 0
-420 168 0
-420 419 0
-421 170 327 336 337 365 128 420 0
421 -170 0
421 -327 0
421 -336 0
421 -337 0
421 -365 0
421 -128 0
421 -420 0
422 -172 -421 0
-422 172 0
-422 421 0
423 -174 -335 0
-423 174 0
-423 335 0
-424 176 325 422 423 0
424 -176 0
424 -325 0
424 -422 0
424 -423 0
425 -426 -424 0
-425 426 0
-425 424 0
-427 170 36 126 128 167 0
427 -170 0
427 -36 0
427 -126 0
427 -128 0
427 -167 0
428 -172 -427 0
-428 172 0
-428 427 0
-429 176 428 173 0
429 -176 0
429 -428 0
429 -173 0
430 -178 -429 0
-430 178 0
-430 429 0
-431 180 430 0
431 -180 0
431 -430 0
432 -182 -431 0
-432 182 0
-432 431 0
-433 170 36 128 187 0
433 -170 0
433 -36 0
433 -128 0
433 -187 0
434 -172 -433 0
-434 172 0
-434 433 0
-435 176 434 173 0
435 -176 0
435 -434 0
435 -173 0
436 -178 -435 0
-436 178 0
-436 435 0
-437 180 436 0
437 -180 0
437 -436 0
438 -194 -437 0
-438 194 0
-438 437 0
-439 170 36 128 202 0
439 -170 0
439 -36 0
439 -128 0
439 -202 0
440 -172 -439 0
-440 172 0
-440 439 0
-441 176 440 173 0
441 -176 0
441 -440 0
441 -173 0
442 -207 -441 0
-442 207 0
-442 441 0
-443 40 442 0
443 -40 0
443 -442 0
444 -39 -443 0
-444 39 0
-444 443 0
-445 170 36 128 211 0
445 -170 0
445 -36 0
445 -128 0
445 -211 0
446 -172 -445 0
-446 172 0
-446 445 0
-447 176 446 173 0
447 -176 0
447 -446 0
447 -173 0
448 -216 -447 0
-448 216 0
-448 447 0
-449 170 36 128 217 0
449 -170 0
449 -36 0
449 -128 0
449 -217 0
450 -172 -449 0
-450 172 0
-450 449 0
-451 176 450 173 0
451 -176 0
451 -450 0
451 -173 0
452 -178 -451 0
-452 178 0
-452 451 0
-453 180 452 0
453 -180 0
453 -452 0
454 -198 -453 0
-454 198 0
-454 453 0
455 -225 -447 0
-455 225 0
-455 447 0
-456 51 455 0
456 -51 0
456 -455 0
457 -50 -456 0
-457 50 0
-457 456 0
-458 53 457 0
458 -53 0
458 -457 0
459 -55 -458 0
-459 55 0
-459 458 0
-460 57 459 0
460 -57 0
460 -459 0
461 -59 -460 0
-461 59 0
-461 460 0
-462 61 461 0
462 -61 0
462 -461 0
463 -63 -462 0
-463 63 0
-463 462 0
-464 72 463 69 0
464 -72 0
464 -463 0
464 -69 0
465 -74 -464 0
-465 74 0
-465 464 0
-466 76 448 454 44 46 465 0
466 -76 0
466 -448 0
466 -454 0
466 -44 0
466 -46 0
466 -465 0
467 -78 -466 0
-467 78 0
-467 466 0
-468 80 467 0
468 -80 0
468 -467 0
469 -82 -468 0
-469 82 0
-469 468 0
-470 170 36 128 243 0
470 -170 0
470 -36 0
470 -128 0
470 -243 0
471 -172 -470 0
-471 172 0
-471 470 0
-472 176 471 173 0
472 -176 0
472 -471 0
472 -173 0
473 -225 -472 0
-473 225 0
-473 472 0
-474 51 473 0
474 -51 0
474 -473 0
475 -50 -474 0
-475 50 0
-475 474 0
-476 53 475 0
476 -53 0
476 -475 0
477 -55 -476 0
-477 55 0
-477 476 0
-478 76 448 454 44 46 0
478 -76 0
478 -448 0
478 -454 0
478 -44 0
478 -46 0
479 -87 -478 0
-479 87 0
-479 478 0
-480 57 477 479 0
480 -57 0
480 -477 0
480 -479 0
481 -59 -480 0
-481 59 0
-481 480 0
-482 61 481 0
482 -61 0
482 -481 0
483 -63 -482 0
-483 63 0
-483 482 0
484 -93 -478 0
-484 93 0
-484 478 0
-485 68 64 484 0
485 -68 0
485 -64 0
485 -484 0
486 -70 -485 0
-486 70 0
-486 485 0
487 -97 -478 0
-487 97 0
-487 478 0
-488 72 483 486 487 0
488 -72 0
488 -483 0
488 -486 0
488 -487 0
489 -100 -488 0
-489 100 0
-489 488 0
-490 170 36 128 267 0
490 -170 0
490 -36 0
490 -128 0
490 -267 0
491 -172 -490 0
-491 172 0
-491 490 0
-492 176 491 173 0
492 -176 0
492 -491 0
492 -173 0
493 -225 -492 0
-493 225 0
-493 492 0
-494 72 103 486 487 0
494 -72 0
494 -103 0
494 -486 0
494 -487 0
495 -106 -494 0
-495 106 0
-495 494 0
-496 51 493 495 0
496 -51 0
496 -493 0
496 -495 0
497 -50 -496 0
-497 50 0
-497 496 0
-498 53 101 497 0
498 -53 0
498 -101 0
498 -497 0
499 -55 -498 0
-499 55 0
-499 498 0
-500 76 448 454 44 46 112 0
500 -76 0
500 -448 0
500 -454 0
500 -44 0
500 -46 0
500 -112 0
501 -87 -500 0
-501 87 0
-501 500 0
-502 57 499 501 0
502 -57 0
502 -499 0
502 -501 0
503 -117 -502 0
-503 117 0
-503 502 0
504 -119 -466 0
-504 119 0
-504 466 0
-505 121 438 444 41 469 83 489 503 504 0
505 -121 0
505 -438 0
505 -444 0
505 -41 0
505 -469 0
505 -83 0
505 -489 0
505 -503 0
505 -504 0
506 -123 -505 0
-506 123 0
-506 505 0
-507 125 506 0
507 -125 0
507 -506 0
508 -287 -507 0
-508 287 0
-508 507 0
-509 291 10 24 432 183 508 288 0
509 -291 0
509 -10 0
509 -24 0
509 -432 0
509 -183 0
509 -508 0
509 -288 0
510 -330 -509 0
-510 330 0
-510 509 0
-511 176 428 0
511 -176 0
511 -428 0
512 -178 -511 0
-512 178 0
-512 511 0
-513 180 512 0
513 -180 0
513 -512 0
514 -182 -513 0
-514 182 0
-514 513 0
-515 176 434 0
515 -176 0
515 -434 0
516 -178 -515 0
-516 178 0
-516 515 0
-517 180 516 0
517 -180 0
517 -516 0
518 -194 -517 0
-518 194 0
-518 517 0
-519 176 440 0
519 -176 0
519 -440 0
520 -207 -519 0
-520 207 0
-520 519 0
-521 40 520 0
521 -40 0
521 -520 0
522 -39 -521 0
-522 39 0
-522 521 0
-523 176 446 0
523 -176 0
523 -446 0
524 -216 -523 0
-524 216 0
-524 523 0
-525 176 450 0
525 -176 0
525 -450 0
526 -178 -525 0
-526 178 0
-526 525 0
-527 180 526 0
527 -180 0
527 -526 0
528 -198 -527 0
-528 198 0
-528 527 0
529 -225 -523 0
-529 225 0
-529 523 0
-530 51 529 0
530 -51 0
530 -529 0
531 -50 -530 0
-531 50 0
-531 530 0
-532 53 531 0
532 -53 0
532 -531 0
533 -55 -532 0
-533 55 0
-533 532 0
-534 57 533 0
534 -57 0
534 -533 0
535 -59 -534 0
-535 59 0
-535 534 0
-536 61 535 0
536 -61 0
536 -535 0
537 -63 -536 0
-537 63 0
-537 536 0
-538 72 537 69 0
538 -72 0
538 -537 0
538 -69 0
539 -74 -538 0
-539 74 0
-539 538 0
-540 76 524 528 44 46 539 0
540 -76 0
540 -524 0
540 -528 0
540 -44 0
540 -46 0
540 -539 0
541 -78 -540 0
-541 78 0
-541 540 0
-542 80 541 0
542 -80 0
542 -541 0
543 -82 -542 0
-543 82 0
-543 542 0
-544 176 471 0
544 -176 0
544 -471 0
545 -225 -544 0
-545 225 0
-545 544 0
-546 51 545 0
546 -51 0
546 -545 0
547 -50 -546 0
-547 50 0
-547 546 0
-548 53 547 0
548 -53 0
548 -547 0
549 -55 -548 0
-549 55 0
-549 548 0
-550 76 524 528 44 46 0
550 -76 0
550 -524 0
550 -528 0
550 -44 0
550 -46 0
551 -87 -550 0
-551 87 0
-551 550 0
-552 57 549 551 0
552 -57 0
552 -549 0
552 -551 0
553 -59 -552 0
-553 59 0
-553 552 0
-554 61 553 0
554 -61 0
554 -553 0
555 -63 -554 0
-555 63 0
-555 554 0
556 -93 -550 0
-556 93 0
-556 550 0
-557 68 64 556 0
557 -68 0
557 -64 0
557 -556 0
558 -70 -557 0
-558 70 0
-558 557 0
559 -97 -550 0
-559 97 0
-559 550 0
-560 72 555 558 559 0
560 -72 0
560 -555 0
560 -558 0
560 -559 0
561 -100 -560 0
-561 100 0
-561 560 0
-562 176 491 0
562 -176 0
562 -491 0
563 -225 -562 0
-563 225 0
-563 562 0
-564 72 103 558 559 0
564 -72 0
564 -103 0
564 -558 0
564 -559 0
565 -106 -564 0
-565 106 0
-565 564 0
-566 51 563 565 0
566 -51 0
566 -563 0
566 -565 0
567 -50 -566 0
-567 50 0
-567 566 0
-568 53 101 567 0
568 -53 0
568 -101 0
568 -567 0
569 -55 -568 0
-569 55 0
-569 568 0
-570 76 524 528 44 46 112 0
570 -76 0
570 -524 0
570 -528 0
570 -44 0
570 -46 0
570 -112 0
571 -87 -570 0
-571 87 0
-571 570 0
-572 57 569 571 0
572 -57 0
572 -569 0
572 -571 0
573 -117 -572 0
-573 117 0
-573 572 0
574 -119 -540 0
-574 119 0
-574 540 0
-575 121 518 522 41 543 83 561 573 574 0
575 -121 0
575 -518 0
575 -522 0
575 -41 0
575 -543 0
575 -83 0
575 -561 0
575 -573 0
575 -574 0
576 -123 -575 0
-576 123 0
-576 575 0
-577 125 576 0
577 -125 0
577 -576 0
578 -287 -577 0
-578 287 0
-578 577 0
-579 291 10 24 514 183 578 288 0
579 -291 0
579 -10 0
579 -24 0
579 -514 0
579 -183 0
579 -578 0
579 -288 0
580 -332 -579 0
-580 332 0
-580 579 0
-581 170 327 365 128 420 0
581 -170 0
581 -327 0
581 -365 0
581 -128 0
581 -420 0
582 -172 -581 0
-582 172 0
-582 581 0
-583 176 325 582 0
583 -176 0
583 -325 0
583 -582 0
584 -585 -583 0
-584 585 0
-584 583 0
-586 28 580 584 0
586 -28 0
586 -580 0
586 -584 0
587 -27 -586 0
-587 27 0
-587 586 0
-588 33 510 587 29 0
588 -33 0
588 -510 0
588 -587 0
588 -29 0
589 -590 -588 0
-589 590 0
-589 588 0
591 -326 -383 0
-591 326 0
-591 383 0
592 -328 -383 0
-592 328 0
-592 383 0
593 -330 -383 0
-593 330 0
-593 383 0
594 -332 -383 0
-594 332 0
-594 383 0
-595 28 594 0
595 -28 0
595 -594 0
596 -27 -595 0
-596 27 0
-596 595 0
-597 33 593 596 29 0
597 -33 0
597 -593 0
597 -596 0
597 -29 0
598 -35 -597 0
-598 35 0
-598 597 0
599 -37 -595 0
-599 37 0
-599 595 0
-600 125 339 0
600 -125 0
600 -339 0
601 -127 -600 0
-601 127 0
-601 600 0
-602 76 44 46 403 0
602 -76 0
602 -44 0
602 -46 0
602 -403 0
603 -162 -602 0
-603 162 0
-603 602 0
-604 166 603 0
604 -166 0
604 -603 0
605 -168 -604 0
-605 168 0
-605 604 0
-606 170 592 598 599 601 128 605 0
606 -170 0
606 -592 0
606 -598 0
606 -599 0
606 -601 0
606 -128 0
606 -605 0
607 -172 -606 0
-607 172 0
-607 606 0
608 -174 -597 0
-608 174 0
-608 597 0
-609 176 591 607 608 0
609 -176 0
609 -591 0
609 -607 0
609 -608 0
610 -178 -609 0
-610 178 0
-610 609 0
-611 180 610 0
611 -180 0
611 -610 0
612 -194 -611 0
-612 194 0
-612 611 0
613 -162 -404 0
-613 162 0
-613 404 0
-614 166 195 613 0
614 -166 0
614 -195 0
614 -613 0
615 -168 -614 0
-615 168 0
-615 614 0
-616 170 592 598 599 601 128 615 0
616 -170 0
616 -592 0
616 -598 0
616 -599 0
616 -601 0
616 -128 0
616 -615 0
617 -172 -616 0
-617 172 0
-617 616 0
-618 176 591 617 608 0
618 -176 0
618 -591 0
618 -617 0
618 -608 0
619 -207 -618 0
-619 207 0
-619 618 0
-620 40 619 0
620 -40 0
620 -619 0
621 -39 -620 0
-621 39 0
-621 620 0
-622 170 592 598 599 601 128 211 0
622 -170 0
622 -592 0
622 -598 0
622 -599 0
622 -601 0
622 -128 0
622 -211 0
623 -172 -622 0
-623 172 0
-623 622 0
-624 176 591 623 608 0
624 -176 0
624 -591 0
624 -623 0
624 -608 0
625 -216 -624 0
-625 216 0
-625 624 0
-626 170 592 598 599 601 128 217 0
626 -170 0
626 -592 0
626 -598 0
626 -599 0
626 -601 0
626 -128 0
626 -217 0
627 -172 -626 0
-627 172 0
-627 626 0
-628 176 591 627 608 0
628 -176 0
628 -591 0
628 -627 0
628 -608 0
629 -178 -628 0
-629 178 0
-629 628 0
-630 180 629 0
630 -180 0
630 -629 0
631 -198 -630 0
-631 198 0
-631 630 0
632 -127 -125 0
-632 127 0
-632 125 0
-633 170 34 36 632 128 217 0
633 -170 0
633 -34 0
633 -36 0
633 -632 0
633 -128 0
633 -217 0
634 -172 -633 0
-634 172 0
-634 633 0
-635 176 634 173 0
635 -176 0
635 -634 0
635 -173 0
636 -178 -635 0
-636 178 0
-636 635 0
-637 180 636 0
637 -180 0
637 -636 0
638 -182 -637 0
-638 182 0
-638 637 0
-639 291 10 24 638 183 382 288 0
639 -291 0
639 -10 0
639 -24 0
639 -638 0
639 -183 0
639 -382 0
639 -288 0
640 -342 -639 0
-640 342 0
-640 639 0
641 -225 -624 0
-641 225 0
-641 624 0
-642 51 641 0
642 -51 0
642 -641 0
643 -50 -642 0
-643 50 0
-643 642 0
-644 53 643 0
644 -53 0
644 -643 0
645 -55 -644 0
-645 55 0
-645 644 0
-646 57 640 645 0
646 -57 0
646 -640 0
646 -645 0
647 -59 -646 0
-647 59 0
-647 646 0
-648 61 647 0
648 -61 0
648 -647 0
649 -63 -648 0
-649 63 0
-649 648 0
-650 72 649 69 0
650 -72 0
650 -649 0
650 -69 0
651 -74 -650 0
-651 74 0
-651 650 0
-652 76 625 631 44 46 651 0
652 -76 0
652 -625 0
652 -631 0
652 -44 0
652 -46 0
652 -651 0
653 -78 -652 0
-653 78 0
-653 652 0
-654 80 653 0
654 -80 0
654 -653 0
655 -82 -654 0
-655 82 0
-655 654 0
-656 166 241 0
656 -166 0
656 -241 0
657 -168 -656 0
-657 168 0
-657 656 0
-658 170 34 36 632 128 657 0
658 -170 0
658 -34 0
658 -36 0
658 -632 0
658 -128 0
658 -657 0
659 -172 -658 0
-659 172 0
-659 658 0
-660 176 659 173 0
660 -176 0
660 -659 0
660 -173 0
661 -178 -660 0
-661 178 0
-661 660 0
-662 180 661 0
662 -180 0
662 -661 0
663 -182 -662 0
-663 182 0
-663 662 0
-664 291 10 24 663 183 382 288 0
664 -291 0
664 -10 0
664 -24 0
664 -663 0
664 -183 0
664 -382 0
664 -288 0
665 -342 -664 0
-665 342 0
-665 664 0
-666 170 592 598 599 601 128 243 0
666 -170 0
666 -592 0
666 -598 0
666 -599 0
666 -601 0
666 -128 0
666 -243 0
667 -172 -666 0
-667 172 0
-667 666 0
-668 176 591 667 608 0
668 -176 0
668 -591 0
668 -667 0
668 -608 0
669 -225 -668 0
-669 225 0
-669 668 0
-670 51 669 0
670 -51 0
670 -669 0
671 -50 -670 0
-671 50 0
-671 670 0
-672 53 671 0
672 -53 0
672 -671 0
673 -55 -672 0
-673 55 0
-673 672 0
-674 76 625 631 44 46 0
674 -76 0
674 -625 0
674 -631 0
674 -44 0
674 -46 0
675 -87 -674 0
-675 87 0
-675 674 0
-676 57 665 673 675 0
676 -57 0
676 -665 0
676 -673 0
676 -675 0
677 -59 -676 0
-677 59 0
-677 676 0
-678 61 677 0
678 -61 0
678 -677 0
679 -63 -678 0
-679 63 0
-679 678 0
680 -93 -674 0
-680 93 0
-680 674 0
-681 68 64 680 0
681 -68 0
681 -64 0
681 -680 0
682 -70 -681 0
-682 70 0
-682 681 0
683 -97 -674 0
-683 97 0
-683 674 0
-684 72 679 682 683 0
684 -72 0
684 -679 0
684 -682 0
684 -683 0
685 -100 -684 0
-685 100 0
-685 684 0
686 -162 -113 0
-686 162 0
-686 113 0
-687 166 686 0
687 -166 0
687 -686 0
688 -168 -687 0
-688 168 0
-688 687 0
-689 170 34 36 632 128 688 0
689 -170 0
689 -34 0
689 -36 0
689 -632 0
689 -128 0
689 -688 0
690 -172 -689 0
-690 172 0
-690 689 0
-691 176 690 173 0
691 -176 0
691 -690 0
691 -173 0
692 -178 -691 0
-692 178 0
-692 691 0
-693 180 692 0
693 -180 0
693 -692 0
694 -182 -693 0
-694 182 0
-694 693 0
-695 291 10 24 694 183 382 288 0
695 -291 0
695 -10 0
695 -24 0
695 -694 0
695 -183 0
695 -382 0
695 -288 0
696 -342 -695 0
-696 342 0
-696 695 0
-697 170 592 598 599 601 128 267 0
697 -170 0
697 -592 0
697 -598 0
697 -599 0
697 -601 0
697 -128 0
697 -267 0
698 -172 -697 0
-698 172 0
-698 697 0
-699 176 591 698 608 0
699 -176 0
699 -591 0
699 -698 0
699 -608 0
700 -225 -699 0
-700 225 0
-700 699 0
-701 72 103 682 683 0
701 -72 0
701 -103 0
701 -682 0
701 -683 0
702 -106 -701 0
-702 106 0
-702 701 0
-703 51 700 702 0
703 -51 0
703 -700 0
703 -702 0
704 -50 -703 0
-704 50 0
-704 703 0
-705 53 101 704 0
705 -53 0
705 -101 0
705 -704 0
706 -55 -705 0
-706 55 0
-706 705 0
-707 76 625 631 44 46 112 0
707 -76 0
707 -625 0
707 -631 0
707 -44 0
707 -46 0
707 -112 0
708 -87 -707 0
-708 87 0
-708 707 0
-709 57 696 706 708 0
709 -57 0
709 -696 0
709 -706 0
709 -708 0
710 -117 -709 0
-710 117 0
-710 709 0
711 -119 -652 0
-711 119 0
-711 652 0
-712 121 612 621 41 655 83 685 710 711 0
712 -121 0
712 -612 0
712 -621 0
712 -41 0
712 -655 0
712 -83 0
712 -685 0
712 -710 0
712 -711 0
713 -714 -712 0
-713 714 0
-713 712 0
-715 716 292 425 589 713 0
715 -716 0
715 -292 0
715 -425 0
715 -589 0
715 -713 0
717 -715 -718 0
-717 715 0
-717 718 0
717 0
