c BC-S1.2
p cnf 140 343
1 -2 -3 0
-1 2 0
-1 3 0
-4 5 1 0
4 -5 0
4 -1 0
6 -7 -4 0
-6 7 0
-6 4 0
8 -9 -3 0
-8 9 0
-8 3 0
-10 11 8 0
10 -11 0
10 -8 0
12 -13 -10 0
-12 13 0
-12 10 0
14 -15 -10 0
-14 15 0
-14 10 0
-16 17 14 0
16 -17 0
16 -14 0
18 -19 -16 0
-18 19 0
-18 16 0
-20 21 12 18 0
20 -21 0
20 -12 0
20 -18 0
22 -23 -20 0
-22 23 0
-22 20 0
-24 25 22 0
24 -25 0
24 -22 0
26 -27 -24 0
-26 27 0
-26 24 0
-28 29 6 26 0
28 -29 0
28 -6 0
28 -26 0
30 -31 -28 0
-30 31 0
-30 28 0
32 -27 -25 0
-32 27 0
-32 25 0
-33 29 6 32 0
33 -29 0
33 -6 0
33 -32 0
34 -35 -33 0
-34 35 0
-34 33 0
36 -37 -25 0
-36 37 0
-36 25 0
-38 17 14 36 0
38 -17 0
38 -14 0
38 -36 0
39 -19 -38 0
-39 19 0
-39 38 0
-40 21 12 34 39 0
40 -21 0
40 -12 0
40 -34 0
40 -39 0
41 -42 -40 0
-41 42 0
-41 40 0
-43 29 6 0
43 -29 0
43 -6 0
44 -35 -43 0
-44 35 0
-44 43 0
-45 21 12 44 0
45 -21 0
45 -12 0
45 -44 0
46 -23 -45 0
-46 23 0
-46 45 0
-47 25 46 0
47 -25 0
47 -46 0
48 -37 -47 0
-48 37 0
-48 47 0
-49 17 14 48 0
49 -17 0
49 -14 0
49 -48 0
50 -51 -49 0
-50 51 0
-50 49 0
-52 53 50 0
52 -53 0
52 -50 0
54 -55 -52 0
-54 55 0
-54 52 0
-56 57 30 41 54 0
56 -57 0
56 -30 0
56 -41 0
56 -54 0
58 -59 -56 0
-58 59 0
-58 56 0
60 -31 -33 0
-60 31 0
-60 33 0
61 -51 -38 0
-61 51 0
-61 38 0
-62 53 61 0
62 -53 0
62 -61 0
63 -55 -62 0
-63 55 0
-63 62 0
-64 57 60 63 0
64 -57 0
64 -60 0
64 -63 0
65 -66 -64 0
-65 66 0
-65 64 0
-67 11 65 8 0
67 -11 0
67 -65 0
67 -8 0
68 -13 -67 0
-68 13 0
-68 67 0
-69 57 63 0
69 -57 0
69 -63 0
70 -71 -69 0
-70 71 0
-70 69 0
-72 5 70 1 0
72 -5 0
72 -70 0
72 -1 0
73 -7 -72 0
-73 7 0
-73 72 0
-74 29 73 32 0
74 -29 0
74 -73 0
74 -32 0
75 -35 -74 0
-75 35 0
-75 74 0
76 -15 -67 0
-76 15 0
-76 67 0
-77 17 76 36 0
77 -17 0
77 -76 0
77 -36 0
78 -19 -77 0
-78 19 0
-78 77 0
-79 21 68 75 78 0
79 -21 0
79 -68 0
79 -75 0
79 -78 0
80 -81 -79 0
-80 81 0
-80 79 0
-82 29 26 0
82 -29 0
82 -26 0
83 -31 -82 0
-83 31 0
-83 82 0
-84 29 32 0
84 -29 0
84 -32 0
85 -35 -84 0
-85 35 0
-85 84 0
-86 21 12 85 39 0
86 -21 0
86 -12 0
86 -85 0
86 -39 0
87 -42 -86 0
-87 42 0
-87 86 0
88 -35 -29 0
-88 35 0
-88 29 0
-89 21 12 88 0
89 -21 0
89 -12 0
89 -88 0
90 -23 -89 0
-90 23 0
-90 89 0
-91 25 90 0
91 -25 0
91 -90 0
92 -37 -91 0
-92 37 0
-92 91 0
-93 17 14 92 0
93 -17 0
93 -14 0
93 -92 0
94 -51 -93 0
-94 51 0
-94 93 0
-95 53 94 0
95 -53 0
95 -94 0
96 -55 -95 0
-96 55 0
-96 95 0
-97 57 83 87 96 0
97 -57 0
97 -83 0
97 -87 0
97 -96 0
98 -71 -97 0
-98 71 0
-98 97 0
-99 5 98 1 0
99 -5 0
99 -98 0
99 -1 0
100 -101 -99 0
-100 101 0
-100 99 0
102 -103 -3 0
-102 103 0
-102 3 0
-104 21 18 0
104 -21 0
104 -18 0
105 -23 -104 0
-105 23 0
-105 104 0
-106 25 105 0
106 -25 0
106 -105 0
107 -27 -106 0
-107 27 0
-107 106 0
-108 29 6 107 0
108 -29 0
108 -6 0
108 -107 0
109 -31 -108 0
-109 31 0
-109 108 0
-110 21 34 39 0
110 -21 0
110 -34 0
110 -39 0
111 -42 -110 0
-111 42 0
-111 110 0
-112 21 44 0
112 -21 0
112 -44 0
113 -23 -112 0
-113 23 0
-113 112 0
-114 25 113 0
114 -25 0
114 -113 0
115 -37 -114 0
-115 37 0
-115 114 0
-116 17 14 115 0
116 -17 0
116 -14 0
116 -115 0
117 -51 -116 0
-117 51 0
-117 116 0
-118 53 117 0
118 -53 0
118 -117 0
119 -55 -118 0
-119 55 0
-119 118 0
-120 57 109 111 119 0
120 -57 0
120 -109 0
120 -111 0
120 -119 0
121 -66 -120 0
-121 66 0
-121 120 0
-122 11 121 8 0
122 -11 0
122 -121 0
122 -8 0
123 -124 -122 0
-123 124 0
-123 122 0
125 -126 -122 0
-125 126 0
-125 122 0
127 -128 -56 0
-127 128 0
-127 56 0
-129 130 125 127 0
129 -130 0
129 -125 0
129 -127 0
131 -132 -129 0
-131 132 0
-131 129 0
-133 134 131 0
133 -134 0
133 -131 0
135 -136 -133 0
-135 136 0
-135 133 0
-137 138 58 80 100 102 123 135 0
137 -138 0
137 -58 0
137 -80 0
137 -100 0
137 -102 0
137 -123 0
137 -135 0
139 -137 -140 0
-139 137 0
-139 140 0
139 0
