c BC-S1.2
p cnf 1790 6973
1 -2 -3 0
-1 2 0
-1 3 0
4 -5 -6 0
-4 5 0
-4 6 0
7 -8 -9 0
-7 8 0
-7 9 0
10 -11 -12 0
-10 11 0
-10 12 0
13 -14 -15 0
-13 14 0
-13 15 0
16 -17 -6 0
-16 17 0
-16 6 0
18 -19 -20 0
-18 19 0
-18 20 0
21 -22 -9 0
-21 22 0
-21 9 0
23 -24 -25 0
-23 24 0
-23 25 0
26 -27 -28 0
-26 27 0
-26 28 0
-29 30 26 0
29 -30 0
29 -26 0
31 -32 -29 0
-31 32 0
-31 29 0
33 -34 -3 0
-33 34 0
-33 3 0
35 -36 -28 0
-35 36 0
-35 28 0
-37 38 10 13 16 18 21 23 31 33 35 0
37 -38 0
37 -10 0
37 -13 0
37 -16 0
37 -18 0
37 -21 0
37 -23 0
37 -31 0
37 -33 0
37 -35 0
39 -40 -37 0
-39 40 0
-39 37 0
-41 42 39 0
41 -42 0
41 -39 0
43 -44 -41 0
-43 44 0
-43 41 0
45 -46 -3 0
-45 46 0
-45 3 0
47 -48 -37 0
-47 48 0
-47 37 0
-49 50 47 0
49 -50 0
49 -47 0
51 -52 -49 0
-51 52 0
-51 49 0
-53 54 4 7 43 45 51 0
53 -54 0
53 -4 0
53 -7 0
53 -43 0
53 -45 0
53 -51 0
55 -56 -53 0
-55 56 0
-55 53 0
57 -44 -42 0
-57 44 0
-57 42 0
58 -52 -50 0
-58 52 0
-58 50 0
-59 54 4 7 57 45 58 0
59 -54 0
59 -4 0
59 -7 0
59 -57 0
59 -45 0
59 -58 0
60 -61 -59 0
-60 61 0
-60 59 0
-62 20 60 0
62 -20 0
62 -60 0
63 -19 -62 0
-63 19 0
-63 62 0
64 -65 -59 0
-64 65 0
-64 59 0
-66 28 64 0
66 -28 0
66 -64 0
67 -27 -66 0
-67 27 0
-67 66 0
-68 30 67 0
68 -30 0
68 -67 0
69 -32 -68 0
-69 32 0
-69 68 0
70 -36 -66 0
-70 36 0
-70 66 0
71 -72 -53 0
-71 72 0
-71 53 0
-73 38 10 13 16 63 21 23 69 33 70 71 0
73 -38 0
73 -10 0
73 -13 0
73 -16 0
73 -63 0
73 -21 0
73 -23 0
73 -69 0
73 -33 0
73 -70 0
73 -71 0
74 -75 -73 0
-74 75 0
-74 73 0
-76 77 1 55 74 0
76 -77 0
76 -1 0
76 -55 0
76 -74 0
78 -79 -76 0
-78 79 0
-78 76 0
80 -32 -30 0
-80 32 0
-80 30 0
-81 38 10 13 16 18 21 23 80 33 35 0
81 -38 0
81 -10 0
81 -13 0
81 -16 0
81 -18 0
81 -21 0
81 -23 0
81 -80 0
81 -33 0
81 -35 0
82 -40 -81 0
-82 40 0
-82 81 0
-83 42 82 0
83 -42 0
83 -82 0
84 -44 -83 0
-84 44 0
-84 83 0
85 -75 -81 0
-85 75 0
-85 81 0
-86 77 1 85 0
86 -77 0
86 -1 0
86 -85 0
87 -88 -86 0
-87 88 0
-87 86 0
89 -48 -81 0
-89 48 0
-89 81 0
-90 50 89 0
90 -50 0
90 -89 0
91 -52 -90 0
-91 52 0
-91 90 0
-92 54 4 7 84 87 45 91 0
92 -54 0
92 -4 0
92 -7 0
92 -84 0
92 -87 0
92 -45 0
92 -91 0
93 -65 -92 0
-93 65 0
-93 92 0
-94 28 93 0
94 -28 0
94 -93 0
95 -96 -94 0
-95 96 0
-95 94 0
-97 98 78 95 0
97 -98 0
97 -78 0
97 -95 0
99 -100 -97 0
-99 100 0
-99 97 0
101 -102 -94 0
-101 102 0
-101 94 0
-103 104 99 101 0
103 -104 0
103 -99 0
103 -101 0
105 -106 -103 0
-105 106 0
-105 103 0
-107 108 105 0
107 -108 0
107 -105 0
109 -110 -107 0
-109 110 0
-109 107 0
-111 77 1 0
111 -77 0
111 -1 0
112 -79 -111 0
-112 79 0
-112 111 0
-113 98 112 0
113 -98 0
113 -112 0
114 -100 -113 0
-114 100 0
-114 113 0
-115 104 114 0
115 -104 0
115 -114 0
116 -106 -115 0
-116 106 0
-116 115 0
-117 108 116 0
117 -108 0
117 -116 0
118 -119 -117 0
-118 119 0
-118 117 0
-120 38 10 13 16 18 21 23 118 33 35 0
120 -38 0
120 -10 0
120 -13 0
120 -16 0
120 -18 0
120 -21 0
120 -23 0
120 -118 0
120 -33 0
120 -35 0
121 -40 -120 0
-121 40 0
-121 120 0
-122 42 121 0
122 -42 0
122 -121 0
123 -44 -122 0
-123 44 0
-123 122 0
124 -100 -98 0
-124 100 0
-124 98 0
-125 104 124 0
125 -104 0
125 -124 0
126 -106 -125 0
-126 106 0
-126 125 0
-127 108 126 0
127 -108 0
127 -126 0
128 -129 -127 0
-128 129 0
-128 127 0
130 -119 -127 0
-130 119 0
-130 127 0
-131 38 10 13 16 18 21 23 130 33 35 0
131 -38 0
131 -10 0
131 -13 0
131 -16 0
131 -18 0
131 -21 0
131 -23 0
131 -130 0
131 -33 0
131 -35 0
132 -75 -131 0
-132 75 0
-132 131 0
-133 77 128 1 132 0
133 -77 0
133 -128 0
133 -1 0
133 -132 0
134 -88 -133 0
-134 88 0
-134 133 0
135 -48 -120 0
-135 48 0
-135 120 0
-136 50 135 0
136 -50 0
136 -135 0
137 -52 -136 0
-137 52 0
-137 136 0
-138 54 4 7 123 134 45 137 0
138 -54 0
138 -4 0
138 -7 0
138 -123 0
138 -134 0
138 -45 0
138 -137 0
139 -65 -138 0
-139 65 0
-139 138 0
-140 28 139 0
140 -28 0
140 -139 0
141 -27 -140 0
-141 27 0
-141 140 0
142 -96 -28 0
-142 96 0
-142 28 0
-143 98 142 0
143 -98 0
143 -142 0
144 -100 -143 0
-144 100 0
-144 143 0
145 -102 -28 0
-145 102 0
-145 28 0
-146 104 144 145 0
146 -104 0
146 -144 0
146 -145 0
147 -106 -146 0
-147 106 0
-147 146 0
-148 108 147 0
148 -108 0
148 -147 0
149 -129 -148 0
-149 129 0
-149 148 0
-150 77 149 1 0
150 -77 0
150 -149 0
150 -1 0
151 -88 -150 0
-151 88 0
-151 150 0
-152 54 4 7 57 151 45 58 0
152 -54 0
152 -4 0
152 -7 0
152 -57 0
152 -151 0
152 -45 0
152 -58 0
153 -61 -152 0
-153 61 0
-153 152 0
-154 20 153 0
154 -20 0
154 -153 0
155 -19 -154 0
-155 19 0
-155 154 0
156 -56 -59 0
-156 56 0
-156 59 0
-157 77 1 156 0
157 -77 0
157 -1 0
157 -156 0
158 -79 -157 0
-158 79 0
-158 157 0
159 -88 -111 0
-159 88 0
-159 111 0
-160 54 4 7 57 159 45 58 0
160 -54 0
160 -4 0
160 -7 0
160 -57 0
160 -159 0
160 -45 0
160 -58 0
161 -65 -160 0
-161 65 0
-161 160 0
-162 28 161 0
162 -28 0
162 -161 0
163 -96 -162 0
-163 96 0
-163 162 0
-164 98 158 163 0
164 -98 0
164 -158 0
164 -163 0
165 -100 -164 0
-165 100 0
-165 164 0
166 -102 -162 0
-166 102 0
-166 162 0
-167 104 165 166 0
167 -104 0
167 -165 0
167 -166 0
168 -106 -167 0
-168 106 0
-168 167 0
-169 108 168 0
169 -108 0
169 -168 0
170 -119 -169 0
-170 119 0
-170 169 0
-171 54 4 7 57 134 45 58 0
171 -54 0
171 -4 0
171 -7 0
171 -57 0
171 -134 0
171 -45 0
171 -58 0
172 -65 -171 0
-172 65 0
-172 171 0
-173 28 172 0
173 -28 0
173 -172 0
174 -36 -173 0
-174 36 0
-174 173 0
175 -72 -152 0
-175 72 0
-175 152 0
-176 38 10 13 16 155 21 23 170 33 174 175 0
176 -38 0
176 -10 0
176 -13 0
176 -16 0
176 -155 0
176 -21 0
176 -23 0
176 -170 0
176 -33 0
176 -174 0
176 -175 0
177 -178 -176 0
-177 178 0
-177 176 0
-179 30 141 177 0
179 -30 0
179 -141 0
179 -177 0
180 -181 -179 0
-180 181 0
-180 179 0
-182 183 109 180 0
182 -183 0
182 -109 0
182 -180 0
184 -185 -182 0
-184 185 0
-184 182 0
186 -187 -188 0
-186 187 0
-186 188 0
-189 190 184 186 0
189 -190 0
189 -184 0
189 -186 0
191 -192 -189 0
-191 192 0
-191 189 0
-193 190 186 0
193 -190 0
193 -186 0
194 -195 -193 0
-194 195 0
-194 193 0
-196 15 194 0
196 -15 0
196 -194 0
197 -14 -196 0
-197 14 0
-197 196 0
-198 38 10 197 16 18 21 23 31 33 35 0
198 -38 0
198 -10 0
198 -197 0
198 -16 0
198 -18 0
198 -21 0
198 -23 0
198 -31 0
198 -33 0
198 -35 0
199 -40 -198 0
-199 40 0
-199 198 0
-200 42 199 0
200 -42 0
200 -199 0
201 -44 -200 0
-201 44 0
-201 200 0
202 -48 -198 0
-202 48 0
-202 198 0
-203 50 202 0
203 -50 0
203 -202 0
204 -52 -203 0
-204 52 0
-204 203 0
-205 54 4 7 201 45 204 0
205 -54 0
205 -4 0
205 -7 0
205 -201 0
205 -45 0
205 -204 0
206 -56 -205 0
-206 56 0
-206 205 0
207 -72 -59 0
-207 72 0
-207 59 0
-208 38 10 197 16 63 21 23 69 33 70 207 0
208 -38 0
208 -10 0
208 -197 0
208 -16 0
208 -63 0
208 -21 0
208 -23 0
208 -69 0
208 -33 0
208 -70 0
208 -207 0
209 -75 -208 0
-209 75 0
-209 208 0
-210 77 1 206 209 0
210 -77 0
210 -1 0
210 -206 0
210 -209 0
211 -79 -210 0
-211 79 0
-211 210 0
-212 38 10 197 16 18 21 23 80 33 35 0
212 -38 0
212 -10 0
212 -197 0
212 -16 0
212 -18 0
212 -21 0
212 -23 0
212 -80 0
212 -33 0
212 -35 0
213 -40 -212 0
-213 40 0
-213 212 0
-214 42 213 0
214 -42 0
214 -213 0
215 -44 -214 0
-215 44 0
-215 214 0
216 -75 -212 0
-216 75 0
-216 212 0
-217 77 1 216 0
217 -77 0
217 -1 0
217 -216 0
218 -88 -217 0
-218 88 0
-218 217 0
219 -48 -212 0
-219 48 0
-219 212 0
-220 50 219 0
220 -50 0
220 -219 0
221 -52 -220 0
-221 52 0
-221 220 0
-222 54 4 7 215 218 45 221 0
222 -54 0
222 -4 0
222 -7 0
222 -215 0
222 -218 0
222 -45 0
222 -221 0
223 -65 -222 0
-223 65 0
-223 222 0
-224 28 223 0
224 -28 0
224 -223 0
225 -96 -224 0
-225 96 0
-225 224 0
-226 98 211 225 0
226 -98 0
226 -211 0
226 -225 0
227 -100 -226 0
-227 100 0
-227 226 0
228 -102 -224 0
-228 102 0
-228 224 0
-229 104 227 228 0
229 -104 0
229 -227 0
229 -228 0
230 -106 -229 0
-230 106 0
-230 229 0
-231 108 230 0
231 -108 0
231 -230 0
232 -110 -231 0
-232 110 0
-232 231 0
-233 38 10 197 16 18 21 23 118 33 35 0
233 -38 0
233 -10 0
233 -197 0
233 -16 0
233 -18 0
233 -21 0
233 -23 0
233 -118 0
233 -33 0
233 -35 0
234 -40 -233 0
-234 40 0
-234 233 0
-235 42 234 0
235 -42 0
235 -234 0
236 -44 -235 0
-236 44 0
-236 235 0
-237 38 10 197 16 18 21 23 130 33 35 0
237 -38 0
237 -10 0
237 -197 0
237 -16 0
237 -18 0
237 -21 0
237 -23 0
237 -130 0
237 -33 0
237 -35 0
238 -75 -237 0
-238 75 0
-238 237 0
-239 77 128 1 238 0
239 -77 0
239 -128 0
239 -1 0
239 -238 0
240 -88 -239 0
-240 88 0
-240 239 0
241 -48 -233 0
-241 48 0
-241 233 0
-242 50 241 0
242 -50 0
242 -241 0
243 -52 -242 0
-243 52 0
-243 242 0
-244 54 4 7 236 240 45 243 0
244 -54 0
244 -4 0
244 -7 0
244 -236 0
244 -240 0
244 -45 0
244 -243 0
245 -65 -244 0
-245 65 0
-245 244 0
-246 28 245 0
246 -28 0
246 -245 0
247 -27 -246 0
-247 27 0
-247 246 0
248 -65 -152 0
-248 65 0
-248 152 0
-249 28 248 0
249 -28 0
249 -248 0
250 -36 -249 0
-250 36 0
-250 249 0
-251 38 10 197 16 155 21 23 170 33 250 175 0
251 -38 0
251 -10 0
251 -197 0
251 -16 0
251 -155 0
251 -21 0
251 -23 0
251 -170 0
251 -33 0
251 -250 0
251 -175 0
252 -178 -251 0
-252 178 0
-252 251 0
-253 30 247 252 0
253 -30 0
253 -247 0
253 -252 0
254 -181 -253 0
-254 181 0
-254 253 0
-255 183 232 254 0
255 -183 0
255 -232 0
255 -254 0
256 -257 -255 0
-256 257 0
-256 255 0
-258 38 10 13 16 63 21 23 69 33 70 207 0
258 -38 0
258 -10 0
258 -13 0
258 -16 0
258 -63 0
258 -21 0
258 -23 0
258 -69 0
258 -33 0
258 -70 0
258 -207 0
259 -75 -258 0
-259 75 0
-259 258 0
-260 77 1 55 259 0
260 -77 0
260 -1 0
260 -55 0
260 -259 0
261 -79 -260 0
-261 79 0
-261 260 0
-262 98 261 95 0
262 -98 0
262 -261 0
262 -95 0
263 -100 -262 0
-263 100 0
-263 262 0
-264 104 263 101 0
264 -104 0
264 -263 0
264 -101 0
265 -106 -264 0
-265 106 0
-265 264 0
-266 108 265 0
266 -108 0
266 -265 0
267 -110 -266 0
-267 110 0
-267 266 0
-268 183 267 180 0
268 -183 0
268 -267 0
268 -180 0
269 -185 -268 0
-269 185 0
-269 268 0
-270 190 269 186 0
270 -190 0
270 -269 0
270 -186 0
271 -272 -270 0
-271 272 0
-271 270 0
-273 274 256 271 0
273 -274 0
273 -256 0
273 -271 0
275 -276 -273 0
-275 276 0
-275 273 0
277 -278 -279 0
-277 278 0
-277 279 0
-280 54 4 7 57 45 0
280 -54 0
280 -4 0
280 -7 0
280 -57 0
280 -45 0
281 -56 -280 0
-281 56 0
-281 280 0
-282 77 1 281 0
282 -77 0
282 -1 0
282 -281 0
283 -79 -282 0
-283 79 0
-283 282 0
-284 54 4 7 57 159 45 0
284 -54 0
284 -4 0
284 -7 0
284 -57 0
284 -159 0
284 -45 0
285 -65 -284 0
-285 65 0
-285 284 0
-286 28 285 0
286 -28 0
286 -285 0
287 -96 -286 0
-287 96 0
-287 286 0
-288 98 283 287 0
288 -98 0
288 -283 0
288 -287 0
289 -100 -288 0
-289 100 0
-289 288 0
290 -102 -286 0
-290 102 0
-290 286 0
-291 104 289 290 0
291 -104 0
291 -289 0
291 -290 0
292 -106 -291 0
-292 106 0
-292 291 0
-293 108 292 0
293 -108 0
293 -292 0
294 -110 -293 0
-294 110 0
-294 293 0
-295 54 4 7 57 151 45 0
295 -54 0
295 -4 0
295 -7 0
295 -57 0
295 -151 0
295 -45 0
296 -65 -295 0
-296 65 0
-296 295 0
-297 28 296 0
297 -28 0
297 -296 0
298 -27 -297 0
-298 27 0
-298 297 0
-299 30 298 0
299 -30 0
299 -298 0
300 -181 -299 0
-300 181 0
-300 299 0
-301 183 294 300 0
301 -183 0
301 -294 0
301 -300 0
302 -303 -301 0
-302 303 0
-302 301 0
-304 12 302 0
304 -12 0
304 -302 0
305 -11 -304 0
-305 11 0
-305 304 0
306 -307 -301 0
-306 307 0
-306 301 0
308 -185 -301 0
-308 185 0
-308 301 0
-309 190 308 186 0
309 -190 0
309 -308 0
309 -186 0
310 -195 -309 0
-310 195 0
-310 309 0
-311 15 306 310 0
311 -15 0
311 -306 0
311 -310 0
312 -14 -311 0
-312 14 0
-312 311 0
-313 98 112 142 0
313 -98 0
313 -112 0
313 -142 0
314 -100 -313 0
-314 100 0
-314 313 0
-315 104 314 145 0
315 -104 0
315 -314 0
315 -145 0
316 -106 -315 0
-316 106 0
-316 315 0
-317 108 316 0
317 -108 0
317 -316 0
318 -110 -317 0
-318 110 0
-318 317 0
319 -181 -29 0
-319 181 0
-319 29 0
-320 183 318 319 0
320 -183 0
320 -318 0
320 -319 0
321 -322 -320 0
-321 322 0
-321 320 0
-323 54 321 4 7 57 151 45 0
323 -54 0
323 -321 0
323 -4 0
323 -7 0
323 -57 0
323 -151 0
323 -45 0
324 -61 -323 0
-324 61 0
-324 323 0
-325 20 324 0
325 -20 0
325 -324 0
326 -19 -325 0
-326 19 0
-326 325 0
-327 183 319 0
327 -183 0
327 -319 0
328 -322 -327 0
-328 322 0
-328 327 0
-329 54 328 4 7 57 45 0
329 -54 0
329 -328 0
329 -4 0
329 -7 0
329 -57 0
329 -45 0
330 -56 -329 0
-330 56 0
-330 329 0
-331 77 1 330 0
331 -77 0
331 -1 0
331 -330 0
332 -79 -331 0
-332 79 0
-332 331 0
333 -181 -30 0
-333 181 0
-333 30 0
-334 183 333 0
334 -183 0
334 -333 0
335 -322 -334 0
-335 322 0
-335 334 0
-336 54 335 4 7 57 159 45 0
336 -54 0
336 -335 0
336 -4 0
336 -7 0
336 -57 0
336 -159 0
336 -45 0
337 -65 -336 0
-337 65 0
-337 336 0
-338 28 337 0
338 -28 0
338 -337 0
339 -96 -338 0
-339 96 0
-339 338 0
-340 98 332 339 0
340 -98 0
340 -332 0
340 -339 0
341 -100 -340 0
-341 100 0
-341 340 0
342 -102 -338 0
-342 102 0
-342 338 0
-343 104 341 342 0
343 -104 0
343 -341 0
343 -342 0
344 -106 -343 0
-344 106 0
-344 343 0
-345 108 344 0
345 -108 0
345 -344 0
346 -119 -345 0
-346 119 0
-346 345 0
347 -110 -117 0
-347 110 0
-347 117 0
-348 183 347 333 0
348 -183 0
348 -347 0
348 -333 0
349 -322 -348 0
-349 322 0
-349 348 0
-350 54 349 4 7 57 151 45 0
350 -54 0
350 -349 0
350 -4 0
350 -7 0
350 -57 0
350 -151 0
350 -45 0
351 -65 -350 0
-351 65 0
-351 350 0
-352 28 351 0
352 -28 0
352 -351 0
353 -27 -352 0
-353 27 0
-353 352 0
-354 30 353 0
354 -30 0
354 -353 0
355 -32 -354 0
-355 32 0
-355 354 0
356 -36 -352 0
-356 36 0
-356 352 0
357 -72 -323 0
-357 72 0
-357 323 0
-358 38 305 312 16 326 21 23 346 355 33 356 357 0
358 -38 0
358 -305 0
358 -312 0
358 -16 0
358 -326 0
358 -21 0
358 -23 0
358 -346 0
358 -355 0
358 -33 0
358 -356 0
358 -357 0
359 -48 -358 0
-359 48 0
-359 358 0
-360 50 359 0
360 -50 0
360 -359 0
361 -362 -360 0
-361 362 0
-361 360 0
-363 364 191 275 277 361 0
363 -364 0
363 -191 0
363 -275 0
363 -277 0
363 -361 0
365 -366 -363 0
-365 366 0
-365 363 0
367 -368 -369 0
-367 368 0
-367 369 0
370 -371 -369 0
-370 371 0
-370 369 0
372 -373 -374 0
-372 373 0
-372 374 0
-375 376 370 372 0
375 -376 0
375 -370 0
375 -372 0
377 -378 -375 0
-377 378 0
-377 375 0
379 -192 -193 0
-379 192 0
-379 193 0
380 -61 -295 0
-380 61 0
-380 295 0
-381 20 380 0
381 -20 0
381 -380 0
382 -19 -381 0
-382 19 0
-382 381 0
383 -119 -293 0
-383 119 0
-383 293 0
384 -32 -299 0
-384 32 0
-384 299 0
385 -36 -297 0
-385 36 0
-385 297 0
386 -72 -295 0
-386 72 0
-386 295 0
-387 38 10 197 16 382 21 23 383 384 33 385 386 0
387 -38 0
387 -10 0
387 -197 0
387 -16 0
387 -382 0
387 -21 0
387 -23 0
387 -383 0
387 -384 0
387 -33 0
387 -385 0
387 -386 0
388 -48 -387 0
-388 48 0
-388 387 0
-389 50 388 0
389 -50 0
389 -388 0
390 -362 -389 0
-390 362 0
-390 389 0
-391 364 379 277 390 0
391 -364 0
391 -379 0
391 -277 0
391 -390 0
392 -393 -391 0
-392 393 0
-392 391 0
394 -362 -50 0
-394 362 0
-394 50 0
-395 364 379 277 394 0
395 -364 0
395 -379 0
395 -277 0
395 -394 0
396 -397 -395 0
-396 397 0
-396 395 0
-398 15 396 194 0
398 -15 0
398 -396 0
398 -194 0
399 -14 -398 0
-399 14 0
-399 398 0
400 -401 -395 0
-400 401 0
-400 395 0
-402 25 400 0
402 -25 0
402 -400 0
403 -24 -402 0
-403 24 0
-403 402 0
-404 38 10 399 16 18 21 403 31 33 35 0
404 -38 0
404 -10 0
404 -399 0
404 -16 0
404 -18 0
404 -21 0
404 -403 0
404 -31 0
404 -33 0
404 -35 0
405 -40 -404 0
-405 40 0
-405 404 0
-406 42 405 0
406 -42 0
406 -405 0
407 -44 -406 0
-407 44 0
-407 406 0
408 -48 -404 0
-408 48 0
-408 404 0
-409 50 408 0
409 -50 0
409 -408 0
410 -52 -409 0
-410 52 0
-410 409 0
-411 54 4 7 407 45 410 0
411 -54 0
411 -4 0
411 -7 0
411 -407 0
411 -45 0
411 -410 0
412 -56 -411 0
-412 56 0
-412 411 0
-413 38 10 399 16 63 21 403 69 33 70 207 0
413 -38 0
413 -10 0
413 -399 0
413 -16 0
413 -63 0
413 -21 0
413 -403 0
413 -69 0
413 -33 0
413 -70 0
413 -207 0
414 -75 -413 0
-414 75 0
-414 413 0
-415 77 1 412 414 0
415 -77 0
415 -1 0
415 -412 0
415 -414 0
416 -79 -415 0
-416 79 0
-416 415 0
-417 38 10 399 16 18 21 403 80 33 35 0
417 -38 0
417 -10 0
417 -399 0
417 -16 0
417 -18 0
417 -21 0
417 -403 0
417 -80 0
417 -33 0
417 -35 0
418 -40 -417 0
-418 40 0
-418 417 0
-419 42 418 0
419 -42 0
419 -418 0
420 -44 -419 0
-420 44 0
-420 419 0
421 -75 -417 0
-421 75 0
-421 417 0
-422 77 1 421 0
422 -77 0
422 -1 0
422 -421 0
423 -88 -422 0
-423 88 0
-423 422 0
424 -48 -417 0
-424 48 0
-424 417 0
-425 50 424 0
425 -50 0
425 -424 0
426 -52 -425 0
-426 52 0
-426 425 0
-427 54 4 7 420 423 45 426 0
427 -54 0
427 -4 0
427 -7 0
427 -420 0
427 -423 0
427 -45 0
427 -426 0
428 -65 -427 0
-428 65 0
-428 427 0
-429 28 428 0
429 -28 0
429 -428 0
430 -96 -429 0
-430 96 0
-430 429 0
-431 98 416 430 0
431 -98 0
431 -416 0
431 -430 0
432 -100 -431 0
-432 100 0
-432 431 0
433 -102 -429 0
-433 102 0
-433 429 0
-434 104 432 433 0
434 -104 0
434 -432 0
434 -433 0
435 -106 -434 0
-435 106 0
-435 434 0
-436 108 435 0
436 -108 0
436 -435 0
437 -110 -436 0
-437 110 0
-437 436 0
-438 38 10 399 16 18 21 403 118 33 35 0
438 -38 0
438 -10 0
438 -399 0
438 -16 0
438 -18 0
438 -21 0
438 -403 0
438 -118 0
438 -33 0
438 -35 0
439 -40 -438 0
-439 40 0
-439 438 0
-440 42 439 0
440 -42 0
440 -439 0
441 -44 -440 0
-441 44 0
-441 440 0
-442 38 10 399 16 18 21 403 130 33 35 0
442 -38 0
442 -10 0
442 -399 0
442 -16 0
442 -18 0
442 -21 0
442 -403 0
442 -130 0
442 -33 0
442 -35 0
443 -75 -442 0
-443 75 0
-443 442 0
-444 77 128 1 443 0
444 -77 0
444 -128 0
444 -1 0
444 -443 0
445 -88 -444 0
-445 88 0
-445 444 0
446 -48 -438 0
-446 48 0
-446 438 0
-447 50 446 0
447 -50 0
447 -446 0
448 -52 -447 0
-448 52 0
-448 447 0
-449 54 4 7 441 445 45 448 0
449 -54 0
449 -4 0
449 -7 0
449 -441 0
449 -445 0
449 -45 0
449 -448 0
450 -65 -449 0
-450 65 0
-450 449 0
-451 28 450 0
451 -28 0
451 -450 0
452 -27 -451 0
-452 27 0
-452 451 0
-453 38 10 399 16 155 21 403 170 33 250 175 0
453 -38 0
453 -10 0
453 -399 0
453 -16 0
453 -155 0
453 -21 0
453 -403 0
453 -170 0
453 -33 0
453 -250 0
453 -175 0
454 -178 -453 0
-454 178 0
-454 453 0
-455 30 452 454 0
455 -30 0
455 -452 0
455 -454 0
456 -181 -455 0
-456 181 0
-456 455 0
-457 183 392 437 456 0
457 -183 0
457 -392 0
457 -437 0
457 -456 0
458 -257 -457 0
-458 257 0
-458 457 0
-459 54 4 7 57 134 45 0
459 -54 0
459 -4 0
459 -7 0
459 -57 0
459 -134 0
459 -45 0
460 -65 -459 0
-460 65 0
-460 459 0
-461 28 460 0
461 -28 0
461 -460 0
462 -27 -461 0
-462 27 0
-462 461 0
-463 30 462 0
463 -30 0
463 -462 0
464 -32 -463 0
-464 32 0
-464 463 0
-465 38 10 13 16 382 21 23 383 464 33 385 386 0
465 -38 0
465 -10 0
465 -13 0
465 -16 0
465 -382 0
465 -21 0
465 -23 0
465 -383 0
465 -464 0
465 -33 0
465 -385 0
465 -386 0
466 -48 -465 0
-466 48 0
-466 465 0
-467 50 466 0
467 -50 0
467 -466 0
468 -362 -467 0
-468 362 0
-468 467 0
-469 364 379 277 468 0
469 -364 0
469 -379 0
469 -277 0
469 -468 0
470 -393 -469 0
-470 393 0
-470 469 0
-471 15 396 0
471 -15 0
471 -396 0
472 -14 -471 0
-472 14 0
-472 471 0
-473 38 10 472 16 18 21 403 31 33 35 0
473 -38 0
473 -10 0
473 -472 0
473 -16 0
473 -18 0
473 -21 0
473 -403 0
473 -31 0
473 -33 0
473 -35 0
474 -40 -473 0
-474 40 0
-474 473 0
-475 42 474 0
475 -42 0
475 -474 0
476 -44 -475 0
-476 44 0
-476 475 0
477 -48 -473 0
-477 48 0
-477 473 0
-478 50 477 0
478 -50 0
478 -477 0
479 -52 -478 0
-479 52 0
-479 478 0
-480 54 4 7 476 45 479 0
480 -54 0
480 -4 0
480 -7 0
480 -476 0
480 -45 0
480 -479 0
481 -56 -480 0
-481 56 0
-481 480 0
-482 38 10 472 16 63 21 403 69 33 70 207 0
482 -38 0
482 -10 0
482 -472 0
482 -16 0
482 -63 0
482 -21 0
482 -403 0
482 -69 0
482 -33 0
482 -70 0
482 -207 0
483 -75 -482 0
-483 75 0
-483 482 0
-484 77 1 481 483 0
484 -77 0
484 -1 0
484 -481 0
484 -483 0
485 -79 -484 0
-485 79 0
-485 484 0
-486 38 10 472 16 18 21 403 80 33 35 0
486 -38 0
486 -10 0
486 -472 0
486 -16 0
486 -18 0
486 -21 0
486 -403 0
486 -80 0
486 -33 0
486 -35 0
487 -40 -486 0
-487 40 0
-487 486 0
-488 42 487 0
488 -42 0
488 -487 0
489 -44 -488 0
-489 44 0
-489 488 0
490 -75 -486 0
-490 75 0
-490 486 0
-491 77 1 490 0
491 -77 0
491 -1 0
491 -490 0
492 -88 -491 0
-492 88 0
-492 491 0
493 -48 -486 0
-493 48 0
-493 486 0
-494 50 493 0
494 -50 0
494 -493 0
495 -52 -494 0
-495 52 0
-495 494 0
-496 54 4 7 489 492 45 495 0
496 -54 0
496 -4 0
496 -7 0
496 -489 0
496 -492 0
496 -45 0
496 -495 0
497 -65 -496 0
-497 65 0
-497 496 0
-498 28 497 0
498 -28 0
498 -497 0
499 -96 -498 0
-499 96 0
-499 498 0
-500 98 485 499 0
500 -98 0
500 -485 0
500 -499 0
501 -100 -500 0
-501 100 0
-501 500 0
502 -102 -498 0
-502 102 0
-502 498 0
-503 104 501 502 0
503 -104 0
503 -501 0
503 -502 0
504 -106 -503 0
-504 106 0
-504 503 0
-505 108 504 0
505 -108 0
505 -504 0
506 -110 -505 0
-506 110 0
-506 505 0
-507 38 10 472 16 18 21 403 118 33 35 0
507 -38 0
507 -10 0
507 -472 0
507 -16 0
507 -18 0
507 -21 0
507 -403 0
507 -118 0
507 -33 0
507 -35 0
508 -40 -507 0
-508 40 0
-508 507 0
-509 42 508 0
509 -42 0
509 -508 0
510 -44 -509 0
-510 44 0
-510 509 0
-511 38 10 472 16 18 21 403 130 33 35 0
511 -38 0
511 -10 0
511 -472 0
511 -16 0
511 -18 0
511 -21 0
511 -403 0
511 -130 0
511 -33 0
511 -35 0
512 -75 -511 0
-512 75 0
-512 511 0
-513 77 128 1 512 0
513 -77 0
513 -128 0
513 -1 0
513 -512 0
514 -88 -513 0
-514 88 0
-514 513 0
515 -48 -507 0
-515 48 0
-515 507 0
-516 50 515 0
516 -50 0
516 -515 0
517 -52 -516 0
-517 52 0
-517 516 0
-518 54 4 7 510 514 45 517 0
518 -54 0
518 -4 0
518 -7 0
518 -510 0
518 -514 0
518 -45 0
518 -517 0
519 -65 -518 0
-519 65 0
-519 518 0
-520 28 519 0
520 -28 0
520 -519 0
521 -27 -520 0
-521 27 0
-521 520 0
-522 38 10 472 16 155 21 403 170 33 250 175 0
522 -38 0
522 -10 0
522 -472 0
522 -16 0
522 -155 0
522 -21 0
522 -403 0
522 -170 0
522 -33 0
522 -250 0
522 -175 0
523 -178 -522 0
-523 178 0
-523 522 0
-524 30 521 523 0
524 -30 0
524 -521 0
524 -523 0
525 -181 -524 0
-525 181 0
-525 524 0
-526 183 470 506 525 0
526 -183 0
526 -470 0
526 -506 0
526 -525 0
527 -185 -526 0
-527 185 0
-527 526 0
-528 190 527 186 0
528 -190 0
528 -527 0
528 -186 0
529 -272 -528 0
-529 272 0
-529 528 0
-530 274 458 529 0
530 -274 0
530 -458 0
530 -529 0
531 -532 -530 0
-531 532 0
-531 530 0
533 -534 -369 0
-533 534 0
-533 369 0
-535 536 533 0
535 -536 0
535 -533 0
537 -538 -535 0
-537 538 0
-537 535 0
539 -540 -541 0
-539 540 0
-539 541 0
542 -543 -188 0
-542 543 0
-542 188 0
-544 38 10 16 18 21 23 31 33 35 0
544 -38 0
544 -10 0
544 -16 0
544 -18 0
544 -21 0
544 -23 0
544 -31 0
544 -33 0
544 -35 0
545 -40 -544 0
-545 40 0
-545 544 0
-546 42 545 0
546 -42 0
546 -545 0
547 -44 -546 0
-547 44 0
-547 546 0
548 -48 -544 0
-548 48 0
-548 544 0
-549 50 548 0
549 -50 0
549 -548 0
550 -52 -549 0
-550 52 0
-550 549 0
-551 54 4 7 547 45 550 0
551 -54 0
551 -4 0
551 -7 0
551 -547 0
551 -45 0
551 -550 0
552 -56 -551 0
-552 56 0
-552 551 0
-553 38 10 16 63 21 23 69 33 70 207 0
553 -38 0
553 -10 0
553 -16 0
553 -63 0
553 -21 0
553 -23 0
553 -69 0
553 -33 0
553 -70 0
553 -207 0
554 -75 -553 0
-554 75 0
-554 553 0
-555 77 1 552 554 0
555 -77 0
555 -1 0
555 -552 0
555 -554 0
556 -79 -555 0
-556 79 0
-556 555 0
-557 38 10 16 18 21 23 80 33 35 0
557 -38 0
557 -10 0
557 -16 0
557 -18 0
557 -21 0
557 -23 0
557 -80 0
557 -33 0
557 -35 0
558 -40 -557 0
-558 40 0
-558 557 0
-559 42 558 0
559 -42 0
559 -558 0
560 -44 -559 0
-560 44 0
-560 559 0
561 -75 -557 0
-561 75 0
-561 557 0
-562 77 1 561 0
562 -77 0
562 -1 0
562 -561 0
563 -88 -562 0
-563 88 0
-563 562 0
564 -48 -557 0
-564 48 0
-564 557 0
-565 50 564 0
565 -50 0
565 -564 0
566 -52 -565 0
-566 52 0
-566 565 0
-567 54 4 7 560 563 45 566 0
567 -54 0
567 -4 0
567 -7 0
567 -560 0
567 -563 0
567 -45 0
567 -566 0
568 -65 -567 0
-568 65 0
-568 567 0
-569 28 568 0
569 -28 0
569 -568 0
570 -96 -569 0
-570 96 0
-570 569 0
-571 98 556 570 0
571 -98 0
571 -556 0
571 -570 0
572 -100 -571 0
-572 100 0
-572 571 0
573 -102 -569 0
-573 102 0
-573 569 0
-574 104 572 573 0
574 -104 0
574 -572 0
574 -573 0
575 -106 -574 0
-575 106 0
-575 574 0
-576 108 575 0
576 -108 0
576 -575 0
577 -110 -576 0
-577 110 0
-577 576 0
-578 38 10 16 18 21 23 118 33 35 0
578 -38 0
578 -10 0
578 -16 0
578 -18 0
578 -21 0
578 -23 0
578 -118 0
578 -33 0
578 -35 0
579 -40 -578 0
-579 40 0
-579 578 0
-580 42 579 0
580 -42 0
580 -579 0
581 -44 -580 0
-581 44 0
-581 580 0
-582 38 10 16 18 21 23 130 33 35 0
582 -38 0
582 -10 0
582 -16 0
582 -18 0
582 -21 0
582 -23 0
582 -130 0
582 -33 0
582 -35 0
583 -75 -582 0
-583 75 0
-583 582 0
-584 77 128 1 583 0
584 -77 0
584 -128 0
584 -1 0
584 -583 0
585 -88 -584 0
-585 88 0
-585 584 0
586 -48 -578 0
-586 48 0
-586 578 0
-587 50 586 0
587 -50 0
587 -586 0
588 -52 -587 0
-588 52 0
-588 587 0
-589 54 4 7 581 585 45 588 0
589 -54 0
589 -4 0
589 -7 0
589 -581 0
589 -585 0
589 -45 0
589 -588 0
590 -65 -589 0
-590 65 0
-590 589 0
-591 28 590 0
591 -28 0
591 -590 0
592 -27 -591 0
-592 27 0
-592 591 0
-593 38 10 16 155 21 23 170 33 250 175 0
593 -38 0
593 -10 0
593 -16 0
593 -155 0
593 -21 0
593 -23 0
593 -170 0
593 -33 0
593 -250 0
593 -175 0
594 -178 -593 0
-594 178 0
-594 593 0
-595 30 592 594 0
595 -30 0
595 -592 0
595 -594 0
596 -181 -595 0
-596 181 0
-596 595 0
-597 183 577 596 0
597 -183 0
597 -577 0
597 -596 0
598 -185 -597 0
-598 185 0
-598 597 0
-599 190 598 186 0
599 -190 0
599 -598 0
599 -186 0
600 -192 -599 0
-600 192 0
-600 599 0
601 -257 -597 0
-601 257 0
-601 597 0
602 -272 -599 0
-602 272 0
-602 599 0
-603 274 601 602 0
603 -274 0
603 -601 0
603 -602 0
604 -276 -603 0
-604 276 0
-604 603 0
-605 38 305 16 326 21 23 346 355 33 356 357 0
605 -38 0
605 -305 0
605 -16 0
605 -326 0
605 -21 0
605 -23 0
605 -346 0
605 -355 0
605 -33 0
605 -356 0
605 -357 0
606 -48 -605 0
-606 48 0
-606 605 0
-607 50 606 0
607 -50 0
607 -606 0
608 -362 -607 0
-608 362 0
-608 607 0
-609 364 600 604 277 608 0
609 -364 0
609 -600 0
609 -604 0
609 -277 0
609 -608 0
610 -397 -609 0
-610 397 0
-610 609 0
611 -272 -193 0
-611 272 0
-611 193 0
-612 274 611 0
612 -274 0
612 -611 0
613 -276 -612 0
-613 276 0
-613 612 0
-614 38 10 16 382 21 23 383 384 33 385 386 0
614 -38 0
614 -10 0
614 -16 0
614 -382 0
614 -21 0
614 -23 0
614 -383 0
614 -384 0
614 -33 0
614 -385 0
614 -386 0
615 -48 -614 0
-615 48 0
-615 614 0
-616 50 615 0
616 -50 0
616 -615 0
617 -362 -616 0
-617 362 0
-617 616 0
-618 364 379 613 277 617 0
618 -364 0
618 -379 0
618 -613 0
618 -277 0
618 -617 0
619 -393 -618 0
-619 393 0
-619 618 0
-620 364 379 613 277 394 0
620 -364 0
620 -379 0
620 -613 0
620 -277 0
620 -394 0
621 -401 -620 0
-621 401 0
-621 620 0
-622 25 621 0
622 -25 0
622 -621 0
623 -24 -622 0
-623 24 0
-623 622 0
-624 38 10 16 18 21 623 31 33 35 0
624 -38 0
624 -10 0
624 -16 0
624 -18 0
624 -21 0
624 -623 0
624 -31 0
624 -33 0
624 -35 0
625 -40 -624 0
-625 40 0
-625 624 0
-626 42 625 0
626 -42 0
626 -625 0
627 -44 -626 0
-627 44 0
-627 626 0
628 -48 -624 0
-628 48 0
-628 624 0
-629 50 628 0
629 -50 0
629 -628 0
630 -52 -629 0
-630 52 0
-630 629 0
-631 54 4 7 627 45 630 0
631 -54 0
631 -4 0
631 -7 0
631 -627 0
631 -45 0
631 -630 0
632 -56 -631 0
-632 56 0
-632 631 0
-633 38 10 16 63 21 623 69 33 70 207 0
633 -38 0
633 -10 0
633 -16 0
633 -63 0
633 -21 0
633 -623 0
633 -69 0
633 -33 0
633 -70 0
633 -207 0
634 -75 -633 0
-634 75 0
-634 633 0
-635 77 1 632 634 0
635 -77 0
635 -1 0
635 -632 0
635 -634 0
636 -79 -635 0
-636 79 0
-636 635 0
-637 38 10 16 18 21 623 80 33 35 0
637 -38 0
637 -10 0
637 -16 0
637 -18 0
637 -21 0
637 -623 0
637 -80 0
637 -33 0
637 -35 0
638 -40 -637 0
-638 40 0
-638 637 0
-639 42 638 0
639 -42 0
639 -638 0
640 -44 -639 0
-640 44 0
-640 639 0
641 -75 -637 0
-641 75 0
-641 637 0
-642 77 1 641 0
642 -77 0
642 -1 0
642 -641 0
643 -88 -642 0
-643 88 0
-643 642 0
644 -48 -637 0
-644 48 0
-644 637 0
-645 50 644 0
645 -50 0
645 -644 0
646 -52 -645 0
-646 52 0
-646 645 0
-647 54 4 7 640 643 45 646 0
647 -54 0
647 -4 0
647 -7 0
647 -640 0
647 -643 0
647 -45 0
647 -646 0
648 -65 -647 0
-648 65 0
-648 647 0
-649 28 648 0
649 -28 0
649 -648 0
650 -96 -649 0
-650 96 0
-650 649 0
-651 98 636 650 0
651 -98 0
651 -636 0
651 -650 0
652 -100 -651 0
-652 100 0
-652 651 0
653 -102 -649 0
-653 102 0
-653 649 0
-654 104 652 653 0
654 -104 0
654 -652 0
654 -653 0
655 -106 -654 0
-655 106 0
-655 654 0
-656 108 655 0
656 -108 0
656 -655 0
657 -110 -656 0
-657 110 0
-657 656 0
-658 38 10 16 18 21 623 118 33 35 0
658 -38 0
658 -10 0
658 -16 0
658 -18 0
658 -21 0
658 -623 0
658 -118 0
658 -33 0
658 -35 0
659 -40 -658 0
-659 40 0
-659 658 0
-660 42 659 0
660 -42 0
660 -659 0
661 -44 -660 0
-661 44 0
-661 660 0
-662 38 10 16 18 21 623 130 33 35 0
662 -38 0
662 -10 0
662 -16 0
662 -18 0
662 -21 0
662 -623 0
662 -130 0
662 -33 0
662 -35 0
663 -75 -662 0
-663 75 0
-663 662 0
-664 77 128 1 663 0
664 -77 0
664 -128 0
664 -1 0
664 -663 0
665 -88 -664 0
-665 88 0
-665 664 0
666 -48 -658 0
-666 48 0
-666 658 0
-667 50 666 0
667 -50 0
667 -666 0
668 -52 -667 0
-668 52 0
-668 667 0
-669 54 4 7 661 665 45 668 0
669 -54 0
669 -4 0
669 -7 0
669 -661 0
669 -665 0
669 -45 0
669 -668 0
670 -65 -669 0
-670 65 0
-670 669 0
-671 28 670 0
671 -28 0
671 -670 0
672 -27 -671 0
-672 27 0
-672 671 0
-673 38 10 16 155 21 623 170 33 250 175 0
673 -38 0
673 -10 0
673 -16 0
673 -155 0
673 -21 0
673 -623 0
673 -170 0
673 -33 0
673 -250 0
673 -175 0
674 -178 -673 0
-674 178 0
-674 673 0
-675 30 672 674 0
675 -30 0
675 -672 0
675 -674 0
676 -181 -675 0
-676 181 0
-676 675 0
-677 183 619 657 676 0
677 -183 0
677 -619 0
677 -657 0
677 -676 0
678 -307 -677 0
-678 307 0
-678 677 0
679 -185 -677 0
-679 185 0
-679 677 0
-680 190 679 186 0
680 -190 0
680 -679 0
680 -186 0
681 -195 -680 0
-681 195 0
-681 680 0
682 -393 -620 0
-682 393 0
-682 620 0
683 -110 -169 0
-683 110 0
-683 169 0
684 -27 -249 0
-684 27 0
-684 249 0
-685 30 684 0
685 -30 0
685 -684 0
686 -181 -685 0
-686 181 0
-686 685 0
-687 183 682 683 686 0
687 -183 0
687 -682 0
687 -683 0
687 -686 0
688 -303 -687 0
-688 303 0
-688 687 0
-689 12 688 0
689 -12 0
689 -688 0
690 -11 -689 0
-690 11 0
-690 689 0
-691 183 682 318 319 0
691 -183 0
691 -682 0
691 -318 0
691 -319 0
692 -322 -691 0
-692 322 0
-692 691 0
-693 54 692 4 7 57 151 45 58 0
693 -54 0
693 -692 0
693 -4 0
693 -7 0
693 -57 0
693 -151 0
693 -45 0
693 -58 0
694 -61 -693 0
-694 61 0
-694 693 0
-695 20 694 0
695 -20 0
695 -694 0
696 -19 -695 0
-696 19 0
-696 695 0
-697 183 683 686 0
697 -183 0
697 -683 0
697 -686 0
698 -185 -697 0
-698 185 0
-698 697 0
-699 190 698 186 0
699 -190 0
699 -698 0
699 -186 0
700 -192 -699 0
-700 192 0
-700 699 0
701 -257 -697 0
-701 257 0
-701 697 0
702 -272 -699 0
-702 272 0
-702 699 0
-703 274 701 702 0
703 -274 0
703 -701 0
703 -702 0
704 -276 -703 0
-704 276 0
-704 703 0
-705 364 700 704 277 394 0
705 -364 0
705 -700 0
705 -704 0
705 -277 0
705 -394 0
706 -401 -705 0
-706 401 0
-706 705 0
-707 25 706 0
707 -25 0
707 -706 0
708 -24 -707 0
-708 24 0
-708 707 0
-709 183 682 319 0
709 -183 0
709 -682 0
709 -319 0
710 -322 -709 0
-710 322 0
-710 709 0
-711 54 710 4 7 57 45 58 0
711 -54 0
711 -710 0
711 -4 0
711 -7 0
711 -57 0
711 -45 0
711 -58 0
712 -56 -711 0
-712 56 0
-712 711 0
-713 77 1 712 0
713 -77 0
713 -1 0
713 -712 0
714 -79 -713 0
-714 79 0
-714 713 0
-715 183 682 333 0
715 -183 0
715 -682 0
715 -333 0
716 -322 -715 0
-716 322 0
-716 715 0
-717 54 716 4 7 57 159 45 58 0
717 -54 0
717 -716 0
717 -4 0
717 -7 0
717 -57 0
717 -159 0
717 -45 0
717 -58 0
718 -65 -717 0
-718 65 0
-718 717 0
-719 28 718 0
719 -28 0
719 -718 0
720 -96 -719 0
-720 96 0
-720 719 0
-721 98 714 720 0
721 -98 0
721 -714 0
721 -720 0
722 -100 -721 0
-722 100 0
-722 721 0
723 -102 -719 0
-723 102 0
-723 719 0
-724 104 722 723 0
724 -104 0
724 -722 0
724 -723 0
725 -106 -724 0
-725 106 0
-725 724 0
-726 108 725 0
726 -108 0
726 -725 0
727 -119 -726 0
-727 119 0
-727 726 0
-728 183 682 347 333 0
728 -183 0
728 -682 0
728 -347 0
728 -333 0
729 -322 -728 0
-729 322 0
-729 728 0
-730 54 729 4 7 57 151 45 58 0
730 -54 0
730 -729 0
730 -4 0
730 -7 0
730 -57 0
730 -151 0
730 -45 0
730 -58 0
731 -65 -730 0
-731 65 0
-731 730 0
-732 28 731 0
732 -28 0
732 -731 0
733 -27 -732 0
-733 27 0
-733 732 0
-734 30 733 0
734 -30 0
734 -733 0
735 -32 -734 0
-735 32 0
-735 734 0
736 -36 -732 0
-736 36 0
-736 732 0
737 -72 -693 0
-737 72 0
-737 693 0
-738 38 690 16 696 21 708 727 735 33 736 737 0
738 -38 0
738 -690 0
738 -16 0
738 -696 0
738 -21 0
738 -708 0
738 -727 0
738 -735 0
738 -33 0
738 -736 0
738 -737 0
739 -740 -738 0
-739 740 0
-739 738 0
-741 15 610 678 681 739 0
741 -15 0
741 -610 0
741 -678 0
741 -681 0
741 -739 0
742 -743 -741 0
-742 743 0
-742 741 0
744 -192 -270 0
-744 192 0
-744 270 0
-745 364 744 275 277 361 0
745 -364 0
745 -744 0
745 -275 0
745 -277 0
745 -361 0
746 -747 -745 0
-746 747 0
-746 745 0
-748 749 746 0
748 -749 0
748 -746 0
750 -751 -748 0
-750 751 0
-750 748 0
-752 38 10 197 16 18 21 23 118 80 33 35 0
752 -38 0
752 -10 0
752 -197 0
752 -16 0
752 -18 0
752 -21 0
752 -23 0
752 -118 0
752 -80 0
752 -33 0
752 -35 0
753 -48 -752 0
-753 48 0
-753 752 0
-754 50 753 0
754 -50 0
754 -753 0
755 -362 -754 0
-755 362 0
-755 754 0
-756 364 379 613 277 755 0
756 -364 0
756 -379 0
756 -613 0
756 -277 0
756 -755 0
757 -393 -756 0
-757 393 0
-757 756 0
758 -397 -620 0
-758 397 0
-758 620 0
-759 15 758 194 0
759 -15 0
759 -758 0
759 -194 0
760 -14 -759 0
-760 14 0
-760 759 0
-761 38 10 760 16 18 21 623 80 33 35 0
761 -38 0
761 -10 0
761 -760 0
761 -16 0
761 -18 0
761 -21 0
761 -623 0
761 -80 0
761 -33 0
761 -35 0
762 -75 -761 0
-762 75 0
-762 761 0
-763 77 1 762 0
763 -77 0
763 -1 0
763 -762 0
764 -79 -763 0
-764 79 0
-764 763 0
-765 98 764 0
765 -98 0
765 -764 0
766 -100 -765 0
-766 100 0
-766 765 0
-767 104 766 0
767 -104 0
767 -766 0
768 -106 -767 0
-768 106 0
-768 767 0
-769 108 768 0
769 -108 0
769 -768 0
770 -110 -769 0
-770 110 0
-770 769 0
-771 38 10 760 16 18 21 623 118 33 35 0
771 -38 0
771 -10 0
771 -760 0
771 -16 0
771 -18 0
771 -21 0
771 -623 0
771 -118 0
771 -33 0
771 -35 0
772 -178 -771 0
-772 178 0
-772 771 0
-773 30 772 0
773 -30 0
773 -772 0
774 -181 -773 0
-774 181 0
-774 773 0
-775 183 757 770 774 0
775 -183 0
775 -757 0
775 -770 0
775 -774 0
776 -322 -775 0
-776 322 0
-776 775 0
777 -303 -728 0
-777 303 0
-777 728 0
-778 12 777 0
778 -12 0
778 -777 0
779 -11 -778 0
-779 11 0
-779 778 0
780 -185 -348 0
-780 185 0
-780 348 0
-781 190 780 186 0
781 -190 0
781 -780 0
781 -186 0
782 -192 -781 0
-782 192 0
-782 781 0
783 -257 -348 0
-783 257 0
-783 348 0
784 -272 -781 0
-784 272 0
-784 781 0
-785 274 783 784 0
785 -274 0
785 -783 0
785 -784 0
786 -276 -785 0
-786 276 0
-786 785 0
-787 364 782 786 277 394 0
787 -364 0
787 -782 0
787 -786 0
787 -277 0
787 -394 0
788 -397 -787 0
-788 397 0
-788 787 0
789 -307 -728 0
-789 307 0
-789 728 0
790 -185 -728 0
-790 185 0
-790 728 0
-791 190 790 186 0
791 -190 0
791 -790 0
791 -186 0
792 -195 -791 0
-792 195 0
-792 791 0
-793 15 788 789 792 0
793 -15 0
793 -788 0
793 -789 0
793 -792 0
794 -14 -793 0
-794 14 0
-794 793 0
795 -401 -787 0
-795 401 0
-795 787 0
-796 25 795 0
796 -25 0
796 -795 0
797 -24 -796 0
-797 24 0
-797 796 0
-798 38 779 794 16 18 21 797 118 80 33 35 0
798 -38 0
798 -779 0
798 -794 0
798 -16 0
798 -18 0
798 -21 0
798 -797 0
798 -118 0
798 -80 0
798 -33 0
798 -35 0
799 -40 -798 0
-799 40 0
-799 798 0
-800 42 799 0
800 -42 0
800 -799 0
801 -44 -800 0
-801 44 0
-801 800 0
802 -110 -127 0
-802 110 0
-802 127 0
-803 183 682 802 333 0
803 -183 0
803 -682 0
803 -802 0
803 -333 0
804 -303 -803 0
-804 303 0
-804 803 0
-805 12 804 0
805 -12 0
805 -804 0
806 -11 -805 0
-806 11 0
-806 805 0
807 -185 -803 0
-807 185 0
-807 803 0
-808 190 807 186 0
808 -190 0
808 -807 0
808 -186 0
809 -192 -808 0
-809 192 0
-809 808 0
-810 183 802 333 0
810 -183 0
810 -802 0
810 -333 0
811 -257 -810 0
-811 257 0
-811 810 0
812 -185 -810 0
-812 185 0
-812 810 0
-813 190 812 186 0
813 -190 0
813 -812 0
813 -186 0
814 -272 -813 0
-814 272 0
-814 813 0
-815 274 811 814 0
815 -274 0
815 -811 0
815 -814 0
816 -276 -815 0
-816 276 0
-816 815 0
-817 364 809 816 277 394 0
817 -364 0
817 -809 0
817 -816 0
817 -277 0
817 -394 0
818 -397 -817 0
-818 397 0
-818 817 0
819 -307 -803 0
-819 307 0
-819 803 0
820 -195 -808 0
-820 195 0
-820 808 0
-821 15 818 819 820 0
821 -15 0
821 -818 0
821 -819 0
821 -820 0
822 -14 -821 0
-822 14 0
-822 821 0
823 -192 -813 0
-823 192 0
-823 813 0
-824 364 823 816 277 394 0
824 -364 0
824 -823 0
824 -816 0
824 -277 0
824 -394 0
825 -401 -824 0
-825 401 0
-825 824 0
-826 25 825 0
826 -25 0
826 -825 0
827 -24 -826 0
-827 24 0
-827 826 0
-828 38 806 822 16 18 21 827 130 80 33 35 0
828 -38 0
828 -806 0
828 -822 0
828 -16 0
828 -18 0
828 -21 0
828 -827 0
828 -130 0
828 -80 0
828 -33 0
828 -35 0
829 -75 -828 0
-829 75 0
-829 828 0
-830 77 128 1 829 0
830 -77 0
830 -128 0
830 -1 0
830 -829 0
831 -88 -830 0
-831 88 0
-831 830 0
832 -48 -798 0
-832 48 0
-832 798 0
-833 50 832 0
833 -50 0
833 -832 0
834 -52 -833 0
-834 52 0
-834 833 0
-835 54 776 4 7 801 831 45 834 0
835 -54 0
835 -776 0
835 -4 0
835 -7 0
835 -801 0
835 -831 0
835 -45 0
835 -834 0
836 -65 -835 0
-836 65 0
-836 835 0
-837 28 836 0
837 -28 0
837 -836 0
838 -839 -837 0
-838 839 0
-838 837 0
-840 841 365 367 377 531 537 539 542 742 750 838 0
840 -841 0
840 -365 0
840 -367 0
840 -377 0
840 -531 0
840 -537 0
840 -539 0
840 -542 0
840 -742 0
840 -750 0
840 -838 0
842 -843 -840 0
-842 843 0
-842 840 0
-844 364 379 613 277 390 0
844 -364 0
844 -379 0
844 -613 0
844 -277 0
844 -390 0
845 -366 -844 0
-845 366 0
-845 844 0
846 -532 -612 0
-846 532 0
-846 612 0
847 -397 -618 0
-847 397 0
-847 618 0
848 -32 -685 0
-848 32 0
-848 685 0
-849 38 10 16 155 21 623 170 848 33 250 175 0
849 -38 0
849 -10 0
849 -16 0
849 -155 0
849 -21 0
849 -623 0
849 -170 0
849 -848 0
849 -33 0
849 -250 0
849 -175 0
850 -740 -849 0
-850 740 0
-850 849 0
-851 15 847 194 850 0
851 -15 0
851 -847 0
851 -194 0
851 -850 0
852 -743 -851 0
-852 743 0
-852 851 0
853 -747 -844 0
-853 747 0
-853 844 0
-854 749 853 0
854 -749 0
854 -853 0
855 -751 -854 0
-855 751 0
-855 854 0
-856 38 10 760 16 18 21 623 118 80 33 35 0
856 -38 0
856 -10 0
856 -760 0
856 -16 0
856 -18 0
856 -21 0
856 -623 0
856 -118 0
856 -80 0
856 -33 0
856 -35 0
857 -40 -856 0
-857 40 0
-857 856 0
-858 42 857 0
858 -42 0
858 -857 0
859 -44 -858 0
-859 44 0
-859 858 0
-860 38 10 760 16 18 21 623 130 80 33 35 0
860 -38 0
860 -10 0
860 -760 0
860 -16 0
860 -18 0
860 -21 0
860 -623 0
860 -130 0
860 -80 0
860 -33 0
860 -35 0
861 -75 -860 0
-861 75 0
-861 860 0
-862 77 128 1 861 0
862 -77 0
862 -128 0
862 -1 0
862 -861 0
863 -88 -862 0
-863 88 0
-863 862 0
864 -48 -856 0
-864 48 0
-864 856 0
-865 50 864 0
865 -50 0
865 -864 0
866 -52 -865 0
-866 52 0
-866 865 0
-867 54 4 7 859 863 45 866 0
867 -54 0
867 -4 0
867 -7 0
867 -859 0
867 -863 0
867 -45 0
867 -866 0
868 -65 -867 0
-868 65 0
-868 867 0
-869 28 868 0
869 -28 0
869 -868 0
870 -839 -869 0
-870 839 0
-870 869 0
-871 841 845 367 377 846 537 539 542 852 855 870 0
871 -841 0
871 -845 0
871 -367 0
871 -377 0
871 -846 0
871 -537 0
871 -539 0
871 -542 0
871 -852 0
871 -855 0
871 -870 0
872 -873 -871 0
-872 873 0
-872 871 0
-874 38 10 16 155 21 23 170 848 33 250 175 0
874 -38 0
874 -10 0
874 -16 0
874 -155 0
874 -21 0
874 -23 0
874 -170 0
874 -848 0
874 -33 0
874 -250 0
874 -175 0
875 -740 -874 0
-875 740 0
-875 874 0
-876 15 194 875 0
876 -15 0
876 -194 0
876 -875 0
877 -743 -876 0
-877 743 0
-877 876 0
878 -751 -749 0
-878 751 0
-878 749 0
879 -40 -752 0
-879 40 0
-879 752 0
-880 42 879 0
880 -42 0
880 -879 0
881 -44 -880 0
-881 44 0
-881 880 0
882 -52 -754 0
-882 52 0
-882 754 0
-883 54 4 7 881 831 45 882 0
883 -54 0
883 -4 0
883 -7 0
883 -881 0
883 -831 0
883 -45 0
883 -882 0
884 -65 -883 0
-884 65 0
-884 883 0
-885 28 884 0
885 -28 0
885 -884 0
886 -839 -885 0
-886 839 0
-886 885 0
-887 841 367 377 846 537 539 542 877 878 886 0
887 -841 0
887 -367 0
887 -377 0
887 -846 0
887 -537 0
887 -539 0
887 -542 0
887 -877 0
887 -878 0
887 -886 0
888 -889 -887 0
-888 889 0
-888 887 0
-890 15 875 0
890 -15 0
890 -875 0
891 -743 -890 0
-891 743 0
-891 890 0
-892 38 10 13 16 18 21 23 118 80 33 35 0
892 -38 0
892 -10 0
892 -13 0
892 -16 0
892 -18 0
892 -21 0
892 -23 0
892 -118 0
892 -80 0
892 -33 0
892 -35 0
893 -40 -892 0
-893 40 0
-893 892 0
-894 42 893 0
894 -42 0
894 -893 0
895 -44 -894 0
-895 44 0
-895 894 0
-896 38 10 13 16 18 21 23 130 80 33 35 0
896 -38 0
896 -10 0
896 -13 0
896 -16 0
896 -18 0
896 -21 0
896 -23 0
896 -130 0
896 -80 0
896 -33 0
896 -35 0
897 -75 -896 0
-897 75 0
-897 896 0
-898 77 128 1 897 0
898 -77 0
898 -128 0
898 -1 0
898 -897 0
899 -88 -898 0
-899 88 0
-899 898 0
900 -48 -892 0
-900 48 0
-900 892 0
-901 50 900 0
901 -50 0
901 -900 0
902 -52 -901 0
-902 52 0
-902 901 0
-903 54 4 7 895 899 45 902 0
903 -54 0
903 -4 0
903 -7 0
903 -895 0
903 -899 0
903 -45 0
903 -902 0
904 -65 -903 0
-904 65 0
-904 903 0
-905 28 904 0
905 -28 0
905 -904 0
906 -839 -905 0
-906 839 0
-906 905 0
-907 841 367 377 846 537 539 542 891 878 906 0
907 -841 0
907 -367 0
907 -377 0
907 -846 0
907 -537 0
907 -539 0
907 -542 0
907 -891 0
907 -878 0
907 -906 0
908 -909 -907 0
-908 909 0
-908 907 0
-910 190 908 186 0
910 -190 0
910 -908 0
910 -186 0
911 -192 -910 0
-911 192 0
-911 910 0
-912 841 367 377 537 539 542 891 878 906 0
912 -841 0
912 -367 0
912 -377 0
912 -537 0
912 -539 0
912 -542 0
912 -891 0
912 -878 0
912 -906 0
913 -909 -912 0
-913 909 0
-913 912 0
-914 190 913 186 0
914 -190 0
914 -913 0
914 -186 0
915 -272 -914 0
-915 272 0
-915 914 0
-916 274 915 0
916 -274 0
916 -915 0
917 -276 -916 0
-917 276 0
-917 916 0
-918 38 10 197 16 18 21 23 130 80 33 35 0
918 -38 0
918 -10 0
918 -197 0
918 -16 0
918 -18 0
918 -21 0
918 -23 0
918 -130 0
918 -80 0
918 -33 0
918 -35 0
919 -75 -918 0
-919 75 0
-919 918 0
-920 77 128 1 919 0
920 -77 0
920 -128 0
920 -1 0
920 -919 0
921 -88 -920 0
-921 88 0
-921 920 0
-922 54 4 7 881 921 45 882 0
922 -54 0
922 -4 0
922 -7 0
922 -881 0
922 -921 0
922 -45 0
922 -882 0
923 -65 -922 0
-923 65 0
-923 922 0
-924 28 923 0
924 -28 0
924 -923 0
925 -839 -924 0
-925 839 0
-925 924 0
-926 841 367 377 846 537 539 542 877 878 925 0
926 -841 0
926 -367 0
926 -377 0
926 -846 0
926 -537 0
926 -539 0
926 -542 0
926 -877 0
926 -878 0
926 -925 0
927 -928 -926 0
-927 928 0
-927 926 0
-929 279 927 0
929 -279 0
929 -927 0
930 -278 -929 0
-930 278 0
-930 929 0
931 -839 -297 0
-931 839 0
-931 297 0
-932 841 367 377 846 537 539 542 878 931 0
932 -841 0
932 -367 0
932 -377 0
932 -846 0
932 -537 0
932 -539 0
932 -542 0
932 -878 0
932 -931 0
933 -909 -932 0
-933 909 0
-933 932 0
-934 190 933 186 0
934 -190 0
934 -933 0
934 -186 0
935 -195 -934 0
-935 195 0
-935 934 0
-936 15 935 0
936 -15 0
936 -935 0
937 -14 -936 0
-937 14 0
-937 936 0
938 -743 -196 0
-938 743 0
-938 196 0
-939 841 367 377 846 537 539 542 938 878 931 0
939 -841 0
939 -367 0
939 -377 0
939 -846 0
939 -537 0
939 -539 0
939 -542 0
939 -938 0
939 -878 0
939 -931 0
940 -941 -939 0
-940 941 0
-940 939 0
-942 25 940 0
942 -25 0
942 -940 0
943 -24 -942 0
-943 24 0
-943 942 0
-944 38 10 937 16 382 21 943 383 384 33 385 386 0
944 -38 0
944 -10 0
944 -937 0
944 -16 0
944 -382 0
944 -21 0
944 -943 0
944 -383 0
944 -384 0
944 -33 0
944 -385 0
944 -386 0
945 -48 -944 0
-945 48 0
-945 944 0
-946 50 945 0
946 -50 0
946 -945 0
947 -362 -946 0
-947 362 0
-947 946 0
-948 364 888 911 917 930 947 0
948 -364 0
948 -888 0
948 -911 0
948 -917 0
948 -930 0
948 -947 0
949 -393 -948 0
-949 393 0
-949 948 0
950 -839 -28 0
-950 839 0
-950 28 0
-951 841 367 377 846 537 539 542 878 950 0
951 -841 0
951 -367 0
951 -377 0
951 -846 0
951 -537 0
951 -539 0
951 -542 0
951 -878 0
951 -950 0
952 -889 -951 0
-952 889 0
-952 951 0
953 -909 -951 0
-953 909 0
-953 951 0
-954 190 953 186 0
954 -190 0
954 -953 0
954 -186 0
955 -192 -954 0
-955 192 0
-955 954 0
-956 841 367 377 537 539 542 878 950 0
956 -841 0
956 -367 0
956 -377 0
956 -537 0
956 -539 0
956 -542 0
956 -878 0
956 -950 0
957 -909 -956 0
-957 909 0
-957 956 0
-958 190 957 186 0
958 -190 0
958 -957 0
958 -186 0
959 -272 -958 0
-959 272 0
-959 958 0
-960 274 959 0
960 -274 0
960 -959 0
961 -276 -960 0
-961 276 0
-961 960 0
962 -928 -951 0
-962 928 0
-962 951 0
-963 279 962 0
963 -279 0
963 -962 0
964 -278 -963 0
-964 278 0
-964 963 0
-965 364 952 955 961 964 394 0
965 -364 0
965 -952 0
965 -955 0
965 -961 0
965 -964 0
965 -394 0
966 -397 -965 0
-966 397 0
-966 965 0
967 -366 -620 0
-967 366 0
-967 620 0
968 -747 -620 0
-968 747 0
-968 620 0
-969 749 968 0
969 -749 0
969 -968 0
970 -751 -969 0
-970 751 0
-970 969 0
-971 841 967 367 377 846 537 539 542 970 950 0
971 -841 0
971 -967 0
971 -367 0
971 -377 0
971 -846 0
971 -537 0
971 -539 0
971 -542 0
971 -970 0
971 -950 0
972 -909 -971 0
-972 909 0
-972 971 0
-973 190 972 186 0
973 -190 0
973 -972 0
973 -186 0
974 -195 -973 0
-974 195 0
-974 973 0
-975 15 966 974 0
975 -15 0
975 -966 0
975 -974 0
976 -14 -975 0
-976 14 0
-976 975 0
977 -743 -759 0
-977 743 0
-977 759 0
-978 841 967 367 377 846 537 539 542 977 970 950 0
978 -841 0
978 -967 0
978 -367 0
978 -377 0
978 -846 0
978 -537 0
978 -539 0
978 -542 0
978 -977 0
978 -970 0
978 -950 0
979 -941 -978 0
-979 941 0
-979 978 0
980 -889 -978 0
-980 889 0
-980 978 0
981 -743 -15 0
-981 743 0
-981 15 0
-982 841 367 377 846 537 539 542 981 878 950 0
982 -841 0
982 -367 0
982 -377 0
982 -846 0
982 -537 0
982 -539 0
982 -542 0
982 -981 0
982 -878 0
982 -950 0
983 -909 -982 0
-983 909 0
-983 982 0
-984 190 983 186 0
984 -190 0
984 -983 0
984 -186 0
985 -192 -984 0
-985 192 0
-985 984 0
-986 841 367 377 537 539 542 981 878 950 0
986 -841 0
986 -367 0
986 -377 0
986 -537 0
986 -539 0
986 -542 0
986 -981 0
986 -878 0
986 -950 0
987 -909 -986 0
-987 909 0
-987 986 0
-988 190 987 186 0
988 -190 0
988 -987 0
988 -186 0
989 -272 -988 0
-989 272 0
-989 988 0
-990 274 989 0
990 -274 0
990 -989 0
991 -276 -990 0
-991 276 0
-991 990 0
-992 841 367 377 846 537 539 542 938 878 950 0
992 -841 0
992 -367 0
992 -377 0
992 -846 0
992 -537 0
992 -539 0
992 -542 0
992 -938 0
992 -878 0
992 -950 0
993 -928 -992 0
-993 928 0
-993 992 0
-994 279 993 0
994 -279 0
994 -993 0
995 -278 -994 0
-995 278 0
-995 994 0
-996 364 980 985 991 995 394 0
996 -364 0
996 -980 0
996 -985 0
996 -991 0
996 -995 0
996 -394 0
997 -401 -996 0
-997 401 0
-997 996 0
-998 25 979 997 0
998 -25 0
998 -979 0
998 -997 0
999 -24 -998 0
-999 24 0
-999 998 0
-1000 38 10 976 16 18 21 999 31 33 35 0
1000 -38 0
1000 -10 0
1000 -976 0
1000 -16 0
1000 -18 0
1000 -21 0
1000 -999 0
1000 -31 0
1000 -33 0
1000 -35 0
1001 -40 -1000 0
-1001 40 0
-1001 1000 0
-1002 42 1001 0
1002 -42 0
1002 -1001 0
1003 -44 -1002 0
-1003 44 0
-1003 1002 0
1004 -48 -1000 0
-1004 48 0
-1004 1000 0
-1005 50 1004 0
1005 -50 0
1005 -1004 0
1006 -52 -1005 0
-1006 52 0
-1006 1005 0
-1007 54 4 7 1003 45 1006 0
1007 -54 0
1007 -4 0
1007 -7 0
1007 -1003 0
1007 -45 0
1007 -1006 0
1008 -56 -1007 0
-1008 56 0
-1008 1007 0
1009 -839 -66 0
-1009 839 0
-1009 66 0
-1010 841 367 377 846 537 539 542 878 1009 0
1010 -841 0
1010 -367 0
1010 -377 0
1010 -846 0
1010 -537 0
1010 -539 0
1010 -542 0
1010 -878 0
1010 -1009 0
1011 -889 -1010 0
-1011 889 0
-1011 1010 0
1012 -909 -1010 0
-1012 909 0
-1012 1010 0
-1013 190 1012 186 0
1013 -190 0
1013 -1012 0
1013 -186 0
1014 -192 -1013 0
-1014 192 0
-1014 1013 0
-1015 841 367 377 537 539 542 878 1009 0
1015 -841 0
1015 -367 0
1015 -377 0
1015 -537 0
1015 -539 0
1015 -542 0
1015 -878 0
1015 -1009 0
1016 -909 -1015 0
-1016 909 0
-1016 1015 0
-1017 190 1016 186 0
1017 -190 0
1017 -1016 0
1017 -186 0
1018 -272 -1017 0
-1018 272 0
-1018 1017 0
-1019 274 1018 0
1019 -274 0
1019 -1018 0
1020 -276 -1019 0
-1020 276 0
-1020 1019 0
1021 -928 -1010 0
-1021 928 0
-1021 1010 0
-1022 279 1021 0
1022 -279 0
1022 -1021 0
1023 -278 -1022 0
-1023 278 0
-1023 1022 0
-1024 364 1011 1014 1020 1023 394 0
1024 -364 0
1024 -1011 0
1024 -1014 0
1024 -1020 0
1024 -1023 0
1024 -394 0
1025 -397 -1024 0
-1025 397 0
-1025 1024 0
-1026 841 967 367 377 846 537 539 542 970 1009 0
1026 -841 0
1026 -967 0
1026 -367 0
1026 -377 0
1026 -846 0
1026 -537 0
1026 -539 0
1026 -542 0
1026 -970 0
1026 -1009 0
1027 -909 -1026 0
-1027 909 0
-1027 1026 0
-1028 190 1027 186 0
1028 -190 0
1028 -1027 0
1028 -186 0
1029 -195 -1028 0
-1029 195 0
-1029 1028 0
-1030 15 1025 1029 0
1030 -15 0
1030 -1025 0
1030 -1029 0
1031 -14 -1030 0
-1031 14 0
-1031 1030 0
-1032 841 967 367 377 846 537 539 542 977 970 1009 0
1032 -841 0
1032 -967 0
1032 -367 0
1032 -377 0
1032 -846 0
1032 -537 0
1032 -539 0
1032 -542 0
1032 -977 0
1032 -970 0
1032 -1009 0
1033 -941 -1032 0
-1033 941 0
-1033 1032 0
1034 -889 -1032 0
-1034 889 0
-1034 1032 0
-1035 841 367 377 846 537 539 542 981 878 1009 0
1035 -841 0
1035 -367 0
1035 -377 0
1035 -846 0
1035 -537 0
1035 -539 0
1035 -542 0
1035 -981 0
1035 -878 0
1035 -1009 0
1036 -909 -1035 0
-1036 909 0
-1036 1035 0
-1037 190 1036 186 0
1037 -190 0
1037 -1036 0
1037 -186 0
1038 -192 -1037 0
-1038 192 0
-1038 1037 0
-1039 841 367 377 537 539 542 981 878 1009 0
1039 -841 0
1039 -367 0
1039 -377 0
1039 -537 0
1039 -539 0
1039 -542 0
1039 -981 0
1039 -878 0
1039 -1009 0
1040 -909 -1039 0
-1040 909 0
-1040 1039 0
-1041 190 1040 186 0
1041 -190 0
1041 -1040 0
1041 -186 0
1042 -272 -1041 0
-1042 272 0
-1042 1041 0
-1043 274 1042 0
1043 -274 0
1043 -1042 0
1044 -276 -1043 0
-1044 276 0
-1044 1043 0
-1045 841 367 377 846 537 539 542 938 878 1009 0
1045 -841 0
1045 -367 0
1045 -377 0
1045 -846 0
1045 -537 0
1045 -539 0
1045 -542 0
1045 -938 0
1045 -878 0
1045 -1009 0
1046 -928 -1045 0
-1046 928 0
-1046 1045 0
-1047 279 1046 0
1047 -279 0
1047 -1046 0
1048 -278 -1047 0
-1048 278 0
-1048 1047 0
-1049 364 1034 1038 1044 1048 394 0
1049 -364 0
1049 -1034 0
1049 -1038 0
1049 -1044 0
1049 -1048 0
1049 -394 0
1050 -401 -1049 0
-1050 401 0
-1050 1049 0
-1051 25 1033 1050 0
1051 -25 0
1051 -1033 0
1051 -1050 0
1052 -24 -1051 0
-1052 24 0
-1052 1051 0
-1053 38 10 1031 16 63 21 1052 69 33 70 207 0
1053 -38 0
1053 -10 0
1053 -1031 0
1053 -16 0
1053 -63 0
1053 -21 0
1053 -1052 0
1053 -69 0
1053 -33 0
1053 -70 0
1053 -207 0
1054 -75 -1053 0
-1054 75 0
-1054 1053 0
-1055 77 1 1008 1054 0
1055 -77 0
1055 -1 0
1055 -1008 0
1055 -1054 0
1056 -79 -1055 0
-1056 79 0
-1056 1055 0
-1057 38 10 976 16 18 21 999 80 33 35 0
1057 -38 0
1057 -10 0
1057 -976 0
1057 -16 0
1057 -18 0
1057 -21 0
1057 -999 0
1057 -80 0
1057 -33 0
1057 -35 0
1058 -40 -1057 0
-1058 40 0
-1058 1057 0
-1059 42 1058 0
1059 -42 0
1059 -1058 0
1060 -44 -1059 0
-1060 44 0
-1060 1059 0
1061 -75 -1057 0
-1061 75 0
-1061 1057 0
-1062 77 1 1061 0
1062 -77 0
1062 -1 0
1062 -1061 0
1063 -88 -1062 0
-1063 88 0
-1063 1062 0
1064 -48 -1057 0
-1064 48 0
-1064 1057 0
-1065 50 1064 0
1065 -50 0
1065 -1064 0
1066 -52 -1065 0
-1066 52 0
-1066 1065 0
-1067 54 4 7 1060 1063 45 1066 0
1067 -54 0
1067 -4 0
1067 -7 0
1067 -1060 0
1067 -1063 0
1067 -45 0
1067 -1066 0
1068 -65 -1067 0
-1068 65 0
-1068 1067 0
-1069 28 1068 0
1069 -28 0
1069 -1068 0
1070 -96 -1069 0
-1070 96 0
-1070 1069 0
-1071 98 1056 1070 0
1071 -98 0
1071 -1056 0
1071 -1070 0
1072 -100 -1071 0
-1072 100 0
-1072 1071 0
1073 -102 -1069 0
-1073 102 0
-1073 1069 0
-1074 104 1072 1073 0
1074 -104 0
1074 -1072 0
1074 -1073 0
1075 -106 -1074 0
-1075 106 0
-1075 1074 0
-1076 108 1075 0
1076 -108 0
1076 -1075 0
1077 -110 -1076 0
-1077 110 0
-1077 1076 0
-1078 38 10 976 16 18 21 999 118 33 35 0
1078 -38 0
1078 -10 0
1078 -976 0
1078 -16 0
1078 -18 0
1078 -21 0
1078 -999 0
1078 -118 0
1078 -33 0
1078 -35 0
1079 -40 -1078 0
-1079 40 0
-1079 1078 0
-1080 42 1079 0
1080 -42 0
1080 -1079 0
1081 -44 -1080 0
-1081 44 0
-1081 1080 0
-1082 38 10 976 16 18 21 999 130 33 35 0
1082 -38 0
1082 -10 0
1082 -976 0
1082 -16 0
1082 -18 0
1082 -21 0
1082 -999 0
1082 -130 0
1082 -33 0
1082 -35 0
1083 -75 -1082 0
-1083 75 0
-1083 1082 0
-1084 77 128 1 1083 0
1084 -77 0
1084 -128 0
1084 -1 0
1084 -1083 0
1085 -88 -1084 0
-1085 88 0
-1085 1084 0
1086 -48 -1078 0
-1086 48 0
-1086 1078 0
-1087 50 1086 0
1087 -50 0
1087 -1086 0
1088 -52 -1087 0
-1088 52 0
-1088 1087 0
-1089 54 4 7 1081 1085 45 1088 0
1089 -54 0
1089 -4 0
1089 -7 0
1089 -1081 0
1089 -1085 0
1089 -45 0
1089 -1088 0
1090 -65 -1089 0
-1090 65 0
-1090 1089 0
-1091 28 1090 0
1091 -28 0
1091 -1090 0
1092 -27 -1091 0
-1092 27 0
-1092 1091 0
1093 -839 -249 0
-1093 839 0
-1093 249 0
-1094 841 367 377 846 537 539 542 878 1093 0
1094 -841 0
1094 -367 0
1094 -377 0
1094 -846 0
1094 -537 0
1094 -539 0
1094 -542 0
1094 -878 0
1094 -1093 0
1095 -889 -1094 0
-1095 889 0
-1095 1094 0
1096 -909 -1094 0
-1096 909 0
-1096 1094 0
-1097 190 1096 186 0
1097 -190 0
1097 -1096 0
1097 -186 0
1098 -192 -1097 0
-1098 192 0
-1098 1097 0
-1099 841 367 377 537 539 542 878 1093 0
1099 -841 0
1099 -367 0
1099 -377 0
1099 -537 0
1099 -539 0
1099 -542 0
1099 -878 0
1099 -1093 0
1100 -909 -1099 0
-1100 909 0
-1100 1099 0
-1101 190 1100 186 0
1101 -190 0
1101 -1100 0
1101 -186 0
1102 -272 -1101 0
-1102 272 0
-1102 1101 0
-1103 274 1102 0
1103 -274 0
1103 -1102 0
1104 -276 -1103 0
-1104 276 0
-1104 1103 0
1105 -928 -1094 0
-1105 928 0
-1105 1094 0
-1106 279 1105 0
1106 -279 0
1106 -1105 0
1107 -278 -1106 0
-1107 278 0
-1107 1106 0
-1108 364 1095 1098 1104 1107 394 0
1108 -364 0
1108 -1095 0
1108 -1098 0
1108 -1104 0
1108 -1107 0
1108 -394 0
1109 -397 -1108 0
-1109 397 0
-1109 1108 0
-1110 841 967 367 377 846 537 539 542 970 1093 0
1110 -841 0
1110 -967 0
1110 -367 0
1110 -377 0
1110 -846 0
1110 -537 0
1110 -539 0
1110 -542 0
1110 -970 0
1110 -1093 0
1111 -909 -1110 0
-1111 909 0
-1111 1110 0
-1112 190 1111 186 0
1112 -190 0
1112 -1111 0
1112 -186 0
1113 -195 -1112 0
-1113 195 0
-1113 1112 0
-1114 15 1109 1113 0
1114 -15 0
1114 -1109 0
1114 -1113 0
1115 -14 -1114 0
-1115 14 0
-1115 1114 0
-1116 841 967 367 377 846 537 539 542 977 970 1093 0
1116 -841 0
1116 -967 0
1116 -367 0
1116 -377 0
1116 -846 0
1116 -537 0
1116 -539 0
1116 -542 0
1116 -977 0
1116 -970 0
1116 -1093 0
1117 -941 -1116 0
-1117 941 0
-1117 1116 0
-1118 841 367 377 846 537 539 542 938 878 1093 0
1118 -841 0
1118 -367 0
1118 -377 0
1118 -846 0
1118 -537 0
1118 -539 0
1118 -542 0
1118 -938 0
1118 -878 0
1118 -1093 0
1119 -889 -1118 0
-1119 889 0
-1119 1118 0
-1120 841 367 377 846 537 539 542 981 878 1093 0
1120 -841 0
1120 -367 0
1120 -377 0
1120 -846 0
1120 -537 0
1120 -539 0
1120 -542 0
1120 -981 0
1120 -878 0
1120 -1093 0
1121 -909 -1120 0
-1121 909 0
-1121 1120 0
-1122 190 1121 186 0
1122 -190 0
1122 -1121 0
1122 -186 0
1123 -192 -1122 0
-1123 192 0
-1123 1122 0
-1124 841 367 377 537 539 542 981 878 1093 0
1124 -841 0
1124 -367 0
1124 -377 0
1124 -537 0
1124 -539 0
1124 -542 0
1124 -981 0
1124 -878 0
1124 -1093 0
1125 -909 -1124 0
-1125 909 0
-1125 1124 0
-1126 190 1125 186 0
1126 -190 0
1126 -1125 0
1126 -186 0
1127 -272 -1126 0
-1127 272 0
-1127 1126 0
-1128 274 1127 0
1128 -274 0
1128 -1127 0
1129 -276 -1128 0
-1129 276 0
-1129 1128 0
1130 -928 -1118 0
-1130 928 0
-1130 1118 0
-1131 279 1130 0
1131 -279 0
1131 -1130 0
1132 -278 -1131 0
-1132 278 0
-1132 1131 0
-1133 364 1119 1123 1129 1132 394 0
1133 -364 0
1133 -1119 0
1133 -1123 0
1133 -1129 0
1133 -1132 0
1133 -394 0
1134 -401 -1133 0
-1134 401 0
-1134 1133 0
-1135 25 1117 1134 0
1135 -25 0
1135 -1117 0
1135 -1134 0
1136 -24 -1135 0
-1136 24 0
-1136 1135 0
-1137 38 10 1115 16 155 21 1136 170 33 250 175 0
1137 -38 0
1137 -10 0
1137 -1115 0
1137 -16 0
1137 -155 0
1137 -21 0
1137 -1136 0
1137 -170 0
1137 -33 0
1137 -250 0
1137 -175 0
1138 -178 -1137 0
-1138 178 0
-1138 1137 0
-1139 30 1092 1138 0
1139 -30 0
1139 -1092 0
1139 -1138 0
1140 -181 -1139 0
-1140 181 0
-1140 1139 0
-1141 183 872 949 1077 1140 0
1141 -183 0
1141 -872 0
1141 -949 0
1141 -1077 0
1141 -1140 0
1142 -1143 -1141 0
-1142 1143 0
-1142 1141 0
-1144 841 967 367 377 846 537 539 542 977 970 931 0
1144 -841 0
1144 -967 0
1144 -367 0
1144 -377 0
1144 -846 0
1144 -537 0
1144 -539 0
1144 -542 0
1144 -977 0
1144 -970 0
1144 -931 0
1145 -873 -1144 0
-1145 873 0
-1145 1144 0
1146 -889 -939 0
-1146 889 0
-1146 939 0
-1147 841 367 377 846 537 539 542 981 878 931 0
1147 -841 0
1147 -367 0
1147 -377 0
1147 -846 0
1147 -537 0
1147 -539 0
1147 -542 0
1147 -981 0
1147 -878 0
1147 -931 0
1148 -909 -1147 0
-1148 909 0
-1148 1147 0
-1149 190 1148 186 0
1149 -190 0
1149 -1148 0
1149 -186 0
1150 -192 -1149 0
-1150 192 0
-1150 1149 0
-1151 841 367 377 537 539 542 981 878 931 0
1151 -841 0
1151 -367 0
1151 -377 0
1151 -537 0
1151 -539 0
1151 -542 0
1151 -981 0
1151 -878 0
1151 -931 0
1152 -909 -1151 0
-1152 909 0
-1152 1151 0
-1153 190 1152 186 0
1153 -190 0
1153 -1152 0
1153 -186 0
1154 -272 -1153 0
-1154 272 0
-1154 1153 0
-1155 274 1154 0
1155 -274 0
1155 -1154 0
1156 -276 -1155 0
-1156 276 0
-1156 1155 0
1157 -928 -939 0
-1157 928 0
-1157 939 0
-1158 279 1157 0
1158 -279 0
1158 -1157 0
1159 -278 -1158 0
-1159 278 0
-1159 1158 0
-1160 364 1146 1150 1156 1159 394 0
1160 -364 0
1160 -1146 0
1160 -1150 0
1160 -1156 0
1160 -1159 0
1160 -394 0
1161 -393 -1160 0
-1161 393 0
-1161 1160 0
-1162 183 1145 1161 294 300 0
1162 -183 0
1162 -1145 0
1162 -1161 0
1162 -294 0
1162 -300 0
1163 -303 -1162 0
-1163 303 0
-1163 1162 0
-1164 12 1163 0
1164 -12 0
1164 -1163 0
1165 -11 -1164 0
-1165 11 0
-1165 1164 0
1166 -257 -301 0
-1166 257 0
-1166 301 0
1167 -272 -309 0
-1167 272 0
-1167 309 0
-1168 274 1166 1167 0
1168 -274 0
1168 -1166 0
1168 -1167 0
1169 -532 -1168 0
-1169 532 0
-1169 1168 0
1170 -839 -352 0
-1170 839 0
-1170 352 0
-1171 841 367 377 1169 537 539 542 878 1170 0
1171 -841 0
1171 -367 0
1171 -377 0
1171 -1169 0
1171 -537 0
1171 -539 0
1171 -542 0
1171 -878 0
1171 -1170 0
1172 -889 -1171 0
-1172 889 0
-1172 1171 0
-1173 274 1166 0
1173 -274 0
1173 -1166 0
1174 -532 -1173 0
-1174 532 0
-1174 1173 0
-1175 841 367 377 1174 537 539 542 878 1170 0
1175 -841 0
1175 -367 0
1175 -377 0
1175 -1174 0
1175 -537 0
1175 -539 0
1175 -542 0
1175 -878 0
1175 -1170 0
1176 -909 -1175 0
-1176 909 0
-1176 1175 0
1177 -873 -932 0
-1177 873 0
-1177 932 0
-1178 183 1177 294 300 0
1178 -183 0
1178 -1177 0
1178 -294 0
1178 -300 0
1179 -185 -1178 0
-1179 185 0
-1179 1178 0
-1180 190 1176 1179 186 0
1180 -190 0
1180 -1176 0
1180 -1179 0
1180 -186 0
1181 -192 -1180 0
-1181 192 0
-1181 1180 0
1182 -257 -1178 0
-1182 257 0
-1182 1178 0
-1183 841 367 377 537 539 542 878 1170 0
1183 -841 0
1183 -367 0
1183 -377 0
1183 -537 0
1183 -539 0
1183 -542 0
1183 -878 0
1183 -1170 0
1184 -909 -1183 0
-1184 909 0
-1184 1183 0
-1185 841 367 377 537 539 542 878 931 0
1185 -841 0
1185 -367 0
1185 -377 0
1185 -537 0
1185 -539 0
1185 -542 0
1185 -878 0
1185 -931 0
1186 -873 -1185 0
-1186 873 0
-1186 1185 0
-1187 183 1186 294 300 0
1187 -183 0
1187 -1186 0
1187 -294 0
1187 -300 0
1188 -185 -1187 0
-1188 185 0
-1188 1187 0
-1189 190 1184 1188 186 0
1189 -190 0
1189 -1184 0
1189 -1188 0
1189 -186 0
1190 -272 -1189 0
-1190 272 0
-1190 1189 0
-1191 274 1182 1190 0
1191 -274 0
1191 -1182 0
1191 -1190 0
1192 -276 -1191 0
-1192 276 0
-1192 1191 0
1193 -928 -1171 0
-1193 928 0
-1193 1171 0
-1194 279 1193 0
1194 -279 0
1194 -1193 0
1195 -278 -1194 0
-1195 278 0
-1195 1194 0
-1196 364 1172 1181 1192 1195 394 0
1196 -364 0
1196 -1172 0
1196 -1181 0
1196 -1192 0
1196 -1195 0
1196 -394 0
1197 -397 -1196 0
-1197 397 0
-1197 1196 0
-1198 841 967 367 377 846 537 539 542 970 931 0
1198 -841 0
1198 -967 0
1198 -367 0
1198 -377 0
1198 -846 0
1198 -537 0
1198 -539 0
1198 -542 0
1198 -970 0
1198 -931 0
1199 -873 -1198 0
-1199 873 0
-1199 1198 0
1200 -889 -932 0
-1200 889 0
-1200 932 0
1201 -192 -934 0
-1201 192 0
-1201 934 0
1202 -909 -1185 0
-1202 909 0
-1202 1185 0
-1203 190 1202 186 0
1203 -190 0
1203 -1202 0
1203 -186 0
1204 -272 -1203 0
-1204 272 0
-1204 1203 0
-1205 274 1204 0
1205 -274 0
1205 -1204 0
1206 -276 -1205 0
-1206 276 0
-1206 1205 0
1207 -928 -932 0
-1207 928 0
-1207 932 0
-1208 279 1207 0
1208 -279 0
1208 -1207 0
1209 -278 -1208 0
-1209 278 0
-1209 1208 0
-1210 364 1200 1201 1206 1209 394 0
1210 -364 0
1210 -1200 0
1210 -1201 0
1210 -1206 0
1210 -1209 0
1210 -394 0
1211 -393 -1210 0
-1211 393 0
-1211 1210 0
-1212 183 1199 1211 294 300 0
1212 -183 0
1212 -1199 0
1212 -1211 0
1212 -294 0
1212 -300 0
1213 -307 -1212 0
-1213 307 0
-1213 1212 0
1214 -276 -1173 0
-1214 276 0
-1214 1173 0
-1215 364 1214 277 394 0
1215 -364 0
1215 -1214 0
1215 -277 0
1215 -394 0
1216 -366 -1215 0
-1216 366 0
-1216 1215 0
1217 -393 -395 0
-1217 393 0
-1217 395 0
-1218 183 1217 294 300 0
1218 -183 0
1218 -1217 0
1218 -294 0
1218 -300 0
1219 -257 -1218 0
-1219 257 0
-1219 1218 0
-1220 274 1219 0
1220 -274 0
1220 -1219 0
1221 -532 -1220 0
-1221 532 0
-1221 1220 0
1222 -747 -1215 0
-1222 747 0
-1222 1215 0
-1223 749 1222 0
1223 -749 0
1223 -1222 0
1224 -751 -1223 0
-1224 751 0
-1224 1223 0
-1225 54 729 4 7 57 151 45 0
1225 -54 0
1225 -729 0
1225 -4 0
1225 -7 0
1225 -57 0
1225 -151 0
1225 -45 0
1226 -65 -1225 0
-1226 65 0
-1226 1225 0
-1227 28 1226 0
1227 -28 0
1227 -1226 0
1228 -839 -1227 0
-1228 839 0
-1228 1227 0
-1229 841 1216 367 377 1221 537 539 542 1224 1228 0
1229 -841 0
1229 -1216 0
1229 -367 0
1229 -377 0
1229 -1221 0
1229 -537 0
1229 -539 0
1229 -542 0
1229 -1224 0
1229 -1228 0
1230 -909 -1229 0
-1230 909 0
-1230 1229 0
1231 -276 -274 0
-1231 276 0
-1231 274 0
-1232 364 1200 1231 1209 394 0
1232 -364 0
1232 -1200 0
1232 -1231 0
1232 -1209 0
1232 -394 0
1233 -393 -1232 0
-1233 393 0
-1233 1232 0
-1234 183 1199 1233 294 300 0
1234 -183 0
1234 -1199 0
1234 -1233 0
1234 -294 0
1234 -300 0
1235 -185 -1234 0
-1235 185 0
-1235 1234 0
-1236 190 1230 1235 186 0
1236 -190 0
1236 -1230 0
1236 -1235 0
1236 -186 0
1237 -195 -1236 0
-1237 195 0
-1237 1236 0
-1238 15 1197 1213 1237 0
1238 -15 0
1238 -1197 0
1238 -1213 0
1238 -1237 0
1239 -14 -1238 0
-1239 14 0
-1239 1238 0
1240 -873 -978 0
-1240 873 0
-1240 978 0
1241 -393 -996 0
-1241 393 0
-1241 996 0
-1242 183 1240 1241 318 319 0
1242 -183 0
1242 -1240 0
1242 -1241 0
1242 -318 0
1242 -319 0
1243 -322 -1242 0
-1243 322 0
-1243 1242 0
-1244 54 1243 4 7 57 151 45 0
1244 -54 0
1244 -1243 0
1244 -4 0
1244 -7 0
1244 -57 0
1244 -151 0
1244 -45 0
1245 -61 -1244 0
-1245 61 0
-1245 1244 0
-1246 20 1245 0
1246 -20 0
1246 -1245 0
1247 -19 -1246 0
-1247 19 0
-1247 1246 0
1248 -192 -309 0
-1248 192 0
-1248 309 0
1249 -276 -1168 0
-1249 276 0
-1249 1168 0
-1250 364 1248 1249 277 394 0
1250 -364 0
1250 -1248 0
1250 -1249 0
1250 -277 0
1250 -394 0
1251 -366 -1250 0
-1251 366 0
-1251 1250 0
1252 -185 -1218 0
-1252 185 0
-1252 1218 0
-1253 190 1252 186 0
1253 -190 0
1253 -1252 0
1253 -186 0
1254 -272 -1253 0
-1254 272 0
-1254 1253 0
-1255 274 1219 1254 0
1255 -274 0
1255 -1219 0
1255 -1254 0
1256 -532 -1255 0
-1256 532 0
-1256 1255 0
1257 -397 -1250 0
-1257 397 0
-1257 1250 0
-1258 183 682 294 300 0
1258 -183 0
1258 -682 0
1258 -294 0
1258 -300 0
1259 -307 -1258 0
-1259 307 0
-1259 1258 0
1260 -185 -1258 0
-1260 185 0
-1260 1258 0
-1261 190 1260 186 0
1261 -190 0
1261 -1260 0
1261 -186 0
1262 -195 -1261 0
-1262 195 0
-1262 1261 0
-1263 15 1257 1259 1262 0
1263 -15 0
1263 -1257 0
1263 -1259 0
1263 -1262 0
1264 -743 -1263 0
-1264 743 0
-1264 1263 0
1265 -747 -1250 0
-1265 747 0
-1265 1250 0
-1266 749 1265 0
1266 -749 0
1266 -1265 0
1267 -751 -1266 0
-1267 751 0
-1267 1266 0
-1268 841 1251 367 377 1256 537 539 542 1264 1267 1228 0
1268 -841 0
1268 -1251 0
1268 -367 0
1268 -377 0
1268 -1256 0
1268 -537 0
1268 -539 0
1268 -542 0
1268 -1264 0
1268 -1267 0
1268 -1228 0
1269 -941 -1268 0
-1269 941 0
-1269 1268 0
1270 -743 -311 0
-1270 743 0
-1270 311 0
-1271 841 367 377 1169 537 539 542 1270 878 1170 0
1271 -841 0
1271 -367 0
1271 -377 0
1271 -1169 0
1271 -537 0
1271 -539 0
1271 -542 0
1271 -1270 0
1271 -878 0
1271 -1170 0
1272 -889 -1271 0
-1272 889 0
-1272 1271 0
-1273 15 306 0
1273 -15 0
1273 -306 0
1274 -743 -1273 0
-1274 743 0
-1274 1273 0
-1275 841 367 377 1174 537 539 542 1274 878 1170 0
1275 -841 0
1275 -367 0
1275 -377 0
1275 -1174 0
1275 -537 0
1275 -539 0
1275 -542 0
1275 -1274 0
1275 -878 0
1275 -1170 0
1276 -909 -1275 0
-1276 909 0
-1276 1275 0
1277 -873 -1147 0
-1277 873 0
-1277 1147 0
-1278 183 1277 294 300 0
1278 -183 0
1278 -1277 0
1278 -294 0
1278 -300 0
1279 -185 -1278 0
-1279 185 0
-1279 1278 0
-1280 190 1276 1279 186 0
1280 -190 0
1280 -1276 0
1280 -1279 0
1280 -186 0
1281 -192 -1280 0
-1281 192 0
-1281 1280 0
1282 -873 -939 0
-1282 873 0
-1282 939 0
-1283 183 1282 294 300 0
1283 -183 0
1283 -1282 0
1283 -294 0
1283 -300 0
1284 -257 -1283 0
-1284 257 0
-1284 1283 0
-1285 841 367 377 537 539 542 1274 878 1170 0
1285 -841 0
1285 -367 0
1285 -377 0
1285 -537 0
1285 -539 0
1285 -542 0
1285 -1274 0
1285 -878 0
1285 -1170 0
1286 -909 -1285 0
-1286 909 0
-1286 1285 0
1287 -873 -1151 0
-1287 873 0
-1287 1151 0
-1288 183 1287 294 300 0
1288 -183 0
1288 -1287 0
1288 -294 0
1288 -300 0
1289 -185 -1288 0
-1289 185 0
-1289 1288 0
-1290 190 1286 1289 186 0
1290 -190 0
1290 -1286 0
1290 -1289 0
1290 -186 0
1291 -272 -1290 0
-1291 272 0
-1291 1290 0
-1292 274 1284 1291 0
1292 -274 0
1292 -1284 0
1292 -1291 0
1293 -276 -1292 0
-1293 276 0
-1293 1292 0
1294 -928 -1271 0
-1294 928 0
-1294 1271 0
-1295 279 1294 0
1295 -279 0
1295 -1294 0
1296 -278 -1295 0
-1296 278 0
-1296 1295 0
-1297 364 1272 1281 1293 1296 394 0
1297 -364 0
1297 -1272 0
1297 -1281 0
1297 -1293 0
1297 -1296 0
1297 -394 0
1298 -401 -1297 0
-1298 401 0
-1298 1297 0
-1299 25 1269 1298 0
1299 -25 0
1299 -1269 0
1299 -1298 0
1300 -24 -1299 0
-1300 24 0
-1300 1299 0
-1301 183 1240 1241 319 0
1301 -183 0
1301 -1240 0
1301 -1241 0
1301 -319 0
1302 -322 -1301 0
-1302 322 0
-1302 1301 0
-1303 54 1302 4 7 57 45 0
1303 -54 0
1303 -1302 0
1303 -4 0
1303 -7 0
1303 -57 0
1303 -45 0
1304 -56 -1303 0
-1304 56 0
-1304 1303 0
-1305 77 1 1304 0
1305 -77 0
1305 -1 0
1305 -1304 0
1306 -79 -1305 0
-1306 79 0
-1306 1305 0
-1307 183 1240 1241 333 0
1307 -183 0
1307 -1240 0
1307 -1241 0
1307 -333 0
1308 -322 -1307 0
-1308 322 0
-1308 1307 0
-1309 54 1308 4 7 57 159 45 0
1309 -54 0
1309 -1308 0
1309 -4 0
1309 -7 0
1309 -57 0
1309 -159 0
1309 -45 0
1310 -65 -1309 0
-1310 65 0
-1310 1309 0
-1311 28 1310 0
1311 -28 0
1311 -1310 0
1312 -96 -1311 0
-1312 96 0
-1312 1311 0
-1313 98 1306 1312 0
1313 -98 0
1313 -1306 0
1313 -1312 0
1314 -100 -1313 0
-1314 100 0
-1314 1313 0
1315 -102 -1311 0
-1315 102 0
-1315 1311 0
-1316 104 1314 1315 0
1316 -104 0
1316 -1314 0
1316 -1315 0
1317 -106 -1316 0
-1317 106 0
-1317 1316 0
-1318 108 1317 0
1318 -108 0
1318 -1317 0
1319 -119 -1318 0
-1319 119 0
-1319 1318 0
-1320 183 1240 1241 347 333 0
1320 -183 0
1320 -1240 0
1320 -1241 0
1320 -347 0
1320 -333 0
1321 -322 -1320 0
-1321 322 0
-1321 1320 0
-1322 54 1321 4 7 57 151 45 0
1322 -54 0
1322 -1321 0
1322 -4 0
1322 -7 0
1322 -57 0
1322 -151 0
1322 -45 0
1323 -65 -1322 0
-1323 65 0
-1323 1322 0
-1324 28 1323 0
1324 -28 0
1324 -1323 0
1325 -27 -1324 0
-1325 27 0
-1325 1324 0
-1326 30 1325 0
1326 -30 0
1326 -1325 0
1327 -32 -1326 0
-1327 32 0
-1327 1326 0
1328 -36 -1324 0
-1328 36 0
-1328 1324 0
1329 -72 -1244 0
-1329 72 0
-1329 1244 0
-1330 38 1165 1239 16 1247 21 1300 1319 1327 33 1328 1329 0
1330 -38 0
1330 -1165 0
1330 -1239 0
1330 -16 0
1330 -1247 0
1330 -21 0
1330 -1300 0
1330 -1319 0
1330 -1327 0
1330 -33 0
1330 -1328 0
1330 -1329 0
1331 -48 -1330 0
-1331 48 0
-1331 1330 0
-1332 50 1331 0
1332 -50 0
1332 -1331 0
1333 -1334 -1332 0
-1333 1334 0
-1333 1332 0
1335 -119 -317 0
-1335 119 0
-1335 317 0
-1336 38 10 197 16 18 21 23 1335 31 33 35 0
1336 -38 0
1336 -10 0
1336 -197 0
1336 -16 0
1336 -18 0
1336 -21 0
1336 -23 0
1336 -1335 0
1336 -31 0
1336 -33 0
1336 -35 0
1337 -48 -1336 0
-1337 48 0
-1337 1336 0
-1338 50 1337 0
1338 -50 0
1338 -1337 0
1339 -362 -1338 0
-1339 362 0
-1339 1338 0
-1340 364 379 613 277 1339 0
1340 -364 0
1340 -379 0
1340 -613 0
1340 -277 0
1340 -1339 0
1341 -366 -1340 0
-1341 366 0
-1341 1340 0
-1342 38 10 16 18 21 23 1335 31 33 35 0
1342 -38 0
1342 -10 0
1342 -16 0
1342 -18 0
1342 -21 0
1342 -23 0
1342 -1335 0
1342 -31 0
1342 -33 0
1342 -35 0
1343 -48 -1342 0
-1343 48 0
-1343 1342 0
-1344 50 1343 0
1344 -50 0
1344 -1343 0
1345 -362 -1344 0
-1345 362 0
-1345 1344 0
-1346 364 379 613 277 1345 0
1346 -364 0
1346 -379 0
1346 -613 0
1346 -277 0
1346 -1345 0
1347 -397 -1346 0
-1347 397 0
-1347 1346 0
-1348 38 10 16 18 21 623 1335 31 33 35 0
1348 -38 0
1348 -10 0
1348 -16 0
1348 -18 0
1348 -21 0
1348 -623 0
1348 -1335 0
1348 -31 0
1348 -33 0
1348 -35 0
1349 -740 -1348 0
-1349 740 0
-1349 1348 0
-1350 15 1347 194 1349 0
1350 -15 0
1350 -1347 0
1350 -194 0
1350 -1349 0
1351 -743 -1350 0
-1351 743 0
-1351 1350 0
1352 -747 -1340 0
-1352 747 0
-1352 1340 0
-1353 749 1352 0
1353 -749 0
1353 -1352 0
1354 -751 -1353 0
-1354 751 0
-1354 1353 0
-1355 841 1341 367 377 846 537 539 542 1351 1354 950 0
1355 -841 0
1355 -1341 0
1355 -367 0
1355 -377 0
1355 -846 0
1355 -537 0
1355 -539 0
1355 -542 0
1355 -1351 0
1355 -1354 0
1355 -950 0
1356 -873 -1355 0
-1356 873 0
-1356 1355 0
1357 -740 -1342 0
-1357 740 0
-1357 1342 0
-1358 15 194 1357 0
1358 -15 0
1358 -194 0
1358 -1357 0
1359 -743 -1358 0
-1359 743 0
-1359 1358 0
-1360 841 367 377 846 537 539 542 1359 878 950 0
1360 -841 0
1360 -367 0
1360 -377 0
1360 -846 0
1360 -537 0
1360 -539 0
1360 -542 0
1360 -1359 0
1360 -878 0
1360 -950 0
1361 -889 -1360 0
-1361 889 0
-1361 1360 0
-1362 15 1357 0
1362 -15 0
1362 -1357 0
1363 -743 -1362 0
-1363 743 0
-1363 1362 0
-1364 841 367 377 846 537 539 542 1363 878 950 0
1364 -841 0
1364 -367 0
1364 -377 0
1364 -846 0
1364 -537 0
1364 -539 0
1364 -542 0
1364 -1363 0
1364 -878 0
1364 -950 0
1365 -909 -1364 0
-1365 909 0
-1365 1364 0
-1366 190 1365 186 0
1366 -190 0
1366 -1365 0
1366 -186 0
1367 -192 -1366 0
-1367 192 0
-1367 1366 0
-1368 841 367 377 537 539 542 1363 878 950 0
1368 -841 0
1368 -367 0
1368 -377 0
1368 -537 0
1368 -539 0
1368 -542 0
1368 -1363 0
1368 -878 0
1368 -950 0
1369 -909 -1368 0
-1369 909 0
-1369 1368 0
-1370 190 1369 186 0
1370 -190 0
1370 -1369 0
1370 -186 0
1371 -272 -1370 0
-1371 272 0
-1371 1370 0
-1372 274 1371 0
1372 -274 0
1372 -1371 0
1373 -276 -1372 0
-1373 276 0
-1373 1372 0
1374 -928 -1360 0
-1374 928 0
-1374 1360 0
-1375 279 1374 0
1375 -279 0
1375 -1374 0
1376 -278 -1375 0
-1376 278 0
-1376 1375 0
1377 -195 -954 0
-1377 195 0
-1377 954 0
-1378 15 1377 0
1378 -15 0
1378 -1377 0
1379 -14 -1378 0
-1379 14 0
-1379 1378 0
-1380 25 979 0
1380 -25 0
1380 -979 0
1381 -24 -1380 0
-1381 24 0
-1381 1380 0
-1382 38 10 1379 16 18 21 1381 1335 31 33 35 0
1382 -38 0
1382 -10 0
1382 -1379 0
1382 -16 0
1382 -18 0
1382 -21 0
1382 -1381 0
1382 -1335 0
1382 -31 0
1382 -33 0
1382 -35 0
1383 -48 -1382 0
-1383 48 0
-1383 1382 0
-1384 50 1383 0
1384 -50 0
1384 -1383 0
1385 -362 -1384 0
-1385 362 0
-1385 1384 0
-1386 364 1361 1367 1373 1376 1385 0
1386 -364 0
1386 -1361 0
1386 -1367 0
1386 -1373 0
1386 -1376 0
1386 -1385 0
1387 -393 -1386 0
-1387 393 0
-1387 1386 0
1388 -75 -1000 0
-1388 75 0
-1388 1000 0
-1389 77 1 1388 0
1389 -77 0
1389 -1 0
1389 -1388 0
1390 -79 -1389 0
-1390 79 0
-1390 1389 0
-1391 98 1390 142 0
1391 -98 0
1391 -1390 0
1391 -142 0
1392 -100 -1391 0
-1392 100 0
-1392 1391 0
-1393 104 1392 145 0
1393 -104 0
1393 -1392 0
1393 -145 0
1394 -106 -1393 0
-1394 106 0
-1394 1393 0
-1395 108 1394 0
1395 -108 0
1395 -1394 0
1396 -110 -1395 0
-1396 110 0
-1396 1395 0
-1397 38 10 976 16 18 21 999 1335 33 35 0
1397 -38 0
1397 -10 0
1397 -976 0
1397 -16 0
1397 -18 0
1397 -21 0
1397 -999 0
1397 -1335 0
1397 -33 0
1397 -35 0
1398 -178 -1397 0
-1398 178 0
-1398 1397 0
-1399 30 26 1398 0
1399 -30 0
1399 -26 0
1399 -1398 0
1400 -181 -1399 0
-1400 181 0
-1400 1399 0
-1401 183 1356 1387 1396 1400 0
1401 -183 0
1401 -1356 0
1401 -1387 0
1401 -1396 0
1401 -1400 0
1402 -322 -1401 0
-1402 322 0
-1402 1401 0
1403 -303 -1242 0
-1403 303 0
-1403 1242 0
-1404 12 1403 0
1404 -12 0
1404 -1403 0
1405 -11 -1404 0
-1405 11 0
-1405 1404 0
1406 -257 -320 0
-1406 257 0
-1406 320 0
1407 -185 -320 0
-1407 185 0
-1407 320 0
-1408 190 1407 186 0
1408 -190 0
1408 -1407 0
1408 -186 0
1409 -272 -1408 0
-1409 272 0
-1409 1408 0
-1410 274 1406 1409 0
1410 -274 0
1410 -1406 0
1410 -1409 0
1411 -532 -1410 0
-1411 532 0
-1411 1410 0
-1412 841 367 377 1411 537 539 542 878 950 0
1412 -841 0
1412 -367 0
1412 -377 0
1412 -1411 0
1412 -537 0
1412 -539 0
1412 -542 0
1412 -878 0
1412 -950 0
1413 -889 -1412 0
-1413 889 0
-1413 1412 0
-1414 274 1406 0
1414 -274 0
1414 -1406 0
1415 -532 -1414 0
-1415 532 0
-1415 1414 0
-1416 841 367 377 1415 537 539 542 878 950 0
1416 -841 0
1416 -367 0
1416 -377 0
1416 -1415 0
1416 -537 0
1416 -539 0
1416 -542 0
1416 -878 0
1416 -950 0
1417 -909 -1416 0
-1417 909 0
-1417 1416 0
1418 -873 -951 0
-1418 873 0
-1418 951 0
-1419 183 1418 318 319 0
1419 -183 0
1419 -1418 0
1419 -318 0
1419 -319 0
1420 -185 -1419 0
-1420 185 0
-1420 1419 0
-1421 190 1417 1420 186 0
1421 -190 0
1421 -1417 0
1421 -1420 0
1421 -186 0
1422 -192 -1421 0
-1422 192 0
-1422 1421 0
1423 -257 -1419 0
-1423 257 0
-1423 1419 0
1424 -873 -956 0
-1424 873 0
-1424 956 0
-1425 183 1424 318 319 0
1425 -183 0
1425 -1424 0
1425 -318 0
1425 -319 0
1426 -185 -1425 0
-1426 185 0
-1426 1425 0
-1427 190 957 1426 186 0
1427 -190 0
1427 -957 0
1427 -1426 0
1427 -186 0
1428 -272 -1427 0
-1428 272 0
-1428 1427 0
-1429 274 1423 1428 0
1429 -274 0
1429 -1423 0
1429 -1428 0
1430 -276 -1429 0
-1430 276 0
-1430 1429 0
1431 -928 -1412 0
-1431 928 0
-1431 1412 0
-1432 279 1431 0
1432 -279 0
1432 -1431 0
1433 -278 -1432 0
-1433 278 0
-1433 1432 0
-1434 364 1413 1422 1430 1433 394 0
1434 -364 0
1434 -1413 0
1434 -1422 0
1434 -1430 0
1434 -1433 0
1434 -394 0
1435 -397 -1434 0
-1435 397 0
-1435 1434 0
1436 -873 -971 0
-1436 873 0
-1436 971 0
1437 -393 -965 0
-1437 393 0
-1437 965 0
-1438 183 1436 1437 318 319 0
1438 -183 0
1438 -1436 0
1438 -1437 0
1438 -318 0
1438 -319 0
1439 -307 -1438 0
-1439 307 0
-1439 1438 0
1440 -276 -1414 0
-1440 276 0
-1440 1414 0
-1441 364 1440 277 394 0
1441 -364 0
1441 -1440 0
1441 -277 0
1441 -394 0
1442 -366 -1441 0
-1442 366 0
-1442 1441 0
-1443 183 1217 318 319 0
1443 -183 0
1443 -1217 0
1443 -318 0
1443 -319 0
1444 -257 -1443 0
-1444 257 0
-1444 1443 0
-1445 274 1444 0
1445 -274 0
1445 -1444 0
1446 -532 -1445 0
-1446 532 0
-1446 1445 0
1447 -747 -1441 0
-1447 747 0
-1447 1441 0
-1448 749 1447 0
1448 -749 0
1448 -1447 0
1449 -751 -1448 0
-1449 751 0
-1449 1448 0
-1450 841 1442 367 377 1446 537 539 542 1449 950 0
1450 -841 0
1450 -1442 0
1450 -367 0
1450 -377 0
1450 -1446 0
1450 -537 0
1450 -539 0
1450 -542 0
1450 -1449 0
1450 -950 0
1451 -909 -1450 0
-1451 909 0
-1451 1450 0
-1452 364 952 1231 964 394 0
1452 -364 0
1452 -952 0
1452 -1231 0
1452 -964 0
1452 -394 0
1453 -393 -1452 0
-1453 393 0
-1453 1452 0
-1454 183 1436 1453 318 319 0
1454 -183 0
1454 -1436 0
1454 -1453 0
1454 -318 0
1454 -319 0
1455 -185 -1454 0
-1455 185 0
-1455 1454 0
-1456 190 1451 1455 186 0
1456 -190 0
1456 -1451 0
1456 -1455 0
1456 -186 0
1457 -195 -1456 0
-1457 195 0
-1457 1456 0
-1458 15 1435 1439 1457 0
1458 -15 0
1458 -1435 0
1458 -1439 0
1458 -1457 0
1459 -14 -1458 0
-1459 14 0
-1459 1458 0
1460 -192 -1408 0
-1460 192 0
-1460 1408 0
1461 -276 -1410 0
-1461 276 0
-1461 1410 0
-1462 364 1460 1461 277 394 0
1462 -364 0
1462 -1460 0
1462 -1461 0
1462 -277 0
1462 -394 0
1463 -366 -1462 0
-1463 366 0
-1463 1462 0
1464 -185 -1443 0
-1464 185 0
-1464 1443 0
-1465 190 1464 186 0
1465 -190 0
1465 -1464 0
1465 -186 0
1466 -272 -1465 0
-1466 272 0
-1466 1465 0
-1467 274 1444 1466 0
1467 -274 0
1467 -1444 0
1467 -1466 0
1468 -532 -1467 0
-1468 532 0
-1468 1467 0
1469 -397 -1462 0
-1469 397 0
-1469 1462 0
1470 -307 -691 0
-1470 307 0
-1470 691 0
1471 -185 -691 0
-1471 185 0
-1471 691 0
-1472 190 1471 186 0
1472 -190 0
1472 -1471 0
1472 -186 0
1473 -195 -1472 0
-1473 195 0
-1473 1472 0
-1474 15 1469 1470 1473 0
1474 -15 0
1474 -1469 0
1474 -1470 0
1474 -1473 0
1475 -743 -1474 0
-1475 743 0
-1475 1474 0
1476 -747 -1462 0
-1476 747 0
-1476 1462 0
-1477 749 1476 0
1477 -749 0
1477 -1476 0
1478 -751 -1477 0
-1478 751 0
-1478 1477 0
-1479 841 1463 367 377 1468 537 539 542 1475 1478 950 0
1479 -841 0
1479 -1463 0
1479 -367 0
1479 -377 0
1479 -1468 0
1479 -537 0
1479 -539 0
1479 -542 0
1479 -1475 0
1479 -1478 0
1479 -950 0
1480 -941 -1479 0
-1480 941 0
-1480 1479 0
1481 -307 -320 0
-1481 307 0
-1481 320 0
1482 -195 -1408 0
-1482 195 0
-1482 1408 0
-1483 15 1481 1482 0
1483 -15 0
1483 -1481 0
1483 -1482 0
1484 -743 -1483 0
-1484 743 0
-1484 1483 0
-1485 841 367 377 1411 537 539 542 1484 878 950 0
1485 -841 0
1485 -367 0
1485 -377 0
1485 -1411 0
1485 -537 0
1485 -539 0
1485 -542 0
1485 -1484 0
1485 -878 0
1485 -950 0
1486 -889 -1485 0
-1486 889 0
-1486 1485 0
-1487 15 1481 0
1487 -15 0
1487 -1481 0
1488 -743 -1487 0
-1488 743 0
-1488 1487 0
-1489 841 367 377 1415 537 539 542 1488 878 950 0
1489 -841 0
1489 -367 0
1489 -377 0
1489 -1415 0
1489 -537 0
1489 -539 0
1489 -542 0
1489 -1488 0
1489 -878 0
1489 -950 0
1490 -909 -1489 0
-1490 909 0
-1490 1489 0
1491 -873 -982 0
-1491 873 0
-1491 982 0
-1492 183 1491 318 319 0
1492 -183 0
1492 -1491 0
1492 -318 0
1492 -319 0
1493 -185 -1492 0
-1493 185 0
-1493 1492 0
-1494 190 1490 1493 186 0
1494 -190 0
1494 -1490 0
1494 -1493 0
1494 -186 0
1495 -192 -1494 0
-1495 192 0
-1495 1494 0
1496 -873 -992 0
-1496 873 0
-1496 992 0
-1497 183 1496 318 319 0
1497 -183 0
1497 -1496 0
1497 -318 0
1497 -319 0
1498 -257 -1497 0
-1498 257 0
-1498 1497 0
-1499 841 367 377 537 539 542 1488 878 950 0
1499 -841 0
1499 -367 0
1499 -377 0
1499 -537 0
1499 -539 0
1499 -542 0
1499 -1488 0
1499 -878 0
1499 -950 0
1500 -909 -1499 0
-1500 909 0
-1500 1499 0
1501 -873 -986 0
-1501 873 0
-1501 986 0
-1502 183 1501 318 319 0
1502 -183 0
1502 -1501 0
1502 -318 0
1502 -319 0
1503 -185 -1502 0
-1503 185 0
-1503 1502 0
-1504 190 1500 1503 186 0
1504 -190 0
1504 -1500 0
1504 -1503 0
1504 -186 0
1505 -272 -1504 0
-1505 272 0
-1505 1504 0
-1506 274 1498 1505 0
1506 -274 0
1506 -1498 0
1506 -1505 0
1507 -276 -1506 0
-1507 276 0
-1507 1506 0
1508 -928 -1485 0
-1508 928 0
-1508 1485 0
-1509 279 1508 0
1509 -279 0
1509 -1508 0
1510 -278 -1509 0
-1510 278 0
-1510 1509 0
-1511 364 1486 1495 1507 1510 394 0
1511 -364 0
1511 -1486 0
1511 -1495 0
1511 -1507 0
1511 -1510 0
1511 -394 0
1512 -401 -1511 0
-1512 401 0
-1512 1511 0
-1513 25 1480 1512 0
1513 -25 0
1513 -1480 0
1513 -1512 0
1514 -24 -1513 0
-1514 24 0
-1514 1513 0
-1515 38 1405 1459 16 18 21 1514 1335 31 33 35 0
1515 -38 0
1515 -1405 0
1515 -1459 0
1515 -16 0
1515 -18 0
1515 -21 0
1515 -1514 0
1515 -1335 0
1515 -31 0
1515 -33 0
1515 -35 0
1516 -40 -1515 0
-1516 40 0
-1516 1515 0
-1517 42 1516 0
1517 -42 0
1517 -1516 0
1518 -44 -1517 0
-1518 44 0
-1518 1517 0
1519 -110 -148 0
-1519 110 0
-1519 148 0
-1520 183 1240 1241 1519 319 0
1520 -183 0
1520 -1240 0
1520 -1241 0
1520 -1519 0
1520 -319 0
1521 -303 -1520 0
-1521 303 0
-1521 1520 0
-1522 12 1521 0
1522 -12 0
1522 -1521 0
1523 -11 -1522 0
-1523 11 0
-1523 1522 0
-1524 183 1519 319 0
1524 -183 0
1524 -1519 0
1524 -319 0
1525 -257 -1524 0
-1525 257 0
-1525 1524 0
1526 -185 -1524 0
-1526 185 0
-1526 1524 0
-1527 190 1526 186 0
1527 -190 0
1527 -1526 0
1527 -186 0
1528 -272 -1527 0
-1528 272 0
-1528 1527 0
-1529 274 1525 1528 0
1529 -274 0
1529 -1525 0
1529 -1528 0
1530 -532 -1529 0
-1530 532 0
-1530 1529 0
-1531 841 367 377 1530 537 539 542 878 950 0
1531 -841 0
1531 -367 0
1531 -377 0
1531 -1530 0
1531 -537 0
1531 -539 0
1531 -542 0
1531 -878 0
1531 -950 0
1532 -889 -1531 0
-1532 889 0
-1532 1531 0
-1533 274 1525 0
1533 -274 0
1533 -1525 0
1534 -532 -1533 0
-1534 532 0
-1534 1533 0
-1535 841 367 377 1534 537 539 542 878 950 0
1535 -841 0
1535 -367 0
1535 -377 0
1535 -1534 0
1535 -537 0
1535 -539 0
1535 -542 0
1535 -878 0
1535 -950 0
1536 -909 -1535 0
-1536 909 0
-1536 1535 0
-1537 183 1418 1519 319 0
1537 -183 0
1537 -1418 0
1537 -1519 0
1537 -319 0
1538 -185 -1537 0
-1538 185 0
-1538 1537 0
-1539 190 1536 1538 186 0
1539 -190 0
1539 -1536 0
1539 -1538 0
1539 -186 0
1540 -192 -1539 0
-1540 192 0
-1540 1539 0
-1541 183 1424 1519 319 0
1541 -183 0
1541 -1424 0
1541 -1519 0
1541 -319 0
1542 -257 -1541 0
-1542 257 0
-1542 1541 0
1543 -185 -1541 0
-1543 185 0
-1543 1541 0
-1544 190 957 1543 186 0
1544 -190 0
1544 -957 0
1544 -1543 0
1544 -186 0
1545 -272 -1544 0
-1545 272 0
-1545 1544 0
-1546 274 1542 1545 0
1546 -274 0
1546 -1542 0
1546 -1545 0
1547 -276 -1546 0
-1547 276 0
-1547 1546 0
1548 -928 -1531 0
-1548 928 0
-1548 1531 0
-1549 279 1548 0
1549 -279 0
1549 -1548 0
1550 -278 -1549 0
-1550 278 0
-1550 1549 0
-1551 364 1532 1540 1547 1550 394 0
1551 -364 0
1551 -1532 0
1551 -1540 0
1551 -1547 0
1551 -1550 0
1551 -394 0
1552 -397 -1551 0
-1552 397 0
-1552 1551 0
-1553 183 1436 1437 1519 319 0
1553 -183 0
1553 -1436 0
1553 -1437 0
1553 -1519 0
1553 -319 0
1554 -307 -1553 0
-1554 307 0
-1554 1553 0
1555 -276 -1533 0
-1555 276 0
-1555 1533 0
-1556 364 1555 277 394 0
1556 -364 0
1556 -1555 0
1556 -277 0
1556 -394 0
1557 -366 -1556 0
-1557 366 0
-1557 1556 0
-1558 183 1217 1519 319 0
1558 -183 0
1558 -1217 0
1558 -1519 0
1558 -319 0
1559 -257 -1558 0
-1559 257 0
-1559 1558 0
-1560 274 1559 0
1560 -274 0
1560 -1559 0
1561 -532 -1560 0
-1561 532 0
-1561 1560 0
1562 -747 -1556 0
-1562 747 0
-1562 1556 0
-1563 749 1562 0
1563 -749 0
1563 -1562 0
1564 -751 -1563 0
-1564 751 0
-1564 1563 0
-1565 841 1557 367 377 1561 537 539 542 1564 950 0
1565 -841 0
1565 -1557 0
1565 -367 0
1565 -377 0
1565 -1561 0
1565 -537 0
1565 -539 0
1565 -542 0
1565 -1564 0
1565 -950 0
1566 -909 -1565 0
-1566 909 0
-1566 1565 0
-1567 183 1436 1453 1519 319 0
1567 -183 0
1567 -1436 0
1567 -1453 0
1567 -1519 0
1567 -319 0
1568 -185 -1567 0
-1568 185 0
-1568 1567 0
-1569 190 1566 1568 186 0
1569 -190 0
1569 -1566 0
1569 -1568 0
1569 -186 0
1570 -195 -1569 0
-1570 195 0
-1570 1569 0
-1571 15 1552 1554 1570 0
1571 -15 0
1571 -1552 0
1571 -1554 0
1571 -1570 0
1572 -14 -1571 0
-1572 14 0
-1572 1571 0
1573 -192 -1527 0
-1573 192 0
-1573 1527 0
1574 -276 -1529 0
-1574 276 0
-1574 1529 0
-1575 364 1573 1574 277 394 0
1575 -364 0
1575 -1573 0
1575 -1574 0
1575 -277 0
1575 -394 0
1576 -366 -1575 0
-1576 366 0
-1576 1575 0
1577 -185 -1558 0
-1577 185 0
-1577 1558 0
-1578 190 1577 186 0
1578 -190 0
1578 -1577 0
1578 -186 0
1579 -272 -1578 0
-1579 272 0
-1579 1578 0
-1580 274 1559 1579 0
1580 -274 0
1580 -1559 0
1580 -1579 0
1581 -532 -1580 0
-1581 532 0
-1581 1580 0
1582 -397 -1575 0
-1582 397 0
-1582 1575 0
-1583 183 682 1519 319 0
1583 -183 0
1583 -682 0
1583 -1519 0
1583 -319 0
1584 -307 -1583 0
-1584 307 0
-1584 1583 0
1585 -185 -1583 0
-1585 185 0
-1585 1583 0
-1586 190 1585 186 0
1586 -190 0
1586 -1585 0
1586 -186 0
1587 -195 -1586 0
-1587 195 0
-1587 1586 0
-1588 15 1582 1584 1587 0
1588 -15 0
1588 -1582 0
1588 -1584 0
1588 -1587 0
1589 -743 -1588 0
-1589 743 0
-1589 1588 0
1590 -747 -1575 0
-1590 747 0
-1590 1575 0
-1591 749 1590 0
1591 -749 0
1591 -1590 0
1592 -751 -1591 0
-1592 751 0
-1592 1591 0
-1593 841 1576 367 377 1581 537 539 542 1589 1592 950 0
1593 -841 0
1593 -1576 0
1593 -367 0
1593 -377 0
1593 -1581 0
1593 -537 0
1593 -539 0
1593 -542 0
1593 -1589 0
1593 -1592 0
1593 -950 0
1594 -941 -1593 0
-1594 941 0
-1594 1593 0
1595 -307 -1524 0
-1595 307 0
-1595 1524 0
1596 -195 -1527 0
-1596 195 0
-1596 1527 0
-1597 15 1595 1596 0
1597 -15 0
1597 -1595 0
1597 -1596 0
1598 -743 -1597 0
-1598 743 0
-1598 1597 0
-1599 841 367 377 1530 537 539 542 1598 878 950 0
1599 -841 0
1599 -367 0
1599 -377 0
1599 -1530 0
1599 -537 0
1599 -539 0
1599 -542 0
1599 -1598 0
1599 -878 0
1599 -950 0
1600 -889 -1599 0
-1600 889 0
-1600 1599 0
-1601 841 367 377 1534 537 539 542 1598 878 950 0
1601 -841 0
1601 -367 0
1601 -377 0
1601 -1534 0
1601 -537 0
1601 -539 0
1601 -542 0
1601 -1598 0
1601 -878 0
1601 -950 0
1602 -909 -1601 0
-1602 909 0
-1602 1601 0
-1603 183 1491 1519 319 0
1603 -183 0
1603 -1491 0
1603 -1519 0
1603 -319 0
1604 -185 -1603 0
-1604 185 0
-1604 1603 0
-1605 190 1602 1604 186 0
1605 -190 0
1605 -1602 0
1605 -1604 0
1605 -186 0
1606 -192 -1605 0
-1606 192 0
-1606 1605 0
-1607 183 1496 1519 319 0
1607 -183 0
1607 -1496 0
1607 -1519 0
1607 -319 0
1608 -257 -1607 0
-1608 257 0
-1608 1607 0
-1609 841 367 377 537 539 542 1598 878 950 0
1609 -841 0
1609 -367 0
1609 -377 0
1609 -537 0
1609 -539 0
1609 -542 0
1609 -1598 0
1609 -878 0
1609 -950 0
1610 -909 -1609 0
-1610 909 0
-1610 1609 0
-1611 183 1501 1519 319 0
1611 -183 0
1611 -1501 0
1611 -1519 0
1611 -319 0
1612 -185 -1611 0
-1612 185 0
-1612 1611 0
-1613 190 1610 1612 186 0
1613 -190 0
1613 -1610 0
1613 -1612 0
1613 -186 0
1614 -272 -1613 0
-1614 272 0
-1614 1613 0
-1615 274 1608 1614 0
1615 -274 0
1615 -1608 0
1615 -1614 0
1616 -276 -1615 0
-1616 276 0
-1616 1615 0
1617 -928 -1599 0
-1617 928 0
-1617 1599 0
-1618 279 1617 0
1618 -279 0
1618 -1617 0
1619 -278 -1618 0
-1619 278 0
-1619 1618 0
-1620 364 1600 1606 1616 1619 394 0
1620 -364 0
1620 -1600 0
1620 -1606 0
1620 -1616 0
1620 -1619 0
1620 -394 0
1621 -401 -1620 0
-1621 401 0
-1621 1620 0
-1622 25 1594 1621 0
1622 -25 0
1622 -1594 0
1622 -1621 0
1623 -24 -1622 0
-1623 24 0
-1623 1622 0
1624 -119 -148 0
-1624 119 0
-1624 148 0
-1625 38 1523 1572 16 18 21 1623 1624 31 33 35 0
1625 -38 0
1625 -1523 0
1625 -1572 0
1625 -16 0
1625 -18 0
1625 -21 0
1625 -1623 0
1625 -1624 0
1625 -31 0
1625 -33 0
1625 -35 0
1626 -75 -1625 0
-1626 75 0
-1626 1625 0
-1627 77 149 1 1626 0
1627 -77 0
1627 -149 0
1627 -1 0
1627 -1626 0
1628 -88 -1627 0
-1628 88 0
-1628 1627 0
1629 -257 -1425 0
-1629 257 0
-1629 1425 0
-1630 274 1629 1428 0
1630 -274 0
1630 -1629 0
1630 -1428 0
1631 -276 -1630 0
-1631 276 0
-1631 1630 0
-1632 364 1413 1422 1631 1433 394 0
1632 -364 0
1632 -1413 0
1632 -1422 0
1632 -1631 0
1632 -1433 0
1632 -394 0
1633 -397 -1632 0
-1633 397 0
-1633 1632 0
-1634 15 1633 1439 1457 0
1634 -15 0
1634 -1633 0
1634 -1439 0
1634 -1457 0
1635 -14 -1634 0
-1635 14 0
-1635 1634 0
-1636 38 1405 1635 16 18 21 1514 1335 31 33 35 0
1636 -38 0
1636 -1405 0
1636 -1635 0
1636 -16 0
1636 -18 0
1636 -21 0
1636 -1514 0
1636 -1335 0
1636 -31 0
1636 -33 0
1636 -35 0
1637 -48 -1636 0
-1637 48 0
-1637 1636 0
-1638 50 1637 0
1638 -50 0
1638 -1637 0
1639 -52 -1638 0
-1639 52 0
-1639 1638 0
-1640 54 1402 4 7 1518 1628 45 1639 0
1640 -54 0
1640 -1402 0
1640 -4 0
1640 -7 0
1640 -1518 0
1640 -1628 0
1640 -45 0
1640 -1639 0
1641 -1642 -1640 0
-1641 1642 0
-1641 1640 0
1643 -873 -1116 0
-1643 873 0
-1643 1116 0
1644 -393 -1133 0
-1644 393 0
-1644 1133 0
-1645 183 1643 1644 683 686 0
1645 -183 0
1645 -1643 0
1645 -1644 0
1645 -683 0
1645 -686 0
1646 -303 -1645 0
-1646 303 0
-1646 1645 0
-1647 12 1646 0
1647 -12 0
1647 -1646 0
1648 -11 -1647 0
-1648 11 0
-1648 1647 0
1649 -532 -703 0
-1649 532 0
-1649 703 0
-1650 54 349 4 7 57 151 45 58 0
1650 -54 0
1650 -349 0
1650 -4 0
1650 -7 0
1650 -57 0
1650 -151 0
1650 -45 0
1650 -58 0
1651 -65 -1650 0
-1651 65 0
-1651 1650 0
-1652 28 1651 0
1652 -28 0
1652 -1651 0
1653 -839 -1652 0
-1653 839 0
-1653 1652 0
-1654 841 367 377 1649 537 539 542 878 1653 0
1654 -841 0
1654 -367 0
1654 -377 0
1654 -1649 0
1654 -537 0
1654 -539 0
1654 -542 0
1654 -878 0
1654 -1653 0
1655 -889 -1654 0
-1655 889 0
-1655 1654 0
-1656 274 701 0
1656 -274 0
1656 -701 0
1657 -532 -1656 0
-1657 532 0
-1657 1656 0
-1658 841 367 377 1657 537 539 542 878 1653 0
1658 -841 0
1658 -367 0
1658 -377 0
1658 -1657 0
1658 -537 0
1658 -539 0
1658 -542 0
1658 -878 0
1658 -1653 0
1659 -909 -1658 0
-1659 909 0
-1659 1658 0
1660 -873 -1094 0
-1660 873 0
-1660 1094 0
-1661 183 1660 683 686 0
1661 -183 0
1661 -1660 0
1661 -683 0
1661 -686 0
1662 -185 -1661 0
-1662 185 0
-1662 1661 0
-1663 190 1659 1662 186 0
1663 -190 0
1663 -1659 0
1663 -1662 0
1663 -186 0
1664 -192 -1663 0
-1664 192 0
-1664 1663 0
1665 -257 -1661 0
-1665 257 0
-1665 1661 0
-1666 841 367 377 537 539 542 878 1653 0
1666 -841 0
1666 -367 0
1666 -377 0
1666 -537 0
1666 -539 0
1666 -542 0
1666 -878 0
1666 -1653 0
1667 -909 -1666 0
-1667 909 0
-1667 1666 0
1668 -873 -1099 0
-1668 873 0
-1668 1099 0
-1669 183 1668 683 686 0
1669 -183 0
1669 -1668 0
1669 -683 0
1669 -686 0
1670 -185 -1669 0
-1670 185 0
-1670 1669 0
-1671 190 1667 1670 186 0
1671 -190 0
1671 -1667 0
1671 -1670 0
1671 -186 0
1672 -272 -1671 0
-1672 272 0
-1672 1671 0
-1673 274 1665 1672 0
1673 -274 0
1673 -1665 0
1673 -1672 0
1674 -276 -1673 0
-1674 276 0
-1674 1673 0
1675 -928 -1654 0
-1675 928 0
-1675 1654 0
-1676 279 1675 0
1676 -279 0
1676 -1675 0
1677 -278 -1676 0
-1677 278 0
-1677 1676 0
-1678 364 1655 1664 1674 1677 394 0
1678 -364 0
1678 -1655 0
1678 -1664 0
1678 -1674 0
1678 -1677 0
1678 -394 0
1679 -397 -1678 0
-1679 397 0
-1679 1678 0
1680 -873 -1110 0
-1680 873 0
-1680 1110 0
1681 -393 -1108 0
-1681 393 0
-1681 1108 0
-1682 183 1680 1681 683 686 0
1682 -183 0
1682 -1680 0
1682 -1681 0
1682 -683 0
1682 -686 0
1683 -307 -1682 0
-1683 307 0
-1683 1682 0
1684 -276 -1656 0
-1684 276 0
-1684 1656 0
-1685 364 1684 277 394 0
1685 -364 0
1685 -1684 0
1685 -277 0
1685 -394 0
1686 -366 -1685 0
-1686 366 0
-1686 1685 0
-1687 183 1217 683 686 0
1687 -183 0
1687 -1217 0
1687 -683 0
1687 -686 0
1688 -257 -1687 0
-1688 257 0
-1688 1687 0
-1689 274 1688 0
1689 -274 0
1689 -1688 0
1690 -532 -1689 0
-1690 532 0
-1690 1689 0
1691 -747 -1685 0
-1691 747 0
-1691 1685 0
-1692 749 1691 0
1692 -749 0
1692 -1691 0
1693 -751 -1692 0
-1693 751 0
-1693 1692 0
1694 -839 -732 0
-1694 839 0
-1694 732 0
-1695 841 1686 367 377 1690 537 539 542 1693 1694 0
1695 -841 0
1695 -1686 0
1695 -367 0
1695 -377 0
1695 -1690 0
1695 -537 0
1695 -539 0
1695 -542 0
1695 -1693 0
1695 -1694 0
1696 -909 -1695 0
-1696 909 0
-1696 1695 0
-1697 364 1095 1231 1107 394 0
1697 -364 0
1697 -1095 0
1697 -1231 0
1697 -1107 0
1697 -394 0
1698 -393 -1697 0
-1698 393 0
-1698 1697 0
-1699 183 1680 1698 683 686 0
1699 -183 0
1699 -1680 0
1699 -1698 0
1699 -683 0
1699 -686 0
1700 -185 -1699 0
-1700 185 0
-1700 1699 0
-1701 190 1696 1700 186 0
1701 -190 0
1701 -1696 0
1701 -1700 0
1701 -186 0
1702 -195 -1701 0
-1702 195 0
-1702 1701 0
-1703 15 1679 1683 1702 0
1703 -15 0
1703 -1679 0
1703 -1683 0
1703 -1702 0
1704 -14 -1703 0
-1704 14 0
-1704 1703 0
-1705 54 1243 4 7 57 151 45 58 0
1705 -54 0
1705 -1243 0
1705 -4 0
1705 -7 0
1705 -57 0
1705 -151 0
1705 -45 0
1705 -58 0
1706 -61 -1705 0
-1706 61 0
-1706 1705 0
-1707 20 1706 0
1707 -20 0
1707 -1706 0
1708 -19 -1707 0
-1708 19 0
-1708 1707 0
1709 -366 -705 0
-1709 366 0
-1709 705 0
1710 -185 -1687 0
-1710 185 0
-1710 1687 0
-1711 190 1710 186 0
1711 -190 0
1711 -1710 0
1711 -186 0
1712 -272 -1711 0
-1712 272 0
-1712 1711 0
-1713 274 1688 1712 0
1713 -274 0
1713 -1688 0
1713 -1712 0
1714 -532 -1713 0
-1714 532 0
-1714 1713 0
1715 -397 -705 0
-1715 397 0
-1715 705 0
1716 -307 -687 0
-1716 307 0
-1716 687 0
1717 -185 -687 0
-1717 185 0
-1717 687 0
-1718 190 1717 186 0
1718 -190 0
1718 -1717 0
1718 -186 0
1719 -195 -1718 0
-1719 195 0
-1719 1718 0
-1720 15 1715 1716 1719 0
1720 -15 0
1720 -1715 0
1720 -1716 0
1720 -1719 0
1721 -743 -1720 0
-1721 743 0
-1721 1720 0
1722 -747 -705 0
-1722 747 0
-1722 705 0
-1723 749 1722 0
1723 -749 0
1723 -1722 0
1724 -751 -1723 0
-1724 751 0
-1724 1723 0
-1725 841 1709 367 377 1714 537 539 542 1721 1724 1694 0
1725 -841 0
1725 -1709 0
1725 -367 0
1725 -377 0
1725 -1714 0
1725 -537 0
1725 -539 0
1725 -542 0
1725 -1721 0
1725 -1724 0
1725 -1694 0
1726 -941 -1725 0
-1726 941 0
-1726 1725 0
1727 -307 -697 0
-1727 307 0
-1727 697 0
1728 -195 -699 0
-1728 195 0
-1728 699 0
-1729 15 1727 1728 0
1729 -15 0
1729 -1727 0
1729 -1728 0
1730 -743 -1729 0
-1730 743 0
-1730 1729 0
-1731 841 367 377 1649 537 539 542 1730 878 1653 0
1731 -841 0
1731 -367 0
1731 -377 0
1731 -1649 0
1731 -537 0
1731 -539 0
1731 -542 0
1731 -1730 0
1731 -878 0
1731 -1653 0
1732 -889 -1731 0
-1732 889 0
-1732 1731 0
-1733 15 1727 0
1733 -15 0
1733 -1727 0
1734 -743 -1733 0
-1734 743 0
-1734 1733 0
-1735 841 367 377 1657 537 539 542 1734 878 1653 0
1735 -841 0
1735 -367 0
1735 -377 0
1735 -1657 0
1735 -537 0
1735 -539 0
1735 -542 0
1735 -1734 0
1735 -878 0
1735 -1653 0
1736 -909 -1735 0
-1736 909 0
-1736 1735 0
1737 -873 -1120 0
-1737 873 0
-1737 1120 0
-1738 183 1737 683 686 0
1738 -183 0
1738 -1737 0
1738 -683 0
1738 -686 0
1739 -185 -1738 0
-1739 185 0
-1739 1738 0
-1740 190 1736 1739 186 0
1740 -190 0
1740 -1736 0
1740 -1739 0
1740 -186 0
1741 -192 -1740 0
-1741 192 0
-1741 1740 0
1742 -873 -1118 0
-1742 873 0
-1742 1118 0
-1743 183 1742 683 686 0
1743 -183 0
1743 -1742 0
1743 -683 0
1743 -686 0
1744 -257 -1743 0
-1744 257 0
-1744 1743 0
-1745 841 367 377 537 539 542 1734 878 1653 0
1745 -841 0
1745 -367 0
1745 -377 0
1745 -537 0
1745 -539 0
1745 -542 0
1745 -1734 0
1745 -878 0
1745 -1653 0
1746 -909 -1745 0
-1746 909 0
-1746 1745 0
1747 -873 -1124 0
-1747 873 0
-1747 1124 0
-1748 183 1747 683 686 0
1748 -183 0
1748 -1747 0
1748 -683 0
1748 -686 0
1749 -185 -1748 0
-1749 185 0
-1749 1748 0
-1750 190 1746 1749 186 0
1750 -190 0
1750 -1746 0
1750 -1749 0
1750 -186 0
1751 -272 -1750 0
-1751 272 0
-1751 1750 0
-1752 274 1744 1751 0
1752 -274 0
1752 -1744 0
1752 -1751 0
1753 -276 -1752 0
-1753 276 0
-1753 1752 0
1754 -928 -1731 0
-1754 928 0
-1754 1731 0
-1755 279 1754 0
1755 -279 0
1755 -1754 0
1756 -278 -1755 0
-1756 278 0
-1756 1755 0
-1757 364 1732 1741 1753 1756 394 0
1757 -364 0
1757 -1732 0
1757 -1741 0
1757 -1753 0
1757 -1756 0
1757 -394 0
1758 -401 -1757 0
-1758 401 0
-1758 1757 0
-1759 25 1726 1758 0
1759 -25 0
1759 -1726 0
1759 -1758 0
1760 -24 -1759 0
-1760 24 0
-1760 1759 0
-1761 54 1302 4 7 57 45 58 0
1761 -54 0
1761 -1302 0
1761 -4 0
1761 -7 0
1761 -57 0
1761 -45 0
1761 -58 0
1762 -56 -1761 0
-1762 56 0
-1762 1761 0
-1763 77 1 1762 0
1763 -77 0
1763 -1 0
1763 -1762 0
1764 -79 -1763 0
-1764 79 0
-1764 1763 0
-1765 54 1308 4 7 57 159 45 58 0
1765 -54 0
1765 -1308 0
1765 -4 0
1765 -7 0
1765 -57 0
1765 -159 0
1765 -45 0
1765 -58 0
1766 -65 -1765 0
-1766 65 0
-1766 1765 0
-1767 28 1766 0
1767 -28 0
1767 -1766 0
1768 -96 -1767 0
-1768 96 0
-1768 1767 0
-1769 98 1764 1768 0
1769 -98 0
1769 -1764 0
1769 -1768 0
1770 -100 -1769 0
-1770 100 0
-1770 1769 0
1771 -102 -1767 0
-1771 102 0
-1771 1767 0
-1772 104 1770 1771 0
1772 -104 0
1772 -1770 0
1772 -1771 0
1773 -106 -1772 0
-1773 106 0
-1773 1772 0
-1774 108 1773 0
1774 -108 0
1774 -1773 0
1775 -119 -1774 0
-1775 119 0
-1775 1774 0
-1776 54 1321 4 7 57 151 45 58 0
1776 -54 0
1776 -1321 0
1776 -4 0
1776 -7 0
1776 -57 0
1776 -151 0
1776 -45 0
1776 -58 0
1777 -65 -1776 0
-1777 65 0
-1777 1776 0
-1778 28 1777 0
1778 -28 0
1778 -1777 0
1779 -27 -1778 0
-1779 27 0
-1779 1778 0
-1780 30 1779 0
1780 -30 0
1780 -1779 0
1781 -32 -1780 0
-1781 32 0
-1781 1780 0
1782 -36 -1778 0
-1782 36 0
-1782 1778 0
1783 -72 -1705 0
-1783 72 0
-1783 1705 0
-1784 38 1648 1704 16 1708 21 1760 1775 1781 33 1782 1783 0
1784 -38 0
1784 -1648 0
1784 -1704 0
1784 -16 0
1784 -1708 0
1784 -21 0
1784 -1760 0
1784 -1775 0
1784 -1781 0
1784 -33 0
1784 -1782 0
1784 -1783 0
1785 -1786 -1784 0
-1785 1786 0
-1785 1784 0
-1787 1788 842 1142 1333 1641 1785 0
1787 -1788 0
1787 -842 0
1787 -1142 0
1787 -1333 0
1787 -1641 0
1787 -1785 0
1789 -1787 -1790 0
-1789 1787 0
-1789 1790 0
1789 0
