c BC-S1.2
p cnf 1063 3642
1 -2 -3 0
-1 2 0
-1 3 0
4 -5 -6 0
-4 5 0
-4 6 0
7 -8 -9 0
-7 8 0
-7 9 0
10 -11 -12 0
-10 11 0
-10 12 0
13 -14 -3 0
-13 14 0
-13 3 0
15 -16 -17 0
-15 16 0
-15 17 0
-18 19 15 0
18 -19 0
18 -15 0
20 -21 -18 0
-20 21 0
-20 18 0
22 -23 -24 0
-22 23 0
-22 24 0
25 -26 -27 0
-25 26 0
-25 27 0
28 -29 -6 0
-28 29 0
-28 6 0
30 -31 -32 0
-30 31 0
-30 32 0
-33 34 30 0
33 -34 0
33 -30 0
35 -36 -33 0
-35 36 0
-35 33 0
37 -38 -24 0
-37 38 0
-37 24 0
-39 40 37 0
39 -40 0
39 -37 0
41 -42 -39 0
-41 42 0
-41 39 0
-43 44 22 25 28 35 41 0
43 -44 0
43 -22 0
43 -25 0
43 -28 0
43 -35 0
43 -41 0
45 -46 -43 0
-45 46 0
-45 43 0
-47 48 20 45 0
47 -48 0
47 -20 0
47 -45 0
49 -50 -47 0
-49 50 0
-49 47 0
-51 52 49 0
51 -52 0
51 -49 0
53 -54 -51 0
-53 54 0
-53 51 0
-55 56 10 13 53 0
55 -56 0
55 -10 0
55 -13 0
55 -53 0
57 -58 -55 0
-57 58 0
-57 55 0
-59 60 57 0
59 -60 0
59 -57 0
61 -62 -59 0
-61 62 0
-61 59 0
63 -64 -33 0
-63 64 0
-63 33 0
65 -66 -60 0
-65 66 0
-65 60 0
-67 17 65 0
67 -17 0
67 -65 0
68 -16 -67 0
-68 16 0
-68 67 0
-69 19 68 0
69 -19 0
69 -68 0
70 -21 -69 0
-70 21 0
-70 69 0
-71 48 70 45 0
71 -48 0
71 -70 0
71 -45 0
72 -50 -71 0
-72 50 0
-72 71 0
-73 52 72 0
73 -52 0
73 -72 0
74 -54 -73 0
-74 54 0
-74 73 0
-75 56 10 13 74 0
75 -56 0
75 -10 0
75 -13 0
75 -74 0
76 -77 -75 0
-76 77 0
-76 75 0
-78 48 70 0
78 -48 0
78 -70 0
79 -50 -78 0
-79 50 0
-79 78 0
-80 52 79 0
80 -52 0
80 -79 0
81 -54 -80 0
-81 54 0
-81 80 0
-82 56 10 13 81 0
82 -56 0
82 -10 0
82 -13 0
82 -81 0
83 -84 -82 0
-83 84 0
-83 82 0
-85 24 83 0
85 -24 0
85 -83 0
86 -23 -85 0
-86 23 0
-86 85 0
87 -38 -85 0
-87 38 0
-87 85 0
-88 40 87 0
88 -40 0
88 -87 0
89 -42 -88 0
-89 42 0
-89 88 0
-90 44 76 86 25 28 35 89 0
90 -44 0
90 -76 0
90 -86 0
90 -25 0
90 -28 0
90 -35 0
90 -89 0
91 -92 -90 0
-91 92 0
-91 90 0
-93 94 61 63 91 0
93 -94 0
93 -61 0
93 -63 0
93 -91 0
95 -96 -93 0
-95 96 0
-95 93 0
-97 44 22 25 28 41 0
97 -44 0
97 -22 0
97 -25 0
97 -28 0
97 -41 0
98 -46 -97 0
-98 46 0
-98 97 0
-99 48 20 98 0
99 -48 0
99 -20 0
99 -98 0
100 -50 -99 0
-100 50 0
-100 99 0
-101 52 100 0
101 -52 0
101 -100 0
102 -54 -101 0
-102 54 0
-102 101 0
-103 56 10 13 102 0
103 -56 0
103 -10 0
103 -13 0
103 -102 0
104 -58 -103 0
-104 58 0
-104 103 0
-105 60 104 0
105 -60 0
105 -104 0
106 -62 -105 0
-106 62 0
-106 105 0
107 -77 -82 0
-107 77 0
-107 82 0
-108 44 107 86 25 28 89 0
108 -44 0
108 -107 0
108 -86 0
108 -25 0
108 -28 0
108 -89 0
109 -92 -108 0
-109 92 0
-109 108 0
-110 94 106 63 109 0
110 -94 0
110 -106 0
110 -63 0
110 -109 0
111 -112 -110 0
-111 112 0
-111 110 0
-113 34 111 30 0
113 -34 0
113 -111 0
113 -30 0
114 -115 -113 0
-114 115 0
-114 113 0
116 -54 -52 0
-116 54 0
-116 52 0
-117 56 10 13 116 0
117 -56 0
117 -10 0
117 -13 0
117 -116 0
118 -58 -117 0
-118 58 0
-118 117 0
-119 60 118 0
119 -60 0
119 -118 0
120 -62 -119 0
-120 62 0
-120 119 0
121 -77 -117 0
-121 77 0
-121 117 0
122 -84 -117 0
-122 84 0
-122 117 0
-123 24 122 0
123 -24 0
123 -122 0
124 -23 -123 0
-124 23 0
-124 123 0
125 -38 -123 0
-125 38 0
-125 123 0
-126 40 125 0
126 -40 0
126 -125 0
127 -42 -126 0
-127 42 0
-127 126 0
-128 44 121 124 25 28 35 127 0
128 -44 0
128 -121 0
128 -124 0
128 -25 0
128 -28 0
128 -35 0
128 -127 0
129 -92 -128 0
-129 92 0
-129 128 0
-130 94 120 63 129 0
130 -94 0
130 -120 0
130 -63 0
130 -129 0
131 -132 -130 0
-131 132 0
-131 130 0
133 -66 -119 0
-133 66 0
-133 119 0
-134 17 133 0
134 -17 0
134 -133 0
135 -16 -134 0
-135 16 0
-135 134 0
-136 19 131 135 0
136 -19 0
136 -131 0
136 -135 0
137 -21 -136 0
-137 21 0
-137 136 0
138 -139 -130 0
-138 139 0
-138 130 0
-140 94 120 63 0
140 -94 0
140 -120 0
140 -63 0
141 -112 -140 0
-141 112 0
-141 140 0
-142 34 141 30 0
142 -34 0
142 -141 0
142 -30 0
143 -36 -142 0
-143 36 0
-143 142 0
-144 44 121 124 25 28 138 143 127 0
144 -44 0
144 -121 0
144 -124 0
144 -25 0
144 -28 0
144 -138 0
144 -143 0
144 -127 0
145 -46 -144 0
-145 46 0
-145 144 0
-146 48 137 145 0
146 -48 0
146 -137 0
146 -145 0
147 -148 -146 0
-147 148 0
-147 146 0
149 -62 -60 0
-149 62 0
-149 60 0
-150 94 149 63 0
150 -94 0
150 -149 0
150 -63 0
151 -132 -150 0
-151 132 0
-151 150 0
-152 19 151 68 0
152 -19 0
152 -151 0
152 -68 0
153 -21 -152 0
-153 21 0
-153 152 0
-154 48 153 0
154 -48 0
154 -153 0
155 -50 -154 0
-155 50 0
-155 154 0
-156 52 155 0
156 -52 0
156 -155 0
157 -54 -156 0
-157 54 0
-157 156 0
-158 56 10 13 157 0
158 -56 0
158 -10 0
158 -13 0
158 -157 0
159 -77 -158 0
-159 77 0
-159 158 0
160 -84 -158 0
-160 84 0
-160 158 0
-161 24 160 0
161 -24 0
161 -160 0
162 -23 -161 0
-162 23 0
-162 161 0
-163 94 61 63 0
163 -94 0
163 -61 0
163 -63 0
164 -139 -163 0
-164 139 0
-164 163 0
-165 48 20 0
165 -48 0
165 -20 0
166 -50 -165 0
-166 50 0
-166 165 0
-167 52 166 0
167 -52 0
167 -166 0
168 -54 -167 0
-168 54 0
-168 167 0
-169 56 10 13 168 0
169 -56 0
169 -10 0
169 -13 0
169 -168 0
170 -58 -169 0
-170 58 0
-170 169 0
-171 60 170 0
171 -60 0
171 -170 0
172 -62 -171 0
-172 62 0
-172 171 0
-173 94 172 63 0
173 -94 0
173 -172 0
173 -63 0
174 -112 -173 0
-174 112 0
-174 173 0
-175 34 174 30 0
175 -34 0
175 -174 0
175 -30 0
176 -36 -175 0
-176 36 0
-176 175 0
177 -38 -161 0
-177 38 0
-177 161 0
-178 40 177 0
178 -40 0
178 -177 0
179 -42 -178 0
-179 42 0
-179 178 0
-180 44 159 162 25 28 164 176 179 0
180 -44 0
180 -159 0
180 -162 0
180 -25 0
180 -28 0
180 -164 0
180 -176 0
180 -179 0
181 -182 -180 0
-181 182 0
-181 180 0
-183 184 1 4 7 95 114 147 181 0
183 -184 0
183 -1 0
183 -4 0
183 -7 0
183 -95 0
183 -114 0
183 -147 0
183 -181 0
185 -186 -183 0
-185 186 0
-185 183 0
-187 188 185 0
187 -188 0
187 -185 0
189 -190 -187 0
-189 190 0
-189 187 0
191 -192 -193 0
-191 192 0
-191 193 0
194 -195 -9 0
-194 195 0
-194 9 0
-196 197 189 191 194 0
196 -197 0
196 -189 0
196 -191 0
196 -194 0
198 -199 -196 0
-198 199 0
-198 196 0
200 -92 -43 0
-200 92 0
-200 43 0
-201 94 149 63 200 0
201 -94 0
201 -149 0
201 -63 0
201 -200 0
202 -96 -201 0
-202 96 0
-202 201 0
203 -92 -97 0
-203 92 0
-203 97 0
-204 94 149 63 203 0
204 -94 0
204 -149 0
204 -63 0
204 -203 0
205 -112 -204 0
-205 112 0
-205 204 0
-206 34 205 30 0
206 -34 0
206 -205 0
206 -30 0
207 -115 -206 0
-207 115 0
-207 206 0
208 -132 -201 0
-208 132 0
-208 201 0
-209 19 208 68 0
209 -19 0
209 -208 0
209 -68 0
210 -21 -209 0
-210 21 0
-210 209 0
211 -139 -150 0
-211 139 0
-211 150 0
212 -112 -150 0
-212 112 0
-212 150 0
-213 34 212 30 0
213 -34 0
213 -212 0
213 -30 0
214 -36 -213 0
-214 36 0
-214 213 0
-215 44 22 25 28 211 214 41 0
215 -44 0
215 -22 0
215 -25 0
215 -28 0
215 -211 0
215 -214 0
215 -41 0
216 -46 -215 0
-216 46 0
-216 215 0
-217 48 210 216 0
217 -48 0
217 -210 0
217 -216 0
218 -148 -217 0
-218 148 0
-218 217 0
219 -182 -215 0
-219 182 0
-219 215 0
-220 184 1 4 7 202 207 218 219 0
220 -184 0
220 -1 0
220 -4 0
220 -7 0
220 -202 0
220 -207 0
220 -218 0
220 -219 0
221 -186 -220 0
-221 186 0
-221 220 0
-222 188 221 0
222 -188 0
222 -221 0
223 -190 -222 0
-223 190 0
-223 222 0
-224 197 223 191 194 0
224 -197 0
224 -223 0
224 -191 0
224 -194 0
225 -226 -224 0
-225 226 0
-225 224 0
227 -228 -224 0
-227 228 0
-227 224 0
-229 12 227 0
229 -12 0
229 -227 0
230 -11 -229 0
-230 11 0
-230 229 0
-231 197 191 194 0
231 -197 0
231 -191 0
231 -194 0
232 -233 -231 0
-232 233 0
-232 231 0
-234 40 232 37 0
234 -40 0
234 -232 0
234 -37 0
235 -42 -234 0
-235 42 0
-235 234 0
-236 44 22 25 28 35 235 0
236 -44 0
236 -22 0
236 -25 0
236 -28 0
236 -35 0
236 -235 0
237 -92 -236 0
-237 92 0
-237 236 0
-238 94 149 63 237 0
238 -94 0
238 -149 0
238 -63 0
238 -237 0
239 -96 -238 0
-239 96 0
-239 238 0
-240 44 22 25 28 235 0
240 -44 0
240 -22 0
240 -25 0
240 -28 0
240 -235 0
241 -92 -240 0
-241 92 0
-241 240 0
-242 94 149 63 241 0
242 -94 0
242 -149 0
242 -63 0
242 -241 0
243 -112 -242 0
-243 112 0
-243 242 0
-244 34 243 30 0
244 -34 0
244 -243 0
244 -30 0
245 -115 -244 0
-245 115 0
-245 244 0
246 -132 -238 0
-246 132 0
-246 238 0
-247 19 246 68 0
247 -19 0
247 -246 0
247 -68 0
248 -21 -247 0
-248 21 0
-248 247 0
-249 44 22 25 28 211 214 235 0
249 -44 0
249 -22 0
249 -25 0
249 -28 0
249 -211 0
249 -214 0
249 -235 0
250 -46 -249 0
-250 46 0
-250 249 0
-251 48 248 250 0
251 -48 0
251 -248 0
251 -250 0
252 -148 -251 0
-252 148 0
-252 251 0
253 -182 -249 0
-253 182 0
-253 249 0
-254 184 1 4 7 239 245 252 253 0
254 -184 0
254 -1 0
254 -4 0
254 -7 0
254 -239 0
254 -245 0
254 -252 0
254 -253 0
255 -186 -254 0
-255 186 0
-255 254 0
-256 188 255 0
256 -188 0
256 -255 0
257 -258 -256 0
-257 258 0
-257 256 0
259 -260 -188 0
-259 260 0
-259 188 0
261 -115 -33 0
-261 115 0
-261 33 0
262 -190 -188 0
-262 190 0
-262 188 0
-263 197 262 191 194 0
263 -197 0
263 -262 0
263 -191 0
263 -194 0
264 -233 -263 0
-264 233 0
-264 263 0
-265 40 264 37 0
265 -40 0
265 -264 0
265 -37 0
266 -42 -265 0
-266 42 0
-266 265 0
-267 44 22 25 28 35 266 0
267 -44 0
267 -22 0
267 -25 0
267 -28 0
267 -35 0
267 -266 0
268 -182 -267 0
-268 182 0
-268 267 0
-269 184 1 259 4 7 261 268 0
269 -184 0
269 -1 0
269 -259 0
269 -4 0
269 -7 0
269 -261 0
269 -268 0
270 -271 -269 0
-270 271 0
-270 269 0
-272 60 270 0
272 -60 0
272 -270 0
273 -62 -272 0
-273 62 0
-273 272 0
-274 44 22 25 28 266 0
274 -44 0
274 -22 0
274 -25 0
274 -28 0
274 -266 0
275 -182 -274 0
-275 182 0
-275 274 0
-276 184 1 259 4 7 275 0
276 -184 0
276 -1 0
276 -259 0
276 -4 0
276 -7 0
276 -275 0
277 -278 -276 0
-277 278 0
-277 276 0
-279 32 277 0
279 -32 0
279 -277 0
280 -31 -279 0
-280 31 0
-280 279 0
-281 34 280 0
281 -34 0
281 -280 0
282 -64 -281 0
-282 64 0
-282 281 0
-283 184 1 259 4 7 261 0
283 -184 0
283 -1 0
283 -259 0
283 -4 0
283 -7 0
283 -261 0
284 -285 -283 0
-284 285 0
-284 283 0
-286 24 284 0
286 -24 0
286 -284 0
287 -23 -286 0
-287 23 0
-287 286 0
288 -289 -283 0
-288 289 0
-288 283 0
-290 27 288 0
290 -27 0
290 -288 0
291 -26 -290 0
-291 26 0
-291 290 0
-292 184 1 259 4 7 0
292 -184 0
292 -1 0
292 -259 0
292 -4 0
292 -7 0
293 -278 -292 0
-293 278 0
-293 292 0
-294 32 293 0
294 -32 0
294 -293 0
295 -31 -294 0
-295 31 0
-295 294 0
-296 34 295 0
296 -34 0
296 -295 0
297 -36 -296 0
-297 36 0
-297 296 0
-298 184 1 4 7 261 0
298 -184 0
298 -1 0
298 -4 0
298 -7 0
298 -261 0
299 -186 -298 0
-299 186 0
-299 298 0
-300 188 299 0
300 -188 0
300 -299 0
301 -190 -300 0
-301 190 0
-301 300 0
-302 197 301 191 194 0
302 -197 0
302 -301 0
302 -191 0
302 -194 0
303 -233 -302 0
-303 233 0
-303 302 0
304 -38 -286 0
-304 38 0
-304 286 0
305 -306 -283 0
-305 306 0
-305 283 0
-307 40 303 304 305 0
307 -40 0
307 -303 0
307 -304 0
307 -305 0
308 -42 -307 0
-308 42 0
-308 307 0
309 -310 -283 0
-309 310 0
-309 283 0
-311 44 287 291 28 297 308 309 0
311 -44 0
311 -287 0
311 -291 0
311 -28 0
311 -297 0
311 -308 0
311 -309 0
312 -92 -311 0
-312 92 0
-312 311 0
313 -314 -269 0
-313 314 0
-313 269 0
-315 94 273 282 312 313 0
315 -94 0
315 -273 0
315 -282 0
315 -312 0
315 -313 0
316 -132 -315 0
-316 132 0
-316 315 0
317 -92 -267 0
-317 92 0
-317 267 0
-318 94 149 63 317 0
318 -94 0
318 -149 0
318 -63 0
318 -317 0
319 -96 -318 0
-319 96 0
-319 318 0
320 -92 -274 0
-320 92 0
-320 274 0
-321 94 149 63 320 0
321 -94 0
321 -149 0
321 -63 0
321 -320 0
322 -112 -321 0
-322 112 0
-322 321 0
-323 34 322 30 0
323 -34 0
323 -322 0
323 -30 0
324 -115 -323 0
-324 115 0
-324 323 0
-325 44 22 25 28 211 214 266 0
325 -44 0
325 -22 0
325 -25 0
325 -28 0
325 -211 0
325 -214 0
325 -266 0
326 -182 -325 0
-326 182 0
-326 325 0
-327 184 1 259 4 7 319 324 326 0
327 -184 0
327 -1 0
327 -259 0
327 -4 0
327 -7 0
327 -319 0
327 -324 0
327 -326 0
328 -271 -327 0
-328 271 0
-328 327 0
-329 60 328 0
329 -60 0
329 -328 0
330 -66 -329 0
-330 66 0
-330 329 0
-331 17 330 0
331 -17 0
331 -330 0
332 -16 -331 0
-332 16 0
-332 331 0
-333 19 316 332 0
333 -19 0
333 -316 0
333 -332 0
334 -21 -333 0
-334 21 0
-334 333 0
335 -96 -150 0
-335 96 0
-335 150 0
336 -115 -213 0
-336 115 0
-336 213 0
-337 184 1 259 4 7 335 336 0
337 -184 0
337 -1 0
337 -259 0
337 -4 0
337 -7 0
337 -335 0
337 -336 0
338 -285 -337 0
-338 285 0
-338 337 0
-339 24 338 0
339 -24 0
339 -338 0
340 -23 -339 0
-340 23 0
-340 339 0
341 -289 -337 0
-341 289 0
-341 337 0
-342 27 341 0
342 -27 0
342 -341 0
343 -26 -342 0
-343 26 0
-343 342 0
344 -271 -283 0
-344 271 0
-344 283 0
-345 60 344 0
345 -60 0
345 -344 0
346 -62 -345 0
-346 62 0
-346 345 0
347 -64 -296 0
-347 64 0
-347 296 0
348 -314 -283 0
-348 314 0
-348 283 0
-349 94 346 347 348 0
349 -94 0
349 -346 0
349 -347 0
349 -348 0
350 -139 -349 0
-350 139 0
-350 349 0
-351 94 346 348 0
351 -94 0
351 -346 0
351 -348 0
352 -112 -351 0
-352 112 0
-352 351 0
-353 94 149 0
353 -94 0
353 -149 0
354 -96 -353 0
-354 96 0
-354 353 0
-355 184 1 259 4 7 354 0
355 -184 0
355 -1 0
355 -259 0
355 -4 0
355 -7 0
355 -354 0
356 -278 -355 0
-356 278 0
-356 355 0
-357 32 356 0
357 -32 0
357 -356 0
358 -31 -357 0
-358 31 0
-358 357 0
-359 34 352 358 0
359 -34 0
359 -352 0
359 -358 0
360 -36 -359 0
-360 36 0
-360 359 0
-361 184 1 4 7 335 336 0
361 -184 0
361 -1 0
361 -4 0
361 -7 0
361 -335 0
361 -336 0
362 -186 -361 0
-362 186 0
-362 361 0
-363 188 362 0
363 -188 0
363 -362 0
364 -190 -363 0
-364 190 0
-364 363 0
-365 197 364 191 194 0
365 -197 0
365 -364 0
365 -191 0
365 -194 0
366 -233 -365 0
-366 233 0
-366 365 0
367 -38 -339 0
-367 38 0
-367 339 0
368 -306 -337 0
-368 306 0
-368 337 0
-369 40 366 367 368 0
369 -40 0
369 -366 0
369 -367 0
369 -368 0
370 -42 -369 0
-370 42 0
-370 369 0
371 -310 -337 0
-371 310 0
-371 337 0
-372 44 340 343 28 350 360 370 371 0
372 -44 0
372 -340 0
372 -343 0
372 -28 0
372 -350 0
372 -360 0
372 -370 0
372 -371 0
373 -46 -372 0
-373 46 0
-373 372 0
-374 48 334 373 0
374 -48 0
374 -334 0
374 -373 0
375 -50 -374 0
-375 50 0
-375 374 0
376 -132 -318 0
-376 132 0
-376 318 0
-377 19 376 68 0
377 -19 0
377 -376 0
377 -68 0
378 -21 -377 0
-378 21 0
-378 377 0
379 -46 -325 0
-379 46 0
-379 325 0
-380 48 378 379 0
380 -48 0
380 -378 0
380 -379 0
381 -148 -380 0
-381 148 0
-381 380 0
-382 184 1 259 4 7 319 324 381 326 0
382 -184 0
382 -1 0
382 -259 0
382 -4 0
382 -7 0
382 -319 0
382 -324 0
382 -381 0
382 -326 0
383 -384 -382 0
-383 384 0
-383 382 0
-385 52 375 383 0
385 -52 0
385 -375 0
385 -383 0
386 -54 -385 0
-386 54 0
-386 385 0
-387 56 225 230 13 257 386 0
387 -56 0
387 -225 0
387 -230 0
387 -13 0
387 -257 0
387 -386 0
388 -389 -387 0
-388 389 0
-388 387 0
390 -391 -392 0
-390 391 0
-390 392 0
-393 394 390 0
393 -394 0
393 -390 0
395 -396 -393 0
-395 396 0
-395 393 0
397 -398 -392 0
-397 398 0
-397 392 0
-399 400 397 0
399 -400 0
399 -397 0
401 -402 -399 0
-401 402 0
-401 399 0
-403 404 401 0
403 -404 0
403 -401 0
405 -406 -403 0
-405 406 0
-405 403 0
-407 408 395 405 0
407 -408 0
407 -395 0
407 -405 0
409 -410 -407 0
-409 410 0
-409 407 0
411 -406 -404 0
-411 406 0
-411 404 0
-412 408 395 411 0
412 -408 0
412 -395 0
412 -411 0
413 -414 -412 0
-413 414 0
-413 412 0
-415 400 397 413 0
415 -400 0
415 -397 0
415 -413 0
416 -417 -415 0
-416 417 0
-416 415 0
-418 44 25 28 35 41 0
418 -44 0
418 -25 0
418 -28 0
418 -35 0
418 -41 0
419 -92 -418 0
-419 92 0
-419 418 0
-420 94 149 63 419 0
420 -94 0
420 -149 0
420 -63 0
420 -419 0
421 -96 -420 0
-421 96 0
-421 420 0
-422 44 25 28 41 0
422 -44 0
422 -25 0
422 -28 0
422 -41 0
423 -92 -422 0
-423 92 0
-423 422 0
-424 94 149 63 423 0
424 -94 0
424 -149 0
424 -63 0
424 -423 0
425 -112 -424 0
-425 112 0
-425 424 0
-426 34 425 30 0
426 -34 0
426 -425 0
426 -30 0
427 -115 -426 0
-427 115 0
-427 426 0
428 -132 -420 0
-428 132 0
-428 420 0
-429 19 428 68 0
429 -19 0
429 -428 0
429 -68 0
430 -21 -429 0
-430 21 0
-430 429 0
-431 44 25 28 211 214 41 0
431 -44 0
431 -25 0
431 -28 0
431 -211 0
431 -214 0
431 -41 0
432 -46 -431 0
-432 46 0
-432 431 0
-433 48 430 432 0
433 -48 0
433 -430 0
433 -432 0
434 -148 -433 0
-434 148 0
-434 433 0
435 -182 -431 0
-435 182 0
-435 431 0
-436 184 1 4 7 421 427 434 435 0
436 -184 0
436 -1 0
436 -4 0
436 -7 0
436 -421 0
436 -427 0
436 -434 0
436 -435 0
437 -186 -436 0
-437 186 0
-437 436 0
-438 188 437 0
438 -188 0
438 -437 0
439 -190 -438 0
-439 190 0
-439 438 0
-440 197 439 191 194 0
440 -197 0
440 -439 0
440 -191 0
440 -194 0
441 -226 -440 0
-441 226 0
-441 440 0
442 -228 -440 0
-442 228 0
-442 440 0
-443 12 442 0
443 -12 0
443 -442 0
444 -11 -443 0
-444 11 0
-444 443 0
-445 44 25 28 35 235 0
445 -44 0
445 -25 0
445 -28 0
445 -35 0
445 -235 0
446 -92 -445 0
-446 92 0
-446 445 0
-447 94 149 63 446 0
447 -94 0
447 -149 0
447 -63 0
447 -446 0
448 -96 -447 0
-448 96 0
-448 447 0
-449 44 25 28 235 0
449 -44 0
449 -25 0
449 -28 0
449 -235 0
450 -92 -449 0
-450 92 0
-450 449 0
-451 94 149 63 450 0
451 -94 0
451 -149 0
451 -63 0
451 -450 0
452 -112 -451 0
-452 112 0
-452 451 0
-453 34 452 30 0
453 -34 0
453 -452 0
453 -30 0
454 -115 -453 0
-454 115 0
-454 453 0
455 -132 -447 0
-455 132 0
-455 447 0
-456 19 455 68 0
456 -19 0
456 -455 0
456 -68 0
457 -21 -456 0
-457 21 0
-457 456 0
-458 44 25 28 211 214 235 0
458 -44 0
458 -25 0
458 -28 0
458 -211 0
458 -214 0
458 -235 0
459 -46 -458 0
-459 46 0
-459 458 0
-460 48 457 459 0
460 -48 0
460 -457 0
460 -459 0
461 -148 -460 0
-461 148 0
-461 460 0
462 -182 -458 0
-462 182 0
-462 458 0
-463 184 1 4 7 448 454 461 462 0
463 -184 0
463 -1 0
463 -4 0
463 -7 0
463 -448 0
463 -454 0
463 -461 0
463 -462 0
464 -186 -463 0
-464 186 0
-464 463 0
-465 188 464 0
465 -188 0
465 -464 0
466 -258 -465 0
-466 258 0
-466 465 0
-467 44 25 28 35 266 0
467 -44 0
467 -25 0
467 -28 0
467 -35 0
467 -266 0
468 -182 -467 0
-468 182 0
-468 467 0
-469 184 1 259 4 7 261 468 0
469 -184 0
469 -1 0
469 -259 0
469 -4 0
469 -7 0
469 -261 0
469 -468 0
470 -271 -469 0
-470 271 0
-470 469 0
-471 60 470 0
471 -60 0
471 -470 0
472 -62 -471 0
-472 62 0
-472 471 0
-473 44 25 28 266 0
473 -44 0
473 -25 0
473 -28 0
473 -266 0
474 -182 -473 0
-474 182 0
-474 473 0
-475 184 1 259 4 7 474 0
475 -184 0
475 -1 0
475 -259 0
475 -4 0
475 -7 0
475 -474 0
476 -278 -475 0
-476 278 0
-476 475 0
-477 32 476 0
477 -32 0
477 -476 0
478 -31 -477 0
-478 31 0
-478 477 0
-479 34 478 0
479 -34 0
479 -478 0
480 -64 -479 0
-480 64 0
-480 479 0
-481 40 303 305 0
481 -40 0
481 -303 0
481 -305 0
482 -42 -481 0
-482 42 0
-482 481 0
-483 44 291 28 297 482 309 0
483 -44 0
483 -291 0
483 -28 0
483 -297 0
483 -482 0
483 -309 0
484 -92 -483 0
-484 92 0
-484 483 0
485 -314 -469 0
-485 314 0
-485 469 0
-486 94 472 480 484 485 0
486 -94 0
486 -472 0
486 -480 0
486 -484 0
486 -485 0
487 -132 -486 0
-487 132 0
-487 486 0
488 -92 -467 0
-488 92 0
-488 467 0
-489 94 149 63 488 0
489 -94 0
489 -149 0
489 -63 0
489 -488 0
490 -96 -489 0
-490 96 0
-490 489 0
491 -92 -473 0
-491 92 0
-491 473 0
-492 94 149 63 491 0
492 -94 0
492 -149 0
492 -63 0
492 -491 0
493 -112 -492 0
-493 112 0
-493 492 0
-494 34 493 30 0
494 -34 0
494 -493 0
494 -30 0
495 -115 -494 0
-495 115 0
-495 494 0
-496 44 25 28 211 214 266 0
496 -44 0
496 -25 0
496 -28 0
496 -211 0
496 -214 0
496 -266 0
497 -182 -496 0
-497 182 0
-497 496 0
-498 184 1 259 4 7 490 495 497 0
498 -184 0
498 -1 0
498 -259 0
498 -4 0
498 -7 0
498 -490 0
498 -495 0
498 -497 0
499 -271 -498 0
-499 271 0
-499 498 0
-500 60 499 0
500 -60 0
500 -499 0
501 -66 -500 0
-501 66 0
-501 500 0
-502 17 501 0
502 -17 0
502 -501 0
503 -16 -502 0
-503 16 0
-503 502 0
-504 19 487 503 0
504 -19 0
504 -487 0
504 -503 0
505 -21 -504 0
-505 21 0
-505 504 0
-506 40 366 368 0
506 -40 0
506 -366 0
506 -368 0
507 -42 -506 0
-507 42 0
-507 506 0
-508 44 343 28 350 360 507 371 0
508 -44 0
508 -343 0
508 -28 0
508 -350 0
508 -360 0
508 -507 0
508 -371 0
509 -46 -508 0
-509 46 0
-509 508 0
-510 48 505 509 0
510 -48 0
510 -505 0
510 -509 0
511 -50 -510 0
-511 50 0
-511 510 0
512 -132 -489 0
-512 132 0
-512 489 0
-513 19 512 68 0
513 -19 0
513 -512 0
513 -68 0
514 -21 -513 0
-514 21 0
-514 513 0
515 -46 -496 0
-515 46 0
-515 496 0
-516 48 514 515 0
516 -48 0
516 -514 0
516 -515 0
517 -148 -516 0
-517 148 0
-517 516 0
-518 184 1 259 4 7 490 495 517 497 0
518 -184 0
518 -1 0
518 -259 0
518 -4 0
518 -7 0
518 -490 0
518 -495 0
518 -517 0
518 -497 0
519 -384 -518 0
-519 384 0
-519 518 0
-520 52 511 519 0
520 -52 0
520 -511 0
520 -519 0
521 -54 -520 0
-521 54 0
-521 520 0
-522 56 441 444 13 466 521 0
522 -56 0
522 -441 0
522 -444 0
522 -13 0
522 -466 0
522 -521 0
523 -84 -522 0
-523 84 0
-523 522 0
524 -226 -263 0
-524 226 0
-524 263 0
525 -228 -263 0
-525 228 0
-525 263 0
-526 12 525 0
526 -12 0
526 -525 0
527 -11 -526 0
-527 11 0
-527 526 0
528 -258 -188 0
-528 258 0
-528 188 0
529 -46 -467 0
-529 46 0
-529 467 0
-530 48 20 529 0
530 -48 0
530 -20 0
530 -529 0
531 -50 -530 0
-531 50 0
-531 530 0
-532 52 531 0
532 -52 0
532 -531 0
533 -54 -532 0
-533 54 0
-533 532 0
-534 56 524 527 13 528 533 0
534 -56 0
534 -524 0
534 -527 0
534 -13 0
534 -528 0
534 -533 0
535 -58 -534 0
-535 58 0
-535 534 0
-536 60 535 0
536 -60 0
536 -535 0
537 -62 -536 0
-537 62 0
-537 536 0
-538 56 524 527 13 528 81 0
538 -56 0
538 -524 0
538 -527 0
538 -13 0
538 -528 0
538 -81 0
539 -77 -538 0
-539 77 0
-539 538 0
-540 40 264 0
540 -40 0
540 -264 0
541 -42 -540 0
-541 42 0
-541 540 0
-542 44 539 25 28 35 541 0
542 -44 0
542 -539 0
542 -25 0
542 -28 0
542 -35 0
542 -541 0
543 -92 -542 0
-543 92 0
-543 542 0
-544 94 537 63 543 0
544 -94 0
544 -537 0
544 -63 0
544 -543 0
545 -96 -544 0
-545 96 0
-545 544 0
546 -46 -473 0
-546 46 0
-546 473 0
-547 48 20 546 0
547 -48 0
547 -20 0
547 -546 0
548 -50 -547 0
-548 50 0
-548 547 0
-549 52 548 0
549 -52 0
549 -548 0
550 -54 -549 0
-550 54 0
-550 549 0
-551 56 524 527 13 528 550 0
551 -56 0
551 -524 0
551 -527 0
551 -13 0
551 -528 0
551 -550 0
552 -58 -551 0
-552 58 0
-552 551 0
-553 60 552 0
553 -60 0
553 -552 0
554 -62 -553 0
-554 62 0
-554 553 0
-555 44 539 25 28 541 0
555 -44 0
555 -539 0
555 -25 0
555 -28 0
555 -541 0
556 -92 -555 0
-556 92 0
-556 555 0
-557 94 554 63 556 0
557 -94 0
557 -554 0
557 -63 0
557 -556 0
558 -112 -557 0
-558 112 0
-558 557 0
-559 34 558 30 0
559 -34 0
559 -558 0
559 -30 0
560 -115 -559 0
-560 115 0
-560 559 0
-561 56 524 527 13 528 116 0
561 -56 0
561 -524 0
561 -527 0
561 -13 0
561 -528 0
561 -116 0
562 -58 -561 0
-562 58 0
-562 561 0
-563 60 562 0
563 -60 0
563 -562 0
564 -62 -563 0
-564 62 0
-564 563 0
565 -77 -561 0
-565 77 0
-565 561 0
-566 44 565 25 28 35 541 0
566 -44 0
566 -565 0
566 -25 0
566 -28 0
566 -35 0
566 -541 0
567 -92 -566 0
-567 92 0
-567 566 0
-568 94 564 63 567 0
568 -94 0
568 -564 0
568 -63 0
568 -567 0
569 -132 -568 0
-569 132 0
-569 568 0
570 -66 -563 0
-570 66 0
-570 563 0
-571 17 570 0
571 -17 0
571 -570 0
572 -16 -571 0
-572 16 0
-572 571 0
-573 19 569 572 0
573 -19 0
573 -569 0
573 -572 0
574 -21 -573 0
-574 21 0
-574 573 0
-575 94 564 63 0
575 -94 0
575 -564 0
575 -63 0
576 -139 -575 0
-576 139 0
-576 575 0
577 -112 -575 0
-577 112 0
-577 575 0
-578 34 577 30 0
578 -34 0
578 -577 0
578 -30 0
579 -36 -578 0
-579 36 0
-579 578 0
-580 44 565 25 28 576 579 541 0
580 -44 0
580 -565 0
580 -25 0
580 -28 0
580 -576 0
580 -579 0
580 -541 0
581 -46 -580 0
-581 46 0
-581 580 0
-582 48 574 581 0
582 -48 0
582 -574 0
582 -581 0
583 -148 -582 0
-583 148 0
-583 582 0
-584 56 524 527 13 528 157 0
584 -56 0
584 -524 0
584 -527 0
584 -13 0
584 -528 0
584 -157 0
585 -77 -584 0
-585 77 0
-585 584 0
-586 56 524 527 13 528 168 0
586 -56 0
586 -524 0
586 -527 0
586 -13 0
586 -528 0
586 -168 0
587 -58 -586 0
-587 58 0
-587 586 0
-588 60 587 0
588 -60 0
588 -587 0
589 -62 -588 0
-589 62 0
-589 588 0
-590 94 589 63 0
590 -94 0
590 -589 0
590 -63 0
591 -139 -590 0
-591 139 0
-591 590 0
592 -112 -590 0
-592 112 0
-592 590 0
-593 34 592 30 0
593 -34 0
593 -592 0
593 -30 0
594 -36 -593 0
-594 36 0
-594 593 0
-595 44 585 25 28 591 594 541 0
595 -44 0
595 -585 0
595 -25 0
595 -28 0
595 -591 0
595 -594 0
595 -541 0
596 -182 -595 0
-596 182 0
-596 595 0
-597 184 1 259 4 7 545 560 583 596 0
597 -184 0
597 -1 0
597 -259 0
597 -4 0
597 -7 0
597 -545 0
597 -560 0
597 -583 0
597 -596 0
598 -285 -597 0
-598 285 0
-598 597 0
-599 24 523 598 0
599 -24 0
599 -523 0
599 -598 0
600 -601 -599 0
-600 601 0
-600 599 0
-602 408 405 0
602 -408 0
602 -405 0
603 -604 -602 0
-603 604 0
-603 602 0
-605 394 390 603 0
605 -394 0
605 -390 0
605 -603 0
606 -607 -605 0
-606 607 0
-606 605 0
608 -609 -610 0
-608 609 0
-608 610 0
-611 197 189 194 0
611 -197 0
611 -189 0
611 -194 0
612 -613 -611 0
-612 613 0
-612 611 0
-614 193 612 0
614 -193 0
614 -612 0
615 -616 -614 0
-615 616 0
-615 614 0
617 -618 -9 0
-617 618 0
-617 9 0
619 -620 -196 0
-619 620 0
-619 196 0
-621 622 619 0
621 -622 0
621 -619 0
623 -624 -621 0
-623 624 0
-623 621 0
-625 626 198 388 409 416 600 606 608 615 617 623 0
625 -626 0
625 -198 0
625 -388 0
625 -409 0
625 -416 0
625 -600 0
625 -606 0
625 -608 0
625 -615 0
625 -617 0
625 -623 0
627 -628 -625 0
-627 628 0
-627 625 0
629 -182 -43 0
-629 182 0
-629 43 0
-630 184 1 4 7 261 629 0
630 -184 0
630 -1 0
630 -4 0
630 -7 0
630 -261 0
630 -629 0
631 -271 -630 0
-631 271 0
-631 630 0
-632 60 631 0
632 -60 0
632 -631 0
633 -62 -632 0
-633 62 0
-633 632 0
634 -182 -97 0
-634 182 0
-634 97 0
-635 184 1 4 7 634 0
635 -184 0
635 -1 0
635 -4 0
635 -7 0
635 -634 0
636 -278 -635 0
-636 278 0
-636 635 0
-637 32 636 0
637 -32 0
637 -636 0
638 -31 -637 0
-638 31 0
-638 637 0
-639 34 638 0
639 -34 0
639 -638 0
640 -64 -639 0
-640 64 0
-640 639 0
641 -285 -298 0
-641 285 0
-641 298 0
-642 24 641 0
642 -24 0
642 -641 0
643 -23 -642 0
-643 23 0
-643 642 0
644 -289 -298 0
-644 289 0
-644 298 0
-645 27 644 0
645 -27 0
645 -644 0
646 -26 -645 0
-646 26 0
-646 645 0
647 -36 -639 0
-647 36 0
-647 639 0
648 -38 -642 0
-648 38 0
-648 642 0
649 -306 -298 0
-649 306 0
-649 298 0
-650 40 648 649 0
650 -40 0
650 -648 0
650 -649 0
651 -42 -650 0
-651 42 0
-651 650 0
652 -310 -298 0
-652 310 0
-652 298 0
-653 44 643 646 28 647 651 652 0
653 -44 0
653 -643 0
653 -646 0
653 -28 0
653 -647 0
653 -651 0
653 -652 0
654 -92 -653 0
-654 92 0
-654 653 0
655 -314 -630 0
-655 314 0
-655 630 0
-656 94 633 640 654 655 0
656 -94 0
656 -633 0
656 -640 0
656 -654 0
656 -655 0
657 -132 -656 0
-657 132 0
-657 656 0
-658 184 1 4 7 202 207 219 0
658 -184 0
658 -1 0
658 -4 0
658 -7 0
658 -202 0
658 -207 0
658 -219 0
659 -271 -658 0
-659 271 0
-659 658 0
-660 60 659 0
660 -60 0
660 -659 0
661 -66 -660 0
-661 66 0
-661 660 0
-662 17 661 0
662 -17 0
662 -661 0
663 -16 -662 0
-663 16 0
-663 662 0
-664 19 657 663 0
664 -19 0
664 -657 0
664 -663 0
665 -21 -664 0
-665 21 0
-665 664 0
666 -285 -361 0
-666 285 0
-666 361 0
-667 24 666 0
667 -24 0
667 -666 0
668 -23 -667 0
-668 23 0
-668 667 0
669 -289 -361 0
-669 289 0
-669 361 0
-670 27 669 0
670 -27 0
670 -669 0
671 -26 -670 0
-671 26 0
-671 670 0
672 -271 -298 0
-672 271 0
-672 298 0
-673 60 672 0
673 -60 0
673 -672 0
674 -62 -673 0
-674 62 0
-674 673 0
675 -314 -298 0
-675 314 0
-675 298 0
-676 94 674 640 675 0
676 -94 0
676 -674 0
676 -640 0
676 -675 0
677 -139 -676 0
-677 139 0
-677 676 0
-678 94 674 675 0
678 -94 0
678 -674 0
678 -675 0
679 -112 -678 0
-679 112 0
-679 678 0
-680 184 1 4 7 354 0
680 -184 0
680 -1 0
680 -4 0
680 -7 0
680 -354 0
681 -278 -680 0
-681 278 0
-681 680 0
-682 32 681 0
682 -32 0
682 -681 0
683 -31 -682 0
-683 31 0
-683 682 0
-684 34 679 683 0
684 -34 0
684 -679 0
684 -683 0
685 -36 -684 0
-685 36 0
-685 684 0
686 -38 -667 0
-686 38 0
-686 667 0
687 -306 -361 0
-687 306 0
-687 361 0
-688 40 686 687 0
688 -40 0
688 -686 0
688 -687 0
689 -42 -688 0
-689 42 0
-689 688 0
690 -310 -361 0
-690 310 0
-690 361 0
-691 44 668 671 28 677 685 689 690 0
691 -44 0
691 -668 0
691 -671 0
691 -28 0
691 -677 0
691 -685 0
691 -689 0
691 -690 0
692 -46 -691 0
-692 46 0
-692 691 0
-693 48 665 692 0
693 -48 0
693 -665 0
693 -692 0
694 -50 -693 0
-694 50 0
-694 693 0
695 -384 -220 0
-695 384 0
-695 220 0
-696 52 694 695 0
696 -52 0
696 -694 0
696 -695 0
697 -54 -696 0
-697 54 0
-697 696 0
-698 56 10 13 697 0
698 -56 0
698 -10 0
698 -13 0
698 -697 0
699 -389 -698 0
-699 389 0
-699 698 0
700 -182 -418 0
-700 182 0
-700 418 0
-701 184 1 4 7 261 700 0
701 -184 0
701 -1 0
701 -4 0
701 -7 0
701 -261 0
701 -700 0
702 -271 -701 0
-702 271 0
-702 701 0
-703 60 702 0
703 -60 0
703 -702 0
704 -62 -703 0
-704 62 0
-704 703 0
705 -182 -422 0
-705 182 0
-705 422 0
-706 184 1 4 7 705 0
706 -184 0
706 -1 0
706 -4 0
706 -7 0
706 -705 0
707 -278 -706 0
-707 278 0
-707 706 0
-708 32 707 0
708 -32 0
708 -707 0
709 -31 -708 0
-709 31 0
-709 708 0
-710 34 709 0
710 -34 0
710 -709 0
711 -64 -710 0
-711 64 0
-711 710 0
712 -36 -710 0
-712 36 0
-712 710 0
-713 40 649 0
713 -40 0
713 -649 0
714 -42 -713 0
-714 42 0
-714 713 0
-715 44 646 28 712 714 652 0
715 -44 0
715 -646 0
715 -28 0
715 -712 0
715 -714 0
715 -652 0
716 -92 -715 0
-716 92 0
-716 715 0
717 -314 -701 0
-717 314 0
-717 701 0
-718 94 704 711 716 717 0
718 -94 0
718 -704 0
718 -711 0
718 -716 0
718 -717 0
719 -132 -718 0
-719 132 0
-719 718 0
-720 184 1 4 7 421 427 435 0
720 -184 0
720 -1 0
720 -4 0
720 -7 0
720 -421 0
720 -427 0
720 -435 0
721 -271 -720 0
-721 271 0
-721 720 0
-722 60 721 0
722 -60 0
722 -721 0
723 -66 -722 0
-723 66 0
-723 722 0
-724 17 723 0
724 -17 0
724 -723 0
725 -16 -724 0
-725 16 0
-725 724 0
-726 19 719 725 0
726 -19 0
726 -719 0
726 -725 0
727 -21 -726 0
-727 21 0
-727 726 0
-728 94 674 711 675 0
728 -94 0
728 -674 0
728 -711 0
728 -675 0
729 -139 -728 0
-729 139 0
-729 728 0
-730 40 687 0
730 -40 0
730 -687 0
731 -42 -730 0
-731 42 0
-731 730 0
-732 44 671 28 729 685 731 690 0
732 -44 0
732 -671 0
732 -28 0
732 -729 0
732 -685 0
732 -731 0
732 -690 0
733 -46 -732 0
-733 46 0
-733 732 0
-734 48 727 733 0
734 -48 0
734 -727 0
734 -733 0
735 -50 -734 0
-735 50 0
-735 734 0
736 -384 -436 0
-736 384 0
-736 436 0
-737 52 735 736 0
737 -52 0
737 -735 0
737 -736 0
738 -54 -737 0
-738 54 0
-738 737 0
-739 56 10 13 738 0
739 -56 0
739 -10 0
739 -13 0
739 -738 0
740 -84 -739 0
-740 84 0
-740 739 0
741 -46 -418 0
-741 46 0
-741 418 0
-742 48 20 741 0
742 -48 0
742 -20 0
742 -741 0
743 -50 -742 0
-743 50 0
-743 742 0
-744 52 743 0
744 -52 0
744 -743 0
745 -54 -744 0
-745 54 0
-745 744 0
-746 56 10 13 745 0
746 -56 0
746 -10 0
746 -13 0
746 -745 0
747 -58 -746 0
-747 58 0
-747 746 0
-748 60 747 0
748 -60 0
748 -747 0
749 -62 -748 0
-749 62 0
-749 748 0
750 -42 -40 0
-750 42 0
-750 40 0
-751 44 107 25 28 35 750 0
751 -44 0
751 -107 0
751 -25 0
751 -28 0
751 -35 0
751 -750 0
752 -92 -751 0
-752 92 0
-752 751 0
-753 94 749 63 752 0
753 -94 0
753 -749 0
753 -63 0
753 -752 0
754 -96 -753 0
-754 96 0
-754 753 0
755 -46 -422 0
-755 46 0
-755 422 0
-756 48 20 755 0
756 -48 0
756 -20 0
756 -755 0
757 -50 -756 0
-757 50 0
-757 756 0
-758 52 757 0
758 -52 0
758 -757 0
759 -54 -758 0
-759 54 0
-759 758 0
-760 56 10 13 759 0
760 -56 0
760 -10 0
760 -13 0
760 -759 0
761 -58 -760 0
-761 58 0
-761 760 0
-762 60 761 0
762 -60 0
762 -761 0
763 -62 -762 0
-763 62 0
-763 762 0
-764 44 107 25 28 750 0
764 -44 0
764 -107 0
764 -25 0
764 -28 0
764 -750 0
765 -92 -764 0
-765 92 0
-765 764 0
-766 94 763 63 765 0
766 -94 0
766 -763 0
766 -63 0
766 -765 0
767 -112 -766 0
-767 112 0
-767 766 0
-768 34 767 30 0
768 -34 0
768 -767 0
768 -30 0
769 -115 -768 0
-769 115 0
-769 768 0
-770 44 121 25 28 35 127 0
770 -44 0
770 -121 0
770 -25 0
770 -28 0
770 -35 0
770 -127 0
771 -92 -770 0
-771 92 0
-771 770 0
-772 94 120 63 771 0
772 -94 0
772 -120 0
772 -63 0
772 -771 0
773 -132 -772 0
-773 132 0
-773 772 0
-774 19 773 135 0
774 -19 0
774 -773 0
774 -135 0
775 -21 -774 0
-775 21 0
-775 774 0
776 -139 -140 0
-776 139 0
-776 140 0
-777 44 121 25 28 776 143 127 0
777 -44 0
777 -121 0
777 -25 0
777 -28 0
777 -776 0
777 -143 0
777 -127 0
778 -46 -777 0
-778 46 0
-778 777 0
-779 48 775 778 0
779 -48 0
779 -775 0
779 -778 0
780 -148 -779 0
-780 148 0
-780 779 0
781 -139 -173 0
-781 139 0
-781 173 0
-782 44 159 25 28 781 176 750 0
782 -44 0
782 -159 0
782 -25 0
782 -28 0
782 -781 0
782 -176 0
782 -750 0
783 -182 -782 0
-783 182 0
-783 782 0
-784 184 1 4 7 754 769 780 783 0
784 -184 0
784 -1 0
784 -4 0
784 -7 0
784 -754 0
784 -769 0
784 -780 0
784 -783 0
785 -285 -784 0
-785 285 0
-785 784 0
-786 24 740 785 0
786 -24 0
786 -740 0
786 -785 0
787 -601 -786 0
-787 601 0
-787 786 0
788 -616 -193 0
-788 616 0
-788 193 0
789 -624 -622 0
-789 624 0
-789 622 0
-790 626 699 409 416 787 606 608 788 617 789 0
790 -626 0
790 -699 0
790 -409 0
790 -416 0
790 -787 0
790 -606 0
790 -608 0
790 -788 0
790 -617 0
790 -789 0
791 -792 -790 0
-791 792 0
-791 790 0
793 -601 -24 0
-793 601 0
-793 24 0
-794 626 409 416 793 606 608 788 617 789 0
794 -626 0
794 -409 0
794 -416 0
794 -793 0
794 -606 0
794 -608 0
794 -788 0
794 -617 0
794 -789 0
795 -796 -794 0
-795 796 0
-795 794 0
-797 12 795 0
797 -12 0
797 -795 0
798 -11 -797 0
-798 11 0
-798 797 0
799 -800 -794 0
-799 800 0
-799 794 0
-801 48 799 20 45 0
801 -48 0
801 -799 0
801 -20 0
801 -45 0
802 -50 -801 0
-802 50 0
-802 801 0
-803 52 802 0
803 -52 0
803 -802 0
804 -54 -803 0
-804 54 0
-804 803 0
-805 56 798 13 804 0
805 -56 0
805 -798 0
805 -13 0
805 -804 0
806 -58 -805 0
-806 58 0
-806 805 0
-807 60 806 0
807 -60 0
807 -806 0
808 -62 -807 0
-808 62 0
-808 807 0
-809 48 799 70 45 0
809 -48 0
809 -799 0
809 -70 0
809 -45 0
810 -50 -809 0
-810 50 0
-810 809 0
-811 52 810 0
811 -52 0
811 -810 0
812 -54 -811 0
-812 54 0
-812 811 0
-813 56 798 13 812 0
813 -56 0
813 -798 0
813 -13 0
813 -812 0
814 -77 -813 0
-814 77 0
-814 813 0
-815 48 799 70 0
815 -48 0
815 -799 0
815 -70 0
816 -50 -815 0
-816 50 0
-816 815 0
-817 52 816 0
817 -52 0
817 -816 0
818 -54 -817 0
-818 54 0
-818 817 0
-819 56 798 13 818 0
819 -56 0
819 -798 0
819 -13 0
819 -818 0
820 -84 -819 0
-820 84 0
-820 819 0
-821 24 820 0
821 -24 0
821 -820 0
822 -23 -821 0
-822 23 0
-822 821 0
823 -38 -821 0
-823 38 0
-823 821 0
-824 40 823 0
824 -40 0
824 -823 0
825 -42 -824 0
-825 42 0
-825 824 0
-826 44 814 822 25 28 35 825 0
826 -44 0
826 -814 0
826 -822 0
826 -25 0
826 -28 0
826 -35 0
826 -825 0
827 -92 -826 0
-827 92 0
-827 826 0
-828 94 808 63 827 0
828 -94 0
828 -808 0
828 -63 0
828 -827 0
829 -96 -828 0
-829 96 0
-829 828 0
-830 48 799 20 98 0
830 -48 0
830 -799 0
830 -20 0
830 -98 0
831 -50 -830 0
-831 50 0
-831 830 0
-832 52 831 0
832 -52 0
832 -831 0
833 -54 -832 0
-833 54 0
-833 832 0
-834 56 798 13 833 0
834 -56 0
834 -798 0
834 -13 0
834 -833 0
835 -58 -834 0
-835 58 0
-835 834 0
-836 60 835 0
836 -60 0
836 -835 0
837 -62 -836 0
-837 62 0
-837 836 0
838 -77 -819 0
-838 77 0
-838 819 0
-839 44 838 822 25 28 825 0
839 -44 0
839 -838 0
839 -822 0
839 -25 0
839 -28 0
839 -825 0
840 -92 -839 0
-840 92 0
-840 839 0
-841 94 837 63 840 0
841 -94 0
841 -837 0
841 -63 0
841 -840 0
842 -112 -841 0
-842 112 0
-842 841 0
-843 34 842 30 0
843 -34 0
843 -842 0
843 -30 0
844 -115 -843 0
-844 115 0
-844 843 0
845 -389 -117 0
-845 389 0
-845 117 0
846 -601 -123 0
-846 601 0
-846 123 0
-847 626 845 409 416 846 606 608 788 617 789 0
847 -626 0
847 -845 0
847 -409 0
847 -416 0
847 -846 0
847 -606 0
847 -608 0
847 -788 0
847 -617 0
847 -789 0
848 -800 -847 0
-848 800 0
-848 847 0
-849 56 798 13 116 0
849 -56 0
849 -798 0
849 -13 0
849 -116 0
850 -58 -849 0
-850 58 0
-850 849 0
-851 60 850 0
851 -60 0
851 -850 0
852 -62 -851 0
-852 62 0
-852 851 0
853 -77 -849 0
-853 77 0
-853 849 0
854 -84 -849 0
-854 84 0
-854 849 0
-855 24 854 0
855 -24 0
855 -854 0
856 -23 -855 0
-856 23 0
-856 855 0
857 -38 -855 0
-857 38 0
-857 855 0
-858 40 857 0
858 -40 0
858 -857 0
859 -42 -858 0
-859 42 0
-859 858 0
-860 44 853 856 25 28 35 859 0
860 -44 0
860 -853 0
860 -856 0
860 -25 0
860 -28 0
860 -35 0
860 -859 0
861 -92 -860 0
-861 92 0
-861 860 0
-862 94 852 63 861 0
862 -94 0
862 -852 0
862 -63 0
862 -861 0
863 -132 -862 0
-863 132 0
-863 862 0
864 -66 -851 0
-864 66 0
-864 851 0
-865 17 864 0
865 -17 0
865 -864 0
866 -16 -865 0
-866 16 0
-866 865 0
-867 19 863 866 0
867 -19 0
867 -863 0
867 -866 0
868 -21 -867 0
-868 21 0
-868 867 0
-869 94 852 63 0
869 -94 0
869 -852 0
869 -63 0
870 -139 -869 0
-870 139 0
-870 869 0
871 -112 -869 0
-871 112 0
-871 869 0
-872 34 871 30 0
872 -34 0
872 -871 0
872 -30 0
873 -36 -872 0
-873 36 0
-873 872 0
-874 44 853 856 25 28 870 873 859 0
874 -44 0
874 -853 0
874 -856 0
874 -25 0
874 -28 0
874 -870 0
874 -873 0
874 -859 0
875 -46 -874 0
-875 46 0
-875 874 0
-876 48 848 868 875 0
876 -48 0
876 -848 0
876 -868 0
876 -875 0
877 -148 -876 0
-877 148 0
-877 876 0
-878 48 799 153 0
878 -48 0
878 -799 0
878 -153 0
879 -50 -878 0
-879 50 0
-879 878 0
-880 52 879 0
880 -52 0
880 -879 0
881 -54 -880 0
-881 54 0
-881 880 0
-882 56 798 13 881 0
882 -56 0
882 -798 0
882 -13 0
882 -881 0
883 -77 -882 0
-883 77 0
-883 882 0
884 -84 -882 0
-884 84 0
-884 882 0
-885 24 884 0
885 -24 0
885 -884 0
886 -23 -885 0
-886 23 0
-886 885 0
-887 94 808 63 0
887 -94 0
887 -808 0
887 -63 0
888 -139 -887 0
-888 139 0
-888 887 0
-889 48 799 20 0
889 -48 0
889 -799 0
889 -20 0
890 -50 -889 0
-890 50 0
-890 889 0
-891 52 890 0
891 -52 0
891 -890 0
892 -54 -891 0
-892 54 0
-892 891 0
-893 56 798 13 892 0
893 -56 0
893 -798 0
893 -13 0
893 -892 0
894 -58 -893 0
-894 58 0
-894 893 0
-895 60 894 0
895 -60 0
895 -894 0
896 -62 -895 0
-896 62 0
-896 895 0
-897 94 896 63 0
897 -94 0
897 -896 0
897 -63 0
898 -112 -897 0
-898 112 0
-898 897 0
-899 34 898 30 0
899 -34 0
899 -898 0
899 -30 0
900 -36 -899 0
-900 36 0
-900 899 0
901 -38 -885 0
-901 38 0
-901 885 0
-902 40 901 0
902 -40 0
902 -901 0
903 -42 -902 0
-903 42 0
-903 902 0
-904 44 883 886 25 28 888 900 903 0
904 -44 0
904 -883 0
904 -886 0
904 -25 0
904 -28 0
904 -888 0
904 -900 0
904 -903 0
905 -182 -904 0
-905 182 0
-905 904 0
-906 184 1 4 7 829 844 877 905 0
906 -184 0
906 -1 0
906 -4 0
906 -7 0
906 -829 0
906 -844 0
906 -877 0
906 -905 0
907 -186 -906 0
-907 186 0
-907 906 0
-908 188 791 907 0
908 -188 0
908 -791 0
908 -907 0
909 -190 -908 0
-909 190 0
-909 908 0
910 -258 -222 0
-910 258 0
-910 222 0
-911 184 1 259 4 7 261 629 0
911 -184 0
911 -1 0
911 -259 0
911 -4 0
911 -7 0
911 -261 0
911 -629 0
912 -271 -911 0
-912 271 0
-912 911 0
-913 60 912 0
913 -60 0
913 -912 0
914 -62 -913 0
-914 62 0
-914 913 0
-915 184 1 259 4 7 634 0
915 -184 0
915 -1 0
915 -259 0
915 -4 0
915 -7 0
915 -634 0
916 -278 -915 0
-916 278 0
-916 915 0
-917 32 916 0
917 -32 0
917 -916 0
918 -31 -917 0
-918 31 0
-918 917 0
-919 34 918 0
919 -34 0
919 -918 0
920 -64 -919 0
-920 64 0
-920 919 0
-921 40 304 305 0
921 -40 0
921 -304 0
921 -305 0
922 -42 -921 0
-922 42 0
-922 921 0
-923 44 287 291 28 297 922 309 0
923 -44 0
923 -287 0
923 -291 0
923 -28 0
923 -297 0
923 -922 0
923 -309 0
924 -92 -923 0
-924 92 0
-924 923 0
925 -314 -911 0
-925 314 0
-925 911 0
-926 94 914 920 924 925 0
926 -94 0
926 -914 0
926 -920 0
926 -924 0
926 -925 0
927 -132 -926 0
-927 132 0
-927 926 0
-928 184 1 259 4 7 202 207 219 0
928 -184 0
928 -1 0
928 -259 0
928 -4 0
928 -7 0
928 -202 0
928 -207 0
928 -219 0
929 -271 -928 0
-929 271 0
-929 928 0
-930 60 929 0
930 -60 0
930 -929 0
931 -66 -930 0
-931 66 0
-931 930 0
-932 17 931 0
932 -17 0
932 -931 0
933 -16 -932 0
-933 16 0
-933 932 0
-934 19 927 933 0
934 -19 0
934 -927 0
934 -933 0
935 -21 -934 0
-935 21 0
-935 934 0
-936 40 367 368 0
936 -40 0
936 -367 0
936 -368 0
937 -42 -936 0
-937 42 0
-937 936 0
-938 44 340 343 28 350 360 937 371 0
938 -44 0
938 -340 0
938 -343 0
938 -28 0
938 -350 0
938 -360 0
938 -937 0
938 -371 0
939 -46 -938 0
-939 46 0
-939 938 0
-940 48 935 939 0
940 -48 0
940 -935 0
940 -939 0
941 -50 -940 0
-941 50 0
-941 940 0
-942 184 1 259 4 7 202 207 218 219 0
942 -184 0
942 -1 0
942 -259 0
942 -4 0
942 -7 0
942 -202 0
942 -207 0
942 -218 0
942 -219 0
943 -384 -942 0
-943 384 0
-943 942 0
-944 52 941 943 0
944 -52 0
944 -941 0
944 -943 0
945 -54 -944 0
-945 54 0
-945 944 0
-946 56 10 13 910 945 0
946 -56 0
946 -10 0
946 -13 0
946 -910 0
946 -945 0
947 -389 -946 0
-947 389 0
-947 946 0
948 -258 -438 0
-948 258 0
-948 438 0
-949 184 1 259 4 7 261 700 0
949 -184 0
949 -1 0
949 -259 0
949 -4 0
949 -7 0
949 -261 0
949 -700 0
950 -271 -949 0
-950 271 0
-950 949 0
-951 60 950 0
951 -60 0
951 -950 0
952 -62 -951 0
-952 62 0
-952 951 0
-953 184 1 259 4 7 705 0
953 -184 0
953 -1 0
953 -259 0
953 -4 0
953 -7 0
953 -705 0
954 -278 -953 0
-954 278 0
-954 953 0
-955 32 954 0
955 -32 0
955 -954 0
956 -31 -955 0
-956 31 0
-956 955 0
-957 34 956 0
957 -34 0
957 -956 0
958 -64 -957 0
-958 64 0
-958 957 0
-959 40 305 0
959 -40 0
959 -305 0
960 -42 -959 0
-960 42 0
-960 959 0
-961 44 291 28 297 960 309 0
961 -44 0
961 -291 0
961 -28 0
961 -297 0
961 -960 0
961 -309 0
962 -92 -961 0
-962 92 0
-962 961 0
963 -314 -949 0
-963 314 0
-963 949 0
-964 94 952 958 962 963 0
964 -94 0
964 -952 0
964 -958 0
964 -962 0
964 -963 0
965 -132 -964 0
-965 132 0
-965 964 0
-966 184 1 259 4 7 421 427 435 0
966 -184 0
966 -1 0
966 -259 0
966 -4 0
966 -7 0
966 -421 0
966 -427 0
966 -435 0
967 -271 -966 0
-967 271 0
-967 966 0
-968 60 967 0
968 -60 0
968 -967 0
969 -66 -968 0
-969 66 0
-969 968 0
-970 17 969 0
970 -17 0
970 -969 0
971 -16 -970 0
-971 16 0
-971 970 0
-972 19 965 971 0
972 -19 0
972 -965 0
972 -971 0
973 -21 -972 0
-973 21 0
-973 972 0
-974 40 368 0
974 -40 0
974 -368 0
975 -42 -974 0
-975 42 0
-975 974 0
-976 44 343 28 350 360 975 371 0
976 -44 0
976 -343 0
976 -28 0
976 -350 0
976 -360 0
976 -975 0
976 -371 0
977 -46 -976 0
-977 46 0
-977 976 0
-978 48 973 977 0
978 -48 0
978 -973 0
978 -977 0
979 -50 -978 0
-979 50 0
-979 978 0
-980 184 1 259 4 7 421 427 434 435 0
980 -184 0
980 -1 0
980 -259 0
980 -4 0
980 -7 0
980 -421 0
980 -427 0
980 -434 0
980 -435 0
981 -384 -980 0
-981 384 0
-981 980 0
-982 52 979 981 0
982 -52 0
982 -979 0
982 -981 0
983 -54 -982 0
-983 54 0
-983 982 0
-984 56 10 13 948 983 0
984 -56 0
984 -10 0
984 -13 0
984 -948 0
984 -983 0
985 -84 -984 0
-985 84 0
-985 984 0
-986 56 10 13 528 745 0
986 -56 0
986 -10 0
986 -13 0
986 -528 0
986 -745 0
987 -58 -986 0
-987 58 0
-987 986 0
-988 60 987 0
988 -60 0
988 -987 0
989 -62 -988 0
-989 62 0
-989 988 0
-990 56 10 13 528 81 0
990 -56 0
990 -10 0
990 -13 0
990 -528 0
990 -81 0
991 -77 -990 0
-991 77 0
-991 990 0
-992 44 991 25 28 35 750 0
992 -44 0
992 -991 0
992 -25 0
992 -28 0
992 -35 0
992 -750 0
993 -92 -992 0
-993 92 0
-993 992 0
-994 94 989 63 993 0
994 -94 0
994 -989 0
994 -63 0
994 -993 0
995 -96 -994 0
-995 96 0
-995 994 0
-996 56 10 13 528 759 0
996 -56 0
996 -10 0
996 -13 0
996 -528 0
996 -759 0
997 -58 -996 0
-997 58 0
-997 996 0
-998 60 997 0
998 -60 0
998 -997 0
999 -62 -998 0
-999 62 0
-999 998 0
-1000 44 991 25 28 750 0
1000 -44 0
1000 -991 0
1000 -25 0
1000 -28 0
1000 -750 0
1001 -92 -1000 0
-1001 92 0
-1001 1000 0
-1002 94 999 63 1001 0
1002 -94 0
1002 -999 0
1002 -63 0
1002 -1001 0
1003 -112 -1002 0
-1003 112 0
-1003 1002 0
-1004 34 1003 30 0
1004 -34 0
1004 -1003 0
1004 -30 0
1005 -115 -1004 0
-1005 115 0
-1005 1004 0
-1006 56 10 13 528 116 0
1006 -56 0
1006 -10 0
1006 -13 0
1006 -528 0
1006 -116 0
1007 -58 -1006 0
-1007 58 0
-1007 1006 0
-1008 60 1007 0
1008 -60 0
1008 -1007 0
1009 -62 -1008 0
-1009 62 0
-1009 1008 0
1010 -77 -1006 0
-1010 77 0
-1010 1006 0
-1011 44 1010 25 28 35 750 0
1011 -44 0
1011 -1010 0
1011 -25 0
1011 -28 0
1011 -35 0
1011 -750 0
1012 -92 -1011 0
-1012 92 0
-1012 1011 0
-1013 94 1009 63 1012 0
1013 -94 0
1013 -1009 0
1013 -63 0
1013 -1012 0
1014 -132 -1013 0
-1014 132 0
-1014 1013 0
1015 -66 -1008 0
-1015 66 0
-1015 1008 0
-1016 17 1015 0
1016 -17 0
1016 -1015 0
1017 -16 -1016 0
-1017 16 0
-1017 1016 0
-1018 19 1014 1017 0
1018 -19 0
1018 -1014 0
1018 -1017 0
1019 -21 -1018 0
-1019 21 0
-1019 1018 0
1020 -139 -1013 0
-1020 139 0
-1020 1013 0
-1021 94 1009 63 0
1021 -94 0
1021 -1009 0
1021 -63 0
1022 -112 -1021 0
-1022 112 0
-1022 1021 0
-1023 34 1022 30 0
1023 -34 0
1023 -1022 0
1023 -30 0
1024 -36 -1023 0
-1024 36 0
-1024 1023 0
-1025 44 1010 25 28 1020 1024 750 0
1025 -44 0
1025 -1010 0
1025 -25 0
1025 -28 0
1025 -1020 0
1025 -1024 0
1025 -750 0
1026 -46 -1025 0
-1026 46 0
-1026 1025 0
-1027 48 1019 1026 0
1027 -48 0
1027 -1019 0
1027 -1026 0
1028 -148 -1027 0
-1028 148 0
-1028 1027 0
-1029 56 10 13 528 157 0
1029 -56 0
1029 -10 0
1029 -13 0
1029 -528 0
1029 -157 0
1030 -77 -1029 0
-1030 77 0
-1030 1029 0
-1031 56 10 13 528 168 0
1031 -56 0
1031 -10 0
1031 -13 0
1031 -528 0
1031 -168 0
1032 -58 -1031 0
-1032 58 0
-1032 1031 0
-1033 60 1032 0
1033 -60 0
1033 -1032 0
1034 -62 -1033 0
-1034 62 0
-1034 1033 0
-1035 94 1034 63 0
1035 -94 0
1035 -1034 0
1035 -63 0
1036 -139 -1035 0
-1036 139 0
-1036 1035 0
1037 -112 -1035 0
-1037 112 0
-1037 1035 0
-1038 34 1037 30 0
1038 -34 0
1038 -1037 0
1038 -30 0
1039 -36 -1038 0
-1039 36 0
-1039 1038 0
-1040 44 1030 25 28 1036 1039 750 0
1040 -44 0
1040 -1030 0
1040 -25 0
1040 -28 0
1040 -1036 0
1040 -1039 0
1040 -750 0
1041 -182 -1040 0
-1041 182 0
-1041 1040 0
-1042 184 1 259 4 7 995 1005 1028 1041 0
1042 -184 0
1042 -1 0
1042 -259 0
1042 -4 0
1042 -7 0
1042 -995 0
1042 -1005 0
1042 -1028 0
1042 -1041 0
1043 -285 -1042 0
-1043 285 0
-1043 1042 0
-1044 24 985 1043 0
1044 -24 0
1044 -985 0
1044 -1043 0
1045 -601 -1044 0
-1045 601 0
-1045 1044 0
-1046 626 947 409 416 1045 606 608 788 617 789 0
1046 -626 0
1046 -947 0
1046 -409 0
1046 -416 0
1046 -1045 0
1046 -606 0
1046 -608 0
1046 -788 0
1046 -617 0
1046 -789 0
1047 -1048 -1046 0
-1047 1048 0
-1047 1046 0
-1049 193 1047 0
1049 -193 0
1049 -1047 0
1050 -192 -1049 0
-1050 192 0
-1050 1049 0
-1051 197 909 1050 194 0
1051 -197 0
1051 -909 0
1051 -1050 0
1051 -194 0
1052 -1053 -1051 0
-1052 1053 0
-1052 1051 0
1054 -1055 -625 0
-1054 1055 0
-1054 625 0
-1056 1057 1054 0
1056 -1057 0
1056 -1054 0
1058 -1059 -1056 0
-1058 1059 0
-1058 1056 0
-1060 1061 627 1052 1058 0
1060 -1061 0
1060 -627 0
1060 -1052 0
1060 -1058 0
1062 -1060 -1063 0
-1062 1060 0
-1062 1063 0
1062 0
