c BC-S1.2
p cnf 1542 5399
1 -2 -3 0
-1 2 0
-1 3 0
-4 5 1 0
4 -5 0
4 -1 0
6 -7 -4 0
-6 7 0
-6 4 0
-8 9 6 0
8 -9 0
8 -6 0
10 -11 -8 0
-10 11 0
-10 8 0
12 -13 -3 0
-12 13 0
-12 3 0
14 -15 -4 0
-14 15 0
-14 4 0
16 -17 -18 0
-16 17 0
-16 18 0
-19 20 12 14 16 0
19 -20 0
19 -12 0
19 -14 0
19 -16 0
21 -22 -19 0
-21 22 0
-21 19 0
23 -24 -25 0
-23 24 0
-23 25 0
26 -27 -4 0
-26 27 0
-26 4 0
28 -29 -30 0
-28 29 0
-28 30 0
-31 32 26 28 0
31 -32 0
31 -26 0
31 -28 0
33 -34 -31 0
-33 34 0
-33 31 0
-35 36 33 0
35 -36 0
35 -33 0
37 -38 -35 0
-37 38 0
-37 35 0
-39 40 21 23 37 0
39 -40 0
39 -21 0
39 -23 0
39 -37 0
41 -42 -39 0
-41 42 0
-41 39 0
-43 44 41 0
43 -44 0
43 -41 0
45 -46 -43 0
-45 46 0
-45 43 0
47 -48 -19 0
-47 48 0
-47 19 0
49 -50 -8 0
-49 50 0
-49 8 0
-51 52 49 0
51 -52 0
51 -49 0
53 -54 -51 0
-53 54 0
-53 51 0
55 -56 -57 0
-55 56 0
-55 57 0
58 -59 -18 0
-58 59 0
-58 18 0
-60 61 55 58 0
60 -61 0
60 -55 0
60 -58 0
62 -63 -60 0
-62 63 0
-62 60 0
64 -65 -30 0
-64 65 0
-64 30 0
-66 67 45 47 53 62 64 0
66 -67 0
66 -45 0
66 -47 0
66 -53 0
66 -62 0
66 -64 0
68 -69 -66 0
-68 69 0
-68 66 0
-70 71 68 0
70 -71 0
70 -68 0
72 -73 -70 0
-72 73 0
-72 70 0
74 -75 -60 0
-74 75 0
-74 60 0
76 -77 -51 0
-76 77 0
-76 51 0
-78 79 72 74 76 0
78 -79 0
78 -72 0
78 -74 0
78 -76 0
80 -81 -78 0
-80 81 0
-80 78 0
-82 40 23 37 0
82 -40 0
82 -23 0
82 -37 0
83 -42 -82 0
-83 42 0
-83 82 0
-84 44 83 0
84 -44 0
84 -83 0
85 -46 -84 0
-85 46 0
-85 84 0
-86 67 85 47 53 62 64 0
86 -67 0
86 -85 0
86 -47 0
86 -53 0
86 -62 0
86 -64 0
87 -69 -86 0
-87 69 0
-87 86 0
-88 71 87 0
88 -71 0
88 -87 0
89 -73 -88 0
-89 73 0
-89 88 0
-90 79 89 74 76 0
90 -79 0
90 -89 0
90 -74 0
90 -76 0
91 -92 -90 0
-91 92 0
-91 90 0
-93 20 91 12 14 16 0
93 -20 0
93 -91 0
93 -12 0
93 -14 0
93 -16 0
94 -95 -93 0
-94 95 0
-94 93 0
-96 40 21 37 0
96 -40 0
96 -21 0
96 -37 0
97 -42 -96 0
-97 42 0
-97 96 0
-98 44 97 0
98 -44 0
98 -97 0
99 -46 -98 0
-99 46 0
-99 98 0
-100 67 99 47 53 62 64 0
100 -67 0
100 -99 0
100 -47 0
100 -53 0
100 -62 0
100 -64 0
101 -69 -100 0
-101 69 0
-101 100 0
-102 71 101 0
102 -71 0
102 -101 0
103 -73 -102 0
-103 73 0
-103 102 0
-104 79 103 74 76 0
104 -79 0
104 -103 0
104 -74 0
104 -76 0
105 -106 -104 0
-105 106 0
-105 104 0
-107 25 105 0
107 -25 0
107 -105 0
108 -109 -107 0
-108 109 0
-108 107 0
110 -111 -60 0
-110 111 0
-110 60 0
-112 113 110 0
112 -113 0
112 -110 0
114 -115 -112 0
-114 115 0
-114 112 0
-116 117 80 94 108 114 0
116 -117 0
116 -80 0
116 -94 0
116 -108 0
116 -114 0
118 -119 -116 0
-118 119 0
-118 116 0
120 -46 -44 0
-120 46 0
-120 44 0
-121 67 120 47 53 62 64 0
121 -67 0
121 -120 0
121 -47 0
121 -53 0
121 -62 0
121 -64 0
122 -69 -121 0
-122 69 0
-122 121 0
-123 71 122 0
123 -71 0
123 -122 0
124 -73 -123 0
-124 73 0
-124 123 0
-125 79 124 74 76 0
125 -79 0
125 -124 0
125 -74 0
125 -76 0
126 -92 -125 0
-126 92 0
-126 125 0
-127 20 126 12 14 16 0
127 -20 0
127 -126 0
127 -12 0
127 -14 0
127 -16 0
128 -22 -127 0
-128 22 0
-128 127 0
129 -106 -125 0
-129 106 0
-129 125 0
-130 25 129 0
130 -25 0
130 -129 0
131 -24 -130 0
-131 24 0
-131 130 0
132 -133 -44 0
-132 133 0
-132 44 0
-134 32 132 26 28 0
134 -32 0
134 -132 0
134 -26 0
134 -28 0
135 -34 -134 0
-135 34 0
-135 134 0
-136 36 135 0
136 -36 0
136 -135 0
137 -38 -136 0
-137 38 0
-137 136 0
-138 40 128 131 137 0
138 -40 0
138 -128 0
138 -131 0
138 -137 0
139 -140 -138 0
-139 140 0
-139 138 0
-141 67 47 53 62 64 0
141 -67 0
141 -47 0
141 -53 0
141 -62 0
141 -64 0
142 -69 -141 0
-142 69 0
-142 141 0
-143 71 142 0
143 -71 0
143 -142 0
144 -73 -143 0
-144 73 0
-144 143 0
-145 79 144 74 76 0
145 -79 0
145 -144 0
145 -74 0
145 -76 0
146 -92 -145 0
-146 92 0
-146 145 0
-147 20 146 12 14 16 0
147 -20 0
147 -146 0
147 -12 0
147 -14 0
147 -16 0
148 -22 -147 0
-148 22 0
-148 147 0
149 -106 -145 0
-149 106 0
-149 145 0
-150 25 149 0
150 -25 0
150 -149 0
151 -24 -150 0
-151 24 0
-151 150 0
152 -38 -36 0
-152 38 0
-152 36 0
-153 40 148 151 152 0
153 -40 0
153 -148 0
153 -151 0
153 -152 0
154 -42 -153 0
-154 42 0
-154 153 0
-155 44 154 0
155 -44 0
155 -154 0
156 -133 -155 0
-156 133 0
-156 155 0
-157 32 156 26 28 0
157 -32 0
157 -156 0
157 -26 0
157 -28 0
158 -159 -157 0
-158 159 0
-158 157 0
160 -161 -107 0
-160 161 0
-160 107 0
-162 163 10 118 139 158 160 0
162 -163 0
162 -10 0
162 -118 0
162 -139 0
162 -158 0
162 -160 0
164 -165 -162 0
-164 165 0
-164 162 0
166 -109 -25 0
-166 109 0
-166 25 0
-167 117 166 114 0
167 -117 0
167 -166 0
167 -114 0
168 -119 -167 0
-168 119 0
-168 167 0
-169 40 23 137 0
169 -40 0
169 -23 0
169 -137 0
170 -140 -169 0
-170 140 0
-170 169 0
-171 40 23 152 0
171 -40 0
171 -23 0
171 -152 0
172 -42 -171 0
-172 42 0
-172 171 0
-173 44 172 0
173 -44 0
173 -172 0
174 -133 -173 0
-174 133 0
-174 173 0
-175 32 174 26 28 0
175 -32 0
175 -174 0
175 -26 0
175 -28 0
176 -159 -175 0
-176 159 0
-176 175 0
177 -161 -25 0
-177 161 0
-177 25 0
-178 163 10 168 170 176 177 0
178 -163 0
178 -10 0
178 -168 0
178 -170 0
178 -176 0
178 -177 0
179 -180 -178 0
-179 180 0
-179 178 0
181 -140 -82 0
-181 140 0
-181 82 0
182 -159 -31 0
-182 159 0
-182 31 0
-183 163 10 168 181 182 177 0
183 -163 0
183 -10 0
183 -168 0
183 -181 0
183 -182 0
183 -177 0
184 -185 -183 0
-184 185 0
-184 183 0
-186 163 10 168 177 0
186 -163 0
186 -10 0
186 -168 0
186 -177 0
187 -188 -186 0
-187 188 0
-187 186 0
-189 30 187 0
189 -30 0
189 -187 0
190 -29 -189 0
-190 29 0
-190 189 0
-191 32 26 190 0
191 -32 0
191 -26 0
191 -190 0
192 -34 -191 0
-192 34 0
-192 191 0
-193 36 192 0
193 -36 0
193 -192 0
194 -38 -193 0
-194 38 0
-194 193 0
-195 40 23 194 0
195 -40 0
195 -23 0
195 -194 0
196 -42 -195 0
-196 42 0
-196 195 0
-197 44 184 196 0
197 -44 0
197 -184 0
197 -196 0
198 -46 -197 0
-198 46 0
-198 197 0
-199 32 132 26 0
199 -32 0
199 -132 0
199 -26 0
200 -34 -199 0
-200 34 0
-200 199 0
-201 36 200 0
201 -36 0
201 -200 0
202 -38 -201 0
-202 38 0
-202 201 0
-203 40 23 202 0
203 -40 0
203 -23 0
203 -202 0
204 -140 -203 0
-204 140 0
-204 203 0
-205 32 174 26 0
205 -32 0
205 -174 0
205 -26 0
206 -159 -205 0
-206 159 0
-206 205 0
-207 163 10 168 204 206 177 0
207 -163 0
207 -10 0
207 -168 0
207 -204 0
207 -206 0
207 -177 0
208 -188 -207 0
-208 188 0
-208 207 0
-209 30 208 0
209 -30 0
209 -208 0
210 -65 -209 0
-210 65 0
-210 209 0
-211 67 198 53 62 210 0
211 -67 0
211 -198 0
211 -53 0
211 -62 0
211 -210 0
212 -69 -211 0
-212 69 0
-212 211 0
-213 71 212 0
213 -71 0
213 -212 0
214 -73 -213 0
-214 73 0
-214 213 0
-215 79 179 214 74 76 0
215 -79 0
215 -179 0
215 -214 0
215 -74 0
215 -76 0
216 -92 -215 0
-216 92 0
-216 215 0
217 -81 -90 0
-217 81 0
-217 90 0
-218 40 37 0
218 -40 0
218 -37 0
219 -42 -218 0
-219 42 0
-219 218 0
-220 44 219 0
220 -44 0
220 -219 0
221 -46 -220 0
-221 46 0
-221 220 0
-222 67 221 47 53 62 64 0
222 -67 0
222 -221 0
222 -47 0
222 -53 0
222 -62 0
222 -64 0
223 -69 -222 0
-223 69 0
-223 222 0
-224 71 223 0
224 -71 0
224 -223 0
225 -73 -224 0
-225 73 0
-225 224 0
-226 79 225 74 76 0
226 -79 0
226 -225 0
226 -74 0
226 -76 0
227 -106 -226 0
-227 106 0
-227 226 0
-228 25 227 0
228 -25 0
228 -227 0
229 -109 -228 0
-229 109 0
-229 228 0
-230 117 217 229 114 0
230 -117 0
230 -217 0
230 -229 0
230 -114 0
231 -119 -230 0
-231 119 0
-231 230 0
-232 40 131 137 0
232 -40 0
232 -131 0
232 -137 0
233 -140 -232 0
-233 140 0
-233 232 0
-234 40 151 152 0
234 -40 0
234 -151 0
234 -152 0
235 -42 -234 0
-235 42 0
-235 234 0
-236 44 235 0
236 -44 0
236 -235 0
237 -133 -236 0
-237 133 0
-237 236 0
-238 32 237 26 28 0
238 -32 0
238 -237 0
238 -26 0
238 -28 0
239 -159 -238 0
-239 159 0
-239 238 0
240 -161 -228 0
-240 161 0
-240 228 0
-241 163 10 231 233 239 240 0
241 -163 0
241 -10 0
241 -231 0
241 -233 0
241 -239 0
241 -240 0
242 -243 -241 0
-242 243 0
-242 241 0
-244 20 216 242 12 14 16 0
244 -20 0
244 -216 0
244 -242 0
244 -12 0
244 -14 0
244 -16 0
245 -246 -244 0
-245 246 0
-245 244 0
247 -81 -145 0
-247 81 0
-247 145 0
248 -95 -147 0
-248 95 0
-248 147 0
249 -109 -150 0
-249 109 0
-249 150 0
-250 117 247 248 249 114 0
250 -117 0
250 -247 0
250 -248 0
250 -249 0
250 -114 0
251 -119 -250 0
-251 119 0
-251 250 0
-252 40 148 151 0
252 -40 0
252 -148 0
252 -151 0
253 -140 -252 0
-253 140 0
-253 252 0
254 -161 -150 0
-254 161 0
-254 150 0
-255 163 10 251 253 182 254 0
255 -163 0
255 -10 0
255 -251 0
255 -253 0
255 -182 0
255 -254 0
256 -185 -255 0
-256 185 0
-256 255 0
257 -180 -186 0
-257 180 0
-257 186 0
258 -65 -189 0
-258 65 0
-258 189 0
-259 67 53 62 258 0
259 -67 0
259 -53 0
259 -62 0
259 -258 0
260 -69 -259 0
-260 69 0
-260 259 0
-261 71 260 0
261 -71 0
261 -260 0
262 -73 -261 0
-262 73 0
-262 261 0
-263 79 257 262 74 76 0
263 -79 0
263 -257 0
263 -262 0
263 -74 0
263 -76 0
264 -92 -263 0
-264 92 0
-264 263 0
-265 117 247 249 114 0
265 -117 0
265 -247 0
265 -249 0
265 -114 0
266 -119 -265 0
-266 119 0
-266 265 0
-267 163 10 266 182 254 0
267 -163 0
267 -10 0
267 -266 0
267 -182 0
267 -254 0
268 -243 -267 0
-268 243 0
-268 267 0
-269 20 264 268 12 14 16 0
269 -20 0
269 -264 0
269 -268 0
269 -12 0
269 -14 0
269 -16 0
270 -22 -269 0
-270 22 0
-270 269 0
-271 117 248 166 114 0
271 -117 0
271 -248 0
271 -166 0
271 -114 0
272 -119 -271 0
-272 119 0
-272 271 0
-273 163 10 272 182 177 0
273 -163 0
273 -10 0
273 -272 0
273 -182 0
273 -177 0
274 -180 -273 0
-274 180 0
-274 273 0
275 -243 -186 0
-275 243 0
-275 186 0
-276 20 275 12 14 16 0
276 -20 0
276 -275 0
276 -12 0
276 -14 0
276 -16 0
277 -48 -276 0
-277 48 0
-277 276 0
278 -95 -19 0
-278 95 0
-278 19 0
-279 117 278 166 114 0
279 -117 0
279 -278 0
279 -166 0
279 -114 0
280 -119 -279 0
-280 119 0
-280 279 0
-281 163 10 280 177 0
281 -163 0
281 -10 0
281 -280 0
281 -177 0
282 -188 -281 0
-282 188 0
-282 281 0
-283 30 282 0
283 -30 0
283 -282 0
284 -65 -283 0
-284 65 0
-284 283 0
-285 67 277 53 62 284 0
285 -67 0
285 -277 0
285 -53 0
285 -62 0
285 -284 0
286 -69 -285 0
-286 69 0
-286 285 0
-287 71 286 0
287 -71 0
287 -286 0
288 -73 -287 0
-288 73 0
-288 287 0
-289 79 274 288 74 76 0
289 -79 0
289 -274 0
289 -288 0
289 -74 0
289 -76 0
290 -106 -289 0
-290 106 0
-290 289 0
-291 25 290 0
291 -25 0
291 -290 0
292 -24 -291 0
-292 24 0
-292 291 0
-293 40 270 292 0
293 -40 0
293 -270 0
293 -292 0
294 -42 -293 0
-294 42 0
-294 293 0
-295 44 256 294 0
295 -44 0
295 -256 0
295 -294 0
296 -133 -295 0
-296 133 0
-296 295 0
-297 40 21 23 0
297 -40 0
297 -21 0
297 -23 0
298 -42 -297 0
-298 42 0
-298 297 0
-299 44 298 0
299 -44 0
299 -298 0
300 -46 -299 0
-300 46 0
-300 299 0
-301 67 300 47 53 62 64 0
301 -67 0
301 -300 0
301 -47 0
301 -53 0
301 -62 0
301 -64 0
302 -69 -301 0
-302 69 0
-302 301 0
-303 71 302 0
303 -71 0
303 -302 0
304 -73 -303 0
-304 73 0
-304 303 0
-305 79 304 74 76 0
305 -79 0
305 -304 0
305 -74 0
305 -76 0
306 -81 -305 0
-306 81 0
-306 305 0
-307 40 23 0
307 -40 0
307 -23 0
308 -42 -307 0
-308 42 0
-308 307 0
-309 44 308 0
309 -44 0
309 -308 0
310 -46 -309 0
-310 46 0
-310 309 0
-311 67 310 47 53 62 64 0
311 -67 0
311 -310 0
311 -47 0
311 -53 0
311 -62 0
311 -64 0
312 -69 -311 0
-312 69 0
-312 311 0
-313 71 312 0
313 -71 0
313 -312 0
314 -73 -313 0
-314 73 0
-314 313 0
-315 79 314 74 76 0
315 -79 0
315 -314 0
315 -74 0
315 -76 0
316 -92 -315 0
-316 92 0
-316 315 0
-317 20 316 12 14 16 0
317 -20 0
317 -316 0
317 -12 0
317 -14 0
317 -16 0
318 -95 -317 0
-318 95 0
-318 317 0
-319 40 21 0
319 -40 0
319 -21 0
320 -42 -319 0
-320 42 0
-320 319 0
-321 44 320 0
321 -44 0
321 -320 0
322 -46 -321 0
-322 46 0
-322 321 0
-323 67 322 47 53 62 64 0
323 -67 0
323 -322 0
323 -47 0
323 -53 0
323 -62 0
323 -64 0
324 -69 -323 0
-324 69 0
-324 323 0
-325 71 324 0
325 -71 0
325 -324 0
326 -73 -325 0
-326 73 0
-326 325 0
-327 79 326 74 76 0
327 -79 0
327 -326 0
327 -74 0
327 -76 0
328 -106 -327 0
-328 106 0
-328 327 0
-329 25 328 0
329 -25 0
329 -328 0
330 -109 -329 0
-330 109 0
-330 329 0
-331 117 306 318 330 114 0
331 -117 0
331 -306 0
331 -318 0
331 -330 0
331 -114 0
332 -119 -331 0
-332 119 0
-332 331 0
-333 40 128 131 0
333 -40 0
333 -128 0
333 -131 0
334 -140 -333 0
-334 140 0
-334 333 0
335 -161 -329 0
-335 161 0
-335 329 0
-336 163 10 332 334 335 0
336 -163 0
336 -10 0
336 -332 0
336 -334 0
336 -335 0
337 -188 -336 0
-337 188 0
-337 336 0
-338 30 337 0
338 -30 0
338 -337 0
339 -29 -338 0
-339 29 0
-339 338 0
-340 32 296 26 339 0
340 -32 0
340 -296 0
340 -26 0
340 -339 0
341 -34 -340 0
-341 34 0
-341 340 0
-342 36 341 0
342 -36 0
342 -341 0
343 -344 -342 0
-343 344 0
-343 342 0
-345 346 164 245 343 0
345 -346 0
345 -164 0
345 -245 0
345 -343 0
347 -348 -345 0
-347 348 0
-347 345 0
349 -350 -8 0
-349 350 0
-349 8 0
351 -246 -19 0
-351 246 0
-351 19 0
352 -344 -35 0
-352 344 0
-352 35 0
-353 346 351 352 0
353 -346 0
353 -351 0
353 -352 0
354 -355 -353 0
-354 355 0
-354 353 0
-356 61 354 55 58 0
356 -61 0
356 -354 0
356 -55 0
356 -58 0
357 -75 -356 0
-357 75 0
-357 356 0
-358 79 357 76 0
358 -79 0
358 -357 0
358 -76 0
359 -81 -358 0
-359 81 0
-359 358 0
360 -92 -358 0
-360 92 0
-360 358 0
-361 20 360 12 14 16 0
361 -20 0
361 -360 0
361 -12 0
361 -14 0
361 -16 0
362 -95 -361 0
-362 95 0
-362 361 0
363 -106 -358 0
-363 106 0
-363 358 0
-364 25 363 0
364 -25 0
364 -363 0
365 -109 -364 0
-365 109 0
-365 364 0
-366 79 74 76 0
366 -79 0
366 -74 0
366 -76 0
367 -92 -366 0
-367 92 0
-367 366 0
-368 20 367 12 14 16 0
368 -20 0
368 -367 0
368 -12 0
368 -14 0
368 -16 0
369 -246 -368 0
-369 246 0
-369 368 0
-370 346 369 352 0
370 -346 0
370 -369 0
370 -352 0
371 -355 -370 0
-371 355 0
-371 370 0
-372 61 371 55 58 0
372 -61 0
372 -371 0
372 -55 0
372 -58 0
373 -111 -372 0
-373 111 0
-373 372 0
-374 113 373 0
374 -113 0
374 -373 0
375 -115 -374 0
-375 115 0
-375 374 0
-376 117 359 362 365 375 0
376 -117 0
376 -359 0
376 -362 0
376 -365 0
376 -375 0
377 -119 -376 0
-377 119 0
-377 376 0
378 -22 -361 0
-378 22 0
-378 361 0
379 -24 -364 0
-379 24 0
-379 364 0
-380 40 378 379 37 0
380 -40 0
380 -378 0
380 -379 0
380 -37 0
381 -140 -380 0
-381 140 0
-381 380 0
382 -161 -364 0
-382 161 0
-382 364 0
-383 163 10 377 381 182 382 0
383 -163 0
383 -10 0
383 -377 0
383 -381 0
383 -182 0
383 -382 0
384 -185 -383 0
-384 185 0
-384 383 0
385 -111 -356 0
-385 111 0
-385 356 0
-386 113 385 0
386 -113 0
386 -385 0
387 -115 -386 0
-387 115 0
-387 386 0
-388 117 166 387 0
388 -117 0
388 -166 0
388 -387 0
389 -119 -388 0
-389 119 0
-389 388 0
-390 163 10 389 170 182 177 0
390 -163 0
390 -10 0
390 -389 0
390 -170 0
390 -182 0
390 -177 0
391 -180 -390 0
-391 180 0
-391 390 0
392 -165 -183 0
-392 165 0
-392 183 0
393 -344 -193 0
-393 344 0
-393 193 0
-394 346 392 393 0
394 -346 0
394 -392 0
394 -393 0
395 -355 -394 0
-395 355 0
-395 394 0
-396 61 395 55 58 0
396 -61 0
396 -395 0
396 -55 0
396 -58 0
397 -75 -396 0
-397 75 0
-397 396 0
-398 79 391 397 76 0
398 -79 0
398 -391 0
398 -397 0
398 -76 0
399 -92 -398 0
-399 92 0
-399 398 0
-400 346 352 0
400 -346 0
400 -352 0
401 -355 -400 0
-401 355 0
-401 400 0
-402 61 401 55 58 0
402 -61 0
402 -401 0
402 -55 0
402 -58 0
403 -111 -402 0
-403 111 0
-403 402 0
-404 113 403 0
404 -113 0
404 -403 0
405 -115 -404 0
-405 115 0
-405 404 0
-406 117 359 365 405 0
406 -117 0
406 -359 0
406 -365 0
406 -405 0
407 -119 -406 0
-407 119 0
-407 406 0
-408 163 10 407 182 382 0
408 -163 0
408 -10 0
408 -407 0
408 -182 0
408 -382 0
409 -243 -408 0
-409 243 0
-409 408 0
-410 20 399 409 12 14 16 0
410 -20 0
410 -399 0
410 -409 0
410 -12 0
410 -14 0
410 -16 0
411 -22 -410 0
-411 22 0
-411 410 0
-412 117 278 166 387 0
412 -117 0
412 -278 0
412 -166 0
412 -387 0
413 -119 -412 0
-413 119 0
-413 412 0
-414 163 10 413 182 177 0
414 -163 0
414 -10 0
414 -413 0
414 -182 0
414 -177 0
415 -180 -414 0
-415 180 0
-415 414 0
-416 163 10 280 182 177 0
416 -163 0
416 -10 0
416 -280 0
416 -182 0
416 -177 0
417 -165 -416 0
-417 165 0
-417 416 0
418 -243 -416 0
-418 243 0
-418 416 0
-419 20 418 12 14 16 0
419 -20 0
419 -418 0
419 -12 0
419 -14 0
419 -16 0
420 -246 -419 0
-420 246 0
-420 419 0
421 -29 -283 0
-421 29 0
-421 283 0
-422 32 26 421 0
422 -32 0
422 -26 0
422 -421 0
423 -34 -422 0
-423 34 0
-423 422 0
-424 36 423 0
424 -36 0
424 -423 0
425 -344 -424 0
-425 344 0
-425 424 0
-426 346 417 420 425 0
426 -346 0
426 -417 0
426 -420 0
426 -425 0
427 -355 -426 0
-427 355 0
-427 426 0
-428 61 427 55 58 0
428 -61 0
428 -427 0
428 -55 0
428 -58 0
429 -75 -428 0
-429 75 0
-429 428 0
-430 79 415 429 76 0
430 -79 0
430 -415 0
430 -429 0
430 -76 0
431 -106 -430 0
-431 106 0
-431 430 0
-432 25 431 0
432 -25 0
432 -431 0
433 -24 -432 0
-433 24 0
-433 432 0
-434 346 351 0
434 -346 0
434 -351 0
435 -355 -434 0
-435 355 0
-435 434 0
-436 61 435 55 58 0
436 -61 0
436 -435 0
436 -55 0
436 -58 0
437 -75 -436 0
-437 75 0
-437 436 0
-438 79 437 76 0
438 -79 0
438 -437 0
438 -76 0
439 -81 -438 0
-439 81 0
-439 438 0
440 -92 -438 0
-440 92 0
-440 438 0
-441 20 440 12 14 16 0
441 -20 0
441 -440 0
441 -12 0
441 -14 0
441 -16 0
442 -95 -441 0
-442 95 0
-442 441 0
443 -106 -438 0
-443 106 0
-443 438 0
-444 25 443 0
444 -25 0
444 -443 0
445 -109 -444 0
-445 109 0
-445 444 0
-446 346 369 0
446 -346 0
446 -369 0
447 -355 -446 0
-447 355 0
-447 446 0
-448 61 447 55 58 0
448 -61 0
448 -447 0
448 -55 0
448 -58 0
449 -111 -448 0
-449 111 0
-449 448 0
-450 113 449 0
450 -113 0
450 -449 0
451 -115 -450 0
-451 115 0
-451 450 0
-452 117 439 442 445 451 0
452 -117 0
452 -439 0
452 -442 0
452 -445 0
452 -451 0
453 -119 -452 0
-453 119 0
-453 452 0
454 -161 -444 0
-454 161 0
-454 444 0
-455 163 10 453 454 0
455 -163 0
455 -10 0
455 -453 0
455 -454 0
456 -188 -455 0
-456 188 0
-456 455 0
-457 30 456 0
457 -30 0
457 -456 0
458 -29 -457 0
-458 29 0
-458 457 0
-459 32 26 458 0
459 -32 0
459 -26 0
459 -458 0
460 -34 -459 0
-460 34 0
-460 459 0
-461 36 460 0
461 -36 0
461 -460 0
462 -38 -461 0
-462 38 0
-462 461 0
-463 40 411 433 462 0
463 -40 0
463 -411 0
463 -433 0
463 -462 0
464 -42 -463 0
-464 42 0
-464 463 0
-465 44 384 464 0
465 -44 0
465 -384 0
465 -464 0
466 -46 -465 0
-466 46 0
-466 465 0
467 -133 -309 0
-467 133 0
-467 309 0
-468 32 467 26 28 0
468 -32 0
468 -467 0
468 -26 0
468 -28 0
469 -34 -468 0
-469 34 0
-469 468 0
-470 36 469 0
470 -36 0
470 -469 0
471 -344 -470 0
-471 344 0
-471 470 0
-472 346 351 471 0
472 -346 0
472 -351 0
472 -471 0
473 -355 -472 0
-473 355 0
-473 472 0
-474 61 473 55 58 0
474 -61 0
474 -473 0
474 -55 0
474 -58 0
475 -111 -474 0
-475 111 0
-475 474 0
-476 113 475 0
476 -113 0
476 -475 0
477 -115 -476 0
-477 115 0
-477 476 0
-478 117 166 477 0
478 -117 0
478 -166 0
478 -477 0
479 -119 -478 0
-479 119 0
-479 478 0
-480 163 10 479 170 176 177 0
480 -163 0
480 -10 0
480 -479 0
480 -170 0
480 -176 0
480 -177 0
481 -180 -480 0
-481 180 0
-481 480 0
482 -165 -178 0
-482 165 0
-482 178 0
483 -140 -307 0
-483 140 0
-483 307 0
-484 163 10 168 483 182 177 0
484 -163 0
484 -10 0
484 -168 0
484 -483 0
484 -182 0
484 -177 0
485 -185 -484 0
-485 185 0
-485 484 0
-486 44 485 308 0
486 -44 0
486 -485 0
486 -308 0
487 -133 -486 0
-487 133 0
-487 486 0
-488 163 10 168 483 177 0
488 -163 0
488 -10 0
488 -168 0
488 -483 0
488 -177 0
489 -188 -488 0
-489 188 0
-489 488 0
-490 30 489 0
490 -30 0
490 -489 0
491 -29 -490 0
-491 29 0
-491 490 0
-492 32 487 26 491 0
492 -32 0
492 -487 0
492 -26 0
492 -491 0
493 -34 -492 0
-493 34 0
-493 492 0
-494 36 493 0
494 -36 0
494 -493 0
495 -344 -494 0
-495 344 0
-495 494 0
-496 346 482 495 0
496 -346 0
496 -482 0
496 -495 0
497 -355 -496 0
-497 355 0
-497 496 0
-498 61 497 55 58 0
498 -61 0
498 -497 0
498 -55 0
498 -58 0
499 -75 -498 0
-499 75 0
-499 498 0
-500 79 481 499 76 0
500 -79 0
500 -481 0
500 -499 0
500 -76 0
501 -92 -500 0
-501 92 0
-501 500 0
502 -75 -474 0
-502 75 0
-502 474 0
-503 79 502 76 0
503 -79 0
503 -502 0
503 -76 0
504 -81 -503 0
-504 81 0
-504 503 0
505 -42 -40 0
-505 42 0
-505 40 0
-506 44 505 0
506 -44 0
506 -505 0
507 -133 -506 0
-507 133 0
-507 506 0
-508 32 507 26 28 0
508 -32 0
508 -507 0
508 -26 0
508 -28 0
509 -34 -508 0
-509 34 0
-509 508 0
-510 36 509 0
510 -36 0
510 -509 0
511 -344 -510 0
-511 344 0
-511 510 0
-512 346 351 511 0
512 -346 0
512 -351 0
512 -511 0
513 -355 -512 0
-513 355 0
-513 512 0
-514 61 513 55 58 0
514 -61 0
514 -513 0
514 -55 0
514 -58 0
515 -75 -514 0
-515 75 0
-515 514 0
-516 79 515 76 0
516 -79 0
516 -515 0
516 -76 0
517 -106 -516 0
-517 106 0
-517 516 0
-518 25 517 0
518 -25 0
518 -517 0
519 -109 -518 0
-519 109 0
-519 518 0
520 -106 -366 0
-520 106 0
-520 366 0
-521 25 520 0
521 -25 0
521 -520 0
522 -24 -521 0
-522 24 0
-522 521 0
-523 40 522 0
523 -40 0
523 -522 0
524 -42 -523 0
-524 42 0
-524 523 0
-525 44 524 0
525 -44 0
525 -524 0
526 -133 -525 0
-526 133 0
-526 525 0
-527 32 526 26 28 0
527 -32 0
527 -526 0
527 -26 0
527 -28 0
528 -34 -527 0
-528 34 0
-528 527 0
-529 36 528 0
529 -36 0
529 -528 0
530 -344 -529 0
-530 344 0
-530 529 0
-531 346 530 0
531 -346 0
531 -530 0
532 -355 -531 0
-532 355 0
-532 531 0
-533 61 532 55 58 0
533 -61 0
533 -532 0
533 -55 0
533 -58 0
534 -111 -533 0
-534 111 0
-534 533 0
-535 113 534 0
535 -113 0
535 -534 0
536 -115 -535 0
-536 115 0
-536 535 0
-537 117 504 519 536 0
537 -117 0
537 -504 0
537 -519 0
537 -536 0
538 -119 -537 0
-538 119 0
-538 537 0
539 -344 -136 0
-539 344 0
-539 136 0
-540 346 351 539 0
540 -346 0
540 -351 0
540 -539 0
541 -355 -540 0
-541 355 0
-541 540 0
-542 61 541 55 58 0
542 -61 0
542 -541 0
542 -55 0
542 -58 0
543 -75 -542 0
-543 75 0
-543 542 0
-544 79 543 76 0
544 -79 0
544 -543 0
544 -76 0
545 -106 -544 0
-545 106 0
-545 544 0
-546 25 545 0
546 -25 0
546 -545 0
547 -24 -546 0
-547 24 0
-547 546 0
-548 40 547 137 0
548 -40 0
548 -547 0
548 -137 0
549 -140 -548 0
-549 140 0
-549 548 0
-550 346 351 425 0
550 -346 0
550 -351 0
550 -425 0
551 -355 -550 0
-551 355 0
-551 550 0
-552 61 551 55 58 0
552 -61 0
552 -551 0
552 -55 0
552 -58 0
553 -75 -552 0
-553 75 0
-553 552 0
-554 79 553 76 0
554 -79 0
554 -553 0
554 -76 0
555 -106 -554 0
-555 106 0
-555 554 0
-556 25 555 0
556 -25 0
556 -555 0
557 -24 -556 0
-557 24 0
-557 556 0
-558 40 557 152 0
558 -40 0
558 -557 0
558 -152 0
559 -42 -558 0
-559 42 0
-559 558 0
-560 44 559 0
560 -44 0
560 -559 0
561 -133 -560 0
-561 133 0
-561 560 0
-562 32 561 26 28 0
562 -32 0
562 -561 0
562 -26 0
562 -28 0
563 -159 -562 0
-563 159 0
-563 562 0
564 -161 -518 0
-564 161 0
-564 518 0
-565 163 10 538 549 563 564 0
565 -163 0
565 -10 0
565 -538 0
565 -549 0
565 -563 0
565 -564 0
566 -243 -565 0
-566 243 0
-566 565 0
-567 20 501 566 12 14 16 0
567 -20 0
567 -501 0
567 -566 0
567 -12 0
567 -14 0
567 -16 0
568 -48 -567 0
-568 48 0
-568 567 0
569 -81 -366 0
-569 81 0
-569 366 0
570 -95 -368 0
-570 95 0
-570 368 0
571 -109 -521 0
-571 109 0
-571 521 0
-572 117 569 570 571 114 0
572 -117 0
572 -569 0
572 -570 0
572 -571 0
572 -114 0
573 -119 -572 0
-573 119 0
-573 572 0
574 -22 -368 0
-574 22 0
-574 368 0
-575 40 574 522 137 0
575 -40 0
575 -574 0
575 -522 0
575 -137 0
576 -140 -575 0
-576 140 0
-576 575 0
-577 40 574 522 152 0
577 -40 0
577 -574 0
577 -522 0
577 -152 0
578 -42 -577 0
-578 42 0
-578 577 0
-579 44 578 0
579 -44 0
579 -578 0
580 -133 -579 0
-580 133 0
-580 579 0
-581 32 580 26 28 0
581 -32 0
581 -580 0
581 -26 0
581 -28 0
582 -159 -581 0
-582 159 0
-582 581 0
583 -161 -521 0
-583 161 0
-583 521 0
-584 163 10 573 576 582 583 0
584 -163 0
584 -10 0
584 -573 0
584 -576 0
584 -582 0
584 -583 0
585 -165 -584 0
-585 165 0
-585 584 0
-586 79 179 74 76 0
586 -79 0
586 -179 0
586 -74 0
586 -76 0
587 -92 -586 0
-587 92 0
-587 586 0
588 -243 -584 0
-588 243 0
-588 584 0
-589 20 587 588 12 14 16 0
589 -20 0
589 -587 0
589 -588 0
589 -12 0
589 -14 0
589 -16 0
590 -246 -589 0
-590 246 0
-590 589 0
-591 40 574 522 0
591 -40 0
591 -574 0
591 -522 0
592 -140 -591 0
-592 140 0
-592 591 0
-593 163 10 573 592 182 583 0
593 -163 0
593 -10 0
593 -573 0
593 -592 0
593 -182 0
593 -583 0
594 -185 -593 0
-594 185 0
-594 593 0
-595 79 257 74 76 0
595 -79 0
595 -257 0
595 -74 0
595 -76 0
596 -92 -595 0
-596 92 0
-596 595 0
-597 163 10 573 182 583 0
597 -163 0
597 -10 0
597 -573 0
597 -182 0
597 -583 0
598 -243 -597 0
-598 243 0
-598 597 0
-599 20 596 598 12 14 16 0
599 -20 0
599 -596 0
599 -598 0
599 -12 0
599 -14 0
599 -16 0
600 -22 -599 0
-600 22 0
-600 599 0
601 -180 -281 0
-601 180 0
-601 281 0
-602 79 601 74 76 0
602 -79 0
602 -601 0
602 -74 0
602 -76 0
603 -106 -602 0
-603 106 0
-603 602 0
-604 25 603 0
604 -25 0
604 -603 0
605 -24 -604 0
-605 24 0
-605 604 0
-606 40 600 605 0
606 -40 0
606 -600 0
606 -605 0
607 -42 -606 0
-607 42 0
-607 606 0
-608 44 594 607 0
608 -44 0
608 -594 0
608 -607 0
609 -133 -608 0
-609 133 0
-609 608 0
-610 163 10 573 592 583 0
610 -163 0
610 -10 0
610 -573 0
610 -592 0
610 -583 0
611 -188 -610 0
-611 188 0
-611 610 0
-612 30 611 0
612 -30 0
612 -611 0
613 -29 -612 0
-613 29 0
-613 612 0
-614 32 609 26 613 0
614 -32 0
614 -609 0
614 -26 0
614 -613 0
615 -34 -614 0
-615 34 0
-615 614 0
-616 36 615 0
616 -36 0
616 -615 0
617 -344 -616 0
-617 344 0
-617 616 0
-618 346 585 590 617 0
618 -346 0
618 -585 0
618 -590 0
618 -617 0
619 -355 -618 0
-619 355 0
-619 618 0
-620 61 619 55 58 0
620 -61 0
620 -619 0
620 -55 0
620 -58 0
621 -63 -620 0
-621 63 0
-621 620 0
622 -133 -299 0
-622 133 0
-622 299 0
-623 32 622 26 0
623 -32 0
623 -622 0
623 -26 0
624 -34 -623 0
-624 34 0
-624 623 0
-625 36 624 0
625 -36 0
625 -624 0
626 -344 -625 0
-626 344 0
-626 625 0
-627 346 351 626 0
627 -346 0
627 -351 0
627 -626 0
628 -355 -627 0
-628 355 0
-628 627 0
-629 61 628 55 58 0
629 -61 0
629 -628 0
629 -55 0
629 -58 0
630 -75 -629 0
-630 75 0
-630 629 0
-631 79 630 76 0
631 -79 0
631 -630 0
631 -76 0
632 -81 -631 0
-632 81 0
-632 631 0
-633 32 467 26 0
633 -32 0
633 -467 0
633 -26 0
634 -34 -633 0
-634 34 0
-634 633 0
-635 36 634 0
635 -36 0
635 -634 0
636 -344 -635 0
-636 344 0
-636 635 0
-637 346 351 636 0
637 -346 0
637 -351 0
637 -636 0
638 -355 -637 0
-638 355 0
-638 637 0
-639 61 638 55 58 0
639 -61 0
639 -638 0
639 -55 0
639 -58 0
640 -75 -639 0
-640 75 0
-640 639 0
-641 79 640 76 0
641 -79 0
641 -640 0
641 -76 0
642 -92 -641 0
-642 92 0
-642 641 0
-643 20 642 12 14 16 0
643 -20 0
643 -642 0
643 -12 0
643 -14 0
643 -16 0
644 -95 -643 0
-644 95 0
-644 643 0
645 -133 -321 0
-645 133 0
-645 321 0
-646 32 645 26 0
646 -32 0
646 -645 0
646 -26 0
647 -34 -646 0
-647 34 0
-647 646 0
-648 36 647 0
648 -36 0
648 -647 0
649 -344 -648 0
-649 344 0
-649 648 0
-650 346 351 649 0
650 -346 0
650 -351 0
650 -649 0
651 -355 -650 0
-651 355 0
-651 650 0
-652 61 651 55 58 0
652 -61 0
652 -651 0
652 -55 0
652 -58 0
653 -75 -652 0
-653 75 0
-653 652 0
-654 79 653 76 0
654 -79 0
654 -653 0
654 -76 0
655 -106 -654 0
-655 106 0
-655 654 0
-656 25 655 0
656 -25 0
656 -655 0
657 -109 -656 0
-657 109 0
-657 656 0
658 -42 -591 0
-658 42 0
-658 591 0
-659 44 658 0
659 -44 0
659 -658 0
660 -133 -659 0
-660 133 0
-660 659 0
-661 32 660 26 0
661 -32 0
661 -660 0
661 -26 0
662 -34 -661 0
-662 34 0
-662 661 0
-663 36 662 0
663 -36 0
663 -662 0
664 -344 -663 0
-664 344 0
-664 663 0
-665 346 369 664 0
665 -346 0
665 -369 0
665 -664 0
666 -355 -665 0
-666 355 0
-666 665 0
-667 61 666 55 58 0
667 -61 0
667 -666 0
667 -55 0
667 -58 0
668 -111 -667 0
-668 111 0
-668 667 0
-669 113 668 0
669 -113 0
669 -668 0
670 -115 -669 0
-670 115 0
-670 669 0
-671 117 632 644 657 670 0
671 -117 0
671 -632 0
671 -644 0
671 -657 0
671 -670 0
672 -119 -671 0
-672 119 0
-672 671 0
673 -344 -201 0
-673 344 0
-673 201 0
-674 346 351 673 0
674 -346 0
674 -351 0
674 -673 0
675 -355 -674 0
-675 355 0
-675 674 0
-676 61 675 55 58 0
676 -61 0
676 -675 0
676 -55 0
676 -58 0
677 -75 -676 0
-677 75 0
-677 676 0
-678 79 677 76 0
678 -79 0
678 -677 0
678 -76 0
679 -92 -678 0
-679 92 0
-679 678 0
-680 20 679 12 14 16 0
680 -20 0
680 -679 0
680 -12 0
680 -14 0
680 -16 0
681 -22 -680 0
-681 22 0
-681 680 0
682 -106 -678 0
-682 106 0
-682 678 0
-683 25 682 0
683 -25 0
683 -682 0
684 -24 -683 0
-684 24 0
-684 683 0
-685 40 681 684 202 0
685 -40 0
685 -681 0
685 -684 0
685 -202 0
686 -140 -685 0
-686 140 0
-686 685 0
687 -344 -36 0
-687 344 0
-687 36 0
-688 346 351 687 0
688 -346 0
688 -351 0
688 -687 0
689 -355 -688 0
-689 355 0
-689 688 0
-690 61 689 55 58 0
690 -61 0
690 -689 0
690 -55 0
690 -58 0
691 -75 -690 0
-691 75 0
-691 690 0
-692 79 691 76 0
692 -79 0
692 -691 0
692 -76 0
693 -92 -692 0
-693 92 0
-693 692 0
-694 20 693 12 14 16 0
694 -20 0
694 -693 0
694 -12 0
694 -14 0
694 -16 0
695 -22 -694 0
-695 22 0
-695 694 0
696 -106 -692 0
-696 106 0
-696 692 0
-697 25 696 0
697 -25 0
697 -696 0
698 -24 -697 0
-698 24 0
-698 697 0
-699 40 695 698 152 0
699 -40 0
699 -695 0
699 -698 0
699 -152 0
700 -42 -699 0
-700 42 0
-700 699 0
-701 44 700 0
701 -44 0
701 -700 0
702 -133 -701 0
-702 133 0
-702 701 0
-703 32 702 26 0
703 -32 0
703 -702 0
703 -26 0
704 -159 -703 0
-704 159 0
-704 703 0
705 -161 -656 0
-705 161 0
-705 656 0
-706 163 10 672 686 704 705 0
706 -163 0
706 -10 0
706 -672 0
706 -686 0
706 -704 0
706 -705 0
707 -188 -706 0
-707 188 0
-707 706 0
-708 30 707 0
708 -30 0
708 -707 0
709 -65 -708 0
-709 65 0
-709 708 0
-710 67 466 568 53 621 709 0
710 -67 0
710 -466 0
710 -568 0
710 -53 0
710 -621 0
710 -709 0
711 -69 -710 0
-711 69 0
-711 710 0
-712 71 711 0
712 -71 0
712 -711 0
713 -714 -712 0
-713 714 0
-713 712 0
715 -716 -51 0
-715 716 0
-715 51 0
-717 718 347 349 713 715 0
717 -718 0
717 -347 0
717 -349 0
717 -713 0
717 -715 0
719 -720 -717 0
-719 720 0
-719 717 0
721 -722 -4 0
-721 722 0
-721 4 0
723 -159 -134 0
-723 159 0
-723 134 0
-724 163 10 168 170 723 177 0
724 -163 0
724 -10 0
724 -168 0
724 -170 0
724 -723 0
724 -177 0
725 -165 -724 0
-725 165 0
-725 724 0
726 -185 -186 0
-726 185 0
-726 186 0
-727 44 726 0
727 -44 0
727 -726 0
728 -133 -727 0
-728 133 0
-728 727 0
-729 32 728 26 190 0
729 -32 0
729 -728 0
729 -26 0
729 -190 0
730 -34 -729 0
-730 34 0
-730 729 0
-731 36 730 0
731 -36 0
731 -730 0
732 -344 -731 0
-732 344 0
-732 731 0
-733 346 725 732 0
733 -346 0
733 -725 0
733 -732 0
734 -348 -733 0
-734 348 0
-734 733 0
735 -185 -390 0
-735 185 0
-735 390 0
-736 44 735 0
736 -44 0
736 -735 0
737 -46 -736 0
-737 46 0
-737 736 0
738 -355 -733 0
-738 355 0
-738 733 0
-739 61 738 55 58 0
739 -61 0
739 -738 0
739 -55 0
739 -58 0
740 -63 -739 0
-740 63 0
-740 739 0
741 -111 -676 0
-741 111 0
-741 676 0
-742 113 741 0
742 -113 0
742 -741 0
743 -115 -742 0
-743 115 0
-743 742 0
-744 117 166 743 0
744 -117 0
744 -166 0
744 -743 0
745 -119 -744 0
-745 119 0
-745 744 0
746 -159 -199 0
-746 159 0
-746 199 0
-747 163 10 745 746 177 0
747 -163 0
747 -10 0
747 -745 0
747 -746 0
747 -177 0
748 -188 -747 0
-748 188 0
-748 747 0
-749 30 748 0
749 -30 0
749 -748 0
750 -65 -749 0
-750 65 0
-750 749 0
-751 67 737 53 740 750 0
751 -67 0
751 -737 0
751 -53 0
751 -740 0
751 -750 0
752 -69 -751 0
-752 69 0
-752 751 0
-753 71 752 0
753 -71 0
753 -752 0
754 -714 -753 0
-754 714 0
-754 753 0
-755 718 734 349 754 715 0
755 -718 0
755 -734 0
755 -349 0
755 -754 0
755 -715 0
756 -757 -755 0
-756 757 0
-756 755 0
758 -348 -540 0
-758 348 0
-758 540 0
759 -63 -542 0
-759 63 0
-759 542 0
-760 67 120 47 53 759 64 0
760 -67 0
760 -120 0
760 -47 0
760 -53 0
760 -759 0
760 -64 0
761 -69 -760 0
-761 69 0
-761 760 0
-762 71 761 0
762 -71 0
762 -761 0
763 -714 -762 0
-763 714 0
-763 762 0
-764 718 758 349 763 715 0
764 -718 0
764 -758 0
764 -349 0
764 -763 0
764 -715 0
765 -766 -764 0
-765 766 0
-765 764 0
767 -768 -764 0
-767 768 0
-767 764 0
-769 67 120 47 53 64 0
769 -67 0
769 -120 0
769 -47 0
769 -53 0
769 -64 0
770 -69 -769 0
-770 69 0
-770 769 0
-771 71 770 0
771 -71 0
771 -770 0
772 -714 -771 0
-772 714 0
-772 771 0
-773 718 349 772 715 0
773 -718 0
773 -349 0
773 -772 0
773 -715 0
774 -775 -773 0
-774 775 0
-774 773 0
-776 67 47 53 64 0
776 -67 0
776 -47 0
776 -53 0
776 -64 0
777 -69 -776 0
-777 69 0
-777 776 0
-778 71 777 0
778 -71 0
778 -777 0
779 -714 -778 0
-779 714 0
-779 778 0
-780 718 349 779 715 0
780 -718 0
780 -349 0
780 -779 0
780 -715 0
781 -782 -780 0
-781 782 0
-781 780 0
-783 44 781 0
783 -44 0
783 -781 0
784 -133 -783 0
-784 133 0
-784 783 0
-785 32 774 784 26 28 0
785 -32 0
785 -774 0
785 -784 0
785 -26 0
785 -28 0
786 -34 -785 0
-786 34 0
-786 785 0
-787 36 786 0
787 -36 0
787 -786 0
788 -344 -787 0
-788 344 0
-788 787 0
-789 346 351 788 0
789 -346 0
789 -351 0
789 -788 0
790 -355 -789 0
-790 355 0
-790 789 0
-791 718 758 349 772 715 0
791 -718 0
791 -758 0
791 -349 0
791 -772 0
791 -715 0
792 -793 -791 0
-792 793 0
-792 791 0
-794 57 792 0
794 -57 0
794 -792 0
795 -56 -794 0
-795 56 0
-795 794 0
-796 61 790 795 58 0
796 -61 0
796 -790 0
796 -795 0
796 -58 0
797 -111 -796 0
-797 111 0
-797 796 0
-798 113 767 797 0
798 -113 0
798 -767 0
798 -797 0
799 -115 -798 0
-799 115 0
-799 798 0
-800 117 166 799 0
800 -117 0
800 -166 0
800 -799 0
801 -119 -800 0
-801 119 0
-801 800 0
802 -348 -688 0
-802 348 0
-802 688 0
803 -63 -690 0
-803 63 0
-803 690 0
-804 67 120 47 53 803 64 0
804 -67 0
804 -120 0
804 -47 0
804 -53 0
804 -803 0
804 -64 0
805 -69 -804 0
-805 69 0
-805 804 0
-806 71 805 0
806 -71 0
806 -805 0
807 -714 -806 0
-807 714 0
-807 806 0
-808 718 802 349 807 715 0
808 -718 0
808 -802 0
808 -349 0
808 -807 0
808 -715 0
809 -775 -808 0
-809 775 0
-809 808 0
-810 67 47 53 803 64 0
810 -67 0
810 -47 0
810 -53 0
810 -803 0
810 -64 0
811 -69 -810 0
-811 69 0
-811 810 0
-812 71 811 0
812 -71 0
812 -811 0
813 -714 -812 0
-813 714 0
-813 812 0
-814 718 802 349 813 715 0
814 -718 0
814 -802 0
814 -349 0
814 -813 0
814 -715 0
815 -782 -814 0
-815 782 0
-815 814 0
-816 44 815 0
816 -44 0
816 -815 0
817 -133 -816 0
-817 133 0
-817 816 0
-818 32 809 817 26 28 0
818 -32 0
818 -809 0
818 -817 0
818 -26 0
818 -28 0
819 -159 -818 0
-819 159 0
-819 818 0
-820 163 765 10 801 819 177 0
820 -163 0
820 -765 0
820 -10 0
820 -801 0
820 -819 0
820 -177 0
821 -180 -820 0
-821 180 0
-821 820 0
-822 718 734 349 715 0
822 -718 0
822 -734 0
822 -349 0
822 -715 0
823 -824 -822 0
-823 824 0
-823 822 0
825 -348 -394 0
-825 348 0
-825 394 0
-826 718 825 349 715 0
826 -718 0
826 -825 0
826 -349 0
826 -715 0
827 -782 -826 0
-827 782 0
-827 826 0
-828 718 758 349 715 0
828 -718 0
828 -758 0
828 -349 0
828 -715 0
829 -766 -828 0
-829 766 0
-829 828 0
830 -768 -828 0
-830 768 0
-830 828 0
-831 718 349 715 0
831 -718 0
831 -349 0
831 -715 0
832 -775 -831 0
-832 775 0
-832 831 0
-833 32 832 26 28 0
833 -32 0
833 -832 0
833 -26 0
833 -28 0
834 -34 -833 0
-834 34 0
-834 833 0
-835 36 834 0
835 -36 0
835 -834 0
836 -344 -835 0
-836 344 0
-836 835 0
-837 346 351 836 0
837 -346 0
837 -351 0
837 -836 0
838 -355 -837 0
-838 355 0
-838 837 0
839 -793 -828 0
-839 793 0
-839 828 0
-840 57 839 0
840 -57 0
840 -839 0
841 -56 -840 0
-841 56 0
-841 840 0
-842 61 838 841 58 0
842 -61 0
842 -838 0
842 -841 0
842 -58 0
843 -111 -842 0
-843 111 0
-843 842 0
-844 113 830 843 0
844 -113 0
844 -830 0
844 -843 0
845 -115 -844 0
-845 115 0
-845 844 0
-846 117 166 845 0
846 -117 0
846 -166 0
846 -845 0
847 -119 -846 0
-847 119 0
-847 846 0
-848 718 802 349 715 0
848 -718 0
848 -802 0
848 -349 0
848 -715 0
849 -775 -848 0
-849 775 0
-849 848 0
-850 32 849 26 28 0
850 -32 0
850 -849 0
850 -26 0
850 -28 0
851 -159 -850 0
-851 159 0
-851 850 0
-852 163 829 10 847 851 177 0
852 -163 0
852 -829 0
852 -10 0
852 -847 0
852 -851 0
852 -177 0
853 -185 -852 0
-853 185 0
-853 852 0
-854 44 827 853 0
854 -44 0
854 -827 0
854 -853 0
855 -46 -854 0
-855 46 0
-855 854 0
-856 113 830 0
856 -113 0
856 -830 0
857 -115 -856 0
-857 115 0
-857 856 0
-858 117 166 857 0
858 -117 0
858 -166 0
858 -857 0
859 -119 -858 0
-859 119 0
-859 858 0
860 -782 -831 0
-860 782 0
-860 831 0
-861 44 860 0
861 -44 0
861 -860 0
862 -133 -861 0
-862 133 0
-862 861 0
-863 32 832 862 26 28 0
863 -32 0
863 -832 0
863 -862 0
863 -26 0
863 -28 0
864 -159 -863 0
-864 159 0
-864 863 0
-865 163 829 10 859 864 177 0
865 -163 0
865 -829 0
865 -10 0
865 -859 0
865 -864 0
865 -177 0
866 -165 -865 0
-866 165 0
-866 865 0
867 -766 -831 0
-867 766 0
-867 831 0
868 -768 -831 0
-868 768 0
-868 831 0
-869 113 868 0
869 -113 0
869 -868 0
870 -115 -869 0
-870 115 0
-870 869 0
-871 117 166 870 0
871 -117 0
871 -166 0
871 -870 0
872 -119 -871 0
-872 119 0
-872 871 0
-873 163 867 10 872 177 0
873 -163 0
873 -867 0
873 -10 0
873 -872 0
873 -177 0
874 -185 -873 0
-874 185 0
-874 873 0
-875 44 860 874 0
875 -44 0
875 -860 0
875 -874 0
876 -133 -875 0
-876 133 0
-876 875 0
877 -188 -873 0
-877 188 0
-877 873 0
-878 30 877 0
878 -30 0
878 -877 0
879 -29 -878 0
-879 29 0
-879 878 0
-880 32 832 876 26 879 0
880 -32 0
880 -832 0
880 -876 0
880 -26 0
880 -879 0
881 -34 -880 0
-881 34 0
-881 880 0
-882 36 881 0
882 -36 0
882 -881 0
883 -344 -882 0
-883 344 0
-883 882 0
-884 346 866 883 0
884 -346 0
884 -866 0
884 -883 0
885 -355 -884 0
-885 355 0
-885 884 0
-886 32 876 26 879 0
886 -32 0
886 -876 0
886 -26 0
886 -879 0
887 -34 -886 0
-887 34 0
-887 886 0
-888 36 887 0
888 -36 0
888 -887 0
889 -344 -888 0
-889 344 0
-889 888 0
-890 346 866 889 0
890 -346 0
890 -866 0
890 -889 0
891 -348 -890 0
-891 348 0
-891 890 0
-892 718 891 349 715 0
892 -718 0
892 -891 0
892 -349 0
892 -715 0
893 -793 -892 0
-893 793 0
-893 892 0
-894 57 893 0
894 -57 0
894 -893 0
895 -56 -894 0
-895 56 0
-895 894 0
-896 61 885 895 58 0
896 -61 0
896 -885 0
896 -895 0
896 -58 0
897 -63 -896 0
-897 63 0
-897 896 0
898 -348 -674 0
-898 348 0
-898 674 0
-899 718 898 349 715 0
899 -718 0
899 -898 0
899 -349 0
899 -715 0
900 -766 -899 0
-900 766 0
-900 899 0
901 -768 -899 0
-901 768 0
-901 899 0
-902 32 832 862 26 0
902 -32 0
902 -832 0
902 -862 0
902 -26 0
903 -34 -902 0
-903 34 0
-903 902 0
-904 36 903 0
904 -36 0
904 -903 0
905 -344 -904 0
-905 344 0
-905 904 0
-906 346 351 905 0
906 -346 0
906 -351 0
906 -905 0
907 -355 -906 0
-907 355 0
-907 906 0
908 -793 -899 0
-908 793 0
-908 899 0
-909 57 908 0
909 -57 0
909 -908 0
910 -56 -909 0
-910 56 0
-910 909 0
-911 61 907 910 58 0
911 -61 0
911 -907 0
911 -910 0
911 -58 0
912 -111 -911 0
-912 111 0
-912 911 0
-913 113 901 912 0
913 -113 0
913 -901 0
913 -912 0
914 -115 -913 0
-914 115 0
-914 913 0
-915 117 166 914 0
915 -117 0
915 -166 0
915 -914 0
916 -119 -915 0
-916 119 0
-916 915 0
917 -782 -848 0
-917 782 0
-917 848 0
-918 44 917 0
918 -44 0
918 -917 0
919 -133 -918 0
-919 133 0
-919 918 0
-920 32 849 919 26 0
920 -32 0
920 -849 0
920 -919 0
920 -26 0
921 -159 -920 0
-921 159 0
-921 920 0
-922 163 900 10 916 921 177 0
922 -163 0
922 -900 0
922 -10 0
922 -916 0
922 -921 0
922 -177 0
923 -188 -922 0
-923 188 0
-923 922 0
-924 30 923 0
924 -30 0
924 -923 0
925 -65 -924 0
-925 65 0
-925 924 0
-926 67 823 855 53 897 925 0
926 -67 0
926 -823 0
926 -855 0
926 -53 0
926 -897 0
926 -925 0
927 -69 -926 0
-927 69 0
-927 926 0
-928 71 927 0
928 -71 0
928 -927 0
929 -73 -928 0
-929 73 0
-929 928 0
930 -766 -773 0
-930 766 0
-930 773 0
931 -768 -773 0
-931 768 0
-931 773 0
-932 113 931 0
932 -113 0
932 -931 0
933 -115 -932 0
-933 115 0
-933 932 0
-934 117 166 933 0
934 -117 0
934 -166 0
934 -933 0
935 -119 -934 0
-935 119 0
-935 934 0
936 -159 -785 0
-936 159 0
-936 785 0
-937 163 930 10 935 936 177 0
937 -163 0
937 -930 0
937 -10 0
937 -935 0
937 -936 0
937 -177 0
938 -165 -937 0
-938 165 0
-938 937 0
939 -46 -727 0
-939 46 0
-939 727 0
-940 67 939 53 258 0
940 -67 0
940 -939 0
940 -53 0
940 -258 0
941 -69 -940 0
-941 69 0
-941 940 0
-942 71 941 0
942 -71 0
942 -941 0
943 -714 -942 0
-943 714 0
-943 942 0
-944 718 349 943 715 0
944 -718 0
944 -349 0
944 -943 0
944 -715 0
945 -775 -944 0
-945 775 0
-945 944 0
946 -782 -944 0
-946 782 0
-946 944 0
947 -766 -780 0
-947 766 0
-947 780 0
948 -768 -780 0
-948 768 0
-948 780 0
-949 113 948 0
949 -113 0
949 -948 0
950 -115 -949 0
-950 115 0
-950 949 0
-951 117 166 950 0
951 -117 0
951 -166 0
951 -950 0
952 -119 -951 0
-952 119 0
-952 951 0
-953 163 947 10 952 177 0
953 -163 0
953 -947 0
953 -10 0
953 -952 0
953 -177 0
954 -185 -953 0
-954 185 0
-954 953 0
-955 44 946 954 0
955 -44 0
955 -946 0
955 -954 0
956 -133 -955 0
-956 133 0
-956 955 0
-957 163 930 10 935 177 0
957 -163 0
957 -930 0
957 -10 0
957 -935 0
957 -177 0
958 -188 -957 0
-958 188 0
-958 957 0
-959 30 958 0
959 -30 0
959 -958 0
960 -29 -959 0
-960 29 0
-960 959 0
-961 32 945 956 26 960 0
961 -32 0
961 -945 0
961 -956 0
961 -26 0
961 -960 0
962 -34 -961 0
-962 34 0
-962 961 0
-963 36 962 0
963 -36 0
963 -962 0
964 -344 -963 0
-964 344 0
-964 963 0
-965 346 938 964 0
965 -346 0
965 -938 0
965 -964 0
966 -355 -965 0
-966 355 0
-966 965 0
-967 163 10 935 170 723 177 0
967 -163 0
967 -10 0
967 -935 0
967 -170 0
967 -723 0
967 -177 0
968 -165 -967 0
-968 165 0
-968 967 0
-969 44 954 0
969 -44 0
969 -954 0
970 -133 -969 0
-970 133 0
-970 969 0
-971 32 970 26 960 0
971 -32 0
971 -970 0
971 -26 0
971 -960 0
972 -34 -971 0
-972 34 0
-972 971 0
-973 36 972 0
973 -36 0
973 -972 0
974 -344 -973 0
-974 344 0
-974 973 0
-975 346 968 974 0
975 -346 0
975 -968 0
975 -974 0
976 -348 -975 0
-976 348 0
-976 975 0
-977 163 10 859 170 182 177 0
977 -163 0
977 -10 0
977 -859 0
977 -170 0
977 -182 0
977 -177 0
978 -185 -977 0
-978 185 0
-978 977 0
-979 44 978 0
979 -44 0
979 -978 0
980 -46 -979 0
-980 46 0
-980 979 0
981 -115 -113 0
-981 115 0
-981 113 0
-982 117 166 981 0
982 -117 0
982 -166 0
982 -981 0
983 -119 -982 0
-983 119 0
-983 982 0
-984 163 10 983 746 177 0
984 -163 0
984 -10 0
984 -983 0
984 -746 0
984 -177 0
985 -188 -984 0
-985 188 0
-985 984 0
-986 30 985 0
986 -30 0
986 -985 0
987 -65 -986 0
-987 65 0
-987 986 0
-988 67 980 53 987 0
988 -67 0
988 -980 0
988 -53 0
988 -987 0
989 -69 -988 0
-989 69 0
-989 988 0
-990 71 989 0
990 -71 0
990 -989 0
991 -714 -990 0
-991 714 0
-991 990 0
-992 718 976 349 991 715 0
992 -718 0
992 -976 0
992 -349 0
992 -991 0
992 -715 0
993 -793 -992 0
-993 793 0
-993 992 0
-994 57 993 0
994 -57 0
994 -993 0
995 -56 -994 0
-995 56 0
-995 994 0
-996 61 966 995 58 0
996 -61 0
996 -966 0
996 -995 0
996 -58 0
997 -75 -996 0
-997 75 0
-997 996 0
-998 79 756 821 929 997 76 0
998 -79 0
998 -756 0
998 -821 0
998 -929 0
998 -997 0
998 -76 0
999 -92 -998 0
-999 92 0
-999 998 0
-1000 346 539 0
1000 -346 0
1000 -539 0
1001 -348 -1000 0
-1001 348 0
-1001 1000 0
1002 -355 -1000 0
-1002 355 0
-1002 1000 0
-1003 61 1002 55 58 0
1003 -61 0
1003 -1002 0
1003 -55 0
1003 -58 0
1004 -63 -1003 0
-1004 63 0
-1004 1003 0
-1005 67 120 53 1004 64 0
1005 -67 0
1005 -120 0
1005 -53 0
1005 -1004 0
1005 -64 0
1006 -69 -1005 0
-1006 69 0
-1006 1005 0
-1007 71 1006 0
1007 -71 0
1007 -1006 0
1008 -714 -1007 0
-1008 714 0
-1008 1007 0
-1009 718 1001 349 1008 715 0
1009 -718 0
1009 -1001 0
1009 -349 0
1009 -1008 0
1009 -715 0
1010 -766 -1009 0
-1010 766 0
-1010 1009 0
1011 -757 -764 0
-1011 757 0
-1011 764 0
1012 -824 -828 0
-1012 824 0
-1012 828 0
1013 -782 -828 0
-1013 782 0
-1013 828 0
-1014 44 1013 0
1014 -44 0
1014 -1013 0
1015 -46 -1014 0
-1015 46 0
-1015 1014 0
1016 -34 -863 0
-1016 34 0
-1016 863 0
-1017 36 1016 0
1017 -36 0
1017 -1016 0
1018 -344 -1017 0
-1018 344 0
-1018 1017 0
-1019 346 351 1018 0
1019 -346 0
1019 -351 0
1019 -1018 0
1020 -355 -1019 0
-1020 355 0
-1020 1019 0
-1021 61 1020 841 58 0
1021 -61 0
1021 -1020 0
1021 -841 0
1021 -58 0
1022 -63 -1021 0
-1022 63 0
-1022 1021 0
-1023 67 1012 1015 47 53 1022 64 0
1023 -67 0
1023 -1012 0
1023 -1015 0
1023 -47 0
1023 -53 0
1023 -1022 0
1023 -64 0
1024 -69 -1023 0
-1024 69 0
-1024 1023 0
-1025 71 1024 0
1025 -71 0
1025 -1024 0
1026 -73 -1025 0
-1026 73 0
-1026 1025 0
1027 -75 -796 0
-1027 75 0
-1027 796 0
-1028 79 1011 1026 1027 76 0
1028 -79 0
1028 -1011 0
1028 -1026 0
1028 -1027 0
1028 -76 0
1029 -81 -1028 0
-1029 81 0
-1029 1028 0
1030 -106 -1028 0
-1030 106 0
-1030 1028 0
-1031 25 1030 0
1031 -25 0
1031 -1030 0
1032 -109 -1031 0
-1032 109 0
-1032 1031 0
1033 -768 -1009 0
-1033 768 0
-1033 1009 0
-1034 67 120 53 64 0
1034 -67 0
1034 -120 0
1034 -53 0
1034 -64 0
1035 -69 -1034 0
-1035 69 0
-1035 1034 0
-1036 71 1035 0
1036 -71 0
1036 -1035 0
1037 -714 -1036 0
-1037 714 0
-1037 1036 0
-1038 718 349 1037 715 0
1038 -718 0
1038 -349 0
1038 -1037 0
1038 -715 0
1039 -775 -1038 0
-1039 775 0
-1039 1038 0
-1040 67 53 64 0
1040 -67 0
1040 -53 0
1040 -64 0
1041 -69 -1040 0
-1041 69 0
-1041 1040 0
-1042 71 1041 0
1042 -71 0
1042 -1041 0
1043 -714 -1042 0
-1043 714 0
-1043 1042 0
-1044 718 349 1043 715 0
1044 -718 0
1044 -349 0
1044 -1043 0
1044 -715 0
1045 -782 -1044 0
-1045 782 0
-1045 1044 0
-1046 44 1045 0
1046 -44 0
1046 -1045 0
1047 -133 -1046 0
-1047 133 0
-1047 1046 0
-1048 32 1039 1047 26 28 0
1048 -32 0
1048 -1039 0
1048 -1047 0
1048 -26 0
1048 -28 0
1049 -34 -1048 0
-1049 34 0
-1049 1048 0
-1050 36 1049 0
1050 -36 0
1050 -1049 0
1051 -344 -1050 0
-1051 344 0
-1051 1050 0
-1052 346 1051 0
1052 -346 0
1052 -1051 0
1053 -355 -1052 0
-1053 355 0
-1053 1052 0
-1054 718 1001 349 1037 715 0
1054 -718 0
1054 -1001 0
1054 -349 0
1054 -1037 0
1054 -715 0
1055 -793 -1054 0
-1055 793 0
-1055 1054 0
-1056 57 1055 0
1056 -57 0
1056 -1055 0
1057 -56 -1056 0
-1057 56 0
-1057 1056 0
-1058 61 1053 1057 58 0
1058 -61 0
1058 -1053 0
1058 -1057 0
1058 -58 0
1059 -111 -1058 0
-1059 111 0
-1059 1058 0
-1060 113 1033 1059 0
1060 -113 0
1060 -1033 0
1060 -1059 0
1061 -115 -1060 0
-1061 115 0
-1061 1060 0
-1062 117 1029 1032 1061 0
1062 -117 0
1062 -1029 0
1062 -1032 0
1062 -1061 0
1063 -119 -1062 0
-1063 119 0
-1063 1062 0
-1064 346 687 0
1064 -346 0
1064 -687 0
1065 -348 -1064 0
-1065 348 0
-1065 1064 0
1066 -355 -1064 0
-1066 355 0
-1066 1064 0
-1067 61 1066 55 58 0
1067 -61 0
1067 -1066 0
1067 -55 0
1067 -58 0
1068 -63 -1067 0
-1068 63 0
-1068 1067 0
-1069 67 120 53 1068 64 0
1069 -67 0
1069 -120 0
1069 -53 0
1069 -1068 0
1069 -64 0
1070 -69 -1069 0
-1070 69 0
-1070 1069 0
-1071 71 1070 0
1071 -71 0
1071 -1070 0
1072 -714 -1071 0
-1072 714 0
-1072 1071 0
-1073 718 1065 349 1072 715 0
1073 -718 0
1073 -1065 0
1073 -349 0
1073 -1072 0
1073 -715 0
1074 -775 -1073 0
-1074 775 0
-1074 1073 0
-1075 67 53 1068 64 0
1075 -67 0
1075 -53 0
1075 -1068 0
1075 -64 0
1076 -69 -1075 0
-1076 69 0
-1076 1075 0
-1077 71 1076 0
1077 -71 0
1077 -1076 0
1078 -714 -1077 0
-1078 714 0
-1078 1077 0
-1079 718 1065 349 1078 715 0
1079 -718 0
1079 -1065 0
1079 -349 0
1079 -1078 0
1079 -715 0
1080 -782 -1079 0
-1080 782 0
-1080 1079 0
-1081 44 1080 0
1081 -44 0
1081 -1080 0
1082 -133 -1081 0
-1082 133 0
-1082 1081 0
-1083 32 1074 1082 26 28 0
1083 -32 0
1083 -1074 0
1083 -1082 0
1083 -26 0
1083 -28 0
1084 -159 -1083 0
-1084 159 0
-1084 1083 0
1085 -161 -1031 0
-1085 161 0
-1085 1031 0
-1086 163 1010 10 1063 1084 1085 0
1086 -163 0
1086 -1010 0
1086 -10 0
1086 -1063 0
1086 -1084 0
1086 -1085 0
1087 -243 -1086 0
-1087 243 0
-1087 1086 0
-1088 20 999 1087 12 14 16 0
1088 -20 0
1088 -999 0
1088 -1087 0
1088 -12 0
1088 -14 0
1088 -16 0
1089 -22 -1088 0
-1089 22 0
-1089 1088 0
-1090 163 10 280 723 177 0
1090 -163 0
1090 -10 0
1090 -280 0
1090 -723 0
1090 -177 0
1091 -165 -1090 0
-1091 165 0
-1091 1090 0
1092 -243 -1090 0
-1092 243 0
-1092 1090 0
-1093 20 1092 12 14 16 0
1093 -20 0
1093 -1092 0
1093 -12 0
1093 -14 0
1093 -16 0
1094 -246 -1093 0
-1094 246 0
-1094 1093 0
1095 -185 -273 0
-1095 185 0
-1095 273 0
-1096 44 1095 0
1096 -44 0
1096 -1095 0
1097 -133 -1096 0
-1097 133 0
-1097 1096 0
-1098 32 1097 26 421 0
1098 -32 0
1098 -1097 0
1098 -26 0
1098 -421 0
1099 -34 -1098 0
-1099 34 0
-1099 1098 0
-1100 36 1099 0
1100 -36 0
1100 -1099 0
1101 -344 -1100 0
-1101 344 0
-1101 1100 0
-1102 346 1091 1094 1101 0
1102 -346 0
1102 -1091 0
1102 -1094 0
1102 -1101 0
1103 -348 -1102 0
-1103 348 0
-1103 1102 0
1104 -185 -414 0
-1104 185 0
-1104 414 0
-1105 44 1104 0
1105 -44 0
1105 -1104 0
1106 -46 -1105 0
-1106 46 0
-1106 1105 0
1107 -111 -542 0
-1107 111 0
-1107 542 0
-1108 113 1107 0
1108 -113 0
1108 -1107 0
1109 -115 -1108 0
-1109 115 0
-1109 1108 0
-1110 117 166 1109 0
1110 -117 0
1110 -166 0
1110 -1109 0
1111 -119 -1110 0
-1111 119 0
-1111 1110 0
-1112 163 10 1111 723 177 0
1112 -163 0
1112 -10 0
1112 -1111 0
1112 -723 0
1112 -177 0
1113 -243 -1112 0
-1113 243 0
-1113 1112 0
-1114 20 1113 12 14 16 0
1114 -20 0
1114 -1113 0
1114 -12 0
1114 -14 0
1114 -16 0
1115 -48 -1114 0
-1115 48 0
-1115 1114 0
1116 -243 -865 0
-1116 243 0
-1116 865 0
-1117 20 1116 12 14 16 0
1117 -20 0
1117 -1116 0
1117 -12 0
1117 -14 0
1117 -16 0
1118 -246 -1117 0
-1118 246 0
-1118 1117 0
1119 -185 -281 0
-1119 185 0
-1119 281 0
-1120 44 1119 0
1120 -44 0
1120 -1119 0
1121 -133 -1120 0
-1121 133 0
-1121 1120 0
-1122 32 1121 26 421 0
1122 -32 0
1122 -1121 0
1122 -26 0
1122 -421 0
1123 -34 -1122 0
-1123 34 0
-1123 1122 0
-1124 36 1123 0
1124 -36 0
1124 -1123 0
1125 -344 -1124 0
-1125 344 0
-1125 1124 0
-1126 346 1091 1118 1125 0
1126 -346 0
1126 -1091 0
1126 -1118 0
1126 -1125 0
1127 -355 -1126 0
-1127 355 0
-1127 1126 0
-1128 61 1127 55 58 0
1128 -61 0
1128 -1127 0
1128 -55 0
1128 -58 0
1129 -63 -1128 0
-1129 63 0
-1129 1128 0
-1130 117 278 166 743 0
1130 -117 0
1130 -278 0
1130 -166 0
1130 -743 0
1131 -119 -1130 0
-1131 119 0
-1131 1130 0
-1132 163 10 1131 746 177 0
1132 -163 0
1132 -10 0
1132 -1131 0
1132 -746 0
1132 -177 0
1133 -188 -1132 0
-1133 188 0
-1133 1132 0
-1134 30 1133 0
1134 -30 0
1134 -1133 0
1135 -65 -1134 0
-1135 65 0
-1135 1134 0
-1136 67 1106 1115 53 1129 1135 0
1136 -67 0
1136 -1106 0
1136 -1115 0
1136 -53 0
1136 -1129 0
1136 -1135 0
1137 -69 -1136 0
-1137 69 0
-1137 1136 0
-1138 71 1137 0
1138 -71 0
1138 -1137 0
1139 -714 -1138 0
-1139 714 0
-1139 1138 0
-1140 718 1103 349 1139 715 0
1140 -718 0
1140 -1103 0
1140 -349 0
1140 -1139 0
1140 -715 0
1141 -757 -1140 0
-1141 757 0
-1141 1140 0
-1142 117 278 166 799 0
1142 -117 0
1142 -278 0
1142 -166 0
1142 -799 0
1143 -119 -1142 0
-1143 119 0
-1143 1142 0
-1144 163 765 10 1143 819 177 0
1144 -163 0
1144 -765 0
1144 -10 0
1144 -1143 0
1144 -819 0
1144 -177 0
1145 -180 -1144 0
-1145 180 0
-1145 1144 0
-1146 346 1091 1094 1125 0
1146 -346 0
1146 -1091 0
1146 -1094 0
1146 -1125 0
1147 -348 -1146 0
-1147 348 0
-1147 1146 0
-1148 718 1147 349 715 0
1148 -718 0
1148 -1147 0
1148 -349 0
1148 -715 0
1149 -824 -1148 0
-1149 824 0
-1149 1148 0
1150 -348 -426 0
-1150 348 0
-1150 426 0
-1151 718 1150 349 715 0
1151 -718 0
1151 -1150 0
1151 -349 0
1151 -715 0
1152 -782 -1151 0
-1152 782 0
-1152 1151 0
-1153 117 278 166 845 0
1153 -117 0
1153 -278 0
1153 -166 0
1153 -845 0
1154 -119 -1153 0
-1154 119 0
-1154 1153 0
-1155 163 829 10 1154 851 177 0
1155 -163 0
1155 -829 0
1155 -10 0
1155 -1154 0
1155 -851 0
1155 -177 0
1156 -185 -1155 0
-1156 185 0
-1156 1155 0
-1157 44 1152 1156 0
1157 -44 0
1157 -1152 0
1157 -1156 0
1158 -46 -1157 0
-1158 46 0
-1158 1157 0
1159 -111 -1021 0
-1159 111 0
-1159 1021 0
-1160 113 830 1159 0
1160 -113 0
1160 -830 0
1160 -1159 0
1161 -115 -1160 0
-1161 115 0
-1161 1160 0
-1162 117 166 1161 0
1162 -117 0
1162 -166 0
1162 -1161 0
1163 -119 -1162 0
-1163 119 0
-1163 1162 0
-1164 32 849 919 26 28 0
1164 -32 0
1164 -849 0
1164 -919 0
1164 -26 0
1164 -28 0
1165 -159 -1164 0
-1165 159 0
-1165 1164 0
-1166 163 829 10 1163 1165 177 0
1166 -163 0
1166 -829 0
1166 -10 0
1166 -1163 0
1166 -1165 0
1166 -177 0
1167 -243 -1166 0
-1167 243 0
-1167 1166 0
-1168 20 1167 12 14 16 0
1168 -20 0
1168 -1167 0
1168 -12 0
1168 -14 0
1168 -16 0
1169 -48 -1168 0
-1169 48 0
-1169 1168 0
-1170 117 278 166 870 0
1170 -117 0
1170 -278 0
1170 -166 0
1170 -870 0
1171 -119 -1170 0
-1171 119 0
-1171 1170 0
-1172 163 867 10 1171 864 177 0
1172 -163 0
1172 -867 0
1172 -10 0
1172 -1171 0
1172 -864 0
1172 -177 0
1173 -165 -1172 0
-1173 165 0
-1173 1172 0
1174 -243 -1172 0
-1174 243 0
-1174 1172 0
-1175 20 1174 12 14 16 0
1175 -20 0
1175 -1174 0
1175 -12 0
1175 -14 0
1175 -16 0
1176 -246 -1175 0
-1176 246 0
-1176 1175 0
-1177 163 867 10 1171 177 0
1177 -163 0
1177 -867 0
1177 -10 0
1177 -1171 0
1177 -177 0
1178 -185 -1177 0
-1178 185 0
-1178 1177 0
-1179 44 860 1178 0
1179 -44 0
1179 -860 0
1179 -1178 0
1180 -133 -1179 0
-1180 133 0
-1180 1179 0
1181 -188 -1177 0
-1181 188 0
-1181 1177 0
-1182 30 1181 0
1182 -30 0
1182 -1181 0
1183 -29 -1182 0
-1183 29 0
-1183 1182 0
-1184 32 832 1180 26 1183 0
1184 -32 0
1184 -832 0
1184 -1180 0
1184 -26 0
1184 -1183 0
1185 -34 -1184 0
-1185 34 0
-1185 1184 0
-1186 36 1185 0
1186 -36 0
1186 -1185 0
1187 -344 -1186 0
-1187 344 0
-1187 1186 0
-1188 346 1173 1176 1187 0
1188 -346 0
1188 -1173 0
1188 -1176 0
1188 -1187 0
1189 -355 -1188 0
-1189 355 0
-1189 1188 0
-1190 163 10 1171 723 177 0
1190 -163 0
1190 -10 0
1190 -1171 0
1190 -723 0
1190 -177 0
1191 -165 -1190 0
-1191 165 0
-1191 1190 0
-1192 44 1178 0
1192 -44 0
1192 -1178 0
1193 -133 -1192 0
-1193 133 0
-1193 1192 0
-1194 32 1193 26 1183 0
1194 -32 0
1194 -1193 0
1194 -26 0
1194 -1183 0
1195 -34 -1194 0
-1195 34 0
-1195 1194 0
-1196 36 1195 0
1196 -36 0
1196 -1195 0
1197 -344 -1196 0
-1197 344 0
-1197 1196 0
-1198 346 1191 1118 1197 0
1198 -346 0
1198 -1191 0
1198 -1118 0
1198 -1197 0
1199 -348 -1198 0
-1199 348 0
-1199 1198 0
-1200 718 1199 349 715 0
1200 -718 0
1200 -1199 0
1200 -349 0
1200 -715 0
1201 -793 -1200 0
-1201 793 0
-1201 1200 0
-1202 57 1201 0
1202 -57 0
1202 -1201 0
1203 -56 -1202 0
-1203 56 0
-1203 1202 0
-1204 61 1189 1203 58 0
1204 -61 0
1204 -1189 0
1204 -1203 0
1204 -58 0
1205 -63 -1204 0
-1205 63 0
-1205 1204 0
-1206 117 278 166 914 0
1206 -117 0
1206 -278 0
1206 -166 0
1206 -914 0
1207 -119 -1206 0
-1207 119 0
-1207 1206 0
-1208 163 900 10 1207 921 177 0
1208 -163 0
1208 -900 0
1208 -10 0
1208 -1207 0
1208 -921 0
1208 -177 0
1209 -188 -1208 0
-1209 188 0
-1209 1208 0
-1210 30 1209 0
1210 -30 0
1210 -1209 0
1211 -65 -1210 0
-1211 65 0
-1211 1210 0
-1212 67 1149 1158 1169 53 1205 1211 0
1212 -67 0
1212 -1149 0
1212 -1158 0
1212 -1169 0
1212 -53 0
1212 -1205 0
1212 -1211 0
1213 -69 -1212 0
-1213 69 0
-1213 1212 0
-1214 71 1213 0
1214 -71 0
1214 -1213 0
1215 -73 -1214 0
-1215 73 0
-1215 1214 0
-1216 117 278 166 933 0
1216 -117 0
1216 -278 0
1216 -166 0
1216 -933 0
1217 -119 -1216 0
-1217 119 0
-1217 1216 0
-1218 163 930 10 1217 936 177 0
1218 -163 0
1218 -930 0
1218 -10 0
1218 -1217 0
1218 -936 0
1218 -177 0
1219 -165 -1218 0
-1219 165 0
-1219 1218 0
1220 -243 -937 0
-1220 243 0
-1220 937 0
-1221 20 1220 12 14 16 0
1221 -20 0
1221 -1220 0
1221 -12 0
1221 -14 0
1221 -16 0
1222 -246 -1221 0
-1222 246 0
-1222 1221 0
1223 -46 -1120 0
-1223 46 0
-1223 1120 0
-1224 67 1223 277 53 284 0
1224 -67 0
1224 -1223 0
1224 -277 0
1224 -53 0
1224 -284 0
1225 -69 -1224 0
-1225 69 0
-1225 1224 0
-1226 71 1225 0
1226 -71 0
1226 -1225 0
1227 -714 -1226 0
-1227 714 0
-1227 1226 0
-1228 718 349 1227 715 0
1228 -718 0
1228 -349 0
1228 -1227 0
1228 -715 0
1229 -775 -1228 0
-1229 775 0
-1229 1228 0
-1230 67 277 53 284 0
1230 -67 0
1230 -277 0
1230 -53 0
1230 -284 0
1231 -69 -1230 0
-1231 69 0
-1231 1230 0
-1232 71 1231 0
1232 -71 0
1232 -1231 0
1233 -714 -1232 0
-1233 714 0
-1233 1232 0
-1234 718 349 1233 715 0
1234 -718 0
1234 -349 0
1234 -1233 0
1234 -715 0
1235 -782 -1234 0
-1235 782 0
-1235 1234 0
-1236 117 278 166 950 0
1236 -117 0
1236 -278 0
1236 -166 0
1236 -950 0
1237 -119 -1236 0
-1237 119 0
-1237 1236 0
-1238 163 947 10 1237 177 0
1238 -163 0
1238 -947 0
1238 -10 0
1238 -1237 0
1238 -177 0
1239 -185 -1238 0
-1239 185 0
-1239 1238 0
-1240 44 1235 1239 0
1240 -44 0
1240 -1235 0
1240 -1239 0
1241 -133 -1240 0
-1241 133 0
-1241 1240 0
-1242 163 930 10 1217 177 0
1242 -163 0
1242 -930 0
1242 -10 0
1242 -1217 0
1242 -177 0
1243 -188 -1242 0
-1243 188 0
-1243 1242 0
-1244 30 1243 0
1244 -30 0
1244 -1243 0
1245 -29 -1244 0
-1245 29 0
-1245 1244 0
-1246 32 1229 1241 26 1245 0
1246 -32 0
1246 -1229 0
1246 -1241 0
1246 -26 0
1246 -1245 0
1247 -34 -1246 0
-1247 34 0
-1247 1246 0
-1248 36 1247 0
1248 -36 0
1248 -1247 0
1249 -344 -1248 0
-1249 344 0
-1249 1248 0
-1250 346 1219 1222 1249 0
1250 -346 0
1250 -1219 0
1250 -1222 0
1250 -1249 0
1251 -355 -1250 0
-1251 355 0
-1251 1250 0
-1252 163 10 1217 723 177 0
1252 -163 0
1252 -10 0
1252 -1217 0
1252 -723 0
1252 -177 0
1253 -165 -1252 0
-1253 165 0
-1253 1252 0
1254 -243 -1252 0
-1254 243 0
-1254 1252 0
-1255 20 1254 12 14 16 0
1255 -20 0
1255 -1254 0
1255 -12 0
1255 -14 0
1255 -16 0
1256 -246 -1255 0
-1256 246 0
-1256 1255 0
-1257 44 1239 0
1257 -44 0
1257 -1239 0
1258 -133 -1257 0
-1258 133 0
-1258 1257 0
-1259 32 1258 26 1245 0
1259 -32 0
1259 -1258 0
1259 -26 0
1259 -1245 0
1260 -34 -1259 0
-1260 34 0
-1260 1259 0
-1261 36 1260 0
1261 -36 0
1261 -1260 0
1262 -344 -1261 0
-1262 344 0
-1262 1261 0
-1263 346 1253 1256 1262 0
1263 -346 0
1263 -1253 0
1263 -1256 0
1263 -1262 0
1264 -348 -1263 0
-1264 348 0
-1264 1263 0
-1265 117 278 166 857 0
1265 -117 0
1265 -278 0
1265 -166 0
1265 -857 0
1266 -119 -1265 0
-1266 119 0
-1266 1265 0
-1267 163 10 1266 182 177 0
1267 -163 0
1267 -10 0
1267 -1266 0
1267 -182 0
1267 -177 0
1268 -185 -1267 0
-1268 185 0
-1268 1267 0
-1269 44 1268 0
1269 -44 0
1269 -1268 0
1270 -46 -1269 0
-1270 46 0
-1270 1269 0
-1271 163 10 859 723 177 0
1271 -163 0
1271 -10 0
1271 -859 0
1271 -723 0
1271 -177 0
1272 -243 -1271 0
-1272 243 0
-1272 1271 0
-1273 20 1272 12 14 16 0
1273 -20 0
1273 -1272 0
1273 -12 0
1273 -14 0
1273 -16 0
1274 -48 -1273 0
-1274 48 0
-1274 1273 0
-1275 117 278 166 981 0
1275 -117 0
1275 -278 0
1275 -166 0
1275 -981 0
1276 -119 -1275 0
-1276 119 0
-1276 1275 0
-1277 163 10 1276 746 177 0
1277 -163 0
1277 -10 0
1277 -1276 0
1277 -746 0
1277 -177 0
1278 -188 -1277 0
-1278 188 0
-1278 1277 0
-1279 30 1278 0
1279 -30 0
1279 -1278 0
1280 -65 -1279 0
-1280 65 0
-1280 1279 0
-1281 67 1270 1274 53 1280 0
1281 -67 0
1281 -1270 0
1281 -1274 0
1281 -53 0
1281 -1280 0
1282 -69 -1281 0
-1282 69 0
-1282 1281 0
-1283 71 1282 0
1283 -71 0
1283 -1282 0
1284 -714 -1283 0
-1284 714 0
-1284 1283 0
-1285 718 1264 349 1284 715 0
1285 -718 0
1285 -1264 0
1285 -349 0
1285 -1284 0
1285 -715 0
1286 -793 -1285 0
-1286 793 0
-1286 1285 0
-1287 57 1286 0
1287 -57 0
1287 -1286 0
1288 -56 -1287 0
-1288 56 0
-1288 1287 0
-1289 61 1251 1288 58 0
1289 -61 0
1289 -1251 0
1289 -1288 0
1289 -58 0
1290 -75 -1289 0
-1290 75 0
-1290 1289 0
-1291 79 1141 1145 1215 1290 76 0
1291 -79 0
1291 -1141 0
1291 -1145 0
1291 -1215 0
1291 -1290 0
1291 -76 0
1292 -106 -1291 0
-1292 106 0
-1292 1291 0
-1293 25 1292 0
1293 -25 0
1293 -1292 0
1294 -24 -1293 0
-1294 24 0
-1294 1293 0
1295 -81 -125 0
-1295 81 0
-1295 125 0
1296 -95 -127 0
-1296 95 0
-1296 127 0
1297 -109 -130 0
-1297 109 0
-1297 130 0
-1298 117 1295 1296 1297 114 0
1298 -117 0
1298 -1295 0
1298 -1296 0
1298 -1297 0
1298 -114 0
1299 -119 -1298 0
-1299 119 0
-1299 1298 0
1300 -161 -130 0
-1300 161 0
-1300 130 0
-1301 163 10 1299 1300 0
1301 -163 0
1301 -10 0
1301 -1299 0
1301 -1300 0
1302 -165 -1301 0
-1302 165 0
-1302 1301 0
-1303 67 939 53 62 258 0
1303 -67 0
1303 -939 0
1303 -53 0
1303 -62 0
1303 -258 0
1304 -69 -1303 0
-1304 69 0
-1304 1303 0
-1305 71 1304 0
1305 -71 0
1305 -1304 0
1306 -73 -1305 0
-1306 73 0
-1306 1305 0
-1307 79 257 1306 74 76 0
1307 -79 0
1307 -257 0
1307 -1306 0
1307 -74 0
1307 -76 0
1308 -92 -1307 0
-1308 92 0
-1308 1307 0
-1309 117 1295 1297 114 0
1309 -117 0
1309 -1295 0
1309 -1297 0
1309 -114 0
1310 -119 -1309 0
-1310 119 0
-1310 1309 0
-1311 163 10 1310 1300 0
1311 -163 0
1311 -10 0
1311 -1310 0
1311 -1300 0
1312 -243 -1311 0
-1312 243 0
-1312 1311 0
-1313 20 1308 1312 12 14 16 0
1313 -20 0
1313 -1308 0
1313 -1312 0
1313 -12 0
1313 -14 0
1313 -16 0
1314 -246 -1313 0
-1314 246 0
-1314 1313 0
-1315 346 1302 1314 0
1315 -346 0
1315 -1302 0
1315 -1314 0
1316 -348 -1315 0
-1316 348 0
-1316 1315 0
-1317 163 10 453 182 454 0
1317 -163 0
1317 -10 0
1317 -453 0
1317 -182 0
1317 -454 0
1318 -185 -1317 0
-1318 185 0
-1318 1317 0
-1319 44 1318 0
1319 -44 0
1319 -1318 0
1320 -46 -1319 0
-1320 46 0
-1320 1319 0
1321 -111 -436 0
-1321 111 0
-1321 436 0
-1322 113 1321 0
1322 -113 0
1322 -1321 0
1323 -115 -1322 0
-1323 115 0
-1323 1322 0
-1324 117 166 1323 0
1324 -117 0
1324 -166 0
1324 -1323 0
1325 -119 -1324 0
-1325 119 0
-1325 1324 0
-1326 163 10 1325 177 0
1326 -163 0
1326 -10 0
1326 -1325 0
1326 -177 0
1327 -180 -1326 0
-1327 180 0
-1327 1326 0
1328 -165 -186 0
-1328 165 0
-1328 186 0
-1329 346 1328 0
1329 -346 0
1329 -1328 0
1330 -355 -1329 0
-1330 355 0
-1330 1329 0
-1331 61 1330 55 58 0
1331 -61 0
1331 -1330 0
1331 -55 0
1331 -58 0
1332 -75 -1331 0
-1332 75 0
-1332 1331 0
-1333 79 1327 1332 76 0
1333 -79 0
1333 -1327 0
1333 -1332 0
1333 -76 0
1334 -92 -1333 0
-1334 92 0
-1334 1333 0
1335 -111 -1067 0
-1335 111 0
-1335 1067 0
-1336 113 1335 0
1336 -113 0
1336 -1335 0
1337 -115 -1336 0
-1337 115 0
-1337 1336 0
-1338 117 439 445 1337 0
1338 -117 0
1338 -439 0
1338 -445 0
1338 -1337 0
1339 -119 -1338 0
-1339 119 0
-1339 1338 0
-1340 163 10 1339 454 0
1340 -163 0
1340 -10 0
1340 -1339 0
1340 -454 0
1341 -243 -1340 0
-1341 243 0
-1341 1340 0
-1342 20 1334 1341 12 14 16 0
1342 -20 0
1342 -1334 0
1342 -1341 0
1342 -12 0
1342 -14 0
1342 -16 0
1343 -48 -1342 0
-1343 48 0
-1343 1342 0
-1344 163 10 573 583 0
1344 -163 0
1344 -10 0
1344 -573 0
1344 -583 0
1345 -165 -1344 0
-1345 165 0
-1345 1344 0
1346 -243 -1344 0
-1346 243 0
-1346 1344 0
-1347 20 596 1346 12 14 16 0
1347 -20 0
1347 -596 0
1347 -1346 0
1347 -12 0
1347 -14 0
1347 -16 0
1348 -246 -1347 0
-1348 246 0
-1348 1347 0
-1349 346 1345 1348 0
1349 -346 0
1349 -1345 0
1349 -1348 0
1350 -355 -1349 0
-1350 355 0
-1350 1349 0
-1351 61 1350 55 58 0
1351 -61 0
1351 -1350 0
1351 -55 0
1351 -58 0
1352 -63 -1351 0
-1352 63 0
-1352 1351 0
1353 -65 -457 0
-1353 65 0
-1353 457 0
-1354 67 1320 1343 53 1352 1353 0
1354 -67 0
1354 -1320 0
1354 -1343 0
1354 -53 0
1354 -1352 0
1354 -1353 0
1355 -69 -1354 0
-1355 69 0
-1355 1354 0
-1356 71 1355 0
1356 -71 0
1356 -1355 0
1357 -714 -1356 0
-1357 714 0
-1357 1356 0
-1358 718 1316 349 1357 715 0
1358 -718 0
1358 -1316 0
1358 -349 0
1358 -1357 0
1358 -715 0
1359 -775 -1358 0
-1359 775 0
-1359 1358 0
-1360 163 10 251 182 254 0
1360 -163 0
1360 -10 0
1360 -251 0
1360 -182 0
1360 -254 0
1361 -165 -1360 0
-1361 165 0
-1361 1360 0
1362 -246 -269 0
-1362 246 0
-1362 269 0
-1363 346 1361 1362 0
1363 -346 0
1363 -1361 0
1363 -1362 0
1364 -348 -1363 0
-1364 348 0
-1364 1363 0
-1365 163 10 1339 182 454 0
1365 -163 0
1365 -10 0
1365 -1339 0
1365 -182 0
1365 -454 0
1366 -243 -1365 0
-1366 243 0
-1366 1365 0
-1367 20 1334 1366 12 14 16 0
1367 -20 0
1367 -1334 0
1367 -1366 0
1367 -12 0
1367 -14 0
1367 -16 0
1368 -48 -1367 0
-1368 48 0
-1368 1367 0
1369 -165 -597 0
-1369 165 0
-1369 597 0
1370 -246 -599 0
-1370 246 0
-1370 599 0
-1371 346 1369 1370 0
1371 -346 0
1371 -1369 0
1371 -1370 0
1372 -355 -1371 0
-1372 355 0
-1372 1371 0
-1373 61 1372 55 58 0
1373 -61 0
1373 -1372 0
1373 -55 0
1373 -58 0
1374 -63 -1373 0
-1374 63 0
-1374 1373 0
-1375 67 1368 53 1374 1353 0
1375 -67 0
1375 -1368 0
1375 -53 0
1375 -1374 0
1375 -1353 0
1376 -69 -1375 0
-1376 69 0
-1376 1375 0
-1377 71 1376 0
1377 -71 0
1377 -1376 0
1378 -714 -1377 0
-1378 714 0
-1378 1377 0
-1379 718 1364 349 1378 715 0
1379 -718 0
1379 -1364 0
1379 -349 0
1379 -1378 0
1379 -715 0
1380 -782 -1379 0
-1380 782 0
-1380 1379 0
1381 -246 -147 0
-1381 246 0
-1381 147 0
-1382 346 1381 0
1382 -346 0
1382 -1381 0
1383 -348 -1382 0
-1383 348 0
-1383 1382 0
1384 -48 -441 0
-1384 48 0
-1384 441 0
1385 -63 -448 0
-1385 63 0
-1385 448 0
-1386 67 1384 53 1385 64 0
1386 -67 0
1386 -1384 0
1386 -53 0
1386 -1385 0
1386 -64 0
1387 -69 -1386 0
-1387 69 0
-1387 1386 0
-1388 71 1387 0
1388 -71 0
1388 -1387 0
1389 -714 -1388 0
-1389 714 0
-1389 1388 0
-1390 718 1383 349 1389 715 0
1390 -718 0
1390 -1383 0
1390 -349 0
1390 -1389 0
1390 -715 0
1391 -766 -1390 0
-1391 766 0
-1391 1390 0
1392 -757 -814 0
-1392 757 0
-1392 814 0
1393 -824 -848 0
-1393 824 0
-1393 848 0
1394 -793 -848 0
-1394 793 0
-1394 848 0
-1395 57 1394 0
1395 -57 0
1395 -1394 0
1396 -56 -1395 0
-1396 56 0
-1396 1395 0
-1397 61 435 1396 58 0
1397 -61 0
1397 -435 0
1397 -1396 0
1397 -58 0
1398 -63 -1397 0
-1398 63 0
-1398 1397 0
-1399 67 1393 47 53 1398 64 0
1399 -67 0
1399 -1393 0
1399 -47 0
1399 -53 0
1399 -1398 0
1399 -64 0
1400 -69 -1399 0
-1400 69 0
-1400 1399 0
-1401 71 1400 0
1401 -71 0
1401 -1400 0
1402 -73 -1401 0
-1402 73 0
-1402 1401 0
-1403 718 802 349 779 715 0
1403 -718 0
1403 -802 0
1403 -349 0
1403 -779 0
1403 -715 0
1404 -793 -1403 0
-1404 793 0
-1404 1403 0
-1405 57 1404 0
1405 -57 0
1405 -1404 0
1406 -56 -1405 0
-1406 56 0
-1406 1405 0
-1407 61 435 1406 58 0
1407 -61 0
1407 -435 0
1407 -1406 0
1407 -58 0
1408 -75 -1407 0
-1408 75 0
-1408 1407 0
-1409 79 1392 1402 1408 76 0
1409 -79 0
1409 -1392 0
1409 -1402 0
1409 -1408 0
1409 -76 0
1410 -81 -1409 0
-1410 81 0
-1410 1409 0
1411 -92 -1409 0
-1411 92 0
-1411 1409 0
-1412 20 1411 12 14 16 0
1412 -20 0
1412 -1411 0
1412 -12 0
1412 -14 0
1412 -16 0
1413 -95 -1412 0
-1413 95 0
-1413 1412 0
1414 -106 -1409 0
-1414 106 0
-1414 1409 0
-1415 25 1414 0
1415 -25 0
1415 -1414 0
1416 -109 -1415 0
-1416 109 0
-1416 1415 0
1417 -768 -1390 0
-1417 768 0
-1417 1390 0
1418 -757 -780 0
-1418 757 0
-1418 780 0
-1419 67 1393 47 53 64 0
1419 -67 0
1419 -1393 0
1419 -47 0
1419 -53 0
1419 -64 0
1420 -69 -1419 0
-1420 69 0
-1420 1419 0
-1421 71 1420 0
1421 -71 0
1421 -1420 0
1422 -73 -1421 0
-1422 73 0
-1422 1421 0
-1423 79 1418 1422 76 0
1423 -79 0
1423 -1418 0
1423 -1422 0
1423 -76 0
1424 -92 -1423 0
-1424 92 0
-1424 1423 0
-1425 20 1424 12 14 16 0
1425 -20 0
1425 -1424 0
1425 -12 0
1425 -14 0
1425 -16 0
1426 -246 -1425 0
-1426 246 0
-1426 1425 0
-1427 346 1426 0
1427 -346 0
1427 -1426 0
1428 -355 -1427 0
-1428 355 0
-1428 1427 0
1429 -73 -778 0
-1429 73 0
-1429 778 0
-1430 79 1429 76 0
1430 -79 0
1430 -1429 0
1430 -76 0
1431 -92 -1430 0
-1431 92 0
-1431 1430 0
-1432 20 1431 12 14 16 0
1432 -20 0
1432 -1431 0
1432 -12 0
1432 -14 0
1432 -16 0
1433 -246 -1432 0
-1433 246 0
-1433 1432 0
-1434 346 1433 0
1434 -346 0
1434 -1433 0
1435 -348 -1434 0
-1435 348 0
-1435 1434 0
-1436 79 76 0
1436 -79 0
1436 -76 0
1437 -92 -1436 0
-1437 92 0
-1437 1436 0
-1438 20 1437 12 14 16 0
1438 -20 0
1438 -1437 0
1438 -12 0
1438 -14 0
1438 -16 0
1439 -48 -1438 0
-1439 48 0
-1439 1438 0
-1440 67 1439 53 64 0
1440 -67 0
1440 -1439 0
1440 -53 0
1440 -64 0
1441 -69 -1440 0
-1441 69 0
-1441 1440 0
-1442 71 1441 0
1442 -71 0
1442 -1441 0
1443 -714 -1442 0
-1443 714 0
-1443 1442 0
-1444 718 1435 349 1443 715 0
1444 -718 0
1444 -1435 0
1444 -349 0
1444 -1443 0
1444 -715 0
1445 -793 -1444 0
-1445 793 0
-1445 1444 0
-1446 57 1445 0
1446 -57 0
1446 -1445 0
1447 -56 -1446 0
-1447 56 0
-1447 1446 0
-1448 61 1428 1447 58 0
1448 -61 0
1448 -1428 0
1448 -1447 0
1448 -58 0
1449 -111 -1448 0
-1449 111 0
-1449 1448 0
-1450 113 1417 1449 0
1450 -113 0
1450 -1417 0
1450 -1449 0
1451 -115 -1450 0
-1451 115 0
-1451 1450 0
-1452 117 1410 1413 1416 1451 0
1452 -117 0
1452 -1410 0
1452 -1413 0
1452 -1416 0
1452 -1451 0
1453 -119 -1452 0
-1453 119 0
-1453 1452 0
1454 -161 -1415 0
-1454 161 0
-1454 1415 0
-1455 163 1391 10 1453 1454 0
1455 -163 0
1455 -1391 0
1455 -10 0
1455 -1453 0
1455 -1454 0
1456 -185 -1455 0
-1456 185 0
-1456 1455 0
-1457 44 1380 1456 0
1457 -44 0
1457 -1380 0
1457 -1456 0
1458 -133 -1457 0
-1458 133 0
-1458 1457 0
1459 -246 -127 0
-1459 246 0
-1459 127 0
-1460 346 1459 0
1460 -346 0
1460 -1459 0
1461 -348 -1460 0
-1461 348 0
-1461 1460 0
-1462 67 120 1384 53 1385 64 0
1462 -67 0
1462 -120 0
1462 -1384 0
1462 -53 0
1462 -1385 0
1462 -64 0
1463 -69 -1462 0
-1463 69 0
-1463 1462 0
-1464 71 1463 0
1464 -71 0
1464 -1463 0
1465 -714 -1464 0
-1465 714 0
-1465 1464 0
-1466 718 1461 349 1465 715 0
1466 -718 0
1466 -1461 0
1466 -349 0
1466 -1465 0
1466 -715 0
1467 -766 -1466 0
-1467 766 0
-1467 1466 0
1468 -757 -808 0
-1468 757 0
-1468 808 0
1469 -46 -918 0
-1469 46 0
-1469 918 0
-1470 67 1393 1469 47 53 1398 64 0
1470 -67 0
1470 -1393 0
1470 -1469 0
1470 -47 0
1470 -53 0
1470 -1398 0
1470 -64 0
1471 -69 -1470 0
-1471 69 0
-1471 1470 0
-1472 71 1471 0
1472 -71 0
1472 -1471 0
1473 -73 -1472 0
-1473 73 0
-1473 1472 0
-1474 718 802 349 772 715 0
1474 -718 0
1474 -802 0
1474 -349 0
1474 -772 0
1474 -715 0
1475 -793 -1474 0
-1475 793 0
-1475 1474 0
-1476 57 1475 0
1476 -57 0
1476 -1475 0
1477 -56 -1476 0
-1477 56 0
-1477 1476 0
-1478 61 435 1477 58 0
1478 -61 0
1478 -435 0
1478 -1477 0
1478 -58 0
1479 -75 -1478 0
-1479 75 0
-1479 1478 0
-1480 79 1468 1473 1479 76 0
1480 -79 0
1480 -1468 0
1480 -1473 0
1480 -1479 0
1480 -76 0
1481 -81 -1480 0
-1481 81 0
-1481 1480 0
1482 -92 -1480 0
-1482 92 0
-1482 1480 0
-1483 20 1482 12 14 16 0
1483 -20 0
1483 -1482 0
1483 -12 0
1483 -14 0
1483 -16 0
1484 -95 -1483 0
-1484 95 0
-1484 1483 0
1485 -106 -1480 0
-1485 106 0
-1485 1480 0
-1486 25 1485 0
1486 -25 0
1486 -1485 0
1487 -109 -1486 0
-1487 109 0
-1487 1486 0
1488 -768 -1466 0
-1488 768 0
-1488 1466 0
1489 -757 -773 0
-1489 757 0
-1489 773 0
-1490 67 1393 1469 47 53 64 0
1490 -67 0
1490 -1393 0
1490 -1469 0
1490 -47 0
1490 -53 0
1490 -64 0
1491 -69 -1490 0
-1491 69 0
-1491 1490 0
-1492 71 1491 0
1492 -71 0
1492 -1491 0
1493 -73 -1492 0
-1493 73 0
-1493 1492 0
-1494 79 1489 1493 76 0
1494 -79 0
1494 -1489 0
1494 -1493 0
1494 -76 0
1495 -92 -1494 0
-1495 92 0
-1495 1494 0
-1496 20 1495 12 14 16 0
1496 -20 0
1496 -1495 0
1496 -12 0
1496 -14 0
1496 -16 0
1497 -246 -1496 0
-1497 246 0
-1497 1496 0
-1498 346 1497 0
1498 -346 0
1498 -1497 0
1499 -355 -1498 0
-1499 355 0
-1499 1498 0
1500 -73 -771 0
-1500 73 0
-1500 771 0
-1501 79 1500 76 0
1501 -79 0
1501 -1500 0
1501 -76 0
1502 -92 -1501 0
-1502 92 0
-1502 1501 0
-1503 20 1502 12 14 16 0
1503 -20 0
1503 -1502 0
1503 -12 0
1503 -14 0
1503 -16 0
1504 -246 -1503 0
-1504 246 0
-1504 1503 0
-1505 346 1504 0
1505 -346 0
1505 -1504 0
1506 -348 -1505 0
-1506 348 0
-1506 1505 0
-1507 67 120 1439 53 64 0
1507 -67 0
1507 -120 0
1507 -1439 0
1507 -53 0
1507 -64 0
1508 -69 -1507 0
-1508 69 0
-1508 1507 0
-1509 71 1508 0
1509 -71 0
1509 -1508 0
1510 -714 -1509 0
-1510 714 0
-1510 1509 0
-1511 718 1506 349 1510 715 0
1511 -718 0
1511 -1506 0
1511 -349 0
1511 -1510 0
1511 -715 0
1512 -793 -1511 0
-1512 793 0
-1512 1511 0
-1513 57 1512 0
1513 -57 0
1513 -1512 0
1514 -56 -1513 0
-1514 56 0
-1514 1513 0
-1515 61 1499 1514 58 0
1515 -61 0
1515 -1499 0
1515 -1514 0
1515 -58 0
1516 -111 -1515 0
-1516 111 0
-1516 1515 0
-1517 113 1488 1516 0
1517 -113 0
1517 -1488 0
1517 -1516 0
1518 -115 -1517 0
-1518 115 0
-1518 1517 0
-1519 117 1481 1484 1487 1518 0
1519 -117 0
1519 -1481 0
1519 -1484 0
1519 -1487 0
1519 -1518 0
1520 -119 -1519 0
-1520 119 0
-1520 1519 0
1521 -161 -1486 0
-1521 161 0
-1521 1486 0
-1522 163 1467 10 1520 1521 0
1522 -163 0
1522 -1467 0
1522 -10 0
1522 -1520 0
1522 -1521 0
1523 -188 -1522 0
-1523 188 0
-1523 1522 0
-1524 30 1523 0
1524 -30 0
1524 -1523 0
1525 -29 -1524 0
-1525 29 0
-1525 1524 0
-1526 32 1359 1458 26 1525 0
1526 -32 0
1526 -1359 0
1526 -1458 0
1526 -26 0
1526 -1525 0
1527 -34 -1526 0
-1527 34 0
-1527 1526 0
-1528 36 1527 0
1528 -36 0
1528 -1527 0
1529 -38 -1528 0
-1529 38 0
-1529 1528 0
-1530 40 1089 1294 1529 0
1530 -40 0
1530 -1089 0
1530 -1294 0
1530 -1529 0
1531 -1532 -1530 0
-1531 1532 0
-1531 1530 0
1533 -1534 -18 0
-1533 1534 0
-1533 18 0
-1535 1536 719 721 1531 1533 0
1535 -1536 0
1535 -719 0
1535 -721 0
1535 -1531 0
1535 -1533 0
1537 -1538 -1535 0
-1537 1538 0
-1537 1535 0
-1539 1540 1537 0
1539 -1540 0
1539 -1537 0
1541 -1539 -1542 0
-1541 1539 0
-1541 1542 0
1541 0
