c BC-S1.2
p cnf 287 823
1 -2 -3 0
-1 2 0
-1 3 0
4 -5 -3 0
-4 5 0
-4 3 0
-6 7 4 0
6 -7 0
6 -4 0
8 -9 -6 0
-8 9 0
-8 6 0
-10 11 1 8 0
10 -11 0
10 -1 0
10 -8 0
12 -13 -10 0
-12 13 0
-12 10 0
14 -15 -16 0
-14 15 0
-14 16 0
-17 18 14 0
17 -18 0
17 -14 0
19 -20 -17 0
-19 20 0
-19 17 0
-21 22 19 0
21 -22 0
21 -19 0
23 -24 -21 0
-23 24 0
-23 21 0
25 -26 -10 0
-25 26 0
-25 10 0
27 -28 -10 0
-27 28 0
-27 10 0
29 -30 -6 0
-29 30 0
-29 6 0
31 -32 -10 0
-31 32 0
-31 10 0
33 -34 -17 0
-33 34 0
-33 17 0
35 -36 -37 0
-35 36 0
-35 37 0
-38 39 31 33 35 0
38 -39 0
38 -31 0
38 -33 0
38 -35 0
40 -41 -38 0
-40 41 0
-40 38 0
-42 43 27 29 40 0
42 -43 0
42 -27 0
42 -29 0
42 -40 0
44 -45 -42 0
-44 45 0
-44 42 0
-46 47 25 44 0
46 -47 0
46 -25 0
46 -44 0
48 -49 -46 0
-48 49 0
-48 46 0
50 -51 -16 0
-50 51 0
-50 16 0
-52 53 12 23 48 50 0
52 -53 0
52 -12 0
52 -23 0
52 -48 0
52 -50 0
54 -55 -52 0
-54 55 0
-54 52 0
-56 57 54 0
56 -57 0
56 -54 0
58 -59 -56 0
-58 59 0
-58 56 0
-60 61 58 0
60 -61 0
60 -58 0
62 -63 -60 0
-62 63 0
-62 60 0
64 -65 -57 0
-64 65 0
-64 57 0
66 -59 -57 0
-66 59 0
-66 57 0
-67 61 66 0
67 -61 0
67 -66 0
68 -69 -67 0
-68 69 0
-68 67 0
-70 16 68 0
70 -16 0
70 -68 0
71 -15 -70 0
-71 15 0
-71 70 0
-72 18 64 71 0
72 -18 0
72 -64 0
72 -71 0
73 -20 -72 0
-73 20 0
-73 72 0
-74 22 73 0
74 -22 0
74 -73 0
75 -24 -74 0
-75 24 0
-75 74 0
76 -77 -67 0
-76 77 0
-76 67 0
78 -79 -67 0
-78 79 0
-78 67 0
80 -81 -57 0
-80 81 0
-80 57 0
-82 7 78 80 0
82 -7 0
82 -78 0
82 -80 0
83 -30 -82 0
-83 30 0
-83 82 0
84 -85 -57 0
-84 85 0
-84 57 0
86 -34 -72 0
-86 34 0
-86 72 0
87 -88 -67 0
-87 88 0
-87 67 0
-89 37 87 0
89 -37 0
89 -87 0
90 -36 -89 0
-90 36 0
-90 89 0
-91 39 84 86 90 0
91 -39 0
91 -84 0
91 -86 0
91 -90 0
92 -41 -91 0
-92 41 0
-92 91 0
-93 43 83 92 0
93 -43 0
93 -83 0
93 -92 0
94 -45 -93 0
-94 45 0
-94 93 0
-95 47 94 0
95 -47 0
95 -94 0
96 -49 -95 0
-96 49 0
-96 95 0
97 -51 -70 0
-97 51 0
-97 70 0
-98 53 75 76 96 97 0
98 -53 0
98 -75 0
98 -76 0
98 -96 0
98 -97 0
99 -100 -98 0
-99 100 0
-99 98 0
-101 39 33 35 0
101 -39 0
101 -33 0
101 -35 0
102 -41 -101 0
-102 41 0
-102 101 0
-103 43 29 102 0
103 -43 0
103 -29 0
103 -102 0
104 -45 -103 0
-104 45 0
-104 103 0
-105 47 104 0
105 -47 0
105 -104 0
106 -49 -105 0
-106 49 0
-106 105 0
-107 53 23 106 50 0
107 -53 0
107 -23 0
107 -106 0
107 -50 0
108 -55 -107 0
-108 55 0
-108 107 0
-109 57 108 0
109 -57 0
109 -108 0
110 -59 -109 0
-110 59 0
-110 109 0
-111 61 110 0
111 -61 0
111 -110 0
112 -113 -111 0
-112 113 0
-112 111 0
-114 3 99 112 0
114 -3 0
114 -99 0
114 -112 0
115 -2 -114 0
-115 2 0
-115 114 0
-116 18 71 0
116 -18 0
116 -71 0
117 -20 -116 0
-117 20 0
-117 116 0
-118 22 117 0
118 -22 0
118 -117 0
119 -24 -118 0
-119 24 0
-119 118 0
120 -113 -67 0
-120 113 0
-120 67 0
-121 3 120 0
121 -3 0
121 -120 0
122 -5 -121 0
-122 5 0
-122 121 0
-123 7 122 78 0
123 -7 0
123 -122 0
123 -78 0
124 -30 -123 0
-124 30 0
-124 123 0
125 -34 -116 0
-125 34 0
-125 116 0
-126 39 125 90 0
126 -39 0
126 -125 0
126 -90 0
127 -41 -126 0
-127 41 0
-127 126 0
-128 43 124 127 0
128 -43 0
128 -124 0
128 -127 0
129 -45 -128 0
-129 45 0
-129 128 0
-130 47 129 0
130 -47 0
130 -129 0
131 -49 -130 0
-131 49 0
-131 130 0
-132 53 119 76 131 97 0
132 -53 0
132 -119 0
132 -76 0
132 -131 0
132 -97 0
133 -55 -132 0
-133 55 0
-133 132 0
-134 57 133 0
134 -57 0
134 -133 0
135 -136 -134 0
-135 136 0
-135 134 0
-137 43 92 0
137 -43 0
137 -92 0
138 -45 -137 0
-138 45 0
-138 137 0
-139 47 138 0
139 -47 0
139 -138 0
140 -49 -139 0
-140 49 0
-140 139 0
-141 53 75 76 140 97 0
141 -53 0
141 -75 0
141 -76 0
141 -140 0
141 -97 0
142 -100 -141 0
-142 100 0
-142 141 0
-143 43 102 0
143 -43 0
143 -102 0
144 -45 -143 0
-144 45 0
-144 143 0
-145 47 144 0
145 -47 0
145 -144 0
146 -49 -145 0
-146 49 0
-146 145 0
-147 53 23 146 50 0
147 -53 0
147 -23 0
147 -146 0
147 -50 0
148 -55 -147 0
-148 55 0
-148 147 0
-149 57 148 0
149 -57 0
149 -148 0
150 -59 -149 0
-150 59 0
-150 149 0
-151 61 150 0
151 -61 0
151 -150 0
152 -113 -151 0
-152 113 0
-152 151 0
-153 3 142 152 0
153 -3 0
153 -142 0
153 -152 0
154 -5 -153 0
-154 5 0
-154 153 0
155 -79 -111 0
-155 79 0
-155 111 0
-156 43 127 0
156 -43 0
156 -127 0
157 -45 -156 0
-157 45 0
-157 156 0
-158 47 157 0
158 -47 0
158 -157 0
159 -49 -158 0
-159 49 0
-159 158 0
-160 53 119 76 159 97 0
160 -53 0
160 -119 0
160 -76 0
160 -159 0
160 -97 0
161 -55 -160 0
-161 55 0
-161 160 0
-162 57 161 0
162 -57 0
162 -161 0
163 -81 -162 0
-163 81 0
-163 162 0
-164 7 154 155 163 0
164 -7 0
164 -154 0
164 -155 0
164 -163 0
165 -9 -164 0
-165 9 0
-165 164 0
-166 11 115 135 165 0
166 -11 0
166 -115 0
166 -135 0
166 -165 0
167 -168 -166 0
-167 168 0
-167 166 0
169 -2 -121 0
-169 2 0
-169 121 0
170 -136 -57 0
-170 136 0
-170 57 0
-171 7 122 78 80 0
171 -7 0
171 -122 0
171 -78 0
171 -80 0
172 -9 -171 0
-172 9 0
-172 171 0
-173 11 169 170 172 0
173 -11 0
173 -169 0
173 -170 0
173 -172 0
174 -13 -173 0
-174 13 0
-174 173 0
175 -26 -173 0
-175 26 0
-175 173 0
176 -28 -173 0
-176 28 0
-176 173 0
177 -30 -171 0
-177 30 0
-177 171 0
178 -32 -173 0
-178 32 0
-178 173 0
-179 39 178 84 86 90 0
179 -39 0
179 -178 0
179 -84 0
179 -86 0
179 -90 0
180 -41 -179 0
-180 41 0
-180 179 0
-181 43 176 177 180 0
181 -43 0
181 -176 0
181 -177 0
181 -180 0
182 -45 -181 0
-182 45 0
-182 181 0
-183 47 175 182 0
183 -47 0
183 -175 0
183 -182 0
184 -49 -183 0
-184 49 0
-184 183 0
-185 53 174 75 76 184 97 0
185 -53 0
185 -174 0
185 -75 0
185 -76 0
185 -184 0
185 -97 0
186 -187 -185 0
-186 187 0
-186 185 0
-188 11 169 170 0
188 -11 0
188 -169 0
188 -170 0
189 -13 -188 0
-189 13 0
-189 188 0
190 -26 -188 0
-190 26 0
-190 188 0
191 -28 -188 0
-191 28 0
-191 188 0
192 -32 -188 0
-192 32 0
-192 188 0
-193 39 192 84 86 90 0
193 -39 0
193 -192 0
193 -84 0
193 -86 0
193 -90 0
194 -41 -193 0
-194 41 0
-194 193 0
-195 43 191 194 0
195 -43 0
195 -191 0
195 -194 0
196 -45 -195 0
-196 45 0
-196 195 0
-197 47 190 196 0
197 -47 0
197 -190 0
197 -196 0
198 -49 -197 0
-198 49 0
-198 197 0
-199 53 189 75 76 198 97 0
199 -53 0
199 -189 0
199 -75 0
199 -76 0
199 -198 0
199 -97 0
200 -100 -199 0
-200 100 0
-200 199 0
201 -13 -11 0
-201 13 0
-201 11 0
202 -26 -11 0
-202 26 0
-202 11 0
203 -28 -11 0
-203 28 0
-203 11 0
204 -32 -11 0
-204 32 0
-204 11 0
-205 39 204 33 35 0
205 -39 0
205 -204 0
205 -33 0
205 -35 0
206 -41 -205 0
-206 41 0
-206 205 0
-207 43 203 206 0
207 -43 0
207 -203 0
207 -206 0
208 -45 -207 0
-208 45 0
-208 207 0
-209 47 202 208 0
209 -47 0
209 -202 0
209 -208 0
210 -49 -209 0
-210 49 0
-210 209 0
-211 53 201 23 210 50 0
211 -53 0
211 -201 0
211 -23 0
211 -210 0
211 -50 0
212 -55 -211 0
-212 55 0
-212 211 0
-213 57 212 0
213 -57 0
213 -212 0
214 -59 -213 0
-214 59 0
-214 213 0
-215 61 214 0
215 -61 0
215 -214 0
216 -113 -215 0
-216 113 0
-216 215 0
-217 3 200 216 0
217 -3 0
217 -200 0
217 -216 0
218 -5 -217 0
-218 5 0
-218 217 0
-219 11 1 0
219 -11 0
219 -1 0
220 -13 -219 0
-220 13 0
-220 219 0
221 -26 -219 0
-221 26 0
-221 219 0
222 -28 -219 0
-222 28 0
-222 219 0
223 -32 -219 0
-223 32 0
-223 219 0
-224 39 223 33 35 0
224 -39 0
224 -223 0
224 -33 0
224 -35 0
225 -41 -224 0
-225 41 0
-225 224 0
-226 43 222 29 225 0
226 -43 0
226 -222 0
226 -29 0
226 -225 0
227 -45 -226 0
-227 45 0
-227 226 0
-228 47 221 227 0
228 -47 0
228 -221 0
228 -227 0
229 -49 -228 0
-229 49 0
-229 228 0
-230 53 220 23 229 50 0
230 -53 0
230 -220 0
230 -23 0
230 -229 0
230 -50 0
231 -55 -230 0
-231 55 0
-231 230 0
-232 57 231 0
232 -57 0
232 -231 0
233 -59 -232 0
-233 59 0
-233 232 0
-234 61 233 0
234 -61 0
234 -233 0
235 -79 -234 0
-235 79 0
-235 234 0
-236 39 192 125 90 0
236 -39 0
236 -192 0
236 -125 0
236 -90 0
237 -41 -236 0
-237 41 0
-237 236 0
-238 43 191 237 0
238 -43 0
238 -191 0
238 -237 0
239 -45 -238 0
-239 45 0
-239 238 0
-240 47 190 239 0
240 -47 0
240 -190 0
240 -239 0
241 -49 -240 0
-241 49 0
-241 240 0
-242 53 189 119 76 241 97 0
242 -53 0
242 -189 0
242 -119 0
242 -76 0
242 -241 0
242 -97 0
243 -55 -242 0
-243 55 0
-243 242 0
-244 57 243 0
244 -57 0
244 -243 0
245 -81 -244 0
-245 81 0
-245 244 0
-246 7 218 235 245 0
246 -7 0
246 -218 0
246 -235 0
246 -245 0
247 -248 -246 0
-247 248 0
-247 246 0
-249 250 186 247 0
249 -250 0
249 -186 0
249 -247 0
251 -252 -249 0
-251 252 0
-251 249 0
253 -24 -22 0
-253 24 0
-253 22 0
-254 53 174 253 76 184 97 0
254 -53 0
254 -174 0
254 -253 0
254 -76 0
254 -184 0
254 -97 0
255 -256 -254 0
-255 256 0
-255 254 0
-257 39 178 125 90 0
257 -39 0
257 -178 0
257 -125 0
257 -90 0
258 -41 -257 0
-258 41 0
-258 257 0
-259 43 176 124 258 0
259 -43 0
259 -176 0
259 -124 0
259 -258 0
260 -45 -259 0
-260 45 0
-260 259 0
-261 47 175 260 0
261 -47 0
261 -175 0
261 -260 0
262 -49 -261 0
-262 49 0
-262 261 0
-263 53 174 253 76 262 97 0
263 -53 0
263 -174 0
263 -253 0
263 -76 0
263 -262 0
263 -97 0
264 -55 -263 0
-264 55 0
-264 263 0
-265 57 264 0
265 -57 0
265 -264 0
266 -65 -265 0
-266 65 0
-266 265 0
-267 39 31 35 0
267 -39 0
267 -31 0
267 -35 0
268 -41 -267 0
-268 41 0
-268 267 0
-269 43 27 29 268 0
269 -43 0
269 -27 0
269 -29 0
269 -268 0
270 -45 -269 0
-270 45 0
-270 269 0
-271 47 25 270 0
271 -47 0
271 -25 0
271 -270 0
272 -49 -271 0
-272 49 0
-272 271 0
-273 53 12 253 272 50 0
273 -53 0
273 -12 0
273 -253 0
273 -272 0
273 -50 0
274 -55 -273 0
-274 55 0
-274 273 0
-275 57 274 0
275 -57 0
275 -274 0
276 -59 -275 0
-276 59 0
-276 275 0
-277 61 276 0
277 -61 0
277 -276 0
278 -69 -277 0
-278 69 0
-278 277 0
-279 16 278 0
279 -16 0
279 -278 0
280 -15 -279 0
-280 15 0
-280 279 0
-281 18 255 266 280 0
281 -18 0
281 -255 0
281 -266 0
281 -280 0
282 -283 -281 0
-282 283 0
-282 281 0
-284 285 62 167 251 282 0
284 -285 0
284 -62 0
284 -167 0
284 -251 0
284 -282 0
286 -284 -287 0
-286 284 0
-286 287 0
286 0
