c BC-S1.2
p cnf 1571 4979
1 -2 -3 0
-1 2 0
-1 3 0
-4 5 1 0
4 -5 0
4 -1 0
6 -7 -4 0
-6 7 0
-6 4 0
8 -9 -10 0
-8 9 0
-8 10 0
-11 12 6 8 0
11 -12 0
11 -6 0
11 -8 0
13 -14 -11 0
-13 14 0
-13 11 0
-15 16 13 0
15 -16 0
15 -13 0
17 -18 -15 0
-17 18 0
-17 15 0
-19 20 17 0
19 -20 0
19 -17 0
21 -22 -19 0
-21 22 0
-21 19 0
-23 24 21 0
23 -24 0
23 -21 0
25 -26 -23 0
-25 26 0
-25 23 0
27 -28 -10 0
-27 28 0
-27 10 0
-29 30 27 0
29 -30 0
29 -27 0
31 -32 -29 0
-31 32 0
-31 29 0
33 -34 -35 0
-33 34 0
-33 35 0
-36 37 25 31 33 0
36 -37 0
36 -25 0
36 -31 0
36 -33 0
38 -39 -36 0
-38 39 0
-38 36 0
40 -18 -16 0
-40 18 0
-40 16 0
-41 20 40 0
41 -20 0
41 -40 0
42 -43 -41 0
-42 43 0
-42 41 0
-44 3 42 0
44 -3 0
44 -42 0
45 -2 -44 0
-45 2 0
-45 44 0
-46 5 45 0
46 -5 0
46 -45 0
47 -7 -46 0
-47 7 0
-47 46 0
-48 12 47 8 0
48 -12 0
48 -47 0
48 -8 0
49 -50 -48 0
-49 50 0
-49 48 0
-51 52 38 49 0
51 -52 0
51 -38 0
51 -49 0
53 -54 -51 0
-53 54 0
-53 51 0
-55 12 8 0
55 -12 0
55 -8 0
56 -14 -55 0
-56 14 0
-56 55 0
-57 16 56 0
57 -16 0
57 -56 0
58 -18 -57 0
-58 18 0
-58 57 0
-59 20 58 0
59 -20 0
59 -58 0
60 -43 -59 0
-60 43 0
-60 59 0
-61 3 60 0
61 -3 0
61 -60 0
62 -2 -61 0
-62 2 0
-62 61 0
-63 5 62 0
63 -5 0
63 -62 0
64 -65 -63 0
-64 65 0
-64 63 0
-66 67 53 64 0
66 -67 0
66 -53 0
66 -64 0
68 -69 -66 0
-68 69 0
-68 66 0
70 -50 -11 0
-70 50 0
-70 11 0
-71 52 70 0
71 -52 0
71 -70 0
72 -54 -71 0
-72 54 0
-72 71 0
73 -65 -4 0
-73 65 0
-73 4 0
-74 67 72 73 0
74 -67 0
74 -72 0
74 -73 0
75 -76 -74 0
-75 76 0
-75 74 0
77 -54 -52 0
-77 54 0
-77 52 0
-78 67 77 0
78 -67 0
78 -77 0
79 -80 -78 0
-79 80 0
-79 78 0
-81 3 79 0
81 -3 0
81 -79 0
82 -2 -81 0
-82 2 0
-82 81 0
-83 5 82 0
83 -5 0
83 -82 0
84 -7 -83 0
-84 7 0
-84 83 0
-85 12 84 8 0
85 -12 0
85 -84 0
85 -8 0
86 -14 -85 0
-86 14 0
-86 85 0
-87 16 86 0
87 -16 0
87 -86 0
88 -18 -87 0
-88 18 0
-88 87 0
-89 20 75 88 0
89 -20 0
89 -75 0
89 -88 0
90 -22 -89 0
-90 22 0
-90 89 0
-91 24 90 0
91 -24 0
91 -90 0
92 -26 -91 0
-92 26 0
-92 91 0
-93 52 49 0
93 -52 0
93 -49 0
94 -54 -93 0
-94 54 0
-94 93 0
-95 67 94 64 0
95 -67 0
95 -94 0
95 -64 0
96 -97 -95 0
-96 97 0
-96 95 0
98 -80 -67 0
-98 80 0
-98 67 0
99 -76 -67 0
-99 76 0
-99 67 0
-100 20 99 40 0
100 -20 0
100 -99 0
100 -40 0
101 -43 -100 0
-101 43 0
-101 100 0
-102 3 98 101 0
102 -3 0
102 -98 0
102 -101 0
103 -2 -102 0
-103 2 0
-103 102 0
-104 5 103 0
104 -5 0
104 -103 0
105 -7 -104 0
-105 7 0
-105 104 0
-106 12 105 8 0
106 -12 0
106 -105 0
106 -8 0
107 -50 -106 0
-107 50 0
-107 106 0
-108 52 107 0
108 -52 0
108 -107 0
109 -110 -108 0
-109 110 0
-109 108 0
-111 30 96 109 27 0
111 -30 0
111 -96 0
111 -109 0
111 -27 0
112 -32 -111 0
-112 32 0
-112 111 0
113 -114 -95 0
-113 114 0
-113 95 0
-115 35 113 0
115 -35 0
115 -113 0
116 -34 -115 0
-116 34 0
-116 115 0
-117 37 92 112 116 0
117 -37 0
117 -92 0
117 -112 0
117 -116 0
118 -119 -117 0
-118 119 0
-118 117 0
-120 121 68 118 0
120 -121 0
120 -68 0
120 -118 0
122 -123 -120 0
-122 123 0
-122 120 0
124 -125 -121 0
-124 125 0
-124 121 0
-126 16 124 13 0
126 -16 0
126 -124 0
126 -13 0
127 -18 -126 0
-127 18 0
-127 126 0
-128 20 127 0
128 -20 0
128 -127 0
129 -22 -128 0
-129 22 0
-129 128 0
-130 24 129 0
130 -24 0
130 -129 0
131 -26 -130 0
-131 26 0
-131 130 0
-132 37 131 31 33 0
132 -37 0
132 -131 0
132 -31 0
132 -33 0
133 -39 -132 0
-133 39 0
-133 132 0
134 -26 -24 0
-134 26 0
-134 24 0
-135 37 134 31 33 0
135 -37 0
135 -134 0
135 -31 0
135 -33 0
136 -119 -135 0
-136 119 0
-136 135 0
-137 121 136 0
137 -121 0
137 -136 0
138 -125 -137 0
-138 125 0
-138 137 0
-139 16 138 0
139 -16 0
139 -138 0
140 -18 -139 0
-140 18 0
-140 139 0
-141 20 140 0
141 -20 0
141 -140 0
142 -43 -141 0
-142 43 0
-142 141 0
-143 3 142 0
143 -3 0
143 -142 0
144 -2 -143 0
-144 2 0
-144 143 0
-145 5 144 0
145 -5 0
145 -144 0
146 -7 -145 0
-146 7 0
-146 145 0
-147 12 146 8 0
147 -12 0
147 -146 0
147 -8 0
148 -50 -147 0
-148 50 0
-148 147 0
-149 52 133 148 0
149 -52 0
149 -133 0
149 -148 0
150 -54 -149 0
-150 54 0
-150 149 0
151 -50 -55 0
-151 50 0
-151 55 0
-152 52 151 0
152 -52 0
152 -151 0
153 -110 -152 0
-153 110 0
-153 152 0
-154 30 153 27 0
154 -30 0
154 -153 0
154 -27 0
155 -32 -154 0
-155 32 0
-155 154 0
-156 37 134 155 33 0
156 -37 0
156 -134 0
156 -155 0
156 -33 0
157 -119 -156 0
-157 119 0
-157 156 0
-158 121 157 0
158 -121 0
158 -157 0
159 -125 -158 0
-159 125 0
-159 158 0
-160 16 159 56 0
160 -16 0
160 -159 0
160 -56 0
161 -18 -160 0
-161 18 0
-161 160 0
-162 20 161 0
162 -20 0
162 -161 0
163 -43 -162 0
-163 43 0
-163 162 0
-164 3 163 0
164 -3 0
164 -163 0
165 -2 -164 0
-165 2 0
-165 164 0
-166 5 165 0
166 -5 0
166 -165 0
167 -65 -166 0
-167 65 0
-167 166 0
-168 67 150 167 0
168 -67 0
168 -150 0
168 -167 0
169 -170 -168 0
-169 170 0
-169 168 0
171 -172 -120 0
-171 172 0
-171 120 0
-173 174 169 171 0
173 -174 0
173 -169 0
173 -171 0
175 -176 -173 0
-175 176 0
-175 173 0
-177 178 122 175 0
177 -178 0
177 -122 0
177 -175 0
179 -180 -177 0
-179 180 0
-179 177 0
181 -69 -95 0
-181 69 0
-181 95 0
-182 121 181 0
182 -121 0
182 -181 0
183 -123 -182 0
-183 123 0
-183 182 0
-184 16 124 0
184 -16 0
184 -124 0
185 -18 -184 0
-185 18 0
-185 184 0
-186 20 185 0
186 -20 0
186 -185 0
187 -43 -186 0
-187 43 0
-187 186 0
-188 3 187 0
188 -3 0
188 -187 0
189 -2 -188 0
-189 2 0
-189 188 0
-190 5 189 0
190 -5 0
190 -189 0
191 -7 -190 0
-191 7 0
-191 190 0
-192 12 191 8 0
192 -12 0
192 -191 0
192 -8 0
193 -50 -192 0
-193 50 0
-193 192 0
-194 52 193 0
194 -52 0
194 -193 0
195 -54 -194 0
-195 54 0
-195 194 0
-196 16 124 56 0
196 -16 0
196 -124 0
196 -56 0
197 -18 -196 0
-197 18 0
-197 196 0
-198 20 197 0
198 -20 0
198 -197 0
199 -43 -198 0
-199 43 0
-199 198 0
-200 3 199 0
200 -3 0
200 -199 0
201 -2 -200 0
-201 2 0
-201 200 0
-202 5 201 0
202 -5 0
202 -201 0
203 -65 -202 0
-203 65 0
-203 202 0
-204 67 195 203 0
204 -67 0
204 -195 0
204 -203 0
205 -170 -204 0
-205 170 0
-205 204 0
206 -172 -182 0
-206 172 0
-206 182 0
-207 174 205 206 0
207 -174 0
207 -205 0
207 -206 0
208 -176 -207 0
-208 176 0
-208 207 0
-209 178 183 208 0
209 -178 0
209 -183 0
209 -208 0
210 -211 -209 0
-210 211 0
-210 209 0
212 -123 -121 0
-212 123 0
-212 121 0
213 -172 -121 0
-213 172 0
-213 121 0
-214 174 213 0
214 -174 0
214 -213 0
215 -176 -214 0
-215 176 0
-215 214 0
-216 178 212 215 0
216 -178 0
216 -212 0
216 -215 0
217 -218 -216 0
-217 218 0
-217 216 0
219 -220 -216 0
-219 220 0
-219 216 0
221 -222 -216 0
-221 222 0
-221 216 0
223 -224 -216 0
-223 224 0
-223 216 0
-225 10 223 0
225 -10 0
225 -223 0
226 -9 -225 0
-226 9 0
-226 225 0
-227 12 221 6 226 0
227 -12 0
227 -221 0
227 -6 0
227 -226 0
228 -50 -227 0
-228 50 0
-228 227 0
-229 52 219 228 0
229 -52 0
229 -219 0
229 -228 0
230 -54 -229 0
-230 54 0
-230 229 0
-231 67 217 230 73 0
231 -67 0
231 -217 0
231 -230 0
231 -73 0
232 -76 -231 0
-232 76 0
-232 231 0
233 -69 -231 0
-233 69 0
-233 231 0
-234 121 233 0
234 -121 0
234 -233 0
235 -125 -234 0
-235 125 0
-235 234 0
236 -69 -74 0
-236 69 0
-236 74 0
-237 121 236 0
237 -121 0
237 -236 0
238 -123 -237 0
-238 123 0
-238 237 0
239 -170 -74 0
-239 170 0
-239 74 0
240 -172 -237 0
-240 172 0
-240 237 0
-241 174 239 240 0
241 -174 0
241 -239 0
241 -240 0
242 -176 -241 0
-242 176 0
-242 241 0
-243 178 238 242 0
243 -178 0
243 -238 0
243 -242 0
244 -222 -243 0
-244 222 0
-244 243 0
-245 52 219 0
245 -52 0
245 -219 0
246 -54 -245 0
-246 54 0
-246 245 0
-247 67 217 246 0
247 -67 0
247 -217 0
247 -246 0
248 -80 -247 0
-248 80 0
-248 247 0
-249 3 248 0
249 -3 0
249 -248 0
250 -2 -249 0
-250 2 0
-250 249 0
-251 5 250 0
251 -5 0
251 -250 0
252 -7 -251 0
-252 7 0
-252 251 0
-253 67 77 73 0
253 -67 0
253 -77 0
253 -73 0
254 -69 -253 0
-254 69 0
-254 253 0
-255 121 254 0
255 -121 0
255 -254 0
256 -123 -255 0
-256 123 0
-256 255 0
257 -170 -253 0
-257 170 0
-257 253 0
258 -172 -255 0
-258 172 0
-258 255 0
-259 174 257 258 0
259 -174 0
259 -257 0
259 -258 0
260 -176 -259 0
-260 176 0
-260 259 0
-261 178 256 260 0
261 -178 0
261 -256 0
261 -260 0
262 -224 -261 0
-262 224 0
-262 261 0
-263 10 262 0
263 -10 0
263 -262 0
264 -9 -263 0
-264 9 0
-264 263 0
-265 12 244 252 264 0
265 -12 0
265 -244 0
265 -252 0
265 -264 0
266 -14 -265 0
-266 14 0
-266 265 0
-267 16 235 266 0
267 -16 0
267 -235 0
267 -266 0
268 -18 -267 0
-268 18 0
-268 267 0
-269 20 232 268 0
269 -20 0
269 -232 0
269 -268 0
270 -22 -269 0
-270 22 0
-270 269 0
-271 24 210 270 0
271 -24 0
271 -210 0
271 -270 0
272 -26 -271 0
-272 26 0
-272 271 0
-273 12 221 191 226 0
273 -12 0
273 -221 0
273 -191 0
273 -226 0
274 -50 -273 0
-274 50 0
-274 273 0
-275 52 219 274 0
275 -52 0
275 -219 0
275 -274 0
276 -54 -275 0
-276 54 0
-276 275 0
-277 12 221 226 0
277 -12 0
277 -221 0
277 -226 0
278 -14 -277 0
-278 14 0
-278 277 0
-279 16 124 278 0
279 -16 0
279 -124 0
279 -278 0
280 -18 -279 0
-280 18 0
-280 279 0
-281 20 280 0
281 -20 0
281 -280 0
282 -43 -281 0
-282 43 0
-282 281 0
-283 3 282 0
283 -3 0
283 -282 0
284 -2 -283 0
-284 2 0
-284 283 0
-285 5 284 0
285 -5 0
285 -284 0
286 -65 -285 0
-286 65 0
-286 285 0
-287 67 217 276 286 0
287 -67 0
287 -217 0
287 -276 0
287 -286 0
288 -97 -287 0
-288 97 0
-288 287 0
-289 67 64 0
289 -67 0
289 -64 0
290 -69 -289 0
-290 69 0
-290 289 0
-291 121 290 0
291 -121 0
291 -290 0
292 -123 -291 0
-292 123 0
-292 291 0
-293 67 203 0
293 -67 0
293 -203 0
294 -170 -293 0
-294 170 0
-294 293 0
295 -172 -291 0
-295 172 0
-295 291 0
-296 174 294 295 0
296 -174 0
296 -294 0
296 -295 0
297 -176 -296 0
-297 176 0
-297 296 0
-298 178 292 297 0
298 -178 0
298 -292 0
298 -297 0
299 -220 -298 0
-299 220 0
-299 298 0
300 -65 -46 0
-300 65 0
-300 46 0
-301 67 300 0
301 -67 0
301 -300 0
302 -69 -301 0
-302 69 0
-302 301 0
-303 121 302 0
303 -121 0
303 -302 0
304 -123 -303 0
-304 123 0
-304 303 0
305 -65 -190 0
-305 65 0
-305 190 0
-306 67 305 0
306 -67 0
306 -305 0
307 -170 -306 0
-307 170 0
-307 306 0
308 -172 -303 0
-308 172 0
-308 303 0
-309 174 307 308 0
309 -174 0
309 -307 0
309 -308 0
310 -176 -309 0
-310 176 0
-310 309 0
-311 178 304 310 0
311 -178 0
311 -304 0
311 -310 0
312 -222 -311 0
-312 222 0
-312 311 0
-313 67 217 0
313 -67 0
313 -217 0
314 -80 -313 0
-314 80 0
-314 313 0
315 -76 -313 0
-315 76 0
-315 313 0
316 -69 -313 0
-316 69 0
-316 313 0
-317 121 316 0
317 -121 0
317 -316 0
318 -125 -317 0
-318 125 0
-318 317 0
-319 16 318 0
319 -16 0
319 -318 0
320 -18 -319 0
-320 18 0
-320 319 0
-321 20 315 320 0
321 -20 0
321 -315 0
321 -320 0
322 -43 -321 0
-322 43 0
-322 321 0
-323 3 314 322 0
323 -3 0
323 -314 0
323 -322 0
324 -2 -323 0
-324 2 0
-324 323 0
-325 5 324 0
325 -5 0
325 -324 0
326 -7 -325 0
-326 7 0
-326 325 0
327 -224 -311 0
-327 224 0
-327 311 0
-328 10 327 0
328 -10 0
328 -327 0
329 -9 -328 0
-329 9 0
-329 328 0
-330 12 312 326 329 0
330 -12 0
330 -312 0
330 -326 0
330 -329 0
331 -50 -330 0
-331 50 0
-331 330 0
-332 52 299 331 0
332 -52 0
332 -299 0
332 -331 0
333 -110 -332 0
-333 110 0
-333 332 0
-334 12 47 0
334 -12 0
334 -47 0
335 -50 -334 0
-335 50 0
-335 334 0
-336 52 335 0
336 -52 0
336 -335 0
337 -54 -336 0
-337 54 0
-337 336 0
338 -14 -12 0
-338 14 0
-338 12 0
-339 16 338 0
339 -16 0
339 -338 0
340 -18 -339 0
-340 18 0
-340 339 0
-341 20 340 0
341 -20 0
341 -340 0
342 -43 -341 0
-342 43 0
-342 341 0
-343 3 342 0
343 -3 0
343 -342 0
344 -2 -343 0
-344 2 0
-344 343 0
-345 5 344 0
345 -5 0
345 -344 0
346 -65 -345 0
-346 65 0
-346 345 0
-347 67 337 346 0
347 -67 0
347 -337 0
347 -346 0
348 -69 -347 0
-348 69 0
-348 347 0
-349 121 348 0
349 -121 0
349 -348 0
350 -123 -349 0
-350 123 0
-350 349 0
-351 12 191 0
351 -12 0
351 -191 0
352 -50 -351 0
-352 50 0
-352 351 0
-353 52 352 0
353 -52 0
353 -352 0
354 -54 -353 0
-354 54 0
-354 353 0
-355 16 124 338 0
355 -16 0
355 -124 0
355 -338 0
356 -18 -355 0
-356 18 0
-356 355 0
-357 20 356 0
357 -20 0
357 -356 0
358 -43 -357 0
-358 43 0
-358 357 0
-359 3 358 0
359 -3 0
359 -358 0
360 -2 -359 0
-360 2 0
-360 359 0
-361 5 360 0
361 -5 0
361 -360 0
362 -65 -361 0
-362 65 0
-362 361 0
-363 67 354 362 0
363 -67 0
363 -354 0
363 -362 0
364 -170 -363 0
-364 170 0
-364 363 0
365 -172 -349 0
-365 172 0
-365 349 0
-366 174 364 365 0
366 -174 0
366 -364 0
366 -365 0
367 -176 -366 0
-367 176 0
-367 366 0
-368 178 350 367 0
368 -178 0
368 -350 0
368 -367 0
369 -224 -368 0
-369 224 0
-369 368 0
-370 10 369 0
370 -10 0
370 -369 0
371 -28 -370 0
-371 28 0
-371 370 0
-372 30 288 333 371 0
372 -30 0
372 -288 0
372 -333 0
372 -371 0
373 -32 -372 0
-373 32 0
-373 372 0
374 -114 -287 0
-374 114 0
-374 287 0
-375 35 374 0
375 -35 0
375 -374 0
376 -34 -375 0
-376 34 0
-376 375 0
-377 37 272 373 376 0
377 -37 0
377 -272 0
377 -373 0
377 -376 0
378 -379 -377 0
-378 379 0
-378 377 0
380 -110 -93 0
-380 110 0
-380 93 0
-381 30 380 27 0
381 -30 0
381 -380 0
381 -27 0
382 -32 -381 0
-382 32 0
-382 381 0
-383 37 25 382 33 0
383 -37 0
383 -25 0
383 -382 0
383 -33 0
384 -119 -383 0
-384 119 0
-384 383 0
-385 121 384 0
385 -121 0
385 -384 0
386 -123 -385 0
-386 123 0
-386 385 0
387 -172 -385 0
-387 172 0
-387 385 0
-388 174 387 0
388 -174 0
388 -387 0
389 -176 -388 0
-389 176 0
-389 388 0
-390 178 386 389 0
390 -178 0
390 -386 0
390 -389 0
391 -218 -390 0
-391 218 0
-391 390 0
392 -119 -36 0
-392 119 0
-392 36 0
-393 121 392 0
393 -121 0
393 -392 0
394 -123 -393 0
-394 123 0
-394 393 0
395 -172 -393 0
-395 172 0
-395 393 0
-396 174 395 0
396 -174 0
396 -395 0
397 -176 -396 0
-397 176 0
-397 396 0
-398 178 394 397 0
398 -178 0
398 -394 0
398 -397 0
399 -220 -398 0
-399 220 0
-399 398 0
400 -211 -216 0
-400 211 0
-400 216 0
401 -14 -227 0
-401 14 0
-401 227 0
-402 16 124 401 0
402 -16 0
402 -124 0
402 -401 0
403 -18 -402 0
-403 18 0
-403 402 0
-404 20 403 0
404 -20 0
404 -403 0
405 -22 -404 0
-405 22 0
-405 404 0
-406 24 400 405 0
406 -24 0
406 -400 0
406 -405 0
407 -26 -406 0
-407 26 0
-407 406 0
408 -28 -225 0
-408 28 0
-408 225 0
-409 30 408 0
409 -30 0
409 -408 0
410 -32 -409 0
-410 32 0
-410 409 0
-411 37 407 410 33 0
411 -37 0
411 -407 0
411 -410 0
411 -33 0
412 -39 -411 0
-412 39 0
-412 411 0
413 -22 -41 0
-413 22 0
-413 41 0
-414 24 413 0
414 -24 0
414 -413 0
415 -26 -414 0
-415 26 0
-415 414 0
-416 37 415 31 33 0
416 -37 0
416 -415 0
416 -31 0
416 -33 0
417 -119 -416 0
-417 119 0
-417 416 0
-418 121 417 0
418 -121 0
418 -417 0
419 -123 -418 0
-419 123 0
-419 418 0
420 -172 -418 0
-420 172 0
-420 418 0
-421 174 420 0
421 -174 0
421 -420 0
422 -176 -421 0
-422 176 0
-422 421 0
-423 178 419 422 0
423 -178 0
423 -419 0
423 -422 0
424 -222 -423 0
-424 222 0
-424 423 0
-425 24 400 0
425 -24 0
425 -400 0
426 -26 -425 0
-426 26 0
-426 425 0
-427 37 426 410 33 0
427 -37 0
427 -426 0
427 -410 0
427 -33 0
428 -119 -427 0
-428 119 0
-428 427 0
-429 121 428 0
429 -121 0
429 -428 0
430 -125 -429 0
-430 125 0
-430 429 0
-431 16 430 0
431 -16 0
431 -430 0
432 -18 -431 0
-432 18 0
-432 431 0
-433 20 432 0
433 -20 0
433 -432 0
434 -43 -433 0
-434 43 0
-434 433 0
-435 3 434 0
435 -3 0
435 -434 0
436 -2 -435 0
-436 2 0
-436 435 0
-437 5 436 0
437 -5 0
437 -436 0
438 -7 -437 0
-438 7 0
-438 437 0
439 -224 -423 0
-439 224 0
-439 423 0
-440 10 439 0
440 -10 0
440 -439 0
441 -9 -440 0
-441 9 0
-441 440 0
-442 12 424 438 441 0
442 -12 0
442 -424 0
442 -438 0
442 -441 0
443 -50 -442 0
-443 50 0
-443 442 0
-444 52 399 412 443 0
444 -52 0
444 -399 0
444 -412 0
444 -443 0
445 -54 -444 0
-445 54 0
-445 444 0
446 -50 -277 0
-446 50 0
-446 277 0
-447 52 219 446 0
447 -52 0
447 -219 0
447 -446 0
448 -110 -447 0
-448 110 0
-448 447 0
-449 30 448 408 0
449 -30 0
449 -448 0
449 -408 0
450 -32 -449 0
-450 32 0
-450 449 0
-451 37 426 450 33 0
451 -37 0
451 -426 0
451 -450 0
451 -33 0
452 -119 -451 0
-452 119 0
-452 451 0
-453 121 452 0
453 -121 0
453 -452 0
454 -125 -453 0
-454 125 0
-454 453 0
455 -123 -158 0
-455 123 0
-455 158 0
456 -172 -158 0
-456 172 0
-456 158 0
-457 174 456 0
457 -174 0
457 -456 0
458 -176 -457 0
-458 176 0
-458 457 0
-459 178 455 458 0
459 -178 0
459 -455 0
459 -458 0
460 -222 -459 0
-460 222 0
-460 459 0
461 -110 -52 0
-461 110 0
-461 52 0
-462 30 461 27 0
462 -30 0
462 -461 0
462 -27 0
463 -32 -462 0
-463 32 0
-463 462 0
-464 37 134 463 33 0
464 -37 0
464 -134 0
464 -463 0
464 -33 0
465 -119 -464 0
-465 119 0
-465 464 0
-466 121 465 0
466 -121 0
466 -465 0
467 -123 -466 0
-467 123 0
-467 466 0
468 -172 -466 0
-468 172 0
-468 466 0
-469 174 468 0
469 -174 0
469 -468 0
470 -176 -469 0
-470 176 0
-470 469 0
-471 178 467 470 0
471 -178 0
471 -467 0
471 -470 0
472 -224 -471 0
-472 224 0
-472 471 0
-473 10 472 0
473 -10 0
473 -472 0
474 -9 -473 0
-474 9 0
-474 473 0
-475 12 460 474 0
475 -12 0
475 -460 0
475 -474 0
476 -14 -475 0
-476 14 0
-476 475 0
-477 16 454 476 0
477 -16 0
477 -454 0
477 -476 0
478 -18 -477 0
-478 18 0
-478 477 0
-479 20 478 0
479 -20 0
479 -478 0
480 -43 -479 0
-480 43 0
-480 479 0
-481 3 480 0
481 -3 0
481 -480 0
482 -2 -481 0
-482 2 0
-482 481 0
-483 5 482 0
483 -5 0
483 -482 0
484 -65 -483 0
-484 65 0
-484 483 0
-485 67 391 445 484 0
485 -67 0
485 -391 0
485 -445 0
485 -484 0
486 -487 -485 0
-486 487 0
-486 485 0
-488 67 73 0
488 -67 0
488 -73 0
489 -76 -488 0
-489 76 0
-489 488 0
-490 3 98 0
490 -3 0
490 -98 0
491 -2 -490 0
-491 2 0
-491 490 0
-492 5 491 0
492 -5 0
492 -491 0
493 -7 -492 0
-493 7 0
-493 492 0
-494 12 493 8 0
494 -12 0
494 -493 0
494 -8 0
495 -14 -494 0
-495 14 0
-495 494 0
-496 16 495 0
496 -16 0
496 -495 0
497 -18 -496 0
-497 18 0
-497 496 0
-498 20 489 497 0
498 -20 0
498 -489 0
498 -497 0
499 -22 -498 0
-499 22 0
-499 498 0
-500 24 499 0
500 -24 0
500 -499 0
501 -26 -500 0
-501 26 0
-501 500 0
502 -97 -289 0
-502 97 0
-502 289 0
-503 30 502 27 0
503 -30 0
503 -502 0
503 -27 0
504 -32 -503 0
-504 32 0
-504 503 0
505 -114 -289 0
-505 114 0
-505 289 0
-506 35 505 0
506 -35 0
506 -505 0
507 -34 -506 0
-507 34 0
-507 506 0
-508 37 501 504 507 0
508 -37 0
508 -501 0
508 -504 0
508 -507 0
509 -119 -508 0
-509 119 0
-509 508 0
-510 121 290 509 0
510 -121 0
510 -290 0
510 -509 0
511 -123 -510 0
-511 123 0
-511 510 0
-512 16 138 56 0
512 -16 0
512 -138 0
512 -56 0
513 -18 -512 0
-513 18 0
-513 512 0
-514 20 513 0
514 -20 0
514 -513 0
515 -43 -514 0
-515 43 0
-515 514 0
-516 3 515 0
516 -3 0
516 -515 0
517 -2 -516 0
-517 2 0
-517 516 0
-518 5 517 0
518 -5 0
518 -517 0
519 -65 -518 0
-519 65 0
-519 518 0
-520 67 519 0
520 -67 0
520 -519 0
521 -170 -520 0
-521 170 0
-521 520 0
522 -172 -510 0
-522 172 0
-522 510 0
-523 174 521 522 0
523 -174 0
523 -521 0
523 -522 0
524 -176 -523 0
-524 176 0
-524 523 0
-525 178 511 524 0
525 -178 0
525 -511 0
525 -524 0
526 -220 -525 0
-526 220 0
-526 525 0
527 -211 -298 0
-527 211 0
-527 298 0
-528 67 217 73 0
528 -67 0
528 -217 0
528 -73 0
529 -76 -528 0
-529 76 0
-529 528 0
530 -69 -528 0
-530 69 0
-530 528 0
-531 121 530 0
531 -121 0
531 -530 0
532 -125 -531 0
-532 125 0
-532 531 0
533 -69 -488 0
-533 69 0
-533 488 0
-534 121 533 0
534 -121 0
534 -533 0
535 -123 -534 0
-535 123 0
-535 534 0
536 -170 -488 0
-536 170 0
-536 488 0
537 -172 -534 0
-537 172 0
-537 534 0
-538 174 536 537 0
538 -174 0
538 -536 0
538 -537 0
539 -176 -538 0
-539 176 0
-539 538 0
-540 178 535 539 0
540 -178 0
540 -535 0
540 -539 0
541 -222 -540 0
-541 222 0
-541 540 0
-542 3 314 0
542 -3 0
542 -314 0
543 -2 -542 0
-543 2 0
-543 542 0
-544 5 543 0
544 -5 0
544 -543 0
545 -7 -544 0
-545 7 0
-545 544 0
546 -224 -540 0
-546 224 0
-546 540 0
-547 10 546 0
547 -10 0
547 -546 0
548 -9 -547 0
-548 9 0
-548 547 0
-549 12 541 545 548 0
549 -12 0
549 -541 0
549 -545 0
549 -548 0
550 -14 -549 0
-550 14 0
-550 549 0
-551 16 532 550 0
551 -16 0
551 -532 0
551 -550 0
552 -18 -551 0
-552 18 0
-552 551 0
-553 20 529 552 0
553 -20 0
553 -529 0
553 -552 0
554 -22 -553 0
-554 22 0
-554 553 0
-555 24 527 554 0
555 -24 0
555 -527 0
555 -554 0
556 -26 -555 0
-556 26 0
-556 555 0
-557 67 217 286 0
557 -67 0
557 -217 0
557 -286 0
558 -97 -557 0
-558 97 0
-558 557 0
-559 67 346 0
559 -67 0
559 -346 0
560 -69 -559 0
-560 69 0
-560 559 0
-561 121 560 0
561 -121 0
561 -560 0
562 -123 -561 0
-562 123 0
-562 561 0
-563 67 362 0
563 -67 0
563 -362 0
564 -170 -563 0
-564 170 0
-564 563 0
565 -172 -561 0
-565 172 0
-565 561 0
-566 174 564 565 0
566 -174 0
566 -564 0
566 -565 0
567 -176 -566 0
-567 176 0
-567 566 0
-568 178 562 567 0
568 -178 0
568 -562 0
568 -567 0
569 -224 -568 0
-569 224 0
-569 568 0
-570 10 569 0
570 -10 0
570 -569 0
571 -28 -570 0
-571 28 0
-571 570 0
-572 30 558 571 0
572 -30 0
572 -558 0
572 -571 0
573 -32 -572 0
-573 32 0
-573 572 0
574 -114 -557 0
-574 114 0
-574 557 0
-575 35 574 0
575 -35 0
575 -574 0
576 -34 -575 0
-576 34 0
-576 575 0
-577 37 556 573 576 0
577 -37 0
577 -556 0
577 -573 0
577 -576 0
578 -39 -577 0
-578 39 0
-578 577 0
-579 20 489 40 0
579 -20 0
579 -489 0
579 -40 0
580 -22 -579 0
-580 22 0
-580 579 0
-581 24 580 0
581 -24 0
581 -580 0
582 -26 -581 0
-582 26 0
-582 581 0
583 -97 -301 0
-583 97 0
-583 301 0
-584 30 583 27 0
584 -30 0
584 -583 0
584 -27 0
585 -32 -584 0
-585 32 0
-585 584 0
586 -114 -301 0
-586 114 0
-586 301 0
-587 35 586 0
587 -35 0
587 -586 0
588 -34 -587 0
-588 34 0
-588 587 0
-589 37 582 585 588 0
589 -37 0
589 -582 0
589 -585 0
589 -588 0
590 -119 -589 0
-590 119 0
-590 589 0
-591 121 302 590 0
591 -121 0
591 -302 0
591 -590 0
592 -123 -591 0
-592 123 0
-592 591 0
593 -65 -145 0
-593 65 0
-593 145 0
-594 67 593 0
594 -67 0
594 -593 0
595 -170 -594 0
-595 170 0
-595 594 0
596 -172 -591 0
-596 172 0
-596 591 0
-597 174 595 596 0
597 -174 0
597 -595 0
597 -596 0
598 -176 -597 0
-598 176 0
-598 597 0
-599 178 592 598 0
599 -178 0
599 -592 0
599 -598 0
600 -222 -599 0
-600 222 0
-600 599 0
601 -218 -423 0
-601 218 0
-601 423 0
-602 67 601 0
602 -67 0
602 -601 0
603 -80 -602 0
-603 80 0
-603 602 0
604 -123 -137 0
-604 123 0
-604 137 0
605 -172 -137 0
-605 172 0
-605 137 0
-606 174 605 0
606 -174 0
606 -605 0
607 -176 -606 0
-607 176 0
-607 606 0
-608 178 604 607 0
608 -178 0
608 -604 0
608 -607 0
609 -218 -608 0
-609 218 0
-609 608 0
-610 67 609 0
610 -67 0
610 -609 0
611 -76 -610 0
-611 76 0
-611 610 0
612 -69 -610 0
-612 69 0
-612 610 0
613 -170 -67 0
-613 170 0
-613 67 0
-614 174 613 0
614 -174 0
614 -613 0
615 -176 -614 0
-615 176 0
-615 614 0
-616 178 615 0
616 -178 0
616 -615 0
617 -211 -616 0
-617 211 0
-617 616 0
-618 24 617 0
618 -24 0
618 -617 0
619 -26 -618 0
-619 26 0
-619 618 0
620 -97 -313 0
-620 97 0
-620 313 0
621 -224 -616 0
-621 224 0
-621 616 0
-622 10 621 0
622 -10 0
622 -621 0
623 -28 -622 0
-623 28 0
-623 622 0
-624 30 620 623 0
624 -30 0
624 -620 0
624 -623 0
625 -32 -624 0
-625 32 0
-625 624 0
626 -114 -313 0
-626 114 0
-626 313 0
-627 35 626 0
627 -35 0
627 -626 0
628 -34 -627 0
-628 34 0
-628 627 0
-629 37 619 625 628 0
629 -37 0
629 -619 0
629 -625 0
629 -628 0
630 -119 -629 0
-630 119 0
-630 629 0
-631 121 612 630 0
631 -121 0
631 -612 0
631 -630 0
632 -125 -631 0
-632 125 0
-632 631 0
-633 16 632 0
633 -16 0
633 -632 0
634 -18 -633 0
-634 18 0
-634 633 0
-635 20 611 634 0
635 -20 0
635 -611 0
635 -634 0
636 -43 -635 0
-636 43 0
-636 635 0
-637 3 603 636 0
637 -3 0
637 -603 0
637 -636 0
638 -2 -637 0
-638 2 0
-638 637 0
-639 5 638 0
639 -5 0
639 -638 0
640 -7 -639 0
-640 7 0
-640 639 0
641 -224 -599 0
-641 224 0
-641 599 0
-642 10 641 0
642 -10 0
642 -641 0
643 -9 -642 0
-643 9 0
-643 642 0
-644 12 600 640 643 0
644 -12 0
644 -600 0
644 -640 0
644 -643 0
645 -50 -644 0
-645 50 0
-645 644 0
-646 52 526 578 645 0
646 -52 0
646 -526 0
646 -578 0
646 -645 0
647 -648 -646 0
-647 648 0
-647 646 0
-649 650 179 378 486 647 0
649 -650 0
649 -179 0
649 -378 0
649 -486 0
649 -647 0
651 -652 -649 0
-651 652 0
-651 649 0
653 -7 -5 0
-653 7 0
-653 5 0
-654 12 653 8 0
654 -12 0
654 -653 0
654 -8 0
655 -14 -654 0
-655 14 0
-655 654 0
-656 16 655 0
656 -16 0
656 -655 0
657 -18 -656 0
-657 18 0
-657 656 0
-658 20 657 0
658 -20 0
658 -657 0
659 -22 -658 0
-659 22 0
-659 658 0
-660 24 659 0
660 -24 0
660 -659 0
661 -26 -660 0
-661 26 0
-661 660 0
662 -50 -654 0
-662 50 0
-662 654 0
-663 52 662 0
663 -52 0
663 -662 0
664 -110 -663 0
-664 110 0
-664 663 0
-665 30 664 27 0
665 -30 0
665 -664 0
665 -27 0
666 -32 -665 0
-666 32 0
-666 665 0
-667 37 661 666 33 0
667 -37 0
667 -661 0
667 -666 0
667 -33 0
668 -119 -667 0
-668 119 0
-668 667 0
-669 121 668 0
669 -121 0
669 -668 0
670 -123 -669 0
-670 123 0
-670 669 0
671 -172 -669 0
-671 172 0
-671 669 0
-672 174 671 0
672 -174 0
672 -671 0
673 -176 -672 0
-673 176 0
-673 672 0
-674 178 670 673 0
674 -178 0
674 -670 0
674 -673 0
675 -218 -674 0
-675 218 0
-675 674 0
-676 37 661 31 33 0
676 -37 0
676 -661 0
676 -31 0
676 -33 0
677 -119 -676 0
-677 119 0
-677 676 0
-678 121 677 0
678 -121 0
678 -677 0
679 -123 -678 0
-679 123 0
-679 678 0
680 -172 -678 0
-680 172 0
-680 678 0
-681 174 680 0
681 -174 0
681 -680 0
682 -176 -681 0
-682 176 0
-682 681 0
-683 178 679 682 0
683 -178 0
683 -679 0
683 -682 0
684 -220 -683 0
-684 220 0
-684 683 0
-685 12 221 653 226 0
685 -12 0
685 -221 0
685 -653 0
685 -226 0
686 -14 -685 0
-686 14 0
-686 685 0
-687 16 124 686 0
687 -16 0
687 -124 0
687 -686 0
688 -18 -687 0
-688 18 0
-688 687 0
-689 20 688 0
689 -20 0
689 -688 0
690 -22 -689 0
-690 22 0
-690 689 0
-691 24 400 690 0
691 -24 0
691 -400 0
691 -690 0
692 -26 -691 0
-692 26 0
-692 691 0
-693 37 692 410 33 0
693 -37 0
693 -692 0
693 -410 0
693 -33 0
694 -39 -693 0
-694 39 0
-694 693 0
-695 12 424 653 441 0
695 -12 0
695 -424 0
695 -653 0
695 -441 0
696 -50 -695 0
-696 50 0
-696 695 0
-697 52 684 694 696 0
697 -52 0
697 -684 0
697 -694 0
697 -696 0
698 -54 -697 0
-698 54 0
-698 697 0
699 -65 -5 0
-699 65 0
-699 5 0
-700 67 675 698 699 0
700 -67 0
700 -675 0
700 -698 0
700 -699 0
701 -80 -700 0
-701 80 0
-701 700 0
-702 37 134 666 33 0
702 -37 0
702 -134 0
702 -666 0
702 -33 0
703 -119 -702 0
-703 119 0
-703 702 0
-704 121 703 0
704 -121 0
704 -703 0
705 -123 -704 0
-705 123 0
-705 704 0
706 -172 -704 0
-706 172 0
-706 704 0
-707 174 706 0
707 -174 0
707 -706 0
708 -176 -707 0
-708 176 0
-708 707 0
-709 178 705 708 0
709 -178 0
709 -705 0
709 -708 0
710 -218 -709 0
-710 218 0
-710 709 0
711 -220 -608 0
-711 220 0
-711 608 0
712 -39 -427 0
-712 39 0
-712 427 0
713 -222 -608 0
-713 222 0
-713 608 0
714 -224 -608 0
-714 224 0
-714 608 0
-715 10 714 0
715 -10 0
715 -714 0
716 -9 -715 0
-716 9 0
-716 715 0
-717 12 713 653 716 0
717 -12 0
717 -713 0
717 -653 0
717 -716 0
718 -50 -717 0
-718 50 0
-718 717 0
-719 52 711 712 718 0
719 -52 0
719 -711 0
719 -712 0
719 -718 0
720 -54 -719 0
-720 54 0
-720 719 0
-721 67 710 720 699 0
721 -67 0
721 -710 0
721 -720 0
721 -699 0
722 -76 -721 0
-722 76 0
-722 721 0
723 -176 -174 0
-723 176 0
-723 174 0
-724 178 723 0
724 -178 0
724 -723 0
725 -218 -724 0
-725 218 0
-725 724 0
-726 67 725 720 699 0
726 -67 0
726 -725 0
726 -720 0
726 -699 0
727 -69 -726 0
-727 69 0
-727 726 0
728 -54 -663 0
-728 54 0
-728 663 0
-729 67 728 699 0
729 -67 0
729 -728 0
729 -699 0
730 -170 -729 0
-730 170 0
-730 729 0
-731 174 730 0
731 -174 0
731 -730 0
732 -176 -731 0
-732 176 0
-732 731 0
-733 178 732 0
733 -178 0
733 -732 0
734 -211 -733 0
-734 211 0
-734 733 0
-735 24 734 0
735 -24 0
735 -734 0
736 -26 -735 0
-736 26 0
-736 735 0
737 -50 -685 0
-737 50 0
-737 685 0
-738 52 219 737 0
738 -52 0
738 -219 0
738 -737 0
739 -54 -738 0
-739 54 0
-739 738 0
-740 67 217 739 699 0
740 -67 0
740 -217 0
740 -739 0
740 -699 0
741 -97 -740 0
-741 97 0
-741 740 0
742 -220 -733 0
-742 220 0
-742 733 0
-743 67 699 0
743 -67 0
743 -699 0
744 -170 -743 0
-744 170 0
-744 743 0
-745 174 744 0
745 -174 0
745 -744 0
746 -176 -745 0
-746 176 0
-746 745 0
-747 178 746 0
747 -178 0
747 -746 0
748 -222 -747 0
-748 222 0
-748 747 0
749 -224 -747 0
-749 224 0
-749 747 0
-750 10 749 0
750 -10 0
750 -749 0
751 -9 -750 0
-751 9 0
-751 750 0
-752 12 748 653 751 0
752 -12 0
752 -748 0
752 -653 0
752 -751 0
753 -50 -752 0
-753 50 0
-753 752 0
-754 52 742 753 0
754 -52 0
754 -742 0
754 -753 0
755 -110 -754 0
-755 110 0
-755 754 0
-756 12 653 0
756 -12 0
756 -653 0
757 -50 -756 0
-757 50 0
-757 756 0
-758 52 757 0
758 -52 0
758 -757 0
759 -54 -758 0
-759 54 0
-759 758 0
-760 67 759 699 0
760 -67 0
760 -759 0
760 -699 0
761 -170 -760 0
-761 170 0
-761 760 0
-762 174 761 0
762 -174 0
762 -761 0
763 -176 -762 0
-763 176 0
-763 762 0
-764 178 763 0
764 -178 0
764 -763 0
765 -224 -764 0
-765 224 0
-765 764 0
-766 10 765 0
766 -10 0
766 -765 0
767 -28 -766 0
-767 28 0
-767 766 0
-768 30 741 755 767 0
768 -30 0
768 -741 0
768 -755 0
768 -767 0
769 -32 -768 0
-769 32 0
-769 768 0
770 -114 -740 0
-770 114 0
-770 740 0
-771 35 770 0
771 -35 0
771 -770 0
772 -34 -771 0
-772 34 0
-772 771 0
-773 37 736 769 772 0
773 -37 0
773 -736 0
773 -769 0
773 -772 0
774 -119 -773 0
-774 119 0
-774 773 0
-775 121 727 774 0
775 -121 0
775 -727 0
775 -774 0
776 -125 -775 0
-776 125 0
-776 775 0
777 -39 -135 0
-777 39 0
-777 135 0
-778 52 777 0
778 -52 0
778 -777 0
779 -54 -778 0
-779 54 0
-779 778 0
-780 67 779 699 0
780 -67 0
780 -779 0
780 -699 0
781 -69 -780 0
-781 69 0
-781 780 0
782 -97 -729 0
-782 97 0
-782 729 0
-783 30 782 461 27 0
783 -30 0
783 -782 0
783 -461 0
783 -27 0
784 -32 -783 0
-784 32 0
-784 783 0
785 -114 -729 0
-785 114 0
-785 729 0
-786 35 785 0
786 -35 0
786 -785 0
787 -34 -786 0
-787 34 0
-787 786 0
-788 37 134 784 787 0
788 -37 0
788 -134 0
788 -784 0
788 -787 0
789 -119 -788 0
-789 119 0
-789 788 0
-790 121 781 789 0
790 -121 0
790 -781 0
790 -789 0
791 -123 -790 0
-791 123 0
-791 790 0
792 -170 -780 0
-792 170 0
-792 780 0
793 -172 -790 0
-793 172 0
-793 790 0
-794 174 792 793 0
794 -174 0
794 -792 0
794 -793 0
795 -176 -794 0
-795 176 0
-795 794 0
-796 178 791 795 0
796 -178 0
796 -791 0
796 -795 0
797 -222 -796 0
-797 222 0
-797 796 0
-798 67 77 699 0
798 -67 0
798 -77 0
798 -699 0
799 -97 -798 0
-799 97 0
-799 798 0
-800 30 799 461 27 0
800 -30 0
800 -799 0
800 -461 0
800 -27 0
801 -32 -800 0
-801 32 0
-801 800 0
802 -114 -798 0
-802 114 0
-802 798 0
-803 35 802 0
803 -35 0
803 -802 0
804 -34 -803 0
-804 34 0
-804 803 0
-805 37 134 801 804 0
805 -37 0
805 -134 0
805 -801 0
805 -804 0
806 -119 -805 0
-806 119 0
-806 805 0
-807 121 781 806 0
807 -121 0
807 -781 0
807 -806 0
808 -123 -807 0
-808 123 0
-808 807 0
809 -172 -807 0
-809 172 0
-809 807 0
-810 174 792 809 0
810 -174 0
810 -792 0
810 -809 0
811 -176 -810 0
-811 176 0
-811 810 0
-812 178 808 811 0
812 -178 0
812 -808 0
812 -811 0
813 -224 -812 0
-813 224 0
-813 812 0
-814 10 813 0
814 -10 0
814 -813 0
815 -9 -814 0
-815 9 0
-815 814 0
-816 12 797 653 815 0
816 -12 0
816 -797 0
816 -653 0
816 -815 0
817 -14 -816 0
-817 14 0
-817 816 0
-818 16 776 817 0
818 -16 0
818 -776 0
818 -817 0
819 -18 -818 0
-819 18 0
-819 818 0
-820 20 722 819 0
820 -20 0
820 -722 0
820 -819 0
821 -43 -820 0
-821 43 0
-821 820 0
-822 3 701 821 0
822 -3 0
822 -701 0
822 -821 0
823 -824 -822 0
-823 824 0
-823 822 0
825 -39 -416 0
-825 39 0
-825 416 0
-826 52 825 49 0
826 -52 0
826 -825 0
826 -49 0
827 -54 -826 0
-827 54 0
-827 826 0
-828 67 827 300 0
828 -67 0
828 -827 0
828 -300 0
829 -69 -828 0
-829 69 0
-829 828 0
-830 20 75 40 0
830 -20 0
830 -75 0
830 -40 0
831 -22 -830 0
-831 22 0
-831 830 0
-832 24 831 0
832 -24 0
832 -831 0
833 -26 -832 0
-833 26 0
-833 832 0
-834 67 77 300 0
834 -67 0
834 -77 0
834 -300 0
835 -97 -834 0
-835 97 0
-835 834 0
-836 30 835 461 27 0
836 -30 0
836 -835 0
836 -461 0
836 -27 0
837 -32 -836 0
-837 32 0
-837 836 0
838 -114 -834 0
-838 114 0
-838 834 0
-839 35 838 0
839 -35 0
839 -838 0
840 -34 -839 0
-840 34 0
-840 839 0
-841 37 833 837 840 0
841 -37 0
841 -833 0
841 -837 0
841 -840 0
842 -119 -841 0
-842 119 0
-842 841 0
-843 121 829 842 0
843 -121 0
843 -829 0
843 -842 0
844 -123 -843 0
-844 123 0
-844 843 0
845 -22 -186 0
-845 22 0
-845 186 0
-846 24 845 0
846 -24 0
846 -845 0
847 -26 -846 0
-847 26 0
-847 846 0
-848 37 847 31 33 0
848 -37 0
848 -847 0
848 -31 0
848 -33 0
849 -39 -848 0
-849 39 0
-849 848 0
-850 52 849 0
850 -52 0
850 -849 0
851 -54 -850 0
-851 54 0
-851 850 0
-852 16 159 0
852 -16 0
852 -159 0
853 -18 -852 0
-853 18 0
-853 852 0
-854 20 853 0
854 -20 0
854 -853 0
855 -43 -854 0
-855 43 0
-855 854 0
-856 3 855 0
856 -3 0
856 -855 0
857 -2 -856 0
-857 2 0
-857 856 0
-858 5 857 0
858 -5 0
858 -857 0
859 -65 -858 0
-859 65 0
-859 858 0
-860 67 851 859 0
860 -67 0
860 -851 0
860 -859 0
861 -170 -860 0
-861 170 0
-861 860 0
862 -172 -843 0
-862 172 0
-862 843 0
-863 174 861 862 0
863 -174 0
863 -861 0
863 -862 0
864 -176 -863 0
-864 176 0
-864 863 0
-865 178 844 864 0
865 -178 0
865 -844 0
865 -864 0
866 -222 -865 0
-866 222 0
-866 865 0
-867 37 415 155 33 0
867 -37 0
867 -415 0
867 -155 0
867 -33 0
868 -119 -867 0
-868 119 0
-868 867 0
-869 121 868 0
869 -121 0
869 -868 0
870 -123 -869 0
-870 123 0
-870 869 0
871 -172 -869 0
-871 172 0
-871 869 0
-872 174 871 0
872 -174 0
872 -871 0
873 -176 -872 0
-873 176 0
-873 872 0
-874 178 870 873 0
874 -178 0
874 -870 0
874 -873 0
875 -218 -874 0
-875 218 0
-875 874 0
876 -220 -423 0
-876 220 0
-876 423 0
-877 24 400 845 0
877 -24 0
877 -400 0
877 -845 0
878 -26 -877 0
-878 26 0
-878 877 0
-879 37 878 410 33 0
879 -37 0
879 -878 0
879 -410 0
879 -33 0
880 -39 -879 0
-880 39 0
-880 879 0
-881 52 876 880 0
881 -52 0
881 -876 0
881 -880 0
882 -54 -881 0
-882 54 0
-882 881 0
-883 67 875 882 0
883 -67 0
883 -875 0
883 -882 0
884 -80 -883 0
-884 80 0
-884 883 0
885 -218 -459 0
-885 218 0
-885 459 0
-886 52 711 712 0
886 -52 0
886 -711 0
886 -712 0
887 -54 -886 0
-887 54 0
-887 886 0
-888 67 885 887 0
888 -67 0
888 -885 0
888 -887 0
889 -76 -888 0
-889 76 0
-889 888 0
-890 67 725 887 0
890 -67 0
890 -725 0
890 -887 0
891 -69 -890 0
-891 69 0
-891 890 0
892 -170 -78 0
-892 170 0
-892 78 0
-893 174 892 0
893 -174 0
893 -892 0
894 -176 -893 0
-894 176 0
-894 893 0
-895 178 894 0
895 -178 0
895 -894 0
896 -211 -895 0
-896 211 0
-896 895 0
-897 24 896 0
897 -24 0
897 -896 0
898 -26 -897 0
-898 26 0
-898 897 0
899 -97 -247 0
-899 97 0
-899 247 0
900 -220 -616 0
-900 220 0
-900 616 0
-901 52 900 0
901 -52 0
901 -900 0
902 -110 -901 0
-902 110 0
-902 901 0
903 -224 -895 0
-903 224 0
-903 895 0
-904 10 903 0
904 -10 0
904 -903 0
905 -28 -904 0
-905 28 0
-905 904 0
-906 30 899 902 905 0
906 -30 0
906 -899 0
906 -902 0
906 -905 0
907 -32 -906 0
-907 32 0
-907 906 0
908 -114 -247 0
-908 114 0
-908 247 0
-909 35 908 0
909 -35 0
909 -908 0
910 -34 -909 0
-910 34 0
-910 909 0
-911 37 898 907 910 0
911 -37 0
911 -898 0
911 -907 0
911 -910 0
912 -119 -911 0
-912 119 0
-912 911 0
-913 121 891 912 0
913 -121 0
913 -891 0
913 -912 0
914 -125 -913 0
-914 125 0
-914 913 0
-915 16 914 0
915 -16 0
915 -914 0
916 -18 -915 0
-916 18 0
-916 915 0
-917 20 889 916 0
917 -20 0
917 -889 0
917 -916 0
918 -43 -917 0
-918 43 0
-918 917 0
-919 3 884 918 0
919 -3 0
919 -884 0
919 -918 0
920 -2 -919 0
-920 2 0
-920 919 0
-921 5 920 0
921 -5 0
921 -920 0
922 -7 -921 0
-922 7 0
-922 921 0
-923 52 825 0
923 -52 0
923 -825 0
924 -54 -923 0
-924 54 0
-924 923 0
-925 67 924 300 0
925 -67 0
925 -924 0
925 -300 0
926 -69 -925 0
-926 69 0
-926 925 0
927 -76 -253 0
-927 76 0
-927 253 0
-928 20 927 40 0
928 -20 0
928 -927 0
928 -40 0
929 -22 -928 0
-929 22 0
-929 928 0
-930 24 929 0
930 -24 0
930 -929 0
931 -26 -930 0
-931 26 0
-931 930 0
-932 37 931 837 840 0
932 -37 0
932 -931 0
932 -837 0
932 -840 0
933 -119 -932 0
-933 119 0
-933 932 0
-934 121 926 933 0
934 -121 0
934 -926 0
934 -933 0
935 -123 -934 0
-935 123 0
-935 934 0
936 -125 -466 0
-936 125 0
-936 466 0
-937 16 936 0
937 -16 0
937 -936 0
938 -18 -937 0
-938 18 0
-938 937 0
-939 20 938 0
939 -20 0
939 -938 0
940 -43 -939 0
-940 43 0
-940 939 0
-941 3 940 0
941 -3 0
941 -940 0
942 -2 -941 0
-942 2 0
-942 941 0
-943 5 942 0
943 -5 0
943 -942 0
944 -65 -943 0
-944 65 0
-944 943 0
-945 67 851 944 0
945 -67 0
945 -851 0
945 -944 0
946 -170 -945 0
-946 170 0
-946 945 0
947 -172 -934 0
-947 172 0
-947 934 0
-948 174 946 947 0
948 -174 0
948 -946 0
948 -947 0
949 -176 -948 0
-949 176 0
-949 948 0
-950 178 935 949 0
950 -178 0
950 -935 0
950 -949 0
951 -224 -950 0
-951 224 0
-951 950 0
-952 10 951 0
952 -10 0
952 -951 0
953 -9 -952 0
-953 9 0
-953 952 0
-954 12 866 922 953 0
954 -12 0
954 -866 0
954 -922 0
954 -953 0
955 -956 -954 0
-955 956 0
-955 954 0
-957 958 651 823 955 0
957 -958 0
957 -651 0
957 -823 0
957 -955 0
959 -960 -957 0
-959 960 0
-959 957 0
961 -648 -71 0
-961 648 0
-961 71 0
-962 650 961 0
962 -650 0
962 -961 0
963 -652 -962 0
-963 652 0
-963 962 0
964 -824 -3 0
-964 824 0
-964 3 0
965 -956 -11 0
-965 956 0
-965 11 0
-966 958 963 964 965 0
966 -958 0
966 -963 0
966 -964 0
966 -965 0
967 -968 -966 0
-967 968 0
-967 966 0
-969 20 967 17 0
969 -20 0
969 -967 0
969 -17 0
970 -22 -969 0
-970 22 0
-970 969 0
-971 24 970 0
971 -24 0
971 -970 0
972 -26 -971 0
-972 26 0
-972 971 0
973 -652 -650 0
-973 652 0
-973 650 0
-974 958 973 964 0
974 -958 0
974 -973 0
974 -964 0
975 -968 -974 0
-975 968 0
-975 974 0
-976 20 975 40 0
976 -20 0
976 -975 0
976 -40 0
977 -43 -976 0
-977 43 0
-977 976 0
-978 3 977 0
978 -3 0
978 -977 0
979 -2 -978 0
-979 2 0
-979 978 0
-980 5 979 0
980 -5 0
980 -979 0
981 -7 -980 0
-981 7 0
-981 980 0
-982 12 981 8 0
982 -12 0
982 -981 0
982 -8 0
983 -50 -982 0
-983 50 0
-983 982 0
-984 52 983 0
984 -52 0
984 -983 0
985 -110 -984 0
-985 110 0
-985 984 0
-986 30 985 27 0
986 -30 0
986 -985 0
986 -27 0
987 -32 -986 0
-987 32 0
-987 986 0
-988 37 972 987 33 0
988 -37 0
988 -972 0
988 -987 0
988 -33 0
989 -119 -988 0
-989 119 0
-989 988 0
-990 121 989 0
990 -121 0
990 -989 0
991 -123 -990 0
-991 123 0
-991 990 0
992 -172 -990 0
-992 172 0
-992 990 0
-993 174 992 0
993 -174 0
993 -992 0
994 -176 -993 0
-994 176 0
-994 993 0
-995 178 991 994 0
995 -178 0
995 -991 0
995 -994 0
996 -218 -995 0
-996 218 0
-996 995 0
-997 37 972 31 33 0
997 -37 0
997 -972 0
997 -31 0
997 -33 0
998 -119 -997 0
-998 119 0
-998 997 0
-999 121 998 0
999 -121 0
999 -998 0
1000 -123 -999 0
-1000 123 0
-1000 999 0
1001 -172 -999 0
-1001 172 0
-1001 999 0
-1002 174 1001 0
1002 -174 0
1002 -1001 0
1003 -176 -1002 0
-1003 176 0
-1003 1002 0
-1004 178 1000 1003 0
1004 -178 0
1004 -1000 0
1004 -1003 0
1005 -220 -1004 0
-1005 220 0
-1005 1004 0
1006 -180 -216 0
-1006 180 0
-1006 216 0
-1007 650 1006 0
1007 -650 0
1007 -1006 0
1008 -652 -1007 0
-1008 652 0
-1008 1007 0
1009 -956 -227 0
-1009 956 0
-1009 227 0
-1010 958 1008 964 1009 0
1010 -958 0
1010 -1008 0
1010 -964 0
1010 -1009 0
1011 -968 -1010 0
-1011 968 0
-1011 1010 0
-1012 20 1011 403 0
1012 -20 0
1012 -1011 0
1012 -403 0
1013 -22 -1012 0
-1013 22 0
-1013 1012 0
-1014 24 400 1013 0
1014 -24 0
1014 -400 0
1014 -1013 0
1015 -26 -1014 0
-1015 26 0
-1015 1014 0
-1016 37 1015 410 33 0
1016 -37 0
1016 -1015 0
1016 -410 0
1016 -33 0
1017 -39 -1016 0
-1017 39 0
-1017 1016 0
1018 -22 -976 0
-1018 22 0
-1018 976 0
-1019 24 1018 0
1019 -24 0
1019 -1018 0
1020 -26 -1019 0
-1020 26 0
-1020 1019 0
-1021 37 1020 31 33 0
1021 -37 0
1021 -1020 0
1021 -31 0
1021 -33 0
1022 -119 -1021 0
-1022 119 0
-1022 1021 0
-1023 121 1022 0
1023 -121 0
1023 -1022 0
1024 -123 -1023 0
-1024 123 0
-1024 1023 0
1025 -172 -1023 0
-1025 172 0
-1025 1023 0
-1026 174 1025 0
1026 -174 0
1026 -1025 0
1027 -176 -1026 0
-1027 176 0
-1027 1026 0
-1028 178 1024 1027 0
1028 -178 0
1028 -1024 0
1028 -1027 0
1029 -222 -1028 0
-1029 222 0
-1029 1028 0
1030 -180 -608 0
-1030 180 0
-1030 608 0
1031 -379 -427 0
-1031 379 0
-1031 427 0
-1032 650 1030 1031 0
1032 -650 0
1032 -1030 0
1032 -1031 0
1033 -652 -1032 0
-1033 652 0
-1033 1032 0
-1034 958 1033 964 0
1034 -958 0
1034 -1033 0
1034 -964 0
1035 -968 -1034 0
-1035 968 0
-1035 1034 0
-1036 20 1035 432 0
1036 -20 0
1036 -1035 0
1036 -432 0
1037 -43 -1036 0
-1037 43 0
-1037 1036 0
-1038 3 1037 0
1038 -3 0
1038 -1037 0
1039 -2 -1038 0
-1039 2 0
-1039 1038 0
-1040 5 1039 0
1040 -5 0
1040 -1039 0
1041 -7 -1040 0
-1041 7 0
-1041 1040 0
1042 -224 -1028 0
-1042 224 0
-1042 1028 0
-1043 10 1042 0
1043 -10 0
1043 -1042 0
1044 -9 -1043 0
-1044 9 0
-1044 1043 0
-1045 12 1029 1041 1044 0
1045 -12 0
1045 -1029 0
1045 -1041 0
1045 -1044 0
1046 -50 -1045 0
-1046 50 0
-1046 1045 0
-1047 52 1005 1017 1046 0
1047 -52 0
1047 -1005 0
1047 -1017 0
1047 -1046 0
1048 -54 -1047 0
-1048 54 0
-1048 1047 0
1049 -180 -459 0
-1049 180 0
-1049 459 0
1050 -379 -451 0
-1050 379 0
-1050 451 0
-1051 12 713 716 0
1051 -12 0
1051 -713 0
1051 -716 0
1052 -50 -1051 0
-1052 50 0
-1052 1051 0
-1053 52 711 712 1052 0
1053 -52 0
1053 -711 0
1053 -712 0
1053 -1052 0
1054 -648 -1053 0
-1054 648 0
-1054 1053 0
-1055 650 1049 1050 1054 0
1055 -650 0
1055 -1049 0
1055 -1050 0
1055 -1054 0
1056 -652 -1055 0
-1056 652 0
-1056 1055 0
1057 -956 -475 0
-1057 956 0
-1057 475 0
-1058 958 1056 964 1057 0
1058 -958 0
1058 -1056 0
1058 -964 0
1058 -1057 0
1059 -968 -1058 0
-1059 968 0
-1059 1058 0
-1060 20 1059 478 0
1060 -20 0
1060 -1059 0
1060 -478 0
1061 -43 -1060 0
-1061 43 0
-1061 1060 0
-1062 3 1061 0
1062 -3 0
1062 -1061 0
1063 -2 -1062 0
-1063 2 0
-1063 1062 0
-1064 5 1063 0
1064 -5 0
1064 -1063 0
1065 -65 -1064 0
-1065 65 0
-1065 1064 0
-1066 67 996 1048 1065 0
1066 -67 0
1066 -996 0
1066 -1048 0
1066 -1065 0
1067 -1068 -1066 0
-1067 1068 0
-1067 1066 0
1069 -39 -997 0
-1069 39 0
-1069 997 0
1070 -379 -135 0
-1070 379 0
-1070 135 0
-1071 650 1070 0
1071 -650 0
1071 -1070 0
1072 -652 -1071 0
-1072 652 0
-1072 1071 0
-1073 958 1072 964 0
1073 -958 0
1073 -1072 0
1073 -964 0
1074 -968 -1073 0
-1074 968 0
-1074 1073 0
-1075 20 1074 40 0
1075 -20 0
1075 -1074 0
1075 -40 0
1076 -43 -1075 0
-1076 43 0
-1076 1075 0
-1077 3 1076 0
1077 -3 0
1077 -1076 0
1078 -2 -1077 0
-1078 2 0
-1078 1077 0
-1079 5 1078 0
1079 -5 0
1079 -1078 0
1080 -7 -1079 0
-1080 7 0
-1080 1079 0
-1081 12 1080 8 0
1081 -12 0
1081 -1080 0
1081 -8 0
1082 -50 -1081 0
-1082 50 0
-1082 1081 0
-1083 52 1069 1082 0
1083 -52 0
1083 -1069 0
1083 -1082 0
1084 -54 -1083 0
-1084 54 0
-1084 1083 0
1085 -379 -156 0
-1085 379 0
-1085 156 0
-1086 52 777 151 0
1086 -52 0
1086 -777 0
1086 -151 0
1087 -648 -1086 0
-1087 648 0
-1087 1086 0
-1088 650 1085 1087 0
1088 -650 0
1088 -1085 0
1088 -1087 0
1089 -652 -1088 0
-1089 652 0
-1089 1088 0
1090 -956 -55 0
-1090 956 0
-1090 55 0
-1091 958 1089 964 1090 0
1091 -958 0
1091 -1089 0
1091 -964 0
1091 -1090 0
1092 -968 -1091 0
-1092 968 0
-1092 1091 0
-1093 20 1092 58 0
1093 -20 0
1093 -1092 0
1093 -58 0
1094 -43 -1093 0
-1094 43 0
-1094 1093 0
-1095 3 1094 0
1095 -3 0
1095 -1094 0
1096 -2 -1095 0
-1096 2 0
-1096 1095 0
-1097 5 1096 0
1097 -5 0
1097 -1096 0
1098 -65 -1097 0
-1098 65 0
-1098 1097 0
-1099 67 1084 1098 0
1099 -67 0
1099 -1084 0
1099 -1098 0
1100 -69 -1099 0
-1100 69 0
-1100 1099 0
1101 -487 -74 0
-1101 487 0
-1101 74 0
1102 -50 -494 0
-1102 50 0
-1102 494 0
-1103 52 1102 0
1103 -52 0
1103 -1102 0
1104 -648 -1103 0
-1104 648 0
-1104 1103 0
-1105 650 1101 1104 0
1105 -650 0
1105 -1101 0
1105 -1104 0
1106 -652 -1105 0
-1106 652 0
-1106 1105 0
1107 -80 -729 0
-1107 80 0
-1107 729 0
-1108 3 1107 0
1108 -3 0
1108 -1107 0
1109 -824 -1108 0
-1109 824 0
-1109 1108 0
1110 -956 -85 0
-1110 956 0
-1110 85 0
-1111 958 1106 1109 1110 0
1111 -958 0
1111 -1106 0
1111 -1109 0
1111 -1110 0
1112 -968 -1111 0
-1112 968 0
-1112 1111 0
-1113 20 75 1112 88 0
1113 -20 0
1113 -75 0
1113 -1112 0
1113 -88 0
1114 -22 -1113 0
-1114 22 0
-1114 1113 0
-1115 24 1114 0
1115 -24 0
1115 -1114 0
1116 -26 -1115 0
-1116 26 0
-1116 1115 0
1117 -54 -984 0
-1117 54 0
-1117 984 0
1118 -648 -152 0
-1118 648 0
-1118 152 0
-1119 650 1118 0
1119 -650 0
1119 -1118 0
1120 -652 -1119 0
-1120 652 0
-1120 1119 0
-1121 958 1120 964 1090 0
1121 -958 0
1121 -1120 0
1121 -964 0
1121 -1090 0
1122 -968 -1121 0
-1122 968 0
-1122 1121 0
-1123 20 1122 58 0
1123 -20 0
1123 -1122 0
1123 -58 0
1124 -43 -1123 0
-1124 43 0
-1124 1123 0
-1125 3 1124 0
1125 -3 0
1125 -1124 0
1126 -2 -1125 0
-1126 2 0
-1126 1125 0
-1127 5 1126 0
1127 -5 0
1127 -1126 0
1128 -65 -1127 0
-1128 65 0
-1128 1127 0
-1129 67 1117 1128 0
1129 -67 0
1129 -1117 0
1129 -1128 0
1130 -97 -1129 0
-1130 97 0
-1130 1129 0
1131 -487 -67 0
-1131 487 0
-1131 67 0
-1132 650 1131 0
1132 -650 0
1132 -1131 0
1133 -652 -1132 0
-1133 652 0
-1133 1132 0
-1134 958 1133 0
1134 -958 0
1134 -1133 0
1135 -968 -1134 0
-1135 968 0
-1135 1134 0
-1136 20 99 1135 40 0
1136 -20 0
1136 -99 0
1136 -1135 0
1136 -40 0
1137 -43 -1136 0
-1137 43 0
-1137 1136 0
-1138 3 98 1137 0
1138 -3 0
1138 -98 0
1138 -1137 0
1139 -2 -1138 0
-1139 2 0
-1139 1138 0
-1140 5 1139 0
1140 -5 0
1140 -1139 0
1141 -7 -1140 0
-1141 7 0
-1141 1140 0
-1142 12 1141 8 0
1142 -12 0
1142 -1141 0
1142 -8 0
1143 -50 -1142 0
-1143 50 0
-1143 1142 0
-1144 52 1143 0
1144 -52 0
1144 -1143 0
1145 -110 -1144 0
-1145 110 0
-1145 1144 0
-1146 30 1130 1145 27 0
1146 -30 0
1146 -1130 0
1146 -1145 0
1146 -27 0
1147 -32 -1146 0
-1147 32 0
-1147 1146 0
-1148 3 1137 0
1148 -3 0
1148 -1137 0
1149 -2 -1148 0
-1149 2 0
-1149 1148 0
-1150 5 1149 0
1150 -5 0
1150 -1149 0
1151 -7 -1150 0
-1151 7 0
-1151 1150 0
-1152 12 1151 8 0
1152 -12 0
1152 -1151 0
1152 -8 0
1153 -50 -1152 0
-1153 50 0
-1153 1152 0
-1154 52 1153 0
1154 -52 0
1154 -1153 0
1155 -54 -1154 0
-1155 54 0
-1155 1154 0
-1156 67 1155 1128 0
1156 -67 0
1156 -1155 0
1156 -1128 0
1157 -114 -1156 0
-1157 114 0
-1157 1156 0
-1158 35 1157 0
1158 -35 0
1158 -1157 0
1159 -34 -1158 0
-1159 34 0
-1159 1158 0
-1160 37 1116 1147 1159 0
1160 -37 0
1160 -1116 0
1160 -1147 0
1160 -1159 0
1161 -119 -1160 0
-1161 119 0
-1161 1160 0
-1162 121 1100 1161 0
1162 -121 0
1162 -1100 0
1162 -1161 0
1163 -123 -1162 0
-1163 123 0
-1163 1162 0
-1164 20 967 127 0
1164 -20 0
1164 -967 0
1164 -127 0
1165 -22 -1164 0
-1165 22 0
-1165 1164 0
-1166 24 1165 0
1166 -24 0
1166 -1165 0
1167 -26 -1166 0
-1167 26 0
-1167 1166 0
-1168 37 1167 31 33 0
1168 -37 0
1168 -1167 0
1168 -31 0
1168 -33 0
1169 -39 -1168 0
-1169 39 0
-1169 1168 0
-1170 20 1074 140 0
1170 -20 0
1170 -1074 0
1170 -140 0
1171 -43 -1170 0
-1171 43 0
-1171 1170 0
-1172 3 1171 0
1172 -3 0
1172 -1171 0
1173 -2 -1172 0
-1173 2 0
-1173 1172 0
-1174 5 1173 0
1174 -5 0
1174 -1173 0
1175 -7 -1174 0
-1175 7 0
-1175 1174 0
-1176 12 1175 8 0
1176 -12 0
1176 -1175 0
1176 -8 0
1177 -50 -1176 0
-1177 50 0
-1177 1176 0
-1178 52 1169 1177 0
1178 -52 0
1178 -1169 0
1178 -1177 0
1179 -54 -1178 0
-1179 54 0
-1179 1178 0
-1180 20 1092 161 0
1180 -20 0
1180 -1092 0
1180 -161 0
1181 -43 -1180 0
-1181 43 0
-1181 1180 0
-1182 3 1181 0
1182 -3 0
1182 -1181 0
1183 -2 -1182 0
-1183 2 0
-1183 1182 0
-1184 5 1183 0
1184 -5 0
1184 -1183 0
1185 -65 -1184 0
-1185 65 0
-1185 1184 0
-1186 67 1179 1185 0
1186 -67 0
1186 -1179 0
1186 -1185 0
1187 -170 -1186 0
-1187 170 0
-1187 1186 0
1188 -97 -1156 0
-1188 97 0
-1188 1156 0
-1189 30 1188 1145 27 0
1189 -30 0
1189 -1188 0
1189 -1145 0
1189 -27 0
1190 -32 -1189 0
-1190 32 0
-1190 1189 0
-1191 37 1116 1190 1159 0
1191 -37 0
1191 -1116 0
1191 -1190 0
1191 -1159 0
1192 -119 -1191 0
-1192 119 0
-1192 1191 0
-1193 121 1100 1192 0
1193 -121 0
1193 -1100 0
1193 -1192 0
1194 -172 -1193 0
-1194 172 0
-1194 1193 0
-1195 174 1187 1194 0
1195 -174 0
1195 -1187 0
1195 -1194 0
1196 -176 -1195 0
-1196 176 0
-1196 1195 0
-1197 178 1163 1196 0
1197 -178 0
1197 -1163 0
1197 -1196 0
1198 -1199 -1197 0
-1198 1199 0
-1198 1197 0
1200 -110 -1154 0
-1200 110 0
-1200 1154 0
-1201 30 1200 27 0
1201 -30 0
1201 -1200 0
1201 -27 0
1202 -32 -1201 0
-1202 32 0
-1202 1201 0
-1203 37 972 1202 0
1203 -37 0
1203 -972 0
1203 -1202 0
1204 -119 -1203 0
-1204 119 0
-1204 1203 0
-1205 121 1204 0
1205 -121 0
1205 -1204 0
1206 -123 -1205 0
-1206 123 0
-1206 1205 0
1207 -172 -1205 0
-1207 172 0
-1207 1205 0
-1208 174 1207 0
1208 -174 0
1208 -1207 0
1209 -176 -1208 0
-1209 176 0
-1209 1208 0
-1210 178 1206 1209 0
1210 -178 0
1210 -1206 0
1210 -1209 0
1211 -218 -1210 0
-1211 218 0
-1211 1210 0
-1212 37 972 31 0
1212 -37 0
1212 -972 0
1212 -31 0
1213 -119 -1212 0
-1213 119 0
-1213 1212 0
-1214 121 1213 0
1214 -121 0
1214 -1213 0
1215 -123 -1214 0
-1215 123 0
-1215 1214 0
1216 -172 -1214 0
-1216 172 0
-1216 1214 0
-1217 174 1216 0
1217 -174 0
1217 -1216 0
1218 -176 -1217 0
-1218 176 0
-1218 1217 0
-1219 178 1215 1218 0
1219 -178 0
1219 -1215 0
1219 -1218 0
1220 -220 -1219 0
-1220 220 0
-1220 1219 0
-1221 37 1015 410 0
1221 -37 0
1221 -1015 0
1221 -410 0
1222 -39 -1221 0
-1222 39 0
-1222 1221 0
-1223 37 1020 31 0
1223 -37 0
1223 -1020 0
1223 -31 0
1224 -119 -1223 0
-1224 119 0
-1224 1223 0
-1225 121 1224 0
1225 -121 0
1225 -1224 0
1226 -123 -1225 0
-1226 123 0
-1226 1225 0
1227 -172 -1225 0
-1227 172 0
-1227 1225 0
-1228 174 1227 0
1228 -174 0
1228 -1227 0
1229 -176 -1228 0
-1229 176 0
-1229 1228 0
-1230 178 1226 1229 0
1230 -178 0
1230 -1226 0
1230 -1229 0
1231 -222 -1230 0
-1231 222 0
-1231 1230 0
-1232 37 134 31 0
1232 -37 0
1232 -134 0
1232 -31 0
1233 -119 -1232 0
-1233 119 0
-1233 1232 0
-1234 121 1233 0
1234 -121 0
1234 -1233 0
1235 -123 -1234 0
-1235 123 0
-1235 1234 0
1236 -172 -1234 0
-1236 172 0
-1236 1234 0
-1237 174 1236 0
1237 -174 0
1237 -1236 0
1238 -176 -1237 0
-1238 176 0
-1238 1237 0
-1239 178 1235 1238 0
1239 -178 0
1239 -1235 0
1239 -1238 0
1240 -180 -1239 0
-1240 180 0
-1240 1239 0
-1241 37 426 410 0
1241 -37 0
1241 -426 0
1241 -410 0
1242 -379 -1241 0
-1242 379 0
-1242 1241 0
-1243 650 1240 1242 0
1243 -650 0
1243 -1240 0
1243 -1242 0
1244 -652 -1243 0
-1244 652 0
-1244 1243 0
-1245 958 1244 964 0
1245 -958 0
1245 -1244 0
1245 -964 0
1246 -968 -1245 0
-1246 968 0
-1246 1245 0
1247 -119 -1241 0
-1247 119 0
-1247 1241 0
-1248 121 1247 0
1248 -121 0
1248 -1247 0
1249 -125 -1248 0
-1249 125 0
-1249 1248 0
-1250 16 1249 0
1250 -16 0
1250 -1249 0
1251 -18 -1250 0
-1251 18 0
-1251 1250 0
-1252 20 1246 1251 0
1252 -20 0
1252 -1246 0
1252 -1251 0
1253 -43 -1252 0
-1253 43 0
-1253 1252 0
-1254 3 1253 0
1254 -3 0
1254 -1253 0
1255 -2 -1254 0
-1255 2 0
-1255 1254 0
-1256 5 1255 0
1256 -5 0
1256 -1255 0
1257 -7 -1256 0
-1257 7 0
-1257 1256 0
1258 -224 -1230 0
-1258 224 0
-1258 1230 0
-1259 10 1258 0
1259 -10 0
1259 -1258 0
1260 -9 -1259 0
-1260 9 0
-1260 1259 0
-1261 12 1231 1257 1260 0
1261 -12 0
1261 -1231 0
1261 -1257 0
1261 -1260 0
1262 -50 -1261 0
-1262 50 0
-1262 1261 0
-1263 52 1220 1222 1262 0
1263 -52 0
1263 -1220 0
1263 -1222 0
1263 -1262 0
1264 -54 -1263 0
-1264 54 0
-1264 1263 0
-1265 37 134 155 0
1265 -37 0
1265 -134 0
1265 -155 0
1266 -119 -1265 0
-1266 119 0
-1266 1265 0
-1267 121 1266 0
1267 -121 0
1267 -1266 0
1268 -123 -1267 0
-1268 123 0
-1268 1267 0
1269 -172 -1267 0
-1269 172 0
-1269 1267 0
-1270 174 1269 0
1270 -174 0
1270 -1269 0
1271 -176 -1270 0
-1271 176 0
-1271 1270 0
-1272 178 1268 1271 0
1272 -178 0
1272 -1268 0
1272 -1271 0
1273 -180 -1272 0
-1273 180 0
-1273 1272 0
-1274 37 426 450 0
1274 -37 0
1274 -426 0
1274 -450 0
1275 -379 -1274 0
-1275 379 0
-1275 1274 0
1276 -220 -1239 0
-1276 220 0
-1276 1239 0
1277 -39 -1241 0
-1277 39 0
-1277 1241 0
1278 -222 -1239 0
-1278 222 0
-1278 1239 0
1279 -224 -1239 0
-1279 224 0
-1279 1239 0
-1280 10 1279 0
1280 -10 0
1280 -1279 0
1281 -9 -1280 0
-1281 9 0
-1281 1280 0
-1282 12 1278 1281 0
1282 -12 0
1282 -1278 0
1282 -1281 0
1283 -50 -1282 0
-1283 50 0
-1283 1282 0
-1284 52 1276 1277 1283 0
1284 -52 0
1284 -1276 0
1284 -1277 0
1284 -1283 0
1285 -648 -1284 0
-1285 648 0
-1285 1284 0
-1286 650 1273 1275 1285 0
1286 -650 0
1286 -1273 0
1286 -1275 0
1286 -1285 0
1287 -652 -1286 0
-1287 652 0
-1287 1286 0
1288 -222 -1272 0
-1288 222 0
-1288 1272 0
-1289 37 134 463 0
1289 -37 0
1289 -134 0
1289 -463 0
1290 -119 -1289 0
-1290 119 0
-1290 1289 0
-1291 121 1290 0
1291 -121 0
1291 -1290 0
1292 -123 -1291 0
-1292 123 0
-1292 1291 0
1293 -172 -1291 0
-1293 172 0
-1293 1291 0
-1294 174 1293 0
1294 -174 0
1294 -1293 0
1295 -176 -1294 0
-1295 176 0
-1295 1294 0
-1296 178 1292 1295 0
1296 -178 0
1296 -1292 0
1296 -1295 0
1297 -224 -1296 0
-1297 224 0
-1297 1296 0
-1298 10 1297 0
1298 -10 0
1298 -1297 0
1299 -9 -1298 0
-1299 9 0
-1299 1298 0
-1300 12 1288 1299 0
1300 -12 0
1300 -1288 0
1300 -1299 0
1301 -956 -1300 0
-1301 956 0
-1301 1300 0
-1302 958 1287 964 1301 0
1302 -958 0
1302 -1287 0
1302 -964 0
1302 -1301 0
1303 -968 -1302 0
-1303 968 0
-1303 1302 0
1304 -119 -1274 0
-1304 119 0
-1304 1274 0
-1305 121 1304 0
1305 -121 0
1305 -1304 0
1306 -125 -1305 0
-1306 125 0
-1306 1305 0
1307 -14 -1300 0
-1307 14 0
-1307 1300 0
-1308 16 1306 1307 0
1308 -16 0
1308 -1306 0
1308 -1307 0
1309 -18 -1308 0
-1309 18 0
-1309 1308 0
-1310 20 1303 1309 0
1310 -20 0
1310 -1303 0
1310 -1309 0
1311 -43 -1310 0
-1311 43 0
-1311 1310 0
-1312 3 1311 0
1312 -3 0
1312 -1311 0
1313 -2 -1312 0
-1313 2 0
-1313 1312 0
-1314 5 1313 0
1314 -5 0
1314 -1313 0
1315 -65 -1314 0
-1315 65 0
-1315 1314 0
-1316 67 1211 1264 1315 0
1316 -67 0
1316 -1211 0
1316 -1264 0
1316 -1315 0
1317 -114 -1316 0
-1317 114 0
-1317 1316 0
-1318 35 1317 0
1318 -35 0
1318 -1317 0
1319 -1320 -1318 0
-1319 1320 0
-1319 1318 0
1321 -123 -1193 0
-1321 123 0
-1321 1193 0
-1322 178 1321 1196 0
1322 -178 0
1322 -1321 0
1322 -1196 0
1323 -1324 -1322 0
-1323 1324 0
-1323 1322 0
1325 -39 -1021 0
-1325 39 0
-1325 1021 0
-1326 52 1325 0
1326 -52 0
1326 -1325 0
1327 -54 -1326 0
-1327 54 0
-1327 1326 0
1328 -648 -778 0
-1328 648 0
-1328 778 0
-1329 650 1085 1328 0
1329 -650 0
1329 -1085 0
1329 -1328 0
1330 -652 -1329 0
-1330 652 0
-1330 1329 0
-1331 958 1330 964 0
1331 -958 0
1331 -1330 0
1331 -964 0
1332 -968 -1331 0
-1332 968 0
-1332 1331 0
-1333 20 1332 40 0
1333 -20 0
1333 -1332 0
1333 -40 0
1334 -43 -1333 0
-1334 43 0
-1334 1333 0
-1335 3 1334 0
1335 -3 0
1335 -1334 0
1336 -2 -1335 0
-1336 2 0
-1336 1335 0
-1337 5 1336 0
1337 -5 0
1337 -1336 0
1338 -65 -1337 0
-1338 65 0
-1338 1337 0
-1339 67 1327 1338 0
1339 -67 0
1339 -1327 0
1339 -1338 0
1340 -69 -1339 0
-1340 69 0
-1340 1339 0
1341 -648 -52 0
-1341 648 0
-1341 52 0
-1342 650 1101 1341 0
1342 -650 0
1342 -1101 0
1342 -1341 0
1343 -652 -1342 0
-1343 652 0
-1343 1342 0
-1344 958 1343 1109 0
1344 -958 0
1344 -1343 0
1344 -1109 0
1345 -968 -1344 0
-1345 968 0
-1345 1344 0
-1346 20 75 1345 40 0
1346 -20 0
1346 -75 0
1346 -1345 0
1346 -40 0
1347 -22 -1346 0
-1347 22 0
-1347 1346 0
-1348 24 1347 0
1348 -24 0
1348 -1347 0
1349 -26 -1348 0
-1349 26 0
-1349 1348 0
-1350 20 1122 40 0
1350 -20 0
1350 -1122 0
1350 -40 0
1351 -43 -1350 0
-1351 43 0
-1351 1350 0
-1352 3 1351 0
1352 -3 0
1352 -1351 0
1353 -2 -1352 0
-1353 2 0
-1353 1352 0
-1354 5 1353 0
1354 -5 0
1354 -1353 0
1355 -65 -1354 0
-1355 65 0
-1355 1354 0
-1356 67 77 1355 0
1356 -67 0
1356 -77 0
1356 -1355 0
1357 -97 -1356 0
-1357 97 0
-1357 1356 0
-1358 30 1357 461 27 0
1358 -30 0
1358 -1357 0
1358 -461 0
1358 -27 0
1359 -32 -1358 0
-1359 32 0
-1359 1358 0
1360 -114 -1356 0
-1360 114 0
-1360 1356 0
-1361 35 1360 0
1361 -35 0
1361 -1360 0
1362 -34 -1361 0
-1362 34 0
-1362 1361 0
-1363 37 1349 1359 1362 0
1363 -37 0
1363 -1349 0
1363 -1359 0
1363 -1362 0
1364 -119 -1363 0
-1364 119 0
-1364 1363 0
-1365 121 1340 1364 0
1365 -121 0
1365 -1340 0
1365 -1364 0
1366 -123 -1365 0
-1366 123 0
-1366 1365 0
-1367 20 967 185 0
1367 -20 0
1367 -967 0
1367 -185 0
1368 -22 -1367 0
-1368 22 0
-1368 1367 0
-1369 24 1368 0
1369 -24 0
1369 -1368 0
1370 -26 -1369 0
-1370 26 0
-1370 1369 0
-1371 37 1370 31 33 0
1371 -37 0
1371 -1370 0
1371 -31 0
1371 -33 0
1372 -39 -1371 0
-1372 39 0
-1372 1371 0
-1373 52 1372 0
1373 -52 0
1373 -1372 0
1374 -54 -1373 0
-1374 54 0
-1374 1373 0
-1375 20 1332 853 0
1375 -20 0
1375 -1332 0
1375 -853 0
1376 -43 -1375 0
-1376 43 0
-1376 1375 0
-1377 3 1376 0
1377 -3 0
1377 -1376 0
1378 -2 -1377 0
-1378 2 0
-1378 1377 0
-1379 5 1378 0
1379 -5 0
1379 -1378 0
1380 -65 -1379 0
-1380 65 0
-1380 1379 0
-1381 67 1374 1380 0
1381 -67 0
1381 -1374 0
1381 -1380 0
1382 -170 -1381 0
-1382 170 0
-1382 1381 0
1383 -172 -1365 0
-1383 172 0
-1383 1365 0
-1384 174 1382 1383 0
1384 -174 0
1384 -1382 0
1384 -1383 0
1385 -176 -1384 0
-1385 176 0
-1385 1384 0
-1386 178 1366 1385 0
1386 -178 0
1386 -1366 0
1386 -1385 0
1387 -222 -1386 0
-1387 222 0
-1387 1386 0
1388 -22 -1350 0
-1388 22 0
-1388 1350 0
-1389 24 1388 0
1389 -24 0
1389 -1388 0
1390 -26 -1389 0
-1390 26 0
-1390 1389 0
-1391 37 1390 155 33 0
1391 -37 0
1391 -1390 0
1391 -155 0
1391 -33 0
1392 -119 -1391 0
-1392 119 0
-1392 1391 0
-1393 121 1392 0
1393 -121 0
1393 -1392 0
1394 -123 -1393 0
-1394 123 0
-1394 1393 0
1395 -172 -1393 0
-1395 172 0
-1395 1393 0
-1396 174 1395 0
1396 -174 0
1396 -1395 0
1397 -176 -1396 0
-1397 176 0
-1397 1396 0
-1398 178 1394 1397 0
1398 -178 0
1398 -1394 0
1398 -1397 0
1399 -218 -1398 0
-1399 218 0
-1399 1398 0
1400 -220 -1028 0
-1400 220 0
-1400 1028 0
-1401 958 1008 964 0
1401 -958 0
1401 -1008 0
1401 -964 0
1402 -968 -1401 0
-1402 968 0
-1402 1401 0
-1403 20 1402 185 0
1403 -20 0
1403 -1402 0
1403 -185 0
1404 -22 -1403 0
-1404 22 0
-1404 1403 0
-1405 24 400 1404 0
1405 -24 0
1405 -400 0
1405 -1404 0
1406 -26 -1405 0
-1406 26 0
-1406 1405 0
-1407 37 1406 410 33 0
1407 -37 0
1407 -1406 0
1407 -410 0
1407 -33 0
1408 -39 -1407 0
-1408 39 0
-1408 1407 0
-1409 52 1400 1408 0
1409 -52 0
1409 -1400 0
1409 -1408 0
1410 -54 -1409 0
-1410 54 0
-1410 1409 0
-1411 67 1399 1410 0
1411 -67 0
1411 -1399 0
1411 -1410 0
1412 -80 -1411 0
-1412 80 0
-1412 1411 0
-1413 67 779 0
1413 -67 0
1413 -779 0
1414 -69 -1413 0
-1414 69 0
-1414 1413 0
-1415 121 1414 806 0
1415 -121 0
1415 -1414 0
1415 -806 0
1416 -123 -1415 0
-1416 123 0
-1416 1415 0
1417 -170 -1413 0
-1417 170 0
-1417 1413 0
1418 -172 -1415 0
-1418 172 0
-1418 1415 0
-1419 174 1417 1418 0
1419 -174 0
1419 -1417 0
1419 -1418 0
1420 -176 -1419 0
-1420 176 0
-1420 1419 0
-1421 178 1416 1420 0
1421 -178 0
1421 -1416 0
1421 -1420 0
1422 -180 -1421 0
-1422 180 0
-1422 1421 0
1423 -69 -78 0
-1423 69 0
-1423 78 0
-1424 121 1423 0
1424 -121 0
1424 -1423 0
1425 -123 -1424 0
-1425 123 0
-1425 1424 0
1426 -172 -1424 0
-1426 172 0
-1426 1424 0
-1427 174 892 1426 0
1427 -174 0
1427 -892 0
1427 -1426 0
1428 -176 -1427 0
-1428 176 0
-1428 1427 0
-1429 178 1425 1428 0
1429 -178 0
1429 -1425 0
1429 -1428 0
1430 -211 -1429 0
-1430 211 0
-1430 1429 0
-1431 24 1430 0
1431 -24 0
1431 -1430 0
1432 -26 -1431 0
-1432 26 0
-1432 1431 0
1433 -69 -67 0
-1433 69 0
-1433 67 0
-1434 121 1433 0
1434 -121 0
1434 -1433 0
1435 -123 -1434 0
-1435 123 0
-1435 1434 0
1436 -172 -1434 0
-1436 172 0
-1436 1434 0
-1437 174 613 1436 0
1437 -174 0
1437 -613 0
1437 -1436 0
1438 -176 -1437 0
-1438 176 0
-1438 1437 0
-1439 178 1435 1438 0
1439 -178 0
1439 -1435 0
1439 -1438 0
1440 -220 -1439 0
-1440 220 0
-1440 1439 0
-1441 52 1440 0
1441 -52 0
1441 -1440 0
1442 -110 -1441 0
-1442 110 0
-1442 1441 0
1443 -224 -1429 0
-1443 224 0
-1443 1429 0
-1444 10 1443 0
1444 -10 0
1444 -1443 0
1445 -28 -1444 0
-1445 28 0
-1445 1444 0
-1446 30 899 1442 1445 0
1446 -30 0
1446 -899 0
1446 -1442 0
1446 -1445 0
1447 -32 -1446 0
-1447 32 0
-1447 1446 0
-1448 37 1432 1447 910 0
1448 -37 0
1448 -1432 0
1448 -1447 0
1448 -910 0
1449 -379 -1448 0
-1449 379 0
-1449 1448 0
1450 -487 -888 0
-1450 487 0
-1450 888 0
1451 -97 -67 0
-1451 97 0
-1451 67 0
-1452 30 1451 27 0
1452 -30 0
1452 -1451 0
1452 -27 0
1453 -32 -1452 0
-1453 32 0
-1453 1452 0
1454 -114 -67 0
-1454 114 0
-1454 67 0
-1455 35 1454 0
1455 -35 0
1455 -1454 0
1456 -34 -1455 0
-1456 34 0
-1456 1455 0
-1457 37 134 1453 1456 0
1457 -37 0
1457 -134 0
1457 -1453 0
1457 -1456 0
1458 -119 -1457 0
-1458 119 0
-1458 1457 0
-1459 121 1433 1458 0
1459 -121 0
1459 -1433 0
1459 -1458 0
1460 -123 -1459 0
-1460 123 0
-1460 1459 0
1461 -172 -1459 0
-1461 172 0
-1461 1459 0
-1462 174 613 1461 0
1462 -174 0
1462 -613 0
1462 -1461 0
1463 -176 -1462 0
-1463 176 0
-1463 1462 0
-1464 178 1460 1463 0
1464 -178 0
1464 -1460 0
1464 -1463 0
1465 -220 -1464 0
-1465 220 0
-1465 1464 0
1466 -211 -1439 0
-1466 211 0
-1466 1439 0
-1467 24 1466 0
1467 -24 0
1467 -1466 0
1468 -26 -1467 0
-1468 26 0
-1468 1467 0
1469 -224 -1439 0
-1469 224 0
-1469 1439 0
-1470 10 1469 0
1470 -10 0
1470 -1469 0
1471 -28 -1470 0
-1471 28 0
-1471 1470 0
-1472 30 620 1471 0
1472 -30 0
1472 -620 0
1472 -1471 0
1473 -32 -1472 0
-1473 32 0
-1473 1472 0
-1474 37 1468 1473 628 0
1474 -37 0
1474 -1468 0
1474 -1473 0
1474 -628 0
1475 -39 -1474 0
-1475 39 0
-1475 1474 0
-1476 52 1465 1475 0
1476 -52 0
1476 -1465 0
1476 -1475 0
1477 -648 -1476 0
-1477 648 0
-1477 1476 0
-1478 650 1422 1449 1450 1477 0
1478 -650 0
1478 -1422 0
1478 -1449 0
1478 -1450 0
1478 -1477 0
1479 -652 -1478 0
-1479 652 0
-1479 1478 0
-1480 958 1479 0
1480 -958 0
1480 -1479 0
1481 -968 -1480 0
-1481 968 0
-1481 1480 0
-1482 20 889 1481 916 0
1482 -20 0
1482 -889 0
1482 -1481 0
1482 -916 0
1483 -43 -1482 0
-1483 43 0
-1483 1482 0
-1484 3 1412 1483 0
1484 -3 0
1484 -1412 0
1484 -1483 0
1485 -2 -1484 0
-1485 2 0
-1485 1484 0
-1486 5 1485 0
1486 -5 0
1486 -1485 0
1487 -7 -1486 0
-1487 7 0
-1487 1486 0
1488 -379 -464 0
-1488 379 0
-1488 464 0
-1489 650 1488 1328 0
1489 -650 0
1489 -1488 0
1489 -1328 0
1490 -652 -1489 0
-1490 652 0
-1490 1489 0
-1491 958 1490 964 0
1491 -958 0
1491 -1490 0
1491 -964 0
1492 -968 -1491 0
-1492 968 0
-1492 1491 0
-1493 20 1492 40 0
1493 -20 0
1493 -1492 0
1493 -40 0
1494 -43 -1493 0
-1494 43 0
-1494 1493 0
-1495 3 1494 0
1495 -3 0
1495 -1494 0
1496 -2 -1495 0
-1496 2 0
-1496 1495 0
-1497 5 1496 0
1497 -5 0
1497 -1496 0
1498 -65 -1497 0
-1498 65 0
-1498 1497 0
-1499 67 1327 1498 0
1499 -67 0
1499 -1327 0
1499 -1498 0
1500 -69 -1499 0
-1500 69 0
-1500 1499 0
1501 -487 -253 0
-1501 487 0
-1501 253 0
-1502 650 1501 1341 0
1502 -650 0
1502 -1501 0
1502 -1341 0
1503 -652 -1502 0
-1503 652 0
-1503 1502 0
1504 -80 -798 0
-1504 80 0
-1504 798 0
-1505 3 1504 0
1505 -3 0
1505 -1504 0
1506 -824 -1505 0
-1506 824 0
-1506 1505 0
-1507 958 1503 1506 0
1507 -958 0
1507 -1503 0
1507 -1506 0
1508 -968 -1507 0
-1508 968 0
-1508 1507 0
-1509 20 927 1508 40 0
1509 -20 0
1509 -927 0
1509 -1508 0
1509 -40 0
1510 -22 -1509 0
-1510 22 0
-1510 1509 0
-1511 24 1510 0
1511 -24 0
1511 -1510 0
1512 -26 -1511 0
-1512 26 0
-1512 1511 0
-1513 650 1341 0
1513 -650 0
1513 -1341 0
1514 -652 -1513 0
-1514 652 0
-1514 1513 0
-1515 958 1514 964 0
1515 -958 0
1515 -1514 0
1515 -964 0
1516 -968 -1515 0
-1516 968 0
-1516 1515 0
-1517 20 1516 40 0
1517 -20 0
1517 -1516 0
1517 -40 0
1518 -43 -1517 0
-1518 43 0
-1518 1517 0
-1519 3 1518 0
1519 -3 0
1519 -1518 0
1520 -2 -1519 0
-1520 2 0
-1520 1519 0
-1521 5 1520 0
1521 -5 0
1521 -1520 0
1522 -65 -1521 0
-1522 65 0
-1522 1521 0
-1523 67 77 1522 0
1523 -67 0
1523 -77 0
1523 -1522 0
1524 -97 -1523 0
-1524 97 0
-1524 1523 0
-1525 30 1524 461 27 0
1525 -30 0
1525 -1524 0
1525 -461 0
1525 -27 0
1526 -32 -1525 0
-1526 32 0
-1526 1525 0
1527 -114 -1523 0
-1527 114 0
-1527 1523 0
-1528 35 1527 0
1528 -35 0
1528 -1527 0
1529 -34 -1528 0
-1529 34 0
-1529 1528 0
-1530 37 1512 1526 1529 0
1530 -37 0
1530 -1512 0
1530 -1526 0
1530 -1529 0
1531 -119 -1530 0
-1531 119 0
-1531 1530 0
-1532 121 1500 1531 0
1532 -121 0
1532 -1500 0
1532 -1531 0
1533 -123 -1532 0
-1533 123 0
-1533 1532 0
-1534 20 975 185 0
1534 -20 0
1534 -975 0
1534 -185 0
1535 -22 -1534 0
-1535 22 0
-1535 1534 0
-1536 24 1535 0
1536 -24 0
1536 -1535 0
1537 -26 -1536 0
-1537 26 0
-1537 1536 0
-1538 37 1537 31 33 0
1538 -37 0
1538 -1537 0
1538 -31 0
1538 -33 0
1539 -39 -1538 0
-1539 39 0
-1539 1538 0
-1540 52 1539 0
1540 -52 0
1540 -1539 0
1541 -54 -1540 0
-1541 54 0
-1541 1540 0
-1542 20 1492 938 0
1542 -20 0
1542 -1492 0
1542 -938 0
1543 -43 -1542 0
-1543 43 0
-1543 1542 0
-1544 3 1543 0
1544 -3 0
1544 -1543 0
1545 -2 -1544 0
-1545 2 0
-1545 1544 0
-1546 5 1545 0
1546 -5 0
1546 -1545 0
1547 -65 -1546 0
-1547 65 0
-1547 1546 0
-1548 67 1541 1547 0
1548 -67 0
1548 -1541 0
1548 -1547 0
1549 -170 -1548 0
-1549 170 0
-1549 1548 0
1550 -172 -1532 0
-1550 172 0
-1550 1532 0
-1551 174 1549 1550 0
1551 -174 0
1551 -1549 0
1551 -1550 0
1552 -176 -1551 0
-1552 176 0
-1552 1551 0
-1553 178 1533 1552 0
1553 -178 0
1553 -1533 0
1553 -1552 0
1554 -224 -1553 0
-1554 224 0
-1554 1553 0
-1555 10 1554 0
1555 -10 0
1555 -1554 0
1556 -9 -1555 0
-1556 9 0
-1556 1555 0
-1557 12 1387 1487 1556 0
1557 -12 0
1557 -1387 0
1557 -1487 0
1557 -1556 0
1558 -1559 -1557 0
-1558 1559 0
-1558 1557 0
-1560 1561 1323 1558 0
1560 -1561 0
1560 -1323 0
1560 -1558 0
1562 -1563 -1560 0
-1562 1563 0
-1562 1560 0
-1564 1565 1067 1198 1319 1562 0
1564 -1565 0
1564 -1067 0
1564 -1198 0
1564 -1319 0
1564 -1562 0
1566 -1567 -1564 0
-1566 1567 0
-1566 1564 0
-1568 1569 959 1566 0
1568 -1569 0
1568 -959 0
1568 -1566 0
1570 -1568 -1571 0
-1570 1568 0
-1570 1571 0
1570 0
