c BC-S1.2
p cnf 88 166
1 -2 -3 0
-1 2 0
-1 3 0
-4 5 1 0
4 -5 0
4 -1 0
6 -7 -4 0
-6 7 0
-6 4 0
8 -9 -10 0
-8 9 0
-8 10 0
-11 12 6 8 0
11 -12 0
11 -6 0
11 -8 0
13 -14 -11 0
-13 14 0
-13 11 0
-15 16 13 0
15 -16 0
15 -13 0
17 -18 -15 0
-17 18 0
-17 15 0
-19 20 17 0
19 -20 0
19 -17 0
21 -22 -19 0
-21 22 0
-21 19 0
23 -24 -11 0
-23 24 0
-23 11 0
-25 26 23 0
25 -26 0
25 -23 0
27 -28 -25 0
-27 28 0
-27 25 0
-29 30 21 27 0
29 -30 0
29 -21 0
29 -27 0
31 -32 -29 0
-31 32 0
-31 29 0
-33 34 31 0
33 -34 0
33 -31 0
35 -36 -33 0
-35 36 0
-35 33 0
37 -38 -34 0
-37 38 0
-37 34 0
39 -40 -34 0
-39 40 0
-39 34 0
-41 26 39 23 0
41 -26 0
41 -39 0
41 -23 0
42 -28 -41 0
-42 28 0
-42 41 0
-43 30 37 21 42 0
43 -30 0
43 -37 0
43 -21 0
43 -42 0
44 -45 -43 0
-44 45 0
-44 43 0
-46 47 35 44 0
46 -47 0
46 -35 0
46 -44 0
48 -49 -46 0
-48 49 0
-48 46 0
-50 51 48 0
50 -51 0
50 -48 0
52 -53 -50 0
-52 53 0
-52 50 0
54 -36 -34 0
-54 36 0
-54 34 0
55 -56 -51 0
-55 56 0
-55 51 0
-57 47 54 55 0
57 -47 0
57 -54 0
57 -55 0
58 -59 -57 0
-58 59 0
-58 57 0
60 -61 -57 0
-60 61 0
-60 57 0
-62 34 60 0
62 -34 0
62 -60 0
63 -38 -62 0
-63 38 0
-63 62 0
64 -40 -62 0
-64 40 0
-64 62 0
-65 26 64 23 0
65 -26 0
65 -64 0
65 -23 0
66 -28 -65 0
-66 28 0
-66 65 0
-67 30 58 63 66 0
67 -30 0
67 -58 0
67 -63 0
67 -66 0
68 -69 -67 0
-68 69 0
-68 67 0
-70 20 68 17 0
70 -20 0
70 -68 0
70 -17 0
71 -72 -70 0
-71 72 0
-71 70 0
73 -74 -15 0
-73 74 0
-73 15 0
-75 12 8 0
75 -12 0
75 -8 0
76 -77 -75 0
-76 77 0
-76 75 0
-78 5 1 76 0
78 -5 0
78 -1 0
78 -76 0
79 -80 -78 0
-79 80 0
-79 78 0
-81 82 52 71 73 79 0
81 -82 0
81 -52 0
81 -71 0
81 -73 0
81 -79 0
83 -84 -81 0
-83 84 0
-83 81 0
-85 86 83 0
85 -86 0
85 -83 0
87 -85 -88 0
-87 85 0
-87 88 0
87 0
