c BC-S1.2
p cnf 1554 5231
1 -2 -3 0
-1 2 0
-1 3 0
-4 5 1 0
4 -5 0
4 -1 0
6 -7 -4 0
-6 7 0
-6 4 0
8 -9 -4 0
-8 9 0
-8 4 0
-10 11 8 0
10 -11 0
10 -8 0
12 -13 -10 0
-12 13 0
-12 10 0
-14 15 12 0
14 -15 0
14 -12 0
16 -17 -14 0
-16 17 0
-16 14 0
-18 19 16 0
18 -19 0
18 -16 0
20 -21 -18 0
-20 21 0
-20 18 0
22 -23 -24 0
-22 23 0
-22 24 0
-25 26 20 22 0
25 -26 0
25 -20 0
25 -22 0
27 -28 -25 0
-27 28 0
-27 25 0
-29 30 6 27 0
29 -30 0
29 -6 0
29 -27 0
31 -32 -29 0
-31 32 0
-31 29 0
-33 34 31 0
33 -34 0
33 -31 0
35 -36 -33 0
-35 36 0
-35 33 0
37 -38 -33 0
-37 38 0
-37 33 0
39 -17 -15 0
-39 17 0
-39 15 0
-40 19 39 0
40 -19 0
40 -39 0
41 -21 -40 0
-41 21 0
-41 40 0
-42 26 41 22 0
42 -26 0
42 -41 0
42 -22 0
43 -28 -42 0
-43 28 0
-43 42 0
-44 30 43 0
44 -30 0
44 -43 0
45 -32 -44 0
-45 32 0
-45 44 0
-46 34 45 0
46 -34 0
46 -45 0
47 -48 -46 0
-47 48 0
-47 46 0
-49 3 47 0
49 -3 0
49 -47 0
50 -2 -49 0
-50 2 0
-50 49 0
-51 5 50 0
51 -5 0
51 -50 0
52 -9 -51 0
-52 9 0
-52 51 0
-53 11 52 0
53 -11 0
53 -52 0
54 -55 -53 0
-54 55 0
-54 53 0
56 -57 -58 0
-56 57 0
-56 58 0
-59 60 37 54 56 0
59 -60 0
59 -37 0
59 -54 0
59 -56 0
61 -62 -59 0
-61 62 0
-61 59 0
63 -48 -34 0
-63 48 0
-63 34 0
-64 3 63 0
64 -3 0
64 -63 0
65 -2 -64 0
-65 2 0
-65 64 0
-66 5 65 0
66 -5 0
66 -65 0
67 -7 -66 0
-67 7 0
-67 66 0
68 -9 -66 0
-68 9 0
-68 66 0
-69 11 68 0
69 -11 0
69 -68 0
70 -13 -69 0
-70 13 0
-70 69 0
-71 15 70 0
71 -15 0
71 -70 0
72 -17 -71 0
-72 17 0
-72 71 0
-73 19 72 0
73 -19 0
73 -72 0
74 -21 -73 0
-74 21 0
-74 73 0
-75 26 74 22 0
75 -26 0
75 -74 0
75 -22 0
76 -28 -75 0
-76 28 0
-76 75 0
-77 30 67 76 0
77 -30 0
77 -67 0
77 -76 0
78 -79 -77 0
-78 79 0
-78 77 0
80 -21 -19 0
-80 21 0
-80 19 0
-81 26 80 22 0
81 -26 0
81 -80 0
81 -22 0
82 -28 -81 0
-82 28 0
-82 81 0
-83 30 82 0
83 -30 0
83 -82 0
84 -32 -83 0
-84 32 0
-84 83 0
-85 34 84 0
85 -34 0
85 -84 0
86 -48 -85 0
-86 48 0
-86 85 0
-87 3 86 0
87 -3 0
87 -86 0
88 -2 -87 0
-88 2 0
-88 87 0
-89 5 88 0
89 -5 0
89 -88 0
90 -9 -89 0
-90 9 0
-90 89 0
-91 11 90 0
91 -11 0
91 -90 0
92 -13 -91 0
-92 13 0
-92 91 0
-93 15 92 0
93 -15 0
93 -92 0
94 -95 -93 0
-94 95 0
-94 93 0
-96 97 94 0
96 -97 0
96 -94 0
98 -99 -96 0
-98 99 0
-98 96 0
100 -101 -53 0
-100 101 0
-100 53 0
102 -103 -93 0
-102 103 0
-102 93 0
-104 105 100 102 0
104 -105 0
104 -100 0
104 -102 0
106 -107 -104 0
-106 107 0
-106 104 0
-108 109 35 61 78 98 106 0
108 -109 0
108 -35 0
108 -61 0
108 -78 0
108 -98 0
108 -106 0
110 -111 -108 0
-110 111 0
-110 108 0
112 -36 -34 0
-112 36 0
-112 34 0
113 -38 -34 0
-113 38 0
-113 34 0
-114 60 113 54 56 0
114 -60 0
114 -113 0
114 -54 0
114 -56 0
115 -62 -114 0
-115 62 0
-115 114 0
116 -95 -71 0
-116 95 0
-116 71 0
-117 97 116 0
117 -97 0
117 -116 0
118 -99 -117 0
-118 99 0
-118 117 0
119 -103 -71 0
-119 103 0
-119 71 0
-120 105 100 119 0
120 -105 0
120 -100 0
120 -119 0
121 -107 -120 0
-121 107 0
-121 120 0
-122 109 112 115 118 121 0
122 -109 0
122 -112 0
122 -115 0
122 -118 0
122 -121 0
123 -124 -122 0
-123 124 0
-123 122 0
-125 5 123 65 0
125 -5 0
125 -123 0
125 -65 0
126 -7 -125 0
-126 7 0
-126 125 0
127 -55 -69 0
-127 55 0
-127 69 0
-128 60 113 127 56 0
128 -60 0
128 -113 0
128 -127 0
128 -56 0
129 -62 -128 0
-129 62 0
-129 128 0
130 -101 -69 0
-130 101 0
-130 69 0
-131 105 130 119 0
131 -105 0
131 -130 0
131 -119 0
132 -107 -131 0
-132 107 0
-132 131 0
-133 109 112 129 118 132 0
133 -109 0
133 -112 0
133 -129 0
133 -118 0
133 -132 0
134 -135 -133 0
-134 135 0
-134 133 0
136 -99 -97 0
-136 99 0
-136 97 0
-137 105 130 0
137 -105 0
137 -130 0
138 -107 -137 0
-138 107 0
-138 137 0
-139 109 112 129 136 138 0
139 -109 0
139 -112 0
139 -129 0
139 -136 0
139 -138 0
140 -141 -139 0
-140 141 0
-140 139 0
-142 60 113 56 0
142 -60 0
142 -113 0
142 -56 0
143 -62 -142 0
-143 62 0
-143 142 0
144 -107 -105 0
-144 107 0
-144 105 0
-145 109 112 143 136 144 0
145 -109 0
145 -112 0
145 -143 0
145 -136 0
145 -144 0
146 -124 -145 0
-146 124 0
-146 145 0
-147 5 146 65 0
147 -5 0
147 -146 0
147 -65 0
148 -9 -147 0
-148 9 0
-148 147 0
-149 11 140 148 0
149 -11 0
149 -140 0
149 -148 0
150 -13 -149 0
-150 13 0
-150 149 0
-151 15 150 0
151 -15 0
151 -150 0
152 -17 -151 0
-152 17 0
-152 151 0
-153 19 134 152 0
153 -19 0
153 -134 0
153 -152 0
154 -21 -153 0
-154 21 0
-154 153 0
155 -156 -133 0
-155 156 0
-155 133 0
-157 24 155 0
157 -24 0
157 -155 0
158 -23 -157 0
-158 23 0
-158 157 0
-159 26 154 158 0
159 -26 0
159 -154 0
159 -158 0
160 -28 -159 0
-160 28 0
-160 159 0
-161 30 126 160 0
161 -30 0
161 -126 0
161 -160 0
162 -163 -161 0
-162 163 0
-162 161 0
164 -165 -166 0
-164 165 0
-164 166 0
-167 168 110 162 164 0
167 -168 0
167 -110 0
167 -162 0
167 -164 0
169 -170 -167 0
-169 170 0
-169 167 0
-171 26 20 0
171 -26 0
171 -20 0
172 -28 -171 0
-172 28 0
-172 171 0
-173 30 6 172 0
173 -30 0
173 -6 0
173 -172 0
174 -163 -173 0
-174 163 0
-174 173 0
-175 168 174 164 0
175 -168 0
175 -174 0
175 -164 0
176 -177 -175 0
-176 177 0
-176 175 0
-178 168 164 0
178 -168 0
178 -164 0
179 -180 -178 0
-179 180 0
-179 178 0
181 -182 -178 0
-181 182 0
-181 178 0
-183 3 181 0
183 -3 0
183 -181 0
184 -2 -183 0
-184 2 0
-184 183 0
-185 5 179 184 0
185 -5 0
185 -179 0
185 -184 0
186 -7 -185 0
-186 7 0
-186 185 0
187 -188 -178 0
-187 188 0
-187 178 0
189 -190 -178 0
-189 190 0
-189 178 0
191 -9 -185 0
-191 9 0
-191 185 0
-192 11 189 191 0
192 -11 0
192 -189 0
192 -191 0
193 -13 -192 0
-193 13 0
-193 192 0
-194 15 193 0
194 -15 0
194 -193 0
195 -17 -194 0
-195 17 0
-195 194 0
-196 19 187 195 0
196 -19 0
196 -187 0
196 -195 0
197 -21 -196 0
-197 21 0
-197 196 0
-198 26 197 0
198 -26 0
198 -197 0
199 -28 -198 0
-199 28 0
-199 198 0
-200 30 186 199 0
200 -30 0
200 -186 0
200 -199 0
201 -32 -200 0
-201 32 0
-201 200 0
-202 34 176 201 0
202 -34 0
202 -176 0
202 -201 0
203 -36 -202 0
-203 36 0
-203 202 0
204 -38 -202 0
-204 38 0
-204 202 0
-205 26 74 0
205 -26 0
205 -74 0
206 -28 -205 0
-206 28 0
-206 205 0
-207 30 67 206 0
207 -30 0
207 -67 0
207 -206 0
208 -163 -207 0
-208 163 0
-208 207 0
-209 168 208 164 0
209 -168 0
209 -208 0
209 -164 0
210 -211 -209 0
-210 211 0
-210 209 0
-212 26 41 0
212 -26 0
212 -41 0
213 -28 -212 0
-213 28 0
-213 212 0
-214 30 67 213 0
214 -30 0
214 -67 0
214 -213 0
215 -163 -214 0
-215 163 0
-215 214 0
-216 168 215 164 0
216 -168 0
216 -215 0
216 -164 0
217 -190 -216 0
-217 190 0
-217 216 0
-218 30 213 0
218 -30 0
218 -213 0
219 -163 -218 0
-219 163 0
-219 218 0
-220 168 219 164 0
220 -168 0
220 -219 0
220 -164 0
221 -180 -220 0
-221 180 0
-221 220 0
222 -177 -220 0
-222 177 0
-222 220 0
-223 19 187 39 0
223 -19 0
223 -187 0
223 -39 0
224 -21 -223 0
-224 21 0
-224 223 0
-225 26 224 0
225 -26 0
225 -224 0
226 -28 -225 0
-226 28 0
-226 225 0
-227 30 226 0
227 -30 0
227 -226 0
228 -32 -227 0
-228 32 0
-228 227 0
-229 34 222 228 0
229 -34 0
229 -222 0
229 -228 0
230 -48 -229 0
-230 48 0
-230 229 0
231 -182 -220 0
-231 182 0
-231 220 0
-232 3 230 231 0
232 -3 0
232 -230 0
232 -231 0
233 -2 -232 0
-233 2 0
-233 232 0
-234 5 221 233 0
234 -5 0
234 -221 0
234 -233 0
235 -9 -234 0
-235 9 0
-235 234 0
-236 11 217 235 0
236 -11 0
236 -217 0
236 -235 0
237 -55 -236 0
-237 55 0
-237 236 0
-238 60 204 210 237 56 0
238 -60 0
238 -204 0
238 -210 0
238 -237 0
238 -56 0
239 -62 -238 0
-239 62 0
-239 238 0
240 -177 -178 0
-240 177 0
-240 178 0
-241 34 240 0
241 -34 0
241 -240 0
242 -48 -241 0
-242 48 0
-242 241 0
-243 3 242 181 0
243 -3 0
243 -242 0
243 -181 0
244 -2 -243 0
-244 2 0
-244 243 0
-245 5 179 244 0
245 -5 0
245 -179 0
245 -244 0
246 -7 -245 0
-246 7 0
-246 245 0
247 -9 -245 0
-247 9 0
-247 245 0
-248 11 189 247 0
248 -11 0
248 -189 0
248 -247 0
249 -13 -248 0
-249 13 0
-249 248 0
-250 15 249 0
250 -15 0
250 -249 0
251 -17 -250 0
-251 17 0
-251 250 0
-252 19 187 251 0
252 -19 0
252 -187 0
252 -251 0
253 -21 -252 0
-253 21 0
-253 252 0
-254 26 253 0
254 -26 0
254 -253 0
255 -28 -254 0
-255 28 0
-255 254 0
-256 30 246 255 0
256 -30 0
256 -246 0
256 -255 0
257 -79 -256 0
-257 79 0
-257 256 0
-258 26 80 0
258 -26 0
258 -80 0
259 -28 -258 0
-259 28 0
-259 258 0
-260 30 67 259 0
260 -30 0
260 -67 0
260 -259 0
261 -163 -260 0
-261 163 0
-261 260 0
-262 168 261 164 0
262 -168 0
262 -261 0
262 -164 0
263 -190 -262 0
-263 190 0
-263 262 0
-264 30 259 0
264 -30 0
264 -259 0
265 -163 -264 0
-265 163 0
-265 264 0
-266 168 265 164 0
266 -168 0
266 -265 0
266 -164 0
267 -180 -266 0
-267 180 0
-267 266 0
268 -177 -266 0
-268 177 0
-268 266 0
-269 19 187 0
269 -19 0
269 -187 0
270 -21 -269 0
-270 21 0
-270 269 0
-271 26 270 0
271 -26 0
271 -270 0
272 -28 -271 0
-272 28 0
-272 271 0
-273 30 272 0
273 -30 0
273 -272 0
274 -32 -273 0
-274 32 0
-274 273 0
-275 34 268 274 0
275 -34 0
275 -268 0
275 -274 0
276 -48 -275 0
-276 48 0
-276 275 0
277 -182 -266 0
-277 182 0
-277 266 0
-278 3 276 277 0
278 -3 0
278 -276 0
278 -277 0
279 -2 -278 0
-279 2 0
-279 278 0
-280 5 267 279 0
280 -5 0
280 -267 0
280 -279 0
281 -9 -280 0
-281 9 0
-281 280 0
-282 11 263 281 0
282 -11 0
282 -263 0
282 -281 0
283 -13 -282 0
-283 13 0
-283 282 0
-284 15 283 0
284 -15 0
284 -283 0
285 -95 -284 0
-285 95 0
-285 284 0
-286 97 285 0
286 -97 0
286 -285 0
287 -99 -286 0
-287 99 0
-287 286 0
288 -101 -236 0
-288 101 0
-288 236 0
289 -103 -284 0
-289 103 0
-289 284 0
-290 105 288 289 0
290 -105 0
290 -288 0
290 -289 0
291 -107 -290 0
-291 107 0
-291 290 0
-292 109 203 239 257 287 291 0
292 -109 0
292 -203 0
292 -239 0
292 -257 0
292 -287 0
292 -291 0
293 -156 -292 0
-293 156 0
-293 292 0
294 -32 -173 0
-294 32 0
-294 173 0
-295 34 294 0
295 -34 0
295 -294 0
296 -36 -295 0
-296 36 0
-296 295 0
297 -38 -295 0
-297 38 0
-297 295 0
298 -32 -218 0
-298 32 0
-298 218 0
-299 34 298 0
299 -34 0
299 -298 0
300 -48 -299 0
-300 48 0
-300 299 0
-301 3 300 0
301 -3 0
301 -300 0
302 -2 -301 0
-302 2 0
-302 301 0
-303 5 302 0
303 -5 0
303 -302 0
304 -9 -303 0
-304 9 0
-304 303 0
-305 11 304 0
305 -11 0
305 -304 0
306 -55 -305 0
-306 55 0
-306 305 0
-307 60 297 306 56 0
307 -60 0
307 -297 0
307 -306 0
307 -56 0
308 -62 -307 0
-308 62 0
-308 307 0
309 -79 -207 0
-309 79 0
-309 207 0
310 -32 -264 0
-310 32 0
-310 264 0
-311 34 310 0
311 -34 0
311 -310 0
312 -48 -311 0
-312 48 0
-312 311 0
-313 3 312 0
313 -3 0
313 -312 0
314 -2 -313 0
-314 2 0
-314 313 0
-315 5 314 0
315 -5 0
315 -314 0
316 -9 -315 0
-316 9 0
-316 315 0
-317 11 316 0
317 -11 0
317 -316 0
318 -13 -317 0
-318 13 0
-318 317 0
-319 15 318 0
319 -15 0
319 -318 0
320 -95 -319 0
-320 95 0
-320 319 0
-321 97 320 0
321 -97 0
321 -320 0
322 -99 -321 0
-322 99 0
-322 321 0
323 -101 -305 0
-323 101 0
-323 305 0
324 -103 -319 0
-324 103 0
-324 319 0
-325 105 323 324 0
325 -105 0
325 -323 0
325 -324 0
326 -107 -325 0
-326 107 0
-326 325 0
-327 109 296 308 309 322 326 0
327 -109 0
327 -296 0
327 -308 0
327 -309 0
327 -322 0
327 -326 0
328 -111 -327 0
-328 111 0
-328 327 0
329 -124 -133 0
-329 124 0
-329 133 0
-330 5 329 65 0
330 -5 0
330 -329 0
330 -65 0
331 -7 -330 0
-331 7 0
-331 330 0
-332 26 154 0
332 -26 0
332 -154 0
333 -28 -332 0
-333 28 0
-333 332 0
-334 30 331 333 0
334 -30 0
334 -331 0
334 -333 0
335 -163 -334 0
-335 163 0
-335 334 0
-336 168 328 335 164 0
336 -168 0
336 -328 0
336 -335 0
336 -164 0
337 -338 -336 0
-337 338 0
-337 336 0
339 -36 -241 0
-339 36 0
-339 241 0
340 -38 -241 0
-340 38 0
-340 241 0
341 -211 -178 0
-341 211 0
-341 178 0
342 -55 -248 0
-342 55 0
-342 248 0
-343 60 340 341 342 56 0
343 -60 0
343 -340 0
343 -341 0
343 -342 0
343 -56 0
344 -62 -343 0
-344 62 0
-344 343 0
345 -95 -250 0
-345 95 0
-345 250 0
-346 97 345 0
346 -97 0
346 -345 0
347 -99 -346 0
-347 99 0
-347 346 0
348 -101 -248 0
-348 101 0
-348 248 0
349 -103 -250 0
-349 103 0
-349 250 0
-350 105 348 349 0
350 -105 0
350 -348 0
350 -349 0
351 -107 -350 0
-351 107 0
-351 350 0
-352 109 339 344 347 351 0
352 -109 0
352 -339 0
352 -344 0
352 -347 0
352 -351 0
353 -124 -352 0
-353 124 0
-353 352 0
354 -111 -133 0
-354 111 0
-354 133 0
-355 168 354 164 0
355 -168 0
355 -354 0
355 -164 0
356 -180 -355 0
-356 180 0
-356 355 0
357 -55 -11 0
-357 55 0
-357 11 0
-358 60 113 357 56 0
358 -60 0
358 -113 0
358 -357 0
358 -56 0
359 -62 -358 0
-359 62 0
-359 358 0
360 -13 -11 0
-360 13 0
-360 11 0
-361 15 360 0
361 -15 0
361 -360 0
362 -95 -361 0
-362 95 0
-362 361 0
-363 97 362 0
363 -97 0
363 -362 0
364 -99 -363 0
-364 99 0
-364 363 0
365 -101 -11 0
-365 101 0
-365 11 0
366 -103 -361 0
-366 103 0
-366 361 0
-367 105 365 366 0
367 -105 0
367 -365 0
367 -366 0
368 -107 -367 0
-368 107 0
-368 367 0
-369 109 112 359 364 368 0
369 -109 0
369 -112 0
369 -359 0
369 -364 0
369 -368 0
370 -111 -369 0
-370 111 0
-370 369 0
-371 168 370 164 0
371 -168 0
371 -370 0
371 -164 0
372 -177 -371 0
-372 177 0
-372 371 0
-373 34 372 0
373 -34 0
373 -372 0
374 -48 -373 0
-374 48 0
-374 373 0
375 -182 -371 0
-375 182 0
-375 371 0
-376 3 374 375 0
376 -3 0
376 -374 0
376 -375 0
377 -2 -376 0
-377 2 0
-377 376 0
-378 5 353 356 377 0
378 -5 0
378 -353 0
378 -356 0
378 -377 0
379 -7 -378 0
-379 7 0
-379 378 0
380 -135 -352 0
-380 135 0
-380 352 0
381 -188 -355 0
-381 188 0
-381 355 0
-382 109 339 344 136 144 0
382 -109 0
382 -339 0
382 -344 0
382 -136 0
382 -144 0
383 -141 -382 0
-383 141 0
-383 382 0
384 -111 -139 0
-384 111 0
-384 139 0
-385 168 384 164 0
385 -168 0
385 -384 0
385 -164 0
386 -190 -385 0
-386 190 0
-386 385 0
-387 60 340 341 56 0
387 -60 0
387 -340 0
387 -341 0
387 -56 0
388 -62 -387 0
-388 62 0
-388 387 0
-389 109 339 388 136 144 0
389 -109 0
389 -339 0
389 -388 0
389 -136 0
389 -144 0
390 -124 -389 0
-390 124 0
-390 389 0
391 -111 -145 0
-391 111 0
-391 145 0
-392 168 391 164 0
392 -168 0
392 -391 0
392 -164 0
393 -180 -392 0
-393 180 0
-393 392 0
394 -177 -392 0
-394 177 0
-394 392 0
-395 34 394 0
395 -34 0
395 -394 0
396 -48 -395 0
-396 48 0
-396 395 0
397 -182 -392 0
-397 182 0
-397 392 0
-398 3 396 397 0
398 -3 0
398 -396 0
398 -397 0
399 -2 -398 0
-399 2 0
-399 398 0
-400 5 390 393 399 0
400 -5 0
400 -390 0
400 -393 0
400 -399 0
401 -9 -400 0
-401 9 0
-401 400 0
-402 11 383 386 401 0
402 -11 0
402 -383 0
402 -386 0
402 -401 0
403 -13 -402 0
-403 13 0
-403 402 0
-404 15 403 0
404 -15 0
404 -403 0
405 -17 -404 0
-405 17 0
-405 404 0
-406 19 380 381 405 0
406 -19 0
406 -380 0
406 -381 0
406 -405 0
407 -21 -406 0
-407 21 0
-407 406 0
-408 26 407 0
408 -26 0
408 -407 0
409 -28 -408 0
-409 28 0
-409 408 0
-410 30 379 409 0
410 -30 0
410 -379 0
410 -409 0
411 -412 -410 0
-411 412 0
-411 410 0
-413 24 293 337 411 0
413 -24 0
413 -293 0
413 -337 0
413 -411 0
414 -415 -413 0
-414 415 0
-414 413 0
-416 30 6 82 0
416 -30 0
416 -6 0
416 -82 0
417 -163 -416 0
-417 163 0
-417 416 0
-418 168 417 164 0
418 -168 0
418 -417 0
418 -164 0
419 -177 -418 0
-419 177 0
-419 418 0
420 -338 -178 0
-420 338 0
-420 178 0
-421 24 420 0
421 -24 0
421 -420 0
422 -23 -421 0
-422 23 0
-422 421 0
-423 26 270 422 0
423 -26 0
423 -270 0
423 -422 0
424 -28 -423 0
-424 28 0
-424 423 0
-425 30 186 424 0
425 -30 0
425 -186 0
425 -424 0
426 -32 -425 0
-426 32 0
-426 425 0
-427 34 419 426 0
427 -34 0
427 -419 0
427 -426 0
428 -36 -427 0
-428 36 0
-428 427 0
429 -38 -427 0
-429 38 0
-429 427 0
-430 30 67 82 0
430 -30 0
430 -67 0
430 -82 0
431 -163 -430 0
-431 163 0
-431 430 0
-432 168 431 164 0
432 -168 0
432 -431 0
432 -164 0
433 -211 -432 0
-433 211 0
-433 432 0
-434 60 429 433 56 0
434 -60 0
434 -429 0
434 -433 0
434 -56 0
435 -62 -434 0
-435 62 0
-435 434 0
-436 30 246 424 0
436 -30 0
436 -246 0
436 -424 0
437 -79 -436 0
-437 79 0
-437 436 0
-438 109 428 435 437 144 0
438 -109 0
438 -428 0
438 -435 0
438 -437 0
438 -144 0
439 -141 -438 0
-439 141 0
-439 438 0
440 -32 -416 0
-440 32 0
-440 416 0
-441 34 440 0
441 -34 0
441 -440 0
442 -36 -441 0
-442 36 0
-442 441 0
443 -38 -441 0
-443 38 0
-443 441 0
-444 60 443 56 0
444 -60 0
444 -443 0
444 -56 0
445 -62 -444 0
-445 62 0
-445 444 0
446 -79 -430 0
-446 79 0
-446 430 0
-447 109 442 445 446 144 0
447 -109 0
447 -442 0
447 -445 0
447 -446 0
447 -144 0
448 -111 -447 0
-448 111 0
-448 447 0
-449 109 112 129 138 0
449 -109 0
449 -112 0
449 -129 0
449 -138 0
450 -124 -449 0
-450 124 0
-450 449 0
-451 5 450 65 0
451 -5 0
451 -450 0
451 -65 0
452 -7 -451 0
-452 7 0
-452 451 0
453 -135 -449 0
-453 135 0
-453 449 0
-454 19 453 0
454 -19 0
454 -453 0
455 -21 -454 0
-455 21 0
-455 454 0
456 -156 -449 0
-456 156 0
-456 449 0
-457 24 456 0
457 -24 0
457 -456 0
458 -23 -457 0
-458 23 0
-458 457 0
-459 26 455 458 0
459 -26 0
459 -455 0
459 -458 0
460 -28 -459 0
-460 28 0
-460 459 0
-461 30 452 460 0
461 -30 0
461 -452 0
461 -460 0
462 -163 -461 0
-462 163 0
-462 461 0
-463 168 448 462 164 0
463 -168 0
463 -448 0
463 -462 0
463 -164 0
464 -190 -463 0
-464 190 0
-464 463 0
465 -163 -83 0
-465 163 0
-465 83 0
-466 168 465 164 0
466 -168 0
466 -465 0
466 -164 0
467 -177 -466 0
-467 177 0
-467 466 0
-468 30 424 0
468 -30 0
468 -424 0
469 -32 -468 0
-469 32 0
-469 468 0
-470 34 467 469 0
470 -34 0
470 -467 0
470 -469 0
471 -36 -470 0
-471 36 0
-471 470 0
472 -38 -470 0
-472 38 0
-472 470 0
473 -211 -466 0
-473 211 0
-473 466 0
-474 60 472 473 56 0
474 -60 0
474 -472 0
474 -473 0
474 -56 0
475 -62 -474 0
-475 62 0
-475 474 0
476 -79 -468 0
-476 79 0
-476 468 0
-477 109 471 475 476 144 0
477 -109 0
477 -471 0
477 -475 0
477 -476 0
477 -144 0
478 -124 -477 0
-478 124 0
-478 477 0
479 -36 -85 0
-479 36 0
-479 85 0
480 -38 -85 0
-480 38 0
-480 85 0
-481 60 480 56 0
481 -60 0
481 -480 0
481 -56 0
482 -62 -481 0
-482 62 0
-482 481 0
483 -79 -83 0
-483 79 0
-483 83 0
-484 109 479 482 483 144 0
484 -109 0
484 -479 0
484 -482 0
484 -483 0
484 -144 0
485 -111 -484 0
-485 111 0
-485 484 0
-486 109 112 143 144 0
486 -109 0
486 -112 0
486 -143 0
486 -144 0
487 -135 -486 0
-487 135 0
-487 486 0
-488 19 487 0
488 -19 0
488 -487 0
489 -21 -488 0
-489 21 0
-489 488 0
490 -156 -486 0
-490 156 0
-490 486 0
-491 24 490 0
491 -24 0
491 -490 0
492 -23 -491 0
-492 23 0
-492 491 0
-493 26 489 492 0
493 -26 0
493 -489 0
493 -492 0
494 -28 -493 0
-494 28 0
-494 493 0
-495 30 494 0
495 -30 0
495 -494 0
496 -163 -495 0
-496 163 0
-496 495 0
-497 168 485 496 164 0
497 -168 0
497 -485 0
497 -496 0
497 -164 0
498 -180 -497 0
-498 180 0
-498 497 0
-499 60 56 0
499 -60 0
499 -56 0
500 -62 -499 0
-500 62 0
-500 499 0
-501 109 500 483 144 0
501 -109 0
501 -500 0
501 -483 0
501 -144 0
502 -111 -501 0
-502 111 0
-502 501 0
-503 168 502 496 164 0
503 -168 0
503 -502 0
503 -496 0
503 -164 0
504 -177 -503 0
-504 177 0
-504 503 0
-505 109 339 388 144 0
505 -109 0
505 -339 0
505 -388 0
505 -144 0
506 -135 -505 0
-506 135 0
-506 505 0
507 -111 -486 0
-507 111 0
-507 486 0
-508 168 507 164 0
508 -168 0
508 -507 0
508 -164 0
509 -188 -508 0
-509 188 0
-509 508 0
-510 19 506 509 0
510 -19 0
510 -506 0
510 -509 0
511 -21 -510 0
-511 21 0
-511 510 0
512 -156 -505 0
-512 156 0
-512 505 0
513 -338 -508 0
-513 338 0
-513 508 0
-514 24 512 513 0
514 -24 0
514 -512 0
514 -513 0
515 -23 -514 0
-515 23 0
-515 514 0
-516 26 511 515 0
516 -26 0
516 -511 0
516 -515 0
517 -28 -516 0
-517 28 0
-517 516 0
-518 30 517 0
518 -30 0
518 -517 0
519 -32 -518 0
-519 32 0
-519 518 0
-520 34 504 519 0
520 -34 0
520 -504 0
520 -519 0
521 -48 -520 0
-521 48 0
-521 520 0
522 -182 -497 0
-522 182 0
-522 497 0
-523 3 521 522 0
523 -3 0
523 -521 0
523 -522 0
524 -2 -523 0
-524 2 0
-524 523 0
-525 5 478 498 524 0
525 -5 0
525 -478 0
525 -498 0
525 -524 0
526 -9 -525 0
-526 9 0
-526 525 0
-527 11 439 464 526 0
527 -11 0
527 -439 0
527 -464 0
527 -526 0
528 -13 -527 0
-528 13 0
-528 527 0
-529 15 528 0
529 -15 0
529 -528 0
530 -95 -529 0
-530 95 0
-530 529 0
-531 97 530 0
531 -97 0
531 -530 0
532 -533 -531 0
-532 533 0
-532 531 0
534 -163 -29 0
-534 163 0
-534 29 0
-535 168 534 164 0
535 -168 0
535 -534 0
535 -164 0
536 -177 -535 0
-536 177 0
-536 535 0
-537 26 197 422 0
537 -26 0
537 -197 0
537 -422 0
538 -28 -537 0
-538 28 0
-538 537 0
-539 30 186 538 0
539 -30 0
539 -186 0
539 -538 0
540 -32 -539 0
-540 32 0
-540 539 0
-541 34 536 540 0
541 -34 0
541 -536 0
541 -540 0
542 -36 -541 0
-542 36 0
-542 541 0
543 -38 -541 0
-543 38 0
-543 541 0
544 -163 -77 0
-544 163 0
-544 77 0
-545 168 544 164 0
545 -168 0
545 -544 0
545 -164 0
546 -211 -545 0
-546 211 0
-546 545 0
-547 30 67 43 0
547 -30 0
547 -67 0
547 -43 0
548 -163 -547 0
-548 163 0
-548 547 0
-549 168 548 164 0
549 -168 0
549 -548 0
549 -164 0
550 -190 -549 0
-550 190 0
-550 549 0
551 -163 -44 0
-551 163 0
-551 44 0
-552 168 551 164 0
552 -168 0
552 -551 0
552 -164 0
553 -180 -552 0
-553 180 0
-553 552 0
554 -177 -552 0
-554 177 0
-554 552 0
-555 26 224 422 0
555 -26 0
555 -224 0
555 -422 0
556 -28 -555 0
-556 28 0
-556 555 0
-557 30 556 0
557 -30 0
557 -556 0
558 -32 -557 0
-558 32 0
-558 557 0
-559 34 554 558 0
559 -34 0
559 -554 0
559 -558 0
560 -48 -559 0
-560 48 0
-560 559 0
561 -182 -552 0
-561 182 0
-561 552 0
-562 3 560 561 0
562 -3 0
562 -560 0
562 -561 0
563 -2 -562 0
-563 2 0
-563 562 0
-564 5 553 563 0
564 -5 0
564 -553 0
564 -563 0
565 -9 -564 0
-565 9 0
-565 564 0
-566 11 550 565 0
566 -11 0
566 -550 0
566 -565 0
567 -55 -566 0
-567 55 0
-567 566 0
-568 60 543 546 567 56 0
568 -60 0
568 -543 0
568 -546 0
568 -567 0
568 -56 0
569 -62 -568 0
-569 62 0
-569 568 0
-570 26 253 422 0
570 -26 0
570 -253 0
570 -422 0
571 -28 -570 0
-571 28 0
-571 570 0
-572 30 246 571 0
572 -30 0
572 -246 0
572 -571 0
573 -79 -572 0
-573 79 0
-573 572 0
574 -190 -432 0
-574 190 0
-574 432 0
575 -180 -466 0
-575 180 0
-575 466 0
576 -48 -470 0
-576 48 0
-576 470 0
577 -182 -466 0
-577 182 0
-577 466 0
-578 3 576 577 0
578 -3 0
578 -576 0
578 -577 0
579 -2 -578 0
-579 2 0
-579 578 0
-580 5 575 579 0
580 -5 0
580 -575 0
580 -579 0
581 -9 -580 0
-581 9 0
-581 580 0
-582 11 574 581 0
582 -11 0
582 -574 0
582 -581 0
583 -13 -582 0
-583 13 0
-583 582 0
-584 15 583 0
584 -15 0
584 -583 0
585 -95 -584 0
-585 95 0
-585 584 0
-586 97 585 0
586 -97 0
586 -585 0
587 -99 -586 0
-587 99 0
-587 586 0
588 -101 -566 0
-588 101 0
-588 566 0
589 -103 -584 0
-589 103 0
-589 584 0
-590 105 588 589 0
590 -105 0
590 -588 0
590 -589 0
591 -107 -590 0
-591 107 0
-591 590 0
-592 109 542 569 573 587 591 0
592 -109 0
592 -542 0
592 -569 0
592 -573 0
592 -587 0
592 -591 0
593 -594 -592 0
-593 594 0
-593 592 0
-595 30 6 43 0
595 -30 0
595 -6 0
595 -43 0
596 -163 -595 0
-596 163 0
-596 595 0
-597 168 596 164 0
597 -168 0
597 -596 0
597 -164 0
598 -177 -597 0
-598 177 0
-598 597 0
-599 30 186 556 0
599 -30 0
599 -186 0
599 -556 0
600 -32 -599 0
-600 32 0
-600 599 0
-601 34 598 600 0
601 -34 0
601 -598 0
601 -600 0
602 -36 -601 0
-602 36 0
-602 601 0
603 -38 -601 0
-603 38 0
-603 601 0
604 -211 -549 0
-604 211 0
-604 549 0
-605 60 603 604 56 0
605 -60 0
605 -603 0
605 -604 0
605 -56 0
606 -62 -605 0
-606 62 0
-606 605 0
-607 30 246 556 0
607 -30 0
607 -246 0
607 -556 0
608 -79 -607 0
-608 79 0
-608 607 0
609 -95 -15 0
-609 95 0
-609 15 0
-610 97 609 0
610 -97 0
610 -609 0
611 -99 -610 0
-611 99 0
-611 610 0
612 -103 -15 0
-612 103 0
-612 15 0
-613 105 612 0
613 -105 0
613 -612 0
614 -107 -613 0
-614 107 0
-614 613 0
-615 109 602 606 608 611 614 0
615 -109 0
615 -602 0
615 -606 0
615 -608 0
615 -611 0
615 -614 0
616 -141 -615 0
-616 141 0
-616 615 0
617 -32 -595 0
-617 32 0
-617 595 0
-618 34 617 0
618 -34 0
618 -617 0
619 -36 -618 0
-619 36 0
-619 618 0
620 -38 -618 0
-620 38 0
-620 618 0
-621 60 620 56 0
621 -60 0
621 -620 0
621 -56 0
622 -62 -621 0
-622 62 0
-622 621 0
623 -79 -547 0
-623 79 0
-623 547 0
-624 109 619 622 623 611 614 0
624 -109 0
624 -619 0
624 -622 0
624 -623 0
624 -611 0
624 -614 0
625 -111 -624 0
-625 111 0
-625 624 0
-626 109 112 129 611 614 0
626 -109 0
626 -112 0
626 -129 0
626 -611 0
626 -614 0
627 -135 -626 0
-627 135 0
-627 626 0
-628 19 627 39 0
628 -19 0
628 -627 0
628 -39 0
629 -21 -628 0
-629 21 0
-629 628 0
630 -156 -626 0
-630 156 0
-630 626 0
-631 24 630 0
631 -24 0
631 -630 0
632 -23 -631 0
-632 23 0
-632 631 0
-633 26 629 632 0
633 -26 0
633 -629 0
633 -632 0
634 -28 -633 0
-634 28 0
-634 633 0
-635 30 126 634 0
635 -30 0
635 -126 0
635 -634 0
636 -163 -635 0
-636 163 0
-636 635 0
-637 168 625 636 164 0
637 -168 0
637 -625 0
637 -636 0
637 -164 0
638 -190 -637 0
-638 190 0
-638 637 0
639 -36 -559 0
-639 36 0
-639 559 0
640 -38 -559 0
-640 38 0
-640 559 0
641 -211 -552 0
-641 211 0
-641 552 0
-642 60 640 641 56 0
642 -60 0
642 -640 0
642 -641 0
642 -56 0
643 -62 -642 0
-643 62 0
-643 642 0
644 -79 -557 0
-644 79 0
-644 557 0
-645 109 639 643 644 611 614 0
645 -109 0
645 -639 0
645 -643 0
645 -644 0
645 -611 0
645 -614 0
646 -124 -645 0
-646 124 0
-646 645 0
647 -36 -46 0
-647 36 0
-647 46 0
648 -38 -46 0
-648 38 0
-648 46 0
-649 60 648 56 0
649 -60 0
649 -648 0
649 -56 0
650 -62 -649 0
-650 62 0
-650 649 0
651 -79 -44 0
-651 79 0
-651 44 0
-652 109 647 650 651 364 368 0
652 -109 0
652 -647 0
652 -650 0
652 -651 0
652 -364 0
652 -368 0
653 -111 -652 0
-653 111 0
-653 652 0
-654 109 112 143 364 368 0
654 -109 0
654 -112 0
654 -143 0
654 -364 0
654 -368 0
655 -135 -654 0
-655 135 0
-655 654 0
-656 19 655 39 0
656 -19 0
656 -655 0
656 -39 0
657 -21 -656 0
-657 21 0
-657 656 0
658 -156 -654 0
-658 156 0
-658 654 0
-659 24 658 0
659 -24 0
659 -658 0
660 -23 -659 0
-660 23 0
-660 659 0
-661 26 657 660 0
661 -26 0
661 -657 0
661 -660 0
662 -28 -661 0
-662 28 0
-662 661 0
-663 30 662 0
663 -30 0
663 -662 0
664 -163 -663 0
-664 163 0
-664 663 0
-665 168 653 664 164 0
665 -168 0
665 -653 0
665 -664 0
665 -164 0
666 -180 -665 0
-666 180 0
-666 665 0
-667 109 500 651 364 368 0
667 -109 0
667 -500 0
667 -651 0
667 -364 0
667 -368 0
668 -111 -667 0
-668 111 0
-668 667 0
-669 168 668 664 164 0
669 -168 0
669 -668 0
669 -664 0
669 -164 0
670 -177 -669 0
-670 177 0
-670 669 0
-671 109 339 388 611 614 0
671 -109 0
671 -339 0
671 -388 0
671 -611 0
671 -614 0
672 -135 -671 0
-672 135 0
-672 671 0
673 -111 -654 0
-673 111 0
-673 654 0
-674 168 673 164 0
674 -168 0
674 -673 0
674 -164 0
675 -188 -674 0
-675 188 0
-675 674 0
-676 19 672 675 39 0
676 -19 0
676 -672 0
676 -675 0
676 -39 0
677 -21 -676 0
-677 21 0
-677 676 0
678 -156 -671 0
-678 156 0
-678 671 0
679 -338 -674 0
-679 338 0
-679 674 0
-680 24 678 679 0
680 -24 0
680 -678 0
680 -679 0
681 -23 -680 0
-681 23 0
-681 680 0
-682 26 677 681 0
682 -26 0
682 -677 0
682 -681 0
683 -28 -682 0
-683 28 0
-683 682 0
-684 30 683 0
684 -30 0
684 -683 0
685 -32 -684 0
-685 32 0
-685 684 0
-686 34 670 685 0
686 -34 0
686 -670 0
686 -685 0
687 -48 -686 0
-687 48 0
-687 686 0
688 -182 -665 0
-688 182 0
-688 665 0
-689 3 687 688 0
689 -3 0
689 -687 0
689 -688 0
690 -2 -689 0
-690 2 0
-690 689 0
-691 5 646 666 690 0
691 -5 0
691 -646 0
691 -666 0
691 -690 0
692 -9 -691 0
-692 9 0
-692 691 0
-693 11 616 638 692 0
693 -11 0
693 -616 0
693 -638 0
693 -692 0
694 -695 -693 0
-694 695 0
-694 693 0
696 -697 -166 0
-696 697 0
-696 166 0
698 -9 -5 0
-698 9 0
-698 5 0
-699 11 698 0
699 -11 0
699 -698 0
700 -55 -699 0
-700 55 0
-700 699 0
-701 60 700 56 0
701 -60 0
701 -700 0
701 -56 0
702 -62 -701 0
-702 62 0
-702 701 0
703 -7 -5 0
-703 7 0
-703 5 0
704 -13 -699 0
-704 13 0
-704 699 0
-705 15 704 0
705 -15 0
705 -704 0
706 -17 -705 0
-706 17 0
-706 705 0
-707 19 706 0
707 -19 0
707 -706 0
708 -21 -707 0
-708 21 0
-708 707 0
-709 26 708 22 0
709 -26 0
709 -708 0
709 -22 0
710 -28 -709 0
-710 28 0
-710 709 0
-711 30 703 710 0
711 -30 0
711 -703 0
711 -710 0
712 -79 -711 0
-712 79 0
-712 711 0
713 -95 -705 0
-713 95 0
-713 705 0
-714 97 713 0
714 -97 0
714 -713 0
715 -99 -714 0
-715 99 0
-715 714 0
716 -101 -699 0
-716 101 0
-716 699 0
717 -103 -705 0
-717 103 0
-717 705 0
-718 105 716 717 0
718 -105 0
718 -716 0
718 -717 0
719 -107 -718 0
-719 107 0
-719 718 0
-720 109 702 712 715 719 0
720 -109 0
720 -702 0
720 -712 0
720 -715 0
720 -719 0
721 -111 -720 0
-721 111 0
-721 720 0
722 -124 -369 0
-722 124 0
-722 369 0
-723 5 722 0
723 -5 0
723 -722 0
724 -7 -723 0
-724 7 0
-724 723 0
-725 109 112 702 715 719 0
725 -109 0
725 -112 0
725 -702 0
725 -715 0
725 -719 0
726 -135 -725 0
-726 135 0
-726 725 0
727 -141 -145 0
-727 141 0
-727 145 0
-728 5 146 0
728 -5 0
728 -146 0
729 -9 -728 0
-729 9 0
-729 728 0
-730 11 727 729 0
730 -11 0
730 -727 0
730 -729 0
731 -13 -730 0
-731 13 0
-731 730 0
-732 15 731 0
732 -15 0
732 -731 0
733 -17 -732 0
-733 17 0
-733 732 0
-734 19 726 733 0
734 -19 0
734 -726 0
734 -733 0
735 -21 -734 0
-735 21 0
-735 734 0
736 -156 -725 0
-736 156 0
-736 725 0
-737 24 736 0
737 -24 0
737 -736 0
738 -23 -737 0
-738 23 0
-738 737 0
-739 26 735 738 0
739 -26 0
739 -735 0
739 -738 0
740 -28 -739 0
-740 28 0
-740 739 0
-741 30 724 740 0
741 -30 0
741 -724 0
741 -740 0
742 -163 -741 0
-742 163 0
-742 741 0
-743 168 721 742 164 0
743 -168 0
743 -721 0
743 -742 0
743 -164 0
744 -177 -743 0
-744 177 0
-744 743 0
-745 11 189 0
745 -11 0
745 -189 0
746 -55 -745 0
-746 55 0
-746 745 0
-747 60 340 341 746 56 0
747 -60 0
747 -340 0
747 -341 0
747 -746 0
747 -56 0
748 -62 -747 0
-748 62 0
-748 747 0
749 -13 -745 0
-749 13 0
-749 745 0
-750 15 749 0
750 -15 0
750 -749 0
751 -95 -750 0
-751 95 0
-751 750 0
-752 97 751 0
752 -97 0
752 -751 0
753 -99 -752 0
-753 99 0
-753 752 0
754 -101 -745 0
-754 101 0
-754 745 0
755 -103 -750 0
-755 103 0
-755 750 0
-756 105 754 755 0
756 -105 0
756 -754 0
756 -755 0
757 -107 -756 0
-757 107 0
-757 756 0
-758 109 339 748 753 757 0
758 -109 0
758 -339 0
758 -748 0
758 -753 0
758 -757 0
759 -124 -758 0
-759 124 0
-759 758 0
760 -180 -371 0
-760 180 0
-760 371 0
-761 5 759 760 0
761 -5 0
761 -759 0
761 -760 0
762 -7 -761 0
-762 7 0
-762 761 0
-763 5 179 0
763 -5 0
763 -179 0
764 -9 -763 0
-764 9 0
-764 763 0
-765 11 189 764 0
765 -11 0
765 -189 0
765 -764 0
766 -55 -765 0
-766 55 0
-766 765 0
-767 60 340 341 766 56 0
767 -60 0
767 -340 0
767 -341 0
767 -766 0
767 -56 0
768 -62 -767 0
-768 62 0
-768 767 0
769 -13 -765 0
-769 13 0
-769 765 0
-770 15 769 0
770 -15 0
770 -769 0
771 -95 -770 0
-771 95 0
-771 770 0
-772 97 771 0
772 -97 0
772 -771 0
773 -99 -772 0
-773 99 0
-773 772 0
774 -101 -765 0
-774 101 0
-774 765 0
775 -103 -770 0
-775 103 0
-775 770 0
-776 105 774 775 0
776 -105 0
776 -774 0
776 -775 0
777 -107 -776 0
-777 107 0
-777 776 0
-778 109 339 768 773 777 0
778 -109 0
778 -339 0
778 -768 0
778 -773 0
778 -777 0
779 -135 -778 0
-779 135 0
-779 778 0
780 -111 -725 0
-780 111 0
-780 725 0
-781 168 780 164 0
781 -168 0
781 -780 0
781 -164 0
782 -188 -781 0
-782 188 0
-782 781 0
783 -141 -389 0
-783 141 0
-783 389 0
784 -190 -392 0
-784 190 0
-784 392 0
-785 5 390 393 0
785 -5 0
785 -390 0
785 -393 0
786 -9 -785 0
-786 9 0
-786 785 0
-787 11 783 784 786 0
787 -11 0
787 -783 0
787 -784 0
787 -786 0
788 -13 -787 0
-788 13 0
-788 787 0
-789 15 788 0
789 -15 0
789 -788 0
790 -17 -789 0
-790 17 0
-790 789 0
-791 19 779 782 790 0
791 -19 0
791 -779 0
791 -782 0
791 -790 0
792 -21 -791 0
-792 21 0
-792 791 0
793 -156 -778 0
-793 156 0
-793 778 0
794 -338 -781 0
-794 338 0
-794 781 0
-795 24 793 794 0
795 -24 0
795 -793 0
795 -794 0
796 -23 -795 0
-796 23 0
-796 795 0
-797 26 792 796 0
797 -26 0
797 -792 0
797 -796 0
798 -28 -797 0
-798 28 0
-798 797 0
-799 30 762 798 0
799 -30 0
799 -762 0
799 -798 0
800 -32 -799 0
-800 32 0
-800 799 0
-801 34 744 800 0
801 -34 0
801 -744 0
801 -800 0
802 -48 -801 0
-802 48 0
-802 801 0
803 -32 -711 0
-803 32 0
-803 711 0
-804 34 803 0
804 -34 0
804 -803 0
805 -36 -804 0
-805 36 0
-805 804 0
806 -38 -804 0
-806 38 0
-806 804 0
-807 60 806 700 56 0
807 -60 0
807 -806 0
807 -700 0
807 -56 0
808 -62 -807 0
-808 62 0
-808 807 0
-809 109 805 808 712 715 719 0
809 -109 0
809 -805 0
809 -808 0
809 -712 0
809 -715 0
809 -719 0
810 -111 -809 0
-810 111 0
-810 809 0
-811 60 113 700 56 0
811 -60 0
811 -113 0
811 -700 0
811 -56 0
812 -62 -811 0
-812 62 0
-812 811 0
-813 109 112 812 715 719 0
813 -109 0
813 -112 0
813 -812 0
813 -715 0
813 -719 0
814 -135 -813 0
-814 135 0
-814 813 0
-815 19 814 733 0
815 -19 0
815 -814 0
815 -733 0
816 -21 -815 0
-816 21 0
-816 815 0
817 -156 -813 0
-817 156 0
-817 813 0
-818 24 817 0
818 -24 0
818 -817 0
819 -23 -818 0
-819 23 0
-819 818 0
-820 26 816 819 0
820 -26 0
820 -816 0
820 -819 0
821 -28 -820 0
-821 28 0
-821 820 0
-822 30 724 821 0
822 -30 0
822 -724 0
822 -821 0
823 -163 -822 0
-823 163 0
-823 822 0
-824 168 810 823 164 0
824 -168 0
824 -810 0
824 -823 0
824 -164 0
825 -182 -824 0
-825 182 0
-825 824 0
-826 3 802 825 0
826 -3 0
826 -802 0
826 -825 0
827 -828 -826 0
-827 828 0
-827 826 0
-829 830 593 694 696 827 0
829 -830 0
829 -593 0
829 -694 0
829 -696 0
829 -827 0
831 -832 -829 0
-831 832 0
-831 829 0
-833 30 27 0
833 -30 0
833 -27 0
834 -163 -833 0
-834 163 0
-834 833 0
-835 168 834 164 0
835 -168 0
835 -834 0
835 -164 0
836 -177 -835 0
-836 177 0
-836 835 0
-837 30 538 0
837 -30 0
837 -538 0
838 -32 -837 0
-838 32 0
-838 837 0
-839 34 836 838 0
839 -34 0
839 -836 0
839 -838 0
840 -36 -839 0
-840 36 0
-840 839 0
841 -38 -839 0
-841 38 0
-841 839 0
-842 30 76 0
842 -30 0
842 -76 0
843 -163 -842 0
-843 163 0
-843 842 0
-844 168 843 164 0
844 -168 0
844 -843 0
844 -164 0
845 -211 -844 0
-845 211 0
-845 844 0
846 -190 -552 0
-846 190 0
-846 552 0
-847 11 846 0
847 -11 0
847 -846 0
848 -55 -847 0
-848 55 0
-848 847 0
-849 60 841 845 848 56 0
849 -60 0
849 -841 0
849 -845 0
849 -848 0
849 -56 0
850 -62 -849 0
-850 62 0
-850 849 0
-851 30 571 0
851 -30 0
851 -571 0
852 -79 -851 0
-852 79 0
-852 851 0
853 -190 -466 0
-853 190 0
-853 466 0
-854 11 853 0
854 -11 0
854 -853 0
855 -13 -854 0
-855 13 0
-855 854 0
-856 15 855 0
856 -15 0
856 -855 0
857 -95 -856 0
-857 95 0
-857 856 0
-858 97 857 0
858 -97 0
858 -857 0
859 -99 -858 0
-859 99 0
-859 858 0
860 -101 -847 0
-860 101 0
-860 847 0
861 -103 -856 0
-861 103 0
-861 856 0
-862 105 860 861 0
862 -105 0
862 -860 0
862 -861 0
863 -107 -862 0
-863 107 0
-863 862 0
-864 109 840 850 852 859 863 0
864 -109 0
864 -840 0
864 -850 0
864 -852 0
864 -859 0
864 -863 0
865 -124 -864 0
-865 124 0
-865 864 0
866 -32 -833 0
-866 32 0
-866 833 0
-867 34 866 0
867 -34 0
867 -866 0
868 -36 -867 0
-868 36 0
-868 867 0
869 -38 -867 0
-869 38 0
-869 867 0
-870 60 869 357 56 0
870 -60 0
870 -869 0
870 -357 0
870 -56 0
871 -62 -870 0
-871 62 0
-871 870 0
872 -79 -842 0
-872 79 0
-872 842 0
-873 109 868 871 872 364 368 0
873 -109 0
873 -868 0
873 -871 0
873 -872 0
873 -364 0
873 -368 0
874 -111 -873 0
-874 111 0
-874 873 0
-875 11 140 0
875 -11 0
875 -140 0
876 -13 -875 0
-876 13 0
-876 875 0
-877 15 876 0
877 -15 0
877 -876 0
878 -17 -877 0
-878 17 0
-878 877 0
-879 19 134 878 0
879 -19 0
879 -134 0
879 -878 0
880 -21 -879 0
-880 21 0
-880 879 0
-881 26 880 158 0
881 -26 0
881 -880 0
881 -158 0
882 -28 -881 0
-882 28 0
-882 881 0
-883 30 882 0
883 -30 0
883 -882 0
884 -163 -883 0
-884 163 0
-884 883 0
-885 168 874 884 164 0
885 -168 0
885 -874 0
885 -884 0
885 -164 0
886 -180 -885 0
-886 180 0
-886 885 0
-887 60 357 56 0
887 -60 0
887 -357 0
887 -56 0
888 -62 -887 0
-888 62 0
-888 887 0
889 -17 -361 0
-889 17 0
-889 361 0
-890 19 889 0
890 -19 0
890 -889 0
891 -21 -890 0
-891 21 0
-891 890 0
-892 26 891 22 0
892 -26 0
892 -891 0
892 -22 0
893 -28 -892 0
-893 28 0
-893 892 0
-894 30 893 0
894 -30 0
894 -893 0
895 -79 -894 0
-895 79 0
-895 894 0
-896 109 888 895 364 368 0
896 -109 0
896 -888 0
896 -895 0
896 -364 0
896 -368 0
897 -111 -896 0
-897 111 0
-897 896 0
898 -135 -369 0
-898 135 0
-898 369 0
-899 11 727 0
899 -11 0
899 -727 0
900 -13 -899 0
-900 13 0
-900 899 0
-901 15 900 0
901 -15 0
901 -900 0
902 -17 -901 0
-902 17 0
-902 901 0
-903 19 898 902 0
903 -19 0
903 -898 0
903 -902 0
904 -21 -903 0
-904 21 0
-904 903 0
905 -156 -369 0
-905 156 0
-905 369 0
-906 24 905 0
906 -24 0
906 -905 0
907 -23 -906 0
-907 23 0
-907 906 0
-908 26 904 907 0
908 -26 0
908 -904 0
908 -907 0
909 -28 -908 0
-909 28 0
-909 908 0
-910 30 909 0
910 -30 0
910 -909 0
911 -163 -910 0
-911 163 0
-911 910 0
-912 168 897 911 164 0
912 -168 0
912 -897 0
912 -911 0
912 -164 0
913 -177 -912 0
-913 177 0
-913 912 0
914 -135 -758 0
-914 135 0
-914 758 0
915 -188 -371 0
-915 188 0
-915 371 0
-916 11 783 784 0
916 -11 0
916 -783 0
916 -784 0
917 -13 -916 0
-917 13 0
-917 916 0
-918 15 917 0
918 -15 0
918 -917 0
919 -17 -918 0
-919 17 0
-919 918 0
-920 19 914 915 919 0
920 -19 0
920 -914 0
920 -915 0
920 -919 0
921 -21 -920 0
-921 21 0
-921 920 0
922 -156 -758 0
-922 156 0
-922 758 0
923 -338 -371 0
-923 338 0
-923 371 0
-924 24 922 923 0
924 -24 0
924 -922 0
924 -923 0
925 -23 -924 0
-925 23 0
-925 924 0
-926 26 921 925 0
926 -26 0
926 -921 0
926 -925 0
927 -28 -926 0
-927 28 0
-927 926 0
-928 30 927 0
928 -30 0
928 -927 0
929 -32 -928 0
-929 32 0
-929 928 0
-930 34 913 929 0
930 -34 0
930 -913 0
930 -929 0
931 -48 -930 0
-931 48 0
-931 930 0
932 -32 -894 0
-932 32 0
-932 894 0
-933 34 932 0
933 -34 0
933 -932 0
934 -36 -933 0
-934 36 0
-934 933 0
935 -38 -933 0
-935 38 0
-935 933 0
-936 60 935 357 56 0
936 -60 0
936 -935 0
936 -357 0
936 -56 0
937 -62 -936 0
-937 62 0
-937 936 0
-938 109 934 937 895 364 368 0
938 -109 0
938 -934 0
938 -937 0
938 -895 0
938 -364 0
938 -368 0
939 -111 -938 0
-939 111 0
-939 938 0
-940 168 939 911 164 0
940 -168 0
940 -939 0
940 -911 0
940 -164 0
941 -182 -940 0
-941 182 0
-941 940 0
-942 3 931 941 0
942 -3 0
942 -931 0
942 -941 0
943 -2 -942 0
-943 2 0
-943 942 0
-944 5 865 886 943 0
944 -5 0
944 -865 0
944 -886 0
944 -943 0
945 -946 -944 0
-945 946 0
-945 944 0
-947 60 543 546 567 0
947 -60 0
947 -543 0
947 -546 0
947 -567 0
948 -62 -947 0
-948 62 0
-948 947 0
-949 109 542 948 573 587 591 0
949 -109 0
949 -542 0
949 -948 0
949 -573 0
949 -587 0
949 -591 0
950 -951 -949 0
-950 951 0
-950 949 0
-952 58 950 0
952 -58 0
952 -950 0
953 -954 -952 0
-953 954 0
-953 952 0
-955 956 169 414 532 831 945 953 0
955 -956 0
955 -169 0
955 -414 0
955 -532 0
955 -831 0
955 -945 0
955 -953 0
957 -958 -955 0
-957 958 0
-957 955 0
959 -170 -355 0
-959 170 0
-959 355 0
960 -156 -352 0
-960 156 0
-960 352 0
961 -338 -355 0
-961 338 0
-961 355 0
-962 24 960 961 0
962 -24 0
962 -960 0
962 -961 0
963 -415 -962 0
-963 415 0
-963 962 0
964 -141 -505 0
-964 141 0
-964 505 0
965 -111 -449 0
-965 111 0
-965 449 0
-966 168 965 164 0
966 -168 0
966 -965 0
966 -164 0
967 -190 -966 0
-967 190 0
-967 966 0
968 -124 -505 0
-968 124 0
-968 505 0
969 -111 -477 0
-969 111 0
-969 477 0
-970 168 969 164 0
970 -168 0
970 -969 0
970 -164 0
971 -180 -970 0
-971 180 0
-971 970 0
972 -177 -508 0
-972 177 0
-972 508 0
-973 34 972 0
973 -34 0
973 -972 0
974 -48 -973 0
-974 48 0
-974 973 0
975 -182 -970 0
-975 182 0
-975 970 0
-976 3 974 975 0
976 -3 0
976 -974 0
976 -975 0
977 -2 -976 0
-977 2 0
-977 976 0
-978 5 968 971 977 0
978 -5 0
978 -968 0
978 -971 0
978 -977 0
979 -9 -978 0
-979 9 0
-979 978 0
-980 11 964 967 979 0
980 -11 0
980 -964 0
980 -967 0
980 -979 0
981 -13 -980 0
-981 13 0
-981 980 0
-982 15 981 0
982 -15 0
982 -981 0
983 -95 -982 0
-983 95 0
-983 982 0
-984 97 983 0
984 -97 0
984 -983 0
985 -533 -984 0
-985 533 0
-985 984 0
986 -594 -352 0
-986 594 0
-986 352 0
987 -141 -671 0
-987 141 0
-987 671 0
988 -111 -626 0
-988 111 0
-988 626 0
-989 168 988 164 0
989 -168 0
989 -988 0
989 -164 0
990 -190 -989 0
-990 190 0
-990 989 0
991 -124 -671 0
-991 124 0
-991 671 0
992 -111 -645 0
-992 111 0
-992 645 0
-993 168 992 164 0
993 -168 0
993 -992 0
993 -164 0
994 -180 -993 0
-994 180 0
-994 993 0
995 -177 -674 0
-995 177 0
-995 674 0
-996 34 995 0
996 -34 0
996 -995 0
997 -48 -996 0
-997 48 0
-997 996 0
998 -182 -993 0
-998 182 0
-998 993 0
-999 3 997 998 0
999 -3 0
999 -997 0
999 -998 0
1000 -2 -999 0
-1000 2 0
-1000 999 0
-1001 5 991 994 1000 0
1001 -5 0
1001 -991 0
1001 -994 0
1001 -1000 0
1002 -9 -1001 0
-1002 9 0
-1002 1001 0
-1003 11 987 990 1002 0
1003 -11 0
1003 -987 0
1003 -990 0
1003 -1002 0
1004 -695 -1003 0
-1004 695 0
-1004 1003 0
-1005 168 721 164 0
1005 -168 0
1005 -721 0
1005 -164 0
1006 -177 -1005 0
-1006 177 0
-1006 1005 0
-1007 34 1006 0
1007 -34 0
1007 -1006 0
1008 -48 -1007 0
-1008 48 0
-1008 1007 0
-1009 168 810 164 0
1009 -168 0
1009 -810 0
1009 -164 0
1010 -182 -1009 0
-1010 182 0
-1010 1009 0
-1011 3 1008 1010 0
1011 -3 0
1011 -1008 0
1011 -1010 0
1012 -828 -1011 0
-1012 828 0
-1012 1011 0
-1013 830 986 1004 696 1012 0
1013 -830 0
1013 -986 0
1013 -1004 0
1013 -696 0
1013 -1012 0
1014 -832 -1013 0
-1014 832 0
-1014 1013 0
1015 -946 -378 0
-1015 946 0
-1015 378 0
-1016 60 340 341 342 0
1016 -60 0
1016 -340 0
1016 -341 0
1016 -342 0
1017 -62 -1016 0
-1017 62 0
-1017 1016 0
-1018 109 339 1017 347 351 0
1018 -109 0
1018 -339 0
1018 -1017 0
1018 -347 0
1018 -351 0
1019 -951 -1018 0
-1019 951 0
-1019 1018 0
-1020 58 1019 0
1020 -58 0
1020 -1019 0
1021 -954 -1020 0
-1021 954 0
-1021 1020 0
-1022 956 959 963 985 1014 1015 1021 0
1022 -956 0
1022 -959 0
1022 -963 0
1022 -985 0
1022 -1014 0
1022 -1015 0
1022 -1021 0
1023 -1024 -1022 0
-1023 1024 0
-1023 1022 0
1025 -170 -178 0
-1025 170 0
-1025 178 0
1026 -415 -421 0
-1026 415 0
-1026 421 0
1027 -533 -752 0
-1027 533 0
-1027 752 0
1028 -695 -192 0
-1028 695 0
-1028 192 0
1029 -828 -183 0
-1029 828 0
-1029 183 0
-1030 830 1028 696 1029 0
1030 -830 0
1030 -1028 0
1030 -696 0
1030 -1029 0
1031 -832 -1030 0
-1031 832 0
-1031 1030 0
1032 -954 -58 0
-1032 954 0
-1032 58 0
-1033 956 1025 1026 1027 1031 1032 0
1033 -956 0
1033 -1025 0
1033 -1026 0
1033 -1027 0
1033 -1031 0
1033 -1032 0
1034 -1035 -1033 0
-1034 1035 0
-1034 1033 0
-1036 34 240 1034 0
1036 -34 0
1036 -240 0
1036 -1034 0
1037 -36 -1036 0
-1037 36 0
-1037 1036 0
1038 -695 -248 0
-1038 695 0
-1038 248 0
1039 -828 -243 0
-1039 828 0
-1039 243 0
-1040 830 986 1038 696 1039 0
1040 -830 0
1040 -986 0
1040 -1038 0
1040 -696 0
1040 -1039 0
1041 -832 -1040 0
-1041 832 0
-1041 1040 0
-1042 956 1025 1026 1027 1041 1032 0
1042 -956 0
1042 -1025 0
1042 -1026 0
1042 -1027 0
1042 -1041 0
1042 -1032 0
1043 -1044 -1042 0
-1043 1044 0
-1043 1042 0
1045 -38 -1036 0
-1045 38 0
-1045 1036 0
-1046 830 1038 696 1039 0
1046 -830 0
1046 -1038 0
1046 -696 0
1046 -1039 0
1047 -832 -1046 0
-1047 832 0
-1047 1046 0
-1048 956 1025 1026 1027 1047 1032 0
1048 -956 0
1048 -1025 0
1048 -1026 0
1048 -1027 0
1048 -1047 0
1048 -1032 0
1049 -1050 -1048 0
-1049 1050 0
-1049 1048 0
1051 -1052 -1048 0
-1051 1052 0
-1051 1048 0
-1053 11 189 1051 0
1053 -11 0
1053 -189 0
1053 -1051 0
1054 -55 -1053 0
-1054 55 0
-1054 1053 0
-1055 60 1045 341 1049 1054 56 0
1055 -60 0
1055 -1045 0
1055 -341 0
1055 -1049 0
1055 -1054 0
1055 -56 0
1056 -62 -1055 0
-1056 62 0
-1056 1055 0
-1057 956 1025 1026 1047 1032 0
1057 -956 0
1057 -1025 0
1057 -1026 0
1057 -1047 0
1057 -1032 0
1058 -1059 -1057 0
-1058 1059 0
-1058 1057 0
1060 -1052 -1057 0
-1060 1052 0
-1060 1057 0
-1061 11 189 1060 0
1061 -11 0
1061 -189 0
1061 -1060 0
1062 -13 -1061 0
-1062 13 0
-1062 1061 0
-1063 15 1058 1062 0
1063 -15 0
1063 -1058 0
1063 -1062 0
1064 -95 -1063 0
-1064 95 0
-1064 1063 0
-1065 97 1064 0
1065 -97 0
1065 -1064 0
1066 -99 -1065 0
-1066 99 0
-1066 1065 0
1067 -101 -1053 0
-1067 101 0
-1067 1053 0
1068 -533 -97 0
-1068 533 0
-1068 97 0
-1069 956 1025 1026 1068 1047 1032 0
1069 -956 0
1069 -1025 0
1069 -1026 0
1069 -1068 0
1069 -1047 0
1069 -1032 0
1070 -1059 -1069 0
-1070 1059 0
-1070 1069 0
1071 -1052 -1069 0
-1071 1052 0
-1071 1069 0
-1072 11 189 1071 0
1072 -11 0
1072 -189 0
1072 -1071 0
1073 -13 -1072 0
-1073 13 0
-1073 1072 0
-1074 15 1070 1073 0
1074 -15 0
1074 -1070 0
1074 -1073 0
1075 -103 -1074 0
-1075 103 0
-1075 1074 0
-1076 105 1067 1075 0
1076 -105 0
1076 -1067 0
1076 -1075 0
1077 -107 -1076 0
-1077 107 0
-1077 1076 0
-1078 109 1037 1043 1056 1066 1077 0
1078 -109 0
1078 -1037 0
1078 -1043 0
1078 -1056 0
1078 -1066 0
1078 -1077 0
1079 -124 -1078 0
-1079 124 0
-1079 1078 0
1080 -695 -10 0
-1080 695 0
-1080 10 0
-1081 830 1080 696 1029 0
1081 -830 0
1081 -1080 0
1081 -696 0
1081 -1029 0
1082 -832 -1081 0
-1082 832 0
-1082 1081 0
-1083 956 1025 1026 1027 1082 1032 0
1083 -956 0
1083 -1025 0
1083 -1026 0
1083 -1027 0
1083 -1082 0
1083 -1032 0
1084 -1035 -1083 0
-1084 1035 0
-1084 1083 0
-1085 34 1084 0
1085 -34 0
1085 -1084 0
1086 -36 -1085 0
-1086 36 0
-1086 1085 0
1087 -695 -53 0
-1087 695 0
-1087 53 0
-1088 830 1087 696 1039 0
1088 -830 0
1088 -1087 0
1088 -696 0
1088 -1039 0
1089 -832 -1088 0
-1089 832 0
-1089 1088 0
-1090 956 1025 1026 1027 1089 1032 0
1090 -956 0
1090 -1025 0
1090 -1026 0
1090 -1027 0
1090 -1089 0
1090 -1032 0
1091 -1044 -1090 0
-1091 1044 0
-1091 1090 0
1092 -38 -1085 0
-1092 38 0
-1092 1085 0
1093 -1050 -1090 0
-1093 1050 0
-1093 1090 0
1094 -1052 -1090 0
-1094 1052 0
-1094 1090 0
-1095 11 1094 0
1095 -11 0
1095 -1094 0
1096 -55 -1095 0
-1096 55 0
-1096 1095 0
-1097 60 1092 1093 1096 56 0
1097 -60 0
1097 -1092 0
1097 -1093 0
1097 -1096 0
1097 -56 0
1098 -62 -1097 0
-1098 62 0
-1098 1097 0
1099 -695 -69 0
-1099 695 0
-1099 69 0
-1100 830 1099 696 1039 0
1100 -830 0
1100 -1099 0
1100 -696 0
1100 -1039 0
1101 -832 -1100 0
-1101 832 0
-1101 1100 0
-1102 956 1025 1026 1101 1032 0
1102 -956 0
1102 -1025 0
1102 -1026 0
1102 -1101 0
1102 -1032 0
1103 -1059 -1102 0
-1103 1059 0
-1103 1102 0
1104 -1052 -1102 0
-1104 1052 0
-1104 1102 0
-1105 11 1104 0
1105 -11 0
1105 -1104 0
1106 -13 -1105 0
-1106 13 0
-1106 1105 0
-1107 15 1103 1106 0
1107 -15 0
1107 -1103 0
1107 -1106 0
1108 -95 -1107 0
-1108 95 0
-1108 1107 0
-1109 97 1108 0
1109 -97 0
1109 -1108 0
1110 -99 -1109 0
-1110 99 0
-1110 1109 0
1111 -101 -1095 0
-1111 101 0
-1111 1095 0
-1112 956 1025 1026 1068 1101 1032 0
1112 -956 0
1112 -1025 0
1112 -1026 0
1112 -1068 0
1112 -1101 0
1112 -1032 0
1113 -1059 -1112 0
-1113 1059 0
-1113 1112 0
1114 -1052 -1112 0
-1114 1052 0
-1114 1112 0
-1115 11 1114 0
1115 -11 0
1115 -1114 0
1116 -13 -1115 0
-1116 13 0
-1116 1115 0
-1117 15 1113 1116 0
1117 -15 0
1117 -1113 0
1117 -1116 0
1118 -103 -1117 0
-1118 103 0
-1118 1117 0
-1119 105 1111 1118 0
1119 -105 0
1119 -1111 0
1119 -1118 0
1120 -107 -1119 0
-1120 107 0
-1120 1119 0
-1121 109 1086 1091 1098 1110 1120 0
1121 -109 0
1121 -1086 0
1121 -1091 0
1121 -1098 0
1121 -1110 0
1121 -1120 0
1122 -111 -1121 0
-1122 111 0
-1122 1121 0
-1123 168 1122 164 0
1123 -168 0
1123 -1122 0
1123 -164 0
1124 -180 -1123 0
-1124 180 0
-1124 1123 0
1125 -695 -11 0
-1125 695 0
-1125 11 0
-1126 830 1125 696 1029 0
1126 -830 0
1126 -1125 0
1126 -696 0
1126 -1029 0
1127 -832 -1126 0
-1127 832 0
-1127 1126 0
-1128 956 1025 1026 1027 1127 1032 0
1128 -956 0
1128 -1025 0
1128 -1026 0
1128 -1027 0
1128 -1127 0
1128 -1032 0
1129 -1044 -1128 0
-1129 1044 0
-1129 1128 0
1130 -1050 -1128 0
-1130 1050 0
-1130 1128 0
1131 -1052 -1128 0
-1131 1052 0
-1131 1128 0
-1132 11 1131 0
1132 -11 0
1132 -1131 0
1133 -55 -1132 0
-1133 55 0
-1133 1132 0
-1134 60 1130 1133 56 0
1134 -60 0
1134 -1130 0
1134 -1133 0
1134 -56 0
1135 -62 -1134 0
-1135 62 0
-1135 1134 0
-1136 956 1025 1026 1127 1032 0
1136 -956 0
1136 -1025 0
1136 -1026 0
1136 -1127 0
1136 -1032 0
1137 -1059 -1136 0
-1137 1059 0
-1137 1136 0
1138 -1052 -1136 0
-1138 1052 0
-1138 1136 0
-1139 11 1138 0
1139 -11 0
1139 -1138 0
1140 -13 -1139 0
-1140 13 0
-1140 1139 0
-1141 15 1137 1140 0
1141 -15 0
1141 -1137 0
1141 -1140 0
1142 -95 -1141 0
-1142 95 0
-1142 1141 0
-1143 97 1142 0
1143 -97 0
1143 -1142 0
1144 -99 -1143 0
-1144 99 0
-1144 1143 0
1145 -101 -1132 0
-1145 101 0
-1145 1132 0
-1146 956 1025 1026 1068 1127 1032 0
1146 -956 0
1146 -1025 0
1146 -1026 0
1146 -1068 0
1146 -1127 0
1146 -1032 0
1147 -1059 -1146 0
-1147 1059 0
-1147 1146 0
1148 -1052 -1146 0
-1148 1052 0
-1148 1146 0
-1149 11 1148 0
1149 -11 0
1149 -1148 0
1150 -13 -1149 0
-1150 13 0
-1150 1149 0
-1151 15 1147 1150 0
1151 -15 0
1151 -1147 0
1151 -1150 0
1152 -103 -1151 0
-1152 103 0
-1152 1151 0
-1153 105 1145 1152 0
1153 -105 0
1153 -1145 0
1153 -1152 0
1154 -107 -1153 0
-1154 107 0
-1154 1153 0
-1155 109 1129 1135 1144 1154 0
1155 -109 0
1155 -1129 0
1155 -1135 0
1155 -1144 0
1155 -1154 0
1156 -111 -1155 0
-1156 111 0
-1156 1155 0
-1157 168 1156 164 0
1157 -168 0
1157 -1156 0
1157 -164 0
1158 -177 -1157 0
-1158 177 0
-1158 1157 0
1159 -170 -371 0
-1159 170 0
-1159 371 0
1160 -415 -924 0
-1160 415 0
-1160 924 0
1161 -190 -508 0
-1161 190 0
-1161 508 0
-1162 11 964 1161 0
1162 -11 0
1162 -964 0
1162 -1161 0
1163 -13 -1162 0
-1163 13 0
-1163 1162 0
-1164 15 1163 0
1164 -15 0
1164 -1163 0
1165 -95 -1164 0
-1165 95 0
-1165 1164 0
-1166 97 1165 0
1166 -97 0
1166 -1165 0
1167 -533 -1166 0
-1167 533 0
-1167 1166 0
1168 -594 -758 0
-1168 594 0
-1168 758 0
1169 -190 -674 0
-1169 190 0
-1169 674 0
-1170 11 987 1169 0
1170 -11 0
1170 -987 0
1170 -1169 0
1171 -695 -1170 0
-1171 695 0
-1171 1170 0
-1172 830 1168 1171 696 0
1172 -830 0
1172 -1168 0
1172 -1171 0
1172 -696 0
1173 -832 -1172 0
-1173 832 0
-1173 1172 0
-1174 60 340 341 746 0
1174 -60 0
1174 -340 0
1174 -341 0
1174 -746 0
1175 -62 -1174 0
-1175 62 0
-1175 1174 0
-1176 109 339 1175 753 757 0
1176 -109 0
1176 -339 0
1176 -1175 0
1176 -753 0
1176 -757 0
1177 -951 -1176 0
-1177 951 0
-1177 1176 0
-1178 58 1177 0
1178 -58 0
1178 -1177 0
1179 -954 -1178 0
-1179 954 0
-1179 1178 0
-1180 956 1159 1160 1167 1173 1179 0
1180 -956 0
1180 -1159 0
1180 -1160 0
1180 -1167 0
1180 -1173 0
1180 -1179 0
1181 -1035 -1180 0
-1181 1035 0
-1181 1180 0
-1182 34 1158 1181 0
1182 -34 0
1182 -1158 0
1182 -1181 0
1183 -48 -1182 0
-1183 48 0
-1183 1182 0
-1184 830 1125 696 0
1184 -830 0
1184 -1125 0
1184 -696 0
1185 -832 -1184 0
-1185 832 0
-1185 1184 0
-1186 956 1025 1026 1027 1185 1032 0
1186 -956 0
1186 -1025 0
1186 -1026 0
1186 -1027 0
1186 -1185 0
1186 -1032 0
1187 -1035 -1186 0
-1187 1035 0
-1187 1186 0
-1188 34 1187 0
1188 -34 0
1188 -1187 0
1189 -36 -1188 0
-1189 36 0
-1189 1188 0
1190 -1044 -1186 0
-1190 1044 0
-1190 1186 0
1191 -38 -1188 0
-1191 38 0
-1191 1188 0
1192 -1050 -1186 0
-1192 1050 0
-1192 1186 0
1193 -1052 -1186 0
-1193 1052 0
-1193 1186 0
-1194 11 1193 0
1194 -11 0
1194 -1193 0
1195 -55 -1194 0
-1195 55 0
-1195 1194 0
-1196 60 1191 1192 1195 56 0
1196 -60 0
1196 -1191 0
1196 -1192 0
1196 -1195 0
1196 -56 0
1197 -62 -1196 0
-1197 62 0
-1197 1196 0
-1198 956 1025 1026 1185 1032 0
1198 -956 0
1198 -1025 0
1198 -1026 0
1198 -1185 0
1198 -1032 0
1199 -1059 -1198 0
-1199 1059 0
-1199 1198 0
1200 -1052 -1198 0
-1200 1052 0
-1200 1198 0
-1201 11 1200 0
1201 -11 0
1201 -1200 0
1202 -13 -1201 0
-1202 13 0
-1202 1201 0
-1203 15 1199 1202 0
1203 -15 0
1203 -1199 0
1203 -1202 0
1204 -95 -1203 0
-1204 95 0
-1204 1203 0
-1205 97 1204 0
1205 -97 0
1205 -1204 0
1206 -99 -1205 0
-1206 99 0
-1206 1205 0
1207 -101 -1194 0
-1207 101 0
-1207 1194 0
-1208 956 1025 1026 1068 1185 1032 0
1208 -956 0
1208 -1025 0
1208 -1026 0
1208 -1068 0
1208 -1185 0
1208 -1032 0
1209 -1059 -1208 0
-1209 1059 0
-1209 1208 0
1210 -1052 -1208 0
-1210 1052 0
-1210 1208 0
-1211 11 1210 0
1211 -11 0
1211 -1210 0
1212 -13 -1211 0
-1212 13 0
-1212 1211 0
-1213 15 1209 1212 0
1213 -15 0
1213 -1209 0
1213 -1212 0
1214 -103 -1213 0
-1214 103 0
-1214 1213 0
-1215 105 1207 1214 0
1215 -105 0
1215 -1207 0
1215 -1214 0
1216 -107 -1215 0
-1216 107 0
-1216 1215 0
-1217 109 1189 1190 1197 1206 1216 0
1217 -109 0
1217 -1189 0
1217 -1190 0
1217 -1197 0
1217 -1206 0
1217 -1216 0
1218 -111 -1217 0
-1218 111 0
-1218 1217 0
-1219 168 1218 164 0
1219 -168 0
1219 -1218 0
1219 -164 0
1220 -182 -1219 0
-1220 182 0
-1220 1219 0
-1221 3 1183 1220 0
1221 -3 0
1221 -1183 0
1221 -1220 0
1222 -2 -1221 0
-1222 2 0
-1222 1221 0
-1223 5 1079 1124 1222 0
1223 -5 0
1223 -1079 0
1223 -1124 0
1223 -1222 0
1224 -7 -1223 0
-1224 7 0
-1224 1223 0
1225 -95 -194 0
-1225 95 0
-1225 194 0
-1226 97 1225 0
1226 -97 0
1226 -1225 0
1227 -533 -1226 0
-1227 533 0
-1227 1226 0
1228 -946 -185 0
-1228 946 0
-1228 185 0
-1229 956 1025 1026 1227 1031 1228 1032 0
1229 -956 0
1229 -1025 0
1229 -1026 0
1229 -1227 0
1229 -1031 0
1229 -1228 0
1229 -1032 0
1230 -1035 -1229 0
-1230 1035 0
-1230 1229 0
-1231 34 240 1230 0
1231 -34 0
1231 -240 0
1231 -1230 0
1232 -36 -1231 0
-1232 36 0
-1232 1231 0
1233 -533 -346 0
-1233 533 0
-1233 346 0
1234 -946 -245 0
-1234 946 0
-1234 245 0
-1235 956 1025 1026 1233 1041 1234 1032 0
1235 -956 0
1235 -1025 0
1235 -1026 0
1235 -1233 0
1235 -1041 0
1235 -1234 0
1235 -1032 0
1236 -1044 -1235 0
-1236 1044 0
-1236 1235 0
1237 -38 -1231 0
-1237 38 0
-1237 1231 0
-1238 956 1025 1026 1233 1047 1234 1032 0
1238 -956 0
1238 -1025 0
1238 -1026 0
1238 -1233 0
1238 -1047 0
1238 -1234 0
1238 -1032 0
1239 -1050 -1238 0
-1239 1050 0
-1239 1238 0
1240 -533 -610 0
-1240 533 0
-1240 610 0
-1241 956 1025 1026 1240 1047 1234 1032 0
1241 -956 0
1241 -1025 0
1241 -1026 0
1241 -1240 0
1241 -1047 0
1241 -1234 0
1241 -1032 0
1242 -1052 -1241 0
-1242 1052 0
-1242 1241 0
-1243 830 696 1029 0
1243 -830 0
1243 -696 0
1243 -1029 0
1244 -832 -1243 0
-1244 832 0
-1244 1243 0
-1245 956 1025 1026 1027 1244 1032 0
1245 -956 0
1245 -1025 0
1245 -1026 0
1245 -1027 0
1245 -1244 0
1245 -1032 0
1246 -1035 -1245 0
-1246 1035 0
-1246 1245 0
-1247 34 240 1246 0
1247 -34 0
1247 -240 0
1247 -1246 0
1248 -48 -1247 0
-1248 48 0
-1248 1247 0
-1249 3 1248 181 0
1249 -3 0
1249 -1248 0
1249 -181 0
1250 -2 -1249 0
-1250 2 0
-1250 1249 0
-1251 5 179 1250 0
1251 -5 0
1251 -179 0
1251 -1250 0
1252 -9 -1251 0
-1252 9 0
-1252 1251 0
-1253 11 189 1242 1252 0
1253 -11 0
1253 -189 0
1253 -1242 0
1253 -1252 0
1254 -55 -1253 0
-1254 55 0
-1254 1253 0
-1255 60 1237 341 1239 1254 56 0
1255 -60 0
1255 -1237 0
1255 -341 0
1255 -1239 0
1255 -1254 0
1255 -56 0
1256 -62 -1255 0
-1256 62 0
-1256 1255 0
-1257 956 1025 1026 1047 1234 1032 0
1257 -956 0
1257 -1025 0
1257 -1026 0
1257 -1047 0
1257 -1234 0
1257 -1032 0
1258 -1059 -1257 0
-1258 1059 0
-1258 1257 0
1259 -1052 -1257 0
-1259 1052 0
-1259 1257 0
-1260 956 1025 1026 1244 1032 0
1260 -956 0
1260 -1025 0
1260 -1026 0
1260 -1244 0
1260 -1032 0
1261 -1035 -1260 0
-1261 1035 0
-1261 1260 0
-1262 34 240 1261 0
1262 -34 0
1262 -240 0
1262 -1261 0
1263 -48 -1262 0
-1263 48 0
-1263 1262 0
-1264 3 1263 181 0
1264 -3 0
1264 -1263 0
1264 -181 0
1265 -2 -1264 0
-1265 2 0
-1265 1264 0
-1266 5 179 1265 0
1266 -5 0
1266 -179 0
1266 -1265 0
1267 -9 -1266 0
-1267 9 0
-1267 1266 0
-1268 11 189 1259 1267 0
1268 -11 0
1268 -189 0
1268 -1259 0
1268 -1267 0
1269 -13 -1268 0
-1269 13 0
-1269 1268 0
-1270 15 1258 1269 0
1270 -15 0
1270 -1258 0
1270 -1269 0
1271 -95 -1270 0
-1271 95 0
-1271 1270 0
-1272 97 1271 0
1272 -97 0
1272 -1271 0
1273 -99 -1272 0
-1273 99 0
-1273 1272 0
1274 -101 -1253 0
-1274 101 0
-1274 1253 0
1275 -1059 -1238 0
-1275 1059 0
-1275 1238 0
-1276 956 1025 1026 1068 1244 1032 0
1276 -956 0
1276 -1025 0
1276 -1026 0
1276 -1068 0
1276 -1244 0
1276 -1032 0
1277 -1035 -1276 0
-1277 1035 0
-1277 1276 0
-1278 34 240 1277 0
1278 -34 0
1278 -240 0
1278 -1277 0
1279 -48 -1278 0
-1279 48 0
-1279 1278 0
-1280 3 1279 181 0
1280 -3 0
1280 -1279 0
1280 -181 0
1281 -2 -1280 0
-1281 2 0
-1281 1280 0
-1282 5 179 1281 0
1282 -5 0
1282 -179 0
1282 -1281 0
1283 -9 -1282 0
-1283 9 0
-1283 1282 0
-1284 11 189 1242 1283 0
1284 -11 0
1284 -189 0
1284 -1242 0
1284 -1283 0
1285 -13 -1284 0
-1285 13 0
-1285 1284 0
-1286 15 1275 1285 0
1286 -15 0
1286 -1275 0
1286 -1285 0
1287 -103 -1286 0
-1287 103 0
-1287 1286 0
-1288 105 1274 1287 0
1288 -105 0
1288 -1274 0
1288 -1287 0
1289 -107 -1288 0
-1289 107 0
-1289 1288 0
-1290 109 1232 1236 1256 1273 1289 0
1290 -109 0
1290 -1232 0
1290 -1236 0
1290 -1256 0
1290 -1273 0
1290 -1289 0
1291 -135 -1290 0
-1291 135 0
-1291 1290 0
1292 -95 -14 0
-1292 95 0
-1292 14 0
-1293 97 1292 0
1293 -97 0
1293 -1292 0
1294 -533 -1293 0
-1294 533 0
-1294 1293 0
1295 -946 -4 0
-1295 946 0
-1295 4 0
-1296 956 1025 1026 1294 1082 1295 1032 0
1296 -956 0
1296 -1025 0
1296 -1026 0
1296 -1294 0
1296 -1082 0
1296 -1295 0
1296 -1032 0
1297 -1035 -1296 0
-1297 1035 0
-1297 1296 0
-1298 34 1297 0
1298 -34 0
1298 -1297 0
1299 -36 -1298 0
-1299 36 0
-1299 1298 0
1300 -533 -117 0
-1300 533 0
-1300 117 0
1301 -946 -66 0
-1301 946 0
-1301 66 0
-1302 956 1025 1026 1300 1101 1301 1032 0
1302 -956 0
1302 -1025 0
1302 -1026 0
1302 -1300 0
1302 -1101 0
1302 -1301 0
1302 -1032 0
1303 -1044 -1302 0
-1303 1044 0
-1303 1302 0
1304 -38 -1298 0
-1304 38 0
-1304 1298 0
1305 -1050 -1302 0
-1305 1050 0
-1305 1302 0
-1306 956 1025 1026 1240 1101 1301 1032 0
1306 -956 0
1306 -1025 0
1306 -1026 0
1306 -1240 0
1306 -1101 0
1306 -1301 0
1306 -1032 0
1307 -1052 -1306 0
-1307 1052 0
-1307 1306 0
1308 -1035 -1128 0
-1308 1035 0
-1308 1128 0
-1309 34 1308 0
1309 -34 0
1309 -1308 0
1310 -48 -1309 0
-1310 48 0
-1310 1309 0
-1311 3 1310 0
1311 -3 0
1311 -1310 0
1312 -2 -1311 0
-1312 2 0
-1312 1311 0
-1313 5 1312 0
1313 -5 0
1313 -1312 0
1314 -9 -1313 0
-1314 9 0
-1314 1313 0
-1315 11 1307 1314 0
1315 -11 0
1315 -1307 0
1315 -1314 0
1316 -55 -1315 0
-1316 55 0
-1316 1315 0
-1317 60 1304 1305 1316 56 0
1317 -60 0
1317 -1304 0
1317 -1305 0
1317 -1316 0
1317 -56 0
1318 -62 -1317 0
-1318 62 0
-1318 1317 0
-1319 956 1025 1026 1101 1301 1032 0
1319 -956 0
1319 -1025 0
1319 -1026 0
1319 -1101 0
1319 -1301 0
1319 -1032 0
1320 -1059 -1319 0
-1320 1059 0
-1320 1319 0
1321 -1052 -1319 0
-1321 1052 0
-1321 1319 0
-1322 3 1263 0
1322 -3 0
1322 -1263 0
1323 -2 -1322 0
-1323 2 0
-1323 1322 0
-1324 5 1323 0
1324 -5 0
1324 -1323 0
1325 -9 -1324 0
-1325 9 0
-1325 1324 0
-1326 11 1321 1325 0
1326 -11 0
1326 -1321 0
1326 -1325 0
1327 -13 -1326 0
-1327 13 0
-1327 1326 0
-1328 15 1320 1327 0
1328 -15 0
1328 -1320 0
1328 -1327 0
1329 -95 -1328 0
-1329 95 0
-1329 1328 0
-1330 97 1329 0
1330 -97 0
1330 -1329 0
1331 -99 -1330 0
-1331 99 0
-1331 1330 0
1332 -101 -1315 0
-1332 101 0
-1332 1315 0
1333 -1059 -1302 0
-1333 1059 0
-1333 1302 0
-1334 3 1279 0
1334 -3 0
1334 -1279 0
1335 -2 -1334 0
-1335 2 0
-1335 1334 0
-1336 5 1335 0
1336 -5 0
1336 -1335 0
1337 -9 -1336 0
-1337 9 0
-1337 1336 0
-1338 11 1307 1337 0
1338 -11 0
1338 -1307 0
1338 -1337 0
1339 -13 -1338 0
-1339 13 0
-1339 1338 0
-1340 15 1333 1339 0
1340 -15 0
1340 -1333 0
1340 -1339 0
1341 -103 -1340 0
-1341 103 0
-1341 1340 0
-1342 105 1332 1341 0
1342 -105 0
1342 -1332 0
1342 -1341 0
1343 -107 -1342 0
-1343 107 0
-1343 1342 0
-1344 109 1299 1303 1318 1331 1343 0
1344 -109 0
1344 -1299 0
1344 -1303 0
1344 -1318 0
1344 -1331 0
1344 -1343 0
1345 -111 -1344 0
-1345 111 0
-1345 1344 0
-1346 168 1345 164 0
1346 -168 0
1346 -1345 0
1346 -164 0
1347 -188 -1346 0
-1347 188 0
-1347 1346 0
1348 -695 -402 0
-1348 695 0
-1348 402 0
1349 -177 -781 0
-1349 177 0
-1349 781 0
-1350 34 1349 0
1350 -34 0
1350 -1349 0
1351 -48 -1350 0
-1351 48 0
-1351 1350 0
1352 -111 -813 0
-1352 111 0
-1352 813 0
-1353 168 1352 164 0
1353 -168 0
1353 -1352 0
1353 -164 0
1354 -182 -1353 0
-1354 182 0
-1354 1353 0
-1355 3 1351 1354 0
1355 -3 0
1355 -1351 0
1355 -1354 0
1356 -828 -1355 0
-1356 828 0
-1356 1355 0
-1357 830 986 1348 696 1356 0
1357 -830 0
1357 -986 0
1357 -1348 0
1357 -696 0
1357 -1356 0
1358 -832 -1357 0
-1358 832 0
-1358 1357 0
-1359 109 112 359 136 368 0
1359 -109 0
1359 -112 0
1359 -359 0
1359 -136 0
1359 -368 0
1360 -111 -1359 0
-1360 111 0
-1360 1359 0
-1361 168 1360 164 0
1361 -168 0
1361 -1360 0
1361 -164 0
1362 -177 -1361 0
-1362 177 0
-1362 1361 0
-1363 34 1362 0
1363 -34 0
1363 -1362 0
1364 -48 -1363 0
-1364 48 0
-1364 1363 0
1365 -182 -1361 0
-1365 182 0
-1365 1361 0
-1366 3 1364 1365 0
1366 -3 0
1366 -1364 0
1366 -1365 0
1367 -2 -1366 0
-1367 2 0
-1367 1366 0
-1368 5 353 356 1367 0
1368 -5 0
1368 -353 0
1368 -356 0
1368 -1367 0
1369 -946 -1368 0
-1369 946 0
-1369 1368 0
-1370 956 959 963 1068 1358 1369 1021 0
1370 -956 0
1370 -959 0
1370 -963 0
1370 -1068 0
1370 -1358 0
1370 -1369 0
1370 -1021 0
1371 -1059 -1370 0
-1371 1059 0
-1371 1370 0
-1372 956 1025 1026 1068 1031 1228 1032 0
1372 -956 0
1372 -1025 0
1372 -1026 0
1372 -1068 0
1372 -1031 0
1372 -1228 0
1372 -1032 0
1373 -1035 -1372 0
-1373 1035 0
-1373 1372 0
-1374 34 240 1373 0
1374 -34 0
1374 -240 0
1374 -1373 0
1375 -36 -1374 0
-1375 36 0
-1375 1374 0
1376 -1044 -1241 0
-1376 1044 0
-1376 1241 0
1377 -38 -1374 0
-1377 38 0
-1377 1374 0
1378 -1050 -1241 0
-1378 1050 0
-1378 1241 0
-1379 60 1377 341 1378 56 0
1379 -60 0
1379 -1377 0
1379 -341 0
1379 -1378 0
1379 -56 0
1380 -62 -1379 0
-1380 62 0
-1380 1379 0
-1381 109 1375 1376 1380 136 144 0
1381 -109 0
1381 -1375 0
1381 -1376 0
1381 -1380 0
1381 -136 0
1381 -144 0
1382 -141 -1381 0
-1382 141 0
-1382 1381 0
-1383 956 1025 1026 1068 1082 1295 1032 0
1383 -956 0
1383 -1025 0
1383 -1026 0
1383 -1068 0
1383 -1082 0
1383 -1295 0
1383 -1032 0
1384 -1035 -1383 0
-1384 1035 0
-1384 1383 0
-1385 34 1384 0
1385 -34 0
1385 -1384 0
1386 -36 -1385 0
-1386 36 0
-1386 1385 0
1387 -1044 -1306 0
-1387 1044 0
-1387 1306 0
1388 -38 -1385 0
-1388 38 0
-1388 1385 0
1389 -1050 -1306 0
-1389 1050 0
-1389 1306 0
-1390 60 1388 1389 56 0
1390 -60 0
1390 -1388 0
1390 -1389 0
1390 -56 0
1391 -62 -1390 0
-1391 62 0
-1391 1390 0
-1392 109 1386 1387 1391 136 144 0
1392 -109 0
1392 -1386 0
1392 -1387 0
1392 -1391 0
1392 -136 0
1392 -144 0
1393 -111 -1392 0
-1393 111 0
-1393 1392 0
-1394 168 1393 164 0
1394 -168 0
1394 -1393 0
1394 -164 0
1395 -190 -1394 0
-1395 190 0
-1395 1394 0
1396 -170 -385 0
-1396 170 0
-1396 385 0
1397 -156 -382 0
-1397 156 0
-1397 382 0
1398 -338 -385 0
-1398 338 0
-1398 385 0
-1399 24 1397 1398 0
1399 -24 0
1399 -1397 0
1399 -1398 0
1400 -415 -1399 0
-1400 415 0
-1400 1399 0
1401 -594 -382 0
-1401 594 0
-1401 382 0
1402 -828 -398 0
-1402 828 0
-1402 398 0
-1403 830 1401 696 1402 0
1403 -830 0
1403 -1401 0
1403 -696 0
1403 -1402 0
1404 -832 -1403 0
-1404 832 0
-1404 1403 0
1405 -124 -382 0
-1405 124 0
-1405 382 0
1406 -180 -385 0
-1406 180 0
-1406 385 0
-1407 5 1405 1406 399 0
1407 -5 0
1407 -1405 0
1407 -1406 0
1407 -399 0
1408 -946 -1407 0
-1408 946 0
-1408 1407 0
-1409 109 339 1017 136 144 0
1409 -109 0
1409 -339 0
1409 -1017 0
1409 -136 0
1409 -144 0
1410 -951 -1409 0
-1410 951 0
-1410 1409 0
-1411 58 1410 0
1411 -58 0
1411 -1410 0
1412 -954 -1411 0
-1412 954 0
-1412 1411 0
-1413 956 1396 1400 1068 1404 1408 1412 0
1413 -956 0
1413 -1396 0
1413 -1400 0
1413 -1068 0
1413 -1404 0
1413 -1408 0
1413 -1412 0
1414 -1052 -1413 0
-1414 1052 0
-1414 1413 0
1415 -36 -1278 0
-1415 36 0
-1415 1278 0
-1416 830 696 1039 0
1416 -830 0
1416 -696 0
1416 -1039 0
1417 -832 -1416 0
-1417 832 0
-1417 1416 0
-1418 956 1025 1026 1068 1417 1032 0
1418 -956 0
1418 -1025 0
1418 -1026 0
1418 -1068 0
1418 -1417 0
1418 -1032 0
1419 -1044 -1418 0
-1419 1044 0
-1419 1418 0
1420 -38 -1278 0
-1420 38 0
-1420 1278 0
1421 -1050 -1418 0
-1421 1050 0
-1421 1418 0
-1422 60 1420 341 1421 56 0
1422 -60 0
1422 -1420 0
1422 -341 0
1422 -1421 0
1422 -56 0
1423 -62 -1422 0
-1423 62 0
-1423 1422 0
-1424 109 1415 1419 1423 136 144 0
1424 -109 0
1424 -1415 0
1424 -1419 0
1424 -1423 0
1424 -136 0
1424 -144 0
1425 -124 -1424 0
-1425 124 0
-1425 1424 0
-1426 60 1420 1421 56 0
1426 -60 0
1426 -1420 0
1426 -1421 0
1426 -56 0
1427 -62 -1426 0
-1427 62 0
-1427 1426 0
-1428 109 1415 1419 1427 136 144 0
1428 -109 0
1428 -1415 0
1428 -1419 0
1428 -1427 0
1428 -136 0
1428 -144 0
1429 -111 -1428 0
-1429 111 0
-1429 1428 0
-1430 168 1429 164 0
1430 -168 0
1430 -1429 0
1430 -164 0
1431 -180 -1430 0
-1431 180 0
-1431 1430 0
1432 -1044 -1146 0
-1432 1044 0
-1432 1146 0
1433 -1050 -1146 0
-1433 1050 0
-1433 1146 0
-1434 60 1433 56 0
1434 -60 0
1434 -1433 0
1434 -56 0
1435 -62 -1434 0
-1435 62 0
-1435 1434 0
-1436 109 1432 1435 136 144 0
1436 -109 0
1436 -1432 0
1436 -1435 0
1436 -136 0
1436 -144 0
1437 -111 -1436 0
-1437 111 0
-1437 1436 0
-1438 168 1437 164 0
1438 -168 0
1438 -1437 0
1438 -164 0
1439 -177 -1438 0
-1439 177 0
-1439 1438 0
1440 -170 -392 0
-1440 170 0
-1440 392 0
1441 -156 -389 0
-1441 156 0
-1441 389 0
1442 -338 -392 0
-1442 338 0
-1442 392 0
-1443 24 1441 1442 0
1443 -24 0
1443 -1441 0
1443 -1442 0
1444 -415 -1443 0
-1444 415 0
-1444 1443 0
1445 -594 -389 0
-1445 594 0
-1445 389 0
-1446 830 1445 696 0
1446 -830 0
1446 -1445 0
1446 -696 0
1447 -832 -1446 0
-1447 832 0
-1447 1446 0
-1448 60 340 341 0
1448 -60 0
1448 -340 0
1448 -341 0
1449 -62 -1448 0
-1449 62 0
-1449 1448 0
-1450 109 339 1449 136 144 0
1450 -109 0
1450 -339 0
1450 -1449 0
1450 -136 0
1450 -144 0
1451 -951 -1450 0
-1451 951 0
-1451 1450 0
-1452 58 1451 0
1452 -58 0
1452 -1451 0
1453 -954 -1452 0
-1453 954 0
-1453 1452 0
-1454 956 1440 1444 1068 1447 1453 0
1454 -956 0
1454 -1440 0
1454 -1444 0
1454 -1068 0
1454 -1447 0
1454 -1453 0
1455 -1035 -1454 0
-1455 1035 0
-1455 1454 0
-1456 34 1439 1455 0
1456 -34 0
1456 -1439 0
1456 -1455 0
1457 -48 -1456 0
-1457 48 0
-1457 1456 0
1458 -1035 -1208 0
-1458 1035 0
-1458 1208 0
-1459 34 1458 0
1459 -34 0
1459 -1458 0
1460 -36 -1459 0
-1460 36 0
-1460 1459 0
1461 -1044 -1208 0
-1461 1044 0
-1461 1208 0
1462 -38 -1459 0
-1462 38 0
-1462 1459 0
1463 -1050 -1208 0
-1463 1050 0
-1463 1208 0
-1464 60 1462 1463 56 0
1464 -60 0
1464 -1462 0
1464 -1463 0
1464 -56 0
1465 -62 -1464 0
-1465 62 0
-1465 1464 0
-1466 109 1460 1461 1465 136 144 0
1466 -109 0
1466 -1460 0
1466 -1461 0
1466 -1465 0
1466 -136 0
1466 -144 0
1467 -111 -1466 0
-1467 111 0
-1467 1466 0
-1468 168 1467 164 0
1468 -168 0
1468 -1467 0
1468 -164 0
1469 -182 -1468 0
-1469 182 0
-1469 1468 0
-1470 3 1457 1469 0
1470 -3 0
1470 -1457 0
1470 -1469 0
1471 -2 -1470 0
-1471 2 0
-1471 1470 0
-1472 5 1425 1431 1471 0
1472 -5 0
1472 -1425 0
1472 -1431 0
1472 -1471 0
1473 -9 -1472 0
-1473 9 0
-1473 1472 0
-1474 11 1382 1395 1414 1473 0
1474 -11 0
1474 -1382 0
1474 -1395 0
1474 -1414 0
1474 -1473 0
1475 -13 -1474 0
-1475 13 0
-1475 1474 0
-1476 15 1371 1475 0
1476 -15 0
1476 -1371 0
1476 -1475 0
1477 -17 -1476 0
-1477 17 0
-1477 1476 0
-1478 19 1291 1347 1477 0
1478 -19 0
1478 -1291 0
1478 -1347 0
1478 -1477 0
1479 -21 -1478 0
-1479 21 0
-1479 1478 0
1480 -156 -1290 0
-1480 156 0
-1480 1290 0
-1481 956 1025 1294 1082 1295 1032 0
1481 -956 0
1481 -1025 0
1481 -1294 0
1481 -1082 0
1481 -1295 0
1481 -1032 0
1482 -1035 -1481 0
-1482 1035 0
-1482 1481 0
-1483 34 1482 0
1483 -34 0
1483 -1482 0
1484 -36 -1483 0
-1484 36 0
-1484 1483 0
-1485 956 1025 1300 1101 1301 1032 0
1485 -956 0
1485 -1025 0
1485 -1300 0
1485 -1101 0
1485 -1301 0
1485 -1032 0
1486 -1044 -1485 0
-1486 1044 0
-1486 1485 0
1487 -38 -1483 0
-1487 38 0
-1487 1483 0
1488 -1050 -1485 0
-1488 1050 0
-1488 1485 0
-1489 956 1025 1240 1101 1301 1032 0
1489 -956 0
1489 -1025 0
1489 -1240 0
1489 -1101 0
1489 -1301 0
1489 -1032 0
1490 -1052 -1489 0
-1490 1052 0
-1490 1489 0
-1491 956 1025 1027 1127 1032 0
1491 -956 0
1491 -1025 0
1491 -1027 0
1491 -1127 0
1491 -1032 0
1492 -1035 -1491 0
-1492 1035 0
-1492 1491 0
-1493 34 1492 0
1493 -34 0
1493 -1492 0
1494 -48 -1493 0
-1494 48 0
-1494 1493 0
-1495 3 1494 0
1495 -3 0
1495 -1494 0
1496 -2 -1495 0
-1496 2 0
-1496 1495 0
-1497 5 1496 0
1497 -5 0
1497 -1496 0
1498 -9 -1497 0
-1498 9 0
-1498 1497 0
-1499 11 1490 1498 0
1499 -11 0
1499 -1490 0
1499 -1498 0
1500 -55 -1499 0
-1500 55 0
-1500 1499 0
-1501 60 1487 1488 1500 56 0
1501 -60 0
1501 -1487 0
1501 -1488 0
1501 -1500 0
1501 -56 0
1502 -62 -1501 0
-1502 62 0
-1502 1501 0
-1503 956 1025 1101 1301 1032 0
1503 -956 0
1503 -1025 0
1503 -1101 0
1503 -1301 0
1503 -1032 0
1504 -1059 -1503 0
-1504 1059 0
-1504 1503 0
1505 -1052 -1503 0
-1505 1052 0
-1505 1503 0
-1506 956 1025 1127 1032 0
1506 -956 0
1506 -1025 0
1506 -1127 0
1506 -1032 0
1507 -1035 -1506 0
-1507 1035 0
-1507 1506 0
-1508 34 1507 0
1508 -34 0
1508 -1507 0
1509 -48 -1508 0
-1509 48 0
-1509 1508 0
-1510 3 1509 0
1510 -3 0
1510 -1509 0
1511 -2 -1510 0
-1511 2 0
-1511 1510 0
-1512 5 1511 0
1512 -5 0
1512 -1511 0
1513 -9 -1512 0
-1513 9 0
-1513 1512 0
-1514 11 1505 1513 0
1514 -11 0
1514 -1505 0
1514 -1513 0
1515 -13 -1514 0
-1515 13 0
-1515 1514 0
-1516 15 1504 1515 0
1516 -15 0
1516 -1504 0
1516 -1515 0
1517 -95 -1516 0
-1517 95 0
-1517 1516 0
-1518 97 1517 0
1518 -97 0
1518 -1517 0
1519 -99 -1518 0
-1519 99 0
-1519 1518 0
1520 -101 -1499 0
-1520 101 0
-1520 1499 0
1521 -1059 -1485 0
-1521 1059 0
-1521 1485 0
-1522 956 1025 1068 1127 1032 0
1522 -956 0
1522 -1025 0
1522 -1068 0
1522 -1127 0
1522 -1032 0
1523 -1035 -1522 0
-1523 1035 0
-1523 1522 0
-1524 34 1523 0
1524 -34 0
1524 -1523 0
1525 -48 -1524 0
-1525 48 0
-1525 1524 0
-1526 3 1525 0
1526 -3 0
1526 -1525 0
1527 -2 -1526 0
-1527 2 0
-1527 1526 0
-1528 5 1527 0
1528 -5 0
1528 -1527 0
1529 -9 -1528 0
-1529 9 0
-1529 1528 0
-1530 11 1490 1529 0
1530 -11 0
1530 -1490 0
1530 -1529 0
1531 -13 -1530 0
-1531 13 0
-1531 1530 0
-1532 15 1521 1531 0
1532 -15 0
1532 -1521 0
1532 -1531 0
1533 -103 -1532 0
-1533 103 0
-1533 1532 0
-1534 105 1520 1533 0
1534 -105 0
1534 -1520 0
1534 -1533 0
1535 -107 -1534 0
-1535 107 0
-1535 1534 0
-1536 109 1484 1486 1502 1519 1535 0
1536 -109 0
1536 -1484 0
1536 -1486 0
1536 -1502 0
1536 -1519 0
1536 -1535 0
1537 -111 -1536 0
-1537 111 0
-1537 1536 0
-1538 168 1537 164 0
1538 -168 0
1538 -1537 0
1538 -164 0
1539 -338 -1538 0
-1539 338 0
-1539 1538 0
-1540 24 1480 1539 0
1540 -24 0
1540 -1480 0
1540 -1539 0
1541 -23 -1540 0
-1541 23 0
-1541 1540 0
-1542 26 1479 1541 0
1542 -26 0
1542 -1479 0
1542 -1541 0
1543 -28 -1542 0
-1543 28 0
-1543 1542 0
-1544 30 1023 1224 1543 0
1544 -30 0
1544 -1023 0
1544 -1224 0
1544 -1543 0
1545 -1546 -1544 0
-1545 1546 0
-1545 1544 0
-1547 1548 957 1545 0
1547 -1548 0
1547 -957 0
1547 -1545 0
1549 -1550 -1547 0
-1549 1550 0
-1549 1547 0
-1551 1552 1549 0
1551 -1552 0
1551 -1549 0
1553 -1551 -1554 0
-1553 1551 0
-1553 1554 0
1553 0
