c BC-S1.2
p cnf 699 2184
1 -2 -3 0
-1 2 0
-1 3 0
4 -5 -6 0
-4 5 0
-4 6 0
7 -8 -9 0
-7 8 0
-7 9 0
10 -11 -6 0
-10 11 0
-10 6 0
12 -13 -9 0
-12 13 0
-12 9 0
14 -15 -16 0
-14 15 0
-14 16 0
17 -18 -19 0
-17 18 0
-17 19 0
-20 21 17 0
20 -21 0
20 -17 0
22 -23 -20 0
-22 23 0
-22 20 0
-24 25 22 0
24 -25 0
24 -22 0
26 -27 -24 0
-26 27 0
-26 24 0
-28 29 26 0
28 -29 0
28 -26 0
30 -31 -28 0
-30 31 0
-30 28 0
32 -33 -34 0
-32 33 0
-32 34 0
-35 36 32 0
35 -36 0
35 -32 0
37 -38 -35 0
-37 38 0
-37 35 0
-39 40 30 37 0
39 -40 0
39 -30 0
39 -37 0
41 -42 -39 0
-41 42 0
-41 39 0
43 -44 -6 0
-43 44 0
-43 6 0
-45 46 43 0
45 -46 0
45 -43 0
47 -48 -45 0
-47 48 0
-47 45 0
-49 40 37 0
49 -40 0
49 -37 0
50 -51 -49 0
-50 51 0
-50 49 0
52 -27 -25 0
-52 27 0
-52 25 0
-53 29 50 52 0
53 -29 0
53 -50 0
53 -52 0
54 -55 -53 0
-54 55 0
-54 53 0
-56 21 54 17 0
56 -21 0
56 -54 0
56 -17 0
57 -58 -56 0
-57 58 0
-57 56 0
-59 60 10 12 14 41 47 57 0
59 -60 0
59 -10 0
59 -12 0
59 -14 0
59 -41 0
59 -47 0
59 -57 0
61 -62 -59 0
-61 62 0
-61 59 0
-63 64 61 0
63 -64 0
63 -61 0
65 -66 -63 0
-65 66 0
-65 63 0
67 -68 -59 0
-67 68 0
-67 59 0
-69 70 67 0
69 -70 0
69 -67 0
71 -72 -69 0
-71 72 0
-71 69 0
73 -74 -16 0
-73 74 0
-73 16 0
75 -76 -59 0
-75 76 0
-75 59 0
-77 78 75 0
77 -78 0
77 -75 0
79 -80 -77 0
-79 80 0
-79 77 0
-81 60 10 12 14 47 0
81 -60 0
81 -10 0
81 -12 0
81 -14 0
81 -47 0
82 -83 -81 0
-82 83 0
-82 81 0
-84 21 17 82 0
84 -21 0
84 -17 0
84 -82 0
85 -23 -84 0
-85 23 0
-85 84 0
-86 25 85 0
86 -25 0
86 -85 0
87 -27 -86 0
-87 27 0
-87 86 0
-88 29 87 0
88 -29 0
88 -87 0
89 -31 -88 0
-89 31 0
-89 88 0
-90 29 52 0
90 -29 0
90 -52 0
91 -55 -90 0
-91 55 0
-91 90 0
-92 21 91 17 0
92 -21 0
92 -91 0
92 -17 0
93 -58 -92 0
-93 58 0
-93 92 0
-94 60 10 12 14 47 93 0
94 -60 0
94 -10 0
94 -12 0
94 -14 0
94 -47 0
94 -93 0
95 -96 -94 0
-95 96 0
-95 94 0
-97 36 32 95 0
97 -36 0
97 -32 0
97 -95 0
98 -38 -97 0
-98 38 0
-98 97 0
-99 40 89 98 0
99 -40 0
99 -89 0
99 -98 0
100 -101 -99 0
-100 101 0
-100 99 0
102 -103 -19 0
-102 103 0
-102 19 0
-104 40 89 0
104 -40 0
104 -89 0
105 -106 -104 0
-105 106 0
-105 104 0
-107 40 30 0
107 -40 0
107 -30 0
108 -42 -107 0
-108 42 0
-108 107 0
109 -51 -40 0
-109 51 0
-109 40 0
-110 29 109 52 0
110 -29 0
110 -109 0
110 -52 0
111 -55 -110 0
-111 55 0
-111 110 0
-112 21 111 17 0
112 -21 0
112 -111 0
112 -17 0
113 -58 -112 0
-113 58 0
-113 112 0
-114 60 10 12 14 108 47 113 0
114 -60 0
114 -10 0
114 -12 0
114 -14 0
114 -108 0
114 -47 0
114 -113 0
115 -96 -114 0
-115 96 0
-115 114 0
-116 36 105 32 115 0
116 -36 0
116 -105 0
116 -32 0
116 -115 0
117 -118 -116 0
-117 118 0
-117 116 0
-119 120 4 7 65 71 73 79 100 102 117 0
119 -120 0
119 -4 0
119 -7 0
119 -65 0
119 -71 0
119 -73 0
119 -79 0
119 -100 0
119 -102 0
119 -117 0
121 -122 -119 0
-121 122 0
-121 119 0
-123 124 121 0
123 -124 0
123 -121 0
125 -126 -123 0
-125 126 0
-125 123 0
127 -66 -64 0
-127 66 0
-127 64 0
128 -72 -70 0
-128 72 0
-128 70 0
129 -80 -78 0
-129 80 0
-129 78 0
130 -118 -35 0
-130 118 0
-130 35 0
-131 120 4 127 128 73 129 102 130 0
131 -120 0
131 -4 0
131 -127 0
131 -128 0
131 -73 0
131 -129 0
131 -102 0
131 -130 0
132 -133 -131 0
-132 133 0
-132 131 0
-134 9 132 0
134 -9 0
134 -132 0
135 -13 -134 0
-135 13 0
-135 134 0
-136 120 4 7 127 128 73 129 102 130 0
136 -120 0
136 -4 0
136 -7 0
136 -127 0
136 -128 0
136 -73 0
136 -129 0
136 -102 0
136 -130 0
137 -138 -136 0
-137 138 0
-137 136 0
-139 46 43 137 0
139 -46 0
139 -43 0
139 -137 0
140 -48 -139 0
-140 48 0
-140 139 0
141 -142 -136 0
-141 142 0
-141 136 0
-143 60 10 135 14 140 141 0
143 -60 0
143 -10 0
143 -135 0
143 -14 0
143 -140 0
143 -141 0
144 -83 -143 0
-144 83 0
-144 143 0
145 -62 -81 0
-145 62 0
-145 81 0
-146 64 145 0
146 -64 0
146 -145 0
147 -66 -146 0
-147 66 0
-147 146 0
148 -68 -81 0
-148 68 0
-148 81 0
-149 70 148 0
149 -70 0
149 -148 0
150 -72 -149 0
-150 72 0
-150 149 0
151 -76 -81 0
-151 76 0
-151 81 0
-152 78 151 0
152 -78 0
152 -151 0
153 -80 -152 0
-153 80 0
-153 152 0
154 -96 -81 0
-154 96 0
-154 81 0
-155 36 32 154 0
155 -36 0
155 -32 0
155 -154 0
156 -118 -155 0
-156 118 0
-156 155 0
-157 120 4 7 147 150 73 153 102 156 0
157 -120 0
157 -4 0
157 -7 0
157 -147 0
157 -150 0
157 -73 0
157 -153 0
157 -102 0
157 -156 0
158 -159 -157 0
-158 159 0
-158 157 0
-160 21 17 144 158 0
160 -21 0
160 -17 0
160 -144 0
160 -158 0
161 -23 -160 0
-161 23 0
-161 160 0
-162 25 161 0
162 -25 0
162 -161 0
163 -27 -162 0
-163 27 0
-163 162 0
-164 29 163 0
164 -29 0
164 -163 0
165 -31 -164 0
-165 31 0
-165 164 0
166 -62 -94 0
-166 62 0
-166 94 0
-167 64 166 0
167 -64 0
167 -166 0
168 -66 -167 0
-168 66 0
-168 167 0
169 -68 -94 0
-169 68 0
-169 94 0
-170 70 169 0
170 -70 0
170 -169 0
171 -72 -170 0
-171 72 0
-171 170 0
172 -76 -94 0
-172 76 0
-172 94 0
-173 78 172 0
173 -78 0
173 -172 0
174 -80 -173 0
-174 80 0
-174 173 0
-175 120 4 7 168 171 73 174 102 0
175 -120 0
175 -4 0
175 -7 0
175 -168 0
175 -171 0
175 -73 0
175 -174 0
175 -102 0
176 -177 -175 0
-176 177 0
-176 175 0
-178 34 176 0
178 -34 0
178 -176 0
179 -33 -178 0
-179 33 0
-179 178 0
180 -159 -136 0
-180 159 0
-180 136 0
-181 21 91 17 180 0
181 -21 0
181 -91 0
181 -17 0
181 -180 0
182 -58 -181 0
-182 58 0
-182 181 0
-183 60 10 135 14 140 182 141 0
183 -60 0
183 -10 0
183 -135 0
183 -14 0
183 -140 0
183 -182 0
183 -141 0
184 -96 -183 0
-184 96 0
-184 183 0
-185 36 179 184 0
185 -36 0
185 -179 0
185 -184 0
186 -38 -185 0
-186 38 0
-186 185 0
-187 40 165 186 0
187 -40 0
187 -165 0
187 -186 0
188 -189 -187 0
-188 189 0
-188 187 0
190 -58 -20 0
-190 58 0
-190 20 0
-191 60 10 12 14 47 190 0
191 -60 0
191 -10 0
191 -12 0
191 -14 0
191 -47 0
191 -190 0
192 -62 -191 0
-192 62 0
-192 191 0
-193 64 192 0
193 -64 0
193 -192 0
194 -66 -193 0
-194 66 0
-194 193 0
195 -68 -191 0
-195 68 0
-195 191 0
-196 70 195 0
196 -70 0
196 -195 0
197 -72 -196 0
-197 72 0
-197 196 0
198 -76 -191 0
-198 76 0
-198 191 0
-199 78 198 0
199 -78 0
199 -198 0
200 -80 -199 0
-200 80 0
-200 199 0
-201 120 4 7 194 197 73 200 102 0
201 -120 0
201 -4 0
201 -7 0
201 -194 0
201 -197 0
201 -73 0
201 -200 0
201 -102 0
202 -177 -201 0
-202 177 0
-202 201 0
-203 34 202 0
203 -34 0
203 -202 0
204 -33 -203 0
-204 33 0
-204 203 0
-205 21 17 180 0
205 -21 0
205 -17 0
205 -180 0
206 -58 -205 0
-206 58 0
-206 205 0
-207 60 10 135 14 140 206 141 0
207 -60 0
207 -10 0
207 -135 0
207 -14 0
207 -140 0
207 -206 0
207 -141 0
208 -96 -207 0
-208 96 0
-208 207 0
-209 36 204 208 0
209 -36 0
209 -204 0
209 -208 0
210 -38 -209 0
-210 38 0
-210 209 0
-211 40 210 0
211 -40 0
211 -210 0
212 -51 -211 0
-212 51 0
-212 211 0
-213 29 212 0
213 -29 0
213 -212 0
214 -215 -213 0
-214 215 0
-214 213 0
-216 120 4 7 147 150 73 153 102 0
216 -120 0
216 -4 0
216 -7 0
216 -147 0
216 -150 0
216 -73 0
216 -153 0
216 -102 0
217 -177 -216 0
-217 177 0
-217 216 0
-218 34 217 0
218 -34 0
218 -217 0
219 -33 -218 0
-219 33 0
-219 218 0
220 -96 -143 0
-220 96 0
-220 143 0
-221 36 219 220 0
221 -36 0
221 -219 0
221 -220 0
222 -38 -221 0
-222 38 0
-222 221 0
-223 40 222 0
223 -40 0
223 -222 0
224 -51 -223 0
-224 51 0
-224 223 0
-225 29 224 0
225 -29 0
225 -224 0
226 -55 -225 0
-226 55 0
-226 225 0
227 -31 -29 0
-227 31 0
-227 29 0
-228 40 227 37 0
228 -40 0
228 -227 0
228 -37 0
229 -101 -228 0
-229 101 0
-229 228 0
-230 40 227 0
230 -40 0
230 -227 0
231 -106 -230 0
-231 106 0
-231 230 0
-232 36 231 32 0
232 -36 0
232 -231 0
232 -32 0
233 -118 -232 0
-233 118 0
-233 232 0
-234 120 4 127 128 73 129 229 102 233 0
234 -120 0
234 -4 0
234 -127 0
234 -128 0
234 -73 0
234 -129 0
234 -229 0
234 -102 0
234 -233 0
235 -133 -234 0
-235 133 0
-235 234 0
-236 9 235 0
236 -9 0
236 -235 0
237 -13 -236 0
-237 13 0
-237 236 0
-238 36 219 0
238 -36 0
238 -219 0
239 -38 -238 0
-239 38 0
-239 238 0
-240 40 227 239 0
240 -40 0
240 -227 0
240 -239 0
241 -42 -240 0
-241 42 0
-241 240 0
-242 120 4 7 127 128 73 129 229 102 233 0
242 -120 0
242 -4 0
242 -7 0
242 -127 0
242 -128 0
242 -73 0
242 -129 0
242 -229 0
242 -102 0
242 -233 0
243 -138 -242 0
-243 138 0
-243 242 0
-244 46 43 243 0
244 -46 0
244 -43 0
244 -243 0
245 -48 -244 0
-245 48 0
-245 244 0
246 -142 -242 0
-246 142 0
-246 242 0
-247 60 10 237 14 241 245 246 0
247 -60 0
247 -10 0
247 -237 0
247 -14 0
247 -241 0
247 -245 0
247 -246 0
248 -83 -247 0
-248 83 0
-248 247 0
249 -42 -228 0
-249 42 0
-249 228 0
-250 60 10 12 14 249 47 0
250 -60 0
250 -10 0
250 -12 0
250 -14 0
250 -249 0
250 -47 0
251 -62 -250 0
-251 62 0
-251 250 0
-252 64 251 0
252 -64 0
252 -251 0
253 -66 -252 0
-253 66 0
-253 252 0
254 -68 -250 0
-254 68 0
-254 250 0
-255 70 254 0
255 -70 0
255 -254 0
256 -72 -255 0
-256 72 0
-256 255 0
257 -76 -250 0
-257 76 0
-257 250 0
-258 78 257 0
258 -78 0
258 -257 0
259 -80 -258 0
-259 80 0
-259 258 0
260 -38 -155 0
-260 38 0
-260 155 0
-261 40 227 260 0
261 -40 0
261 -227 0
261 -260 0
262 -101 -261 0
-262 101 0
-262 261 0
263 -42 -230 0
-263 42 0
-263 230 0
-264 60 10 12 14 263 47 0
264 -60 0
264 -10 0
264 -12 0
264 -14 0
264 -263 0
264 -47 0
265 -96 -264 0
-265 96 0
-265 264 0
-266 36 231 32 265 0
266 -36 0
266 -231 0
266 -32 0
266 -265 0
267 -118 -266 0
-267 118 0
-267 266 0
-268 120 4 7 253 256 73 259 262 102 267 0
268 -120 0
268 -4 0
268 -7 0
268 -253 0
268 -256 0
268 -73 0
268 -259 0
268 -262 0
268 -102 0
268 -267 0
269 -159 -268 0
-269 159 0
-269 268 0
-270 21 226 17 248 269 0
270 -21 0
270 -226 0
270 -17 0
270 -248 0
270 -269 0
271 -23 -270 0
-271 23 0
-271 270 0
-272 25 214 271 0
272 -25 0
272 -214 0
272 -271 0
273 -274 -272 0
-273 274 0
-273 272 0
275 -276 -119 0
-275 276 0
-275 119 0
-277 278 188 273 275 0
277 -278 0
277 -188 0
277 -273 0
277 -275 0
279 -280 -277 0
-279 280 0
-279 277 0
281 -282 -19 0
-281 282 0
-281 19 0
-283 284 1 125 279 281 0
283 -284 0
283 -1 0
283 -125 0
283 -279 0
283 -281 0
285 -286 -283 0
-285 286 0
-285 283 0
287 -288 -283 0
-287 288 0
-287 283 0
-289 284 125 279 281 0
289 -284 0
289 -125 0
289 -279 0
289 -281 0
290 -291 -289 0
-290 291 0
-290 289 0
-292 3 290 0
292 -3 0
292 -290 0
293 -294 -292 0
-293 294 0
-293 292 0
295 -296 -297 0
-295 296 0
-295 297 0
298 -126 -124 0
-298 126 0
-298 124 0
299 -189 -99 0
-299 189 0
-299 99 0
300 -96 -191 0
-300 96 0
-300 191 0
-301 36 32 300 0
301 -36 0
301 -32 0
301 -300 0
302 -38 -301 0
-302 38 0
-302 301 0
-303 40 302 0
303 -40 0
303 -302 0
304 -51 -303 0
-304 51 0
-304 303 0
-305 29 304 0
305 -29 0
305 -304 0
306 -215 -305 0
-306 215 0
-306 305 0
-307 40 260 0
307 -40 0
307 -260 0
308 -51 -307 0
-308 51 0
-308 307 0
-309 29 308 0
309 -29 0
309 -308 0
310 -55 -309 0
-310 55 0
-310 309 0
311 -83 -250 0
-311 83 0
-311 250 0
-312 21 310 17 311 0
312 -21 0
312 -310 0
312 -17 0
312 -311 0
313 -23 -312 0
-313 23 0
-313 312 0
-314 25 306 313 0
314 -25 0
314 -306 0
314 -313 0
315 -274 -314 0
-315 274 0
-315 314 0
-316 278 299 315 0
316 -278 0
316 -299 0
316 -315 0
317 -280 -316 0
-317 280 0
-317 316 0
-318 284 1 298 317 281 0
318 -284 0
318 -1 0
318 -298 0
318 -317 0
318 -281 0
319 -320 -318 0
-319 320 0
-319 318 0
-321 6 319 0
321 -6 0
321 -319 0
322 -5 -321 0
-322 5 0
-322 321 0
323 -189 -39 0
-323 189 0
-323 39 0
-324 29 50 0
324 -29 0
324 -50 0
325 -215 -324 0
-325 215 0
-325 324 0
326 -55 -324 0
-326 55 0
-326 324 0
-327 21 326 17 0
327 -21 0
327 -326 0
327 -17 0
328 -23 -327 0
-328 23 0
-328 327 0
-329 25 325 328 0
329 -25 0
329 -325 0
329 -328 0
330 -274 -329 0
-330 274 0
-330 329 0
-331 278 323 330 0
331 -278 0
331 -323 0
331 -330 0
332 -280 -331 0
-332 280 0
-332 331 0
-333 284 1 298 332 281 0
333 -284 0
333 -1 0
333 -298 0
333 -332 0
333 -281 0
334 -335 -333 0
-334 335 0
-334 333 0
336 -320 -333 0
-336 320 0
-336 333 0
-337 6 336 0
337 -6 0
337 -336 0
338 -11 -337 0
-338 11 0
-338 337 0
339 -44 -337 0
-339 44 0
-339 337 0
-340 46 339 0
340 -46 0
340 -339 0
341 -48 -340 0
-341 48 0
-341 340 0
-342 60 334 338 12 14 41 341 57 0
342 -60 0
342 -334 0
342 -338 0
342 -12 0
342 -14 0
342 -41 0
342 -341 0
342 -57 0
343 -62 -342 0
-343 62 0
-343 342 0
-344 64 343 0
344 -64 0
344 -343 0
345 -66 -344 0
-345 66 0
-345 344 0
346 -68 -342 0
-346 68 0
-346 342 0
-347 70 346 0
347 -70 0
347 -346 0
348 -72 -347 0
-348 72 0
-348 347 0
349 -76 -342 0
-349 76 0
-349 342 0
-350 78 349 0
350 -78 0
350 -349 0
351 -80 -350 0
-351 80 0
-351 350 0
352 -280 -278 0
-352 280 0
-352 278 0
-353 284 1 298 352 281 0
353 -284 0
353 -1 0
353 -298 0
353 -352 0
353 -281 0
354 -335 -353 0
-354 335 0
-354 353 0
355 -320 -353 0
-355 320 0
-355 353 0
-356 6 355 0
356 -6 0
356 -355 0
357 -11 -356 0
-357 11 0
-357 356 0
358 -44 -356 0
-358 44 0
-358 356 0
-359 46 358 0
359 -46 0
359 -358 0
360 -48 -359 0
-360 48 0
-360 359 0
-361 60 354 357 12 14 360 0
361 -60 0
361 -354 0
361 -357 0
361 -12 0
361 -14 0
361 -360 0
362 -83 -361 0
-362 83 0
-362 361 0
-363 21 17 362 0
363 -21 0
363 -17 0
363 -362 0
364 -23 -363 0
-364 23 0
-364 363 0
-365 25 364 0
365 -25 0
365 -364 0
366 -27 -365 0
-366 27 0
-366 365 0
-367 29 366 0
367 -29 0
367 -366 0
368 -31 -367 0
-368 31 0
-368 367 0
369 -215 -29 0
-369 215 0
-369 29 0
370 -55 -29 0
-370 55 0
-370 29 0
-371 21 370 17 0
371 -21 0
371 -370 0
371 -17 0
372 -23 -371 0
-372 23 0
-372 371 0
-373 25 369 372 0
373 -25 0
373 -369 0
373 -372 0
374 -274 -373 0
-374 274 0
-374 373 0
-375 278 374 0
375 -278 0
375 -374 0
376 -280 -375 0
-376 280 0
-376 375 0
-377 284 1 298 376 281 0
377 -284 0
377 -1 0
377 -298 0
377 -376 0
377 -281 0
378 -335 -377 0
-378 335 0
-378 377 0
379 -320 -377 0
-379 320 0
-379 377 0
-380 6 379 0
380 -6 0
380 -379 0
381 -11 -380 0
-381 11 0
-381 380 0
382 -44 -380 0
-382 44 0
-382 380 0
-383 46 382 0
383 -46 0
383 -382 0
384 -48 -383 0
-384 48 0
-384 383 0
-385 60 378 381 12 14 384 93 0
385 -60 0
385 -378 0
385 -381 0
385 -12 0
385 -14 0
385 -384 0
385 -93 0
386 -96 -385 0
-386 96 0
-386 385 0
-387 36 32 386 0
387 -36 0
387 -32 0
387 -386 0
388 -38 -387 0
-388 38 0
-388 387 0
-389 40 368 388 0
389 -40 0
389 -368 0
389 -388 0
390 -101 -389 0
-390 101 0
-390 389 0
-391 40 368 0
391 -40 0
391 -368 0
392 -106 -391 0
-392 106 0
-392 391 0
393 -189 -107 0
-393 189 0
-393 107 0
-394 29 109 0
394 -29 0
394 -109 0
395 -215 -394 0
-395 215 0
-395 394 0
396 -55 -394 0
-396 55 0
-396 394 0
-397 21 396 17 0
397 -21 0
397 -396 0
397 -17 0
398 -23 -397 0
-398 23 0
-398 397 0
-399 25 395 398 0
399 -25 0
399 -395 0
399 -398 0
400 -274 -399 0
-400 274 0
-400 399 0
-401 278 393 400 0
401 -278 0
401 -393 0
401 -400 0
402 -280 -401 0
-402 280 0
-402 401 0
-403 284 1 298 402 281 0
403 -284 0
403 -1 0
403 -298 0
403 -402 0
403 -281 0
404 -335 -403 0
-404 335 0
-404 403 0
405 -320 -403 0
-405 320 0
-405 403 0
-406 6 405 0
406 -6 0
406 -405 0
407 -11 -406 0
-407 11 0
-407 406 0
408 -44 -406 0
-408 44 0
-408 406 0
-409 46 408 0
409 -46 0
409 -408 0
410 -48 -409 0
-410 48 0
-410 409 0
-411 60 404 407 12 14 108 410 113 0
411 -60 0
411 -404 0
411 -407 0
411 -12 0
411 -14 0
411 -108 0
411 -410 0
411 -113 0
412 -96 -411 0
-412 96 0
-412 411 0
-413 36 392 32 412 0
413 -36 0
413 -392 0
413 -32 0
413 -412 0
414 -118 -413 0
-414 118 0
-414 413 0
-415 120 322 7 345 348 73 351 390 102 414 0
415 -120 0
415 -322 0
415 -7 0
415 -345 0
415 -348 0
415 -73 0
415 -351 0
415 -390 0
415 -102 0
415 -414 0
416 -417 -415 0
-416 417 0
-416 415 0
-418 419 416 0
418 -419 0
418 -416 0
420 -421 -418 0
-420 421 0
-420 418 0
-422 60 10 12 14 41 57 0
422 -60 0
422 -10 0
422 -12 0
422 -14 0
422 -41 0
422 -57 0
423 -62 -422 0
-423 62 0
-423 422 0
-424 64 423 0
424 -64 0
424 -423 0
425 -66 -424 0
-425 66 0
-425 424 0
426 -68 -422 0
-426 68 0
-426 422 0
-427 70 426 0
427 -70 0
427 -426 0
428 -72 -427 0
-428 72 0
-428 427 0
429 -76 -422 0
-429 76 0
-429 422 0
-430 78 429 0
430 -78 0
430 -429 0
431 -80 -430 0
-431 80 0
-431 430 0
-432 60 10 12 14 0
432 -60 0
432 -10 0
432 -12 0
432 -14 0
433 -83 -432 0
-433 83 0
-433 432 0
-434 21 17 433 0
434 -21 0
434 -17 0
434 -433 0
435 -23 -434 0
-435 23 0
-435 434 0
-436 25 435 0
436 -25 0
436 -435 0
437 -27 -436 0
-437 27 0
-437 436 0
-438 29 437 0
438 -29 0
438 -437 0
439 -31 -438 0
-439 31 0
-439 438 0
-440 60 10 12 14 93 0
440 -60 0
440 -10 0
440 -12 0
440 -14 0
440 -93 0
441 -96 -440 0
-441 96 0
-441 440 0
-442 36 32 441 0
442 -36 0
442 -32 0
442 -441 0
443 -38 -442 0
-443 38 0
-443 442 0
-444 40 439 443 0
444 -40 0
444 -439 0
444 -443 0
445 -101 -444 0
-445 101 0
-445 444 0
-446 40 439 0
446 -40 0
446 -439 0
447 -106 -446 0
-447 106 0
-447 446 0
-448 60 10 12 14 108 113 0
448 -60 0
448 -10 0
448 -12 0
448 -14 0
448 -108 0
448 -113 0
449 -96 -448 0
-449 96 0
-449 448 0
-450 36 447 32 449 0
450 -36 0
450 -447 0
450 -32 0
450 -449 0
451 -118 -450 0
-451 118 0
-451 450 0
-452 120 7 425 428 73 431 445 102 451 0
452 -120 0
452 -7 0
452 -425 0
452 -428 0
452 -73 0
452 -431 0
452 -445 0
452 -102 0
452 -451 0
453 -122 -452 0
-453 122 0
-453 452 0
-454 124 453 0
454 -124 0
454 -453 0
455 -126 -454 0
-455 126 0
-455 454 0
-456 120 127 128 73 129 102 130 0
456 -120 0
456 -127 0
456 -128 0
456 -73 0
456 -129 0
456 -102 0
456 -130 0
457 -133 -456 0
-457 133 0
-457 456 0
-458 9 457 0
458 -9 0
458 -457 0
459 -13 -458 0
-459 13 0
-459 458 0
-460 120 7 127 128 73 129 102 130 0
460 -120 0
460 -7 0
460 -127 0
460 -128 0
460 -73 0
460 -129 0
460 -102 0
460 -130 0
461 -142 -460 0
-461 142 0
-461 460 0
-462 60 10 459 14 461 0
462 -60 0
462 -10 0
462 -459 0
462 -14 0
462 -461 0
463 -83 -462 0
-463 83 0
-463 462 0
464 -62 -432 0
-464 62 0
-464 432 0
-465 64 464 0
465 -64 0
465 -464 0
466 -66 -465 0
-466 66 0
-466 465 0
467 -68 -432 0
-467 68 0
-467 432 0
-468 70 467 0
468 -70 0
468 -467 0
469 -72 -468 0
-469 72 0
-469 468 0
470 -76 -432 0
-470 76 0
-470 432 0
-471 78 470 0
471 -78 0
471 -470 0
472 -80 -471 0
-472 80 0
-472 471 0
473 -96 -432 0
-473 96 0
-473 432 0
-474 36 32 473 0
474 -36 0
474 -32 0
474 -473 0
475 -118 -474 0
-475 118 0
-475 474 0
-476 120 7 466 469 73 472 102 475 0
476 -120 0
476 -7 0
476 -466 0
476 -469 0
476 -73 0
476 -472 0
476 -102 0
476 -475 0
477 -159 -476 0
-477 159 0
-477 476 0
-478 21 17 463 477 0
478 -21 0
478 -17 0
478 -463 0
478 -477 0
479 -23 -478 0
-479 23 0
-479 478 0
-480 25 479 0
480 -25 0
480 -479 0
481 -27 -480 0
-481 27 0
-481 480 0
-482 29 481 0
482 -29 0
482 -481 0
483 -31 -482 0
-483 31 0
-483 482 0
484 -62 -440 0
-484 62 0
-484 440 0
-485 64 484 0
485 -64 0
485 -484 0
486 -66 -485 0
-486 66 0
-486 485 0
487 -68 -440 0
-487 68 0
-487 440 0
-488 70 487 0
488 -70 0
488 -487 0
489 -72 -488 0
-489 72 0
-489 488 0
490 -76 -440 0
-490 76 0
-490 440 0
-491 78 490 0
491 -78 0
491 -490 0
492 -80 -491 0
-492 80 0
-492 491 0
-493 120 7 486 489 73 492 102 0
493 -120 0
493 -7 0
493 -486 0
493 -489 0
493 -73 0
493 -492 0
493 -102 0
494 -177 -493 0
-494 177 0
-494 493 0
-495 34 494 0
495 -34 0
495 -494 0
496 -33 -495 0
-496 33 0
-496 495 0
497 -159 -460 0
-497 159 0
-497 460 0
-498 21 91 17 497 0
498 -21 0
498 -91 0
498 -17 0
498 -497 0
499 -58 -498 0
-499 58 0
-499 498 0
-500 60 10 459 14 499 461 0
500 -60 0
500 -10 0
500 -459 0
500 -14 0
500 -499 0
500 -461 0
501 -96 -500 0
-501 96 0
-501 500 0
-502 36 496 501 0
502 -36 0
502 -496 0
502 -501 0
503 -38 -502 0
-503 38 0
-503 502 0
-504 40 483 503 0
504 -40 0
504 -483 0
504 -503 0
505 -189 -504 0
-505 189 0
-505 504 0
-506 60 10 12 14 190 0
506 -60 0
506 -10 0
506 -12 0
506 -14 0
506 -190 0
507 -62 -506 0
-507 62 0
-507 506 0
-508 64 507 0
508 -64 0
508 -507 0
509 -66 -508 0
-509 66 0
-509 508 0
510 -68 -506 0
-510 68 0
-510 506 0
-511 70 510 0
511 -70 0
511 -510 0
512 -72 -511 0
-512 72 0
-512 511 0
513 -76 -506 0
-513 76 0
-513 506 0
-514 78 513 0
514 -78 0
514 -513 0
515 -80 -514 0
-515 80 0
-515 514 0
-516 120 7 509 512 73 515 102 0
516 -120 0
516 -7 0
516 -509 0
516 -512 0
516 -73 0
516 -515 0
516 -102 0
517 -177 -516 0
-517 177 0
-517 516 0
-518 34 517 0
518 -34 0
518 -517 0
519 -33 -518 0
-519 33 0
-519 518 0
-520 21 17 497 0
520 -21 0
520 -17 0
520 -497 0
521 -58 -520 0
-521 58 0
-521 520 0
-522 60 10 459 14 521 461 0
522 -60 0
522 -10 0
522 -459 0
522 -14 0
522 -521 0
522 -461 0
523 -96 -522 0
-523 96 0
-523 522 0
-524 36 519 523 0
524 -36 0
524 -519 0
524 -523 0
525 -38 -524 0
-525 38 0
-525 524 0
-526 40 525 0
526 -40 0
526 -525 0
527 -51 -526 0
-527 51 0
-527 526 0
-528 29 527 0
528 -29 0
528 -527 0
529 -215 -528 0
-529 215 0
-529 528 0
-530 120 7 466 469 73 472 102 0
530 -120 0
530 -7 0
530 -466 0
530 -469 0
530 -73 0
530 -472 0
530 -102 0
531 -177 -530 0
-531 177 0
-531 530 0
-532 34 531 0
532 -34 0
532 -531 0
533 -33 -532 0
-533 33 0
-533 532 0
534 -96 -462 0
-534 96 0
-534 462 0
-535 36 533 534 0
535 -36 0
535 -533 0
535 -534 0
536 -38 -535 0
-536 38 0
-536 535 0
-537 40 536 0
537 -40 0
537 -536 0
538 -51 -537 0
-538 51 0
-538 537 0
-539 29 538 0
539 -29 0
539 -538 0
540 -55 -539 0
-540 55 0
-540 539 0
-541 120 127 128 73 129 229 102 233 0
541 -120 0
541 -127 0
541 -128 0
541 -73 0
541 -129 0
541 -229 0
541 -102 0
541 -233 0
542 -133 -541 0
-542 133 0
-542 541 0
-543 9 542 0
543 -9 0
543 -542 0
544 -13 -543 0
-544 13 0
-544 543 0
-545 36 533 0
545 -36 0
545 -533 0
546 -38 -545 0
-546 38 0
-546 545 0
-547 40 227 546 0
547 -40 0
547 -227 0
547 -546 0
548 -42 -547 0
-548 42 0
-548 547 0
-549 120 7 127 128 73 129 229 102 233 0
549 -120 0
549 -7 0
549 -127 0
549 -128 0
549 -73 0
549 -129 0
549 -229 0
549 -102 0
549 -233 0
550 -142 -549 0
-550 142 0
-550 549 0
-551 60 10 544 14 548 550 0
551 -60 0
551 -10 0
551 -544 0
551 -14 0
551 -548 0
551 -550 0
552 -83 -551 0
-552 83 0
-552 551 0
-553 60 10 12 14 249 0
553 -60 0
553 -10 0
553 -12 0
553 -14 0
553 -249 0
554 -62 -553 0
-554 62 0
-554 553 0
-555 64 554 0
555 -64 0
555 -554 0
556 -66 -555 0
-556 66 0
-556 555 0
557 -68 -553 0
-557 68 0
-557 553 0
-558 70 557 0
558 -70 0
558 -557 0
559 -72 -558 0
-559 72 0
-559 558 0
560 -76 -553 0
-560 76 0
-560 553 0
-561 78 560 0
561 -78 0
561 -560 0
562 -80 -561 0
-562 80 0
-562 561 0
563 -38 -474 0
-563 38 0
-563 474 0
-564 40 227 563 0
564 -40 0
564 -227 0
564 -563 0
565 -101 -564 0
-565 101 0
-565 564 0
-566 60 10 12 14 263 0
566 -60 0
566 -10 0
566 -12 0
566 -14 0
566 -263 0
567 -96 -566 0
-567 96 0
-567 566 0
-568 36 231 32 567 0
568 -36 0
568 -231 0
568 -32 0
568 -567 0
569 -118 -568 0
-569 118 0
-569 568 0
-570 120 7 556 559 73 562 565 102 569 0
570 -120 0
570 -7 0
570 -556 0
570 -559 0
570 -73 0
570 -562 0
570 -565 0
570 -102 0
570 -569 0
571 -159 -570 0
-571 159 0
-571 570 0
-572 21 540 17 552 571 0
572 -21 0
572 -540 0
572 -17 0
572 -552 0
572 -571 0
573 -23 -572 0
-573 23 0
-573 572 0
-574 25 529 573 0
574 -25 0
574 -529 0
574 -573 0
575 -274 -574 0
-575 274 0
-575 574 0
576 -276 -452 0
-576 276 0
-576 452 0
-577 278 505 575 576 0
577 -278 0
577 -505 0
577 -575 0
577 -576 0
578 -280 -577 0
-578 280 0
-578 577 0
-579 284 1 455 578 281 0
579 -284 0
579 -1 0
579 -455 0
579 -578 0
579 -281 0
580 -320 -579 0
-580 320 0
-580 579 0
-581 6 580 0
581 -6 0
581 -580 0
582 -44 -581 0
-582 44 0
-582 581 0
583 -189 -444 0
-583 189 0
-583 444 0
584 -96 -506 0
-584 96 0
-584 506 0
-585 36 32 584 0
585 -36 0
585 -32 0
585 -584 0
586 -38 -585 0
-586 38 0
-586 585 0
-587 40 586 0
587 -40 0
587 -586 0
588 -51 -587 0
-588 51 0
-588 587 0
-589 29 588 0
589 -29 0
589 -588 0
590 -215 -589 0
-590 215 0
-590 589 0
-591 40 563 0
591 -40 0
591 -563 0
592 -51 -591 0
-592 51 0
-592 591 0
-593 29 592 0
593 -29 0
593 -592 0
594 -55 -593 0
-594 55 0
-594 593 0
595 -83 -553 0
-595 83 0
-595 553 0
-596 21 594 17 595 0
596 -21 0
596 -594 0
596 -17 0
596 -595 0
597 -23 -596 0
-597 23 0
-597 596 0
-598 25 590 597 0
598 -25 0
598 -590 0
598 -597 0
599 -274 -598 0
-599 274 0
-599 598 0
-600 278 583 599 0
600 -278 0
600 -583 0
600 -599 0
601 -280 -600 0
-601 280 0
-601 600 0
-602 284 1 298 601 281 0
602 -284 0
602 -1 0
602 -298 0
602 -601 0
602 -281 0
603 -320 -602 0
-603 320 0
-603 602 0
-604 6 603 0
604 -6 0
604 -603 0
605 -5 -604 0
-605 5 0
-605 604 0
-606 60 334 338 12 14 41 57 0
606 -60 0
606 -334 0
606 -338 0
606 -12 0
606 -14 0
606 -41 0
606 -57 0
607 -62 -606 0
-607 62 0
-607 606 0
-608 64 607 0
608 -64 0
608 -607 0
609 -66 -608 0
-609 66 0
-609 608 0
610 -68 -606 0
-610 68 0
-610 606 0
-611 70 610 0
611 -70 0
611 -610 0
612 -72 -611 0
-612 72 0
-612 611 0
613 -76 -606 0
-613 76 0
-613 606 0
-614 78 613 0
614 -78 0
614 -613 0
615 -80 -614 0
-615 80 0
-615 614 0
-616 60 354 357 12 14 0
616 -60 0
616 -354 0
616 -357 0
616 -12 0
616 -14 0
617 -83 -616 0
-617 83 0
-617 616 0
-618 21 17 617 0
618 -21 0
618 -17 0
618 -617 0
619 -23 -618 0
-619 23 0
-619 618 0
-620 25 619 0
620 -25 0
620 -619 0
621 -27 -620 0
-621 27 0
-621 620 0
-622 29 621 0
622 -29 0
622 -621 0
623 -31 -622 0
-623 31 0
-623 622 0
-624 60 378 381 12 14 93 0
624 -60 0
624 -378 0
624 -381 0
624 -12 0
624 -14 0
624 -93 0
625 -96 -624 0
-625 96 0
-625 624 0
-626 36 32 625 0
626 -36 0
626 -32 0
626 -625 0
627 -38 -626 0
-627 38 0
-627 626 0
-628 40 623 627 0
628 -40 0
628 -623 0
628 -627 0
629 -101 -628 0
-629 101 0
-629 628 0
-630 40 623 0
630 -40 0
630 -623 0
631 -106 -630 0
-631 106 0
-631 630 0
-632 60 404 407 12 14 108 113 0
632 -60 0
632 -404 0
632 -407 0
632 -12 0
632 -14 0
632 -108 0
632 -113 0
633 -96 -632 0
-633 96 0
-633 632 0
-634 36 631 32 633 0
634 -36 0
634 -631 0
634 -32 0
634 -633 0
635 -118 -634 0
-635 118 0
-635 634 0
-636 120 605 7 609 612 73 615 629 102 635 0
636 -120 0
636 -605 0
636 -7 0
636 -609 0
636 -612 0
636 -73 0
636 -615 0
636 -629 0
636 -102 0
636 -635 0
637 -138 -636 0
-637 138 0
-637 636 0
-638 46 582 637 0
638 -46 0
638 -582 0
638 -637 0
639 -640 -638 0
-639 640 0
-639 638 0
-641 642 287 293 295 420 639 0
641 -642 0
641 -287 0
641 -293 0
641 -295 0
641 -420 0
641 -639 0
643 -644 -641 0
-643 644 0
-643 641 0
645 -646 -283 0
-645 646 0
-645 283 0
647 -648 -292 0
-647 648 0
-647 292 0
-649 650 643 645 647 0
649 -650 0
649 -643 0
649 -645 0
649 -647 0
651 -652 -649 0
-651 652 0
-651 649 0
653 -654 -655 0
-653 654 0
-653 655 0
-656 657 653 0
656 -657 0
656 -653 0
658 -659 -656 0
-658 659 0
-658 656 0
-660 661 658 0
660 -661 0
660 -658 0
662 -663 -660 0
-662 663 0
-662 660 0
664 -665 -666 0
-664 665 0
-664 666 0
667 -668 -649 0
-667 668 0
-667 649 0
-669 670 667 0
669 -670 0
669 -667 0
671 -672 -669 0
-671 672 0
-671 669 0
673 -674 -641 0
-673 674 0
-673 641 0
-675 676 673 0
675 -676 0
675 -673 0
677 -678 -675 0
-677 678 0
-677 675 0
-679 680 285 651 662 664 671 677 0
679 -680 0
679 -285 0
679 -651 0
679 -662 0
679 -664 0
679 -671 0
679 -677 0
681 -682 -679 0
-681 682 0
-681 679 0
683 -663 -661 0
-683 663 0
-683 661 0
-684 680 285 651 683 664 671 677 0
684 -680 0
684 -285 0
684 -651 0
684 -683 0
684 -664 0
684 -671 0
684 -677 0
685 -686 -684 0
-685 686 0
-685 684 0
-687 657 685 653 0
687 -657 0
687 -685 0
687 -653 0
688 -689 -687 0
-688 689 0
-688 687 0
690 -691 -655 0
-690 691 0
-690 655 0
-692 693 681 688 690 0
692 -693 0
692 -681 0
692 -688 0
692 -690 0
694 -695 -692 0
-694 695 0
-694 692 0
-696 697 694 0
696 -697 0
696 -694 0
698 -696 -699 0
-698 696 0
-698 699 0
698 0
