c BC-S1.2
p cnf 541 1670
1 -2 -3 0
-1 2 0
-1 3 0
-4 5 1 0
4 -5 0
4 -1 0
6 -7 -4 0
-6 7 0
-6 4 0
8 -9 -3 0
-8 9 0
-8 3 0
-10 11 8 0
10 -11 0
10 -8 0
12 -13 -10 0
-12 13 0
-12 10 0
-14 15 6 12 0
14 -15 0
14 -6 0
14 -12 0
16 -17 -14 0
-16 17 0
-16 14 0
18 -19 -4 0
-18 19 0
-18 4 0
20 -21 -22 0
-20 21 0
-20 22 0
23 -24 -4 0
-23 24 0
-23 4 0
-25 26 23 0
25 -26 0
25 -23 0
27 -28 -25 0
-27 28 0
-27 25 0
-29 30 20 27 0
29 -30 0
29 -20 0
29 -27 0
31 -32 -29 0
-31 32 0
-31 29 0
-33 34 18 31 0
33 -34 0
33 -18 0
33 -31 0
35 -36 -33 0
-35 36 0
-35 33 0
37 -38 -4 0
-37 38 0
-37 4 0
39 -40 -33 0
-39 40 0
-39 33 0
41 -42 -29 0
-41 42 0
-41 29 0
43 -44 -33 0
-43 44 0
-43 33 0
-45 46 43 0
45 -46 0
45 -43 0
47 -48 -45 0
-47 48 0
-47 45 0
-49 50 39 41 47 0
49 -50 0
49 -39 0
49 -41 0
49 -47 0
51 -52 -49 0
-51 52 0
-51 49 0
53 -54 -10 0
-53 54 0
-53 10 0
55 -56 -22 0
-55 56 0
-55 22 0
-57 58 35 37 51 53 55 0
57 -58 0
57 -35 0
57 -37 0
57 -51 0
57 -53 0
57 -55 0
59 -60 -57 0
-59 60 0
-59 57 0
61 -62 -4 0
-61 62 0
-61 4 0
63 -48 -46 0
-63 48 0
-63 46 0
-64 50 41 63 0
64 -50 0
64 -41 0
64 -63 0
65 -52 -64 0
-65 52 0
-65 64 0
-66 58 37 65 53 55 0
66 -58 0
66 -37 0
66 -65 0
66 -53 0
66 -55 0
67 -68 -66 0
-67 68 0
-67 66 0
-69 30 67 20 27 0
69 -30 0
69 -67 0
69 -20 0
69 -27 0
70 -32 -69 0
-70 32 0
-70 69 0
-71 34 18 70 0
71 -34 0
71 -18 0
71 -70 0
72 -73 -71 0
-72 73 0
-72 71 0
-74 34 18 0
74 -34 0
74 -18 0
75 -36 -74 0
-75 36 0
-75 74 0
76 -40 -74 0
-76 40 0
-76 74 0
77 -44 -74 0
-77 44 0
-77 74 0
-78 46 77 0
78 -46 0
78 -77 0
79 -48 -78 0
-79 48 0
-79 78 0
-80 50 76 41 79 0
80 -50 0
80 -76 0
80 -41 0
80 -79 0
81 -52 -80 0
-81 52 0
-81 80 0
-82 58 75 37 81 53 55 0
82 -58 0
82 -75 0
82 -37 0
82 -81 0
82 -53 0
82 -55 0
83 -68 -82 0
-83 68 0
-83 82 0
-84 30 83 20 27 0
84 -30 0
84 -83 0
84 -20 0
84 -27 0
85 -86 -84 0
-85 86 0
-85 84 0
87 -88 -84 0
-87 88 0
-87 84 0
89 -90 -25 0
-89 90 0
-89 25 0
-91 92 87 89 0
91 -92 0
91 -87 0
91 -89 0
93 -94 -91 0
-93 94 0
-93 91 0
95 -96 -57 0
-95 96 0
-95 57 0
97 -98 -14 0
-97 98 0
-97 14 0
99 -100 -57 0
-99 100 0
-99 57 0
101 -102 -84 0
-101 102 0
-101 84 0
103 -104 -4 0
-103 104 0
-103 4 0
-105 106 103 0
105 -106 0
105 -103 0
107 -108 -105 0
-107 108 0
-107 105 0
-109 110 97 99 101 107 0
109 -110 0
109 -97 0
109 -99 0
109 -101 0
109 -107 0
111 -112 -109 0
-111 112 0
-111 109 0
-113 114 95 111 0
113 -114 0
113 -95 0
113 -111 0
115 -116 -113 0
-115 116 0
-115 113 0
117 -118 -14 0
-117 118 0
-117 14 0
119 -120 -10 0
-119 120 0
-119 10 0
-121 122 117 119 0
121 -122 0
121 -117 0
121 -119 0
123 -124 -121 0
-123 124 0
-123 121 0
-125 126 16 59 61 72 85 93 115 123 0
125 -126 0
125 -16 0
125 -59 0
125 -61 0
125 -72 0
125 -85 0
125 -93 0
125 -115 0
125 -123 0
127 -128 -125 0
-127 128 0
-127 125 0
-129 15 12 0
129 -15 0
129 -12 0
130 -17 -129 0
-130 17 0
-130 129 0
131 -28 -26 0
-131 28 0
-131 26 0
-132 30 20 131 0
132 -30 0
132 -20 0
132 -131 0
133 -42 -132 0
-133 42 0
-133 132 0
-134 50 133 63 0
134 -50 0
134 -133 0
134 -63 0
135 -52 -134 0
-135 52 0
-135 134 0
-136 58 135 53 55 0
136 -58 0
136 -135 0
136 -53 0
136 -55 0
137 -60 -136 0
-137 60 0
-137 136 0
-138 50 63 0
138 -50 0
138 -63 0
139 -52 -138 0
-139 52 0
-139 138 0
-140 58 139 53 55 0
140 -58 0
140 -139 0
140 -53 0
140 -55 0
141 -68 -140 0
-141 68 0
-141 140 0
-142 30 141 20 131 0
142 -30 0
142 -141 0
142 -20 0
142 -131 0
143 -86 -142 0
-143 86 0
-143 142 0
144 -88 -142 0
-144 88 0
-144 142 0
145 -90 -26 0
-145 90 0
-145 26 0
-146 92 144 145 0
146 -92 0
146 -144 0
146 -145 0
147 -94 -146 0
-147 94 0
-147 146 0
148 -96 -136 0
-148 96 0
-148 136 0
149 -98 -129 0
-149 98 0
-149 129 0
150 -100 -136 0
-150 100 0
-150 136 0
151 -102 -142 0
-151 102 0
-151 142 0
152 -108 -106 0
-152 108 0
-152 106 0
-153 110 149 150 151 152 0
153 -110 0
153 -149 0
153 -150 0
153 -151 0
153 -152 0
154 -112 -153 0
-154 112 0
-154 153 0
-155 114 148 154 0
155 -114 0
155 -148 0
155 -154 0
156 -116 -155 0
-156 116 0
-156 155 0
157 -118 -129 0
-157 118 0
-157 129 0
-158 122 157 119 0
158 -122 0
158 -157 0
158 -119 0
159 -124 -158 0
-159 124 0
-159 158 0
-160 126 130 137 143 147 156 159 0
160 -126 0
160 -130 0
160 -137 0
160 -143 0
160 -147 0
160 -156 0
160 -159 0
161 -162 -160 0
-161 162 0
-161 160 0
-163 3 161 0
163 -3 0
163 -161 0
164 -2 -163 0
-164 2 0
-164 163 0
-165 5 164 0
165 -5 0
165 -164 0
166 -19 -165 0
-166 19 0
-166 165 0
-167 92 145 0
167 -92 0
167 -145 0
168 -94 -167 0
-168 94 0
-168 167 0
-169 110 149 152 0
169 -110 0
169 -149 0
169 -152 0
170 -112 -169 0
-170 112 0
-170 169 0
-171 114 170 0
171 -114 0
171 -170 0
172 -116 -171 0
-172 116 0
-172 171 0
-173 126 130 168 172 159 0
173 -126 0
173 -130 0
173 -168 0
173 -172 0
173 -159 0
174 -162 -173 0
-174 162 0
-174 173 0
-175 3 174 0
175 -3 0
175 -174 0
176 -2 -175 0
-176 2 0
-176 175 0
-177 5 176 0
177 -5 0
177 -176 0
178 -38 -177 0
-178 38 0
-178 177 0
-179 92 89 0
179 -92 0
179 -89 0
180 -94 -179 0
-180 94 0
-180 179 0
-181 110 97 107 0
181 -110 0
181 -97 0
181 -107 0
182 -112 -181 0
-182 112 0
-182 181 0
-183 114 182 0
183 -114 0
183 -182 0
184 -116 -183 0
-184 116 0
-184 183 0
-185 126 16 61 180 184 123 0
185 -126 0
185 -16 0
185 -61 0
185 -180 0
185 -184 0
185 -123 0
186 -187 -185 0
-186 187 0
-186 185 0
-188 50 186 63 0
188 -50 0
188 -186 0
188 -63 0
189 -52 -188 0
-189 52 0
-189 188 0
-190 15 6 0
190 -15 0
190 -6 0
191 -17 -190 0
-191 17 0
-191 190 0
192 -98 -190 0
-192 98 0
-192 190 0
-193 110 192 107 0
193 -110 0
193 -192 0
193 -107 0
194 -112 -193 0
-194 112 0
-194 193 0
-195 114 194 0
195 -114 0
195 -194 0
196 -116 -195 0
-196 116 0
-196 195 0
197 -118 -190 0
-197 118 0
-197 190 0
-198 122 197 119 0
198 -122 0
198 -197 0
198 -119 0
199 -124 -198 0
-199 124 0
-199 198 0
-200 126 191 61 180 196 199 0
200 -126 0
200 -191 0
200 -61 0
200 -180 0
200 -196 0
200 -199 0
201 -202 -200 0
-201 202 0
-201 200 0
203 -7 -5 0
-203 7 0
-203 5 0
-204 15 203 0
204 -15 0
204 -203 0
205 -17 -204 0
-205 17 0
-205 204 0
206 -62 -5 0
-206 62 0
-206 5 0
207 -24 -5 0
-207 24 0
-207 5 0
-208 26 207 0
208 -26 0
208 -207 0
209 -90 -208 0
-209 90 0
-209 208 0
-210 92 209 0
210 -92 0
210 -209 0
211 -94 -210 0
-211 94 0
-211 210 0
212 -98 -204 0
-212 98 0
-212 204 0
213 -104 -5 0
-213 104 0
-213 5 0
-214 106 213 0
214 -106 0
214 -213 0
215 -108 -214 0
-215 108 0
-215 214 0
-216 110 212 215 0
216 -110 0
216 -212 0
216 -215 0
217 -112 -216 0
-217 112 0
-217 216 0
-218 114 217 0
218 -114 0
218 -217 0
219 -116 -218 0
-219 116 0
-219 218 0
220 -118 -204 0
-220 118 0
-220 204 0
-221 122 220 0
221 -122 0
221 -220 0
222 -124 -221 0
-222 124 0
-222 221 0
-223 126 205 206 211 219 222 0
223 -126 0
223 -205 0
223 -206 0
223 -211 0
223 -219 0
223 -222 0
224 -162 -223 0
-224 162 0
-224 223 0
-225 3 224 0
225 -3 0
225 -224 0
226 -9 -225 0
-226 9 0
-226 225 0
-227 11 201 226 0
227 -11 0
227 -201 0
227 -226 0
228 -54 -227 0
-228 54 0
-228 227 0
-229 58 178 189 228 55 0
229 -58 0
229 -178 0
229 -189 0
229 -228 0
229 -55 0
230 -68 -229 0
-230 68 0
-230 229 0
231 -60 -140 0
-231 60 0
-231 140 0
232 -96 -140 0
-232 96 0
-232 140 0
233 -100 -140 0
-233 100 0
-233 140 0
-234 110 149 233 152 0
234 -110 0
234 -149 0
234 -233 0
234 -152 0
235 -112 -234 0
-235 112 0
-235 234 0
-236 114 232 235 0
236 -114 0
236 -232 0
236 -235 0
237 -116 -236 0
-237 116 0
-237 236 0
-238 126 130 231 168 237 159 0
238 -126 0
238 -130 0
238 -231 0
238 -168 0
238 -237 0
238 -159 0
239 -162 -238 0
-239 162 0
-239 238 0
-240 3 239 0
240 -3 0
240 -239 0
241 -2 -240 0
-241 2 0
-241 240 0
-242 5 241 0
242 -5 0
242 -241 0
243 -24 -242 0
-243 24 0
-243 242 0
-244 26 243 0
244 -26 0
244 -243 0
245 -28 -244 0
-245 28 0
-245 244 0
-246 30 230 20 245 0
246 -30 0
246 -230 0
246 -20 0
246 -245 0
247 -32 -246 0
-247 32 0
-247 246 0
-248 34 166 247 0
248 -34 0
248 -166 0
248 -247 0
249 -250 -248 0
-249 250 0
-249 248 0
-251 110 192 99 101 107 0
251 -110 0
251 -192 0
251 -99 0
251 -101 0
251 -107 0
252 -112 -251 0
-252 112 0
-252 251 0
-253 114 95 252 0
253 -114 0
253 -95 0
253 -252 0
254 -116 -253 0
-254 116 0
-254 253 0
-255 126 191 59 61 72 85 93 254 199 0
255 -126 0
255 -191 0
255 -59 0
255 -61 0
255 -72 0
255 -85 0
255 -93 0
255 -254 0
255 -199 0
256 -202 -255 0
-256 202 0
-256 255 0
257 -19 -5 0
-257 19 0
-257 5 0
258 -28 -208 0
-258 28 0
-258 208 0
-259 30 20 258 0
259 -30 0
259 -20 0
259 -258 0
260 -32 -259 0
-260 32 0
-260 259 0
-261 34 257 260 0
261 -34 0
261 -257 0
261 -260 0
262 -36 -261 0
-262 36 0
-262 261 0
263 -38 -5 0
-263 38 0
-263 5 0
264 -40 -261 0
-264 40 0
-264 261 0
265 -42 -259 0
-265 42 0
-265 259 0
266 -44 -261 0
-266 44 0
-266 261 0
-267 46 266 0
267 -46 0
267 -266 0
268 -48 -267 0
-268 48 0
-268 267 0
-269 50 264 265 268 0
269 -50 0
269 -264 0
269 -265 0
269 -268 0
270 -52 -269 0
-270 52 0
-270 269 0
-271 58 262 263 270 55 0
271 -58 0
271 -262 0
271 -263 0
271 -270 0
271 -55 0
272 -60 -271 0
-272 60 0
-272 271 0
-273 58 263 139 55 0
273 -58 0
273 -263 0
273 -139 0
273 -55 0
274 -68 -273 0
-274 68 0
-274 273 0
-275 30 274 20 258 0
275 -30 0
275 -274 0
275 -20 0
275 -258 0
276 -32 -275 0
-276 32 0
-276 275 0
-277 34 257 276 0
277 -34 0
277 -257 0
277 -276 0
278 -73 -277 0
-278 73 0
-278 277 0
-279 34 257 0
279 -34 0
279 -257 0
280 -36 -279 0
-280 36 0
-280 279 0
281 -40 -279 0
-281 40 0
-281 279 0
282 -44 -279 0
-282 44 0
-282 279 0
-283 46 282 0
283 -46 0
283 -282 0
284 -48 -283 0
-284 48 0
-284 283 0
-285 50 281 284 0
285 -50 0
285 -281 0
285 -284 0
286 -52 -285 0
-286 52 0
-286 285 0
-287 58 280 263 286 55 0
287 -58 0
287 -280 0
287 -263 0
287 -286 0
287 -55 0
288 -68 -287 0
-288 68 0
-288 287 0
-289 30 288 20 258 0
289 -30 0
289 -288 0
289 -20 0
289 -258 0
290 -86 -289 0
-290 86 0
-290 289 0
291 -88 -289 0
-291 88 0
-291 289 0
-292 92 291 209 0
292 -92 0
292 -291 0
292 -209 0
293 -94 -292 0
-293 94 0
-293 292 0
294 -96 -271 0
-294 96 0
-294 271 0
295 -100 -271 0
-295 100 0
-295 271 0
296 -102 -289 0
-296 102 0
-296 289 0
-297 110 212 295 296 215 0
297 -110 0
297 -212 0
297 -295 0
297 -296 0
297 -215 0
298 -112 -297 0
-298 112 0
-298 297 0
-299 114 294 298 0
299 -114 0
299 -294 0
299 -298 0
300 -116 -299 0
-300 116 0
-300 299 0
-301 126 205 272 206 278 290 293 300 222 0
301 -126 0
301 -205 0
301 -272 0
301 -206 0
301 -278 0
301 -290 0
301 -293 0
301 -300 0
301 -222 0
302 -162 -301 0
-302 162 0
-302 301 0
-303 3 302 0
303 -3 0
303 -302 0
304 -9 -303 0
-304 9 0
-304 303 0
-305 11 256 304 0
305 -11 0
305 -256 0
305 -304 0
306 -307 -305 0
-306 307 0
-306 305 0
308 -309 -22 0
-308 309 0
-308 22 0
-310 50 133 0
310 -50 0
310 -133 0
311 -52 -310 0
-311 52 0
-311 310 0
-312 58 311 53 55 0
312 -58 0
312 -311 0
312 -53 0
312 -55 0
313 -60 -312 0
-313 60 0
-313 312 0
314 -52 -50 0
-314 52 0
-314 50 0
-315 58 314 53 55 0
315 -58 0
315 -314 0
315 -53 0
315 -55 0
316 -68 -315 0
-316 68 0
-316 315 0
-317 30 316 20 131 0
317 -30 0
317 -316 0
317 -20 0
317 -131 0
318 -86 -317 0
-318 86 0
-318 317 0
319 -88 -317 0
-319 88 0
-319 317 0
-320 92 319 145 0
320 -92 0
320 -319 0
320 -145 0
321 -94 -320 0
-321 94 0
-321 320 0
322 -96 -312 0
-322 96 0
-322 312 0
323 -100 -312 0
-323 100 0
-323 312 0
324 -102 -317 0
-324 102 0
-324 317 0
-325 110 149 323 324 152 0
325 -110 0
325 -149 0
325 -323 0
325 -324 0
325 -152 0
326 -112 -325 0
-326 112 0
-326 325 0
-327 114 322 326 0
327 -114 0
327 -322 0
327 -326 0
328 -116 -327 0
-328 116 0
-328 327 0
-329 126 130 313 318 321 328 159 0
329 -126 0
329 -130 0
329 -313 0
329 -318 0
329 -321 0
329 -328 0
329 -159 0
330 -162 -329 0
-330 162 0
-330 329 0
-331 3 330 0
331 -3 0
331 -330 0
332 -2 -331 0
-332 2 0
-332 331 0
-333 5 332 0
333 -5 0
333 -332 0
334 -19 -333 0
-334 19 0
-334 333 0
-335 50 186 0
335 -50 0
335 -186 0
336 -52 -335 0
-336 52 0
-336 335 0
-337 58 178 336 228 55 0
337 -58 0
337 -178 0
337 -336 0
337 -228 0
337 -55 0
338 -68 -337 0
-338 68 0
-338 337 0
339 -60 -315 0
-339 60 0
-339 315 0
340 -96 -315 0
-340 96 0
-340 315 0
341 -100 -315 0
-341 100 0
-341 315 0
-342 110 149 341 152 0
342 -110 0
342 -149 0
342 -341 0
342 -152 0
343 -112 -342 0
-343 112 0
-343 342 0
-344 114 340 343 0
344 -114 0
344 -340 0
344 -343 0
345 -116 -344 0
-345 116 0
-345 344 0
-346 126 130 339 168 345 159 0
346 -126 0
346 -130 0
346 -339 0
346 -168 0
346 -345 0
346 -159 0
347 -162 -346 0
-347 162 0
-347 346 0
-348 3 347 0
348 -3 0
348 -347 0
349 -2 -348 0
-349 2 0
-349 348 0
-350 5 349 0
350 -5 0
350 -349 0
351 -24 -350 0
-351 24 0
-351 350 0
-352 26 351 0
352 -26 0
352 -351 0
353 -28 -352 0
-353 28 0
-353 352 0
-354 30 338 20 353 0
354 -30 0
354 -338 0
354 -20 0
354 -353 0
355 -32 -354 0
-355 32 0
-355 354 0
-356 34 334 355 0
356 -34 0
356 -334 0
356 -355 0
357 -44 -356 0
-357 44 0
-357 356 0
-358 46 357 0
358 -46 0
358 -357 0
359 -360 -358 0
-359 360 0
-359 358 0
-361 30 20 0
361 -30 0
361 -20 0
362 -32 -361 0
-362 32 0
-362 361 0
-363 34 257 362 0
363 -34 0
363 -257 0
363 -362 0
364 -36 -363 0
-364 36 0
-364 363 0
365 -40 -363 0
-365 40 0
-365 363 0
366 -42 -361 0
-366 42 0
-366 361 0
367 -44 -363 0
-367 44 0
-367 363 0
-368 46 367 0
368 -46 0
368 -367 0
369 -48 -368 0
-369 48 0
-369 368 0
-370 50 365 366 369 0
370 -50 0
370 -365 0
370 -366 0
370 -369 0
371 -52 -370 0
-371 52 0
-371 370 0
-372 58 364 371 53 55 0
372 -58 0
372 -364 0
372 -371 0
372 -53 0
372 -55 0
373 -60 -372 0
-373 60 0
-373 372 0
-374 30 141 20 0
374 -30 0
374 -141 0
374 -20 0
375 -32 -374 0
-375 32 0
-375 374 0
-376 34 257 375 0
376 -34 0
376 -257 0
376 -375 0
377 -73 -376 0
-377 73 0
-377 376 0
-378 58 280 286 53 55 0
378 -58 0
378 -280 0
378 -286 0
378 -53 0
378 -55 0
379 -68 -378 0
-379 68 0
-379 378 0
-380 30 379 20 0
380 -30 0
380 -379 0
380 -20 0
381 -86 -380 0
-381 86 0
-381 380 0
382 -88 -380 0
-382 88 0
-382 380 0
-383 92 382 145 0
383 -92 0
383 -382 0
383 -145 0
384 -94 -383 0
-384 94 0
-384 383 0
385 -96 -372 0
-385 96 0
-385 372 0
386 -100 -372 0
-386 100 0
-386 372 0
387 -102 -380 0
-387 102 0
-387 380 0
-388 110 149 386 387 152 0
388 -110 0
388 -149 0
388 -386 0
388 -387 0
388 -152 0
389 -112 -388 0
-389 112 0
-389 388 0
-390 114 385 389 0
390 -114 0
390 -385 0
390 -389 0
391 -116 -390 0
-391 116 0
-391 390 0
-392 126 130 373 377 381 384 391 159 0
392 -126 0
392 -130 0
392 -373 0
392 -377 0
392 -381 0
392 -384 0
392 -391 0
392 -159 0
393 -162 -392 0
-393 162 0
-393 392 0
-394 3 393 0
394 -3 0
394 -393 0
395 -2 -394 0
-395 2 0
-395 394 0
-396 5 395 0
396 -5 0
396 -395 0
397 -24 -396 0
-397 24 0
-397 396 0
-398 26 397 0
398 -26 0
398 -397 0
399 -400 -398 0
-399 400 0
-399 398 0
-401 402 127 249 306 308 359 399 0
401 -402 0
401 -127 0
401 -249 0
401 -306 0
401 -308 0
401 -359 0
401 -399 0
403 -404 -401 0
-403 404 0
-403 401 0
405 -32 -142 0
-405 32 0
-405 142 0
-406 34 257 405 0
406 -34 0
406 -257 0
406 -405 0
407 -250 -406 0
-407 250 0
-407 406 0
408 -307 -10 0
-408 307 0
-408 10 0
409 -32 -317 0
-409 32 0
-409 317 0
-410 34 257 409 0
410 -34 0
410 -257 0
410 -409 0
411 -44 -410 0
-411 44 0
-411 410 0
-412 46 411 0
412 -46 0
412 -411 0
413 -360 -412 0
-413 360 0
-413 412 0
414 -400 -26 0
-414 400 0
-414 26 0
-415 402 407 408 308 413 414 0
415 -402 0
415 -407 0
415 -408 0
415 -308 0
415 -413 0
415 -414 0
416 -417 -415 0
-416 417 0
-416 415 0
-418 5 416 0
418 -5 0
418 -416 0
419 -7 -418 0
-419 7 0
-419 418 0
-420 15 419 12 0
420 -15 0
420 -419 0
420 -12 0
421 -17 -420 0
-421 17 0
-421 420 0
422 -360 -46 0
-422 360 0
-422 46 0
-423 402 408 308 422 414 0
423 -402 0
423 -408 0
423 -308 0
423 -422 0
423 -414 0
424 -417 -423 0
-424 417 0
-424 423 0
-425 5 424 0
425 -5 0
425 -424 0
426 -19 -425 0
-426 19 0
-426 425 0
427 -24 -425 0
-427 24 0
-427 425 0
-428 26 427 0
428 -26 0
428 -427 0
429 -28 -428 0
-429 28 0
-429 428 0
-430 30 20 429 0
430 -30 0
430 -20 0
430 -429 0
431 -32 -430 0
-431 32 0
-431 430 0
-432 34 426 431 0
432 -34 0
432 -426 0
432 -431 0
433 -36 -432 0
-433 36 0
-433 432 0
434 -250 -261 0
-434 250 0
-434 261 0
435 -360 -267 0
-435 360 0
-435 267 0
-436 402 434 408 308 435 414 0
436 -402 0
436 -434 0
436 -408 0
436 -308 0
436 -435 0
436 -414 0
437 -417 -436 0
-437 417 0
-437 436 0
-438 5 437 0
438 -5 0
438 -437 0
439 -38 -438 0
-439 38 0
-439 438 0
440 -40 -432 0
-440 40 0
-440 432 0
441 -250 -279 0
-441 250 0
-441 279 0
442 -360 -283 0
-442 360 0
-442 283 0
-443 402 441 408 308 442 414 0
443 -402 0
443 -441 0
443 -408 0
443 -308 0
443 -442 0
443 -414 0
444 -417 -443 0
-444 417 0
-444 443 0
-445 5 444 0
445 -5 0
445 -444 0
446 -24 -445 0
-446 24 0
-446 445 0
-447 26 446 0
447 -26 0
447 -446 0
448 -28 -447 0
-448 28 0
-448 447 0
-449 30 20 448 0
449 -30 0
449 -20 0
449 -448 0
450 -42 -449 0
-450 42 0
-450 449 0
451 -44 -432 0
-451 44 0
-451 432 0
-452 46 451 0
452 -46 0
452 -451 0
453 -48 -452 0
-453 48 0
-453 452 0
-454 50 440 450 453 0
454 -50 0
454 -440 0
454 -450 0
454 -453 0
455 -52 -454 0
-455 52 0
-455 454 0
-456 58 433 439 455 53 55 0
456 -58 0
456 -433 0
456 -439 0
456 -455 0
456 -53 0
456 -55 0
457 -60 -456 0
-457 60 0
-457 456 0
458 -62 -418 0
-458 62 0
-458 418 0
459 -38 -425 0
-459 38 0
-459 425 0
-460 58 459 139 53 55 0
460 -58 0
460 -459 0
460 -139 0
460 -53 0
460 -55 0
461 -68 -460 0
-461 68 0
-461 460 0
-462 30 461 20 429 0
462 -30 0
462 -461 0
462 -20 0
462 -429 0
463 -32 -462 0
-463 32 0
-463 462 0
-464 34 426 463 0
464 -34 0
464 -426 0
464 -463 0
465 -73 -464 0
-465 73 0
-465 464 0
-466 34 426 0
466 -34 0
466 -426 0
467 -36 -466 0
-467 36 0
-467 466 0
468 -38 -445 0
-468 38 0
-468 445 0
469 -40 -466 0
-469 40 0
-469 466 0
470 -44 -466 0
-470 44 0
-470 466 0
-471 46 470 0
471 -46 0
471 -470 0
472 -48 -471 0
-472 48 0
-472 471 0
-473 50 469 472 0
473 -50 0
473 -469 0
473 -472 0
474 -52 -473 0
-474 52 0
-474 473 0
-475 58 467 468 474 53 55 0
475 -58 0
475 -467 0
475 -468 0
475 -474 0
475 -53 0
475 -55 0
476 -68 -475 0
-476 68 0
-476 475 0
-477 30 476 20 448 0
477 -30 0
477 -476 0
477 -20 0
477 -448 0
478 -86 -477 0
-478 86 0
-478 477 0
479 -88 -477 0
-479 88 0
-479 477 0
480 -250 -376 0
-480 250 0
-480 376 0
-481 30 316 20 0
481 -30 0
481 -316 0
481 -20 0
482 -32 -481 0
-482 32 0
-482 481 0
-483 34 257 482 0
483 -34 0
483 -257 0
483 -482 0
484 -44 -483 0
-484 44 0
-484 483 0
-485 46 484 0
485 -46 0
485 -484 0
486 -360 -485 0
-486 360 0
-486 485 0
-487 402 480 408 308 486 414 0
487 -402 0
487 -480 0
487 -408 0
487 -308 0
487 -486 0
487 -414 0
488 -417 -487 0
-488 417 0
-488 487 0
-489 5 488 0
489 -5 0
489 -488 0
490 -24 -489 0
-490 24 0
-490 489 0
-491 26 490 0
491 -26 0
491 -490 0
492 -90 -491 0
-492 90 0
-492 491 0
-493 92 479 492 0
493 -92 0
493 -479 0
493 -492 0
494 -94 -493 0
-494 94 0
-494 493 0
495 -96 -456 0
-495 96 0
-495 456 0
496 -98 -420 0
-496 98 0
-496 420 0
497 -100 -456 0
-497 100 0
-497 456 0
498 -102 -477 0
-498 102 0
-498 477 0
-499 58 263 139 53 55 0
499 -58 0
499 -263 0
499 -139 0
499 -53 0
499 -55 0
500 -68 -499 0
-500 68 0
-500 499 0
-501 30 500 20 258 0
501 -30 0
501 -500 0
501 -20 0
501 -258 0
502 -32 -501 0
-502 32 0
-502 501 0
-503 34 257 502 0
503 -34 0
503 -257 0
503 -502 0
504 -250 -503 0
-504 250 0
-504 503 0
-505 58 263 314 53 55 0
505 -58 0
505 -263 0
505 -314 0
505 -53 0
505 -55 0
506 -68 -505 0
-506 68 0
-506 505 0
-507 30 506 20 258 0
507 -30 0
507 -506 0
507 -20 0
507 -258 0
508 -32 -507 0
-508 32 0
-508 507 0
-509 34 257 508 0
509 -34 0
509 -257 0
509 -508 0
510 -44 -509 0
-510 44 0
-510 509 0
-511 46 510 0
511 -46 0
511 -510 0
512 -360 -511 0
-512 360 0
-512 511 0
513 -400 -208 0
-513 400 0
-513 208 0
-514 402 504 408 308 512 513 0
514 -402 0
514 -504 0
514 -408 0
514 -308 0
514 -512 0
514 -513 0
515 -516 -514 0
-515 516 0
-515 514 0
517 -104 -418 0
-517 104 0
-517 418 0
518 -519 -514 0
-518 519 0
-518 514 0
-520 106 517 518 0
520 -106 0
520 -517 0
520 -518 0
521 -108 -520 0
-521 108 0
-521 520 0
-522 110 496 497 498 515 521 0
522 -110 0
522 -496 0
522 -497 0
522 -498 0
522 -515 0
522 -521 0
523 -112 -522 0
-523 112 0
-523 522 0
-524 114 495 523 0
524 -114 0
524 -495 0
524 -523 0
525 -116 -524 0
-525 116 0
-525 524 0
526 -118 -420 0
-526 118 0
-526 420 0
-527 122 526 119 0
527 -122 0
527 -526 0
527 -119 0
528 -124 -527 0
-528 124 0
-528 527 0
-529 126 421 457 458 465 478 494 525 528 0
529 -126 0
529 -421 0
529 -457 0
529 -458 0
529 -465 0
529 -478 0
529 -494 0
529 -525 0
529 -528 0
530 -162 -529 0
-530 162 0
-530 529 0
-531 3 530 0
531 -3 0
531 -530 0
532 -533 -531 0
-532 533 0
-532 531 0
-534 535 403 532 0
534 -535 0
534 -403 0
534 -532 0
536 -537 -534 0
-536 537 0
-536 534 0
-538 539 536 0
538 -539 0
538 -536 0
540 -538 -541 0
-540 538 0
-540 541 0
540 0
