c BC-S1.2
p cnf 543 1659
1 -2 -3 0
-1 2 0
-1 3 0
-4 5 1 0
4 -5 0
4 -1 0
6 -7 -4 0
-6 7 0
-6 4 0
-8 9 6 0
8 -9 0
8 -6 0
10 -11 -8 0
-10 11 0
-10 8 0
12 -13 -4 0
-12 13 0
-12 4 0
14 -15 -8 0
-14 15 0
-14 8 0
-16 17 14 0
16 -17 0
16 -14 0
18 -19 -16 0
-18 19 0
-18 16 0
20 -21 -3 0
-20 21 0
-20 3 0
-22 23 12 18 20 0
22 -23 0
22 -12 0
22 -18 0
22 -20 0
24 -25 -22 0
-24 25 0
-24 22 0
26 -27 -28 0
-26 27 0
-26 28 0
29 -30 -31 0
-29 30 0
-29 31 0
32 -33 -34 0
-32 33 0
-32 34 0
35 -36 -34 0
-35 36 0
-35 34 0
37 -38 -39 0
-37 38 0
-37 39 0
40 -41 -42 0
-40 41 0
-40 42 0
-43 44 40 0
43 -44 0
43 -40 0
45 -46 -43 0
-45 46 0
-45 43 0
-47 48 45 0
47 -48 0
47 -45 0
49 -50 -47 0
-49 50 0
-49 47 0
-51 52 49 0
51 -52 0
51 -49 0
53 -54 -51 0
-53 54 0
-53 51 0
55 -56 -57 0
-55 56 0
-55 57 0
-58 59 55 0
58 -59 0
58 -55 0
60 -61 -58 0
-60 61 0
-60 58 0
-62 63 53 60 0
62 -63 0
62 -53 0
62 -60 0
64 -65 -62 0
-64 65 0
-64 62 0
-66 67 35 37 64 0
66 -67 0
66 -35 0
66 -37 0
66 -64 0
68 -69 -66 0
-68 69 0
-68 66 0
-70 71 68 0
70 -71 0
70 -68 0
72 -73 -70 0
-72 73 0
-72 70 0
74 -75 -39 0
-74 75 0
-74 39 0
-76 67 35 37 0
76 -67 0
76 -35 0
76 -37 0
77 -78 -76 0
-77 78 0
-77 76 0
-79 48 45 77 0
79 -48 0
79 -45 0
79 -77 0
80 -50 -79 0
-80 50 0
-80 79 0
-81 52 80 0
81 -52 0
81 -80 0
82 -54 -81 0
-82 54 0
-82 81 0
83 -84 -76 0
-83 84 0
-83 76 0
-85 59 55 83 0
85 -59 0
85 -55 0
85 -83 0
86 -61 -85 0
-86 61 0
-86 85 0
87 -88 -76 0
-87 88 0
-87 76 0
-89 63 82 86 87 0
89 -63 0
89 -82 0
89 -86 0
89 -87 0
90 -91 -89 0
-90 91 0
-90 89 0
92 -93 -52 0
-92 93 0
-92 52 0
94 -54 -52 0
-94 54 0
-94 52 0
-95 63 94 86 87 0
95 -63 0
95 -94 0
95 -86 0
95 -87 0
96 -97 -95 0
-96 97 0
-96 95 0
-98 42 96 0
98 -42 0
98 -96 0
99 -41 -98 0
-99 41 0
-99 98 0
-100 44 92 99 0
100 -44 0
100 -92 0
100 -99 0
101 -46 -100 0
-101 46 0
-101 100 0
-102 63 94 60 0
102 -63 0
102 -94 0
102 -60 0
103 -65 -102 0
-103 65 0
-103 102 0
-104 67 35 37 103 0
104 -67 0
104 -35 0
104 -37 0
104 -103 0
105 -78 -104 0
-105 78 0
-105 104 0
-106 48 101 105 0
106 -48 0
106 -101 0
106 -105 0
107 -108 -106 0
-107 108 0
-107 106 0
109 -110 -66 0
-109 110 0
-109 66 0
-111 112 29 32 72 74 90 107 109 0
111 -112 0
111 -29 0
111 -32 0
111 -72 0
111 -74 0
111 -90 0
111 -107 0
111 -109 0
113 -114 -111 0
-113 114 0
-113 111 0
-115 116 113 0
115 -116 0
115 -113 0
117 -118 -115 0
-117 118 0
-117 115 0
119 -120 -121 0
-119 120 0
-119 121 0
-122 123 10 24 26 117 119 0
122 -123 0
122 -10 0
122 -24 0
122 -26 0
122 -117 0
122 -119 0
124 -125 -122 0
-124 125 0
-124 122 0
126 -127 -122 0
-126 127 0
-126 122 0
128 -129 -122 0
-128 129 0
-128 122 0
130 -131 -122 0
-130 131 0
-130 122 0
-132 133 130 0
132 -133 0
132 -130 0
134 -135 -132 0
-134 135 0
-134 132 0
136 -137 -28 0
-136 137 0
-136 28 0
-138 139 128 134 136 0
138 -139 0
138 -128 0
138 -134 0
138 -136 0
140 -141 -138 0
-140 141 0
-140 138 0
142 -143 -132 0
-142 143 0
-142 132 0
144 -145 -122 0
-144 145 0
-144 122 0
146 -147 -138 0
-146 147 0
-146 138 0
148 -118 -116 0
-148 118 0
-148 116 0
-149 123 10 24 26 148 119 0
149 -123 0
149 -10 0
149 -24 0
149 -26 0
149 -148 0
149 -119 0
150 -151 -149 0
-150 151 0
-150 149 0
-152 48 150 45 0
152 -48 0
152 -150 0
152 -45 0
153 -50 -152 0
-153 50 0
-153 152 0
-154 52 153 0
154 -52 0
154 -153 0
155 -54 -154 0
-155 54 0
-155 154 0
-156 63 155 60 0
156 -63 0
156 -155 0
156 -60 0
157 -65 -156 0
-157 65 0
-157 156 0
-158 67 35 37 157 0
158 -67 0
158 -35 0
158 -37 0
158 -157 0
159 -69 -158 0
-159 69 0
-159 158 0
-160 71 159 0
160 -71 0
160 -159 0
161 -73 -160 0
-161 73 0
-161 160 0
-162 48 150 45 77 0
162 -48 0
162 -150 0
162 -45 0
162 -77 0
163 -50 -162 0
-163 50 0
-163 162 0
-164 52 163 0
164 -52 0
164 -163 0
165 -54 -164 0
-165 54 0
-165 164 0
-166 63 165 86 87 0
166 -63 0
166 -165 0
166 -86 0
166 -87 0
167 -91 -166 0
-167 91 0
-167 166 0
-168 48 150 101 105 0
168 -48 0
168 -150 0
168 -101 0
168 -105 0
169 -108 -168 0
-169 108 0
-169 168 0
170 -110 -158 0
-170 110 0
-170 158 0
-171 112 29 32 161 74 167 169 170 0
171 -112 0
171 -29 0
171 -32 0
171 -161 0
171 -74 0
171 -167 0
171 -169 0
171 -170 0
172 -173 -171 0
-172 173 0
-172 171 0
-174 175 144 146 172 0
174 -175 0
174 -144 0
174 -146 0
174 -172 0
176 -177 -174 0
-176 177 0
-176 174 0
-178 123 10 24 26 119 0
178 -123 0
178 -10 0
178 -24 0
178 -26 0
178 -119 0
179 -180 -178 0
-179 180 0
-179 178 0
181 -151 -178 0
-181 151 0
-181 178 0
-182 48 181 45 0
182 -48 0
182 -181 0
182 -45 0
183 -50 -182 0
-183 50 0
-183 182 0
-184 52 183 0
184 -52 0
184 -183 0
185 -54 -184 0
-185 54 0
-185 184 0
-186 63 185 60 0
186 -63 0
186 -185 0
186 -60 0
187 -65 -186 0
-187 65 0
-187 186 0
-188 67 35 37 187 0
188 -67 0
188 -35 0
188 -37 0
188 -187 0
189 -69 -188 0
-189 69 0
-189 188 0
-190 71 189 0
190 -71 0
190 -189 0
191 -73 -190 0
-191 73 0
-191 190 0
-192 48 181 45 77 0
192 -48 0
192 -181 0
192 -45 0
192 -77 0
193 -50 -192 0
-193 50 0
-193 192 0
-194 52 193 0
194 -52 0
194 -193 0
195 -54 -194 0
-195 54 0
-195 194 0
-196 63 195 86 87 0
196 -63 0
196 -195 0
196 -86 0
196 -87 0
197 -91 -196 0
-197 91 0
-197 196 0
-198 48 181 101 105 0
198 -48 0
198 -181 0
198 -101 0
198 -105 0
199 -108 -198 0
-199 108 0
-199 198 0
200 -110 -188 0
-200 110 0
-200 188 0
-201 112 29 32 191 74 197 199 200 0
201 -112 0
201 -29 0
201 -32 0
201 -191 0
201 -74 0
201 -197 0
201 -199 0
201 -200 0
202 -114 -201 0
-202 114 0
-202 201 0
-203 116 179 202 0
203 -116 0
203 -179 0
203 -202 0
204 -205 -203 0
-204 205 0
-204 203 0
206 -207 -121 0
-206 207 0
-206 121 0
-208 209 126 140 142 176 204 206 0
208 -209 0
208 -126 0
208 -140 0
208 -142 0
208 -176 0
208 -204 0
208 -206 0
210 -211 -208 0
-210 211 0
-210 208 0
212 -213 -138 0
-212 213 0
-212 138 0
214 -215 -174 0
-214 215 0
-214 174 0
-216 217 124 210 212 214 0
216 -217 0
216 -124 0
216 -210 0
216 -212 0
216 -214 0
218 -219 -216 0
-218 219 0
-218 216 0
-220 221 218 0
220 -221 0
220 -218 0
222 -223 -220 0
-222 223 0
-222 220 0
224 -225 -221 0
-224 225 0
-224 221 0
226 -227 -221 0
-226 227 0
-226 221 0
228 -73 -71 0
-228 73 0
-228 71 0
229 -91 -62 0
-229 91 0
-229 62 0
230 -97 -102 0
-230 97 0
-230 102 0
-231 42 230 0
231 -42 0
231 -230 0
232 -41 -231 0
-232 41 0
-232 231 0
-233 44 92 232 0
233 -44 0
233 -92 0
233 -232 0
234 -46 -233 0
-234 46 0
-234 233 0
-235 48 234 0
235 -48 0
235 -234 0
236 -108 -235 0
-236 108 0
-236 235 0
-237 112 226 29 32 228 74 229 236 0
237 -112 0
237 -226 0
237 -29 0
237 -32 0
237 -228 0
237 -74 0
237 -229 0
237 -236 0
238 -114 -237 0
-238 114 0
-238 237 0
-239 116 238 0
239 -116 0
239 -238 0
240 -118 -239 0
-240 118 0
-240 239 0
-241 123 10 24 224 26 240 119 0
241 -123 0
241 -10 0
241 -24 0
241 -224 0
241 -26 0
241 -240 0
241 -119 0
242 -125 -241 0
-242 125 0
-242 241 0
243 -127 -241 0
-243 127 0
-243 241 0
244 -129 -241 0
-244 129 0
-244 241 0
245 -131 -241 0
-245 131 0
-245 241 0
-246 133 245 0
246 -133 0
246 -245 0
247 -135 -246 0
-247 135 0
-247 246 0
-248 139 244 247 136 0
248 -139 0
248 -244 0
248 -247 0
248 -136 0
249 -141 -248 0
-249 141 0
-249 248 0
250 -143 -246 0
-250 143 0
-250 246 0
251 -145 -241 0
-251 145 0
-251 241 0
252 -147 -248 0
-252 147 0
-252 248 0
-253 123 10 24 224 26 148 119 0
253 -123 0
253 -10 0
253 -24 0
253 -224 0
253 -26 0
253 -148 0
253 -119 0
254 -151 -253 0
-254 151 0
-254 253 0
-255 48 254 45 0
255 -48 0
255 -254 0
255 -45 0
256 -50 -255 0
-256 50 0
-256 255 0
-257 52 256 0
257 -52 0
257 -256 0
258 -54 -257 0
-258 54 0
-258 257 0
-259 63 258 60 0
259 -63 0
259 -258 0
259 -60 0
260 -91 -259 0
-260 91 0
-260 259 0
-261 48 254 234 0
261 -48 0
261 -254 0
261 -234 0
262 -108 -261 0
-262 108 0
-262 261 0
-263 112 226 29 32 228 74 260 262 0
263 -112 0
263 -226 0
263 -29 0
263 -32 0
263 -228 0
263 -74 0
263 -260 0
263 -262 0
264 -173 -263 0
-264 173 0
-264 263 0
-265 175 251 252 264 0
265 -175 0
265 -251 0
265 -252 0
265 -264 0
266 -177 -265 0
-266 177 0
-266 265 0
-267 123 10 24 224 26 119 0
267 -123 0
267 -10 0
267 -24 0
267 -224 0
267 -26 0
267 -119 0
268 -180 -267 0
-268 180 0
-268 267 0
269 -151 -267 0
-269 151 0
-269 267 0
-270 48 269 45 0
270 -48 0
270 -269 0
270 -45 0
271 -50 -270 0
-271 50 0
-271 270 0
-272 52 271 0
272 -52 0
272 -271 0
273 -54 -272 0
-273 54 0
-273 272 0
-274 63 273 60 0
274 -63 0
274 -273 0
274 -60 0
275 -91 -274 0
-275 91 0
-275 274 0
-276 48 269 234 0
276 -48 0
276 -269 0
276 -234 0
277 -108 -276 0
-277 108 0
-277 276 0
-278 112 226 29 32 228 74 275 277 0
278 -112 0
278 -226 0
278 -29 0
278 -32 0
278 -228 0
278 -74 0
278 -275 0
278 -277 0
279 -114 -278 0
-279 114 0
-279 278 0
-280 116 268 279 0
280 -116 0
280 -268 0
280 -279 0
281 -205 -280 0
-281 205 0
-281 280 0
-282 209 243 249 250 266 281 206 0
282 -209 0
282 -243 0
282 -249 0
282 -250 0
282 -266 0
282 -281 0
282 -206 0
283 -211 -282 0
-283 211 0
-283 282 0
284 -213 -248 0
-284 213 0
-284 248 0
285 -215 -265 0
-285 215 0
-285 265 0
-286 217 242 283 284 285 0
286 -217 0
286 -242 0
286 -283 0
286 -284 0
286 -285 0
287 -288 -286 0
-287 288 0
-287 286 0
-289 112 29 32 228 74 229 236 0
289 -112 0
289 -29 0
289 -32 0
289 -228 0
289 -74 0
289 -229 0
289 -236 0
290 -114 -289 0
-290 114 0
-290 289 0
-291 116 290 0
291 -116 0
291 -290 0
292 -118 -291 0
-292 118 0
-292 291 0
-293 123 10 24 26 292 119 0
293 -123 0
293 -10 0
293 -24 0
293 -26 0
293 -292 0
293 -119 0
294 -125 -293 0
-294 125 0
-294 293 0
295 -127 -293 0
-295 127 0
-295 293 0
296 -129 -293 0
-296 129 0
-296 293 0
297 -131 -293 0
-297 131 0
-297 293 0
-298 133 297 0
298 -133 0
298 -297 0
299 -135 -298 0
-299 135 0
-299 298 0
-300 139 296 299 136 0
300 -139 0
300 -296 0
300 -299 0
300 -136 0
301 -141 -300 0
-301 141 0
-301 300 0
302 -143 -298 0
-302 143 0
-302 298 0
303 -145 -293 0
-303 145 0
-303 293 0
304 -147 -300 0
-304 147 0
-304 300 0
305 -91 -156 0
-305 91 0
-305 156 0
-306 48 150 234 0
306 -48 0
306 -150 0
306 -234 0
307 -108 -306 0
-307 108 0
-307 306 0
-308 112 29 32 228 74 305 307 0
308 -112 0
308 -29 0
308 -32 0
308 -228 0
308 -74 0
308 -305 0
308 -307 0
309 -173 -308 0
-309 173 0
-309 308 0
-310 175 303 304 309 0
310 -175 0
310 -303 0
310 -304 0
310 -309 0
311 -177 -310 0
-311 177 0
-311 310 0
312 -91 -186 0
-312 91 0
-312 186 0
-313 48 181 234 0
313 -48 0
313 -181 0
313 -234 0
314 -108 -313 0
-314 108 0
-314 313 0
-315 112 29 32 228 74 312 314 0
315 -112 0
315 -29 0
315 -32 0
315 -228 0
315 -74 0
315 -312 0
315 -314 0
316 -114 -315 0
-316 114 0
-316 315 0
-317 116 179 316 0
317 -116 0
317 -179 0
317 -316 0
318 -205 -317 0
-318 205 0
-318 317 0
-319 209 295 301 302 311 318 206 0
319 -209 0
319 -295 0
319 -301 0
319 -302 0
319 -311 0
319 -318 0
319 -206 0
320 -211 -319 0
-320 211 0
-320 319 0
321 -213 -300 0
-321 213 0
-321 300 0
322 -215 -310 0
-322 215 0
-322 310 0
-323 217 294 320 321 322 0
323 -217 0
323 -294 0
323 -320 0
323 -321 0
323 -322 0
324 -219 -323 0
-324 219 0
-324 323 0
-325 221 324 0
325 -221 0
325 -324 0
326 -327 -325 0
-326 327 0
-326 325 0
328 -135 -133 0
-328 135 0
-328 133 0
-329 139 328 136 0
329 -139 0
329 -328 0
329 -136 0
330 -141 -329 0
-330 141 0
-330 329 0
331 -143 -133 0
-331 143 0
-331 133 0
332 -147 -329 0
-332 147 0
-332 329 0
-333 112 29 32 228 74 0
333 -112 0
333 -29 0
333 -32 0
333 -228 0
333 -74 0
334 -173 -333 0
-334 173 0
-334 333 0
-335 175 332 334 0
335 -175 0
335 -332 0
335 -334 0
336 -177 -335 0
-336 177 0
-336 335 0
337 -114 -333 0
-337 114 0
-337 333 0
-338 116 337 0
338 -116 0
338 -337 0
339 -205 -338 0
-339 205 0
-339 338 0
-340 209 330 331 336 339 206 0
340 -209 0
340 -330 0
340 -331 0
340 -336 0
340 -339 0
340 -206 0
341 -211 -340 0
-341 211 0
-341 340 0
342 -213 -329 0
-342 213 0
-342 329 0
343 -215 -335 0
-343 215 0
-343 335 0
-344 217 341 342 343 0
344 -217 0
344 -341 0
344 -342 0
344 -343 0
345 -219 -344 0
-345 219 0
-345 344 0
-346 221 345 0
346 -221 0
346 -345 0
347 -225 -346 0
-347 225 0
-347 346 0
-348 175 332 0
348 -175 0
348 -332 0
349 -177 -348 0
-349 177 0
-349 348 0
-350 209 330 331 349 206 0
350 -209 0
350 -330 0
350 -331 0
350 -349 0
350 -206 0
351 -211 -350 0
-351 211 0
-351 350 0
352 -215 -348 0
-352 215 0
-352 348 0
-353 217 351 342 352 0
353 -217 0
353 -351 0
353 -342 0
353 -352 0
354 -219 -353 0
-354 219 0
-354 353 0
-355 221 354 0
355 -221 0
355 -354 0
356 -227 -355 0
-356 227 0
-356 355 0
357 -358 -353 0
-357 358 0
-357 353 0
-359 31 357 0
359 -31 0
359 -357 0
360 -30 -359 0
-360 30 0
-360 359 0
-361 112 356 360 32 228 74 0
361 -112 0
361 -356 0
361 -360 0
361 -32 0
361 -228 0
361 -74 0
362 -114 -361 0
-362 114 0
-362 361 0
-363 116 362 0
363 -116 0
363 -362 0
364 -118 -363 0
-364 118 0
-364 363 0
-365 123 10 24 347 26 364 119 0
365 -123 0
365 -10 0
365 -24 0
365 -347 0
365 -26 0
365 -364 0
365 -119 0
366 -151 -365 0
-366 151 0
-366 365 0
-367 123 10 24 224 26 364 119 0
367 -123 0
367 -10 0
367 -24 0
367 -224 0
367 -26 0
367 -364 0
367 -119 0
368 -125 -367 0
-368 125 0
-368 367 0
-369 112 226 29 32 228 74 0
369 -112 0
369 -226 0
369 -29 0
369 -32 0
369 -228 0
369 -74 0
370 -114 -369 0
-370 114 0
-370 369 0
-371 116 370 0
371 -116 0
371 -370 0
372 -118 -371 0
-372 118 0
-372 371 0
-373 123 10 24 224 26 372 119 0
373 -123 0
373 -10 0
373 -24 0
373 -224 0
373 -26 0
373 -372 0
373 -119 0
374 -127 -373 0
-374 127 0
-374 373 0
375 -129 -373 0
-375 129 0
-375 373 0
376 -131 -373 0
-376 131 0
-376 373 0
-377 133 376 0
377 -133 0
377 -376 0
378 -135 -377 0
-378 135 0
-378 377 0
-379 139 375 378 136 0
379 -139 0
379 -375 0
379 -378 0
379 -136 0
380 -141 -379 0
-380 141 0
-380 379 0
381 -143 -377 0
-381 143 0
-381 377 0
382 -145 -373 0
-382 145 0
-382 373 0
383 -147 -379 0
-383 147 0
-383 379 0
384 -173 -369 0
-384 173 0
-384 369 0
-385 175 382 383 384 0
385 -175 0
385 -382 0
385 -383 0
385 -384 0
386 -177 -385 0
-386 177 0
-386 385 0
-387 116 268 370 0
387 -116 0
387 -268 0
387 -370 0
388 -205 -387 0
-388 205 0
-388 387 0
-389 209 374 380 381 386 388 206 0
389 -209 0
389 -374 0
389 -380 0
389 -381 0
389 -386 0
389 -388 0
389 -206 0
390 -211 -389 0
-390 211 0
-390 389 0
391 -213 -379 0
-391 213 0
-391 379 0
392 -215 -385 0
-392 215 0
-392 385 0
-393 217 368 390 391 392 0
393 -217 0
393 -368 0
393 -390 0
393 -391 0
393 -392 0
394 -395 -393 0
-394 395 0
-394 393 0
396 -125 -149 0
-396 125 0
-396 149 0
397 -127 -149 0
-397 127 0
-397 149 0
398 -129 -149 0
-398 129 0
-398 149 0
399 -131 -149 0
-399 131 0
-399 149 0
-400 133 399 0
400 -133 0
400 -399 0
401 -135 -400 0
-401 135 0
-401 400 0
-402 139 398 401 136 0
402 -139 0
402 -398 0
402 -401 0
402 -136 0
403 -141 -402 0
-403 141 0
-403 402 0
404 -143 -400 0
-404 143 0
-404 400 0
405 -145 -149 0
-405 145 0
-405 149 0
406 -147 -402 0
-406 147 0
-406 402 0
-407 175 405 406 0
407 -175 0
407 -405 0
407 -406 0
408 -177 -407 0
-408 177 0
-408 407 0
-409 116 179 0
409 -116 0
409 -179 0
410 -205 -409 0
-410 205 0
-410 409 0
-411 209 397 403 404 408 410 206 0
411 -209 0
411 -397 0
411 -403 0
411 -404 0
411 -408 0
411 -410 0
411 -206 0
412 -211 -411 0
-412 211 0
-412 411 0
413 -213 -402 0
-413 213 0
-413 402 0
414 -215 -407 0
-414 215 0
-414 407 0
-415 217 396 412 413 414 0
415 -217 0
415 -396 0
415 -412 0
415 -413 0
415 -414 0
416 -219 -415 0
-416 219 0
-416 415 0
-417 221 416 0
417 -221 0
417 -416 0
418 -227 -417 0
-418 227 0
-418 417 0
419 -125 -253 0
-419 125 0
-419 253 0
420 -127 -253 0
-420 127 0
-420 253 0
421 -129 -253 0
-421 129 0
-421 253 0
422 -131 -253 0
-422 131 0
-422 253 0
-423 133 422 0
423 -133 0
423 -422 0
424 -135 -423 0
-424 135 0
-424 423 0
-425 139 421 424 136 0
425 -139 0
425 -421 0
425 -424 0
425 -136 0
426 -141 -425 0
-426 141 0
-426 425 0
427 -143 -423 0
-427 143 0
-427 423 0
428 -145 -253 0
-428 145 0
-428 253 0
429 -147 -425 0
-429 147 0
-429 425 0
-430 175 428 429 0
430 -175 0
430 -428 0
430 -429 0
431 -177 -430 0
-431 177 0
-431 430 0
-432 116 268 0
432 -116 0
432 -268 0
433 -205 -432 0
-433 205 0
-433 432 0
-434 209 420 426 427 431 433 206 0
434 -209 0
434 -420 0
434 -426 0
434 -427 0
434 -431 0
434 -433 0
434 -206 0
435 -211 -434 0
-435 211 0
-435 434 0
436 -213 -425 0
-436 213 0
-436 425 0
437 -215 -430 0
-437 215 0
-437 430 0
-438 217 419 435 436 437 0
438 -217 0
438 -419 0
438 -435 0
438 -436 0
438 -437 0
439 -358 -438 0
-439 358 0
-439 438 0
-440 31 439 0
440 -31 0
440 -439 0
441 -30 -440 0
-441 30 0
-441 440 0
-442 112 418 441 32 228 74 0
442 -112 0
442 -418 0
442 -441 0
442 -32 0
442 -228 0
442 -74 0
443 -444 -442 0
-443 444 0
-443 442 0
-445 42 394 443 0
445 -42 0
445 -394 0
445 -443 0
446 -41 -445 0
-446 41 0
-446 445 0
-447 44 446 0
447 -44 0
447 -446 0
448 -46 -447 0
-448 46 0
-448 447 0
449 -450 -442 0
-449 450 0
-449 442 0
-451 48 366 448 449 0
451 -48 0
451 -366 0
451 -448 0
451 -449 0
452 -50 -451 0
-452 50 0
-452 451 0
-453 52 452 0
453 -52 0
453 -452 0
454 -54 -453 0
-454 54 0
-454 453 0
-455 209 330 331 349 339 206 0
455 -209 0
455 -330 0
455 -331 0
455 -349 0
455 -339 0
455 -206 0
456 -211 -455 0
-456 211 0
-456 455 0
-457 217 456 342 352 0
457 -217 0
457 -456 0
457 -342 0
457 -352 0
458 -219 -457 0
-458 219 0
-458 457 0
-459 221 458 0
459 -221 0
459 -458 0
460 -225 -459 0
-460 225 0
-460 459 0
-461 123 10 24 460 26 148 119 0
461 -123 0
461 -10 0
461 -24 0
461 -460 0
461 -26 0
461 -148 0
461 -119 0
462 -151 -461 0
-462 151 0
-462 461 0
463 -395 -438 0
-463 395 0
-463 438 0
-464 42 463 0
464 -42 0
464 -463 0
465 -41 -464 0
-465 41 0
-465 464 0
-466 44 92 465 0
466 -44 0
466 -92 0
466 -465 0
467 -46 -466 0
-467 46 0
-467 466 0
-468 48 462 467 0
468 -48 0
468 -462 0
468 -467 0
469 -108 -468 0
-469 108 0
-469 468 0
-470 112 418 441 32 228 74 469 0
470 -112 0
470 -418 0
470 -441 0
470 -32 0
470 -228 0
470 -74 0
470 -469 0
471 -472 -470 0
-471 472 0
-471 470 0
-473 57 471 0
473 -57 0
473 -471 0
474 -56 -473 0
-474 56 0
-474 473 0
475 -476 -470 0
-475 476 0
-475 470 0
-477 59 474 475 0
477 -59 0
477 -474 0
477 -475 0
478 -61 -477 0
-478 61 0
-478 477 0
-479 63 454 478 0
479 -63 0
479 -454 0
479 -478 0
480 -65 -479 0
-480 65 0
-480 479 0
-481 67 287 326 35 37 480 0
481 -67 0
481 -287 0
481 -326 0
481 -35 0
481 -37 0
481 -480 0
482 -483 -481 0
-482 483 0
-482 481 0
484 -288 -438 0
-484 288 0
-484 438 0
485 -327 -417 0
-485 327 0
-485 417 0
486 -205 -116 0
-486 205 0
-486 116 0
-487 209 330 331 349 486 206 0
487 -209 0
487 -330 0
487 -331 0
487 -349 0
487 -486 0
487 -206 0
488 -211 -487 0
-488 211 0
-488 487 0
-489 217 488 342 352 0
489 -217 0
489 -488 0
489 -342 0
489 -352 0
490 -219 -489 0
-490 219 0
-490 489 0
-491 221 490 0
491 -221 0
491 -490 0
492 -225 -491 0
-492 225 0
-492 491 0
-493 123 10 24 492 26 148 119 0
493 -123 0
493 -10 0
493 -24 0
493 -492 0
493 -26 0
493 -148 0
493 -119 0
494 -151 -493 0
-494 151 0
-494 493 0
-495 44 465 0
495 -44 0
495 -465 0
496 -46 -495 0
-496 46 0
-496 495 0
-497 48 494 496 0
497 -48 0
497 -494 0
497 -496 0
498 -50 -497 0
-498 50 0
-498 497 0
-499 52 498 0
499 -52 0
499 -498 0
500 -54 -499 0
-500 54 0
-500 499 0
-501 63 500 60 0
501 -63 0
501 -500 0
501 -60 0
502 -65 -501 0
-502 65 0
-502 501 0
-503 67 484 485 35 37 502 0
503 -67 0
503 -484 0
503 -485 0
503 -35 0
503 -37 0
503 -502 0
504 -69 -503 0
-504 69 0
-504 503 0
-505 71 504 0
505 -71 0
505 -504 0
506 -73 -505 0
-506 73 0
-506 505 0
-507 67 484 485 35 37 0
507 -67 0
507 -484 0
507 -485 0
507 -35 0
507 -37 0
508 -78 -507 0
-508 78 0
-508 507 0
-509 48 494 496 508 0
509 -48 0
509 -494 0
509 -496 0
509 -508 0
510 -50 -509 0
-510 50 0
-510 509 0
-511 52 510 0
511 -52 0
511 -510 0
512 -54 -511 0
-512 54 0
-512 511 0
513 -84 -507 0
-513 84 0
-513 507 0
-514 59 55 513 0
514 -59 0
514 -55 0
514 -513 0
515 -61 -514 0
-515 61 0
-515 514 0
516 -88 -507 0
-516 88 0
-516 507 0
-517 63 512 515 516 0
517 -63 0
517 -512 0
517 -515 0
517 -516 0
518 -91 -517 0
-518 91 0
-518 517 0
-519 63 94 515 516 0
519 -63 0
519 -94 0
519 -515 0
519 -516 0
520 -97 -519 0
-520 97 0
-520 519 0
-521 42 463 520 0
521 -42 0
521 -463 0
521 -520 0
522 -41 -521 0
-522 41 0
-522 521 0
-523 44 92 522 0
523 -44 0
523 -92 0
523 -522 0
524 -46 -523 0
-524 46 0
-524 523 0
-525 67 484 485 35 37 103 0
525 -67 0
525 -484 0
525 -485 0
525 -35 0
525 -37 0
525 -103 0
526 -78 -525 0
-526 78 0
-526 525 0
-527 48 494 524 526 0
527 -48 0
527 -494 0
527 -524 0
527 -526 0
528 -108 -527 0
-528 108 0
-528 527 0
-529 48 462 496 0
529 -48 0
529 -462 0
529 -496 0
530 -50 -529 0
-530 50 0
-530 529 0
-531 52 530 0
531 -52 0
531 -530 0
532 -54 -531 0
-532 54 0
-532 531 0
-533 63 532 60 0
533 -63 0
533 -532 0
533 -60 0
534 -65 -533 0
-534 65 0
-534 533 0
-535 67 484 485 35 37 534 0
535 -67 0
535 -484 0
535 -485 0
535 -35 0
535 -37 0
535 -534 0
536 -110 -535 0
-536 110 0
-536 535 0
-537 112 418 441 32 506 74 518 528 536 0
537 -112 0
537 -418 0
537 -441 0
537 -32 0
537 -506 0
537 -74 0
537 -518 0
537 -528 0
537 -536 0
538 -539 -537 0
-538 539 0
-538 537 0
-540 541 222 482 538 0
540 -541 0
540 -222 0
540 -482 0
540 -538 0
542 -540 -543 0
-542 540 0
-542 543 0
542 0
