c BC-S1.2
p cnf 183 484
1 -2 -3 0
-1 2 0
-1 3 0
4 -5 -3 0
-4 5 0
-4 3 0
6 -7 -8 0
-6 7 0
-6 8 0
-9 10 6 0
9 -10 0
9 -6 0
11 -12 -9 0
-11 12 0
-11 9 0
13 -14 -9 0
-13 14 0
-13 9 0
-15 16 13 0
15 -16 0
15 -13 0
17 -18 -15 0
-17 18 0
-17 15 0
19 -20 -21 0
-19 20 0
-19 21 0
-22 23 4 11 17 19 0
22 -23 0
22 -4 0
22 -11 0
22 -17 0
22 -19 0
24 -25 -22 0
-24 25 0
-24 22 0
26 -27 -3 0
-26 27 0
-26 3 0
-28 29 26 0
28 -29 0
28 -26 0
30 -31 -28 0
-30 31 0
-30 28 0
32 -33 -3 0
-32 33 0
-32 3 0
34 -35 -22 0
-34 35 0
-34 22 0
-36 37 30 32 34 0
36 -37 0
36 -30 0
36 -32 0
36 -34 0
38 -39 -36 0
-38 39 0
-38 36 0
-40 41 38 0
40 -41 0
40 -38 0
42 -43 -40 0
-42 43 0
-42 40 0
44 -45 -21 0
-44 45 0
-44 21 0
-46 47 1 24 42 44 0
46 -47 0
46 -1 0
46 -24 0
46 -42 0
46 -44 0
48 -49 -46 0
-48 49 0
-48 46 0
-50 47 1 24 44 0
50 -47 0
50 -1 0
50 -24 0
50 -44 0
51 -52 -50 0
-51 52 0
-51 50 0
-53 47 1 44 0
53 -47 0
53 -1 0
53 -44 0
54 -55 -53 0
-54 55 0
-54 53 0
56 -57 -53 0
-56 57 0
-56 53 0
-58 8 56 0
58 -8 0
58 -56 0
59 -7 -58 0
-59 7 0
-59 58 0
-60 10 54 59 0
60 -10 0
60 -54 0
60 -59 0
61 -12 -60 0
-61 12 0
-61 60 0
62 -63 -53 0
-62 63 0
-62 53 0
64 -14 -60 0
-64 14 0
-64 60 0
-65 16 62 64 0
65 -16 0
65 -62 0
65 -64 0
66 -18 -65 0
-66 18 0
-66 65 0
-67 23 4 61 66 19 0
67 -23 0
67 -4 0
67 -61 0
67 -66 0
67 -19 0
68 -35 -67 0
-68 35 0
-68 67 0
-69 37 51 30 32 68 0
69 -37 0
69 -51 0
69 -30 0
69 -32 0
69 -68 0
70 -39 -69 0
-70 39 0
-70 69 0
-71 41 70 0
71 -41 0
71 -70 0
72 -73 -71 0
-72 73 0
-72 71 0
-74 75 48 72 0
74 -75 0
74 -48 0
74 -72 0
76 -77 -74 0
-76 77 0
-76 74 0
78 -12 -10 0
-78 12 0
-78 10 0
79 -14 -10 0
-79 14 0
-79 10 0
-80 16 79 0
80 -16 0
80 -79 0
81 -18 -80 0
-81 18 0
-81 80 0
-82 23 4 78 81 19 0
82 -23 0
82 -4 0
82 -78 0
82 -81 0
82 -19 0
83 -25 -82 0
-83 25 0
-83 82 0
84 -35 -82 0
-84 35 0
-84 82 0
85 -86 -75 0
-85 86 0
-85 75 0
-87 37 30 32 84 85 0
87 -37 0
87 -30 0
87 -32 0
87 -84 0
87 -85 0
88 -39 -87 0
-88 39 0
-88 87 0
-89 41 88 0
89 -41 0
89 -88 0
90 -43 -89 0
-90 43 0
-90 89 0
-91 47 1 83 90 44 0
91 -47 0
91 -1 0
91 -83 0
91 -90 0
91 -44 0
92 -57 -91 0
-92 57 0
-92 91 0
-93 8 92 0
93 -8 0
93 -92 0
94 -95 -93 0
-94 95 0
-94 93 0
-96 23 4 17 19 0
96 -23 0
96 -4 0
96 -17 0
96 -19 0
97 -25 -96 0
-97 25 0
-97 96 0
98 -35 -96 0
-98 35 0
-98 96 0
-99 37 30 32 98 85 0
99 -37 0
99 -30 0
99 -32 0
99 -98 0
99 -85 0
100 -39 -99 0
-100 39 0
-100 99 0
-101 41 100 0
101 -41 0
101 -100 0
102 -43 -101 0
-102 43 0
-102 101 0
-103 47 1 97 102 44 0
103 -47 0
103 -1 0
103 -97 0
103 -102 0
103 -44 0
104 -55 -103 0
-104 55 0
-104 103 0
-105 23 4 81 19 0
105 -23 0
105 -4 0
105 -81 0
105 -19 0
106 -25 -105 0
-106 25 0
-106 105 0
107 -35 -105 0
-107 35 0
-107 105 0
-108 37 30 32 107 85 0
108 -37 0
108 -30 0
108 -32 0
108 -107 0
108 -85 0
109 -39 -108 0
-109 39 0
-109 108 0
-110 41 109 0
110 -41 0
110 -109 0
111 -43 -110 0
-111 43 0
-111 110 0
-112 47 1 106 111 44 0
112 -47 0
112 -1 0
112 -106 0
112 -111 0
112 -44 0
113 -57 -112 0
-113 57 0
-113 112 0
-114 8 113 0
114 -8 0
114 -113 0
115 -7 -114 0
-115 7 0
-115 114 0
-116 10 104 115 0
116 -10 0
116 -104 0
116 -115 0
117 -118 -116 0
-117 118 0
-117 116 0
119 -120 -93 0
-119 120 0
-119 93 0
-121 122 117 119 0
121 -122 0
121 -117 0
121 -119 0
123 -124 -121 0
-123 124 0
-123 121 0
-125 126 76 94 123 0
125 -126 0
125 -76 0
125 -94 0
125 -123 0
127 -128 -125 0
-127 128 0
-127 125 0
-129 37 30 32 98 0
129 -37 0
129 -30 0
129 -32 0
129 -98 0
130 -39 -129 0
-130 39 0
-130 129 0
-131 41 130 0
131 -41 0
131 -130 0
132 -43 -131 0
-132 43 0
-132 131 0
-133 47 1 97 132 44 0
133 -47 0
133 -1 0
133 -97 0
133 -132 0
133 -44 0
134 -49 -133 0
-134 49 0
-134 133 0
-135 47 1 97 44 0
135 -47 0
135 -1 0
135 -97 0
135 -44 0
136 -52 -135 0
-136 52 0
-136 135 0
-137 23 4 66 19 0
137 -23 0
137 -4 0
137 -66 0
137 -19 0
138 -35 -137 0
-138 35 0
-138 137 0
-139 37 136 30 32 138 0
139 -37 0
139 -136 0
139 -30 0
139 -32 0
139 -138 0
140 -39 -139 0
-140 39 0
-140 139 0
-141 41 140 0
141 -41 0
141 -140 0
142 -73 -141 0
-142 73 0
-142 141 0
-143 75 134 142 0
143 -75 0
143 -134 0
143 -142 0
144 -77 -143 0
-144 77 0
-144 143 0
145 -95 -114 0
-145 95 0
-145 114 0
146 -120 -114 0
-146 120 0
-146 114 0
-147 122 146 0
147 -122 0
147 -146 0
148 -124 -147 0
-148 124 0
-148 147 0
-149 126 144 145 148 0
149 -126 0
149 -144 0
149 -145 0
149 -148 0
150 -151 -149 0
-150 151 0
-150 149 0
152 -18 -16 0
-152 18 0
-152 16 0
-153 23 4 152 19 0
153 -23 0
153 -4 0
153 -152 0
153 -19 0
154 -25 -153 0
-154 25 0
-154 153 0
155 -77 -75 0
-155 77 0
-155 75 0
156 -95 -8 0
-156 95 0
-156 8 0
157 -120 -8 0
-157 120 0
-157 8 0
-158 122 157 0
158 -122 0
158 -157 0
159 -124 -158 0
-159 124 0
-159 158 0
-160 126 155 156 159 0
160 -126 0
160 -155 0
160 -156 0
160 -159 0
161 -162 -160 0
-161 162 0
-161 160 0
163 -35 -153 0
-163 35 0
-163 153 0
-164 37 161 30 32 163 85 0
164 -37 0
164 -161 0
164 -30 0
164 -32 0
164 -163 0
164 -85 0
165 -39 -164 0
-165 39 0
-165 164 0
-166 41 165 0
166 -41 0
166 -165 0
167 -43 -166 0
-167 43 0
-167 166 0
-168 47 1 154 167 44 0
168 -47 0
168 -1 0
168 -154 0
168 -167 0
168 -44 0
169 -55 -168 0
-169 55 0
-169 168 0
170 -57 -168 0
-170 57 0
-170 168 0
-171 8 170 0
171 -8 0
171 -170 0
172 -7 -171 0
-172 7 0
-172 171 0
-173 10 150 169 172 0
173 -10 0
173 -150 0
173 -169 0
173 -172 0
174 -175 -173 0
-174 175 0
-174 173 0
-176 177 127 174 0
176 -177 0
176 -127 0
176 -174 0
178 -179 -176 0
-178 179 0
-178 176 0
-180 181 178 0
180 -181 0
180 -178 0
182 -180 -183 0
-182 180 0
-182 183 0
182 0
