c BC-S1.2
p cnf 77 140
1 -2 -3 0
-1 2 0
-1 3 0
4 -5 -6 0
-4 5 0
-4 6 0
-7 8 4 0
7 -8 0
7 -4 0
9 -10 -7 0
-9 10 0
-9 7 0
11 -12 -13 0
-11 12 0
-11 13 0
-14 15 9 11 0
14 -15 0
14 -9 0
14 -11 0
16 -17 -14 0
-16 17 0
-16 14 0
-18 19 16 0
18 -19 0
18 -16 0
20 -21 -18 0
-20 21 0
-20 18 0
22 -23 -18 0
-22 23 0
-22 18 0
24 -25 -19 0
-24 25 0
-24 19 0
-26 13 24 0
26 -13 0
26 -24 0
27 -12 -26 0
-27 12 0
-27 26 0
-28 15 22 9 27 0
28 -15 0
28 -22 0
28 -9 0
28 -27 0
29 -30 -28 0
-29 30 0
-29 28 0
-31 32 20 29 0
31 -32 0
31 -20 0
31 -29 0
33 -34 -31 0
-33 34 0
-33 31 0
-35 36 33 0
35 -36 0
35 -33 0
37 -38 -35 0
-37 38 0
-37 35 0
39 -21 -19 0
-39 21 0
-39 19 0
40 -41 -36 0
-40 41 0
-40 36 0
-42 32 39 40 0
42 -32 0
42 -39 0
42 -40 0
43 -44 -42 0
-43 44 0
-43 42 0
45 -46 -42 0
-45 46 0
-45 42 0
-47 19 45 0
47 -19 0
47 -45 0
48 -23 -47 0
-48 23 0
-48 47 0
49 -25 -47 0
-49 25 0
-49 47 0
-50 13 49 0
50 -13 0
50 -49 0
51 -12 -50 0
-51 12 0
-51 50 0
-52 15 43 48 51 0
52 -15 0
52 -43 0
52 -48 0
52 -51 0
53 -54 -52 0
-53 54 0
-53 52 0
-55 8 53 4 0
55 -8 0
55 -53 0
55 -4 0
56 -57 -55 0
-56 57 0
-56 55 0
58 -59 -6 0
-58 59 0
-58 6 0
-60 61 1 37 56 58 0
60 -61 0
60 -1 0
60 -37 0
60 -56 0
60 -58 0
62 -63 -60 0
-62 63 0
-62 60 0
64 -65 -66 0
-64 65 0
-64 66 0
-67 68 62 64 0
67 -68 0
67 -62 0
67 -64 0
69 -70 -67 0
-69 70 0
-69 67 0
71 -72 -73 0
-71 72 0
-71 73 0
-74 75 69 71 0
74 -75 0
74 -69 0
74 -71 0
76 -74 -77 0
-76 74 0
-76 77 0
76 0
