c BC-S1.2
p cnf 339 1015
1 -2 -3 0
-1 2 0
-1 3 0
4 -5 -3 0
-4 5 0
-4 3 0
-6 7 4 0
6 -7 0
6 -4 0
8 -9 -6 0
-8 9 0
-8 6 0
10 -11 -6 0
-10 11 0
-10 6 0
12 -13 -6 0
-12 13 0
-12 6 0
-14 15 12 0
14 -15 0
14 -12 0
16 -17 -14 0
-16 17 0
-16 14 0
18 -19 -6 0
-18 19 0
-18 6 0
20 -21 -6 0
-20 21 0
-20 6 0
22 -23 -6 0
-22 23 0
-22 6 0
24 -25 -6 0
-24 25 0
-24 6 0
26 -27 -14 0
-26 27 0
-26 14 0
28 -29 -6 0
-28 29 0
-28 6 0
-30 31 28 0
30 -31 0
30 -28 0
32 -33 -30 0
-32 33 0
-32 30 0
-34 35 24 26 32 0
34 -35 0
34 -24 0
34 -26 0
34 -32 0
36 -37 -34 0
-36 37 0
-36 34 0
-38 39 22 36 0
38 -39 0
38 -22 0
38 -36 0
40 -41 -38 0
-40 41 0
-40 38 0
42 -43 -38 0
-42 43 0
-42 38 0
44 -45 -30 0
-44 45 0
-44 30 0
46 -47 -48 0
-46 47 0
-46 48 0
-49 50 42 44 46 0
49 -50 0
49 -42 0
49 -44 0
49 -46 0
51 -52 -49 0
-51 52 0
-51 49 0
53 -54 -3 0
-53 54 0
-53 3 0
-55 56 20 40 51 53 0
55 -56 0
55 -20 0
55 -40 0
55 -51 0
55 -53 0
57 -58 -55 0
-57 58 0
-57 55 0
59 -60 -6 0
-59 60 0
-59 6 0
61 -62 -14 0
-61 62 0
-61 14 0
63 -64 -38 0
-63 64 0
-63 38 0
65 -66 -3 0
-65 66 0
-65 3 0
-67 68 57 59 61 63 65 0
67 -68 0
67 -57 0
67 -59 0
67 -61 0
67 -63 0
67 -65 0
69 -70 -67 0
-69 70 0
-69 67 0
71 -72 -6 0
-71 72 0
-71 6 0
73 -74 -3 0
-73 74 0
-73 3 0
75 -76 -6 0
-75 76 0
-75 6 0
-77 78 75 0
77 -78 0
77 -75 0
79 -80 -77 0
-79 80 0
-79 77 0
-81 82 69 71 73 79 0
81 -82 0
81 -69 0
81 -71 0
81 -73 0
81 -79 0
83 -84 -81 0
-83 84 0
-83 81 0
85 -86 -14 0
-85 86 0
-85 14 0
-87 88 18 83 85 0
87 -88 0
87 -18 0
87 -83 0
87 -85 0
89 -90 -87 0
-89 90 0
-89 87 0
91 -92 -87 0
-91 92 0
-91 87 0
-93 82 71 73 79 0
93 -82 0
93 -71 0
93 -73 0
93 -79 0
94 -84 -93 0
-94 84 0
-94 93 0
-95 88 18 94 85 0
95 -88 0
95 -18 0
95 -94 0
95 -85 0
96 -97 -95 0
-96 97 0
-96 95 0
98 -99 -93 0
-98 99 0
-98 93 0
100 -101 -95 0
-100 101 0
-100 95 0
-102 35 100 24 26 32 0
102 -35 0
102 -100 0
102 -24 0
102 -26 0
102 -32 0
103 -37 -102 0
-103 37 0
-103 102 0
-104 39 22 103 0
104 -39 0
104 -22 0
104 -103 0
105 -41 -104 0
-105 41 0
-105 104 0
106 -43 -104 0
-106 43 0
-106 104 0
-107 50 106 44 46 0
107 -50 0
107 -106 0
107 -44 0
107 -46 0
108 -52 -107 0
-108 52 0
-108 107 0
-109 56 96 98 20 105 108 53 0
109 -56 0
109 -96 0
109 -98 0
109 -20 0
109 -105 0
109 -108 0
109 -53 0
110 -58 -109 0
-110 58 0
-110 109 0
111 -64 -104 0
-111 64 0
-111 104 0
-112 68 91 110 59 61 111 65 0
112 -68 0
112 -91 0
112 -110 0
112 -59 0
112 -61 0
112 -111 0
112 -65 0
113 -114 -112 0
-113 114 0
-113 112 0
-115 68 59 61 63 65 0
115 -68 0
115 -59 0
115 -61 0
115 -63 0
115 -65 0
116 -70 -115 0
-116 70 0
-116 115 0
-117 82 116 71 73 79 0
117 -82 0
117 -116 0
117 -71 0
117 -73 0
117 -79 0
118 -84 -117 0
-118 84 0
-118 117 0
-119 88 18 118 85 0
119 -88 0
119 -18 0
119 -118 0
119 -85 0
120 -97 -119 0
-120 97 0
-120 119 0
-121 88 18 85 0
121 -88 0
121 -18 0
121 -85 0
122 -92 -121 0
-122 92 0
-122 121 0
123 -101 -121 0
-123 101 0
-123 121 0
-124 35 123 24 26 32 0
124 -35 0
124 -123 0
124 -24 0
124 -26 0
124 -32 0
125 -37 -124 0
-125 37 0
-125 124 0
-126 39 22 125 0
126 -39 0
126 -22 0
126 -125 0
127 -64 -126 0
-127 64 0
-127 126 0
-128 68 122 59 61 127 65 0
128 -68 0
128 -122 0
128 -59 0
128 -61 0
128 -127 0
128 -65 0
129 -70 -128 0
-129 70 0
-129 128 0
-130 82 129 71 73 79 0
130 -82 0
130 -129 0
130 -71 0
130 -73 0
130 -79 0
131 -99 -130 0
-131 99 0
-131 130 0
-132 68 59 61 65 0
132 -68 0
132 -59 0
132 -61 0
132 -65 0
133 -70 -132 0
-133 70 0
-133 132 0
-134 82 133 71 73 79 0
134 -82 0
134 -133 0
134 -71 0
134 -73 0
134 -79 0
135 -84 -134 0
-135 84 0
-135 134 0
-136 88 18 135 85 0
136 -88 0
136 -18 0
136 -135 0
136 -85 0
137 -101 -136 0
-137 101 0
-137 136 0
-138 35 137 24 26 32 0
138 -35 0
138 -137 0
138 -24 0
138 -26 0
138 -32 0
139 -37 -138 0
-139 37 0
-139 138 0
-140 39 22 139 0
140 -39 0
140 -22 0
140 -139 0
141 -41 -140 0
-141 41 0
-141 140 0
142 -92 -95 0
-142 92 0
-142 95 0
-143 68 142 59 61 111 65 0
143 -68 0
143 -142 0
143 -59 0
143 -61 0
143 -111 0
143 -65 0
144 -145 -143 0
-144 145 0
-144 143 0
146 -43 -140 0
-146 43 0
-146 140 0
-147 50 144 146 44 46 0
147 -50 0
147 -144 0
147 -146 0
147 -44 0
147 -46 0
148 -52 -147 0
-148 52 0
-148 147 0
-149 56 120 131 20 141 148 53 0
149 -56 0
149 -120 0
149 -131 0
149 -20 0
149 -141 0
149 -148 0
149 -53 0
150 -151 -149 0
-150 151 0
-150 149 0
152 -153 -154 0
-152 153 0
-152 154 0
-155 156 89 113 150 152 0
155 -156 0
155 -89 0
155 -113 0
155 -150 0
155 -152 0
157 -158 -155 0
-157 158 0
-157 155 0
-159 160 157 0
159 -160 0
159 -157 0
161 -162 -159 0
-161 162 0
-161 159 0
163 -164 -48 0
-163 164 0
-163 48 0
165 -166 -154 0
-165 166 0
-165 154 0
-167 168 10 16 161 163 165 0
167 -168 0
167 -10 0
167 -16 0
167 -161 0
167 -163 0
167 -165 0
169 -170 -167 0
-169 170 0
-169 167 0
171 -114 -67 0
-171 114 0
-171 67 0
172 -145 -115 0
-172 145 0
-172 115 0
-173 50 172 42 44 46 0
173 -50 0
173 -172 0
173 -42 0
173 -44 0
173 -46 0
174 -52 -173 0
-174 52 0
-174 173 0
-175 56 20 40 174 53 0
175 -56 0
175 -20 0
175 -40 0
175 -174 0
175 -53 0
176 -151 -175 0
-176 151 0
-176 175 0
-177 156 171 176 152 0
177 -156 0
177 -171 0
177 -176 0
177 -152 0
178 -158 -177 0
-178 158 0
-178 177 0
-179 160 178 0
179 -160 0
179 -178 0
180 -162 -179 0
-180 162 0
-180 179 0
-181 168 10 16 180 163 165 0
181 -168 0
181 -10 0
181 -16 0
181 -180 0
181 -163 0
181 -165 0
182 -183 -181 0
-182 183 0
-182 181 0
-184 82 69 71 182 73 79 0
184 -82 0
184 -69 0
184 -71 0
184 -182 0
184 -73 0
184 -79 0
185 -84 -184 0
-185 84 0
-185 184 0
-186 56 98 20 40 51 53 0
186 -56 0
186 -98 0
186 -20 0
186 -40 0
186 -51 0
186 -53 0
187 -58 -186 0
-187 58 0
-187 186 0
-188 68 187 59 61 63 65 0
188 -68 0
188 -187 0
188 -59 0
188 -61 0
188 -63 0
188 -65 0
189 -114 -188 0
-189 114 0
-189 188 0
190 -99 -117 0
-190 99 0
-190 117 0
-191 56 190 20 40 174 53 0
191 -56 0
191 -190 0
191 -20 0
191 -40 0
191 -174 0
191 -53 0
192 -151 -191 0
-192 151 0
-192 191 0
-193 156 189 192 152 0
193 -156 0
193 -189 0
193 -192 0
193 -152 0
194 -158 -193 0
-194 158 0
-194 193 0
-195 160 194 0
195 -160 0
195 -194 0
196 -162 -195 0
-196 162 0
-196 195 0
-197 168 10 16 196 163 165 0
197 -168 0
197 -10 0
197 -16 0
197 -196 0
197 -163 0
197 -165 0
198 -199 -197 0
-198 199 0
-198 197 0
-200 88 18 185 85 198 0
200 -88 0
200 -18 0
200 -185 0
200 -85 0
200 -198 0
201 -202 -200 0
-201 202 0
-201 200 0
-203 68 142 110 59 61 111 65 0
203 -68 0
203 -142 0
203 -110 0
203 -59 0
203 -61 0
203 -111 0
203 -65 0
204 -114 -203 0
-204 114 0
-204 203 0
-205 156 89 204 150 152 0
205 -156 0
205 -89 0
205 -204 0
205 -150 0
205 -152 0
206 -158 -205 0
-206 158 0
-206 205 0
-207 160 206 0
207 -160 0
207 -206 0
208 -162 -207 0
-208 162 0
-208 207 0
-209 168 10 16 208 163 165 0
209 -168 0
209 -10 0
209 -16 0
209 -208 0
209 -163 0
209 -165 0
210 -211 -209 0
-210 211 0
-210 209 0
-212 213 201 210 0
212 -213 0
212 -201 0
212 -210 0
214 -215 -212 0
-214 215 0
-214 212 0
-216 217 8 169 214 0
216 -217 0
216 -8 0
216 -169 0
216 -214 0
218 -219 -216 0
-218 219 0
-218 216 0
220 -221 -30 0
-220 221 0
-220 30 0
222 -223 -30 0
-222 223 0
-222 30 0
224 -225 -154 0
-224 225 0
-224 154 0
-226 227 222 224 0
226 -227 0
226 -222 0
226 -224 0
228 -229 -226 0
-228 229 0
-228 226 0
-230 231 218 220 228 0
230 -231 0
230 -218 0
230 -220 0
230 -228 0
232 -233 -230 0
-232 233 0
-232 230 0
234 -162 -160 0
-234 162 0
-234 160 0
-235 168 10 16 234 163 165 0
235 -168 0
235 -10 0
235 -16 0
235 -234 0
235 -163 0
235 -165 0
236 -170 -235 0
-236 170 0
-236 235 0
237 -211 -235 0
-237 211 0
-237 235 0
-238 213 237 0
238 -213 0
238 -237 0
239 -215 -238 0
-239 215 0
-239 238 0
-240 217 8 236 239 0
240 -217 0
240 -8 0
240 -236 0
240 -239 0
241 -242 -240 0
-241 242 0
-241 240 0
-243 50 42 241 44 46 0
243 -50 0
243 -42 0
243 -241 0
243 -44 0
243 -46 0
244 -52 -243 0
-244 52 0
-244 243 0
-245 56 20 40 244 53 0
245 -56 0
245 -20 0
245 -40 0
245 -244 0
245 -53 0
246 -58 -245 0
-246 58 0
-246 245 0
-247 68 246 59 61 63 65 0
247 -68 0
247 -246 0
247 -59 0
247 -61 0
247 -63 0
247 -65 0
248 -70 -247 0
-248 70 0
-248 247 0
249 -183 -235 0
-249 183 0
-249 235 0
-250 82 248 71 249 73 79 0
250 -82 0
250 -248 0
250 -71 0
250 -249 0
250 -73 0
250 -79 0
251 -84 -250 0
-251 84 0
-251 250 0
252 -199 -235 0
-252 199 0
-252 235 0
253 -219 -240 0
-253 219 0
-253 240 0
-254 231 253 220 228 0
254 -231 0
254 -253 0
254 -220 0
254 -228 0
255 -256 -254 0
-255 256 0
-255 254 0
-257 88 18 251 85 252 255 0
257 -88 0
257 -18 0
257 -251 0
257 -85 0
257 -252 0
257 -255 0
258 -90 -257 0
-258 90 0
-258 257 0
259 -92 -257 0
-259 92 0
-259 257 0
-260 82 71 249 73 79 0
260 -82 0
260 -71 0
260 -249 0
260 -73 0
260 -79 0
261 -84 -260 0
-261 84 0
-261 260 0
-262 88 18 261 85 252 255 0
262 -88 0
262 -18 0
262 -261 0
262 -85 0
262 -252 0
262 -255 0
263 -97 -262 0
-263 97 0
-263 262 0
264 -99 -260 0
-264 99 0
-264 260 0
265 -101 -262 0
-265 101 0
-265 262 0
-266 35 265 24 26 32 0
266 -35 0
266 -265 0
266 -24 0
266 -26 0
266 -32 0
267 -37 -266 0
-267 37 0
-267 266 0
-268 39 22 267 0
268 -39 0
268 -22 0
268 -267 0
269 -41 -268 0
-269 41 0
-269 268 0
270 -43 -268 0
-270 43 0
-270 268 0
-271 231 220 228 0
271 -231 0
271 -220 0
271 -228 0
272 -256 -271 0
-272 256 0
-272 271 0
-273 88 18 261 85 252 272 0
273 -88 0
273 -18 0
273 -261 0
273 -85 0
273 -252 0
273 -272 0
274 -202 -273 0
-274 202 0
-274 273 0
-275 213 274 237 0
275 -213 0
275 -274 0
275 -237 0
276 -215 -275 0
-276 215 0
-276 275 0
-277 217 8 236 276 0
277 -217 0
277 -8 0
277 -236 0
277 -276 0
278 -242 -277 0
-278 242 0
-278 277 0
-279 50 270 278 44 46 0
279 -50 0
279 -270 0
279 -278 0
279 -44 0
279 -46 0
280 -52 -279 0
-280 52 0
-280 279 0
-281 56 263 264 20 269 280 53 0
281 -56 0
281 -263 0
281 -264 0
281 -20 0
281 -269 0
281 -280 0
281 -53 0
282 -58 -281 0
-282 58 0
-282 281 0
283 -64 -268 0
-283 64 0
-283 268 0
-284 68 259 282 59 61 283 65 0
284 -68 0
284 -259 0
284 -282 0
284 -59 0
284 -61 0
284 -283 0
284 -65 0
285 -114 -284 0
-285 114 0
-285 284 0
-286 82 116 71 249 73 79 0
286 -82 0
286 -116 0
286 -71 0
286 -249 0
286 -73 0
286 -79 0
287 -84 -286 0
-287 84 0
-287 286 0
-288 88 18 287 85 252 255 0
288 -88 0
288 -18 0
288 -287 0
288 -85 0
288 -252 0
288 -255 0
289 -97 -288 0
-289 97 0
-289 288 0
-290 88 18 85 252 255 0
290 -88 0
290 -18 0
290 -85 0
290 -252 0
290 -255 0
291 -92 -290 0
-291 92 0
-291 290 0
292 -101 -290 0
-292 101 0
-292 290 0
-293 35 292 24 26 32 0
293 -35 0
293 -292 0
293 -24 0
293 -26 0
293 -32 0
294 -37 -293 0
-294 37 0
-294 293 0
-295 39 22 294 0
295 -39 0
295 -22 0
295 -294 0
296 -64 -295 0
-296 64 0
-296 295 0
-297 68 291 59 61 296 65 0
297 -68 0
297 -291 0
297 -59 0
297 -61 0
297 -296 0
297 -65 0
298 -70 -297 0
-298 70 0
-298 297 0
-299 82 298 71 249 73 79 0
299 -82 0
299 -298 0
299 -71 0
299 -249 0
299 -73 0
299 -79 0
300 -99 -299 0
-300 99 0
-300 299 0
-301 82 133 71 249 73 79 0
301 -82 0
301 -133 0
301 -71 0
301 -249 0
301 -73 0
301 -79 0
302 -84 -301 0
-302 84 0
-302 301 0
-303 88 18 302 85 252 255 0
303 -88 0
303 -18 0
303 -302 0
303 -85 0
303 -252 0
303 -255 0
304 -101 -303 0
-304 101 0
-304 303 0
-305 35 304 24 26 32 0
305 -35 0
305 -304 0
305 -24 0
305 -26 0
305 -32 0
306 -37 -305 0
-306 37 0
-306 305 0
-307 39 22 306 0
307 -39 0
307 -22 0
307 -306 0
308 -41 -307 0
-308 41 0
-308 307 0
309 -92 -262 0
-309 92 0
-309 262 0
-310 68 309 59 61 283 65 0
310 -68 0
310 -309 0
310 -59 0
310 -61 0
310 -283 0
310 -65 0
311 -145 -310 0
-311 145 0
-311 310 0
312 -43 -307 0
-312 43 0
-312 307 0
-313 88 18 287 85 252 272 0
313 -88 0
313 -18 0
313 -287 0
313 -85 0
313 -252 0
313 -272 0
314 -202 -313 0
-314 202 0
-314 313 0
-315 213 314 237 0
315 -213 0
315 -314 0
315 -237 0
316 -215 -315 0
-316 215 0
-316 315 0
-317 217 8 236 316 0
317 -217 0
317 -8 0
317 -236 0
317 -316 0
318 -242 -317 0
-318 242 0
-318 317 0
-319 50 311 312 318 44 46 0
319 -50 0
319 -311 0
319 -312 0
319 -318 0
319 -44 0
319 -46 0
320 -52 -319 0
-320 52 0
-320 319 0
-321 56 289 300 20 308 320 53 0
321 -56 0
321 -289 0
321 -300 0
321 -20 0
321 -308 0
321 -320 0
321 -53 0
322 -151 -321 0
-322 151 0
-322 321 0
-323 156 258 285 322 152 0
323 -156 0
323 -258 0
323 -285 0
323 -322 0
323 -152 0
324 -325 -323 0
-324 325 0
-324 323 0
326 -327 -77 0
-326 327 0
-326 77 0
-328 329 324 326 0
328 -329 0
328 -324 0
328 -326 0
330 -331 -328 0
-330 331 0
-330 328 0
-332 333 1 232 330 0
332 -333 0
332 -1 0
332 -232 0
332 -330 0
334 -335 -332 0
-334 335 0
-334 332 0
-336 337 334 0
336 -337 0
336 -334 0
338 -336 -339 0
-338 336 0
-338 339 0
338 0
