c BC-S1.2
p cnf 33 54
1 -2 -3 0
-1 2 0
-1 3 0
-4 5 1 0
4 -5 0
4 -1 0
6 -7 -4 0
-6 7 0
-6 4 0
-8 9 6 0
8 -9 0
8 -6 0
10 -11 -8 0
-10 11 0
-10 8 0
12 -13 -3 0
-12 13 0
-12 3 0
14 -15 -4 0
-14 15 0
-14 4 0
16 -17 -4 0
-16 17 0
-16 4 0
-18 19 16 0
18 -19 0
18 -16 0
20 -21 -18 0
-20 21 0
-20 18 0
22 -23 -8 0
-22 23 0
-22 8 0
24 -25 -18 0
-24 25 0
-24 18 0
-26 27 22 24 0
26 -27 0
26 -22 0
26 -24 0
28 -29 -26 0
-28 29 0
-28 26 0
-30 31 10 12 14 20 28 0
30 -31 0
30 -10 0
30 -12 0
30 -14 0
30 -20 0
30 -28 0
32 -30 -33 0
-32 30 0
-32 33 0
32 0
