c BC-S1.2
p cnf 149 388
1 -2 -3 0
-1 2 0
-1 3 0
4 -5 -3 0
-4 5 0
-4 3 0
-6 7 4 0
6 -7 0
6 -4 0
8 -9 -6 0
-8 9 0
-8 6 0
10 -11 -12 0
-10 11 0
-10 12 0
-13 14 1 8 10 0
13 -14 0
13 -1 0
13 -8 0
13 -10 0
15 -16 -13 0
-15 16 0
-15 13 0
-17 18 15 0
17 -18 0
17 -15 0
19 -20 -17 0
-19 20 0
-19 17 0
21 -22 -23 0
-21 22 0
-21 23 0
-24 25 19 21 0
24 -25 0
24 -19 0
24 -21 0
26 -27 -24 0
-26 27 0
-26 24 0
-28 25 21 0
28 -25 0
28 -21 0
29 -30 -28 0
-29 30 0
-29 28 0
-31 14 29 1 8 10 0
31 -14 0
31 -29 0
31 -1 0
31 -8 0
31 -10 0
32 -16 -31 0
-32 16 0
-32 31 0
-33 18 32 0
33 -18 0
33 -32 0
34 -35 -33 0
-34 35 0
-34 33 0
-36 37 26 34 0
36 -37 0
36 -26 0
36 -34 0
38 -39 -36 0
-38 39 0
-38 36 0
-40 25 19 0
40 -25 0
40 -19 0
41 -27 -40 0
-41 27 0
-41 40 0
42 -30 -25 0
-42 30 0
-42 25 0
-43 14 42 1 8 10 0
43 -14 0
43 -42 0
43 -1 0
43 -8 0
43 -10 0
44 -16 -43 0
-44 16 0
-44 43 0
-45 18 44 0
45 -18 0
45 -44 0
46 -35 -45 0
-46 35 0
-46 45 0
-47 37 41 46 0
47 -37 0
47 -41 0
47 -46 0
48 -49 -47 0
-48 49 0
-48 47 0
-50 23 48 0
50 -23 0
50 -48 0
51 -52 -50 0
-51 52 0
-51 50 0
-53 54 38 51 0
53 -54 0
53 -38 0
53 -51 0
55 -56 -53 0
-55 56 0
-55 53 0
57 -58 -37 0
-57 58 0
-57 37 0
59 -39 -37 0
-59 39 0
-59 37 0
60 -49 -37 0
-60 49 0
-60 37 0
-61 23 60 0
61 -23 0
61 -60 0
62 -52 -61 0
-62 52 0
-62 61 0
-63 54 59 62 0
63 -54 0
63 -59 0
63 -62 0
64 -65 -63 0
-64 65 0
-64 63 0
66 -67 -37 0
-66 67 0
-66 37 0
68 -69 -63 0
-68 69 0
-68 63 0
-70 3 66 68 0
70 -3 0
70 -66 0
70 -68 0
71 -2 -70 0
-71 2 0
-71 70 0
72 -5 -70 0
-72 5 0
-72 70 0
-73 7 72 0
73 -7 0
73 -72 0
74 -9 -73 0
-74 9 0
-74 73 0
75 -76 -37 0
-75 76 0
-75 37 0
-77 12 75 0
77 -12 0
77 -75 0
78 -11 -77 0
-78 11 0
-78 77 0
-79 14 57 64 71 74 78 0
79 -14 0
79 -57 0
79 -64 0
79 -71 0
79 -74 0
79 -78 0
80 -16 -79 0
-80 16 0
-80 79 0
-81 18 80 0
81 -18 0
81 -80 0
82 -20 -81 0
-82 20 0
-82 81 0
-83 54 59 0
83 -54 0
83 -59 0
84 -65 -83 0
-84 65 0
-84 83 0
85 -69 -83 0
-85 69 0
-85 83 0
-86 3 85 0
86 -3 0
86 -85 0
87 -2 -86 0
-87 2 0
-87 86 0
88 -5 -86 0
-88 5 0
-88 86 0
-89 7 88 0
89 -7 0
89 -88 0
90 -9 -89 0
-90 9 0
-90 89 0
-91 14 84 87 90 10 0
91 -14 0
91 -84 0
91 -87 0
91 -90 0
91 -10 0
92 -16 -91 0
-92 16 0
-92 91 0
-93 18 92 0
93 -18 0
93 -92 0
94 -35 -93 0
-94 35 0
-94 93 0
-95 37 94 0
95 -37 0
95 -94 0
96 -49 -95 0
-96 49 0
-96 95 0
-97 23 96 0
97 -23 0
97 -96 0
98 -22 -97 0
-98 22 0
-98 97 0
-99 25 82 98 0
99 -25 0
99 -82 0
99 -98 0
100 -101 -99 0
-100 101 0
-100 99 0
-102 14 64 10 0
102 -14 0
102 -64 0
102 -10 0
103 -16 -102 0
-103 16 0
-103 102 0
-104 18 103 0
104 -18 0
104 -103 0
105 -20 -104 0
-105 20 0
-105 104 0
-106 25 105 21 0
106 -25 0
106 -105 0
106 -21 0
107 -27 -106 0
-107 27 0
-107 106 0
108 -52 -23 0
-108 52 0
-108 23 0
-109 54 108 0
109 -54 0
109 -108 0
110 -65 -109 0
-110 65 0
-110 109 0
-111 14 110 29 10 0
111 -14 0
111 -110 0
111 -29 0
111 -10 0
112 -16 -111 0
-112 16 0
-112 111 0
-113 18 112 0
113 -18 0
113 -112 0
114 -35 -113 0
-114 35 0
-114 113 0
-115 37 107 114 0
115 -37 0
115 -107 0
115 -114 0
116 -67 -115 0
-116 67 0
-116 115 0
-117 14 10 0
117 -14 0
117 -10 0
118 -16 -117 0
-118 16 0
-118 117 0
-119 18 118 0
119 -18 0
119 -118 0
120 -20 -119 0
-120 20 0
-120 119 0
-121 25 120 21 0
121 -25 0
121 -120 0
121 -21 0
122 -27 -121 0
-122 27 0
-122 121 0
-123 14 29 10 0
123 -14 0
123 -29 0
123 -10 0
124 -16 -123 0
-124 16 0
-124 123 0
-125 18 124 0
125 -18 0
125 -124 0
126 -35 -125 0
-126 35 0
-126 125 0
-127 37 122 126 0
127 -37 0
127 -122 0
127 -126 0
128 -39 -127 0
-128 39 0
-128 127 0
-129 25 120 0
129 -25 0
129 -120 0
130 -27 -129 0
-130 27 0
-130 129 0
-131 14 42 10 0
131 -14 0
131 -42 0
131 -10 0
132 -16 -131 0
-132 16 0
-132 131 0
-133 18 132 0
133 -18 0
133 -132 0
134 -35 -133 0
-134 35 0
-134 133 0
-135 37 130 134 0
135 -37 0
135 -130 0
135 -134 0
136 -49 -135 0
-136 49 0
-136 135 0
-137 23 136 0
137 -23 0
137 -136 0
138 -52 -137 0
-138 52 0
-138 137 0
-139 54 128 138 0
139 -54 0
139 -128 0
139 -138 0
140 -69 -139 0
-140 69 0
-140 139 0
-141 3 116 140 0
141 -3 0
141 -116 0
141 -140 0
142 -5 -141 0
-142 5 0
-142 141 0
-143 7 142 0
143 -7 0
143 -142 0
144 -145 -143 0
-144 145 0
-144 143 0
-146 147 55 100 144 0
146 -147 0
146 -55 0
146 -100 0
146 -144 0
148 -146 -149 0
-148 146 0
-148 149 0
148 0
