c BC-S1.2
p cnf 87 195
1 -2 -3 0
-1 2 0
-1 3 0
-4 5 1 0
4 -5 0
4 -1 0
6 -7 -4 0
-6 7 0
-6 4 0
-8 9 6 0
8 -9 0
8 -6 0
10 -11 -8 0
-10 11 0
-10 8 0
12 -13 -8 0
-12 13 0
-12 8 0
14 -15 -16 0
-14 15 0
-14 16 0
-17 18 12 14 0
17 -18 0
17 -12 0
17 -14 0
19 -20 -17 0
-19 20 0
-19 17 0
-21 22 19 0
21 -22 0
21 -19 0
23 -24 -21 0
-23 24 0
-23 21 0
-25 18 12 0
25 -18 0
25 -12 0
26 -20 -25 0
-26 20 0
-26 25 0
-27 22 26 0
27 -22 0
27 -26 0
28 -29 -27 0
-28 29 0
-28 27 0
-30 16 28 0
30 -16 0
30 -28 0
31 -32 -30 0
-31 32 0
-31 30 0
33 -34 -3 0
-33 34 0
-33 3 0
-35 36 10 23 31 33 0
35 -36 0
35 -10 0
35 -23 0
35 -31 0
35 -33 0
37 -38 -35 0
-37 38 0
-37 35 0
39 -40 -3 0
-39 40 0
-39 3 0
-41 42 37 39 0
41 -42 0
41 -37 0
41 -39 0
43 -44 -41 0
-43 44 0
-43 41 0
-45 36 23 31 33 0
45 -36 0
45 -23 0
45 -31 0
45 -33 0
46 -38 -45 0
-46 38 0
-46 45 0
-47 42 46 39 0
47 -42 0
47 -46 0
47 -39 0
48 -49 -47 0
-48 49 0
-48 47 0
-50 42 39 0
50 -42 0
50 -39 0
51 -52 -50 0
-51 52 0
-51 50 0
53 -54 -50 0
-53 54 0
-53 50 0
-55 18 53 14 0
55 -18 0
55 -53 0
55 -14 0
56 -20 -55 0
-56 20 0
-56 55 0
-57 22 51 56 0
57 -22 0
57 -51 0
57 -56 0
58 -24 -57 0
-58 24 0
-58 57 0
-59 18 53 0
59 -18 0
59 -53 0
60 -20 -59 0
-60 20 0
-60 59 0
-61 22 51 60 0
61 -22 0
61 -51 0
61 -60 0
62 -29 -61 0
-62 29 0
-62 61 0
-63 16 62 0
63 -16 0
63 -62 0
64 -32 -63 0
-64 32 0
-64 63 0
-65 36 58 64 33 0
65 -36 0
65 -58 0
65 -64 0
65 -33 0
66 -67 -65 0
-66 67 0
-66 65 0
-68 22 56 0
68 -22 0
68 -56 0
69 -24 -68 0
-69 24 0
-69 68 0
-70 22 60 0
70 -22 0
70 -60 0
71 -29 -70 0
-71 29 0
-71 70 0
-72 16 71 0
72 -16 0
72 -71 0
73 -32 -72 0
-73 32 0
-73 72 0
-74 36 69 73 33 0
74 -36 0
74 -69 0
74 -73 0
74 -33 0
75 -38 -74 0
-75 38 0
-75 74 0
-76 42 75 39 0
76 -42 0
76 -75 0
76 -39 0
77 -78 -76 0
-77 78 0
-77 76 0
-79 5 66 77 1 0
79 -5 0
79 -66 0
79 -77 0
79 -1 0
80 -7 -79 0
-80 7 0
-80 79 0
-81 9 48 80 0
81 -9 0
81 -48 0
81 -80 0
82 -83 -81 0
-82 83 0
-82 81 0
-84 85 43 82 0
84 -85 0
84 -43 0
84 -82 0
86 -84 -87 0
-86 84 0
-86 87 0
86 0
