c BC-S1.2
p cnf 668 2136
1 -2 -3 0
-1 2 0
-1 3 0
-4 5 1 0
4 -5 0
4 -1 0
6 -7 -4 0
-6 7 0
-6 4 0
8 -9 -10 0
-8 9 0
-8 10 0
11 -12 -13 0
-11 12 0
-11 13 0
14 -15 -16 0
-14 15 0
-14 16 0
17 -18 -4 0
-17 18 0
-17 4 0
19 -20 -4 0
-19 20 0
-19 4 0
-21 22 19 0
21 -22 0
21 -19 0
23 -24 -21 0
-23 24 0
-23 21 0
25 -26 -10 0
-25 26 0
-25 10 0
27 -28 -29 0
-27 28 0
-27 29 0
-30 31 27 0
30 -31 0
30 -27 0
32 -33 -30 0
-32 33 0
-32 30 0
34 -35 -36 0
-34 35 0
-34 36 0
37 -38 -39 0
-37 38 0
-37 39 0
40 -41 -13 0
-40 41 0
-40 13 0
42 -43 -44 0
-42 43 0
-42 44 0
-45 46 42 0
45 -46 0
45 -42 0
47 -48 -45 0
-47 48 0
-47 45 0
49 -50 -36 0
-49 50 0
-49 36 0
-51 52 49 0
51 -52 0
51 -49 0
53 -54 -51 0
-53 54 0
-53 51 0
-55 56 34 37 40 47 53 0
55 -56 0
55 -34 0
55 -37 0
55 -40 0
55 -47 0
55 -53 0
57 -58 -55 0
-57 58 0
-57 55 0
-59 60 32 57 0
59 -60 0
59 -32 0
59 -57 0
61 -62 -59 0
-61 62 0
-61 59 0
-63 64 61 0
63 -64 0
63 -61 0
65 -66 -63 0
-65 66 0
-65 63 0
-67 68 17 23 25 65 0
67 -68 0
67 -17 0
67 -23 0
67 -25 0
67 -65 0
69 -70 -67 0
-69 70 0
-69 67 0
-71 72 69 0
71 -72 0
71 -69 0
73 -74 -71 0
-73 74 0
-73 71 0
75 -76 -45 0
-75 76 0
-75 45 0
77 -78 -72 0
-77 78 0
-77 72 0
-79 29 77 0
79 -29 0
79 -77 0
80 -28 -79 0
-80 28 0
-80 79 0
-81 31 80 0
81 -31 0
81 -80 0
82 -33 -81 0
-82 33 0
-82 81 0
-83 60 82 57 0
83 -60 0
83 -82 0
83 -57 0
84 -62 -83 0
-84 62 0
-84 83 0
-85 64 84 0
85 -64 0
85 -84 0
86 -66 -85 0
-86 66 0
-86 85 0
-87 68 17 23 25 86 0
87 -68 0
87 -17 0
87 -23 0
87 -25 0
87 -86 0
88 -89 -87 0
-88 89 0
-88 87 0
-90 60 82 0
90 -60 0
90 -82 0
91 -62 -90 0
-91 62 0
-91 90 0
-92 64 91 0
92 -64 0
92 -91 0
93 -66 -92 0
-93 66 0
-93 92 0
-94 68 17 23 25 93 0
94 -68 0
94 -17 0
94 -23 0
94 -25 0
94 -93 0
95 -96 -94 0
-95 96 0
-95 94 0
-97 36 95 0
97 -36 0
97 -95 0
98 -35 -97 0
-98 35 0
-98 97 0
99 -50 -97 0
-99 50 0
-99 97 0
-100 52 99 0
100 -52 0
100 -99 0
101 -54 -100 0
-101 54 0
-101 100 0
-102 56 88 98 37 40 47 101 0
102 -56 0
102 -88 0
102 -98 0
102 -37 0
102 -40 0
102 -47 0
102 -101 0
103 -104 -102 0
-103 104 0
-103 102 0
-105 106 73 75 103 0
105 -106 0
105 -73 0
105 -75 0
105 -103 0
107 -108 -105 0
-107 108 0
-107 105 0
-109 56 34 37 40 53 0
109 -56 0
109 -34 0
109 -37 0
109 -40 0
109 -53 0
110 -58 -109 0
-110 58 0
-110 109 0
-111 60 32 110 0
111 -60 0
111 -32 0
111 -110 0
112 -62 -111 0
-112 62 0
-112 111 0
-113 64 112 0
113 -64 0
113 -112 0
114 -66 -113 0
-114 66 0
-114 113 0
-115 68 17 23 25 114 0
115 -68 0
115 -17 0
115 -23 0
115 -25 0
115 -114 0
116 -70 -115 0
-116 70 0
-116 115 0
-117 72 116 0
117 -72 0
117 -116 0
118 -74 -117 0
-118 74 0
-118 117 0
119 -89 -94 0
-119 89 0
-119 94 0
-120 56 119 98 37 40 101 0
120 -56 0
120 -119 0
120 -98 0
120 -37 0
120 -40 0
120 -101 0
121 -104 -120 0
-121 104 0
-121 120 0
-122 106 118 75 121 0
122 -106 0
122 -118 0
122 -75 0
122 -121 0
123 -124 -122 0
-123 124 0
-123 122 0
-125 46 123 42 0
125 -46 0
125 -123 0
125 -42 0
126 -127 -125 0
-126 127 0
-126 125 0
128 -66 -64 0
-128 66 0
-128 64 0
-129 68 17 23 25 128 0
129 -68 0
129 -17 0
129 -23 0
129 -25 0
129 -128 0
130 -70 -129 0
-130 70 0
-130 129 0
-131 72 130 0
131 -72 0
131 -130 0
132 -74 -131 0
-132 74 0
-132 131 0
133 -89 -129 0
-133 89 0
-133 129 0
134 -96 -129 0
-134 96 0
-134 129 0
-135 36 134 0
135 -36 0
135 -134 0
136 -35 -135 0
-136 35 0
-136 135 0
137 -50 -135 0
-137 50 0
-137 135 0
-138 52 137 0
138 -52 0
138 -137 0
139 -54 -138 0
-139 54 0
-139 138 0
-140 56 133 136 37 40 47 139 0
140 -56 0
140 -133 0
140 -136 0
140 -37 0
140 -40 0
140 -47 0
140 -139 0
141 -104 -140 0
-141 104 0
-141 140 0
-142 106 132 75 141 0
142 -106 0
142 -132 0
142 -75 0
142 -141 0
143 -144 -142 0
-143 144 0
-143 142 0
145 -78 -131 0
-145 78 0
-145 131 0
-146 29 145 0
146 -29 0
146 -145 0
147 -28 -146 0
-147 28 0
-147 146 0
-148 31 143 147 0
148 -31 0
148 -143 0
148 -147 0
149 -33 -148 0
-149 33 0
-149 148 0
150 -151 -142 0
-150 151 0
-150 142 0
-152 106 132 75 0
152 -106 0
152 -132 0
152 -75 0
153 -124 -152 0
-153 124 0
-153 152 0
-154 46 153 42 0
154 -46 0
154 -153 0
154 -42 0
155 -48 -154 0
-155 48 0
-155 154 0
-156 56 133 136 37 40 150 155 139 0
156 -56 0
156 -133 0
156 -136 0
156 -37 0
156 -40 0
156 -150 0
156 -155 0
156 -139 0
157 -58 -156 0
-157 58 0
-157 156 0
-158 60 149 157 0
158 -60 0
158 -149 0
158 -157 0
159 -160 -158 0
-159 160 0
-159 158 0
161 -74 -72 0
-161 74 0
-161 72 0
-162 106 161 75 0
162 -106 0
162 -161 0
162 -75 0
163 -144 -162 0
-163 144 0
-163 162 0
-164 31 163 80 0
164 -31 0
164 -163 0
164 -80 0
165 -33 -164 0
-165 33 0
-165 164 0
-166 60 165 0
166 -60 0
166 -165 0
167 -62 -166 0
-167 62 0
-167 166 0
-168 64 167 0
168 -64 0
168 -167 0
169 -66 -168 0
-169 66 0
-169 168 0
-170 68 17 23 25 169 0
170 -68 0
170 -17 0
170 -23 0
170 -25 0
170 -169 0
171 -89 -170 0
-171 89 0
-171 170 0
172 -96 -170 0
-172 96 0
-172 170 0
-173 36 172 0
173 -36 0
173 -172 0
174 -35 -173 0
-174 35 0
-174 173 0
-175 106 73 75 0
175 -106 0
175 -73 0
175 -75 0
176 -151 -175 0
-176 151 0
-176 175 0
-177 60 32 0
177 -60 0
177 -32 0
178 -62 -177 0
-178 62 0
-178 177 0
-179 64 178 0
179 -64 0
179 -178 0
180 -66 -179 0
-180 66 0
-180 179 0
-181 68 17 23 25 180 0
181 -68 0
181 -17 0
181 -23 0
181 -25 0
181 -180 0
182 -70 -181 0
-182 70 0
-182 181 0
-183 72 182 0
183 -72 0
183 -182 0
184 -74 -183 0
-184 74 0
-184 183 0
-185 106 184 75 0
185 -106 0
185 -184 0
185 -75 0
186 -124 -185 0
-186 124 0
-186 185 0
-187 46 186 42 0
187 -46 0
187 -186 0
187 -42 0
188 -48 -187 0
-188 48 0
-188 187 0
189 -50 -173 0
-189 50 0
-189 173 0
-190 52 189 0
190 -52 0
190 -189 0
191 -54 -190 0
-191 54 0
-191 190 0
-192 56 171 174 37 40 176 188 191 0
192 -56 0
192 -171 0
192 -174 0
192 -37 0
192 -40 0
192 -176 0
192 -188 0
192 -191 0
193 -194 -192 0
-193 194 0
-193 192 0
-195 196 8 11 14 107 126 159 193 0
195 -196 0
195 -8 0
195 -11 0
195 -14 0
195 -107 0
195 -126 0
195 -159 0
195 -193 0
197 -198 -195 0
-197 198 0
-197 195 0
-199 200 6 197 0
199 -200 0
199 -6 0
199 -197 0
201 -202 -199 0
-201 202 0
-201 199 0
203 -204 -205 0
-203 204 0
-203 205 0
206 -207 -16 0
-206 207 0
-206 16 0
-208 209 201 203 206 0
208 -209 0
208 -201 0
208 -203 0
208 -206 0
210 -211 -208 0
-210 211 0
-210 208 0
212 -104 -55 0
-212 104 0
-212 55 0
-213 106 161 75 212 0
213 -106 0
213 -161 0
213 -75 0
213 -212 0
214 -108 -213 0
-214 108 0
-214 213 0
215 -104 -109 0
-215 104 0
-215 109 0
-216 106 161 75 215 0
216 -106 0
216 -161 0
216 -75 0
216 -215 0
217 -124 -216 0
-217 124 0
-217 216 0
-218 46 217 42 0
218 -46 0
218 -217 0
218 -42 0
219 -127 -218 0
-219 127 0
-219 218 0
220 -144 -213 0
-220 144 0
-220 213 0
-221 31 220 80 0
221 -31 0
221 -220 0
221 -80 0
222 -33 -221 0
-222 33 0
-222 221 0
223 -151 -162 0
-223 151 0
-223 162 0
224 -124 -162 0
-224 124 0
-224 162 0
-225 46 224 42 0
225 -46 0
225 -224 0
225 -42 0
226 -48 -225 0
-226 48 0
-226 225 0
-227 56 34 37 40 223 226 53 0
227 -56 0
227 -34 0
227 -37 0
227 -40 0
227 -223 0
227 -226 0
227 -53 0
228 -58 -227 0
-228 58 0
-228 227 0
-229 60 222 228 0
229 -60 0
229 -222 0
229 -228 0
230 -160 -229 0
-230 160 0
-230 229 0
231 -194 -227 0
-231 194 0
-231 227 0
-232 196 8 11 14 214 219 230 231 0
232 -196 0
232 -8 0
232 -11 0
232 -14 0
232 -214 0
232 -219 0
232 -230 0
232 -231 0
233 -198 -232 0
-233 198 0
-233 232 0
-234 200 6 233 0
234 -200 0
234 -6 0
234 -233 0
235 -202 -234 0
-235 202 0
-235 234 0
-236 209 235 203 206 0
236 -209 0
236 -235 0
236 -203 0
236 -206 0
237 -238 -236 0
-237 238 0
-237 236 0
-239 200 233 0
239 -200 0
239 -233 0
240 -202 -239 0
-240 202 0
-240 239 0
-241 209 240 203 206 0
241 -209 0
241 -240 0
241 -203 0
241 -206 0
242 -243 -241 0
-242 243 0
-242 241 0
-244 5 242 1 0
244 -5 0
244 -242 0
244 -1 0
245 -18 -244 0
-245 18 0
-245 244 0
246 -247 -236 0
-246 247 0
-246 236 0
248 -20 -244 0
-248 20 0
-248 244 0
-249 22 246 248 0
249 -22 0
249 -246 0
249 -248 0
250 -24 -249 0
-250 24 0
-250 249 0
-251 209 203 206 0
251 -209 0
251 -203 0
251 -206 0
252 -243 -251 0
-252 243 0
-252 251 0
-253 5 252 1 0
253 -5 0
253 -252 0
253 -1 0
254 -7 -253 0
-254 7 0
-254 253 0
255 -256 -251 0
-255 256 0
-255 251 0
-257 52 255 49 0
257 -52 0
257 -255 0
257 -49 0
258 -54 -257 0
-258 54 0
-258 257 0
-259 56 34 37 40 47 258 0
259 -56 0
259 -34 0
259 -37 0
259 -40 0
259 -47 0
259 -258 0
260 -104 -259 0
-260 104 0
-260 259 0
-261 106 161 75 260 0
261 -106 0
261 -161 0
261 -75 0
261 -260 0
262 -108 -261 0
-262 108 0
-262 261 0
-263 56 34 37 40 258 0
263 -56 0
263 -34 0
263 -37 0
263 -40 0
263 -258 0
264 -104 -263 0
-264 104 0
-264 263 0
-265 106 161 75 264 0
265 -106 0
265 -161 0
265 -75 0
265 -264 0
266 -124 -265 0
-266 124 0
-266 265 0
-267 46 266 42 0
267 -46 0
267 -266 0
267 -42 0
268 -127 -267 0
-268 127 0
-268 267 0
269 -144 -261 0
-269 144 0
-269 261 0
-270 31 269 80 0
270 -31 0
270 -269 0
270 -80 0
271 -33 -270 0
-271 33 0
-271 270 0
-272 56 34 37 40 223 226 258 0
272 -56 0
272 -34 0
272 -37 0
272 -40 0
272 -223 0
272 -226 0
272 -258 0
273 -58 -272 0
-273 58 0
-273 272 0
-274 60 271 273 0
274 -60 0
274 -271 0
274 -273 0
275 -160 -274 0
-275 160 0
-275 274 0
276 -194 -272 0
-276 194 0
-276 272 0
-277 196 8 11 14 262 268 275 276 0
277 -196 0
277 -8 0
277 -11 0
277 -14 0
277 -262 0
277 -268 0
277 -275 0
277 -276 0
278 -198 -277 0
-278 198 0
-278 277 0
-279 200 254 278 0
279 -200 0
279 -254 0
279 -278 0
280 -281 -279 0
-280 281 0
-280 279 0
-282 200 254 0
282 -200 0
282 -254 0
283 -284 -282 0
-283 284 0
-283 282 0
285 -127 -45 0
-285 127 0
-285 45 0
286 -202 -282 0
-286 202 0
-286 282 0
-287 209 286 203 206 0
287 -209 0
287 -286 0
287 -203 0
287 -206 0
288 -256 -287 0
-288 256 0
-288 287 0
-289 52 288 49 0
289 -52 0
289 -288 0
289 -49 0
290 -54 -289 0
-290 54 0
-290 289 0
-291 56 34 37 40 47 290 0
291 -56 0
291 -34 0
291 -37 0
291 -40 0
291 -47 0
291 -290 0
292 -194 -291 0
-292 194 0
-292 291 0
-293 196 8 283 11 14 285 292 0
293 -196 0
293 -8 0
293 -283 0
293 -11 0
293 -14 0
293 -285 0
293 -292 0
294 -295 -293 0
-294 295 0
-294 293 0
-296 72 294 0
296 -72 0
296 -294 0
297 -74 -296 0
-297 74 0
-297 296 0
-298 56 34 37 40 290 0
298 -56 0
298 -34 0
298 -37 0
298 -40 0
298 -290 0
299 -194 -298 0
-299 194 0
-299 298 0
-300 196 8 283 11 14 299 0
300 -196 0
300 -8 0
300 -283 0
300 -11 0
300 -14 0
300 -299 0
301 -302 -300 0
-301 302 0
-301 300 0
-303 44 301 0
303 -44 0
303 -301 0
304 -43 -303 0
-304 43 0
-304 303 0
-305 46 304 0
305 -46 0
305 -304 0
306 -76 -305 0
-306 76 0
-306 305 0
-307 196 8 283 11 14 285 0
307 -196 0
307 -8 0
307 -283 0
307 -11 0
307 -14 0
307 -285 0
308 -309 -307 0
-308 309 0
-308 307 0
-310 36 308 0
310 -36 0
310 -308 0
311 -35 -310 0
-311 35 0
-311 310 0
312 -313 -307 0
-312 313 0
-312 307 0
-314 39 312 0
314 -39 0
314 -312 0
315 -38 -314 0
-315 38 0
-315 314 0
-316 196 8 283 11 14 0
316 -196 0
316 -8 0
316 -283 0
316 -11 0
316 -14 0
317 -302 -316 0
-317 302 0
-317 316 0
-318 44 317 0
318 -44 0
318 -317 0
319 -43 -318 0
-319 43 0
-319 318 0
-320 46 319 0
320 -46 0
320 -319 0
321 -48 -320 0
-321 48 0
-321 320 0
322 -198 -307 0
-322 198 0
-322 307 0
-323 200 6 322 0
323 -200 0
323 -6 0
323 -322 0
324 -202 -323 0
-324 202 0
-324 323 0
-325 209 324 203 206 0
325 -209 0
325 -324 0
325 -203 0
325 -206 0
326 -256 -325 0
-326 256 0
-326 325 0
327 -50 -310 0
-327 50 0
-327 310 0
328 -329 -307 0
-328 329 0
-328 307 0
-330 52 326 327 328 0
330 -52 0
330 -326 0
330 -327 0
330 -328 0
331 -54 -330 0
-331 54 0
-331 330 0
332 -333 -307 0
-332 333 0
-332 307 0
-334 56 311 315 40 321 331 332 0
334 -56 0
334 -311 0
334 -315 0
334 -40 0
334 -321 0
334 -331 0
334 -332 0
335 -104 -334 0
-335 104 0
-335 334 0
336 -337 -293 0
-336 337 0
-336 293 0
-338 106 297 306 335 336 0
338 -106 0
338 -297 0
338 -306 0
338 -335 0
338 -336 0
339 -144 -338 0
-339 144 0
-339 338 0
340 -104 -291 0
-340 104 0
-340 291 0
-341 106 161 75 340 0
341 -106 0
341 -161 0
341 -75 0
341 -340 0
342 -108 -341 0
-342 108 0
-342 341 0
343 -104 -298 0
-343 104 0
-343 298 0
-344 106 161 75 343 0
344 -106 0
344 -161 0
344 -75 0
344 -343 0
345 -124 -344 0
-345 124 0
-345 344 0
-346 46 345 42 0
346 -46 0
346 -345 0
346 -42 0
347 -127 -346 0
-347 127 0
-347 346 0
-348 56 34 37 40 223 226 290 0
348 -56 0
348 -34 0
348 -37 0
348 -40 0
348 -223 0
348 -226 0
348 -290 0
349 -194 -348 0
-349 194 0
-349 348 0
-350 196 8 283 11 14 342 347 349 0
350 -196 0
350 -8 0
350 -283 0
350 -11 0
350 -14 0
350 -342 0
350 -347 0
350 -349 0
351 -295 -350 0
-351 295 0
-351 350 0
-352 72 351 0
352 -72 0
352 -351 0
353 -78 -352 0
-353 78 0
-353 352 0
-354 29 353 0
354 -29 0
354 -353 0
355 -28 -354 0
-355 28 0
-355 354 0
-356 31 339 355 0
356 -31 0
356 -339 0
356 -355 0
357 -33 -356 0
-357 33 0
-357 356 0
358 -108 -162 0
-358 108 0
-358 162 0
359 -127 -225 0
-359 127 0
-359 225 0
-360 196 8 283 11 14 358 359 0
360 -196 0
360 -8 0
360 -283 0
360 -11 0
360 -14 0
360 -358 0
360 -359 0
361 -309 -360 0
-361 309 0
-361 360 0
-362 36 361 0
362 -36 0
362 -361 0
363 -35 -362 0
-363 35 0
-363 362 0
364 -313 -360 0
-364 313 0
-364 360 0
-365 39 364 0
365 -39 0
365 -364 0
366 -38 -365 0
-366 38 0
-366 365 0
367 -295 -307 0
-367 295 0
-367 307 0
-368 72 367 0
368 -72 0
368 -367 0
369 -74 -368 0
-369 74 0
-369 368 0
370 -76 -320 0
-370 76 0
-370 320 0
371 -337 -307 0
-371 337 0
-371 307 0
-372 106 369 370 371 0
372 -106 0
372 -369 0
372 -370 0
372 -371 0
373 -151 -372 0
-373 151 0
-373 372 0
-374 106 369 371 0
374 -106 0
374 -369 0
374 -371 0
375 -124 -374 0
-375 124 0
-375 374 0
-376 106 161 0
376 -106 0
376 -161 0
377 -108 -376 0
-377 108 0
-377 376 0
-378 196 8 283 11 14 377 0
378 -196 0
378 -8 0
378 -283 0
378 -11 0
378 -14 0
378 -377 0
379 -302 -378 0
-379 302 0
-379 378 0
-380 44 379 0
380 -44 0
380 -379 0
381 -43 -380 0
-381 43 0
-381 380 0
-382 46 375 381 0
382 -46 0
382 -375 0
382 -381 0
383 -48 -382 0
-383 48 0
-383 382 0
-384 196 8 11 14 358 359 0
384 -196 0
384 -8 0
384 -11 0
384 -14 0
384 -358 0
384 -359 0
385 -198 -384 0
-385 198 0
-385 384 0
-386 200 6 385 0
386 -200 0
386 -6 0
386 -385 0
387 -202 -386 0
-387 202 0
-387 386 0
-388 209 387 203 206 0
388 -209 0
388 -387 0
388 -203 0
388 -206 0
389 -256 -388 0
-389 256 0
-389 388 0
390 -50 -362 0
-390 50 0
-390 362 0
391 -329 -360 0
-391 329 0
-391 360 0
-392 52 389 390 391 0
392 -52 0
392 -389 0
392 -390 0
392 -391 0
393 -54 -392 0
-393 54 0
-393 392 0
394 -333 -360 0
-394 333 0
-394 360 0
-395 56 363 366 40 373 383 393 394 0
395 -56 0
395 -363 0
395 -366 0
395 -40 0
395 -373 0
395 -383 0
395 -393 0
395 -394 0
396 -58 -395 0
-396 58 0
-396 395 0
-397 60 357 396 0
397 -60 0
397 -357 0
397 -396 0
398 -62 -397 0
-398 62 0
-398 397 0
399 -144 -341 0
-399 144 0
-399 341 0
-400 31 399 80 0
400 -31 0
400 -399 0
400 -80 0
401 -33 -400 0
-401 33 0
-401 400 0
402 -58 -348 0
-402 58 0
-402 348 0
-403 60 401 402 0
403 -60 0
403 -401 0
403 -402 0
404 -160 -403 0
-404 160 0
-404 403 0
-405 196 8 283 11 14 342 347 404 349 0
405 -196 0
405 -8 0
405 -283 0
405 -11 0
405 -14 0
405 -342 0
405 -347 0
405 -404 0
405 -349 0
406 -407 -405 0
-406 407 0
-406 405 0
-408 64 398 406 0
408 -64 0
408 -398 0
408 -406 0
409 -66 -408 0
-409 66 0
-409 408 0
-410 68 237 245 250 25 280 409 0
410 -68 0
410 -237 0
410 -245 0
410 -250 0
410 -25 0
410 -280 0
410 -409 0
411 -412 -410 0
-411 412 0
-411 410 0
-413 200 197 0
413 -200 0
413 -197 0
414 -202 -413 0
-414 202 0
-414 413 0
-415 209 414 203 206 0
415 -209 0
415 -414 0
415 -203 0
415 -206 0
416 -243 -415 0
-416 243 0
-416 415 0
-417 5 416 1 0
417 -5 0
417 -416 0
417 -1 0
418 -419 -417 0
-418 419 0
-418 417 0
420 -421 -422 0
-420 421 0
-420 422 0
423 -424 -425 0
-423 424 0
-423 425 0
-426 427 423 0
426 -427 0
426 -423 0
428 -429 -426 0
-428 429 0
-428 426 0
-430 431 420 428 0
430 -431 0
430 -420 0
430 -428 0
432 -433 -430 0
-432 433 0
-432 430 0
434 -429 -427 0
-434 429 0
-434 427 0
-435 431 420 434 0
435 -431 0
435 -420 0
435 -434 0
436 -437 -435 0
-436 437 0
-436 435 0
-438 425 436 0
438 -425 0
438 -436 0
439 -440 -438 0
-439 440 0
-439 438 0
-441 56 37 40 47 53 0
441 -56 0
441 -37 0
441 -40 0
441 -47 0
441 -53 0
442 -104 -441 0
-442 104 0
-442 441 0
-443 106 161 75 442 0
443 -106 0
443 -161 0
443 -75 0
443 -442 0
444 -108 -443 0
-444 108 0
-444 443 0
-445 56 37 40 53 0
445 -56 0
445 -37 0
445 -40 0
445 -53 0
446 -104 -445 0
-446 104 0
-446 445 0
-447 106 161 75 446 0
447 -106 0
447 -161 0
447 -75 0
447 -446 0
448 -124 -447 0
-448 124 0
-448 447 0
-449 46 448 42 0
449 -46 0
449 -448 0
449 -42 0
450 -127 -449 0
-450 127 0
-450 449 0
451 -144 -443 0
-451 144 0
-451 443 0
-452 31 451 80 0
452 -31 0
452 -451 0
452 -80 0
453 -33 -452 0
-453 33 0
-453 452 0
-454 56 37 40 223 226 53 0
454 -56 0
454 -37 0
454 -40 0
454 -223 0
454 -226 0
454 -53 0
455 -58 -454 0
-455 58 0
-455 454 0
-456 60 453 455 0
456 -60 0
456 -453 0
456 -455 0
457 -160 -456 0
-457 160 0
-457 456 0
458 -194 -454 0
-458 194 0
-458 454 0
-459 196 8 11 14 444 450 457 458 0
459 -196 0
459 -8 0
459 -11 0
459 -14 0
459 -444 0
459 -450 0
459 -457 0
459 -458 0
460 -198 -459 0
-460 198 0
-460 459 0
-461 200 6 460 0
461 -200 0
461 -6 0
461 -460 0
462 -202 -461 0
-462 202 0
-462 461 0
-463 209 462 203 206 0
463 -209 0
463 -462 0
463 -203 0
463 -206 0
464 -238 -463 0
-464 238 0
-464 463 0
-465 200 460 0
465 -200 0
465 -460 0
466 -202 -465 0
-466 202 0
-466 465 0
-467 209 466 203 206 0
467 -209 0
467 -466 0
467 -203 0
467 -206 0
468 -243 -467 0
-468 243 0
-468 467 0
-469 5 468 1 0
469 -5 0
469 -468 0
469 -1 0
470 -18 -469 0
-470 18 0
-470 469 0
471 -247 -463 0
-471 247 0
-471 463 0
472 -20 -469 0
-472 20 0
-472 469 0
-473 22 471 472 0
473 -22 0
473 -471 0
473 -472 0
474 -24 -473 0
-474 24 0
-474 473 0
-475 56 37 40 47 258 0
475 -56 0
475 -37 0
475 -40 0
475 -47 0
475 -258 0
476 -104 -475 0
-476 104 0
-476 475 0
-477 106 161 75 476 0
477 -106 0
477 -161 0
477 -75 0
477 -476 0
478 -108 -477 0
-478 108 0
-478 477 0
-479 56 37 40 258 0
479 -56 0
479 -37 0
479 -40 0
479 -258 0
480 -104 -479 0
-480 104 0
-480 479 0
-481 106 161 75 480 0
481 -106 0
481 -161 0
481 -75 0
481 -480 0
482 -124 -481 0
-482 124 0
-482 481 0
-483 46 482 42 0
483 -46 0
483 -482 0
483 -42 0
484 -127 -483 0
-484 127 0
-484 483 0
485 -144 -477 0
-485 144 0
-485 477 0
-486 31 485 80 0
486 -31 0
486 -485 0
486 -80 0
487 -33 -486 0
-487 33 0
-487 486 0
-488 56 37 40 223 226 258 0
488 -56 0
488 -37 0
488 -40 0
488 -223 0
488 -226 0
488 -258 0
489 -58 -488 0
-489 58 0
-489 488 0
-490 60 487 489 0
490 -60 0
490 -487 0
490 -489 0
491 -160 -490 0
-491 160 0
-491 490 0
492 -194 -488 0
-492 194 0
-492 488 0
-493 196 8 11 14 478 484 491 492 0
493 -196 0
493 -8 0
493 -11 0
493 -14 0
493 -478 0
493 -484 0
493 -491 0
493 -492 0
494 -198 -493 0
-494 198 0
-494 493 0
-495 200 254 494 0
495 -200 0
495 -254 0
495 -494 0
496 -281 -495 0
-496 281 0
-496 495 0
-497 56 37 40 47 290 0
497 -56 0
497 -37 0
497 -40 0
497 -47 0
497 -290 0
498 -194 -497 0
-498 194 0
-498 497 0
-499 196 8 283 11 14 285 498 0
499 -196 0
499 -8 0
499 -283 0
499 -11 0
499 -14 0
499 -285 0
499 -498 0
500 -295 -499 0
-500 295 0
-500 499 0
-501 72 500 0
501 -72 0
501 -500 0
502 -74 -501 0
-502 74 0
-502 501 0
-503 56 37 40 290 0
503 -56 0
503 -37 0
503 -40 0
503 -290 0
504 -194 -503 0
-504 194 0
-504 503 0
-505 196 8 283 11 14 504 0
505 -196 0
505 -8 0
505 -283 0
505 -11 0
505 -14 0
505 -504 0
506 -302 -505 0
-506 302 0
-506 505 0
-507 44 506 0
507 -44 0
507 -506 0
508 -43 -507 0
-508 43 0
-508 507 0
-509 46 508 0
509 -46 0
509 -508 0
510 -76 -509 0
-510 76 0
-510 509 0
-511 52 326 328 0
511 -52 0
511 -326 0
511 -328 0
512 -54 -511 0
-512 54 0
-512 511 0
-513 56 315 40 321 512 332 0
513 -56 0
513 -315 0
513 -40 0
513 -321 0
513 -512 0
513 -332 0
514 -104 -513 0
-514 104 0
-514 513 0
515 -337 -499 0
-515 337 0
-515 499 0
-516 106 502 510 514 515 0
516 -106 0
516 -502 0
516 -510 0
516 -514 0
516 -515 0
517 -144 -516 0
-517 144 0
-517 516 0
518 -104 -497 0
-518 104 0
-518 497 0
-519 106 161 75 518 0
519 -106 0
519 -161 0
519 -75 0
519 -518 0
520 -108 -519 0
-520 108 0
-520 519 0
521 -104 -503 0
-521 104 0
-521 503 0
-522 106 161 75 521 0
522 -106 0
522 -161 0
522 -75 0
522 -521 0
523 -124 -522 0
-523 124 0
-523 522 0
-524 46 523 42 0
524 -46 0
524 -523 0
524 -42 0
525 -127 -524 0
-525 127 0
-525 524 0
-526 56 37 40 223 226 290 0
526 -56 0
526 -37 0
526 -40 0
526 -223 0
526 -226 0
526 -290 0
527 -194 -526 0
-527 194 0
-527 526 0
-528 196 8 283 11 14 520 525 527 0
528 -196 0
528 -8 0
528 -283 0
528 -11 0
528 -14 0
528 -520 0
528 -525 0
528 -527 0
529 -295 -528 0
-529 295 0
-529 528 0
-530 72 529 0
530 -72 0
530 -529 0
531 -78 -530 0
-531 78 0
-531 530 0
-532 29 531 0
532 -29 0
532 -531 0
533 -28 -532 0
-533 28 0
-533 532 0
-534 31 517 533 0
534 -31 0
534 -517 0
534 -533 0
535 -33 -534 0
-535 33 0
-535 534 0
-536 52 389 391 0
536 -52 0
536 -389 0
536 -391 0
537 -54 -536 0
-537 54 0
-537 536 0
-538 56 366 40 373 383 537 394 0
538 -56 0
538 -366 0
538 -40 0
538 -373 0
538 -383 0
538 -537 0
538 -394 0
539 -58 -538 0
-539 58 0
-539 538 0
-540 60 535 539 0
540 -60 0
540 -535 0
540 -539 0
541 -62 -540 0
-541 62 0
-541 540 0
542 -144 -519 0
-542 144 0
-542 519 0
-543 31 542 80 0
543 -31 0
543 -542 0
543 -80 0
544 -33 -543 0
-544 33 0
-544 543 0
545 -58 -526 0
-545 58 0
-545 526 0
-546 60 544 545 0
546 -60 0
546 -544 0
546 -545 0
547 -160 -546 0
-547 160 0
-547 546 0
-548 196 8 283 11 14 520 525 547 527 0
548 -196 0
548 -8 0
548 -283 0
548 -11 0
548 -14 0
548 -520 0
548 -525 0
548 -547 0
548 -527 0
549 -407 -548 0
-549 407 0
-549 548 0
-550 64 541 549 0
550 -64 0
550 -541 0
550 -549 0
551 -66 -550 0
-551 66 0
-551 550 0
-552 68 464 470 474 25 496 551 0
552 -68 0
552 -464 0
552 -470 0
552 -474 0
552 -25 0
552 -496 0
552 -551 0
553 -96 -552 0
-553 96 0
-553 552 0
554 -238 -287 0
-554 238 0
-554 287 0
555 -202 -200 0
-555 202 0
-555 200 0
-556 209 555 203 206 0
556 -209 0
556 -555 0
556 -203 0
556 -206 0
557 -243 -556 0
-557 243 0
-557 556 0
-558 5 557 1 0
558 -5 0
558 -557 0
558 -1 0
559 -18 -558 0
-559 18 0
-559 558 0
560 -247 -287 0
-560 247 0
-560 287 0
561 -20 -558 0
-561 20 0
-561 558 0
-562 22 560 561 0
562 -22 0
562 -560 0
562 -561 0
563 -24 -562 0
-563 24 0
-563 562 0
564 -281 -282 0
-564 281 0
-564 282 0
565 -58 -497 0
-565 58 0
-565 497 0
-566 60 32 565 0
566 -60 0
566 -32 0
566 -565 0
567 -62 -566 0
-567 62 0
-567 566 0
-568 64 567 0
568 -64 0
568 -567 0
569 -66 -568 0
-569 66 0
-569 568 0
-570 68 554 559 563 25 564 569 0
570 -68 0
570 -554 0
570 -559 0
570 -563 0
570 -25 0
570 -564 0
570 -569 0
571 -70 -570 0
-571 70 0
-571 570 0
-572 72 571 0
572 -72 0
572 -571 0
573 -74 -572 0
-573 74 0
-573 572 0
-574 68 554 559 563 25 564 93 0
574 -68 0
574 -554 0
574 -559 0
574 -563 0
574 -25 0
574 -564 0
574 -93 0
575 -89 -574 0
-575 89 0
-575 574 0
-576 52 288 0
576 -52 0
576 -288 0
577 -54 -576 0
-577 54 0
-577 576 0
-578 56 575 37 40 47 577 0
578 -56 0
578 -575 0
578 -37 0
578 -40 0
578 -47 0
578 -577 0
579 -104 -578 0
-579 104 0
-579 578 0
-580 106 573 75 579 0
580 -106 0
580 -573 0
580 -75 0
580 -579 0
581 -108 -580 0
-581 108 0
-581 580 0
582 -58 -503 0
-582 58 0
-582 503 0
-583 60 32 582 0
583 -60 0
583 -32 0
583 -582 0
584 -62 -583 0
-584 62 0
-584 583 0
-585 64 584 0
585 -64 0
585 -584 0
586 -66 -585 0
-586 66 0
-586 585 0
-587 68 554 559 563 25 564 586 0
587 -68 0
587 -554 0
587 -559 0
587 -563 0
587 -25 0
587 -564 0
587 -586 0
588 -70 -587 0
-588 70 0
-588 587 0
-589 72 588 0
589 -72 0
589 -588 0
590 -74 -589 0
-590 74 0
-590 589 0
-591 56 575 37 40 577 0
591 -56 0
591 -575 0
591 -37 0
591 -40 0
591 -577 0
592 -104 -591 0
-592 104 0
-592 591 0
-593 106 590 75 592 0
593 -106 0
593 -590 0
593 -75 0
593 -592 0
594 -124 -593 0
-594 124 0
-594 593 0
-595 46 594 42 0
595 -46 0
595 -594 0
595 -42 0
596 -127 -595 0
-596 127 0
-596 595 0
-597 68 554 559 563 25 564 128 0
597 -68 0
597 -554 0
597 -559 0
597 -563 0
597 -25 0
597 -564 0
597 -128 0
598 -70 -597 0
-598 70 0
-598 597 0
-599 72 598 0
599 -72 0
599 -598 0
600 -74 -599 0
-600 74 0
-600 599 0
601 -89 -597 0
-601 89 0
-601 597 0
-602 56 601 37 40 47 577 0
602 -56 0
602 -601 0
602 -37 0
602 -40 0
602 -47 0
602 -577 0
603 -104 -602 0
-603 104 0
-603 602 0
-604 106 600 75 603 0
604 -106 0
604 -600 0
604 -75 0
604 -603 0
605 -144 -604 0
-605 144 0
-605 604 0
606 -78 -599 0
-606 78 0
-606 599 0
-607 29 606 0
607 -29 0
607 -606 0
608 -28 -607 0
-608 28 0
-608 607 0
-609 31 605 608 0
609 -31 0
609 -605 0
609 -608 0
610 -33 -609 0
-610 33 0
-610 609 0
-611 106 600 75 0
611 -106 0
611 -600 0
611 -75 0
612 -151 -611 0
-612 151 0
-612 611 0
613 -124 -611 0
-613 124 0
-613 611 0
-614 46 613 42 0
614 -46 0
614 -613 0
614 -42 0
615 -48 -614 0
-615 48 0
-615 614 0
-616 56 601 37 40 612 615 577 0
616 -56 0
616 -601 0
616 -37 0
616 -40 0
616 -612 0
616 -615 0
616 -577 0
617 -58 -616 0
-617 58 0
-617 616 0
-618 60 610 617 0
618 -60 0
618 -610 0
618 -617 0
619 -160 -618 0
-619 160 0
-619 618 0
-620 68 554 559 563 25 564 169 0
620 -68 0
620 -554 0
620 -559 0
620 -563 0
620 -25 0
620 -564 0
620 -169 0
621 -89 -620 0
-621 89 0
-621 620 0
-622 68 554 559 563 25 564 180 0
622 -68 0
622 -554 0
622 -559 0
622 -563 0
622 -25 0
622 -564 0
622 -180 0
623 -70 -622 0
-623 70 0
-623 622 0
-624 72 623 0
624 -72 0
624 -623 0
625 -74 -624 0
-625 74 0
-625 624 0
-626 106 625 75 0
626 -106 0
626 -625 0
626 -75 0
627 -151 -626 0
-627 151 0
-627 626 0
628 -124 -626 0
-628 124 0
-628 626 0
-629 46 628 42 0
629 -46 0
629 -628 0
629 -42 0
630 -48 -629 0
-630 48 0
-630 629 0
-631 56 621 37 40 627 630 577 0
631 -56 0
631 -621 0
631 -37 0
631 -40 0
631 -627 0
631 -630 0
631 -577 0
632 -194 -631 0
-632 194 0
-632 631 0
-633 196 8 283 11 14 581 596 619 632 0
633 -196 0
633 -8 0
633 -283 0
633 -11 0
633 -14 0
633 -581 0
633 -596 0
633 -619 0
633 -632 0
634 -309 -633 0
-634 309 0
-634 633 0
-635 36 553 634 0
635 -36 0
635 -553 0
635 -634 0
636 -637 -635 0
-636 637 0
-636 635 0
-638 431 428 0
638 -431 0
638 -428 0
639 -640 -638 0
-639 640 0
-639 638 0
-641 422 639 0
641 -422 0
641 -639 0
642 -643 -641 0
-642 643 0
-642 641 0
644 -645 -646 0
-644 645 0
-644 646 0
-647 209 201 206 0
647 -209 0
647 -201 0
647 -206 0
648 -649 -647 0
-648 649 0
-648 647 0
-650 205 648 0
650 -205 0
650 -648 0
651 -652 -650 0
-651 652 0
-651 650 0
653 -654 -16 0
-653 654 0
-653 16 0
655 -656 -208 0
-655 656 0
-655 208 0
-657 658 655 0
657 -658 0
657 -655 0
659 -660 -657 0
-659 660 0
-659 657 0
-661 662 210 411 418 432 439 636 642 644 651 653 659 0
661 -662 0
661 -210 0
661 -411 0
661 -418 0
661 -432 0
661 -439 0
661 -636 0
661 -642 0
661 -644 0
661 -651 0
661 -653 0
661 -659 0
663 -664 -661 0
-663 664 0
-663 661 0
-665 666 663 0
665 -666 0
665 -663 0
667 -665 -668 0
-667 665 0
-667 668 0
667 0
