c BC-S1.2
p cnf 162 405
1 -2 -3 0
-1 2 0
-1 3 0
4 -5 -6 0
-4 5 0
-4 6 0
7 -8 -9 0
-7 8 0
-7 9 0
-10 11 4 7 0
10 -11 0
10 -4 0
10 -7 0
12 -13 -10 0
-12 13 0
-12 10 0
-14 15 12 0
14 -15 0
14 -12 0
16 -17 -14 0
-16 17 0
-16 14 0
-18 19 16 0
18 -19 0
18 -16 0
20 -21 -18 0
-20 21 0
-20 18 0
22 -23 -15 0
-22 23 0
-22 15 0
-24 11 22 7 0
24 -11 0
24 -22 0
24 -7 0
25 -26 -24 0
-25 26 0
-25 24 0
-27 6 25 0
27 -6 0
27 -25 0
28 -29 -27 0
-28 29 0
-28 27 0
-30 31 20 28 0
30 -31 0
30 -20 0
30 -28 0
32 -33 -30 0
-32 33 0
-32 30 0
-34 11 7 0
34 -11 0
34 -7 0
35 -13 -34 0
-35 13 0
-35 34 0
-36 15 35 0
36 -15 0
36 -35 0
37 -17 -36 0
-37 17 0
-37 36 0
-38 19 37 0
38 -19 0
38 -37 0
39 -21 -38 0
-39 21 0
-39 38 0
-40 31 39 0
40 -31 0
40 -39 0
41 -42 -40 0
-41 42 0
-41 40 0
-43 6 41 25 0
43 -6 0
43 -41 0
43 -25 0
44 -45 -43 0
-44 45 0
-44 43 0
-46 47 32 44 0
46 -47 0
46 -32 0
46 -44 0
48 -49 -46 0
-48 49 0
-48 46 0
50 -45 -27 0
-50 45 0
-50 27 0
-51 47 50 0
51 -47 0
51 -50 0
52 -53 -51 0
-52 53 0
-52 51 0
-54 31 52 20 28 0
54 -31 0
54 -52 0
54 -20 0
54 -28 0
55 -56 -54 0
-55 56 0
-55 54 0
-57 58 48 55 0
57 -58 0
57 -48 0
57 -55 0
59 -60 -57 0
-59 60 0
-59 57 0
-61 62 59 0
61 -62 0
61 -59 0
63 -64 -61 0
-63 64 0
-63 61 0
65 -49 -51 0
-65 49 0
-65 51 0
66 -67 -62 0
-66 67 0
-66 62 0
-68 58 65 66 0
68 -58 0
68 -65 0
68 -66 0
69 -70 -68 0
-69 70 0
-69 68 0
-71 31 69 52 28 0
71 -31 0
71 -69 0
71 -52 0
71 -28 0
72 -73 -71 0
-72 73 0
-72 71 0
74 -49 -47 0
-74 49 0
-74 47 0
-75 58 74 66 0
75 -58 0
75 -74 0
75 -66 0
76 -70 -75 0
-76 70 0
-76 75 0
77 -53 -47 0
-77 53 0
-77 47 0
-78 31 76 77 0
78 -31 0
78 -76 0
78 -77 0
79 -42 -78 0
-79 42 0
-79 78 0
-80 6 79 0
80 -6 0
80 -79 0
81 -5 -80 0
-81 5 0
-81 80 0
-82 11 81 7 0
82 -11 0
82 -81 0
82 -7 0
83 -13 -82 0
-83 13 0
-83 82 0
-84 15 83 0
84 -15 0
84 -83 0
85 -17 -84 0
-85 17 0
-85 84 0
-86 19 72 85 0
86 -19 0
86 -72 0
86 -85 0
87 -88 -86 0
-87 88 0
-87 86 0
89 -21 -19 0
-89 21 0
-89 19 0
-90 31 76 77 89 0
90 -31 0
90 -76 0
90 -77 0
90 -89 0
91 -42 -90 0
-91 42 0
-91 90 0
-92 6 91 0
92 -6 0
92 -91 0
93 -5 -92 0
-93 5 0
-93 92 0
-94 11 93 7 0
94 -11 0
94 -93 0
94 -7 0
95 -13 -94 0
-95 13 0
-95 94 0
-96 15 95 0
96 -15 0
96 -95 0
97 -98 -96 0
-97 98 0
-97 96 0
-99 100 1 63 87 97 0
99 -100 0
99 -1 0
99 -63 0
99 -87 0
99 -97 0
101 -102 -99 0
-101 102 0
-101 99 0
103 -104 -105 0
-103 104 0
-103 105 0
106 -29 -6 0
-106 29 0
-106 6 0
-107 31 20 106 0
107 -31 0
107 -20 0
107 -106 0
108 -33 -107 0
-108 33 0
-108 107 0
-109 6 41 0
109 -6 0
109 -41 0
110 -45 -109 0
-110 45 0
-110 109 0
-111 47 108 110 0
111 -47 0
111 -108 0
111 -110 0
112 -49 -111 0
-112 49 0
-112 111 0
113 -45 -6 0
-113 45 0
-113 6 0
-114 47 113 0
114 -47 0
114 -113 0
115 -53 -114 0
-115 53 0
-115 114 0
-116 31 115 20 106 0
116 -31 0
116 -115 0
116 -20 0
116 -106 0
117 -56 -116 0
-117 56 0
-117 116 0
-118 58 112 117 0
118 -58 0
118 -112 0
118 -117 0
119 -60 -118 0
-119 60 0
-119 118 0
-120 62 119 0
120 -62 0
120 -119 0
121 -64 -120 0
-121 64 0
-121 120 0
122 -49 -114 0
-122 49 0
-122 114 0
-123 58 122 66 0
123 -58 0
123 -122 0
123 -66 0
124 -70 -123 0
-124 70 0
-124 123 0
-125 31 124 115 106 0
125 -31 0
125 -124 0
125 -115 0
125 -106 0
126 -73 -125 0
-126 73 0
-126 125 0
-127 19 126 0
127 -19 0
127 -126 0
128 -88 -127 0
-128 88 0
-128 127 0
-129 100 1 121 128 0
129 -100 0
129 -1 0
129 -121 0
129 -128 0
130 -131 -129 0
-130 131 0
-130 129 0
-132 15 130 0
132 -15 0
132 -130 0
133 -23 -132 0
-133 23 0
-133 132 0
-134 58 65 0
134 -58 0
134 -65 0
135 -60 -134 0
-135 60 0
-135 134 0
-136 62 135 0
136 -62 0
136 -135 0
137 -64 -136 0
-137 64 0
-137 136 0
138 -98 -15 0
-138 98 0
-138 15 0
-139 100 1 137 138 0
139 -100 0
139 -1 0
139 -137 0
139 -138 0
140 -141 -139 0
-140 141 0
-140 139 0
-142 58 74 0
142 -58 0
142 -74 0
143 -60 -142 0
-143 60 0
-143 142 0
-144 62 143 0
144 -62 0
144 -143 0
145 -64 -144 0
-145 64 0
-145 144 0
-146 100 1 145 0
146 -100 0
146 -1 0
146 -145 0
147 -131 -146 0
-147 131 0
-147 146 0
-148 15 147 0
148 -15 0
148 -147 0
149 -17 -148 0
-149 17 0
-149 148 0
-150 19 140 149 0
150 -19 0
150 -140 0
150 -149 0
151 -21 -150 0
-151 21 0
-151 150 0
-152 31 76 77 151 0
152 -31 0
152 -76 0
152 -77 0
152 -151 0
153 -42 -152 0
-153 42 0
-153 152 0
-154 6 153 0
154 -6 0
154 -153 0
155 -5 -154 0
-155 5 0
-155 154 0
-156 11 133 155 7 0
156 -11 0
156 -133 0
156 -155 0
156 -7 0
157 -158 -156 0
-157 158 0
-157 156 0
-159 160 101 103 157 0
159 -160 0
159 -101 0
159 -103 0
159 -157 0
161 -159 -162 0
-161 159 0
-161 162 0
161 0
