c BC-S1.2
p cnf 543 1781
1 -2 -3 0
-1 2 0
-1 3 0
-4 5 1 0
4 -5 0
4 -1 0
6 -7 -4 0
-6 7 0
-6 4 0
8 -9 -3 0
-8 9 0
-8 3 0
10 -11 -4 0
-10 11 0
-10 4 0
12 -13 -4 0
-12 13 0
-12 4 0
14 -15 -4 0
-14 15 0
-14 4 0
-16 17 14 0
16 -17 0
16 -14 0
18 -19 -16 0
-18 19 0
-18 16 0
20 -21 -22 0
-20 21 0
-20 22 0
23 -24 -25 0
-23 24 0
-23 25 0
26 -27 -28 0
-26 27 0
-26 28 0
-29 30 12 18 20 23 26 0
29 -30 0
29 -12 0
29 -18 0
29 -20 0
29 -23 0
29 -26 0
31 -32 -29 0
-31 32 0
-31 29 0
33 -34 -29 0
-33 34 0
-33 29 0
-35 36 33 0
35 -36 0
35 -33 0
37 -38 -35 0
-37 38 0
-37 35 0
-39 40 10 31 37 0
39 -40 0
39 -10 0
39 -31 0
39 -37 0
41 -42 -39 0
-41 42 0
-41 39 0
43 -44 -4 0
-43 44 0
-43 4 0
-45 46 43 0
45 -46 0
45 -43 0
47 -48 -45 0
-47 48 0
-47 45 0
49 -50 -45 0
-49 50 0
-49 45 0
51 -52 -28 0
-51 52 0
-51 28 0
-53 54 49 51 0
53 -54 0
53 -49 0
53 -51 0
55 -56 -53 0
-55 56 0
-55 53 0
-57 58 41 47 55 0
57 -58 0
57 -41 0
57 -47 0
57 -55 0
59 -60 -57 0
-59 60 0
-59 57 0
-61 62 8 59 0
61 -62 0
61 -8 0
61 -59 0
63 -64 -61 0
-63 64 0
-63 61 0
65 -66 -4 0
-65 66 0
-65 4 0
67 -68 -4 0
-67 68 0
-67 4 0
69 -70 -4 0
-69 70 0
-69 4 0
71 -72 -16 0
-71 72 0
-71 16 0
73 -74 -45 0
-73 74 0
-73 45 0
-75 76 69 71 73 0
75 -76 0
75 -69 0
75 -71 0
75 -73 0
77 -78 -75 0
-77 78 0
-77 75 0
-79 80 67 77 0
79 -80 0
79 -67 0
79 -77 0
81 -82 -79 0
-81 82 0
-81 79 0
83 -84 -79 0
-83 84 0
-83 79 0
-85 58 47 55 0
85 -58 0
85 -47 0
85 -55 0
86 -60 -85 0
-86 60 0
-86 85 0
-87 62 8 86 0
87 -62 0
87 -8 0
87 -86 0
88 -89 -87 0
-88 89 0
-88 87 0
90 -91 -87 0
-90 91 0
-90 87 0
92 -93 -87 0
-92 93 0
-92 87 0
-94 25 92 0
94 -25 0
94 -92 0
95 -24 -94 0
-95 24 0
-95 94 0
-96 30 12 90 18 20 95 26 0
96 -30 0
96 -12 0
96 -90 0
96 -18 0
96 -20 0
96 -95 0
96 -26 0
97 -32 -96 0
-97 32 0
-97 96 0
98 -34 -96 0
-98 34 0
-98 96 0
-99 36 98 0
99 -36 0
99 -98 0
100 -38 -99 0
-100 38 0
-100 99 0
-101 40 10 88 97 100 0
101 -40 0
101 -10 0
101 -88 0
101 -97 0
101 -100 0
102 -103 -101 0
-102 103 0
-102 101 0
104 -105 -45 0
-104 105 0
-104 45 0
-106 30 12 18 20 26 0
106 -30 0
106 -12 0
106 -18 0
106 -20 0
106 -26 0
107 -32 -106 0
-107 32 0
-107 106 0
108 -34 -106 0
-108 34 0
-108 106 0
-109 36 108 0
109 -36 0
109 -108 0
110 -38 -109 0
-110 38 0
-110 109 0
-111 40 10 107 110 0
111 -40 0
111 -10 0
111 -107 0
111 -110 0
112 -42 -111 0
-112 42 0
-112 111 0
-113 58 112 47 55 0
113 -58 0
113 -112 0
113 -47 0
113 -55 0
114 -60 -113 0
-114 60 0
-114 113 0
-115 62 8 114 0
115 -62 0
115 -8 0
115 -114 0
116 -93 -115 0
-116 93 0
-116 115 0
-117 25 116 0
117 -25 0
117 -116 0
118 -119 -117 0
-118 119 0
-118 117 0
-120 121 83 102 104 118 0
120 -121 0
120 -83 0
120 -102 0
120 -104 0
120 -118 0
122 -123 -120 0
-122 123 0
-122 120 0
124 -125 -3 0
-124 125 0
-124 3 0
126 -127 -61 0
-126 127 0
-126 61 0
-128 129 126 0
128 -129 0
128 -126 0
130 -131 -128 0
-130 131 0
-130 128 0
-132 133 63 65 81 122 124 130 0
132 -133 0
132 -63 0
132 -65 0
132 -81 0
132 -122 0
132 -124 0
132 -130 0
134 -135 -132 0
-134 135 0
-134 132 0
136 -137 -4 0
-136 137 0
-136 4 0
138 -139 -61 0
-138 139 0
-138 61 0
140 -141 -16 0
-140 141 0
-140 16 0
142 -143 -79 0
-142 143 0
-142 79 0
144 -145 -3 0
-144 145 0
-144 3 0
-146 147 134 136 138 140 142 144 0
146 -147 0
146 -134 0
146 -136 0
146 -138 0
146 -140 0
146 -142 0
146 -144 0
148 -149 -146 0
-148 149 0
-148 146 0
150 -151 -4 0
-150 151 0
-150 4 0
-152 40 10 37 0
152 -40 0
152 -10 0
152 -37 0
153 -42 -152 0
-153 42 0
-153 152 0
-154 58 153 47 55 0
154 -58 0
154 -153 0
154 -47 0
154 -55 0
155 -60 -154 0
-155 60 0
-155 154 0
-156 62 8 155 0
156 -62 0
156 -8 0
156 -155 0
157 -91 -156 0
-157 91 0
-157 156 0
-158 40 10 110 0
158 -40 0
158 -10 0
158 -110 0
159 -42 -158 0
-159 42 0
-159 158 0
-160 58 159 47 55 0
160 -58 0
160 -159 0
160 -47 0
160 -55 0
161 -60 -160 0
-161 60 0
-161 160 0
-162 62 8 161 0
162 -62 0
162 -8 0
162 -161 0
163 -93 -162 0
-163 93 0
-163 162 0
-164 25 163 0
164 -25 0
164 -163 0
165 -24 -164 0
-165 24 0
-165 164 0
-166 30 12 157 18 20 165 26 0
166 -30 0
166 -12 0
166 -157 0
166 -18 0
166 -20 0
166 -165 0
166 -26 0
167 -168 -166 0
-167 168 0
-167 166 0
169 -170 -3 0
-169 170 0
-169 3 0
171 -172 -4 0
-171 172 0
-171 4 0
173 -174 -61 0
-173 174 0
-173 61 0
-175 176 171 173 0
175 -176 0
175 -171 0
175 -173 0
177 -178 -175 0
-177 178 0
-177 175 0
-179 180 148 150 167 169 177 0
179 -180 0
179 -148 0
179 -150 0
179 -167 0
179 -169 0
179 -177 0
181 -182 -179 0
-181 182 0
-181 179 0
183 -184 -16 0
-183 184 0
-183 16 0
185 -186 -166 0
-185 186 0
-185 166 0
-187 62 8 0
187 -62 0
187 -8 0
188 -89 -187 0
-188 89 0
-188 187 0
189 -91 -187 0
-189 91 0
-189 187 0
190 -93 -187 0
-190 93 0
-190 187 0
-191 25 190 0
191 -25 0
191 -190 0
192 -24 -191 0
-192 24 0
-192 191 0
-193 30 12 189 18 20 192 26 0
193 -30 0
193 -12 0
193 -189 0
193 -18 0
193 -20 0
193 -192 0
193 -26 0
194 -32 -193 0
-194 32 0
-194 193 0
195 -34 -193 0
-195 34 0
-195 193 0
-196 36 195 0
196 -36 0
196 -195 0
197 -38 -196 0
-197 38 0
-197 196 0
-198 40 10 188 194 197 0
198 -40 0
198 -10 0
198 -188 0
198 -194 0
198 -197 0
199 -42 -198 0
-199 42 0
-199 198 0
-200 58 199 47 55 0
200 -58 0
200 -199 0
200 -47 0
200 -55 0
201 -202 -200 0
-201 202 0
-201 200 0
-203 204 6 181 183 185 201 0
203 -204 0
203 -6 0
203 -181 0
203 -183 0
203 -185 0
203 -201 0
205 -206 -203 0
-205 206 0
-205 203 0
-207 180 150 167 169 177 0
207 -180 0
207 -150 0
207 -167 0
207 -169 0
207 -177 0
208 -182 -207 0
-208 182 0
-208 207 0
-209 204 6 208 183 185 201 0
209 -204 0
209 -6 0
209 -208 0
209 -183 0
209 -185 0
209 -201 0
210 -211 -209 0
-210 211 0
-210 209 0
212 -213 -209 0
-212 213 0
-212 209 0
-214 204 6 183 0
214 -204 0
214 -6 0
214 -183 0
215 -216 -214 0
-215 216 0
-215 214 0
-217 36 215 33 0
217 -36 0
217 -215 0
217 -33 0
218 -38 -217 0
-218 38 0
-218 217 0
-219 40 10 218 0
219 -40 0
219 -10 0
219 -218 0
220 -42 -219 0
-220 42 0
-220 219 0
-221 58 220 47 55 0
221 -58 0
221 -220 0
221 -47 0
221 -55 0
222 -60 -221 0
-222 60 0
-222 221 0
-223 62 8 222 0
223 -62 0
223 -8 0
223 -222 0
224 -91 -223 0
-224 91 0
-224 223 0
-225 36 215 108 0
225 -36 0
225 -215 0
225 -108 0
226 -38 -225 0
-226 38 0
-226 225 0
-227 40 10 226 0
227 -40 0
227 -10 0
227 -226 0
228 -42 -227 0
-228 42 0
-228 227 0
-229 58 228 47 55 0
229 -58 0
229 -228 0
229 -47 0
229 -55 0
230 -60 -229 0
-230 60 0
-230 229 0
-231 62 8 230 0
231 -62 0
231 -8 0
231 -230 0
232 -93 -231 0
-232 93 0
-232 231 0
-233 25 232 0
233 -25 0
233 -232 0
234 -24 -233 0
-234 24 0
-234 233 0
-235 30 12 224 18 20 234 26 0
235 -30 0
235 -12 0
235 -224 0
235 -18 0
235 -20 0
235 -234 0
235 -26 0
236 -168 -235 0
-236 168 0
-236 235 0
237 -186 -29 0
-237 186 0
-237 29 0
-238 204 6 183 237 0
238 -204 0
238 -6 0
238 -183 0
238 -237 0
239 -216 -238 0
-239 216 0
-239 238 0
-240 36 239 33 0
240 -36 0
240 -239 0
240 -33 0
241 -38 -240 0
-241 38 0
-241 240 0
-242 40 10 31 241 0
242 -40 0
242 -10 0
242 -31 0
242 -241 0
243 -42 -242 0
-243 42 0
-243 242 0
-244 58 243 47 55 0
244 -58 0
244 -243 0
244 -47 0
244 -55 0
245 -60 -244 0
-245 60 0
-245 244 0
-246 62 8 245 0
246 -62 0
246 -8 0
246 -245 0
247 -174 -246 0
-247 174 0
-247 246 0
-248 176 171 247 0
248 -176 0
248 -171 0
248 -247 0
249 -178 -248 0
-249 178 0
-249 248 0
-250 180 150 236 169 249 0
250 -180 0
250 -150 0
250 -236 0
250 -169 0
250 -249 0
251 -252 -250 0
-251 252 0
-251 250 0
253 -168 -29 0
-253 168 0
-253 29 0
-254 176 171 0
254 -176 0
254 -171 0
255 -178 -254 0
-255 178 0
-255 254 0
-256 180 150 253 169 255 0
256 -180 0
256 -150 0
256 -253 0
256 -169 0
256 -255 0
257 -182 -256 0
-257 182 0
-257 256 0
-258 204 6 257 183 237 0
258 -204 0
258 -6 0
258 -257 0
258 -183 0
258 -237 0
259 -216 -258 0
-259 216 0
-259 258 0
-260 36 259 33 0
260 -36 0
260 -259 0
260 -33 0
261 -38 -260 0
-261 38 0
-261 260 0
-262 40 10 31 261 0
262 -40 0
262 -10 0
262 -31 0
262 -261 0
263 -42 -262 0
-263 42 0
-263 262 0
-264 58 263 47 55 0
264 -58 0
264 -263 0
264 -47 0
264 -55 0
265 -60 -264 0
-265 60 0
-265 264 0
-266 62 8 265 0
266 -62 0
266 -8 0
266 -265 0
267 -64 -266 0
-267 64 0
-267 266 0
268 -269 -209 0
-268 269 0
-268 209 0
-270 76 268 69 71 73 0
270 -76 0
270 -268 0
270 -69 0
270 -71 0
270 -73 0
271 -78 -270 0
-271 78 0
-271 270 0
-272 80 67 271 0
272 -80 0
272 -67 0
272 -271 0
273 -82 -272 0
-273 82 0
-273 272 0
274 -84 -272 0
-274 84 0
-274 272 0
275 -168 -96 0
-275 168 0
-275 96 0
276 -174 -87 0
-276 174 0
-276 87 0
-277 176 171 276 0
277 -176 0
277 -171 0
277 -276 0
278 -178 -277 0
-278 178 0
-278 277 0
-279 180 150 275 169 278 0
279 -180 0
279 -150 0
279 -275 0
279 -169 0
279 -278 0
280 -182 -279 0
-280 182 0
-280 279 0
281 -186 -96 0
-281 186 0
-281 96 0
282 -202 -85 0
-282 202 0
-282 85 0
-283 204 6 280 183 281 282 0
283 -204 0
283 -6 0
283 -280 0
283 -183 0
283 -281 0
283 -282 0
284 -216 -283 0
-284 216 0
-284 283 0
-285 36 284 98 0
285 -36 0
285 -284 0
285 -98 0
286 -38 -285 0
-286 38 0
-286 285 0
-287 40 10 88 97 286 0
287 -40 0
287 -10 0
287 -88 0
287 -97 0
287 -286 0
288 -103 -287 0
-288 103 0
-288 287 0
289 -168 -106 0
-289 168 0
-289 106 0
-290 180 150 289 169 255 0
290 -180 0
290 -150 0
290 -289 0
290 -169 0
290 -255 0
291 -182 -290 0
-291 182 0
-291 290 0
292 -186 -106 0
-292 186 0
-292 106 0
-293 204 6 291 183 292 0
293 -204 0
293 -6 0
293 -291 0
293 -183 0
293 -292 0
294 -216 -293 0
-294 216 0
-294 293 0
-295 36 294 108 0
295 -36 0
295 -294 0
295 -108 0
296 -38 -295 0
-296 38 0
-296 295 0
-297 40 10 107 296 0
297 -40 0
297 -10 0
297 -107 0
297 -296 0
298 -42 -297 0
-298 42 0
-298 297 0
-299 58 298 47 55 0
299 -58 0
299 -298 0
299 -47 0
299 -55 0
300 -60 -299 0
-300 60 0
-300 299 0
-301 62 8 300 0
301 -62 0
301 -8 0
301 -300 0
302 -93 -301 0
-302 93 0
-302 301 0
-303 25 302 0
303 -25 0
303 -302 0
304 -119 -303 0
-304 119 0
-304 303 0
-305 121 274 288 104 304 0
305 -121 0
305 -274 0
305 -288 0
305 -104 0
305 -304 0
306 -123 -305 0
-306 123 0
-306 305 0
307 -127 -266 0
-307 127 0
-307 266 0
-308 129 307 0
308 -129 0
308 -307 0
309 -131 -308 0
-309 131 0
-309 308 0
-310 133 212 251 267 65 273 306 124 309 0
310 -133 0
310 -212 0
310 -251 0
310 -267 0
310 -65 0
310 -273 0
310 -306 0
310 -124 0
310 -309 0
311 -135 -310 0
-311 135 0
-311 310 0
312 -139 -266 0
-312 139 0
-312 266 0
313 -143 -272 0
-313 143 0
-313 272 0
-314 147 210 311 136 312 140 313 144 0
314 -147 0
314 -210 0
314 -311 0
314 -136 0
314 -312 0
314 -140 0
314 -313 0
314 -144 0
315 -316 -314 0
-315 316 0
-315 314 0
-317 147 136 138 140 142 144 0
317 -147 0
317 -136 0
317 -138 0
317 -140 0
317 -142 0
317 -144 0
318 -149 -317 0
-318 149 0
-318 317 0
-319 180 318 150 167 169 177 0
319 -180 0
319 -318 0
319 -150 0
319 -167 0
319 -169 0
319 -177 0
320 -182 -319 0
-320 182 0
-320 319 0
-321 204 6 320 183 185 201 0
321 -204 0
321 -6 0
321 -320 0
321 -183 0
321 -185 0
321 -201 0
322 -213 -321 0
-322 213 0
-322 321 0
-323 204 6 183 185 201 0
323 -204 0
323 -6 0
323 -183 0
323 -185 0
323 -201 0
324 -211 -323 0
-324 211 0
-324 323 0
325 -139 -246 0
-325 139 0
-325 246 0
326 -269 -323 0
-326 269 0
-326 323 0
-327 76 326 69 71 73 0
327 -76 0
327 -326 0
327 -69 0
327 -71 0
327 -73 0
328 -78 -327 0
-328 78 0
-328 327 0
-329 80 67 328 0
329 -80 0
329 -67 0
329 -328 0
330 -143 -329 0
-330 143 0
-330 329 0
-331 147 324 136 325 140 330 144 0
331 -147 0
331 -324 0
331 -136 0
331 -325 0
331 -140 0
331 -330 0
331 -144 0
332 -149 -331 0
-332 149 0
-332 331 0
-333 180 332 150 236 169 249 0
333 -180 0
333 -332 0
333 -150 0
333 -236 0
333 -169 0
333 -249 0
334 -252 -333 0
-334 252 0
-334 333 0
-335 147 136 140 142 144 0
335 -147 0
335 -136 0
335 -140 0
335 -142 0
335 -144 0
336 -149 -335 0
-336 149 0
-336 335 0
-337 180 336 150 253 169 255 0
337 -180 0
337 -336 0
337 -150 0
337 -253 0
337 -169 0
337 -255 0
338 -182 -337 0
-338 182 0
-338 337 0
-339 204 6 338 183 237 0
339 -204 0
339 -6 0
339 -338 0
339 -183 0
339 -237 0
340 -216 -339 0
-340 216 0
-340 339 0
-341 36 340 33 0
341 -36 0
341 -340 0
341 -33 0
342 -38 -341 0
-342 38 0
-342 341 0
-343 40 10 31 342 0
343 -40 0
343 -10 0
343 -31 0
343 -342 0
344 -42 -343 0
-344 42 0
-344 343 0
-345 58 344 47 55 0
345 -58 0
345 -344 0
345 -47 0
345 -55 0
346 -60 -345 0
-346 60 0
-346 345 0
-347 62 8 346 0
347 -62 0
347 -8 0
347 -346 0
348 -64 -347 0
-348 64 0
-348 347 0
-349 147 136 138 140 144 0
349 -147 0
349 -136 0
349 -138 0
349 -140 0
349 -144 0
350 -149 -349 0
-350 149 0
-350 349 0
-351 180 350 150 167 169 177 0
351 -180 0
351 -350 0
351 -150 0
351 -167 0
351 -169 0
351 -177 0
352 -182 -351 0
-352 182 0
-352 351 0
-353 204 6 352 183 185 201 0
353 -204 0
353 -6 0
353 -352 0
353 -183 0
353 -185 0
353 -201 0
354 -269 -353 0
-354 269 0
-354 353 0
-355 76 354 69 71 73 0
355 -76 0
355 -354 0
355 -69 0
355 -71 0
355 -73 0
356 -78 -355 0
-356 78 0
-356 355 0
-357 80 67 356 0
357 -80 0
357 -67 0
357 -356 0
358 -82 -357 0
-358 82 0
-358 357 0
-359 147 210 136 312 140 313 144 0
359 -147 0
359 -210 0
359 -136 0
359 -312 0
359 -140 0
359 -313 0
359 -144 0
360 -361 -359 0
-360 361 0
-360 359 0
362 -84 -357 0
-362 84 0
-362 357 0
363 -139 -87 0
-363 139 0
-363 87 0
-364 147 136 363 140 142 144 0
364 -147 0
364 -136 0
364 -363 0
364 -140 0
364 -142 0
364 -144 0
365 -149 -364 0
-365 149 0
-365 364 0
-366 180 365 150 275 169 278 0
366 -180 0
366 -365 0
366 -150 0
366 -275 0
366 -169 0
366 -278 0
367 -182 -366 0
-367 182 0
-367 366 0
-368 204 6 367 183 281 282 0
368 -204 0
368 -6 0
368 -367 0
368 -183 0
368 -281 0
368 -282 0
369 -216 -368 0
-369 216 0
-369 368 0
-370 36 369 98 0
370 -36 0
370 -369 0
370 -98 0
371 -38 -370 0
-371 38 0
-371 370 0
-372 40 10 88 97 371 0
372 -40 0
372 -10 0
372 -88 0
372 -97 0
372 -371 0
373 -103 -372 0
-373 103 0
-373 372 0
-374 180 336 150 289 169 255 0
374 -180 0
374 -336 0
374 -150 0
374 -289 0
374 -169 0
374 -255 0
375 -182 -374 0
-375 182 0
-375 374 0
-376 204 6 375 183 292 0
376 -204 0
376 -6 0
376 -375 0
376 -183 0
376 -292 0
377 -216 -376 0
-377 216 0
-377 376 0
-378 36 377 108 0
378 -36 0
378 -377 0
378 -108 0
379 -38 -378 0
-379 38 0
-379 378 0
-380 40 10 107 379 0
380 -40 0
380 -10 0
380 -107 0
380 -379 0
381 -42 -380 0
-381 42 0
-381 380 0
-382 58 381 47 55 0
382 -58 0
382 -381 0
382 -47 0
382 -55 0
383 -60 -382 0
-383 60 0
-383 382 0
-384 62 8 383 0
384 -62 0
384 -8 0
384 -383 0
385 -93 -384 0
-385 93 0
-385 384 0
-386 25 385 0
386 -25 0
386 -385 0
387 -119 -386 0
-387 119 0
-387 386 0
-388 121 360 362 373 104 387 0
388 -121 0
388 -360 0
388 -362 0
388 -373 0
388 -104 0
388 -387 0
389 -123 -388 0
-389 123 0
-389 388 0
390 -127 -347 0
-390 127 0
-390 347 0
-391 129 390 0
391 -129 0
391 -390 0
392 -131 -391 0
-392 131 0
-392 391 0
-393 133 322 334 348 65 358 389 124 392 0
393 -133 0
393 -322 0
393 -334 0
393 -348 0
393 -65 0
393 -358 0
393 -389 0
393 -124 0
393 -392 0
394 -395 -393 0
-394 395 0
-394 393 0
396 -397 -28 0
-396 397 0
-396 28 0
398 -119 -25 0
-398 119 0
-398 25 0
-399 121 83 104 398 0
399 -121 0
399 -83 0
399 -104 0
399 -398 0
400 -123 -399 0
-400 123 0
-400 399 0
-401 133 65 81 400 124 0
401 -133 0
401 -65 0
401 -81 0
401 -400 0
401 -124 0
402 -135 -401 0
-402 135 0
-402 401 0
-403 147 402 136 140 142 144 0
403 -147 0
403 -402 0
403 -136 0
403 -140 0
403 -142 0
403 -144 0
404 -149 -403 0
-404 149 0
-404 403 0
-405 180 404 150 253 169 255 0
405 -180 0
405 -404 0
405 -150 0
405 -253 0
405 -169 0
405 -255 0
406 -182 -405 0
-406 182 0
-406 405 0
-407 204 6 406 183 237 0
407 -204 0
407 -6 0
407 -406 0
407 -183 0
407 -237 0
408 -216 -407 0
-408 216 0
-408 407 0
-409 36 408 33 0
409 -36 0
409 -408 0
409 -33 0
410 -38 -409 0
-410 38 0
-410 409 0
-411 40 10 31 410 0
411 -40 0
411 -10 0
411 -31 0
411 -410 0
412 -42 -411 0
-412 42 0
-412 411 0
-413 58 412 47 55 0
413 -58 0
413 -412 0
413 -47 0
413 -55 0
414 -60 -413 0
-414 60 0
-414 413 0
-415 62 8 414 0
415 -62 0
415 -8 0
415 -414 0
416 -127 -415 0
-416 127 0
-416 415 0
-417 129 416 0
417 -129 0
417 -416 0
418 -419 -417 0
-418 419 0
-418 417 0
-420 421 205 315 394 396 418 0
420 -421 0
420 -205 0
420 -315 0
420 -394 0
420 -396 0
420 -418 0
422 -423 -420 0
-422 423 0
-422 420 0
424 -131 -129 0
-424 131 0
-424 129 0
-425 133 65 81 400 124 424 0
425 -133 0
425 -65 0
425 -81 0
425 -400 0
425 -124 0
425 -424 0
426 -135 -425 0
-426 135 0
-426 425 0
-427 147 426 136 140 142 144 0
427 -147 0
427 -426 0
427 -136 0
427 -140 0
427 -142 0
427 -144 0
428 -149 -427 0
-428 149 0
-428 427 0
-429 180 428 150 169 0
429 -180 0
429 -428 0
429 -150 0
429 -169 0
430 -182 -429 0
-430 182 0
-430 429 0
-431 204 6 430 183 0
431 -204 0
431 -6 0
431 -430 0
431 -183 0
432 -206 -431 0
-432 206 0
-432 431 0
433 -211 -431 0
-433 211 0
-433 431 0
-434 180 150 169 0
434 -180 0
434 -150 0
434 -169 0
435 -182 -434 0
-435 182 0
-435 434 0
-436 204 6 435 183 0
436 -204 0
436 -6 0
436 -435 0
436 -183 0
437 -213 -436 0
-437 213 0
-437 436 0
438 -252 -434 0
-438 252 0
-438 434 0
439 -269 -436 0
-439 269 0
-439 436 0
-440 76 439 69 71 73 0
440 -76 0
440 -439 0
440 -69 0
440 -71 0
440 -73 0
441 -78 -440 0
-441 78 0
-441 440 0
-442 80 67 441 0
442 -80 0
442 -67 0
442 -441 0
443 -82 -442 0
-443 82 0
-443 442 0
444 -84 -442 0
-444 84 0
-444 442 0
-445 121 444 104 398 0
445 -121 0
445 -444 0
445 -104 0
445 -398 0
446 -123 -445 0
-446 123 0
-446 445 0
-447 133 437 438 65 443 446 124 424 0
447 -133 0
447 -437 0
447 -438 0
447 -65 0
447 -443 0
447 -446 0
447 -124 0
447 -424 0
448 -135 -447 0
-448 135 0
-448 447 0
449 -143 -442 0
-449 143 0
-449 442 0
-450 147 433 448 136 140 449 144 0
450 -147 0
450 -433 0
450 -448 0
450 -136 0
450 -140 0
450 -449 0
450 -144 0
451 -316 -450 0
-451 316 0
-451 450 0
-452 180 336 150 169 0
452 -180 0
452 -336 0
452 -150 0
452 -169 0
453 -182 -452 0
-453 182 0
-453 452 0
-454 204 6 453 183 0
454 -204 0
454 -6 0
454 -453 0
454 -183 0
455 -213 -454 0
-455 213 0
-455 454 0
456 -211 -214 0
-456 211 0
-456 214 0
457 -269 -214 0
-457 269 0
-457 214 0
-458 76 457 69 71 73 0
458 -76 0
458 -457 0
458 -69 0
458 -71 0
458 -73 0
459 -78 -458 0
-459 78 0
-459 458 0
-460 80 67 459 0
460 -80 0
460 -67 0
460 -459 0
461 -143 -460 0
-461 143 0
-461 460 0
-462 147 456 136 140 461 144 0
462 -147 0
462 -456 0
462 -136 0
462 -140 0
462 -461 0
462 -144 0
463 -149 -462 0
-463 149 0
-463 462 0
-464 180 463 150 169 0
464 -180 0
464 -463 0
464 -150 0
464 -169 0
465 -252 -464 0
-465 252 0
-465 464 0
-466 147 136 140 144 0
466 -147 0
466 -136 0
466 -140 0
466 -144 0
467 -149 -466 0
-467 149 0
-467 466 0
-468 180 467 150 169 0
468 -180 0
468 -467 0
468 -150 0
468 -169 0
469 -182 -468 0
-469 182 0
-469 468 0
-470 204 6 469 183 0
470 -204 0
470 -6 0
470 -469 0
470 -183 0
471 -269 -470 0
-471 269 0
-471 470 0
-472 76 471 69 71 73 0
472 -76 0
472 -471 0
472 -69 0
472 -71 0
472 -73 0
473 -78 -472 0
-473 78 0
-473 472 0
-474 80 67 473 0
474 -80 0
474 -67 0
474 -473 0
475 -82 -474 0
-475 82 0
-475 474 0
476 -211 -436 0
-476 211 0
-476 436 0
-477 147 476 136 140 449 144 0
477 -147 0
477 -476 0
477 -136 0
477 -140 0
477 -449 0
477 -144 0
478 -361 -477 0
-478 361 0
-478 477 0
479 -84 -474 0
-479 84 0
-479 474 0
-480 121 478 479 104 398 0
480 -121 0
480 -478 0
480 -479 0
480 -104 0
480 -398 0
481 -123 -480 0
-481 123 0
-481 480 0
-482 133 455 465 65 475 481 124 424 0
482 -133 0
482 -455 0
482 -465 0
482 -65 0
482 -475 0
482 -481 0
482 -124 0
482 -424 0
483 -395 -482 0
-483 395 0
-483 482 0
484 -419 -129 0
-484 419 0
-484 129 0
-485 421 432 451 483 396 484 0
485 -421 0
485 -432 0
485 -451 0
485 -483 0
485 -396 0
485 -484 0
486 -487 -485 0
-486 487 0
-486 485 0
-488 22 486 0
488 -22 0
488 -486 0
489 -21 -488 0
-489 21 0
-489 488 0
-490 30 12 18 489 23 26 0
490 -30 0
490 -12 0
490 -18 0
490 -489 0
490 -23 0
490 -26 0
491 -32 -490 0
-491 32 0
-491 490 0
492 -316 -427 0
-492 316 0
-492 427 0
493 -361 -335 0
-493 361 0
-493 335 0
-494 121 493 83 104 398 0
494 -121 0
494 -493 0
494 -83 0
494 -104 0
494 -398 0
495 -123 -494 0
-495 123 0
-495 494 0
-496 133 65 81 495 124 424 0
496 -133 0
496 -65 0
496 -81 0
496 -495 0
496 -124 0
496 -424 0
497 -395 -496 0
-497 395 0
-497 496 0
-498 421 492 497 396 484 0
498 -421 0
498 -492 0
498 -497 0
498 -396 0
498 -484 0
499 -487 -498 0
-499 487 0
-499 498 0
-500 22 499 0
500 -22 0
500 -499 0
501 -21 -500 0
-501 21 0
-501 500 0
-502 30 12 18 501 23 26 0
502 -30 0
502 -12 0
502 -18 0
502 -501 0
502 -23 0
502 -26 0
503 -168 -502 0
-503 168 0
-503 502 0
-504 180 428 150 503 169 0
504 -180 0
504 -428 0
504 -150 0
504 -503 0
504 -169 0
505 -182 -504 0
-505 182 0
-505 504 0
-506 133 438 65 81 400 124 424 0
506 -133 0
506 -438 0
506 -65 0
506 -81 0
506 -400 0
506 -124 0
506 -424 0
507 -135 -506 0
-507 135 0
-507 506 0
-508 147 507 136 140 142 144 0
508 -147 0
508 -507 0
508 -136 0
508 -140 0
508 -142 0
508 -144 0
509 -316 -508 0
-509 316 0
-509 508 0
510 -252 -452 0
-510 252 0
-510 452 0
-511 133 510 65 81 495 124 424 0
511 -133 0
511 -510 0
511 -65 0
511 -81 0
511 -495 0
511 -124 0
511 -424 0
512 -395 -511 0
-512 395 0
-512 511 0
-513 421 509 512 396 484 0
513 -421 0
513 -509 0
513 -512 0
513 -396 0
513 -484 0
514 -487 -513 0
-514 487 0
-514 513 0
-515 22 514 0
515 -22 0
515 -514 0
516 -21 -515 0
-516 21 0
-516 515 0
-517 30 12 18 516 23 26 0
517 -30 0
517 -12 0
517 -18 0
517 -516 0
517 -23 0
517 -26 0
518 -186 -517 0
-518 186 0
-518 517 0
-519 204 6 505 183 518 0
519 -204 0
519 -6 0
519 -505 0
519 -183 0
519 -518 0
520 -216 -519 0
-520 216 0
-520 519 0
-521 147 476 448 136 140 449 144 0
521 -147 0
521 -476 0
521 -448 0
521 -136 0
521 -140 0
521 -449 0
521 -144 0
522 -316 -521 0
-522 316 0
-522 521 0
-523 421 432 522 483 396 484 0
523 -421 0
523 -432 0
523 -522 0
523 -483 0
523 -396 0
523 -484 0
524 -487 -523 0
-524 487 0
-524 523 0
-525 22 524 0
525 -22 0
525 -524 0
526 -21 -525 0
-526 21 0
-526 525 0
-527 30 12 18 526 23 26 0
527 -30 0
527 -12 0
527 -18 0
527 -526 0
527 -23 0
527 -26 0
528 -34 -527 0
-528 34 0
-528 527 0
-529 36 520 528 0
529 -36 0
529 -520 0
529 -528 0
530 -38 -529 0
-530 38 0
-530 529 0
-531 40 10 491 530 0
531 -40 0
531 -10 0
531 -491 0
531 -530 0
532 -42 -531 0
-532 42 0
-532 531 0
-533 58 532 47 55 0
533 -58 0
533 -532 0
533 -47 0
533 -55 0
534 -60 -533 0
-534 60 0
-534 533 0
-535 62 8 534 0
535 -62 0
535 -8 0
535 -534 0
536 -174 -535 0
-536 174 0
-536 535 0
-537 176 171 536 0
537 -176 0
537 -171 0
537 -536 0
538 -539 -537 0
-538 539 0
-538 537 0
-540 541 422 538 0
540 -541 0
540 -422 0
540 -538 0
542 -540 -543 0
-542 540 0
-542 543 0
542 0
