c BC-S1.2
p cnf 1624 5958
1 -2 -3 0
-1 2 0
-1 3 0
4 -5 -6 0
-4 5 0
-4 6 0
7 -8 -9 0
-7 8 0
-7 9 0
10 -11 -12 0
-10 11 0
-10 12 0
13 -14 -15 0
-13 14 0
-13 15 0
-16 17 13 0
16 -17 0
16 -13 0
18 -19 -16 0
-18 19 0
-18 16 0
-20 21 18 0
20 -21 0
20 -18 0
22 -23 -20 0
-22 23 0
-22 20 0
-24 25 22 0
24 -25 0
24 -22 0
26 -27 -24 0
-26 27 0
-26 24 0
-28 29 26 0
28 -29 0
28 -26 0
30 -31 -28 0
-30 31 0
-30 28 0
32 -33 -6 0
-32 33 0
-32 6 0
-34 35 7 10 30 32 0
34 -35 0
34 -7 0
34 -10 0
34 -30 0
34 -32 0
36 -37 -34 0
-36 37 0
-36 34 0
-38 39 4 36 0
38 -39 0
38 -4 0
38 -36 0
40 -41 -38 0
-40 41 0
-40 38 0
-42 39 4 0
42 -39 0
42 -4 0
43 -44 -42 0
-43 44 0
-43 42 0
-45 35 43 7 10 30 32 0
45 -35 0
45 -43 0
45 -7 0
45 -10 0
45 -30 0
45 -32 0
46 -47 -45 0
-46 47 0
-46 45 0
-48 49 46 0
48 -49 0
48 -46 0
50 -51 -48 0
-50 51 0
-50 48 0
-52 35 43 10 30 32 0
52 -35 0
52 -43 0
52 -10 0
52 -30 0
52 -32 0
53 -54 -52 0
-53 54 0
-53 52 0
-55 9 53 0
55 -9 0
55 -53 0
56 -57 -55 0
-56 57 0
-56 55 0
58 -59 -60 0
-58 59 0
-58 60 0
61 -62 -12 0
-61 62 0
-61 12 0
63 -64 -15 0
-63 64 0
-63 15 0
65 -66 -45 0
-65 66 0
-65 45 0
-67 68 40 50 56 58 61 63 65 0
67 -68 0
67 -40 0
67 -50 0
67 -56 0
67 -58 0
67 -61 0
67 -63 0
67 -65 0
69 -70 -67 0
-69 70 0
-69 67 0
-71 72 69 0
71 -72 0
71 -69 0
73 -74 -71 0
-73 74 0
-73 71 0
75 -76 -77 0
-75 76 0
-75 77 0
-78 68 40 50 56 61 63 65 0
78 -68 0
78 -40 0
78 -50 0
78 -56 0
78 -61 0
78 -63 0
78 -65 0
79 -80 -78 0
-79 80 0
-79 78 0
-81 60 79 0
81 -60 0
81 -79 0
82 -83 -81 0
-82 83 0
-82 81 0
-84 39 36 0
84 -39 0
84 -36 0
85 -41 -84 0
-85 41 0
-85 84 0
86 -44 -39 0
-86 44 0
-86 39 0
-87 35 86 7 10 30 32 0
87 -35 0
87 -86 0
87 -7 0
87 -10 0
87 -30 0
87 -32 0
88 -47 -87 0
-88 47 0
-88 87 0
-89 49 88 0
89 -49 0
89 -88 0
90 -51 -89 0
-90 51 0
-90 89 0
-91 35 86 10 30 32 0
91 -35 0
91 -86 0
91 -10 0
91 -30 0
91 -32 0
92 -54 -91 0
-92 54 0
-92 91 0
-93 9 92 0
93 -9 0
93 -92 0
94 -57 -93 0
-94 57 0
-94 93 0
95 -66 -87 0
-95 66 0
-95 87 0
-96 68 85 90 94 58 61 63 95 0
96 -68 0
96 -85 0
96 -90 0
96 -94 0
96 -58 0
96 -61 0
96 -63 0
96 -95 0
97 -98 -96 0
-97 98 0
-97 96 0
-99 6 97 0
99 -6 0
99 -97 0
100 -101 -99 0
-100 101 0
-100 99 0
-102 103 1 73 75 82 100 0
102 -103 0
102 -1 0
102 -73 0
102 -75 0
102 -82 0
102 -100 0
104 -105 -102 0
-104 105 0
-104 102 0
-106 103 73 75 82 100 0
106 -103 0
106 -73 0
106 -75 0
106 -82 0
106 -100 0
107 -108 -106 0
-107 108 0
-107 106 0
-109 3 107 0
109 -3 0
109 -107 0
110 -111 -109 0
-110 111 0
-110 109 0
112 -113 -114 0
-112 113 0
-112 114 0
-115 103 1 75 82 100 0
115 -103 0
115 -1 0
115 -75 0
115 -82 0
115 -100 0
116 -117 -115 0
-116 117 0
-116 115 0
-118 72 116 69 0
118 -72 0
118 -116 0
118 -69 0
119 -120 -118 0
-119 120 0
-119 118 0
-121 122 104 110 112 119 0
121 -122 0
121 -104 0
121 -110 0
121 -112 0
121 -119 0
123 -124 -121 0
-123 124 0
-123 121 0
125 -126 -127 0
-125 126 0
-125 127 0
-128 129 125 0
128 -129 0
128 -125 0
130 -131 -128 0
-130 131 0
-130 128 0
132 -133 -127 0
-132 133 0
-132 127 0
-134 135 130 132 0
134 -135 0
134 -130 0
134 -132 0
136 -137 -134 0
-136 137 0
-136 134 0
138 -139 -128 0
-138 139 0
-138 128 0
-140 141 138 0
140 -141 0
140 -138 0
142 -143 -140 0
-142 143 0
-142 140 0
-144 145 136 142 0
144 -145 0
144 -136 0
144 -142 0
146 -147 -144 0
-146 147 0
-146 144 0
148 -149 -128 0
-148 149 0
-148 128 0
-150 145 142 0
150 -145 0
150 -142 0
151 -152 -150 0
-151 152 0
-151 150 0
-153 135 151 130 132 0
153 -135 0
153 -151 0
153 -130 0
153 -132 0
154 -155 -153 0
-154 155 0
-154 153 0
-156 122 112 0
156 -122 0
156 -112 0
157 -158 -156 0
-157 158 0
-157 156 0
-159 72 157 69 0
159 -72 0
159 -157 0
159 -69 0
160 -74 -159 0
-160 74 0
-160 159 0
-161 103 160 75 82 100 0
161 -103 0
161 -160 0
161 -75 0
161 -82 0
161 -100 0
162 -108 -161 0
-162 108 0
-162 161 0
-163 3 162 0
163 -3 0
163 -162 0
164 -165 -163 0
-164 165 0
-164 163 0
-166 122 104 110 119 0
166 -122 0
166 -104 0
166 -110 0
166 -119 0
167 -168 -166 0
-167 168 0
-167 166 0
-169 114 167 0
169 -114 0
169 -167 0
170 -171 -169 0
-170 171 0
-170 169 0
172 -105 -115 0
-172 105 0
-172 115 0
-173 103 75 82 100 0
173 -103 0
173 -75 0
173 -82 0
173 -100 0
174 -108 -173 0
-174 108 0
-174 173 0
-175 3 174 0
175 -3 0
175 -174 0
176 -111 -175 0
-176 111 0
-176 175 0
-177 122 172 176 112 0
177 -122 0
177 -172 0
177 -176 0
177 -112 0
178 -158 -177 0
-178 158 0
-178 177 0
-179 72 116 178 69 0
179 -72 0
179 -116 0
179 -178 0
179 -69 0
180 -181 -179 0
-180 181 0
-180 179 0
182 -111 -3 0
-182 111 0
-182 3 0
-183 122 182 112 0
183 -122 0
183 -182 0
183 -112 0
184 -158 -183 0
-184 158 0
-184 183 0
-185 72 184 69 0
185 -72 0
185 -184 0
185 -69 0
186 -74 -185 0
-186 74 0
-186 185 0
-187 103 1 186 75 82 100 0
187 -103 0
187 -1 0
187 -186 0
187 -75 0
187 -82 0
187 -100 0
188 -189 -187 0
-188 189 0
-188 187 0
-190 191 188 0
190 -191 0
190 -188 0
192 -193 -190 0
-192 193 0
-192 190 0
194 -195 -21 0
-194 195 0
-194 21 0
196 -23 -21 0
-196 23 0
-196 21 0
-197 25 196 0
197 -25 0
197 -196 0
198 -199 -197 0
-198 199 0
-198 197 0
200 -51 -49 0
-200 51 0
-200 49 0
201 -57 -9 0
-201 57 0
-201 9 0
-202 68 200 201 58 61 63 0
202 -68 0
202 -200 0
202 -201 0
202 -58 0
202 -61 0
202 -63 0
203 -98 -202 0
-203 98 0
-203 202 0
-204 6 203 0
204 -6 0
204 -203 0
205 -5 -204 0
-205 5 0
-205 204 0
206 -207 -202 0
-206 207 0
-206 202 0
-208 39 205 206 0
208 -39 0
208 -205 0
208 -206 0
209 -44 -208 0
-209 44 0
-209 208 0
210 -27 -197 0
-210 27 0
-210 197 0
211 -41 -42 0
-211 41 0
-211 42 0
-212 68 211 200 201 58 61 63 0
212 -68 0
212 -211 0
212 -200 0
212 -201 0
212 -58 0
212 -61 0
212 -63 0
213 -214 -212 0
-213 214 0
-213 212 0
-215 29 210 213 0
215 -29 0
215 -210 0
215 -213 0
216 -31 -215 0
-216 31 0
-216 215 0
217 -41 -39 0
-217 41 0
-217 39 0
-218 68 217 200 201 58 61 63 0
218 -68 0
218 -217 0
218 -200 0
218 -201 0
218 -58 0
218 -61 0
218 -63 0
219 -98 -218 0
-219 98 0
-219 218 0
-220 6 219 0
220 -6 0
220 -219 0
221 -33 -220 0
-221 33 0
-221 220 0
-222 35 209 7 10 216 221 0
222 -35 0
222 -209 0
222 -7 0
222 -10 0
222 -216 0
222 -221 0
223 -224 -222 0
-223 224 0
-223 222 0
-225 29 210 0
225 -29 0
225 -210 0
226 -31 -225 0
-226 31 0
-226 225 0
-227 35 7 10 226 32 0
227 -35 0
227 -7 0
227 -10 0
227 -226 0
227 -32 0
228 -37 -227 0
-228 37 0
-228 227 0
-229 39 4 228 0
229 -39 0
229 -4 0
229 -228 0
230 -41 -229 0
-230 41 0
-230 229 0
-231 35 43 7 10 226 32 0
231 -35 0
231 -43 0
231 -7 0
231 -10 0
231 -226 0
231 -32 0
232 -47 -231 0
-232 47 0
-232 231 0
-233 49 232 0
233 -49 0
233 -232 0
234 -51 -233 0
-234 51 0
-234 233 0
-235 35 43 10 216 32 0
235 -35 0
235 -43 0
235 -10 0
235 -216 0
235 -32 0
236 -54 -235 0
-236 54 0
-236 235 0
-237 9 236 0
237 -9 0
237 -236 0
238 -57 -237 0
-238 57 0
-238 237 0
239 -66 -231 0
-239 66 0
-239 231 0
-240 68 230 234 238 58 61 63 239 0
240 -68 0
240 -230 0
240 -234 0
240 -238 0
240 -58 0
240 -61 0
240 -63 0
240 -239 0
241 -242 -240 0
-241 242 0
-241 240 0
-243 17 194 198 13 223 241 0
243 -17 0
243 -194 0
243 -198 0
243 -13 0
243 -223 0
243 -241 0
244 -245 -243 0
-244 245 0
-244 243 0
-246 247 123 146 148 154 164 170 180 192 244 0
246 -247 0
246 -123 0
246 -146 0
246 -148 0
246 -154 0
246 -164 0
246 -170 0
246 -180 0
246 -192 0
246 -244 0
248 -249 -246 0
-248 249 0
-248 246 0
250 -120 -71 0
-250 120 0
-250 71 0
-251 122 182 112 250 0
251 -122 0
251 -182 0
251 -112 0
251 -250 0
252 -124 -251 0
-252 124 0
-252 251 0
253 -165 -3 0
-253 165 0
-253 3 0
-254 122 182 250 0
254 -122 0
254 -182 0
254 -250 0
255 -168 -254 0
-255 168 0
-255 254 0
-256 114 255 0
256 -114 0
256 -255 0
257 -171 -256 0
-257 171 0
-257 256 0
258 -181 -185 0
-258 181 0
-258 185 0
259 -193 -191 0
-259 193 0
-259 191 0
-260 247 252 146 148 154 253 257 258 259 244 0
260 -247 0
260 -252 0
260 -146 0
260 -148 0
260 -154 0
260 -253 0
260 -257 0
260 -258 0
260 -259 0
260 -244 0
261 -262 -260 0
-261 262 0
-261 260 0
263 -124 -183 0
-263 124 0
-263 183 0
-264 122 182 0
264 -122 0
264 -182 0
265 -168 -264 0
-265 168 0
-265 264 0
-266 114 265 0
266 -114 0
266 -265 0
267 -171 -266 0
-267 171 0
-267 266 0
268 -224 -227 0
-268 224 0
-268 227 0
-269 17 194 198 13 268 0
269 -17 0
269 -194 0
269 -198 0
269 -13 0
269 -268 0
270 -245 -269 0
-270 245 0
-270 269 0
-271 247 263 146 148 154 253 267 259 270 0
271 -247 0
271 -263 0
271 -146 0
271 -148 0
271 -154 0
271 -253 0
271 -267 0
271 -259 0
271 -270 0
272 -273 -271 0
-272 273 0
-272 271 0
-274 39 272 4 36 0
274 -39 0
274 -272 0
274 -4 0
274 -36 0
275 -41 -274 0
-275 41 0
-275 274 0
-276 39 272 4 0
276 -39 0
276 -272 0
276 -4 0
277 -44 -276 0
-277 44 0
-277 276 0
-278 35 277 7 10 30 32 0
278 -35 0
278 -277 0
278 -7 0
278 -10 0
278 -30 0
278 -32 0
279 -47 -278 0
-279 47 0
-279 278 0
-280 49 279 0
280 -49 0
280 -279 0
281 -51 -280 0
-281 51 0
-281 280 0
-282 17 194 198 13 0
282 -17 0
282 -194 0
282 -198 0
282 -13 0
283 -245 -282 0
-283 245 0
-283 282 0
-284 247 263 146 148 154 253 267 259 283 0
284 -247 0
284 -263 0
284 -146 0
284 -148 0
284 -154 0
284 -253 0
284 -267 0
284 -259 0
284 -283 0
285 -273 -284 0
-285 273 0
-285 284 0
-286 39 285 4 0
286 -39 0
286 -285 0
286 -4 0
287 -44 -286 0
-287 44 0
-287 286 0
-288 35 287 10 30 32 0
288 -35 0
288 -287 0
288 -10 0
288 -30 0
288 -32 0
289 -54 -288 0
-289 54 0
-289 288 0
-290 9 289 0
290 -9 0
290 -289 0
291 -57 -290 0
-291 57 0
-291 290 0
292 -224 -231 0
-292 224 0
-292 231 0
-293 17 194 198 13 292 0
293 -17 0
293 -194 0
293 -198 0
293 -13 0
293 -292 0
294 -245 -293 0
-294 245 0
-294 293 0
-295 247 263 146 148 154 253 267 259 294 0
295 -247 0
295 -263 0
295 -146 0
295 -148 0
295 -154 0
295 -253 0
295 -267 0
295 -259 0
295 -294 0
296 -297 -295 0
-296 297 0
-296 295 0
-298 60 296 0
298 -60 0
298 -296 0
299 -59 -298 0
-299 59 0
-299 298 0
300 -66 -278 0
-300 66 0
-300 278 0
-301 68 275 281 291 299 61 63 300 0
301 -68 0
301 -275 0
301 -281 0
301 -291 0
301 -299 0
301 -61 0
301 -63 0
301 -300 0
302 -70 -301 0
-302 70 0
-302 301 0
-303 72 184 302 0
303 -72 0
303 -184 0
303 -302 0
304 -74 -303 0
-304 74 0
-304 303 0
305 -306 -260 0
-305 306 0
-305 260 0
-307 77 305 0
307 -77 0
307 -305 0
308 -76 -307 0
-308 76 0
-308 307 0
309 -70 -78 0
-309 70 0
-309 78 0
-310 72 309 0
310 -72 0
310 -309 0
311 -120 -310 0
-311 120 0
-311 310 0
-312 122 182 112 311 0
312 -122 0
312 -182 0
312 -112 0
312 -311 0
313 -124 -312 0
-313 124 0
-313 312 0
-314 122 182 311 0
314 -122 0
314 -182 0
314 -311 0
315 -168 -314 0
-315 168 0
-315 314 0
-316 114 315 0
316 -114 0
316 -315 0
317 -171 -316 0
-317 171 0
-317 316 0
-318 72 184 309 0
318 -72 0
318 -184 0
318 -309 0
319 -181 -318 0
-319 181 0
-319 318 0
-320 68 200 201 61 63 0
320 -68 0
320 -200 0
320 -201 0
320 -61 0
320 -63 0
321 -98 -320 0
-321 98 0
-321 320 0
-322 6 321 0
322 -6 0
322 -321 0
323 -5 -322 0
-323 5 0
-323 322 0
324 -207 -320 0
-324 207 0
-324 320 0
-325 39 323 324 0
325 -39 0
325 -323 0
325 -324 0
326 -44 -325 0
-326 44 0
-326 325 0
-327 68 211 200 201 61 63 0
327 -68 0
327 -211 0
327 -200 0
327 -201 0
327 -61 0
327 -63 0
328 -214 -327 0
-328 214 0
-328 327 0
-329 29 210 328 0
329 -29 0
329 -210 0
329 -328 0
330 -31 -329 0
-330 31 0
-330 329 0
-331 68 217 200 201 61 63 0
331 -68 0
331 -217 0
331 -200 0
331 -201 0
331 -61 0
331 -63 0
332 -98 -331 0
-332 98 0
-332 331 0
-333 6 332 0
333 -6 0
333 -332 0
334 -33 -333 0
-334 33 0
-334 333 0
-335 35 326 7 10 330 334 0
335 -35 0
335 -326 0
335 -7 0
335 -10 0
335 -330 0
335 -334 0
336 -224 -335 0
-336 224 0
-336 335 0
-337 35 43 10 226 32 0
337 -35 0
337 -43 0
337 -10 0
337 -226 0
337 -32 0
338 -54 -337 0
-338 54 0
-338 337 0
-339 9 338 0
339 -9 0
339 -338 0
340 -57 -339 0
-340 57 0
-340 339 0
-341 68 230 234 340 61 63 239 0
341 -68 0
341 -230 0
341 -234 0
341 -340 0
341 -61 0
341 -63 0
341 -239 0
342 -242 -341 0
-342 242 0
-342 341 0
-343 17 194 198 13 336 342 0
343 -17 0
343 -194 0
343 -198 0
343 -13 0
343 -336 0
343 -342 0
344 -245 -343 0
-344 245 0
-344 343 0
-345 247 313 146 148 154 253 317 319 259 344 0
345 -247 0
345 -313 0
345 -146 0
345 -148 0
345 -154 0
345 -253 0
345 -317 0
345 -319 0
345 -259 0
345 -344 0
346 -297 -345 0
-346 297 0
-346 345 0
347 -120 -72 0
-347 120 0
-347 72 0
-348 122 182 112 347 0
348 -122 0
348 -182 0
348 -112 0
348 -347 0
349 -124 -348 0
-349 124 0
-349 348 0
-350 122 182 347 0
350 -122 0
350 -182 0
350 -347 0
351 -168 -350 0
-351 168 0
-351 350 0
-352 114 351 0
352 -114 0
352 -351 0
353 -171 -352 0
-353 171 0
-353 352 0
-354 72 184 0
354 -72 0
354 -184 0
355 -181 -354 0
-355 181 0
-355 354 0
-356 247 349 146 148 154 253 353 355 259 270 0
356 -247 0
356 -349 0
356 -146 0
356 -148 0
356 -154 0
356 -253 0
356 -353 0
356 -355 0
356 -259 0
356 -270 0
357 -273 -356 0
-357 273 0
-357 356 0
-358 39 357 4 36 0
358 -39 0
358 -357 0
358 -4 0
358 -36 0
359 -41 -358 0
-359 41 0
-359 358 0
-360 39 357 4 0
360 -39 0
360 -357 0
360 -4 0
361 -44 -360 0
-361 44 0
-361 360 0
-362 35 361 7 10 30 32 0
362 -35 0
362 -361 0
362 -7 0
362 -10 0
362 -30 0
362 -32 0
363 -47 -362 0
-363 47 0
-363 362 0
-364 49 363 0
364 -49 0
364 -363 0
365 -51 -364 0
-365 51 0
-365 364 0
-366 247 349 146 148 154 253 353 355 259 283 0
366 -247 0
366 -349 0
366 -146 0
366 -148 0
366 -154 0
366 -253 0
366 -353 0
366 -355 0
366 -259 0
366 -283 0
367 -273 -366 0
-367 273 0
-367 366 0
-368 39 367 4 0
368 -39 0
368 -367 0
368 -4 0
369 -44 -368 0
-369 44 0
-369 368 0
-370 35 369 10 30 32 0
370 -35 0
370 -369 0
370 -10 0
370 -30 0
370 -32 0
371 -54 -370 0
-371 54 0
-371 370 0
-372 9 371 0
372 -9 0
372 -371 0
373 -57 -372 0
-373 57 0
-373 372 0
374 -66 -362 0
-374 66 0
-374 362 0
-375 68 359 365 373 61 63 374 0
375 -68 0
375 -359 0
375 -365 0
375 -373 0
375 -61 0
375 -63 0
375 -374 0
376 -80 -375 0
-376 80 0
-376 375 0
-377 60 346 376 0
377 -60 0
377 -346 0
377 -376 0
378 -83 -377 0
-378 83 0
-378 377 0
-379 39 357 36 0
379 -39 0
379 -357 0
379 -36 0
380 -41 -379 0
-380 41 0
-380 379 0
-381 39 357 0
381 -39 0
381 -357 0
382 -44 -381 0
-382 44 0
-382 381 0
-383 35 382 7 10 30 32 0
383 -35 0
383 -382 0
383 -7 0
383 -10 0
383 -30 0
383 -32 0
384 -47 -383 0
-384 47 0
-384 383 0
-385 49 384 0
385 -49 0
385 -384 0
386 -51 -385 0
-386 51 0
-386 385 0
-387 39 367 0
387 -39 0
387 -367 0
388 -44 -387 0
-388 44 0
-388 387 0
-389 35 388 10 30 32 0
389 -35 0
389 -388 0
389 -10 0
389 -30 0
389 -32 0
390 -54 -389 0
-390 54 0
-390 389 0
-391 9 390 0
391 -9 0
391 -390 0
392 -57 -391 0
-392 57 0
-392 391 0
-393 35 86 7 10 226 32 0
393 -35 0
393 -86 0
393 -7 0
393 -10 0
393 -226 0
393 -32 0
394 -224 -393 0
-394 224 0
-394 393 0
-395 17 194 198 13 394 0
395 -17 0
395 -194 0
395 -198 0
395 -13 0
395 -394 0
396 -245 -395 0
-396 245 0
-396 395 0
-397 247 349 146 148 154 253 353 355 259 396 0
397 -247 0
397 -349 0
397 -146 0
397 -148 0
397 -154 0
397 -253 0
397 -353 0
397 -355 0
397 -259 0
397 -396 0
398 -297 -397 0
-398 297 0
-398 397 0
-399 60 398 0
399 -60 0
399 -398 0
400 -59 -399 0
-400 59 0
-400 399 0
401 -66 -383 0
-401 66 0
-401 383 0
-402 68 380 386 392 400 61 63 401 0
402 -68 0
402 -380 0
402 -386 0
402 -392 0
402 -400 0
402 -61 0
402 -63 0
402 -401 0
403 -98 -402 0
-403 98 0
-403 402 0
-404 6 403 0
404 -6 0
404 -403 0
405 -101 -404 0
-405 101 0
-405 404 0
-406 103 261 1 304 308 378 405 0
406 -103 0
406 -261 0
406 -1 0
406 -304 0
406 -308 0
406 -378 0
406 -405 0
407 -408 -406 0
-407 408 0
-407 406 0
409 -74 -72 0
-409 74 0
-409 72 0
410 -83 -60 0
-410 83 0
-410 60 0
411 -101 -6 0
-411 101 0
-411 6 0
-412 103 1 409 75 410 411 0
412 -103 0
412 -1 0
412 -409 0
412 -75 0
412 -410 0
412 -411 0
413 -105 -412 0
-413 105 0
-413 412 0
-414 103 409 75 410 411 0
414 -103 0
414 -409 0
414 -75 0
414 -410 0
414 -411 0
415 -108 -414 0
-415 108 0
-415 414 0
-416 3 415 0
416 -3 0
416 -415 0
417 -111 -416 0
-417 111 0
-417 416 0
418 -117 -412 0
-418 117 0
-418 412 0
-419 72 418 0
419 -72 0
419 -418 0
420 -120 -419 0
-420 120 0
-420 419 0
-421 122 413 417 112 420 0
421 -122 0
421 -413 0
421 -417 0
421 -112 0
421 -420 0
422 -124 -421 0
-422 124 0
-422 421 0
-423 72 157 0
423 -72 0
423 -157 0
424 -74 -423 0
-424 74 0
-424 423 0
-425 103 424 75 410 411 0
425 -103 0
425 -424 0
425 -75 0
425 -410 0
425 -411 0
426 -108 -425 0
-426 108 0
-426 425 0
-427 3 426 0
427 -3 0
427 -426 0
428 -165 -427 0
-428 165 0
-428 427 0
-429 122 413 417 420 0
429 -122 0
429 -413 0
429 -417 0
429 -420 0
430 -168 -429 0
-430 168 0
-430 429 0
-431 114 430 0
431 -114 0
431 -430 0
432 -171 -431 0
-432 171 0
-432 431 0
-433 103 1 75 410 411 0
433 -103 0
433 -1 0
433 -75 0
433 -410 0
433 -411 0
434 -117 -433 0
-434 117 0
-434 433 0
-435 122 413 417 112 0
435 -122 0
435 -413 0
435 -417 0
435 -112 0
436 -158 -435 0
-436 158 0
-436 435 0
-437 72 434 436 0
437 -72 0
437 -434 0
437 -436 0
438 -181 -437 0
-438 181 0
-438 437 0
439 -74 -354 0
-439 74 0
-439 354 0
-440 103 1 439 75 410 411 0
440 -103 0
440 -1 0
440 -439 0
440 -75 0
440 -410 0
440 -411 0
441 -189 -440 0
-441 189 0
-441 440 0
-442 191 441 0
442 -191 0
442 -441 0
443 -193 -442 0
-443 193 0
-443 442 0
-444 247 422 146 148 154 428 432 438 443 270 0
444 -247 0
444 -422 0
444 -146 0
444 -148 0
444 -154 0
444 -428 0
444 -432 0
444 -438 0
444 -443 0
444 -270 0
445 -273 -444 0
-445 273 0
-445 444 0
-446 39 445 4 36 0
446 -39 0
446 -445 0
446 -4 0
446 -36 0
447 -41 -446 0
-447 41 0
-447 446 0
-448 39 445 4 0
448 -39 0
448 -445 0
448 -4 0
449 -44 -448 0
-449 44 0
-449 448 0
-450 35 449 7 10 30 32 0
450 -35 0
450 -449 0
450 -7 0
450 -10 0
450 -30 0
450 -32 0
451 -47 -450 0
-451 47 0
-451 450 0
-452 49 451 0
452 -49 0
452 -451 0
453 -51 -452 0
-453 51 0
-453 452 0
-454 247 422 146 148 154 428 432 438 443 283 0
454 -247 0
454 -422 0
454 -146 0
454 -148 0
454 -154 0
454 -428 0
454 -432 0
454 -438 0
454 -443 0
454 -283 0
455 -273 -454 0
-455 273 0
-455 454 0
-456 39 455 4 0
456 -39 0
456 -455 0
456 -4 0
457 -44 -456 0
-457 44 0
-457 456 0
-458 35 457 10 30 32 0
458 -35 0
458 -457 0
458 -10 0
458 -30 0
458 -32 0
459 -54 -458 0
-459 54 0
-459 458 0
-460 9 459 0
460 -9 0
460 -459 0
461 -57 -460 0
-461 57 0
-461 460 0
-462 247 422 146 148 154 428 432 438 443 294 0
462 -247 0
462 -422 0
462 -146 0
462 -148 0
462 -154 0
462 -428 0
462 -432 0
462 -438 0
462 -443 0
462 -294 0
463 -297 -462 0
-463 297 0
-463 462 0
-464 60 463 0
464 -60 0
464 -463 0
465 -59 -464 0
-465 59 0
-465 464 0
466 -66 -450 0
-466 66 0
-466 450 0
-467 68 447 453 461 465 61 63 466 0
467 -68 0
467 -447 0
467 -453 0
467 -461 0
467 -465 0
467 -61 0
467 -63 0
467 -466 0
468 -469 -467 0
-468 469 0
-468 467 0
-470 471 468 0
470 -471 0
470 -468 0
472 -473 -470 0
-472 473 0
-472 470 0
-474 247 263 146 148 154 253 267 259 244 0
474 -247 0
474 -263 0
474 -146 0
474 -148 0
474 -154 0
474 -253 0
474 -267 0
474 -259 0
474 -244 0
475 -262 -474 0
-475 262 0
-475 474 0
476 -306 -474 0
-476 306 0
-476 474 0
-477 77 476 0
477 -77 0
477 -476 0
478 -76 -477 0
-478 76 0
-478 477 0
-479 247 263 146 148 154 253 267 259 344 0
479 -247 0
479 -263 0
479 -146 0
479 -148 0
479 -154 0
479 -253 0
479 -267 0
479 -259 0
479 -344 0
480 -297 -479 0
-480 297 0
-480 479 0
-481 68 275 281 291 61 63 300 0
481 -68 0
481 -275 0
481 -281 0
481 -291 0
481 -61 0
481 -63 0
481 -300 0
482 -80 -481 0
-482 80 0
-482 481 0
-483 60 480 482 0
483 -60 0
483 -480 0
483 -482 0
484 -83 -483 0
-484 83 0
-484 483 0
-485 39 272 36 0
485 -39 0
485 -272 0
485 -36 0
486 -41 -485 0
-486 41 0
-486 485 0
-487 39 272 0
487 -39 0
487 -272 0
488 -44 -487 0
-488 44 0
-488 487 0
-489 35 488 7 10 30 32 0
489 -35 0
489 -488 0
489 -7 0
489 -10 0
489 -30 0
489 -32 0
490 -47 -489 0
-490 47 0
-490 489 0
-491 49 490 0
491 -49 0
491 -490 0
492 -51 -491 0
-492 51 0
-492 491 0
-493 39 285 0
493 -39 0
493 -285 0
494 -44 -493 0
-494 44 0
-494 493 0
-495 35 494 10 30 32 0
495 -35 0
495 -494 0
495 -10 0
495 -30 0
495 -32 0
496 -54 -495 0
-496 54 0
-496 495 0
-497 9 496 0
497 -9 0
497 -496 0
498 -57 -497 0
-498 57 0
-498 497 0
-499 247 263 146 148 154 253 267 259 396 0
499 -247 0
499 -263 0
499 -146 0
499 -148 0
499 -154 0
499 -253 0
499 -267 0
499 -259 0
499 -396 0
500 -297 -499 0
-500 297 0
-500 499 0
-501 60 500 0
501 -60 0
501 -500 0
502 -59 -501 0
-502 59 0
-502 501 0
503 -66 -489 0
-503 66 0
-503 489 0
-504 68 486 492 498 502 61 63 503 0
504 -68 0
504 -486 0
504 -492 0
504 -498 0
504 -502 0
504 -61 0
504 -63 0
504 -503 0
505 -98 -504 0
-505 98 0
-505 504 0
-506 6 505 0
506 -6 0
506 -505 0
507 -101 -506 0
-507 101 0
-507 506 0
-508 103 475 1 478 484 507 0
508 -103 0
508 -475 0
508 -1 0
508 -478 0
508 -484 0
508 -507 0
509 -117 -508 0
-509 117 0
-509 508 0
510 -171 -114 0
-510 171 0
-510 114 0
-511 247 263 146 148 154 253 510 259 244 0
511 -247 0
511 -263 0
511 -146 0
511 -148 0
511 -154 0
511 -253 0
511 -510 0
511 -259 0
511 -244 0
512 -262 -511 0
-512 262 0
-512 511 0
513 -306 -511 0
-513 306 0
-513 511 0
-514 77 513 0
514 -77 0
514 -513 0
515 -76 -514 0
-515 76 0
-515 514 0
-516 247 263 146 148 154 253 510 259 344 0
516 -247 0
516 -263 0
516 -146 0
516 -148 0
516 -154 0
516 -253 0
516 -510 0
516 -259 0
516 -344 0
517 -297 -516 0
-517 297 0
-517 516 0
-518 247 263 146 148 154 253 510 259 270 0
518 -247 0
518 -263 0
518 -146 0
518 -148 0
518 -154 0
518 -253 0
518 -510 0
518 -259 0
518 -270 0
519 -273 -518 0
-519 273 0
-519 518 0
-520 39 519 4 36 0
520 -39 0
520 -519 0
520 -4 0
520 -36 0
521 -41 -520 0
-521 41 0
-521 520 0
-522 39 519 4 0
522 -39 0
522 -519 0
522 -4 0
523 -44 -522 0
-523 44 0
-523 522 0
-524 35 523 7 10 30 32 0
524 -35 0
524 -523 0
524 -7 0
524 -10 0
524 -30 0
524 -32 0
525 -47 -524 0
-525 47 0
-525 524 0
-526 49 525 0
526 -49 0
526 -525 0
527 -51 -526 0
-527 51 0
-527 526 0
-528 247 263 146 148 154 253 510 259 283 0
528 -247 0
528 -263 0
528 -146 0
528 -148 0
528 -154 0
528 -253 0
528 -510 0
528 -259 0
528 -283 0
529 -273 -528 0
-529 273 0
-529 528 0
-530 39 529 4 0
530 -39 0
530 -529 0
530 -4 0
531 -44 -530 0
-531 44 0
-531 530 0
-532 35 531 10 30 32 0
532 -35 0
532 -531 0
532 -10 0
532 -30 0
532 -32 0
533 -54 -532 0
-533 54 0
-533 532 0
-534 9 533 0
534 -9 0
534 -533 0
535 -57 -534 0
-535 57 0
-535 534 0
536 -66 -524 0
-536 66 0
-536 524 0
-537 68 521 527 535 61 63 536 0
537 -68 0
537 -521 0
537 -527 0
537 -535 0
537 -61 0
537 -63 0
537 -536 0
538 -80 -537 0
-538 80 0
-538 537 0
-539 60 517 538 0
539 -60 0
539 -517 0
539 -538 0
540 -83 -539 0
-540 83 0
-540 539 0
-541 39 519 36 0
541 -39 0
541 -519 0
541 -36 0
542 -41 -541 0
-542 41 0
-542 541 0
-543 39 519 0
543 -39 0
543 -519 0
544 -44 -543 0
-544 44 0
-544 543 0
-545 35 544 7 10 30 32 0
545 -35 0
545 -544 0
545 -7 0
545 -10 0
545 -30 0
545 -32 0
546 -47 -545 0
-546 47 0
-546 545 0
-547 49 546 0
547 -49 0
547 -546 0
548 -51 -547 0
-548 51 0
-548 547 0
-549 39 529 0
549 -39 0
549 -529 0
550 -44 -549 0
-550 44 0
-550 549 0
-551 35 550 10 30 32 0
551 -35 0
551 -550 0
551 -10 0
551 -30 0
551 -32 0
552 -54 -551 0
-552 54 0
-552 551 0
-553 9 552 0
553 -9 0
553 -552 0
554 -57 -553 0
-554 57 0
-554 553 0
-555 247 263 146 148 154 253 510 259 396 0
555 -247 0
555 -263 0
555 -146 0
555 -148 0
555 -154 0
555 -253 0
555 -510 0
555 -259 0
555 -396 0
556 -297 -555 0
-556 297 0
-556 555 0
-557 60 556 0
557 -60 0
557 -556 0
558 -59 -557 0
-558 59 0
-558 557 0
559 -66 -545 0
-559 66 0
-559 545 0
-560 68 542 548 554 558 61 63 559 0
560 -68 0
560 -542 0
560 -548 0
560 -554 0
560 -558 0
560 -61 0
560 -63 0
560 -559 0
561 -98 -560 0
-561 98 0
-561 560 0
-562 6 561 0
562 -6 0
562 -561 0
563 -101 -562 0
-563 101 0
-563 562 0
-564 103 512 1 515 540 563 0
564 -103 0
564 -512 0
564 -1 0
564 -515 0
564 -540 0
564 -563 0
565 -105 -564 0
-565 105 0
-565 564 0
-566 247 146 148 154 253 510 259 244 0
566 -247 0
566 -146 0
566 -148 0
566 -154 0
566 -253 0
566 -510 0
566 -259 0
566 -244 0
567 -262 -566 0
-567 262 0
-567 566 0
568 -306 -566 0
-568 306 0
-568 566 0
-569 77 568 0
569 -77 0
569 -568 0
570 -76 -569 0
-570 76 0
-570 569 0
-571 247 146 148 154 253 510 259 344 0
571 -247 0
571 -146 0
571 -148 0
571 -154 0
571 -253 0
571 -510 0
571 -259 0
571 -344 0
572 -297 -571 0
-572 297 0
-572 571 0
-573 247 146 148 154 253 510 259 270 0
573 -247 0
573 -146 0
573 -148 0
573 -154 0
573 -253 0
573 -510 0
573 -259 0
573 -270 0
574 -273 -573 0
-574 273 0
-574 573 0
-575 39 574 4 36 0
575 -39 0
575 -574 0
575 -4 0
575 -36 0
576 -41 -575 0
-576 41 0
-576 575 0
-577 39 574 4 0
577 -39 0
577 -574 0
577 -4 0
578 -44 -577 0
-578 44 0
-578 577 0
-579 35 578 7 10 30 32 0
579 -35 0
579 -578 0
579 -7 0
579 -10 0
579 -30 0
579 -32 0
580 -47 -579 0
-580 47 0
-580 579 0
-581 49 580 0
581 -49 0
581 -580 0
582 -51 -581 0
-582 51 0
-582 581 0
-583 247 146 148 154 253 510 259 283 0
583 -247 0
583 -146 0
583 -148 0
583 -154 0
583 -253 0
583 -510 0
583 -259 0
583 -283 0
584 -273 -583 0
-584 273 0
-584 583 0
-585 39 584 4 0
585 -39 0
585 -584 0
585 -4 0
586 -44 -585 0
-586 44 0
-586 585 0
-587 35 586 10 30 32 0
587 -35 0
587 -586 0
587 -10 0
587 -30 0
587 -32 0
588 -54 -587 0
-588 54 0
-588 587 0
-589 9 588 0
589 -9 0
589 -588 0
590 -57 -589 0
-590 57 0
-590 589 0
591 -66 -579 0
-591 66 0
-591 579 0
-592 68 576 582 590 61 63 591 0
592 -68 0
592 -576 0
592 -582 0
592 -590 0
592 -61 0
592 -63 0
592 -591 0
593 -80 -592 0
-593 80 0
-593 592 0
-594 60 572 593 0
594 -60 0
594 -572 0
594 -593 0
595 -83 -594 0
-595 83 0
-595 594 0
-596 39 574 36 0
596 -39 0
596 -574 0
596 -36 0
597 -41 -596 0
-597 41 0
-597 596 0
-598 39 574 0
598 -39 0
598 -574 0
599 -44 -598 0
-599 44 0
-599 598 0
-600 35 599 7 10 30 32 0
600 -35 0
600 -599 0
600 -7 0
600 -10 0
600 -30 0
600 -32 0
601 -47 -600 0
-601 47 0
-601 600 0
-602 49 601 0
602 -49 0
602 -601 0
603 -51 -602 0
-603 51 0
-603 602 0
-604 39 584 0
604 -39 0
604 -584 0
605 -44 -604 0
-605 44 0
-605 604 0
-606 35 605 10 30 32 0
606 -35 0
606 -605 0
606 -10 0
606 -30 0
606 -32 0
607 -54 -606 0
-607 54 0
-607 606 0
-608 9 607 0
608 -9 0
608 -607 0
609 -57 -608 0
-609 57 0
-609 608 0
-610 247 146 148 154 253 510 259 396 0
610 -247 0
610 -146 0
610 -148 0
610 -154 0
610 -253 0
610 -510 0
610 -259 0
610 -396 0
611 -297 -610 0
-611 297 0
-611 610 0
-612 60 611 0
612 -60 0
612 -611 0
613 -59 -612 0
-613 59 0
-613 612 0
614 -66 -600 0
-614 66 0
-614 600 0
-615 68 597 603 609 613 61 63 614 0
615 -68 0
615 -597 0
615 -603 0
615 -609 0
615 -613 0
615 -61 0
615 -63 0
615 -614 0
616 -98 -615 0
-616 98 0
-616 615 0
-617 6 616 0
617 -6 0
617 -616 0
618 -101 -617 0
-618 101 0
-618 617 0
-619 103 567 570 595 618 0
619 -103 0
619 -567 0
619 -570 0
619 -595 0
619 -618 0
620 -108 -619 0
-620 108 0
-620 619 0
-621 3 620 0
621 -3 0
621 -620 0
622 -111 -621 0
-622 111 0
-622 621 0
-623 122 565 622 112 0
623 -122 0
623 -565 0
623 -622 0
623 -112 0
624 -158 -623 0
-624 158 0
-624 623 0
625 -124 -435 0
-625 124 0
-625 435 0
-626 103 75 410 411 0
626 -103 0
626 -75 0
626 -410 0
626 -411 0
627 -108 -626 0
-627 108 0
-627 626 0
-628 3 627 0
628 -3 0
628 -627 0
629 -165 -628 0
-629 165 0
-629 628 0
-630 122 413 417 0
630 -122 0
630 -413 0
630 -417 0
631 -168 -630 0
-631 168 0
-631 630 0
-632 114 631 0
632 -114 0
632 -631 0
633 -171 -632 0
-633 171 0
-633 632 0
634 -189 -433 0
-634 189 0
-634 433 0
-635 191 634 0
635 -191 0
635 -634 0
636 -193 -635 0
-636 193 0
-636 635 0
-637 247 625 146 148 154 629 633 636 270 0
637 -247 0
637 -625 0
637 -146 0
637 -148 0
637 -154 0
637 -629 0
637 -633 0
637 -636 0
637 -270 0
638 -273 -637 0
-638 273 0
-638 637 0
-639 39 638 4 36 0
639 -39 0
639 -638 0
639 -4 0
639 -36 0
640 -41 -639 0
-640 41 0
-640 639 0
-641 39 638 4 0
641 -39 0
641 -638 0
641 -4 0
642 -44 -641 0
-642 44 0
-642 641 0
-643 35 642 7 10 30 32 0
643 -35 0
643 -642 0
643 -7 0
643 -10 0
643 -30 0
643 -32 0
644 -47 -643 0
-644 47 0
-644 643 0
-645 49 644 0
645 -49 0
645 -644 0
646 -51 -645 0
-646 51 0
-646 645 0
-647 247 625 146 148 154 629 633 636 283 0
647 -247 0
647 -625 0
647 -146 0
647 -148 0
647 -154 0
647 -629 0
647 -633 0
647 -636 0
647 -283 0
648 -273 -647 0
-648 273 0
-648 647 0
-649 39 648 4 0
649 -39 0
649 -648 0
649 -4 0
650 -44 -649 0
-650 44 0
-650 649 0
-651 35 650 10 30 32 0
651 -35 0
651 -650 0
651 -10 0
651 -30 0
651 -32 0
652 -54 -651 0
-652 54 0
-652 651 0
-653 9 652 0
653 -9 0
653 -652 0
654 -57 -653 0
-654 57 0
-654 653 0
-655 247 625 146 148 154 629 633 636 294 0
655 -247 0
655 -625 0
655 -146 0
655 -148 0
655 -154 0
655 -629 0
655 -633 0
655 -636 0
655 -294 0
656 -297 -655 0
-656 297 0
-656 655 0
-657 60 656 0
657 -60 0
657 -656 0
658 -59 -657 0
-658 59 0
-658 657 0
659 -66 -643 0
-659 66 0
-659 643 0
-660 68 640 646 654 658 61 63 659 0
660 -68 0
660 -640 0
660 -646 0
660 -654 0
660 -658 0
660 -61 0
660 -63 0
660 -659 0
661 -70 -660 0
-661 70 0
-661 660 0
-662 72 509 624 661 0
662 -72 0
662 -509 0
662 -624 0
662 -661 0
663 -664 -662 0
-663 664 0
-663 662 0
-665 666 248 407 472 663 0
665 -666 0
665 -248 0
665 -407 0
665 -472 0
665 -663 0
667 -668 -665 0
-667 668 0
-667 665 0
669 -70 -240 0
-669 70 0
-669 240 0
-670 72 669 0
670 -72 0
670 -669 0
671 -74 -670 0
-671 74 0
-671 670 0
672 -80 -341 0
-672 80 0
-672 341 0
-673 60 672 0
673 -60 0
673 -672 0
674 -83 -673 0
-674 83 0
-674 673 0
-675 39 228 0
675 -39 0
675 -228 0
676 -41 -675 0
-676 41 0
-676 675 0
677 -47 -393 0
-677 47 0
-677 393 0
-678 49 677 0
678 -49 0
678 -677 0
679 -51 -678 0
-679 51 0
-679 678 0
-680 35 86 10 226 32 0
680 -35 0
680 -86 0
680 -10 0
680 -226 0
680 -32 0
681 -54 -680 0
-681 54 0
-681 680 0
-682 9 681 0
682 -9 0
682 -681 0
683 -57 -682 0
-683 57 0
-683 682 0
684 -66 -393 0
-684 66 0
-684 393 0
-685 68 676 679 683 58 61 63 684 0
685 -68 0
685 -676 0
685 -679 0
685 -683 0
685 -58 0
685 -61 0
685 -63 0
685 -684 0
686 -98 -685 0
-686 98 0
-686 685 0
-687 6 686 0
687 -6 0
687 -686 0
688 -101 -687 0
-688 101 0
-688 687 0
-689 103 1 671 75 674 688 0
689 -103 0
689 -1 0
689 -671 0
689 -75 0
689 -674 0
689 -688 0
690 -105 -689 0
-690 105 0
-690 689 0
-691 103 671 75 674 688 0
691 -103 0
691 -671 0
691 -75 0
691 -674 0
691 -688 0
692 -108 -691 0
-692 108 0
-692 691 0
-693 3 692 0
693 -3 0
693 -692 0
694 -111 -693 0
-694 111 0
-694 693 0
-695 103 1 75 674 688 0
695 -103 0
695 -1 0
695 -75 0
695 -674 0
695 -688 0
696 -117 -695 0
-696 117 0
-696 695 0
-697 72 696 669 0
697 -72 0
697 -696 0
697 -669 0
698 -120 -697 0
-698 120 0
-698 697 0
-699 122 690 694 112 698 0
699 -122 0
699 -690 0
699 -694 0
699 -112 0
699 -698 0
700 -124 -699 0
-700 124 0
-700 699 0
-701 72 157 669 0
701 -72 0
701 -157 0
701 -669 0
702 -74 -701 0
-702 74 0
-702 701 0
-703 103 702 75 674 688 0
703 -103 0
703 -702 0
703 -75 0
703 -674 0
703 -688 0
704 -108 -703 0
-704 108 0
-704 703 0
-705 3 704 0
705 -3 0
705 -704 0
706 -165 -705 0
-706 165 0
-706 705 0
-707 122 690 694 698 0
707 -122 0
707 -690 0
707 -694 0
707 -698 0
708 -168 -707 0
-708 168 0
-708 707 0
-709 114 708 0
709 -114 0
709 -708 0
710 -171 -709 0
-710 171 0
-710 709 0
711 -105 -695 0
-711 105 0
-711 695 0
-712 103 75 674 688 0
712 -103 0
712 -75 0
712 -674 0
712 -688 0
713 -108 -712 0
-713 108 0
-713 712 0
-714 3 713 0
714 -3 0
714 -713 0
715 -111 -714 0
-715 111 0
-715 714 0
-716 122 711 715 112 0
716 -122 0
716 -711 0
716 -715 0
716 -112 0
717 -158 -716 0
-717 158 0
-717 716 0
-718 72 696 717 669 0
718 -72 0
718 -696 0
718 -717 0
718 -669 0
719 -181 -718 0
-719 181 0
-719 718 0
-720 72 184 669 0
720 -72 0
720 -184 0
720 -669 0
721 -74 -720 0
-721 74 0
-721 720 0
-722 103 1 721 75 674 688 0
722 -103 0
722 -1 0
722 -721 0
722 -75 0
722 -674 0
722 -688 0
723 -189 -722 0
-723 189 0
-723 722 0
-724 191 723 0
724 -191 0
724 -723 0
725 -193 -724 0
-725 193 0
-725 724 0
-726 247 700 146 148 154 706 710 719 725 0
726 -247 0
726 -700 0
726 -146 0
726 -148 0
726 -154 0
726 -706 0
726 -710 0
726 -719 0
726 -725 0
727 -249 -726 0
-727 249 0
-727 726 0
728 -120 -670 0
-728 120 0
-728 670 0
-729 122 182 112 728 0
729 -122 0
729 -182 0
729 -112 0
729 -728 0
730 -124 -729 0
-730 124 0
-730 729 0
-731 122 182 728 0
731 -122 0
731 -182 0
731 -728 0
732 -168 -731 0
-732 168 0
-732 731 0
-733 114 732 0
733 -114 0
733 -732 0
734 -171 -733 0
-734 171 0
-734 733 0
735 -181 -720 0
-735 181 0
-735 720 0
-736 247 730 146 148 154 253 734 735 259 0
736 -247 0
736 -730 0
736 -146 0
736 -148 0
736 -154 0
736 -253 0
736 -734 0
736 -735 0
736 -259 0
737 -262 -736 0
-737 262 0
-737 736 0
-738 247 263 146 148 154 253 267 259 0
738 -247 0
738 -263 0
738 -146 0
738 -148 0
738 -154 0
738 -253 0
738 -267 0
738 -259 0
739 -273 -738 0
-739 273 0
-739 738 0
-740 39 739 4 228 0
740 -39 0
740 -739 0
740 -4 0
740 -228 0
741 -41 -740 0
-741 41 0
-741 740 0
-742 39 739 4 0
742 -39 0
742 -739 0
742 -4 0
743 -44 -742 0
-743 44 0
-743 742 0
-744 35 743 7 10 226 32 0
744 -35 0
744 -743 0
744 -7 0
744 -10 0
744 -226 0
744 -32 0
745 -47 -744 0
-745 47 0
-745 744 0
-746 49 745 0
746 -49 0
746 -745 0
747 -51 -746 0
-747 51 0
-747 746 0
-748 35 743 10 226 32 0
748 -35 0
748 -743 0
748 -10 0
748 -226 0
748 -32 0
749 -54 -748 0
-749 54 0
-749 748 0
-750 9 749 0
750 -9 0
750 -749 0
751 -57 -750 0
-751 57 0
-751 750 0
752 -297 -738 0
-752 297 0
-752 738 0
-753 60 752 0
753 -60 0
753 -752 0
754 -59 -753 0
-754 59 0
-754 753 0
755 -66 -744 0
-755 66 0
-755 744 0
-756 68 741 747 751 754 61 63 755 0
756 -68 0
756 -741 0
756 -747 0
756 -751 0
756 -754 0
756 -61 0
756 -63 0
756 -755 0
757 -70 -756 0
-757 70 0
-757 756 0
-758 72 184 757 0
758 -72 0
758 -184 0
758 -757 0
759 -74 -758 0
-759 74 0
-759 758 0
760 -306 -736 0
-760 306 0
-760 736 0
-761 77 760 0
761 -77 0
761 -760 0
762 -76 -761 0
-762 76 0
-762 761 0
763 -70 -341 0
-763 70 0
-763 341 0
-764 72 763 0
764 -72 0
764 -763 0
765 -120 -764 0
-765 120 0
-765 764 0
-766 122 182 112 765 0
766 -122 0
766 -182 0
766 -112 0
766 -765 0
767 -124 -766 0
-767 124 0
-767 766 0
-768 122 182 765 0
768 -122 0
768 -182 0
768 -765 0
769 -168 -768 0
-769 168 0
-769 768 0
-770 114 769 0
770 -114 0
770 -769 0
771 -171 -770 0
-771 171 0
-771 770 0
-772 72 184 763 0
772 -72 0
772 -184 0
772 -763 0
773 -181 -772 0
-773 181 0
-773 772 0
-774 247 767 146 148 154 253 771 773 259 0
774 -247 0
774 -767 0
774 -146 0
774 -148 0
774 -154 0
774 -253 0
774 -771 0
774 -773 0
774 -259 0
775 -297 -774 0
-775 297 0
-775 774 0
-776 247 349 146 148 154 253 353 355 259 0
776 -247 0
776 -349 0
776 -146 0
776 -148 0
776 -154 0
776 -253 0
776 -353 0
776 -355 0
776 -259 0
777 -273 -776 0
-777 273 0
-777 776 0
-778 39 777 4 228 0
778 -39 0
778 -777 0
778 -4 0
778 -228 0
779 -41 -778 0
-779 41 0
-779 778 0
-780 39 777 4 0
780 -39 0
780 -777 0
780 -4 0
781 -44 -780 0
-781 44 0
-781 780 0
-782 35 781 7 10 226 32 0
782 -35 0
782 -781 0
782 -7 0
782 -10 0
782 -226 0
782 -32 0
783 -47 -782 0
-783 47 0
-783 782 0
-784 49 783 0
784 -49 0
784 -783 0
785 -51 -784 0
-785 51 0
-785 784 0
-786 35 781 10 226 32 0
786 -35 0
786 -781 0
786 -10 0
786 -226 0
786 -32 0
787 -54 -786 0
-787 54 0
-787 786 0
-788 9 787 0
788 -9 0
788 -787 0
789 -57 -788 0
-789 57 0
-789 788 0
790 -66 -782 0
-790 66 0
-790 782 0
-791 68 779 785 789 61 63 790 0
791 -68 0
791 -779 0
791 -785 0
791 -789 0
791 -61 0
791 -63 0
791 -790 0
792 -80 -791 0
-792 80 0
-792 791 0
-793 60 775 792 0
793 -60 0
793 -775 0
793 -792 0
794 -83 -793 0
-794 83 0
-794 793 0
-795 39 777 228 0
795 -39 0
795 -777 0
795 -228 0
796 -41 -795 0
-796 41 0
-796 795 0
-797 39 777 0
797 -39 0
797 -777 0
798 -44 -797 0
-798 44 0
-798 797 0
-799 35 798 7 10 226 32 0
799 -35 0
799 -798 0
799 -7 0
799 -10 0
799 -226 0
799 -32 0
800 -47 -799 0
-800 47 0
-800 799 0
-801 49 800 0
801 -49 0
801 -800 0
802 -51 -801 0
-802 51 0
-802 801 0
-803 35 798 10 226 32 0
803 -35 0
803 -798 0
803 -10 0
803 -226 0
803 -32 0
804 -54 -803 0
-804 54 0
-804 803 0
-805 9 804 0
805 -9 0
805 -804 0
806 -57 -805 0
-806 57 0
-806 805 0
807 -297 -776 0
-807 297 0
-807 776 0
-808 60 807 0
808 -60 0
808 -807 0
809 -59 -808 0
-809 59 0
-809 808 0
810 -66 -799 0
-810 66 0
-810 799 0
-811 68 796 802 806 809 61 63 810 0
811 -68 0
811 -796 0
811 -802 0
811 -806 0
811 -809 0
811 -61 0
811 -63 0
811 -810 0
812 -98 -811 0
-812 98 0
-812 811 0
-813 6 812 0
813 -6 0
813 -812 0
814 -101 -813 0
-814 101 0
-814 813 0
-815 103 737 1 759 762 794 814 0
815 -103 0
815 -737 0
815 -1 0
815 -759 0
815 -762 0
815 -794 0
815 -814 0
816 -408 -815 0
-816 408 0
-816 815 0
-817 247 422 146 148 154 428 432 438 443 0
817 -247 0
817 -422 0
817 -146 0
817 -148 0
817 -154 0
817 -428 0
817 -432 0
817 -438 0
817 -443 0
818 -273 -817 0
-818 273 0
-818 817 0
-819 39 818 4 228 0
819 -39 0
819 -818 0
819 -4 0
819 -228 0
820 -41 -819 0
-820 41 0
-820 819 0
-821 39 818 4 0
821 -39 0
821 -818 0
821 -4 0
822 -44 -821 0
-822 44 0
-822 821 0
-823 35 822 7 10 226 32 0
823 -35 0
823 -822 0
823 -7 0
823 -10 0
823 -226 0
823 -32 0
824 -47 -823 0
-824 47 0
-824 823 0
-825 49 824 0
825 -49 0
825 -824 0
826 -51 -825 0
-826 51 0
-826 825 0
-827 35 822 10 226 32 0
827 -35 0
827 -822 0
827 -10 0
827 -226 0
827 -32 0
828 -54 -827 0
-828 54 0
-828 827 0
-829 9 828 0
829 -9 0
829 -828 0
830 -57 -829 0
-830 57 0
-830 829 0
831 -297 -817 0
-831 297 0
-831 817 0
-832 60 831 0
832 -60 0
832 -831 0
833 -59 -832 0
-833 59 0
-833 832 0
834 -66 -823 0
-834 66 0
-834 823 0
-835 68 820 826 830 833 61 63 834 0
835 -68 0
835 -820 0
835 -826 0
835 -830 0
835 -833 0
835 -61 0
835 -63 0
835 -834 0
836 -469 -835 0
-836 469 0
-836 835 0
-837 471 836 0
837 -471 0
837 -836 0
838 -473 -837 0
-838 473 0
-838 837 0
839 -262 -738 0
-839 262 0
-839 738 0
840 -306 -738 0
-840 306 0
-840 738 0
-841 77 840 0
841 -77 0
841 -840 0
842 -76 -841 0
-842 76 0
-842 841 0
-843 68 741 747 751 61 63 755 0
843 -68 0
843 -741 0
843 -747 0
843 -751 0
843 -61 0
843 -63 0
843 -755 0
844 -80 -843 0
-844 80 0
-844 843 0
-845 60 752 844 0
845 -60 0
845 -752 0
845 -844 0
846 -83 -845 0
-846 83 0
-846 845 0
-847 39 739 228 0
847 -39 0
847 -739 0
847 -228 0
848 -41 -847 0
-848 41 0
-848 847 0
-849 39 739 0
849 -39 0
849 -739 0
850 -44 -849 0
-850 44 0
-850 849 0
-851 35 850 7 10 226 32 0
851 -35 0
851 -850 0
851 -7 0
851 -10 0
851 -226 0
851 -32 0
852 -47 -851 0
-852 47 0
-852 851 0
-853 49 852 0
853 -49 0
853 -852 0
854 -51 -853 0
-854 51 0
-854 853 0
-855 35 850 10 226 32 0
855 -35 0
855 -850 0
855 -10 0
855 -226 0
855 -32 0
856 -54 -855 0
-856 54 0
-856 855 0
-857 9 856 0
857 -9 0
857 -856 0
858 -57 -857 0
-858 57 0
-858 857 0
859 -66 -851 0
-859 66 0
-859 851 0
-860 68 848 854 858 754 61 63 859 0
860 -68 0
860 -848 0
860 -854 0
860 -858 0
860 -754 0
860 -61 0
860 -63 0
860 -859 0
861 -98 -860 0
-861 98 0
-861 860 0
-862 6 861 0
862 -6 0
862 -861 0
863 -101 -862 0
-863 101 0
-863 862 0
-864 103 839 1 842 846 863 0
864 -103 0
864 -839 0
864 -1 0
864 -842 0
864 -846 0
864 -863 0
865 -117 -864 0
-865 117 0
-865 864 0
-866 247 263 146 148 154 253 510 259 0
866 -247 0
866 -263 0
866 -146 0
866 -148 0
866 -154 0
866 -253 0
866 -510 0
866 -259 0
867 -262 -866 0
-867 262 0
-867 866 0
868 -306 -866 0
-868 306 0
-868 866 0
-869 77 868 0
869 -77 0
869 -868 0
870 -76 -869 0
-870 76 0
-870 869 0
871 -297 -866 0
-871 297 0
-871 866 0
872 -273 -866 0
-872 273 0
-872 866 0
-873 39 872 4 228 0
873 -39 0
873 -872 0
873 -4 0
873 -228 0
874 -41 -873 0
-874 41 0
-874 873 0
-875 39 872 4 0
875 -39 0
875 -872 0
875 -4 0
876 -44 -875 0
-876 44 0
-876 875 0
-877 35 876 7 10 226 32 0
877 -35 0
877 -876 0
877 -7 0
877 -10 0
877 -226 0
877 -32 0
878 -47 -877 0
-878 47 0
-878 877 0
-879 49 878 0
879 -49 0
879 -878 0
880 -51 -879 0
-880 51 0
-880 879 0
-881 35 876 10 226 32 0
881 -35 0
881 -876 0
881 -10 0
881 -226 0
881 -32 0
882 -54 -881 0
-882 54 0
-882 881 0
-883 9 882 0
883 -9 0
883 -882 0
884 -57 -883 0
-884 57 0
-884 883 0
885 -66 -877 0
-885 66 0
-885 877 0
-886 68 874 880 884 61 63 885 0
886 -68 0
886 -874 0
886 -880 0
886 -884 0
886 -61 0
886 -63 0
886 -885 0
887 -80 -886 0
-887 80 0
-887 886 0
-888 60 871 887 0
888 -60 0
888 -871 0
888 -887 0
889 -83 -888 0
-889 83 0
-889 888 0
-890 39 872 228 0
890 -39 0
890 -872 0
890 -228 0
891 -41 -890 0
-891 41 0
-891 890 0
-892 39 872 0
892 -39 0
892 -872 0
893 -44 -892 0
-893 44 0
-893 892 0
-894 35 893 7 10 226 32 0
894 -35 0
894 -893 0
894 -7 0
894 -10 0
894 -226 0
894 -32 0
895 -47 -894 0
-895 47 0
-895 894 0
-896 49 895 0
896 -49 0
896 -895 0
897 -51 -896 0
-897 51 0
-897 896 0
-898 35 893 10 226 32 0
898 -35 0
898 -893 0
898 -10 0
898 -226 0
898 -32 0
899 -54 -898 0
-899 54 0
-899 898 0
-900 9 899 0
900 -9 0
900 -899 0
901 -57 -900 0
-901 57 0
-901 900 0
-902 60 871 0
902 -60 0
902 -871 0
903 -59 -902 0
-903 59 0
-903 902 0
904 -66 -894 0
-904 66 0
-904 894 0
-905 68 891 897 901 903 61 63 904 0
905 -68 0
905 -891 0
905 -897 0
905 -901 0
905 -903 0
905 -61 0
905 -63 0
905 -904 0
906 -98 -905 0
-906 98 0
-906 905 0
-907 6 906 0
907 -6 0
907 -906 0
908 -101 -907 0
-908 101 0
-908 907 0
-909 103 867 1 870 889 908 0
909 -103 0
909 -867 0
909 -1 0
909 -870 0
909 -889 0
909 -908 0
910 -105 -909 0
-910 105 0
-910 909 0
-911 247 146 148 154 253 510 259 0
911 -247 0
911 -146 0
911 -148 0
911 -154 0
911 -253 0
911 -510 0
911 -259 0
912 -262 -911 0
-912 262 0
-912 911 0
913 -306 -911 0
-913 306 0
-913 911 0
-914 77 913 0
914 -77 0
914 -913 0
915 -76 -914 0
-915 76 0
-915 914 0
916 -297 -911 0
-916 297 0
-916 911 0
917 -273 -911 0
-917 273 0
-917 911 0
-918 39 917 4 228 0
918 -39 0
918 -917 0
918 -4 0
918 -228 0
919 -41 -918 0
-919 41 0
-919 918 0
-920 39 917 4 0
920 -39 0
920 -917 0
920 -4 0
921 -44 -920 0
-921 44 0
-921 920 0
-922 35 921 7 10 226 32 0
922 -35 0
922 -921 0
922 -7 0
922 -10 0
922 -226 0
922 -32 0
923 -47 -922 0
-923 47 0
-923 922 0
-924 49 923 0
924 -49 0
924 -923 0
925 -51 -924 0
-925 51 0
-925 924 0
-926 35 921 10 226 32 0
926 -35 0
926 -921 0
926 -10 0
926 -226 0
926 -32 0
927 -54 -926 0
-927 54 0
-927 926 0
-928 9 927 0
928 -9 0
928 -927 0
929 -57 -928 0
-929 57 0
-929 928 0
930 -66 -922 0
-930 66 0
-930 922 0
-931 68 919 925 929 61 63 930 0
931 -68 0
931 -919 0
931 -925 0
931 -929 0
931 -61 0
931 -63 0
931 -930 0
932 -80 -931 0
-932 80 0
-932 931 0
-933 60 916 932 0
933 -60 0
933 -916 0
933 -932 0
934 -83 -933 0
-934 83 0
-934 933 0
-935 39 917 228 0
935 -39 0
935 -917 0
935 -228 0
936 -41 -935 0
-936 41 0
-936 935 0
-937 39 917 0
937 -39 0
937 -917 0
938 -44 -937 0
-938 44 0
-938 937 0
-939 35 938 7 10 226 32 0
939 -35 0
939 -938 0
939 -7 0
939 -10 0
939 -226 0
939 -32 0
940 -47 -939 0
-940 47 0
-940 939 0
-941 49 940 0
941 -49 0
941 -940 0
942 -51 -941 0
-942 51 0
-942 941 0
-943 35 938 10 226 32 0
943 -35 0
943 -938 0
943 -10 0
943 -226 0
943 -32 0
944 -54 -943 0
-944 54 0
-944 943 0
-945 9 944 0
945 -9 0
945 -944 0
946 -57 -945 0
-946 57 0
-946 945 0
-947 60 916 0
947 -60 0
947 -916 0
948 -59 -947 0
-948 59 0
-948 947 0
949 -66 -939 0
-949 66 0
-949 939 0
-950 68 936 942 946 948 61 63 949 0
950 -68 0
950 -936 0
950 -942 0
950 -946 0
950 -948 0
950 -61 0
950 -63 0
950 -949 0
951 -98 -950 0
-951 98 0
-951 950 0
-952 6 951 0
952 -6 0
952 -951 0
953 -101 -952 0
-953 101 0
-953 952 0
-954 103 912 915 934 953 0
954 -103 0
954 -912 0
954 -915 0
954 -934 0
954 -953 0
955 -108 -954 0
-955 108 0
-955 954 0
-956 3 955 0
956 -3 0
956 -955 0
957 -111 -956 0
-957 111 0
-957 956 0
-958 122 910 957 112 0
958 -122 0
958 -910 0
958 -957 0
958 -112 0
959 -158 -958 0
-959 158 0
-959 958 0
-960 247 625 146 148 154 629 633 636 0
960 -247 0
960 -625 0
960 -146 0
960 -148 0
960 -154 0
960 -629 0
960 -633 0
960 -636 0
961 -273 -960 0
-961 273 0
-961 960 0
-962 39 961 4 228 0
962 -39 0
962 -961 0
962 -4 0
962 -228 0
963 -41 -962 0
-963 41 0
-963 962 0
-964 39 961 4 0
964 -39 0
964 -961 0
964 -4 0
965 -44 -964 0
-965 44 0
-965 964 0
-966 35 965 7 10 226 32 0
966 -35 0
966 -965 0
966 -7 0
966 -10 0
966 -226 0
966 -32 0
967 -47 -966 0
-967 47 0
-967 966 0
-968 49 967 0
968 -49 0
968 -967 0
969 -51 -968 0
-969 51 0
-969 968 0
-970 35 965 10 226 32 0
970 -35 0
970 -965 0
970 -10 0
970 -226 0
970 -32 0
971 -54 -970 0
-971 54 0
-971 970 0
-972 9 971 0
972 -9 0
972 -971 0
973 -57 -972 0
-973 57 0
-973 972 0
974 -297 -960 0
-974 297 0
-974 960 0
-975 60 974 0
975 -60 0
975 -974 0
976 -59 -975 0
-976 59 0
-976 975 0
977 -66 -966 0
-977 66 0
-977 966 0
-978 68 963 969 973 976 61 63 977 0
978 -68 0
978 -963 0
978 -969 0
978 -973 0
978 -976 0
978 -61 0
978 -63 0
978 -977 0
979 -70 -978 0
-979 70 0
-979 978 0
-980 72 865 959 979 0
980 -72 0
980 -865 0
980 -959 0
980 -979 0
981 -664 -980 0
-981 664 0
-981 980 0
-982 666 727 816 838 981 0
982 -666 0
982 -727 0
982 -816 0
982 -838 0
982 -981 0
983 -984 -982 0
-983 984 0
-983 982 0
-985 15 983 0
985 -15 0
985 -983 0
986 -14 -985 0
-986 14 0
-986 985 0
987 -70 -212 0
-987 70 0
-987 212 0
-988 72 987 0
988 -72 0
988 -987 0
989 -74 -988 0
-989 74 0
-989 988 0
990 -80 -327 0
-990 80 0
-990 327 0
-991 60 990 0
991 -60 0
991 -990 0
992 -83 -991 0
-992 83 0
-992 991 0
993 -101 -220 0
-993 101 0
-993 220 0
-994 103 1 989 75 992 993 0
994 -103 0
994 -1 0
994 -989 0
994 -75 0
994 -992 0
994 -993 0
995 -105 -994 0
-995 105 0
-995 994 0
-996 103 989 75 992 993 0
996 -103 0
996 -989 0
996 -75 0
996 -992 0
996 -993 0
997 -108 -996 0
-997 108 0
-997 996 0
-998 3 997 0
998 -3 0
998 -997 0
999 -111 -998 0
-999 111 0
-999 998 0
-1000 103 1 75 992 993 0
1000 -103 0
1000 -1 0
1000 -75 0
1000 -992 0
1000 -993 0
1001 -117 -1000 0
-1001 117 0
-1001 1000 0
-1002 72 1001 987 0
1002 -72 0
1002 -1001 0
1002 -987 0
1003 -120 -1002 0
-1003 120 0
-1003 1002 0
-1004 122 995 999 112 1003 0
1004 -122 0
1004 -995 0
1004 -999 0
1004 -112 0
1004 -1003 0
1005 -124 -1004 0
-1005 124 0
-1005 1004 0
-1006 72 157 987 0
1006 -72 0
1006 -157 0
1006 -987 0
1007 -74 -1006 0
-1007 74 0
-1007 1006 0
-1008 103 1007 75 992 993 0
1008 -103 0
1008 -1007 0
1008 -75 0
1008 -992 0
1008 -993 0
1009 -108 -1008 0
-1009 108 0
-1009 1008 0
-1010 3 1009 0
1010 -3 0
1010 -1009 0
1011 -165 -1010 0
-1011 165 0
-1011 1010 0
-1012 122 995 999 1003 0
1012 -122 0
1012 -995 0
1012 -999 0
1012 -1003 0
1013 -168 -1012 0
-1013 168 0
-1013 1012 0
-1014 114 1013 0
1014 -114 0
1014 -1013 0
1015 -171 -1014 0
-1015 171 0
-1015 1014 0
1016 -105 -1000 0
-1016 105 0
-1016 1000 0
-1017 103 75 992 993 0
1017 -103 0
1017 -75 0
1017 -992 0
1017 -993 0
1018 -108 -1017 0
-1018 108 0
-1018 1017 0
-1019 3 1018 0
1019 -3 0
1019 -1018 0
1020 -111 -1019 0
-1020 111 0
-1020 1019 0
-1021 122 1016 1020 112 0
1021 -122 0
1021 -1016 0
1021 -1020 0
1021 -112 0
1022 -158 -1021 0
-1022 158 0
-1022 1021 0
-1023 72 1001 1022 987 0
1023 -72 0
1023 -1001 0
1023 -1022 0
1023 -987 0
1024 -181 -1023 0
-1024 181 0
-1024 1023 0
-1025 72 184 987 0
1025 -72 0
1025 -184 0
1025 -987 0
1026 -74 -1025 0
-1026 74 0
-1026 1025 0
-1027 103 1 1026 75 992 993 0
1027 -103 0
1027 -1 0
1027 -1026 0
1027 -75 0
1027 -992 0
1027 -993 0
1028 -189 -1027 0
-1028 189 0
-1028 1027 0
-1029 191 1028 0
1029 -191 0
1029 -1028 0
1030 -193 -1029 0
-1030 193 0
-1030 1029 0
-1031 247 1005 146 148 154 1011 1015 1024 1030 0
1031 -247 0
1031 -1005 0
1031 -146 0
1031 -148 0
1031 -154 0
1031 -1011 0
1031 -1015 0
1031 -1024 0
1031 -1030 0
1032 -249 -1031 0
-1032 249 0
-1032 1031 0
1033 -120 -988 0
-1033 120 0
-1033 988 0
-1034 122 182 112 1033 0
1034 -122 0
1034 -182 0
1034 -112 0
1034 -1033 0
1035 -124 -1034 0
-1035 124 0
-1035 1034 0
-1036 122 182 1033 0
1036 -122 0
1036 -182 0
1036 -1033 0
1037 -168 -1036 0
-1037 168 0
-1037 1036 0
-1038 114 1037 0
1038 -114 0
1038 -1037 0
1039 -171 -1038 0
-1039 171 0
-1039 1038 0
1040 -181 -1025 0
-1040 181 0
-1040 1025 0
-1041 247 1035 146 148 154 253 1039 1040 259 0
1041 -247 0
1041 -1035 0
1041 -146 0
1041 -148 0
1041 -154 0
1041 -253 0
1041 -1039 0
1041 -1040 0
1041 -259 0
1042 -262 -1041 0
-1042 262 0
-1042 1041 0
1043 -41 -742 0
-1043 41 0
-1043 742 0
-1044 68 1043 200 201 754 61 63 0
1044 -68 0
1044 -1043 0
1044 -200 0
1044 -201 0
1044 -754 0
1044 -61 0
1044 -63 0
1045 -70 -1044 0
-1045 70 0
-1045 1044 0
-1046 72 184 1045 0
1046 -72 0
1046 -184 0
1046 -1045 0
1047 -74 -1046 0
-1047 74 0
-1047 1046 0
1048 -306 -1041 0
-1048 306 0
-1048 1041 0
-1049 77 1048 0
1049 -77 0
1049 -1048 0
1050 -76 -1049 0
-1050 76 0
-1050 1049 0
1051 -70 -327 0
-1051 70 0
-1051 327 0
-1052 72 1051 0
1052 -72 0
1052 -1051 0
1053 -120 -1052 0
-1053 120 0
-1053 1052 0
-1054 122 182 112 1053 0
1054 -122 0
1054 -182 0
1054 -112 0
1054 -1053 0
1055 -124 -1054 0
-1055 124 0
-1055 1054 0
-1056 122 182 1053 0
1056 -122 0
1056 -182 0
1056 -1053 0
1057 -168 -1056 0
-1057 168 0
-1057 1056 0
-1058 114 1057 0
1058 -114 0
1058 -1057 0
1059 -171 -1058 0
-1059 171 0
-1059 1058 0
-1060 72 184 1051 0
1060 -72 0
1060 -184 0
1060 -1051 0
1061 -181 -1060 0
-1061 181 0
-1061 1060 0
-1062 247 1055 146 148 154 253 1059 1061 259 0
1062 -247 0
1062 -1055 0
1062 -146 0
1062 -148 0
1062 -154 0
1062 -253 0
1062 -1059 0
1062 -1061 0
1062 -259 0
1063 -297 -1062 0
-1063 297 0
-1063 1062 0
1064 -41 -780 0
-1064 41 0
-1064 780 0
-1065 68 1064 200 201 61 63 0
1065 -68 0
1065 -1064 0
1065 -200 0
1065 -201 0
1065 -61 0
1065 -63 0
1066 -80 -1065 0
-1066 80 0
-1066 1065 0
-1067 60 1063 1066 0
1067 -60 0
1067 -1063 0
1067 -1066 0
1068 -83 -1067 0
-1068 83 0
-1068 1067 0
1069 -41 -797 0
-1069 41 0
-1069 797 0
-1070 68 1069 200 201 809 61 63 0
1070 -68 0
1070 -1069 0
1070 -200 0
1070 -201 0
1070 -809 0
1070 -61 0
1070 -63 0
1071 -98 -1070 0
-1071 98 0
-1071 1070 0
-1072 6 1071 0
1072 -6 0
1072 -1071 0
1073 -101 -1072 0
-1073 101 0
-1073 1072 0
-1074 103 1042 1 1047 1050 1068 1073 0
1074 -103 0
1074 -1042 0
1074 -1 0
1074 -1047 0
1074 -1050 0
1074 -1068 0
1074 -1073 0
1075 -408 -1074 0
-1075 408 0
-1075 1074 0
1076 -41 -821 0
-1076 41 0
-1076 821 0
-1077 68 1076 200 201 833 61 63 0
1077 -68 0
1077 -1076 0
1077 -200 0
1077 -201 0
1077 -833 0
1077 -61 0
1077 -63 0
1078 -469 -1077 0
-1078 469 0
-1078 1077 0
-1079 471 1078 0
1079 -471 0
1079 -1078 0
1080 -473 -1079 0
-1080 473 0
-1080 1079 0
-1081 68 1043 200 201 61 63 0
1081 -68 0
1081 -1043 0
1081 -200 0
1081 -201 0
1081 -61 0
1081 -63 0
1082 -80 -1081 0
-1082 80 0
-1082 1081 0
-1083 60 752 1082 0
1083 -60 0
1083 -752 0
1083 -1082 0
1084 -83 -1083 0
-1084 83 0
-1084 1083 0
1085 -41 -849 0
-1085 41 0
-1085 849 0
-1086 68 1085 200 201 754 61 63 0
1086 -68 0
1086 -1085 0
1086 -200 0
1086 -201 0
1086 -754 0
1086 -61 0
1086 -63 0
1087 -98 -1086 0
-1087 98 0
-1087 1086 0
-1088 6 1087 0
1088 -6 0
1088 -1087 0
1089 -101 -1088 0
-1089 101 0
-1089 1088 0
-1090 103 839 1 842 1084 1089 0
1090 -103 0
1090 -839 0
1090 -1 0
1090 -842 0
1090 -1084 0
1090 -1089 0
1091 -117 -1090 0
-1091 117 0
-1091 1090 0
1092 -41 -875 0
-1092 41 0
-1092 875 0
-1093 68 1092 200 201 61 63 0
1093 -68 0
1093 -1092 0
1093 -200 0
1093 -201 0
1093 -61 0
1093 -63 0
1094 -80 -1093 0
-1094 80 0
-1094 1093 0
-1095 60 871 1094 0
1095 -60 0
1095 -871 0
1095 -1094 0
1096 -83 -1095 0
-1096 83 0
-1096 1095 0
1097 -41 -892 0
-1097 41 0
-1097 892 0
-1098 68 1097 200 201 903 61 63 0
1098 -68 0
1098 -1097 0
1098 -200 0
1098 -201 0
1098 -903 0
1098 -61 0
1098 -63 0
1099 -98 -1098 0
-1099 98 0
-1099 1098 0
-1100 6 1099 0
1100 -6 0
1100 -1099 0
1101 -101 -1100 0
-1101 101 0
-1101 1100 0
-1102 103 867 1 870 1096 1101 0
1102 -103 0
1102 -867 0
1102 -1 0
1102 -870 0
1102 -1096 0
1102 -1101 0
1103 -105 -1102 0
-1103 105 0
-1103 1102 0
1104 -41 -920 0
-1104 41 0
-1104 920 0
-1105 68 1104 200 201 61 63 0
1105 -68 0
1105 -1104 0
1105 -200 0
1105 -201 0
1105 -61 0
1105 -63 0
1106 -80 -1105 0
-1106 80 0
-1106 1105 0
-1107 60 916 1106 0
1107 -60 0
1107 -916 0
1107 -1106 0
1108 -83 -1107 0
-1108 83 0
-1108 1107 0
1109 -41 -937 0
-1109 41 0
-1109 937 0
-1110 68 1109 200 201 948 61 63 0
1110 -68 0
1110 -1109 0
1110 -200 0
1110 -201 0
1110 -948 0
1110 -61 0
1110 -63 0
1111 -98 -1110 0
-1111 98 0
-1111 1110 0
-1112 6 1111 0
1112 -6 0
1112 -1111 0
1113 -101 -1112 0
-1113 101 0
-1113 1112 0
-1114 103 912 915 1108 1113 0
1114 -103 0
1114 -912 0
1114 -915 0
1114 -1108 0
1114 -1113 0
1115 -108 -1114 0
-1115 108 0
-1115 1114 0
-1116 3 1115 0
1116 -3 0
1116 -1115 0
1117 -111 -1116 0
-1117 111 0
-1117 1116 0
-1118 122 1103 1117 112 0
1118 -122 0
1118 -1103 0
1118 -1117 0
1118 -112 0
1119 -158 -1118 0
-1119 158 0
-1119 1118 0
1120 -41 -964 0
-1120 41 0
-1120 964 0
-1121 68 1120 200 201 976 61 63 0
1121 -68 0
1121 -1120 0
1121 -200 0
1121 -201 0
1121 -976 0
1121 -61 0
1121 -63 0
1122 -70 -1121 0
-1122 70 0
-1122 1121 0
-1123 72 1091 1119 1122 0
1123 -72 0
1123 -1091 0
1123 -1119 0
1123 -1122 0
1124 -664 -1123 0
-1124 664 0
-1124 1123 0
-1125 666 1032 1075 1080 1124 0
1125 -666 0
1125 -1032 0
1125 -1075 0
1125 -1080 0
1125 -1124 0
1126 -1127 -1125 0
-1126 1127 0
-1126 1125 0
1128 -70 -202 0
-1128 70 0
-1128 202 0
-1129 72 184 1128 0
1129 -72 0
1129 -184 0
1129 -1128 0
1130 -74 -1129 0
-1130 74 0
-1130 1129 0
1131 -80 -320 0
-1131 80 0
-1131 320 0
-1132 60 1131 0
1132 -60 0
1132 -1131 0
1133 -83 -1132 0
-1133 83 0
-1133 1132 0
1134 -101 -204 0
-1134 101 0
-1134 204 0
-1135 103 1 1130 75 1133 1134 0
1135 -103 0
1135 -1 0
1135 -1130 0
1135 -75 0
1135 -1133 0
1135 -1134 0
1136 -408 -1135 0
-1136 408 0
-1136 1135 0
1137 -469 -202 0
-1137 469 0
-1137 202 0
-1138 471 1137 0
1138 -471 0
1138 -1137 0
1139 -473 -1138 0
-1139 473 0
-1139 1138 0
-1140 103 1 75 1133 1134 0
1140 -103 0
1140 -1 0
1140 -75 0
1140 -1133 0
1140 -1134 0
1141 -117 -1140 0
-1141 117 0
-1141 1140 0
1142 -105 -1140 0
-1142 105 0
-1142 1140 0
-1143 103 75 1133 1134 0
1143 -103 0
1143 -75 0
1143 -1133 0
1143 -1134 0
1144 -108 -1143 0
-1144 108 0
-1144 1143 0
-1145 3 1144 0
1145 -3 0
1145 -1144 0
1146 -111 -1145 0
-1146 111 0
-1146 1145 0
-1147 122 1142 1146 112 0
1147 -122 0
1147 -1142 0
1147 -1146 0
1147 -112 0
1148 -158 -1147 0
-1148 158 0
-1148 1147 0
-1149 72 1141 1148 1128 0
1149 -72 0
1149 -1141 0
1149 -1148 0
1149 -1128 0
1150 -664 -1149 0
-1150 664 0
-1150 1149 0
-1151 666 1136 1139 1150 0
1151 -666 0
1151 -1136 0
1151 -1139 0
1151 -1150 0
1152 -1153 -1151 0
-1152 1153 0
-1152 1151 0
-1154 72 1128 0
1154 -72 0
1154 -1128 0
1155 -664 -1154 0
-1155 664 0
-1155 1154 0
-1156 666 1139 1155 0
1156 -666 0
1156 -1139 0
1156 -1155 0
1157 -1158 -1156 0
-1157 1158 0
-1157 1156 0
-1159 3 1157 0
1159 -3 0
1159 -1157 0
1160 -2 -1159 0
-1160 2 0
-1160 1159 0
-1161 666 1139 0
1161 -666 0
1161 -1139 0
1162 -984 -1161 0
-1162 984 0
-1162 1161 0
-1163 15 1162 0
1163 -15 0
1163 -1162 0
1164 -64 -1163 0
-1164 64 0
-1164 1163 0
-1165 68 200 201 58 61 1164 0
1165 -68 0
1165 -200 0
1165 -201 0
1165 -58 0
1165 -61 0
1165 -1164 0
1166 -70 -1165 0
-1166 70 0
-1166 1165 0
-1167 72 1166 0
1167 -72 0
1167 -1166 0
1168 -74 -1167 0
-1168 74 0
-1168 1167 0
1169 -473 -471 0
-1169 473 0
-1169 471 0
1170 -664 -72 0
-1170 664 0
-1170 72 0
-1171 666 1169 1170 0
1171 -666 0
1171 -1169 0
1171 -1170 0
1172 -984 -1171 0
-1172 984 0
-1172 1171 0
-1173 15 1172 0
1173 -15 0
1173 -1172 0
1174 -64 -1173 0
-1174 64 0
-1174 1173 0
-1175 68 200 201 61 1174 0
1175 -68 0
1175 -200 0
1175 -201 0
1175 -61 0
1175 -1174 0
1176 -80 -1175 0
-1176 80 0
-1176 1175 0
-1177 60 1176 0
1177 -60 0
1177 -1176 0
1178 -83 -1177 0
-1178 83 0
-1178 1177 0
-1179 68 200 201 58 61 1174 0
1179 -68 0
1179 -200 0
1179 -201 0
1179 -58 0
1179 -61 0
1179 -1174 0
1180 -98 -1179 0
-1180 98 0
-1180 1179 0
-1181 6 1180 0
1181 -6 0
1181 -1180 0
1182 -101 -1181 0
-1182 101 0
-1182 1181 0
-1183 103 1160 1168 75 1178 1182 0
1183 -103 0
1183 -1160 0
1183 -1168 0
1183 -75 0
1183 -1178 0
1183 -1182 0
1184 -105 -1183 0
-1184 105 0
-1184 1183 0
1185 -74 -1154 0
-1185 74 0
-1185 1154 0
-1186 103 1 1185 75 1133 1134 0
1186 -103 0
1186 -1 0
1186 -1185 0
1186 -75 0
1186 -1133 0
1186 -1134 0
1187 -408 -1186 0
-1187 408 0
-1187 1186 0
-1188 72 1141 1128 0
1188 -72 0
1188 -1141 0
1188 -1128 0
1189 -664 -1188 0
-1189 664 0
-1189 1188 0
-1190 666 1187 1139 1189 0
1190 -666 0
1190 -1187 0
1190 -1139 0
1190 -1189 0
1191 -1192 -1190 0
-1191 1192 0
-1191 1190 0
1193 -70 -1179 0
-1193 70 0
-1193 1179 0
-1194 72 1193 0
1194 -72 0
1194 -1193 0
1195 -74 -1194 0
-1195 74 0
-1195 1194 0
-1196 103 1195 75 1178 1182 0
1196 -103 0
1196 -1195 0
1196 -75 0
1196 -1178 0
1196 -1182 0
1197 -108 -1196 0
-1197 108 0
-1197 1196 0
-1198 103 1185 75 1133 1134 0
1198 -103 0
1198 -1185 0
1198 -75 0
1198 -1133 0
1198 -1134 0
1199 -408 -1198 0
-1199 408 0
-1199 1198 0
1200 -117 -1143 0
-1200 117 0
-1200 1143 0
-1201 72 1200 1128 0
1201 -72 0
1201 -1200 0
1201 -1128 0
1202 -664 -1201 0
-1202 664 0
-1202 1201 0
-1203 666 1199 1139 1202 0
1203 -666 0
1203 -1199 0
1203 -1139 0
1203 -1202 0
1204 -1158 -1203 0
-1204 1158 0
-1204 1203 0
-1205 3 1197 1204 0
1205 -3 0
1205 -1197 0
1205 -1204 0
1206 -111 -1205 0
-1206 111 0
-1206 1205 0
1207 -1158 -1161 0
-1207 1158 0
-1207 1161 0
-1208 3 1207 0
1208 -3 0
1208 -1207 0
1209 -2 -1208 0
-1209 2 0
-1209 1208 0
-1210 103 1209 75 1178 1182 0
1210 -103 0
1210 -1209 0
1210 -75 0
1210 -1178 0
1210 -1182 0
1211 -117 -1210 0
-1211 117 0
-1211 1210 0
1212 -408 -412 0
-1212 408 0
-1212 412 0
-1213 666 1212 1139 0
1213 -666 0
1213 -1212 0
1213 -1139 0
1214 -984 -1213 0
-1214 984 0
-1214 1213 0
-1215 15 1214 0
1215 -15 0
1215 -1214 0
1216 -64 -1215 0
-1216 64 0
-1216 1215 0
-1217 68 200 201 58 61 1216 0
1217 -68 0
1217 -200 0
1217 -201 0
1217 -58 0
1217 -61 0
1217 -1216 0
1218 -70 -1217 0
-1218 70 0
-1218 1217 0
-1219 72 1211 1218 0
1219 -72 0
1219 -1211 0
1219 -1218 0
1220 -120 -1219 0
-1220 120 0
-1220 1219 0
-1221 122 1184 1191 1206 112 1220 0
1221 -122 0
1221 -1184 0
1221 -1191 0
1221 -1206 0
1221 -112 0
1221 -1220 0
1222 -124 -1221 0
-1222 124 0
-1222 1221 0
1223 -1192 -1161 0
-1223 1192 0
-1223 1161 0
-1224 122 1223 112 0
1224 -122 0
1224 -1223 0
1224 -112 0
1225 -158 -1224 0
-1225 158 0
-1225 1224 0
-1226 72 1225 1166 0
1226 -72 0
1226 -1225 0
1226 -1166 0
1227 -74 -1226 0
-1227 74 0
-1227 1226 0
1228 -664 -423 0
-1228 664 0
-1228 423 0
-1229 666 1169 1228 0
1229 -666 0
1229 -1169 0
1229 -1228 0
1230 -984 -1229 0
-1230 984 0
-1230 1229 0
-1231 15 1230 0
1231 -15 0
1231 -1230 0
1232 -64 -1231 0
-1232 64 0
-1232 1231 0
-1233 68 200 201 61 1232 0
1233 -68 0
1233 -200 0
1233 -201 0
1233 -61 0
1233 -1232 0
1234 -80 -1233 0
-1234 80 0
-1234 1233 0
-1235 60 1234 0
1235 -60 0
1235 -1234 0
1236 -83 -1235 0
-1236 83 0
-1236 1235 0
-1237 666 1139 1228 0
1237 -666 0
1237 -1139 0
1237 -1228 0
1238 -984 -1237 0
-1238 984 0
-1238 1237 0
-1239 15 1238 0
1239 -15 0
1239 -1238 0
1240 -64 -1239 0
-1240 64 0
-1240 1239 0
-1241 68 200 201 58 61 1240 0
1241 -68 0
1241 -200 0
1241 -201 0
1241 -58 0
1241 -61 0
1241 -1240 0
1242 -98 -1241 0
-1242 98 0
-1242 1241 0
-1243 6 1242 0
1243 -6 0
1243 -1242 0
1244 -101 -1243 0
-1244 101 0
-1244 1243 0
-1245 103 1227 75 1236 1244 0
1245 -103 0
1245 -1227 0
1245 -75 0
1245 -1236 0
1245 -1244 0
1246 -108 -1245 0
-1246 108 0
-1246 1245 0
-1247 72 157 1128 0
1247 -72 0
1247 -157 0
1247 -1128 0
1248 -74 -1247 0
-1248 74 0
-1248 1247 0
-1249 103 1248 75 1133 1134 0
1249 -103 0
1249 -1248 0
1249 -75 0
1249 -1133 0
1249 -1134 0
1250 -408 -1249 0
-1250 408 0
-1250 1249 0
1251 -105 -1143 0
-1251 105 0
-1251 1143 0
-1252 122 1251 112 0
1252 -122 0
1252 -1251 0
1252 -112 0
1253 -158 -1252 0
-1253 158 0
-1253 1252 0
-1254 72 1200 1253 1128 0
1254 -72 0
1254 -1200 0
1254 -1253 0
1254 -1128 0
1255 -664 -1254 0
-1255 664 0
-1255 1254 0
-1256 666 1250 1139 1255 0
1256 -666 0
1256 -1250 0
1256 -1139 0
1256 -1255 0
1257 -1158 -1256 0
-1257 1158 0
-1257 1256 0
-1258 3 1246 1257 0
1258 -3 0
1258 -1246 0
1258 -1257 0
1259 -165 -1258 0
-1259 165 0
-1259 1258 0
-1260 103 1160 1195 75 1178 1182 0
1260 -103 0
1260 -1160 0
1260 -1195 0
1260 -75 0
1260 -1178 0
1260 -1182 0
1261 -105 -1260 0
-1261 105 0
-1261 1260 0
-1262 122 1261 1191 1206 1220 0
1262 -122 0
1262 -1261 0
1262 -1191 0
1262 -1206 0
1262 -1220 0
1263 -168 -1262 0
-1263 168 0
-1263 1262 0
-1264 114 1263 0
1264 -114 0
1264 -1263 0
1265 -171 -1264 0
-1265 171 0
-1265 1264 0
-1266 666 1169 0
1266 -666 0
1266 -1169 0
1267 -984 -1266 0
-1267 984 0
-1267 1266 0
-1268 15 1267 0
1268 -15 0
1268 -1267 0
1269 -64 -1268 0
-1269 64 0
-1269 1268 0
-1270 68 200 201 61 1269 0
1270 -68 0
1270 -200 0
1270 -201 0
1270 -61 0
1270 -1269 0
1271 -80 -1270 0
-1271 80 0
-1271 1270 0
-1272 60 1271 0
1272 -60 0
1272 -1271 0
1273 -83 -1272 0
-1273 83 0
-1273 1272 0
-1274 68 200 201 58 61 1269 0
1274 -68 0
1274 -200 0
1274 -201 0
1274 -58 0
1274 -61 0
1274 -1269 0
1275 -98 -1274 0
-1275 98 0
-1275 1274 0
-1276 6 1275 0
1276 -6 0
1276 -1275 0
1277 -101 -1276 0
-1277 101 0
-1277 1276 0
-1278 103 1209 75 1273 1277 0
1278 -103 0
1278 -1209 0
1278 -75 0
1278 -1273 0
1278 -1277 0
1279 -117 -1278 0
-1279 117 0
-1279 1278 0
1280 -105 -1210 0
-1280 105 0
-1280 1210 0
1281 -408 -1140 0
-1281 408 0
-1281 1140 0
-1282 666 1281 1139 0
1282 -666 0
1282 -1281 0
1282 -1139 0
1283 -1192 -1282 0
-1283 1192 0
-1283 1282 0
-1284 103 75 1178 1182 0
1284 -103 0
1284 -75 0
1284 -1178 0
1284 -1182 0
1285 -108 -1284 0
-1285 108 0
-1285 1284 0
1286 -408 -1143 0
-1286 408 0
-1286 1143 0
-1287 666 1286 1139 0
1287 -666 0
1287 -1286 0
1287 -1139 0
1288 -1158 -1287 0
-1288 1158 0
-1288 1287 0
-1289 3 1285 1288 0
1289 -3 0
1289 -1285 0
1289 -1288 0
1290 -111 -1289 0
-1290 111 0
-1290 1289 0
-1291 122 1280 1283 1290 112 0
1291 -122 0
1291 -1280 0
1291 -1283 0
1291 -1290 0
1291 -112 0
1292 -158 -1291 0
-1292 158 0
-1292 1291 0
1293 -408 -433 0
-1293 408 0
-1293 433 0
-1294 666 1293 1139 0
1294 -666 0
1294 -1293 0
1294 -1139 0
1295 -984 -1294 0
-1295 984 0
-1295 1294 0
-1296 15 1295 0
1296 -15 0
1296 -1295 0
1297 -64 -1296 0
-1297 64 0
-1297 1296 0
-1298 68 200 201 58 61 1297 0
1298 -68 0
1298 -200 0
1298 -201 0
1298 -58 0
1298 -61 0
1298 -1297 0
1299 -70 -1298 0
-1299 70 0
-1299 1298 0
-1300 72 1279 1292 1299 0
1300 -72 0
1300 -1279 0
1300 -1292 0
1300 -1299 0
1301 -181 -1300 0
-1301 181 0
-1301 1300 0
1302 -664 -1247 0
-1302 664 0
-1302 1247 0
-1303 666 1139 1302 0
1303 -666 0
1303 -1139 0
1303 -1302 0
1304 -1158 -1303 0
-1304 1158 0
-1304 1303 0
-1305 3 1304 0
1305 -3 0
1305 -1304 0
1306 -2 -1305 0
-1306 2 0
-1306 1305 0
1307 -111 -1208 0
-1307 111 0
-1307 1208 0
-1308 122 1223 1307 112 0
1308 -122 0
1308 -1223 0
1308 -1307 0
1308 -112 0
1309 -158 -1308 0
-1309 158 0
-1309 1308 0
1310 -70 -1274 0
-1310 70 0
-1310 1274 0
-1311 72 1309 1310 0
1311 -72 0
1311 -1309 0
1311 -1310 0
1312 -74 -1311 0
-1312 74 0
-1312 1311 0
1313 -664 -354 0
-1313 664 0
-1313 354 0
-1314 666 1169 1313 0
1314 -666 0
1314 -1169 0
1314 -1313 0
1315 -984 -1314 0
-1315 984 0
-1315 1314 0
-1316 15 1315 0
1316 -15 0
1316 -1315 0
1317 -64 -1316 0
-1317 64 0
-1317 1316 0
-1318 68 200 201 61 1317 0
1318 -68 0
1318 -200 0
1318 -201 0
1318 -61 0
1318 -1317 0
1319 -80 -1318 0
-1319 80 0
-1319 1318 0
-1320 60 1319 0
1320 -60 0
1320 -1319 0
1321 -83 -1320 0
-1321 83 0
-1321 1320 0
-1322 666 1139 1313 0
1322 -666 0
1322 -1139 0
1322 -1313 0
1323 -984 -1322 0
-1323 984 0
-1323 1322 0
-1324 15 1323 0
1324 -15 0
1324 -1323 0
1325 -64 -1324 0
-1325 64 0
-1325 1324 0
-1326 68 200 201 58 61 1325 0
1326 -68 0
1326 -200 0
1326 -201 0
1326 -58 0
1326 -61 0
1326 -1325 0
1327 -98 -1326 0
-1327 98 0
-1327 1326 0
-1328 6 1327 0
1328 -6 0
1328 -1327 0
1329 -101 -1328 0
-1329 101 0
-1329 1328 0
-1330 103 1306 1312 75 1321 1329 0
1330 -103 0
1330 -1306 0
1330 -1312 0
1330 -75 0
1330 -1321 0
1330 -1329 0
1331 -189 -1330 0
-1331 189 0
-1331 1330 0
-1332 191 1331 0
1332 -191 0
1332 -1331 0
1333 -193 -1332 0
-1333 193 0
-1333 1332 0
-1334 247 1152 1222 146 148 154 1259 1265 1301 1333 0
1334 -247 0
1334 -1152 0
1334 -1222 0
1334 -146 0
1334 -148 0
1334 -154 0
1334 -1259 0
1334 -1265 0
1334 -1301 0
1334 -1333 0
1335 -273 -1334 0
-1335 273 0
-1335 1334 0
1336 -105 -1186 0
-1336 105 0
-1336 1186 0
1337 -108 -1198 0
-1337 108 0
-1337 1198 0
-1338 3 1337 0
1338 -3 0
1338 -1337 0
1339 -111 -1338 0
-1339 111 0
-1339 1338 0
1340 -120 -1188 0
-1340 120 0
-1340 1188 0
-1341 122 1336 1339 112 1340 0
1341 -122 0
1341 -1336 0
1341 -1339 0
1341 -112 0
1341 -1340 0
1342 -124 -1341 0
-1342 124 0
-1342 1341 0
1343 -108 -1249 0
-1343 108 0
-1343 1249 0
-1344 3 1343 0
1344 -3 0
1344 -1343 0
1345 -165 -1344 0
-1345 165 0
-1345 1344 0
-1346 122 1336 1339 1340 0
1346 -122 0
1346 -1336 0
1346 -1339 0
1346 -1340 0
1347 -168 -1346 0
-1347 168 0
-1347 1346 0
-1348 114 1347 0
1348 -114 0
1348 -1347 0
1349 -171 -1348 0
-1349 171 0
-1349 1348 0
1350 -181 -1149 0
-1350 181 0
-1350 1149 0
1351 -189 -1135 0
-1351 189 0
-1351 1135 0
-1352 191 1351 0
1352 -191 0
1352 -1351 0
1353 -193 -1352 0
-1353 193 0
-1353 1352 0
-1354 247 1342 146 148 154 1345 1349 1350 1353 0
1354 -247 0
1354 -1342 0
1354 -146 0
1354 -148 0
1354 -154 0
1354 -1345 0
1354 -1349 0
1354 -1350 0
1354 -1353 0
1355 -249 -1354 0
-1355 249 0
-1355 1354 0
1356 -120 -1154 0
-1356 120 0
-1356 1154 0
-1357 122 182 112 1356 0
1357 -122 0
1357 -182 0
1357 -112 0
1357 -1356 0
1358 -124 -1357 0
-1358 124 0
-1358 1357 0
-1359 122 182 1356 0
1359 -122 0
1359 -182 0
1359 -1356 0
1360 -168 -1359 0
-1360 168 0
-1360 1359 0
-1361 114 1360 0
1361 -114 0
1361 -1360 0
1362 -171 -1361 0
-1362 171 0
-1362 1361 0
1363 -181 -1129 0
-1363 181 0
-1363 1129 0
-1364 247 1358 146 148 154 253 1362 1363 259 0
1364 -247 0
1364 -1358 0
1364 -146 0
1364 -148 0
1364 -154 0
1364 -253 0
1364 -1362 0
1364 -1363 0
1364 -259 0
1365 -262 -1364 0
-1365 262 0
-1365 1364 0
-1366 68 200 201 754 61 63 0
1366 -68 0
1366 -200 0
1366 -201 0
1366 -754 0
1366 -61 0
1366 -63 0
1367 -70 -1366 0
-1367 70 0
-1367 1366 0
-1368 72 184 1367 0
1368 -72 0
1368 -184 0
1368 -1367 0
1369 -74 -1368 0
-1369 74 0
-1369 1368 0
1370 -306 -1364 0
-1370 306 0
-1370 1364 0
-1371 77 1370 0
1371 -77 0
1371 -1370 0
1372 -76 -1371 0
-1372 76 0
-1372 1371 0
1373 -70 -320 0
-1373 70 0
-1373 320 0
-1374 72 1373 0
1374 -72 0
1374 -1373 0
1375 -120 -1374 0
-1375 120 0
-1375 1374 0
-1376 122 182 112 1375 0
1376 -122 0
1376 -182 0
1376 -112 0
1376 -1375 0
1377 -124 -1376 0
-1377 124 0
-1377 1376 0
-1378 122 182 1375 0
1378 -122 0
1378 -182 0
1378 -1375 0
1379 -168 -1378 0
-1379 168 0
-1379 1378 0
-1380 114 1379 0
1380 -114 0
1380 -1379 0
1381 -171 -1380 0
-1381 171 0
-1381 1380 0
-1382 72 184 1373 0
1382 -72 0
1382 -184 0
1382 -1373 0
1383 -181 -1382 0
-1383 181 0
-1383 1382 0
-1384 247 1377 146 148 154 253 1381 1383 259 0
1384 -247 0
1384 -1377 0
1384 -146 0
1384 -148 0
1384 -154 0
1384 -253 0
1384 -1381 0
1384 -1383 0
1384 -259 0
1385 -297 -1384 0
-1385 297 0
-1385 1384 0
-1386 60 1385 1131 0
1386 -60 0
1386 -1385 0
1386 -1131 0
1387 -83 -1386 0
-1387 83 0
-1387 1386 0
-1388 68 200 201 809 61 63 0
1388 -68 0
1388 -200 0
1388 -201 0
1388 -809 0
1388 -61 0
1388 -63 0
1389 -98 -1388 0
-1389 98 0
-1389 1388 0
-1390 6 1389 0
1390 -6 0
1390 -1389 0
1391 -101 -1390 0
-1391 101 0
-1391 1390 0
-1392 103 1365 1 1369 1372 1387 1391 0
1392 -103 0
1392 -1365 0
1392 -1 0
1392 -1369 0
1392 -1372 0
1392 -1387 0
1392 -1391 0
1393 -408 -1392 0
-1393 408 0
-1393 1392 0
-1394 68 200 201 833 61 63 0
1394 -68 0
1394 -200 0
1394 -201 0
1394 -833 0
1394 -61 0
1394 -63 0
1395 -469 -1394 0
-1395 469 0
-1395 1394 0
-1396 471 1395 0
1396 -471 0
1396 -1395 0
1397 -473 -1396 0
-1397 473 0
-1397 1396 0
-1398 60 752 1131 0
1398 -60 0
1398 -752 0
1398 -1131 0
1399 -83 -1398 0
-1399 83 0
-1399 1398 0
1400 -98 -1366 0
-1400 98 0
-1400 1366 0
-1401 6 1400 0
1401 -6 0
1401 -1400 0
1402 -101 -1401 0
-1402 101 0
-1402 1401 0
-1403 103 839 1 842 1399 1402 0
1403 -103 0
1403 -839 0
1403 -1 0
1403 -842 0
1403 -1399 0
1403 -1402 0
1404 -117 -1403 0
-1404 117 0
-1404 1403 0
-1405 60 871 1131 0
1405 -60 0
1405 -871 0
1405 -1131 0
1406 -83 -1405 0
-1406 83 0
-1406 1405 0
-1407 68 200 201 903 61 63 0
1407 -68 0
1407 -200 0
1407 -201 0
1407 -903 0
1407 -61 0
1407 -63 0
1408 -98 -1407 0
-1408 98 0
-1408 1407 0
-1409 6 1408 0
1409 -6 0
1409 -1408 0
1410 -101 -1409 0
-1410 101 0
-1410 1409 0
-1411 103 867 1 870 1406 1410 0
1411 -103 0
1411 -867 0
1411 -1 0
1411 -870 0
1411 -1406 0
1411 -1410 0
1412 -105 -1411 0
-1412 105 0
-1412 1411 0
-1413 60 916 1131 0
1413 -60 0
1413 -916 0
1413 -1131 0
1414 -83 -1413 0
-1414 83 0
-1414 1413 0
-1415 68 200 201 948 61 63 0
1415 -68 0
1415 -200 0
1415 -201 0
1415 -948 0
1415 -61 0
1415 -63 0
1416 -98 -1415 0
-1416 98 0
-1416 1415 0
-1417 6 1416 0
1417 -6 0
1417 -1416 0
1418 -101 -1417 0
-1418 101 0
-1418 1417 0
-1419 103 912 915 1414 1418 0
1419 -103 0
1419 -912 0
1419 -915 0
1419 -1414 0
1419 -1418 0
1420 -108 -1419 0
-1420 108 0
-1420 1419 0
-1421 3 1420 0
1421 -3 0
1421 -1420 0
1422 -111 -1421 0
-1422 111 0
-1422 1421 0
-1423 122 1412 1422 112 0
1423 -122 0
1423 -1412 0
1423 -1422 0
1423 -112 0
1424 -158 -1423 0
-1424 158 0
-1424 1423 0
-1425 68 200 201 976 61 63 0
1425 -68 0
1425 -200 0
1425 -201 0
1425 -976 0
1425 -61 0
1425 -63 0
1426 -70 -1425 0
-1426 70 0
-1426 1425 0
-1427 72 1404 1424 1426 0
1427 -72 0
1427 -1404 0
1427 -1424 0
1427 -1426 0
1428 -664 -1427 0
-1428 664 0
-1428 1427 0
-1429 666 1355 1393 1397 1428 0
1429 -666 0
1429 -1355 0
1429 -1393 0
1429 -1397 0
1429 -1428 0
1430 -1431 -1429 0
-1430 1431 0
-1430 1429 0
1432 -408 -440 0
-1432 408 0
-1432 440 0
1433 -664 -437 0
-1433 664 0
-1433 437 0
-1434 666 1432 1169 1433 0
1434 -666 0
1434 -1432 0
1434 -1169 0
1434 -1433 0
1435 -1153 -1434 0
-1435 1153 0
-1435 1434 0
1436 -1158 -1171 0
-1436 1158 0
-1436 1171 0
-1437 3 1436 0
1437 -3 0
1437 -1436 0
1438 -2 -1437 0
-1438 2 0
-1438 1437 0
-1439 103 1438 409 75 410 411 0
1439 -103 0
1439 -1438 0
1439 -409 0
1439 -75 0
1439 -410 0
1439 -411 0
1440 -105 -1439 0
-1440 105 0
-1440 1439 0
1441 -664 -419 0
-1441 664 0
-1441 419 0
-1442 666 1212 1169 1441 0
1442 -666 0
1442 -1212 0
1442 -1169 0
1442 -1441 0
1443 -1192 -1442 0
-1443 1192 0
-1443 1442 0
1444 -408 -414 0
-1444 408 0
-1444 414 0
1445 -117 -414 0
-1445 117 0
-1445 414 0
-1446 72 1445 0
1446 -72 0
1446 -1445 0
1447 -664 -1446 0
-1447 664 0
-1447 1446 0
-1448 666 1444 1169 1447 0
1448 -666 0
1448 -1444 0
1448 -1169 0
1448 -1447 0
1449 -1158 -1448 0
-1449 1158 0
-1449 1448 0
-1450 3 415 1449 0
1450 -3 0
1450 -415 0
1450 -1449 0
1451 -111 -1450 0
-1451 111 0
-1451 1450 0
1452 -117 -1439 0
-1452 117 0
-1452 1439 0
-1453 72 1452 0
1453 -72 0
1453 -1452 0
1454 -120 -1453 0
-1454 120 0
-1454 1453 0
-1455 122 1440 1443 1451 112 1454 0
1455 -122 0
1455 -1440 0
1455 -1443 0
1455 -1451 0
1455 -112 0
1455 -1454 0
1456 -124 -1455 0
-1456 124 0
-1456 1455 0
1457 -1192 -1171 0
-1457 1192 0
-1457 1171 0
-1458 122 1457 112 0
1458 -122 0
1458 -1457 0
1458 -112 0
1459 -158 -1458 0
-1459 158 0
-1459 1458 0
-1460 72 1459 0
1460 -72 0
1460 -1459 0
1461 -74 -1460 0
-1461 74 0
-1461 1460 0
-1462 103 1461 75 410 411 0
1462 -103 0
1462 -1461 0
1462 -75 0
1462 -410 0
1462 -411 0
1463 -108 -1462 0
-1463 108 0
-1463 1462 0
1464 -408 -425 0
-1464 408 0
-1464 425 0
1465 -117 -626 0
-1465 117 0
-1465 626 0
1466 -105 -414 0
-1466 105 0
-1466 414 0
-1467 122 1466 112 0
1467 -122 0
1467 -1466 0
1467 -112 0
1468 -158 -1467 0
-1468 158 0
-1468 1467 0
-1469 72 1465 1468 0
1469 -72 0
1469 -1465 0
1469 -1468 0
1470 -664 -1469 0
-1470 664 0
-1470 1469 0
-1471 666 1464 1169 1470 0
1471 -666 0
1471 -1464 0
1471 -1169 0
1471 -1470 0
1472 -1158 -1471 0
-1472 1158 0
-1472 1471 0
-1473 3 1463 1472 0
1473 -3 0
1473 -1463 0
1473 -1472 0
1474 -165 -1473 0
-1474 165 0
-1474 1473 0
-1475 122 1440 1443 1451 1454 0
1475 -122 0
1475 -1440 0
1475 -1443 0
1475 -1451 0
1475 -1454 0
1476 -168 -1475 0
-1476 168 0
-1476 1475 0
-1477 114 1476 0
1477 -114 0
1477 -1476 0
1478 -171 -1477 0
-1478 171 0
-1478 1477 0
1479 -1158 -1266 0
-1479 1158 0
-1479 1266 0
-1480 3 1479 0
1480 -3 0
1480 -1479 0
1481 -2 -1480 0
-1481 2 0
-1481 1480 0
-1482 103 1481 75 410 411 0
1482 -103 0
1482 -1481 0
1482 -75 0
1482 -410 0
1482 -411 0
1483 -117 -1482 0
-1483 117 0
-1483 1482 0
-1484 666 1212 1169 0
1484 -666 0
1484 -1212 0
1484 -1169 0
1485 -1192 -1484 0
-1485 1192 0
-1485 1484 0
-1486 666 1444 1169 0
1486 -666 0
1486 -1444 0
1486 -1169 0
1487 -1158 -1486 0
-1487 1158 0
-1487 1486 0
-1488 3 415 1487 0
1488 -3 0
1488 -415 0
1488 -1487 0
1489 -111 -1488 0
-1489 111 0
-1489 1488 0
-1490 122 1440 1485 1489 112 0
1490 -122 0
1490 -1440 0
1490 -1485 0
1490 -1489 0
1490 -112 0
1491 -158 -1490 0
-1491 158 0
-1491 1490 0
-1492 72 1483 1491 0
1492 -72 0
1492 -1483 0
1492 -1491 0
1493 -181 -1492 0
-1493 181 0
-1493 1492 0
1494 -1158 -1229 0
-1494 1158 0
-1494 1229 0
-1495 3 1494 0
1495 -3 0
1495 -1494 0
1496 -2 -1495 0
-1496 2 0
-1496 1495 0
1497 -111 -1437 0
-1497 111 0
-1497 1437 0
-1498 122 1457 1497 112 0
1498 -122 0
1498 -1457 0
1498 -1497 0
1498 -112 0
1499 -158 -1498 0
-1499 158 0
-1499 1498 0
-1500 72 1499 0
1500 -72 0
1500 -1499 0
1501 -74 -1500 0
-1501 74 0
-1501 1500 0
-1502 103 1496 1501 75 410 411 0
1502 -103 0
1502 -1496 0
1502 -1501 0
1502 -75 0
1502 -410 0
1502 -411 0
1503 -189 -1502 0
-1503 189 0
-1503 1502 0
-1504 191 1503 0
1504 -191 0
1504 -1503 0
1505 -193 -1504 0
-1505 193 0
-1505 1504 0
-1506 247 1435 1456 146 148 154 1474 1478 1493 1505 0
1506 -247 0
1506 -1435 0
1506 -1456 0
1506 -146 0
1506 -148 0
1506 -154 0
1506 -1474 0
1506 -1478 0
1506 -1493 0
1506 -1505 0
1507 -297 -1506 0
-1507 297 0
-1507 1506 0
-1508 60 1507 0
1508 -60 0
1508 -1507 0
1509 -59 -1508 0
-1509 59 0
-1509 1508 0
1510 -249 -817 0
-1510 249 0
-1510 817 0
1511 -262 -776 0
-1511 262 0
-1511 776 0
1512 -306 -776 0
-1512 306 0
-1512 776 0
-1513 77 1512 0
1513 -77 0
1513 -1512 0
1514 -76 -1513 0
-1514 76 0
-1514 1513 0
1515 -83 -808 0
-1515 83 0
-1515 808 0
-1516 103 1511 1 439 1514 1515 411 0
1516 -103 0
1516 -1511 0
1516 -1 0
1516 -439 0
1516 -1514 0
1516 -1515 0
1516 -411 0
1517 -408 -1516 0
-1517 408 0
-1517 1516 0
1518 -83 -753 0
-1518 83 0
-1518 753 0
-1519 103 839 1 842 1518 411 0
1519 -103 0
1519 -839 0
1519 -1 0
1519 -842 0
1519 -1518 0
1519 -411 0
1520 -117 -1519 0
-1520 117 0
-1520 1519 0
1521 -83 -902 0
-1521 83 0
-1521 902 0
-1522 103 867 1 870 1521 411 0
1522 -103 0
1522 -867 0
1522 -1 0
1522 -870 0
1522 -1521 0
1522 -411 0
1523 -105 -1522 0
-1523 105 0
-1523 1522 0
1524 -83 -947 0
-1524 83 0
-1524 947 0
-1525 103 912 915 1524 411 0
1525 -103 0
1525 -912 0
1525 -915 0
1525 -1524 0
1525 -411 0
1526 -108 -1525 0
-1526 108 0
-1526 1525 0
-1527 3 1526 0
1527 -3 0
1527 -1526 0
1528 -111 -1527 0
-1528 111 0
-1528 1527 0
-1529 122 1523 1528 112 0
1529 -122 0
1529 -1523 0
1529 -1528 0
1529 -112 0
1530 -158 -1529 0
-1530 158 0
-1530 1529 0
-1531 72 1520 1530 0
1531 -72 0
1531 -1520 0
1531 -1530 0
1532 -664 -1531 0
-1532 664 0
-1532 1531 0
-1533 666 1510 1517 1169 1532 0
1533 -666 0
1533 -1510 0
1533 -1517 0
1533 -1169 0
1533 -1532 0
1534 -984 -1533 0
-1534 984 0
-1534 1533 0
-1535 15 1534 0
1535 -15 0
1535 -1534 0
1536 -64 -1535 0
-1536 64 0
-1536 1535 0
-1537 68 200 201 1509 61 1536 0
1537 -68 0
1537 -200 0
1537 -201 0
1537 -1509 0
1537 -61 0
1537 -1536 0
1538 -98 -1537 0
-1538 98 0
-1538 1537 0
-1539 6 1538 0
1539 -6 0
1539 -1538 0
1540 -5 -1539 0
-1540 5 0
-1540 1539 0
1541 -207 -1537 0
-1541 207 0
-1541 1537 0
-1542 39 1335 1430 1540 1541 0
1542 -39 0
1542 -1335 0
1542 -1430 0
1542 -1540 0
1542 -1541 0
1543 -44 -1542 0
-1543 44 0
-1543 1542 0
-1544 666 1432 1139 1433 0
1544 -666 0
1544 -1432 0
1544 -1139 0
1544 -1433 0
1545 -1153 -1544 0
-1545 1153 0
-1545 1544 0
-1546 666 1212 1139 1441 0
1546 -666 0
1546 -1212 0
1546 -1139 0
1546 -1441 0
1547 -1192 -1546 0
-1547 1192 0
-1547 1546 0
-1548 666 1444 1139 1447 0
1548 -666 0
1548 -1444 0
1548 -1139 0
1548 -1447 0
1549 -1158 -1548 0
-1549 1158 0
-1549 1548 0
-1550 3 415 1549 0
1550 -3 0
1550 -415 0
1550 -1549 0
1551 -111 -1550 0
-1551 111 0
-1551 1550 0
-1552 122 1440 1547 1551 112 1454 0
1552 -122 0
1552 -1440 0
1552 -1547 0
1552 -1551 0
1552 -112 0
1552 -1454 0
1553 -124 -1552 0
-1553 124 0
-1553 1552 0
-1554 666 1464 1139 1470 0
1554 -666 0
1554 -1464 0
1554 -1139 0
1554 -1470 0
1555 -1158 -1554 0
-1555 1158 0
-1555 1554 0
-1556 3 1463 1555 0
1556 -3 0
1556 -1463 0
1556 -1555 0
1557 -165 -1556 0
-1557 165 0
-1557 1556 0
-1558 122 1440 1547 1551 1454 0
1558 -122 0
1558 -1440 0
1558 -1547 0
1558 -1551 0
1558 -1454 0
1559 -168 -1558 0
-1559 168 0
-1559 1558 0
-1560 114 1559 0
1560 -114 0
1560 -1559 0
1561 -171 -1560 0
-1561 171 0
-1561 1560 0
1562 -1192 -1213 0
-1562 1192 0
-1562 1213 0
-1563 666 1444 1139 0
1563 -666 0
1563 -1444 0
1563 -1139 0
1564 -1158 -1563 0
-1564 1158 0
-1564 1563 0
-1565 3 415 1564 0
1565 -3 0
1565 -415 0
1565 -1564 0
1566 -111 -1565 0
-1566 111 0
-1566 1565 0
-1567 122 1440 1562 1566 112 0
1567 -122 0
1567 -1440 0
1567 -1562 0
1567 -1566 0
1567 -112 0
1568 -158 -1567 0
-1568 158 0
-1568 1567 0
-1569 72 1483 1568 0
1569 -72 0
1569 -1483 0
1569 -1568 0
1570 -181 -1569 0
-1570 181 0
-1570 1569 0
1571 -1158 -1237 0
-1571 1158 0
-1571 1237 0
-1572 3 1571 0
1572 -3 0
1572 -1571 0
1573 -2 -1572 0
-1573 2 0
-1573 1572 0
-1574 103 1573 1501 75 410 411 0
1574 -103 0
1574 -1573 0
1574 -1501 0
1574 -75 0
1574 -410 0
1574 -411 0
1575 -189 -1574 0
-1575 189 0
-1575 1574 0
-1576 191 1575 0
1576 -191 0
1576 -1575 0
1577 -193 -1576 0
-1577 193 0
-1577 1576 0
-1578 247 1545 1553 146 148 154 1557 1561 1570 1577 0
1578 -247 0
1578 -1545 0
1578 -1553 0
1578 -146 0
1578 -148 0
1578 -154 0
1578 -1557 0
1578 -1561 0
1578 -1570 0
1578 -1577 0
1579 -273 -1578 0
-1579 273 0
-1579 1578 0
1580 -1431 -1533 0
-1580 1431 0
-1580 1533 0
-1581 39 1579 1580 4 0
1581 -39 0
1581 -1579 0
1581 -1580 0
1581 -4 0
1582 -41 -1581 0
-1582 41 0
-1582 1581 0
-1583 68 1582 200 201 1509 61 1536 0
1583 -68 0
1583 -1582 0
1583 -200 0
1583 -201 0
1583 -1509 0
1583 -61 0
1583 -1536 0
1584 -214 -1583 0
-1584 214 0
-1584 1583 0
-1585 29 210 1584 0
1585 -29 0
1585 -210 0
1585 -1584 0
1586 -31 -1585 0
-1586 31 0
-1586 1585 0
-1587 39 1579 1580 0
1587 -39 0
1587 -1579 0
1587 -1580 0
1588 -41 -1587 0
-1588 41 0
-1588 1587 0
-1589 68 1588 200 201 1509 61 1536 0
1589 -68 0
1589 -1588 0
1589 -200 0
1589 -201 0
1589 -1509 0
1589 -61 0
1589 -1536 0
1590 -98 -1589 0
-1590 98 0
-1590 1589 0
-1591 6 1590 0
1591 -6 0
1591 -1590 0
1592 -33 -1591 0
-1592 33 0
-1592 1591 0
-1593 35 1126 1543 7 10 1586 1592 0
1593 -35 0
1593 -1126 0
1593 -1543 0
1593 -7 0
1593 -10 0
1593 -1586 0
1593 -1592 0
1594 -224 -1593 0
-1594 224 0
-1594 1593 0
1595 -273 -1506 0
-1595 273 0
-1595 1506 0
1596 -1127 -1533 0
-1596 1127 0
-1596 1533 0
-1597 35 1596 7 10 226 32 0
1597 -35 0
1597 -1596 0
1597 -7 0
1597 -10 0
1597 -226 0
1597 -32 0
1598 -37 -1597 0
-1598 37 0
-1598 1597 0
-1599 39 1595 1580 4 1598 0
1599 -39 0
1599 -1595 0
1599 -1580 0
1599 -4 0
1599 -1598 0
1600 -41 -1599 0
-1600 41 0
-1600 1599 0
-1601 39 1595 1580 4 0
1601 -39 0
1601 -1595 0
1601 -1580 0
1601 -4 0
1602 -44 -1601 0
-1602 44 0
-1602 1601 0
-1603 35 1596 1602 7 10 226 32 0
1603 -35 0
1603 -1596 0
1603 -1602 0
1603 -7 0
1603 -10 0
1603 -226 0
1603 -32 0
1604 -47 -1603 0
-1604 47 0
-1604 1603 0
-1605 49 1604 0
1605 -49 0
1605 -1604 0
1606 -51 -1605 0
-1606 51 0
-1606 1605 0
-1607 35 1596 1602 10 226 32 0
1607 -35 0
1607 -1596 0
1607 -1602 0
1607 -10 0
1607 -226 0
1607 -32 0
1608 -54 -1607 0
-1608 54 0
-1608 1607 0
-1609 9 1608 0
1609 -9 0
1609 -1608 0
1610 -57 -1609 0
-1610 57 0
-1610 1609 0
1611 -44 -1581 0
-1611 44 0
-1611 1581 0
-1612 35 1596 1611 7 10 226 32 0
1612 -35 0
1612 -1596 0
1612 -1611 0
1612 -7 0
1612 -10 0
1612 -226 0
1612 -32 0
1613 -66 -1612 0
-1613 66 0
-1613 1612 0
-1614 68 1600 1606 1610 1509 61 1536 1613 0
1614 -68 0
1614 -1600 0
1614 -1606 0
1614 -1610 0
1614 -1509 0
1614 -61 0
1614 -1536 0
1614 -1613 0
1615 -242 -1614 0
-1615 242 0
-1615 1614 0
-1616 17 198 986 1594 1615 0
1616 -17 0
1616 -198 0
1616 -986 0
1616 -1594 0
1616 -1615 0
1617 -19 -1616 0
-1617 19 0
-1617 1616 0
-1618 21 1617 0
1618 -21 0
1618 -1617 0
1619 -1620 -1618 0
-1619 1620 0
-1619 1618 0
-1621 1622 667 1619 0
1621 -1622 0
1621 -667 0
1621 -1619 0
1623 -1621 -1624 0
-1623 1621 0
-1623 1624 0
1623 0
