c BC-S1.2
p cnf 157 409
1 -2 -3 0
-1 2 0
-1 3 0
-4 5 1 0
4 -5 0
4 -1 0
6 -7 -4 0
-6 7 0
-6 4 0
-8 9 6 0
8 -9 0
8 -6 0
10 -11 -8 0
-10 11 0
-10 8 0
12 -13 -4 0
-12 13 0
-12 4 0
14 -15 -3 0
-14 15 0
-14 3 0
16 -17 -18 0
-16 17 0
-16 18 0
-19 20 16 0
19 -20 0
19 -16 0
21 -22 -19 0
-21 22 0
-21 19 0
-23 24 12 14 21 0
23 -24 0
23 -12 0
23 -14 0
23 -21 0
25 -26 -23 0
-25 26 0
-25 23 0
27 -28 -3 0
-27 28 0
-27 3 0
29 -30 -18 0
-29 30 0
-29 18 0
31 -32 -4 0
-31 32 0
-31 4 0
33 -34 -18 0
-33 34 0
-33 18 0
-35 36 31 33 0
35 -36 0
35 -31 0
35 -33 0
37 -38 -35 0
-37 38 0
-37 35 0
-39 40 27 29 37 0
39 -40 0
39 -27 0
39 -29 0
39 -37 0
41 -42 -39 0
-41 42 0
-41 39 0
43 -44 -23 0
-43 44 0
-43 23 0
-45 46 43 0
45 -46 0
45 -43 0
47 -48 -45 0
-47 48 0
-47 45 0
49 -50 -3 0
-49 50 0
-49 3 0
-51 52 10 25 41 47 49 0
51 -52 0
51 -10 0
51 -25 0
51 -41 0
51 -47 0
51 -49 0
53 -54 -51 0
-53 54 0
-53 51 0
55 -11 -9 0
-55 11 0
-55 9 0
-56 52 55 25 41 47 49 0
56 -52 0
56 -55 0
56 -25 0
56 -41 0
56 -47 0
56 -49 0
57 -58 -56 0
-57 58 0
-57 56 0
-59 5 57 1 0
59 -5 0
59 -57 0
59 -1 0
60 -61 -59 0
-60 61 0
-60 59 0
-62 63 53 60 0
62 -63 0
62 -53 0
62 -60 0
64 -65 -62 0
-64 65 0
-64 62 0
66 -67 -63 0
-66 67 0
-66 63 0
-68 9 66 0
68 -9 0
68 -66 0
69 -11 -68 0
-69 11 0
-69 68 0
70 -48 -46 0
-70 48 0
-70 46 0
-71 52 69 41 70 49 0
71 -52 0
71 -69 0
71 -41 0
71 -70 0
71 -49 0
72 -58 -71 0
-72 58 0
-72 71 0
-73 5 72 1 0
73 -5 0
73 -72 0
73 -1 0
74 -13 -73 0
-74 13 0
-74 73 0
75 -61 -4 0
-75 61 0
-75 4 0
-76 63 75 0
76 -63 0
76 -75 0
77 -67 -76 0
-77 67 0
-77 76 0
-78 9 77 6 0
78 -9 0
78 -77 0
78 -6 0
79 -11 -78 0
-79 11 0
-79 78 0
-80 52 79 41 70 49 0
80 -52 0
80 -79 0
80 -41 0
80 -70 0
80 -49 0
81 -82 -80 0
-81 82 0
-81 80 0
-83 20 81 16 0
83 -20 0
83 -81 0
83 -16 0
84 -22 -83 0
-84 22 0
-84 83 0
-85 24 74 14 84 0
85 -24 0
85 -74 0
85 -14 0
85 -84 0
86 -87 -85 0
-86 87 0
-86 85 0
-88 52 79 25 41 47 49 0
88 -52 0
88 -79 0
88 -25 0
88 -41 0
88 -47 0
88 -49 0
89 -90 -88 0
-89 90 0
-89 88 0
91 -92 -3 0
-91 92 0
-91 3 0
-93 52 69 41 49 0
93 -52 0
93 -69 0
93 -41 0
93 -49 0
94 -58 -93 0
-94 58 0
-94 93 0
-95 5 94 1 0
95 -5 0
95 -94 0
95 -1 0
96 -13 -95 0
-96 13 0
-96 95 0
-97 52 79 41 49 0
97 -52 0
97 -79 0
97 -41 0
97 -49 0
98 -82 -97 0
-98 82 0
-98 97 0
-99 20 98 16 0
99 -20 0
99 -98 0
99 -16 0
100 -22 -99 0
-100 22 0
-100 99 0
-101 24 96 14 100 0
101 -24 0
101 -96 0
101 -14 0
101 -100 0
102 -44 -101 0
-102 44 0
-102 101 0
-103 46 102 0
103 -46 0
103 -102 0
104 -105 -103 0
-104 105 0
-104 103 0
-106 52 69 25 47 49 0
106 -52 0
106 -69 0
106 -25 0
106 -47 0
106 -49 0
107 -58 -106 0
-107 58 0
-107 106 0
-108 5 107 1 0
108 -5 0
108 -107 0
108 -1 0
109 -32 -108 0
-109 32 0
-109 108 0
-110 36 109 33 0
110 -36 0
110 -109 0
110 -33 0
111 -38 -110 0
-111 38 0
-111 110 0
-112 40 27 29 111 0
112 -40 0
112 -27 0
112 -29 0
112 -111 0
113 -114 -112 0
-113 114 0
-113 112 0
-115 116 64 86 89 91 104 113 0
115 -116 0
115 -64 0
115 -86 0
115 -89 0
115 -91 0
115 -104 0
115 -113 0
117 -118 -115 0
-117 118 0
-117 115 0
119 -65 -63 0
-119 65 0
-119 63 0
120 -87 -23 0
-120 87 0
-120 23 0
121 -105 -45 0
-121 105 0
-121 45 0
-122 116 119 120 91 121 0
122 -116 0
122 -119 0
122 -120 0
122 -91 0
122 -121 0
123 -124 -122 0
-123 124 0
-123 122 0
-125 9 66 123 0
125 -9 0
125 -66 0
125 -123 0
126 -11 -125 0
-126 11 0
-126 125 0
-127 52 126 25 47 49 0
127 -52 0
127 -126 0
127 -25 0
127 -47 0
127 -49 0
128 -58 -127 0
-128 58 0
-128 127 0
-129 5 128 1 0
129 -5 0
129 -128 0
129 -1 0
130 -32 -129 0
-130 32 0
-130 129 0
-131 36 130 33 0
131 -36 0
131 -130 0
131 -33 0
132 -38 -131 0
-132 38 0
-132 131 0
-133 40 27 29 132 0
133 -40 0
133 -27 0
133 -29 0
133 -132 0
134 -135 -133 0
-134 135 0
-134 133 0
136 -65 -76 0
-136 65 0
-136 76 0
-137 24 12 14 0
137 -24 0
137 -12 0
137 -14 0
138 -87 -137 0
-138 87 0
-138 137 0
139 -44 -137 0
-139 44 0
-139 137 0
-140 46 139 0
140 -46 0
140 -139 0
141 -105 -140 0
-141 105 0
-141 140 0
142 -114 -39 0
-142 114 0
-142 39 0
-143 116 136 138 91 141 142 0
143 -116 0
143 -136 0
143 -138 0
143 -91 0
143 -141 0
143 -142 0
144 -124 -143 0
-144 124 0
-144 143 0
-145 9 77 144 6 0
145 -9 0
145 -77 0
145 -144 0
145 -6 0
146 -11 -145 0
-146 11 0
-146 145 0
147 -26 -137 0
-147 26 0
-147 137 0
148 -48 -140 0
-148 48 0
-148 140 0
-149 52 146 147 41 148 49 0
149 -52 0
149 -146 0
149 -147 0
149 -41 0
149 -148 0
149 -49 0
150 -82 -149 0
-150 82 0
-150 149 0
-151 20 150 16 0
151 -20 0
151 -150 0
151 -16 0
152 -153 -151 0
-152 153 0
-152 151 0
-154 155 117 134 152 0
154 -155 0
154 -117 0
154 -134 0
154 -152 0
156 -154 -157 0
-156 154 0
-156 157 0
156 0
