c BC-S1.2
p cnf 646 2099
1 -2 -3 0
-1 2 0
-1 3 0
4 -5 -6 0
-4 5 0
-4 6 0
-7 8 1 4 0
7 -8 0
7 -1 0
7 -4 0
9 -10 -7 0
-9 10 0
-9 7 0
11 -12 -3 0
-11 12 0
-11 3 0
13 -14 -7 0
-13 14 0
-13 7 0
15 -16 -7 0
-15 16 0
-15 7 0
17 -18 -6 0
-17 18 0
-17 6 0
19 -20 -21 0
-19 20 0
-19 21 0
22 -23 -3 0
-22 23 0
-22 3 0
24 -25 -7 0
-24 25 0
-24 7 0
-26 27 24 0
26 -27 0
26 -24 0
28 -29 -26 0
-28 29 0
-28 26 0
-30 31 22 28 0
30 -31 0
30 -22 0
30 -28 0
32 -33 -30 0
-32 33 0
-32 30 0
34 -35 -6 0
-34 35 0
-34 6 0
36 -37 -6 0
-36 37 0
-36 6 0
38 -39 -3 0
-38 39 0
-38 3 0
40 -41 -42 0
-40 41 0
-40 42 0
43 -44 -3 0
-43 44 0
-43 3 0
45 -46 -7 0
-45 46 0
-45 7 0
47 -48 -7 0
-47 48 0
-47 7 0
-49 50 47 0
49 -50 0
49 -47 0
51 -52 -49 0
-51 52 0
-51 49 0
-53 54 45 51 0
53 -54 0
53 -45 0
53 -51 0
55 -56 -53 0
-55 56 0
-55 53 0
-57 58 43 55 0
57 -58 0
57 -43 0
57 -55 0
59 -60 -57 0
-59 60 0
-59 57 0
-61 62 38 40 59 0
61 -62 0
61 -38 0
61 -40 0
61 -59 0
63 -64 -61 0
-63 64 0
-63 61 0
-65 66 36 63 0
65 -66 0
65 -36 0
65 -63 0
67 -68 -65 0
-67 68 0
-67 65 0
-69 70 34 67 0
69 -70 0
69 -34 0
69 -67 0
71 -72 -69 0
-71 72 0
-71 69 0
-73 74 15 17 19 32 71 0
73 -74 0
73 -15 0
73 -17 0
73 -19 0
73 -32 0
73 -71 0
75 -76 -73 0
-75 76 0
-75 73 0
77 -78 -21 0
-77 78 0
-77 21 0
-79 80 75 77 0
79 -80 0
79 -75 0
79 -77 0
81 -82 -79 0
-81 82 0
-81 79 0
-83 84 13 81 0
83 -84 0
83 -13 0
83 -81 0
85 -86 -83 0
-85 86 0
-85 83 0
-87 84 13 0
87 -84 0
87 -13 0
88 -89 -87 0
-88 89 0
-88 87 0
-90 62 38 59 0
90 -62 0
90 -38 0
90 -59 0
91 -64 -90 0
-91 64 0
-91 90 0
-92 66 88 36 91 0
92 -66 0
92 -88 0
92 -36 0
92 -91 0
93 -68 -92 0
-93 68 0
-93 92 0
-94 70 34 93 0
94 -70 0
94 -34 0
94 -93 0
95 -72 -94 0
-95 72 0
-95 94 0
-96 74 15 17 19 32 95 0
96 -74 0
96 -15 0
96 -17 0
96 -19 0
96 -32 0
96 -95 0
97 -76 -96 0
-97 76 0
-97 96 0
-98 80 97 77 0
98 -80 0
98 -97 0
98 -77 0
99 -100 -98 0
-99 100 0
-99 98 0
-101 42 99 0
101 -42 0
101 -99 0
102 -103 -101 0
-102 103 0
-102 101 0
-104 105 11 85 102 0
104 -105 0
104 -11 0
104 -85 0
104 -102 0
106 -107 -104 0
-106 107 0
-106 104 0
-108 109 106 0
108 -109 0
108 -106 0
110 -111 -108 0
-110 111 0
-110 108 0
112 -113 -26 0
-112 113 0
-112 26 0
114 -115 -6 0
-114 115 0
-114 6 0
116 -117 -21 0
-116 117 0
-116 21 0
118 -119 -3 0
-118 119 0
-118 3 0
120 -121 -21 0
-120 121 0
-120 21 0
-122 123 118 120 0
122 -123 0
122 -118 0
122 -120 0
124 -125 -122 0
-124 125 0
-124 122 0
126 -103 -42 0
-126 103 0
-126 42 0
-127 105 11 126 0
127 -105 0
127 -11 0
127 -126 0
128 -129 -127 0
-128 129 0
-128 127 0
-130 80 128 77 0
130 -80 0
130 -128 0
130 -77 0
131 -82 -130 0
-131 82 0
-131 130 0
-132 84 13 131 0
132 -84 0
132 -13 0
132 -131 0
133 -89 -132 0
-133 89 0
-133 132 0
-134 80 77 0
134 -80 0
134 -77 0
135 -82 -134 0
-135 82 0
-135 134 0
-136 84 13 135 0
136 -84 0
136 -13 0
136 -135 0
137 -86 -136 0
-137 86 0
-137 136 0
138 -100 -134 0
-138 100 0
-138 134 0
-139 42 138 0
139 -42 0
139 -138 0
140 -103 -139 0
-140 103 0
-140 139 0
-141 105 11 137 140 0
141 -105 0
141 -11 0
141 -137 0
141 -140 0
142 -107 -141 0
-142 107 0
-142 141 0
-143 109 142 0
143 -109 0
143 -142 0
144 -145 -143 0
-144 145 0
-144 143 0
146 -86 -87 0
-146 86 0
-146 87 0
-147 105 11 146 126 0
147 -105 0
147 -11 0
147 -146 0
147 -126 0
148 -129 -147 0
-148 129 0
-148 147 0
-149 80 148 77 0
149 -80 0
149 -148 0
149 -77 0
150 -100 -149 0
-150 100 0
-150 149 0
-151 42 150 0
151 -42 0
151 -150 0
152 -41 -151 0
-152 41 0
-152 151 0
-153 58 43 0
153 -58 0
153 -43 0
154 -60 -153 0
-154 60 0
-154 153 0
-155 62 38 144 152 154 0
155 -62 0
155 -38 0
155 -144 0
155 -152 0
155 -154 0
156 -64 -155 0
-156 64 0
-156 155 0
-157 66 133 36 156 0
157 -66 0
157 -133 0
157 -36 0
157 -156 0
158 -68 -157 0
-158 68 0
-158 157 0
-159 70 34 158 0
159 -70 0
159 -34 0
159 -158 0
160 -72 -159 0
-160 72 0
-160 159 0
-161 74 15 17 19 32 160 0
161 -74 0
161 -15 0
161 -17 0
161 -19 0
161 -32 0
161 -160 0
162 -163 -161 0
-162 163 0
-162 161 0
-164 50 47 162 0
164 -50 0
164 -47 0
164 -162 0
165 -52 -164 0
-165 52 0
-165 164 0
-166 54 45 165 0
166 -54 0
166 -45 0
166 -165 0
167 -168 -166 0
-167 168 0
-167 166 0
-169 170 167 0
169 -170 0
169 -167 0
171 -172 -169 0
-171 172 0
-171 169 0
-173 174 9 110 112 114 116 124 171 0
173 -174 0
173 -9 0
173 -110 0
173 -112 0
173 -114 0
173 -116 0
173 -124 0
173 -171 0
175 -176 -173 0
-175 176 0
-175 173 0
177 -111 -143 0
-177 111 0
-177 143 0
178 -172 -170 0
-178 172 0
-178 170 0
-179 174 9 177 112 114 116 124 178 0
179 -174 0
179 -9 0
179 -177 0
179 -112 0
179 -114 0
179 -116 0
179 -124 0
179 -178 0
180 -181 -179 0
-180 181 0
-180 179 0
-182 105 11 140 0
182 -105 0
182 -11 0
182 -140 0
183 -107 -182 0
-183 107 0
-183 182 0
-184 109 183 0
184 -109 0
184 -183 0
185 -111 -184 0
-185 111 0
-185 184 0
-186 174 9 185 112 114 116 124 178 0
186 -174 0
186 -9 0
186 -185 0
186 -112 0
186 -114 0
186 -116 0
186 -124 0
186 -178 0
187 -188 -186 0
-187 188 0
-187 186 0
-189 84 187 13 131 0
189 -84 0
189 -187 0
189 -13 0
189 -131 0
190 -89 -189 0
-190 89 0
-190 189 0
191 -192 -179 0
-191 192 0
-191 179 0
-193 174 9 112 114 116 124 178 0
193 -174 0
193 -9 0
193 -112 0
193 -114 0
193 -116 0
193 -124 0
193 -178 0
194 -188 -193 0
-194 188 0
-194 193 0
-195 84 194 13 135 0
195 -84 0
195 -194 0
195 -13 0
195 -135 0
196 -86 -195 0
-196 86 0
-196 195 0
-197 105 11 196 140 0
197 -105 0
197 -11 0
197 -196 0
197 -140 0
198 -107 -197 0
-198 107 0
-198 197 0
-199 109 198 0
199 -109 0
199 -198 0
200 -145 -199 0
-200 145 0
-200 199 0
201 -111 -109 0
-201 111 0
-201 109 0
-202 174 9 201 112 114 116 124 178 0
202 -174 0
202 -9 0
202 -201 0
202 -112 0
202 -114 0
202 -116 0
202 -124 0
202 -178 0
203 -188 -202 0
-203 188 0
-203 202 0
-204 84 203 13 0
204 -84 0
204 -203 0
204 -13 0
205 -86 -204 0
-205 86 0
-205 204 0
-206 105 11 205 126 0
206 -105 0
206 -11 0
206 -205 0
206 -126 0
207 -129 -206 0
-207 129 0
-207 206 0
-208 80 207 77 0
208 -80 0
208 -207 0
208 -77 0
209 -100 -208 0
-209 100 0
-209 208 0
-210 42 209 0
210 -42 0
210 -209 0
211 -41 -210 0
-211 41 0
-211 210 0
-212 62 38 191 200 211 154 0
212 -62 0
212 -38 0
212 -191 0
212 -200 0
212 -211 0
212 -154 0
213 -64 -212 0
-213 64 0
-213 212 0
-214 66 190 36 213 0
214 -66 0
214 -190 0
214 -36 0
214 -213 0
215 -68 -214 0
-215 68 0
-215 214 0
-216 70 34 215 0
216 -70 0
216 -34 0
216 -215 0
217 -72 -216 0
-217 72 0
-217 216 0
-218 74 180 15 17 19 32 217 0
218 -74 0
218 -180 0
218 -15 0
218 -17 0
218 -19 0
218 -32 0
218 -217 0
219 -163 -218 0
-219 163 0
-219 218 0
-220 50 47 219 0
220 -50 0
220 -47 0
220 -219 0
221 -52 -220 0
-221 52 0
-221 220 0
-222 54 45 221 0
222 -54 0
222 -45 0
222 -221 0
223 -224 -222 0
-223 224 0
-223 222 0
225 -226 -7 0
-225 226 0
-225 7 0
227 -228 -26 0
-227 228 0
-227 26 0
-229 54 45 0
229 -54 0
229 -45 0
230 -168 -229 0
-230 168 0
-230 229 0
-231 170 230 0
231 -170 0
231 -230 0
232 -172 -231 0
-232 172 0
-232 231 0
-233 174 9 177 112 114 116 124 232 0
233 -174 0
233 -9 0
233 -177 0
233 -112 0
233 -114 0
233 -116 0
233 -124 0
233 -232 0
234 -181 -233 0
-234 181 0
-234 233 0
-235 174 9 185 112 114 116 124 232 0
235 -174 0
235 -9 0
235 -185 0
235 -112 0
235 -114 0
235 -116 0
235 -124 0
235 -232 0
236 -188 -235 0
-236 188 0
-236 235 0
-237 84 236 13 131 0
237 -84 0
237 -236 0
237 -13 0
237 -131 0
238 -89 -237 0
-238 89 0
-238 237 0
239 -192 -233 0
-239 192 0
-239 233 0
-240 174 9 112 114 116 124 232 0
240 -174 0
240 -9 0
240 -112 0
240 -114 0
240 -116 0
240 -124 0
240 -232 0
241 -188 -240 0
-241 188 0
-241 240 0
-242 84 241 13 135 0
242 -84 0
242 -241 0
242 -13 0
242 -135 0
243 -86 -242 0
-243 86 0
-243 242 0
-244 105 11 243 140 0
244 -105 0
244 -11 0
244 -243 0
244 -140 0
245 -107 -244 0
-245 107 0
-245 244 0
-246 109 245 0
246 -109 0
246 -245 0
247 -145 -246 0
-247 145 0
-247 246 0
-248 174 9 201 112 114 116 124 232 0
248 -174 0
248 -9 0
248 -201 0
248 -112 0
248 -114 0
248 -116 0
248 -124 0
248 -232 0
249 -188 -248 0
-249 188 0
-249 248 0
-250 84 249 13 0
250 -84 0
250 -249 0
250 -13 0
251 -86 -250 0
-251 86 0
-251 250 0
-252 105 11 251 126 0
252 -105 0
252 -11 0
252 -251 0
252 -126 0
253 -129 -252 0
-253 129 0
-253 252 0
-254 80 253 77 0
254 -80 0
254 -253 0
254 -77 0
255 -100 -254 0
-255 100 0
-255 254 0
-256 42 255 0
256 -42 0
256 -255 0
257 -41 -256 0
-257 41 0
-257 256 0
258 -56 -229 0
-258 56 0
-258 229 0
-259 58 43 258 0
259 -58 0
259 -43 0
259 -258 0
260 -60 -259 0
-260 60 0
-260 259 0
-261 62 38 239 247 257 260 0
261 -62 0
261 -38 0
261 -239 0
261 -247 0
261 -257 0
261 -260 0
262 -64 -261 0
-262 64 0
-262 261 0
-263 66 238 36 262 0
263 -66 0
263 -238 0
263 -36 0
263 -262 0
264 -68 -263 0
-264 68 0
-264 263 0
-265 70 34 264 0
265 -70 0
265 -34 0
265 -264 0
266 -72 -265 0
-266 72 0
-266 265 0
-267 74 234 15 17 19 32 266 0
267 -74 0
267 -234 0
267 -15 0
267 -17 0
267 -19 0
267 -32 0
267 -266 0
268 -163 -267 0
-268 163 0
-268 267 0
-269 50 47 268 0
269 -50 0
269 -47 0
269 -268 0
270 -271 -269 0
-270 271 0
-270 269 0
272 -41 -139 0
-272 41 0
-272 139 0
-273 62 38 272 154 0
273 -62 0
273 -38 0
273 -272 0
273 -154 0
274 -64 -273 0
-274 64 0
-274 273 0
-275 66 36 274 0
275 -66 0
275 -36 0
275 -274 0
276 -68 -275 0
-276 68 0
-276 275 0
-277 70 34 276 0
277 -70 0
277 -34 0
277 -276 0
278 -72 -277 0
-278 72 0
-278 277 0
-279 74 15 17 19 32 278 0
279 -74 0
279 -15 0
279 -17 0
279 -19 0
279 -32 0
279 -278 0
280 -163 -279 0
-280 163 0
-280 279 0
-281 50 47 280 0
281 -50 0
281 -47 0
281 -280 0
282 -52 -281 0
-282 52 0
-282 281 0
-283 54 45 282 0
283 -54 0
283 -45 0
283 -282 0
284 -168 -283 0
-284 168 0
-284 283 0
-285 170 284 0
285 -170 0
285 -284 0
286 -172 -285 0
-286 172 0
-286 285 0
-287 174 9 112 114 116 124 286 0
287 -174 0
287 -9 0
287 -112 0
287 -114 0
287 -116 0
287 -124 0
287 -286 0
288 -188 -287 0
-288 188 0
-288 287 0
289 -168 -53 0
-289 168 0
-289 53 0
-290 170 289 0
290 -170 0
290 -289 0
291 -172 -290 0
-291 172 0
-291 290 0
-292 174 9 112 114 116 124 291 0
292 -174 0
292 -9 0
292 -112 0
292 -114 0
292 -116 0
292 -124 0
292 -291 0
293 -181 -292 0
-293 181 0
-293 292 0
294 -192 -292 0
-294 192 0
-294 292 0
-295 62 38 294 40 59 0
295 -62 0
295 -38 0
295 -294 0
295 -40 0
295 -59 0
296 -64 -295 0
-296 64 0
-296 295 0
-297 66 36 296 0
297 -66 0
297 -36 0
297 -296 0
298 -68 -297 0
-298 68 0
-298 297 0
-299 70 34 298 0
299 -70 0
299 -34 0
299 -298 0
300 -72 -299 0
-300 72 0
-300 299 0
-301 74 293 15 17 19 32 300 0
301 -74 0
301 -293 0
301 -15 0
301 -17 0
301 -19 0
301 -32 0
301 -300 0
302 -76 -301 0
-302 76 0
-302 301 0
-303 80 302 77 0
303 -80 0
303 -302 0
303 -77 0
304 -82 -303 0
-304 82 0
-304 303 0
-305 84 288 13 304 0
305 -84 0
305 -288 0
305 -13 0
305 -304 0
306 -86 -305 0
-306 86 0
-306 305 0
307 -188 -292 0
-307 188 0
-307 292 0
-308 84 307 13 0
308 -84 0
308 -307 0
308 -13 0
309 -89 -308 0
-309 89 0
-309 308 0
-310 62 38 294 59 0
310 -62 0
310 -38 0
310 -294 0
310 -59 0
311 -64 -310 0
-311 64 0
-311 310 0
-312 66 309 36 311 0
312 -66 0
312 -309 0
312 -36 0
312 -311 0
313 -68 -312 0
-313 68 0
-313 312 0
-314 70 34 313 0
314 -70 0
314 -34 0
314 -313 0
315 -72 -314 0
-315 72 0
-315 314 0
-316 74 293 15 17 19 32 315 0
316 -74 0
316 -293 0
316 -15 0
316 -17 0
316 -19 0
316 -32 0
316 -315 0
317 -76 -316 0
-317 76 0
-317 316 0
-318 80 317 77 0
318 -80 0
318 -317 0
318 -77 0
319 -100 -318 0
-319 100 0
-319 318 0
-320 42 319 0
320 -42 0
320 -319 0
321 -103 -320 0
-321 103 0
-321 320 0
-322 105 11 306 321 0
322 -105 0
322 -11 0
322 -306 0
322 -321 0
323 -107 -322 0
-323 107 0
-323 322 0
-324 109 323 0
324 -109 0
324 -323 0
325 -326 -324 0
-325 326 0
-325 324 0
327 -328 -6 0
-327 328 0
-327 6 0
-329 330 325 327 0
329 -330 0
329 -325 0
329 -327 0
331 -332 -329 0
-331 332 0
-331 329 0
333 -334 -222 0
-333 334 0
-333 222 0
335 -336 -6 0
-335 336 0
-335 6 0
-337 338 333 335 0
337 -338 0
337 -333 0
337 -335 0
339 -340 -337 0
-339 340 0
-339 337 0
-341 174 9 177 112 114 116 124 0
341 -174 0
341 -9 0
341 -177 0
341 -112 0
341 -114 0
341 -116 0
341 -124 0
342 -181 -341 0
-342 181 0
-342 341 0
-343 174 9 185 112 114 116 124 0
343 -174 0
343 -9 0
343 -185 0
343 -112 0
343 -114 0
343 -116 0
343 -124 0
344 -188 -343 0
-344 188 0
-344 343 0
-345 84 344 13 131 0
345 -84 0
345 -344 0
345 -13 0
345 -131 0
346 -89 -345 0
-346 89 0
-346 345 0
347 -192 -341 0
-347 192 0
-347 341 0
-348 174 9 112 114 116 124 0
348 -174 0
348 -9 0
348 -112 0
348 -114 0
348 -116 0
348 -124 0
349 -188 -348 0
-349 188 0
-349 348 0
-350 84 349 13 135 0
350 -84 0
350 -349 0
350 -13 0
350 -135 0
351 -86 -350 0
-351 86 0
-351 350 0
-352 105 11 351 140 0
352 -105 0
352 -11 0
352 -351 0
352 -140 0
353 -107 -352 0
-353 107 0
-353 352 0
-354 109 353 0
354 -109 0
354 -353 0
355 -145 -354 0
-355 145 0
-355 354 0
-356 174 9 201 112 114 116 124 0
356 -174 0
356 -9 0
356 -201 0
356 -112 0
356 -114 0
356 -116 0
356 -124 0
357 -188 -356 0
-357 188 0
-357 356 0
-358 84 357 13 0
358 -84 0
358 -357 0
358 -13 0
359 -86 -358 0
-359 86 0
-359 358 0
-360 105 11 359 126 0
360 -105 0
360 -11 0
360 -359 0
360 -126 0
361 -129 -360 0
-361 129 0
-361 360 0
-362 80 361 77 0
362 -80 0
362 -361 0
362 -77 0
363 -100 -362 0
-363 100 0
-363 362 0
-364 42 363 0
364 -42 0
364 -363 0
365 -41 -364 0
-365 41 0
-365 364 0
-366 62 38 347 355 365 154 0
366 -62 0
366 -38 0
366 -347 0
366 -355 0
366 -365 0
366 -154 0
367 -64 -366 0
-367 64 0
-367 366 0
-368 66 346 36 367 0
368 -66 0
368 -346 0
368 -36 0
368 -367 0
369 -68 -368 0
-369 68 0
-369 368 0
-370 70 34 369 0
370 -70 0
370 -34 0
370 -369 0
371 -72 -370 0
-371 72 0
-371 370 0
-372 74 342 15 17 19 32 371 0
372 -74 0
372 -342 0
372 -15 0
372 -17 0
372 -19 0
372 -32 0
372 -371 0
373 -163 -372 0
-373 163 0
-373 372 0
-374 50 47 373 0
374 -50 0
374 -47 0
374 -373 0
375 -52 -374 0
-375 52 0
-375 374 0
-376 54 45 375 0
376 -54 0
376 -45 0
376 -375 0
377 -168 -376 0
-377 168 0
-377 376 0
-378 170 377 0
378 -170 0
378 -377 0
379 -380 -378 0
-379 380 0
-379 378 0
-381 382 175 223 225 227 270 331 339 379 0
381 -382 0
381 -175 0
381 -223 0
381 -225 0
381 -227 0
381 -270 0
381 -331 0
381 -339 0
381 -379 0
383 -384 -381 0
-383 384 0
-383 381 0
385 -29 -27 0
-385 29 0
-385 27 0
-386 31 22 385 0
386 -31 0
386 -22 0
386 -385 0
387 -33 -386 0
-387 33 0
-387 386 0
388 -52 -50 0
-388 52 0
-388 50 0
-389 54 388 0
389 -54 0
389 -388 0
390 -56 -389 0
-390 56 0
-390 389 0
-391 58 43 390 0
391 -58 0
391 -43 0
391 -390 0
392 -60 -391 0
-392 60 0
-392 391 0
-393 62 38 40 392 0
393 -62 0
393 -38 0
393 -40 0
393 -392 0
394 -64 -393 0
-394 64 0
-394 393 0
-395 66 36 394 0
395 -66 0
395 -36 0
395 -394 0
396 -68 -395 0
-396 68 0
-396 395 0
-397 70 34 396 0
397 -70 0
397 -34 0
397 -396 0
398 -72 -397 0
-398 72 0
-398 397 0
-399 74 17 19 387 398 0
399 -74 0
399 -17 0
399 -19 0
399 -387 0
399 -398 0
400 -76 -399 0
-400 76 0
-400 399 0
-401 80 400 77 0
401 -80 0
401 -400 0
401 -77 0
402 -82 -401 0
-402 82 0
-402 401 0
-403 84 402 0
403 -84 0
403 -402 0
404 -86 -403 0
-404 86 0
-404 403 0
405 -89 -84 0
-405 89 0
-405 84 0
-406 62 38 392 0
406 -62 0
406 -38 0
406 -392 0
407 -64 -406 0
-407 64 0
-407 406 0
-408 66 405 36 407 0
408 -66 0
408 -405 0
408 -36 0
408 -407 0
409 -68 -408 0
-409 68 0
-409 408 0
-410 70 34 409 0
410 -70 0
410 -34 0
410 -409 0
411 -72 -410 0
-411 72 0
-411 410 0
-412 74 17 19 387 411 0
412 -74 0
412 -17 0
412 -19 0
412 -387 0
412 -411 0
413 -76 -412 0
-413 76 0
-413 412 0
-414 80 413 77 0
414 -80 0
414 -413 0
414 -77 0
415 -100 -414 0
-415 100 0
-415 414 0
-416 42 415 0
416 -42 0
416 -415 0
417 -103 -416 0
-417 103 0
-417 416 0
-418 105 11 404 417 0
418 -105 0
418 -11 0
418 -404 0
418 -417 0
419 -107 -418 0
-419 107 0
-419 418 0
-420 109 419 0
420 -109 0
420 -419 0
421 -111 -420 0
-421 111 0
-421 420 0
422 -113 -27 0
-422 113 0
-422 27 0
-423 84 131 0
423 -84 0
423 -131 0
424 -89 -423 0
-424 89 0
-424 423 0
-425 84 135 0
425 -84 0
425 -135 0
426 -86 -425 0
-426 86 0
-426 425 0
-427 105 11 426 140 0
427 -105 0
427 -11 0
427 -426 0
427 -140 0
428 -107 -427 0
-428 107 0
-428 427 0
-429 109 428 0
429 -109 0
429 -428 0
430 -145 -429 0
-430 145 0
-430 429 0
431 -86 -84 0
-431 86 0
-431 84 0
-432 105 11 431 126 0
432 -105 0
432 -11 0
432 -431 0
432 -126 0
433 -129 -432 0
-433 129 0
-433 432 0
-434 80 433 77 0
434 -80 0
434 -433 0
434 -77 0
435 -100 -434 0
-435 100 0
-435 434 0
-436 42 435 0
436 -42 0
436 -435 0
437 -41 -436 0
-437 41 0
-437 436 0
-438 62 38 430 437 154 0
438 -62 0
438 -38 0
438 -430 0
438 -437 0
438 -154 0
439 -64 -438 0
-439 64 0
-439 438 0
-440 66 424 36 439 0
440 -66 0
440 -424 0
440 -36 0
440 -439 0
441 -68 -440 0
-441 68 0
-441 440 0
-442 70 34 441 0
442 -70 0
442 -34 0
442 -441 0
443 -72 -442 0
-443 72 0
-443 442 0
-444 74 17 19 387 443 0
444 -74 0
444 -17 0
444 -19 0
444 -387 0
444 -443 0
445 -163 -444 0
-445 163 0
-445 444 0
-446 50 445 0
446 -50 0
446 -445 0
447 -52 -446 0
-447 52 0
-447 446 0
-448 54 447 0
448 -54 0
448 -447 0
449 -168 -448 0
-449 168 0
-449 448 0
-450 170 449 0
450 -170 0
450 -449 0
451 -172 -450 0
-451 172 0
-451 450 0
-452 174 421 422 114 116 124 451 0
452 -174 0
452 -421 0
452 -422 0
452 -114 0
452 -116 0
452 -124 0
452 -451 0
453 -176 -452 0
-453 176 0
-453 452 0
454 -111 -429 0
-454 111 0
-454 429 0
-455 174 454 422 114 116 124 178 0
455 -174 0
455 -454 0
455 -422 0
455 -114 0
455 -116 0
455 -124 0
455 -178 0
456 -181 -455 0
-456 181 0
-456 455 0
-457 174 185 422 114 116 124 178 0
457 -174 0
457 -185 0
457 -422 0
457 -114 0
457 -116 0
457 -124 0
457 -178 0
458 -188 -457 0
-458 188 0
-458 457 0
-459 84 458 131 0
459 -84 0
459 -458 0
459 -131 0
460 -89 -459 0
-460 89 0
-460 459 0
461 -192 -455 0
-461 192 0
-461 455 0
-462 174 422 114 116 124 178 0
462 -174 0
462 -422 0
462 -114 0
462 -116 0
462 -124 0
462 -178 0
463 -188 -462 0
-463 188 0
-463 462 0
-464 84 463 135 0
464 -84 0
464 -463 0
464 -135 0
465 -86 -464 0
-465 86 0
-465 464 0
-466 105 11 465 140 0
466 -105 0
466 -11 0
466 -465 0
466 -140 0
467 -107 -466 0
-467 107 0
-467 466 0
-468 109 467 0
468 -109 0
468 -467 0
469 -145 -468 0
-469 145 0
-469 468 0
-470 174 201 422 114 116 124 178 0
470 -174 0
470 -201 0
470 -422 0
470 -114 0
470 -116 0
470 -124 0
470 -178 0
471 -188 -470 0
-471 188 0
-471 470 0
-472 84 471 0
472 -84 0
472 -471 0
473 -86 -472 0
-473 86 0
-473 472 0
-474 105 11 473 126 0
474 -105 0
474 -11 0
474 -473 0
474 -126 0
475 -129 -474 0
-475 129 0
-475 474 0
-476 80 475 77 0
476 -80 0
476 -475 0
476 -77 0
477 -100 -476 0
-477 100 0
-477 476 0
-478 42 477 0
478 -42 0
478 -477 0
479 -41 -478 0
-479 41 0
-479 478 0
-480 62 38 461 469 479 154 0
480 -62 0
480 -38 0
480 -461 0
480 -469 0
480 -479 0
480 -154 0
481 -64 -480 0
-481 64 0
-481 480 0
-482 66 460 36 481 0
482 -66 0
482 -460 0
482 -36 0
482 -481 0
483 -68 -482 0
-483 68 0
-483 482 0
-484 70 34 483 0
484 -70 0
484 -34 0
484 -483 0
485 -72 -484 0
-485 72 0
-485 484 0
-486 74 456 17 19 387 485 0
486 -74 0
486 -456 0
486 -17 0
486 -19 0
486 -387 0
486 -485 0
487 -163 -486 0
-487 163 0
-487 486 0
-488 50 487 0
488 -50 0
488 -487 0
489 -52 -488 0
-489 52 0
-489 488 0
-490 54 489 0
490 -54 0
490 -489 0
491 -224 -490 0
-491 224 0
-491 490 0
492 -228 -27 0
-492 228 0
-492 27 0
493 -168 -54 0
-493 168 0
-493 54 0
-494 170 493 0
494 -170 0
494 -493 0
495 -172 -494 0
-495 172 0
-495 494 0
-496 174 454 422 114 116 124 495 0
496 -174 0
496 -454 0
496 -422 0
496 -114 0
496 -116 0
496 -124 0
496 -495 0
497 -181 -496 0
-497 181 0
-497 496 0
-498 174 185 422 114 116 124 495 0
498 -174 0
498 -185 0
498 -422 0
498 -114 0
498 -116 0
498 -124 0
498 -495 0
499 -188 -498 0
-499 188 0
-499 498 0
-500 84 499 131 0
500 -84 0
500 -499 0
500 -131 0
501 -89 -500 0
-501 89 0
-501 500 0
502 -192 -496 0
-502 192 0
-502 496 0
-503 174 422 114 116 124 495 0
503 -174 0
503 -422 0
503 -114 0
503 -116 0
503 -124 0
503 -495 0
504 -188 -503 0
-504 188 0
-504 503 0
-505 84 504 135 0
505 -84 0
505 -504 0
505 -135 0
506 -86 -505 0
-506 86 0
-506 505 0
-507 105 11 506 140 0
507 -105 0
507 -11 0
507 -506 0
507 -140 0
508 -107 -507 0
-508 107 0
-508 507 0
-509 109 508 0
509 -109 0
509 -508 0
510 -145 -509 0
-510 145 0
-510 509 0
-511 174 201 422 114 116 124 495 0
511 -174 0
511 -201 0
511 -422 0
511 -114 0
511 -116 0
511 -124 0
511 -495 0
512 -188 -511 0
-512 188 0
-512 511 0
-513 84 512 0
513 -84 0
513 -512 0
514 -86 -513 0
-514 86 0
-514 513 0
-515 105 11 514 126 0
515 -105 0
515 -11 0
515 -514 0
515 -126 0
516 -129 -515 0
-516 129 0
-516 515 0
-517 80 516 77 0
517 -80 0
517 -516 0
517 -77 0
518 -100 -517 0
-518 100 0
-518 517 0
-519 42 518 0
519 -42 0
519 -518 0
520 -41 -519 0
-520 41 0
-520 519 0
521 -56 -54 0
-521 56 0
-521 54 0
-522 58 43 521 0
522 -58 0
522 -43 0
522 -521 0
523 -60 -522 0
-523 60 0
-523 522 0
-524 62 38 502 510 520 523 0
524 -62 0
524 -38 0
524 -502 0
524 -510 0
524 -520 0
524 -523 0
525 -64 -524 0
-525 64 0
-525 524 0
-526 66 501 36 525 0
526 -66 0
526 -501 0
526 -36 0
526 -525 0
527 -68 -526 0
-527 68 0
-527 526 0
-528 70 34 527 0
528 -70 0
528 -34 0
528 -527 0
529 -72 -528 0
-529 72 0
-529 528 0
-530 74 497 17 19 387 529 0
530 -74 0
530 -497 0
530 -17 0
530 -19 0
530 -387 0
530 -529 0
531 -163 -530 0
-531 163 0
-531 530 0
-532 50 531 0
532 -50 0
532 -531 0
533 -271 -532 0
-533 271 0
-533 532 0
-534 74 17 19 387 278 0
534 -74 0
534 -17 0
534 -19 0
534 -387 0
534 -278 0
535 -163 -534 0
-535 163 0
-535 534 0
-536 50 535 0
536 -50 0
536 -535 0
537 -52 -536 0
-537 52 0
-537 536 0
-538 54 537 0
538 -54 0
538 -537 0
539 -168 -538 0
-539 168 0
-539 538 0
-540 170 539 0
540 -170 0
540 -539 0
541 -172 -540 0
-541 172 0
-541 540 0
-542 174 422 114 116 124 541 0
542 -174 0
542 -422 0
542 -114 0
542 -116 0
542 -124 0
542 -541 0
543 -188 -542 0
-543 188 0
-543 542 0
544 -168 -389 0
-544 168 0
-544 389 0
-545 170 544 0
545 -170 0
545 -544 0
546 -172 -545 0
-546 172 0
-546 545 0
-547 174 422 114 116 124 546 0
547 -174 0
547 -422 0
547 -114 0
547 -116 0
547 -124 0
547 -546 0
548 -181 -547 0
-548 181 0
-548 547 0
549 -192 -547 0
-549 192 0
-549 547 0
-550 62 38 549 40 392 0
550 -62 0
550 -38 0
550 -549 0
550 -40 0
550 -392 0
551 -64 -550 0
-551 64 0
-551 550 0
-552 66 36 551 0
552 -66 0
552 -36 0
552 -551 0
553 -68 -552 0
-553 68 0
-553 552 0
-554 70 34 553 0
554 -70 0
554 -34 0
554 -553 0
555 -72 -554 0
-555 72 0
-555 554 0
-556 74 548 17 19 387 555 0
556 -74 0
556 -548 0
556 -17 0
556 -19 0
556 -387 0
556 -555 0
557 -76 -556 0
-557 76 0
-557 556 0
-558 80 557 77 0
558 -80 0
558 -557 0
558 -77 0
559 -82 -558 0
-559 82 0
-559 558 0
-560 84 543 559 0
560 -84 0
560 -543 0
560 -559 0
561 -86 -560 0
-561 86 0
-561 560 0
562 -188 -547 0
-562 188 0
-562 547 0
-563 84 562 0
563 -84 0
563 -562 0
564 -89 -563 0
-564 89 0
-564 563 0
-565 62 38 549 392 0
565 -62 0
565 -38 0
565 -549 0
565 -392 0
566 -64 -565 0
-566 64 0
-566 565 0
-567 66 564 36 566 0
567 -66 0
567 -564 0
567 -36 0
567 -566 0
568 -68 -567 0
-568 68 0
-568 567 0
-569 70 34 568 0
569 -70 0
569 -34 0
569 -568 0
570 -72 -569 0
-570 72 0
-570 569 0
-571 74 548 17 19 387 570 0
571 -74 0
571 -548 0
571 -17 0
571 -19 0
571 -387 0
571 -570 0
572 -76 -571 0
-572 76 0
-572 571 0
-573 80 572 77 0
573 -80 0
573 -572 0
573 -77 0
574 -100 -573 0
-574 100 0
-574 573 0
-575 42 574 0
575 -42 0
575 -574 0
576 -103 -575 0
-576 103 0
-576 575 0
-577 105 11 561 576 0
577 -105 0
577 -11 0
577 -561 0
577 -576 0
578 -107 -577 0
-578 107 0
-578 577 0
-579 109 578 0
579 -109 0
579 -578 0
580 -326 -579 0
-580 326 0
-580 579 0
-581 330 580 327 0
581 -330 0
581 -580 0
581 -327 0
582 -332 -581 0
-582 332 0
-582 581 0
583 -334 -490 0
-583 334 0
-583 490 0
-584 338 583 335 0
584 -338 0
584 -583 0
584 -335 0
585 -340 -584 0
-585 340 0
-585 584 0
-586 174 454 422 114 116 124 0
586 -174 0
586 -454 0
586 -422 0
586 -114 0
586 -116 0
586 -124 0
587 -181 -586 0
-587 181 0
-587 586 0
-588 174 185 422 114 116 124 0
588 -174 0
588 -185 0
588 -422 0
588 -114 0
588 -116 0
588 -124 0
589 -188 -588 0
-589 188 0
-589 588 0
-590 84 589 131 0
590 -84 0
590 -589 0
590 -131 0
591 -89 -590 0
-591 89 0
-591 590 0
592 -192 -586 0
-592 192 0
-592 586 0
-593 174 422 114 116 124 0
593 -174 0
593 -422 0
593 -114 0
593 -116 0
593 -124 0
594 -188 -593 0
-594 188 0
-594 593 0
-595 84 594 135 0
595 -84 0
595 -594 0
595 -135 0
596 -86 -595 0
-596 86 0
-596 595 0
-597 105 11 596 140 0
597 -105 0
597 -11 0
597 -596 0
597 -140 0
598 -107 -597 0
-598 107 0
-598 597 0
-599 109 598 0
599 -109 0
599 -598 0
600 -145 -599 0
-600 145 0
-600 599 0
-601 174 201 422 114 116 124 0
601 -174 0
601 -201 0
601 -422 0
601 -114 0
601 -116 0
601 -124 0
602 -188 -601 0
-602 188 0
-602 601 0
-603 84 602 0
603 -84 0
603 -602 0
604 -86 -603 0
-604 86 0
-604 603 0
-605 105 11 604 126 0
605 -105 0
605 -11 0
605 -604 0
605 -126 0
606 -129 -605 0
-606 129 0
-606 605 0
-607 80 606 77 0
607 -80 0
607 -606 0
607 -77 0
608 -100 -607 0
-608 100 0
-608 607 0
-609 42 608 0
609 -42 0
609 -608 0
610 -41 -609 0
-610 41 0
-610 609 0
-611 62 38 592 600 610 154 0
611 -62 0
611 -38 0
611 -592 0
611 -600 0
611 -610 0
611 -154 0
612 -64 -611 0
-612 64 0
-612 611 0
-613 66 591 36 612 0
613 -66 0
613 -591 0
613 -36 0
613 -612 0
614 -68 -613 0
-614 68 0
-614 613 0
-615 70 34 614 0
615 -70 0
615 -34 0
615 -614 0
616 -72 -615 0
-616 72 0
-616 615 0
-617 74 587 17 19 387 616 0
617 -74 0
617 -587 0
617 -17 0
617 -19 0
617 -387 0
617 -616 0
618 -163 -617 0
-618 163 0
-618 617 0
-619 50 618 0
619 -50 0
619 -618 0
620 -52 -619 0
-620 52 0
-620 619 0
-621 54 620 0
621 -54 0
621 -620 0
622 -168 -621 0
-622 168 0
-622 621 0
-623 170 622 0
623 -170 0
623 -622 0
624 -380 -623 0
-624 380 0
-624 623 0
-625 382 453 491 492 533 582 585 624 0
625 -382 0
625 -453 0
625 -491 0
625 -492 0
625 -533 0
625 -582 0
625 -585 0
625 -624 0
626 -627 -625 0
-626 627 0
-626 625 0
-628 3 626 0
628 -3 0
628 -626 0
629 -2 -628 0
-629 2 0
-629 628 0
630 -631 -625 0
-630 631 0
-630 625 0
-632 6 630 0
632 -6 0
632 -630 0
633 -5 -632 0
-633 5 0
-633 632 0
-634 8 629 633 0
634 -8 0
634 -629 0
634 -633 0
635 -636 -634 0
-635 636 0
-635 634 0
637 -638 -381 0
-637 638 0
-637 381 0
-639 640 635 637 0
639 -640 0
639 -635 0
639 -637 0
641 -642 -639 0
-641 642 0
-641 639 0
-643 644 383 641 0
643 -644 0
643 -383 0
643 -641 0
645 -643 -646 0
-645 643 0
-645 646 0
645 0
