c BC-S1.2
p cnf 242 701
1 -2 -3 0
-1 2 0
-1 3 0
-4 5 1 0
4 -5 0
4 -1 0
6 -7 -4 0
-6 7 0
-6 4 0
-8 9 6 0
8 -9 0
8 -6 0
10 -11 -8 0
-10 11 0
-10 8 0
-12 13 10 0
12 -13 0
12 -10 0
14 -15 -12 0
-14 15 0
-14 12 0
16 -17 -13 0
-16 17 0
-16 13 0
-18 9 16 6 0
18 -9 0
18 -16 0
18 -6 0
19 -20 -18 0
-19 20 0
-19 18 0
-21 22 14 19 0
21 -22 0
21 -14 0
21 -19 0
23 -24 -21 0
-23 24 0
-23 21 0
-25 26 23 0
25 -26 0
25 -23 0
27 -28 -25 0
-27 28 0
-27 25 0
29 -30 -26 0
-29 30 0
-29 26 0
31 -20 -8 0
-31 20 0
-31 8 0
-32 22 29 31 0
32 -22 0
32 -29 0
32 -31 0
33 -34 -32 0
-33 34 0
-33 32 0
-35 22 29 0
35 -22 0
35 -29 0
36 -37 -35 0
-36 37 0
-36 35 0
-38 9 36 6 0
38 -9 0
38 -36 0
38 -6 0
39 -11 -38 0
-39 11 0
-39 38 0
-40 13 33 39 0
40 -13 0
40 -33 0
40 -39 0
41 -42 -40 0
-41 42 0
-41 40 0
-43 22 29 14 19 0
43 -22 0
43 -29 0
43 -14 0
43 -19 0
44 -45 -43 0
-44 45 0
-44 43 0
-46 47 27 41 44 0
46 -47 0
46 -27 0
46 -41 0
46 -44 0
48 -49 -46 0
-48 49 0
-48 46 0
-50 22 31 0
50 -22 0
50 -31 0
51 -24 -50 0
-51 24 0
-51 50 0
-52 26 51 0
52 -26 0
52 -51 0
53 -28 -52 0
-53 28 0
-53 52 0
54 -45 -32 0
-54 45 0
-54 32 0
-55 47 53 54 0
55 -47 0
55 -53 0
55 -54 0
56 -57 -55 0
-56 57 0
-56 55 0
58 -28 -26 0
-58 28 0
-58 26 0
-59 47 58 0
59 -47 0
59 -58 0
60 -61 -59 0
-60 61 0
-60 59 0
62 -63 -59 0
-62 63 0
-62 59 0
-64 26 62 0
64 -26 0
64 -62 0
65 -30 -64 0
-65 30 0
-65 64 0
-66 22 60 65 31 0
66 -22 0
66 -60 0
66 -65 0
66 -31 0
67 -34 -66 0
-67 34 0
-67 66 0
-68 22 60 65 0
68 -22 0
68 -60 0
68 -65 0
69 -37 -68 0
-69 37 0
-69 68 0
-70 9 69 6 0
70 -9 0
70 -69 0
70 -6 0
71 -11 -70 0
-71 11 0
-71 70 0
-72 13 56 67 71 0
72 -13 0
72 -56 0
72 -67 0
72 -71 0
73 -74 -72 0
-73 74 0
-73 72 0
-75 76 48 73 0
75 -76 0
75 -48 0
75 -73 0
77 -78 -75 0
-77 78 0
-77 75 0
79 -74 -40 0
-79 74 0
-79 40 0
-80 76 79 0
80 -76 0
80 -79 0
81 -82 -80 0
-81 82 0
-81 80 0
83 -84 -76 0
-83 84 0
-83 76 0
-85 13 83 10 0
85 -13 0
85 -83 0
85 -10 0
86 -15 -85 0
-86 15 0
-86 85 0
-87 13 83 0
87 -13 0
87 -83 0
88 -17 -87 0
-88 17 0
-88 87 0
-89 9 88 6 0
89 -9 0
89 -88 0
89 -6 0
90 -20 -89 0
-90 20 0
-90 89 0
-91 22 86 90 0
91 -22 0
91 -86 0
91 -90 0
92 -24 -91 0
-92 24 0
-92 91 0
-93 26 92 0
93 -26 0
93 -92 0
94 -28 -93 0
-94 28 0
-94 93 0
-95 13 83 33 39 0
95 -13 0
95 -83 0
95 -33 0
95 -39 0
96 -42 -95 0
-96 42 0
-96 95 0
-97 22 29 86 90 0
97 -22 0
97 -29 0
97 -86 0
97 -90 0
98 -45 -97 0
-98 45 0
-98 97 0
-99 47 81 94 96 98 0
99 -47 0
99 -81 0
99 -94 0
99 -96 0
99 -98 0
100 -101 -99 0
-100 101 0
-100 99 0
102 -49 -55 0
-102 49 0
-102 55 0
-103 76 102 0
103 -76 0
103 -102 0
104 -84 -103 0
-104 84 0
-104 103 0
105 -82 -76 0
-105 82 0
-105 76 0
-106 47 105 53 54 0
106 -47 0
106 -105 0
106 -53 0
106 -54 0
107 -57 -106 0
-107 57 0
-107 106 0
-108 47 105 58 0
108 -47 0
108 -105 0
108 -58 0
109 -61 -108 0
-109 61 0
-109 108 0
110 -63 -108 0
-110 63 0
-110 108 0
-111 26 110 0
111 -26 0
111 -110 0
112 -30 -111 0
-112 30 0
-112 111 0
-113 22 109 112 31 0
113 -22 0
113 -109 0
113 -112 0
113 -31 0
114 -34 -113 0
-114 34 0
-114 113 0
-115 22 109 112 0
115 -22 0
115 -109 0
115 -112 0
116 -37 -115 0
-116 37 0
-116 115 0
-117 9 116 6 0
117 -9 0
117 -116 0
117 -6 0
118 -11 -117 0
-118 11 0
-118 117 0
-119 13 104 107 114 118 0
119 -13 0
119 -104 0
119 -107 0
119 -114 0
119 -118 0
120 -121 -119 0
-120 121 0
-120 119 0
-122 123 77 100 120 0
122 -123 0
122 -77 0
122 -100 0
122 -120 0
124 -125 -122 0
-124 125 0
-124 122 0
126 -78 -80 0
-126 78 0
-126 80 0
127 -121 -95 0
-127 121 0
-127 95 0
-128 123 126 127 0
128 -123 0
128 -126 0
128 -127 0
129 -130 -128 0
-129 130 0
-129 128 0
131 -121 -40 0
-131 121 0
-131 40 0
-132 123 131 0
132 -123 0
132 -131 0
133 -134 -132 0
-133 134 0
-133 132 0
135 -136 -123 0
-135 136 0
-135 123 0
-137 13 135 33 39 0
137 -13 0
137 -135 0
137 -33 0
137 -39 0
138 -74 -137 0
-138 74 0
-138 137 0
-139 76 133 138 0
139 -76 0
139 -133 0
139 -138 0
140 -82 -139 0
-140 82 0
-140 139 0
141 -78 -76 0
-141 78 0
-141 76 0
-142 123 141 0
142 -123 0
142 -141 0
143 -136 -142 0
-143 136 0
-143 142 0
144 -134 -123 0
-144 134 0
-144 123 0
-145 76 144 0
145 -76 0
145 -144 0
146 -84 -145 0
-146 84 0
-146 145 0
-147 13 143 146 10 0
147 -13 0
147 -143 0
147 -146 0
147 -10 0
148 -15 -147 0
-148 15 0
-148 147 0
-149 13 143 146 0
149 -13 0
149 -143 0
149 -146 0
150 -17 -149 0
-150 17 0
-150 149 0
-151 9 150 6 0
151 -9 0
151 -150 0
151 -6 0
152 -20 -151 0
-152 20 0
-152 151 0
-153 22 148 152 0
153 -22 0
153 -148 0
153 -152 0
154 -24 -153 0
-154 24 0
-154 153 0
-155 26 154 0
155 -26 0
155 -154 0
156 -28 -155 0
-156 28 0
-156 155 0
-157 13 143 146 33 39 0
157 -13 0
157 -143 0
157 -146 0
157 -33 0
157 -39 0
158 -42 -157 0
-158 42 0
-158 157 0
-159 22 29 148 152 0
159 -22 0
159 -29 0
159 -148 0
159 -152 0
160 -45 -159 0
-160 45 0
-160 159 0
-161 47 129 140 156 158 160 0
161 -47 0
161 -129 0
161 -140 0
161 -156 0
161 -158 0
161 -160 0
162 -163 -161 0
-162 163 0
-162 161 0
164 -34 -50 0
-164 34 0
-164 50 0
165 -37 -22 0
-165 37 0
-165 22 0
-166 9 165 6 0
166 -9 0
166 -165 0
166 -6 0
167 -11 -166 0
-167 11 0
-167 166 0
-168 13 164 167 0
168 -13 0
168 -164 0
168 -167 0
169 -74 -168 0
-169 74 0
-169 168 0
-170 76 169 0
170 -76 0
170 -169 0
171 -78 -170 0
-171 78 0
-171 170 0
-172 13 83 164 167 0
172 -13 0
172 -83 0
172 -164 0
172 -167 0
173 -121 -172 0
-173 121 0
-173 172 0
-174 123 171 173 0
174 -123 0
174 -171 0
174 -173 0
175 -130 -174 0
-175 130 0
-175 174 0
176 -121 -168 0
-176 121 0
-176 168 0
-177 123 176 0
177 -123 0
177 -176 0
178 -134 -177 0
-178 134 0
-178 177 0
-179 13 135 164 167 0
179 -13 0
179 -135 0
179 -164 0
179 -167 0
180 -74 -179 0
-180 74 0
-180 179 0
-181 76 178 180 0
181 -76 0
181 -178 0
181 -180 0
182 -82 -181 0
-182 82 0
-182 181 0
-183 13 143 146 164 167 0
183 -13 0
183 -143 0
183 -146 0
183 -164 0
183 -167 0
184 -42 -183 0
-184 42 0
-184 183 0
185 -45 -153 0
-185 45 0
-185 153 0
-186 47 175 182 184 185 0
186 -47 0
186 -175 0
186 -182 0
186 -184 0
186 -185 0
187 -63 -186 0
-187 63 0
-187 186 0
188 -74 -12 0
-188 74 0
-188 12 0
-189 76 188 0
189 -76 0
189 -188 0
190 -78 -189 0
-190 78 0
-190 189 0
191 -121 -85 0
-191 121 0
-191 85 0
-192 123 190 191 0
192 -123 0
192 -190 0
192 -191 0
193 -130 -192 0
-193 130 0
-193 192 0
194 -121 -12 0
-194 121 0
-194 12 0
-195 123 194 0
195 -123 0
195 -194 0
196 -134 -195 0
-196 134 0
-196 195 0
-197 13 135 10 0
197 -13 0
197 -135 0
197 -10 0
198 -74 -197 0
-198 74 0
-198 197 0
-199 76 196 198 0
199 -76 0
199 -196 0
199 -198 0
200 -82 -199 0
-200 82 0
-200 199 0
201 -42 -147 0
-201 42 0
-201 147 0
-202 47 193 200 58 201 0
202 -47 0
202 -193 0
202 -200 0
202 -58 0
202 -201 0
203 -61 -202 0
-203 61 0
-203 202 0
204 -49 -59 0
-204 49 0
-204 59 0
-205 76 204 0
205 -76 0
205 -204 0
206 -78 -205 0
-206 78 0
-206 205 0
207 -101 -108 0
-207 101 0
-207 108 0
-208 123 206 207 0
208 -123 0
208 -206 0
208 -207 0
209 -136 -208 0
-209 136 0
-209 208 0
210 -101 -59 0
-210 101 0
-210 59 0
-211 123 210 0
211 -123 0
211 -210 0
212 -134 -211 0
-212 134 0
-212 211 0
213 -130 -123 0
-213 130 0
-213 123 0
-214 47 213 58 0
214 -47 0
214 -213 0
214 -58 0
215 -49 -214 0
-215 49 0
-215 214 0
-216 76 212 215 0
216 -76 0
216 -212 0
216 -215 0
217 -84 -216 0
-217 84 0
-217 216 0
218 -130 -142 0
-218 130 0
-218 142 0
219 -82 -145 0
-219 82 0
-219 145 0
-220 47 218 219 58 0
220 -47 0
220 -218 0
220 -219 0
220 -58 0
221 -57 -220 0
-221 57 0
-221 220 0
-222 13 209 217 221 10 0
222 -13 0
222 -209 0
222 -217 0
222 -221 0
222 -10 0
223 -15 -222 0
-223 15 0
-223 222 0
-224 13 209 217 221 0
224 -13 0
224 -209 0
224 -217 0
224 -221 0
225 -17 -224 0
-225 17 0
-225 224 0
-226 9 225 6 0
226 -9 0
226 -225 0
226 -6 0
227 -20 -226 0
-227 20 0
-227 226 0
-228 22 203 223 227 0
228 -22 0
228 -203 0
228 -223 0
228 -227 0
229 -24 -228 0
-229 24 0
-229 228 0
-230 26 187 229 0
230 -26 0
230 -187 0
230 -229 0
231 -232 -230 0
-231 232 0
-231 230 0
233 -63 -202 0
-233 63 0
-233 202 0
-234 26 233 0
234 -26 0
234 -233 0
235 -30 -234 0
-235 30 0
-235 234 0
-236 22 203 235 223 227 0
236 -22 0
236 -203 0
236 -235 0
236 -223 0
236 -227 0
237 -238 -236 0
-237 238 0
-237 236 0
-239 240 124 162 231 237 0
239 -240 0
239 -124 0
239 -162 0
239 -231 0
239 -237 0
241 -239 -242 0
-241 239 0
-241 242 0
241 0
