c BC-S1.2
p cnf 100 191
1 -2 -3 0
-1 2 0
-1 3 0
4 -5 -3 0
-4 5 0
-4 3 0
-6 7 4 0
6 -7 0
6 -4 0
8 -9 -6 0
-8 9 0
-8 6 0
-10 11 1 8 0
10 -11 0
10 -1 0
10 -8 0
12 -13 -10 0
-12 13 0
-12 10 0
14 -15 -6 0
-14 15 0
-14 6 0
-16 17 14 0
16 -17 0
16 -14 0
18 -19 -16 0
-18 19 0
-18 16 0
20 -21 -22 0
-20 21 0
-20 22 0
-23 24 20 0
23 -24 0
23 -20 0
25 -26 -23 0
-25 26 0
-25 23 0
-27 28 12 18 25 0
27 -28 0
27 -12 0
27 -18 0
27 -25 0
29 -30 -27 0
-29 30 0
-29 27 0
-31 28 18 25 0
31 -28 0
31 -18 0
31 -25 0
32 -33 -31 0
-32 33 0
-32 31 0
-34 3 32 0
34 -3 0
34 -32 0
35 -2 -34 0
-35 2 0
-35 34 0
36 -19 -17 0
-36 19 0
-36 17 0
-37 28 36 25 0
37 -28 0
37 -36 0
37 -25 0
38 -33 -37 0
-38 33 0
-38 37 0
-39 3 38 0
39 -3 0
39 -38 0
40 -5 -39 0
-40 5 0
-40 39 0
-41 7 40 0
41 -7 0
41 -40 0
42 -9 -41 0
-42 9 0
-42 41 0
-43 11 35 42 0
43 -11 0
43 -35 0
43 -42 0
44 -45 -43 0
-44 45 0
-44 43 0
46 -47 -27 0
-46 47 0
-46 27 0
48 -49 -23 0
-48 49 0
-48 23 0
-50 51 46 48 0
50 -51 0
50 -46 0
50 -48 0
52 -53 -50 0
-52 53 0
-52 50 0
54 -55 -43 0
-54 55 0
-54 43 0
56 -57 -27 0
-56 57 0
-56 27 0
58 -59 -43 0
-58 59 0
-58 43 0
60 -13 -11 0
-60 13 0
-60 11 0
-61 28 60 36 25 0
61 -28 0
61 -60 0
61 -36 0
61 -25 0
62 -33 -61 0
-62 33 0
-62 61 0
-63 3 62 0
63 -3 0
63 -62 0
64 -5 -63 0
-64 5 0
-64 63 0
-65 7 64 0
65 -7 0
65 -64 0
66 -67 -65 0
-66 67 0
-66 65 0
68 -69 -43 0
-68 69 0
-68 43 0
70 -71 -23 0
-70 71 0
-70 23 0
72 -73 -74 0
-72 73 0
-72 74 0
-75 76 68 70 72 0
75 -76 0
75 -68 0
75 -70 0
75 -72 0
77 -78 -75 0
-77 78 0
-77 75 0
-79 80 56 58 66 77 0
79 -80 0
79 -56 0
79 -58 0
79 -66 0
79 -77 0
81 -82 -79 0
-81 82 0
-81 79 0
-83 84 54 81 0
83 -84 0
83 -54 0
83 -81 0
85 -86 -83 0
-85 86 0
-85 83 0
87 -88 -22 0
-87 88 0
-87 22 0
-89 90 29 44 52 85 87 0
89 -90 0
89 -29 0
89 -44 0
89 -52 0
89 -85 0
89 -87 0
91 -92 -89 0
-91 92 0
-91 89 0
-93 94 91 0
93 -94 0
93 -91 0
95 -96 -93 0
-95 96 0
-95 93 0
-97 98 95 0
97 -98 0
97 -95 0
99 -97 -100 0
-99 97 0
-99 100 0
99 0
