c BC-S1.2
p cnf 3280 11451
1 -2 -3 0
-1 2 0
-1 3 0
4 -5 -6 0
-4 5 0
-4 6 0
-7 8 4 0
7 -8 0
7 -4 0
9 -10 -7 0
-9 10 0
-9 7 0
-11 12 9 0
11 -12 0
11 -9 0
13 -14 -11 0
-13 14 0
-13 11 0
-15 16 1 13 0
15 -16 0
15 -1 0
15 -13 0
17 -18 -15 0
-17 18 0
-17 15 0
19 -20 -21 0
-19 20 0
-19 21 0
-22 23 17 19 0
22 -23 0
22 -17 0
22 -19 0
24 -25 -22 0
-24 25 0
-24 22 0
26 -27 -22 0
-26 27 0
-26 22 0
28 -29 -22 0
-28 29 0
-28 22 0
30 -31 -32 0
-30 31 0
-30 32 0
-33 34 28 30 0
33 -34 0
33 -28 0
33 -30 0
35 -36 -33 0
-35 36 0
-35 33 0
-37 38 35 0
37 -38 0
37 -35 0
39 -40 -37 0
-39 40 0
-39 37 0
-41 42 26 39 0
41 -42 0
41 -26 0
41 -39 0
43 -44 -41 0
-43 44 0
-43 41 0
-45 46 24 43 0
45 -46 0
45 -24 0
45 -43 0
47 -48 -45 0
-47 48 0
-47 45 0
49 -50 -11 0
-49 50 0
-49 11 0
51 -52 -32 0
-51 52 0
-51 32 0
-53 54 47 49 51 0
53 -54 0
53 -47 0
53 -49 0
53 -51 0
55 -56 -53 0
-55 56 0
-55 53 0
-57 54 49 51 0
57 -54 0
57 -49 0
57 -51 0
58 -59 -57 0
-58 59 0
-58 57 0
-60 54 51 0
60 -54 0
60 -51 0
61 -62 -60 0
-61 62 0
-61 60 0
-63 8 61 4 0
63 -8 0
63 -61 0
63 -4 0
64 -10 -63 0
-64 10 0
-64 63 0
-65 12 64 0
65 -12 0
65 -64 0
66 -14 -65 0
-66 14 0
-66 65 0
-67 16 58 1 66 0
67 -16 0
67 -58 0
67 -1 0
67 -66 0
68 -18 -67 0
-68 18 0
-68 67 0
-69 23 68 19 0
69 -23 0
69 -68 0
69 -19 0
70 -25 -69 0
-70 25 0
-70 69 0
71 -27 -69 0
-71 27 0
-71 69 0
72 -29 -69 0
-72 29 0
-72 69 0
-73 34 72 30 0
73 -34 0
73 -72 0
73 -30 0
74 -36 -73 0
-74 36 0
-74 73 0
-75 38 74 0
75 -38 0
75 -74 0
76 -40 -75 0
-76 40 0
-76 75 0
-77 42 71 76 0
77 -42 0
77 -71 0
77 -76 0
78 -44 -77 0
-78 44 0
-78 77 0
-79 46 70 78 0
79 -46 0
79 -70 0
79 -78 0
80 -81 -79 0
-80 81 0
-80 79 0
-82 23 19 0
82 -23 0
82 -19 0
83 -25 -82 0
-83 25 0
-83 82 0
84 -27 -82 0
-84 27 0
-84 82 0
85 -29 -82 0
-85 29 0
-85 82 0
-86 34 85 30 0
86 -34 0
86 -85 0
86 -30 0
87 -36 -86 0
-87 36 0
-87 86 0
-88 38 87 0
88 -38 0
88 -87 0
89 -40 -88 0
-89 40 0
-89 88 0
-90 42 84 89 0
90 -42 0
90 -84 0
90 -89 0
91 -44 -90 0
-91 44 0
-91 90 0
-92 46 83 91 0
92 -46 0
92 -83 0
92 -91 0
93 -48 -92 0
-93 48 0
-93 92 0
-94 54 93 49 51 0
94 -54 0
94 -93 0
94 -49 0
94 -51 0
95 -59 -94 0
-95 59 0
-95 94 0
96 -97 -92 0
-96 97 0
-96 92 0
98 -99 -92 0
-98 99 0
-98 92 0
-100 3 98 0
100 -3 0
100 -98 0
101 -2 -100 0
-101 2 0
-101 100 0
-102 54 93 51 0
102 -54 0
102 -93 0
102 -51 0
103 -62 -102 0
-103 62 0
-103 102 0
-104 8 103 4 0
104 -8 0
104 -103 0
104 -4 0
105 -10 -104 0
-105 10 0
-105 104 0
-106 12 105 0
106 -12 0
106 -105 0
107 -14 -106 0
-107 14 0
-107 106 0
-108 16 95 96 101 107 0
108 -16 0
108 -95 0
108 -96 0
108 -101 0
108 -107 0
109 -110 -108 0
-109 110 0
-109 108 0
-111 16 1 0
111 -16 0
111 -1 0
112 -18 -111 0
-112 18 0
-112 111 0
-113 23 112 19 0
113 -23 0
113 -112 0
113 -19 0
114 -25 -113 0
-114 25 0
-114 113 0
115 -27 -113 0
-115 27 0
-115 113 0
116 -29 -113 0
-116 29 0
-116 113 0
-117 34 116 30 0
117 -34 0
117 -116 0
117 -30 0
118 -36 -117 0
-118 36 0
-118 117 0
-119 38 118 0
119 -38 0
119 -118 0
120 -40 -119 0
-120 40 0
-120 119 0
-121 42 115 120 0
121 -42 0
121 -115 0
121 -120 0
122 -44 -121 0
-122 44 0
-122 121 0
-123 46 114 122 0
123 -46 0
123 -114 0
123 -122 0
124 -48 -123 0
-124 48 0
-124 123 0
-125 54 124 51 0
125 -54 0
125 -124 0
125 -51 0
126 -62 -125 0
-126 62 0
-126 125 0
-127 8 126 4 0
127 -8 0
127 -126 0
127 -4 0
128 -10 -127 0
-128 10 0
-128 127 0
-129 12 128 0
129 -12 0
129 -128 0
130 -131 -129 0
-130 131 0
-130 129 0
-132 133 130 0
132 -133 0
132 -130 0
134 -135 -132 0
-134 135 0
-134 132 0
-136 137 109 134 0
136 -137 0
136 -109 0
136 -134 0
138 -139 -136 0
-138 139 0
-138 136 0
-140 16 58 66 0
140 -16 0
140 -58 0
140 -66 0
141 -18 -140 0
-141 18 0
-141 140 0
-142 23 141 19 0
142 -23 0
142 -141 0
142 -19 0
143 -25 -142 0
-143 25 0
-143 142 0
144 -27 -142 0
-144 27 0
-144 142 0
145 -29 -142 0
-145 29 0
-145 142 0
-146 34 145 30 0
146 -34 0
146 -145 0
146 -30 0
147 -36 -146 0
-147 36 0
-147 146 0
-148 38 147 0
148 -38 0
148 -147 0
149 -40 -148 0
-149 40 0
-149 148 0
-150 42 144 149 0
150 -42 0
150 -144 0
150 -149 0
151 -44 -150 0
-151 44 0
-151 150 0
-152 46 143 151 0
152 -46 0
152 -143 0
152 -151 0
153 -99 -152 0
-153 99 0
-153 152 0
-154 3 153 0
154 -3 0
154 -153 0
155 -156 -154 0
-155 156 0
-155 154 0
157 -158 -79 0
-157 158 0
-157 79 0
159 -160 -129 0
-159 160 0
-159 129 0
-161 162 157 159 0
161 -162 0
161 -157 0
161 -159 0
163 -164 -161 0
-163 164 0
-163 161 0
165 -14 -12 0
-165 14 0
-165 12 0
-166 16 1 165 0
166 -16 0
166 -1 0
166 -165 0
167 -18 -166 0
-167 18 0
-167 166 0
-168 23 167 19 0
168 -23 0
168 -167 0
168 -19 0
169 -25 -168 0
-169 25 0
-169 168 0
170 -27 -168 0
-170 27 0
-170 168 0
171 -29 -168 0
-171 29 0
-171 168 0
-172 34 171 30 0
172 -34 0
172 -171 0
172 -30 0
173 -36 -172 0
-173 36 0
-173 172 0
-174 38 173 0
174 -38 0
174 -173 0
175 -40 -174 0
-175 40 0
-175 174 0
-176 42 170 175 0
176 -42 0
176 -170 0
176 -175 0
177 -44 -176 0
-177 44 0
-177 176 0
-178 46 169 177 0
178 -46 0
178 -169 0
178 -177 0
179 -48 -178 0
-179 48 0
-179 178 0
180 -50 -12 0
-180 50 0
-180 12 0
-181 54 179 180 51 0
181 -54 0
181 -179 0
181 -180 0
181 -51 0
182 -62 -181 0
-182 62 0
-182 181 0
-183 8 182 4 0
183 -8 0
183 -182 0
183 -4 0
184 -185 -183 0
-184 185 0
-184 183 0
186 -187 -53 0
-186 187 0
-186 53 0
188 -189 -132 0
-188 189 0
-188 132 0
-190 191 186 188 0
190 -191 0
190 -186 0
190 -188 0
192 -193 -190 0
-192 193 0
-192 190 0
-194 195 55 80 138 155 163 184 192 0
194 -195 0
194 -55 0
194 -80 0
194 -138 0
194 -155 0
194 -163 0
194 -184 0
194 -192 0
196 -197 -194 0
-196 197 0
-196 194 0
198 -48 -46 0
-198 48 0
-198 46 0
-199 54 198 49 51 0
199 -54 0
199 -198 0
199 -49 0
199 -51 0
200 -56 -199 0
-200 56 0
-200 199 0
201 -81 -46 0
-201 81 0
-201 46 0
202 -59 -199 0
-202 59 0
-202 199 0
203 -97 -46 0
-203 97 0
-203 46 0
204 -99 -46 0
-204 99 0
-204 46 0
-205 3 204 0
205 -3 0
205 -204 0
206 -2 -205 0
-206 2 0
-206 205 0
-207 54 198 51 0
207 -54 0
207 -198 0
207 -51 0
208 -62 -207 0
-208 62 0
-208 207 0
-209 8 208 4 0
209 -8 0
209 -208 0
209 -4 0
210 -10 -209 0
-210 10 0
-210 209 0
-211 12 210 0
211 -12 0
211 -210 0
212 -14 -211 0
-212 14 0
-212 211 0
-213 16 202 203 206 212 0
213 -16 0
213 -202 0
213 -203 0
213 -206 0
213 -212 0
214 -110 -213 0
-214 110 0
-214 213 0
215 -131 -211 0
-215 131 0
-215 211 0
-216 133 215 0
216 -133 0
216 -215 0
217 -135 -216 0
-217 135 0
-217 216 0
-218 137 214 217 0
218 -137 0
218 -214 0
218 -217 0
219 -139 -218 0
-219 139 0
-219 218 0
220 -156 -205 0
-220 156 0
-220 205 0
221 -158 -46 0
-221 158 0
-221 46 0
222 -160 -211 0
-222 160 0
-222 211 0
-223 162 221 222 0
223 -162 0
223 -221 0
223 -222 0
224 -164 -223 0
-224 164 0
-224 223 0
-225 54 198 180 51 0
225 -54 0
225 -198 0
225 -180 0
225 -51 0
226 -62 -225 0
-226 62 0
-226 225 0
-227 8 226 4 0
227 -8 0
227 -226 0
227 -4 0
228 -185 -227 0
-228 185 0
-228 227 0
229 -187 -199 0
-229 187 0
-229 199 0
230 -189 -216 0
-230 189 0
-230 216 0
-231 191 229 230 0
231 -191 0
231 -229 0
231 -230 0
232 -193 -231 0
-232 193 0
-232 231 0
-233 195 200 201 219 220 224 228 232 0
233 -195 0
233 -200 0
233 -201 0
233 -219 0
233 -220 0
233 -224 0
233 -228 0
233 -232 0
234 -235 -233 0
-234 235 0
-234 233 0
236 -135 -133 0
-236 135 0
-236 133 0
-237 137 236 0
237 -137 0
237 -236 0
238 -139 -237 0
-238 139 0
-238 237 0
-239 162 221 0
239 -162 0
239 -221 0
240 -164 -239 0
-240 164 0
-240 239 0
241 -189 -133 0
-241 189 0
-241 133 0
-242 191 241 0
242 -191 0
242 -241 0
243 -193 -242 0
-243 193 0
-243 242 0
-244 195 201 238 220 240 243 0
244 -195 0
244 -201 0
244 -238 0
244 -220 0
244 -240 0
244 -243 0
245 -246 -244 0
-245 246 0
-245 244 0
-247 6 245 0
247 -6 0
247 -245 0
248 -5 -247 0
-248 5 0
-248 247 0
-249 8 248 0
249 -8 0
249 -248 0
250 -10 -249 0
-250 10 0
-250 249 0
-251 12 250 0
251 -12 0
251 -250 0
252 -50 -251 0
-252 50 0
-252 251 0
-253 54 198 252 51 0
253 -54 0
253 -198 0
253 -252 0
253 -51 0
254 -59 -253 0
-254 59 0
-254 253 0
255 -56 -207 0
-255 56 0
-255 207 0
256 -187 -207 0
-256 187 0
-256 207 0
-257 191 256 241 0
257 -191 0
257 -256 0
257 -241 0
258 -193 -257 0
-258 193 0
-258 257 0
-259 195 255 201 238 220 240 258 0
259 -195 0
259 -255 0
259 -201 0
259 -238 0
259 -220 0
259 -240 0
259 -258 0
260 -246 -259 0
-260 246 0
-260 259 0
-261 6 260 0
261 -6 0
261 -260 0
262 -5 -261 0
-262 5 0
-262 261 0
-263 8 208 262 0
263 -8 0
263 -208 0
263 -262 0
264 -10 -263 0
-264 10 0
-264 263 0
-265 12 264 0
265 -12 0
265 -264 0
266 -14 -265 0
-266 14 0
-266 265 0
-267 16 254 203 206 266 0
267 -16 0
267 -254 0
267 -203 0
267 -206 0
267 -266 0
268 -18 -267 0
-268 18 0
-268 267 0
269 -270 -233 0
-269 270 0
-269 233 0
-271 21 269 0
271 -21 0
271 -269 0
272 -20 -271 0
-272 20 0
-272 271 0
-273 23 234 268 272 0
273 -23 0
273 -234 0
273 -268 0
273 -272 0
274 -27 -273 0
-274 27 0
-274 273 0
275 -29 -273 0
-275 29 0
-275 273 0
-276 34 275 30 0
276 -34 0
276 -275 0
276 -30 0
277 -36 -276 0
-277 36 0
-277 276 0
-278 38 277 0
278 -38 0
278 -277 0
279 -40 -278 0
-279 40 0
-279 278 0
-280 42 274 279 0
280 -42 0
280 -274 0
280 -279 0
281 -282 -280 0
-281 282 0
-281 280 0
-283 284 196 281 0
283 -284 0
283 -196 0
283 -281 0
285 -286 -283 0
-285 286 0
-285 283 0
287 -282 -41 0
-287 282 0
-287 41 0
-288 284 287 0
288 -284 0
288 -287 0
289 -290 -288 0
-289 290 0
-289 288 0
-291 54 289 49 51 0
291 -54 0
291 -289 0
291 -49 0
291 -51 0
292 -56 -291 0
-292 56 0
-292 291 0
-293 34 30 0
293 -34 0
293 -30 0
294 -36 -293 0
-294 36 0
-294 293 0
-295 38 294 0
295 -38 0
295 -294 0
296 -40 -295 0
-296 40 0
-296 295 0
-297 42 296 0
297 -42 0
297 -296 0
298 -282 -297 0
-298 282 0
-298 297 0
-299 284 298 0
299 -284 0
299 -298 0
300 -301 -299 0
-300 301 0
-300 299 0
302 -290 -299 0
-302 290 0
-302 299 0
-303 54 302 49 51 0
303 -54 0
303 -302 0
303 -49 0
303 -51 0
304 -59 -303 0
-304 59 0
-304 303 0
305 -306 -299 0
-305 306 0
-305 299 0
-307 54 302 51 0
307 -54 0
307 -302 0
307 -51 0
308 -62 -307 0
-308 62 0
-308 307 0
-309 8 308 4 0
309 -8 0
309 -308 0
309 -4 0
310 -10 -309 0
-310 10 0
-310 309 0
-311 12 310 0
311 -12 0
311 -310 0
312 -14 -311 0
-312 14 0
-312 311 0
-313 16 304 305 1 312 0
313 -16 0
313 -304 0
313 -305 0
313 -1 0
313 -312 0
314 -110 -313 0
-314 110 0
-314 313 0
315 -131 -311 0
-315 131 0
-315 311 0
-316 133 315 0
316 -133 0
316 -315 0
317 -135 -316 0
-317 135 0
-317 316 0
-318 137 300 314 317 0
318 -137 0
318 -300 0
318 -314 0
318 -317 0
319 -139 -318 0
-319 139 0
-319 318 0
320 -156 -3 0
-320 156 0
-320 3 0
321 -160 -311 0
-321 160 0
-321 311 0
-322 162 321 0
322 -162 0
322 -321 0
323 -164 -322 0
-323 164 0
-323 322 0
-324 54 302 180 51 0
324 -54 0
324 -302 0
324 -180 0
324 -51 0
325 -62 -324 0
-325 62 0
-325 324 0
-326 8 325 4 0
326 -8 0
326 -325 0
326 -4 0
327 -185 -326 0
-327 185 0
-327 326 0
328 -187 -291 0
-328 187 0
-328 291 0
329 -189 -316 0
-329 189 0
-329 316 0
-330 191 328 329 0
330 -191 0
330 -328 0
330 -329 0
331 -193 -330 0
-331 193 0
-331 330 0
-332 195 292 319 320 323 327 331 0
332 -195 0
332 -292 0
332 -319 0
332 -320 0
332 -323 0
332 -327 0
332 -331 0
333 -235 -332 0
-333 235 0
-333 332 0
334 -56 -57 0
-334 56 0
-334 57 0
335 -110 -67 0
-335 110 0
-335 67 0
336 -131 -65 0
-336 131 0
-336 65 0
-337 133 336 0
337 -133 0
337 -336 0
338 -135 -337 0
-338 135 0
-338 337 0
-339 137 335 338 0
339 -137 0
339 -335 0
339 -338 0
340 -139 -339 0
-340 139 0
-340 339 0
341 -160 -65 0
-341 160 0
-341 65 0
-342 162 341 0
342 -162 0
342 -341 0
343 -164 -342 0
-343 164 0
-343 342 0
344 -187 -57 0
-344 187 0
-344 57 0
345 -189 -337 0
-345 189 0
-345 337 0
-346 191 344 345 0
346 -191 0
346 -344 0
346 -345 0
347 -193 -346 0
-347 193 0
-347 346 0
-348 195 334 340 320 343 327 347 0
348 -195 0
348 -334 0
348 -340 0
348 -320 0
348 -343 0
348 -327 0
348 -347 0
349 -197 -348 0
-349 197 0
-349 348 0
-350 284 349 298 0
350 -284 0
350 -349 0
350 -298 0
351 -352 -350 0
-351 352 0
-351 350 0
353 -131 -11 0
-353 131 0
-353 11 0
-354 133 353 0
354 -133 0
354 -353 0
355 -135 -354 0
-355 135 0
-355 354 0
-356 137 355 0
356 -137 0
356 -355 0
357 -139 -356 0
-357 139 0
-357 356 0
358 -160 -11 0
-358 160 0
-358 11 0
-359 162 358 0
359 -162 0
359 -358 0
360 -164 -359 0
-360 164 0
-360 359 0
361 -185 -7 0
-361 185 0
-361 7 0
362 -189 -354 0
-362 189 0
-362 354 0
-363 191 362 0
363 -191 0
363 -362 0
364 -193 -363 0
-364 193 0
-364 363 0
-365 195 357 320 360 361 364 0
365 -195 0
365 -357 0
365 -320 0
365 -360 0
365 -361 0
365 -364 0
366 -197 -365 0
-366 197 0
-366 365 0
-367 284 366 298 0
367 -284 0
367 -366 0
367 -298 0
368 -290 -367 0
-368 290 0
-368 367 0
-369 137 300 236 0
369 -137 0
369 -300 0
369 -236 0
370 -139 -369 0
-370 139 0
-370 369 0
371 -164 -162 0
-371 164 0
-371 162 0
-372 195 370 320 371 243 0
372 -195 0
372 -370 0
372 -320 0
372 -371 0
372 -243 0
373 -246 -372 0
-373 246 0
-373 372 0
-374 6 373 0
374 -6 0
374 -373 0
375 -5 -374 0
-375 5 0
-375 374 0
-376 8 375 0
376 -8 0
376 -375 0
377 -10 -376 0
-377 10 0
-377 376 0
-378 12 377 0
378 -12 0
378 -377 0
379 -50 -378 0
-379 50 0
-379 378 0
-380 54 368 379 51 0
380 -54 0
380 -368 0
380 -379 0
380 -51 0
381 -59 -380 0
-381 59 0
-381 380 0
-382 137 338 0
382 -137 0
382 -338 0
383 -139 -382 0
-383 139 0
-383 382 0
-384 195 334 383 320 343 327 347 0
384 -195 0
384 -334 0
384 -383 0
384 -320 0
384 -343 0
384 -327 0
384 -347 0
385 -197 -384 0
-385 197 0
-385 384 0
-386 284 385 298 0
386 -284 0
386 -385 0
386 -298 0
387 -306 -386 0
-387 306 0
-387 386 0
388 -197 -372 0
-388 197 0
-388 372 0
-389 284 388 298 0
389 -284 0
389 -388 0
389 -298 0
390 -290 -389 0
-390 290 0
-390 389 0
-391 54 390 51 0
391 -54 0
391 -390 0
391 -51 0
392 -62 -391 0
-392 62 0
-392 391 0
393 -56 -307 0
-393 56 0
-393 307 0
394 -187 -307 0
-394 187 0
-394 307 0
-395 191 394 241 0
395 -191 0
395 -394 0
395 -241 0
396 -193 -395 0
-396 193 0
-396 395 0
-397 195 393 370 320 371 396 0
397 -195 0
397 -393 0
397 -370 0
397 -320 0
397 -371 0
397 -396 0
398 -246 -397 0
-398 246 0
-398 397 0
-399 6 398 0
399 -6 0
399 -398 0
400 -5 -399 0
-400 5 0
-400 399 0
-401 8 392 400 0
401 -8 0
401 -392 0
401 -400 0
402 -10 -401 0
-402 10 0
-402 401 0
-403 12 402 0
403 -12 0
403 -402 0
404 -14 -403 0
-404 14 0
-404 403 0
-405 16 381 387 1 404 0
405 -16 0
405 -381 0
405 -387 0
405 -1 0
405 -404 0
406 -18 -405 0
-406 18 0
-406 405 0
407 -56 -303 0
-407 56 0
-407 303 0
408 -187 -303 0
-408 187 0
-408 303 0
-409 191 408 329 0
409 -191 0
409 -408 0
409 -329 0
410 -193 -409 0
-410 193 0
-410 409 0
-411 195 407 319 320 323 327 410 0
411 -195 0
411 -407 0
411 -319 0
411 -320 0
411 -323 0
411 -327 0
411 -410 0
412 -270 -411 0
-412 270 0
-412 411 0
413 -414 -350 0
-413 414 0
-413 350 0
-415 21 412 413 0
415 -21 0
415 -412 0
415 -413 0
416 -20 -415 0
-416 20 0
-416 415 0
-417 23 333 351 406 416 0
417 -23 0
417 -333 0
417 -351 0
417 -406 0
417 -416 0
418 -25 -417 0
-418 25 0
-418 417 0
419 -290 -284 0
-419 290 0
-419 284 0
-420 54 419 49 51 0
420 -54 0
420 -419 0
420 -49 0
420 -51 0
421 -56 -420 0
-421 56 0
-421 420 0
422 -301 -284 0
-422 301 0
-422 284 0
423 -59 -420 0
-423 59 0
-423 420 0
424 -306 -284 0
-424 306 0
-424 284 0
-425 54 419 51 0
425 -54 0
425 -419 0
425 -51 0
426 -62 -425 0
-426 62 0
-426 425 0
-427 8 426 4 0
427 -8 0
427 -426 0
427 -4 0
428 -10 -427 0
-428 10 0
-428 427 0
-429 12 428 0
429 -12 0
429 -428 0
430 -14 -429 0
-430 14 0
-430 429 0
-431 16 423 424 1 430 0
431 -16 0
431 -423 0
431 -424 0
431 -1 0
431 -430 0
432 -110 -431 0
-432 110 0
-432 431 0
433 -131 -429 0
-433 131 0
-433 429 0
-434 133 433 0
434 -133 0
434 -433 0
435 -135 -434 0
-435 135 0
-435 434 0
-436 137 422 432 435 0
436 -137 0
436 -422 0
436 -432 0
436 -435 0
437 -139 -436 0
-437 139 0
-437 436 0
438 -160 -429 0
-438 160 0
-438 429 0
-439 162 221 438 0
439 -162 0
439 -221 0
439 -438 0
440 -164 -439 0
-440 164 0
-440 439 0
-441 54 419 180 51 0
441 -54 0
441 -419 0
441 -180 0
441 -51 0
442 -62 -441 0
-442 62 0
-442 441 0
-443 8 442 4 0
443 -8 0
443 -442 0
443 -4 0
444 -185 -443 0
-444 185 0
-444 443 0
445 -187 -420 0
-445 187 0
-445 420 0
446 -189 -434 0
-446 189 0
-446 434 0
-447 191 445 446 0
447 -191 0
447 -445 0
447 -446 0
448 -193 -447 0
-448 193 0
-448 447 0
-449 195 421 201 437 220 440 444 448 0
449 -195 0
449 -421 0
449 -201 0
449 -437 0
449 -220 0
449 -440 0
449 -444 0
449 -448 0
450 -235 -449 0
-450 235 0
-450 449 0
-451 162 221 341 0
451 -162 0
451 -221 0
451 -341 0
452 -164 -451 0
-452 164 0
-452 451 0
-453 54 180 51 0
453 -54 0
453 -180 0
453 -51 0
454 -62 -453 0
-454 62 0
-454 453 0
-455 8 454 4 0
455 -8 0
455 -454 0
455 -4 0
456 -185 -455 0
-456 185 0
-456 455 0
-457 195 334 201 340 220 452 456 347 0
457 -195 0
457 -334 0
457 -201 0
457 -340 0
457 -220 0
457 -452 0
457 -456 0
457 -347 0
458 -197 -457 0
-458 197 0
-458 457 0
-459 284 458 0
459 -284 0
459 -458 0
460 -352 -459 0
-460 352 0
-460 459 0
-461 284 366 0
461 -284 0
461 -366 0
462 -290 -461 0
-462 290 0
-462 461 0
-463 137 422 236 0
463 -137 0
463 -422 0
463 -236 0
464 -139 -463 0
-464 139 0
-464 463 0
-465 195 201 464 220 240 243 0
465 -195 0
465 -201 0
465 -464 0
465 -220 0
465 -240 0
465 -243 0
466 -246 -465 0
-466 246 0
-466 465 0
-467 6 466 0
467 -6 0
467 -466 0
468 -5 -467 0
-468 5 0
-468 467 0
-469 8 468 0
469 -8 0
469 -468 0
470 -10 -469 0
-470 10 0
-470 469 0
-471 12 470 0
471 -12 0
471 -470 0
472 -50 -471 0
-472 50 0
-472 471 0
-473 54 462 472 51 0
473 -54 0
473 -462 0
473 -472 0
473 -51 0
474 -59 -473 0
-474 59 0
-474 473 0
-475 195 334 201 383 220 452 456 347 0
475 -195 0
475 -334 0
475 -201 0
475 -383 0
475 -220 0
475 -452 0
475 -456 0
475 -347 0
476 -197 -475 0
-476 197 0
-476 475 0
-477 284 476 0
477 -284 0
477 -476 0
478 -306 -477 0
-478 306 0
-478 477 0
479 -197 -244 0
-479 197 0
-479 244 0
-480 284 479 0
480 -284 0
480 -479 0
481 -290 -480 0
-481 290 0
-481 480 0
-482 54 481 51 0
482 -54 0
482 -481 0
482 -51 0
483 -62 -482 0
-483 62 0
-483 482 0
484 -56 -425 0
-484 56 0
-484 425 0
485 -187 -425 0
-485 187 0
-485 425 0
-486 191 485 241 0
486 -191 0
486 -485 0
486 -241 0
487 -193 -486 0
-487 193 0
-487 486 0
-488 195 484 201 464 220 240 487 0
488 -195 0
488 -484 0
488 -201 0
488 -464 0
488 -220 0
488 -240 0
488 -487 0
489 -246 -488 0
-489 246 0
-489 488 0
-490 6 489 0
490 -6 0
490 -489 0
491 -5 -490 0
-491 5 0
-491 490 0
-492 8 483 491 0
492 -8 0
492 -483 0
492 -491 0
493 -10 -492 0
-493 10 0
-493 492 0
-494 12 493 0
494 -12 0
494 -493 0
495 -14 -494 0
-495 14 0
-495 494 0
-496 16 474 478 1 495 0
496 -16 0
496 -474 0
496 -478 0
496 -1 0
496 -495 0
497 -18 -496 0
-497 18 0
-497 496 0
498 -270 -449 0
-498 270 0
-498 449 0
499 -414 -459 0
-499 414 0
-499 459 0
-500 21 498 499 0
500 -21 0
500 -498 0
500 -499 0
501 -20 -500 0
-501 20 0
-501 500 0
-502 23 450 460 497 501 0
502 -23 0
502 -450 0
502 -460 0
502 -497 0
502 -501 0
503 -27 -502 0
-503 27 0
-503 502 0
-504 195 334 340 320 343 456 347 0
504 -195 0
504 -334 0
504 -340 0
504 -320 0
504 -343 0
504 -456 0
504 -347 0
505 -197 -504 0
-505 197 0
-505 504 0
-506 284 505 0
506 -284 0
506 -505 0
507 -508 -506 0
-507 508 0
-507 506 0
509 -29 -502 0
-509 29 0
-509 502 0
-510 34 509 30 0
510 -34 0
510 -509 0
510 -30 0
511 -36 -510 0
-511 36 0
-511 510 0
-512 38 507 511 0
512 -38 0
512 -507 0
512 -511 0
513 -40 -512 0
-513 40 0
-513 512 0
-514 42 503 513 0
514 -42 0
514 -503 0
514 -513 0
515 -44 -514 0
-515 44 0
-515 514 0
-516 46 418 515 0
516 -46 0
516 -418 0
516 -515 0
517 -518 -516 0
-517 518 0
-517 516 0
519 -81 -92 0
-519 81 0
-519 92 0
520 -156 -100 0
-520 156 0
-520 100 0
521 -158 -92 0
-521 158 0
-521 92 0
-522 162 521 358 0
522 -162 0
522 -521 0
522 -358 0
523 -164 -522 0
-523 164 0
-523 522 0
-524 195 519 357 520 523 361 364 0
524 -195 0
524 -519 0
524 -357 0
524 -520 0
524 -523 0
524 -361 0
524 -364 0
525 -197 -524 0
-525 197 0
-525 524 0
-526 162 221 358 0
526 -162 0
526 -221 0
526 -358 0
527 -164 -526 0
-527 164 0
-527 526 0
-528 195 200 201 357 220 527 361 364 0
528 -195 0
528 -200 0
528 -201 0
528 -357 0
528 -220 0
528 -527 0
528 -361 0
528 -364 0
529 -235 -528 0
-529 235 0
-529 528 0
530 -270 -528 0
-530 270 0
-530 528 0
-531 21 530 0
531 -21 0
531 -530 0
532 -20 -531 0
-532 20 0
-532 531 0
-533 23 529 532 0
533 -23 0
533 -529 0
533 -532 0
534 -27 -533 0
-534 27 0
-534 533 0
535 -29 -533 0
-535 29 0
-535 533 0
-536 34 535 30 0
536 -34 0
536 -535 0
536 -30 0
537 -36 -536 0
-537 36 0
-537 536 0
-538 38 537 0
538 -38 0
538 -537 0
539 -40 -538 0
-539 40 0
-539 538 0
-540 42 534 539 0
540 -42 0
540 -534 0
540 -539 0
541 -282 -540 0
-541 282 0
-541 540 0
-542 284 525 541 0
542 -284 0
542 -525 0
542 -541 0
543 -290 -542 0
-543 290 0
-543 542 0
-544 137 300 355 0
544 -137 0
544 -300 0
544 -355 0
545 -139 -544 0
-545 139 0
-545 544 0
-546 195 545 320 360 361 364 0
546 -195 0
546 -545 0
546 -320 0
546 -360 0
546 -361 0
546 -364 0
547 -235 -546 0
-547 235 0
-547 546 0
548 -352 -367 0
-548 352 0
-548 367 0
549 -270 -546 0
-549 270 0
-549 546 0
550 -414 -367 0
-550 414 0
-550 367 0
-551 21 549 550 0
551 -21 0
551 -549 0
551 -550 0
552 -20 -551 0
-552 20 0
-552 551 0
-553 23 547 548 552 0
553 -23 0
553 -547 0
553 -548 0
553 -552 0
554 -25 -553 0
-554 25 0
-554 553 0
-555 137 422 355 0
555 -137 0
555 -422 0
555 -355 0
556 -139 -555 0
-556 139 0
-556 555 0
-557 195 201 556 220 360 361 364 0
557 -195 0
557 -201 0
557 -556 0
557 -220 0
557 -360 0
557 -361 0
557 -364 0
558 -235 -557 0
-558 235 0
-558 557 0
559 -352 -461 0
-559 352 0
-559 461 0
560 -270 -557 0
-560 270 0
-560 557 0
561 -414 -461 0
-561 414 0
-561 461 0
-562 21 560 561 0
562 -21 0
562 -560 0
562 -561 0
563 -20 -562 0
-563 20 0
-563 562 0
-564 23 558 559 563 0
564 -23 0
564 -558 0
564 -559 0
564 -563 0
565 -27 -564 0
-565 27 0
-565 564 0
566 -508 -461 0
-566 508 0
-566 461 0
567 -29 -564 0
-567 29 0
-567 564 0
-568 34 567 30 0
568 -34 0
568 -567 0
568 -30 0
569 -36 -568 0
-569 36 0
-569 568 0
-570 38 566 569 0
570 -38 0
570 -566 0
570 -569 0
571 -40 -570 0
-571 40 0
-571 570 0
-572 42 565 571 0
572 -42 0
572 -565 0
572 -571 0
573 -44 -572 0
-573 44 0
-573 572 0
-574 46 554 573 0
574 -46 0
574 -554 0
574 -573 0
575 -48 -574 0
-575 48 0
-575 574 0
576 -352 -299 0
-576 352 0
-576 299 0
577 -414 -299 0
-577 414 0
-577 299 0
-578 21 577 0
578 -21 0
578 -577 0
579 -20 -578 0
-579 20 0
-579 578 0
-580 23 576 579 0
580 -23 0
580 -576 0
580 -579 0
581 -25 -580 0
-581 25 0
-581 580 0
582 -352 -284 0
-582 352 0
-582 284 0
583 -414 -284 0
-583 414 0
-583 284 0
-584 21 583 0
584 -21 0
584 -583 0
585 -20 -584 0
-585 20 0
-585 584 0
-586 23 582 585 0
586 -23 0
586 -582 0
586 -585 0
587 -27 -586 0
-587 27 0
-587 586 0
588 -508 -284 0
-588 508 0
-588 284 0
589 -29 -586 0
-589 29 0
-589 586 0
-590 34 589 30 0
590 -34 0
590 -589 0
590 -30 0
591 -36 -590 0
-591 36 0
-591 590 0
-592 38 588 591 0
592 -38 0
592 -588 0
592 -591 0
593 -40 -592 0
-593 40 0
-593 592 0
-594 42 587 593 0
594 -42 0
594 -587 0
594 -593 0
595 -44 -594 0
-595 44 0
-595 594 0
-596 46 581 595 0
596 -46 0
596 -581 0
596 -595 0
597 -81 -596 0
-597 81 0
-597 596 0
598 -282 -90 0
-598 282 0
-598 90 0
-599 284 598 0
599 -284 0
599 -598 0
600 -301 -599 0
-600 301 0
-600 599 0
-601 137 600 236 0
601 -137 0
601 -600 0
601 -236 0
602 -139 -601 0
-602 139 0
-602 601 0
603 -99 -596 0
-603 99 0
-603 596 0
-604 3 603 0
604 -3 0
604 -603 0
605 -156 -604 0
-605 156 0
-605 604 0
606 -158 -596 0
-606 158 0
-606 596 0
-607 162 606 0
607 -162 0
607 -606 0
608 -164 -607 0
-608 164 0
-608 607 0
-609 195 597 602 605 608 243 0
609 -195 0
609 -597 0
609 -602 0
609 -605 0
609 -608 0
609 -243 0
610 -246 -609 0
-610 246 0
-610 609 0
-611 6 610 0
611 -6 0
611 -610 0
612 -5 -611 0
-612 5 0
-612 611 0
-613 8 612 0
613 -8 0
613 -612 0
614 -10 -613 0
-614 10 0
-614 613 0
-615 12 614 0
615 -12 0
615 -614 0
616 -50 -615 0
-616 50 0
-616 615 0
-617 54 543 575 616 51 0
617 -54 0
617 -543 0
617 -575 0
617 -616 0
617 -51 0
618 -59 -617 0
-618 59 0
-618 617 0
619 -56 -94 0
-619 56 0
-619 94 0
620 -131 -106 0
-620 131 0
-620 106 0
-621 133 620 0
621 -133 0
621 -620 0
622 -135 -621 0
-622 135 0
-622 621 0
-623 137 622 0
623 -137 0
623 -622 0
624 -139 -623 0
-624 139 0
-624 623 0
625 -160 -106 0
-625 160 0
-625 106 0
-626 162 521 625 0
626 -162 0
626 -521 0
626 -625 0
627 -164 -626 0
-627 164 0
-627 626 0
-628 54 93 180 51 0
628 -54 0
628 -93 0
628 -180 0
628 -51 0
629 -62 -628 0
-629 62 0
-629 628 0
-630 8 629 4 0
630 -8 0
630 -629 0
630 -4 0
631 -185 -630 0
-631 185 0
-631 630 0
632 -187 -94 0
-632 187 0
-632 94 0
633 -189 -621 0
-633 189 0
-633 621 0
-634 191 632 633 0
634 -191 0
634 -632 0
634 -633 0
635 -193 -634 0
-635 193 0
-635 634 0
-636 195 619 519 624 520 627 631 635 0
636 -195 0
636 -619 0
636 -519 0
636 -624 0
636 -520 0
636 -627 0
636 -631 0
636 -635 0
637 -197 -636 0
-637 197 0
-637 636 0
-638 137 217 0
638 -137 0
638 -217 0
639 -139 -638 0
-639 139 0
-639 638 0
-640 195 200 201 639 220 224 228 232 0
640 -195 0
640 -200 0
640 -201 0
640 -639 0
640 -220 0
640 -224 0
640 -228 0
640 -232 0
641 -235 -640 0
-641 235 0
-641 640 0
642 -270 -640 0
-642 270 0
-642 640 0
-643 21 642 0
643 -21 0
643 -642 0
644 -20 -643 0
-644 20 0
-644 643 0
-645 23 641 644 0
645 -23 0
645 -641 0
645 -644 0
646 -27 -645 0
-646 27 0
-646 645 0
647 -29 -645 0
-647 29 0
-647 645 0
-648 34 647 30 0
648 -34 0
648 -647 0
648 -30 0
649 -36 -648 0
-649 36 0
-649 648 0
-650 38 649 0
650 -38 0
650 -649 0
651 -40 -650 0
-651 40 0
-651 650 0
-652 42 646 651 0
652 -42 0
652 -646 0
652 -651 0
653 -282 -652 0
-653 282 0
-653 652 0
-654 284 637 653 0
654 -284 0
654 -637 0
654 -653 0
655 -306 -654 0
-655 306 0
-655 654 0
-656 137 300 317 0
656 -137 0
656 -300 0
656 -317 0
657 -139 -656 0
-657 139 0
-657 656 0
-658 195 407 657 320 323 327 410 0
658 -195 0
658 -407 0
658 -657 0
658 -320 0
658 -323 0
658 -327 0
658 -410 0
659 -235 -658 0
-659 235 0
-659 658 0
660 -352 -386 0
-660 352 0
-660 386 0
661 -270 -658 0
-661 270 0
-661 658 0
662 -414 -386 0
-662 414 0
-662 386 0
-663 21 661 662 0
663 -21 0
663 -661 0
663 -662 0
664 -20 -663 0
-664 20 0
-664 663 0
-665 23 659 660 664 0
665 -23 0
665 -659 0
665 -660 0
665 -664 0
666 -25 -665 0
-666 25 0
-666 665 0
-667 137 422 435 0
667 -137 0
667 -422 0
667 -435 0
668 -139 -667 0
-668 139 0
-668 667 0
-669 195 421 201 668 220 440 444 448 0
669 -195 0
669 -421 0
669 -201 0
669 -668 0
669 -220 0
669 -440 0
669 -444 0
669 -448 0
670 -235 -669 0
-670 235 0
-670 669 0
671 -352 -477 0
-671 352 0
-671 477 0
672 -270 -669 0
-672 270 0
-672 669 0
673 -414 -477 0
-673 414 0
-673 477 0
-674 21 672 673 0
674 -21 0
674 -672 0
674 -673 0
675 -20 -674 0
-675 20 0
-675 674 0
-676 23 670 671 675 0
676 -23 0
676 -670 0
676 -671 0
676 -675 0
677 -27 -676 0
-677 27 0
-677 676 0
-678 195 334 383 320 343 456 347 0
678 -195 0
678 -334 0
678 -383 0
678 -320 0
678 -343 0
678 -456 0
678 -347 0
679 -197 -678 0
-679 197 0
-679 678 0
-680 284 679 0
680 -284 0
680 -679 0
681 -508 -680 0
-681 508 0
-681 680 0
682 -29 -676 0
-682 29 0
-682 676 0
-683 34 682 30 0
683 -34 0
683 -682 0
683 -30 0
684 -36 -683 0
-684 36 0
-684 683 0
-685 38 681 684 0
685 -38 0
685 -681 0
685 -684 0
686 -40 -685 0
-686 40 0
-686 685 0
-687 42 677 686 0
687 -42 0
687 -677 0
687 -686 0
688 -44 -687 0
-688 44 0
-688 687 0
-689 46 666 688 0
689 -46 0
689 -666 0
689 -688 0
690 -97 -689 0
-690 97 0
-690 689 0
-691 195 421 201 668 320 440 444 448 0
691 -195 0
691 -421 0
691 -201 0
691 -668 0
691 -320 0
691 -440 0
691 -444 0
691 -448 0
692 -235 -691 0
-692 235 0
-692 691 0
-693 195 334 201 383 320 452 456 347 0
693 -195 0
693 -334 0
693 -201 0
693 -383 0
693 -320 0
693 -452 0
693 -456 0
693 -347 0
694 -197 -693 0
-694 197 0
-694 693 0
-695 284 694 0
695 -284 0
695 -694 0
696 -352 -695 0
-696 352 0
-696 695 0
697 -270 -691 0
-697 270 0
-697 691 0
698 -414 -695 0
-698 414 0
-698 695 0
-699 21 697 698 0
699 -21 0
699 -697 0
699 -698 0
700 -20 -699 0
-700 20 0
-700 699 0
-701 23 692 696 700 0
701 -23 0
701 -692 0
701 -696 0
701 -700 0
702 -27 -701 0
-702 27 0
-702 701 0
703 -29 -701 0
-703 29 0
-703 701 0
-704 34 703 30 0
704 -34 0
704 -703 0
704 -30 0
705 -36 -704 0
-705 36 0
-705 704 0
-706 38 681 705 0
706 -38 0
706 -681 0
706 -705 0
707 -40 -706 0
-707 40 0
-707 706 0
-708 42 702 707 0
708 -42 0
708 -702 0
708 -707 0
709 -44 -708 0
-709 44 0
-709 708 0
-710 46 666 709 0
710 -46 0
710 -666 0
710 -709 0
711 -99 -710 0
-711 99 0
-711 710 0
-712 3 711 0
712 -3 0
712 -711 0
713 -2 -712 0
-713 2 0
-713 712 0
-714 162 521 0
714 -162 0
714 -521 0
715 -164 -714 0
-715 164 0
-715 714 0
-716 195 519 238 520 715 243 0
716 -195 0
716 -519 0
716 -238 0
716 -520 0
716 -715 0
716 -243 0
717 -197 -716 0
-717 197 0
-717 716 0
718 -235 -244 0
-718 235 0
-718 244 0
719 -270 -244 0
-719 270 0
-719 244 0
-720 21 719 0
720 -21 0
720 -719 0
721 -20 -720 0
-721 20 0
-721 720 0
-722 23 718 721 0
722 -23 0
722 -718 0
722 -721 0
723 -27 -722 0
-723 27 0
-723 722 0
724 -29 -722 0
-724 29 0
-724 722 0
-725 34 724 30 0
725 -34 0
725 -724 0
725 -30 0
726 -36 -725 0
-726 36 0
-726 725 0
-727 38 726 0
727 -38 0
727 -726 0
728 -40 -727 0
-728 40 0
-728 727 0
-729 42 723 728 0
729 -42 0
729 -723 0
729 -728 0
730 -282 -729 0
-730 282 0
-730 729 0
-731 284 717 730 0
731 -284 0
731 -717 0
731 -730 0
732 -290 -731 0
-732 290 0
-732 731 0
733 -235 -372 0
-733 235 0
-733 372 0
734 -352 -389 0
-734 352 0
-734 389 0
735 -270 -372 0
-735 270 0
-735 372 0
736 -414 -389 0
-736 414 0
-736 389 0
-737 21 735 736 0
737 -21 0
737 -735 0
737 -736 0
738 -20 -737 0
-738 20 0
-738 737 0
-739 23 733 734 738 0
739 -23 0
739 -733 0
739 -734 0
739 -738 0
740 -25 -739 0
-740 25 0
-740 739 0
741 -235 -465 0
-741 235 0
-741 465 0
742 -352 -480 0
-742 352 0
-742 480 0
743 -270 -465 0
-743 270 0
-743 465 0
744 -414 -480 0
-744 414 0
-744 480 0
-745 21 743 744 0
745 -21 0
745 -743 0
745 -744 0
746 -20 -745 0
-746 20 0
-746 745 0
-747 23 741 742 746 0
747 -23 0
747 -741 0
747 -742 0
747 -746 0
748 -27 -747 0
-748 27 0
-748 747 0
-749 195 238 320 371 243 0
749 -195 0
749 -238 0
749 -320 0
749 -371 0
749 -243 0
750 -197 -749 0
-750 197 0
-750 749 0
-751 284 750 0
751 -284 0
751 -750 0
752 -508 -751 0
-752 508 0
-752 751 0
753 -29 -747 0
-753 29 0
-753 747 0
-754 34 753 30 0
754 -34 0
754 -753 0
754 -30 0
755 -36 -754 0
-755 36 0
-755 754 0
-756 38 752 755 0
756 -38 0
756 -752 0
756 -755 0
757 -40 -756 0
-757 40 0
-757 756 0
-758 42 748 757 0
758 -42 0
758 -748 0
758 -757 0
759 -44 -758 0
-759 44 0
-759 758 0
-760 46 740 759 0
760 -46 0
760 -740 0
760 -759 0
761 -48 -760 0
-761 48 0
-761 760 0
-762 54 732 761 51 0
762 -54 0
762 -732 0
762 -761 0
762 -51 0
763 -62 -762 0
-763 62 0
-763 762 0
764 -290 -599 0
-764 290 0
-764 599 0
765 -48 -596 0
-765 48 0
-765 596 0
-766 54 764 765 51 0
766 -54 0
766 -764 0
766 -765 0
766 -51 0
767 -56 -766 0
-767 56 0
-767 766 0
768 -187 -766 0
-768 187 0
-768 766 0
-769 191 768 241 0
769 -191 0
769 -768 0
769 -241 0
770 -193 -769 0
-770 193 0
-770 769 0
-771 195 767 597 602 605 608 770 0
771 -195 0
771 -767 0
771 -597 0
771 -602 0
771 -605 0
771 -608 0
771 -770 0
772 -246 -771 0
-772 246 0
-772 771 0
-773 6 772 0
773 -6 0
773 -772 0
774 -5 -773 0
-774 5 0
-774 773 0
-775 8 763 774 0
775 -8 0
775 -763 0
775 -774 0
776 -10 -775 0
-776 10 0
-776 775 0
-777 12 776 0
777 -12 0
777 -776 0
778 -14 -777 0
-778 14 0
-778 777 0
-779 16 618 655 690 713 778 0
779 -16 0
779 -618 0
779 -655 0
779 -690 0
779 -713 0
779 -778 0
780 -781 -779 0
-780 781 0
-780 779 0
-782 16 304 305 312 0
782 -16 0
782 -304 0
782 -305 0
782 -312 0
783 -110 -782 0
-783 110 0
-783 782 0
-784 137 300 783 317 0
784 -137 0
784 -300 0
784 -783 0
784 -317 0
785 -139 -784 0
-785 139 0
-785 784 0
-786 195 407 785 320 323 327 410 0
786 -195 0
786 -407 0
786 -785 0
786 -320 0
786 -323 0
786 -327 0
786 -410 0
787 -235 -786 0
-787 235 0
-787 786 0
788 -110 -140 0
-788 110 0
-788 140 0
-789 137 788 338 0
789 -137 0
789 -788 0
789 -338 0
790 -139 -789 0
-790 139 0
-790 789 0
-791 195 334 790 320 343 327 347 0
791 -195 0
791 -334 0
791 -790 0
791 -320 0
791 -343 0
791 -327 0
791 -347 0
792 -197 -791 0
-792 197 0
-792 791 0
-793 284 792 298 0
793 -284 0
793 -792 0
793 -298 0
794 -352 -793 0
-794 352 0
-794 793 0
-795 284 750 298 0
795 -284 0
795 -750 0
795 -298 0
796 -290 -795 0
-796 290 0
-796 795 0
-797 54 796 51 0
797 -54 0
797 -796 0
797 -51 0
798 -62 -797 0
-798 62 0
-798 797 0
-799 8 798 400 0
799 -8 0
799 -798 0
799 -400 0
800 -10 -799 0
-800 10 0
-800 799 0
-801 12 800 0
801 -12 0
801 -800 0
802 -14 -801 0
-802 14 0
-802 801 0
-803 16 381 387 802 0
803 -16 0
803 -381 0
803 -387 0
803 -802 0
804 -18 -803 0
-804 18 0
-804 803 0
805 -270 -786 0
-805 270 0
-805 786 0
806 -414 -793 0
-806 414 0
-806 793 0
-807 21 805 806 0
807 -21 0
807 -805 0
807 -806 0
808 -20 -807 0
-808 20 0
-808 807 0
-809 23 787 794 804 808 0
809 -23 0
809 -787 0
809 -794 0
809 -804 0
809 -808 0
810 -25 -809 0
-810 25 0
-810 809 0
-811 16 423 424 430 0
811 -16 0
811 -423 0
811 -424 0
811 -430 0
812 -110 -811 0
-812 110 0
-812 811 0
-813 137 422 812 435 0
813 -137 0
813 -422 0
813 -812 0
813 -435 0
814 -139 -813 0
-814 139 0
-814 813 0
-815 195 421 201 814 320 440 444 448 0
815 -195 0
815 -421 0
815 -201 0
815 -814 0
815 -320 0
815 -440 0
815 -444 0
815 -448 0
816 -235 -815 0
-816 235 0
-816 815 0
-817 195 334 201 790 320 452 456 347 0
817 -195 0
817 -334 0
817 -201 0
817 -790 0
817 -320 0
817 -452 0
817 -456 0
817 -347 0
818 -197 -817 0
-818 197 0
-818 817 0
-819 284 818 0
819 -284 0
819 -818 0
820 -352 -819 0
-820 352 0
-820 819 0
-821 195 201 464 320 240 243 0
821 -195 0
821 -201 0
821 -464 0
821 -320 0
821 -240 0
821 -243 0
822 -246 -821 0
-822 246 0
-822 821 0
-823 6 822 0
823 -6 0
823 -822 0
824 -5 -823 0
-824 5 0
-824 823 0
-825 8 824 0
825 -8 0
825 -824 0
826 -10 -825 0
-826 10 0
-826 825 0
-827 12 826 0
827 -12 0
827 -826 0
828 -50 -827 0
-828 50 0
-828 827 0
-829 54 462 828 51 0
829 -54 0
829 -462 0
829 -828 0
829 -51 0
830 -59 -829 0
-830 59 0
-830 829 0
831 -306 -695 0
-831 306 0
-831 695 0
832 -290 -751 0
-832 290 0
-832 751 0
-833 54 832 51 0
833 -54 0
833 -832 0
833 -51 0
834 -62 -833 0
-834 62 0
-834 833 0
-835 195 484 201 464 320 240 487 0
835 -195 0
835 -484 0
835 -201 0
835 -464 0
835 -320 0
835 -240 0
835 -487 0
836 -246 -835 0
-836 246 0
-836 835 0
-837 6 836 0
837 -6 0
837 -836 0
838 -5 -837 0
-838 5 0
-838 837 0
-839 8 834 838 0
839 -8 0
839 -834 0
839 -838 0
840 -10 -839 0
-840 10 0
-840 839 0
-841 12 840 0
841 -12 0
841 -840 0
842 -14 -841 0
-842 14 0
-842 841 0
-843 16 830 831 842 0
843 -16 0
843 -830 0
843 -831 0
843 -842 0
844 -18 -843 0
-844 18 0
-844 843 0
845 -270 -815 0
-845 270 0
-845 815 0
846 -414 -819 0
-846 414 0
-846 819 0
-847 21 845 846 0
847 -21 0
847 -845 0
847 -846 0
848 -20 -847 0
-848 20 0
-848 847 0
-849 23 816 820 844 848 0
849 -23 0
849 -816 0
849 -820 0
849 -844 0
849 -848 0
850 -27 -849 0
-850 27 0
-850 849 0
-851 195 334 790 320 343 456 347 0
851 -195 0
851 -334 0
851 -790 0
851 -320 0
851 -343 0
851 -456 0
851 -347 0
852 -197 -851 0
-852 197 0
-852 851 0
-853 284 852 0
853 -284 0
853 -852 0
854 -508 -853 0
-854 508 0
-854 853 0
855 -29 -849 0
-855 29 0
-855 849 0
-856 34 855 30 0
856 -34 0
856 -855 0
856 -30 0
857 -36 -856 0
-857 36 0
-857 856 0
-858 38 854 857 0
858 -38 0
858 -854 0
858 -857 0
859 -40 -858 0
-859 40 0
-859 858 0
-860 42 850 859 0
860 -42 0
860 -850 0
860 -859 0
861 -44 -860 0
-861 44 0
-861 860 0
-862 46 810 861 0
862 -46 0
862 -810 0
862 -861 0
863 -99 -862 0
-863 99 0
-863 862 0
-864 3 863 0
864 -3 0
864 -863 0
865 -866 -864 0
-865 866 0
-865 864 0
867 -352 -795 0
-867 352 0
-867 795 0
868 -414 -795 0
-868 414 0
-868 795 0
-869 21 735 868 0
869 -21 0
869 -735 0
869 -868 0
870 -20 -869 0
-870 20 0
-870 869 0
-871 23 733 867 870 0
871 -23 0
871 -733 0
871 -867 0
871 -870 0
872 -25 -871 0
-872 25 0
-872 871 0
-873 46 872 759 0
873 -46 0
873 -872 0
873 -759 0
874 -48 -873 0
-874 48 0
-874 873 0
-875 54 732 874 51 0
875 -54 0
875 -732 0
875 -874 0
875 -51 0
876 -62 -875 0
-876 62 0
-876 875 0
-877 8 876 774 0
877 -8 0
877 -876 0
877 -774 0
878 -10 -877 0
-878 10 0
-878 877 0
-879 12 878 0
879 -12 0
879 -878 0
880 -14 -879 0
-880 14 0
-880 879 0
-881 16 618 655 690 713 880 0
881 -16 0
881 -618 0
881 -655 0
881 -690 0
881 -713 0
881 -880 0
882 -883 -881 0
-882 883 0
-882 881 0
-884 54 419 198 49 51 0
884 -54 0
884 -419 0
884 -198 0
884 -49 0
884 -51 0
885 -56 -884 0
-885 56 0
-885 884 0
886 -59 -884 0
-886 59 0
-886 884 0
-887 54 419 198 51 0
887 -54 0
887 -419 0
887 -198 0
887 -51 0
888 -62 -887 0
-888 62 0
-888 887 0
-889 8 888 4 0
889 -8 0
889 -888 0
889 -4 0
890 -10 -889 0
-890 10 0
-890 889 0
-891 12 890 0
891 -12 0
891 -890 0
892 -14 -891 0
-892 14 0
-892 891 0
-893 16 886 424 203 206 892 0
893 -16 0
893 -886 0
893 -424 0
893 -203 0
893 -206 0
893 -892 0
894 -110 -893 0
-894 110 0
-894 893 0
895 -131 -891 0
-895 131 0
-895 891 0
-896 133 895 0
896 -133 0
896 -895 0
897 -135 -896 0
-897 135 0
-897 896 0
-898 137 422 894 897 0
898 -137 0
898 -422 0
898 -894 0
898 -897 0
899 -139 -898 0
-899 139 0
-899 898 0
900 -160 -891 0
-900 160 0
-900 891 0
-901 162 221 900 0
901 -162 0
901 -221 0
901 -900 0
902 -164 -901 0
-902 164 0
-902 901 0
-903 54 419 198 180 51 0
903 -54 0
903 -419 0
903 -198 0
903 -180 0
903 -51 0
904 -62 -903 0
-904 62 0
-904 903 0
-905 8 904 4 0
905 -8 0
905 -904 0
905 -4 0
906 -185 -905 0
-906 185 0
-906 905 0
907 -187 -884 0
-907 187 0
-907 884 0
908 -189 -896 0
-908 189 0
-908 896 0
-909 191 907 908 0
909 -191 0
909 -907 0
909 -908 0
910 -193 -909 0
-910 193 0
-910 909 0
-911 195 885 201 899 220 902 906 910 0
911 -195 0
911 -885 0
911 -201 0
911 -899 0
911 -220 0
911 -902 0
911 -906 0
911 -910 0
912 -235 -911 0
-912 235 0
-912 911 0
913 -197 -233 0
-913 197 0
-913 233 0
-914 284 913 0
914 -284 0
914 -913 0
915 -352 -914 0
-915 352 0
-915 914 0
916 -197 -528 0
-916 197 0
-916 528 0
-917 284 916 0
917 -284 0
917 -916 0
918 -290 -917 0
-918 290 0
-918 917 0
-919 54 918 198 472 51 0
919 -54 0
919 -918 0
919 -198 0
919 -472 0
919 -51 0
920 -59 -919 0
-920 59 0
-920 919 0
921 -197 -640 0
-921 197 0
-921 640 0
-922 284 921 0
922 -284 0
922 -921 0
923 -306 -922 0
-923 306 0
-923 922 0
-924 54 481 198 51 0
924 -54 0
924 -481 0
924 -198 0
924 -51 0
925 -62 -924 0
-925 62 0
-925 924 0
926 -56 -887 0
-926 56 0
-926 887 0
927 -187 -887 0
-927 187 0
-927 887 0
-928 191 927 241 0
928 -191 0
928 -927 0
928 -241 0
929 -193 -928 0
-929 193 0
-929 928 0
-930 195 926 201 464 220 240 929 0
930 -195 0
930 -926 0
930 -201 0
930 -464 0
930 -220 0
930 -240 0
930 -929 0
931 -246 -930 0
-931 246 0
-931 930 0
-932 6 931 0
932 -6 0
932 -931 0
933 -5 -932 0
-933 5 0
-933 932 0
-934 8 925 933 0
934 -8 0
934 -925 0
934 -933 0
935 -10 -934 0
-935 10 0
-935 934 0
-936 12 935 0
936 -12 0
936 -935 0
937 -14 -936 0
-937 14 0
-937 936 0
-938 16 920 923 203 206 937 0
938 -16 0
938 -920 0
938 -923 0
938 -203 0
938 -206 0
938 -937 0
939 -18 -938 0
-939 18 0
-939 938 0
940 -270 -911 0
-940 270 0
-940 911 0
941 -414 -914 0
-941 414 0
-941 914 0
-942 21 940 941 0
942 -21 0
942 -940 0
942 -941 0
943 -20 -942 0
-943 20 0
-943 942 0
-944 23 912 915 939 943 0
944 -23 0
944 -912 0
944 -915 0
944 -939 0
944 -943 0
945 -27 -944 0
-945 27 0
-945 944 0
-946 46 24 0
946 -46 0
946 -24 0
947 -48 -946 0
-947 48 0
-947 946 0
-948 54 947 49 51 0
948 -54 0
948 -947 0
948 -49 0
948 -51 0
949 -56 -948 0
-949 56 0
-949 948 0
-950 46 70 0
950 -46 0
950 -70 0
951 -81 -950 0
-951 81 0
-951 950 0
-952 46 83 0
952 -46 0
952 -83 0
953 -48 -952 0
-953 48 0
-953 952 0
-954 54 953 49 51 0
954 -54 0
954 -953 0
954 -49 0
954 -51 0
955 -59 -954 0
-955 59 0
-955 954 0
956 -97 -952 0
-956 97 0
-956 952 0
957 -99 -952 0
-957 99 0
-957 952 0
-958 3 957 0
958 -3 0
958 -957 0
959 -2 -958 0
-959 2 0
-959 958 0
-960 54 953 51 0
960 -54 0
960 -953 0
960 -51 0
961 -62 -960 0
-961 62 0
-961 960 0
-962 8 961 4 0
962 -8 0
962 -961 0
962 -4 0
963 -10 -962 0
-963 10 0
-963 962 0
-964 12 963 0
964 -12 0
964 -963 0
965 -14 -964 0
-965 14 0
-965 964 0
-966 16 955 956 959 965 0
966 -16 0
966 -955 0
966 -956 0
966 -959 0
966 -965 0
967 -110 -966 0
-967 110 0
-967 966 0
-968 46 114 0
968 -46 0
968 -114 0
969 -48 -968 0
-969 48 0
-969 968 0
-970 54 969 51 0
970 -54 0
970 -969 0
970 -51 0
971 -62 -970 0
-971 62 0
-971 970 0
-972 8 971 4 0
972 -8 0
972 -971 0
972 -4 0
973 -10 -972 0
-973 10 0
-973 972 0
-974 12 973 0
974 -12 0
974 -973 0
975 -131 -974 0
-975 131 0
-975 974 0
-976 133 975 0
976 -133 0
976 -975 0
977 -135 -976 0
-977 135 0
-977 976 0
-978 137 967 977 0
978 -137 0
978 -967 0
978 -977 0
979 -139 -978 0
-979 139 0
-979 978 0
-980 46 143 0
980 -46 0
980 -143 0
981 -99 -980 0
-981 99 0
-981 980 0
-982 3 981 0
982 -3 0
982 -981 0
983 -156 -982 0
-983 156 0
-983 982 0
984 -158 -950 0
-984 158 0
-984 950 0
985 -160 -974 0
-985 160 0
-985 974 0
-986 162 984 985 0
986 -162 0
986 -984 0
986 -985 0
987 -164 -986 0
-987 164 0
-987 986 0
-988 46 169 0
988 -46 0
988 -169 0
989 -48 -988 0
-989 48 0
-989 988 0
-990 54 989 180 51 0
990 -54 0
990 -989 0
990 -180 0
990 -51 0
991 -62 -990 0
-991 62 0
-991 990 0
-992 8 991 4 0
992 -8 0
992 -991 0
992 -4 0
993 -185 -992 0
-993 185 0
-993 992 0
994 -187 -948 0
-994 187 0
-994 948 0
995 -189 -976 0
-995 189 0
-995 976 0
-996 191 994 995 0
996 -191 0
996 -994 0
996 -995 0
997 -193 -996 0
-997 193 0
-997 996 0
-998 195 949 951 979 983 987 993 997 0
998 -195 0
998 -949 0
998 -951 0
998 -979 0
998 -983 0
998 -987 0
998 -993 0
998 -997 0
999 -197 -998 0
-999 197 0
-999 998 0
-1000 284 999 0
1000 -284 0
1000 -999 0
1001 -508 -1000 0
-1001 508 0
-1001 1000 0
1002 -29 -944 0
-1002 29 0
-1002 944 0
-1003 34 1002 30 0
1003 -34 0
1003 -1002 0
1003 -30 0
1004 -36 -1003 0
-1004 36 0
-1004 1003 0
-1005 38 1001 1004 0
1005 -38 0
1005 -1001 0
1005 -1004 0
1006 -40 -1005 0
-1006 40 0
-1006 1005 0
-1007 42 945 1006 0
1007 -42 0
1007 -945 0
1007 -1006 0
1008 -1009 -1007 0
-1008 1009 0
-1008 1007 0
-1010 1011 882 1008 0
1010 -1011 0
1010 -882 0
1010 -1008 0
1012 -1013 -1010 0
-1012 1013 0
-1012 1010 0
1014 -40 -38 0
-1014 40 0
-1014 38 0
-1015 42 1014 0
1015 -42 0
1015 -1014 0
1016 -282 -1015 0
-1016 282 0
-1016 1015 0
-1017 284 1016 0
1017 -284 0
1017 -1016 0
1018 -290 -1017 0
-1018 290 0
-1018 1017 0
-1019 38 588 0
1019 -38 0
1019 -588 0
1020 -40 -1019 0
-1020 40 0
-1020 1019 0
-1021 42 1020 0
1021 -42 0
1021 -1020 0
1022 -44 -1021 0
-1022 44 0
-1022 1021 0
-1023 46 1022 0
1023 -46 0
1023 -1022 0
1024 -48 -1023 0
-1024 48 0
-1024 1023 0
-1025 54 1018 1024 49 51 0
1025 -54 0
1025 -1018 0
1025 -1024 0
1025 -49 0
1025 -51 0
1026 -56 -1025 0
-1026 56 0
-1026 1025 0
1027 -81 -1023 0
-1027 81 0
-1027 1023 0
1028 -301 -1017 0
-1028 301 0
-1028 1017 0
1029 -59 -1025 0
-1029 59 0
-1029 1025 0
1030 -306 -1017 0
-1030 306 0
-1030 1017 0
1031 -97 -1023 0
-1031 97 0
-1031 1023 0
1032 -99 -1023 0
-1032 99 0
-1032 1023 0
-1033 3 1032 0
1033 -3 0
1033 -1032 0
1034 -2 -1033 0
-1034 2 0
-1034 1033 0
-1035 54 1018 1024 51 0
1035 -54 0
1035 -1018 0
1035 -1024 0
1035 -51 0
1036 -62 -1035 0
-1036 62 0
-1036 1035 0
-1037 8 1036 4 0
1037 -8 0
1037 -1036 0
1037 -4 0
1038 -10 -1037 0
-1038 10 0
-1038 1037 0
-1039 12 1038 0
1039 -12 0
1039 -1038 0
1040 -14 -1039 0
-1040 14 0
-1040 1039 0
-1041 16 1029 1030 1031 1034 1040 0
1041 -16 0
1041 -1029 0
1041 -1030 0
1041 -1031 0
1041 -1034 0
1041 -1040 0
1042 -110 -1041 0
-1042 110 0
-1042 1041 0
1043 -131 -1039 0
-1043 131 0
-1043 1039 0
-1044 133 1043 0
1044 -133 0
1044 -1043 0
1045 -135 -1044 0
-1045 135 0
-1045 1044 0
-1046 137 1028 1042 1045 0
1046 -137 0
1046 -1028 0
1046 -1042 0
1046 -1045 0
1047 -139 -1046 0
-1047 139 0
-1047 1046 0
1048 -156 -1033 0
-1048 156 0
-1048 1033 0
1049 -158 -1023 0
-1049 158 0
-1049 1023 0
1050 -160 -1039 0
-1050 160 0
-1050 1039 0
-1051 162 1049 1050 0
1051 -162 0
1051 -1049 0
1051 -1050 0
1052 -164 -1051 0
-1052 164 0
-1052 1051 0
-1053 54 1018 1024 180 51 0
1053 -54 0
1053 -1018 0
1053 -1024 0
1053 -180 0
1053 -51 0
1054 -62 -1053 0
-1054 62 0
-1054 1053 0
-1055 8 1054 4 0
1055 -8 0
1055 -1054 0
1055 -4 0
1056 -185 -1055 0
-1056 185 0
-1056 1055 0
1057 -187 -1025 0
-1057 187 0
-1057 1025 0
1058 -189 -1044 0
-1058 189 0
-1058 1044 0
-1059 191 1057 1058 0
1059 -191 0
1059 -1057 0
1059 -1058 0
1060 -193 -1059 0
-1060 193 0
-1060 1059 0
-1061 195 1026 1027 1047 1048 1052 1056 1060 0
1061 -195 0
1061 -1026 0
1061 -1027 0
1061 -1047 0
1061 -1048 0
1061 -1052 0
1061 -1056 0
1061 -1060 0
1062 -235 -1061 0
-1062 235 0
-1062 1061 0
1063 -44 -1015 0
-1063 44 0
-1063 1015 0
-1064 46 1063 0
1064 -46 0
1064 -1063 0
1065 -48 -1064 0
-1065 48 0
-1065 1064 0
-1066 54 1065 49 51 0
1066 -54 0
1066 -1065 0
1066 -49 0
1066 -51 0
1067 -56 -1066 0
-1067 56 0
-1067 1066 0
1068 -81 -1064 0
-1068 81 0
-1068 1064 0
1069 -59 -1066 0
-1069 59 0
-1069 1066 0
1070 -97 -1064 0
-1070 97 0
-1070 1064 0
1071 -99 -1064 0
-1071 99 0
-1071 1064 0
-1072 3 1071 0
1072 -3 0
1072 -1071 0
1073 -2 -1072 0
-1073 2 0
-1073 1072 0
-1074 54 1065 51 0
1074 -54 0
1074 -1065 0
1074 -51 0
1075 -62 -1074 0
-1075 62 0
-1075 1074 0
-1076 8 1075 4 0
1076 -8 0
1076 -1075 0
1076 -4 0
1077 -10 -1076 0
-1077 10 0
-1077 1076 0
-1078 12 1077 0
1078 -12 0
1078 -1077 0
1079 -14 -1078 0
-1079 14 0
-1079 1078 0
-1080 16 1069 1070 1073 1079 0
1080 -16 0
1080 -1069 0
1080 -1070 0
1080 -1073 0
1080 -1079 0
1081 -110 -1080 0
-1081 110 0
-1081 1080 0
1082 -131 -1078 0
-1082 131 0
-1082 1078 0
-1083 133 1082 0
1083 -133 0
1083 -1082 0
1084 -135 -1083 0
-1084 135 0
-1084 1083 0
-1085 137 1081 1084 0
1085 -137 0
1085 -1081 0
1085 -1084 0
1086 -139 -1085 0
-1086 139 0
-1086 1085 0
1087 -156 -1072 0
-1087 156 0
-1087 1072 0
1088 -158 -1064 0
-1088 158 0
-1088 1064 0
1089 -160 -1078 0
-1089 160 0
-1089 1078 0
-1090 162 1088 1089 0
1090 -162 0
1090 -1088 0
1090 -1089 0
1091 -164 -1090 0
-1091 164 0
-1091 1090 0
-1092 54 1065 180 51 0
1092 -54 0
1092 -1065 0
1092 -180 0
1092 -51 0
1093 -62 -1092 0
-1093 62 0
-1093 1092 0
-1094 8 1093 4 0
1094 -8 0
1094 -1093 0
1094 -4 0
1095 -185 -1094 0
-1095 185 0
-1095 1094 0
1096 -187 -1066 0
-1096 187 0
-1096 1066 0
1097 -189 -1083 0
-1097 189 0
-1097 1083 0
-1098 191 1096 1097 0
1098 -191 0
1098 -1096 0
1098 -1097 0
1099 -193 -1098 0
-1099 193 0
-1099 1098 0
-1100 195 1067 1068 1086 1087 1091 1095 1099 0
1100 -195 0
1100 -1067 0
1100 -1068 0
1100 -1086 0
1100 -1087 0
1100 -1091 0
1100 -1095 0
1100 -1099 0
1101 -197 -1100 0
-1101 197 0
-1101 1100 0
-1102 284 1101 1016 0
1102 -284 0
1102 -1101 0
1102 -1016 0
1103 -352 -1102 0
-1103 352 0
-1103 1102 0
-1104 162 1088 358 0
1104 -162 0
1104 -1088 0
1104 -358 0
1105 -164 -1104 0
-1105 164 0
-1105 1104 0
-1106 195 1068 357 1087 1105 361 364 0
1106 -195 0
1106 -1068 0
1106 -357 0
1106 -1087 0
1106 -1105 0
1106 -361 0
1106 -364 0
1107 -197 -1106 0
-1107 197 0
-1107 1106 0
-1108 284 1107 1016 0
1108 -284 0
1108 -1107 0
1108 -1016 0
1109 -290 -1108 0
-1109 290 0
-1109 1108 0
-1110 38 566 0
1110 -38 0
1110 -566 0
1111 -40 -1110 0
-1111 40 0
-1111 1110 0
-1112 42 1111 0
1112 -42 0
1112 -1111 0
1113 -44 -1112 0
-1113 44 0
-1113 1112 0
-1114 46 1113 0
1114 -46 0
1114 -1113 0
1115 -48 -1114 0
-1115 48 0
-1115 1114 0
-1116 137 1028 236 0
1116 -137 0
1116 -1028 0
1116 -236 0
1117 -139 -1116 0
-1117 139 0
-1117 1116 0
-1118 162 1049 0
1118 -162 0
1118 -1049 0
1119 -164 -1118 0
-1119 164 0
-1119 1118 0
-1120 195 1027 1117 1048 1119 243 0
1120 -195 0
1120 -1027 0
1120 -1117 0
1120 -1048 0
1120 -1119 0
1120 -243 0
1121 -246 -1120 0
-1121 246 0
-1121 1120 0
-1122 6 1121 0
1122 -6 0
1122 -1121 0
1123 -5 -1122 0
-1123 5 0
-1123 1122 0
-1124 8 1123 0
1124 -8 0
1124 -1123 0
1125 -10 -1124 0
-1125 10 0
-1125 1124 0
-1126 12 1125 0
1126 -12 0
1126 -1125 0
1127 -50 -1126 0
-1127 50 0
-1127 1126 0
-1128 54 1109 1115 1127 51 0
1128 -54 0
1128 -1109 0
1128 -1115 0
1128 -1127 0
1128 -51 0
1129 -59 -1128 0
-1129 59 0
-1129 1128 0
-1130 137 1084 0
1130 -137 0
1130 -1084 0
1131 -139 -1130 0
-1131 139 0
-1131 1130 0
-1132 195 1067 1068 1131 1087 1091 1095 1099 0
1132 -195 0
1132 -1067 0
1132 -1068 0
1132 -1131 0
1132 -1087 0
1132 -1091 0
1132 -1095 0
1132 -1099 0
1133 -197 -1132 0
-1133 197 0
-1133 1132 0
-1134 284 1133 1016 0
1134 -284 0
1134 -1133 0
1134 -1016 0
1135 -306 -1134 0
-1135 306 0
-1135 1134 0
1136 -508 -477 0
-1136 508 0
-1136 477 0
-1137 38 1136 0
1137 -38 0
1137 -1136 0
1138 -40 -1137 0
-1138 40 0
-1138 1137 0
-1139 42 1138 0
1139 -42 0
1139 -1138 0
1140 -44 -1139 0
-1140 44 0
-1140 1139 0
-1141 46 1140 0
1141 -46 0
1141 -1140 0
1142 -97 -1141 0
-1142 97 0
-1142 1141 0
1143 -508 -695 0
-1143 508 0
-1143 695 0
-1144 38 1143 0
1144 -38 0
1144 -1143 0
1145 -40 -1144 0
-1145 40 0
-1145 1144 0
-1146 42 1145 0
1146 -42 0
1146 -1145 0
1147 -44 -1146 0
-1147 44 0
-1147 1146 0
-1148 46 1147 0
1148 -46 0
1148 -1147 0
1149 -99 -1148 0
-1149 99 0
-1149 1148 0
-1150 3 1149 0
1150 -3 0
1150 -1149 0
1151 -2 -1150 0
-1151 2 0
-1151 1150 0
-1152 162 1088 0
1152 -162 0
1152 -1088 0
1153 -164 -1152 0
-1153 164 0
-1153 1152 0
-1154 195 1068 238 1087 1153 243 0
1154 -195 0
1154 -1068 0
1154 -238 0
1154 -1087 0
1154 -1153 0
1154 -243 0
1155 -197 -1154 0
-1155 197 0
-1155 1154 0
-1156 284 1155 1016 0
1156 -284 0
1156 -1155 0
1156 -1016 0
1157 -290 -1156 0
-1157 290 0
-1157 1156 0
1158 -508 -480 0
-1158 508 0
-1158 480 0
-1159 38 1158 0
1159 -38 0
1159 -1158 0
1160 -40 -1159 0
-1160 40 0
-1160 1159 0
-1161 42 1160 0
1161 -42 0
1161 -1160 0
1162 -44 -1161 0
-1162 44 0
-1162 1161 0
-1163 46 1162 0
1163 -46 0
1163 -1162 0
1164 -48 -1163 0
-1164 48 0
-1164 1163 0
-1165 54 1157 1164 51 0
1165 -54 0
1165 -1157 0
1165 -1164 0
1165 -51 0
1166 -62 -1165 0
-1166 62 0
-1166 1165 0
1167 -56 -1035 0
-1167 56 0
-1167 1035 0
1168 -187 -1035 0
-1168 187 0
-1168 1035 0
-1169 191 1168 241 0
1169 -191 0
1169 -1168 0
1169 -241 0
1170 -193 -1169 0
-1170 193 0
-1170 1169 0
-1171 195 1167 1027 1117 1048 1119 1170 0
1171 -195 0
1171 -1167 0
1171 -1027 0
1171 -1117 0
1171 -1048 0
1171 -1119 0
1171 -1170 0
1172 -246 -1171 0
-1172 246 0
-1172 1171 0
-1173 6 1172 0
1173 -6 0
1173 -1172 0
1174 -5 -1173 0
-1174 5 0
-1174 1173 0
-1175 8 1166 1174 0
1175 -8 0
1175 -1166 0
1175 -1174 0
1176 -10 -1175 0
-1176 10 0
-1176 1175 0
-1177 12 1176 0
1177 -12 0
1177 -1176 0
1178 -14 -1177 0
-1178 14 0
-1178 1177 0
-1179 16 1129 1135 1142 1151 1178 0
1179 -16 0
1179 -1129 0
1179 -1135 0
1179 -1142 0
1179 -1151 0
1179 -1178 0
1180 -18 -1179 0
-1180 18 0
-1180 1179 0
1181 -270 -1061 0
-1181 270 0
-1181 1061 0
1182 -414 -1102 0
-1182 414 0
-1182 1102 0
-1183 21 1181 1182 0
1183 -21 0
1183 -1181 0
1183 -1182 0
1184 -20 -1183 0
-1184 20 0
-1184 1183 0
-1185 23 1062 1103 1180 1184 0
1185 -23 0
1185 -1062 0
1185 -1103 0
1185 -1180 0
1185 -1184 0
1186 -29 -1185 0
-1186 29 0
-1186 1185 0
-1187 34 1186 30 0
1187 -34 0
1187 -1186 0
1187 -30 0
1188 -1189 -1187 0
-1188 1189 0
-1188 1187 0
-1190 1191 285 517 780 865 1012 1188 0
1190 -1191 0
1190 -285 0
1190 -517 0
1190 -780 0
1190 -865 0
1190 -1012 0
1190 -1188 0
1192 -1193 -1190 0
-1192 1193 0
-1192 1190 0
1194 -286 -350 0
-1194 286 0
-1194 350 0
-1195 16 381 387 1 802 0
1195 -16 0
1195 -381 0
1195 -387 0
1195 -1 0
1195 -802 0
1196 -781 -1195 0
-1196 781 0
-1196 1195 0
1197 -866 -3 0
-1197 866 0
-1197 3 0
1198 -883 -1195 0
-1198 883 0
-1198 1195 0
1199 -508 -459 0
-1199 508 0
-1199 459 0
-1200 38 1199 294 0
1200 -38 0
1200 -1199 0
1200 -294 0
1201 -40 -1200 0
-1201 40 0
-1201 1200 0
-1202 42 1201 0
1202 -42 0
1202 -1201 0
1203 -1009 -1202 0
-1203 1009 0
-1203 1202 0
-1204 1011 1198 1203 0
1204 -1011 0
1204 -1198 0
1204 -1203 0
1205 -1013 -1204 0
-1205 1013 0
-1205 1204 0
1206 -1189 -293 0
-1206 1189 0
-1206 293 0
-1207 1191 1194 1196 1197 1205 1206 0
1207 -1191 0
1207 -1194 0
1207 -1196 0
1207 -1197 0
1207 -1205 0
1207 -1206 0
1208 -1209 -1207 0
-1208 1209 0
-1208 1207 0
1210 -781 -15 0
-1210 781 0
-1210 15 0
1211 -883 -15 0
-1211 883 0
-1211 15 0
-1212 1011 1211 0
1212 -1011 0
1212 -1211 0
1213 -1013 -1212 0
-1213 1013 0
-1213 1212 0
-1214 1191 1210 1197 1213 1206 0
1214 -1191 0
1214 -1210 0
1214 -1197 0
1214 -1213 0
1214 -1206 0
1215 -1216 -1214 0
-1215 1216 0
-1215 1214 0
-1217 42 1215 296 0
1217 -42 0
1217 -1215 0
1217 -296 0
1218 -282 -1217 0
-1218 282 0
-1218 1217 0
-1219 284 1218 0
1219 -284 0
1219 -1218 0
1220 -290 -1219 0
-1220 290 0
-1220 1219 0
-1221 54 1220 49 51 0
1221 -54 0
1221 -1220 0
1221 -49 0
1221 -51 0
1222 -56 -1221 0
-1222 56 0
-1222 1221 0
1223 -781 -67 0
-1223 781 0
-1223 67 0
1224 -883 -67 0
-1224 883 0
-1224 67 0
-1225 1011 1224 0
1225 -1011 0
1225 -1224 0
1226 -1013 -1225 0
-1226 1013 0
-1226 1225 0
-1227 1191 1223 1197 1226 1206 0
1227 -1191 0
1227 -1223 0
1227 -1197 0
1227 -1226 0
1227 -1206 0
1228 -1216 -1227 0
-1228 1216 0
-1228 1227 0
-1229 42 1228 296 0
1229 -42 0
1229 -1228 0
1229 -296 0
1230 -282 -1229 0
-1230 282 0
-1230 1229 0
-1231 284 1230 0
1231 -284 0
1231 -1230 0
1232 -301 -1231 0
-1232 301 0
-1232 1231 0
1233 -59 -1221 0
-1233 59 0
-1233 1221 0
1234 -1013 -1011 0
-1234 1013 0
-1234 1011 0
-1235 1191 1197 1234 1206 0
1235 -1191 0
1235 -1197 0
1235 -1234 0
1235 -1206 0
1236 -1216 -1235 0
-1236 1216 0
-1236 1235 0
-1237 42 1236 296 0
1237 -42 0
1237 -1236 0
1237 -296 0
1238 -282 -1237 0
-1238 282 0
-1238 1237 0
-1239 284 1238 0
1239 -284 0
1239 -1238 0
1240 -306 -1239 0
-1240 306 0
-1240 1239 0
1241 -290 -1239 0
-1241 290 0
-1241 1239 0
-1242 54 1241 51 0
1242 -54 0
1242 -1241 0
1242 -51 0
1243 -62 -1242 0
-1243 62 0
-1243 1242 0
-1244 8 1243 4 0
1244 -8 0
1244 -1243 0
1244 -4 0
1245 -10 -1244 0
-1245 10 0
-1245 1244 0
-1246 12 1245 0
1246 -12 0
1246 -1245 0
1247 -14 -1246 0
-1247 14 0
-1247 1246 0
-1248 16 1233 1240 1 1247 0
1248 -16 0
1248 -1233 0
1248 -1240 0
1248 -1 0
1248 -1247 0
1249 -110 -1248 0
-1249 110 0
-1249 1248 0
1250 -781 -111 0
-1250 781 0
-1250 111 0
1251 -883 -111 0
-1251 883 0
-1251 111 0
-1252 1011 1251 0
1252 -1011 0
1252 -1251 0
1253 -1013 -1252 0
-1253 1013 0
-1253 1252 0
-1254 1191 1250 1197 1253 1206 0
1254 -1191 0
1254 -1250 0
1254 -1197 0
1254 -1253 0
1254 -1206 0
1255 -1216 -1254 0
-1255 1216 0
-1255 1254 0
-1256 42 1255 296 0
1256 -42 0
1256 -1255 0
1256 -296 0
1257 -282 -1256 0
-1257 282 0
-1257 1256 0
-1258 284 1257 0
1258 -284 0
1258 -1257 0
1259 -290 -1258 0
-1259 290 0
-1259 1258 0
-1260 54 1259 51 0
1260 -54 0
1260 -1259 0
1260 -51 0
1261 -62 -1260 0
-1261 62 0
-1261 1260 0
-1262 8 1261 4 0
1262 -8 0
1262 -1261 0
1262 -4 0
1263 -10 -1262 0
-1263 10 0
-1263 1262 0
-1264 12 1263 0
1264 -12 0
1264 -1263 0
1265 -131 -1264 0
-1265 131 0
-1265 1264 0
-1266 133 1265 0
1266 -133 0
1266 -1265 0
1267 -135 -1266 0
-1267 135 0
-1267 1266 0
-1268 137 1232 1249 1267 0
1268 -137 0
1268 -1232 0
1268 -1249 0
1268 -1267 0
1269 -139 -1268 0
-1269 139 0
-1269 1268 0
1270 -160 -1264 0
-1270 160 0
-1270 1264 0
-1271 162 1270 0
1271 -162 0
1271 -1270 0
1272 -164 -1271 0
-1272 164 0
-1272 1271 0
1273 -781 -166 0
-1273 781 0
-1273 166 0
1274 -883 -166 0
-1274 883 0
-1274 166 0
-1275 1011 1274 0
1275 -1011 0
1275 -1274 0
1276 -1013 -1275 0
-1276 1013 0
-1276 1275 0
-1277 1191 1273 1197 1276 1206 0
1277 -1191 0
1277 -1273 0
1277 -1197 0
1277 -1276 0
1277 -1206 0
1278 -1216 -1277 0
-1278 1216 0
-1278 1277 0
-1279 42 1278 296 0
1279 -42 0
1279 -1278 0
1279 -296 0
1280 -282 -1279 0
-1280 282 0
-1280 1279 0
-1281 284 1280 0
1281 -284 0
1281 -1280 0
1282 -290 -1281 0
-1282 290 0
-1282 1281 0
-1283 54 1282 180 51 0
1283 -54 0
1283 -1282 0
1283 -180 0
1283 -51 0
1284 -62 -1283 0
-1284 62 0
-1284 1283 0
-1285 8 1284 4 0
1285 -8 0
1285 -1284 0
1285 -4 0
1286 -185 -1285 0
-1286 185 0
-1286 1285 0
1287 -187 -1221 0
-1287 187 0
-1287 1221 0
1288 -189 -1266 0
-1288 189 0
-1288 1266 0
-1289 191 1287 1288 0
1289 -191 0
1289 -1287 0
1289 -1288 0
1290 -193 -1289 0
-1290 193 0
-1290 1289 0
-1291 195 1222 1269 320 1272 1286 1290 0
1291 -195 0
1291 -1222 0
1291 -1269 0
1291 -320 0
1291 -1272 0
1291 -1286 0
1291 -1290 0
1292 -235 -1291 0
-1292 235 0
-1292 1291 0
-1293 54 252 51 0
1293 -54 0
1293 -252 0
1293 -51 0
1294 -59 -1293 0
-1294 59 0
-1294 1293 0
1295 -56 -60 0
-1295 56 0
-1295 60 0
1296 -187 -60 0
-1296 187 0
-1296 60 0
-1297 191 1296 241 0
1297 -191 0
1297 -1296 0
1297 -241 0
1298 -193 -1297 0
-1298 193 0
-1298 1297 0
-1299 195 1295 201 238 220 240 1298 0
1299 -195 0
1299 -1295 0
1299 -201 0
1299 -238 0
1299 -220 0
1299 -240 0
1299 -1298 0
1300 -246 -1299 0
-1300 246 0
-1300 1299 0
-1301 6 1300 0
1301 -6 0
1301 -1300 0
1302 -5 -1301 0
-1302 5 0
-1302 1301 0
-1303 8 61 1302 0
1303 -8 0
1303 -61 0
1303 -1302 0
1304 -10 -1303 0
-1304 10 0
-1304 1303 0
-1305 12 1304 0
1305 -12 0
1305 -1304 0
1306 -14 -1305 0
-1306 14 0
-1306 1305 0
-1307 16 1294 1 1306 0
1307 -16 0
1307 -1294 0
1307 -1 0
1307 -1306 0
1308 -781 -1307 0
-1308 781 0
-1308 1307 0
1309 -883 -1307 0
-1309 883 0
-1309 1307 0
-1310 1011 1309 0
1310 -1011 0
1310 -1309 0
1311 -1013 -1310 0
-1311 1013 0
-1311 1310 0
-1312 1191 1308 1197 1311 1206 0
1312 -1191 0
1312 -1308 0
1312 -1197 0
1312 -1311 0
1312 -1206 0
1313 -1216 -1312 0
-1313 1216 0
-1313 1312 0
-1314 42 1313 296 0
1314 -42 0
1314 -1313 0
1314 -296 0
1315 -282 -1314 0
-1315 282 0
-1315 1314 0
-1316 284 505 1315 0
1316 -284 0
1316 -505 0
1316 -1315 0
1317 -352 -1316 0
-1317 352 0
-1317 1316 0
-1318 284 366 1238 0
1318 -284 0
1318 -366 0
1318 -1238 0
1319 -290 -1318 0
-1319 290 0
-1319 1318 0
1320 -301 -1239 0
-1320 301 0
-1320 1239 0
-1321 137 1320 236 0
1321 -137 0
1321 -1320 0
1321 -236 0
1322 -139 -1321 0
-1322 139 0
-1322 1321 0
-1323 195 1322 320 371 243 0
1323 -195 0
1323 -1322 0
1323 -320 0
1323 -371 0
1323 -243 0
1324 -246 -1323 0
-1324 246 0
-1324 1323 0
-1325 6 1324 0
1325 -6 0
1325 -1324 0
1326 -5 -1325 0
-1326 5 0
-1326 1325 0
-1327 8 1326 0
1327 -8 0
1327 -1326 0
1328 -10 -1327 0
-1328 10 0
-1328 1327 0
-1329 12 1328 0
1329 -12 0
1329 -1328 0
1330 -50 -1329 0
-1330 50 0
-1330 1329 0
-1331 54 1319 1330 51 0
1331 -54 0
1331 -1319 0
1331 -1330 0
1331 -51 0
1332 -59 -1331 0
-1332 59 0
-1332 1331 0
-1333 284 679 1238 0
1333 -284 0
1333 -679 0
1333 -1238 0
1334 -306 -1333 0
-1334 306 0
-1334 1333 0
-1335 284 750 1238 0
1335 -284 0
1335 -750 0
1335 -1238 0
1336 -290 -1335 0
-1336 290 0
-1336 1335 0
-1337 54 1336 51 0
1337 -54 0
1337 -1336 0
1337 -51 0
1338 -62 -1337 0
-1338 62 0
-1338 1337 0
1339 -56 -1242 0
-1339 56 0
-1339 1242 0
1340 -187 -1242 0
-1340 187 0
-1340 1242 0
-1341 191 1340 241 0
1341 -191 0
1341 -1340 0
1341 -241 0
1342 -193 -1341 0
-1342 193 0
-1342 1341 0
-1343 195 1339 1322 320 371 1342 0
1343 -195 0
1343 -1339 0
1343 -1322 0
1343 -320 0
1343 -371 0
1343 -1342 0
1344 -246 -1343 0
-1344 246 0
-1344 1343 0
-1345 6 1344 0
1345 -6 0
1345 -1344 0
1346 -5 -1345 0
-1346 5 0
-1346 1345 0
-1347 8 1338 1346 0
1347 -8 0
1347 -1338 0
1347 -1346 0
1348 -10 -1347 0
-1348 10 0
-1348 1347 0
-1349 12 1348 0
1349 -12 0
1349 -1348 0
1350 -14 -1349 0
-1350 14 0
-1350 1349 0
-1351 16 1332 1334 1 1350 0
1351 -16 0
1351 -1332 0
1351 -1334 0
1351 -1 0
1351 -1350 0
1352 -18 -1351 0
-1352 18 0
-1352 1351 0
1353 -270 -1291 0
-1353 270 0
-1353 1291 0
1354 -414 -1316 0
-1354 414 0
-1354 1316 0
-1355 21 1353 1354 0
1355 -21 0
1355 -1353 0
1355 -1354 0
1356 -20 -1355 0
-1356 20 0
-1356 1355 0
-1357 23 1208 1292 1317 1352 1356 0
1357 -23 0
1357 -1208 0
1357 -1292 0
1357 -1317 0
1357 -1352 0
1357 -1356 0
1358 -25 -1357 0
-1358 25 0
-1358 1357 0
1359 -286 -506 0
-1359 286 0
-1359 506 0
-1360 195 464 320 371 243 0
1360 -195 0
1360 -464 0
1360 -320 0
1360 -371 0
1360 -243 0
1361 -246 -1360 0
-1361 246 0
-1361 1360 0
-1362 6 1361 0
1362 -6 0
1362 -1361 0
1363 -5 -1362 0
-1363 5 0
-1363 1362 0
-1364 8 1363 0
1364 -8 0
1364 -1363 0
1365 -10 -1364 0
-1365 10 0
-1365 1364 0
-1366 12 1365 0
1366 -12 0
1366 -1365 0
1367 -50 -1366 0
-1367 50 0
-1367 1366 0
-1368 54 462 1367 51 0
1368 -54 0
1368 -462 0
1368 -1367 0
1368 -51 0
1369 -59 -1368 0
-1369 59 0
-1369 1368 0
1370 -306 -680 0
-1370 306 0
-1370 680 0
-1371 195 484 464 320 371 487 0
1371 -195 0
1371 -484 0
1371 -464 0
1371 -320 0
1371 -371 0
1371 -487 0
1372 -246 -1371 0
-1372 246 0
-1372 1371 0
-1373 6 1372 0
1373 -6 0
1373 -1372 0
1374 -5 -1373 0
-1374 5 0
-1374 1373 0
-1375 8 834 1374 0
1375 -8 0
1375 -834 0
1375 -1374 0
1376 -10 -1375 0
-1376 10 0
-1376 1375 0
-1377 12 1376 0
1377 -12 0
1377 -1376 0
1378 -14 -1377 0
-1378 14 0
-1378 1377 0
-1379 16 1369 1370 1 1378 0
1379 -16 0
1379 -1369 0
1379 -1370 0
1379 -1 0
1379 -1378 0
1380 -781 -1379 0
-1380 781 0
-1380 1379 0
1381 -883 -1379 0
-1381 883 0
-1381 1379 0
-1382 1011 1381 0
1382 -1011 0
1382 -1381 0
1383 -1013 -1382 0
-1383 1013 0
-1383 1382 0
1384 -1189 -510 0
-1384 1189 0
-1384 510 0
-1385 1191 1359 1380 1197 1383 1384 0
1385 -1191 0
1385 -1359 0
1385 -1380 0
1385 -1197 0
1385 -1383 0
1385 -1384 0
1386 -1216 -1385 0
-1386 1216 0
-1386 1385 0
1387 -286 -459 0
-1387 286 0
-1387 459 0
1388 -781 -496 0
-1388 781 0
-1388 496 0
1389 -883 -496 0
-1389 883 0
-1389 496 0
-1390 1011 1389 0
1390 -1011 0
1390 -1389 0
1391 -1013 -1390 0
-1391 1013 0
-1391 1390 0
-1392 1191 1387 1388 1197 1391 1206 0
1392 -1191 0
1392 -1387 0
1392 -1388 0
1392 -1197 0
1392 -1391 0
1392 -1206 0
1393 -1209 -1392 0
-1393 1209 0
-1393 1392 0
-1394 23 1393 450 460 497 501 0
1394 -23 0
1394 -1393 0
1394 -450 0
1394 -460 0
1394 -497 0
1394 -501 0
1395 -27 -1394 0
-1395 27 0
-1395 1394 0
1396 -29 -1394 0
-1396 29 0
-1396 1394 0
-1397 34 1396 30 0
1397 -34 0
1397 -1396 0
1397 -30 0
1398 -36 -1397 0
-1398 36 0
-1398 1397 0
-1399 38 507 1398 0
1399 -38 0
1399 -507 0
1399 -1398 0
1400 -40 -1399 0
-1400 40 0
-1400 1399 0
-1401 42 1386 1395 1400 0
1401 -42 0
1401 -1386 0
1401 -1395 0
1401 -1400 0
1402 -44 -1401 0
-1402 44 0
-1402 1401 0
-1403 46 1358 1402 0
1403 -46 0
1403 -1358 0
1403 -1402 0
1404 -1405 -1403 0
-1404 1405 0
-1404 1403 0
-1406 195 334 340 320 327 347 0
1406 -195 0
1406 -334 0
1406 -340 0
1406 -320 0
1406 -327 0
1406 -347 0
1407 -197 -1406 0
-1407 197 0
-1407 1406 0
-1408 284 1407 298 0
1408 -284 0
1408 -1407 0
1408 -298 0
1409 -286 -1408 0
-1409 286 0
-1409 1408 0
-1410 195 357 320 361 364 0
1410 -195 0
1410 -357 0
1410 -320 0
1410 -361 0
1410 -364 0
1411 -197 -1410 0
-1411 197 0
-1411 1410 0
-1412 284 1411 298 0
1412 -284 0
1412 -1411 0
1412 -298 0
1413 -290 -1412 0
-1413 290 0
-1413 1412 0
-1414 195 370 320 243 0
1414 -195 0
1414 -370 0
1414 -320 0
1414 -243 0
1415 -246 -1414 0
-1415 246 0
-1415 1414 0
-1416 6 1415 0
1416 -6 0
1416 -1415 0
1417 -5 -1416 0
-1417 5 0
-1417 1416 0
-1418 8 1417 0
1418 -8 0
1418 -1417 0
1419 -10 -1418 0
-1419 10 0
-1419 1418 0
-1420 12 1419 0
1420 -12 0
1420 -1419 0
1421 -50 -1420 0
-1421 50 0
-1421 1420 0
-1422 54 1413 1421 51 0
1422 -54 0
1422 -1413 0
1422 -1421 0
1422 -51 0
1423 -59 -1422 0
-1423 59 0
-1423 1422 0
-1424 195 334 383 320 327 347 0
1424 -195 0
1424 -334 0
1424 -383 0
1424 -320 0
1424 -327 0
1424 -347 0
1425 -197 -1424 0
-1425 197 0
-1425 1424 0
-1426 284 1425 298 0
1426 -284 0
1426 -1425 0
1426 -298 0
1427 -306 -1426 0
-1427 306 0
-1427 1426 0
1428 -197 -1414 0
-1428 197 0
-1428 1414 0
-1429 284 1428 298 0
1429 -284 0
1429 -1428 0
1429 -298 0
1430 -290 -1429 0
-1430 290 0
-1430 1429 0
-1431 54 1430 51 0
1431 -54 0
1431 -1430 0
1431 -51 0
1432 -62 -1431 0
-1432 62 0
-1432 1431 0
-1433 195 393 370 320 396 0
1433 -195 0
1433 -393 0
1433 -370 0
1433 -320 0
1433 -396 0
1434 -246 -1433 0
-1434 246 0
-1434 1433 0
-1435 6 1434 0
1435 -6 0
1435 -1434 0
1436 -5 -1435 0
-1436 5 0
-1436 1435 0
-1437 8 1432 1436 0
1437 -8 0
1437 -1432 0
1437 -1436 0
1438 -10 -1437 0
-1438 10 0
-1438 1437 0
-1439 12 1438 0
1439 -12 0
1439 -1438 0
1440 -14 -1439 0
-1440 14 0
-1440 1439 0
-1441 16 1423 1427 1 1440 0
1441 -16 0
1441 -1423 0
1441 -1427 0
1441 -1 0
1441 -1440 0
1442 -781 -1441 0
-1442 781 0
-1442 1441 0
1443 -883 -1441 0
-1443 883 0
-1443 1441 0
-1444 195 334 201 340 220 456 347 0
1444 -195 0
1444 -334 0
1444 -201 0
1444 -340 0
1444 -220 0
1444 -456 0
1444 -347 0
1445 -197 -1444 0
-1445 197 0
-1445 1444 0
-1446 284 1445 0
1446 -284 0
1446 -1445 0
1447 -508 -1446 0
-1447 508 0
-1447 1446 0
-1448 38 1447 294 0
1448 -38 0
1448 -1447 0
1448 -294 0
1449 -40 -1448 0
-1449 40 0
-1449 1448 0
-1450 42 1449 0
1450 -42 0
1450 -1449 0
1451 -1009 -1450 0
-1451 1009 0
-1451 1450 0
-1452 1011 1443 1451 0
1452 -1011 0
1452 -1443 0
1452 -1451 0
1453 -1013 -1452 0
-1453 1013 0
-1453 1452 0
-1454 1191 1409 1442 1197 1453 1206 0
1454 -1191 0
1454 -1409 0
1454 -1442 0
1454 -1197 0
1454 -1453 0
1454 -1206 0
1455 -1209 -1454 0
-1455 1209 0
-1455 1454 0
-1456 195 1222 1269 320 1286 1290 0
1456 -195 0
1456 -1222 0
1456 -1269 0
1456 -320 0
1456 -1286 0
1456 -1290 0
1457 -235 -1456 0
-1457 235 0
-1457 1456 0
-1458 195 334 340 320 456 347 0
1458 -195 0
1458 -334 0
1458 -340 0
1458 -320 0
1458 -456 0
1458 -347 0
1459 -197 -1458 0
-1459 197 0
-1459 1458 0
-1460 195 201 238 220 243 0
1460 -195 0
1460 -201 0
1460 -238 0
1460 -220 0
1460 -243 0
1461 -246 -1460 0
-1461 246 0
-1461 1460 0
-1462 6 1461 0
1462 -6 0
1462 -1461 0
1463 -5 -1462 0
-1463 5 0
-1463 1462 0
-1464 8 1463 0
1464 -8 0
1464 -1463 0
1465 -10 -1464 0
-1465 10 0
-1465 1464 0
-1466 12 1465 0
1466 -12 0
1466 -1465 0
1467 -50 -1466 0
-1467 50 0
-1467 1466 0
-1468 54 1467 51 0
1468 -54 0
1468 -1467 0
1468 -51 0
1469 -59 -1468 0
-1469 59 0
-1469 1468 0
-1470 195 1295 201 238 220 1298 0
1470 -195 0
1470 -1295 0
1470 -201 0
1470 -238 0
1470 -220 0
1470 -1298 0
1471 -246 -1470 0
-1471 246 0
-1471 1470 0
-1472 6 1471 0
1472 -6 0
1472 -1471 0
1473 -5 -1472 0
-1473 5 0
-1473 1472 0
-1474 8 61 1473 0
1474 -8 0
1474 -61 0
1474 -1473 0
1475 -10 -1474 0
-1475 10 0
-1475 1474 0
-1476 12 1475 0
1476 -12 0
1476 -1475 0
1477 -14 -1476 0
-1477 14 0
-1477 1476 0
-1478 16 1469 1 1477 0
1478 -16 0
1478 -1469 0
1478 -1 0
1478 -1477 0
1479 -781 -1478 0
-1479 781 0
-1479 1478 0
1480 -883 -1478 0
-1480 883 0
-1480 1478 0
-1481 1011 1480 0
1481 -1011 0
1481 -1480 0
1482 -1013 -1481 0
-1482 1013 0
-1482 1481 0
-1483 1191 1479 1197 1482 1206 0
1483 -1191 0
1483 -1479 0
1483 -1197 0
1483 -1482 0
1483 -1206 0
1484 -1216 -1483 0
-1484 1216 0
-1484 1483 0
-1485 42 1484 296 0
1485 -42 0
1485 -1484 0
1485 -296 0
1486 -282 -1485 0
-1486 282 0
-1486 1485 0
-1487 284 1459 1486 0
1487 -284 0
1487 -1459 0
1487 -1486 0
1488 -352 -1487 0
-1488 352 0
-1488 1487 0
-1489 284 1411 1238 0
1489 -284 0
1489 -1411 0
1489 -1238 0
1490 -290 -1489 0
-1490 290 0
-1490 1489 0
-1491 195 1322 320 243 0
1491 -195 0
1491 -1322 0
1491 -320 0
1491 -243 0
1492 -246 -1491 0
-1492 246 0
-1492 1491 0
-1493 6 1492 0
1493 -6 0
1493 -1492 0
1494 -5 -1493 0
-1494 5 0
-1494 1493 0
-1495 8 1494 0
1495 -8 0
1495 -1494 0
1496 -10 -1495 0
-1496 10 0
-1496 1495 0
-1497 12 1496 0
1497 -12 0
1497 -1496 0
1498 -50 -1497 0
-1498 50 0
-1498 1497 0
-1499 54 1490 1498 51 0
1499 -54 0
1499 -1490 0
1499 -1498 0
1499 -51 0
1500 -59 -1499 0
-1500 59 0
-1500 1499 0
-1501 195 334 383 320 456 347 0
1501 -195 0
1501 -334 0
1501 -383 0
1501 -320 0
1501 -456 0
1501 -347 0
1502 -197 -1501 0
-1502 197 0
-1502 1501 0
-1503 284 1502 1238 0
1503 -284 0
1503 -1502 0
1503 -1238 0
1504 -306 -1503 0
-1504 306 0
-1504 1503 0
-1505 195 238 320 243 0
1505 -195 0
1505 -238 0
1505 -320 0
1505 -243 0
1506 -197 -1505 0
-1506 197 0
-1506 1505 0
-1507 284 1506 1238 0
1507 -284 0
1507 -1506 0
1507 -1238 0
1508 -290 -1507 0
-1508 290 0
-1508 1507 0
-1509 54 1508 51 0
1509 -54 0
1509 -1508 0
1509 -51 0
1510 -62 -1509 0
-1510 62 0
-1510 1509 0
-1511 195 1339 1322 320 1342 0
1511 -195 0
1511 -1339 0
1511 -1322 0
1511 -320 0
1511 -1342 0
1512 -246 -1511 0
-1512 246 0
-1512 1511 0
-1513 6 1512 0
1513 -6 0
1513 -1512 0
1514 -5 -1513 0
-1514 5 0
-1514 1513 0
-1515 8 1510 1514 0
1515 -8 0
1515 -1510 0
1515 -1514 0
1516 -10 -1515 0
-1516 10 0
-1516 1515 0
-1517 12 1516 0
1517 -12 0
1517 -1516 0
1518 -14 -1517 0
-1518 14 0
-1518 1517 0
-1519 16 1500 1504 1 1518 0
1519 -16 0
1519 -1500 0
1519 -1504 0
1519 -1 0
1519 -1518 0
1520 -18 -1519 0
-1520 18 0
-1520 1519 0
1521 -270 -1456 0
-1521 270 0
-1521 1456 0
1522 -414 -1487 0
-1522 414 0
-1522 1487 0
-1523 21 1521 1522 0
1523 -21 0
1523 -1521 0
1523 -1522 0
1524 -20 -1523 0
-1524 20 0
-1524 1523 0
-1525 23 1455 1457 1488 1520 1524 0
1525 -23 0
1525 -1455 0
1525 -1457 0
1525 -1488 0
1525 -1520 0
1525 -1524 0
1526 -25 -1525 0
-1526 25 0
-1526 1525 0
-1527 284 1459 0
1527 -284 0
1527 -1459 0
1528 -286 -1527 0
-1528 286 0
-1528 1527 0
-1529 284 1411 0
1529 -284 0
1529 -1411 0
1530 -290 -1529 0
-1530 290 0
-1530 1529 0
-1531 195 464 320 243 0
1531 -195 0
1531 -464 0
1531 -320 0
1531 -243 0
1532 -246 -1531 0
-1532 246 0
-1532 1531 0
-1533 6 1532 0
1533 -6 0
1533 -1532 0
1534 -5 -1533 0
-1534 5 0
-1534 1533 0
-1535 8 1534 0
1535 -8 0
1535 -1534 0
1536 -10 -1535 0
-1536 10 0
-1536 1535 0
-1537 12 1536 0
1537 -12 0
1537 -1536 0
1538 -50 -1537 0
-1538 50 0
-1538 1537 0
-1539 54 1530 1538 51 0
1539 -54 0
1539 -1530 0
1539 -1538 0
1539 -51 0
1540 -59 -1539 0
-1540 59 0
-1540 1539 0
-1541 284 1502 0
1541 -284 0
1541 -1502 0
1542 -306 -1541 0
-1542 306 0
-1542 1541 0
-1543 284 1506 0
1543 -284 0
1543 -1506 0
1544 -290 -1543 0
-1544 290 0
-1544 1543 0
-1545 54 1544 51 0
1545 -54 0
1545 -1544 0
1545 -51 0
1546 -62 -1545 0
-1546 62 0
-1546 1545 0
-1547 195 484 464 320 487 0
1547 -195 0
1547 -484 0
1547 -464 0
1547 -320 0
1547 -487 0
1548 -246 -1547 0
-1548 246 0
-1548 1547 0
-1549 6 1548 0
1549 -6 0
1549 -1548 0
1550 -5 -1549 0
-1550 5 0
-1550 1549 0
-1551 8 1546 1550 0
1551 -8 0
1551 -1546 0
1551 -1550 0
1552 -10 -1551 0
-1552 10 0
-1552 1551 0
-1553 12 1552 0
1553 -12 0
1553 -1552 0
1554 -14 -1553 0
-1554 14 0
-1554 1553 0
-1555 16 1540 1542 1 1554 0
1555 -16 0
1555 -1540 0
1555 -1542 0
1555 -1 0
1555 -1554 0
1556 -781 -1555 0
-1556 781 0
-1556 1555 0
1557 -883 -1555 0
-1557 883 0
-1557 1555 0
-1558 1011 1557 0
1558 -1011 0
1558 -1557 0
1559 -1013 -1558 0
-1559 1013 0
-1559 1558 0
-1560 195 421 201 437 220 444 448 0
1560 -195 0
1560 -421 0
1560 -201 0
1560 -437 0
1560 -220 0
1560 -444 0
1560 -448 0
1561 -235 -1560 0
-1561 235 0
-1561 1560 0
1562 -352 -1446 0
-1562 352 0
-1562 1446 0
-1563 195 334 201 383 220 456 347 0
1563 -195 0
1563 -334 0
1563 -201 0
1563 -383 0
1563 -220 0
1563 -456 0
1563 -347 0
1564 -197 -1563 0
-1564 197 0
-1564 1563 0
-1565 284 1564 0
1565 -284 0
1565 -1564 0
1566 -306 -1565 0
-1566 306 0
-1566 1565 0
-1567 16 1540 1566 1 1554 0
1567 -16 0
1567 -1540 0
1567 -1566 0
1567 -1 0
1567 -1554 0
1568 -18 -1567 0
-1568 18 0
-1568 1567 0
1569 -270 -1560 0
-1569 270 0
-1569 1560 0
1570 -414 -1446 0
-1570 414 0
-1570 1446 0
-1571 21 1569 1570 0
1571 -21 0
1571 -1569 0
1571 -1570 0
1572 -20 -1571 0
-1572 20 0
-1572 1571 0
-1573 23 1561 1562 1568 1572 0
1573 -23 0
1573 -1561 0
1573 -1562 0
1573 -1568 0
1573 -1572 0
1574 -29 -1573 0
-1574 29 0
-1574 1573 0
-1575 34 1574 30 0
1575 -34 0
1575 -1574 0
1575 -30 0
1576 -1189 -1575 0
-1576 1189 0
-1576 1575 0
-1577 1191 1528 1556 1197 1559 1576 0
1577 -1191 0
1577 -1528 0
1577 -1556 0
1577 -1197 0
1577 -1559 0
1577 -1576 0
1578 -1216 -1577 0
-1578 1216 0
-1578 1577 0
1579 -286 -1446 0
-1579 286 0
-1579 1446 0
1580 -781 -1567 0
-1580 781 0
-1580 1567 0
1581 -883 -1567 0
-1581 883 0
-1581 1567 0
-1582 1011 1581 0
1582 -1011 0
1582 -1581 0
1583 -1013 -1582 0
-1583 1013 0
-1583 1582 0
-1584 1191 1579 1580 1197 1583 1206 0
1584 -1191 0
1584 -1579 0
1584 -1580 0
1584 -1197 0
1584 -1583 0
1584 -1206 0
1585 -1209 -1584 0
-1585 1209 0
-1585 1584 0
-1586 8 1510 1550 0
1586 -8 0
1586 -1510 0
1586 -1550 0
1587 -10 -1586 0
-1587 10 0
-1587 1586 0
-1588 12 1587 0
1588 -12 0
1588 -1587 0
1589 -14 -1588 0
-1589 14 0
-1589 1588 0
-1590 16 1540 1566 1 1589 0
1590 -16 0
1590 -1540 0
1590 -1566 0
1590 -1 0
1590 -1589 0
1591 -18 -1590 0
-1591 18 0
-1591 1590 0
-1592 23 1585 1561 1562 1591 1572 0
1592 -23 0
1592 -1585 0
1592 -1561 0
1592 -1562 0
1592 -1591 0
1592 -1572 0
1593 -27 -1592 0
-1593 27 0
-1593 1592 0
1594 -508 -1527 0
-1594 508 0
-1594 1527 0
-1595 23 1585 1561 1562 1568 1572 0
1595 -23 0
1595 -1585 0
1595 -1561 0
1595 -1562 0
1595 -1568 0
1595 -1572 0
1596 -29 -1595 0
-1596 29 0
-1596 1595 0
-1597 34 1596 30 0
1597 -34 0
1597 -1596 0
1597 -30 0
1598 -36 -1597 0
-1598 36 0
-1598 1597 0
-1599 38 1594 1598 0
1599 -38 0
1599 -1594 0
1599 -1598 0
1600 -40 -1599 0
-1600 40 0
-1600 1599 0
-1601 42 1578 1593 1600 0
1601 -42 0
1601 -1578 0
1601 -1593 0
1601 -1600 0
1602 -44 -1601 0
-1602 44 0
-1602 1601 0
-1603 46 1526 1602 0
1603 -46 0
1603 -1526 0
1603 -1602 0
1604 -158 -1603 0
-1604 158 0
-1604 1603 0
1605 -1009 -121 0
-1605 1009 0
-1605 121 0
-1606 1011 1251 1605 0
1606 -1011 0
1606 -1251 0
1606 -1605 0
1607 -1013 -1606 0
-1607 1013 0
-1607 1606 0
-1608 1191 1250 1197 1607 1206 0
1608 -1191 0
1608 -1250 0
1608 -1197 0
1608 -1607 0
1608 -1206 0
1609 -1209 -1608 0
-1609 1209 0
-1609 1608 0
-1610 23 1609 112 19 0
1610 -23 0
1610 -1609 0
1610 -112 0
1610 -19 0
1611 -25 -1610 0
-1611 25 0
-1611 1610 0
1612 -1189 -117 0
-1612 1189 0
-1612 117 0
-1613 1191 1250 1197 1253 1612 0
1613 -1191 0
1613 -1250 0
1613 -1197 0
1613 -1253 0
1613 -1612 0
1614 -1216 -1613 0
-1614 1216 0
-1614 1613 0
1615 -1209 -1254 0
-1615 1209 0
-1615 1254 0
-1616 23 1615 112 19 0
1616 -23 0
1616 -1615 0
1616 -112 0
1616 -19 0
1617 -27 -1616 0
-1617 27 0
-1617 1616 0
1618 -29 -1616 0
-1618 29 0
-1618 1616 0
-1619 34 1618 30 0
1619 -34 0
1619 -1618 0
1619 -30 0
1620 -36 -1619 0
-1620 36 0
-1620 1619 0
-1621 38 1620 0
1621 -38 0
1621 -1620 0
1622 -40 -1621 0
-1622 40 0
-1622 1621 0
-1623 42 1614 1617 1622 0
1623 -42 0
1623 -1614 0
1623 -1617 0
1623 -1622 0
1624 -44 -1623 0
-1624 44 0
-1624 1623 0
-1625 46 1611 1624 0
1625 -46 0
1625 -1611 0
1625 -1624 0
1626 -81 -1625 0
-1626 81 0
-1626 1625 0
1627 -1009 -90 0
-1627 1009 0
-1627 90 0
-1628 1011 1627 0
1628 -1011 0
1628 -1627 0
1629 -1013 -1628 0
-1629 1013 0
-1629 1628 0
-1630 1191 1197 1629 1206 0
1630 -1191 0
1630 -1197 0
1630 -1629 0
1630 -1206 0
1631 -1209 -1630 0
-1631 1209 0
-1631 1630 0
-1632 23 1631 19 0
1632 -23 0
1632 -1631 0
1632 -19 0
1633 -25 -1632 0
-1633 25 0
-1633 1632 0
1634 -1189 -86 0
-1634 1189 0
-1634 86 0
-1635 1191 1197 1234 1634 0
1635 -1191 0
1635 -1197 0
1635 -1234 0
1635 -1634 0
1636 -1216 -1635 0
-1636 1216 0
-1636 1635 0
-1637 23 1615 19 0
1637 -23 0
1637 -1615 0
1637 -19 0
1638 -27 -1637 0
-1638 27 0
-1638 1637 0
1639 -29 -1637 0
-1639 29 0
-1639 1637 0
-1640 34 1639 30 0
1640 -34 0
1640 -1639 0
1640 -30 0
1641 -36 -1640 0
-1641 36 0
-1641 1640 0
-1642 38 1641 0
1642 -38 0
1642 -1641 0
1643 -40 -1642 0
-1643 40 0
-1643 1642 0
-1644 42 1636 1638 1643 0
1644 -42 0
1644 -1636 0
1644 -1638 0
1644 -1643 0
1645 -44 -1644 0
-1645 44 0
-1645 1644 0
-1646 46 1633 1645 0
1646 -46 0
1646 -1633 0
1646 -1645 0
1647 -97 -1646 0
-1647 97 0
-1647 1646 0
1648 -1209 -1235 0
-1648 1209 0
-1648 1235 0
-1649 23 1648 19 0
1649 -23 0
1649 -1648 0
1649 -19 0
1650 -27 -1649 0
-1650 27 0
-1650 1649 0
1651 -29 -1649 0
-1651 29 0
-1651 1649 0
-1652 34 1651 30 0
1652 -34 0
1652 -1651 0
1652 -30 0
1653 -36 -1652 0
-1653 36 0
-1653 1652 0
-1654 38 1653 0
1654 -38 0
1654 -1653 0
1655 -40 -1654 0
-1655 40 0
-1655 1654 0
-1656 42 1636 1650 1655 0
1656 -42 0
1656 -1636 0
1656 -1650 0
1656 -1655 0
1657 -44 -1656 0
-1657 44 0
-1657 1656 0
-1658 46 1633 1657 0
1658 -46 0
1658 -1633 0
1658 -1657 0
1659 -99 -1658 0
-1659 99 0
-1659 1658 0
-1660 3 1659 0
1660 -3 0
1660 -1659 0
1661 -2 -1660 0
-1661 2 0
-1661 1660 0
-1662 16 1647 1661 0
1662 -16 0
1662 -1647 0
1662 -1661 0
1663 -110 -1662 0
-1663 110 0
-1663 1662 0
-1664 137 1663 236 0
1664 -137 0
1664 -1663 0
1664 -236 0
1665 -139 -1664 0
-1665 139 0
-1665 1664 0
1666 -781 -16 0
-1666 781 0
-1666 16 0
1667 -883 -16 0
-1667 883 0
-1667 16 0
1668 -1009 -297 0
-1668 1009 0
-1668 297 0
-1669 1011 1667 1668 0
1669 -1011 0
1669 -1667 0
1669 -1668 0
1670 -1013 -1669 0
-1670 1013 0
-1670 1669 0
-1671 1191 1666 1197 1670 1206 0
1671 -1191 0
1671 -1666 0
1671 -1197 0
1671 -1670 0
1671 -1206 0
1672 -1209 -1671 0
-1672 1209 0
-1672 1671 0
1673 -18 -16 0
-1673 18 0
-1673 16 0
-1674 23 1672 1673 19 0
1674 -23 0
1674 -1672 0
1674 -1673 0
1674 -19 0
1675 -25 -1674 0
-1675 25 0
-1675 1674 0
-1676 1011 1667 0
1676 -1011 0
1676 -1667 0
1677 -1013 -1676 0
-1677 1013 0
-1677 1676 0
-1678 23 1673 19 0
1678 -23 0
1678 -1673 0
1678 -19 0
1679 -29 -1678 0
-1679 29 0
-1679 1678 0
-1680 34 1679 30 0
1680 -34 0
1680 -1679 0
1680 -30 0
1681 -1189 -1680 0
-1681 1189 0
-1681 1680 0
-1682 1191 1666 1197 1677 1681 0
1682 -1191 0
1682 -1666 0
1682 -1197 0
1682 -1677 0
1682 -1681 0
1683 -1216 -1682 0
-1683 1216 0
-1683 1682 0
1684 -27 -1674 0
-1684 27 0
-1684 1674 0
-1685 1191 1666 1197 1677 1206 0
1685 -1191 0
1685 -1666 0
1685 -1197 0
1685 -1677 0
1685 -1206 0
1686 -1209 -1685 0
-1686 1209 0
-1686 1685 0
-1687 23 1686 1673 19 0
1687 -23 0
1687 -1686 0
1687 -1673 0
1687 -19 0
1688 -29 -1687 0
-1688 29 0
-1688 1687 0
-1689 34 1688 30 0
1689 -34 0
1689 -1688 0
1689 -30 0
1690 -36 -1689 0
-1690 36 0
-1690 1689 0
-1691 38 1690 0
1691 -38 0
1691 -1690 0
1692 -40 -1691 0
-1692 40 0
-1692 1691 0
-1693 42 1683 1684 1692 0
1693 -42 0
1693 -1683 0
1693 -1684 0
1693 -1692 0
1694 -44 -1693 0
-1694 44 0
-1694 1693 0
-1695 46 1675 1694 0
1695 -46 0
1695 -1675 0
1695 -1694 0
1696 -99 -1695 0
-1696 99 0
-1696 1695 0
-1697 3 1696 0
1697 -3 0
1697 -1696 0
1698 -156 -1697 0
-1698 156 0
-1698 1697 0
-1699 195 1626 1665 1698 243 0
1699 -195 0
1699 -1626 0
1699 -1665 0
1699 -1698 0
1699 -243 0
1700 -197 -1699 0
-1700 197 0
-1700 1699 0
1701 -110 -111 0
-1701 110 0
-1701 111 0
-1702 137 1701 236 0
1702 -137 0
1702 -1701 0
1702 -236 0
1703 -139 -1702 0
-1703 139 0
-1703 1702 0
-1704 195 201 1703 220 243 0
1704 -195 0
1704 -201 0
1704 -1703 0
1704 -220 0
1704 -243 0
1705 -235 -1704 0
-1705 235 0
-1705 1704 0
1706 -270 -1704 0
-1706 270 0
-1706 1704 0
-1707 21 1706 0
1707 -21 0
1707 -1706 0
1708 -20 -1707 0
-1708 20 0
-1708 1707 0
-1709 23 1705 112 1708 0
1709 -23 0
1709 -1705 0
1709 -112 0
1709 -1708 0
1710 -25 -1709 0
-1710 25 0
-1710 1709 0
-1711 46 1710 0
1711 -46 0
1711 -1710 0
1712 -518 -1711 0
-1712 518 0
-1712 1711 0
-1713 23 1705 1708 0
1713 -23 0
1713 -1705 0
1713 -1708 0
1714 -25 -1713 0
-1714 25 0
-1714 1713 0
-1715 46 1714 0
1715 -46 0
1715 -1714 0
1716 -97 -1715 0
-1716 97 0
-1716 1715 0
1717 -235 -1505 0
-1717 235 0
-1717 1505 0
1718 -270 -1505 0
-1718 270 0
-1718 1505 0
-1719 21 1718 0
1719 -21 0
1719 -1718 0
1720 -20 -1719 0
-1720 20 0
-1720 1719 0
-1721 23 1717 1720 0
1721 -23 0
1721 -1717 0
1721 -1720 0
1722 -25 -1721 0
-1722 25 0
-1722 1721 0
-1723 46 1722 0
1723 -46 0
1723 -1722 0
1724 -99 -1723 0
-1724 99 0
-1724 1723 0
-1725 3 1724 0
1725 -3 0
1725 -1724 0
1726 -2 -1725 0
-1726 2 0
-1726 1725 0
-1727 16 1716 1726 0
1727 -16 0
1727 -1716 0
1727 -1726 0
1728 -781 -1727 0
-1728 781 0
-1728 1727 0
1729 -110 -16 0
-1729 110 0
-1729 16 0
-1730 137 1729 236 0
1730 -137 0
1730 -1729 0
1730 -236 0
1731 -139 -1730 0
-1731 139 0
-1731 1730 0
-1732 195 201 1731 320 243 0
1732 -195 0
1732 -201 0
1732 -1731 0
1732 -320 0
1732 -243 0
1733 -235 -1732 0
-1733 235 0
-1733 1732 0
1734 -270 -1732 0
-1734 270 0
-1734 1732 0
-1735 21 1734 0
1735 -21 0
1735 -1734 0
1736 -20 -1735 0
-1736 20 0
-1736 1735 0
-1737 23 1733 1673 1736 0
1737 -23 0
1737 -1733 0
1737 -1673 0
1737 -1736 0
1738 -25 -1737 0
-1738 25 0
-1738 1737 0
-1739 46 1738 0
1739 -46 0
1739 -1738 0
1740 -99 -1739 0
-1740 99 0
-1740 1739 0
-1741 3 1740 0
1741 -3 0
1741 -1740 0
1742 -866 -1741 0
-1742 866 0
-1742 1741 0
1743 -97 -1723 0
-1743 97 0
-1743 1723 0
-1744 16 1743 1726 0
1744 -16 0
1744 -1743 0
1744 -1726 0
1745 -883 -1744 0
-1745 883 0
-1745 1744 0
-1746 1011 1745 0
1746 -1011 0
1746 -1745 0
1747 -1013 -1746 0
-1747 1013 0
-1747 1746 0
-1748 16 203 206 0
1748 -16 0
1748 -203 0
1748 -206 0
1749 -110 -1748 0
-1749 110 0
-1749 1748 0
-1750 137 1749 236 0
1750 -137 0
1750 -1749 0
1750 -236 0
1751 -139 -1750 0
-1751 139 0
-1751 1750 0
-1752 195 201 1751 220 243 0
1752 -195 0
1752 -201 0
1752 -1751 0
1752 -220 0
1752 -243 0
1753 -235 -1752 0
-1753 235 0
-1753 1752 0
1754 -18 -1748 0
-1754 18 0
-1754 1748 0
1755 -270 -1752 0
-1755 270 0
-1755 1752 0
-1756 21 1755 0
1756 -21 0
1756 -1755 0
1757 -20 -1756 0
-1757 20 0
-1757 1756 0
-1758 23 1753 1754 1757 0
1758 -23 0
1758 -1753 0
1758 -1754 0
1758 -1757 0
1759 -29 -1758 0
-1759 29 0
-1759 1758 0
-1760 34 1759 30 0
1760 -34 0
1760 -1759 0
1760 -30 0
1761 -1189 -1760 0
-1761 1189 0
-1761 1760 0
-1762 1191 1712 1728 1742 1747 1761 0
1762 -1191 0
1762 -1712 0
1762 -1728 0
1762 -1742 0
1762 -1747 0
1762 -1761 0
1763 -1216 -1762 0
-1763 1216 0
-1763 1762 0
1764 -518 -46 0
-1764 518 0
-1764 46 0
1765 -781 -1748 0
-1765 781 0
-1765 1748 0
1766 -866 -205 0
-1766 866 0
-1766 205 0
1767 -883 -1748 0
-1767 883 0
-1767 1748 0
-1768 1011 1767 0
1768 -1011 0
1768 -1767 0
1769 -1013 -1768 0
-1769 1013 0
-1769 1768 0
-1770 1191 1764 1765 1766 1769 1206 0
1770 -1191 0
1770 -1764 0
1770 -1765 0
1770 -1766 0
1770 -1769 0
1770 -1206 0
1771 -1209 -1770 0
-1771 1209 0
-1771 1770 0
-1772 23 1771 1753 1754 1757 0
1772 -23 0
1772 -1771 0
1772 -1753 0
1772 -1754 0
1772 -1757 0
1773 -27 -1772 0
-1773 27 0
-1773 1772 0
1774 -29 -1772 0
-1774 29 0
-1774 1772 0
-1775 34 1774 30 0
1775 -34 0
1775 -1774 0
1775 -30 0
1776 -36 -1775 0
-1776 36 0
-1776 1775 0
-1777 38 1776 0
1777 -38 0
1777 -1776 0
1778 -40 -1777 0
-1778 40 0
-1778 1777 0
-1779 42 1763 1773 1778 0
1779 -42 0
1779 -1763 0
1779 -1773 0
1779 -1778 0
1780 -282 -1779 0
-1780 282 0
-1780 1779 0
-1781 284 1700 1780 0
1781 -284 0
1781 -1700 0
1781 -1780 0
1782 -290 -1781 0
-1782 290 0
-1782 1781 0
-1783 195 1703 320 243 0
1783 -195 0
1783 -1703 0
1783 -320 0
1783 -243 0
1784 -197 -1783 0
-1784 197 0
-1784 1783 0
-1785 284 1784 298 0
1785 -284 0
1785 -1784 0
1785 -298 0
1786 -286 -1785 0
-1786 286 0
-1786 1785 0
1787 -306 -1785 0
-1787 306 0
-1787 1785 0
-1788 16 1787 1 0
1788 -16 0
1788 -1787 0
1788 -1 0
1789 -781 -1788 0
-1789 781 0
-1789 1788 0
1790 -883 -1788 0
-1790 883 0
-1790 1788 0
-1791 284 1784 0
1791 -284 0
1791 -1784 0
1792 -508 -1791 0
-1792 508 0
-1792 1791 0
-1793 38 1792 294 0
1793 -38 0
1793 -1792 0
1793 -294 0
1794 -40 -1793 0
-1794 40 0
-1794 1793 0
-1795 42 1794 0
1795 -42 0
1795 -1794 0
1796 -1009 -1795 0
-1796 1009 0
-1796 1795 0
-1797 1011 1790 1796 0
1797 -1011 0
1797 -1790 0
1797 -1796 0
1798 -1013 -1797 0
-1798 1013 0
-1798 1797 0
-1799 1191 1786 1789 1197 1798 1206 0
1799 -1191 0
1799 -1786 0
1799 -1789 0
1799 -1197 0
1799 -1798 0
1799 -1206 0
1800 -1209 -1799 0
-1800 1209 0
-1800 1799 0
1801 -301 -1258 0
-1801 301 0
-1801 1258 0
-1802 16 1240 1 0
1802 -16 0
1802 -1240 0
1802 -1 0
1803 -110 -1802 0
-1803 110 0
-1803 1802 0
-1804 137 1801 1803 236 0
1804 -137 0
1804 -1801 0
1804 -1803 0
1804 -236 0
1805 -139 -1804 0
-1805 139 0
-1805 1804 0
-1806 195 1805 320 243 0
1806 -195 0
1806 -1805 0
1806 -320 0
1806 -243 0
1807 -235 -1806 0
-1807 235 0
-1807 1806 0
-1808 284 1784 1257 0
1808 -284 0
1808 -1784 0
1808 -1257 0
1809 -352 -1808 0
-1809 352 0
-1809 1808 0
1810 -306 -1507 0
-1810 306 0
-1810 1507 0
-1811 16 1810 1 0
1811 -16 0
1811 -1810 0
1811 -1 0
1812 -18 -1811 0
-1812 18 0
-1812 1811 0
1813 -270 -1806 0
-1813 270 0
-1813 1806 0
1814 -414 -1808 0
-1814 414 0
-1814 1808 0
-1815 21 1813 1814 0
1815 -21 0
1815 -1813 0
1815 -1814 0
1816 -20 -1815 0
-1816 20 0
-1816 1815 0
-1817 23 1800 1807 1809 1812 1816 0
1817 -23 0
1817 -1800 0
1817 -1807 0
1817 -1809 0
1817 -1812 0
1817 -1816 0
1818 -25 -1817 0
-1818 25 0
-1818 1817 0
1819 -286 -1791 0
-1819 286 0
-1819 1791 0
1820 -306 -1543 0
-1820 306 0
-1820 1543 0
-1821 16 1820 1 0
1821 -16 0
1821 -1820 0
1821 -1 0
1822 -781 -1821 0
-1822 781 0
-1822 1821 0
1823 -883 -1821 0
-1823 883 0
-1823 1821 0
-1824 1011 1823 0
1824 -1011 0
1824 -1823 0
1825 -1013 -1824 0
-1825 1013 0
-1825 1824 0
-1826 16 424 1 0
1826 -16 0
1826 -424 0
1826 -1 0
1827 -110 -1826 0
-1827 110 0
-1827 1826 0
-1828 137 422 1827 236 0
1828 -137 0
1828 -422 0
1828 -1827 0
1828 -236 0
1829 -139 -1828 0
-1829 139 0
-1829 1828 0
-1830 195 201 1829 220 243 0
1830 -195 0
1830 -201 0
1830 -1829 0
1830 -220 0
1830 -243 0
1831 -235 -1830 0
-1831 235 0
-1831 1830 0
1832 -352 -1791 0
-1832 352 0
-1832 1791 0
1833 -18 -1821 0
-1833 18 0
-1833 1821 0
1834 -270 -1830 0
-1834 270 0
-1834 1830 0
1835 -414 -1791 0
-1835 414 0
-1835 1791 0
-1836 21 1834 1835 0
1836 -21 0
1836 -1834 0
1836 -1835 0
1837 -20 -1836 0
-1837 20 0
-1837 1836 0
-1838 23 1831 1832 1833 1837 0
1838 -23 0
1838 -1831 0
1838 -1832 0
1838 -1833 0
1838 -1837 0
1839 -29 -1838 0
-1839 29 0
-1839 1838 0
-1840 34 1839 30 0
1840 -34 0
1840 -1839 0
1840 -30 0
1841 -1189 -1840 0
-1841 1189 0
-1841 1840 0
-1842 1191 1819 1822 1197 1825 1841 0
1842 -1191 0
1842 -1819 0
1842 -1822 0
1842 -1197 0
1842 -1825 0
1842 -1841 0
1843 -1216 -1842 0
-1843 1216 0
-1843 1842 0
-1844 1191 1819 1822 1197 1825 1206 0
1844 -1191 0
1844 -1819 0
1844 -1822 0
1844 -1197 0
1844 -1825 0
1844 -1206 0
1845 -1209 -1844 0
-1845 1209 0
-1845 1844 0
-1846 23 1845 1831 1832 1812 1837 0
1846 -23 0
1846 -1845 0
1846 -1831 0
1846 -1832 0
1846 -1812 0
1846 -1837 0
1847 -27 -1846 0
-1847 27 0
-1847 1846 0
-1848 23 1845 1831 1832 1833 1837 0
1848 -23 0
1848 -1845 0
1848 -1831 0
1848 -1832 0
1848 -1833 0
1848 -1837 0
1849 -29 -1848 0
-1849 29 0
-1849 1848 0
-1850 34 1849 30 0
1850 -34 0
1850 -1849 0
1850 -30 0
1851 -36 -1850 0
-1851 36 0
-1851 1850 0
-1852 38 1792 1851 0
1852 -38 0
1852 -1792 0
1852 -1851 0
1853 -40 -1852 0
-1853 40 0
-1853 1852 0
-1854 42 1843 1847 1853 0
1854 -42 0
1854 -1843 0
1854 -1847 0
1854 -1853 0
1855 -44 -1854 0
-1855 44 0
-1855 1854 0
-1856 46 1818 1855 0
1856 -46 0
1856 -1818 0
1856 -1855 0
1857 -48 -1856 0
-1857 48 0
-1857 1856 0
-1858 54 1782 1857 51 0
1858 -54 0
1858 -1782 0
1858 -1857 0
1858 -51 0
1859 -62 -1858 0
-1859 62 0
-1859 1858 0
1860 -518 -968 0
-1860 518 0
-1860 968 0
-1861 16 956 959 0
1861 -16 0
1861 -956 0
1861 -959 0
1862 -781 -1861 0
-1862 781 0
-1862 1861 0
-1863 46 1675 0
1863 -46 0
1863 -1675 0
1864 -99 -1863 0
-1864 99 0
-1864 1863 0
-1865 3 1864 0
1865 -3 0
1865 -1864 0
1866 -866 -1865 0
-1866 866 0
-1866 1865 0
1867 -883 -1861 0
-1867 883 0
-1867 1861 0
-1868 1011 1867 0
1868 -1011 0
1868 -1867 0
1869 -1013 -1868 0
-1869 1013 0
-1869 1868 0
-1870 23 1754 19 0
1870 -23 0
1870 -1754 0
1870 -19 0
1871 -29 -1870 0
-1871 29 0
-1871 1870 0
-1872 34 1871 30 0
1872 -34 0
1872 -1871 0
1872 -30 0
1873 -1189 -1872 0
-1873 1189 0
-1873 1872 0
-1874 1191 1860 1862 1866 1869 1873 0
1874 -1191 0
1874 -1860 0
1874 -1862 0
1874 -1866 0
1874 -1869 0
1874 -1873 0
1875 -1216 -1874 0
-1875 1216 0
-1875 1874 0
-1876 23 1771 1754 19 0
1876 -23 0
1876 -1771 0
1876 -1754 0
1876 -19 0
1877 -27 -1876 0
-1877 27 0
-1877 1876 0
1878 -29 -1876 0
-1878 29 0
-1878 1876 0
-1879 34 1878 30 0
1879 -34 0
1879 -1878 0
1879 -30 0
1880 -36 -1879 0
-1880 36 0
-1880 1879 0
-1881 38 1880 0
1881 -38 0
1881 -1880 0
1882 -40 -1881 0
-1882 40 0
-1882 1881 0
-1883 42 1875 1877 1882 0
1883 -42 0
1883 -1875 0
1883 -1877 0
1883 -1882 0
1884 -282 -1883 0
-1884 282 0
-1884 1883 0
-1885 284 1884 0
1885 -284 0
1885 -1884 0
1886 -290 -1885 0
-1886 290 0
-1886 1885 0
1887 -286 -299 0
-1887 286 0
-1887 299 0
-1888 16 305 1 0
1888 -16 0
1888 -305 0
1888 -1 0
1889 -781 -1888 0
-1889 781 0
-1889 1888 0
1890 -883 -1888 0
-1890 883 0
-1890 1888 0
-1891 38 588 294 0
1891 -38 0
1891 -588 0
1891 -294 0
1892 -40 -1891 0
-1892 40 0
-1892 1891 0
-1893 42 1892 0
1893 -42 0
1893 -1892 0
1894 -1009 -1893 0
-1894 1009 0
-1894 1893 0
-1895 1011 1890 1894 0
1895 -1011 0
1895 -1890 0
1895 -1894 0
1896 -1013 -1895 0
-1896 1013 0
-1896 1895 0
-1897 1191 1887 1889 1197 1896 1206 0
1897 -1191 0
1897 -1887 0
1897 -1889 0
1897 -1197 0
1897 -1896 0
1897 -1206 0
1898 -1209 -1897 0
-1898 1209 0
-1898 1897 0
1899 -352 -1258 0
-1899 352 0
-1899 1258 0
1900 -18 -1802 0
-1900 18 0
-1900 1802 0
1901 -414 -1258 0
-1901 414 0
-1901 1258 0
-1902 21 1901 0
1902 -21 0
1902 -1901 0
1903 -20 -1902 0
-1903 20 0
-1903 1902 0
-1904 23 1898 1899 1900 1903 0
1904 -23 0
1904 -1898 0
1904 -1899 0
1904 -1900 0
1904 -1903 0
1905 -25 -1904 0
-1905 25 0
-1905 1904 0
1906 -286 -284 0
-1906 286 0
-1906 284 0
1907 -781 -1826 0
-1907 781 0
-1907 1826 0
1908 -883 -1826 0
-1908 883 0
-1908 1826 0
-1909 1011 1908 0
1909 -1011 0
1909 -1908 0
1910 -1013 -1909 0
-1910 1013 0
-1910 1909 0
1911 -18 -1826 0
-1911 18 0
-1911 1826 0
-1912 23 582 1911 585 0
1912 -23 0
1912 -582 0
1912 -1911 0
1912 -585 0
1913 -29 -1912 0
-1913 29 0
-1913 1912 0
-1914 34 1913 30 0
1914 -34 0
1914 -1913 0
1914 -30 0
1915 -1189 -1914 0
-1915 1189 0
-1915 1914 0
-1916 1191 1906 1907 1197 1910 1915 0
1916 -1191 0
1916 -1906 0
1916 -1907 0
1916 -1197 0
1916 -1910 0
1916 -1915 0
1917 -1216 -1916 0
-1917 1216 0
-1917 1916 0
-1918 1191 1906 1907 1197 1910 1206 0
1918 -1191 0
1918 -1906 0
1918 -1907 0
1918 -1197 0
1918 -1910 0
1918 -1206 0
1919 -1209 -1918 0
-1919 1209 0
-1919 1918 0
-1920 23 1919 582 1911 585 0
1920 -23 0
1920 -1919 0
1920 -582 0
1920 -1911 0
1920 -585 0
1921 -27 -1920 0
-1921 27 0
-1921 1920 0
1922 -29 -1920 0
-1922 29 0
-1922 1920 0
-1923 34 1922 30 0
1923 -34 0
1923 -1922 0
1923 -30 0
1924 -36 -1923 0
-1924 36 0
-1924 1923 0
-1925 38 588 1924 0
1925 -38 0
1925 -588 0
1925 -1924 0
1926 -40 -1925 0
-1926 40 0
-1926 1925 0
-1927 42 1917 1921 1926 0
1927 -42 0
1927 -1917 0
1927 -1921 0
1927 -1926 0
1928 -44 -1927 0
-1928 44 0
-1928 1927 0
-1929 46 1905 1928 0
1929 -46 0
1929 -1905 0
1929 -1928 0
1930 -48 -1929 0
-1930 48 0
-1930 1929 0
-1931 54 1886 1930 51 0
1931 -54 0
1931 -1886 0
1931 -1930 0
1931 -51 0
1932 -56 -1931 0
-1932 56 0
-1932 1931 0
1933 -59 -307 0
-1933 59 0
-1933 307 0
-1934 16 1933 305 1 0
1934 -16 0
1934 -1933 0
1934 -305 0
1934 -1 0
1935 -781 -1934 0
-1935 781 0
-1935 1934 0
1936 -883 -1934 0
-1936 883 0
-1936 1934 0
-1937 1011 1936 1894 0
1937 -1011 0
1937 -1936 0
1937 -1894 0
1938 -1013 -1937 0
-1938 1013 0
-1938 1937 0
-1939 1191 1887 1935 1197 1938 1206 0
1939 -1191 0
1939 -1887 0
1939 -1935 0
1939 -1197 0
1939 -1938 0
1939 -1206 0
1940 -1209 -1939 0
-1940 1209 0
-1940 1939 0
1941 -59 -60 0
-1941 59 0
-1941 60 0
-1942 16 1941 1 0
1942 -16 0
1942 -1941 0
1942 -1 0
1943 -781 -1942 0
-1943 781 0
-1943 1942 0
1944 -883 -1942 0
-1944 883 0
-1944 1942 0
-1945 1011 1944 0
1945 -1011 0
1945 -1944 0
1946 -1013 -1945 0
-1946 1013 0
-1946 1945 0
-1947 1191 1943 1197 1946 1206 0
1947 -1191 0
1947 -1943 0
1947 -1197 0
1947 -1946 0
1947 -1206 0
1948 -1216 -1947 0
-1948 1216 0
-1948 1947 0
-1949 42 1948 296 0
1949 -42 0
1949 -1948 0
1949 -296 0
1950 -282 -1949 0
-1950 282 0
-1950 1949 0
-1951 284 1950 0
1951 -284 0
1951 -1950 0
1952 -352 -1951 0
-1952 352 0
-1952 1951 0
1953 -59 -1242 0
-1953 59 0
-1953 1242 0
-1954 16 1953 1240 1 0
1954 -16 0
1954 -1953 0
1954 -1240 0
1954 -1 0
1955 -18 -1954 0
-1955 18 0
-1955 1954 0
1956 -414 -1951 0
-1956 414 0
-1956 1951 0
-1957 21 1956 0
1957 -21 0
1957 -1956 0
1958 -20 -1957 0
-1958 20 0
-1958 1957 0
-1959 23 1940 1952 1955 1958 0
1959 -23 0
1959 -1940 0
1959 -1952 0
1959 -1955 0
1959 -1958 0
1960 -25 -1959 0
-1960 25 0
-1960 1959 0
1961 -59 -425 0
-1961 59 0
-1961 425 0
-1962 16 1961 424 1 0
1962 -16 0
1962 -1961 0
1962 -424 0
1962 -1 0
1963 -781 -1962 0
-1963 781 0
-1963 1962 0
1964 -883 -1962 0
-1964 883 0
-1964 1962 0
-1965 1011 1964 0
1965 -1011 0
1965 -1964 0
1966 -1013 -1965 0
-1966 1013 0
-1966 1965 0
1967 -18 -1962 0
-1967 18 0
-1967 1962 0
-1968 23 582 1967 585 0
1968 -23 0
1968 -582 0
1968 -1967 0
1968 -585 0
1969 -29 -1968 0
-1969 29 0
-1969 1968 0
-1970 34 1969 30 0
1970 -34 0
1970 -1969 0
1970 -30 0
1971 -1189 -1970 0
-1971 1189 0
-1971 1970 0
-1972 1191 1906 1963 1197 1966 1971 0
1972 -1191 0
1972 -1906 0
1972 -1963 0
1972 -1197 0
1972 -1966 0
1972 -1971 0
1973 -1216 -1972 0
-1973 1216 0
-1973 1972 0
-1974 1191 1906 1963 1197 1966 1206 0
1974 -1191 0
1974 -1906 0
1974 -1963 0
1974 -1197 0
1974 -1966 0
1974 -1206 0
1975 -1209 -1974 0
-1975 1209 0
-1975 1974 0
-1976 23 1975 582 1967 585 0
1976 -23 0
1976 -1975 0
1976 -582 0
1976 -1967 0
1976 -585 0
1977 -27 -1976 0
-1977 27 0
-1977 1976 0
1978 -29 -1976 0
-1978 29 0
-1978 1976 0
-1979 34 1978 30 0
1979 -34 0
1979 -1978 0
1979 -30 0
1980 -36 -1979 0
-1980 36 0
-1980 1979 0
-1981 38 588 1980 0
1981 -38 0
1981 -588 0
1981 -1980 0
1982 -40 -1981 0
-1982 40 0
-1982 1981 0
-1983 42 1973 1977 1982 0
1983 -42 0
1983 -1973 0
1983 -1977 0
1983 -1982 0
1984 -44 -1983 0
-1984 44 0
-1984 1983 0
-1985 46 1960 1984 0
1985 -46 0
1985 -1960 0
1985 -1984 0
1986 -81 -1985 0
-1986 81 0
-1986 1985 0
1987 -18 -1942 0
-1987 18 0
-1987 1942 0
-1988 23 1987 19 0
1988 -23 0
1988 -1987 0
1988 -19 0
1989 -25 -1988 0
-1989 25 0
-1989 1988 0
-1990 46 1989 0
1990 -46 0
1990 -1989 0
1991 -518 -1990 0
-1991 518 0
-1991 1990 0
1992 -59 -960 0
-1992 59 0
-1992 960 0
-1993 16 1992 956 959 0
1993 -16 0
1993 -1992 0
1993 -956 0
1993 -959 0
1994 -781 -1993 0
-1994 781 0
-1994 1993 0
-1995 16 1941 0
1995 -16 0
1995 -1941 0
1996 -18 -1995 0
-1996 18 0
-1996 1995 0
-1997 23 1996 19 0
1997 -23 0
1997 -1996 0
1997 -19 0
1998 -25 -1997 0
-1998 25 0
-1998 1997 0
-1999 46 1998 0
1999 -46 0
1999 -1998 0
2000 -99 -1999 0
-2000 99 0
-2000 1999 0
-2001 3 2000 0
2001 -3 0
2001 -2000 0
2002 -866 -2001 0
-2002 866 0
-2002 2001 0
2003 -883 -1993 0
-2003 883 0
-2003 1993 0
-2004 1011 2003 0
2004 -1011 0
2004 -2003 0
2005 -1013 -2004 0
-2005 1013 0
-2005 2004 0
2006 -59 -207 0
-2006 59 0
-2006 207 0
-2007 16 2006 203 206 0
2007 -16 0
2007 -2006 0
2007 -203 0
2007 -206 0
2008 -18 -2007 0
-2008 18 0
-2008 2007 0
-2009 23 2008 19 0
2009 -23 0
2009 -2008 0
2009 -19 0
2010 -29 -2009 0
-2010 29 0
-2010 2009 0
-2011 34 2010 30 0
2011 -34 0
2011 -2010 0
2011 -30 0
2012 -1189 -2011 0
-2012 1189 0
-2012 2011 0
-2013 1191 1991 1994 2002 2005 2012 0
2013 -1191 0
2013 -1991 0
2013 -1994 0
2013 -2002 0
2013 -2005 0
2013 -2012 0
2014 -1216 -2013 0
-2014 1216 0
-2014 2013 0
2015 -781 -2007 0
-2015 781 0
-2015 2007 0
2016 -883 -2007 0
-2016 883 0
-2016 2007 0
-2017 1011 2016 0
2017 -1011 0
2017 -2016 0
2018 -1013 -2017 0
-2018 1013 0
-2018 2017 0
-2019 1191 1764 2015 1766 2018 1206 0
2019 -1191 0
2019 -1764 0
2019 -2015 0
2019 -1766 0
2019 -2018 0
2019 -1206 0
2020 -1209 -2019 0
-2020 1209 0
-2020 2019 0
-2021 23 2020 2008 19 0
2021 -23 0
2021 -2020 0
2021 -2008 0
2021 -19 0
2022 -27 -2021 0
-2022 27 0
-2022 2021 0
2023 -29 -2021 0
-2023 29 0
-2023 2021 0
-2024 34 2023 30 0
2024 -34 0
2024 -2023 0
2024 -30 0
2025 -36 -2024 0
-2025 36 0
-2025 2024 0
-2026 38 2025 0
2026 -38 0
2026 -2025 0
2027 -40 -2026 0
-2027 40 0
-2027 2026 0
-2028 42 2014 2022 2027 0
2028 -42 0
2028 -2014 0
2028 -2022 0
2028 -2027 0
2029 -282 -2028 0
-2029 282 0
-2029 2028 0
-2030 284 2029 0
2030 -284 0
2030 -2029 0
2031 -301 -2030 0
-2031 301 0
-2031 2030 0
2032 -518 -952 0
-2032 518 0
-2032 952 0
2033 -866 -958 0
-2033 866 0
-2033 958 0
-2034 1191 2032 2033 1234 1634 0
2034 -1191 0
2034 -2032 0
2034 -2033 0
2034 -1234 0
2034 -1634 0
2035 -1216 -2034 0
-2035 1216 0
-2035 2034 0
-2036 42 2035 1877 1882 0
2036 -42 0
2036 -2035 0
2036 -1877 0
2036 -1882 0
2037 -282 -2036 0
-2037 282 0
-2037 2036 0
-2038 284 2037 0
2038 -284 0
2038 -2037 0
2039 -290 -2038 0
-2039 290 0
-2039 2038 0
-2040 1011 1894 0
2040 -1011 0
2040 -1894 0
2041 -1013 -2040 0
-2041 1013 0
-2041 2040 0
-2042 1191 1887 1197 2041 1206 0
2042 -1191 0
2042 -1887 0
2042 -1197 0
2042 -2041 0
2042 -1206 0
2043 -1209 -2042 0
-2043 1209 0
-2043 2042 0
2044 -352 -1239 0
-2044 352 0
-2044 1239 0
2045 -414 -1239 0
-2045 414 0
-2045 1239 0
-2046 21 2045 0
2046 -21 0
2046 -2045 0
2047 -20 -2046 0
-2047 20 0
-2047 2046 0
-2048 23 2043 2044 2047 0
2048 -23 0
2048 -2043 0
2048 -2044 0
2048 -2047 0
2049 -25 -2048 0
-2049 25 0
-2049 2048 0
-2050 46 2049 1928 0
2050 -46 0
2050 -2049 0
2050 -1928 0
2051 -48 -2050 0
-2051 48 0
-2051 2050 0
-2052 54 2039 2051 51 0
2052 -54 0
2052 -2039 0
2052 -2051 0
2052 -51 0
2053 -59 -2052 0
-2053 59 0
-2053 2052 0
-2054 23 2020 19 0
2054 -23 0
2054 -2020 0
2054 -19 0
2055 -27 -2054 0
-2055 27 0
-2055 2054 0
2056 -29 -2054 0
-2056 29 0
-2056 2054 0
-2057 34 2056 30 0
2057 -34 0
2057 -2056 0
2057 -30 0
2058 -36 -2057 0
-2058 36 0
-2058 2057 0
-2059 38 2058 0
2059 -38 0
2059 -2058 0
2060 -40 -2059 0
-2060 40 0
-2060 2059 0
-2061 42 2035 2055 2060 0
2061 -42 0
2061 -2035 0
2061 -2055 0
2061 -2060 0
2062 -282 -2061 0
-2062 282 0
-2062 2061 0
-2063 284 2062 0
2063 -284 0
2063 -2062 0
2064 -306 -2063 0
-2064 306 0
-2064 2063 0
-2065 1191 1906 1197 1234 1971 0
2065 -1191 0
2065 -1906 0
2065 -1197 0
2065 -1234 0
2065 -1971 0
2066 -1216 -2065 0
-2066 1216 0
-2066 2065 0
-2067 1191 1906 1197 1234 1206 0
2067 -1191 0
2067 -1906 0
2067 -1197 0
2067 -1234 0
2067 -1206 0
2068 -1209 -2067 0
-2068 1209 0
-2068 2067 0
-2069 23 2068 582 585 0
2069 -23 0
2069 -2068 0
2069 -582 0
2069 -585 0
2070 -27 -2069 0
-2070 27 0
-2070 2069 0
2071 -29 -2069 0
-2071 29 0
-2071 2069 0
-2072 34 2071 30 0
2072 -34 0
2072 -2071 0
2072 -30 0
2073 -36 -2072 0
-2073 36 0
-2073 2072 0
-2074 38 588 2073 0
2074 -38 0
2074 -588 0
2074 -2073 0
2075 -40 -2074 0
-2075 40 0
-2075 2074 0
-2076 42 2066 2070 2075 0
2076 -42 0
2076 -2066 0
2076 -2070 0
2076 -2075 0
2077 -44 -2076 0
-2077 44 0
-2077 2076 0
-2078 46 2049 2077 0
2078 -46 0
2078 -2049 0
2078 -2077 0
2079 -97 -2078 0
-2079 97 0
-2079 2078 0
2080 -1189 -590 0
-2080 1189 0
-2080 590 0
-2081 1191 1906 1197 1234 2080 0
2081 -1191 0
2081 -1906 0
2081 -1197 0
2081 -1234 0
2081 -2080 0
2082 -1216 -2081 0
-2082 1216 0
-2082 2081 0
-2083 42 2082 2070 2075 0
2083 -42 0
2083 -2082 0
2083 -2070 0
2083 -2075 0
2084 -44 -2083 0
-2084 44 0
-2084 2083 0
-2085 46 2049 2084 0
2085 -46 0
2085 -2049 0
2085 -2084 0
2086 -99 -2085 0
-2086 99 0
-2086 2085 0
-2087 3 2086 0
2087 -3 0
2087 -2086 0
2088 -2 -2087 0
-2088 2 0
-2088 2087 0
-2089 16 2053 2064 2079 2088 0
2089 -16 0
2089 -2053 0
2089 -2064 0
2089 -2079 0
2089 -2088 0
2090 -110 -2089 0
-2090 110 0
-2090 2089 0
-2091 137 2031 2090 236 0
2091 -137 0
2091 -2031 0
2091 -2090 0
2091 -236 0
2092 -139 -2091 0
-2092 139 0
-2092 2091 0
-2093 16 1933 305 0
2093 -16 0
2093 -1933 0
2093 -305 0
2094 -781 -2093 0
-2094 781 0
-2094 2093 0
2095 -883 -2093 0
-2095 883 0
-2095 2093 0
-2096 1011 2095 1894 0
2096 -1011 0
2096 -2095 0
2096 -1894 0
2097 -1013 -2096 0
-2097 1013 0
-2097 2096 0
-2098 1191 1887 2094 1197 2097 1206 0
2098 -1191 0
2098 -1887 0
2098 -2094 0
2098 -1197 0
2098 -2097 0
2098 -1206 0
2099 -1209 -2098 0
-2099 1209 0
-2099 2098 0
2100 -781 -1995 0
-2100 781 0
-2100 1995 0
2101 -883 -1995 0
-2101 883 0
-2101 1995 0
-2102 1011 2101 0
2102 -1011 0
2102 -2101 0
2103 -1013 -2102 0
-2103 1013 0
-2103 2102 0
-2104 1191 2100 1197 2103 1206 0
2104 -1191 0
2104 -2100 0
2104 -1197 0
2104 -2103 0
2104 -1206 0
2105 -1216 -2104 0
-2105 1216 0
-2105 2104 0
-2106 42 2105 296 0
2106 -42 0
2106 -2105 0
2106 -296 0
2107 -282 -2106 0
-2107 282 0
-2107 2106 0
-2108 284 2107 0
2108 -284 0
2108 -2107 0
2109 -352 -2108 0
-2109 352 0
-2109 2108 0
-2110 16 1953 1240 0
2110 -16 0
2110 -1953 0
2110 -1240 0
2111 -18 -2110 0
-2111 18 0
-2111 2110 0
2112 -414 -2108 0
-2112 414 0
-2112 2108 0
-2113 21 2112 0
2113 -21 0
2113 -2112 0
2114 -20 -2113 0
-2114 20 0
-2114 2113 0
-2115 23 2099 2109 2111 2114 0
2115 -23 0
2115 -2099 0
2115 -2109 0
2115 -2111 0
2115 -2114 0
2116 -25 -2115 0
-2116 25 0
-2116 2115 0
-2117 16 1961 424 0
2117 -16 0
2117 -1961 0
2117 -424 0
2118 -781 -2117 0
-2118 781 0
-2118 2117 0
2119 -883 -2117 0
-2119 883 0
-2119 2117 0
-2120 1011 2119 0
2120 -1011 0
2120 -2119 0
2121 -1013 -2120 0
-2121 1013 0
-2121 2120 0
2122 -18 -2117 0
-2122 18 0
-2122 2117 0
-2123 23 582 2122 585 0
2123 -23 0
2123 -582 0
2123 -2122 0
2123 -585 0
2124 -29 -2123 0
-2124 29 0
-2124 2123 0
-2125 34 2124 30 0
2125 -34 0
2125 -2124 0
2125 -30 0
2126 -1189 -2125 0
-2126 1189 0
-2126 2125 0
-2127 1191 1906 2118 1197 2121 2126 0
2127 -1191 0
2127 -1906 0
2127 -2118 0
2127 -1197 0
2127 -2121 0
2127 -2126 0
2128 -1216 -2127 0
-2128 1216 0
-2128 2127 0
-2129 1191 1906 2118 1197 2121 1206 0
2129 -1191 0
2129 -1906 0
2129 -2118 0
2129 -1197 0
2129 -2121 0
2129 -1206 0
2130 -1209 -2129 0
-2130 1209 0
-2130 2129 0
-2131 23 2130 582 2122 585 0
2131 -23 0
2131 -2130 0
2131 -582 0
2131 -2122 0
2131 -585 0
2132 -27 -2131 0
-2132 27 0
-2132 2131 0
2133 -29 -2131 0
-2133 29 0
-2133 2131 0
-2134 34 2133 30 0
2134 -34 0
2134 -2133 0
2134 -30 0
2135 -36 -2134 0
-2135 36 0
-2135 2134 0
-2136 38 588 2135 0
2136 -38 0
2136 -588 0
2136 -2135 0
2137 -40 -2136 0
-2137 40 0
-2137 2136 0
-2138 42 2128 2132 2137 0
2138 -42 0
2138 -2128 0
2138 -2132 0
2138 -2137 0
2139 -44 -2138 0
-2139 44 0
-2139 2138 0
-2140 46 2116 2139 0
2140 -46 0
2140 -2116 0
2140 -2139 0
2141 -99 -2140 0
-2141 99 0
-2141 2140 0
-2142 3 2141 0
2142 -3 0
2142 -2141 0
2143 -156 -2142 0
-2143 156 0
-2143 2142 0
-2144 1191 1860 1862 2002 1869 1873 0
2144 -1191 0
2144 -1860 0
2144 -1862 0
2144 -2002 0
2144 -1869 0
2144 -1873 0
2145 -1216 -2144 0
-2145 1216 0
-2145 2144 0
-2146 42 2145 1877 1882 0
2146 -42 0
2146 -2145 0
2146 -1877 0
2146 -1882 0
2147 -282 -2146 0
-2147 282 0
-2147 2146 0
-2148 284 2147 0
2148 -284 0
2148 -2147 0
2149 -290 -2148 0
-2149 290 0
-2149 2148 0
-2150 54 2149 1930 51 0
2150 -54 0
2150 -2149 0
2150 -1930 0
2150 -51 0
2151 -187 -2150 0
-2151 187 0
-2151 2150 0
-2152 191 2151 241 0
2152 -191 0
2152 -2151 0
2152 -241 0
2153 -193 -2152 0
-2153 193 0
-2153 2152 0
-2154 195 1932 1986 2092 2143 2153 0
2154 -195 0
2154 -1932 0
2154 -1986 0
2154 -2092 0
2154 -2143 0
2154 -2153 0
2155 -246 -2154 0
-2155 246 0
-2155 2154 0
-2156 6 2155 0
2156 -6 0
2156 -2155 0
2157 -5 -2156 0
-2157 5 0
-2157 2156 0
-2158 8 1859 2157 0
2158 -8 0
2158 -1859 0
2158 -2157 0
2159 -10 -2158 0
-2159 10 0
-2159 2158 0
-2160 12 2159 0
2160 -12 0
2160 -2159 0
2161 -160 -2160 0
-2161 160 0
-2161 2160 0
-2162 162 1604 2161 0
2162 -162 0
2162 -1604 0
2162 -2161 0
2163 -2164 -2162 0
-2163 2164 0
-2163 2162 0
2165 -286 -1000 0
-2165 286 0
-2165 1000 0
2166 -25 -502 0
-2166 25 0
-2166 502 0
-2167 46 2166 0
2167 -46 0
2167 -2166 0
2168 -518 -2167 0
-2168 518 0
-2168 2167 0
2169 -81 -952 0
-2169 81 0
-2169 952 0
2170 -156 -958 0
-2170 156 0
-2170 958 0
2171 -158 -952 0
-2171 158 0
-2171 952 0
-2172 162 2171 358 0
2172 -162 0
2172 -2171 0
2172 -358 0
2173 -164 -2172 0
-2173 164 0
-2173 2172 0
-2174 195 2169 357 2170 2173 361 364 0
2174 -195 0
2174 -2169 0
2174 -357 0
2174 -2170 0
2174 -2173 0
2174 -361 0
2174 -364 0
2175 -197 -2174 0
-2175 197 0
-2175 2174 0
-2176 284 2175 0
2176 -284 0
2176 -2175 0
2177 -290 -2176 0
-2177 290 0
-2177 2176 0
2178 -25 -564 0
-2178 25 0
-2178 564 0
-2179 46 2178 0
2179 -46 0
2179 -2178 0
2180 -48 -2179 0
-2180 48 0
-2180 2179 0
2181 -25 -586 0
-2181 25 0
-2181 586 0
-2182 46 2181 0
2182 -46 0
2182 -2181 0
2183 -81 -2182 0
-2183 81 0
-2183 2182 0
2184 -99 -2182 0
-2184 99 0
-2184 2182 0
-2185 3 2184 0
2185 -3 0
2185 -2184 0
2186 -156 -2185 0
-2186 156 0
-2186 2185 0
2187 -158 -2182 0
-2187 158 0
-2187 2182 0
-2188 162 2187 0
2188 -162 0
2188 -2187 0
2189 -164 -2188 0
-2189 164 0
-2189 2188 0
-2190 195 2183 464 2186 2189 243 0
2190 -195 0
2190 -2183 0
2190 -464 0
2190 -2186 0
2190 -2189 0
2190 -243 0
2191 -246 -2190 0
-2191 246 0
-2191 2190 0
-2192 6 2191 0
2192 -6 0
2192 -2191 0
2193 -5 -2192 0
-2193 5 0
-2193 2192 0
-2194 8 2193 0
2194 -8 0
2194 -2193 0
2195 -10 -2194 0
-2195 10 0
-2195 2194 0
-2196 12 2195 0
2196 -12 0
2196 -2195 0
2197 -50 -2196 0
-2197 50 0
-2197 2196 0
-2198 54 2177 2180 2197 51 0
2198 -54 0
2198 -2177 0
2198 -2180 0
2198 -2197 0
2198 -51 0
2199 -59 -2198 0
-2199 59 0
-2199 2198 0
2200 -56 -954 0
-2200 56 0
-2200 954 0
2201 -131 -964 0
-2201 131 0
-2201 964 0
-2202 133 2201 0
2202 -133 0
2202 -2201 0
2203 -135 -2202 0
-2203 135 0
-2203 2202 0
-2204 137 2203 0
2204 -137 0
2204 -2203 0
2205 -139 -2204 0
-2205 139 0
-2205 2204 0
2206 -160 -964 0
-2206 160 0
-2206 964 0
-2207 162 2171 2206 0
2207 -162 0
2207 -2171 0
2207 -2206 0
2208 -164 -2207 0
-2208 164 0
-2208 2207 0
-2209 54 953 180 51 0
2209 -54 0
2209 -953 0
2209 -180 0
2209 -51 0
2210 -62 -2209 0
-2210 62 0
-2210 2209 0
-2211 8 2210 4 0
2211 -8 0
2211 -2210 0
2211 -4 0
2212 -185 -2211 0
-2212 185 0
-2212 2211 0
2213 -187 -954 0
-2213 187 0
-2213 954 0
2214 -189 -2202 0
-2214 189 0
-2214 2202 0
-2215 191 2213 2214 0
2215 -191 0
2215 -2213 0
2215 -2214 0
2216 -193 -2215 0
-2216 193 0
-2216 2215 0
-2217 195 2200 2169 2205 2170 2208 2212 2216 0
2217 -195 0
2217 -2200 0
2217 -2169 0
2217 -2205 0
2217 -2170 0
2217 -2208 0
2217 -2212 0
2217 -2216 0
2218 -197 -2217 0
-2218 197 0
-2218 2217 0
-2219 284 2218 0
2219 -284 0
2219 -2218 0
2220 -306 -2219 0
-2220 306 0
-2220 2219 0
2221 -25 -676 0
-2221 25 0
-2221 676 0
-2222 46 2221 0
2222 -46 0
2222 -2221 0
2223 -97 -2222 0
-2223 97 0
-2223 2222 0
2224 -25 -701 0
-2224 25 0
-2224 701 0
-2225 46 2224 0
2225 -46 0
2225 -2224 0
2226 -99 -2225 0
-2226 99 0
-2226 2225 0
-2227 3 2226 0
2227 -3 0
2227 -2226 0
2228 -2 -2227 0
-2228 2 0
-2228 2227 0
2229 -197 -2190 0
-2229 197 0
-2229 2190 0
-2230 284 2229 0
2230 -284 0
2230 -2229 0
2231 -290 -2230 0
-2231 290 0
-2231 2230 0
2232 -25 -747 0
-2232 25 0
-2232 747 0
-2233 46 2232 0
2233 -46 0
2233 -2232 0
2234 -48 -2233 0
-2234 48 0
-2234 2233 0
-2235 54 2231 2234 51 0
2235 -54 0
2235 -2231 0
2235 -2234 0
2235 -51 0
2236 -62 -2235 0
-2236 62 0
-2236 2235 0
2237 -48 -2182 0
-2237 48 0
-2237 2182 0
-2238 54 419 2237 51 0
2238 -54 0
2238 -419 0
2238 -2237 0
2238 -51 0
2239 -56 -2238 0
-2239 56 0
-2239 2238 0
2240 -187 -2238 0
-2240 187 0
-2240 2238 0
-2241 191 2240 241 0
2241 -191 0
2241 -2240 0
2241 -241 0
2242 -193 -2241 0
-2242 193 0
-2242 2241 0
-2243 195 2239 2183 464 2186 2189 2242 0
2243 -195 0
2243 -2239 0
2243 -2183 0
2243 -464 0
2243 -2186 0
2243 -2189 0
2243 -2242 0
2244 -246 -2243 0
-2244 246 0
-2244 2243 0
-2245 6 2244 0
2245 -6 0
2245 -2244 0
2246 -5 -2245 0
-2246 5 0
-2246 2245 0
-2247 8 2236 2246 0
2247 -8 0
2247 -2236 0
2247 -2246 0
2248 -10 -2247 0
-2248 10 0
-2248 2247 0
-2249 12 2248 0
2249 -12 0
2249 -2248 0
2250 -14 -2249 0
-2250 14 0
-2250 2249 0
-2251 16 2199 2220 2223 2228 2250 0
2251 -16 0
2251 -2199 0
2251 -2220 0
2251 -2223 0
2251 -2228 0
2251 -2250 0
2252 -781 -2251 0
-2252 781 0
-2252 2251 0
2253 -25 -849 0
-2253 25 0
-2253 849 0
-2254 46 2253 0
2254 -46 0
2254 -2253 0
2255 -99 -2254 0
-2255 99 0
-2255 2254 0
-2256 3 2255 0
2256 -3 0
2256 -2255 0
2257 -866 -2256 0
-2257 866 0
-2257 2256 0
2258 -883 -2251 0
-2258 883 0
-2258 2251 0
-2259 1011 2258 0
2259 -1011 0
2259 -2258 0
2260 -1013 -2259 0
-2260 1013 0
-2260 2259 0
2261 -1189 -1003 0
-2261 1189 0
-2261 1003 0
-2262 1191 2165 2168 2252 2257 2260 2261 0
2262 -1191 0
2262 -2165 0
2262 -2168 0
2262 -2252 0
2262 -2257 0
2262 -2260 0
2262 -2261 0
2263 -1216 -2262 0
-2263 1216 0
-2263 2262 0
2264 -286 -914 0
-2264 286 0
-2264 914 0
2265 -781 -938 0
-2265 781 0
-2265 938 0
2266 -883 -938 0
-2266 883 0
-2266 938 0
-2267 1011 2266 0
2267 -1011 0
2267 -2266 0
2268 -1013 -2267 0
-2268 1013 0
-2268 2267 0
-2269 1191 2264 1764 2265 1766 2268 1206 0
2269 -1191 0
2269 -2264 0
2269 -1764 0
2269 -2265 0
2269 -1766 0
2269 -2268 0
2269 -1206 0
2270 -1209 -2269 0
-2270 1209 0
-2270 2269 0
-2271 23 2270 912 915 939 943 0
2271 -23 0
2271 -2270 0
2271 -912 0
2271 -915 0
2271 -939 0
2271 -943 0
2272 -27 -2271 0
-2272 27 0
-2272 2271 0
2273 -1209 -1214 0
-2273 1209 0
-2273 1214 0
-2274 23 2273 17 19 0
2274 -23 0
2274 -2273 0
2274 -17 0
2274 -19 0
2275 -25 -2274 0
-2275 25 0
-2275 2274 0
-2276 46 2275 0
2276 -46 0
2276 -2275 0
2277 -48 -2276 0
-2277 48 0
-2277 2276 0
-2278 54 2277 49 51 0
2278 -54 0
2278 -2277 0
2278 -49 0
2278 -51 0
2279 -56 -2278 0
-2279 56 0
-2279 2278 0
2280 -1209 -1227 0
-2280 1209 0
-2280 1227 0
-2281 23 2280 68 19 0
2281 -23 0
2281 -2280 0
2281 -68 0
2281 -19 0
2282 -25 -2281 0
-2282 25 0
-2282 2281 0
-2283 46 2282 0
2283 -46 0
2283 -2282 0
2284 -81 -2283 0
-2284 81 0
-2284 2283 0
2285 -25 -1649 0
-2285 25 0
-2285 1649 0
-2286 46 2285 0
2286 -46 0
2286 -2285 0
2287 -48 -2286 0
-2287 48 0
-2287 2286 0
-2288 54 2287 49 51 0
2288 -54 0
2288 -2287 0
2288 -49 0
2288 -51 0
2289 -59 -2288 0
-2289 59 0
-2289 2288 0
2290 -97 -2286 0
-2290 97 0
-2290 2286 0
2291 -99 -2286 0
-2291 99 0
-2291 2286 0
-2292 3 2291 0
2292 -3 0
2292 -2291 0
2293 -2 -2292 0
-2293 2 0
-2293 2292 0
2294 -25 -1637 0
-2294 25 0
-2294 1637 0
-2295 46 2294 0
2295 -46 0
2295 -2294 0
2296 -48 -2295 0
-2296 48 0
-2296 2295 0
-2297 54 2296 51 0
2297 -54 0
2297 -2296 0
2297 -51 0
2298 -62 -2297 0
-2298 62 0
-2298 2297 0
-2299 8 2298 4 0
2299 -8 0
2299 -2298 0
2299 -4 0
2300 -10 -2299 0
-2300 10 0
-2300 2299 0
-2301 12 2300 0
2301 -12 0
2301 -2300 0
2302 -14 -2301 0
-2302 14 0
-2302 2301 0
-2303 16 2289 2290 2293 2302 0
2303 -16 0
2303 -2289 0
2303 -2290 0
2303 -2293 0
2303 -2302 0
2304 -110 -2303 0
-2304 110 0
-2304 2303 0
2305 -25 -1616 0
-2305 25 0
-2305 1616 0
-2306 46 2305 0
2306 -46 0
2306 -2305 0
2307 -48 -2306 0
-2307 48 0
-2307 2306 0
-2308 54 2307 51 0
2308 -54 0
2308 -2307 0
2308 -51 0
2309 -62 -2308 0
-2309 62 0
-2309 2308 0
-2310 8 2309 4 0
2310 -8 0
2310 -2309 0
2310 -4 0
2311 -10 -2310 0
-2311 10 0
-2311 2310 0
-2312 12 2311 0
2312 -12 0
2312 -2311 0
2313 -131 -2312 0
-2313 131 0
-2313 2312 0
-2314 133 2313 0
2314 -133 0
2314 -2313 0
2315 -135 -2314 0
-2315 135 0
-2315 2314 0
-2316 137 2304 2315 0
2316 -137 0
2316 -2304 0
2316 -2315 0
2317 -139 -2316 0
-2317 139 0
-2317 2316 0
2318 -781 -140 0
-2318 781 0
-2318 140 0
2319 -883 -140 0
-2319 883 0
-2319 140 0
-2320 1011 2319 0
2320 -1011 0
2320 -2319 0
2321 -1013 -2320 0
-2321 1013 0
-2321 2320 0
-2322 1191 2318 1197 2321 1206 0
2322 -1191 0
2322 -2318 0
2322 -1197 0
2322 -2321 0
2322 -1206 0
2323 -1209 -2322 0
-2323 1209 0
-2323 2322 0
-2324 23 2323 141 19 0
2324 -23 0
2324 -2323 0
2324 -141 0
2324 -19 0
2325 -25 -2324 0
-2325 25 0
-2325 2324 0
-2326 46 2325 0
2326 -46 0
2326 -2325 0
2327 -99 -2326 0
-2327 99 0
-2327 2326 0
-2328 3 2327 0
2328 -3 0
2328 -2327 0
2329 -156 -2328 0
-2329 156 0
-2329 2328 0
2330 -158 -2283 0
-2330 158 0
-2330 2283 0
2331 -160 -2312 0
-2331 160 0
-2331 2312 0
-2332 162 2330 2331 0
2332 -162 0
2332 -2330 0
2332 -2331 0
2333 -164 -2332 0
-2333 164 0
-2333 2332 0
2334 -1209 -1277 0
-2334 1209 0
-2334 1277 0
-2335 23 2334 167 19 0
2335 -23 0
2335 -2334 0
2335 -167 0
2335 -19 0
2336 -25 -2335 0
-2336 25 0
-2336 2335 0
-2337 46 2336 0
2337 -46 0
2337 -2336 0
2338 -48 -2337 0
-2338 48 0
-2338 2337 0
-2339 54 2338 180 51 0
2339 -54 0
2339 -2338 0
2339 -180 0
2339 -51 0
2340 -62 -2339 0
-2340 62 0
-2340 2339 0
-2341 8 2340 4 0
2341 -8 0
2341 -2340 0
2341 -4 0
2342 -185 -2341 0
-2342 185 0
-2342 2341 0
2343 -187 -2278 0
-2343 187 0
-2343 2278 0
2344 -189 -2314 0
-2344 189 0
-2344 2314 0
-2345 191 2343 2344 0
2345 -191 0
2345 -2343 0
2345 -2344 0
2346 -193 -2345 0
-2346 193 0
-2346 2345 0
-2347 195 2279 2284 2317 2329 2333 2342 2346 0
2347 -195 0
2347 -2279 0
2347 -2284 0
2347 -2317 0
2347 -2329 0
2347 -2333 0
2347 -2342 0
2347 -2346 0
2348 -197 -2347 0
-2348 197 0
-2348 2347 0
-2349 284 2348 0
2349 -284 0
2349 -2348 0
2350 -508 -2349 0
-2350 508 0
-2350 2349 0
2351 -29 -2271 0
-2351 29 0
-2351 2271 0
-2352 34 2351 30 0
2352 -34 0
2352 -2351 0
2352 -30 0
2353 -36 -2352 0
-2353 36 0
-2353 2352 0
-2354 38 2350 2353 0
2354 -38 0
2354 -2350 0
2354 -2353 0
2355 -40 -2354 0
-2355 40 0
-2355 2354 0
-2356 42 2263 2272 2355 0
2356 -42 0
2356 -2263 0
2356 -2272 0
2356 -2355 0
2357 -2358 -2356 0
-2357 2358 0
-2357 2356 0
-2359 1011 1211 1668 0
2359 -1011 0
2359 -1211 0
2359 -1668 0
2360 -1013 -2359 0
-2360 1013 0
-2360 2359 0
-2361 1191 1210 1197 2360 1206 0
2361 -1191 0
2361 -1210 0
2361 -1197 0
2361 -2360 0
2361 -1206 0
2362 -1209 -2361 0
-2362 1209 0
-2362 2361 0
-2363 23 2362 17 19 0
2363 -23 0
2363 -2362 0
2363 -17 0
2363 -19 0
2364 -25 -2363 0
-2364 25 0
-2364 2363 0
2365 -1189 -33 0
-2365 1189 0
-2365 33 0
-2366 1191 1210 1197 1213 2365 0
2366 -1191 0
2366 -1210 0
2366 -1197 0
2366 -1213 0
2366 -2365 0
2367 -1216 -2366 0
-2367 1216 0
-2367 2366 0
2368 -27 -2274 0
-2368 27 0
-2368 2274 0
2369 -29 -2274 0
-2369 29 0
-2369 2274 0
-2370 34 2369 30 0
2370 -34 0
2370 -2369 0
2370 -30 0
2371 -36 -2370 0
-2371 36 0
-2371 2370 0
-2372 38 2371 0
2372 -38 0
2372 -2371 0
2373 -40 -2372 0
-2373 40 0
-2373 2372 0
-2374 42 2367 2368 2373 0
2374 -42 0
2374 -2367 0
2374 -2368 0
2374 -2373 0
2375 -44 -2374 0
-2375 44 0
-2375 2374 0
-2376 46 2364 2375 0
2376 -46 0
2376 -2364 0
2376 -2375 0
2377 -81 -2376 0
-2377 81 0
-2377 2376 0
2378 -97 -1658 0
-2378 97 0
-2378 1658 0
-2379 16 2378 1661 13 0
2379 -16 0
2379 -2378 0
2379 -1661 0
2379 -13 0
2380 -110 -2379 0
-2380 110 0
-2380 2379 0
-2381 137 2380 355 0
2381 -137 0
2381 -2380 0
2381 -355 0
2382 -139 -2381 0
-2382 139 0
-2382 2381 0
-2383 16 13 0
2383 -16 0
2383 -13 0
2384 -781 -2383 0
-2384 781 0
-2384 2383 0
2385 -883 -2383 0
-2385 883 0
-2385 2383 0
-2386 1011 2385 1668 0
2386 -1011 0
2386 -2385 0
2386 -1668 0
2387 -1013 -2386 0
-2387 1013 0
-2387 2386 0
-2388 1191 2384 1197 2387 1206 0
2388 -1191 0
2388 -2384 0
2388 -1197 0
2388 -2387 0
2388 -1206 0
2389 -1209 -2388 0
-2389 1209 0
-2389 2388 0
2390 -18 -2383 0
-2390 18 0
-2390 2383 0
-2391 23 2389 2390 19 0
2391 -23 0
2391 -2389 0
2391 -2390 0
2391 -19 0
2392 -25 -2391 0
-2392 25 0
-2392 2391 0
-2393 1011 2385 0
2393 -1011 0
2393 -2385 0
2394 -1013 -2393 0
-2394 1013 0
-2394 2393 0
-2395 23 2390 19 0
2395 -23 0
2395 -2390 0
2395 -19 0
2396 -29 -2395 0
-2396 29 0
-2396 2395 0
-2397 34 2396 30 0
2397 -34 0
2397 -2396 0
2397 -30 0
2398 -1189 -2397 0
-2398 1189 0
-2398 2397 0
-2399 1191 2384 1197 2394 2398 0
2399 -1191 0
2399 -2384 0
2399 -1197 0
2399 -2394 0
2399 -2398 0
2400 -1216 -2399 0
-2400 1216 0
-2400 2399 0
2401 -27 -2391 0
-2401 27 0
-2401 2391 0
-2402 1191 2384 1197 2394 1206 0
2402 -1191 0
2402 -2384 0
2402 -1197 0
2402 -2394 0
2402 -1206 0
2403 -1209 -2402 0
-2403 1209 0
-2403 2402 0
-2404 23 2403 2390 19 0
2404 -23 0
2404 -2403 0
2404 -2390 0
2404 -19 0
2405 -29 -2404 0
-2405 29 0
-2405 2404 0
-2406 34 2405 30 0
2406 -34 0
2406 -2405 0
2406 -30 0
2407 -36 -2406 0
-2407 36 0
-2407 2406 0
-2408 38 2407 0
2408 -38 0
2408 -2407 0
2409 -40 -2408 0
-2409 40 0
-2409 2408 0
-2410 42 2400 2401 2409 0
2410 -42 0
2410 -2400 0
2410 -2401 0
2410 -2409 0
2411 -44 -2410 0
-2411 44 0
-2411 2410 0
-2412 46 2392 2411 0
2412 -46 0
2412 -2392 0
2412 -2411 0
2413 -99 -2412 0
-2413 99 0
-2413 2412 0
-2414 3 2413 0
2414 -3 0
2414 -2413 0
2415 -156 -2414 0
-2415 156 0
-2415 2414 0
2416 -158 -2376 0
-2416 158 0
-2416 2376 0
-2417 162 2416 358 0
2417 -162 0
2417 -2416 0
2417 -358 0
2418 -164 -2417 0
-2418 164 0
-2418 2417 0
-2419 195 2377 2382 2415 2418 361 0
2419 -195 0
2419 -2377 0
2419 -2382 0
2419 -2415 0
2419 -2418 0
2419 -361 0
2420 -197 -2419 0
-2420 197 0
-2420 2419 0
2421 -110 -15 0
-2421 110 0
-2421 15 0
-2422 137 2421 355 0
2422 -137 0
2422 -2421 0
2422 -355 0
2423 -139 -2422 0
-2423 139 0
-2423 2422 0
-2424 195 201 2423 220 360 361 0
2424 -195 0
2424 -201 0
2424 -2423 0
2424 -220 0
2424 -360 0
2424 -361 0
2425 -235 -2424 0
-2425 235 0
-2425 2424 0
-2426 195 201 238 220 240 0
2426 -195 0
2426 -201 0
2426 -238 0
2426 -220 0
2426 -240 0
2427 -246 -2426 0
-2427 246 0
-2427 2426 0
-2428 6 2427 0
2428 -6 0
2428 -2427 0
2429 -5 -2428 0
-2429 5 0
-2429 2428 0
-2430 8 2429 0
2430 -8 0
2430 -2429 0
2431 -10 -2430 0
-2431 10 0
-2431 2430 0
-2432 12 2431 0
2432 -12 0
2432 -2431 0
2433 -14 -2432 0
-2433 14 0
-2433 2432 0
-2434 16 1 2433 0
2434 -16 0
2434 -1 0
2434 -2433 0
2435 -18 -2434 0
-2435 18 0
-2435 2434 0
2436 -270 -2424 0
-2436 270 0
-2436 2424 0
-2437 21 2436 0
2437 -21 0
2437 -2436 0
2438 -20 -2437 0
-2438 20 0
-2438 2437 0
-2439 23 2425 2435 2438 0
2439 -23 0
2439 -2425 0
2439 -2435 0
2439 -2438 0
2440 -25 -2439 0
-2440 25 0
-2440 2439 0
-2441 46 2440 0
2441 -46 0
2441 -2440 0
2442 -518 -2441 0
-2442 518 0
-2442 2441 0
-2443 23 2425 2438 0
2443 -23 0
2443 -2425 0
2443 -2438 0
2444 -25 -2443 0
-2444 25 0
-2444 2443 0
-2445 46 2444 0
2445 -46 0
2445 -2444 0
2446 -97 -2445 0
-2446 97 0
-2446 2445 0
-2447 195 201 357 320 360 361 0
2447 -195 0
2447 -201 0
2447 -357 0
2447 -320 0
2447 -360 0
2447 -361 0
2448 -235 -2447 0
-2448 235 0
-2448 2447 0
2449 -270 -2447 0
-2449 270 0
-2449 2447 0
-2450 21 2449 0
2450 -21 0
2450 -2449 0
2451 -20 -2450 0
-2451 20 0
-2451 2450 0
-2452 23 2448 2451 0
2452 -23 0
2452 -2448 0
2452 -2451 0
2453 -25 -2452 0
-2453 25 0
-2453 2452 0
-2454 46 2453 0
2454 -46 0
2454 -2453 0
2455 -99 -2454 0
-2455 99 0
-2455 2454 0
-2456 3 2455 0
2456 -3 0
2456 -2455 0
2457 -2 -2456 0
-2457 2 0
-2457 2456 0
-2458 195 2169 238 2170 2189 0
2458 -195 0
2458 -2169 0
2458 -238 0
2458 -2170 0
2458 -2189 0
2459 -246 -2458 0
-2459 246 0
-2459 2458 0
-2460 6 2459 0
2460 -6 0
2460 -2459 0
2461 -5 -2460 0
-2461 5 0
-2461 2460 0
-2462 8 2461 0
2462 -8 0
2462 -2461 0
2463 -10 -2462 0
-2463 10 0
-2463 2462 0
-2464 12 2463 0
2464 -12 0
2464 -2463 0
2465 -14 -2464 0
-2465 14 0
-2465 2464 0
-2466 16 2446 2457 2465 0
2466 -16 0
2466 -2446 0
2466 -2457 0
2466 -2465 0
2467 -781 -2466 0
-2467 781 0
-2467 2466 0
2468 -110 -2383 0
-2468 110 0
-2468 2383 0
-2469 137 2468 355 0
2469 -137 0
2469 -2468 0
2469 -355 0
2470 -139 -2469 0
-2470 139 0
-2470 2469 0
-2471 195 201 2470 320 360 361 0
2471 -195 0
2471 -201 0
2471 -2470 0
2471 -320 0
2471 -360 0
2471 -361 0
2472 -235 -2471 0
-2472 235 0
-2472 2471 0
-2473 195 201 238 320 240 0
2473 -195 0
2473 -201 0
2473 -238 0
2473 -320 0
2473 -240 0
2474 -246 -2473 0
-2474 246 0
-2474 2473 0
-2475 6 2474 0
2475 -6 0
2475 -2474 0
2476 -5 -2475 0
-2476 5 0
-2476 2475 0
-2477 8 2476 0
2477 -8 0
2477 -2476 0
2478 -10 -2477 0
-2478 10 0
-2478 2477 0
-2479 12 2478 0
2479 -12 0
2479 -2478 0
2480 -14 -2479 0
-2480 14 0
-2480 2479 0
-2481 16 2480 0
2481 -16 0
2481 -2480 0
2482 -18 -2481 0
-2482 18 0
-2482 2481 0
2483 -270 -2471 0
-2483 270 0
-2483 2471 0
-2484 21 2483 0
2484 -21 0
2484 -2483 0
2485 -20 -2484 0
-2485 20 0
-2485 2484 0
-2486 23 2472 2482 2485 0
2486 -23 0
2486 -2472 0
2486 -2482 0
2486 -2485 0
2487 -25 -2486 0
-2487 25 0
-2487 2486 0
-2488 46 2487 0
2488 -46 0
2488 -2487 0
2489 -99 -2488 0
-2489 99 0
-2489 2488 0
-2490 3 2489 0
2490 -3 0
2490 -2489 0
2491 -866 -2490 0
-2491 866 0
-2491 2490 0
2492 -883 -2466 0
-2492 883 0
-2492 2466 0
-2493 1011 2492 0
2493 -1011 0
2493 -2492 0
2494 -1013 -2493 0
-2494 1013 0
-2494 2493 0
-2495 16 203 206 13 0
2495 -16 0
2495 -203 0
2495 -206 0
2495 -13 0
2496 -110 -2495 0
-2496 110 0
-2496 2495 0
-2497 137 2496 355 0
2497 -137 0
2497 -2496 0
2497 -355 0
2498 -139 -2497 0
-2498 139 0
-2498 2497 0
-2499 195 200 201 2498 220 527 361 0
2499 -195 0
2499 -200 0
2499 -201 0
2499 -2498 0
2499 -220 0
2499 -527 0
2499 -361 0
2500 -235 -2499 0
-2500 235 0
-2500 2499 0
-2501 16 203 206 2433 0
2501 -16 0
2501 -203 0
2501 -206 0
2501 -2433 0
2502 -18 -2501 0
-2502 18 0
-2502 2501 0
2503 -270 -2499 0
-2503 270 0
-2503 2499 0
-2504 21 2503 0
2504 -21 0
2504 -2503 0
2505 -20 -2504 0
-2505 20 0
-2505 2504 0
-2506 23 2500 2502 2505 0
2506 -23 0
2506 -2500 0
2506 -2502 0
2506 -2505 0
2507 -29 -2506 0
-2507 29 0
-2507 2506 0
-2508 34 2507 30 0
2508 -34 0
2508 -2507 0
2508 -30 0
2509 -1189 -2508 0
-2509 1189 0
-2509 2508 0
-2510 1191 2442 2467 2491 2494 2509 0
2510 -1191 0
2510 -2442 0
2510 -2467 0
2510 -2491 0
2510 -2494 0
2510 -2509 0
2511 -1216 -2510 0
-2511 1216 0
-2511 2510 0
2512 -781 -2501 0
-2512 781 0
-2512 2501 0
2513 -883 -2501 0
-2513 883 0
-2513 2501 0
-2514 1011 2513 0
2514 -1011 0
2514 -2513 0
2515 -1013 -2514 0
-2515 1013 0
-2515 2514 0
-2516 1191 1764 2512 1766 2515 1206 0
2516 -1191 0
2516 -1764 0
2516 -2512 0
2516 -1766 0
2516 -2515 0
2516 -1206 0
2517 -1209 -2516 0
-2517 1209 0
-2517 2516 0
-2518 23 2517 2500 2502 2505 0
2518 -23 0
2518 -2517 0
2518 -2500 0
2518 -2502 0
2518 -2505 0
2519 -27 -2518 0
-2519 27 0
-2519 2518 0
2520 -29 -2518 0
-2520 29 0
-2520 2518 0
-2521 34 2520 30 0
2521 -34 0
2521 -2520 0
2521 -30 0
2522 -36 -2521 0
-2522 36 0
-2522 2521 0
-2523 38 2522 0
2523 -38 0
2523 -2522 0
2524 -40 -2523 0
-2524 40 0
-2524 2523 0
-2525 42 2511 2519 2524 0
2525 -42 0
2525 -2511 0
2525 -2519 0
2525 -2524 0
2526 -282 -2525 0
-2526 282 0
-2526 2525 0
-2527 284 2420 2526 0
2527 -284 0
2527 -2420 0
2527 -2526 0
2528 -290 -2527 0
-2528 290 0
-2528 2527 0
-2529 195 2423 320 360 361 0
2529 -195 0
2529 -2423 0
2529 -320 0
2529 -360 0
2529 -361 0
2530 -197 -2529 0
-2530 197 0
-2530 2529 0
-2531 284 2530 298 0
2531 -284 0
2531 -2530 0
2531 -298 0
2532 -286 -2531 0
-2532 286 0
-2532 2531 0
2533 -306 -2531 0
-2533 306 0
-2533 2531 0
-2534 195 370 320 371 0
2534 -195 0
2534 -370 0
2534 -320 0
2534 -371 0
2535 -246 -2534 0
-2535 246 0
-2535 2534 0
-2536 6 2535 0
2536 -6 0
2536 -2535 0
2537 -5 -2536 0
-2537 5 0
-2537 2536 0
-2538 8 2537 0
2538 -8 0
2538 -2537 0
2539 -10 -2538 0
-2539 10 0
-2539 2538 0
-2540 12 2539 0
2540 -12 0
2540 -2539 0
2541 -14 -2540 0
-2541 14 0
-2541 2540 0
-2542 16 2533 1 2541 0
2542 -16 0
2542 -2533 0
2542 -1 0
2542 -2541 0
2543 -781 -2542 0
-2543 781 0
-2543 2542 0
2544 -883 -2542 0
-2544 883 0
-2544 2542 0
2545 -197 -2424 0
-2545 197 0
-2545 2424 0
-2546 284 2545 0
2546 -284 0
2546 -2545 0
2547 -508 -2546 0
-2547 508 0
-2547 2546 0
-2548 38 2547 294 0
2548 -38 0
2548 -2547 0
2548 -294 0
2549 -40 -2548 0
-2549 40 0
-2549 2548 0
-2550 42 2549 0
2550 -42 0
2550 -2549 0
2551 -1009 -2550 0
-2551 1009 0
-2551 2550 0
-2552 1011 2544 2551 0
2552 -1011 0
2552 -2544 0
2552 -2551 0
2553 -1013 -2552 0
-2553 1013 0
-2553 2552 0
-2554 1191 2532 2543 1197 2553 1206 0
2554 -1191 0
2554 -2532 0
2554 -2543 0
2554 -1197 0
2554 -2553 0
2554 -1206 0
2555 -1209 -2554 0
-2555 1209 0
-2555 2554 0
2556 -301 -1219 0
-2556 301 0
-2556 1219 0
2557 -306 -1219 0
-2557 306 0
-2557 1219 0
-2558 16 2557 1 13 0
2558 -16 0
2558 -2557 0
2558 -1 0
2558 -13 0
2559 -110 -2558 0
-2559 110 0
-2559 2558 0
-2560 137 2556 2559 355 0
2560 -137 0
2560 -2556 0
2560 -2559 0
2560 -355 0
2561 -139 -2560 0
-2561 139 0
-2561 2560 0
-2562 195 2561 320 360 361 0
2562 -195 0
2562 -2561 0
2562 -320 0
2562 -360 0
2562 -361 0
2563 -235 -2562 0
-2563 235 0
-2563 2562 0
2564 -781 -2434 0
-2564 781 0
-2564 2434 0
2565 -883 -2434 0
-2565 883 0
-2565 2434 0
-2566 1011 2565 0
2566 -1011 0
2566 -2565 0
2567 -1013 -2566 0
-2567 1013 0
-2567 2566 0
-2568 1191 2564 1197 2567 1206 0
2568 -1191 0
2568 -2564 0
2568 -1197 0
2568 -2567 0
2568 -1206 0
2569 -1216 -2568 0
-2569 1216 0
-2569 2568 0
-2570 42 2569 296 0
2570 -42 0
2570 -2569 0
2570 -296 0
2571 -282 -2570 0
-2571 282 0
-2571 2570 0
-2572 284 2530 2571 0
2572 -284 0
2572 -2530 0
2572 -2571 0
2573 -352 -2572 0
-2573 352 0
-2573 2572 0
-2574 284 2530 1238 0
2574 -284 0
2574 -2530 0
2574 -1238 0
2575 -306 -2574 0
-2575 306 0
-2575 2574 0
-2576 195 1322 320 371 0
2576 -195 0
2576 -1322 0
2576 -320 0
2576 -371 0
2577 -246 -2576 0
-2577 246 0
-2577 2576 0
-2578 6 2577 0
2578 -6 0
2578 -2577 0
2579 -5 -2578 0
-2579 5 0
-2579 2578 0
-2580 8 2579 0
2580 -8 0
2580 -2579 0
2581 -10 -2580 0
-2581 10 0
-2581 2580 0
-2582 12 2581 0
2582 -12 0
2582 -2581 0
2583 -14 -2582 0
-2583 14 0
-2583 2582 0
-2584 16 2575 1 2583 0
2584 -16 0
2584 -2575 0
2584 -1 0
2584 -2583 0
2585 -18 -2584 0
-2585 18 0
-2585 2584 0
2586 -270 -2562 0
-2586 270 0
-2586 2562 0
2587 -414 -2572 0
-2587 414 0
-2587 2572 0
-2588 21 2586 2587 0
2588 -21 0
2588 -2586 0
2588 -2587 0
2589 -20 -2588 0
-2589 20 0
-2589 2588 0
-2590 23 2555 2563 2573 2585 2589 0
2590 -23 0
2590 -2555 0
2590 -2563 0
2590 -2573 0
2590 -2585 0
2590 -2589 0
2591 -25 -2590 0
-2591 25 0
-2591 2590 0
-2592 284 2530 0
2592 -284 0
2592 -2530 0
2593 -286 -2592 0
-2593 286 0
-2593 2592 0
2594 -306 -2592 0
-2594 306 0
-2594 2592 0
-2595 195 464 320 371 0
2595 -195 0
2595 -464 0
2595 -320 0
2595 -371 0
2596 -246 -2595 0
-2596 246 0
-2596 2595 0
-2597 6 2596 0
2597 -6 0
2597 -2596 0
2598 -5 -2597 0
-2598 5 0
-2598 2597 0
-2599 8 2598 0
2599 -8 0
2599 -2598 0
2600 -10 -2599 0
-2600 10 0
-2600 2599 0
-2601 12 2600 0
2601 -12 0
2601 -2600 0
2602 -14 -2601 0
-2602 14 0
-2602 2601 0
-2603 16 2594 1 2602 0
2603 -16 0
2603 -2594 0
2603 -1 0
2603 -2602 0
2604 -781 -2603 0
-2604 781 0
-2604 2603 0
2605 -883 -2603 0
-2605 883 0
-2605 2603 0
-2606 1011 2605 0
2606 -1011 0
2606 -2605 0
2607 -1013 -2606 0
-2607 1013 0
-2607 2606 0
-2608 16 424 1 13 0
2608 -16 0
2608 -424 0
2608 -1 0
2608 -13 0
2609 -110 -2608 0
-2609 110 0
-2609 2608 0
-2610 137 422 2609 355 0
2610 -137 0
2610 -422 0
2610 -2609 0
2610 -355 0
2611 -139 -2610 0
-2611 139 0
-2611 2610 0
-2612 195 201 2611 220 360 361 0
2612 -195 0
2612 -201 0
2612 -2611 0
2612 -220 0
2612 -360 0
2612 -361 0
2613 -235 -2612 0
-2613 235 0
-2613 2612 0
2614 -352 -2546 0
-2614 352 0
-2614 2546 0
2615 -306 -2546 0
-2615 306 0
-2615 2546 0
-2616 16 2615 1 2602 0
2616 -16 0
2616 -2615 0
2616 -1 0
2616 -2602 0
2617 -18 -2616 0
-2617 18 0
-2617 2616 0
2618 -270 -2612 0
-2618 270 0
-2618 2612 0
2619 -414 -2546 0
-2619 414 0
-2619 2546 0
-2620 21 2618 2619 0
2620 -21 0
2620 -2618 0
2620 -2619 0
2621 -20 -2620 0
-2621 20 0
-2621 2620 0
-2622 23 2613 2614 2617 2621 0
2622 -23 0
2622 -2613 0
2622 -2614 0
2622 -2617 0
2622 -2621 0
2623 -29 -2622 0
-2623 29 0
-2623 2622 0
-2624 34 2623 30 0
2624 -34 0
2624 -2623 0
2624 -30 0
2625 -1189 -2624 0
-2625 1189 0
-2625 2624 0
-2626 1191 2593 2604 1197 2607 2625 0
2626 -1191 0
2626 -2593 0
2626 -2604 0
2626 -1197 0
2626 -2607 0
2626 -2625 0
2627 -1216 -2626 0
-2627 1216 0
-2627 2626 0
2628 -286 -2546 0
-2628 286 0
-2628 2546 0
2629 -781 -2616 0
-2629 781 0
-2629 2616 0
2630 -883 -2616 0
-2630 883 0
-2630 2616 0
-2631 1011 2630 0
2631 -1011 0
2631 -2630 0
2632 -1013 -2631 0
-2632 1013 0
-2632 2631 0
-2633 1191 2628 2629 1197 2632 1206 0
2633 -1191 0
2633 -2628 0
2633 -2629 0
2633 -1197 0
2633 -2632 0
2633 -1206 0
2634 -1209 -2633 0
-2634 1209 0
-2634 2633 0
-2635 23 2634 2613 2614 2617 2621 0
2635 -23 0
2635 -2634 0
2635 -2613 0
2635 -2614 0
2635 -2617 0
2635 -2621 0
2636 -27 -2635 0
-2636 27 0
-2636 2635 0
2637 -508 -2592 0
-2637 508 0
-2637 2592 0
2638 -29 -2635 0
-2638 29 0
-2638 2635 0
-2639 34 2638 30 0
2639 -34 0
2639 -2638 0
2639 -30 0
2640 -36 -2639 0
-2640 36 0
-2640 2639 0
-2641 38 2637 2640 0
2641 -38 0
2641 -2637 0
2641 -2640 0
2642 -40 -2641 0
-2642 40 0
-2642 2641 0
-2643 42 2627 2636 2642 0
2643 -42 0
2643 -2627 0
2643 -2636 0
2643 -2642 0
2644 -44 -2643 0
-2644 44 0
-2644 2643 0
-2645 46 2591 2644 0
2645 -46 0
2645 -2591 0
2645 -2644 0
2646 -48 -2645 0
-2646 48 0
-2646 2645 0
2647 -81 -1929 0
-2647 81 0
-2647 1929 0
2648 -301 -2148 0
-2648 301 0
-2648 2148 0
2649 -306 -2038 0
-2649 306 0
-2649 2038 0
2650 -97 -2050 0
-2650 97 0
-2650 2050 0
-2651 16 2649 2650 2088 0
2651 -16 0
2651 -2649 0
2651 -2650 0
2651 -2088 0
2652 -110 -2651 0
-2652 110 0
-2652 2651 0
-2653 137 2648 2652 236 0
2653 -137 0
2653 -2648 0
2653 -2652 0
2653 -236 0
2654 -139 -2653 0
-2654 139 0
-2654 2653 0
-2655 16 305 0
2655 -16 0
2655 -305 0
2656 -781 -2655 0
-2656 781 0
-2656 2655 0
2657 -883 -2655 0
-2657 883 0
-2657 2655 0
-2658 1011 2657 1894 0
2658 -1011 0
2658 -2657 0
2658 -1894 0
2659 -1013 -2658 0
-2659 1013 0
-2659 2658 0
-2660 1191 1887 2656 1197 2659 1206 0
2660 -1191 0
2660 -1887 0
2660 -2656 0
2660 -1197 0
2660 -2659 0
2660 -1206 0
2661 -1209 -2660 0
-2661 1209 0
-2661 2660 0
-2662 16 1240 0
2662 -16 0
2662 -1240 0
2663 -18 -2662 0
-2663 18 0
-2663 2662 0
-2664 23 2661 2109 2663 2114 0
2664 -23 0
2664 -2661 0
2664 -2109 0
2664 -2663 0
2664 -2114 0
2665 -25 -2664 0
-2665 25 0
-2665 2664 0
-2666 46 2665 2139 0
2666 -46 0
2666 -2665 0
2666 -2139 0
2667 -99 -2666 0
-2667 99 0
-2667 2666 0
-2668 3 2667 0
2668 -3 0
2668 -2667 0
2669 -156 -2668 0
-2669 156 0
-2669 2668 0
2670 -158 -1929 0
-2670 158 0
-2670 1929 0
-2671 162 2670 0
2671 -162 0
2671 -2670 0
2672 -164 -2671 0
-2672 164 0
-2672 2671 0
-2673 195 2647 2654 2669 2672 0
2673 -195 0
2673 -2647 0
2673 -2654 0
2673 -2669 0
2673 -2672 0
2674 -246 -2673 0
-2674 246 0
-2674 2673 0
-2675 6 2674 0
2675 -6 0
2675 -2674 0
2676 -5 -2675 0
-2676 5 0
-2676 2675 0
-2677 8 2676 0
2677 -8 0
2677 -2676 0
2678 -10 -2677 0
-2678 10 0
-2678 2677 0
-2679 12 2678 0
2679 -12 0
2679 -2678 0
2680 -50 -2679 0
-2680 50 0
-2680 2679 0
-2681 54 2528 2646 2680 51 0
2681 -54 0
2681 -2528 0
2681 -2646 0
2681 -2680 0
2681 -51 0
2682 -187 -2681 0
-2682 187 0
-2682 2681 0
-2683 137 1663 0
2683 -137 0
2683 -1663 0
2684 -139 -2683 0
-2684 139 0
-2684 2683 0
2685 -27 -1687 0
-2685 27 0
-2685 1687 0
-2686 42 1683 2685 1692 0
2686 -42 0
2686 -1683 0
2686 -2685 0
2686 -1692 0
2687 -44 -2686 0
-2687 44 0
-2687 2686 0
-2688 46 1675 2687 0
2688 -46 0
2688 -1675 0
2688 -2687 0
2689 -99 -2688 0
-2689 99 0
-2689 2688 0
-2690 3 2689 0
2690 -3 0
2690 -2689 0
2691 -156 -2690 0
-2691 156 0
-2691 2690 0
2692 -158 -1625 0
-2692 158 0
-2692 1625 0
-2693 162 2692 0
2693 -162 0
2693 -2692 0
2694 -164 -2693 0
-2694 164 0
-2694 2693 0
-2695 195 1626 2684 2691 2694 0
2695 -195 0
2695 -1626 0
2695 -2684 0
2695 -2691 0
2695 -2694 0
2696 -197 -2695 0
-2696 197 0
-2696 2695 0
-2697 137 1701 0
2697 -137 0
2697 -1701 0
2698 -139 -2697 0
-2698 139 0
-2698 2697 0
-2699 195 201 2698 220 240 0
2699 -195 0
2699 -201 0
2699 -2698 0
2699 -220 0
2699 -240 0
2700 -235 -2699 0
-2700 235 0
-2700 2699 0
2701 -270 -2699 0
-2701 270 0
-2701 2699 0
-2702 21 2701 0
2702 -21 0
2702 -2701 0
2703 -20 -2702 0
-2703 20 0
-2703 2702 0
-2704 23 2700 112 2703 0
2704 -23 0
2704 -2700 0
2704 -112 0
2704 -2703 0
2705 -25 -2704 0
-2705 25 0
-2705 2704 0
-2706 46 2705 0
2706 -46 0
2706 -2705 0
2707 -518 -2706 0
-2707 518 0
-2707 2706 0
-2708 23 2700 2703 0
2708 -23 0
2708 -2700 0
2708 -2703 0
2709 -25 -2708 0
-2709 25 0
-2709 2708 0
-2710 46 2709 0
2710 -46 0
2710 -2709 0
2711 -97 -2710 0
-2711 97 0
-2711 2710 0
2712 -139 -137 0
-2712 139 0
-2712 137 0
-2713 195 201 2712 320 240 0
2713 -195 0
2713 -201 0
2713 -2712 0
2713 -320 0
2713 -240 0
2714 -235 -2713 0
-2714 235 0
-2714 2713 0
2715 -270 -2713 0
-2715 270 0
-2715 2713 0
-2716 21 2715 0
2716 -21 0
2716 -2715 0
2717 -20 -2716 0
-2717 20 0
-2717 2716 0
-2718 23 2714 2717 0
2718 -23 0
2718 -2714 0
2718 -2717 0
2719 -25 -2718 0
-2719 25 0
-2719 2718 0
-2720 46 2719 0
2720 -46 0
2720 -2719 0
2721 -99 -2720 0
-2721 99 0
-2721 2720 0
-2722 3 2721 0
2722 -3 0
2722 -2721 0
2723 -2 -2722 0
-2723 2 0
-2723 2722 0
-2724 16 2711 2723 0
2724 -16 0
2724 -2711 0
2724 -2723 0
2725 -781 -2724 0
-2725 781 0
-2725 2724 0
-2726 137 1729 0
2726 -137 0
2726 -1729 0
2727 -139 -2726 0
-2727 139 0
-2727 2726 0
-2728 195 201 2727 320 240 0
2728 -195 0
2728 -201 0
2728 -2727 0
2728 -320 0
2728 -240 0
2729 -235 -2728 0
-2729 235 0
-2729 2728 0
2730 -270 -2728 0
-2730 270 0
-2730 2728 0
-2731 21 2730 0
2731 -21 0
2731 -2730 0
2732 -20 -2731 0
-2732 20 0
-2732 2731 0
-2733 23 2729 1673 2732 0
2733 -23 0
2733 -2729 0
2733 -1673 0
2733 -2732 0
2734 -25 -2733 0
-2734 25 0
-2734 2733 0
-2735 46 2734 0
2735 -46 0
2735 -2734 0
2736 -99 -2735 0
-2736 99 0
-2736 2735 0
-2737 3 2736 0
2737 -3 0
2737 -2736 0
2738 -866 -2737 0
-2738 866 0
-2738 2737 0
2739 -883 -2724 0
-2739 883 0
-2739 2724 0
-2740 1011 2739 0
2740 -1011 0
2740 -2739 0
2741 -1013 -2740 0
-2741 1013 0
-2741 2740 0
-2742 137 1749 0
2742 -137 0
2742 -1749 0
2743 -139 -2742 0
-2743 139 0
-2743 2742 0
-2744 195 201 2743 220 240 0
2744 -195 0
2744 -201 0
2744 -2743 0
2744 -220 0
2744 -240 0
2745 -235 -2744 0
-2745 235 0
-2745 2744 0
2746 -270 -2744 0
-2746 270 0
-2746 2744 0
-2747 21 2746 0
2747 -21 0
2747 -2746 0
2748 -20 -2747 0
-2748 20 0
-2748 2747 0
-2749 23 2745 1754 2748 0
2749 -23 0
2749 -2745 0
2749 -1754 0
2749 -2748 0
2750 -29 -2749 0
-2750 29 0
-2750 2749 0
-2751 34 2750 30 0
2751 -34 0
2751 -2750 0
2751 -30 0
2752 -1189 -2751 0
-2752 1189 0
-2752 2751 0
-2753 1191 2707 2725 2738 2741 2752 0
2753 -1191 0
2753 -2707 0
2753 -2725 0
2753 -2738 0
2753 -2741 0
2753 -2752 0
2754 -1216 -2753 0
-2754 1216 0
-2754 2753 0
-2755 23 1771 2745 1754 2748 0
2755 -23 0
2755 -1771 0
2755 -2745 0
2755 -1754 0
2755 -2748 0
2756 -27 -2755 0
-2756 27 0
-2756 2755 0
2757 -29 -2755 0
-2757 29 0
-2757 2755 0
-2758 34 2757 30 0
2758 -34 0
2758 -2757 0
2758 -30 0
2759 -36 -2758 0
-2759 36 0
-2759 2758 0
-2760 38 2759 0
2760 -38 0
2760 -2759 0
2761 -40 -2760 0
-2761 40 0
-2761 2760 0
-2762 42 2754 2756 2761 0
2762 -42 0
2762 -2754 0
2762 -2756 0
2762 -2761 0
2763 -282 -2762 0
-2763 282 0
-2763 2762 0
-2764 284 2696 2763 0
2764 -284 0
2764 -2696 0
2764 -2763 0
2765 -290 -2764 0
-2765 290 0
-2765 2764 0
-2766 195 2698 320 371 0
2766 -195 0
2766 -2698 0
2766 -320 0
2766 -371 0
2767 -197 -2766 0
-2767 197 0
-2767 2766 0
-2768 284 2767 298 0
2768 -284 0
2768 -2767 0
2768 -298 0
2769 -286 -2768 0
-2769 286 0
-2769 2768 0
2770 -306 -2768 0
-2770 306 0
-2770 2768 0
-2771 16 2770 1 0
2771 -16 0
2771 -2770 0
2771 -1 0
2772 -781 -2771 0
-2772 781 0
-2772 2771 0
2773 -883 -2771 0
-2773 883 0
-2773 2771 0
-2774 284 2767 0
2774 -284 0
2774 -2767 0
2775 -508 -2774 0
-2775 508 0
-2775 2774 0
-2776 38 2775 294 0
2776 -38 0
2776 -2775 0
2776 -294 0
2777 -40 -2776 0
-2777 40 0
-2777 2776 0
-2778 42 2777 0
2778 -42 0
2778 -2777 0
2779 -1009 -2778 0
-2779 1009 0
-2779 2778 0
-2780 1011 2773 2779 0
2780 -1011 0
2780 -2773 0
2780 -2779 0
2781 -1013 -2780 0
-2781 1013 0
-2781 2780 0
-2782 1191 2769 2772 1197 2781 1206 0
2782 -1191 0
2782 -2769 0
2782 -2772 0
2782 -1197 0
2782 -2781 0
2782 -1206 0
2783 -1209 -2782 0
-2783 1209 0
-2783 2782 0
-2784 137 1801 1803 0
2784 -137 0
2784 -1801 0
2784 -1803 0
2785 -139 -2784 0
-2785 139 0
-2785 2784 0
-2786 195 2785 320 371 0
2786 -195 0
2786 -2785 0
2786 -320 0
2786 -371 0
2787 -235 -2786 0
-2787 235 0
-2787 2786 0
-2788 284 2767 1257 0
2788 -284 0
2788 -2767 0
2788 -1257 0
2789 -352 -2788 0
-2789 352 0
-2789 2788 0
-2790 284 2767 1238 0
2790 -284 0
2790 -2767 0
2790 -1238 0
2791 -306 -2790 0
-2791 306 0
-2791 2790 0
-2792 16 2791 1 0
2792 -16 0
2792 -2791 0
2792 -1 0
2793 -18 -2792 0
-2793 18 0
-2793 2792 0
2794 -270 -2786 0
-2794 270 0
-2794 2786 0
2795 -414 -2788 0
-2795 414 0
-2795 2788 0
-2796 21 2794 2795 0
2796 -21 0
2796 -2794 0
2796 -2795 0
2797 -20 -2796 0
-2797 20 0
-2797 2796 0
-2798 23 2783 2787 2789 2793 2797 0
2798 -23 0
2798 -2783 0
2798 -2787 0
2798 -2789 0
2798 -2793 0
2798 -2797 0
2799 -25 -2798 0
-2799 25 0
-2799 2798 0
2800 -286 -2774 0
-2800 286 0
-2800 2774 0
2801 -306 -2774 0
-2801 306 0
-2801 2774 0
-2802 16 2801 1 0
2802 -16 0
2802 -2801 0
2802 -1 0
2803 -781 -2802 0
-2803 781 0
-2803 2802 0
2804 -883 -2802 0
-2804 883 0
-2804 2802 0
-2805 1011 2804 0
2805 -1011 0
2805 -2804 0
2806 -1013 -2805 0
-2806 1013 0
-2806 2805 0
-2807 137 422 1827 0
2807 -137 0
2807 -422 0
2807 -1827 0
2808 -139 -2807 0
-2808 139 0
-2808 2807 0
-2809 195 201 2808 220 240 0
2809 -195 0
2809 -201 0
2809 -2808 0
2809 -220 0
2809 -240 0
2810 -235 -2809 0
-2810 235 0
-2810 2809 0
2811 -352 -2774 0
-2811 352 0
-2811 2774 0
2812 -18 -2802 0
-2812 18 0
-2812 2802 0
2813 -270 -2809 0
-2813 270 0
-2813 2809 0
2814 -414 -2774 0
-2814 414 0
-2814 2774 0
-2815 21 2813 2814 0
2815 -21 0
2815 -2813 0
2815 -2814 0
2816 -20 -2815 0
-2816 20 0
-2816 2815 0
-2817 23 2810 2811 2812 2816 0
2817 -23 0
2817 -2810 0
2817 -2811 0
2817 -2812 0
2817 -2816 0
2818 -29 -2817 0
-2818 29 0
-2818 2817 0
-2819 34 2818 30 0
2819 -34 0
2819 -2818 0
2819 -30 0
2820 -1189 -2819 0
-2820 1189 0
-2820 2819 0
-2821 1191 2800 2803 1197 2806 2820 0
2821 -1191 0
2821 -2800 0
2821 -2803 0
2821 -1197 0
2821 -2806 0
2821 -2820 0
2822 -1216 -2821 0
-2822 1216 0
-2822 2821 0
-2823 1191 2800 2803 1197 2806 1206 0
2823 -1191 0
2823 -2800 0
2823 -2803 0
2823 -1197 0
2823 -2806 0
2823 -1206 0
2824 -1209 -2823 0
-2824 1209 0
-2824 2823 0
-2825 23 2824 2810 2811 2812 2816 0
2825 -23 0
2825 -2824 0
2825 -2810 0
2825 -2811 0
2825 -2812 0
2825 -2816 0
2826 -27 -2825 0
-2826 27 0
-2826 2825 0
2827 -29 -2825 0
-2827 29 0
-2827 2825 0
-2828 34 2827 30 0
2828 -34 0
2828 -2827 0
2828 -30 0
2829 -36 -2828 0
-2829 36 0
-2829 2828 0
-2830 38 2775 2829 0
2830 -38 0
2830 -2775 0
2830 -2829 0
2831 -40 -2830 0
-2831 40 0
-2831 2830 0
-2832 42 2822 2826 2831 0
2832 -42 0
2832 -2822 0
2832 -2826 0
2832 -2831 0
2833 -44 -2832 0
-2833 44 0
-2833 2832 0
-2834 46 2799 2833 0
2834 -46 0
2834 -2799 0
2834 -2833 0
2835 -48 -2834 0
-2835 48 0
-2835 2834 0
-2836 54 2765 2835 51 0
2836 -54 0
2836 -2765 0
2836 -2835 0
2836 -51 0
2837 -62 -2836 0
-2837 62 0
-2837 2836 0
2838 -56 -2150 0
-2838 56 0
-2838 2150 0
-2839 137 2031 2090 0
2839 -137 0
2839 -2031 0
2839 -2090 0
2840 -139 -2839 0
-2840 139 0
-2840 2839 0
2841 -158 -1985 0
-2841 158 0
-2841 1985 0
-2842 162 2841 0
2842 -162 0
2842 -2841 0
2843 -164 -2842 0
-2843 164 0
-2843 2842 0
-2844 195 2838 1986 2840 2143 2843 0
2844 -195 0
2844 -2838 0
2844 -1986 0
2844 -2840 0
2844 -2143 0
2844 -2843 0
2845 -246 -2844 0
-2845 246 0
-2845 2844 0
-2846 6 2845 0
2846 -6 0
2846 -2845 0
2847 -5 -2846 0
-2847 5 0
-2847 2846 0
-2848 8 2837 2847 0
2848 -8 0
2848 -2837 0
2848 -2847 0
2849 -10 -2848 0
-2849 10 0
-2849 2848 0
-2850 12 2849 0
2850 -12 0
2850 -2849 0
2851 -131 -2850 0
-2851 131 0
-2851 2850 0
-2852 133 2851 0
2852 -133 0
2852 -2851 0
2853 -189 -2852 0
-2853 189 0
-2853 2852 0
-2854 191 2682 2853 0
2854 -191 0
2854 -2682 0
2854 -2853 0
2855 -2856 -2854 0
-2855 2856 0
-2855 2854 0
-2857 2858 2163 2357 2855 0
2857 -2858 0
2857 -2163 0
2857 -2357 0
2857 -2855 0
2859 -2860 -2857 0
-2859 2860 0
-2859 2857 0
2861 -10 -8 0
-2861 10 0
-2861 8 0
-2862 12 2861 0
2862 -12 0
2862 -2861 0
2863 -14 -2862 0
-2863 14 0
-2863 2862 0
-2864 16 1 2863 0
2864 -16 0
2864 -1 0
2864 -2863 0
2865 -18 -2864 0
-2865 18 0
-2865 2864 0
-2866 23 2865 19 0
2866 -23 0
2866 -2865 0
2866 -19 0
2867 -25 -2866 0
-2867 25 0
-2867 2866 0
-2868 46 2867 0
2868 -46 0
2868 -2867 0
2869 -518 -2868 0
-2869 518 0
-2869 2868 0
-2870 16 956 959 2863 0
2870 -16 0
2870 -956 0
2870 -959 0
2870 -2863 0
2871 -781 -2870 0
-2871 781 0
-2871 2870 0
-2872 16 2863 0
2872 -16 0
2872 -2863 0
2873 -18 -2872 0
-2873 18 0
-2873 2872 0
-2874 23 2873 19 0
2874 -23 0
2874 -2873 0
2874 -19 0
2875 -25 -2874 0
-2875 25 0
-2875 2874 0
-2876 46 2875 0
2876 -46 0
2876 -2875 0
2877 -99 -2876 0
-2877 99 0
-2877 2876 0
-2878 3 2877 0
2878 -3 0
2878 -2877 0
2879 -866 -2878 0
-2879 866 0
-2879 2878 0
2880 -883 -2870 0
-2880 883 0
-2880 2870 0
-2881 1011 2880 0
2881 -1011 0
2881 -2880 0
2882 -1013 -2881 0
-2882 1013 0
-2882 2881 0
-2883 16 203 206 2863 0
2883 -16 0
2883 -203 0
2883 -206 0
2883 -2863 0
2884 -18 -2883 0
-2884 18 0
-2884 2883 0
-2885 23 2884 19 0
2885 -23 0
2885 -2884 0
2885 -19 0
2886 -29 -2885 0
-2886 29 0
-2886 2885 0
-2887 34 2886 30 0
2887 -34 0
2887 -2886 0
2887 -30 0
2888 -1189 -2887 0
-2888 1189 0
-2888 2887 0
-2889 1191 2869 2871 2879 2882 2888 0
2889 -1191 0
2889 -2869 0
2889 -2871 0
2889 -2879 0
2889 -2882 0
2889 -2888 0
2890 -1216 -2889 0
-2890 1216 0
-2890 2889 0
2891 -781 -2883 0
-2891 781 0
-2891 2883 0
2892 -883 -2883 0
-2892 883 0
-2892 2883 0
-2893 1011 2892 0
2893 -1011 0
2893 -2892 0
2894 -1013 -2893 0
-2894 1013 0
-2894 2893 0
-2895 1191 1764 2891 1766 2894 1206 0
2895 -1191 0
2895 -1764 0
2895 -2891 0
2895 -1766 0
2895 -2894 0
2895 -1206 0
2896 -1209 -2895 0
-2896 1209 0
-2896 2895 0
-2897 23 2896 2884 19 0
2897 -23 0
2897 -2896 0
2897 -2884 0
2897 -19 0
2898 -27 -2897 0
-2898 27 0
-2898 2897 0
2899 -29 -2897 0
-2899 29 0
-2899 2897 0
-2900 34 2899 30 0
2900 -34 0
2900 -2899 0
2900 -30 0
2901 -36 -2900 0
-2901 36 0
-2901 2900 0
-2902 38 2901 0
2902 -38 0
2902 -2901 0
2903 -40 -2902 0
-2903 40 0
-2903 2902 0
-2904 42 2890 2898 2903 0
2904 -42 0
2904 -2890 0
2904 -2898 0
2904 -2903 0
2905 -282 -2904 0
-2905 282 0
-2905 2904 0
-2906 284 2905 0
2906 -284 0
2906 -2905 0
2907 -290 -2906 0
-2907 290 0
-2907 2906 0
-2908 16 305 1 2863 0
2908 -16 0
2908 -305 0
2908 -1 0
2908 -2863 0
2909 -781 -2908 0
-2909 781 0
-2909 2908 0
2910 -883 -2908 0
-2910 883 0
-2910 2908 0
-2911 1011 2910 1894 0
2911 -1011 0
2911 -2910 0
2911 -1894 0
2912 -1013 -2911 0
-2912 1013 0
-2912 2911 0
-2913 1191 1887 2909 1197 2912 1206 0
2913 -1191 0
2913 -1887 0
2913 -2909 0
2913 -1197 0
2913 -2912 0
2913 -1206 0
2914 -1209 -2913 0
-2914 1209 0
-2914 2913 0
2915 -1216 -2895 0
-2915 1216 0
-2915 2895 0
-2916 42 2915 296 0
2916 -42 0
2916 -2915 0
2916 -296 0
2917 -282 -2916 0
-2917 282 0
-2917 2916 0
-2918 284 2917 0
2918 -284 0
2918 -2917 0
2919 -352 -2918 0
-2919 352 0
-2919 2918 0
-2920 16 1240 1 2863 0
2920 -16 0
2920 -1240 0
2920 -1 0
2920 -2863 0
2921 -18 -2920 0
-2921 18 0
-2921 2920 0
2922 -414 -2918 0
-2922 414 0
-2922 2918 0
-2923 21 2922 0
2923 -21 0
2923 -2922 0
2924 -20 -2923 0
-2924 20 0
-2924 2923 0
-2925 23 2914 2919 2921 2924 0
2925 -23 0
2925 -2914 0
2925 -2919 0
2925 -2921 0
2925 -2924 0
2926 -25 -2925 0
-2926 25 0
-2926 2925 0
-2927 16 424 1 2863 0
2927 -16 0
2927 -424 0
2927 -1 0
2927 -2863 0
2928 -781 -2927 0
-2928 781 0
-2928 2927 0
2929 -883 -2927 0
-2929 883 0
-2929 2927 0
-2930 1011 2929 0
2930 -1011 0
2930 -2929 0
2931 -1013 -2930 0
-2931 1013 0
-2931 2930 0
2932 -18 -2927 0
-2932 18 0
-2932 2927 0
-2933 23 582 2932 585 0
2933 -23 0
2933 -582 0
2933 -2932 0
2933 -585 0
2934 -29 -2933 0
-2934 29 0
-2934 2933 0
-2935 34 2934 30 0
2935 -34 0
2935 -2934 0
2935 -30 0
2936 -1189 -2935 0
-2936 1189 0
-2936 2935 0
-2937 1191 1906 2928 1197 2931 2936 0
2937 -1191 0
2937 -1906 0
2937 -2928 0
2937 -1197 0
2937 -2931 0
2937 -2936 0
2938 -1216 -2937 0
-2938 1216 0
-2938 2937 0
-2939 1191 1906 2928 1197 2931 1206 0
2939 -1191 0
2939 -1906 0
2939 -2928 0
2939 -1197 0
2939 -2931 0
2939 -1206 0
2940 -1209 -2939 0
-2940 1209 0
-2940 2939 0
-2941 23 2940 582 2932 585 0
2941 -23 0
2941 -2940 0
2941 -582 0
2941 -2932 0
2941 -585 0
2942 -27 -2941 0
-2942 27 0
-2942 2941 0
2943 -29 -2941 0
-2943 29 0
-2943 2941 0
-2944 34 2943 30 0
2944 -34 0
2944 -2943 0
2944 -30 0
2945 -36 -2944 0
-2945 36 0
-2945 2944 0
-2946 38 588 2945 0
2946 -38 0
2946 -588 0
2946 -2945 0
2947 -40 -2946 0
-2947 40 0
-2947 2946 0
-2948 42 2938 2942 2947 0
2948 -42 0
2948 -2938 0
2948 -2942 0
2948 -2947 0
2949 -44 -2948 0
-2949 44 0
-2949 2948 0
-2950 46 2926 2949 0
2950 -46 0
2950 -2926 0
2950 -2949 0
2951 -48 -2950 0
-2951 48 0
-2951 2950 0
2952 -50 -2862 0
-2952 50 0
-2952 2862 0
-2953 54 2907 2951 2952 51 0
2953 -54 0
2953 -2907 0
2953 -2951 0
2953 -2952 0
2953 -51 0
2954 -56 -2953 0
-2954 56 0
-2954 2953 0
-2955 54 302 2952 51 0
2955 -54 0
2955 -302 0
2955 -2952 0
2955 -51 0
2956 -59 -2955 0
-2956 59 0
-2956 2955 0
-2957 8 308 0
2957 -8 0
2957 -308 0
2958 -10 -2957 0
-2958 10 0
-2958 2957 0
-2959 12 2958 0
2959 -12 0
2959 -2958 0
2960 -14 -2959 0
-2960 14 0
-2960 2959 0
-2961 16 2956 305 1 2960 0
2961 -16 0
2961 -2956 0
2961 -305 0
2961 -1 0
2961 -2960 0
2962 -781 -2961 0
-2962 781 0
-2962 2961 0
2963 -883 -2961 0
-2963 883 0
-2963 2961 0
-2964 1011 2963 1894 0
2964 -1011 0
2964 -2963 0
2964 -1894 0
2965 -1013 -2964 0
-2965 1013 0
-2965 2964 0
-2966 1191 1887 2962 1197 2965 1206 0
2966 -1191 0
2966 -1887 0
2966 -2962 0
2966 -1197 0
2966 -2965 0
2966 -1206 0
2967 -1209 -2966 0
-2967 1209 0
-2967 2966 0
-2968 54 2952 51 0
2968 -54 0
2968 -2952 0
2968 -51 0
2969 -59 -2968 0
-2969 59 0
-2969 2968 0
-2970 8 61 0
2970 -8 0
2970 -61 0
2971 -10 -2970 0
-2971 10 0
-2971 2970 0
-2972 12 2971 0
2972 -12 0
2972 -2971 0
2973 -14 -2972 0
-2973 14 0
-2973 2972 0
-2974 16 2969 1 2973 0
2974 -16 0
2974 -2969 0
2974 -1 0
2974 -2973 0
2975 -781 -2974 0
-2975 781 0
-2975 2974 0
2976 -883 -2974 0
-2976 883 0
-2976 2974 0
-2977 1011 2976 0
2977 -1011 0
2977 -2976 0
2978 -1013 -2977 0
-2978 1013 0
-2978 2977 0
-2979 1191 2975 1197 2978 1206 0
2979 -1191 0
2979 -2975 0
2979 -1197 0
2979 -2978 0
2979 -1206 0
2980 -1216 -2979 0
-2980 1216 0
-2980 2979 0
-2981 42 2980 296 0
2981 -42 0
2981 -2980 0
2981 -296 0
2982 -282 -2981 0
-2982 282 0
-2982 2981 0
-2983 284 2982 0
2983 -284 0
2983 -2982 0
2984 -352 -2983 0
-2984 352 0
-2984 2983 0
-2985 54 1241 2952 51 0
2985 -54 0
2985 -1241 0
2985 -2952 0
2985 -51 0
2986 -59 -2985 0
-2986 59 0
-2986 2985 0
-2987 8 1243 0
2987 -8 0
2987 -1243 0
2988 -10 -2987 0
-2988 10 0
-2988 2987 0
-2989 12 2988 0
2989 -12 0
2989 -2988 0
2990 -14 -2989 0
-2990 14 0
-2990 2989 0
-2991 16 2986 1240 1 2990 0
2991 -16 0
2991 -2986 0
2991 -1240 0
2991 -1 0
2991 -2990 0
2992 -18 -2991 0
-2992 18 0
-2992 2991 0
2993 -414 -2983 0
-2993 414 0
-2993 2983 0
-2994 21 2993 0
2994 -21 0
2994 -2993 0
2995 -20 -2994 0
-2995 20 0
-2995 2994 0
-2996 23 2967 2984 2992 2995 0
2996 -23 0
2996 -2967 0
2996 -2984 0
2996 -2992 0
2996 -2995 0
2997 -25 -2996 0
-2997 25 0
-2997 2996 0
-2998 54 419 2952 51 0
2998 -54 0
2998 -419 0
2998 -2952 0
2998 -51 0
2999 -59 -2998 0
-2999 59 0
-2999 2998 0
-3000 8 426 0
3000 -8 0
3000 -426 0
3001 -10 -3000 0
-3001 10 0
-3001 3000 0
-3002 12 3001 0
3002 -12 0
3002 -3001 0
3003 -14 -3002 0
-3003 14 0
-3003 3002 0
-3004 16 2999 424 1 3003 0
3004 -16 0
3004 -2999 0
3004 -424 0
3004 -1 0
3004 -3003 0
3005 -781 -3004 0
-3005 781 0
-3005 3004 0
3006 -883 -3004 0
-3006 883 0
-3006 3004 0
-3007 1011 3006 0
3007 -1011 0
3007 -3006 0
3008 -1013 -3007 0
-3008 1013 0
-3008 3007 0
3009 -18 -3004 0
-3009 18 0
-3009 3004 0
-3010 23 582 3009 585 0
3010 -23 0
3010 -582 0
3010 -3009 0
3010 -585 0
3011 -29 -3010 0
-3011 29 0
-3011 3010 0
-3012 34 3011 30 0
3012 -34 0
3012 -3011 0
3012 -30 0
3013 -1189 -3012 0
-3013 1189 0
-3013 3012 0
-3014 1191 1906 3005 1197 3008 3013 0
3014 -1191 0
3014 -1906 0
3014 -3005 0
3014 -1197 0
3014 -3008 0
3014 -3013 0
3015 -1216 -3014 0
-3015 1216 0
-3015 3014 0
-3016 1191 1906 3005 1197 3008 1206 0
3016 -1191 0
3016 -1906 0
3016 -3005 0
3016 -1197 0
3016 -3008 0
3016 -1206 0
3017 -1209 -3016 0
-3017 1209 0
-3017 3016 0
-3018 23 3017 582 3009 585 0
3018 -23 0
3018 -3017 0
3018 -582 0
3018 -3009 0
3018 -585 0
3019 -27 -3018 0
-3019 27 0
-3019 3018 0
3020 -29 -3018 0
-3020 29 0
-3020 3018 0
-3021 34 3020 30 0
3021 -34 0
3021 -3020 0
3021 -30 0
3022 -36 -3021 0
-3022 36 0
-3022 3021 0
-3023 38 588 3022 0
3023 -38 0
3023 -588 0
3023 -3022 0
3024 -40 -3023 0
-3024 40 0
-3024 3023 0
-3025 42 3015 3019 3024 0
3025 -42 0
3025 -3015 0
3025 -3019 0
3025 -3024 0
3026 -44 -3025 0
-3026 44 0
-3026 3025 0
-3027 46 2997 3026 0
3027 -46 0
3027 -2997 0
3027 -3026 0
3028 -81 -3027 0
-3028 81 0
-3028 3027 0
3029 -18 -2974 0
-3029 18 0
-3029 2974 0
-3030 23 3029 19 0
3030 -23 0
3030 -3029 0
3030 -19 0
3031 -25 -3030 0
-3031 25 0
-3031 3030 0
-3032 46 3031 0
3032 -46 0
3032 -3031 0
3033 -518 -3032 0
-3033 518 0
-3033 3032 0
-3034 54 953 2952 51 0
3034 -54 0
3034 -953 0
3034 -2952 0
3034 -51 0
3035 -59 -3034 0
-3035 59 0
-3035 3034 0
-3036 8 961 0
3036 -8 0
3036 -961 0
3037 -10 -3036 0
-3037 10 0
-3037 3036 0
-3038 12 3037 0
3038 -12 0
3038 -3037 0
3039 -14 -3038 0
-3039 14 0
-3039 3038 0
-3040 16 3035 956 959 3039 0
3040 -16 0
3040 -3035 0
3040 -956 0
3040 -959 0
3040 -3039 0
3041 -781 -3040 0
-3041 781 0
-3041 3040 0
-3042 16 2969 2973 0
3042 -16 0
3042 -2969 0
3042 -2973 0
3043 -18 -3042 0
-3043 18 0
-3043 3042 0
-3044 23 3043 19 0
3044 -23 0
3044 -3043 0
3044 -19 0
3045 -25 -3044 0
-3045 25 0
-3045 3044 0
-3046 46 3045 0
3046 -46 0
3046 -3045 0
3047 -99 -3046 0
-3047 99 0
-3047 3046 0
-3048 3 3047 0
3048 -3 0
3048 -3047 0
3049 -866 -3048 0
-3049 866 0
-3049 3048 0
3050 -883 -3040 0
-3050 883 0
-3050 3040 0
-3051 1011 3050 0
3051 -1011 0
3051 -3050 0
3052 -1013 -3051 0
-3052 1013 0
-3052 3051 0
-3053 54 198 2952 51 0
3053 -54 0
3053 -198 0
3053 -2952 0
3053 -51 0
3054 -59 -3053 0
-3054 59 0
-3054 3053 0
-3055 8 208 0
3055 -8 0
3055 -208 0
3056 -10 -3055 0
-3056 10 0
-3056 3055 0
-3057 12 3056 0
3057 -12 0
3057 -3056 0
3058 -14 -3057 0
-3058 14 0
-3058 3057 0
-3059 16 3054 203 206 3058 0
3059 -16 0
3059 -3054 0
3059 -203 0
3059 -206 0
3059 -3058 0
3060 -18 -3059 0
-3060 18 0
-3060 3059 0
-3061 23 3060 19 0
3061 -23 0
3061 -3060 0
3061 -19 0
3062 -29 -3061 0
-3062 29 0
-3062 3061 0
-3063 34 3062 30 0
3063 -34 0
3063 -3062 0
3063 -30 0
3064 -1189 -3063 0
-3064 1189 0
-3064 3063 0
-3065 1191 3033 3041 3049 3052 3064 0
3065 -1191 0
3065 -3033 0
3065 -3041 0
3065 -3049 0
3065 -3052 0
3065 -3064 0
3066 -1216 -3065 0
-3066 1216 0
-3066 3065 0
3067 -781 -3059 0
-3067 781 0
-3067 3059 0
3068 -883 -3059 0
-3068 883 0
-3068 3059 0
-3069 1011 3068 0
3069 -1011 0
3069 -3068 0
3070 -1013 -3069 0
-3070 1013 0
-3070 3069 0
-3071 1191 1764 3067 1766 3070 1206 0
3071 -1191 0
3071 -1764 0
3071 -3067 0
3071 -1766 0
3071 -3070 0
3071 -1206 0
3072 -1209 -3071 0
-3072 1209 0
-3072 3071 0
-3073 23 3072 3060 19 0
3073 -23 0
3073 -3072 0
3073 -3060 0
3073 -19 0
3074 -27 -3073 0
-3074 27 0
-3074 3073 0
3075 -29 -3073 0
-3075 29 0
-3075 3073 0
-3076 34 3075 30 0
3076 -34 0
3076 -3075 0
3076 -30 0
3077 -36 -3076 0
-3077 36 0
-3077 3076 0
-3078 38 3077 0
3078 -38 0
3078 -3077 0
3079 -40 -3078 0
-3079 40 0
-3079 3078 0
-3080 42 3066 3074 3079 0
3080 -42 0
3080 -3066 0
3080 -3074 0
3080 -3079 0
3081 -282 -3080 0
-3081 282 0
-3081 3080 0
-3082 284 3081 0
3082 -284 0
3082 -3081 0
3083 -301 -3082 0
-3083 301 0
-3083 3082 0
-3084 23 2896 19 0
3084 -23 0
3084 -2896 0
3084 -19 0
3085 -27 -3084 0
-3085 27 0
-3085 3084 0
3086 -29 -3084 0
-3086 29 0
-3086 3084 0
-3087 34 3086 30 0
3087 -34 0
3087 -3086 0
3087 -30 0
3088 -36 -3087 0
-3088 36 0
-3088 3087 0
-3089 38 3088 0
3089 -38 0
3089 -3088 0
3090 -40 -3089 0
-3090 40 0
-3090 3089 0
-3091 42 2035 3085 3090 0
3091 -42 0
3091 -2035 0
3091 -3085 0
3091 -3090 0
3092 -282 -3091 0
-3092 282 0
-3092 3091 0
-3093 284 3092 0
3093 -284 0
3093 -3092 0
3094 -290 -3093 0
-3094 290 0
-3094 3093 0
3095 -48 -2085 0
-3095 48 0
-3095 2085 0
-3096 54 3094 3095 2952 51 0
3096 -54 0
3096 -3094 0
3096 -3095 0
3096 -2952 0
3096 -51 0
3097 -59 -3096 0
-3097 59 0
-3097 3096 0
-3098 1191 1764 1766 1234 1206 0
3098 -1191 0
3098 -1764 0
3098 -1766 0
3098 -1234 0
3098 -1206 0
3099 -1209 -3098 0
-3099 1209 0
-3099 3098 0
-3100 23 3099 19 0
3100 -23 0
3100 -3099 0
3100 -19 0
3101 -27 -3100 0
-3101 27 0
-3101 3100 0
3102 -29 -3100 0
-3102 29 0
-3102 3100 0
-3103 34 3102 30 0
3103 -34 0
3103 -3102 0
3103 -30 0
3104 -36 -3103 0
-3104 36 0
-3104 3103 0
-3105 38 3104 0
3105 -38 0
3105 -3104 0
3106 -40 -3105 0
-3106 40 0
-3106 3105 0
-3107 42 2035 3101 3106 0
3107 -42 0
3107 -2035 0
3107 -3101 0
3107 -3106 0
3108 -282 -3107 0
-3108 282 0
-3108 3107 0
-3109 284 3108 0
3109 -284 0
3109 -3108 0
3110 -306 -3109 0
-3110 306 0
-3110 3109 0
3111 -97 -2085 0
-3111 97 0
-3111 2085 0
3112 -62 -2052 0
-3112 62 0
-3112 2052 0
-3113 8 3112 0
3113 -8 0
3113 -3112 0
3114 -10 -3113 0
-3114 10 0
-3114 3113 0
-3115 12 3114 0
3115 -12 0
3115 -3114 0
3116 -14 -3115 0
-3116 14 0
-3116 3115 0
-3117 16 3097 3110 3111 2088 3116 0
3117 -16 0
3117 -3097 0
3117 -3110 0
3117 -3111 0
3117 -2088 0
3117 -3116 0
3118 -110 -3117 0
-3118 110 0
-3118 3117 0
3119 -62 -2150 0
-3119 62 0
-3119 2150 0
-3120 8 3119 0
3120 -8 0
3120 -3119 0
3121 -10 -3120 0
-3121 10 0
-3121 3120 0
-3122 12 3121 0
3122 -12 0
3122 -3121 0
3123 -131 -3122 0
-3123 131 0
-3123 3122 0
-3124 133 3123 0
3124 -133 0
3124 -3123 0
3125 -135 -3124 0
-3125 135 0
-3125 3124 0
-3126 137 3083 3118 3125 0
3126 -137 0
3126 -3083 0
3126 -3118 0
3126 -3125 0
3127 -139 -3126 0
-3127 139 0
-3127 3126 0
-3128 16 2956 305 2960 0
3128 -16 0
3128 -2956 0
3128 -305 0
3128 -2960 0
3129 -781 -3128 0
-3129 781 0
-3129 3128 0
3130 -883 -3128 0
-3130 883 0
-3130 3128 0
-3131 1011 3130 1894 0
3131 -1011 0
3131 -3130 0
3131 -1894 0
3132 -1013 -3131 0
-3132 1013 0
-3132 3131 0
-3133 1191 1887 3129 1197 3132 1206 0
3133 -1191 0
3133 -1887 0
3133 -3129 0
3133 -1197 0
3133 -3132 0
3133 -1206 0
3134 -1209 -3133 0
-3134 1209 0
-3134 3133 0
3135 -781 -3042 0
-3135 781 0
-3135 3042 0
3136 -883 -3042 0
-3136 883 0
-3136 3042 0
-3137 1011 3136 0
3137 -1011 0
3137 -3136 0
3138 -1013 -3137 0
-3138 1013 0
-3138 3137 0
-3139 1191 3135 1197 3138 1206 0
3139 -1191 0
3139 -3135 0
3139 -1197 0
3139 -3138 0
3139 -1206 0
3140 -1216 -3139 0
-3140 1216 0
-3140 3139 0
-3141 42 3140 296 0
3141 -42 0
3141 -3140 0
3141 -296 0
3142 -282 -3141 0
-3142 282 0
-3142 3141 0
-3143 284 3142 0
3143 -284 0
3143 -3142 0
3144 -352 -3143 0
-3144 352 0
-3144 3143 0
-3145 16 2986 1240 2990 0
3145 -16 0
3145 -2986 0
3145 -1240 0
3145 -2990 0
3146 -18 -3145 0
-3146 18 0
-3146 3145 0
3147 -414 -3143 0
-3147 414 0
-3147 3143 0
-3148 21 3147 0
3148 -21 0
3148 -3147 0
3149 -20 -3148 0
-3149 20 0
-3149 3148 0
-3150 23 3134 3144 3146 3149 0
3150 -23 0
3150 -3134 0
3150 -3144 0
3150 -3146 0
3150 -3149 0
3151 -25 -3150 0
-3151 25 0
-3151 3150 0
-3152 16 2999 424 3003 0
3152 -16 0
3152 -2999 0
3152 -424 0
3152 -3003 0
3153 -781 -3152 0
-3153 781 0
-3153 3152 0
3154 -883 -3152 0
-3154 883 0
-3154 3152 0
-3155 1011 3154 0
3155 -1011 0
3155 -3154 0
3156 -1013 -3155 0
-3156 1013 0
-3156 3155 0
3157 -18 -3152 0
-3157 18 0
-3157 3152 0
-3158 23 582 3157 585 0
3158 -23 0
3158 -582 0
3158 -3157 0
3158 -585 0
3159 -29 -3158 0
-3159 29 0
-3159 3158 0
-3160 34 3159 30 0
3160 -34 0
3160 -3159 0
3160 -30 0
3161 -1189 -3160 0
-3161 1189 0
-3161 3160 0
-3162 1191 1906 3153 1197 3156 3161 0
3162 -1191 0
3162 -1906 0
3162 -3153 0
3162 -1197 0
3162 -3156 0
3162 -3161 0
3163 -1216 -3162 0
-3163 1216 0
-3163 3162 0
-3164 1191 1906 3153 1197 3156 1206 0
3164 -1191 0
3164 -1906 0
3164 -3153 0
3164 -1197 0
3164 -3156 0
3164 -1206 0
3165 -1209 -3164 0
-3165 1209 0
-3165 3164 0
-3166 23 3165 582 3157 585 0
3166 -23 0
3166 -3165 0
3166 -582 0
3166 -3157 0
3166 -585 0
3167 -27 -3166 0
-3167 27 0
-3167 3166 0
3168 -29 -3166 0
-3168 29 0
-3168 3166 0
-3169 34 3168 30 0
3169 -34 0
3169 -3168 0
3169 -30 0
3170 -36 -3169 0
-3170 36 0
-3170 3169 0
-3171 38 588 3170 0
3171 -38 0
3171 -588 0
3171 -3170 0
3172 -40 -3171 0
-3172 40 0
-3172 3171 0
-3173 42 3163 3167 3172 0
3173 -42 0
3173 -3163 0
3173 -3167 0
3173 -3172 0
3174 -44 -3173 0
-3174 44 0
-3174 3173 0
-3175 46 3151 3174 0
3175 -46 0
3175 -3151 0
3175 -3174 0
3176 -99 -3175 0
-3176 99 0
-3176 3175 0
-3177 3 3176 0
3177 -3 0
3177 -3176 0
3178 -156 -3177 0
-3178 156 0
-3178 3177 0
3179 -158 -3027 0
-3179 158 0
-3179 3027 0
3180 -160 -3122 0
-3180 160 0
-3180 3122 0
-3181 162 3179 3180 0
3181 -162 0
3181 -3179 0
3181 -3180 0
3182 -164 -3181 0
-3182 164 0
-3182 3181 0
3183 -518 -988 0
-3183 518 0
-3183 988 0
-3184 16 956 959 165 0
3184 -16 0
3184 -956 0
3184 -959 0
3184 -165 0
3185 -781 -3184 0
-3185 781 0
-3185 3184 0
-3186 16 165 0
3186 -16 0
3186 -165 0
3187 -18 -3186 0
-3187 18 0
-3187 3186 0
-3188 23 3187 19 0
3188 -23 0
3188 -3187 0
3188 -19 0
3189 -25 -3188 0
-3189 25 0
-3189 3188 0
-3190 46 3189 0
3190 -46 0
3190 -3189 0
3191 -99 -3190 0
-3191 99 0
-3191 3190 0
-3192 3 3191 0
3192 -3 0
3192 -3191 0
3193 -866 -3192 0
-3193 866 0
-3193 3192 0
3194 -883 -3184 0
-3194 883 0
-3194 3184 0
-3195 1011 3194 0
3195 -1011 0
3195 -3194 0
3196 -1013 -3195 0
-3196 1013 0
-3196 3195 0
-3197 16 203 206 165 0
3197 -16 0
3197 -203 0
3197 -206 0
3197 -165 0
3198 -18 -3197 0
-3198 18 0
-3198 3197 0
-3199 23 3198 19 0
3199 -23 0
3199 -3198 0
3199 -19 0
3200 -29 -3199 0
-3200 29 0
-3200 3199 0
-3201 34 3200 30 0
3201 -34 0
3201 -3200 0
3201 -30 0
3202 -1189 -3201 0
-3202 1189 0
-3202 3201 0
-3203 1191 3183 3185 3193 3196 3202 0
3203 -1191 0
3203 -3183 0
3203 -3185 0
3203 -3193 0
3203 -3196 0
3203 -3202 0
3204 -1216 -3203 0
-3204 1216 0
-3204 3203 0
3205 -781 -3197 0
-3205 781 0
-3205 3197 0
3206 -883 -3197 0
-3206 883 0
-3206 3197 0
-3207 1011 3206 0
3207 -1011 0
3207 -3206 0
3208 -1013 -3207 0
-3208 1013 0
-3208 3207 0
-3209 1191 1764 3205 1766 3208 1206 0
3209 -1191 0
3209 -1764 0
3209 -3205 0
3209 -1766 0
3209 -3208 0
3209 -1206 0
3210 -1209 -3209 0
-3210 1209 0
-3210 3209 0
-3211 23 3210 3198 19 0
3211 -23 0
3211 -3210 0
3211 -3198 0
3211 -19 0
3212 -27 -3211 0
-3212 27 0
-3212 3211 0
3213 -29 -3211 0
-3213 29 0
-3213 3211 0
-3214 34 3213 30 0
3214 -34 0
3214 -3213 0
3214 -30 0
3215 -36 -3214 0
-3215 36 0
-3215 3214 0
-3216 38 3215 0
3216 -38 0
3216 -3215 0
3217 -40 -3216 0
-3217 40 0
-3217 3216 0
-3218 42 3204 3212 3217 0
3218 -42 0
3218 -3204 0
3218 -3212 0
3218 -3217 0
3219 -282 -3218 0
-3219 282 0
-3219 3218 0
-3220 284 3219 0
3220 -284 0
3220 -3219 0
3221 -290 -3220 0
-3221 290 0
-3221 3220 0
-3222 16 305 1 165 0
3222 -16 0
3222 -305 0
3222 -1 0
3222 -165 0
3223 -781 -3222 0
-3223 781 0
-3223 3222 0
3224 -883 -3222 0
-3224 883 0
-3224 3222 0
-3225 1011 3224 1894 0
3225 -1011 0
3225 -3224 0
3225 -1894 0
3226 -1013 -3225 0
-3226 1013 0
-3226 3225 0
-3227 1191 1887 3223 1197 3226 1206 0
3227 -1191 0
3227 -1887 0
3227 -3223 0
3227 -1197 0
3227 -3226 0
3227 -1206 0
3228 -1209 -3227 0
-3228 1209 0
-3228 3227 0
3229 -352 -1281 0
-3229 352 0
-3229 1281 0
-3230 16 1240 1 165 0
3230 -16 0
3230 -1240 0
3230 -1 0
3230 -165 0
3231 -18 -3230 0
-3231 18 0
-3231 3230 0
3232 -414 -1281 0
-3232 414 0
-3232 1281 0
-3233 21 3232 0
3233 -21 0
3233 -3232 0
3234 -20 -3233 0
-3234 20 0
-3234 3233 0
-3235 23 3228 3229 3231 3234 0
3235 -23 0
3235 -3228 0
3235 -3229 0
3235 -3231 0
3235 -3234 0
3236 -25 -3235 0
-3236 25 0
-3236 3235 0
-3237 16 424 1 165 0
3237 -16 0
3237 -424 0
3237 -1 0
3237 -165 0
3238 -781 -3237 0
-3238 781 0
-3238 3237 0
3239 -883 -3237 0
-3239 883 0
-3239 3237 0
-3240 1011 3239 0
3240 -1011 0
3240 -3239 0
3241 -1013 -3240 0
-3241 1013 0
-3241 3240 0
3242 -18 -3237 0
-3242 18 0
-3242 3237 0
-3243 23 582 3242 585 0
3243 -23 0
3243 -582 0
3243 -3242 0
3243 -585 0
3244 -29 -3243 0
-3244 29 0
-3244 3243 0
-3245 34 3244 30 0
3245 -34 0
3245 -3244 0
3245 -30 0
3246 -1189 -3245 0
-3246 1189 0
-3246 3245 0
-3247 1191 1906 3238 1197 3241 3246 0
3247 -1191 0
3247 -1906 0
3247 -3238 0
3247 -1197 0
3247 -3241 0
3247 -3246 0
3248 -1216 -3247 0
-3248 1216 0
-3248 3247 0
-3249 1191 1906 3238 1197 3241 1206 0
3249 -1191 0
3249 -1906 0
3249 -3238 0
3249 -1197 0
3249 -3241 0
3249 -1206 0
3250 -1209 -3249 0
-3250 1209 0
-3250 3249 0
-3251 23 3250 582 3242 585 0
3251 -23 0
3251 -3250 0
3251 -582 0
3251 -3242 0
3251 -585 0
3252 -27 -3251 0
-3252 27 0
-3252 3251 0
3253 -29 -3251 0
-3253 29 0
-3253 3251 0
-3254 34 3253 30 0
3254 -34 0
3254 -3253 0
3254 -30 0
3255 -36 -3254 0
-3255 36 0
-3255 3254 0
-3256 38 588 3255 0
3256 -38 0
3256 -588 0
3256 -3255 0
3257 -40 -3256 0
-3257 40 0
-3257 3256 0
-3258 42 3248 3252 3257 0
3258 -42 0
3258 -3248 0
3258 -3252 0
3258 -3257 0
3259 -44 -3258 0
-3259 44 0
-3259 3258 0
-3260 46 3236 3259 0
3260 -46 0
3260 -3236 0
3260 -3259 0
3261 -48 -3260 0
-3261 48 0
-3261 3260 0
-3262 54 3221 3261 180 51 0
3262 -54 0
3262 -3221 0
3262 -3261 0
3262 -180 0
3262 -51 0
3263 -62 -3262 0
-3263 62 0
-3263 3262 0
-3264 8 3263 0
3264 -8 0
3264 -3263 0
3265 -185 -3264 0
-3265 185 0
-3265 3264 0
3266 -187 -2953 0
-3266 187 0
-3266 2953 0
3267 -189 -3124 0
-3267 189 0
-3267 3124 0
-3268 191 3266 3267 0
3268 -191 0
3268 -3266 0
3268 -3267 0
3269 -193 -3268 0
-3269 193 0
-3269 3268 0
-3270 195 2954 3028 3127 3178 3182 3265 3269 0
3270 -195 0
3270 -2954 0
3270 -3028 0
3270 -3127 0
3270 -3178 0
3270 -3182 0
3270 -3265 0
3270 -3269 0
3271 -246 -3270 0
-3271 246 0
-3271 3270 0
-3272 6 3271 0
3272 -6 0
3272 -3271 0
3273 -3274 -3272 0
-3273 3274 0
-3273 3272 0
3275 -3276 -32 0
-3275 3276 0
-3275 32 0
-3277 3278 1192 1404 2859 3273 3275 0
3277 -3278 0
3277 -1192 0
3277 -1404 0
3277 -2859 0
3277 -3273 0
3277 -3275 0
3279 -3277 -3280 0
-3279 3277 0
-3279 3280 0
3279 0
