c BC-S1.2
p cnf 1089 3476
1 -2 -3 0
-1 2 0
-1 3 0
4 -5 -6 0
-4 5 0
-4 6 0
-7 8 1 4 0
7 -8 0
7 -1 0
7 -4 0
9 -10 -7 0
-9 10 0
-9 7 0
11 -12 -7 0
-11 12 0
-11 7 0
-13 14 11 0
13 -14 0
13 -11 0
15 -16 -13 0
-15 16 0
-15 13 0
-17 18 9 15 0
17 -18 0
17 -9 0
17 -15 0
19 -20 -17 0
-19 20 0
-19 17 0
-21 22 19 0
21 -22 0
21 -19 0
23 -24 -21 0
-23 24 0
-23 21 0
-25 26 23 0
25 -26 0
25 -23 0
27 -28 -25 0
-27 28 0
-27 25 0
29 -30 -21 0
-29 30 0
-29 21 0
-31 32 29 0
31 -32 0
31 -29 0
33 -34 -31 0
-33 34 0
-33 31 0
-35 36 27 33 0
35 -36 0
35 -27 0
35 -33 0
37 -38 -35 0
-37 38 0
-37 35 0
-39 18 15 0
39 -18 0
39 -15 0
40 -20 -39 0
-40 20 0
-40 39 0
-41 22 40 0
41 -22 0
41 -40 0
42 -24 -41 0
-42 24 0
-42 41 0
-43 26 42 0
43 -26 0
43 -42 0
44 -28 -43 0
-44 28 0
-44 43 0
45 -30 -41 0
-45 30 0
-45 41 0
-46 32 45 0
46 -32 0
46 -45 0
47 -34 -46 0
-47 34 0
-47 46 0
-48 36 44 47 0
48 -36 0
48 -44 0
48 -47 0
49 -50 -48 0
-49 50 0
-49 48 0
-51 8 49 1 4 0
51 -8 0
51 -49 0
51 -1 0
51 -4 0
52 -53 -51 0
-52 53 0
-52 51 0
54 -55 -3 0
-54 55 0
-54 3 0
56 -24 -22 0
-56 24 0
-56 22 0
-57 26 56 0
57 -26 0
57 -56 0
58 -28 -57 0
-58 28 0
-58 57 0
59 -30 -22 0
-59 30 0
-59 22 0
-60 32 59 0
60 -32 0
60 -59 0
61 -34 -60 0
-61 34 0
-61 60 0
-62 36 58 61 0
62 -36 0
62 -58 0
62 -61 0
63 -64 -62 0
-63 64 0
-63 62 0
65 -50 -62 0
-65 50 0
-65 62 0
-66 8 65 1 4 0
66 -8 0
66 -65 0
66 -1 0
66 -4 0
67 -10 -66 0
-67 10 0
-67 66 0
68 -12 -66 0
-68 12 0
-68 66 0
-69 14 68 0
69 -14 0
69 -68 0
70 -16 -69 0
-70 16 0
-70 69 0
-71 18 63 67 70 0
71 -18 0
71 -63 0
71 -67 0
71 -70 0
72 -73 -71 0
-72 73 0
-72 71 0
74 -28 -26 0
-74 28 0
-74 26 0
-75 36 74 0
75 -36 0
75 -74 0
76 -64 -75 0
-76 64 0
-76 75 0
77 -50 -75 0
-77 50 0
-77 75 0
-78 8 77 1 4 0
78 -8 0
78 -77 0
78 -1 0
78 -4 0
79 -10 -78 0
-79 10 0
-79 78 0
80 -12 -78 0
-80 12 0
-80 78 0
-81 14 80 0
81 -14 0
81 -80 0
82 -16 -81 0
-82 16 0
-82 81 0
-83 18 76 79 82 0
83 -18 0
83 -76 0
83 -79 0
83 -82 0
84 -20 -83 0
-84 20 0
-84 83 0
-85 22 84 0
85 -22 0
85 -84 0
86 -30 -85 0
-86 30 0
-86 85 0
-87 32 86 0
87 -32 0
87 -86 0
88 -89 -87 0
-88 89 0
-88 87 0
90 -91 -92 0
-90 91 0
-90 92 0
-93 94 37 52 54 72 88 90 0
93 -94 0
93 -37 0
93 -52 0
93 -54 0
93 -72 0
93 -88 0
93 -90 0
95 -96 -93 0
-95 96 0
-95 93 0
97 -98 -71 0
-97 98 0
-97 71 0
-99 100 95 97 0
99 -100 0
99 -95 0
99 -97 0
101 -102 -99 0
-101 102 0
-101 99 0
-103 104 101 0
103 -104 0
103 -101 0
105 -106 -103 0
-105 106 0
-105 103 0
-107 108 105 0
107 -108 0
107 -105 0
109 -110 -107 0
-109 110 0
-109 107 0
-111 36 74 61 0
111 -36 0
111 -74 0
111 -61 0
112 -64 -111 0
-112 64 0
-112 111 0
113 -38 -111 0
-113 38 0
-113 111 0
114 -89 -60 0
-114 89 0
-114 60 0
-115 94 113 54 114 90 0
115 -94 0
115 -113 0
115 -54 0
115 -114 0
115 -90 0
116 -96 -115 0
-116 96 0
-116 115 0
-117 100 116 0
117 -100 0
117 -116 0
118 -102 -117 0
-118 102 0
-118 117 0
-119 104 118 0
119 -104 0
119 -118 0
120 -106 -119 0
-120 106 0
-120 119 0
-121 108 120 0
121 -108 0
121 -120 0
122 -123 -121 0
-122 123 0
-122 121 0
124 -50 -111 0
-124 50 0
-124 111 0
125 -126 -119 0
-125 126 0
-125 119 0
-127 6 125 0
127 -6 0
127 -125 0
128 -5 -127 0
-128 5 0
-128 127 0
-129 8 122 124 1 128 0
129 -8 0
129 -122 0
129 -124 0
129 -1 0
129 -128 0
130 -10 -129 0
-130 10 0
-130 129 0
131 -12 -129 0
-131 12 0
-131 129 0
-132 14 131 0
132 -14 0
132 -131 0
133 -16 -132 0
-133 16 0
-133 132 0
-134 18 112 130 133 0
134 -18 0
134 -112 0
134 -130 0
134 -133 0
135 -20 -134 0
-135 20 0
-135 134 0
-136 22 135 0
136 -22 0
136 -135 0
137 -138 -136 0
-137 138 0
-137 136 0
-139 36 61 0
139 -36 0
139 -61 0
140 -64 -139 0
-140 64 0
-140 139 0
141 -38 -139 0
-141 38 0
-141 139 0
-142 94 141 54 114 90 0
142 -94 0
142 -141 0
142 -54 0
142 -114 0
142 -90 0
143 -96 -142 0
-143 96 0
-143 142 0
-144 100 143 0
144 -100 0
144 -143 0
145 -102 -144 0
-145 102 0
-145 144 0
-146 104 145 0
146 -104 0
146 -145 0
147 -106 -146 0
-147 106 0
-147 146 0
-148 108 147 0
148 -108 0
148 -147 0
149 -123 -148 0
-149 123 0
-149 148 0
150 -50 -139 0
-150 50 0
-150 139 0
151 -126 -146 0
-151 126 0
-151 146 0
-152 6 151 0
152 -6 0
152 -151 0
153 -5 -152 0
-153 5 0
-153 152 0
-154 8 149 150 1 153 0
154 -8 0
154 -149 0
154 -150 0
154 -1 0
154 -153 0
155 -10 -154 0
-155 10 0
-155 154 0
156 -12 -154 0
-156 12 0
-156 154 0
-157 14 156 0
157 -14 0
157 -156 0
158 -16 -157 0
-158 16 0
-158 157 0
-159 18 140 155 158 0
159 -18 0
159 -140 0
159 -155 0
159 -158 0
160 -20 -159 0
-160 20 0
-160 159 0
-161 22 160 0
161 -22 0
161 -160 0
162 -24 -161 0
-162 24 0
-162 161 0
-163 26 162 0
163 -26 0
163 -162 0
164 -165 -163 0
-164 165 0
-164 163 0
166 -123 -108 0
-166 123 0
-166 108 0
-167 8 166 1 0
167 -8 0
167 -166 0
167 -1 0
168 -10 -167 0
-168 10 0
-168 167 0
169 -12 -167 0
-169 12 0
-169 167 0
-170 14 169 0
170 -14 0
170 -169 0
171 -16 -170 0
-171 16 0
-171 170 0
-172 18 168 171 0
172 -18 0
172 -168 0
172 -171 0
173 -20 -172 0
-173 20 0
-173 172 0
-174 22 173 0
174 -22 0
174 -173 0
175 -24 -174 0
-175 24 0
-175 174 0
-176 26 175 0
176 -26 0
176 -175 0
177 -28 -176 0
-177 28 0
-177 176 0
178 -30 -174 0
-178 30 0
-178 174 0
-179 32 178 0
179 -32 0
179 -178 0
180 -34 -179 0
-180 34 0
-180 179 0
-181 36 177 180 0
181 -36 0
181 -177 0
181 -180 0
182 -38 -181 0
-182 38 0
-182 181 0
-183 18 171 0
183 -18 0
183 -171 0
184 -20 -183 0
-184 20 0
-184 183 0
-185 22 184 0
185 -22 0
185 -184 0
186 -24 -185 0
-186 24 0
-186 185 0
-187 26 186 0
187 -26 0
187 -186 0
188 -28 -187 0
-188 28 0
-188 187 0
189 -30 -185 0
-189 30 0
-189 185 0
-190 32 189 0
190 -32 0
190 -189 0
191 -34 -190 0
-191 34 0
-191 190 0
-192 36 188 191 0
192 -36 0
192 -188 0
192 -191 0
193 -50 -192 0
-193 50 0
-193 192 0
-194 8 166 193 1 0
194 -8 0
194 -166 0
194 -193 0
194 -1 0
195 -53 -194 0
-195 53 0
-195 194 0
-196 8 166 65 1 0
196 -8 0
196 -166 0
196 -65 0
196 -1 0
197 -10 -196 0
-197 10 0
-197 196 0
198 -12 -196 0
-198 12 0
-198 196 0
-199 14 198 0
199 -14 0
199 -198 0
200 -16 -199 0
-200 16 0
-200 199 0
-201 18 63 197 200 0
201 -18 0
201 -63 0
201 -197 0
201 -200 0
202 -73 -201 0
-202 73 0
-202 201 0
-203 8 166 77 1 0
203 -8 0
203 -166 0
203 -77 0
203 -1 0
204 -10 -203 0
-204 10 0
-204 203 0
205 -12 -203 0
-205 12 0
-205 203 0
-206 14 205 0
206 -14 0
206 -205 0
207 -16 -206 0
-207 16 0
-207 206 0
-208 18 76 204 207 0
208 -18 0
208 -76 0
208 -204 0
208 -207 0
209 -20 -208 0
-209 20 0
-209 208 0
-210 22 209 0
210 -22 0
210 -209 0
211 -30 -210 0
-211 30 0
-211 210 0
-212 32 211 0
212 -32 0
212 -211 0
213 -89 -212 0
-213 89 0
-213 212 0
-214 94 182 195 54 202 213 90 0
214 -94 0
214 -182 0
214 -195 0
214 -54 0
214 -202 0
214 -213 0
214 -90 0
215 -96 -214 0
-215 96 0
-215 214 0
216 -98 -201 0
-216 98 0
-216 201 0
-217 100 215 216 0
217 -100 0
217 -215 0
217 -216 0
218 -102 -217 0
-218 102 0
-218 217 0
-219 104 218 0
219 -104 0
219 -218 0
220 -126 -219 0
-220 126 0
-220 219 0
-221 6 220 0
221 -6 0
221 -220 0
222 -223 -221 0
-222 223 0
-222 221 0
-224 225 109 137 164 222 0
224 -225 0
224 -109 0
224 -137 0
224 -164 0
224 -222 0
226 -227 -224 0
-226 227 0
-226 224 0
-228 229 226 0
228 -229 0
228 -226 0
230 -231 -228 0
-230 231 0
-230 228 0
232 -233 -229 0
-232 233 0
-232 229 0
-234 6 232 0
234 -6 0
234 -232 0
235 -5 -234 0
-235 5 0
-235 234 0
-236 8 1 235 0
236 -8 0
236 -1 0
236 -235 0
237 -10 -236 0
-237 10 0
-237 236 0
238 -12 -236 0
-238 12 0
-238 236 0
-239 14 238 0
239 -14 0
239 -238 0
240 -16 -239 0
-240 16 0
-240 239 0
-241 18 237 240 0
241 -18 0
241 -237 0
241 -240 0
242 -20 -241 0
-242 20 0
-242 241 0
-243 22 242 0
243 -22 0
243 -242 0
244 -138 -243 0
-244 138 0
-244 243 0
245 -24 -243 0
-245 24 0
-245 243 0
-246 26 245 0
246 -26 0
246 -245 0
247 -165 -246 0
-247 165 0
-247 246 0
248 -223 -234 0
-248 223 0
-248 234 0
-249 225 244 247 248 0
249 -225 0
249 -244 0
249 -247 0
249 -248 0
250 -251 -249 0
-250 251 0
-250 249 0
-252 225 248 0
252 -225 0
252 -248 0
253 -254 -252 0
-253 254 0
-253 252 0
255 -227 -225 0
-255 227 0
-255 225 0
-256 229 255 0
256 -229 0
256 -255 0
257 -233 -256 0
-257 233 0
-257 256 0
-258 6 257 0
258 -6 0
258 -257 0
259 -5 -258 0
-259 5 0
-259 258 0
-260 8 253 1 259 0
260 -8 0
260 -253 0
260 -1 0
260 -259 0
261 -10 -260 0
-261 10 0
-261 260 0
262 -12 -260 0
-262 12 0
-262 260 0
-263 14 262 0
263 -14 0
263 -262 0
264 -16 -263 0
-264 16 0
-264 263 0
-265 18 261 264 0
265 -18 0
265 -261 0
265 -264 0
266 -20 -265 0
-266 20 0
-266 265 0
-267 22 266 0
267 -22 0
267 -266 0
268 -24 -267 0
-268 24 0
-268 267 0
-269 26 268 0
269 -26 0
269 -268 0
270 -28 -269 0
-270 28 0
-270 269 0
271 -165 -26 0
-271 165 0
-271 26 0
-272 225 271 248 0
272 -225 0
272 -271 0
272 -248 0
273 -254 -272 0
-273 254 0
-273 272 0
-274 225 271 0
274 -225 0
274 -271 0
275 -227 -274 0
-275 227 0
-275 274 0
-276 229 275 0
276 -229 0
276 -275 0
277 -233 -276 0
-277 233 0
-277 276 0
-278 6 277 0
278 -6 0
278 -277 0
279 -5 -278 0
-279 5 0
-279 278 0
-280 8 273 1 279 0
280 -8 0
280 -273 0
280 -1 0
280 -279 0
281 -10 -280 0
-281 10 0
-281 280 0
282 -12 -280 0
-282 12 0
-282 280 0
-283 14 282 0
283 -14 0
283 -282 0
284 -16 -283 0
-284 16 0
-284 283 0
-285 18 281 284 0
285 -18 0
285 -281 0
285 -284 0
286 -20 -285 0
-286 20 0
-286 285 0
-287 22 286 0
287 -22 0
287 -286 0
288 -30 -287 0
-288 30 0
-288 287 0
-289 32 288 0
289 -32 0
289 -288 0
290 -34 -289 0
-290 34 0
-290 289 0
-291 36 250 270 290 0
291 -36 0
291 -250 0
291 -270 0
291 -290 0
292 -38 -291 0
-292 38 0
-292 291 0
293 -16 -14 0
-293 16 0
-293 14 0
-294 18 112 293 0
294 -18 0
294 -112 0
294 -293 0
295 -20 -294 0
-295 20 0
-295 294 0
-296 22 295 0
296 -22 0
296 -295 0
297 -138 -296 0
-297 138 0
-297 296 0
-298 18 140 293 0
298 -18 0
298 -140 0
298 -293 0
299 -20 -298 0
-299 20 0
-299 298 0
-300 22 299 0
300 -22 0
300 -299 0
301 -24 -300 0
-301 24 0
-301 300 0
-302 26 301 0
302 -26 0
302 -301 0
303 -165 -302 0
-303 165 0
-303 302 0
-304 225 297 303 248 0
304 -225 0
304 -297 0
304 -303 0
304 -248 0
305 -254 -304 0
-305 254 0
-305 304 0
-306 18 240 0
306 -18 0
306 -240 0
307 -20 -306 0
-307 20 0
-307 306 0
-308 22 307 0
308 -22 0
308 -307 0
309 -138 -308 0
-309 138 0
-309 308 0
310 -24 -308 0
-310 24 0
-310 308 0
-311 26 310 0
311 -26 0
311 -310 0
312 -165 -311 0
-312 165 0
-312 311 0
-313 225 309 312 248 0
313 -225 0
313 -309 0
313 -312 0
313 -248 0
314 -251 -313 0
-314 251 0
-314 313 0
-315 18 293 0
315 -18 0
315 -293 0
316 -20 -315 0
-316 20 0
-316 315 0
-317 22 316 0
317 -22 0
317 -316 0
318 -24 -317 0
-318 24 0
-318 317 0
-319 26 318 0
319 -26 0
319 -318 0
320 -28 -319 0
-320 28 0
-320 319 0
321 -30 -317 0
-321 30 0
-321 317 0
-322 32 321 0
322 -32 0
322 -321 0
323 -34 -322 0
-323 34 0
-323 322 0
-324 36 314 320 323 0
324 -36 0
324 -314 0
324 -320 0
324 -323 0
325 -50 -324 0
-325 50 0
-325 324 0
-326 225 297 303 0
326 -225 0
326 -297 0
326 -303 0
327 -227 -326 0
-327 227 0
-327 326 0
-328 229 327 0
328 -229 0
328 -327 0
329 -233 -328 0
-329 233 0
-329 328 0
-330 6 329 0
330 -6 0
330 -329 0
331 -5 -330 0
-331 5 0
-331 330 0
-332 8 305 325 1 331 0
332 -8 0
332 -305 0
332 -325 0
332 -1 0
332 -331 0
333 -53 -332 0
-333 53 0
-333 332 0
334 -138 -22 0
-334 138 0
-334 22 0
335 -165 -57 0
-335 165 0
-335 57 0
-336 225 334 335 248 0
336 -225 0
336 -334 0
336 -335 0
336 -248 0
337 -251 -336 0
-337 251 0
-337 336 0
-338 36 337 58 61 0
338 -36 0
338 -337 0
338 -58 0
338 -61 0
339 -64 -338 0
-339 64 0
-339 338 0
340 -254 -336 0
-340 254 0
-340 336 0
341 -50 -338 0
-341 50 0
-341 338 0
-342 225 334 335 0
342 -225 0
342 -334 0
342 -335 0
343 -227 -342 0
-343 227 0
-343 342 0
-344 229 343 0
344 -229 0
344 -343 0
345 -233 -344 0
-345 233 0
-345 344 0
-346 6 345 0
346 -6 0
346 -345 0
347 -5 -346 0
-347 5 0
-347 346 0
-348 8 340 341 1 347 0
348 -8 0
348 -340 0
348 -341 0
348 -1 0
348 -347 0
349 -10 -348 0
-349 10 0
-349 348 0
350 -12 -348 0
-350 12 0
-350 348 0
-351 14 350 0
351 -14 0
351 -350 0
352 -16 -351 0
-352 16 0
-352 351 0
-353 18 339 349 352 0
353 -18 0
353 -339 0
353 -349 0
353 -352 0
354 -73 -353 0
-354 73 0
-354 353 0
355 -251 -272 0
-355 251 0
-355 272 0
-356 36 355 74 0
356 -36 0
356 -355 0
356 -74 0
357 -64 -356 0
-357 64 0
-357 356 0
358 -50 -356 0
-358 50 0
-358 356 0
-359 8 273 358 1 279 0
359 -8 0
359 -273 0
359 -358 0
359 -1 0
359 -279 0
360 -10 -359 0
-360 10 0
-360 359 0
361 -12 -359 0
-361 12 0
-361 359 0
-362 14 361 0
362 -14 0
362 -361 0
363 -16 -362 0
-363 16 0
-363 362 0
-364 18 357 360 363 0
364 -18 0
364 -357 0
364 -360 0
364 -363 0
365 -20 -364 0
-365 20 0
-365 364 0
-366 22 365 0
366 -22 0
366 -365 0
367 -30 -366 0
-367 30 0
-367 366 0
-368 32 367 0
368 -32 0
368 -367 0
369 -89 -368 0
-369 89 0
-369 368 0
-370 94 292 333 54 354 369 90 0
370 -94 0
370 -292 0
370 -333 0
370 -54 0
370 -354 0
370 -369 0
370 -90 0
371 -96 -370 0
-371 96 0
-371 370 0
372 -98 -353 0
-372 98 0
-372 353 0
-373 100 371 372 0
373 -100 0
373 -371 0
373 -372 0
374 -102 -373 0
-374 102 0
-374 373 0
-375 104 374 0
375 -104 0
375 -374 0
376 -106 -375 0
-376 106 0
-376 375 0
-377 108 376 0
377 -108 0
377 -376 0
378 -379 -377 0
-378 379 0
-378 377 0
380 -53 -236 0
-380 53 0
-380 236 0
381 -73 -241 0
-381 73 0
-381 241 0
382 -30 -243 0
-382 30 0
-382 243 0
-383 32 382 0
383 -32 0
383 -382 0
384 -89 -383 0
-384 89 0
-384 383 0
-385 94 380 54 381 384 90 0
385 -94 0
385 -380 0
385 -54 0
385 -381 0
385 -384 0
385 -90 0
386 -96 -385 0
-386 96 0
-386 385 0
387 -98 -241 0
-387 98 0
-387 241 0
-388 100 386 387 0
388 -100 0
388 -386 0
388 -387 0
389 -102 -388 0
-389 102 0
-389 388 0
-390 104 389 0
390 -104 0
390 -389 0
391 -106 -390 0
-391 106 0
-391 390 0
-392 108 391 0
392 -108 0
392 -391 0
393 -110 -392 0
-393 110 0
-393 392 0
-394 6 232 125 0
394 -6 0
394 -232 0
394 -125 0
395 -5 -394 0
-395 5 0
-395 394 0
-396 8 122 1 395 0
396 -8 0
396 -122 0
396 -1 0
396 -395 0
397 -10 -396 0
-397 10 0
-397 396 0
398 -12 -396 0
-398 12 0
-398 396 0
-399 14 398 0
399 -14 0
399 -398 0
400 -16 -399 0
-400 16 0
-400 399 0
-401 18 397 400 0
401 -18 0
401 -397 0
401 -400 0
402 -20 -401 0
-402 20 0
-402 401 0
-403 22 402 0
403 -22 0
403 -402 0
404 -138 -403 0
-404 138 0
-404 403 0
-405 6 232 151 0
405 -6 0
405 -232 0
405 -151 0
406 -5 -405 0
-406 5 0
-406 405 0
-407 8 149 1 406 0
407 -8 0
407 -149 0
407 -1 0
407 -406 0
408 -10 -407 0
-408 10 0
-408 407 0
409 -12 -407 0
-409 12 0
-409 407 0
-410 14 409 0
410 -14 0
410 -409 0
411 -16 -410 0
-411 16 0
-411 410 0
-412 18 408 411 0
412 -18 0
412 -408 0
412 -411 0
413 -20 -412 0
-413 20 0
-413 412 0
-414 22 413 0
414 -22 0
414 -413 0
415 -24 -414 0
-415 24 0
-415 414 0
-416 26 415 0
416 -26 0
416 -415 0
417 -165 -416 0
-417 165 0
-417 416 0
418 -53 -167 0
-418 53 0
-418 167 0
419 -73 -172 0
-419 73 0
-419 172 0
420 -89 -179 0
-420 89 0
-420 179 0
-421 94 182 418 54 419 420 90 0
421 -94 0
421 -182 0
421 -418 0
421 -54 0
421 -419 0
421 -420 0
421 -90 0
422 -96 -421 0
-422 96 0
-422 421 0
423 -98 -172 0
-423 98 0
-423 172 0
-424 100 422 423 0
424 -100 0
424 -422 0
424 -423 0
425 -102 -424 0
-425 102 0
-425 424 0
-426 104 425 0
426 -104 0
426 -425 0
427 -126 -426 0
-427 126 0
-427 426 0
-428 6 232 427 0
428 -6 0
428 -232 0
428 -427 0
429 -223 -428 0
-429 223 0
-429 428 0
-430 225 393 404 417 429 0
430 -225 0
430 -393 0
430 -404 0
430 -417 0
430 -429 0
431 -251 -430 0
-431 251 0
-431 430 0
-432 94 54 114 90 0
432 -94 0
432 -54 0
432 -114 0
432 -90 0
433 -96 -432 0
-433 96 0
-433 432 0
-434 100 433 0
434 -100 0
434 -433 0
435 -102 -434 0
-435 102 0
-435 434 0
-436 104 435 0
436 -104 0
436 -435 0
437 -106 -436 0
-437 106 0
-437 436 0
-438 108 437 0
438 -108 0
438 -437 0
439 -123 -438 0
-439 123 0
-439 438 0
440 -110 -148 0
-440 110 0
-440 148 0
441 -223 -405 0
-441 223 0
-441 405 0
-442 225 440 441 0
442 -225 0
442 -440 0
442 -441 0
443 -254 -442 0
-443 254 0
-443 442 0
-444 225 440 0
444 -225 0
444 -440 0
445 -227 -444 0
-445 227 0
-445 444 0
-446 229 445 0
446 -229 0
446 -445 0
447 -233 -446 0
-447 233 0
-447 446 0
448 -126 -436 0
-448 126 0
-448 436 0
-449 6 447 448 0
449 -6 0
449 -447 0
449 -448 0
450 -5 -449 0
-450 5 0
-450 449 0
-451 8 439 443 1 450 0
451 -8 0
451 -439 0
451 -443 0
451 -1 0
451 -450 0
452 -10 -451 0
-452 10 0
-452 451 0
453 -12 -451 0
-453 12 0
-453 451 0
-454 14 453 0
454 -14 0
454 -453 0
455 -16 -454 0
-455 16 0
-455 454 0
-456 18 452 455 0
456 -18 0
456 -452 0
456 -455 0
457 -20 -456 0
-457 20 0
-457 456 0
-458 22 457 0
458 -22 0
458 -457 0
459 -24 -458 0
-459 24 0
-459 458 0
-460 26 459 0
460 -26 0
460 -459 0
461 -28 -460 0
-461 28 0
-461 460 0
-462 94 54 90 0
462 -94 0
462 -54 0
462 -90 0
463 -96 -462 0
-463 96 0
-463 462 0
-464 100 463 0
464 -100 0
464 -463 0
465 -102 -464 0
-465 102 0
-465 464 0
-466 104 465 0
466 -104 0
466 -465 0
467 -106 -466 0
-467 106 0
-467 466 0
-468 108 467 0
468 -108 0
468 -467 0
469 -123 -468 0
-469 123 0
-469 468 0
470 -110 -468 0
-470 110 0
-470 468 0
471 -126 -466 0
-471 126 0
-471 466 0
-472 6 232 471 0
472 -6 0
472 -232 0
472 -471 0
473 -223 -472 0
-473 223 0
-473 472 0
-474 225 470 271 473 0
474 -225 0
474 -470 0
474 -271 0
474 -473 0
475 -254 -474 0
-475 254 0
-475 474 0
-476 225 470 271 0
476 -225 0
476 -470 0
476 -271 0
477 -227 -476 0
-477 227 0
-477 476 0
-478 229 477 0
478 -229 0
478 -477 0
479 -233 -478 0
-479 233 0
-479 478 0
-480 6 479 471 0
480 -6 0
480 -479 0
480 -471 0
481 -5 -480 0
-481 5 0
-481 480 0
-482 8 469 475 1 481 0
482 -8 0
482 -469 0
482 -475 0
482 -1 0
482 -481 0
483 -10 -482 0
-483 10 0
-483 482 0
484 -12 -482 0
-484 12 0
-484 482 0
-485 14 484 0
485 -14 0
485 -484 0
486 -16 -485 0
-486 16 0
-486 485 0
-487 18 483 486 0
487 -18 0
487 -483 0
487 -486 0
488 -20 -487 0
-488 20 0
-488 487 0
-489 22 488 0
489 -22 0
489 -488 0
490 -30 -489 0
-490 30 0
-490 489 0
-491 32 490 0
491 -32 0
491 -490 0
492 -34 -491 0
-492 34 0
-492 491 0
-493 36 431 461 492 0
493 -36 0
493 -431 0
493 -461 0
493 -492 0
494 -495 -493 0
-494 495 0
-494 493 0
496 -106 -104 0
-496 106 0
-496 104 0
-497 108 496 0
497 -108 0
497 -496 0
498 -110 -497 0
-498 110 0
-498 497 0
499 -123 -497 0
-499 123 0
-499 497 0
500 -126 -104 0
-500 126 0
-500 104 0
-501 6 232 500 0
501 -6 0
501 -232 0
501 -500 0
502 -5 -501 0
-502 5 0
-502 501 0
-503 8 499 1 502 0
503 -8 0
503 -499 0
503 -1 0
503 -502 0
504 -10 -503 0
-504 10 0
-504 503 0
505 -12 -503 0
-505 12 0
-505 503 0
-506 14 505 0
506 -14 0
506 -505 0
507 -16 -506 0
-507 16 0
-507 506 0
-508 18 504 507 0
508 -18 0
508 -504 0
508 -507 0
509 -20 -508 0
-509 20 0
-509 508 0
-510 22 509 0
510 -22 0
510 -509 0
511 -138 -510 0
-511 138 0
-511 510 0
512 -24 -510 0
-512 24 0
-512 510 0
-513 26 512 0
513 -26 0
513 -512 0
514 -165 -513 0
-514 165 0
-514 513 0
515 -223 -501 0
-515 223 0
-515 501 0
-516 225 498 511 514 515 0
516 -225 0
516 -498 0
516 -511 0
516 -514 0
516 -515 0
517 -251 -516 0
-517 251 0
-517 516 0
-518 225 498 515 0
518 -225 0
518 -498 0
518 -515 0
519 -254 -518 0
-519 254 0
-519 518 0
-520 225 498 0
520 -225 0
520 -498 0
521 -227 -520 0
-521 227 0
-521 520 0
-522 229 521 0
522 -229 0
522 -521 0
523 -233 -522 0
-523 233 0
-523 522 0
-524 6 523 500 0
524 -6 0
524 -523 0
524 -500 0
525 -5 -524 0
-525 5 0
-525 524 0
-526 8 499 519 1 525 0
526 -8 0
526 -499 0
526 -519 0
526 -1 0
526 -525 0
527 -10 -526 0
-527 10 0
-527 526 0
528 -12 -526 0
-528 12 0
-528 526 0
-529 14 528 0
529 -14 0
529 -528 0
530 -16 -529 0
-530 16 0
-530 529 0
-531 18 527 530 0
531 -18 0
531 -527 0
531 -530 0
532 -20 -531 0
-532 20 0
-532 531 0
-533 22 532 0
533 -22 0
533 -532 0
534 -24 -533 0
-534 24 0
-534 533 0
-535 26 534 0
535 -26 0
535 -534 0
536 -28 -535 0
-536 28 0
-536 535 0
-537 225 498 271 515 0
537 -225 0
537 -498 0
537 -271 0
537 -515 0
538 -254 -537 0
-538 254 0
-538 537 0
-539 225 498 271 0
539 -225 0
539 -498 0
539 -271 0
540 -227 -539 0
-540 227 0
-540 539 0
-541 229 540 0
541 -229 0
541 -540 0
542 -233 -541 0
-542 233 0
-542 541 0
-543 6 542 500 0
543 -6 0
543 -542 0
543 -500 0
544 -5 -543 0
-544 5 0
-544 543 0
-545 8 499 538 1 544 0
545 -8 0
545 -499 0
545 -538 0
545 -1 0
545 -544 0
546 -10 -545 0
-546 10 0
-546 545 0
547 -12 -545 0
-547 12 0
-547 545 0
-548 14 547 0
548 -14 0
548 -547 0
549 -16 -548 0
-549 16 0
-549 548 0
-550 18 546 549 0
550 -18 0
550 -546 0
550 -549 0
551 -20 -550 0
-551 20 0
-551 550 0
-552 22 551 0
552 -22 0
552 -551 0
553 -30 -552 0
-553 30 0
-553 552 0
-554 32 553 0
554 -32 0
554 -553 0
555 -34 -554 0
-555 34 0
-555 554 0
-556 36 517 536 555 0
556 -36 0
556 -517 0
556 -536 0
556 -555 0
557 -38 -556 0
-557 38 0
-557 556 0
-558 225 498 297 303 515 0
558 -225 0
558 -498 0
558 -297 0
558 -303 0
558 -515 0
559 -254 -558 0
-559 254 0
-559 558 0
560 -138 -317 0
-560 138 0
-560 317 0
561 -165 -319 0
-561 165 0
-561 319 0
-562 225 498 560 561 515 0
562 -225 0
562 -498 0
562 -560 0
562 -561 0
562 -515 0
563 -251 -562 0
-563 251 0
-563 562 0
-564 36 563 320 323 0
564 -36 0
564 -563 0
564 -320 0
564 -323 0
565 -50 -564 0
-565 50 0
-565 564 0
-566 225 498 297 303 0
566 -225 0
566 -498 0
566 -297 0
566 -303 0
567 -227 -566 0
-567 227 0
-567 566 0
-568 229 567 0
568 -229 0
568 -567 0
569 -233 -568 0
-569 233 0
-569 568 0
-570 6 569 500 0
570 -6 0
570 -569 0
570 -500 0
571 -5 -570 0
-571 5 0
-571 570 0
-572 8 499 559 565 1 571 0
572 -8 0
572 -499 0
572 -559 0
572 -565 0
572 -1 0
572 -571 0
573 -53 -572 0
-573 53 0
-573 572 0
-574 225 498 334 335 515 0
574 -225 0
574 -498 0
574 -334 0
574 -335 0
574 -515 0
575 -251 -574 0
-575 251 0
-575 574 0
-576 36 575 58 61 0
576 -36 0
576 -575 0
576 -58 0
576 -61 0
577 -64 -576 0
-577 64 0
-577 576 0
578 -254 -574 0
-578 254 0
-578 574 0
579 -50 -576 0
-579 50 0
-579 576 0
-580 225 498 334 335 0
580 -225 0
580 -498 0
580 -334 0
580 -335 0
581 -227 -580 0
-581 227 0
-581 580 0
-582 229 581 0
582 -229 0
582 -581 0
583 -233 -582 0
-583 233 0
-583 582 0
-584 6 583 500 0
584 -6 0
584 -583 0
584 -500 0
585 -5 -584 0
-585 5 0
-585 584 0
-586 8 499 578 579 1 585 0
586 -8 0
586 -499 0
586 -578 0
586 -579 0
586 -1 0
586 -585 0
587 -10 -586 0
-587 10 0
-587 586 0
588 -12 -586 0
-588 12 0
-588 586 0
-589 14 588 0
589 -14 0
589 -588 0
590 -16 -589 0
-590 16 0
-590 589 0
-591 18 577 587 590 0
591 -18 0
591 -577 0
591 -587 0
591 -590 0
592 -73 -591 0
-592 73 0
-592 591 0
593 -251 -537 0
-593 251 0
-593 537 0
-594 36 593 74 0
594 -36 0
594 -593 0
594 -74 0
595 -64 -594 0
-595 64 0
-595 594 0
596 -50 -594 0
-596 50 0
-596 594 0
-597 8 499 538 596 1 544 0
597 -8 0
597 -499 0
597 -538 0
597 -596 0
597 -1 0
597 -544 0
598 -10 -597 0
-598 10 0
-598 597 0
599 -12 -597 0
-599 12 0
-599 597 0
-600 14 599 0
600 -14 0
600 -599 0
601 -16 -600 0
-601 16 0
-601 600 0
-602 18 595 598 601 0
602 -18 0
602 -595 0
602 -598 0
602 -601 0
603 -20 -602 0
-603 20 0
-603 602 0
-604 22 603 0
604 -22 0
604 -603 0
605 -30 -604 0
-605 30 0
-605 604 0
-606 32 605 0
606 -32 0
606 -605 0
607 -89 -606 0
-607 89 0
-607 606 0
-608 94 557 573 54 592 607 90 0
608 -94 0
608 -557 0
608 -573 0
608 -54 0
608 -592 0
608 -607 0
608 -90 0
609 -96 -608 0
-609 96 0
-609 608 0
610 -98 -591 0
-610 98 0
-610 591 0
-611 100 609 610 0
611 -100 0
611 -609 0
611 -610 0
612 -613 -611 0
-612 613 0
-612 611 0
-614 615 378 494 612 0
614 -615 0
614 -378 0
614 -494 0
614 -612 0
616 -617 -614 0
-616 617 0
-616 614 0
-618 619 230 616 0
618 -619 0
618 -230 0
618 -616 0
620 -621 -618 0
-620 621 0
-620 618 0
622 -231 -229 0
-622 231 0
-622 229 0
-623 94 380 54 90 0
623 -94 0
623 -380 0
623 -54 0
623 -90 0
624 -96 -623 0
-624 96 0
-624 623 0
-625 100 624 0
625 -100 0
625 -624 0
626 -102 -625 0
-626 102 0
-626 625 0
-627 104 626 0
627 -104 0
627 -626 0
628 -106 -627 0
-628 106 0
-628 627 0
-629 108 628 0
629 -108 0
629 -628 0
630 -379 -629 0
-630 379 0
-630 629 0
631 -53 -503 0
-631 53 0
-631 503 0
-632 94 631 54 90 0
632 -94 0
632 -631 0
632 -54 0
632 -90 0
633 -96 -632 0
-633 96 0
-633 632 0
-634 100 633 0
634 -100 0
634 -633 0
635 -613 -634 0
-635 613 0
-635 634 0
-636 615 630 635 0
636 -615 0
636 -630 0
636 -635 0
637 -617 -636 0
-637 617 0
-637 636 0
-638 619 622 637 0
638 -619 0
638 -622 0
638 -637 0
639 -640 -638 0
-639 640 0
-639 638 0
641 -617 -615 0
-641 617 0
-641 615 0
-642 619 622 641 0
642 -619 0
642 -622 0
642 -641 0
643 -644 -642 0
-643 644 0
-643 642 0
-645 3 643 0
645 -3 0
645 -643 0
646 -2 -645 0
-646 2 0
-646 645 0
647 -648 -642 0
-647 648 0
-647 642 0
-649 6 647 232 0
649 -6 0
649 -647 0
649 -232 0
650 -5 -649 0
-650 5 0
-650 649 0
-651 8 646 650 0
651 -8 0
651 -646 0
651 -650 0
652 -53 -651 0
-652 53 0
-652 651 0
653 -55 -645 0
-653 55 0
-653 645 0
654 -655 -642 0
-654 655 0
-654 642 0
-656 92 654 0
656 -92 0
656 -654 0
657 -91 -656 0
-657 91 0
-657 656 0
-658 94 652 653 657 0
658 -94 0
658 -652 0
658 -653 0
658 -657 0
659 -96 -658 0
-659 96 0
-659 658 0
-660 100 659 0
660 -100 0
660 -659 0
661 -102 -660 0
-661 102 0
-661 660 0
-662 104 661 0
662 -104 0
662 -661 0
663 -106 -662 0
-663 106 0
-663 662 0
-664 108 663 0
664 -108 0
664 -663 0
665 -110 -664 0
-665 110 0
-665 664 0
666 -53 -280 0
-666 53 0
-666 280 0
-667 94 666 54 90 0
667 -94 0
667 -666 0
667 -54 0
667 -90 0
668 -96 -667 0
-668 96 0
-668 667 0
-669 100 668 0
669 -100 0
669 -668 0
670 -102 -669 0
-670 102 0
-670 669 0
-671 104 670 0
671 -104 0
671 -670 0
672 -106 -671 0
-672 106 0
-672 671 0
-673 108 672 0
673 -108 0
673 -672 0
674 -379 -673 0
-674 379 0
-674 673 0
675 -53 -545 0
-675 53 0
-675 545 0
-676 94 675 54 90 0
676 -94 0
676 -675 0
676 -54 0
676 -90 0
677 -96 -676 0
-677 96 0
-677 676 0
-678 100 677 0
678 -100 0
678 -677 0
679 -613 -678 0
-679 613 0
-679 678 0
-680 615 674 679 0
680 -615 0
680 -674 0
680 -679 0
681 -617 -680 0
-681 617 0
-681 680 0
-682 619 622 681 0
682 -619 0
682 -622 0
682 -681 0
683 -648 -682 0
-683 648 0
-683 682 0
684 -379 -108 0
-684 379 0
-684 108 0
-685 615 684 0
685 -615 0
685 -684 0
686 -617 -685 0
-686 617 0
-686 685 0
-687 619 622 686 0
687 -619 0
687 -622 0
687 -686 0
688 -644 -687 0
-688 644 0
-688 687 0
-689 3 688 0
689 -3 0
689 -688 0
690 -2 -689 0
-690 2 0
-690 689 0
-691 8 166 690 0
691 -8 0
691 -166 0
691 -690 0
692 -53 -691 0
-692 53 0
-692 691 0
693 -55 -689 0
-693 55 0
-693 689 0
694 -655 -687 0
-694 655 0
-694 687 0
-695 92 694 0
695 -92 0
695 -694 0
696 -91 -695 0
-696 91 0
-696 695 0
-697 94 692 693 696 0
697 -94 0
697 -692 0
697 -693 0
697 -696 0
698 -96 -697 0
-698 96 0
-698 697 0
-699 100 698 0
699 -100 0
699 -698 0
700 -102 -699 0
-700 102 0
-700 699 0
-701 104 700 0
701 -104 0
701 -700 0
702 -126 -701 0
-702 126 0
-702 701 0
-703 6 683 232 702 0
703 -6 0
703 -683 0
703 -232 0
703 -702 0
704 -223 -703 0
-704 223 0
-704 703 0
-705 225 639 665 271 704 0
705 -225 0
705 -639 0
705 -665 0
705 -271 0
705 -704 0
706 -251 -705 0
-706 251 0
-706 705 0
-707 36 706 74 0
707 -36 0
707 -706 0
707 -74 0
708 -64 -707 0
-708 64 0
-708 707 0
709 -640 -642 0
-709 640 0
-709 642 0
710 -223 -649 0
-710 223 0
-710 649 0
-711 225 709 271 710 0
711 -225 0
711 -709 0
711 -271 0
711 -710 0
712 -251 -711 0
-712 251 0
-712 711 0
-713 36 712 74 0
713 -36 0
713 -712 0
713 -74 0
714 -38 -713 0
-714 38 0
-714 713 0
715 -223 -6 0
-715 223 0
-715 6 0
-716 225 271 715 0
716 -225 0
716 -271 0
716 -715 0
717 -227 -716 0
-717 227 0
-717 716 0
-718 229 717 0
718 -229 0
718 -717 0
719 -231 -718 0
-719 231 0
-719 718 0
720 -495 -356 0
-720 495 0
-720 356 0
-721 615 720 0
721 -615 0
721 -720 0
722 -617 -721 0
-722 617 0
-722 721 0
-723 619 719 722 0
723 -619 0
723 -719 0
723 -722 0
724 -644 -723 0
-724 644 0
-724 723 0
-725 3 724 0
725 -3 0
725 -724 0
726 -55 -725 0
-726 55 0
-726 725 0
727 -655 -723 0
-727 655 0
-727 723 0
-728 92 727 0
728 -92 0
728 -727 0
729 -91 -728 0
-729 91 0
-729 728 0
-730 94 714 726 729 0
730 -94 0
730 -714 0
730 -726 0
730 -729 0
731 -96 -730 0
-731 96 0
-731 730 0
-732 100 731 0
732 -100 0
732 -731 0
733 -102 -732 0
-733 102 0
-733 732 0
-734 104 733 0
734 -104 0
734 -733 0
735 -106 -734 0
-735 106 0
-735 734 0
-736 108 735 0
736 -108 0
736 -735 0
737 -123 -736 0
-737 123 0
-737 736 0
738 -38 -75 0
-738 38 0
-738 75 0
-739 94 738 54 90 0
739 -94 0
739 -738 0
739 -54 0
739 -90 0
740 -96 -739 0
-740 96 0
-740 739 0
-741 100 740 0
741 -100 0
741 -740 0
742 -102 -741 0
-742 102 0
-742 741 0
-743 104 742 0
743 -104 0
743 -742 0
744 -106 -743 0
-744 106 0
-744 743 0
-745 108 744 0
745 -108 0
745 -744 0
746 -379 -745 0
-746 379 0
-746 745 0
747 -495 -75 0
-747 495 0
-747 75 0
748 -613 -741 0
-748 613 0
-748 741 0
-749 615 746 747 748 0
749 -615 0
749 -746 0
749 -747 0
749 -748 0
750 -617 -749 0
-750 617 0
-750 749 0
-751 619 622 750 0
751 -619 0
751 -622 0
751 -750 0
752 -640 -751 0
-752 640 0
-752 751 0
-753 619 622 722 0
753 -619 0
753 -622 0
753 -722 0
754 -644 -753 0
-754 644 0
-754 753 0
-755 3 754 0
755 -3 0
755 -754 0
756 -55 -755 0
-756 55 0
-756 755 0
757 -655 -753 0
-757 655 0
-757 753 0
-758 92 757 0
758 -92 0
758 -757 0
759 -91 -758 0
-759 91 0
-759 758 0
-760 94 738 756 759 0
760 -94 0
760 -738 0
760 -756 0
760 -759 0
761 -96 -760 0
-761 96 0
-761 760 0
-762 100 761 0
762 -100 0
762 -761 0
763 -102 -762 0
-763 102 0
-763 762 0
-764 104 763 0
764 -104 0
764 -763 0
765 -106 -764 0
-765 106 0
-765 764 0
-766 108 765 0
766 -108 0
766 -765 0
767 -110 -766 0
-767 110 0
-767 766 0
768 -648 -751 0
-768 648 0
-768 751 0
-769 615 684 747 0
769 -615 0
769 -684 0
769 -747 0
770 -617 -769 0
-770 617 0
-770 769 0
-771 619 622 770 0
771 -619 0
771 -622 0
771 -770 0
772 -644 -771 0
-772 644 0
-772 771 0
-773 3 772 0
773 -3 0
773 -772 0
774 -55 -773 0
-774 55 0
-774 773 0
775 -655 -771 0
-775 655 0
-775 771 0
-776 92 775 0
776 -92 0
776 -775 0
777 -91 -776 0
-777 91 0
-777 776 0
-778 94 738 774 777 0
778 -94 0
778 -738 0
778 -774 0
778 -777 0
779 -96 -778 0
-779 96 0
-779 778 0
-780 100 779 0
780 -100 0
780 -779 0
781 -102 -780 0
-781 102 0
-781 780 0
-782 104 781 0
782 -104 0
782 -781 0
783 -126 -782 0
-783 126 0
-783 782 0
-784 6 768 232 783 0
784 -6 0
784 -768 0
784 -232 0
784 -783 0
785 -223 -784 0
-785 223 0
-785 784 0
-786 225 752 767 271 785 0
786 -225 0
786 -752 0
786 -767 0
786 -271 0
786 -785 0
787 -254 -786 0
-787 254 0
-787 786 0
788 -106 -782 0
-788 106 0
-788 782 0
-789 108 788 0
789 -108 0
789 -788 0
790 -110 -789 0
-790 110 0
-790 789 0
-791 225 752 790 271 785 0
791 -225 0
791 -752 0
791 -790 0
791 -271 0
791 -785 0
792 -251 -791 0
-792 251 0
-792 791 0
-793 36 792 74 0
793 -36 0
793 -792 0
793 -74 0
794 -50 -793 0
-794 50 0
-794 793 0
795 -110 -745 0
-795 110 0
-795 745 0
796 -126 -743 0
-796 126 0
-796 743 0
-797 6 796 0
797 -6 0
797 -796 0
798 -223 -797 0
-798 223 0
-798 797 0
-799 225 795 271 798 0
799 -225 0
799 -795 0
799 -271 0
799 -798 0
800 -227 -799 0
-800 227 0
-800 799 0
-801 229 800 0
801 -229 0
801 -800 0
802 -231 -801 0
-802 231 0
-802 801 0
803 -38 -356 0
-803 38 0
-803 356 0
-804 94 803 54 90 0
804 -94 0
804 -803 0
804 -54 0
804 -90 0
805 -96 -804 0
-805 96 0
-805 804 0
-806 100 805 0
806 -100 0
806 -805 0
807 -102 -806 0
-807 102 0
-807 806 0
-808 104 807 0
808 -104 0
808 -807 0
809 -106 -808 0
-809 106 0
-809 808 0
-810 108 809 0
810 -108 0
810 -809 0
811 -379 -810 0
-811 379 0
-811 810 0
812 -251 -474 0
-812 251 0
-812 474 0
-813 36 812 74 0
813 -36 0
813 -812 0
813 -74 0
814 -495 -813 0
-814 495 0
-814 813 0
815 -38 -594 0
-815 38 0
-815 594 0
-816 94 815 54 90 0
816 -94 0
816 -815 0
816 -54 0
816 -90 0
817 -96 -816 0
-817 96 0
-817 816 0
-818 100 817 0
818 -100 0
818 -817 0
819 -613 -818 0
-819 613 0
-819 818 0
-820 615 811 814 819 0
820 -615 0
820 -811 0
820 -814 0
820 -819 0
821 -617 -820 0
-821 617 0
-821 820 0
-822 619 802 821 0
822 -619 0
822 -802 0
822 -821 0
823 -644 -822 0
-823 644 0
-823 822 0
-824 3 823 0
824 -3 0
824 -823 0
825 -2 -824 0
-825 2 0
-825 824 0
-826 225 795 271 0
826 -225 0
826 -795 0
826 -271 0
827 -227 -826 0
-827 227 0
-827 826 0
-828 229 827 0
828 -229 0
828 -827 0
829 -231 -828 0
-829 231 0
-829 828 0
830 -251 -476 0
-830 251 0
-830 476 0
-831 36 830 74 0
831 -36 0
831 -830 0
831 -74 0
832 -495 -831 0
-832 495 0
-832 831 0
-833 615 811 832 819 0
833 -615 0
833 -811 0
833 -832 0
833 -819 0
834 -617 -833 0
-834 617 0
-834 833 0
-835 619 829 834 0
835 -619 0
835 -829 0
835 -834 0
836 -648 -835 0
-836 648 0
-836 835 0
-837 225 752 790 271 0
837 -225 0
837 -752 0
837 -790 0
837 -271 0
838 -227 -837 0
-838 227 0
-838 837 0
-839 229 838 0
839 -229 0
839 -838 0
840 -233 -839 0
-840 233 0
-840 839 0
841 -640 -687 0
-841 640 0
-841 687 0
842 -110 -108 0
-842 110 0
-842 108 0
-843 225 841 842 271 0
843 -225 0
843 -841 0
843 -842 0
843 -271 0
844 -251 -843 0
-844 251 0
-844 843 0
-845 36 844 74 0
845 -36 0
845 -844 0
845 -74 0
846 -38 -845 0
-846 38 0
-846 845 0
-847 225 842 271 0
847 -225 0
847 -842 0
847 -271 0
848 -227 -847 0
-848 227 0
-848 847 0
-849 229 848 0
849 -229 0
849 -848 0
850 -231 -849 0
-850 231 0
-850 849 0
851 -251 -847 0
-851 251 0
-851 847 0
-852 36 851 74 0
852 -36 0
852 -851 0
852 -74 0
853 -495 -852 0
-853 495 0
-853 852 0
-854 615 684 853 0
854 -615 0
854 -684 0
854 -853 0
855 -617 -854 0
-855 617 0
-855 854 0
-856 619 850 855 0
856 -619 0
856 -850 0
856 -855 0
857 -644 -856 0
-857 644 0
-857 856 0
-858 3 857 0
858 -3 0
858 -857 0
859 -55 -858 0
-859 55 0
-859 858 0
860 -655 -856 0
-860 655 0
-860 856 0
-861 92 860 0
861 -92 0
861 -860 0
862 -91 -861 0
-862 91 0
-862 861 0
-863 94 846 859 862 0
863 -94 0
863 -846 0
863 -859 0
863 -862 0
864 -96 -863 0
-864 96 0
-864 863 0
-865 100 864 0
865 -100 0
865 -864 0
866 -102 -865 0
-866 102 0
-866 865 0
-867 104 866 0
867 -104 0
867 -866 0
868 -126 -867 0
-868 126 0
-868 867 0
-869 6 836 840 868 0
869 -6 0
869 -836 0
869 -840 0
869 -868 0
870 -5 -869 0
-870 5 0
-870 869 0
-871 8 737 787 794 825 870 0
871 -8 0
871 -737 0
871 -787 0
871 -794 0
871 -825 0
871 -870 0
872 -10 -871 0
-872 10 0
-872 871 0
873 -254 -791 0
-873 254 0
-873 791 0
874 -38 -852 0
-874 38 0
-874 852 0
-875 94 874 54 90 0
875 -94 0
875 -874 0
875 -54 0
875 -90 0
876 -96 -875 0
-876 96 0
-876 875 0
-877 100 876 0
877 -100 0
877 -876 0
878 -102 -877 0
-878 102 0
-878 877 0
-879 104 878 0
879 -104 0
879 -878 0
880 -106 -879 0
-880 106 0
-880 879 0
-881 108 880 0
881 -108 0
881 -880 0
882 -379 -881 0
-882 379 0
-882 881 0
-883 615 882 832 819 0
883 -615 0
883 -882 0
883 -832 0
883 -819 0
884 -617 -883 0
-884 617 0
-884 883 0
-885 619 829 884 0
885 -619 0
885 -829 0
885 -884 0
886 -648 -885 0
-886 648 0
-886 885 0
-887 6 886 840 868 0
887 -6 0
887 -886 0
887 -840 0
887 -868 0
888 -5 -887 0
-888 5 0
-888 887 0
-889 8 737 873 794 825 888 0
889 -8 0
889 -737 0
889 -873 0
889 -794 0
889 -825 0
889 -888 0
890 -12 -889 0
-890 12 0
-890 889 0
-891 14 890 0
891 -14 0
891 -890 0
892 -16 -891 0
-892 16 0
-892 891 0
-893 18 708 872 892 0
893 -18 0
893 -708 0
893 -872 0
893 -892 0
894 -20 -893 0
-894 20 0
-894 893 0
-895 22 894 0
895 -22 0
895 -894 0
896 -30 -895 0
-896 30 0
-896 895 0
-897 32 896 0
897 -32 0
897 -896 0
898 -899 -897 0
-898 899 0
-898 897 0
-900 94 37 52 54 72 88 0
900 -94 0
900 -37 0
900 -52 0
900 -54 0
900 -72 0
900 -88 0
901 -96 -900 0
-901 96 0
-901 900 0
-902 100 901 97 0
902 -100 0
902 -901 0
902 -97 0
903 -102 -902 0
-903 102 0
-903 902 0
-904 104 903 0
904 -104 0
904 -903 0
905 -106 -904 0
-905 106 0
-905 904 0
-906 108 905 0
906 -108 0
906 -905 0
907 -110 -906 0
-907 110 0
-907 906 0
-908 94 113 54 114 0
908 -94 0
908 -113 0
908 -54 0
908 -114 0
909 -96 -908 0
-909 96 0
-909 908 0
-910 100 909 0
910 -100 0
910 -909 0
911 -102 -910 0
-911 102 0
-911 910 0
-912 104 911 0
912 -104 0
912 -911 0
913 -106 -912 0
-913 106 0
-913 912 0
-914 108 913 0
914 -108 0
914 -913 0
915 -123 -914 0
-915 123 0
-915 914 0
916 -126 -912 0
-916 126 0
-916 912 0
-917 6 916 0
917 -6 0
917 -916 0
918 -5 -917 0
-918 5 0
-918 917 0
-919 8 915 124 1 918 0
919 -8 0
919 -915 0
919 -124 0
919 -1 0
919 -918 0
920 -10 -919 0
-920 10 0
-920 919 0
921 -12 -919 0
-921 12 0
-921 919 0
-922 14 921 0
922 -14 0
922 -921 0
923 -16 -922 0
-923 16 0
-923 922 0
-924 18 112 920 923 0
924 -18 0
924 -112 0
924 -920 0
924 -923 0
925 -20 -924 0
-925 20 0
-925 924 0
-926 22 925 0
926 -22 0
926 -925 0
927 -138 -926 0
-927 138 0
-927 926 0
-928 94 141 54 114 0
928 -94 0
928 -141 0
928 -54 0
928 -114 0
929 -96 -928 0
-929 96 0
-929 928 0
-930 100 929 0
930 -100 0
930 -929 0
931 -102 -930 0
-931 102 0
-931 930 0
-932 104 931 0
932 -104 0
932 -931 0
933 -106 -932 0
-933 106 0
-933 932 0
-934 108 933 0
934 -108 0
934 -933 0
935 -123 -934 0
-935 123 0
-935 934 0
936 -126 -932 0
-936 126 0
-936 932 0
-937 6 936 0
937 -6 0
937 -936 0
938 -5 -937 0
-938 5 0
-938 937 0
-939 8 935 150 1 938 0
939 -8 0
939 -935 0
939 -150 0
939 -1 0
939 -938 0
940 -10 -939 0
-940 10 0
-940 939 0
941 -12 -939 0
-941 12 0
-941 939 0
-942 14 941 0
942 -14 0
942 -941 0
943 -16 -942 0
-943 16 0
-943 942 0
-944 18 140 940 943 0
944 -18 0
944 -140 0
944 -940 0
944 -943 0
945 -20 -944 0
-945 20 0
-945 944 0
-946 22 945 0
946 -22 0
946 -945 0
947 -24 -946 0
-947 24 0
-947 946 0
-948 26 947 0
948 -26 0
948 -947 0
949 -165 -948 0
-949 165 0
-949 948 0
-950 94 182 195 54 202 213 0
950 -94 0
950 -182 0
950 -195 0
950 -54 0
950 -202 0
950 -213 0
951 -96 -950 0
-951 96 0
-951 950 0
-952 100 951 216 0
952 -100 0
952 -951 0
952 -216 0
953 -102 -952 0
-953 102 0
-953 952 0
-954 104 953 0
954 -104 0
954 -953 0
955 -126 -954 0
-955 126 0
-955 954 0
-956 6 955 0
956 -6 0
956 -955 0
957 -223 -956 0
-957 223 0
-957 956 0
-958 225 907 927 949 957 0
958 -225 0
958 -907 0
958 -927 0
958 -949 0
958 -957 0
959 -227 -958 0
-959 227 0
-959 958 0
-960 229 959 0
960 -229 0
960 -959 0
961 -231 -960 0
-961 231 0
-961 960 0
-962 94 292 333 54 354 369 0
962 -94 0
962 -292 0
962 -333 0
962 -54 0
962 -354 0
962 -369 0
963 -96 -962 0
-963 96 0
-963 962 0
-964 100 963 372 0
964 -100 0
964 -963 0
964 -372 0
965 -102 -964 0
-965 102 0
-965 964 0
-966 104 965 0
966 -104 0
966 -965 0
967 -106 -966 0
-967 106 0
-967 966 0
-968 108 967 0
968 -108 0
968 -967 0
969 -379 -968 0
-969 379 0
-969 968 0
-970 94 380 54 381 384 0
970 -94 0
970 -380 0
970 -54 0
970 -381 0
970 -384 0
971 -96 -970 0
-971 96 0
-971 970 0
-972 100 971 387 0
972 -100 0
972 -971 0
972 -387 0
973 -102 -972 0
-973 102 0
-973 972 0
-974 104 973 0
974 -104 0
974 -973 0
975 -106 -974 0
-975 106 0
-975 974 0
-976 108 975 0
976 -108 0
976 -975 0
977 -110 -976 0
-977 110 0
-977 976 0
-978 6 232 916 0
978 -6 0
978 -232 0
978 -916 0
979 -5 -978 0
-979 5 0
-979 978 0
-980 8 915 1 979 0
980 -8 0
980 -915 0
980 -1 0
980 -979 0
981 -10 -980 0
-981 10 0
-981 980 0
982 -12 -980 0
-982 12 0
-982 980 0
-983 14 982 0
983 -14 0
983 -982 0
984 -16 -983 0
-984 16 0
-984 983 0
-985 18 981 984 0
985 -18 0
985 -981 0
985 -984 0
986 -20 -985 0
-986 20 0
-986 985 0
-987 22 986 0
987 -22 0
987 -986 0
988 -138 -987 0
-988 138 0
-988 987 0
-989 6 232 936 0
989 -6 0
989 -232 0
989 -936 0
990 -5 -989 0
-990 5 0
-990 989 0
-991 8 935 1 990 0
991 -8 0
991 -935 0
991 -1 0
991 -990 0
992 -10 -991 0
-992 10 0
-992 991 0
993 -12 -991 0
-993 12 0
-993 991 0
-994 14 993 0
994 -14 0
994 -993 0
995 -16 -994 0
-995 16 0
-995 994 0
-996 18 992 995 0
996 -18 0
996 -992 0
996 -995 0
997 -20 -996 0
-997 20 0
-997 996 0
-998 22 997 0
998 -22 0
998 -997 0
999 -24 -998 0
-999 24 0
-999 998 0
-1000 26 999 0
1000 -26 0
1000 -999 0
1001 -165 -1000 0
-1001 165 0
-1001 1000 0
-1002 94 182 418 54 419 420 0
1002 -94 0
1002 -182 0
1002 -418 0
1002 -54 0
1002 -419 0
1002 -420 0
1003 -96 -1002 0
-1003 96 0
-1003 1002 0
-1004 100 1003 423 0
1004 -100 0
1004 -1003 0
1004 -423 0
1005 -102 -1004 0
-1005 102 0
-1005 1004 0
-1006 104 1005 0
1006 -104 0
1006 -1005 0
1007 -126 -1006 0
-1007 126 0
-1007 1006 0
-1008 6 232 1007 0
1008 -6 0
1008 -232 0
1008 -1007 0
1009 -223 -1008 0
-1009 223 0
-1009 1008 0
-1010 225 977 988 1001 1009 0
1010 -225 0
1010 -977 0
1010 -988 0
1010 -1001 0
1010 -1009 0
1011 -251 -1010 0
-1011 251 0
-1011 1010 0
-1012 94 54 114 0
1012 -94 0
1012 -54 0
1012 -114 0
1013 -96 -1012 0
-1013 96 0
-1013 1012 0
-1014 100 1013 0
1014 -100 0
1014 -1013 0
1015 -102 -1014 0
-1015 102 0
-1015 1014 0
-1016 104 1015 0
1016 -104 0
1016 -1015 0
1017 -106 -1016 0
-1017 106 0
-1017 1016 0
-1018 108 1017 0
1018 -108 0
1018 -1017 0
1019 -123 -1018 0
-1019 123 0
-1019 1018 0
1020 -110 -934 0
-1020 110 0
-1020 934 0
1021 -223 -989 0
-1021 223 0
-1021 989 0
-1022 225 1020 1021 0
1022 -225 0
1022 -1020 0
1022 -1021 0
1023 -254 -1022 0
-1023 254 0
-1023 1022 0
-1024 225 1020 0
1024 -225 0
1024 -1020 0
1025 -227 -1024 0
-1025 227 0
-1025 1024 0
-1026 229 1025 0
1026 -229 0
1026 -1025 0
1027 -233 -1026 0
-1027 233 0
-1027 1026 0
1028 -126 -1016 0
-1028 126 0
-1028 1016 0
-1029 6 1027 1028 0
1029 -6 0
1029 -1027 0
1029 -1028 0
1030 -5 -1029 0
-1030 5 0
-1030 1029 0
-1031 8 1019 1023 1 1030 0
1031 -8 0
1031 -1019 0
1031 -1023 0
1031 -1 0
1031 -1030 0
1032 -10 -1031 0
-1032 10 0
-1032 1031 0
1033 -12 -1031 0
-1033 12 0
-1033 1031 0
-1034 14 1033 0
1034 -14 0
1034 -1033 0
1035 -16 -1034 0
-1035 16 0
-1035 1034 0
-1036 18 1032 1035 0
1036 -18 0
1036 -1032 0
1036 -1035 0
1037 -20 -1036 0
-1037 20 0
-1037 1036 0
-1038 22 1037 0
1038 -22 0
1038 -1037 0
1039 -24 -1038 0
-1039 24 0
-1039 1038 0
-1040 26 1039 0
1040 -26 0
1040 -1039 0
1041 -28 -1040 0
-1041 28 0
-1041 1040 0
-1042 94 54 0
1042 -94 0
1042 -54 0
1043 -96 -1042 0
-1043 96 0
-1043 1042 0
-1044 100 1043 0
1044 -100 0
1044 -1043 0
1045 -102 -1044 0
-1045 102 0
-1045 1044 0
-1046 104 1045 0
1046 -104 0
1046 -1045 0
1047 -106 -1046 0
-1047 106 0
-1047 1046 0
-1048 108 1047 0
1048 -108 0
1048 -1047 0
1049 -123 -1048 0
-1049 123 0
-1049 1048 0
1050 -110 -1048 0
-1050 110 0
-1050 1048 0
1051 -126 -1046 0
-1051 126 0
-1051 1046 0
-1052 6 232 1051 0
1052 -6 0
1052 -232 0
1052 -1051 0
1053 -223 -1052 0
-1053 223 0
-1053 1052 0
-1054 225 1050 271 1053 0
1054 -225 0
1054 -1050 0
1054 -271 0
1054 -1053 0
1055 -254 -1054 0
-1055 254 0
-1055 1054 0
-1056 225 1050 271 0
1056 -225 0
1056 -1050 0
1056 -271 0
1057 -227 -1056 0
-1057 227 0
-1057 1056 0
-1058 229 1057 0
1058 -229 0
1058 -1057 0
1059 -233 -1058 0
-1059 233 0
-1059 1058 0
-1060 6 1059 1051 0
1060 -6 0
1060 -1059 0
1060 -1051 0
1061 -5 -1060 0
-1061 5 0
-1061 1060 0
-1062 8 1049 1055 1 1061 0
1062 -8 0
1062 -1049 0
1062 -1055 0
1062 -1 0
1062 -1061 0
1063 -10 -1062 0
-1063 10 0
-1063 1062 0
1064 -12 -1062 0
-1064 12 0
-1064 1062 0
-1065 14 1064 0
1065 -14 0
1065 -1064 0
1066 -16 -1065 0
-1066 16 0
-1066 1065 0
-1067 18 1063 1066 0
1067 -18 0
1067 -1063 0
1067 -1066 0
1068 -20 -1067 0
-1068 20 0
-1068 1067 0
-1069 22 1068 0
1069 -22 0
1069 -1068 0
1070 -30 -1069 0
-1070 30 0
-1070 1069 0
-1071 32 1070 0
1071 -32 0
1071 -1070 0
1072 -34 -1071 0
-1072 34 0
-1072 1071 0
-1073 36 1011 1041 1072 0
1073 -36 0
1073 -1011 0
1073 -1041 0
1073 -1072 0
1074 -495 -1073 0
-1074 495 0
-1074 1073 0
-1075 94 557 573 54 592 607 0
1075 -94 0
1075 -557 0
1075 -573 0
1075 -54 0
1075 -592 0
1075 -607 0
1076 -96 -1075 0
-1076 96 0
-1076 1075 0
-1077 100 1076 610 0
1077 -100 0
1077 -1076 0
1077 -610 0
1078 -613 -1077 0
-1078 613 0
-1078 1077 0
-1079 615 969 1074 1078 0
1079 -615 0
1079 -969 0
1079 -1074 0
1079 -1078 0
1080 -617 -1079 0
-1080 617 0
-1080 1079 0
-1081 619 961 1080 0
1081 -619 0
1081 -961 0
1081 -1080 0
1082 -655 -1081 0
-1082 655 0
-1082 1081 0
-1083 92 1082 0
1083 -92 0
1083 -1082 0
1084 -1085 -1083 0
-1084 1085 0
-1084 1083 0
-1086 1087 620 898 1084 0
1086 -1087 0
1086 -620 0
1086 -898 0
1086 -1084 0
1088 -1086 -1089 0
-1088 1086 0
-1088 1089 0
1088 0
