c BC-S1.2
p cnf 1749 5927
1 -2 -3 0
-1 2 0
-1 3 0
4 -5 -6 0
-4 5 0
-4 6 0
-7 8 1 4 0
7 -8 0
7 -1 0
7 -4 0
9 -10 -7 0
-9 10 0
-9 7 0
11 -12 -7 0
-11 12 0
-11 7 0
13 -14 -7 0
-13 14 0
-13 7 0
15 -16 -3 0
-15 16 0
-15 3 0
-17 18 13 15 0
17 -18 0
17 -13 0
17 -15 0
19 -20 -17 0
-19 20 0
-19 17 0
21 -22 -7 0
-21 22 0
-21 7 0
23 -24 -17 0
-23 24 0
-23 17 0
25 -26 -7 0
-25 26 0
-25 7 0
-27 28 25 0
27 -28 0
27 -25 0
29 -30 -27 0
-29 30 0
-29 27 0
-31 32 21 23 29 0
31 -32 0
31 -21 0
31 -23 0
31 -29 0
33 -34 -31 0
-33 34 0
-33 31 0
-35 36 33 0
35 -36 0
35 -33 0
37 -38 -35 0
-37 38 0
-37 35 0
-39 40 19 37 0
39 -40 0
39 -19 0
39 -37 0
41 -42 -39 0
-41 42 0
-41 39 0
43 -44 -7 0
-43 44 0
-43 7 0
45 -46 -27 0
-45 46 0
-45 27 0
47 -48 -6 0
-47 48 0
-47 6 0
-49 50 43 45 47 0
49 -50 0
49 -43 0
49 -45 0
49 -47 0
51 -52 -49 0
-51 52 0
-51 49 0
53 -54 -27 0
-53 54 0
-53 27 0
-55 56 53 0
55 -56 0
55 -53 0
57 -58 -55 0
-57 58 0
-57 55 0
59 -60 -35 0
-59 60 0
-59 35 0
-61 62 11 41 51 57 59 0
61 -62 0
61 -11 0
61 -41 0
61 -51 0
61 -57 0
61 -59 0
63 -64 -61 0
-63 64 0
-63 61 0
-65 40 37 0
65 -40 0
65 -37 0
66 -42 -65 0
-66 42 0
-66 65 0
-67 62 11 66 51 57 59 0
67 -62 0
67 -11 0
67 -66 0
67 -51 0
67 -57 0
67 -59 0
68 -69 -67 0
-68 69 0
-68 67 0
-70 18 13 68 15 0
70 -18 0
70 -13 0
70 -68 0
70 -15 0
71 -72 -70 0
-71 72 0
-71 70 0
73 -74 -7 0
-73 74 0
-73 7 0
-75 76 73 0
75 -76 0
75 -73 0
77 -78 -75 0
-77 78 0
-77 75 0
-79 80 9 63 71 77 0
79 -80 0
79 -9 0
79 -63 0
79 -71 0
79 -77 0
81 -82 -79 0
-81 82 0
-81 79 0
83 -84 -3 0
-83 84 0
-83 3 0
85 -86 -79 0
-85 86 0
-85 79 0
-87 18 15 0
87 -18 0
87 -15 0
88 -20 -87 0
-88 20 0
-88 87 0
89 -24 -87 0
-89 24 0
-89 87 0
-90 32 89 0
90 -32 0
90 -89 0
91 -34 -90 0
-91 34 0
-91 90 0
-92 36 91 0
92 -36 0
92 -91 0
93 -38 -92 0
-93 38 0
-93 92 0
-94 40 88 93 0
94 -40 0
94 -88 0
94 -93 0
95 -42 -94 0
-95 42 0
-95 94 0
-96 50 47 0
96 -50 0
96 -47 0
97 -52 -96 0
-97 52 0
-97 96 0
98 -58 -56 0
-98 58 0
-98 56 0
99 -60 -92 0
-99 60 0
-99 92 0
-100 62 95 97 98 99 0
100 -62 0
100 -95 0
100 -97 0
100 -98 0
100 -99 0
101 -64 -100 0
-101 64 0
-101 100 0
-102 40 93 0
102 -40 0
102 -93 0
103 -42 -102 0
-103 42 0
-103 102 0
-104 62 103 97 98 99 0
104 -62 0
104 -103 0
104 -97 0
104 -98 0
104 -99 0
105 -69 -104 0
-105 69 0
-105 104 0
-106 18 105 15 0
106 -18 0
106 -105 0
106 -15 0
107 -72 -106 0
-107 72 0
-107 106 0
108 -78 -76 0
-108 78 0
-108 76 0
-109 80 101 107 108 0
109 -80 0
109 -101 0
109 -107 0
109 -108 0
110 -111 -109 0
-110 111 0
-110 109 0
-112 6 110 0
112 -6 0
112 -110 0
113 -5 -112 0
-113 5 0
-113 112 0
-114 8 1 113 0
114 -8 0
114 -1 0
114 -113 0
115 -26 -114 0
-115 26 0
-115 114 0
-116 32 21 23 0
116 -32 0
116 -21 0
116 -23 0
117 -34 -116 0
-117 34 0
-117 116 0
-118 36 117 0
118 -36 0
118 -117 0
119 -38 -118 0
-119 38 0
-119 118 0
-120 40 19 119 0
120 -40 0
120 -19 0
120 -119 0
121 -42 -120 0
-121 42 0
-121 120 0
122 -60 -118 0
-122 60 0
-122 118 0
-123 62 11 121 51 57 122 0
123 -62 0
123 -11 0
123 -121 0
123 -51 0
123 -57 0
123 -122 0
124 -64 -123 0
-124 64 0
-124 123 0
-125 40 119 0
125 -40 0
125 -119 0
126 -42 -125 0
-126 42 0
-126 125 0
-127 62 11 126 51 57 122 0
127 -62 0
127 -11 0
127 -126 0
127 -51 0
127 -57 0
127 -122 0
128 -69 -127 0
-128 69 0
-128 127 0
-129 18 13 128 15 0
129 -18 0
129 -13 0
129 -128 0
129 -15 0
130 -72 -129 0
-130 72 0
-130 129 0
-131 80 9 124 130 77 0
131 -80 0
131 -9 0
131 -124 0
131 -130 0
131 -77 0
132 -133 -131 0
-132 133 0
-132 131 0
-134 28 115 132 0
134 -28 0
134 -115 0
134 -132 0
135 -136 -134 0
-135 136 0
-135 134 0
137 -30 -28 0
-137 30 0
-137 28 0
-138 32 89 137 0
138 -32 0
138 -89 0
138 -137 0
139 -34 -138 0
-139 34 0
-139 138 0
-140 36 139 0
140 -36 0
140 -139 0
141 -38 -140 0
-141 38 0
-141 140 0
-142 40 88 141 0
142 -40 0
142 -88 0
142 -141 0
143 -42 -142 0
-143 42 0
-143 142 0
144 -46 -28 0
-144 46 0
-144 28 0
-145 50 144 47 0
145 -50 0
145 -144 0
145 -47 0
146 -52 -145 0
-146 52 0
-146 145 0
147 -54 -28 0
-147 54 0
-147 28 0
-148 56 147 0
148 -56 0
148 -147 0
149 -58 -148 0
-149 58 0
-149 148 0
150 -60 -140 0
-150 60 0
-150 140 0
-151 62 143 146 149 150 0
151 -62 0
151 -143 0
151 -146 0
151 -149 0
151 -150 0
152 -64 -151 0
-152 64 0
-152 151 0
-153 40 141 0
153 -40 0
153 -141 0
154 -42 -153 0
-154 42 0
-154 153 0
-155 62 154 146 149 150 0
155 -62 0
155 -154 0
155 -146 0
155 -149 0
155 -150 0
156 -69 -155 0
-156 69 0
-156 155 0
-157 18 156 15 0
157 -18 0
157 -156 0
157 -15 0
158 -72 -157 0
-158 72 0
-158 157 0
-159 80 152 158 108 0
159 -80 0
159 -152 0
159 -158 0
159 -108 0
160 -111 -159 0
-160 111 0
-160 159 0
-161 6 160 0
161 -6 0
161 -160 0
162 -5 -161 0
-162 5 0
-162 161 0
-163 8 1 162 0
163 -8 0
163 -1 0
163 -162 0
164 -165 -163 0
-164 165 0
-164 163 0
166 -64 -155 0
-166 64 0
-166 155 0
-167 80 166 108 0
167 -80 0
167 -166 0
167 -108 0
168 -111 -167 0
-168 111 0
-168 167 0
-169 6 168 0
169 -6 0
169 -168 0
170 -5 -169 0
-170 5 0
-170 169 0
-171 8 1 170 0
171 -8 0
171 -1 0
171 -170 0
172 -14 -171 0
-172 14 0
-172 171 0
173 -12 -171 0
-173 12 0
-173 171 0
-174 80 108 0
174 -80 0
174 -108 0
175 -111 -174 0
-175 111 0
-175 174 0
-176 6 175 0
176 -6 0
176 -175 0
177 -5 -176 0
-177 5 0
-177 176 0
-178 8 1 177 0
178 -8 0
178 -1 0
178 -177 0
179 -22 -178 0
-179 22 0
-179 178 0
180 -26 -178 0
-180 26 0
-180 178 0
-181 80 9 77 0
181 -80 0
181 -9 0
181 -77 0
182 -133 -181 0
-182 133 0
-182 181 0
-183 28 180 182 0
183 -28 0
183 -180 0
183 -182 0
184 -30 -183 0
-184 30 0
-184 183 0
-185 32 179 184 0
185 -32 0
185 -179 0
185 -184 0
186 -34 -185 0
-186 34 0
-186 185 0
-187 36 186 0
187 -36 0
187 -186 0
188 -38 -187 0
-188 38 0
-188 187 0
-189 40 188 0
189 -40 0
189 -188 0
190 -42 -189 0
-190 42 0
-190 189 0
191 -44 -178 0
-191 44 0
-191 178 0
192 -193 -181 0
-192 193 0
-192 181 0
194 -46 -183 0
-194 46 0
-194 183 0
-195 8 1 0
195 -8 0
195 -1 0
196 -10 -195 0
-196 10 0
-196 195 0
197 -74 -195 0
-197 74 0
-197 195 0
-198 76 197 0
198 -76 0
198 -197 0
199 -78 -198 0
-199 78 0
-199 198 0
-200 80 196 199 0
200 -80 0
200 -196 0
200 -199 0
201 -111 -200 0
-201 111 0
-201 200 0
-202 6 201 0
202 -6 0
202 -201 0
203 -48 -202 0
-203 48 0
-203 202 0
-204 50 191 192 194 203 0
204 -50 0
204 -191 0
204 -192 0
204 -194 0
204 -203 0
205 -52 -204 0
-205 52 0
-205 204 0
206 -54 -183 0
-206 54 0
-206 183 0
-207 56 206 0
207 -56 0
207 -206 0
208 -58 -207 0
-208 58 0
-208 207 0
209 -60 -187 0
-209 60 0
-209 187 0
-210 62 173 190 205 208 209 0
210 -62 0
210 -173 0
210 -190 0
210 -205 0
210 -208 0
210 -209 0
211 -69 -210 0
-211 69 0
-211 210 0
-212 18 172 211 15 0
212 -18 0
212 -172 0
212 -211 0
212 -15 0
213 -214 -212 0
-213 214 0
-213 212 0
-215 216 164 213 0
215 -216 0
215 -164 0
215 -213 0
217 -218 -215 0
-217 218 0
-217 215 0
-219 220 85 135 217 0
219 -220 0
219 -85 0
219 -135 0
219 -217 0
221 -222 -219 0
-221 222 0
-221 219 0
-223 62 95 97 99 0
223 -62 0
223 -95 0
223 -97 0
223 -99 0
224 -64 -223 0
-224 64 0
-224 223 0
-225 62 103 97 99 0
225 -62 0
225 -103 0
225 -97 0
225 -99 0
226 -69 -225 0
-226 69 0
-226 225 0
-227 18 226 15 0
227 -18 0
227 -226 0
227 -15 0
228 -72 -227 0
-228 72 0
-228 227 0
-229 80 224 228 108 0
229 -80 0
229 -224 0
229 -228 0
229 -108 0
230 -111 -229 0
-230 111 0
-230 229 0
-231 6 230 0
231 -6 0
231 -230 0
232 -5 -231 0
-232 5 0
-232 231 0
-233 8 1 232 0
233 -8 0
233 -1 0
233 -232 0
234 -26 -233 0
-234 26 0
-234 233 0
-235 62 11 121 51 122 0
235 -62 0
235 -11 0
235 -121 0
235 -51 0
235 -122 0
236 -64 -235 0
-236 64 0
-236 235 0
-237 62 11 126 51 122 0
237 -62 0
237 -11 0
237 -126 0
237 -51 0
237 -122 0
238 -69 -237 0
-238 69 0
-238 237 0
-239 18 13 238 15 0
239 -18 0
239 -13 0
239 -238 0
239 -15 0
240 -72 -239 0
-240 72 0
-240 239 0
-241 80 9 236 240 77 0
241 -80 0
241 -9 0
241 -236 0
241 -240 0
241 -77 0
242 -133 -241 0
-242 133 0
-242 241 0
-243 28 234 242 0
243 -28 0
243 -234 0
243 -242 0
244 -54 -243 0
-244 54 0
-244 243 0
-245 56 244 0
245 -56 0
245 -244 0
246 -247 -245 0
-246 247 0
-246 245 0
-248 80 152 158 0
248 -80 0
248 -152 0
248 -158 0
249 -111 -248 0
-249 111 0
-249 248 0
-250 6 249 0
250 -6 0
250 -249 0
251 -5 -250 0
-251 5 0
-251 250 0
-252 8 1 251 0
252 -8 0
252 -1 0
252 -251 0
253 -74 -252 0
-253 74 0
-253 252 0
-254 76 253 0
254 -76 0
254 -253 0
255 -256 -254 0
-255 256 0
-255 254 0
-257 258 81 83 221 246 255 0
257 -258 0
257 -81 0
257 -83 0
257 -221 0
257 -246 0
257 -255 0
259 -260 -257 0
-259 260 0
-259 257 0
261 -136 -27 0
-261 136 0
-261 27 0
262 -214 -70 0
-262 214 0
-262 70 0
-263 216 262 0
263 -216 0
263 -262 0
264 -218 -263 0
-264 218 0
-264 263 0
-265 220 261 264 0
265 -220 0
265 -261 0
265 -264 0
266 -222 -265 0
-266 222 0
-266 265 0
267 -247 -55 0
-267 247 0
-267 55 0
268 -256 -75 0
-268 256 0
-268 75 0
-269 258 83 266 267 268 0
269 -258 0
269 -83 0
269 -266 0
269 -267 0
269 -268 0
270 -271 -269 0
-270 271 0
-270 269 0
272 -136 -28 0
-272 136 0
-272 28 0
273 -214 -157 0
-273 214 0
-273 157 0
-274 216 273 0
274 -216 0
274 -273 0
275 -218 -274 0
-275 218 0
-275 274 0
-276 220 272 275 0
276 -220 0
276 -272 0
276 -275 0
277 -222 -276 0
-277 222 0
-277 276 0
278 -247 -148 0
-278 247 0
-278 148 0
279 -256 -76 0
-279 256 0
-279 76 0
-280 258 83 277 278 279 0
280 -258 0
280 -83 0
280 -277 0
280 -278 0
280 -279 0
281 -282 -280 0
-281 282 0
-281 280 0
-283 6 281 0
283 -6 0
283 -281 0
284 -5 -283 0
-284 5 0
-284 283 0
-285 8 270 1 284 0
285 -8 0
285 -270 0
285 -1 0
285 -284 0
286 -10 -285 0
-286 10 0
-286 285 0
287 -214 -17 0
-287 214 0
-287 17 0
-288 216 287 0
288 -216 0
288 -287 0
289 -218 -288 0
-289 218 0
-289 288 0
-290 220 261 289 0
290 -220 0
290 -261 0
290 -289 0
291 -222 -290 0
-291 222 0
-291 290 0
-292 258 83 291 267 268 0
292 -258 0
292 -83 0
292 -291 0
292 -267 0
292 -268 0
293 -271 -292 0
-293 271 0
-293 292 0
294 -214 -87 0
-294 214 0
-294 87 0
-295 216 294 0
295 -216 0
295 -294 0
296 -218 -295 0
-296 218 0
-296 295 0
-297 220 272 296 0
297 -220 0
297 -272 0
297 -296 0
298 -222 -297 0
-298 222 0
-298 297 0
-299 258 83 298 278 279 0
299 -258 0
299 -83 0
299 -298 0
299 -278 0
299 -279 0
300 -282 -299 0
-300 282 0
-300 299 0
-301 6 300 0
301 -6 0
301 -300 0
302 -5 -301 0
-302 5 0
-302 301 0
-303 8 293 1 302 0
303 -8 0
303 -293 0
303 -1 0
303 -302 0
304 -12 -303 0
-304 12 0
-304 303 0
305 -165 -7 0
-305 165 0
-305 7 0
-306 216 305 287 0
306 -216 0
306 -305 0
306 -287 0
307 -218 -306 0
-307 218 0
-307 306 0
-308 220 261 307 0
308 -220 0
308 -261 0
308 -307 0
309 -222 -308 0
-309 222 0
-309 308 0
-310 258 83 309 267 268 0
310 -258 0
310 -83 0
310 -309 0
310 -267 0
310 -268 0
311 -312 -310 0
-311 312 0
-311 310 0
313 -314 -310 0
-313 314 0
-313 310 0
315 -271 -299 0
-315 271 0
-315 299 0
-316 8 315 1 302 0
316 -8 0
316 -315 0
316 -1 0
316 -302 0
317 -14 -316 0
-317 14 0
-317 316 0
-318 18 313 317 15 0
318 -18 0
318 -313 0
318 -317 0
318 -15 0
319 -20 -318 0
-319 20 0
-319 318 0
320 -22 -303 0
-320 22 0
-320 303 0
321 -24 -318 0
-321 24 0
-321 318 0
322 -26 -316 0
-322 26 0
-322 316 0
-323 28 322 0
323 -28 0
323 -322 0
324 -30 -323 0
-324 30 0
-324 323 0
-325 32 320 321 324 0
325 -32 0
325 -320 0
325 -321 0
325 -324 0
326 -34 -325 0
-326 34 0
-326 325 0
-327 36 326 0
327 -36 0
327 -326 0
328 -38 -327 0
-328 38 0
-328 327 0
-329 40 311 319 328 0
329 -40 0
329 -311 0
329 -319 0
329 -328 0
330 -42 -329 0
-330 42 0
-330 329 0
331 -44 -303 0
-331 44 0
-331 303 0
332 -46 -323 0
-332 46 0
-332 323 0
333 -26 -195 0
-333 26 0
-333 195 0
-334 28 333 0
334 -28 0
334 -333 0
335 -136 -334 0
-335 136 0
-335 334 0
336 -165 -195 0
-336 165 0
-336 195 0
337 -14 -195 0
-337 14 0
-337 195 0
-338 18 337 15 0
338 -18 0
338 -337 0
338 -15 0
339 -214 -338 0
-339 214 0
-339 338 0
-340 216 336 339 0
340 -216 0
340 -336 0
340 -339 0
341 -218 -340 0
-341 218 0
-341 340 0
-342 220 335 341 0
342 -220 0
342 -335 0
342 -341 0
343 -222 -342 0
-343 222 0
-343 342 0
344 -54 -334 0
-344 54 0
-344 334 0
-345 56 344 0
345 -56 0
345 -344 0
346 -247 -345 0
-346 247 0
-346 345 0
347 -256 -198 0
-347 256 0
-347 198 0
-348 258 83 343 346 347 0
348 -258 0
348 -83 0
348 -343 0
348 -346 0
348 -347 0
349 -282 -348 0
-349 282 0
-349 348 0
-350 6 349 0
350 -6 0
350 -349 0
351 -48 -350 0
-351 48 0
-351 350 0
-352 50 331 332 351 0
352 -50 0
352 -331 0
352 -332 0
352 -351 0
353 -52 -352 0
-353 52 0
-353 352 0
-354 258 83 298 268 0
354 -258 0
354 -83 0
354 -298 0
354 -268 0
355 -271 -354 0
-355 271 0
-355 354 0
-356 258 83 298 279 0
356 -258 0
356 -83 0
356 -298 0
356 -279 0
357 -282 -356 0
-357 282 0
-357 356 0
-358 6 357 0
358 -6 0
358 -357 0
359 -5 -358 0
-359 5 0
-359 358 0
-360 8 355 1 359 0
360 -8 0
360 -355 0
360 -1 0
360 -359 0
361 -26 -360 0
-361 26 0
-361 360 0
-362 28 361 0
362 -28 0
362 -361 0
363 -54 -362 0
-363 54 0
-363 362 0
-364 56 363 0
364 -56 0
364 -363 0
365 -58 -364 0
-365 58 0
-365 364 0
366 -60 -327 0
-366 60 0
-366 327 0
-367 62 304 330 353 365 366 0
367 -62 0
367 -304 0
367 -330 0
367 -353 0
367 -365 0
367 -366 0
368 -64 -367 0
-368 64 0
-368 367 0
-369 216 305 0
369 -216 0
369 -305 0
370 -218 -369 0
-370 218 0
-370 369 0
-371 220 261 370 0
371 -220 0
371 -261 0
371 -370 0
372 -222 -371 0
-372 222 0
-372 371 0
-373 258 83 372 267 268 0
373 -258 0
373 -83 0
373 -372 0
373 -267 0
373 -268 0
374 -314 -373 0
-374 314 0
-374 373 0
375 -271 -373 0
-375 271 0
-375 373 0
376 -218 -216 0
-376 218 0
-376 216 0
-377 220 272 376 0
377 -220 0
377 -272 0
377 -376 0
378 -222 -377 0
-378 222 0
-378 377 0
-379 258 83 378 278 279 0
379 -258 0
379 -83 0
379 -378 0
379 -278 0
379 -279 0
380 -282 -379 0
-380 282 0
-380 379 0
-381 6 380 0
381 -6 0
381 -380 0
382 -5 -381 0
-382 5 0
-382 381 0
-383 8 375 1 382 0
383 -8 0
383 -375 0
383 -1 0
383 -382 0
384 -14 -383 0
-384 14 0
-384 383 0
-385 8 293 1 382 0
385 -8 0
385 -293 0
385 -1 0
385 -382 0
386 -12 -385 0
-386 12 0
-386 385 0
387 -22 -385 0
-387 22 0
-387 385 0
-388 8 315 1 382 0
388 -8 0
388 -315 0
388 -1 0
388 -382 0
389 -26 -388 0
-389 26 0
-389 388 0
-390 28 389 0
390 -28 0
390 -389 0
391 -30 -390 0
-391 30 0
-391 390 0
-392 32 387 391 0
392 -32 0
392 -387 0
392 -391 0
393 -34 -392 0
-393 34 0
-393 392 0
-394 36 393 0
394 -36 0
394 -393 0
395 -38 -394 0
-395 38 0
-395 394 0
-396 40 311 395 0
396 -40 0
396 -311 0
396 -395 0
397 -42 -396 0
-397 42 0
-397 396 0
398 -44 -385 0
-398 44 0
-398 385 0
399 -46 -390 0
-399 46 0
-399 390 0
-400 216 336 0
400 -216 0
400 -336 0
401 -218 -400 0
-401 218 0
-401 400 0
-402 220 335 401 0
402 -220 0
402 -335 0
402 -401 0
403 -222 -402 0
-403 222 0
-403 402 0
-404 258 83 403 346 347 0
404 -258 0
404 -83 0
404 -403 0
404 -346 0
404 -347 0
405 -282 -404 0
-405 282 0
-405 404 0
-406 6 405 0
406 -6 0
406 -405 0
407 -48 -406 0
-407 48 0
-407 406 0
-408 50 398 399 407 0
408 -50 0
408 -398 0
408 -399 0
408 -407 0
409 -52 -408 0
-409 52 0
-409 408 0
410 -60 -394 0
-410 60 0
-410 394 0
-411 62 386 397 409 365 410 0
411 -62 0
411 -386 0
411 -397 0
411 -409 0
411 -365 0
411 -410 0
412 -69 -411 0
-412 69 0
-412 411 0
-413 18 374 384 412 15 0
413 -18 0
413 -374 0
413 -384 0
413 -412 0
413 -15 0
414 -72 -413 0
-414 72 0
-414 413 0
-415 258 83 266 267 279 0
415 -258 0
415 -83 0
415 -266 0
415 -267 0
415 -279 0
416 -271 -415 0
-416 271 0
-416 415 0
-417 8 416 1 284 0
417 -8 0
417 -416 0
417 -1 0
417 -284 0
418 -74 -417 0
-418 74 0
-418 417 0
-419 76 418 0
419 -76 0
419 -418 0
420 -78 -419 0
-420 78 0
-420 419 0
-421 80 286 368 414 420 0
421 -80 0
421 -286 0
421 -368 0
421 -414 0
421 -420 0
422 -423 -421 0
-422 423 0
-422 421 0
-424 18 13 105 15 0
424 -18 0
424 -13 0
424 -105 0
424 -15 0
425 -72 -424 0
-425 72 0
-425 424 0
-426 80 101 425 77 0
426 -80 0
426 -101 0
426 -425 0
426 -77 0
427 -82 -426 0
-427 82 0
-427 426 0
428 -86 -426 0
-428 86 0
-428 426 0
429 -193 -174 0
-429 193 0
-429 174 0
430 -48 -176 0
-430 48 0
-430 176 0
-431 50 429 430 0
431 -50 0
431 -429 0
431 -430 0
432 -52 -431 0
-432 52 0
-432 431 0
-433 62 103 432 98 99 0
433 -62 0
433 -103 0
433 -432 0
433 -98 0
433 -99 0
434 -69 -433 0
-434 69 0
-434 433 0
-435 18 434 15 0
435 -18 0
435 -434 0
435 -15 0
436 -214 -435 0
-436 214 0
-436 435 0
-437 216 436 0
437 -216 0
437 -436 0
438 -218 -437 0
-438 218 0
-438 437 0
-439 220 428 438 0
439 -220 0
439 -428 0
439 -438 0
440 -222 -439 0
-440 222 0
-440 439 0
441 -247 -56 0
-441 247 0
-441 56 0
-442 258 427 83 440 441 279 0
442 -258 0
442 -427 0
442 -83 0
442 -440 0
442 -441 0
442 -279 0
443 -271 -442 0
-443 271 0
-443 442 0
444 -82 -109 0
-444 82 0
-444 109 0
445 -86 -109 0
-445 86 0
-445 109 0
-446 220 445 438 0
446 -220 0
446 -445 0
446 -438 0
447 -222 -446 0
-447 222 0
-447 446 0
-448 258 444 83 447 441 279 0
448 -258 0
448 -444 0
448 -83 0
448 -447 0
448 -441 0
448 -279 0
449 -282 -448 0
-449 282 0
-449 448 0
450 -312 -299 0
-450 312 0
-450 299 0
451 -314 -299 0
-451 314 0
-451 299 0
-452 18 451 15 0
452 -18 0
452 -451 0
452 -15 0
453 -20 -452 0
-453 20 0
-453 452 0
454 -24 -452 0
-454 24 0
-454 452 0
-455 32 454 0
455 -32 0
455 -454 0
456 -34 -455 0
-456 34 0
-456 455 0
-457 36 456 0
457 -36 0
457 -456 0
458 -38 -457 0
-458 38 0
-458 457 0
-459 40 450 453 458 0
459 -40 0
459 -450 0
459 -453 0
459 -458 0
460 -42 -459 0
-460 42 0
-460 459 0
461 -52 -50 0
-461 52 0
-461 50 0
462 -60 -457 0
-462 60 0
-462 457 0
-463 62 460 461 98 462 0
463 -62 0
463 -460 0
463 -461 0
463 -98 0
463 -462 0
464 -64 -463 0
-464 64 0
-464 463 0
465 -314 -379 0
-465 314 0
-465 379 0
466 -34 -32 0
-466 34 0
-466 32 0
-467 36 466 0
467 -36 0
467 -466 0
468 -38 -467 0
-468 38 0
-468 467 0
-469 40 450 468 0
469 -40 0
469 -450 0
469 -468 0
470 -42 -469 0
-470 42 0
-470 469 0
471 -60 -467 0
-471 60 0
-471 467 0
-472 62 470 461 98 471 0
472 -62 0
472 -470 0
472 -461 0
472 -98 0
472 -471 0
473 -69 -472 0
-473 69 0
-473 472 0
-474 18 465 473 15 0
474 -18 0
474 -465 0
474 -473 0
474 -15 0
475 -72 -474 0
-475 72 0
-475 474 0
-476 80 464 475 108 0
476 -80 0
476 -464 0
476 -475 0
476 -108 0
477 -111 -476 0
-477 111 0
-477 476 0
-478 6 449 477 0
478 -6 0
478 -449 0
478 -477 0
479 -5 -478 0
-479 5 0
-479 478 0
-480 8 443 1 479 0
480 -8 0
480 -443 0
480 -1 0
480 -479 0
481 -26 -480 0
-481 26 0
-481 480 0
482 -214 -424 0
-482 214 0
-482 424 0
-483 216 482 0
483 -216 0
483 -482 0
484 -218 -483 0
-484 218 0
-484 483 0
-485 220 261 484 0
485 -220 0
485 -261 0
485 -484 0
486 -222 -485 0
-486 222 0
-486 485 0
-487 258 83 486 267 268 0
487 -258 0
487 -83 0
487 -486 0
487 -267 0
487 -268 0
488 -271 -487 0
-488 271 0
-488 487 0
489 -214 -106 0
-489 214 0
-489 106 0
-490 216 489 0
490 -216 0
490 -489 0
491 -218 -490 0
-491 218 0
-491 490 0
-492 220 272 491 0
492 -220 0
492 -272 0
492 -491 0
493 -222 -492 0
-493 222 0
-493 492 0
-494 258 83 493 278 279 0
494 -258 0
494 -83 0
494 -493 0
494 -278 0
494 -279 0
495 -282 -494 0
-495 282 0
-495 494 0
-496 6 495 0
496 -6 0
496 -495 0
497 -5 -496 0
-497 5 0
-497 496 0
-498 8 488 1 497 0
498 -8 0
498 -488 0
498 -1 0
498 -497 0
499 -10 -498 0
-499 10 0
-499 498 0
500 -14 -388 0
-500 14 0
-500 388 0
-501 18 313 500 15 0
501 -18 0
501 -313 0
501 -500 0
501 -15 0
502 -20 -501 0
-502 20 0
-502 501 0
503 -24 -501 0
-503 24 0
-503 501 0
-504 32 320 503 0
504 -32 0
504 -320 0
504 -503 0
505 -34 -504 0
-505 34 0
-505 504 0
-506 36 505 0
506 -36 0
506 -505 0
507 -38 -506 0
-507 38 0
-507 506 0
-508 40 311 502 507 0
508 -40 0
508 -311 0
508 -502 0
508 -507 0
509 -42 -508 0
-509 42 0
-509 508 0
-510 220 341 0
510 -220 0
510 -341 0
511 -222 -510 0
-511 222 0
-511 510 0
-512 258 83 511 346 347 0
512 -258 0
512 -83 0
512 -511 0
512 -346 0
512 -347 0
513 -282 -512 0
-513 282 0
-513 512 0
-514 6 513 0
514 -6 0
514 -513 0
515 -48 -514 0
-515 48 0
-515 514 0
-516 50 331 515 0
516 -50 0
516 -331 0
516 -515 0
517 -52 -516 0
-517 52 0
-517 516 0
518 -60 -506 0
-518 60 0
-518 506 0
-519 62 304 509 517 98 518 0
519 -62 0
519 -304 0
519 -509 0
519 -517 0
519 -98 0
519 -518 0
520 -64 -519 0
-520 64 0
-520 519 0
-521 32 387 0
521 -32 0
521 -387 0
522 -34 -521 0
-522 34 0
-522 521 0
-523 36 522 0
523 -36 0
523 -522 0
524 -38 -523 0
-524 38 0
-524 523 0
-525 40 311 524 0
525 -40 0
525 -311 0
525 -524 0
526 -42 -525 0
-526 42 0
-526 525 0
-527 220 401 0
527 -220 0
527 -401 0
528 -222 -527 0
-528 222 0
-528 527 0
-529 258 83 528 346 347 0
529 -258 0
529 -83 0
529 -528 0
529 -346 0
529 -347 0
530 -282 -529 0
-530 282 0
-530 529 0
-531 6 530 0
531 -6 0
531 -530 0
532 -48 -531 0
-532 48 0
-532 531 0
-533 50 398 532 0
533 -50 0
533 -398 0
533 -532 0
534 -52 -533 0
-534 52 0
-534 533 0
535 -60 -523 0
-535 60 0
-535 523 0
-536 62 386 526 534 98 535 0
536 -62 0
536 -386 0
536 -526 0
536 -534 0
536 -98 0
536 -535 0
537 -69 -536 0
-537 69 0
-537 536 0
-538 18 374 384 537 15 0
538 -18 0
538 -374 0
538 -384 0
538 -537 0
538 -15 0
539 -72 -538 0
-539 72 0
-539 538 0
-540 258 83 486 267 279 0
540 -258 0
540 -83 0
540 -486 0
540 -267 0
540 -279 0
541 -271 -540 0
-541 271 0
-541 540 0
-542 8 541 1 497 0
542 -8 0
542 -541 0
542 -1 0
542 -497 0
543 -74 -542 0
-543 74 0
-543 542 0
-544 76 543 0
544 -76 0
544 -543 0
545 -78 -544 0
-545 78 0
-545 544 0
-546 80 499 520 539 545 0
546 -80 0
546 -499 0
546 -520 0
546 -539 0
546 -545 0
547 -133 -546 0
-547 133 0
-547 546 0
-548 28 481 547 0
548 -28 0
548 -481 0
548 -547 0
549 -550 -548 0
-549 550 0
-549 548 0
-551 552 259 422 549 0
551 -552 0
551 -259 0
551 -422 0
551 -549 0
553 -554 -551 0
-553 554 0
-553 551 0
-555 8 4 0
555 -8 0
555 -4 0
556 -10 -555 0
-556 10 0
-556 555 0
557 -12 -555 0
-557 12 0
-557 555 0
558 -14 -555 0
-558 14 0
-558 555 0
-559 18 558 15 0
559 -18 0
559 -558 0
559 -15 0
560 -20 -559 0
-560 20 0
-560 559 0
561 -22 -555 0
-561 22 0
-561 555 0
562 -24 -559 0
-562 24 0
-562 559 0
563 -26 -555 0
-563 26 0
-563 555 0
-564 28 563 0
564 -28 0
564 -563 0
565 -30 -564 0
-565 30 0
-565 564 0
-566 32 561 562 565 0
566 -32 0
566 -561 0
566 -562 0
566 -565 0
567 -34 -566 0
-567 34 0
-567 566 0
-568 36 567 0
568 -36 0
568 -567 0
569 -38 -568 0
-569 38 0
-569 568 0
-570 40 560 569 0
570 -40 0
570 -560 0
570 -569 0
571 -42 -570 0
-571 42 0
-571 570 0
572 -44 -555 0
-572 44 0
-572 555 0
573 -46 -564 0
-573 46 0
-573 564 0
-574 50 572 573 47 0
574 -50 0
574 -572 0
574 -573 0
574 -47 0
575 -52 -574 0
-575 52 0
-575 574 0
576 -54 -564 0
-576 54 0
-576 564 0
-577 56 576 0
577 -56 0
577 -576 0
578 -58 -577 0
-578 58 0
-578 577 0
579 -60 -568 0
-579 60 0
-579 568 0
-580 62 557 571 575 578 579 0
580 -62 0
580 -557 0
580 -571 0
580 -575 0
580 -578 0
580 -579 0
581 -64 -580 0
-581 64 0
-581 580 0
-582 40 569 0
582 -40 0
582 -569 0
583 -42 -582 0
-583 42 0
-583 582 0
-584 62 557 583 575 578 579 0
584 -62 0
584 -557 0
584 -583 0
584 -575 0
584 -578 0
584 -579 0
585 -69 -584 0
-585 69 0
-585 584 0
-586 18 558 585 15 0
586 -18 0
586 -558 0
586 -585 0
586 -15 0
587 -72 -586 0
-587 72 0
-587 586 0
588 -74 -555 0
-588 74 0
-588 555 0
-589 76 588 0
589 -76 0
589 -588 0
590 -78 -589 0
-590 78 0
-590 589 0
-591 80 556 581 587 590 0
591 -80 0
591 -556 0
591 -581 0
591 -587 0
591 -590 0
592 -82 -591 0
-592 82 0
-592 591 0
593 -86 -591 0
-593 86 0
-593 591 0
-594 8 113 0
594 -8 0
594 -113 0
595 -26 -594 0
-595 26 0
-595 594 0
-596 32 561 562 0
596 -32 0
596 -561 0
596 -562 0
597 -34 -596 0
-597 34 0
-597 596 0
-598 36 597 0
598 -36 0
598 -597 0
599 -38 -598 0
-599 38 0
-599 598 0
-600 40 560 599 0
600 -40 0
600 -560 0
600 -599 0
601 -42 -600 0
-601 42 0
-601 600 0
602 -60 -598 0
-602 60 0
-602 598 0
-603 62 557 601 575 98 602 0
603 -62 0
603 -557 0
603 -601 0
603 -575 0
603 -98 0
603 -602 0
604 -64 -603 0
-604 64 0
-604 603 0
-605 40 599 0
605 -40 0
605 -599 0
606 -42 -605 0
-606 42 0
-606 605 0
-607 62 557 606 575 98 602 0
607 -62 0
607 -557 0
607 -606 0
607 -575 0
607 -98 0
607 -602 0
608 -69 -607 0
-608 69 0
-608 607 0
-609 18 558 608 15 0
609 -18 0
609 -558 0
609 -608 0
609 -15 0
610 -72 -609 0
-610 72 0
-610 609 0
-611 80 556 604 610 590 0
611 -80 0
611 -556 0
611 -604 0
611 -610 0
611 -590 0
612 -133 -611 0
-612 133 0
-612 611 0
-613 28 595 612 0
613 -28 0
613 -595 0
613 -612 0
614 -136 -613 0
-614 136 0
-614 613 0
-615 8 162 0
615 -8 0
615 -162 0
616 -165 -615 0
-616 165 0
-616 615 0
-617 8 170 0
617 -8 0
617 -170 0
618 -14 -617 0
-618 14 0
-618 617 0
-619 8 177 0
619 -8 0
619 -177 0
620 -12 -619 0
-620 12 0
-620 619 0
621 -22 -619 0
-621 22 0
-621 619 0
622 -26 -619 0
-622 26 0
-622 619 0
-623 80 556 590 0
623 -80 0
623 -556 0
623 -590 0
624 -133 -623 0
-624 133 0
-624 623 0
-625 28 622 624 0
625 -28 0
625 -622 0
625 -624 0
626 -30 -625 0
-626 30 0
-626 625 0
-627 32 621 626 0
627 -32 0
627 -621 0
627 -626 0
628 -34 -627 0
-628 34 0
-628 627 0
-629 36 628 0
629 -36 0
629 -628 0
630 -38 -629 0
-630 38 0
-630 629 0
-631 40 630 0
631 -40 0
631 -630 0
632 -42 -631 0
-632 42 0
-632 631 0
633 -44 -619 0
-633 44 0
-633 619 0
634 -193 -623 0
-634 193 0
-634 623 0
635 -46 -625 0
-635 46 0
-635 625 0
636 -10 -8 0
-636 10 0
-636 8 0
637 -74 -8 0
-637 74 0
-637 8 0
-638 76 637 0
638 -76 0
638 -637 0
639 -78 -638 0
-639 78 0
-639 638 0
-640 80 636 639 0
640 -80 0
640 -636 0
640 -639 0
641 -111 -640 0
-641 111 0
-641 640 0
-642 6 641 0
642 -6 0
642 -641 0
643 -48 -642 0
-643 48 0
-643 642 0
-644 50 633 634 635 643 0
644 -50 0
644 -633 0
644 -634 0
644 -635 0
644 -643 0
645 -52 -644 0
-645 52 0
-645 644 0
646 -54 -625 0
-646 54 0
-646 625 0
-647 56 646 0
647 -56 0
647 -646 0
648 -58 -647 0
-648 58 0
-648 647 0
649 -60 -629 0
-649 60 0
-649 629 0
-650 62 620 632 645 648 649 0
650 -62 0
650 -620 0
650 -632 0
650 -645 0
650 -648 0
650 -649 0
651 -69 -650 0
-651 69 0
-651 650 0
-652 18 618 651 15 0
652 -18 0
652 -618 0
652 -651 0
652 -15 0
653 -214 -652 0
-653 214 0
-653 652 0
-654 216 616 653 0
654 -216 0
654 -616 0
654 -653 0
655 -218 -654 0
-655 218 0
-655 654 0
-656 220 593 614 655 0
656 -220 0
656 -593 0
656 -614 0
656 -655 0
657 -222 -656 0
-657 222 0
-657 656 0
-658 8 232 0
658 -8 0
658 -232 0
659 -26 -658 0
-659 26 0
-659 658 0
-660 62 557 601 575 602 0
660 -62 0
660 -557 0
660 -601 0
660 -575 0
660 -602 0
661 -64 -660 0
-661 64 0
-661 660 0
-662 62 557 606 575 602 0
662 -62 0
662 -557 0
662 -606 0
662 -575 0
662 -602 0
663 -69 -662 0
-663 69 0
-663 662 0
-664 18 558 663 15 0
664 -18 0
664 -558 0
664 -663 0
664 -15 0
665 -72 -664 0
-665 72 0
-665 664 0
-666 80 556 661 665 590 0
666 -80 0
666 -556 0
666 -661 0
666 -665 0
666 -590 0
667 -133 -666 0
-667 133 0
-667 666 0
-668 28 659 667 0
668 -28 0
668 -659 0
668 -667 0
669 -54 -668 0
-669 54 0
-669 668 0
-670 56 669 0
670 -56 0
670 -669 0
671 -247 -670 0
-671 247 0
-671 670 0
-672 8 251 0
672 -8 0
672 -251 0
673 -74 -672 0
-673 74 0
-673 672 0
-674 76 673 0
674 -76 0
674 -673 0
675 -256 -674 0
-675 256 0
-675 674 0
-676 258 592 83 657 671 675 0
676 -258 0
676 -592 0
676 -83 0
676 -657 0
676 -671 0
676 -675 0
677 -260 -676 0
-677 260 0
-677 676 0
678 -271 -280 0
-678 271 0
-678 280 0
-679 8 678 284 0
679 -8 0
679 -678 0
679 -284 0
680 -10 -679 0
-680 10 0
-680 679 0
-681 8 315 302 0
681 -8 0
681 -315 0
681 -302 0
682 -12 -681 0
-682 12 0
-682 681 0
683 -136 -564 0
-683 136 0
-683 564 0
684 -165 -555 0
-684 165 0
-684 555 0
685 -214 -559 0
-685 214 0
-685 559 0
-686 216 684 685 0
686 -216 0
686 -684 0
686 -685 0
687 -218 -686 0
-687 218 0
-687 686 0
-688 220 683 687 0
688 -220 0
688 -683 0
688 -687 0
689 -222 -688 0
-689 222 0
-689 688 0
690 -247 -577 0
-690 247 0
-690 577 0
691 -256 -589 0
-691 256 0
-691 589 0
-692 258 83 689 690 691 0
692 -258 0
692 -83 0
692 -689 0
692 -690 0
692 -691 0
693 -312 -692 0
-693 312 0
-693 692 0
694 -314 -692 0
-694 314 0
-694 692 0
-695 8 315 382 0
695 -8 0
695 -315 0
695 -382 0
696 -14 -695 0
-696 14 0
-696 695 0
-697 18 694 696 15 0
697 -18 0
697 -694 0
697 -696 0
697 -15 0
698 -20 -697 0
-698 20 0
-698 697 0
699 -22 -681 0
-699 22 0
-699 681 0
700 -24 -697 0
-700 24 0
-700 697 0
701 -26 -681 0
-701 26 0
-701 681 0
-702 28 701 0
702 -28 0
702 -701 0
703 -30 -702 0
-703 30 0
-703 702 0
-704 32 699 700 703 0
704 -32 0
704 -699 0
704 -700 0
704 -703 0
705 -34 -704 0
-705 34 0
-705 704 0
-706 36 705 0
706 -36 0
706 -705 0
707 -38 -706 0
-707 38 0
-707 706 0
-708 40 693 698 707 0
708 -40 0
708 -693 0
708 -698 0
708 -707 0
709 -42 -708 0
-709 42 0
-709 708 0
710 -44 -681 0
-710 44 0
-710 681 0
711 -46 -702 0
-711 46 0
-711 702 0
712 -26 -8 0
-712 26 0
-712 8 0
-713 28 712 0
713 -28 0
713 -712 0
714 -136 -713 0
-714 136 0
-714 713 0
715 -165 -8 0
-715 165 0
-715 8 0
716 -14 -8 0
-716 14 0
-716 8 0
-717 18 716 15 0
717 -18 0
717 -716 0
717 -15 0
718 -214 -717 0
-718 214 0
-718 717 0
-719 216 715 718 0
719 -216 0
719 -715 0
719 -718 0
720 -218 -719 0
-720 218 0
-720 719 0
-721 220 714 720 0
721 -220 0
721 -714 0
721 -720 0
722 -222 -721 0
-722 222 0
-722 721 0
723 -54 -713 0
-723 54 0
-723 713 0
-724 56 723 0
724 -56 0
724 -723 0
725 -247 -724 0
-725 247 0
-725 724 0
726 -256 -638 0
-726 256 0
-726 638 0
-727 258 83 722 725 726 0
727 -258 0
727 -83 0
727 -722 0
727 -725 0
727 -726 0
728 -282 -727 0
-728 282 0
-728 727 0
-729 6 728 0
729 -6 0
729 -728 0
730 -48 -729 0
-730 48 0
-730 729 0
-731 50 710 711 730 0
731 -50 0
731 -710 0
731 -711 0
731 -730 0
732 -52 -731 0
-732 52 0
-732 731 0
733 -271 -356 0
-733 271 0
-733 356 0
-734 8 733 359 0
734 -8 0
734 -733 0
734 -359 0
735 -26 -734 0
-735 26 0
-735 734 0
-736 28 735 0
736 -28 0
736 -735 0
737 -54 -736 0
-737 54 0
-737 736 0
-738 56 737 0
738 -56 0
738 -737 0
739 -58 -738 0
-739 58 0
-739 738 0
740 -60 -706 0
-740 60 0
-740 706 0
-741 62 682 709 732 739 740 0
741 -62 0
741 -682 0
741 -709 0
741 -732 0
741 -739 0
741 -740 0
742 -64 -741 0
-742 64 0
-742 741 0
-743 216 684 0
743 -216 0
743 -684 0
744 -218 -743 0
-744 218 0
-744 743 0
-745 220 683 744 0
745 -220 0
745 -683 0
745 -744 0
746 -222 -745 0
-746 222 0
-746 745 0
-747 258 83 746 690 691 0
747 -258 0
747 -83 0
747 -746 0
747 -690 0
747 -691 0
748 -314 -747 0
-748 314 0
-748 747 0
749 -271 -379 0
-749 271 0
-749 379 0
-750 8 749 382 0
750 -8 0
750 -749 0
750 -382 0
751 -14 -750 0
-751 14 0
-751 750 0
752 -12 -750 0
-752 12 0
-752 750 0
753 -22 -750 0
-753 22 0
-753 750 0
754 -26 -750 0
-754 26 0
-754 750 0
-755 28 754 0
755 -28 0
755 -754 0
756 -30 -755 0
-756 30 0
-756 755 0
-757 32 753 756 0
757 -32 0
757 -753 0
757 -756 0
758 -34 -757 0
-758 34 0
-758 757 0
-759 36 758 0
759 -36 0
759 -758 0
760 -38 -759 0
-760 38 0
-760 759 0
-761 40 693 760 0
761 -40 0
761 -693 0
761 -760 0
762 -42 -761 0
-762 42 0
-762 761 0
763 -44 -750 0
-763 44 0
-763 750 0
764 -46 -755 0
-764 46 0
-764 755 0
-765 216 715 0
765 -216 0
765 -715 0
766 -218 -765 0
-766 218 0
-766 765 0
-767 220 714 766 0
767 -220 0
767 -714 0
767 -766 0
768 -222 -767 0
-768 222 0
-768 767 0
-769 258 83 768 725 726 0
769 -258 0
769 -83 0
769 -768 0
769 -725 0
769 -726 0
770 -282 -769 0
-770 282 0
-770 769 0
-771 6 770 0
771 -6 0
771 -770 0
772 -48 -771 0
-772 48 0
-772 771 0
-773 50 763 764 772 0
773 -50 0
773 -763 0
773 -764 0
773 -772 0
774 -52 -773 0
-774 52 0
-774 773 0
775 -60 -759 0
-775 60 0
-775 759 0
-776 62 752 762 774 739 775 0
776 -62 0
776 -752 0
776 -762 0
776 -774 0
776 -739 0
776 -775 0
777 -69 -776 0
-777 69 0
-777 776 0
-778 18 748 751 777 15 0
778 -18 0
778 -748 0
778 -751 0
778 -777 0
778 -15 0
779 -72 -778 0
-779 72 0
-779 778 0
780 -74 -679 0
-780 74 0
-780 679 0
-781 76 780 0
781 -76 0
781 -780 0
782 -78 -781 0
-782 78 0
-782 781 0
-783 80 680 742 779 782 0
783 -80 0
783 -680 0
783 -742 0
783 -779 0
783 -782 0
784 -423 -783 0
-784 423 0
-784 783 0
785 -271 -448 0
-785 271 0
-785 448 0
-786 18 465 15 0
786 -18 0
786 -465 0
786 -15 0
787 -20 -786 0
-787 20 0
-787 786 0
788 -24 -786 0
-788 24 0
-788 786 0
-789 32 788 0
789 -32 0
789 -788 0
790 -34 -789 0
-790 34 0
-790 789 0
-791 36 790 0
791 -36 0
791 -790 0
792 -38 -791 0
-792 38 0
-792 791 0
-793 40 450 787 792 0
793 -40 0
793 -450 0
793 -787 0
793 -792 0
794 -42 -793 0
-794 42 0
-794 793 0
795 -60 -791 0
-795 60 0
-795 791 0
-796 62 794 461 98 795 0
796 -62 0
796 -794 0
796 -461 0
796 -98 0
796 -795 0
797 -64 -796 0
-797 64 0
-797 796 0
-798 80 797 475 108 0
798 -80 0
798 -797 0
798 -475 0
798 -108 0
799 -111 -798 0
-799 111 0
-799 798 0
-800 6 449 799 0
800 -6 0
800 -449 0
800 -799 0
801 -5 -800 0
-801 5 0
-801 800 0
-802 8 785 801 0
802 -8 0
802 -785 0
802 -801 0
803 -26 -802 0
-803 26 0
-803 802 0
804 -271 -494 0
-804 271 0
-804 494 0
-805 8 804 497 0
805 -8 0
805 -804 0
805 -497 0
806 -10 -805 0
-806 10 0
-806 805 0
-807 18 694 751 15 0
807 -18 0
807 -694 0
807 -751 0
807 -15 0
808 -20 -807 0
-808 20 0
-808 807 0
809 -24 -807 0
-809 24 0
-809 807 0
-810 32 699 809 0
810 -32 0
810 -699 0
810 -809 0
811 -34 -810 0
-811 34 0
-811 810 0
-812 36 811 0
812 -36 0
812 -811 0
813 -38 -812 0
-813 38 0
-813 812 0
-814 40 693 808 813 0
814 -40 0
814 -693 0
814 -808 0
814 -813 0
815 -42 -814 0
-815 42 0
-815 814 0
-816 220 720 0
816 -220 0
816 -720 0
817 -222 -816 0
-817 222 0
-817 816 0
-818 258 83 817 441 726 0
818 -258 0
818 -83 0
818 -817 0
818 -441 0
818 -726 0
819 -282 -818 0
-819 282 0
-819 818 0
-820 6 819 0
820 -6 0
820 -819 0
821 -48 -820 0
-821 48 0
-821 820 0
-822 50 710 821 0
822 -50 0
822 -710 0
822 -821 0
823 -52 -822 0
-823 52 0
-823 822 0
824 -60 -812 0
-824 60 0
-824 812 0
-825 62 682 815 823 98 824 0
825 -62 0
825 -682 0
825 -815 0
825 -823 0
825 -98 0
825 -824 0
826 -64 -825 0
-826 64 0
-826 825 0
-827 32 753 0
827 -32 0
827 -753 0
828 -34 -827 0
-828 34 0
-828 827 0
-829 36 828 0
829 -36 0
829 -828 0
830 -38 -829 0
-830 38 0
-830 829 0
-831 40 693 830 0
831 -40 0
831 -693 0
831 -830 0
832 -42 -831 0
-832 42 0
-832 831 0
-833 220 766 0
833 -220 0
833 -766 0
834 -222 -833 0
-834 222 0
-834 833 0
-835 258 83 834 441 726 0
835 -258 0
835 -83 0
835 -834 0
835 -441 0
835 -726 0
836 -282 -835 0
-836 282 0
-836 835 0
-837 6 836 0
837 -6 0
837 -836 0
838 -48 -837 0
-838 48 0
-838 837 0
-839 50 763 838 0
839 -50 0
839 -763 0
839 -838 0
840 -52 -839 0
-840 52 0
-840 839 0
841 -60 -829 0
-841 60 0
-841 829 0
-842 62 752 832 840 98 841 0
842 -62 0
842 -752 0
842 -832 0
842 -840 0
842 -98 0
842 -841 0
843 -69 -842 0
-843 69 0
-843 842 0
-844 18 748 751 843 15 0
844 -18 0
844 -748 0
844 -751 0
844 -843 0
844 -15 0
845 -72 -844 0
-845 72 0
-845 844 0
846 -74 -805 0
-846 74 0
-846 805 0
-847 76 846 0
847 -76 0
847 -846 0
848 -78 -847 0
-848 78 0
-848 847 0
-849 80 806 826 845 848 0
849 -80 0
849 -806 0
849 -826 0
849 -845 0
849 -848 0
850 -133 -849 0
-850 133 0
-850 849 0
-851 28 803 850 0
851 -28 0
851 -803 0
851 -850 0
852 -550 -851 0
-852 550 0
-852 851 0
-853 552 677 784 852 0
853 -552 0
853 -677 0
853 -784 0
853 -852 0
854 -855 -853 0
-854 855 0
-854 853 0
-856 3 854 0
856 -3 0
856 -854 0
857 -858 -856 0
-857 858 0
-857 856 0
-859 258 83 267 268 0
859 -258 0
859 -83 0
859 -267 0
859 -268 0
860 -260 -859 0
-860 260 0
-860 859 0
861 -550 -28 0
-861 550 0
-861 28 0
-862 552 860 861 0
862 -552 0
862 -860 0
862 -861 0
863 -864 -862 0
-863 864 0
-863 862 0
-865 552 861 0
865 -552 0
865 -861 0
866 -855 -865 0
-866 855 0
-866 865 0
-867 3 866 0
867 -3 0
867 -866 0
868 -84 -867 0
-868 84 0
-868 867 0
-869 258 868 278 279 0
869 -258 0
869 -868 0
869 -278 0
869 -279 0
870 -271 -869 0
-870 271 0
-870 869 0
-871 258 83 278 279 0
871 -258 0
871 -83 0
871 -278 0
871 -279 0
872 -260 -871 0
-872 260 0
-872 871 0
-873 552 872 861 0
873 -552 0
873 -872 0
873 -861 0
874 -855 -873 0
-874 855 0
-874 873 0
-875 3 874 0
875 -3 0
875 -874 0
876 -2 -875 0
-876 2 0
-876 875 0
877 -282 -869 0
-877 282 0
-877 869 0
-878 6 877 0
878 -6 0
878 -877 0
879 -5 -878 0
-879 5 0
-879 878 0
-880 8 863 870 876 879 0
880 -8 0
880 -863 0
880 -870 0
880 -876 0
880 -879 0
881 -10 -880 0
-881 10 0
-881 880 0
882 -864 -873 0
-882 864 0
-882 873 0
-883 8 882 870 876 879 0
883 -8 0
883 -882 0
883 -870 0
883 -876 0
883 -879 0
884 -12 -883 0
-884 12 0
-884 883 0
885 -550 -564 0
-885 550 0
-885 564 0
-886 552 885 0
886 -552 0
886 -885 0
887 -855 -886 0
-887 855 0
-887 886 0
-888 3 887 0
888 -3 0
888 -887 0
889 -84 -888 0
-889 84 0
-889 888 0
890 -864 -865 0
-890 864 0
-890 865 0
891 -2 -867 0
-891 2 0
-891 867 0
-892 8 890 891 4 0
892 -8 0
892 -890 0
892 -891 0
892 -4 0
893 -26 -892 0
-893 26 0
-893 892 0
-894 28 893 0
894 -28 0
894 -893 0
895 -54 -894 0
-895 54 0
-895 894 0
-896 56 895 0
896 -56 0
896 -895 0
897 -247 -896 0
-897 247 0
-897 896 0
898 -74 -892 0
-898 74 0
-898 892 0
-899 76 898 0
899 -76 0
899 -898 0
900 -256 -899 0
-900 256 0
-900 899 0
-901 258 889 897 900 0
901 -258 0
901 -889 0
901 -897 0
901 -900 0
902 -312 -901 0
-902 312 0
-902 901 0
903 -271 -871 0
-903 271 0
-903 871 0
904 -282 -871 0
-904 282 0
-904 871 0
-905 6 904 0
905 -6 0
905 -904 0
906 -5 -905 0
-906 5 0
-906 905 0
-907 8 903 1 906 0
907 -8 0
907 -903 0
907 -1 0
907 -906 0
908 -26 -907 0
-908 26 0
-908 907 0
-909 28 908 0
909 -28 0
909 -908 0
910 -550 -909 0
-910 550 0
-910 909 0
-911 552 860 910 0
911 -552 0
911 -860 0
911 -910 0
912 -913 -911 0
-912 913 0
-912 911 0
914 -314 -901 0
-914 314 0
-914 901 0
915 -14 -883 0
-915 14 0
-915 883 0
-916 258 83 690 691 0
916 -258 0
916 -83 0
916 -690 0
916 -691 0
917 -260 -916 0
-917 260 0
-917 916 0
-918 8 903 906 0
918 -8 0
918 -903 0
918 -906 0
919 -26 -918 0
-919 26 0
-919 918 0
-920 28 919 0
920 -28 0
920 -919 0
921 -550 -920 0
-921 550 0
-921 920 0
-922 552 917 921 0
922 -552 0
922 -917 0
922 -921 0
923 -855 -922 0
-923 855 0
-923 922 0
-924 3 923 0
924 -3 0
924 -923 0
925 -16 -924 0
-925 16 0
-925 924 0
-926 18 912 914 915 925 0
926 -18 0
926 -912 0
926 -914 0
926 -915 0
926 -925 0
927 -20 -926 0
-927 20 0
-927 926 0
928 -22 -883 0
-928 22 0
-928 883 0
929 -24 -926 0
-929 24 0
-929 926 0
930 -26 -883 0
-930 26 0
-930 883 0
-931 28 930 0
931 -28 0
931 -930 0
932 -30 -931 0
-932 30 0
-932 931 0
-933 32 928 929 932 0
933 -32 0
933 -928 0
933 -929 0
933 -932 0
934 -34 -933 0
-934 34 0
-934 933 0
-935 36 934 0
935 -36 0
935 -934 0
936 -38 -935 0
-936 38 0
-936 935 0
-937 40 902 927 936 0
937 -40 0
937 -902 0
937 -927 0
937 -936 0
938 -42 -937 0
-938 42 0
-938 937 0
939 -44 -883 0
-939 44 0
-939 883 0
940 -46 -931 0
-940 46 0
-940 931 0
941 -550 -713 0
-941 550 0
-941 713 0
-942 552 941 0
942 -552 0
942 -941 0
943 -855 -942 0
-943 855 0
-943 942 0
-944 3 943 0
944 -3 0
944 -943 0
945 -84 -944 0
-945 84 0
-945 944 0
-946 8 890 891 0
946 -8 0
946 -890 0
946 -891 0
947 -26 -946 0
-947 26 0
-947 946 0
-948 28 947 0
948 -28 0
948 -947 0
949 -54 -948 0
-949 54 0
-949 948 0
-950 56 949 0
950 -56 0
950 -949 0
951 -247 -950 0
-951 247 0
-951 950 0
952 -74 -946 0
-952 74 0
-952 946 0
-953 76 952 0
953 -76 0
953 -952 0
954 -256 -953 0
-954 256 0
-954 953 0
-955 258 945 951 954 0
955 -258 0
955 -945 0
955 -951 0
955 -954 0
956 -282 -955 0
-956 282 0
-956 955 0
-957 6 956 0
957 -6 0
957 -956 0
958 -48 -957 0
-958 48 0
-958 957 0
-959 50 939 940 958 0
959 -50 0
959 -939 0
959 -940 0
959 -958 0
960 -52 -959 0
-960 52 0
-960 959 0
-961 258 83 268 0
961 -258 0
961 -83 0
961 -268 0
962 -260 -961 0
-962 260 0
-962 961 0
-963 552 962 861 0
963 -552 0
963 -962 0
963 -861 0
964 -864 -963 0
-964 864 0
-964 963 0
-965 258 868 279 0
965 -258 0
965 -868 0
965 -279 0
966 -271 -965 0
-966 271 0
-966 965 0
-967 258 83 279 0
967 -258 0
967 -83 0
967 -279 0
968 -260 -967 0
-968 260 0
-968 967 0
-969 552 968 861 0
969 -552 0
969 -968 0
969 -861 0
970 -855 -969 0
-970 855 0
-970 969 0
-971 3 970 0
971 -3 0
971 -970 0
972 -2 -971 0
-972 2 0
-972 971 0
973 -282 -965 0
-973 282 0
-973 965 0
-974 6 973 0
974 -6 0
974 -973 0
975 -5 -974 0
-975 5 0
-975 974 0
-976 8 964 966 972 975 0
976 -8 0
976 -964 0
976 -966 0
976 -972 0
976 -975 0
977 -26 -976 0
-977 26 0
-977 976 0
-978 28 977 0
978 -28 0
978 -977 0
979 -54 -978 0
-979 54 0
-979 978 0
-980 56 979 0
980 -56 0
980 -979 0
981 -58 -980 0
-981 58 0
-981 980 0
982 -60 -935 0
-982 60 0
-982 935 0
-983 62 884 938 960 981 982 0
983 -62 0
983 -884 0
983 -938 0
983 -960 0
983 -981 0
983 -982 0
984 -64 -983 0
-984 64 0
-984 983 0
-985 32 928 932 0
985 -32 0
985 -928 0
985 -932 0
986 -34 -985 0
-986 34 0
-986 985 0
-987 36 986 0
987 -36 0
987 -986 0
988 -38 -987 0
-988 38 0
-988 987 0
-989 40 902 988 0
989 -40 0
989 -902 0
989 -988 0
990 -42 -989 0
-990 42 0
-990 989 0
991 -864 -969 0
-991 864 0
-991 969 0
-992 8 991 966 972 975 0
992 -8 0
992 -991 0
992 -966 0
992 -972 0
992 -975 0
993 -26 -992 0
-993 26 0
-993 992 0
-994 28 993 0
994 -28 0
994 -993 0
995 -54 -994 0
-995 54 0
-995 994 0
-996 56 995 0
996 -56 0
996 -995 0
997 -58 -996 0
-997 58 0
-997 996 0
998 -60 -987 0
-998 60 0
-998 987 0
-999 62 884 990 960 997 998 0
999 -62 0
999 -884 0
999 -990 0
999 -960 0
999 -997 0
999 -998 0
1000 -69 -999 0
-1000 69 0
-1000 999 0
-1001 18 912 914 915 1000 925 0
1001 -18 0
1001 -912 0
1001 -914 0
1001 -915 0
1001 -1000 0
1001 -925 0
1002 -72 -1001 0
-1002 72 0
-1002 1001 0
1003 -74 -883 0
-1003 74 0
-1003 883 0
-1004 76 1003 0
1004 -76 0
1004 -1003 0
1005 -78 -1004 0
-1005 78 0
-1005 1004 0
-1006 80 881 984 1002 1005 0
1006 -80 0
1006 -881 0
1006 -984 0
1006 -1002 0
1006 -1005 0
1007 -86 -1006 0
-1007 86 0
-1007 1006 0
-1008 258 427 83 441 279 0
1008 -258 0
1008 -427 0
1008 -83 0
1008 -441 0
1008 -279 0
1009 -260 -1008 0
-1009 260 0
-1009 1008 0
1010 -312 -871 0
-1010 312 0
-1010 871 0
1011 -314 -871 0
-1011 314 0
-1011 871 0
-1012 18 1011 15 0
1012 -18 0
1012 -1011 0
1012 -15 0
1013 -20 -1012 0
-1013 20 0
-1013 1012 0
1014 -24 -1012 0
-1014 24 0
-1014 1012 0
-1015 32 1014 0
1015 -32 0
1015 -1014 0
1016 -34 -1015 0
-1016 34 0
-1016 1015 0
-1017 36 1016 0
1017 -36 0
1017 -1016 0
1018 -38 -1017 0
-1018 38 0
-1018 1017 0
-1019 40 1010 1013 1018 0
1019 -40 0
1019 -1010 0
1019 -1013 0
1019 -1018 0
1020 -42 -1019 0
-1020 42 0
-1020 1019 0
1021 -48 -905 0
-1021 48 0
-1021 905 0
-1022 50 1021 0
1022 -50 0
1022 -1021 0
1023 -52 -1022 0
-1023 52 0
-1023 1022 0
1024 -60 -1017 0
-1024 60 0
-1024 1017 0
-1025 62 1020 1023 98 1024 0
1025 -62 0
1025 -1020 0
1025 -1023 0
1025 -98 0
1025 -1024 0
1026 -64 -1025 0
-1026 64 0
-1026 1025 0
-1027 40 1010 468 0
1027 -40 0
1027 -1010 0
1027 -468 0
1028 -42 -1027 0
-1028 42 0
-1028 1027 0
-1029 62 1028 1023 98 471 0
1029 -62 0
1029 -1028 0
1029 -1023 0
1029 -98 0
1029 -471 0
1030 -69 -1029 0
-1030 69 0
-1030 1029 0
-1031 18 1011 1030 15 0
1031 -18 0
1031 -1011 0
1031 -1030 0
1031 -15 0
1032 -72 -1031 0
-1032 72 0
-1032 1031 0
-1033 80 1026 1032 108 0
1033 -80 0
1033 -1026 0
1033 -1032 0
1033 -108 0
1034 -423 -1033 0
-1034 423 0
-1034 1033 0
-1035 552 1009 1034 0
1035 -552 0
1035 -1009 0
1035 -1034 0
1036 -864 -1035 0
-1036 864 0
-1036 1035 0
1037 -913 -865 0
-1037 913 0
-1037 865 0
1038 -16 -867 0
-1038 16 0
-1038 867 0
-1039 18 1037 1038 0
1039 -18 0
1039 -1037 0
1039 -1038 0
1040 -20 -1039 0
-1040 20 0
-1040 1039 0
1041 -24 -1039 0
-1041 24 0
-1041 1039 0
-1042 32 1041 0
1042 -32 0
1042 -1041 0
1043 -34 -1042 0
-1043 34 0
-1043 1042 0
-1044 36 1043 0
1044 -36 0
1044 -1043 0
1045 -38 -1044 0
-1045 38 0
-1045 1044 0
-1046 40 1040 1045 0
1046 -40 0
1046 -1040 0
1046 -1045 0
1047 -42 -1046 0
-1047 42 0
-1047 1046 0
1048 -60 -1044 0
-1048 60 0
-1048 1044 0
-1049 62 1047 97 98 1048 0
1049 -62 0
1049 -1047 0
1049 -97 0
1049 -98 0
1049 -1048 0
1050 -64 -1049 0
-1050 64 0
-1050 1049 0
-1051 40 468 0
1051 -40 0
1051 -468 0
1052 -42 -1051 0
-1052 42 0
-1052 1051 0
-1053 62 1052 97 98 471 0
1053 -62 0
1053 -1052 0
1053 -97 0
1053 -98 0
1053 -471 0
1054 -69 -1053 0
-1054 69 0
-1054 1053 0
-1055 18 1037 1054 1038 0
1055 -18 0
1055 -1037 0
1055 -1054 0
1055 -1038 0
1056 -72 -1055 0
-1056 72 0
-1056 1055 0
-1057 80 1050 1056 108 0
1057 -80 0
1057 -1050 0
1057 -1056 0
1057 -108 0
1058 -82 -1057 0
-1058 82 0
-1058 1057 0
-1059 80 101 1032 108 0
1059 -80 0
1059 -101 0
1059 -1032 0
1059 -108 0
1060 -423 -1059 0
-1060 423 0
-1060 1059 0
-1061 552 1060 0
1061 -552 0
1061 -1060 0
1062 -855 -1061 0
-1062 855 0
-1062 1061 0
-1063 3 1062 0
1063 -3 0
1063 -1062 0
1064 -84 -1063 0
-1064 84 0
-1064 1063 0
-1065 258 1058 1064 441 279 0
1065 -258 0
1065 -1058 0
1065 -1064 0
1065 -441 0
1065 -279 0
1066 -271 -1065 0
-1066 271 0
-1066 1065 0
1067 -82 -1059 0
-1067 82 0
-1067 1059 0
-1068 258 1067 83 441 279 0
1068 -258 0
1068 -1067 0
1068 -83 0
1068 -441 0
1068 -279 0
1069 -260 -1068 0
-1069 260 0
-1069 1068 0
-1070 552 1069 1034 0
1070 -552 0
1070 -1069 0
1070 -1034 0
1071 -855 -1070 0
-1071 855 0
-1071 1070 0
-1072 3 1071 0
1072 -3 0
1072 -1071 0
1073 -2 -1072 0
-1073 2 0
-1073 1072 0
-1074 18 1054 15 0
1074 -18 0
1074 -1054 0
1074 -15 0
1075 -72 -1074 0
-1075 72 0
-1075 1074 0
-1076 80 101 1075 108 0
1076 -80 0
1076 -101 0
1076 -1075 0
1076 -108 0
1077 -423 -1076 0
-1077 423 0
-1077 1076 0
-1078 552 1077 0
1078 -552 0
1078 -1077 0
1079 -855 -1078 0
-1079 855 0
-1079 1078 0
-1080 3 1079 0
1080 -3 0
1080 -1079 0
1081 -84 -1080 0
-1081 84 0
-1081 1080 0
-1082 258 1058 1081 441 279 0
1082 -258 0
1082 -1058 0
1082 -1081 0
1082 -441 0
1082 -279 0
1083 -282 -1082 0
-1083 282 0
-1083 1082 0
1084 -312 -869 0
-1084 312 0
-1084 869 0
1085 -913 -873 0
-1085 913 0
-1085 873 0
1086 -314 -869 0
-1086 314 0
-1086 869 0
1087 -16 -875 0
-1087 16 0
-1087 875 0
-1088 18 1085 1086 1087 0
1088 -18 0
1088 -1085 0
1088 -1086 0
1088 -1087 0
1089 -20 -1088 0
-1089 20 0
-1089 1088 0
1090 -24 -1088 0
-1090 24 0
-1090 1088 0
-1091 32 1090 0
1091 -32 0
1091 -1090 0
1092 -34 -1091 0
-1092 34 0
-1092 1091 0
-1093 36 1092 0
1093 -36 0
1093 -1092 0
1094 -38 -1093 0
-1094 38 0
-1094 1093 0
-1095 40 1084 1089 1094 0
1095 -40 0
1095 -1084 0
1095 -1089 0
1095 -1094 0
1096 -42 -1095 0
-1096 42 0
-1096 1095 0
1097 -60 -1093 0
-1097 60 0
-1097 1093 0
-1098 62 1096 461 98 1097 0
1098 -62 0
1098 -1096 0
1098 -461 0
1098 -98 0
1098 -1097 0
1099 -64 -1098 0
-1099 64 0
-1099 1098 0
-1100 40 1084 468 0
1100 -40 0
1100 -1084 0
1100 -468 0
1101 -42 -1100 0
-1101 42 0
-1101 1100 0
-1102 62 1101 461 98 471 0
1102 -62 0
1102 -1101 0
1102 -461 0
1102 -98 0
1102 -471 0
1103 -69 -1102 0
-1103 69 0
-1103 1102 0
-1104 18 1085 1086 1103 1087 0
1104 -18 0
1104 -1085 0
1104 -1086 0
1104 -1103 0
1104 -1087 0
1105 -72 -1104 0
-1105 72 0
-1105 1104 0
-1106 80 1099 1105 108 0
1106 -80 0
1106 -1099 0
1106 -1105 0
1106 -108 0
1107 -111 -1106 0
-1107 111 0
-1107 1106 0
-1108 6 1083 1107 0
1108 -6 0
1108 -1083 0
1108 -1107 0
1109 -5 -1108 0
-1109 5 0
-1109 1108 0
-1110 8 1036 1066 1073 1109 0
1110 -8 0
1110 -1036 0
1110 -1066 0
1110 -1073 0
1110 -1109 0
1111 -26 -1110 0
-1111 26 0
-1111 1110 0
1112 -10 -883 0
-1112 10 0
-1112 883 0
-1113 258 889 441 900 0
1113 -258 0
1113 -889 0
1113 -441 0
1113 -900 0
1114 -312 -1113 0
-1114 312 0
-1114 1113 0
-1115 552 860 0
1115 -552 0
1115 -860 0
1116 -913 -1115 0
-1116 913 0
-1116 1115 0
1117 -314 -1113 0
-1117 314 0
-1117 1113 0
-1118 552 917 0
1118 -552 0
1118 -917 0
1119 -855 -1118 0
-1119 855 0
-1119 1118 0
-1120 3 1119 0
1120 -3 0
1120 -1119 0
1121 -16 -1120 0
-1121 16 0
-1121 1120 0
-1122 18 1116 1117 915 1121 0
1122 -18 0
1122 -1116 0
1122 -1117 0
1122 -915 0
1122 -1121 0
1123 -20 -1122 0
-1123 20 0
-1123 1122 0
1124 -24 -1122 0
-1124 24 0
-1124 1122 0
-1125 32 928 1124 0
1125 -32 0
1125 -928 0
1125 -1124 0
1126 -34 -1125 0
-1126 34 0
-1126 1125 0
-1127 36 1126 0
1127 -36 0
1127 -1126 0
1128 -38 -1127 0
-1128 38 0
-1128 1127 0
-1129 40 1114 1123 1128 0
1129 -40 0
1129 -1114 0
1129 -1123 0
1129 -1128 0
1130 -42 -1129 0
-1130 42 0
-1130 1129 0
-1131 258 945 441 954 0
1131 -258 0
1131 -945 0
1131 -441 0
1131 -954 0
1132 -282 -1131 0
-1132 282 0
-1132 1131 0
-1133 6 1132 0
1133 -6 0
1133 -1132 0
1134 -48 -1133 0
-1134 48 0
-1134 1133 0
-1135 50 939 1134 0
1135 -50 0
1135 -939 0
1135 -1134 0
1136 -52 -1135 0
-1136 52 0
-1136 1135 0
1137 -60 -1127 0
-1137 60 0
-1137 1127 0
-1138 62 884 1130 1136 98 1137 0
1138 -62 0
1138 -884 0
1138 -1130 0
1138 -1136 0
1138 -98 0
1138 -1137 0
1139 -64 -1138 0
-1139 64 0
-1139 1138 0
-1140 32 928 0
1140 -32 0
1140 -928 0
1141 -34 -1140 0
-1141 34 0
-1141 1140 0
-1142 36 1141 0
1142 -36 0
1142 -1141 0
1143 -38 -1142 0
-1143 38 0
-1143 1142 0
-1144 40 1114 1143 0
1144 -40 0
1144 -1114 0
1144 -1143 0
1145 -42 -1144 0
-1145 42 0
-1145 1144 0
1146 -60 -1142 0
-1146 60 0
-1146 1142 0
-1147 62 884 1145 1136 98 1146 0
1147 -62 0
1147 -884 0
1147 -1145 0
1147 -1136 0
1147 -98 0
1147 -1146 0
1148 -69 -1147 0
-1148 69 0
-1148 1147 0
-1149 18 1116 1117 915 1148 1121 0
1149 -18 0
1149 -1116 0
1149 -1117 0
1149 -915 0
1149 -1148 0
1149 -1121 0
1150 -72 -1149 0
-1150 72 0
-1150 1149 0
-1151 80 1112 1139 1150 1005 0
1151 -80 0
1151 -1112 0
1151 -1139 0
1151 -1150 0
1151 -1005 0
1152 -133 -1151 0
-1152 133 0
-1152 1151 0
-1153 28 1111 1152 0
1153 -28 0
1153 -1111 0
1153 -1152 0
1154 -136 -1153 0
-1154 136 0
-1154 1153 0
-1155 80 63 71 77 0
1155 -80 0
1155 -63 0
1155 -71 0
1155 -77 0
1156 -82 -1155 0
-1156 82 0
-1156 1155 0
-1157 18 13 226 15 0
1157 -18 0
1157 -13 0
1157 -226 0
1157 -15 0
1158 -72 -1157 0
-1158 72 0
-1158 1157 0
-1159 80 224 1158 77 0
1159 -80 0
1159 -224 0
1159 -1158 0
1159 -77 0
1160 -133 -1159 0
-1160 133 0
-1160 1159 0
-1161 28 1160 0
1161 -28 0
1161 -1160 0
1162 -54 -1161 0
-1162 54 0
-1162 1161 0
-1163 56 1162 0
1163 -56 0
1163 -1162 0
1164 -247 -1163 0
-1164 247 0
-1164 1163 0
-1165 258 1156 83 1164 279 0
1165 -258 0
1165 -1156 0
1165 -83 0
1165 -1164 0
1165 -279 0
1166 -260 -1165 0
-1166 260 0
-1166 1165 0
-1167 32 1014 137 0
1167 -32 0
1167 -1014 0
1167 -137 0
1168 -34 -1167 0
-1168 34 0
-1168 1167 0
-1169 36 1168 0
1169 -36 0
1169 -1168 0
1170 -38 -1169 0
-1170 38 0
-1170 1169 0
-1171 40 1010 1013 1170 0
1171 -40 0
1171 -1010 0
1171 -1013 0
1171 -1170 0
1172 -42 -1171 0
-1172 42 0
-1172 1171 0
-1173 50 144 1021 0
1173 -50 0
1173 -144 0
1173 -1021 0
1174 -52 -1173 0
-1174 52 0
-1174 1173 0
1175 -60 -1169 0
-1175 60 0
-1175 1169 0
-1176 62 1172 1174 149 1175 0
1176 -62 0
1176 -1172 0
1176 -1174 0
1176 -149 0
1176 -1175 0
1177 -64 -1176 0
-1177 64 0
-1177 1176 0
-1178 40 1010 1170 0
1178 -40 0
1178 -1010 0
1178 -1170 0
1179 -42 -1178 0
-1179 42 0
-1179 1178 0
-1180 62 1179 1174 149 1175 0
1180 -62 0
1180 -1179 0
1180 -1174 0
1180 -149 0
1180 -1175 0
1181 -69 -1180 0
-1181 69 0
-1181 1180 0
-1182 18 1011 1181 15 0
1182 -18 0
1182 -1011 0
1182 -1181 0
1182 -15 0
1183 -72 -1182 0
-1183 72 0
-1183 1182 0
-1184 80 1177 1183 108 0
1184 -80 0
1184 -1177 0
1184 -1183 0
1184 -108 0
1185 -423 -1184 0
-1185 423 0
-1185 1184 0
1186 -133 -1033 0
-1186 133 0
-1186 1033 0
-1187 28 1186 0
1187 -28 0
1187 -1186 0
1188 -550 -1187 0
-1188 550 0
-1188 1187 0
-1189 552 1166 1185 1188 0
1189 -552 0
1189 -1166 0
1189 -1185 0
1189 -1188 0
1190 -864 -1189 0
-1190 864 0
-1190 1189 0
-1191 32 1041 137 0
1191 -32 0
1191 -1041 0
1191 -137 0
1192 -34 -1191 0
-1192 34 0
-1192 1191 0
-1193 36 1192 0
1193 -36 0
1193 -1192 0
1194 -38 -1193 0
-1194 38 0
-1194 1193 0
-1195 40 1040 1194 0
1195 -40 0
1195 -1040 0
1195 -1194 0
1196 -42 -1195 0
-1196 42 0
-1196 1195 0
1197 -60 -1193 0
-1197 60 0
-1197 1193 0
-1198 62 1196 146 149 1197 0
1198 -62 0
1198 -1196 0
1198 -146 0
1198 -149 0
1198 -1197 0
1199 -64 -1198 0
-1199 64 0
-1199 1198 0
-1200 40 1194 0
1200 -40 0
1200 -1194 0
1201 -42 -1200 0
-1201 42 0
-1201 1200 0
-1202 62 1201 146 149 1197 0
1202 -62 0
1202 -1201 0
1202 -146 0
1202 -149 0
1202 -1197 0
1203 -69 -1202 0
-1203 69 0
-1203 1202 0
-1204 18 1037 1203 1038 0
1204 -18 0
1204 -1037 0
1204 -1203 0
1204 -1038 0
1205 -72 -1204 0
-1205 72 0
-1205 1204 0
-1206 80 1199 1205 108 0
1206 -80 0
1206 -1199 0
1206 -1205 0
1206 -108 0
1207 -82 -1206 0
-1207 82 0
-1207 1206 0
1208 -423 -159 0
-1208 423 0
-1208 159 0
1209 -133 -1059 0
-1209 133 0
-1209 1059 0
-1210 28 1209 0
1210 -28 0
1210 -1209 0
1211 -550 -1210 0
-1211 550 0
-1211 1210 0
-1212 552 1208 1211 0
1212 -552 0
1212 -1208 0
1212 -1211 0
1213 -855 -1212 0
-1213 855 0
-1213 1212 0
-1214 3 1213 0
1214 -3 0
1214 -1213 0
1215 -84 -1214 0
-1215 84 0
-1215 1214 0
-1216 62 1047 97 1048 0
1216 -62 0
1216 -1047 0
1216 -97 0
1216 -1048 0
1217 -64 -1216 0
-1217 64 0
-1217 1216 0
-1218 62 1052 97 471 0
1218 -62 0
1218 -1052 0
1218 -97 0
1218 -471 0
1219 -69 -1218 0
-1219 69 0
-1219 1218 0
-1220 18 1037 1219 1038 0
1220 -18 0
1220 -1037 0
1220 -1219 0
1220 -1038 0
1221 -72 -1220 0
-1221 72 0
-1221 1220 0
-1222 80 1217 1221 108 0
1222 -80 0
1222 -1217 0
1222 -1221 0
1222 -108 0
1223 -133 -1222 0
-1223 133 0
-1223 1222 0
-1224 28 1223 0
1224 -28 0
1224 -1223 0
1225 -54 -1224 0
-1225 54 0
-1225 1224 0
-1226 56 1225 0
1226 -56 0
1226 -1225 0
1227 -247 -1226 0
-1227 247 0
-1227 1226 0
-1228 258 1207 1215 1227 279 0
1228 -258 0
1228 -1207 0
1228 -1215 0
1228 -1227 0
1228 -279 0
1229 -271 -1228 0
-1229 271 0
-1229 1228 0
1230 -82 -159 0
-1230 82 0
-1230 159 0
-1231 18 1219 15 0
1231 -18 0
1231 -1219 0
1231 -15 0
1232 -72 -1231 0
-1232 72 0
-1232 1231 0
-1233 80 224 1232 108 0
1233 -80 0
1233 -224 0
1233 -1232 0
1233 -108 0
1234 -133 -1233 0
-1234 133 0
-1234 1233 0
-1235 28 1234 0
1235 -28 0
1235 -1234 0
1236 -54 -1235 0
-1236 54 0
-1236 1235 0
-1237 56 1236 0
1237 -56 0
1237 -1236 0
1238 -247 -1237 0
-1238 247 0
-1238 1237 0
-1239 258 1230 83 1238 279 0
1239 -258 0
1239 -1230 0
1239 -83 0
1239 -1238 0
1239 -279 0
1240 -260 -1239 0
-1240 260 0
-1240 1239 0
-1241 552 1240 1185 1188 0
1241 -552 0
1241 -1240 0
1241 -1185 0
1241 -1188 0
1242 -855 -1241 0
-1242 855 0
-1242 1241 0
-1243 3 1242 0
1243 -3 0
1243 -1242 0
1244 -2 -1243 0
-1244 2 0
-1244 1243 0
1245 -133 -1076 0
-1245 133 0
-1245 1076 0
-1246 28 1245 0
1246 -28 0
1246 -1245 0
1247 -550 -1246 0
-1247 550 0
-1247 1246 0
-1248 552 1208 1247 0
1248 -552 0
1248 -1208 0
1248 -1247 0
1249 -855 -1248 0
-1249 855 0
-1249 1248 0
-1250 3 1249 0
1250 -3 0
1250 -1249 0
1251 -84 -1250 0
-1251 84 0
-1251 1250 0
-1252 258 1207 1251 1227 279 0
1252 -258 0
1252 -1207 0
1252 -1251 0
1252 -1227 0
1252 -279 0
1253 -282 -1252 0
-1253 282 0
-1253 1252 0
-1254 32 1090 137 0
1254 -32 0
1254 -1090 0
1254 -137 0
1255 -34 -1254 0
-1255 34 0
-1255 1254 0
-1256 36 1255 0
1256 -36 0
1256 -1255 0
1257 -38 -1256 0
-1257 38 0
-1257 1256 0
-1258 40 1084 1089 1257 0
1258 -40 0
1258 -1084 0
1258 -1089 0
1258 -1257 0
1259 -42 -1258 0
-1259 42 0
-1259 1258 0
-1260 50 144 0
1260 -50 0
1260 -144 0
1261 -52 -1260 0
-1261 52 0
-1261 1260 0
1262 -60 -1256 0
-1262 60 0
-1262 1256 0
-1263 62 1259 1261 149 1262 0
1263 -62 0
1263 -1259 0
1263 -1261 0
1263 -149 0
1263 -1262 0
1264 -64 -1263 0
-1264 64 0
-1264 1263 0
-1265 32 137 0
1265 -32 0
1265 -137 0
1266 -34 -1265 0
-1266 34 0
-1266 1265 0
-1267 36 1266 0
1267 -36 0
1267 -1266 0
1268 -38 -1267 0
-1268 38 0
-1268 1267 0
-1269 40 1084 1268 0
1269 -40 0
1269 -1084 0
1269 -1268 0
1270 -42 -1269 0
-1270 42 0
-1270 1269 0
1271 -60 -1267 0
-1271 60 0
-1271 1267 0
-1272 62 1270 1261 149 1271 0
1272 -62 0
1272 -1270 0
1272 -1261 0
1272 -149 0
1272 -1271 0
1273 -69 -1272 0
-1273 69 0
-1273 1272 0
-1274 18 1085 1086 1273 1087 0
1274 -18 0
1274 -1085 0
1274 -1086 0
1274 -1273 0
1274 -1087 0
1275 -72 -1274 0
-1275 72 0
-1275 1274 0
-1276 80 1264 1275 108 0
1276 -80 0
1276 -1264 0
1276 -1275 0
1276 -108 0
1277 -111 -1276 0
-1277 111 0
-1277 1276 0
-1278 6 1253 1277 0
1278 -6 0
1278 -1253 0
1278 -1277 0
1279 -5 -1278 0
-1279 5 0
-1279 1278 0
-1280 8 1190 1229 1244 1279 0
1280 -8 0
1280 -1190 0
1280 -1229 0
1280 -1244 0
1280 -1279 0
1281 -165 -1280 0
-1281 165 0
-1281 1280 0
1282 -64 -67 0
-1282 64 0
-1282 67 0
-1283 80 9 1282 77 0
1283 -80 0
1283 -9 0
1283 -1282 0
1283 -77 0
1284 -82 -1283 0
-1284 82 0
-1284 1283 0
1285 -64 -225 0
-1285 64 0
-1285 225 0
-1286 80 1285 108 0
1286 -80 0
1286 -1285 0
1286 -108 0
1287 -111 -1286 0
-1287 111 0
-1287 1286 0
-1288 6 1287 0
1288 -6 0
1288 -1287 0
1289 -5 -1288 0
-1289 5 0
-1289 1288 0
-1290 8 1 1289 0
1290 -8 0
1290 -1 0
1290 -1289 0
1291 -26 -1290 0
-1291 26 0
-1291 1290 0
1292 -64 -237 0
-1292 64 0
-1292 237 0
-1293 80 9 1292 77 0
1293 -80 0
1293 -9 0
1293 -1292 0
1293 -77 0
1294 -133 -1293 0
-1294 133 0
-1294 1293 0
-1295 28 1291 1294 0
1295 -28 0
1295 -1291 0
1295 -1294 0
1296 -54 -1295 0
-1296 54 0
-1296 1295 0
-1297 56 1296 0
1297 -56 0
1297 -1296 0
1298 -247 -1297 0
-1298 247 0
-1298 1297 0
-1299 80 166 0
1299 -80 0
1299 -166 0
1300 -111 -1299 0
-1300 111 0
-1300 1299 0
-1301 6 1300 0
1301 -6 0
1301 -1300 0
1302 -5 -1301 0
-1302 5 0
-1302 1301 0
-1303 8 1 1302 0
1303 -8 0
1303 -1 0
1303 -1302 0
1304 -74 -1303 0
-1304 74 0
-1304 1303 0
-1305 76 1304 0
1305 -76 0
1305 -1304 0
1306 -256 -1305 0
-1306 256 0
-1306 1305 0
-1307 258 1284 83 1298 1306 0
1307 -258 0
1307 -1284 0
1307 -83 0
1307 -1298 0
1307 -1306 0
1308 -260 -1307 0
-1308 260 0
-1308 1307 0
1309 -10 -907 0
-1309 10 0
-1309 907 0
1310 -12 -907 0
-1310 12 0
-1310 907 0
1311 -312 -859 0
-1311 312 0
-1311 859 0
1312 -22 -907 0
-1312 22 0
-1312 907 0
1313 -30 -909 0
-1313 30 0
-1313 909 0
-1314 32 1312 1313 0
1314 -32 0
1314 -1312 0
1314 -1313 0
1315 -34 -1314 0
-1315 34 0
-1315 1314 0
-1316 36 1315 0
1316 -36 0
1316 -1315 0
1317 -38 -1316 0
-1317 38 0
-1317 1316 0
-1318 40 1311 1317 0
1318 -40 0
1318 -1311 0
1318 -1317 0
1319 -42 -1318 0
-1319 42 0
-1319 1318 0
1320 -44 -907 0
-1320 44 0
-1320 907 0
1321 -46 -909 0
-1321 46 0
-1321 909 0
-1322 258 83 346 347 0
1322 -258 0
1322 -83 0
1322 -346 0
1322 -347 0
1323 -282 -1322 0
-1323 282 0
-1323 1322 0
-1324 6 1323 0
1324 -6 0
1324 -1323 0
1325 -48 -1324 0
-1325 48 0
-1325 1324 0
-1326 50 1320 1321 1325 0
1326 -50 0
1326 -1320 0
1326 -1321 0
1326 -1325 0
1327 -52 -1326 0
-1327 52 0
-1327 1326 0
1328 -271 -961 0
-1328 271 0
-1328 961 0
1329 -282 -967 0
-1329 282 0
-1329 967 0
-1330 6 1329 0
1330 -6 0
1330 -1329 0
1331 -5 -1330 0
-1331 5 0
-1331 1330 0
-1332 8 1328 1 1331 0
1332 -8 0
1332 -1328 0
1332 -1 0
1332 -1331 0
1333 -26 -1332 0
-1333 26 0
-1333 1332 0
-1334 28 1333 0
1334 -28 0
1334 -1333 0
1335 -54 -1334 0
-1335 54 0
-1335 1334 0
-1336 56 1335 0
1336 -56 0
1336 -1335 0
1337 -58 -1336 0
-1337 58 0
-1337 1336 0
1338 -60 -1316 0
-1338 60 0
-1338 1316 0
-1339 62 1310 1319 1327 1337 1338 0
1339 -62 0
1339 -1310 0
1339 -1319 0
1339 -1327 0
1339 -1337 0
1339 -1338 0
1340 -64 -1339 0
-1340 64 0
-1340 1339 0
1341 -74 -907 0
-1341 74 0
-1341 907 0
-1342 76 1341 0
1342 -76 0
1342 -1341 0
1343 -78 -1342 0
-1343 78 0
-1343 1342 0
-1344 80 1309 1340 1343 0
1344 -80 0
1344 -1309 0
1344 -1340 0
1344 -1343 0
1345 -423 -1344 0
-1345 423 0
-1345 1344 0
1346 -64 -104 0
-1346 64 0
-1346 104 0
-1347 80 1346 77 0
1347 -80 0
1347 -1346 0
1347 -77 0
1348 -82 -1347 0
-1348 82 0
-1348 1347 0
-1349 258 1348 83 441 279 0
1349 -258 0
1349 -1348 0
1349 -83 0
1349 -441 0
1349 -279 0
1350 -271 -1349 0
-1350 271 0
-1350 1349 0
-1351 80 1346 108 0
1351 -80 0
1351 -1346 0
1351 -108 0
1352 -82 -1351 0
-1352 82 0
-1352 1351 0
-1353 258 1352 83 441 279 0
1353 -258 0
1353 -1352 0
1353 -83 0
1353 -441 0
1353 -279 0
1354 -282 -1353 0
-1354 282 0
-1354 1353 0
1355 -64 -1029 0
-1355 64 0
-1355 1029 0
-1356 80 1355 108 0
1356 -80 0
1356 -1355 0
1356 -108 0
1357 -111 -1356 0
-1357 111 0
-1357 1356 0
-1358 6 1354 1357 0
1358 -6 0
1358 -1354 0
1358 -1357 0
1359 -5 -1358 0
-1359 5 0
-1359 1358 0
-1360 8 1350 1 1359 0
1360 -8 0
1360 -1350 0
1360 -1 0
1360 -1359 0
1361 -26 -1360 0
-1361 26 0
-1361 1360 0
-1362 32 1312 0
1362 -32 0
1362 -1312 0
1363 -34 -1362 0
-1363 34 0
-1363 1362 0
-1364 36 1363 0
1364 -36 0
1364 -1363 0
1365 -38 -1364 0
-1365 38 0
-1365 1364 0
-1366 40 1311 1365 0
1366 -40 0
1366 -1311 0
1366 -1365 0
1367 -42 -1366 0
-1367 42 0
-1367 1366 0
-1368 50 1320 1325 0
1368 -50 0
1368 -1320 0
1368 -1325 0
1369 -52 -1368 0
-1369 52 0
-1369 1368 0
1370 -60 -1364 0
-1370 60 0
-1370 1364 0
-1371 62 1310 1367 1369 98 1370 0
1371 -62 0
1371 -1310 0
1371 -1367 0
1371 -1369 0
1371 -98 0
1371 -1370 0
1372 -64 -1371 0
-1372 64 0
-1372 1371 0
-1373 80 1309 1372 1343 0
1373 -80 0
1373 -1309 0
1373 -1372 0
1373 -1343 0
1374 -133 -1373 0
-1374 133 0
-1374 1373 0
-1375 28 1361 1374 0
1375 -28 0
1375 -1361 0
1375 -1374 0
1376 -550 -1375 0
-1376 550 0
-1376 1375 0
-1377 552 1308 1345 1376 0
1377 -552 0
1377 -1308 0
1377 -1345 0
1377 -1376 0
1378 -913 -1377 0
-1378 913 0
-1378 1377 0
1379 -10 -892 0
-1379 10 0
-1379 892 0
1380 -12 -892 0
-1380 12 0
-1380 892 0
1381 -22 -892 0
-1381 22 0
-1381 892 0
1382 -30 -894 0
-1382 30 0
-1382 894 0
-1383 32 1381 1382 0
1383 -32 0
1383 -1381 0
1383 -1382 0
1384 -34 -1383 0
-1384 34 0
-1384 1383 0
-1385 36 1384 0
1385 -36 0
1385 -1384 0
1386 -38 -1385 0
-1386 38 0
-1386 1385 0
-1387 40 1386 0
1387 -40 0
1387 -1386 0
1388 -42 -1387 0
-1388 42 0
-1388 1387 0
1389 -44 -892 0
-1389 44 0
-1389 892 0
1390 -46 -894 0
-1390 46 0
-1390 894 0
-1391 50 1389 1390 47 0
1391 -50 0
1391 -1389 0
1391 -1390 0
1391 -47 0
1392 -52 -1391 0
-1392 52 0
-1392 1391 0
1393 -58 -896 0
-1393 58 0
-1393 896 0
1394 -60 -1385 0
-1394 60 0
-1394 1385 0
-1395 62 1380 1388 1392 1393 1394 0
1395 -62 0
1395 -1380 0
1395 -1388 0
1395 -1392 0
1395 -1393 0
1395 -1394 0
1396 -64 -1395 0
-1396 64 0
-1396 1395 0
1397 -78 -899 0
-1397 78 0
-1397 899 0
-1398 80 1379 1396 1397 0
1398 -80 0
1398 -1379 0
1398 -1396 0
1398 -1397 0
1399 -82 -1398 0
-1399 82 0
-1399 1398 0
1400 -64 -584 0
-1400 64 0
-1400 584 0
-1401 80 556 1400 590 0
1401 -80 0
1401 -556 0
1401 -1400 0
1401 -590 0
1402 -423 -1401 0
-1402 423 0
-1402 1401 0
-1403 6 1357 0
1403 -6 0
1403 -1357 0
1404 -5 -1403 0
-1404 5 0
-1404 1403 0
-1405 8 1404 0
1405 -8 0
1405 -1404 0
1406 -26 -1405 0
-1406 26 0
-1406 1405 0
1407 -64 -607 0
-1407 64 0
-1407 607 0
-1408 80 556 1407 590 0
1408 -80 0
1408 -556 0
1408 -1407 0
1408 -590 0
1409 -133 -1408 0
-1409 133 0
-1409 1408 0
-1410 28 1406 1409 0
1410 -28 0
1410 -1406 0
1410 -1409 0
1411 -550 -1410 0
-1411 550 0
-1411 1410 0
-1412 552 1402 1411 0
1412 -552 0
1412 -1402 0
1412 -1411 0
1413 -855 -1412 0
-1413 855 0
-1413 1412 0
-1414 3 1413 0
1414 -3 0
1414 -1413 0
1415 -84 -1414 0
-1415 84 0
-1415 1414 0
-1416 80 1285 77 0
1416 -80 0
1416 -1285 0
1416 -77 0
1417 -423 -1416 0
-1417 423 0
-1417 1416 0
-1418 552 1417 0
1418 -552 0
1418 -1417 0
1419 -864 -1418 0
-1419 864 0
-1419 1418 0
1420 -423 -1286 0
-1420 423 0
-1420 1286 0
-1421 552 1420 0
1421 -552 0
1421 -1420 0
1422 -855 -1421 0
-1422 855 0
-1422 1421 0
-1423 3 1422 0
1423 -3 0
1423 -1422 0
1424 -2 -1423 0
-1424 2 0
-1424 1423 0
1425 -64 -1218 0
-1425 64 0
-1425 1218 0
-1426 80 1425 108 0
1426 -80 0
1426 -1425 0
1426 -108 0
1427 -111 -1426 0
-1427 111 0
-1427 1426 0
-1428 6 1427 0
1428 -6 0
1428 -1427 0
1429 -5 -1428 0
-1429 5 0
-1429 1428 0
-1430 8 1419 1424 1429 0
1430 -8 0
1430 -1419 0
1430 -1424 0
1430 -1429 0
1431 -26 -1430 0
-1431 26 0
-1431 1430 0
-1432 32 1381 0
1432 -32 0
1432 -1381 0
1433 -34 -1432 0
-1433 34 0
-1433 1432 0
-1434 36 1433 0
1434 -36 0
1434 -1433 0
1435 -38 -1434 0
-1435 38 0
-1435 1434 0
-1436 40 1435 0
1436 -40 0
1436 -1435 0
1437 -42 -1436 0
-1437 42 0
-1437 1436 0
-1438 50 1389 47 0
1438 -50 0
1438 -1389 0
1438 -47 0
1439 -52 -1438 0
-1439 52 0
-1439 1438 0
1440 -60 -1434 0
-1440 60 0
-1440 1434 0
-1441 62 1380 1437 1439 1440 0
1441 -62 0
1441 -1380 0
1441 -1437 0
1441 -1439 0
1441 -1440 0
1442 -64 -1441 0
-1442 64 0
-1442 1441 0
-1443 80 1379 1442 1397 0
1443 -80 0
1443 -1379 0
1443 -1442 0
1443 -1397 0
1444 -133 -1443 0
-1444 133 0
-1444 1443 0
-1445 28 1431 1444 0
1445 -28 0
1445 -1431 0
1445 -1444 0
1446 -54 -1445 0
-1446 54 0
-1446 1445 0
-1447 56 1446 0
1447 -56 0
1447 -1446 0
1448 -247 -1447 0
-1448 247 0
-1448 1447 0
-1449 80 1282 0
1449 -80 0
1449 -1282 0
1450 -423 -1449 0
-1450 423 0
-1450 1449 0
-1451 80 1355 0
1451 -80 0
1451 -1355 0
1452 -133 -1451 0
-1452 133 0
-1452 1451 0
-1453 28 1452 0
1453 -28 0
1453 -1452 0
1454 -550 -1453 0
-1454 550 0
-1454 1453 0
-1455 552 1450 1454 0
1455 -552 0
1455 -1450 0
1455 -1454 0
1456 -864 -1455 0
-1456 864 0
-1456 1455 0
1457 -423 -1299 0
-1457 423 0
-1457 1299 0
-1458 552 1457 1454 0
1458 -552 0
1458 -1457 0
1458 -1454 0
1459 -855 -1458 0
-1459 855 0
-1459 1458 0
-1460 3 1459 0
1460 -3 0
1460 -1459 0
1461 -2 -1460 0
-1461 2 0
-1461 1460 0
1462 -64 -1202 0
-1462 64 0
-1462 1202 0
-1463 80 1462 0
1463 -80 0
1463 -1462 0
1464 -111 -1463 0
-1464 111 0
-1464 1463 0
-1465 6 1464 0
1465 -6 0
1465 -1464 0
1466 -5 -1465 0
-1466 5 0
-1466 1465 0
-1467 8 1456 1461 1466 0
1467 -8 0
1467 -1456 0
1467 -1461 0
1467 -1466 0
1468 -74 -1467 0
-1468 74 0
-1468 1467 0
-1469 76 1468 0
1469 -76 0
1469 -1468 0
1470 -256 -1469 0
-1470 256 0
-1470 1469 0
-1471 258 1399 1415 1448 1470 0
1471 -258 0
1471 -1399 0
1471 -1415 0
1471 -1448 0
1471 -1470 0
1472 -314 -1471 0
-1472 314 0
-1472 1471 0
-1473 80 166 77 0
1473 -80 0
1473 -166 0
1473 -77 0
1474 -82 -1473 0
-1474 82 0
-1474 1473 0
1475 -133 -1426 0
-1475 133 0
-1475 1426 0
-1476 28 1475 0
1476 -28 0
1476 -1475 0
1477 -54 -1476 0
-1477 54 0
-1477 1476 0
-1478 56 1477 0
1478 -56 0
1478 -1477 0
1479 -247 -1478 0
-1479 247 0
-1479 1478 0
-1480 258 1474 83 1479 279 0
1480 -258 0
1480 -1474 0
1480 -83 0
1480 -1479 0
1480 -279 0
1481 -260 -1480 0
-1481 260 0
-1481 1480 0
1482 -64 -1180 0
-1482 64 0
-1482 1180 0
-1483 80 1482 108 0
1483 -80 0
1483 -1482 0
1483 -108 0
1484 -423 -1483 0
-1484 423 0
-1484 1483 0
1485 -133 -1356 0
-1485 133 0
-1485 1356 0
-1486 28 1485 0
1486 -28 0
1486 -1485 0
1487 -550 -1486 0
-1487 550 0
-1487 1486 0
-1488 552 1481 1484 1487 0
1488 -552 0
1488 -1481 0
1488 -1484 0
1488 -1487 0
1489 -864 -1488 0
-1489 864 0
-1489 1488 0
1490 -423 -167 0
-1490 423 0
-1490 167 0
-1491 552 1490 1487 0
1491 -552 0
1491 -1490 0
1491 -1487 0
1492 -855 -1491 0
-1492 855 0
-1492 1491 0
-1493 3 1492 0
1493 -3 0
1493 -1492 0
1494 -84 -1493 0
-1494 84 0
-1494 1493 0
-1495 258 1399 1494 1479 279 0
1495 -258 0
1495 -1399 0
1495 -1494 0
1495 -1479 0
1495 -279 0
1496 -271 -1495 0
-1496 271 0
-1496 1495 0
1497 -82 -167 0
-1497 82 0
-1497 167 0
-1498 258 1497 83 1479 279 0
1498 -258 0
1498 -1497 0
1498 -83 0
1498 -1479 0
1498 -279 0
1499 -260 -1498 0
-1499 260 0
-1499 1498 0
-1500 552 1499 1484 1487 0
1500 -552 0
1500 -1499 0
1500 -1484 0
1500 -1487 0
1501 -855 -1500 0
-1501 855 0
-1501 1500 0
-1502 3 1501 0
1502 -3 0
1502 -1501 0
1503 -2 -1502 0
-1503 2 0
-1503 1502 0
-1504 80 1462 108 0
1504 -80 0
1504 -1462 0
1504 -108 0
1505 -82 -1504 0
-1505 82 0
-1505 1504 0
1506 -133 -1351 0
-1506 133 0
-1506 1351 0
-1507 28 1506 0
1507 -28 0
1507 -1506 0
1508 -550 -1507 0
-1508 550 0
-1508 1507 0
-1509 552 1490 1508 0
1509 -552 0
1509 -1490 0
1509 -1508 0
1510 -855 -1509 0
-1510 855 0
-1510 1509 0
-1511 3 1510 0
1511 -3 0
1511 -1510 0
1512 -84 -1511 0
-1512 84 0
-1512 1511 0
-1513 258 1505 1512 1479 279 0
1513 -258 0
1513 -1505 0
1513 -1512 0
1513 -1479 0
1513 -279 0
1514 -282 -1513 0
-1514 282 0
-1514 1513 0
1515 -64 -1272 0
-1515 64 0
-1515 1272 0
-1516 80 1515 108 0
1516 -80 0
1516 -1515 0
1516 -108 0
1517 -111 -1516 0
-1517 111 0
-1517 1516 0
-1518 6 1514 1517 0
1518 -6 0
1518 -1514 0
1518 -1517 0
1519 -5 -1518 0
-1519 5 0
-1519 1518 0
-1520 8 1489 1496 1503 1519 0
1520 -8 0
1520 -1489 0
1520 -1496 0
1520 -1503 0
1520 -1519 0
1521 -14 -1520 0
-1521 14 0
-1521 1520 0
1522 -133 -174 0
-1522 133 0
-1522 174 0
-1523 28 1522 0
1523 -28 0
1523 -1522 0
1524 -54 -1523 0
-1524 54 0
-1524 1523 0
-1525 56 1524 0
1525 -56 0
1525 -1524 0
1526 -247 -1525 0
-1526 247 0
-1526 1525 0
-1527 258 1497 83 1526 279 0
1527 -258 0
1527 -1497 0
1527 -83 0
1527 -1526 0
1527 -279 0
1528 -260 -1527 0
-1528 260 0
-1528 1527 0
1529 -423 -174 0
-1529 423 0
-1529 174 0
1530 -550 -1523 0
-1530 550 0
-1530 1523 0
-1531 552 1528 1529 1530 0
1531 -552 0
1531 -1528 0
1531 -1529 0
1531 -1530 0
1532 -864 -1531 0
-1532 864 0
-1532 1531 0
1533 -82 -174 0
-1533 82 0
-1533 174 0
-1534 552 1529 1530 0
1534 -552 0
1534 -1529 0
1534 -1530 0
1535 -855 -1534 0
-1535 855 0
-1535 1534 0
-1536 3 1535 0
1536 -3 0
1536 -1535 0
1537 -84 -1536 0
-1537 84 0
-1537 1536 0
-1538 258 1533 1537 1526 279 0
1538 -258 0
1538 -1533 0
1538 -1537 0
1538 -1526 0
1538 -279 0
1539 -271 -1538 0
-1539 271 0
-1539 1538 0
-1540 258 1533 83 1526 279 0
1540 -258 0
1540 -1533 0
1540 -83 0
1540 -1526 0
1540 -279 0
1541 -260 -1540 0
-1541 260 0
-1541 1540 0
-1542 552 1541 1529 1530 0
1542 -552 0
1542 -1541 0
1542 -1529 0
1542 -1530 0
1543 -855 -1542 0
-1543 855 0
-1543 1542 0
-1544 3 1543 0
1544 -3 0
1544 -1543 0
1545 -2 -1544 0
-1545 2 0
-1545 1544 0
1546 -282 -1538 0
-1546 282 0
-1546 1538 0
-1547 6 1546 175 0
1547 -6 0
1547 -1546 0
1547 -175 0
1548 -5 -1547 0
-1548 5 0
-1548 1547 0
-1549 8 1532 1539 1545 1548 0
1549 -8 0
1549 -1532 0
1549 -1539 0
1549 -1545 0
1549 -1548 0
1550 -12 -1549 0
-1550 12 0
-1550 1549 0
-1551 80 1379 1397 0
1551 -80 0
1551 -1379 0
1551 -1397 0
1552 -82 -1551 0
-1552 82 0
-1552 1551 0
1553 -423 -623 0
-1553 423 0
-1553 623 0
1554 -550 -625 0
-1554 550 0
-1554 625 0
-1555 552 1553 1554 0
1555 -552 0
1555 -1553 0
1555 -1554 0
1556 -855 -1555 0
-1556 855 0
-1556 1555 0
-1557 3 1556 0
1557 -3 0
1557 -1556 0
1558 -84 -1557 0
-1558 84 0
-1558 1557 0
1559 -864 -1534 0
-1559 864 0
-1559 1534 0
1560 -2 -1536 0
-1560 2 0
-1560 1536 0
-1561 8 1559 1560 177 0
1561 -8 0
1561 -1559 0
1561 -1560 0
1561 -177 0
1562 -26 -1561 0
-1562 26 0
-1562 1561 0
1563 -133 -1551 0
-1563 133 0
-1563 1551 0
-1564 28 1562 1563 0
1564 -28 0
1564 -1562 0
1564 -1563 0
1565 -54 -1564 0
-1565 54 0
-1565 1564 0
-1566 56 1565 0
1566 -56 0
1566 -1565 0
1567 -247 -1566 0
-1567 247 0
-1567 1566 0
1568 -423 -80 0
-1568 423 0
-1568 80 0
1569 -133 -80 0
-1569 133 0
-1569 80 0
-1570 28 1569 0
1570 -28 0
1570 -1569 0
1571 -550 -1570 0
-1571 550 0
-1571 1570 0
-1572 552 1568 1571 0
1572 -552 0
1572 -1568 0
1572 -1571 0
1573 -864 -1572 0
-1573 864 0
-1573 1572 0
1574 -855 -1572 0
-1574 855 0
-1574 1572 0
-1575 3 1574 0
1575 -3 0
1575 -1574 0
1576 -2 -1575 0
-1576 2 0
-1576 1575 0
1577 -111 -80 0
-1577 111 0
-1577 80 0
-1578 6 1577 0
1578 -6 0
1578 -1577 0
1579 -5 -1578 0
-1579 5 0
-1579 1578 0
-1580 8 1573 1576 1579 0
1580 -8 0
1580 -1573 0
1580 -1576 0
1580 -1579 0
1581 -74 -1580 0
-1581 74 0
-1581 1580 0
-1582 76 1581 0
1582 -76 0
1582 -1581 0
1583 -256 -1582 0
-1583 256 0
-1583 1582 0
-1584 258 1552 1558 1567 1583 0
1584 -258 0
1584 -1552 0
1584 -1558 0
1584 -1567 0
1584 -1583 0
1585 -312 -1584 0
-1585 312 0
-1585 1584 0
1586 -864 -1542 0
-1586 864 0
-1586 1542 0
-1587 8 1586 1539 1545 1548 0
1587 -8 0
1587 -1586 0
1587 -1539 0
1587 -1545 0
1587 -1548 0
1588 -22 -1587 0
-1588 22 0
-1588 1587 0
-1589 258 1533 83 441 279 0
1589 -258 0
1589 -1533 0
1589 -83 0
1589 -441 0
1589 -279 0
1590 -260 -1589 0
-1590 260 0
-1590 1589 0
-1591 552 1590 1529 0
1591 -552 0
1591 -1590 0
1591 -1529 0
1592 -864 -1591 0
-1592 864 0
-1592 1591 0
-1593 258 1533 1537 441 279 0
1593 -258 0
1593 -1533 0
1593 -1537 0
1593 -441 0
1593 -279 0
1594 -271 -1593 0
-1594 271 0
-1594 1593 0
1595 -855 -1591 0
-1595 855 0
-1595 1591 0
-1596 3 1595 0
1596 -3 0
1596 -1595 0
1597 -2 -1596 0
-1597 2 0
-1597 1596 0
1598 -282 -1593 0
-1598 282 0
-1598 1593 0
-1599 6 1598 175 0
1599 -6 0
1599 -1598 0
1599 -175 0
1600 -5 -1599 0
-1600 5 0
-1600 1599 0
-1601 8 1592 1594 1597 1600 0
1601 -8 0
1601 -1592 0
1601 -1594 0
1601 -1597 0
1601 -1600 0
1602 -26 -1601 0
-1602 26 0
-1602 1601 0
-1603 80 1112 1005 0
1603 -80 0
1603 -1112 0
1603 -1005 0
1604 -133 -1603 0
-1604 133 0
-1604 1603 0
-1605 28 1602 1604 0
1605 -28 0
1605 -1602 0
1605 -1604 0
1606 -30 -1605 0
-1606 30 0
-1606 1605 0
-1607 32 1588 1606 0
1607 -32 0
1607 -1588 0
1607 -1606 0
1608 -34 -1607 0
-1608 34 0
-1608 1607 0
-1609 36 1608 0
1609 -36 0
1609 -1608 0
1610 -38 -1609 0
-1610 38 0
-1610 1609 0
-1611 40 1585 1610 0
1611 -40 0
1611 -1585 0
1611 -1610 0
1612 -42 -1611 0
-1612 42 0
-1612 1611 0
1613 -44 -1587 0
-1613 44 0
-1613 1587 0
1614 -193 -1603 0
-1614 193 0
-1614 1603 0
1615 -46 -1605 0
-1615 46 0
-1615 1605 0
1616 -10 -946 0
-1616 10 0
-1616 946 0
1617 -78 -953 0
-1617 78 0
-1617 953 0
-1618 80 1616 1617 0
1618 -80 0
1618 -1616 0
1618 -1617 0
1619 -82 -1618 0
-1619 82 0
-1619 1618 0
1620 -423 -640 0
-1620 423 0
-1620 640 0
1621 -133 -640 0
-1621 133 0
-1621 640 0
-1622 28 712 1621 0
1622 -28 0
1622 -712 0
1622 -1621 0
1623 -550 -1622 0
-1623 550 0
-1623 1622 0
-1624 552 1620 1623 0
1624 -552 0
1624 -1620 0
1624 -1623 0
1625 -855 -1624 0
-1625 855 0
-1625 1624 0
-1626 3 1625 0
1626 -3 0
1626 -1625 0
1627 -84 -1626 0
-1627 84 0
-1627 1626 0
-1628 8 1559 1560 0
1628 -8 0
1628 -1559 0
1628 -1560 0
1629 -26 -1628 0
-1629 26 0
-1629 1628 0
1630 -133 -1618 0
-1630 133 0
-1630 1618 0
-1631 28 1629 1630 0
1631 -28 0
1631 -1629 0
1631 -1630 0
1632 -54 -1631 0
-1632 54 0
-1632 1631 0
-1633 56 1632 0
1633 -56 0
1633 -1632 0
1634 -247 -1633 0
-1634 247 0
-1634 1633 0
-1635 8 1573 1576 0
1635 -8 0
1635 -1573 0
1635 -1576 0
1636 -74 -1635 0
-1636 74 0
-1636 1635 0
-1637 76 1636 0
1637 -76 0
1637 -1636 0
1638 -256 -1637 0
-1638 256 0
-1638 1637 0
-1639 258 1619 1627 1634 1638 0
1639 -258 0
1639 -1619 0
1639 -1627 0
1639 -1634 0
1639 -1638 0
1640 -282 -1639 0
-1640 282 0
-1640 1639 0
-1641 8 882 870 876 0
1641 -8 0
1641 -882 0
1641 -870 0
1641 -876 0
1642 -10 -1641 0
-1642 10 0
-1642 1641 0
1643 -74 -1641 0
-1643 74 0
-1643 1641 0
-1644 76 1643 0
1644 -76 0
1644 -1643 0
1645 -78 -1644 0
-1645 78 0
-1645 1644 0
-1646 80 1642 1645 0
1646 -80 0
1646 -1642 0
1646 -1645 0
1647 -111 -1646 0
-1647 111 0
-1647 1646 0
-1648 6 1640 1647 0
1648 -6 0
1648 -1640 0
1648 -1647 0
1649 -48 -1648 0
-1649 48 0
-1649 1648 0
-1650 50 1613 1614 1615 1649 0
1650 -50 0
1650 -1613 0
1650 -1614 0
1650 -1615 0
1650 -1649 0
1651 -52 -1650 0
-1651 52 0
-1651 1650 0
1652 -10 -992 0
-1652 10 0
-1652 992 0
1653 -74 -992 0
-1653 74 0
-1653 992 0
-1654 76 1653 0
1654 -76 0
1654 -1653 0
1655 -78 -1654 0
-1655 78 0
-1655 1654 0
-1656 80 1652 1655 0
1656 -80 0
1656 -1652 0
1656 -1655 0
1657 -133 -1656 0
-1657 133 0
-1657 1656 0
-1658 28 1602 1657 0
1658 -28 0
1658 -1602 0
1658 -1657 0
1659 -54 -1658 0
-1659 54 0
-1659 1658 0
-1660 56 1659 0
1660 -56 0
1660 -1659 0
1661 -58 -1660 0
-1661 58 0
-1661 1660 0
1662 -60 -1609 0
-1662 60 0
-1662 1609 0
-1663 62 1550 1612 1651 1661 1662 0
1663 -62 0
1663 -1550 0
1663 -1612 0
1663 -1651 0
1663 -1661 0
1663 -1662 0
1664 -69 -1663 0
-1664 69 0
-1664 1663 0
1665 -82 -1401 0
-1665 82 0
-1665 1401 0
-1666 8 1429 0
1666 -8 0
1666 -1429 0
1667 -26 -1666 0
-1667 26 0
-1667 1666 0
1668 -64 -662 0
-1668 64 0
-1668 662 0
-1669 80 556 1668 590 0
1669 -80 0
1669 -556 0
1669 -1668 0
1669 -590 0
1670 -133 -1669 0
-1670 133 0
-1670 1669 0
-1671 28 1667 1670 0
1671 -28 0
1671 -1667 0
1671 -1670 0
1672 -54 -1671 0
-1672 54 0
-1672 1671 0
-1673 56 1672 0
1673 -56 0
1673 -1672 0
1674 -247 -1673 0
-1674 247 0
-1674 1673 0
-1675 8 1302 0
1675 -8 0
1675 -1302 0
1676 -74 -1675 0
-1676 74 0
-1676 1675 0
-1677 76 1676 0
1677 -76 0
1677 -1676 0
1678 -256 -1677 0
-1678 256 0
-1678 1677 0
-1679 258 1665 83 1674 1678 0
1679 -258 0
1679 -1665 0
1679 -83 0
1679 -1674 0
1679 -1678 0
1680 -260 -1679 0
-1680 260 0
-1680 1679 0
1681 -10 -918 0
-1681 10 0
-1681 918 0
1682 -12 -918 0
-1682 12 0
-1682 918 0
1683 -312 -916 0
-1683 312 0
-1683 916 0
1684 -22 -918 0
-1684 22 0
-1684 918 0
1685 -30 -920 0
-1685 30 0
-1685 920 0
-1686 32 1684 1685 0
1686 -32 0
1686 -1684 0
1686 -1685 0
1687 -34 -1686 0
-1687 34 0
-1687 1686 0
-1688 36 1687 0
1688 -36 0
1688 -1687 0
1689 -38 -1688 0
-1689 38 0
-1689 1688 0
-1690 40 1683 1689 0
1690 -40 0
1690 -1683 0
1690 -1689 0
1691 -42 -1690 0
-1691 42 0
-1691 1690 0
1692 -44 -918 0
-1692 44 0
-1692 918 0
1693 -46 -920 0
-1693 46 0
-1693 920 0
-1694 258 83 725 726 0
1694 -258 0
1694 -83 0
1694 -725 0
1694 -726 0
1695 -282 -1694 0
-1695 282 0
-1695 1694 0
-1696 6 1695 0
1696 -6 0
1696 -1695 0
1697 -48 -1696 0
-1697 48 0
-1697 1696 0
-1698 50 1692 1693 1697 0
1698 -50 0
1698 -1692 0
1698 -1693 0
1698 -1697 0
1699 -52 -1698 0
-1699 52 0
-1699 1698 0
1700 -271 -967 0
-1700 271 0
-1700 967 0
-1701 8 1700 1331 0
1701 -8 0
1701 -1700 0
1701 -1331 0
1702 -26 -1701 0
-1702 26 0
-1702 1701 0
-1703 28 1702 0
1703 -28 0
1703 -1702 0
1704 -54 -1703 0
-1704 54 0
-1704 1703 0
-1705 56 1704 0
1705 -56 0
1705 -1704 0
1706 -58 -1705 0
-1706 58 0
-1706 1705 0
1707 -60 -1688 0
-1707 60 0
-1707 1688 0
-1708 62 1682 1691 1699 1706 1707 0
1708 -62 0
1708 -1682 0
1708 -1691 0
1708 -1699 0
1708 -1706 0
1708 -1707 0
1709 -64 -1708 0
-1709 64 0
-1709 1708 0
1710 -74 -918 0
-1710 74 0
-1710 918 0
-1711 76 1710 0
1711 -76 0
1711 -1710 0
1712 -78 -1711 0
-1712 78 0
-1712 1711 0
-1713 80 1681 1709 1712 0
1713 -80 0
1713 -1681 0
1713 -1709 0
1713 -1712 0
1714 -423 -1713 0
-1714 423 0
-1714 1713 0
1715 -82 -1356 0
-1715 82 0
-1715 1356 0
-1716 258 1715 83 441 279 0
1716 -258 0
1716 -1715 0
1716 -83 0
1716 -441 0
1716 -279 0
1717 -271 -1716 0
-1717 271 0
-1717 1716 0
-1718 8 1717 1359 0
1718 -8 0
1718 -1717 0
1718 -1359 0
1719 -26 -1718 0
-1719 26 0
-1719 1718 0
-1720 32 1684 0
1720 -32 0
1720 -1684 0
1721 -34 -1720 0
-1721 34 0
-1721 1720 0
-1722 36 1721 0
1722 -36 0
1722 -1721 0
1723 -38 -1722 0
-1723 38 0
-1723 1722 0
-1724 40 1683 1723 0
1724 -40 0
1724 -1683 0
1724 -1723 0
1725 -42 -1724 0
-1725 42 0
-1725 1724 0
-1726 50 1692 1697 0
1726 -50 0
1726 -1692 0
1726 -1697 0
1727 -52 -1726 0
-1727 52 0
-1727 1726 0
1728 -60 -1722 0
-1728 60 0
-1728 1722 0
-1729 62 1682 1725 1727 98 1728 0
1729 -62 0
1729 -1682 0
1729 -1725 0
1729 -1727 0
1729 -98 0
1729 -1728 0
1730 -64 -1729 0
-1730 64 0
-1730 1729 0
-1731 80 1681 1730 1712 0
1731 -80 0
1731 -1681 0
1731 -1730 0
1731 -1712 0
1732 -133 -1731 0
-1732 133 0
-1732 1731 0
-1733 28 1719 1732 0
1733 -28 0
1733 -1719 0
1733 -1732 0
1734 -550 -1733 0
-1734 550 0
-1734 1733 0
-1735 552 1680 1714 1734 0
1735 -552 0
1735 -1680 0
1735 -1714 0
1735 -1734 0
1736 -855 -1735 0
-1736 855 0
-1736 1735 0
-1737 3 1736 0
1737 -3 0
1737 -1736 0
1738 -16 -1737 0
-1738 16 0
-1738 1737 0
-1739 18 1378 1472 1521 1664 1738 0
1739 -18 0
1739 -1378 0
1739 -1472 0
1739 -1521 0
1739 -1664 0
1739 -1738 0
1740 -214 -1739 0
-1740 214 0
-1740 1739 0
-1741 216 1281 1740 0
1741 -216 0
1741 -1281 0
1741 -1740 0
1742 -218 -1741 0
-1742 218 0
-1742 1741 0
-1743 220 1007 1154 1742 0
1743 -220 0
1743 -1007 0
1743 -1154 0
1743 -1742 0
1744 -1745 -1743 0
-1744 1745 0
-1744 1743 0
-1746 1747 553 857 1744 0
1746 -1747 0
1746 -553 0
1746 -857 0
1746 -1744 0
1748 -1746 -1749 0
-1748 1746 0
-1748 1749 0
1748 0
