c BC-S1.2
p cnf 793 2728
1 -2 -3 0
-1 2 0
-1 3 0
-4 5 1 0
4 -5 0
4 -1 0
6 -7 -4 0
-6 7 0
-6 4 0
8 -9 -4 0
-8 9 0
-8 4 0
10 -11 -3 0
-10 11 0
-10 3 0
12 -13 -4 0
-12 13 0
-12 4 0
14 -15 -4 0
-14 15 0
-14 4 0
16 -17 -4 0
-16 17 0
-16 4 0
-18 19 16 0
18 -19 0
18 -16 0
20 -21 -18 0
-20 21 0
-20 18 0
22 -23 -24 0
-22 23 0
-22 24 0
25 -26 -27 0
-25 26 0
-25 27 0
-28 29 22 25 0
28 -29 0
28 -22 0
28 -25 0
30 -31 -28 0
-30 31 0
-30 28 0
-32 33 30 0
32 -33 0
32 -30 0
34 -35 -32 0
-34 35 0
-34 32 0
36 -37 -38 0
-36 37 0
-36 38 0
39 -40 -24 0
-39 40 0
-39 24 0
-41 42 14 20 34 36 39 0
41 -42 0
41 -14 0
41 -20 0
41 -34 0
41 -36 0
41 -39 0
43 -44 -41 0
-43 44 0
-43 41 0
45 -46 -41 0
-45 46 0
-45 41 0
-47 48 45 0
47 -48 0
47 -45 0
49 -50 -47 0
-49 50 0
-49 47 0
-51 52 12 43 49 0
51 -52 0
51 -12 0
51 -43 0
51 -49 0
53 -54 -51 0
-53 54 0
-53 51 0
55 -56 -4 0
-55 56 0
-55 4 0
-57 58 55 0
57 -58 0
57 -55 0
59 -60 -57 0
-59 60 0
-59 57 0
61 -62 -57 0
-61 62 0
-61 57 0
63 -64 -24 0
-63 64 0
-63 24 0
-65 66 61 63 0
65 -66 0
65 -61 0
65 -63 0
67 -68 -65 0
-67 68 0
-67 65 0
-69 70 53 59 67 0
69 -70 0
69 -53 0
69 -59 0
69 -67 0
71 -72 -69 0
-71 72 0
-71 69 0
73 -74 -28 0
-73 74 0
-73 28 0
75 -76 -4 0
-75 76 0
-75 4 0
-77 78 75 0
77 -78 0
77 -75 0
79 -80 -77 0
-79 80 0
-79 77 0
-81 82 73 79 0
81 -82 0
81 -73 0
81 -79 0
83 -84 -81 0
-83 84 0
-83 81 0
-85 86 10 71 83 0
85 -86 0
85 -10 0
85 -71 0
85 -83 0
87 -88 -85 0
-87 88 0
-87 85 0
89 -90 -18 0
-89 90 0
-89 18 0
91 -92 -4 0
-91 92 0
-91 4 0
93 -94 -4 0
-93 94 0
-93 4 0
95 -96 -18 0
-95 96 0
-95 18 0
97 -98 -57 0
-97 98 0
-97 57 0
-99 100 93 95 97 0
99 -100 0
99 -93 0
99 -95 0
99 -97 0
101 -102 -99 0
-101 102 0
-101 99 0
-103 104 91 101 0
103 -104 0
103 -91 0
103 -101 0
105 -106 -103 0
-105 106 0
-105 103 0
107 -108 -3 0
-107 108 0
-107 3 0
-109 110 8 87 89 105 107 0
109 -110 0
109 -8 0
109 -87 0
109 -89 0
109 -105 0
109 -107 0
111 -112 -109 0
-111 112 0
-111 109 0
113 -114 -4 0
-113 114 0
-113 4 0
115 -50 -48 0
-115 50 0
-115 48 0
-116 52 12 115 0
116 -52 0
116 -12 0
116 -115 0
117 -54 -116 0
-117 54 0
-117 116 0
-118 70 117 59 67 0
118 -70 0
118 -117 0
118 -59 0
118 -67 0
119 -72 -118 0
-119 72 0
-119 118 0
-120 110 8 89 105 107 0
120 -110 0
120 -8 0
120 -89 0
120 -105 0
120 -107 0
121 -122 -120 0
-121 122 0
-121 120 0
-123 29 121 22 25 0
123 -29 0
123 -121 0
123 -22 0
123 -25 0
124 -74 -123 0
-124 74 0
-124 123 0
-125 82 124 79 0
125 -82 0
125 -124 0
125 -79 0
126 -84 -125 0
-126 84 0
-126 125 0
-127 86 10 119 126 0
127 -86 0
127 -10 0
127 -119 0
127 -126 0
128 -129 -127 0
-128 129 0
-128 127 0
-130 86 10 119 83 0
130 -86 0
130 -10 0
130 -119 0
130 -83 0
131 -88 -130 0
-131 88 0
-131 130 0
-132 110 8 131 89 105 107 0
132 -110 0
132 -8 0
132 -131 0
132 -89 0
132 -105 0
132 -107 0
133 -122 -132 0
-133 122 0
-133 132 0
-134 82 79 0
134 -82 0
134 -79 0
135 -84 -134 0
-135 84 0
-135 134 0
-136 86 10 119 135 0
136 -86 0
136 -10 0
136 -119 0
136 -135 0
137 -138 -136 0
-137 138 0
-137 136 0
-139 27 137 0
139 -27 0
139 -137 0
140 -26 -139 0
-140 26 0
-140 139 0
-141 29 133 22 140 0
141 -29 0
141 -133 0
141 -22 0
141 -140 0
142 -31 -141 0
-142 31 0
-142 141 0
-143 33 142 0
143 -33 0
143 -142 0
144 -35 -143 0
-144 35 0
-144 143 0
145 -146 -127 0
-145 146 0
-145 127 0
-147 38 145 0
147 -38 0
147 -145 0
148 -37 -147 0
-148 37 0
-148 147 0
-149 42 14 128 20 144 148 39 0
149 -42 0
149 -14 0
149 -128 0
149 -20 0
149 -144 0
149 -148 0
149 -39 0
150 -151 -149 0
-150 151 0
-150 149 0
152 -153 -3 0
-152 153 0
-152 3 0
154 -31 -123 0
-154 31 0
-154 123 0
-155 33 154 0
155 -33 0
155 -154 0
156 -35 -155 0
-156 35 0
-156 155 0
-157 42 14 20 156 36 39 0
157 -42 0
157 -14 0
157 -20 0
157 -156 0
157 -36 0
157 -39 0
158 -44 -157 0
-158 44 0
-158 157 0
159 -46 -157 0
-159 46 0
-159 157 0
-160 48 159 0
160 -48 0
160 -159 0
161 -50 -160 0
-161 50 0
-161 160 0
-162 52 12 158 161 0
162 -52 0
162 -12 0
162 -158 0
162 -161 0
163 -54 -162 0
-163 54 0
-163 162 0
-164 70 163 59 67 0
164 -70 0
164 -163 0
164 -59 0
164 -67 0
165 -72 -164 0
-165 72 0
-165 164 0
-166 82 124 0
166 -82 0
166 -124 0
167 -84 -166 0
-167 84 0
-167 166 0
-168 86 10 165 167 0
168 -86 0
168 -10 0
168 -165 0
168 -167 0
169 -170 -168 0
-169 170 0
-169 168 0
-171 78 75 169 0
171 -78 0
171 -75 0
171 -169 0
172 -173 -171 0
-172 173 0
-172 171 0
-174 175 111 113 150 152 172 0
174 -175 0
174 -111 0
174 -113 0
174 -150 0
174 -152 0
174 -172 0
176 -177 -174 0
-176 177 0
-176 174 0
178 -179 -18 0
-178 179 0
-178 18 0
180 -181 -149 0
-180 181 0
-180 149 0
-182 86 10 126 0
182 -86 0
182 -10 0
182 -126 0
183 -184 -182 0
-183 184 0
-183 182 0
185 -129 -182 0
-185 129 0
-185 182 0
-186 86 10 83 0
186 -86 0
186 -10 0
186 -83 0
187 -88 -186 0
-187 88 0
-187 186 0
-188 110 8 187 89 105 107 0
188 -110 0
188 -8 0
188 -187 0
188 -89 0
188 -105 0
188 -107 0
189 -122 -188 0
-189 122 0
-189 188 0
-190 86 10 135 0
190 -86 0
190 -10 0
190 -135 0
191 -138 -190 0
-191 138 0
-191 190 0
-192 27 191 0
192 -27 0
192 -191 0
193 -26 -192 0
-193 26 0
-193 192 0
-194 29 189 22 193 0
194 -29 0
194 -189 0
194 -22 0
194 -193 0
195 -31 -194 0
-195 31 0
-195 194 0
-196 33 195 0
196 -33 0
196 -195 0
197 -35 -196 0
-197 35 0
-197 196 0
198 -146 -182 0
-198 146 0
-198 182 0
-199 38 198 0
199 -38 0
199 -198 0
200 -37 -199 0
-200 37 0
-200 199 0
-201 42 14 185 20 197 200 39 0
201 -42 0
201 -14 0
201 -185 0
201 -20 0
201 -197 0
201 -200 0
201 -39 0
202 -44 -201 0
-202 44 0
-202 201 0
203 -46 -201 0
-203 46 0
-203 201 0
-204 48 203 0
204 -48 0
204 -203 0
205 -50 -204 0
-205 50 0
-205 204 0
-206 52 12 183 202 205 0
206 -52 0
206 -12 0
206 -183 0
206 -202 0
206 -205 0
207 -54 -206 0
-207 54 0
-207 206 0
-208 70 207 59 67 0
208 -70 0
208 -207 0
208 -59 0
208 -67 0
209 -210 -208 0
-209 210 0
-209 208 0
-211 212 6 176 178 180 209 0
211 -212 0
211 -6 0
211 -176 0
211 -178 0
211 -180 0
211 -209 0
213 -214 -211 0
-213 214 0
-213 211 0
215 -129 -130 0
-215 129 0
-215 130 0
-216 29 22 140 0
216 -29 0
216 -22 0
216 -140 0
217 -31 -216 0
-217 31 0
-217 216 0
-218 33 217 0
218 -33 0
218 -217 0
219 -35 -218 0
-219 35 0
-219 218 0
220 -146 -130 0
-220 146 0
-220 130 0
-221 38 220 0
221 -38 0
221 -220 0
222 -37 -221 0
-222 37 0
-222 221 0
-223 42 14 215 20 219 222 39 0
223 -42 0
223 -14 0
223 -215 0
223 -20 0
223 -219 0
223 -222 0
223 -39 0
224 -181 -223 0
-224 181 0
-224 223 0
225 -184 -186 0
-225 184 0
-225 186 0
226 -129 -186 0
-226 129 0
-226 186 0
-227 29 22 193 0
227 -29 0
227 -22 0
227 -193 0
228 -31 -227 0
-228 31 0
-228 227 0
-229 33 228 0
229 -33 0
229 -228 0
230 -35 -229 0
-230 35 0
-230 229 0
231 -146 -186 0
-231 146 0
-231 186 0
-232 38 231 0
232 -38 0
232 -231 0
233 -37 -232 0
-233 37 0
-233 232 0
-234 42 14 226 20 230 233 39 0
234 -42 0
234 -14 0
234 -226 0
234 -20 0
234 -230 0
234 -233 0
234 -39 0
235 -44 -234 0
-235 44 0
-235 234 0
236 -46 -234 0
-236 46 0
-236 234 0
-237 48 236 0
237 -48 0
237 -236 0
238 -50 -237 0
-238 50 0
-238 237 0
-239 52 12 225 235 238 0
239 -52 0
239 -12 0
239 -225 0
239 -235 0
239 -238 0
240 -54 -239 0
-240 54 0
-240 239 0
-241 70 240 59 67 0
241 -70 0
241 -240 0
241 -59 0
241 -67 0
242 -210 -241 0
-242 210 0
-242 241 0
-243 212 6 178 224 242 0
243 -212 0
243 -6 0
243 -178 0
243 -224 0
243 -242 0
244 -245 -243 0
-244 245 0
-244 243 0
-246 212 6 178 0
246 -212 0
246 -6 0
246 -178 0
247 -248 -246 0
-247 248 0
-247 246 0
-249 29 247 22 25 0
249 -29 0
249 -247 0
249 -22 0
249 -25 0
250 -31 -249 0
-250 31 0
-250 249 0
-251 33 250 0
251 -33 0
251 -250 0
252 -35 -251 0
-252 35 0
-252 251 0
-253 42 14 20 252 36 39 0
253 -42 0
253 -14 0
253 -20 0
253 -252 0
253 -36 0
253 -39 0
254 -44 -253 0
-254 44 0
-254 253 0
255 -181 -41 0
-255 181 0
-255 41 0
-256 212 6 178 255 0
256 -212 0
256 -6 0
256 -178 0
256 -255 0
257 -258 -256 0
-257 258 0
-257 256 0
259 -46 -253 0
-259 46 0
-259 253 0
-260 48 257 259 0
260 -48 0
260 -257 0
260 -259 0
261 -50 -260 0
-261 50 0
-261 260 0
-262 52 12 254 261 0
262 -52 0
262 -12 0
262 -254 0
262 -261 0
263 -54 -262 0
-263 54 0
-263 262 0
-264 70 263 59 67 0
264 -70 0
264 -263 0
264 -59 0
264 -67 0
265 -72 -264 0
-265 72 0
-265 264 0
266 -35 -33 0
-266 35 0
-266 33 0
-267 42 14 20 266 36 39 0
267 -42 0
267 -14 0
267 -20 0
267 -266 0
267 -36 0
267 -39 0
268 -181 -267 0
-268 181 0
-268 267 0
269 -44 -267 0
-269 44 0
-269 267 0
270 -46 -267 0
-270 46 0
-270 267 0
-271 48 270 0
271 -48 0
271 -270 0
272 -50 -271 0
-272 50 0
-272 271 0
-273 52 12 269 272 0
273 -52 0
273 -12 0
273 -269 0
273 -272 0
274 -54 -273 0
-274 54 0
-274 273 0
-275 70 274 59 67 0
275 -70 0
275 -274 0
275 -59 0
275 -67 0
276 -210 -275 0
-276 210 0
-276 275 0
-277 212 6 178 268 276 0
277 -212 0
277 -6 0
277 -178 0
277 -268 0
277 -276 0
278 -248 -277 0
-278 248 0
-278 277 0
-279 29 278 22 25 0
279 -29 0
279 -278 0
279 -22 0
279 -25 0
280 -74 -279 0
-280 74 0
-280 279 0
-281 82 280 79 0
281 -82 0
281 -280 0
281 -79 0
282 -84 -281 0
-282 84 0
-282 281 0
-283 86 10 265 282 0
283 -86 0
283 -10 0
283 -265 0
283 -282 0
284 -88 -283 0
-284 88 0
-284 283 0
285 -286 -243 0
-285 286 0
-285 243 0
-287 100 285 93 95 97 0
287 -100 0
287 -285 0
287 -93 0
287 -95 0
287 -97 0
288 -102 -287 0
-288 102 0
-288 287 0
-289 104 91 288 0
289 -104 0
289 -91 0
289 -288 0
290 -106 -289 0
-290 106 0
-290 289 0
-291 110 244 8 284 89 290 107 0
291 -110 0
291 -244 0
291 -8 0
291 -284 0
291 -89 0
291 -290 0
291 -107 0
292 -112 -291 0
-292 112 0
-292 291 0
293 -258 -246 0
-293 258 0
-293 246 0
-294 48 293 0
294 -48 0
294 -293 0
295 -50 -294 0
-295 50 0
-295 294 0
-296 52 12 295 0
296 -52 0
296 -12 0
296 -295 0
297 -54 -296 0
-297 54 0
-297 296 0
-298 70 297 59 67 0
298 -70 0
298 -297 0
298 -59 0
298 -67 0
299 -72 -298 0
-299 72 0
-299 298 0
-300 212 6 178 276 0
300 -212 0
300 -6 0
300 -178 0
300 -276 0
301 -248 -300 0
-301 248 0
-301 300 0
302 -245 -300 0
-302 245 0
-302 300 0
303 -286 -300 0
-303 286 0
-303 300 0
-304 100 303 93 95 97 0
304 -100 0
304 -303 0
304 -93 0
304 -95 0
304 -97 0
305 -102 -304 0
-305 102 0
-305 304 0
-306 104 91 305 0
306 -104 0
306 -91 0
306 -305 0
307 -106 -306 0
-307 106 0
-307 306 0
-308 110 302 8 89 307 107 0
308 -110 0
308 -302 0
308 -8 0
308 -89 0
308 -307 0
308 -107 0
309 -122 -308 0
-309 122 0
-309 308 0
-310 29 301 309 22 25 0
310 -29 0
310 -301 0
310 -309 0
310 -22 0
310 -25 0
311 -74 -310 0
-311 74 0
-311 310 0
-312 82 311 79 0
312 -82 0
312 -311 0
312 -79 0
313 -84 -312 0
-313 84 0
-313 312 0
-314 86 10 299 313 0
314 -86 0
314 -10 0
314 -299 0
314 -313 0
315 -129 -314 0
-315 129 0
-315 314 0
316 -184 -190 0
-316 184 0
-316 190 0
-317 52 12 316 115 0
317 -52 0
317 -12 0
317 -316 0
317 -115 0
318 -54 -317 0
-318 54 0
-318 317 0
-319 70 318 59 67 0
319 -70 0
319 -318 0
319 -59 0
319 -67 0
320 -210 -319 0
-320 210 0
-320 319 0
-321 212 6 178 320 0
321 -212 0
321 -6 0
321 -178 0
321 -320 0
322 -248 -321 0
-322 248 0
-322 321 0
-323 52 12 225 115 0
323 -52 0
323 -12 0
323 -225 0
323 -115 0
324 -54 -323 0
-324 54 0
-324 323 0
-325 70 324 59 67 0
325 -70 0
325 -324 0
325 -59 0
325 -67 0
326 -210 -325 0
-326 210 0
-326 325 0
-327 212 6 178 326 0
327 -212 0
327 -6 0
327 -178 0
327 -326 0
328 -245 -327 0
-328 245 0
-328 327 0
-329 86 10 299 135 0
329 -86 0
329 -10 0
329 -299 0
329 -135 0
330 -88 -329 0
-330 88 0
-330 329 0
331 -286 -327 0
-331 286 0
-331 327 0
-332 100 331 93 95 97 0
332 -100 0
332 -331 0
332 -93 0
332 -95 0
332 -97 0
333 -102 -332 0
-333 102 0
-333 332 0
-334 104 91 333 0
334 -104 0
334 -91 0
334 -333 0
335 -106 -334 0
-335 106 0
-335 334 0
-336 110 328 8 330 89 335 107 0
336 -110 0
336 -328 0
336 -8 0
336 -330 0
336 -89 0
336 -335 0
336 -107 0
337 -122 -336 0
-337 122 0
-337 336 0
338 -138 -329 0
-338 138 0
-338 329 0
-339 27 338 0
339 -27 0
339 -338 0
340 -26 -339 0
-340 26 0
-340 339 0
-341 29 322 337 22 340 0
341 -29 0
341 -322 0
341 -337 0
341 -22 0
341 -340 0
342 -31 -341 0
-342 31 0
-342 341 0
-343 33 342 0
343 -33 0
343 -342 0
344 -35 -343 0
-344 35 0
-344 343 0
345 -210 -118 0
-345 210 0
-345 118 0
-346 212 6 178 345 0
346 -212 0
346 -6 0
346 -178 0
346 -345 0
347 -248 -346 0
-347 248 0
-347 346 0
348 -245 -346 0
-348 245 0
-348 346 0
349 -286 -346 0
-349 286 0
-349 346 0
-350 100 349 93 95 97 0
350 -100 0
350 -349 0
350 -93 0
350 -95 0
350 -97 0
351 -102 -350 0
-351 102 0
-351 350 0
-352 104 91 351 0
352 -104 0
352 -91 0
352 -351 0
353 -106 -352 0
-353 106 0
-353 352 0
-354 110 348 8 89 353 107 0
354 -110 0
354 -348 0
354 -8 0
354 -89 0
354 -353 0
354 -107 0
355 -122 -354 0
-355 122 0
-355 354 0
-356 29 347 355 22 25 0
356 -29 0
356 -347 0
356 -355 0
356 -22 0
356 -25 0
357 -74 -356 0
-357 74 0
-357 356 0
-358 82 357 79 0
358 -82 0
358 -357 0
358 -79 0
359 -84 -358 0
-359 84 0
-359 358 0
-360 86 10 299 359 0
360 -86 0
360 -10 0
360 -299 0
360 -359 0
361 -146 -360 0
-361 146 0
-361 360 0
-362 38 361 0
362 -38 0
362 -361 0
363 -37 -362 0
-363 37 0
-363 362 0
-364 42 14 315 20 344 363 39 0
364 -42 0
364 -14 0
364 -315 0
364 -20 0
364 -344 0
364 -363 0
364 -39 0
365 -151 -364 0
-365 151 0
-365 364 0
366 -245 -246 0
-366 245 0
-366 246 0
367 -286 -246 0
-367 286 0
-367 246 0
-368 100 367 93 95 97 0
368 -100 0
368 -367 0
368 -93 0
368 -95 0
368 -97 0
369 -102 -368 0
-369 102 0
-369 368 0
-370 104 91 369 0
370 -104 0
370 -91 0
370 -369 0
371 -106 -370 0
-371 106 0
-371 370 0
-372 110 366 8 89 371 107 0
372 -110 0
372 -366 0
372 -8 0
372 -89 0
372 -371 0
372 -107 0
373 -122 -372 0
-373 122 0
-373 372 0
-374 29 247 373 22 25 0
374 -29 0
374 -247 0
374 -373 0
374 -22 0
374 -25 0
375 -31 -374 0
-375 31 0
-375 374 0
-376 33 375 0
376 -33 0
376 -375 0
377 -35 -376 0
-377 35 0
-377 376 0
-378 42 14 20 377 36 39 0
378 -42 0
378 -14 0
378 -20 0
378 -377 0
378 -36 0
378 -39 0
379 -44 -378 0
-379 44 0
-379 378 0
380 -181 -157 0
-380 181 0
-380 157 0
-381 212 6 178 380 0
381 -212 0
381 -6 0
381 -178 0
381 -380 0
382 -258 -381 0
-382 258 0
-382 381 0
383 -46 -378 0
-383 46 0
-383 378 0
-384 48 382 383 0
384 -48 0
384 -382 0
384 -383 0
385 -50 -384 0
-385 50 0
-385 384 0
-386 52 12 379 385 0
386 -52 0
386 -12 0
386 -379 0
386 -385 0
387 -54 -386 0
-387 54 0
-387 386 0
-388 70 387 59 67 0
388 -70 0
388 -387 0
388 -59 0
388 -67 0
389 -72 -388 0
-389 72 0
-389 388 0
390 -245 -277 0
-390 245 0
-390 277 0
391 -286 -277 0
-391 286 0
-391 277 0
-392 100 391 93 95 97 0
392 -100 0
392 -391 0
392 -93 0
392 -95 0
392 -97 0
393 -102 -392 0
-393 102 0
-393 392 0
-394 104 91 393 0
394 -104 0
394 -91 0
394 -393 0
395 -106 -394 0
-395 106 0
-395 394 0
-396 110 390 8 89 395 107 0
396 -110 0
396 -390 0
396 -8 0
396 -89 0
396 -395 0
396 -107 0
397 -122 -396 0
-397 122 0
-397 396 0
-398 29 278 397 22 25 0
398 -29 0
398 -278 0
398 -397 0
398 -22 0
398 -25 0
399 -74 -398 0
-399 74 0
-399 398 0
-400 82 399 0
400 -82 0
400 -399 0
401 -84 -400 0
-401 84 0
-401 400 0
-402 86 10 389 401 0
402 -86 0
402 -10 0
402 -389 0
402 -401 0
403 -170 -402 0
-403 170 0
-403 402 0
-404 78 75 403 0
404 -78 0
404 -75 0
404 -403 0
405 -173 -404 0
-405 173 0
-405 404 0
-406 175 292 113 365 152 405 0
406 -175 0
406 -292 0
406 -113 0
406 -365 0
406 -152 0
406 -405 0
407 -408 -406 0
-407 408 0
-407 406 0
409 -112 -120 0
-409 112 0
-409 120 0
410 -173 -77 0
-410 173 0
-410 77 0
-411 175 409 113 152 410 0
411 -175 0
411 -409 0
411 -113 0
411 -152 0
411 -410 0
412 -177 -411 0
-412 177 0
-412 411 0
-413 212 6 412 178 0
413 -212 0
413 -6 0
413 -412 0
413 -178 0
414 -248 -413 0
-414 248 0
-414 413 0
415 -245 -413 0
-415 245 0
-415 413 0
-416 175 113 152 410 0
416 -175 0
416 -113 0
416 -152 0
416 -410 0
417 -177 -416 0
-417 177 0
-417 416 0
-418 212 6 417 178 0
418 -212 0
418 -6 0
418 -417 0
418 -178 0
419 -286 -418 0
-419 286 0
-419 418 0
-420 100 419 93 95 97 0
420 -100 0
420 -419 0
420 -93 0
420 -95 0
420 -97 0
421 -102 -420 0
-421 102 0
-421 420 0
-422 104 91 421 0
422 -104 0
422 -91 0
422 -421 0
423 -106 -422 0
-423 106 0
-423 422 0
-424 110 415 8 89 423 107 0
424 -110 0
424 -415 0
424 -8 0
424 -89 0
424 -423 0
424 -107 0
425 -122 -424 0
-425 122 0
-425 424 0
-426 29 414 425 22 25 0
426 -29 0
426 -414 0
426 -425 0
426 -22 0
426 -25 0
427 -31 -426 0
-427 31 0
-427 426 0
-428 33 427 0
428 -33 0
428 -427 0
429 -35 -428 0
-429 35 0
-429 428 0
-430 42 14 20 429 36 39 0
430 -42 0
430 -14 0
430 -20 0
430 -429 0
430 -36 0
430 -39 0
431 -44 -430 0
-431 44 0
-431 430 0
432 -151 -157 0
-432 151 0
-432 157 0
-433 175 409 113 432 152 410 0
433 -175 0
433 -409 0
433 -113 0
433 -432 0
433 -152 0
433 -410 0
434 -177 -433 0
-434 177 0
-434 433 0
-435 212 6 434 178 380 0
435 -212 0
435 -6 0
435 -434 0
435 -178 0
435 -380 0
436 -258 -435 0
-436 258 0
-436 435 0
437 -46 -430 0
-437 46 0
-437 430 0
-438 48 436 437 0
438 -48 0
438 -436 0
438 -437 0
439 -50 -438 0
-439 50 0
-439 438 0
-440 52 12 431 439 0
440 -52 0
440 -12 0
440 -431 0
440 -439 0
441 -54 -440 0
-441 54 0
-441 440 0
-442 70 441 59 67 0
442 -70 0
442 -441 0
442 -59 0
442 -67 0
443 -72 -442 0
-443 72 0
-443 442 0
-444 212 6 434 178 268 276 0
444 -212 0
444 -6 0
444 -434 0
444 -178 0
444 -268 0
444 -276 0
445 -248 -444 0
-445 248 0
-445 444 0
446 -151 -267 0
-446 151 0
-446 267 0
-447 175 409 113 446 152 410 0
447 -175 0
447 -409 0
447 -113 0
447 -446 0
447 -152 0
447 -410 0
448 -177 -447 0
-448 177 0
-448 447 0
-449 212 6 448 178 268 276 0
449 -212 0
449 -6 0
449 -448 0
449 -178 0
449 -268 0
449 -276 0
450 -245 -449 0
-450 245 0
-450 449 0
-451 175 113 446 152 410 0
451 -175 0
451 -113 0
451 -446 0
451 -152 0
451 -410 0
452 -177 -451 0
-452 177 0
-452 451 0
-453 212 6 452 178 268 276 0
453 -212 0
453 -6 0
453 -452 0
453 -178 0
453 -268 0
453 -276 0
454 -286 -453 0
-454 286 0
-454 453 0
-455 100 454 93 95 97 0
455 -100 0
455 -454 0
455 -93 0
455 -95 0
455 -97 0
456 -102 -455 0
-456 102 0
-456 455 0
-457 104 91 456 0
457 -104 0
457 -91 0
457 -456 0
458 -106 -457 0
-458 106 0
-458 457 0
-459 110 450 8 89 458 107 0
459 -110 0
459 -450 0
459 -8 0
459 -89 0
459 -458 0
459 -107 0
460 -122 -459 0
-460 122 0
-460 459 0
-461 29 445 460 22 25 0
461 -29 0
461 -445 0
461 -460 0
461 -22 0
461 -25 0
462 -74 -461 0
-462 74 0
-462 461 0
-463 82 462 79 0
463 -82 0
463 -462 0
463 -79 0
464 -84 -463 0
-464 84 0
-464 463 0
-465 86 10 443 464 0
465 -86 0
465 -10 0
465 -443 0
465 -464 0
466 -467 -465 0
-466 467 0
-466 465 0
468 -469 -4 0
-468 469 0
-468 4 0
-470 110 8 87 89 107 0
470 -110 0
470 -8 0
470 -87 0
470 -89 0
470 -107 0
471 -112 -470 0
-471 112 0
-471 470 0
-472 110 8 89 107 0
472 -110 0
472 -8 0
472 -89 0
472 -107 0
473 -122 -472 0
-473 122 0
-473 472 0
-474 29 473 22 25 0
474 -29 0
474 -473 0
474 -22 0
474 -25 0
475 -74 -474 0
-475 74 0
-475 474 0
-476 82 475 79 0
476 -82 0
476 -475 0
476 -79 0
477 -84 -476 0
-477 84 0
-477 476 0
-478 86 10 119 477 0
478 -86 0
478 -10 0
478 -119 0
478 -477 0
479 -129 -478 0
-479 129 0
-479 478 0
-480 110 8 131 89 107 0
480 -110 0
480 -8 0
480 -131 0
480 -89 0
480 -107 0
481 -122 -480 0
-481 122 0
-481 480 0
-482 29 481 22 140 0
482 -29 0
482 -481 0
482 -22 0
482 -140 0
483 -31 -482 0
-483 31 0
-483 482 0
-484 33 483 0
484 -33 0
484 -483 0
485 -35 -484 0
-485 35 0
-485 484 0
486 -146 -478 0
-486 146 0
-486 478 0
-487 38 486 0
487 -38 0
487 -486 0
488 -37 -487 0
-488 37 0
-488 487 0
-489 42 14 479 20 485 488 39 0
489 -42 0
489 -14 0
489 -479 0
489 -20 0
489 -485 0
489 -488 0
489 -39 0
490 -151 -489 0
-490 151 0
-490 489 0
491 -31 -474 0
-491 31 0
-491 474 0
-492 33 491 0
492 -33 0
492 -491 0
493 -35 -492 0
-493 35 0
-493 492 0
-494 42 14 20 493 36 39 0
494 -42 0
494 -14 0
494 -20 0
494 -493 0
494 -36 0
494 -39 0
495 -44 -494 0
-495 44 0
-495 494 0
496 -46 -494 0
-496 46 0
-496 494 0
-497 48 496 0
497 -48 0
497 -496 0
498 -50 -497 0
-498 50 0
-498 497 0
-499 52 12 495 498 0
499 -52 0
499 -12 0
499 -495 0
499 -498 0
500 -54 -499 0
-500 54 0
-500 499 0
-501 70 500 59 67 0
501 -70 0
501 -500 0
501 -59 0
501 -67 0
502 -72 -501 0
-502 72 0
-502 501 0
-503 82 475 0
503 -82 0
503 -475 0
504 -84 -503 0
-504 84 0
-504 503 0
-505 86 10 502 504 0
505 -86 0
505 -10 0
505 -502 0
505 -504 0
506 -170 -505 0
-506 170 0
-506 505 0
-507 78 75 506 0
507 -78 0
507 -75 0
507 -506 0
508 -173 -507 0
-508 173 0
-508 507 0
-509 175 471 113 490 152 508 0
509 -175 0
509 -471 0
509 -113 0
509 -490 0
509 -152 0
509 -508 0
510 -177 -509 0
-510 177 0
-510 509 0
511 -181 -489 0
-511 181 0
-511 489 0
-512 86 10 477 0
512 -86 0
512 -10 0
512 -477 0
513 -184 -512 0
-513 184 0
-513 512 0
514 -129 -512 0
-514 129 0
-514 512 0
-515 110 8 187 89 107 0
515 -110 0
515 -8 0
515 -187 0
515 -89 0
515 -107 0
516 -122 -515 0
-516 122 0
-516 515 0
-517 29 516 22 193 0
517 -29 0
517 -516 0
517 -22 0
517 -193 0
518 -31 -517 0
-518 31 0
-518 517 0
-519 33 518 0
519 -33 0
519 -518 0
520 -35 -519 0
-520 35 0
-520 519 0
521 -146 -512 0
-521 146 0
-521 512 0
-522 38 521 0
522 -38 0
522 -521 0
523 -37 -522 0
-523 37 0
-523 522 0
-524 42 14 514 20 520 523 39 0
524 -42 0
524 -14 0
524 -514 0
524 -20 0
524 -520 0
524 -523 0
524 -39 0
525 -44 -524 0
-525 44 0
-525 524 0
526 -46 -524 0
-526 46 0
-526 524 0
-527 48 526 0
527 -48 0
527 -526 0
528 -50 -527 0
-528 50 0
-528 527 0
-529 52 12 513 525 528 0
529 -52 0
529 -12 0
529 -513 0
529 -525 0
529 -528 0
530 -54 -529 0
-530 54 0
-530 529 0
-531 70 530 59 67 0
531 -70 0
531 -530 0
531 -59 0
531 -67 0
532 -210 -531 0
-532 210 0
-532 531 0
-533 212 6 510 178 511 532 0
533 -212 0
533 -6 0
533 -510 0
533 -178 0
533 -511 0
533 -532 0
534 -286 -533 0
-534 286 0
-534 533 0
-535 100 534 93 95 97 0
535 -100 0
535 -534 0
535 -93 0
535 -95 0
535 -97 0
536 -102 -535 0
-536 102 0
-536 535 0
-537 104 91 536 0
537 -104 0
537 -91 0
537 -536 0
538 -539 -537 0
-538 539 0
-538 537 0
540 -151 -223 0
-540 151 0
-540 223 0
-541 82 73 0
541 -82 0
541 -73 0
542 -84 -541 0
-542 84 0
-542 541 0
-543 86 10 71 542 0
543 -86 0
543 -10 0
543 -71 0
543 -542 0
544 -170 -543 0
-544 170 0
-544 543 0
-545 78 75 544 0
545 -78 0
545 -75 0
545 -544 0
546 -173 -545 0
-546 173 0
-546 545 0
-547 175 113 540 152 546 0
547 -175 0
547 -113 0
547 -540 0
547 -152 0
547 -546 0
548 -177 -547 0
-548 177 0
-548 547 0
-549 212 6 548 178 224 242 0
549 -212 0
549 -6 0
549 -548 0
549 -178 0
549 -224 0
549 -242 0
550 -245 -549 0
-550 245 0
-550 549 0
-551 29 414 22 25 0
551 -29 0
551 -414 0
551 -22 0
551 -25 0
552 -31 -551 0
-552 31 0
-552 551 0
-553 33 552 0
553 -33 0
553 -552 0
554 -35 -553 0
-554 35 0
-554 553 0
-555 42 14 20 554 36 39 0
555 -42 0
555 -14 0
555 -20 0
555 -554 0
555 -36 0
555 -39 0
556 -44 -555 0
-556 44 0
-556 555 0
557 -151 -41 0
-557 151 0
-557 41 0
-558 175 409 113 557 152 410 0
558 -175 0
558 -409 0
558 -113 0
558 -557 0
558 -152 0
558 -410 0
559 -177 -558 0
-559 177 0
-559 558 0
-560 212 6 559 178 255 0
560 -212 0
560 -6 0
560 -559 0
560 -178 0
560 -255 0
561 -258 -560 0
-561 258 0
-561 560 0
562 -46 -555 0
-562 46 0
-562 555 0
-563 48 561 562 0
563 -48 0
563 -561 0
563 -562 0
564 -50 -563 0
-564 50 0
-564 563 0
-565 52 12 556 564 0
565 -52 0
565 -12 0
565 -556 0
565 -564 0
566 -54 -565 0
-566 54 0
-566 565 0
-567 70 566 59 67 0
567 -70 0
567 -566 0
567 -59 0
567 -67 0
568 -72 -567 0
-568 72 0
-568 567 0
569 -248 -449 0
-569 248 0
-569 449 0
-570 29 569 22 25 0
570 -29 0
570 -569 0
570 -22 0
570 -25 0
571 -74 -570 0
-571 74 0
-571 570 0
-572 82 571 79 0
572 -82 0
572 -571 0
572 -79 0
573 -84 -572 0
-573 84 0
-573 572 0
-574 86 10 568 573 0
574 -86 0
574 -10 0
574 -568 0
574 -573 0
575 -88 -574 0
-575 88 0
-575 574 0
576 -286 -549 0
-576 286 0
-576 549 0
-577 100 576 93 95 97 0
577 -100 0
577 -576 0
577 -93 0
577 -95 0
577 -97 0
578 -102 -577 0
-578 102 0
-578 577 0
-579 104 91 578 0
579 -104 0
579 -91 0
579 -578 0
580 -106 -579 0
-580 106 0
-580 579 0
-581 110 550 8 575 89 580 107 0
581 -110 0
581 -550 0
581 -8 0
581 -575 0
581 -89 0
581 -580 0
581 -107 0
582 -583 -581 0
-582 583 0
-582 581 0
584 -585 -537 0
-584 585 0
-584 537 0
-586 70 59 67 0
586 -70 0
586 -59 0
586 -67 0
587 -72 -586 0
-587 72 0
-587 586 0
588 -210 -586 0
-588 210 0
-588 586 0
-589 212 6 434 178 268 588 0
589 -212 0
589 -6 0
589 -434 0
589 -178 0
589 -268 0
589 -588 0
590 -248 -589 0
-590 248 0
-590 589 0
-591 212 6 448 178 268 588 0
591 -212 0
591 -6 0
591 -448 0
591 -178 0
591 -268 0
591 -588 0
592 -245 -591 0
-592 245 0
-592 591 0
-593 212 6 452 178 268 588 0
593 -212 0
593 -6 0
593 -452 0
593 -178 0
593 -268 0
593 -588 0
594 -286 -593 0
-594 286 0
-594 593 0
-595 100 594 93 95 97 0
595 -100 0
595 -594 0
595 -93 0
595 -95 0
595 -97 0
596 -102 -595 0
-596 102 0
-596 595 0
-597 104 91 596 0
597 -104 0
597 -91 0
597 -596 0
598 -106 -597 0
-598 106 0
-598 597 0
-599 110 592 8 89 598 107 0
599 -110 0
599 -592 0
599 -8 0
599 -89 0
599 -598 0
599 -107 0
600 -122 -599 0
-600 122 0
-600 599 0
-601 29 590 600 22 25 0
601 -29 0
601 -590 0
601 -600 0
601 -22 0
601 -25 0
602 -74 -601 0
-602 74 0
-602 601 0
-603 82 602 79 0
603 -82 0
603 -602 0
603 -79 0
604 -84 -603 0
-604 84 0
-604 603 0
-605 86 10 587 604 0
605 -86 0
605 -10 0
605 -587 0
605 -604 0
606 -184 -605 0
-606 184 0
-606 605 0
-607 212 6 412 178 588 0
607 -212 0
607 -6 0
607 -412 0
607 -178 0
607 -588 0
608 -248 -607 0
-608 248 0
-608 607 0
609 -245 -607 0
-609 245 0
-609 607 0
-610 212 6 417 178 588 0
610 -212 0
610 -6 0
610 -417 0
610 -178 0
610 -588 0
611 -286 -610 0
-611 286 0
-611 610 0
-612 100 611 93 95 97 0
612 -100 0
612 -611 0
612 -93 0
612 -95 0
612 -97 0
613 -102 -612 0
-613 102 0
-613 612 0
-614 104 91 613 0
614 -104 0
614 -91 0
614 -613 0
615 -106 -614 0
-615 106 0
-615 614 0
-616 110 609 8 89 615 107 0
616 -110 0
616 -609 0
616 -8 0
616 -89 0
616 -615 0
616 -107 0
617 -122 -616 0
-617 122 0
-617 616 0
-618 29 608 617 22 25 0
618 -29 0
618 -608 0
618 -617 0
618 -22 0
618 -25 0
619 -74 -618 0
-619 74 0
-619 618 0
-620 82 619 79 0
620 -82 0
620 -619 0
620 -79 0
621 -84 -620 0
-621 84 0
-621 620 0
-622 86 10 587 621 0
622 -86 0
622 -10 0
622 -587 0
622 -621 0
623 -129 -622 0
-623 129 0
-623 622 0
-624 86 10 587 83 0
624 -86 0
624 -10 0
624 -587 0
624 -83 0
625 -88 -624 0
-625 88 0
-625 624 0
-626 110 8 625 89 105 107 0
626 -110 0
626 -8 0
626 -625 0
626 -89 0
626 -105 0
626 -107 0
627 -112 -626 0
-627 112 0
-627 626 0
628 -84 -82 0
-628 84 0
-628 82 0
-629 86 10 587 628 0
629 -86 0
629 -10 0
629 -587 0
629 -628 0
630 -170 -629 0
-630 170 0
-630 629 0
-631 78 75 630 0
631 -78 0
631 -75 0
631 -630 0
632 -173 -631 0
-632 173 0
-632 631 0
-633 175 627 113 152 632 0
633 -175 0
633 -627 0
633 -113 0
633 -152 0
633 -632 0
634 -177 -633 0
-634 177 0
-634 633 0
-635 212 6 634 178 588 0
635 -212 0
635 -6 0
635 -634 0
635 -178 0
635 -588 0
636 -248 -635 0
-636 248 0
-636 635 0
-637 175 113 152 632 0
637 -175 0
637 -113 0
637 -152 0
637 -632 0
638 -177 -637 0
-638 177 0
-638 637 0
-639 212 6 638 178 588 0
639 -212 0
639 -6 0
639 -638 0
639 -178 0
639 -588 0
640 -245 -639 0
-640 245 0
-640 639 0
-641 86 10 587 135 0
641 -86 0
641 -10 0
641 -587 0
641 -135 0
642 -88 -641 0
-642 88 0
-642 641 0
643 -286 -639 0
-643 286 0
-643 639 0
-644 100 643 93 95 97 0
644 -100 0
644 -643 0
644 -93 0
644 -95 0
644 -97 0
645 -102 -644 0
-645 102 0
-645 644 0
-646 104 91 645 0
646 -104 0
646 -91 0
646 -645 0
647 -106 -646 0
-647 106 0
-647 646 0
-648 110 640 8 642 89 647 107 0
648 -110 0
648 -640 0
648 -8 0
648 -642 0
648 -89 0
648 -647 0
648 -107 0
649 -122 -648 0
-649 122 0
-649 648 0
650 -138 -641 0
-650 138 0
-650 641 0
-651 27 650 0
651 -27 0
651 -650 0
652 -26 -651 0
-652 26 0
-652 651 0
-653 29 636 649 22 652 0
653 -29 0
653 -636 0
653 -649 0
653 -22 0
653 -652 0
654 -31 -653 0
-654 31 0
-654 653 0
-655 33 654 0
655 -33 0
655 -654 0
656 -35 -655 0
-656 35 0
-656 655 0
657 -146 -622 0
-657 146 0
-657 622 0
-658 38 657 0
658 -38 0
658 -657 0
659 -37 -658 0
-659 37 0
-659 658 0
-660 42 14 623 20 656 659 39 0
660 -42 0
660 -14 0
660 -623 0
660 -20 0
660 -656 0
660 -659 0
660 -39 0
661 -44 -660 0
-661 44 0
-661 660 0
-662 86 10 587 126 0
662 -86 0
662 -10 0
662 -587 0
662 -126 0
663 -129 -662 0
-663 129 0
-663 662 0
664 -122 -626 0
-664 122 0
-664 626 0
-665 29 664 22 652 0
665 -29 0
665 -664 0
665 -22 0
665 -652 0
666 -31 -665 0
-666 31 0
-666 665 0
-667 33 666 0
667 -33 0
667 -666 0
668 -35 -667 0
-668 35 0
-668 667 0
669 -146 -662 0
-669 146 0
-669 662 0
-670 38 669 0
670 -38 0
670 -669 0
671 -37 -670 0
-671 37 0
-671 670 0
-672 42 14 663 20 668 671 39 0
672 -42 0
672 -14 0
672 -663 0
672 -20 0
672 -668 0
672 -671 0
672 -39 0
673 -151 -672 0
-673 151 0
-673 672 0
-674 86 10 587 167 0
674 -86 0
674 -10 0
674 -587 0
674 -167 0
675 -170 -674 0
-675 170 0
-675 674 0
-676 78 75 675 0
676 -78 0
676 -75 0
676 -675 0
677 -173 -676 0
-677 173 0
-677 676 0
-678 175 627 113 673 152 677 0
678 -175 0
678 -627 0
678 -113 0
678 -673 0
678 -152 0
678 -677 0
679 -177 -678 0
-679 177 0
-679 678 0
680 -181 -672 0
-680 181 0
-680 672 0
-681 212 6 679 178 680 588 0
681 -212 0
681 -6 0
681 -679 0
681 -178 0
681 -680 0
681 -588 0
682 -258 -681 0
-682 258 0
-682 681 0
683 -46 -660 0
-683 46 0
-683 660 0
-684 48 682 683 0
684 -48 0
684 -682 0
684 -683 0
685 -50 -684 0
-685 50 0
-685 684 0
-686 52 12 606 661 685 0
686 -52 0
686 -12 0
686 -606 0
686 -661 0
686 -685 0
687 -688 -686 0
-687 688 0
-687 686 0
689 -690 -57 0
-689 690 0
-689 57 0
-691 42 14 20 429 39 0
691 -42 0
691 -14 0
691 -20 0
691 -429 0
691 -39 0
692 -44 -691 0
-692 44 0
-692 691 0
-693 42 14 20 156 39 0
693 -42 0
693 -14 0
693 -20 0
693 -156 0
693 -39 0
694 -151 -693 0
-694 151 0
-694 693 0
-695 175 409 113 694 152 410 0
695 -175 0
695 -409 0
695 -113 0
695 -694 0
695 -152 0
695 -410 0
696 -177 -695 0
-696 177 0
-696 695 0
697 -181 -693 0
-697 181 0
-697 693 0
-698 212 6 696 178 697 0
698 -212 0
698 -6 0
698 -696 0
698 -178 0
698 -697 0
699 -258 -698 0
-699 258 0
-699 698 0
700 -46 -691 0
-700 46 0
-700 691 0
-701 48 699 700 0
701 -48 0
701 -699 0
701 -700 0
702 -50 -701 0
-702 50 0
-702 701 0
-703 52 12 692 702 0
703 -52 0
703 -12 0
703 -692 0
703 -702 0
704 -54 -703 0
-704 54 0
-704 703 0
-705 70 704 59 67 0
705 -70 0
705 -704 0
705 -59 0
705 -67 0
706 -72 -705 0
-706 72 0
-706 705 0
707 -44 -693 0
-707 44 0
-707 693 0
708 -46 -693 0
-708 46 0
-708 693 0
-709 48 708 0
709 -48 0
709 -708 0
710 -50 -709 0
-710 50 0
-710 709 0
-711 52 12 707 710 0
711 -52 0
711 -12 0
711 -707 0
711 -710 0
712 -54 -711 0
-712 54 0
-712 711 0
-713 70 712 59 67 0
713 -70 0
713 -712 0
713 -59 0
713 -67 0
714 -210 -713 0
-714 210 0
-714 713 0
-715 212 6 696 178 697 714 0
715 -212 0
715 -6 0
715 -696 0
715 -178 0
715 -697 0
715 -714 0
716 -248 -715 0
-716 248 0
-716 715 0
-717 42 14 20 266 39 0
717 -42 0
717 -14 0
717 -20 0
717 -266 0
717 -39 0
718 -151 -717 0
-718 151 0
-718 717 0
-719 175 409 113 718 152 410 0
719 -175 0
719 -409 0
719 -113 0
719 -718 0
719 -152 0
719 -410 0
720 -177 -719 0
-720 177 0
-720 719 0
721 -181 -717 0
-721 181 0
-721 717 0
722 -44 -717 0
-722 44 0
-722 717 0
723 -46 -717 0
-723 46 0
-723 717 0
-724 48 723 0
724 -48 0
724 -723 0
725 -50 -724 0
-725 50 0
-725 724 0
-726 52 12 722 725 0
726 -52 0
726 -12 0
726 -722 0
726 -725 0
727 -54 -726 0
-727 54 0
-727 726 0
-728 70 727 59 67 0
728 -70 0
728 -727 0
728 -59 0
728 -67 0
729 -210 -728 0
-729 210 0
-729 728 0
-730 212 6 720 178 721 729 0
730 -212 0
730 -6 0
730 -720 0
730 -178 0
730 -721 0
730 -729 0
731 -245 -730 0
-731 245 0
-731 730 0
-732 175 113 718 152 410 0
732 -175 0
732 -113 0
732 -718 0
732 -152 0
732 -410 0
733 -177 -732 0
-733 177 0
-733 732 0
-734 212 6 733 178 721 729 0
734 -212 0
734 -6 0
734 -733 0
734 -178 0
734 -721 0
734 -729 0
735 -286 -734 0
-735 286 0
-735 734 0
-736 100 735 93 95 97 0
736 -100 0
736 -735 0
736 -93 0
736 -95 0
736 -97 0
737 -102 -736 0
-737 102 0
-737 736 0
-738 104 91 737 0
738 -104 0
738 -91 0
738 -737 0
739 -106 -738 0
-739 106 0
-739 738 0
-740 110 731 8 89 739 107 0
740 -110 0
740 -731 0
740 -8 0
740 -89 0
740 -739 0
740 -107 0
741 -122 -740 0
-741 122 0
-741 740 0
-742 29 716 741 22 25 0
742 -29 0
742 -716 0
742 -741 0
742 -22 0
742 -25 0
743 -74 -742 0
-743 74 0
-743 742 0
-744 82 743 79 0
744 -82 0
744 -743 0
744 -79 0
745 -84 -744 0
-745 84 0
-745 744 0
-746 86 10 706 745 0
746 -86 0
746 -10 0
746 -706 0
746 -745 0
747 -146 -746 0
-747 146 0
-747 746 0
-748 38 747 0
748 -38 0
748 -747 0
749 -750 -748 0
-749 750 0
-749 748 0
-751 752 582 584 687 689 749 0
751 -752 0
751 -582 0
751 -584 0
751 -687 0
751 -689 0
751 -749 0
753 -754 -751 0
-753 754 0
-753 751 0
755 -756 -3 0
-755 756 0
-755 3 0
-757 29 414 425 22 0
757 -29 0
757 -414 0
757 -425 0
757 -22 0
758 -31 -757 0
-758 31 0
-758 757 0
-759 33 758 0
759 -33 0
759 -758 0
760 -35 -759 0
-760 35 0
-760 759 0
-761 42 14 20 760 36 39 0
761 -42 0
761 -14 0
761 -20 0
761 -760 0
761 -36 0
761 -39 0
762 -44 -761 0
-762 44 0
-762 761 0
-763 29 121 22 0
763 -29 0
763 -121 0
763 -22 0
764 -31 -763 0
-764 31 0
-764 763 0
-765 33 764 0
765 -33 0
765 -764 0
766 -35 -765 0
-766 35 0
-766 765 0
-767 42 14 20 766 36 39 0
767 -42 0
767 -14 0
767 -20 0
767 -766 0
767 -36 0
767 -39 0
768 -151 -767 0
-768 151 0
-768 767 0
-769 175 409 113 768 152 410 0
769 -175 0
769 -409 0
769 -113 0
769 -768 0
769 -152 0
769 -410 0
770 -177 -769 0
-770 177 0
-770 769 0
771 -181 -767 0
-771 181 0
-771 767 0
-772 212 6 770 178 771 0
772 -212 0
772 -6 0
772 -770 0
772 -178 0
772 -771 0
773 -258 -772 0
-773 258 0
-773 772 0
774 -46 -761 0
-774 46 0
-774 761 0
-775 48 773 774 0
775 -48 0
775 -773 0
775 -774 0
776 -50 -775 0
-776 50 0
-776 775 0
-777 52 12 762 776 0
777 -52 0
777 -12 0
777 -762 0
777 -776 0
778 -54 -777 0
-778 54 0
-778 777 0
-779 70 778 59 67 0
779 -70 0
779 -778 0
779 -59 0
779 -67 0
780 -72 -779 0
-780 72 0
-780 779 0
-781 29 569 460 22 0
781 -29 0
781 -569 0
781 -460 0
781 -22 0
782 -74 -781 0
-782 74 0
-782 781 0
-783 82 782 79 0
783 -82 0
783 -782 0
783 -79 0
784 -84 -783 0
-784 84 0
-784 783 0
-785 86 10 780 784 0
785 -86 0
785 -10 0
785 -780 0
785 -784 0
786 -138 -785 0
-786 138 0
-786 785 0
-787 27 786 0
787 -27 0
787 -786 0
788 -789 -787 0
-788 789 0
-788 787 0
-790 791 213 407 466 468 538 753 755 788 0
790 -791 0
790 -213 0
790 -407 0
790 -466 0
790 -468 0
790 -538 0
790 -753 0
790 -755 0
790 -788 0
792 -790 -793 0
-792 790 0
-792 793 0
792 0
