c BC-S1.2
p cnf 8249 30559
1 -2 -3 0
-1 2 0
-1 3 0
-4 5 1 0
4 -5 0
4 -1 0
6 -7 -4 0
-6 7 0
-6 4 0
8 -9 -10 0
-8 9 0
-8 10 0
11 -12 -3 0
-11 12 0
-11 3 0
-13 14 8 11 0
13 -14 0
13 -8 0
13 -11 0
15 -16 -13 0
-15 16 0
-15 13 0
-17 18 15 0
17 -18 0
17 -15 0
19 -20 -17 0
-19 20 0
-19 17 0
-21 22 6 19 0
21 -22 0
21 -6 0
21 -19 0
23 -24 -21 0
-23 24 0
-23 21 0
25 -26 -21 0
-25 26 0
-25 21 0
27 -28 -13 0
-27 28 0
-27 13 0
-29 30 27 0
29 -30 0
29 -27 0
31 -32 -29 0
-31 32 0
-31 29 0
-33 34 25 31 0
33 -34 0
33 -25 0
33 -31 0
35 -36 -33 0
-35 36 0
-35 33 0
37 -38 -4 0
-37 38 0
-37 4 0
-39 40 37 0
39 -40 0
39 -37 0
41 -42 -39 0
-41 42 0
-41 39 0
43 -44 -4 0
-43 44 0
-43 4 0
45 -46 -47 0
-45 46 0
-45 47 0
48 -49 -50 0
-48 49 0
-48 50 0
-51 52 45 48 0
51 -52 0
51 -45 0
51 -48 0
53 -54 -51 0
-53 54 0
-53 51 0
-55 56 43 53 0
55 -56 0
55 -43 0
55 -53 0
57 -58 -55 0
-57 58 0
-57 55 0
-59 60 41 57 0
59 -60 0
59 -41 0
59 -57 0
61 -62 -59 0
-61 62 0
-61 59 0
63 -64 -65 0
-63 64 0
-63 65 0
66 -67 -59 0
-66 67 0
-66 59 0
-68 69 66 0
68 -69 0
68 -66 0
70 -71 -68 0
-70 71 0
-70 68 0
-72 73 63 70 0
72 -73 0
72 -63 0
72 -70 0
74 -75 -72 0
-74 75 0
-74 72 0
76 -77 -78 0
-76 77 0
-76 78 0
-79 80 23 35 61 74 76 0
79 -80 0
79 -23 0
79 -35 0
79 -61 0
79 -74 0
79 -76 0
81 -82 -79 0
-81 82 0
-81 79 0
83 -84 -47 0
-83 84 0
-83 47 0
-85 34 25 0
85 -34 0
85 -25 0
86 -36 -85 0
-86 36 0
-86 85 0
-87 80 23 86 61 74 76 0
87 -80 0
87 -23 0
87 -86 0
87 -61 0
87 -74 0
87 -76 0
88 -89 -87 0
-88 89 0
-88 87 0
90 -7 -5 0
-90 7 0
-90 5 0
91 -20 -18 0
-91 20 0
-91 18 0
-92 22 90 91 0
92 -22 0
92 -90 0
92 -91 0
93 -24 -92 0
-93 24 0
-93 92 0
94 -26 -92 0
-94 26 0
-94 92 0
-95 34 94 0
95 -34 0
95 -94 0
96 -36 -95 0
-96 36 0
-96 95 0
97 -38 -5 0
-97 38 0
-97 5 0
-98 40 97 0
98 -40 0
98 -97 0
99 -42 -98 0
-99 42 0
-99 98 0
100 -44 -5 0
-100 44 0
-100 5 0
-101 56 100 53 0
101 -56 0
101 -100 0
101 -53 0
102 -58 -101 0
-102 58 0
-102 101 0
-103 60 99 102 0
103 -60 0
103 -99 0
103 -102 0
104 -62 -103 0
-104 62 0
-104 103 0
105 -67 -103 0
-105 67 0
-105 103 0
-106 69 105 0
106 -69 0
106 -105 0
107 -71 -106 0
-107 71 0
-107 106 0
-108 73 63 107 0
108 -73 0
108 -63 0
108 -107 0
109 -75 -108 0
-109 75 0
-109 108 0
-110 80 93 96 104 109 76 0
110 -80 0
110 -93 0
110 -96 0
110 -104 0
110 -109 0
110 -76 0
111 -112 -110 0
-111 112 0
-111 110 0
-113 3 111 0
113 -3 0
113 -111 0
114 -12 -113 0
-114 12 0
-114 113 0
-115 14 8 114 0
115 -14 0
115 -8 0
115 -114 0
116 -28 -115 0
-116 28 0
-116 115 0
-117 30 88 116 0
117 -30 0
117 -88 0
117 -116 0
118 -119 -117 0
-118 119 0
-118 117 0
-120 121 81 83 118 0
120 -121 0
120 -81 0
120 -83 0
120 -118 0
122 -123 -120 0
-122 123 0
-122 120 0
124 -119 -29 0
-124 119 0
-124 29 0
-125 121 83 124 0
125 -121 0
125 -83 0
125 -124 0
126 -127 -125 0
-126 127 0
-126 125 0
-128 22 126 19 0
128 -22 0
128 -126 0
128 -19 0
129 -24 -128 0
-129 24 0
-129 128 0
130 -26 -128 0
-130 26 0
-130 128 0
-131 34 130 31 0
131 -34 0
131 -130 0
131 -31 0
132 -36 -131 0
-132 36 0
-132 131 0
133 -134 -125 0
-133 134 0
-133 125 0
-135 40 133 37 0
135 -40 0
135 -133 0
135 -37 0
136 -42 -135 0
-136 42 0
-136 135 0
-137 60 136 57 0
137 -60 0
137 -136 0
137 -57 0
138 -62 -137 0
-138 62 0
-138 137 0
139 -67 -137 0
-139 67 0
-139 137 0
-140 69 139 0
140 -69 0
140 -139 0
141 -71 -140 0
-141 71 0
-141 140 0
-142 73 63 141 0
142 -73 0
142 -63 0
142 -141 0
143 -75 -142 0
-143 75 0
-143 142 0
-144 80 129 132 138 143 76 0
144 -80 0
144 -129 0
144 -132 0
144 -138 0
144 -143 0
144 -76 0
145 -146 -144 0
-145 146 0
-145 144 0
-147 40 133 97 0
147 -40 0
147 -133 0
147 -97 0
148 -42 -147 0
-148 42 0
-148 147 0
-149 60 148 102 0
149 -60 0
149 -148 0
149 -102 0
150 -62 -149 0
-150 62 0
-150 149 0
151 -67 -149 0
-151 67 0
-151 149 0
-152 69 151 0
152 -69 0
152 -151 0
153 -71 -152 0
-153 71 0
-153 152 0
-154 73 63 153 0
154 -73 0
154 -63 0
154 -153 0
155 -75 -154 0
-155 75 0
-155 154 0
-156 80 129 132 150 155 76 0
156 -80 0
156 -129 0
156 -132 0
156 -150 0
156 -155 0
156 -76 0
157 -112 -156 0
-157 112 0
-157 156 0
-158 3 157 0
158 -3 0
158 -157 0
159 -2 -158 0
-159 2 0
-159 158 0
-160 5 145 159 0
160 -5 0
160 -145 0
160 -159 0
161 -162 -160 0
-161 162 0
-161 160 0
-163 22 6 126 19 0
163 -22 0
163 -6 0
163 -126 0
163 -19 0
164 -24 -163 0
-164 24 0
-164 163 0
165 -26 -163 0
-165 26 0
-165 163 0
-166 34 165 31 0
166 -34 0
166 -165 0
166 -31 0
167 -36 -166 0
-167 36 0
-167 166 0
-168 80 164 167 138 143 76 0
168 -80 0
168 -164 0
168 -167 0
168 -138 0
168 -143 0
168 -76 0
169 -170 -168 0
-169 170 0
-169 168 0
171 -172 -47 0
-171 172 0
-171 47 0
173 -174 -10 0
-173 174 0
-173 10 0
-175 176 169 171 173 0
175 -176 0
175 -169 0
175 -171 0
175 -173 0
177 -178 -175 0
-177 178 0
-177 175 0
179 -180 -120 0
-179 180 0
-179 120 0
-181 34 165 0
181 -34 0
181 -165 0
182 -36 -181 0
-182 36 0
-182 181 0
-183 80 164 182 138 143 76 0
183 -80 0
183 -164 0
183 -182 0
183 -138 0
183 -143 0
183 -76 0
184 -89 -183 0
-184 89 0
-184 183 0
-185 121 83 0
185 -121 0
185 -83 0
186 -127 -185 0
-186 127 0
-186 185 0
-187 22 90 186 91 0
187 -22 0
187 -90 0
187 -186 0
187 -91 0
188 -24 -187 0
-188 24 0
-188 187 0
189 -26 -187 0
-189 26 0
-189 187 0
-190 34 189 0
190 -34 0
190 -189 0
191 -36 -190 0
-191 36 0
-191 190 0
192 -134 -185 0
-192 134 0
-192 185 0
-193 40 192 97 0
193 -40 0
193 -192 0
193 -97 0
194 -42 -193 0
-194 42 0
-194 193 0
-195 60 194 102 0
195 -60 0
195 -194 0
195 -102 0
196 -62 -195 0
-196 62 0
-196 195 0
197 -67 -195 0
-197 67 0
-197 195 0
-198 69 197 0
198 -69 0
198 -197 0
199 -71 -198 0
-199 71 0
-199 198 0
-200 73 63 199 0
200 -73 0
200 -63 0
200 -199 0
201 -75 -200 0
-201 75 0
-201 200 0
-202 80 188 191 196 201 76 0
202 -80 0
202 -188 0
202 -191 0
202 -196 0
202 -201 0
202 -76 0
203 -112 -202 0
-203 112 0
-203 202 0
-204 3 203 0
204 -3 0
204 -203 0
205 -12 -204 0
-205 12 0
-205 204 0
-206 14 8 205 0
206 -14 0
206 -8 0
206 -205 0
207 -28 -206 0
-207 28 0
-207 206 0
-208 30 184 207 0
208 -30 0
208 -184 0
208 -207 0
209 -210 -208 0
-209 210 0
-209 208 0
-211 212 209 0
211 -212 0
211 -209 0
213 -214 -211 0
-213 214 0
-213 211 0
-215 216 179 213 0
215 -216 0
215 -179 0
215 -213 0
217 -218 -215 0
-217 218 0
-217 215 0
219 -71 -69 0
-219 71 0
-219 69 0
-220 73 63 219 0
220 -73 0
220 -63 0
220 -219 0
221 -75 -220 0
-221 75 0
-221 220 0
-222 80 23 35 221 76 0
222 -80 0
222 -23 0
222 -35 0
222 -221 0
222 -76 0
223 -82 -222 0
-223 82 0
-223 222 0
-224 80 23 86 221 76 0
224 -80 0
224 -23 0
224 -86 0
224 -221 0
224 -76 0
225 -89 -224 0
-225 89 0
-225 224 0
-226 80 93 96 221 76 0
226 -80 0
226 -93 0
226 -96 0
226 -221 0
226 -76 0
227 -112 -226 0
-227 112 0
-227 226 0
-228 3 227 0
228 -3 0
228 -227 0
229 -12 -228 0
-229 12 0
-229 228 0
-230 14 8 229 0
230 -14 0
230 -8 0
230 -229 0
231 -28 -230 0
-231 28 0
-231 230 0
-232 30 225 231 0
232 -30 0
232 -225 0
232 -231 0
233 -119 -232 0
-233 119 0
-233 232 0
-234 121 223 83 233 0
234 -121 0
234 -223 0
234 -83 0
234 -233 0
235 -134 -234 0
-235 134 0
-235 234 0
-236 80 129 132 221 76 0
236 -80 0
236 -129 0
236 -132 0
236 -221 0
236 -76 0
237 -146 -236 0
-237 146 0
-237 236 0
238 -112 -236 0
-238 112 0
-238 236 0
-239 3 238 0
239 -3 0
239 -238 0
240 -2 -239 0
-240 2 0
-240 239 0
-241 5 237 240 0
241 -5 0
241 -237 0
241 -240 0
242 -38 -241 0
-242 38 0
-242 241 0
-243 40 235 242 0
243 -40 0
243 -235 0
243 -242 0
244 -42 -243 0
-244 42 0
-244 243 0
245 -44 -241 0
-245 44 0
-245 241 0
-246 80 164 167 221 76 0
246 -80 0
246 -164 0
246 -167 0
246 -221 0
246 -76 0
247 -248 -246 0
-247 248 0
-247 246 0
249 -250 -246 0
-249 250 0
-249 246 0
-251 50 249 0
251 -50 0
251 -249 0
252 -49 -251 0
-252 49 0
-252 251 0
-253 52 247 45 252 0
253 -52 0
253 -247 0
253 -45 0
253 -252 0
254 -54 -253 0
-254 54 0
-254 253 0
-255 56 245 254 0
255 -56 0
255 -245 0
255 -254 0
256 -58 -255 0
-256 58 0
-256 255 0
-257 60 244 256 0
257 -60 0
257 -244 0
257 -256 0
258 -259 -257 0
-258 259 0
-258 257 0
-260 80 23 35 76 0
260 -80 0
260 -23 0
260 -35 0
260 -76 0
261 -82 -260 0
-261 82 0
-261 260 0
-262 80 23 86 76 0
262 -80 0
262 -23 0
262 -86 0
262 -76 0
263 -89 -262 0
-263 89 0
-263 262 0
-264 80 93 96 76 0
264 -80 0
264 -93 0
264 -96 0
264 -76 0
265 -112 -264 0
-265 112 0
-265 264 0
-266 3 265 0
266 -3 0
266 -265 0
267 -12 -266 0
-267 12 0
-267 266 0
-268 14 8 267 0
268 -14 0
268 -8 0
268 -267 0
269 -28 -268 0
-269 28 0
-269 268 0
-270 30 263 269 0
270 -30 0
270 -263 0
270 -269 0
271 -119 -270 0
-271 119 0
-271 270 0
-272 121 261 83 271 0
272 -121 0
272 -261 0
272 -83 0
272 -271 0
273 -134 -272 0
-273 134 0
-273 272 0
-274 80 129 132 76 0
274 -80 0
274 -129 0
274 -132 0
274 -76 0
275 -146 -274 0
-275 146 0
-275 274 0
276 -112 -274 0
-276 112 0
-276 274 0
-277 3 276 0
277 -3 0
277 -276 0
278 -2 -277 0
-278 2 0
-278 277 0
-279 5 275 278 0
279 -5 0
279 -275 0
279 -278 0
280 -38 -279 0
-280 38 0
-280 279 0
-281 40 273 280 0
281 -40 0
281 -273 0
281 -280 0
282 -42 -281 0
-282 42 0
-282 281 0
283 -44 -279 0
-283 44 0
-283 279 0
-284 80 164 167 76 0
284 -80 0
284 -164 0
284 -167 0
284 -76 0
285 -248 -284 0
-285 248 0
-285 284 0
286 -250 -284 0
-286 250 0
-286 284 0
-287 50 286 0
287 -50 0
287 -286 0
288 -49 -287 0
-288 49 0
-288 287 0
-289 52 285 45 288 0
289 -52 0
289 -285 0
289 -45 0
289 -288 0
290 -54 -289 0
-290 54 0
-290 289 0
-291 56 283 290 0
291 -56 0
291 -283 0
291 -290 0
292 -58 -291 0
-292 58 0
-292 291 0
-293 60 282 292 0
293 -60 0
293 -282 0
293 -292 0
294 -67 -293 0
-294 67 0
-294 293 0
-295 69 294 0
295 -69 0
295 -294 0
296 -71 -295 0
-296 71 0
-296 295 0
-297 73 63 296 0
297 -73 0
297 -63 0
297 -296 0
298 -299 -297 0
-298 299 0
-298 297 0
300 -119 -30 0
-300 119 0
-300 30 0
-301 121 83 300 0
301 -121 0
301 -83 0
301 -300 0
302 -127 -301 0
-302 127 0
-302 301 0
-303 22 90 302 91 0
303 -22 0
303 -90 0
303 -302 0
303 -91 0
304 -24 -303 0
-304 24 0
-304 303 0
305 -26 -303 0
-305 26 0
-305 303 0
306 -32 -30 0
-306 32 0
-306 30 0
-307 34 305 306 0
307 -34 0
307 -305 0
307 -306 0
308 -36 -307 0
-308 36 0
-308 307 0
309 -134 -301 0
-309 134 0
-309 301 0
-310 40 309 97 0
310 -40 0
310 -309 0
310 -97 0
311 -42 -310 0
-311 42 0
-311 310 0
-312 60 311 102 0
312 -60 0
312 -311 0
312 -102 0
313 -62 -312 0
-313 62 0
-313 312 0
314 -67 -312 0
-314 67 0
-314 312 0
-315 69 314 0
315 -69 0
315 -314 0
316 -71 -315 0
-316 71 0
-316 315 0
-317 73 63 316 0
317 -73 0
317 -63 0
317 -316 0
318 -75 -317 0
-318 75 0
-318 317 0
-319 80 304 308 313 318 76 0
319 -80 0
319 -304 0
319 -308 0
319 -313 0
319 -318 0
319 -76 0
320 -112 -319 0
-320 112 0
-320 319 0
-321 3 320 0
321 -3 0
321 -320 0
322 -12 -321 0
-322 12 0
-322 321 0
-323 14 8 322 0
323 -14 0
323 -8 0
323 -322 0
324 -325 -323 0
-324 325 0
-324 323 0
326 -327 -10 0
-326 327 0
-326 10 0
328 -329 -78 0
-328 329 0
-328 78 0
330 -331 -257 0
-330 331 0
-330 257 0
-332 333 330 0
332 -333 0
332 -330 0
334 -335 -332 0
-334 335 0
-334 332 0
-336 337 122 161 177 217 258 298 324 326 328 334 0
336 -337 0
336 -122 0
336 -161 0
336 -177 0
336 -217 0
336 -258 0
336 -298 0
336 -324 0
336 -326 0
336 -328 0
336 -334 0
338 -339 -336 0
-338 339 0
-338 336 0
340 -123 -125 0
-340 123 0
-340 125 0
341 -162 -4 0
-341 162 0
-341 4 0
-342 176 171 173 0
342 -176 0
342 -171 0
342 -173 0
343 -178 -342 0
-343 178 0
-343 342 0
344 -180 -125 0
-344 180 0
-344 125 0
345 -210 -29 0
-345 210 0
-345 29 0
-346 212 345 0
346 -212 0
346 -345 0
347 -214 -346 0
-347 214 0
-347 346 0
-348 216 344 347 0
348 -216 0
348 -344 0
348 -347 0
349 -218 -348 0
-349 218 0
-349 348 0
350 -259 -137 0
-350 259 0
-350 137 0
351 -299 -142 0
-351 299 0
-351 142 0
352 -325 -13 0
-352 325 0
-352 13 0
353 -331 -137 0
-353 331 0
-353 137 0
-354 333 353 0
354 -333 0
354 -353 0
355 -335 -354 0
-355 335 0
-355 354 0
-356 337 340 341 343 349 350 351 352 326 328 355 0
356 -337 0
356 -340 0
356 -341 0
356 -343 0
356 -349 0
356 -350 0
356 -351 0
356 -352 0
356 -326 0
356 -328 0
356 -355 0
357 -358 -356 0
-357 358 0
-357 356 0
-359 52 48 0
359 -52 0
359 -48 0
360 -54 -359 0
-360 54 0
-360 359 0
-361 56 43 360 0
361 -56 0
361 -43 0
361 -360 0
362 -58 -361 0
-362 58 0
-362 361 0
-363 60 41 362 0
363 -60 0
363 -41 0
363 -362 0
364 -259 -363 0
-364 259 0
-364 363 0
365 -67 -363 0
-365 67 0
-365 363 0
-366 69 365 0
366 -69 0
366 -365 0
367 -71 -366 0
-367 71 0
-367 366 0
-368 73 63 367 0
368 -73 0
368 -63 0
368 -367 0
369 -299 -368 0
-369 299 0
-369 368 0
370 -331 -363 0
-370 331 0
-370 363 0
-371 333 370 0
371 -333 0
371 -370 0
372 -335 -371 0
-372 335 0
-372 371 0
-373 337 340 341 343 349 364 369 352 326 328 372 0
373 -337 0
373 -340 0
373 -341 0
373 -343 0
373 -349 0
373 -364 0
373 -369 0
373 -352 0
373 -326 0
373 -328 0
373 -372 0
374 -375 -373 0
-374 375 0
-374 373 0
-376 47 374 0
376 -47 0
376 -374 0
377 -84 -376 0
-377 84 0
-377 376 0
-378 121 377 124 0
378 -121 0
378 -377 0
378 -124 0
379 -127 -378 0
-379 127 0
-379 378 0
-380 22 357 6 379 19 0
380 -22 0
380 -357 0
380 -6 0
380 -379 0
380 -19 0
381 -24 -380 0
-381 24 0
-381 380 0
382 -383 -356 0
-382 383 0
-382 356 0
384 -26 -380 0
-384 26 0
-384 380 0
385 -386 -356 0
-385 386 0
-385 356 0
-387 34 384 385 31 0
387 -34 0
387 -384 0
387 -385 0
387 -31 0
388 -36 -387 0
-388 36 0
-388 387 0
389 -299 -220 0
-389 299 0
-389 220 0
390 -335 -333 0
-390 335 0
-390 333 0
-391 337 340 341 343 349 389 352 326 328 390 0
391 -337 0
391 -340 0
391 -341 0
391 -343 0
391 -349 0
391 -389 0
391 -352 0
391 -326 0
391 -328 0
391 -390 0
392 -375 -391 0
-392 375 0
-392 391 0
-393 47 392 0
393 -47 0
393 -392 0
394 -84 -393 0
-394 84 0
-394 393 0
-395 121 394 124 0
395 -121 0
395 -394 0
395 -124 0
396 -134 -395 0
-396 134 0
-396 395 0
-397 40 396 37 0
397 -40 0
397 -396 0
397 -37 0
398 -42 -397 0
-398 42 0
-398 397 0
399 -46 -393 0
-399 46 0
-399 393 0
400 -401 -391 0
-400 401 0
-400 391 0
-402 50 400 0
402 -50 0
402 -400 0
403 -49 -402 0
-403 49 0
-403 402 0
-404 52 399 403 0
404 -52 0
404 -399 0
404 -403 0
405 -54 -404 0
-405 54 0
-405 404 0
-406 56 43 405 0
406 -56 0
406 -43 0
406 -405 0
407 -58 -406 0
-407 58 0
-407 406 0
-408 60 398 407 0
408 -60 0
408 -398 0
408 -407 0
409 -62 -408 0
-409 62 0
-409 408 0
-410 337 340 341 343 349 350 352 326 328 355 0
410 -337 0
410 -340 0
410 -341 0
410 -343 0
410 -349 0
410 -350 0
410 -352 0
410 -326 0
410 -328 0
410 -355 0
411 -412 -410 0
-411 412 0
-411 410 0
-413 65 411 0
413 -65 0
413 -411 0
414 -64 -413 0
-414 64 0
-414 413 0
415 -416 -410 0
-415 416 0
-415 410 0
-417 337 340 341 343 349 352 326 328 390 0
417 -337 0
417 -340 0
417 -341 0
417 -343 0
417 -349 0
417 -352 0
417 -326 0
417 -328 0
417 -390 0
418 -375 -417 0
-418 375 0
-418 417 0
-419 47 418 0
419 -47 0
419 -418 0
420 -84 -419 0
-420 84 0
-420 419 0
-421 121 420 124 0
421 -121 0
421 -420 0
421 -124 0
422 -134 -421 0
-422 134 0
-422 421 0
-423 40 422 37 0
423 -40 0
423 -422 0
423 -37 0
424 -42 -423 0
-424 42 0
-424 423 0
425 -46 -419 0
-425 46 0
-425 419 0
426 -401 -417 0
-426 401 0
-426 417 0
-427 50 426 0
427 -50 0
427 -426 0
428 -49 -427 0
-428 49 0
-428 427 0
-429 52 425 428 0
429 -52 0
429 -425 0
429 -428 0
430 -54 -429 0
-430 54 0
-430 429 0
-431 56 43 430 0
431 -56 0
431 -43 0
431 -430 0
432 -58 -431 0
-432 58 0
-432 431 0
-433 60 424 432 0
433 -60 0
433 -424 0
433 -432 0
434 -67 -433 0
-434 67 0
-434 433 0
-435 69 415 434 0
435 -69 0
435 -415 0
435 -434 0
436 -71 -435 0
-436 71 0
-436 435 0
-437 73 414 436 0
437 -73 0
437 -414 0
437 -436 0
438 -75 -437 0
-438 75 0
-438 437 0
-439 80 381 382 388 409 438 76 0
439 -80 0
439 -381 0
439 -382 0
439 -388 0
439 -409 0
439 -438 0
439 -76 0
440 -441 -439 0
-440 441 0
-440 439 0
-442 216 344 0
442 -216 0
442 -344 0
443 -218 -442 0
-443 218 0
-443 442 0
-444 337 340 341 343 443 350 351 352 326 328 355 0
444 -337 0
444 -340 0
444 -341 0
444 -343 0
444 -443 0
444 -350 0
444 -351 0
444 -352 0
444 -326 0
444 -328 0
444 -355 0
445 -358 -444 0
-445 358 0
-445 444 0
-446 337 340 341 343 443 364 369 352 326 328 372 0
446 -337 0
446 -340 0
446 -341 0
446 -343 0
446 -443 0
446 -364 0
446 -369 0
446 -352 0
446 -326 0
446 -328 0
446 -372 0
447 -375 -446 0
-447 375 0
-447 446 0
-448 47 447 0
448 -47 0
448 -447 0
449 -84 -448 0
-449 84 0
-449 448 0
-450 121 449 124 0
450 -121 0
450 -449 0
450 -124 0
451 -127 -450 0
-451 127 0
-451 450 0
-452 22 445 6 451 19 0
452 -22 0
452 -445 0
452 -6 0
452 -451 0
452 -19 0
453 -24 -452 0
-453 24 0
-453 452 0
454 -383 -444 0
-454 383 0
-454 444 0
455 -26 -452 0
-455 26 0
-455 452 0
456 -386 -444 0
-456 386 0
-456 444 0
-457 34 455 456 0
457 -34 0
457 -455 0
457 -456 0
458 -36 -457 0
-458 36 0
-458 457 0
-459 337 340 341 343 443 389 352 326 328 390 0
459 -337 0
459 -340 0
459 -341 0
459 -343 0
459 -443 0
459 -389 0
459 -352 0
459 -326 0
459 -328 0
459 -390 0
460 -375 -459 0
-460 375 0
-460 459 0
-461 47 460 0
461 -47 0
461 -460 0
462 -84 -461 0
-462 84 0
-462 461 0
-463 121 462 124 0
463 -121 0
463 -462 0
463 -124 0
464 -134 -463 0
-464 134 0
-464 463 0
-465 40 464 37 0
465 -40 0
465 -464 0
465 -37 0
466 -42 -465 0
-466 42 0
-466 465 0
467 -46 -461 0
-467 46 0
-467 461 0
468 -401 -459 0
-468 401 0
-468 459 0
-469 50 468 0
469 -50 0
469 -468 0
470 -49 -469 0
-470 49 0
-470 469 0
-471 52 467 470 0
471 -52 0
471 -467 0
471 -470 0
472 -54 -471 0
-472 54 0
-472 471 0
-473 56 43 472 0
473 -56 0
473 -43 0
473 -472 0
474 -58 -473 0
-474 58 0
-474 473 0
-475 60 466 474 0
475 -60 0
475 -466 0
475 -474 0
476 -62 -475 0
-476 62 0
-476 475 0
-477 337 340 341 343 443 350 352 326 328 355 0
477 -337 0
477 -340 0
477 -341 0
477 -343 0
477 -443 0
477 -350 0
477 -352 0
477 -326 0
477 -328 0
477 -355 0
478 -412 -477 0
-478 412 0
-478 477 0
-479 65 478 0
479 -65 0
479 -478 0
480 -64 -479 0
-480 64 0
-480 479 0
481 -416 -477 0
-481 416 0
-481 477 0
-482 337 340 341 343 443 352 326 328 390 0
482 -337 0
482 -340 0
482 -341 0
482 -343 0
482 -443 0
482 -352 0
482 -326 0
482 -328 0
482 -390 0
483 -375 -482 0
-483 375 0
-483 482 0
-484 47 483 0
484 -47 0
484 -483 0
485 -84 -484 0
-485 84 0
-485 484 0
-486 121 485 124 0
486 -121 0
486 -485 0
486 -124 0
487 -134 -486 0
-487 134 0
-487 486 0
-488 40 487 37 0
488 -40 0
488 -487 0
488 -37 0
489 -42 -488 0
-489 42 0
-489 488 0
490 -46 -484 0
-490 46 0
-490 484 0
491 -401 -482 0
-491 401 0
-491 482 0
-492 50 491 0
492 -50 0
492 -491 0
493 -49 -492 0
-493 49 0
-493 492 0
-494 52 490 493 0
494 -52 0
494 -490 0
494 -493 0
495 -54 -494 0
-495 54 0
-495 494 0
-496 56 43 495 0
496 -56 0
496 -43 0
496 -495 0
497 -58 -496 0
-497 58 0
-497 496 0
-498 60 489 497 0
498 -60 0
498 -489 0
498 -497 0
499 -67 -498 0
-499 67 0
-499 498 0
-500 69 481 499 0
500 -69 0
500 -481 0
500 -499 0
501 -71 -500 0
-501 71 0
-501 500 0
-502 73 480 501 0
502 -73 0
502 -480 0
502 -501 0
503 -75 -502 0
-503 75 0
-503 502 0
-504 80 453 454 458 476 503 76 0
504 -80 0
504 -453 0
504 -454 0
504 -458 0
504 -476 0
504 -503 0
504 -76 0
505 -89 -504 0
-505 89 0
-505 504 0
506 -123 -185 0
-506 123 0
-506 185 0
507 -162 -5 0
-507 162 0
-507 5 0
508 -180 -185 0
-508 180 0
-508 185 0
-509 216 508 0
509 -216 0
509 -508 0
510 -218 -509 0
-510 218 0
-510 509 0
511 -259 -195 0
-511 259 0
-511 195 0
512 -299 -200 0
-512 299 0
-512 200 0
513 -331 -195 0
-513 331 0
-513 195 0
-514 333 513 0
514 -333 0
514 -513 0
515 -335 -514 0
-515 335 0
-515 514 0
-516 337 506 507 343 510 511 512 326 328 515 0
516 -337 0
516 -506 0
516 -507 0
516 -343 0
516 -510 0
516 -511 0
516 -512 0
516 -326 0
516 -328 0
516 -515 0
517 -358 -516 0
-517 358 0
-517 516 0
-518 56 100 360 0
518 -56 0
518 -100 0
518 -360 0
519 -58 -518 0
-519 58 0
-519 518 0
-520 60 99 519 0
520 -60 0
520 -99 0
520 -519 0
521 -259 -520 0
-521 259 0
-521 520 0
522 -67 -520 0
-522 67 0
-522 520 0
-523 69 522 0
523 -69 0
523 -522 0
524 -71 -523 0
-524 71 0
-524 523 0
-525 73 63 524 0
525 -73 0
525 -63 0
525 -524 0
526 -299 -525 0
-526 299 0
-526 525 0
527 -331 -520 0
-527 331 0
-527 520 0
-528 333 527 0
528 -333 0
528 -527 0
529 -335 -528 0
-529 335 0
-529 528 0
-530 337 506 507 343 510 521 526 326 328 529 0
530 -337 0
530 -506 0
530 -507 0
530 -343 0
530 -510 0
530 -521 0
530 -526 0
530 -326 0
530 -328 0
530 -529 0
531 -375 -530 0
-531 375 0
-531 530 0
-532 47 531 0
532 -47 0
532 -531 0
533 -84 -532 0
-533 84 0
-533 532 0
-534 121 533 0
534 -121 0
534 -533 0
535 -127 -534 0
-535 127 0
-535 534 0
-536 22 517 90 535 91 0
536 -22 0
536 -517 0
536 -90 0
536 -535 0
536 -91 0
537 -24 -536 0
-537 24 0
-537 536 0
538 -383 -516 0
-538 383 0
-538 516 0
539 -26 -536 0
-539 26 0
-539 536 0
540 -386 -516 0
-540 386 0
-540 516 0
-541 34 539 540 0
541 -34 0
541 -539 0
541 -540 0
542 -36 -541 0
-542 36 0
-542 541 0
-543 337 506 507 343 510 389 326 328 390 0
543 -337 0
543 -506 0
543 -507 0
543 -343 0
543 -510 0
543 -389 0
543 -326 0
543 -328 0
543 -390 0
544 -375 -543 0
-544 375 0
-544 543 0
-545 47 544 0
545 -47 0
545 -544 0
546 -84 -545 0
-546 84 0
-546 545 0
-547 121 546 0
547 -121 0
547 -546 0
548 -134 -547 0
-548 134 0
-548 547 0
-549 40 548 97 0
549 -40 0
549 -548 0
549 -97 0
550 -42 -549 0
-550 42 0
-550 549 0
551 -46 -545 0
-551 46 0
-551 545 0
552 -401 -543 0
-552 401 0
-552 543 0
-553 50 552 0
553 -50 0
553 -552 0
554 -49 -553 0
-554 49 0
-554 553 0
-555 52 551 554 0
555 -52 0
555 -551 0
555 -554 0
556 -54 -555 0
-556 54 0
-556 555 0
-557 56 100 556 0
557 -56 0
557 -100 0
557 -556 0
558 -58 -557 0
-558 58 0
-558 557 0
-559 60 550 558 0
559 -60 0
559 -550 0
559 -558 0
560 -62 -559 0
-560 62 0
-560 559 0
-561 337 506 507 343 510 511 326 328 515 0
561 -337 0
561 -506 0
561 -507 0
561 -343 0
561 -510 0
561 -511 0
561 -326 0
561 -328 0
561 -515 0
562 -412 -561 0
-562 412 0
-562 561 0
-563 65 562 0
563 -65 0
563 -562 0
564 -64 -563 0
-564 64 0
-564 563 0
565 -416 -561 0
-565 416 0
-565 561 0
-566 337 506 507 343 510 326 328 390 0
566 -337 0
566 -506 0
566 -507 0
566 -343 0
566 -510 0
566 -326 0
566 -328 0
566 -390 0
567 -375 -566 0
-567 375 0
-567 566 0
-568 47 567 0
568 -47 0
568 -567 0
569 -84 -568 0
-569 84 0
-569 568 0
-570 121 569 0
570 -121 0
570 -569 0
571 -134 -570 0
-571 134 0
-571 570 0
-572 40 571 97 0
572 -40 0
572 -571 0
572 -97 0
573 -42 -572 0
-573 42 0
-573 572 0
574 -46 -568 0
-574 46 0
-574 568 0
575 -401 -566 0
-575 401 0
-575 566 0
-576 50 575 0
576 -50 0
576 -575 0
577 -49 -576 0
-577 49 0
-577 576 0
-578 52 574 577 0
578 -52 0
578 -574 0
578 -577 0
579 -54 -578 0
-579 54 0
-579 578 0
-580 56 100 579 0
580 -56 0
580 -100 0
580 -579 0
581 -58 -580 0
-581 58 0
-581 580 0
-582 60 573 581 0
582 -60 0
582 -573 0
582 -581 0
583 -67 -582 0
-583 67 0
-583 582 0
-584 69 565 583 0
584 -69 0
584 -565 0
584 -583 0
585 -71 -584 0
-585 71 0
-585 584 0
-586 73 564 585 0
586 -73 0
586 -564 0
586 -585 0
587 -75 -586 0
-587 75 0
-587 586 0
-588 80 537 538 542 560 587 76 0
588 -80 0
588 -537 0
588 -538 0
588 -542 0
588 -560 0
588 -587 0
588 -76 0
589 -112 -588 0
-589 112 0
-589 588 0
-590 3 589 0
590 -3 0
590 -589 0
591 -12 -590 0
-591 12 0
-591 590 0
-592 14 8 591 0
592 -14 0
592 -8 0
592 -591 0
593 -28 -592 0
-593 28 0
-593 592 0
-594 30 505 593 0
594 -30 0
594 -505 0
594 -593 0
595 -210 -594 0
-595 210 0
-595 594 0
-596 212 595 0
596 -212 0
596 -595 0
597 -598 -596 0
-597 598 0
-597 596 0
-599 600 338 440 597 0
599 -600 0
599 -338 0
599 -440 0
599 -597 0
601 -602 -599 0
-601 602 0
-601 599 0
603 -441 -79 0
-603 441 0
-603 79 0
604 -210 -117 0
-604 210 0
-604 117 0
-605 212 604 0
605 -212 0
605 -604 0
606 -598 -605 0
-606 598 0
-606 605 0
-607 600 603 606 0
607 -600 0
607 -603 0
607 -606 0
608 -609 -607 0
-608 609 0
-608 607 0
610 -598 -346 0
-610 598 0
-610 346 0
-611 600 610 0
611 -600 0
611 -610 0
612 -613 -611 0
-612 613 0
-612 611 0
614 -615 -611 0
-614 615 0
-614 611 0
-616 14 614 8 11 0
616 -14 0
616 -614 0
616 -8 0
616 -11 0
617 -16 -616 0
-617 16 0
-617 616 0
-618 18 617 0
618 -18 0
618 -617 0
619 -20 -618 0
-619 20 0
-619 618 0
-620 22 612 6 619 0
620 -22 0
620 -612 0
620 -6 0
620 -619 0
621 -24 -620 0
-621 24 0
-621 620 0
622 -26 -620 0
-622 26 0
-622 620 0
623 -624 -611 0
-623 624 0
-623 611 0
625 -598 -212 0
-625 598 0
-625 212 0
-626 600 625 0
626 -600 0
626 -625 0
627 -615 -626 0
-627 615 0
-627 626 0
-628 14 627 8 11 0
628 -14 0
628 -627 0
628 -8 0
628 -11 0
629 -28 -628 0
-629 28 0
-629 628 0
-630 30 629 0
630 -30 0
630 -629 0
631 -32 -630 0
-631 32 0
-631 630 0
-632 34 622 623 631 0
632 -34 0
632 -622 0
632 -623 0
632 -631 0
633 -36 -632 0
-633 36 0
-633 632 0
634 -635 -611 0
-634 635 0
-634 611 0
-636 65 634 0
636 -65 0
636 -634 0
637 -64 -636 0
-637 64 0
-637 636 0
-638 73 637 70 0
638 -73 0
638 -637 0
638 -70 0
639 -75 -638 0
-639 75 0
-639 638 0
640 -641 -611 0
-640 641 0
-640 611 0
-642 78 640 0
642 -78 0
642 -640 0
643 -77 -642 0
-643 77 0
-643 642 0
-644 80 621 633 61 639 643 0
644 -80 0
644 -621 0
644 -633 0
644 -61 0
644 -639 0
644 -643 0
645 -82 -644 0
-645 82 0
-645 644 0
646 -16 -628 0
-646 16 0
-646 628 0
-647 18 646 0
647 -18 0
647 -646 0
648 -20 -647 0
-648 20 0
-648 647 0
-649 22 612 6 648 0
649 -22 0
649 -612 0
649 -6 0
649 -648 0
650 -24 -649 0
-650 24 0
-650 649 0
651 -26 -649 0
-651 26 0
-651 649 0
-652 34 651 623 0
652 -34 0
652 -651 0
652 -623 0
653 -36 -652 0
-653 36 0
-653 652 0
-654 80 650 653 61 639 643 0
654 -80 0
654 -650 0
654 -653 0
654 -61 0
654 -639 0
654 -643 0
655 -89 -654 0
-655 89 0
-655 654 0
-656 22 6 91 0
656 -22 0
656 -6 0
656 -91 0
657 -24 -656 0
-657 24 0
-657 656 0
658 -26 -656 0
-658 26 0
-658 656 0
-659 34 658 0
659 -34 0
659 -658 0
660 -36 -659 0
-660 36 0
-660 659 0
-661 80 657 660 61 74 76 0
661 -80 0
661 -657 0
661 -660 0
661 -61 0
661 -74 0
661 -76 0
662 -441 -661 0
-662 441 0
-662 661 0
-663 600 662 625 0
663 -600 0
663 -662 0
663 -625 0
664 -615 -663 0
-664 615 0
-664 663 0
665 -613 -626 0
-665 613 0
-665 626 0
-666 22 665 90 91 0
666 -22 0
666 -665 0
666 -90 0
666 -91 0
667 -24 -666 0
-667 24 0
-667 666 0
668 -26 -666 0
-668 26 0
-668 666 0
669 -624 -626 0
-669 624 0
-669 626 0
-670 34 668 669 0
670 -34 0
670 -668 0
670 -669 0
671 -36 -670 0
-671 36 0
-671 670 0
672 -635 -626 0
-672 635 0
-672 626 0
-673 65 672 0
673 -65 0
673 -672 0
674 -64 -673 0
-674 64 0
-674 673 0
-675 73 674 107 0
675 -73 0
675 -674 0
675 -107 0
676 -75 -675 0
-676 75 0
-676 675 0
677 -641 -626 0
-677 641 0
-677 626 0
-678 78 677 0
678 -78 0
678 -677 0
679 -77 -678 0
-679 77 0
-679 678 0
-680 80 667 671 104 676 679 0
680 -80 0
680 -667 0
680 -671 0
680 -104 0
680 -676 0
680 -679 0
681 -112 -680 0
-681 112 0
-681 680 0
-682 3 681 0
682 -3 0
682 -681 0
683 -12 -682 0
-683 12 0
-683 682 0
-684 14 664 8 683 0
684 -14 0
684 -664 0
684 -8 0
684 -683 0
685 -28 -684 0
-685 28 0
-685 684 0
-686 30 655 685 0
686 -30 0
686 -655 0
686 -685 0
687 -119 -686 0
-687 119 0
-687 686 0
-688 121 608 645 83 687 0
688 -121 0
688 -608 0
688 -645 0
688 -83 0
688 -687 0
689 -123 -688 0
-689 123 0
-689 688 0
690 -609 -611 0
-690 609 0
-690 611 0
691 -119 -630 0
-691 119 0
-691 630 0
-692 121 690 83 691 0
692 -121 0
692 -690 0
692 -83 0
692 -691 0
693 -127 -692 0
-693 127 0
-693 692 0
-694 22 612 693 619 0
694 -22 0
694 -612 0
694 -693 0
694 -619 0
695 -24 -694 0
-695 24 0
-695 694 0
696 -26 -694 0
-696 26 0
-696 694 0
-697 34 696 623 631 0
697 -34 0
697 -696 0
697 -623 0
697 -631 0
698 -36 -697 0
-698 36 0
-698 697 0
699 -134 -692 0
-699 134 0
-699 692 0
-700 40 699 37 0
700 -40 0
700 -699 0
700 -37 0
701 -42 -700 0
-701 42 0
-701 700 0
-702 60 701 57 0
702 -60 0
702 -701 0
702 -57 0
703 -62 -702 0
-703 62 0
-703 702 0
704 -67 -702 0
-704 67 0
-704 702 0
-705 69 704 0
705 -69 0
705 -704 0
706 -71 -705 0
-706 71 0
-706 705 0
-707 73 637 706 0
707 -73 0
707 -637 0
707 -706 0
708 -75 -707 0
-708 75 0
-708 707 0
-709 80 695 698 703 708 643 0
709 -80 0
709 -695 0
709 -698 0
709 -703 0
709 -708 0
709 -643 0
710 -146 -709 0
-710 146 0
-710 709 0
-711 40 699 97 0
711 -40 0
711 -699 0
711 -97 0
712 -42 -711 0
-712 42 0
-712 711 0
-713 60 712 102 0
713 -60 0
713 -712 0
713 -102 0
714 -62 -713 0
-714 62 0
-714 713 0
715 -67 -713 0
-715 67 0
-715 713 0
-716 69 715 0
716 -69 0
716 -715 0
717 -71 -716 0
-717 71 0
-717 716 0
-718 73 637 717 0
718 -73 0
718 -637 0
718 -717 0
719 -75 -718 0
-719 75 0
-719 718 0
-720 80 695 698 714 719 643 0
720 -80 0
720 -695 0
720 -698 0
720 -714 0
720 -719 0
720 -643 0
721 -112 -720 0
-721 112 0
-721 720 0
-722 3 721 0
722 -3 0
722 -721 0
723 -2 -722 0
-723 2 0
-723 722 0
-724 5 710 723 0
724 -5 0
724 -710 0
724 -723 0
725 -162 -724 0
-725 162 0
-725 724 0
726 -441 -168 0
-726 441 0
-726 168 0
727 -598 -211 0
-727 598 0
-727 211 0
-728 600 726 727 0
728 -600 0
728 -726 0
728 -727 0
729 -730 -728 0
-729 730 0
-729 728 0
-731 22 612 6 693 619 0
731 -22 0
731 -612 0
731 -6 0
731 -693 0
731 -619 0
732 -24 -731 0
-732 24 0
-732 731 0
733 -26 -731 0
-733 26 0
-733 731 0
-734 34 733 623 631 0
734 -34 0
734 -733 0
734 -623 0
734 -631 0
735 -36 -734 0
-735 36 0
-735 734 0
-736 80 732 735 703 708 643 0
736 -80 0
736 -732 0
736 -735 0
736 -703 0
736 -708 0
736 -643 0
737 -170 -736 0
-737 170 0
-737 736 0
-738 176 729 737 171 173 0
738 -176 0
738 -729 0
738 -737 0
738 -171 0
738 -173 0
739 -178 -738 0
-739 178 0
-739 738 0
-740 22 665 6 648 0
740 -22 0
740 -665 0
740 -6 0
740 -648 0
741 -24 -740 0
-741 24 0
-741 740 0
742 -26 -740 0
-742 26 0
-742 740 0
-743 34 742 669 0
743 -34 0
743 -742 0
743 -669 0
744 -36 -743 0
-744 36 0
-744 743 0
-745 73 674 70 0
745 -73 0
745 -674 0
745 -70 0
746 -75 -745 0
-746 75 0
-746 745 0
-747 80 741 744 61 746 679 0
747 -80 0
747 -741 0
747 -744 0
747 -61 0
747 -746 0
747 -679 0
748 -89 -747 0
-748 89 0
-748 747 0
-749 30 748 685 0
749 -30 0
749 -748 0
749 -685 0
750 -119 -749 0
-750 119 0
-750 749 0
-751 121 608 645 83 750 0
751 -121 0
751 -608 0
751 -645 0
751 -83 0
751 -750 0
752 -180 -751 0
-752 180 0
-752 751 0
753 -613 -600 0
-753 613 0
-753 600 0
754 -609 -600 0
-754 609 0
-754 600 0
-755 121 754 83 0
755 -121 0
755 -754 0
755 -83 0
756 -127 -755 0
-756 127 0
-756 755 0
757 -615 -600 0
-757 615 0
-757 600 0
-758 14 757 8 11 0
758 -14 0
758 -757 0
758 -8 0
758 -11 0
759 -16 -758 0
-759 16 0
-759 758 0
-760 18 759 0
760 -18 0
760 -759 0
761 -20 -760 0
-761 20 0
-761 760 0
-762 22 753 6 756 761 0
762 -22 0
762 -753 0
762 -6 0
762 -756 0
762 -761 0
763 -24 -762 0
-763 24 0
-763 762 0
764 -26 -762 0
-764 26 0
-764 762 0
765 -624 -600 0
-765 624 0
-765 600 0
-766 34 764 765 0
766 -34 0
766 -764 0
766 -765 0
767 -36 -766 0
-767 36 0
-767 766 0
768 -134 -755 0
-768 134 0
-768 755 0
-769 40 768 37 0
769 -40 0
769 -768 0
769 -37 0
770 -42 -769 0
-770 42 0
-770 769 0
-771 60 770 57 0
771 -60 0
771 -770 0
771 -57 0
772 -62 -771 0
-772 62 0
-772 771 0
773 -635 -600 0
-773 635 0
-773 600 0
-774 65 773 0
774 -65 0
774 -773 0
775 -64 -774 0
-775 64 0
-775 774 0
776 -67 -771 0
-776 67 0
-776 771 0
-777 69 776 0
777 -69 0
777 -776 0
778 -71 -777 0
-778 71 0
-778 777 0
-779 73 775 778 0
779 -73 0
779 -775 0
779 -778 0
780 -75 -779 0
-780 75 0
-780 779 0
781 -641 -600 0
-781 641 0
-781 600 0
-782 78 781 0
782 -78 0
782 -781 0
783 -77 -782 0
-783 77 0
-783 782 0
-784 80 763 767 772 780 783 0
784 -80 0
784 -763 0
784 -767 0
784 -772 0
784 -780 0
784 -783 0
785 -89 -784 0
-785 89 0
-785 784 0
-786 22 6 186 91 0
786 -22 0
786 -6 0
786 -186 0
786 -91 0
787 -24 -786 0
-787 24 0
-787 786 0
788 -26 -786 0
-788 26 0
-788 786 0
-789 34 788 0
789 -34 0
789 -788 0
790 -36 -789 0
-790 36 0
-790 789 0
-791 80 787 790 772 780 76 0
791 -80 0
791 -787 0
791 -790 0
791 -772 0
791 -780 0
791 -76 0
792 -441 -791 0
-792 441 0
-792 791 0
-793 600 792 0
793 -600 0
793 -792 0
794 -615 -793 0
-794 615 0
-794 793 0
-795 22 753 90 756 91 0
795 -22 0
795 -753 0
795 -90 0
795 -756 0
795 -91 0
796 -24 -795 0
-796 24 0
-796 795 0
797 -26 -795 0
-797 26 0
-797 795 0
-798 34 797 765 0
798 -34 0
798 -797 0
798 -765 0
799 -36 -798 0
-799 36 0
-799 798 0
-800 40 768 97 0
800 -40 0
800 -768 0
800 -97 0
801 -42 -800 0
-801 42 0
-801 800 0
-802 60 801 102 0
802 -60 0
802 -801 0
802 -102 0
803 -62 -802 0
-803 62 0
-803 802 0
804 -67 -802 0
-804 67 0
-804 802 0
-805 69 804 0
805 -69 0
805 -804 0
806 -71 -805 0
-806 71 0
-806 805 0
-807 73 775 806 0
807 -73 0
807 -775 0
807 -806 0
808 -75 -807 0
-808 75 0
-808 807 0
-809 80 796 799 803 808 783 0
809 -80 0
809 -796 0
809 -799 0
809 -803 0
809 -808 0
809 -783 0
810 -112 -809 0
-810 112 0
-810 809 0
-811 3 810 0
811 -3 0
811 -810 0
812 -12 -811 0
-812 12 0
-812 811 0
-813 14 794 8 812 0
813 -14 0
813 -794 0
813 -8 0
813 -812 0
814 -28 -813 0
-814 28 0
-814 813 0
-815 30 785 814 0
815 -30 0
815 -785 0
815 -814 0
816 -210 -815 0
-816 210 0
-816 815 0
-817 212 816 0
817 -212 0
817 -816 0
818 -214 -817 0
-818 214 0
-818 817 0
-819 216 752 818 0
819 -216 0
819 -752 0
819 -818 0
820 -218 -819 0
-820 218 0
-820 819 0
821 -441 -222 0
-821 441 0
-821 222 0
822 -210 -232 0
-822 210 0
-822 232 0
-823 212 822 0
823 -212 0
823 -822 0
824 -598 -823 0
-824 598 0
-824 823 0
-825 600 821 824 0
825 -600 0
825 -821 0
825 -824 0
826 -609 -825 0
-826 609 0
-826 825 0
-827 73 637 219 0
827 -73 0
827 -637 0
827 -219 0
828 -75 -827 0
-828 75 0
-828 827 0
-829 80 621 633 828 643 0
829 -80 0
829 -621 0
829 -633 0
829 -828 0
829 -643 0
830 -82 -829 0
-830 82 0
-830 829 0
-831 73 674 219 0
831 -73 0
831 -674 0
831 -219 0
832 -75 -831 0
-832 75 0
-832 831 0
-833 80 741 744 832 679 0
833 -80 0
833 -741 0
833 -744 0
833 -832 0
833 -679 0
834 -89 -833 0
-834 89 0
-834 833 0
-835 80 657 660 221 76 0
835 -80 0
835 -657 0
835 -660 0
835 -221 0
835 -76 0
836 -441 -835 0
-836 441 0
-836 835 0
-837 600 836 625 0
837 -600 0
837 -836 0
837 -625 0
838 -615 -837 0
-838 615 0
-838 837 0
-839 80 667 671 832 679 0
839 -80 0
839 -667 0
839 -671 0
839 -832 0
839 -679 0
840 -112 -839 0
-840 112 0
-840 839 0
-841 3 840 0
841 -3 0
841 -840 0
842 -12 -841 0
-842 12 0
-842 841 0
-843 14 838 8 842 0
843 -14 0
843 -838 0
843 -8 0
843 -842 0
844 -28 -843 0
-844 28 0
-844 843 0
-845 30 834 844 0
845 -30 0
845 -834 0
845 -844 0
846 -119 -845 0
-846 119 0
-846 845 0
-847 121 826 830 83 846 0
847 -121 0
847 -826 0
847 -830 0
847 -83 0
847 -846 0
848 -134 -847 0
-848 134 0
-848 847 0
-849 80 695 698 828 643 0
849 -80 0
849 -695 0
849 -698 0
849 -828 0
849 -643 0
850 -146 -849 0
-850 146 0
-850 849 0
851 -112 -849 0
-851 112 0
-851 849 0
-852 3 851 0
852 -3 0
852 -851 0
853 -2 -852 0
-853 2 0
-853 852 0
-854 5 850 853 0
854 -5 0
854 -850 0
854 -853 0
855 -38 -854 0
-855 38 0
-855 854 0
-856 40 848 855 0
856 -40 0
856 -848 0
856 -855 0
857 -42 -856 0
-857 42 0
-857 856 0
858 -44 -854 0
-858 44 0
-858 854 0
-859 80 732 735 828 643 0
859 -80 0
859 -732 0
859 -735 0
859 -828 0
859 -643 0
860 -248 -859 0
-860 248 0
-860 859 0
861 -250 -859 0
-861 250 0
-861 859 0
-862 50 861 0
862 -50 0
862 -861 0
863 -49 -862 0
-863 49 0
-863 862 0
-864 52 860 45 863 0
864 -52 0
864 -860 0
864 -45 0
864 -863 0
865 -54 -864 0
-865 54 0
-865 864 0
-866 56 858 865 0
866 -56 0
866 -858 0
866 -865 0
867 -58 -866 0
-867 58 0
-867 866 0
-868 60 857 867 0
868 -60 0
868 -857 0
868 -867 0
869 -259 -868 0
-869 259 0
-869 868 0
-870 80 164 167 138 76 0
870 -80 0
870 -164 0
870 -167 0
870 -138 0
870 -76 0
871 -441 -870 0
-871 441 0
-871 870 0
-872 80 164 182 138 76 0
872 -80 0
872 -164 0
872 -182 0
872 -138 0
872 -76 0
873 -89 -872 0
-873 89 0
-873 872 0
-874 80 188 191 196 76 0
874 -80 0
874 -188 0
874 -191 0
874 -196 0
874 -76 0
875 -112 -874 0
-875 112 0
-875 874 0
-876 3 875 0
876 -3 0
876 -875 0
877 -12 -876 0
-877 12 0
-877 876 0
-878 14 8 877 0
878 -14 0
878 -8 0
878 -877 0
879 -28 -878 0
-879 28 0
-879 878 0
-880 30 873 879 0
880 -30 0
880 -873 0
880 -879 0
881 -210 -880 0
-881 210 0
-881 880 0
-882 212 881 0
882 -212 0
882 -881 0
883 -598 -882 0
-883 598 0
-883 882 0
-884 600 871 883 0
884 -600 0
884 -871 0
884 -883 0
885 -635 -884 0
-885 635 0
-885 884 0
-886 65 885 0
886 -65 0
886 -885 0
887 -64 -886 0
-887 64 0
-887 886 0
888 -441 -260 0
-888 441 0
-888 260 0
889 -210 -270 0
-889 210 0
-889 270 0
-890 212 889 0
890 -212 0
890 -889 0
891 -598 -890 0
-891 598 0
-891 890 0
-892 600 888 891 0
892 -600 0
892 -888 0
892 -891 0
893 -609 -892 0
-893 609 0
-893 892 0
-894 80 621 633 643 0
894 -80 0
894 -621 0
894 -633 0
894 -643 0
895 -82 -894 0
-895 82 0
-895 894 0
-896 80 741 744 679 0
896 -80 0
896 -741 0
896 -744 0
896 -679 0
897 -89 -896 0
-897 89 0
-897 896 0
-898 80 657 660 76 0
898 -80 0
898 -657 0
898 -660 0
898 -76 0
899 -441 -898 0
-899 441 0
-899 898 0
-900 600 899 625 0
900 -600 0
900 -899 0
900 -625 0
901 -615 -900 0
-901 615 0
-901 900 0
-902 80 667 671 679 0
902 -80 0
902 -667 0
902 -671 0
902 -679 0
903 -112 -902 0
-903 112 0
-903 902 0
-904 3 903 0
904 -3 0
904 -903 0
905 -12 -904 0
-905 12 0
-905 904 0
-906 14 901 8 905 0
906 -14 0
906 -901 0
906 -8 0
906 -905 0
907 -28 -906 0
-907 28 0
-907 906 0
-908 30 897 907 0
908 -30 0
908 -897 0
908 -907 0
909 -119 -908 0
-909 119 0
-909 908 0
-910 121 893 895 83 909 0
910 -121 0
910 -893 0
910 -895 0
910 -83 0
910 -909 0
911 -134 -910 0
-911 134 0
-911 910 0
-912 80 695 698 643 0
912 -80 0
912 -695 0
912 -698 0
912 -643 0
913 -146 -912 0
-913 146 0
-913 912 0
914 -112 -912 0
-914 112 0
-914 912 0
-915 3 914 0
915 -3 0
915 -914 0
916 -2 -915 0
-916 2 0
-916 915 0
-917 5 913 916 0
917 -5 0
917 -913 0
917 -916 0
918 -38 -917 0
-918 38 0
-918 917 0
-919 40 911 918 0
919 -40 0
919 -911 0
919 -918 0
920 -42 -919 0
-920 42 0
-920 919 0
921 -44 -917 0
-921 44 0
-921 917 0
-922 80 732 735 643 0
922 -80 0
922 -732 0
922 -735 0
922 -643 0
923 -248 -922 0
-923 248 0
-923 922 0
924 -250 -922 0
-924 250 0
-924 922 0
-925 50 924 0
925 -50 0
925 -924 0
926 -49 -925 0
-926 49 0
-926 925 0
-927 52 923 45 926 0
927 -52 0
927 -923 0
927 -45 0
927 -926 0
928 -54 -927 0
-928 54 0
-928 927 0
-929 56 921 928 0
929 -56 0
929 -921 0
929 -928 0
930 -58 -929 0
-930 58 0
-930 929 0
-931 60 920 930 0
931 -60 0
931 -920 0
931 -930 0
932 -67 -931 0
-932 67 0
-932 931 0
-933 69 932 0
933 -69 0
933 -932 0
934 -71 -933 0
-934 71 0
-934 933 0
-935 73 887 934 0
935 -73 0
935 -887 0
935 -934 0
936 -299 -935 0
-936 299 0
-936 935 0
-937 22 6 126 91 0
937 -22 0
937 -6 0
937 -126 0
937 -91 0
938 -24 -937 0
-938 24 0
-938 937 0
939 -26 -937 0
-939 26 0
-939 937 0
-940 34 939 31 0
940 -34 0
940 -939 0
940 -31 0
941 -36 -940 0
-941 36 0
-941 940 0
-942 80 938 941 138 143 76 0
942 -80 0
942 -938 0
942 -941 0
942 -138 0
942 -143 0
942 -76 0
943 -441 -942 0
-943 441 0
-943 942 0
944 -89 -791 0
-944 89 0
-944 791 0
-945 30 944 0
945 -30 0
945 -944 0
946 -210 -945 0
-946 210 0
-946 945 0
-947 212 946 0
947 -212 0
947 -946 0
948 -598 -947 0
-948 598 0
-948 947 0
-949 600 943 948 0
949 -600 0
949 -943 0
949 -948 0
950 -615 -949 0
-950 615 0
-950 949 0
951 -210 -30 0
-951 210 0
-951 30 0
-952 212 951 0
952 -212 0
952 -951 0
953 -598 -952 0
-953 598 0
-953 952 0
-954 600 953 0
954 -600 0
954 -953 0
955 -613 -954 0
-955 613 0
-955 954 0
956 -609 -954 0
-956 609 0
-956 954 0
-957 121 956 83 300 0
957 -121 0
957 -956 0
957 -83 0
957 -300 0
958 -127 -957 0
-958 127 0
-958 957 0
-959 22 955 90 958 91 0
959 -22 0
959 -955 0
959 -90 0
959 -958 0
959 -91 0
960 -24 -959 0
-960 24 0
-960 959 0
961 -26 -959 0
-961 26 0
-961 959 0
962 -624 -954 0
-962 624 0
-962 954 0
-963 34 961 962 306 0
963 -34 0
963 -961 0
963 -962 0
963 -306 0
964 -36 -963 0
-964 36 0
-964 963 0
965 -134 -957 0
-965 134 0
-965 957 0
-966 40 965 97 0
966 -40 0
966 -965 0
966 -97 0
967 -42 -966 0
-967 42 0
-967 966 0
-968 60 967 102 0
968 -60 0
968 -967 0
968 -102 0
969 -62 -968 0
-969 62 0
-969 968 0
970 -635 -954 0
-970 635 0
-970 954 0
-971 65 970 0
971 -65 0
971 -970 0
972 -64 -971 0
-972 64 0
-972 971 0
973 -67 -968 0
-973 67 0
-973 968 0
-974 69 973 0
974 -69 0
974 -973 0
975 -71 -974 0
-975 71 0
-975 974 0
-976 73 972 975 0
976 -73 0
976 -972 0
976 -975 0
977 -75 -976 0
-977 75 0
-977 976 0
978 -641 -954 0
-978 641 0
-978 954 0
-979 78 978 0
979 -78 0
979 -978 0
980 -77 -979 0
-980 77 0
-980 979 0
-981 80 960 964 969 977 980 0
981 -80 0
981 -960 0
981 -964 0
981 -969 0
981 -977 0
981 -980 0
982 -112 -981 0
-982 112 0
-982 981 0
-983 3 982 0
983 -3 0
983 -982 0
984 -12 -983 0
-984 12 0
-984 983 0
-985 14 950 8 984 0
985 -14 0
985 -950 0
985 -8 0
985 -984 0
986 -325 -985 0
-986 325 0
-986 985 0
-987 80 164 167 138 143 0
987 -80 0
987 -164 0
987 -167 0
987 -138 0
987 -143 0
988 -441 -987 0
-988 441 0
-988 987 0
-989 80 164 182 138 143 0
989 -80 0
989 -164 0
989 -182 0
989 -138 0
989 -143 0
990 -89 -989 0
-990 89 0
-990 989 0
-991 80 188 191 196 201 0
991 -80 0
991 -188 0
991 -191 0
991 -196 0
991 -201 0
992 -112 -991 0
-992 112 0
-992 991 0
-993 3 992 0
993 -3 0
993 -992 0
994 -12 -993 0
-994 12 0
-994 993 0
-995 14 8 994 0
995 -14 0
995 -8 0
995 -994 0
996 -28 -995 0
-996 28 0
-996 995 0
-997 30 990 996 0
997 -30 0
997 -990 0
997 -996 0
998 -210 -997 0
-998 210 0
-998 997 0
-999 212 998 0
999 -212 0
999 -998 0
1000 -598 -999 0
-1000 598 0
-1000 999 0
-1001 600 988 1000 0
1001 -600 0
1001 -988 0
1001 -1000 0
1002 -641 -1001 0
-1002 641 0
-1002 1001 0
-1003 78 1002 0
1003 -78 0
1003 -1002 0
1004 -329 -1003 0
-1004 329 0
-1004 1003 0
1005 -331 -868 0
-1005 331 0
-1005 868 0
-1006 333 1005 0
1006 -333 0
1006 -1005 0
1007 -335 -1006 0
-1007 335 0
-1007 1006 0
-1008 337 689 725 739 820 869 936 986 326 1004 1007 0
1008 -337 0
1008 -689 0
1008 -725 0
1008 -739 0
1008 -820 0
1008 -869 0
1008 -936 0
1008 -986 0
1008 -326 0
1008 -1004 0
1008 -1007 0
1009 -1010 -1008 0
-1009 1010 0
-1009 1008 0
-1011 80 61 74 76 0
1011 -80 0
1011 -61 0
1011 -74 0
1011 -76 0
1012 -82 -1011 0
-1012 82 0
-1012 1011 0
1013 -89 -1011 0
-1013 89 0
-1013 1011 0
-1014 80 104 109 76 0
1014 -80 0
1014 -104 0
1014 -109 0
1014 -76 0
1015 -112 -1014 0
-1015 112 0
-1015 1014 0
-1016 3 1015 0
1016 -3 0
1016 -1015 0
1017 -12 -1016 0
-1017 12 0
-1017 1016 0
-1018 14 8 1017 0
1018 -14 0
1018 -8 0
1018 -1017 0
1019 -28 -1018 0
-1019 28 0
-1019 1018 0
-1020 30 1013 1019 0
1020 -30 0
1020 -1013 0
1020 -1019 0
1021 -119 -1020 0
-1021 119 0
-1021 1020 0
-1022 121 1012 83 1021 0
1022 -121 0
1022 -1012 0
1022 -83 0
1022 -1021 0
1023 -123 -1022 0
-1023 123 0
-1023 1022 0
-1024 80 138 143 76 0
1024 -80 0
1024 -138 0
1024 -143 0
1024 -76 0
1025 -146 -1024 0
-1025 146 0
-1025 1024 0
-1026 80 150 155 76 0
1026 -80 0
1026 -150 0
1026 -155 0
1026 -76 0
1027 -112 -1026 0
-1027 112 0
-1027 1026 0
-1028 3 1027 0
1028 -3 0
1028 -1027 0
1029 -2 -1028 0
-1029 2 0
-1029 1028 0
-1030 5 1025 1029 0
1030 -5 0
1030 -1025 0
1030 -1029 0
1031 -162 -1030 0
-1031 162 0
-1031 1030 0
1032 -170 -1024 0
-1032 170 0
-1032 1024 0
-1033 176 1032 171 173 0
1033 -176 0
1033 -1032 0
1033 -171 0
1033 -173 0
1034 -178 -1033 0
-1034 178 0
-1034 1033 0
1035 -180 -1022 0
-1035 180 0
-1035 1022 0
1036 -89 -1024 0
-1036 89 0
-1036 1024 0
-1037 80 196 201 76 0
1037 -80 0
1037 -196 0
1037 -201 0
1037 -76 0
1038 -112 -1037 0
-1038 112 0
-1038 1037 0
-1039 3 1038 0
1039 -3 0
1039 -1038 0
1040 -12 -1039 0
-1040 12 0
-1040 1039 0
-1041 14 8 1040 0
1041 -14 0
1041 -8 0
1041 -1040 0
1042 -28 -1041 0
-1042 28 0
-1042 1041 0
-1043 30 1036 1042 0
1043 -30 0
1043 -1036 0
1043 -1042 0
1044 -210 -1043 0
-1044 210 0
-1044 1043 0
-1045 212 1044 0
1045 -212 0
1045 -1044 0
1046 -214 -1045 0
-1046 214 0
-1046 1045 0
-1047 216 1035 1046 0
1047 -216 0
1047 -1035 0
1047 -1046 0
1048 -218 -1047 0
-1048 218 0
-1048 1047 0
-1049 80 221 76 0
1049 -80 0
1049 -221 0
1049 -76 0
1050 -82 -1049 0
-1050 82 0
-1050 1049 0
1051 -89 -1049 0
-1051 89 0
-1051 1049 0
1052 -112 -1049 0
-1052 112 0
-1052 1049 0
-1053 3 1052 0
1053 -3 0
1053 -1052 0
1054 -12 -1053 0
-1054 12 0
-1054 1053 0
-1055 14 8 1054 0
1055 -14 0
1055 -8 0
1055 -1054 0
1056 -28 -1055 0
-1056 28 0
-1056 1055 0
-1057 30 1051 1056 0
1057 -30 0
1057 -1051 0
1057 -1056 0
1058 -119 -1057 0
-1058 119 0
-1058 1057 0
-1059 121 1050 83 1058 0
1059 -121 0
1059 -1050 0
1059 -83 0
1059 -1058 0
1060 -134 -1059 0
-1060 134 0
-1060 1059 0
1061 -146 -1049 0
-1061 146 0
-1061 1049 0
1062 -2 -1053 0
-1062 2 0
-1062 1053 0
-1063 5 1061 1062 0
1063 -5 0
1063 -1061 0
1063 -1062 0
1064 -38 -1063 0
-1064 38 0
-1064 1063 0
-1065 40 1060 1064 0
1065 -40 0
1065 -1060 0
1065 -1064 0
1066 -42 -1065 0
-1066 42 0
-1066 1065 0
1067 -44 -1063 0
-1067 44 0
-1067 1063 0
1068 -248 -1049 0
-1068 248 0
-1068 1049 0
1069 -250 -1049 0
-1069 250 0
-1069 1049 0
-1070 50 1069 0
1070 -50 0
1070 -1069 0
1071 -49 -1070 0
-1071 49 0
-1071 1070 0
-1072 52 1068 45 1071 0
1072 -52 0
1072 -1068 0
1072 -45 0
1072 -1071 0
1073 -54 -1072 0
-1073 54 0
-1073 1072 0
-1074 56 1067 1073 0
1074 -56 0
1074 -1067 0
1074 -1073 0
1075 -58 -1074 0
-1075 58 0
-1075 1074 0
-1076 60 1066 1075 0
1076 -60 0
1076 -1066 0
1076 -1075 0
1077 -259 -1076 0
-1077 259 0
-1077 1076 0
-1078 80 76 0
1078 -80 0
1078 -76 0
1079 -82 -1078 0
-1079 82 0
-1079 1078 0
1080 -89 -1078 0
-1080 89 0
-1080 1078 0
1081 -112 -1078 0
-1081 112 0
-1081 1078 0
-1082 3 1081 0
1082 -3 0
1082 -1081 0
1083 -12 -1082 0
-1083 12 0
-1083 1082 0
-1084 14 8 1083 0
1084 -14 0
1084 -8 0
1084 -1083 0
1085 -28 -1084 0
-1085 28 0
-1085 1084 0
-1086 30 1080 1085 0
1086 -30 0
1086 -1080 0
1086 -1085 0
1087 -119 -1086 0
-1087 119 0
-1087 1086 0
-1088 121 1079 83 1087 0
1088 -121 0
1088 -1079 0
1088 -83 0
1088 -1087 0
1089 -134 -1088 0
-1089 134 0
-1089 1088 0
1090 -146 -1078 0
-1090 146 0
-1090 1078 0
1091 -2 -1082 0
-1091 2 0
-1091 1082 0
-1092 5 1090 1091 0
1092 -5 0
1092 -1090 0
1092 -1091 0
1093 -38 -1092 0
-1093 38 0
-1093 1092 0
-1094 40 1089 1093 0
1094 -40 0
1094 -1089 0
1094 -1093 0
1095 -42 -1094 0
-1095 42 0
-1095 1094 0
1096 -44 -1092 0
-1096 44 0
-1096 1092 0
1097 -248 -1078 0
-1097 248 0
-1097 1078 0
1098 -250 -1078 0
-1098 250 0
-1098 1078 0
-1099 50 1098 0
1099 -50 0
1099 -1098 0
1100 -49 -1099 0
-1100 49 0
-1100 1099 0
-1101 52 1097 45 1100 0
1101 -52 0
1101 -1097 0
1101 -45 0
1101 -1100 0
1102 -54 -1101 0
-1102 54 0
-1102 1101 0
-1103 56 1096 1102 0
1103 -56 0
1103 -1096 0
1103 -1102 0
1104 -58 -1103 0
-1104 58 0
-1104 1103 0
-1105 60 1095 1104 0
1105 -60 0
1105 -1095 0
1105 -1104 0
1106 -67 -1105 0
-1106 67 0
-1106 1105 0
-1107 69 1106 0
1107 -69 0
1107 -1106 0
1108 -71 -1107 0
-1108 71 0
-1108 1107 0
-1109 73 63 1108 0
1109 -73 0
1109 -63 0
1109 -1108 0
1110 -299 -1109 0
-1110 299 0
-1110 1109 0
-1111 80 313 318 76 0
1111 -80 0
1111 -313 0
1111 -318 0
1111 -76 0
1112 -112 -1111 0
-1112 112 0
-1112 1111 0
-1113 3 1112 0
1113 -3 0
1113 -1112 0
1114 -12 -1113 0
-1114 12 0
-1114 1113 0
-1115 14 8 1114 0
1115 -14 0
1115 -8 0
1115 -1114 0
1116 -325 -1115 0
-1116 325 0
-1116 1115 0
1117 -331 -1076 0
-1117 331 0
-1117 1076 0
-1118 333 1117 0
1118 -333 0
1118 -1117 0
1119 -335 -1118 0
-1119 335 0
-1119 1118 0
-1120 337 1023 1031 1034 1048 1077 1110 1116 326 328 1119 0
1120 -337 0
1120 -1023 0
1120 -1031 0
1120 -1034 0
1120 -1048 0
1120 -1077 0
1120 -1110 0
1120 -1116 0
1120 -326 0
1120 -328 0
1120 -1119 0
1121 -339 -1120 0
-1121 339 0
-1121 1120 0
-1122 80 382 409 438 76 0
1122 -80 0
1122 -382 0
1122 -409 0
1122 -438 0
1122 -76 0
1123 -441 -1122 0
-1123 441 0
-1123 1122 0
-1124 80 454 476 503 76 0
1124 -80 0
1124 -454 0
1124 -476 0
1124 -503 0
1124 -76 0
1125 -89 -1124 0
-1125 89 0
-1125 1124 0
-1126 80 538 560 587 76 0
1126 -80 0
1126 -538 0
1126 -560 0
1126 -587 0
1126 -76 0
1127 -112 -1126 0
-1127 112 0
-1127 1126 0
-1128 3 1127 0
1128 -3 0
1128 -1127 0
1129 -12 -1128 0
-1129 12 0
-1129 1128 0
-1130 14 8 1129 0
1130 -14 0
1130 -8 0
1130 -1129 0
1131 -28 -1130 0
-1131 28 0
-1131 1130 0
-1132 30 1125 1131 0
1132 -30 0
1132 -1125 0
1132 -1131 0
1133 -210 -1132 0
-1133 210 0
-1133 1132 0
-1134 212 1133 0
1134 -212 0
1134 -1133 0
1135 -598 -1134 0
-1135 598 0
-1135 1134 0
-1136 600 1121 1123 1135 0
1136 -600 0
1136 -1121 0
1136 -1123 0
1136 -1135 0
1137 -613 -1136 0
-1137 613 0
-1137 1136 0
1138 -441 -1011 0
-1138 441 0
-1138 1011 0
1139 -210 -1020 0
-1139 210 0
-1139 1020 0
-1140 212 1139 0
1140 -212 0
1140 -1139 0
1141 -598 -1140 0
-1141 598 0
-1141 1140 0
-1142 600 1138 1141 0
1142 -600 0
1142 -1138 0
1142 -1141 0
1143 -609 -1142 0
-1143 609 0
-1143 1142 0
-1144 80 61 639 643 0
1144 -80 0
1144 -61 0
1144 -639 0
1144 -643 0
1145 -82 -1144 0
-1145 82 0
-1145 1144 0
-1146 80 61 746 679 0
1146 -80 0
1146 -61 0
1146 -746 0
1146 -679 0
1147 -89 -1146 0
-1147 89 0
-1147 1146 0
-1148 600 1138 625 0
1148 -600 0
1148 -1138 0
1148 -625 0
1149 -615 -1148 0
-1149 615 0
-1149 1148 0
-1150 80 104 676 679 0
1150 -80 0
1150 -104 0
1150 -676 0
1150 -679 0
1151 -112 -1150 0
-1151 112 0
-1151 1150 0
-1152 3 1151 0
1152 -3 0
1152 -1151 0
1153 -12 -1152 0
-1153 12 0
-1153 1152 0
-1154 14 1149 8 1153 0
1154 -14 0
1154 -1149 0
1154 -8 0
1154 -1153 0
1155 -28 -1154 0
-1155 28 0
-1155 1154 0
-1156 30 1147 1155 0
1156 -30 0
1156 -1147 0
1156 -1155 0
1157 -119 -1156 0
-1157 119 0
-1157 1156 0
-1158 121 1143 1145 83 1157 0
1158 -121 0
1158 -1143 0
1158 -1145 0
1158 -83 0
1158 -1157 0
1159 -123 -1158 0
-1159 123 0
-1159 1158 0
-1160 80 703 708 643 0
1160 -80 0
1160 -703 0
1160 -708 0
1160 -643 0
1161 -146 -1160 0
-1161 146 0
-1161 1160 0
-1162 80 714 719 643 0
1162 -80 0
1162 -714 0
1162 -719 0
1162 -643 0
1163 -112 -1162 0
-1163 112 0
-1163 1162 0
-1164 3 1163 0
1164 -3 0
1164 -1163 0
1165 -2 -1164 0
-1165 2 0
-1165 1164 0
-1166 5 1161 1165 0
1166 -5 0
1166 -1161 0
1166 -1165 0
1167 -162 -1166 0
-1167 162 0
-1167 1166 0
1168 -441 -1024 0
-1168 441 0
-1168 1024 0
1169 -598 -1045 0
-1169 598 0
-1169 1045 0
-1170 600 1168 1169 0
1170 -600 0
1170 -1168 0
1170 -1169 0
1171 -730 -1170 0
-1171 730 0
-1171 1170 0
1172 -170 -1160 0
-1172 170 0
-1172 1160 0
-1173 176 1171 1172 171 173 0
1173 -176 0
1173 -1171 0
1173 -1172 0
1173 -171 0
1173 -173 0
1174 -178 -1173 0
-1174 178 0
-1174 1173 0
1175 -180 -1158 0
-1175 180 0
-1175 1158 0
-1176 80 772 780 783 0
1176 -80 0
1176 -772 0
1176 -780 0
1176 -783 0
1177 -89 -1176 0
-1177 89 0
-1177 1176 0
1178 -441 -1176 0
-1178 441 0
-1178 1176 0
-1179 600 1178 0
1179 -600 0
1179 -1178 0
1180 -615 -1179 0
-1180 615 0
-1180 1179 0
-1181 80 803 808 783 0
1181 -80 0
1181 -803 0
1181 -808 0
1181 -783 0
1182 -112 -1181 0
-1182 112 0
-1182 1181 0
-1183 3 1182 0
1183 -3 0
1183 -1182 0
1184 -12 -1183 0
-1184 12 0
-1184 1183 0
-1185 14 1180 8 1184 0
1185 -14 0
1185 -1180 0
1185 -8 0
1185 -1184 0
1186 -28 -1185 0
-1186 28 0
-1186 1185 0
-1187 30 1177 1186 0
1187 -30 0
1187 -1177 0
1187 -1186 0
1188 -210 -1187 0
-1188 210 0
-1188 1187 0
-1189 212 1188 0
1189 -212 0
1189 -1188 0
1190 -214 -1189 0
-1190 214 0
-1190 1189 0
-1191 216 1175 1190 0
1191 -216 0
1191 -1175 0
1191 -1190 0
1192 -218 -1191 0
-1192 218 0
-1192 1191 0
1193 -441 -1049 0
-1193 441 0
-1193 1049 0
1194 -210 -1057 0
-1194 210 0
-1194 1057 0
-1195 212 1194 0
1195 -212 0
1195 -1194 0
1196 -598 -1195 0
-1196 598 0
-1196 1195 0
-1197 600 1193 1196 0
1197 -600 0
1197 -1193 0
1197 -1196 0
1198 -609 -1197 0
-1198 609 0
-1198 1197 0
-1199 80 828 643 0
1199 -80 0
1199 -828 0
1199 -643 0
1200 -82 -1199 0
-1200 82 0
-1200 1199 0
-1201 80 832 679 0
1201 -80 0
1201 -832 0
1201 -679 0
1202 -89 -1201 0
-1202 89 0
-1202 1201 0
-1203 600 1193 625 0
1203 -600 0
1203 -1193 0
1203 -625 0
1204 -615 -1203 0
-1204 615 0
-1204 1203 0
1205 -112 -1201 0
-1205 112 0
-1205 1201 0
-1206 3 1205 0
1206 -3 0
1206 -1205 0
1207 -12 -1206 0
-1207 12 0
-1207 1206 0
-1208 14 1204 8 1207 0
1208 -14 0
1208 -1204 0
1208 -8 0
1208 -1207 0
1209 -28 -1208 0
-1209 28 0
-1209 1208 0
-1210 30 1202 1209 0
1210 -30 0
1210 -1202 0
1210 -1209 0
1211 -119 -1210 0
-1211 119 0
-1211 1210 0
-1212 121 1198 1200 83 1211 0
1212 -121 0
1212 -1198 0
1212 -1200 0
1212 -83 0
1212 -1211 0
1213 -134 -1212 0
-1213 134 0
-1213 1212 0
1214 -146 -1199 0
-1214 146 0
-1214 1199 0
1215 -112 -1199 0
-1215 112 0
-1215 1199 0
-1216 3 1215 0
1216 -3 0
1216 -1215 0
1217 -2 -1216 0
-1217 2 0
-1217 1216 0
-1218 5 1214 1217 0
1218 -5 0
1218 -1214 0
1218 -1217 0
1219 -38 -1218 0
-1219 38 0
-1219 1218 0
-1220 40 1213 1219 0
1220 -40 0
1220 -1213 0
1220 -1219 0
1221 -42 -1220 0
-1221 42 0
-1221 1220 0
1222 -44 -1218 0
-1222 44 0
-1222 1218 0
1223 -248 -1199 0
-1223 248 0
-1223 1199 0
1224 -250 -1199 0
-1224 250 0
-1224 1199 0
-1225 50 1224 0
1225 -50 0
1225 -1224 0
1226 -49 -1225 0
-1226 49 0
-1226 1225 0
-1227 52 1223 45 1226 0
1227 -52 0
1227 -1223 0
1227 -45 0
1227 -1226 0
1228 -54 -1227 0
-1228 54 0
-1228 1227 0
-1229 56 1222 1228 0
1229 -56 0
1229 -1222 0
1229 -1228 0
1230 -58 -1229 0
-1230 58 0
-1230 1229 0
-1231 60 1221 1230 0
1231 -60 0
1231 -1221 0
1231 -1230 0
1232 -259 -1231 0
-1232 259 0
-1232 1231 0
-1233 80 138 76 0
1233 -80 0
1233 -138 0
1233 -76 0
1234 -441 -1233 0
-1234 441 0
-1234 1233 0
1235 -89 -1233 0
-1235 89 0
-1235 1233 0
-1236 80 196 76 0
1236 -80 0
1236 -196 0
1236 -76 0
1237 -112 -1236 0
-1237 112 0
-1237 1236 0
-1238 3 1237 0
1238 -3 0
1238 -1237 0
1239 -12 -1238 0
-1239 12 0
-1239 1238 0
-1240 14 8 1239 0
1240 -14 0
1240 -8 0
1240 -1239 0
1241 -28 -1240 0
-1241 28 0
-1241 1240 0
-1242 30 1235 1241 0
1242 -30 0
1242 -1235 0
1242 -1241 0
1243 -210 -1242 0
-1243 210 0
-1243 1242 0
-1244 212 1243 0
1244 -212 0
1244 -1243 0
1245 -598 -1244 0
-1245 598 0
-1245 1244 0
-1246 600 1234 1245 0
1246 -600 0
1246 -1234 0
1246 -1245 0
1247 -635 -1246 0
-1247 635 0
-1247 1246 0
-1248 65 1247 0
1248 -65 0
1248 -1247 0
1249 -64 -1248 0
-1249 64 0
-1249 1248 0
1250 -441 -1078 0
-1250 441 0
-1250 1078 0
1251 -210 -1086 0
-1251 210 0
-1251 1086 0
-1252 212 1251 0
1252 -212 0
1252 -1251 0
1253 -598 -1252 0
-1253 598 0
-1253 1252 0
-1254 600 1250 1253 0
1254 -600 0
1254 -1250 0
1254 -1253 0
1255 -609 -1254 0
-1255 609 0
-1255 1254 0
-1256 80 643 0
1256 -80 0
1256 -643 0
1257 -82 -1256 0
-1257 82 0
-1257 1256 0
-1258 80 679 0
1258 -80 0
1258 -679 0
1259 -89 -1258 0
-1259 89 0
-1259 1258 0
-1260 600 1250 625 0
1260 -600 0
1260 -1250 0
1260 -625 0
1261 -615 -1260 0
-1261 615 0
-1261 1260 0
1262 -112 -1258 0
-1262 112 0
-1262 1258 0
-1263 3 1262 0
1263 -3 0
1263 -1262 0
1264 -12 -1263 0
-1264 12 0
-1264 1263 0
-1265 14 1261 8 1264 0
1265 -14 0
1265 -1261 0
1265 -8 0
1265 -1264 0
1266 -28 -1265 0
-1266 28 0
-1266 1265 0
-1267 30 1259 1266 0
1267 -30 0
1267 -1259 0
1267 -1266 0
1268 -119 -1267 0
-1268 119 0
-1268 1267 0
-1269 121 1255 1257 83 1268 0
1269 -121 0
1269 -1255 0
1269 -1257 0
1269 -83 0
1269 -1268 0
1270 -134 -1269 0
-1270 134 0
-1270 1269 0
1271 -146 -1256 0
-1271 146 0
-1271 1256 0
1272 -112 -1256 0
-1272 112 0
-1272 1256 0
-1273 3 1272 0
1273 -3 0
1273 -1272 0
1274 -2 -1273 0
-1274 2 0
-1274 1273 0
-1275 5 1271 1274 0
1275 -5 0
1275 -1271 0
1275 -1274 0
1276 -38 -1275 0
-1276 38 0
-1276 1275 0
-1277 40 1270 1276 0
1277 -40 0
1277 -1270 0
1277 -1276 0
1278 -42 -1277 0
-1278 42 0
-1278 1277 0
1279 -44 -1275 0
-1279 44 0
-1279 1275 0
1280 -248 -1256 0
-1280 248 0
-1280 1256 0
1281 -250 -1256 0
-1281 250 0
-1281 1256 0
-1282 50 1281 0
1282 -50 0
1282 -1281 0
1283 -49 -1282 0
-1283 49 0
-1283 1282 0
-1284 52 1280 45 1283 0
1284 -52 0
1284 -1280 0
1284 -45 0
1284 -1283 0
1285 -54 -1284 0
-1285 54 0
-1285 1284 0
-1286 56 1279 1285 0
1286 -56 0
1286 -1279 0
1286 -1285 0
1287 -58 -1286 0
-1287 58 0
-1287 1286 0
-1288 60 1278 1287 0
1288 -60 0
1288 -1278 0
1288 -1287 0
1289 -67 -1288 0
-1289 67 0
-1289 1288 0
-1290 69 1289 0
1290 -69 0
1290 -1289 0
1291 -71 -1290 0
-1291 71 0
-1291 1290 0
-1292 73 1249 1291 0
1292 -73 0
1292 -1249 0
1292 -1291 0
1293 -299 -1292 0
-1293 299 0
-1293 1292 0
-1294 30 1036 0
1294 -30 0
1294 -1036 0
1295 -210 -1294 0
-1295 210 0
-1295 1294 0
-1296 212 1295 0
1296 -212 0
1296 -1295 0
1297 -598 -1296 0
-1297 598 0
-1297 1296 0
-1298 600 1168 1297 0
1298 -600 0
1298 -1168 0
1298 -1297 0
1299 -615 -1298 0
-1299 615 0
-1299 1298 0
-1300 80 969 977 980 0
1300 -80 0
1300 -969 0
1300 -977 0
1300 -980 0
1301 -112 -1300 0
-1301 112 0
-1301 1300 0
-1302 3 1301 0
1302 -3 0
1302 -1301 0
1303 -12 -1302 0
-1303 12 0
-1303 1302 0
-1304 14 1299 8 1303 0
1304 -14 0
1304 -1299 0
1304 -8 0
1304 -1303 0
1305 -325 -1304 0
-1305 325 0
-1305 1304 0
-1306 80 138 143 0
1306 -80 0
1306 -138 0
1306 -143 0
1307 -441 -1306 0
-1307 441 0
-1307 1306 0
1308 -89 -1306 0
-1308 89 0
-1308 1306 0
-1309 80 196 201 0
1309 -80 0
1309 -196 0
1309 -201 0
1310 -112 -1309 0
-1310 112 0
-1310 1309 0
-1311 3 1310 0
1311 -3 0
1311 -1310 0
1312 -12 -1311 0
-1312 12 0
-1312 1311 0
-1313 14 8 1312 0
1313 -14 0
1313 -8 0
1313 -1312 0
1314 -28 -1313 0
-1314 28 0
-1314 1313 0
-1315 30 1308 1314 0
1315 -30 0
1315 -1308 0
1315 -1314 0
1316 -210 -1315 0
-1316 210 0
-1316 1315 0
-1317 212 1316 0
1317 -212 0
1317 -1316 0
1318 -598 -1317 0
-1318 598 0
-1318 1317 0
-1319 600 1307 1318 0
1319 -600 0
1319 -1307 0
1319 -1318 0
1320 -641 -1319 0
-1320 641 0
-1320 1319 0
-1321 78 1320 0
1321 -78 0
1321 -1320 0
1322 -329 -1321 0
-1322 329 0
-1322 1321 0
1323 -331 -1231 0
-1323 331 0
-1323 1231 0
-1324 333 1323 0
1324 -333 0
1324 -1323 0
1325 -335 -1324 0
-1325 335 0
-1325 1324 0
-1326 337 1159 1167 1174 1192 1232 1293 1305 326 1322 1325 0
1326 -337 0
1326 -1159 0
1326 -1167 0
1326 -1174 0
1326 -1192 0
1326 -1232 0
1326 -1293 0
1326 -1305 0
1326 -326 0
1326 -1322 0
1326 -1325 0
1327 -358 -1326 0
-1327 358 0
-1327 1326 0
1328 -123 -692 0
-1328 123 0
-1328 692 0
1329 -730 -611 0
-1329 730 0
-1329 611 0
-1330 176 1329 171 173 0
1330 -176 0
1330 -1329 0
1330 -171 0
1330 -173 0
1331 -178 -1330 0
-1331 178 0
-1331 1330 0
1332 -180 -692 0
-1332 180 0
-1332 692 0
1333 -28 -758 0
-1333 28 0
-1333 758 0
-1334 30 1333 0
1334 -30 0
1334 -1333 0
1335 -210 -1334 0
-1335 210 0
-1335 1334 0
-1336 212 1335 0
1336 -212 0
1336 -1335 0
1337 -214 -1336 0
-1337 214 0
-1337 1336 0
-1338 216 1332 1337 0
1338 -216 0
1338 -1332 0
1338 -1337 0
1339 -218 -1338 0
-1339 218 0
-1339 1338 0
1340 -259 -702 0
-1340 259 0
-1340 702 0
1341 -299 -707 0
-1341 299 0
-1341 707 0
1342 -325 -616 0
-1342 325 0
-1342 616 0
1343 -329 -642 0
-1343 329 0
-1343 642 0
1344 -331 -702 0
-1344 331 0
-1344 702 0
-1345 333 1344 0
1345 -333 0
1345 -1344 0
1346 -335 -1345 0
-1346 335 0
-1346 1345 0
-1347 337 1328 341 1331 1339 1340 1341 1342 326 1343 1346 0
1347 -337 0
1347 -1328 0
1347 -341 0
1347 -1331 0
1347 -1339 0
1347 -1340 0
1347 -1341 0
1347 -1342 0
1347 -326 0
1347 -1343 0
1347 -1346 0
1348 -383 -1347 0
-1348 383 0
-1348 1347 0
1349 -339 -391 0
-1349 339 0
-1349 391 0
-1350 600 1349 610 0
1350 -600 0
1350 -1349 0
1350 -610 0
1351 -609 -1350 0
-1351 609 0
-1351 1350 0
-1352 216 1337 0
1352 -216 0
1352 -1337 0
1353 -218 -1352 0
-1353 218 0
-1353 1352 0
1354 -299 -827 0
-1354 299 0
-1354 827 0
-1355 337 341 1331 1353 1354 1342 326 1343 390 0
1355 -337 0
1355 -341 0
1355 -1331 0
1355 -1353 0
1355 -1354 0
1355 -1342 0
1355 -326 0
1355 -1343 0
1355 -390 0
1356 -375 -1355 0
-1356 375 0
-1356 1355 0
-1357 47 1356 0
1357 -47 0
1357 -1356 0
1358 -84 -1357 0
-1358 84 0
-1358 1357 0
1359 -214 -212 0
-1359 214 0
-1359 212 0
-1360 216 508 1359 0
1360 -216 0
1360 -508 0
1360 -1359 0
1361 -218 -1360 0
-1361 218 0
-1361 1360 0
-1362 337 506 341 343 1361 389 352 326 328 390 0
1362 -337 0
1362 -506 0
1362 -341 0
1362 -343 0
1362 -1361 0
1362 -389 0
1362 -352 0
1362 -326 0
1362 -328 0
1362 -390 0
1363 -339 -1362 0
-1363 339 0
-1363 1362 0
-1364 600 1363 625 0
1364 -600 0
1364 -1363 0
1364 -625 0
1365 -615 -1364 0
-1365 615 0
-1365 1364 0
-1366 14 1365 8 11 0
1366 -14 0
1366 -1365 0
1366 -8 0
1366 -11 0
1367 -28 -1366 0
-1367 28 0
-1367 1366 0
-1368 30 1367 0
1368 -30 0
1368 -1367 0
1369 -119 -1368 0
-1369 119 0
-1369 1368 0
-1370 121 1351 1358 1369 0
1370 -121 0
1370 -1351 0
1370 -1358 0
1370 -1369 0
1371 -134 -1370 0
-1371 134 0
-1371 1370 0
-1372 40 1371 37 0
1372 -40 0
1372 -1371 0
1372 -37 0
1373 -42 -1372 0
-1373 42 0
-1373 1372 0
-1374 337 1328 341 1331 1339 1354 1342 326 1343 390 0
1374 -337 0
1374 -1328 0
1374 -341 0
1374 -1331 0
1374 -1339 0
1374 -1354 0
1374 -1342 0
1374 -326 0
1374 -1343 0
1374 -390 0
1375 -375 -1374 0
-1375 375 0
-1375 1374 0
-1376 47 1375 0
1376 -47 0
1376 -1375 0
1377 -46 -1376 0
-1377 46 0
-1377 1376 0
1378 -401 -1374 0
-1378 401 0
-1378 1374 0
-1379 50 1378 0
1379 -50 0
1379 -1378 0
1380 -49 -1379 0
-1380 49 0
-1380 1379 0
-1381 52 1377 1380 0
1381 -52 0
1381 -1377 0
1381 -1380 0
1382 -54 -1381 0
-1382 54 0
-1382 1381 0
-1383 56 43 1382 0
1383 -56 0
1383 -43 0
1383 -1382 0
1384 -58 -1383 0
-1384 58 0
-1384 1383 0
-1385 60 1373 1384 0
1385 -60 0
1385 -1373 0
1385 -1384 0
1386 -62 -1385 0
-1386 62 0
-1386 1385 0
-1387 337 1328 341 1331 1339 1340 1342 326 1343 1346 0
1387 -337 0
1387 -1328 0
1387 -341 0
1387 -1331 0
1387 -1339 0
1387 -1340 0
1387 -1342 0
1387 -326 0
1387 -1343 0
1387 -1346 0
1388 -412 -1387 0
-1388 412 0
-1388 1387 0
1389 -339 -410 0
-1389 339 0
-1389 410 0
-1390 600 1389 610 0
1390 -600 0
1390 -1389 0
1390 -610 0
1391 -635 -1390 0
-1391 635 0
-1391 1390 0
-1392 65 1388 1391 0
1392 -65 0
1392 -1388 0
1392 -1391 0
1393 -64 -1392 0
-1393 64 0
-1393 1392 0
1394 -416 -1387 0
-1394 416 0
-1394 1387 0
1395 -339 -417 0
-1395 339 0
-1395 417 0
-1396 600 1395 610 0
1396 -600 0
1396 -1395 0
1396 -610 0
1397 -609 -1396 0
-1397 609 0
-1397 1396 0
-1398 337 341 1331 1353 1342 326 1343 390 0
1398 -337 0
1398 -341 0
1398 -1331 0
1398 -1353 0
1398 -1342 0
1398 -326 0
1398 -1343 0
1398 -390 0
1399 -375 -1398 0
-1399 375 0
-1399 1398 0
-1400 47 1399 0
1400 -47 0
1400 -1399 0
1401 -84 -1400 0
-1401 84 0
-1401 1400 0
-1402 337 506 341 343 1361 352 326 328 390 0
1402 -337 0
1402 -506 0
1402 -341 0
1402 -343 0
1402 -1361 0
1402 -352 0
1402 -326 0
1402 -328 0
1402 -390 0
1403 -339 -1402 0
-1403 339 0
-1403 1402 0
-1404 600 1403 625 0
1404 -600 0
1404 -1403 0
1404 -625 0
1405 -615 -1404 0
-1405 615 0
-1405 1404 0
-1406 14 1405 8 11 0
1406 -14 0
1406 -1405 0
1406 -8 0
1406 -11 0
1407 -28 -1406 0
-1407 28 0
-1407 1406 0
-1408 30 1407 0
1408 -30 0
1408 -1407 0
1409 -119 -1408 0
-1409 119 0
-1409 1408 0
-1410 121 1397 1401 1409 0
1410 -121 0
1410 -1397 0
1410 -1401 0
1410 -1409 0
1411 -134 -1410 0
-1411 134 0
-1411 1410 0
-1412 40 1411 37 0
1412 -40 0
1412 -1411 0
1412 -37 0
1413 -42 -1412 0
-1413 42 0
-1413 1412 0
-1414 337 1328 341 1331 1339 1342 326 1343 390 0
1414 -337 0
1414 -1328 0
1414 -341 0
1414 -1331 0
1414 -1339 0
1414 -1342 0
1414 -326 0
1414 -1343 0
1414 -390 0
1415 -375 -1414 0
-1415 375 0
-1415 1414 0
-1416 47 1415 0
1416 -47 0
1416 -1415 0
1417 -46 -1416 0
-1417 46 0
-1417 1416 0
1418 -401 -1414 0
-1418 401 0
-1418 1414 0
-1419 50 1418 0
1419 -50 0
1419 -1418 0
1420 -49 -1419 0
-1420 49 0
-1420 1419 0
-1421 52 1417 1420 0
1421 -52 0
1421 -1417 0
1421 -1420 0
1422 -54 -1421 0
-1422 54 0
-1422 1421 0
-1423 56 43 1422 0
1423 -56 0
1423 -43 0
1423 -1422 0
1424 -58 -1423 0
-1424 58 0
-1424 1423 0
-1425 60 1413 1424 0
1425 -60 0
1425 -1413 0
1425 -1424 0
1426 -67 -1425 0
-1426 67 0
-1426 1425 0
-1427 69 1394 1426 0
1427 -69 0
1427 -1394 0
1427 -1426 0
1428 -71 -1427 0
-1428 71 0
-1428 1427 0
-1429 73 1393 1428 0
1429 -73 0
1429 -1393 0
1429 -1428 0
1430 -75 -1429 0
-1430 75 0
-1430 1429 0
1431 -339 -356 0
-1431 339 0
-1431 356 0
-1432 600 1431 610 0
1432 -600 0
1432 -1431 0
1432 -610 0
1433 -641 -1432 0
-1433 641 0
-1433 1432 0
-1434 78 1433 0
1434 -78 0
1434 -1433 0
1435 -77 -1434 0
-1435 77 0
-1435 1434 0
-1436 80 1348 1386 1430 1435 0
1436 -80 0
1436 -1348 0
1436 -1386 0
1436 -1430 0
1436 -1435 0
1437 -146 -1436 0
-1437 146 0
-1437 1436 0
1438 -259 -713 0
-1438 259 0
-1438 713 0
1439 -299 -718 0
-1439 299 0
-1439 718 0
1440 -331 -713 0
-1440 331 0
-1440 713 0
-1441 333 1440 0
1441 -333 0
1441 -1440 0
1442 -335 -1441 0
-1442 335 0
-1442 1441 0
-1443 337 1328 507 1331 1339 1438 1439 1342 326 1343 1442 0
1443 -337 0
1443 -1328 0
1443 -507 0
1443 -1331 0
1443 -1339 0
1443 -1438 0
1443 -1439 0
1443 -1342 0
1443 -326 0
1443 -1343 0
1443 -1442 0
1444 -383 -1443 0
-1444 383 0
-1444 1443 0
-1445 337 340 507 343 349 389 352 326 328 390 0
1445 -337 0
1445 -340 0
1445 -507 0
1445 -343 0
1445 -349 0
1445 -389 0
1445 -352 0
1445 -326 0
1445 -328 0
1445 -390 0
1446 -339 -1445 0
-1446 339 0
-1446 1445 0
-1447 600 1446 610 0
1447 -600 0
1447 -1446 0
1447 -610 0
1448 -609 -1447 0
-1448 609 0
-1448 1447 0
-1449 337 507 1331 1353 1354 1342 326 1343 390 0
1449 -337 0
1449 -507 0
1449 -1331 0
1449 -1353 0
1449 -1354 0
1449 -1342 0
1449 -326 0
1449 -1343 0
1449 -390 0
1450 -375 -1449 0
-1450 375 0
-1450 1449 0
-1451 47 1450 0
1451 -47 0
1451 -1450 0
1452 -84 -1451 0
-1452 84 0
-1452 1451 0
-1453 337 506 507 343 1361 389 352 326 328 390 0
1453 -337 0
1453 -506 0
1453 -507 0
1453 -343 0
1453 -1361 0
1453 -389 0
1453 -352 0
1453 -326 0
1453 -328 0
1453 -390 0
1454 -339 -1453 0
-1454 339 0
-1454 1453 0
-1455 600 1454 625 0
1455 -600 0
1455 -1454 0
1455 -625 0
1456 -615 -1455 0
-1456 615 0
-1456 1455 0
-1457 14 1456 8 11 0
1457 -14 0
1457 -1456 0
1457 -8 0
1457 -11 0
1458 -28 -1457 0
-1458 28 0
-1458 1457 0
-1459 30 1458 0
1459 -30 0
1459 -1458 0
1460 -119 -1459 0
-1460 119 0
-1460 1459 0
-1461 121 1448 1452 1460 0
1461 -121 0
1461 -1448 0
1461 -1452 0
1461 -1460 0
1462 -134 -1461 0
-1462 134 0
-1462 1461 0
-1463 40 1462 97 0
1463 -40 0
1463 -1462 0
1463 -97 0
1464 -42 -1463 0
-1464 42 0
-1464 1463 0
-1465 337 1328 507 1331 1339 1354 1342 326 1343 390 0
1465 -337 0
1465 -1328 0
1465 -507 0
1465 -1331 0
1465 -1339 0
1465 -1354 0
1465 -1342 0
1465 -326 0
1465 -1343 0
1465 -390 0
1466 -375 -1465 0
-1466 375 0
-1466 1465 0
-1467 47 1466 0
1467 -47 0
1467 -1466 0
1468 -46 -1467 0
-1468 46 0
-1468 1467 0
1469 -401 -1465 0
-1469 401 0
-1469 1465 0
-1470 50 1469 0
1470 -50 0
1470 -1469 0
1471 -49 -1470 0
-1471 49 0
-1471 1470 0
-1472 52 1468 1471 0
1472 -52 0
1472 -1468 0
1472 -1471 0
1473 -54 -1472 0
-1473 54 0
-1473 1472 0
-1474 56 100 1473 0
1474 -56 0
1474 -100 0
1474 -1473 0
1475 -58 -1474 0
-1475 58 0
-1475 1474 0
-1476 60 1464 1475 0
1476 -60 0
1476 -1464 0
1476 -1475 0
1477 -62 -1476 0
-1477 62 0
-1477 1476 0
-1478 337 1328 507 1331 1339 1438 1342 326 1343 1442 0
1478 -337 0
1478 -1328 0
1478 -507 0
1478 -1331 0
1478 -1339 0
1478 -1438 0
1478 -1342 0
1478 -326 0
1478 -1343 0
1478 -1442 0
1479 -412 -1478 0
-1479 412 0
-1479 1478 0
1480 -259 -149 0
-1480 259 0
-1480 149 0
1481 -331 -149 0
-1481 331 0
-1481 149 0
-1482 333 1481 0
1482 -333 0
1482 -1481 0
1483 -335 -1482 0
-1483 335 0
-1483 1482 0
-1484 337 340 507 343 349 1480 352 326 328 1483 0
1484 -337 0
1484 -340 0
1484 -507 0
1484 -343 0
1484 -349 0
1484 -1480 0
1484 -352 0
1484 -326 0
1484 -328 0
1484 -1483 0
1485 -339 -1484 0
-1485 339 0
-1485 1484 0
-1486 600 1485 610 0
1486 -600 0
1486 -1485 0
1486 -610 0
1487 -635 -1486 0
-1487 635 0
-1487 1486 0
-1488 65 1479 1487 0
1488 -65 0
1488 -1479 0
1488 -1487 0
1489 -64 -1488 0
-1489 64 0
-1489 1488 0
1490 -416 -1478 0
-1490 416 0
-1490 1478 0
-1491 337 340 507 343 349 352 326 328 390 0
1491 -337 0
1491 -340 0
1491 -507 0
1491 -343 0
1491 -349 0
1491 -352 0
1491 -326 0
1491 -328 0
1491 -390 0
1492 -339 -1491 0
-1492 339 0
-1492 1491 0
-1493 600 1492 610 0
1493 -600 0
1493 -1492 0
1493 -610 0
1494 -609 -1493 0
-1494 609 0
-1494 1493 0
-1495 337 507 1331 1353 1342 326 1343 390 0
1495 -337 0
1495 -507 0
1495 -1331 0
1495 -1353 0
1495 -1342 0
1495 -326 0
1495 -1343 0
1495 -390 0
1496 -375 -1495 0
-1496 375 0
-1496 1495 0
-1497 47 1496 0
1497 -47 0
1497 -1496 0
1498 -84 -1497 0
-1498 84 0
-1498 1497 0
-1499 337 506 507 343 1361 352 326 328 390 0
1499 -337 0
1499 -506 0
1499 -507 0
1499 -343 0
1499 -1361 0
1499 -352 0
1499 -326 0
1499 -328 0
1499 -390 0
1500 -339 -1499 0
-1500 339 0
-1500 1499 0
-1501 600 1500 625 0
1501 -600 0
1501 -1500 0
1501 -625 0
1502 -615 -1501 0
-1502 615 0
-1502 1501 0
-1503 14 1502 8 11 0
1503 -14 0
1503 -1502 0
1503 -8 0
1503 -11 0
1504 -28 -1503 0
-1504 28 0
-1504 1503 0
-1505 30 1504 0
1505 -30 0
1505 -1504 0
1506 -119 -1505 0
-1506 119 0
-1506 1505 0
-1507 121 1494 1498 1506 0
1507 -121 0
1507 -1494 0
1507 -1498 0
1507 -1506 0
1508 -134 -1507 0
-1508 134 0
-1508 1507 0
-1509 40 1508 97 0
1509 -40 0
1509 -1508 0
1509 -97 0
1510 -42 -1509 0
-1510 42 0
-1510 1509 0
-1511 337 1328 507 1331 1339 1342 326 1343 390 0
1511 -337 0
1511 -1328 0
1511 -507 0
1511 -1331 0
1511 -1339 0
1511 -1342 0
1511 -326 0
1511 -1343 0
1511 -390 0
1512 -375 -1511 0
-1512 375 0
-1512 1511 0
-1513 47 1512 0
1513 -47 0
1513 -1512 0
1514 -46 -1513 0
-1514 46 0
-1514 1513 0
1515 -401 -1511 0
-1515 401 0
-1515 1511 0
-1516 50 1515 0
1516 -50 0
1516 -1515 0
1517 -49 -1516 0
-1517 49 0
-1517 1516 0
-1518 52 1514 1517 0
1518 -52 0
1518 -1514 0
1518 -1517 0
1519 -54 -1518 0
-1519 54 0
-1519 1518 0
-1520 56 100 1519 0
1520 -56 0
1520 -100 0
1520 -1519 0
1521 -58 -1520 0
-1521 58 0
-1521 1520 0
-1522 60 1510 1521 0
1522 -60 0
1522 -1510 0
1522 -1521 0
1523 -67 -1522 0
-1523 67 0
-1523 1522 0
-1524 69 1490 1523 0
1524 -69 0
1524 -1490 0
1524 -1523 0
1525 -71 -1524 0
-1525 71 0
-1525 1524 0
-1526 73 1489 1525 0
1526 -73 0
1526 -1489 0
1526 -1525 0
1527 -75 -1526 0
-1527 75 0
-1527 1526 0
1528 -299 -154 0
-1528 299 0
-1528 154 0
-1529 337 340 507 343 349 1480 1528 352 326 328 1483 0
1529 -337 0
1529 -340 0
1529 -507 0
1529 -343 0
1529 -349 0
1529 -1480 0
1529 -1528 0
1529 -352 0
1529 -326 0
1529 -328 0
1529 -1483 0
1530 -339 -1529 0
-1530 339 0
-1530 1529 0
-1531 600 1530 610 0
1531 -600 0
1531 -1530 0
1531 -610 0
1532 -641 -1531 0
-1532 641 0
-1532 1531 0
-1533 78 1532 0
1533 -78 0
1533 -1532 0
1534 -77 -1533 0
-1534 77 0
-1534 1533 0
-1535 80 1444 1477 1527 1534 0
1535 -80 0
1535 -1444 0
1535 -1477 0
1535 -1527 0
1535 -1534 0
1536 -112 -1535 0
-1536 112 0
-1536 1535 0
-1537 3 1536 0
1537 -3 0
1537 -1536 0
1538 -2 -1537 0
-1538 2 0
-1538 1537 0
-1539 5 1437 1538 0
1539 -5 0
1539 -1437 0
1539 -1538 0
1540 -7 -1539 0
-1540 7 0
-1540 1539 0
1541 -146 -1011 0
-1541 146 0
-1541 1011 0
1542 -2 -1016 0
-1542 2 0
-1542 1016 0
-1543 5 1541 1542 0
1543 -5 0
1543 -1541 0
1543 -1542 0
1544 -162 -1543 0
-1544 162 0
-1544 1543 0
1545 -170 -1011 0
-1545 170 0
-1545 1011 0
-1546 176 1545 171 173 0
1546 -176 0
1546 -1545 0
1546 -171 0
1546 -173 0
1547 -178 -1546 0
-1547 178 0
-1547 1546 0
1548 -214 -1140 0
-1548 214 0
-1548 1140 0
-1549 216 1548 0
1549 -216 0
1549 -1548 0
1550 -218 -1549 0
-1550 218 0
-1550 1549 0
-1551 40 1064 0
1551 -40 0
1551 -1064 0
1552 -42 -1551 0
-1552 42 0
-1552 1551 0
-1553 60 1552 1075 0
1553 -60 0
1553 -1552 0
1553 -1075 0
1554 -259 -1553 0
-1554 259 0
-1554 1553 0
-1555 40 1093 0
1555 -40 0
1555 -1093 0
1556 -42 -1555 0
-1556 42 0
-1556 1555 0
-1557 60 1556 1104 0
1557 -60 0
1557 -1556 0
1557 -1104 0
1558 -67 -1557 0
-1558 67 0
-1558 1557 0
-1559 69 1558 0
1559 -69 0
1559 -1558 0
1560 -71 -1559 0
-1560 71 0
-1560 1559 0
-1561 73 63 1560 0
1561 -73 0
1561 -63 0
1561 -1560 0
1562 -299 -1561 0
-1562 299 0
-1562 1561 0
1563 -325 -1018 0
-1563 325 0
-1563 1018 0
1564 -331 -1553 0
-1564 331 0
-1564 1553 0
-1565 333 1564 0
1565 -333 0
1565 -1564 0
1566 -335 -1565 0
-1566 335 0
-1566 1565 0
-1567 337 1544 1547 1550 1554 1562 1563 326 328 1566 0
1567 -337 0
1567 -1544 0
1567 -1547 0
1567 -1550 0
1567 -1554 0
1567 -1562 0
1567 -1563 0
1567 -326 0
1567 -328 0
1567 -1566 0
1568 -339 -1567 0
-1568 339 0
-1568 1567 0
-1569 60 41 407 0
1569 -60 0
1569 -41 0
1569 -407 0
1570 -62 -1569 0
-1570 62 0
-1570 1569 0
-1571 60 41 432 0
1571 -60 0
1571 -41 0
1571 -432 0
1572 -67 -1571 0
-1572 67 0
-1572 1571 0
-1573 69 415 1572 0
1573 -69 0
1573 -415 0
1573 -1572 0
1574 -71 -1573 0
-1574 71 0
-1574 1573 0
-1575 73 414 1574 0
1575 -73 0
1575 -414 0
1575 -1574 0
1576 -75 -1575 0
-1576 75 0
-1576 1575 0
-1577 80 382 1570 1576 76 0
1577 -80 0
1577 -382 0
1577 -1570 0
1577 -1576 0
1577 -76 0
1578 -441 -1577 0
-1578 441 0
-1578 1577 0
-1579 60 41 474 0
1579 -60 0
1579 -41 0
1579 -474 0
1580 -62 -1579 0
-1580 62 0
-1580 1579 0
-1581 60 41 497 0
1581 -60 0
1581 -41 0
1581 -497 0
1582 -67 -1581 0
-1582 67 0
-1582 1581 0
-1583 69 481 1582 0
1583 -69 0
1583 -481 0
1583 -1582 0
1584 -71 -1583 0
-1584 71 0
-1584 1583 0
-1585 73 480 1584 0
1585 -73 0
1585 -480 0
1585 -1584 0
1586 -75 -1585 0
-1586 75 0
-1586 1585 0
-1587 80 454 1580 1586 76 0
1587 -80 0
1587 -454 0
1587 -1580 0
1587 -1586 0
1587 -76 0
1588 -89 -1587 0
-1588 89 0
-1588 1587 0
-1589 60 99 558 0
1589 -60 0
1589 -99 0
1589 -558 0
1590 -62 -1589 0
-1590 62 0
-1590 1589 0
-1591 60 99 581 0
1591 -60 0
1591 -99 0
1591 -581 0
1592 -67 -1591 0
-1592 67 0
-1592 1591 0
-1593 69 565 1592 0
1593 -69 0
1593 -565 0
1593 -1592 0
1594 -71 -1593 0
-1594 71 0
-1594 1593 0
-1595 73 564 1594 0
1595 -73 0
1595 -564 0
1595 -1594 0
1596 -75 -1595 0
-1596 75 0
-1596 1595 0
-1597 80 538 1590 1596 76 0
1597 -80 0
1597 -538 0
1597 -1590 0
1597 -1596 0
1597 -76 0
1598 -112 -1597 0
-1598 112 0
-1598 1597 0
-1599 3 1598 0
1599 -3 0
1599 -1598 0
1600 -12 -1599 0
-1600 12 0
-1600 1599 0
-1601 14 8 1600 0
1601 -14 0
1601 -8 0
1601 -1600 0
1602 -28 -1601 0
-1602 28 0
-1602 1601 0
-1603 30 1588 1602 0
1603 -30 0
1603 -1588 0
1603 -1602 0
1604 -210 -1603 0
-1604 210 0
-1604 1603 0
-1605 212 1604 0
1605 -212 0
1605 -1604 0
1606 -598 -1605 0
-1606 598 0
-1606 1605 0
-1607 600 1568 1578 1606 0
1607 -600 0
1607 -1568 0
1607 -1578 0
1607 -1606 0
1608 -609 -1607 0
-1608 609 0
-1608 1607 0
1609 -259 -59 0
-1609 259 0
-1609 59 0
1610 -299 -638 0
-1610 299 0
-1610 638 0
1611 -331 -59 0
-1611 331 0
-1611 59 0
-1612 333 1611 0
1612 -333 0
1612 -1611 0
1613 -335 -1612 0
-1613 335 0
-1613 1612 0
-1614 337 341 1331 1353 1609 1610 1342 326 1343 1613 0
1614 -337 0
1614 -341 0
1614 -1331 0
1614 -1353 0
1614 -1609 0
1614 -1610 0
1614 -1342 0
1614 -326 0
1614 -1343 0
1614 -1613 0
1615 -383 -1614 0
-1615 383 0
-1615 1614 0
1616 -46 -1357 0
-1616 46 0
-1616 1357 0
1617 -401 -1355 0
-1617 401 0
-1617 1355 0
-1618 50 1617 0
1618 -50 0
1618 -1617 0
1619 -49 -1618 0
-1619 49 0
-1619 1618 0
-1620 52 1616 1619 0
1620 -52 0
1620 -1616 0
1620 -1619 0
1621 -54 -1620 0
-1621 54 0
-1621 1620 0
-1622 56 43 1621 0
1622 -56 0
1622 -43 0
1622 -1621 0
1623 -58 -1622 0
-1623 58 0
-1623 1622 0
-1624 60 41 1623 0
1624 -60 0
1624 -41 0
1624 -1623 0
1625 -62 -1624 0
-1625 62 0
-1625 1624 0
-1626 337 341 1331 1353 1609 1342 326 1343 1613 0
1626 -337 0
1626 -341 0
1626 -1331 0
1626 -1353 0
1626 -1609 0
1626 -1342 0
1626 -326 0
1626 -1343 0
1626 -1613 0
1627 -412 -1626 0
-1627 412 0
-1627 1626 0
-1628 65 1627 1391 0
1628 -65 0
1628 -1627 0
1628 -1391 0
1629 -64 -1628 0
-1629 64 0
-1629 1628 0
1630 -416 -1626 0
-1630 416 0
-1630 1626 0
1631 -46 -1400 0
-1631 46 0
-1631 1400 0
1632 -401 -1398 0
-1632 401 0
-1632 1398 0
-1633 50 1632 0
1633 -50 0
1633 -1632 0
1634 -49 -1633 0
-1634 49 0
-1634 1633 0
-1635 52 1631 1634 0
1635 -52 0
1635 -1631 0
1635 -1634 0
1636 -54 -1635 0
-1636 54 0
-1636 1635 0
-1637 56 43 1636 0
1637 -56 0
1637 -43 0
1637 -1636 0
1638 -58 -1637 0
-1638 58 0
-1638 1637 0
-1639 60 41 1638 0
1639 -60 0
1639 -41 0
1639 -1638 0
1640 -67 -1639 0
-1640 67 0
-1640 1639 0
-1641 69 1630 1640 0
1641 -69 0
1641 -1630 0
1641 -1640 0
1642 -71 -1641 0
-1642 71 0
-1642 1641 0
-1643 73 1629 1642 0
1643 -73 0
1643 -1629 0
1643 -1642 0
1644 -75 -1643 0
-1644 75 0
-1644 1643 0
-1645 80 1615 1625 1644 1435 0
1645 -80 0
1645 -1615 0
1645 -1625 0
1645 -1644 0
1645 -1435 0
1646 -82 -1645 0
-1646 82 0
-1646 1645 0
1647 -62 -363 0
-1647 62 0
-1647 363 0
-1648 73 637 367 0
1648 -73 0
1648 -637 0
1648 -367 0
1649 -75 -1648 0
-1649 75 0
-1649 1648 0
-1650 80 1647 1649 643 0
1650 -80 0
1650 -1647 0
1650 -1649 0
1650 -643 0
1651 -146 -1650 0
-1651 146 0
-1651 1650 0
1652 -62 -520 0
-1652 62 0
-1652 520 0
-1653 73 637 524 0
1653 -73 0
1653 -637 0
1653 -524 0
1654 -75 -1653 0
-1654 75 0
-1654 1653 0
-1655 80 1652 1654 643 0
1655 -80 0
1655 -1652 0
1655 -1654 0
1655 -643 0
1656 -112 -1655 0
-1656 112 0
-1656 1655 0
-1657 3 1656 0
1657 -3 0
1657 -1656 0
1658 -2 -1657 0
-1658 2 0
-1658 1657 0
-1659 5 1651 1658 0
1659 -5 0
1659 -1651 0
1659 -1658 0
1660 -162 -1659 0
-1660 162 0
-1660 1659 0
1661 -441 -1650 0
-1661 441 0
-1661 1650 0
1662 -75 -368 0
-1662 75 0
-1662 368 0
-1663 80 1647 1662 76 0
1663 -80 0
1663 -1647 0
1663 -1662 0
1663 -76 0
1664 -89 -1663 0
-1664 89 0
-1664 1663 0
1665 -75 -525 0
-1665 75 0
-1665 525 0
-1666 80 1652 1665 76 0
1666 -80 0
1666 -1652 0
1666 -1665 0
1666 -76 0
1667 -112 -1666 0
-1667 112 0
-1667 1666 0
-1668 3 1667 0
1668 -3 0
1668 -1667 0
1669 -12 -1668 0
-1669 12 0
-1669 1668 0
-1670 14 8 1669 0
1670 -14 0
1670 -8 0
1670 -1669 0
1671 -28 -1670 0
-1671 28 0
-1671 1670 0
-1672 30 1664 1671 0
1672 -30 0
1672 -1664 0
1672 -1671 0
1673 -210 -1672 0
-1673 210 0
-1673 1672 0
-1674 212 1673 0
1674 -212 0
1674 -1673 0
1675 -598 -1674 0
-1675 598 0
-1675 1674 0
-1676 600 1661 1675 0
1676 -600 0
1676 -1661 0
1676 -1675 0
1677 -730 -1676 0
-1677 730 0
-1677 1676 0
1678 -170 -1650 0
-1678 170 0
-1678 1650 0
-1679 176 1677 1678 171 173 0
1679 -176 0
1679 -1677 0
1679 -1678 0
1679 -171 0
1679 -173 0
1680 -178 -1679 0
-1680 178 0
-1680 1679 0
-1681 73 775 367 0
1681 -73 0
1681 -775 0
1681 -367 0
1682 -75 -1681 0
-1682 75 0
-1682 1681 0
-1683 80 1647 1682 783 0
1683 -80 0
1683 -1647 0
1683 -1682 0
1683 -783 0
1684 -89 -1683 0
-1684 89 0
-1684 1683 0
1685 -441 -1663 0
-1685 441 0
-1685 1663 0
-1686 600 1685 0
1686 -600 0
1686 -1685 0
1687 -615 -1686 0
-1687 615 0
-1687 1686 0
-1688 73 775 524 0
1688 -73 0
1688 -775 0
1688 -524 0
1689 -75 -1688 0
-1689 75 0
-1689 1688 0
-1690 80 1652 1689 783 0
1690 -80 0
1690 -1652 0
1690 -1689 0
1690 -783 0
1691 -112 -1690 0
-1691 112 0
-1691 1690 0
-1692 3 1691 0
1692 -3 0
1692 -1691 0
1693 -12 -1692 0
-1693 12 0
-1693 1692 0
-1694 14 1687 8 1693 0
1694 -14 0
1694 -1687 0
1694 -8 0
1694 -1693 0
1695 -28 -1694 0
-1695 28 0
-1695 1694 0
-1696 30 1684 1695 0
1696 -30 0
1696 -1684 0
1696 -1695 0
1697 -210 -1696 0
-1697 210 0
-1697 1696 0
-1698 212 1697 0
1698 -212 0
1698 -1697 0
1699 -214 -1698 0
-1699 214 0
-1699 1698 0
-1700 216 1699 0
1700 -216 0
1700 -1699 0
1701 -218 -1700 0
-1701 218 0
-1701 1700 0
-1702 40 1219 0
1702 -40 0
1702 -1219 0
1703 -42 -1702 0
-1703 42 0
-1703 1702 0
-1704 52 1223 1226 0
1704 -52 0
1704 -1223 0
1704 -1226 0
1705 -54 -1704 0
-1705 54 0
-1705 1704 0
-1706 56 1222 1705 0
1706 -56 0
1706 -1222 0
1706 -1705 0
1707 -58 -1706 0
-1707 58 0
-1707 1706 0
-1708 60 1703 1707 0
1708 -60 0
1708 -1703 0
1708 -1707 0
1709 -259 -1708 0
-1709 259 0
-1709 1708 0
-1710 80 1647 76 0
1710 -80 0
1710 -1647 0
1710 -76 0
1711 -441 -1710 0
-1711 441 0
-1711 1710 0
1712 -89 -1710 0
-1712 89 0
-1712 1710 0
-1713 80 1652 76 0
1713 -80 0
1713 -1652 0
1713 -76 0
1714 -112 -1713 0
-1714 112 0
-1714 1713 0
-1715 3 1714 0
1715 -3 0
1715 -1714 0
1716 -12 -1715 0
-1716 12 0
-1716 1715 0
-1717 14 8 1716 0
1717 -14 0
1717 -8 0
1717 -1716 0
1718 -28 -1717 0
-1718 28 0
-1718 1717 0
-1719 30 1712 1718 0
1719 -30 0
1719 -1712 0
1719 -1718 0
1720 -210 -1719 0
-1720 210 0
-1720 1719 0
-1721 212 1720 0
1721 -212 0
1721 -1720 0
1722 -598 -1721 0
-1722 598 0
-1722 1721 0
-1723 600 1711 1722 0
1723 -600 0
1723 -1711 0
1723 -1722 0
1724 -635 -1723 0
-1724 635 0
-1724 1723 0
-1725 65 1724 0
1725 -65 0
1725 -1724 0
1726 -64 -1725 0
-1726 64 0
-1726 1725 0
-1727 40 1276 0
1727 -40 0
1727 -1276 0
1728 -42 -1727 0
-1728 42 0
-1728 1727 0
-1729 52 1280 1283 0
1729 -52 0
1729 -1280 0
1729 -1283 0
1730 -54 -1729 0
-1730 54 0
-1730 1729 0
-1731 56 1279 1730 0
1731 -56 0
1731 -1279 0
1731 -1730 0
1732 -58 -1731 0
-1732 58 0
-1732 1731 0
-1733 60 1728 1732 0
1733 -60 0
1733 -1728 0
1733 -1732 0
1734 -67 -1733 0
-1734 67 0
-1734 1733 0
-1735 69 1734 0
1735 -69 0
1735 -1734 0
1736 -71 -1735 0
-1736 71 0
-1736 1735 0
-1737 73 1726 1736 0
1737 -73 0
1737 -1726 0
1737 -1736 0
1738 -299 -1737 0
-1738 299 0
-1738 1737 0
-1739 30 1664 0
1739 -30 0
1739 -1664 0
1740 -210 -1739 0
-1740 210 0
-1740 1739 0
-1741 212 1740 0
1741 -212 0
1741 -1740 0
1742 -598 -1741 0
-1742 598 0
-1742 1741 0
-1743 600 1661 1742 0
1743 -600 0
1743 -1661 0
1743 -1742 0
1744 -615 -1743 0
-1744 615 0
-1744 1743 0
-1745 73 972 524 0
1745 -73 0
1745 -972 0
1745 -524 0
1746 -75 -1745 0
-1746 75 0
-1746 1745 0
-1747 80 1652 1746 980 0
1747 -80 0
1747 -1652 0
1747 -1746 0
1747 -980 0
1748 -112 -1747 0
-1748 112 0
-1748 1747 0
-1749 3 1748 0
1749 -3 0
1749 -1748 0
1750 -12 -1749 0
-1750 12 0
-1750 1749 0
-1751 14 1744 8 1750 0
1751 -14 0
1751 -1744 0
1751 -8 0
1751 -1750 0
1752 -325 -1751 0
-1752 325 0
-1752 1751 0
-1753 80 1647 1649 0
1753 -80 0
1753 -1647 0
1753 -1649 0
1754 -441 -1753 0
-1754 441 0
-1754 1753 0
-1755 80 1647 1662 0
1755 -80 0
1755 -1647 0
1755 -1662 0
1756 -89 -1755 0
-1756 89 0
-1756 1755 0
-1757 80 1652 1665 0
1757 -80 0
1757 -1652 0
1757 -1665 0
1758 -112 -1757 0
-1758 112 0
-1758 1757 0
-1759 3 1758 0
1759 -3 0
1759 -1758 0
1760 -12 -1759 0
-1760 12 0
-1760 1759 0
-1761 14 8 1760 0
1761 -14 0
1761 -8 0
1761 -1760 0
1762 -28 -1761 0
-1762 28 0
-1762 1761 0
-1763 30 1756 1762 0
1763 -30 0
1763 -1756 0
1763 -1762 0
1764 -210 -1763 0
-1764 210 0
-1764 1763 0
-1765 212 1764 0
1765 -212 0
1765 -1764 0
1766 -598 -1765 0
-1766 598 0
-1766 1765 0
-1767 600 1754 1766 0
1767 -600 0
1767 -1754 0
1767 -1766 0
1768 -641 -1767 0
-1768 641 0
-1768 1767 0
-1769 78 1768 0
1769 -78 0
1769 -1768 0
1770 -329 -1769 0
-1770 329 0
-1770 1769 0
1771 -331 -1708 0
-1771 331 0
-1771 1708 0
-1772 333 1771 0
1772 -333 0
1772 -1771 0
1773 -335 -1772 0
-1773 335 0
-1773 1772 0
-1774 337 1660 1680 1701 1709 1738 1752 326 1770 1773 0
1774 -337 0
1774 -1660 0
1774 -1680 0
1774 -1701 0
1774 -1709 0
1774 -1738 0
1774 -1752 0
1774 -326 0
1774 -1770 0
1774 -1773 0
1775 -375 -1774 0
-1775 375 0
-1775 1774 0
-1776 47 1775 0
1776 -47 0
1776 -1775 0
1777 -84 -1776 0
-1777 84 0
-1777 1776 0
-1778 216 1359 0
1778 -216 0
1778 -1359 0
1779 -218 -1778 0
-1779 218 0
-1779 1778 0
1780 -299 -745 0
-1780 299 0
-1780 745 0
1781 -325 -628 0
-1781 325 0
-1781 628 0
1782 -329 -678 0
-1782 329 0
-1782 678 0
-1783 337 341 1331 1779 1609 1780 1781 326 1782 1613 0
1783 -337 0
1783 -341 0
1783 -1331 0
1783 -1779 0
1783 -1609 0
1783 -1780 0
1783 -1781 0
1783 -326 0
1783 -1782 0
1783 -1613 0
1784 -383 -1783 0
-1784 383 0
-1784 1783 0
1785 -299 -831 0
-1785 299 0
-1785 831 0
-1786 337 341 1331 1779 1785 1781 326 1782 390 0
1786 -337 0
1786 -341 0
1786 -1331 0
1786 -1779 0
1786 -1785 0
1786 -1781 0
1786 -326 0
1786 -1782 0
1786 -390 0
1787 -375 -1786 0
-1787 375 0
-1787 1786 0
-1788 47 1787 0
1788 -47 0
1788 -1787 0
1789 -46 -1788 0
-1789 46 0
-1789 1788 0
1790 -401 -1786 0
-1790 401 0
-1790 1786 0
-1791 50 1790 0
1791 -50 0
1791 -1790 0
1792 -49 -1791 0
-1792 49 0
-1792 1791 0
-1793 52 1789 1792 0
1793 -52 0
1793 -1789 0
1793 -1792 0
1794 -54 -1793 0
-1794 54 0
-1794 1793 0
-1795 56 43 1794 0
1795 -56 0
1795 -43 0
1795 -1794 0
1796 -58 -1795 0
-1796 58 0
-1796 1795 0
-1797 60 41 1796 0
1797 -60 0
1797 -41 0
1797 -1796 0
1798 -62 -1797 0
-1798 62 0
-1798 1797 0
-1799 337 341 1331 1779 1609 1781 326 1782 1613 0
1799 -337 0
1799 -341 0
1799 -1331 0
1799 -1779 0
1799 -1609 0
1799 -1781 0
1799 -326 0
1799 -1782 0
1799 -1613 0
1800 -412 -1799 0
-1800 412 0
-1800 1799 0
1801 -339 -1799 0
-1801 339 0
-1801 1799 0
-1802 600 1801 610 0
1802 -600 0
1802 -1801 0
1802 -610 0
1803 -635 -1802 0
-1803 635 0
-1803 1802 0
-1804 65 1800 1803 0
1804 -65 0
1804 -1800 0
1804 -1803 0
1805 -64 -1804 0
-1805 64 0
-1805 1804 0
1806 -416 -1799 0
-1806 416 0
-1806 1799 0
-1807 337 341 1331 1779 1781 326 1782 390 0
1807 -337 0
1807 -341 0
1807 -1331 0
1807 -1779 0
1807 -1781 0
1807 -326 0
1807 -1782 0
1807 -390 0
1808 -375 -1807 0
-1808 375 0
-1808 1807 0
-1809 47 1808 0
1809 -47 0
1809 -1808 0
1810 -46 -1809 0
-1810 46 0
-1810 1809 0
1811 -401 -1807 0
-1811 401 0
-1811 1807 0
-1812 50 1811 0
1812 -50 0
1812 -1811 0
1813 -49 -1812 0
-1813 49 0
-1813 1812 0
-1814 52 1810 1813 0
1814 -52 0
1814 -1810 0
1814 -1813 0
1815 -54 -1814 0
-1815 54 0
-1815 1814 0
-1816 56 43 1815 0
1816 -56 0
1816 -43 0
1816 -1815 0
1817 -58 -1816 0
-1817 58 0
-1817 1816 0
-1818 60 41 1817 0
1818 -60 0
1818 -41 0
1818 -1817 0
1819 -67 -1818 0
-1819 67 0
-1819 1818 0
-1820 69 1806 1819 0
1820 -69 0
1820 -1806 0
1820 -1819 0
1821 -71 -1820 0
-1821 71 0
-1821 1820 0
-1822 73 1805 1821 0
1822 -73 0
1822 -1805 0
1822 -1821 0
1823 -75 -1822 0
-1823 75 0
-1823 1822 0
-1824 337 506 341 343 1361 1609 1610 352 326 328 1613 0
1824 -337 0
1824 -506 0
1824 -341 0
1824 -343 0
1824 -1361 0
1824 -1609 0
1824 -1610 0
1824 -352 0
1824 -326 0
1824 -328 0
1824 -1613 0
1825 -339 -1824 0
-1825 339 0
-1825 1824 0
-1826 600 1825 610 0
1826 -600 0
1826 -1825 0
1826 -610 0
1827 -641 -1826 0
-1827 641 0
-1827 1826 0
-1828 78 1827 0
1828 -78 0
1828 -1827 0
1829 -77 -1828 0
-1829 77 0
-1829 1828 0
-1830 80 1784 1798 1823 1829 0
1830 -80 0
1830 -1784 0
1830 -1798 0
1830 -1823 0
1830 -1829 0
1831 -89 -1830 0
-1831 89 0
-1831 1830 0
-1832 337 1544 1547 1779 1554 1562 326 328 1566 0
1832 -337 0
1832 -1544 0
1832 -1547 0
1832 -1779 0
1832 -1554 0
1832 -1562 0
1832 -326 0
1832 -328 0
1832 -1566 0
1833 -339 -1832 0
-1833 339 0
-1833 1832 0
-1834 337 506 341 343 1361 1609 1780 352 326 328 1613 0
1834 -337 0
1834 -506 0
1834 -341 0
1834 -343 0
1834 -1361 0
1834 -1609 0
1834 -1780 0
1834 -352 0
1834 -326 0
1834 -328 0
1834 -1613 0
1835 -383 -1834 0
-1835 383 0
-1835 1834 0
1836 -375 -1362 0
-1836 375 0
-1836 1362 0
-1837 47 1836 0
1837 -47 0
1837 -1836 0
1838 -46 -1837 0
-1838 46 0
-1838 1837 0
1839 -401 -1362 0
-1839 401 0
-1839 1362 0
-1840 50 1839 0
1840 -50 0
1840 -1839 0
1841 -49 -1840 0
-1841 49 0
-1841 1840 0
-1842 52 1838 1841 0
1842 -52 0
1842 -1838 0
1842 -1841 0
1843 -54 -1842 0
-1843 54 0
-1843 1842 0
-1844 56 43 1843 0
1844 -56 0
1844 -43 0
1844 -1843 0
1845 -58 -1844 0
-1845 58 0
-1845 1844 0
-1846 60 41 1845 0
1846 -60 0
1846 -41 0
1846 -1845 0
1847 -62 -1846 0
-1847 62 0
-1847 1846 0
-1848 337 506 341 343 1361 1609 352 326 328 1613 0
1848 -337 0
1848 -506 0
1848 -341 0
1848 -343 0
1848 -1361 0
1848 -1609 0
1848 -352 0
1848 -326 0
1848 -328 0
1848 -1613 0
1849 -412 -1848 0
-1849 412 0
-1849 1848 0
-1850 65 1849 0
1850 -65 0
1850 -1849 0
1851 -64 -1850 0
-1851 64 0
-1851 1850 0
1852 -416 -1848 0
-1852 416 0
-1852 1848 0
1853 -375 -1402 0
-1853 375 0
-1853 1402 0
-1854 47 1853 0
1854 -47 0
1854 -1853 0
1855 -46 -1854 0
-1855 46 0
-1855 1854 0
1856 -401 -1402 0
-1856 401 0
-1856 1402 0
-1857 50 1856 0
1857 -50 0
1857 -1856 0
1858 -49 -1857 0
-1858 49 0
-1858 1857 0
-1859 52 1855 1858 0
1859 -52 0
1859 -1855 0
1859 -1858 0
1860 -54 -1859 0
-1860 54 0
-1860 1859 0
-1861 56 43 1860 0
1861 -56 0
1861 -43 0
1861 -1860 0
1862 -58 -1861 0
-1862 58 0
-1862 1861 0
-1863 60 41 1862 0
1863 -60 0
1863 -41 0
1863 -1862 0
1864 -67 -1863 0
-1864 67 0
-1864 1863 0
-1865 69 1852 1864 0
1865 -69 0
1865 -1852 0
1865 -1864 0
1866 -71 -1865 0
-1866 71 0
-1866 1865 0
-1867 73 1851 1866 0
1867 -73 0
1867 -1851 0
1867 -1866 0
1868 -75 -1867 0
-1868 75 0
-1868 1867 0
-1869 80 1835 1847 1868 76 0
1869 -80 0
1869 -1835 0
1869 -1847 0
1869 -1868 0
1869 -76 0
1870 -441 -1869 0
-1870 441 0
-1870 1869 0
-1871 600 1833 1870 625 0
1871 -600 0
1871 -1833 0
1871 -1870 0
1871 -625 0
1872 -615 -1871 0
-1872 615 0
-1872 1871 0
1873 -730 -626 0
-1873 730 0
-1873 626 0
-1874 176 1873 171 173 0
1874 -176 0
1874 -1873 0
1874 -171 0
1874 -173 0
1875 -178 -1874 0
-1875 178 0
-1875 1874 0
1876 -259 -103 0
-1876 259 0
-1876 103 0
1877 -299 -675 0
-1877 299 0
-1877 675 0
1878 -331 -103 0
-1878 331 0
-1878 103 0
-1879 333 1878 0
1879 -333 0
1879 -1878 0
1880 -335 -1879 0
-1880 335 0
-1880 1879 0
-1881 337 507 1875 1779 1876 1877 326 1782 1880 0
1881 -337 0
1881 -507 0
1881 -1875 0
1881 -1779 0
1881 -1876 0
1881 -1877 0
1881 -326 0
1881 -1782 0
1881 -1880 0
1882 -383 -1881 0
-1882 383 0
-1882 1881 0
-1883 337 507 1875 1779 1785 326 1782 390 0
1883 -337 0
1883 -507 0
1883 -1875 0
1883 -1779 0
1883 -1785 0
1883 -326 0
1883 -1782 0
1883 -390 0
1884 -375 -1883 0
-1884 375 0
-1884 1883 0
-1885 47 1884 0
1885 -47 0
1885 -1884 0
1886 -46 -1885 0
-1886 46 0
-1886 1885 0
1887 -401 -1883 0
-1887 401 0
-1887 1883 0
-1888 50 1887 0
1888 -50 0
1888 -1887 0
1889 -49 -1888 0
-1889 49 0
-1889 1888 0
-1890 52 1886 1889 0
1890 -52 0
1890 -1886 0
1890 -1889 0
1891 -54 -1890 0
-1891 54 0
-1891 1890 0
-1892 56 100 1891 0
1892 -56 0
1892 -100 0
1892 -1891 0
1893 -58 -1892 0
-1893 58 0
-1893 1892 0
-1894 60 99 1893 0
1894 -60 0
1894 -99 0
1894 -1893 0
1895 -62 -1894 0
-1895 62 0
-1895 1894 0
-1896 337 507 1875 1779 1876 326 1782 1880 0
1896 -337 0
1896 -507 0
1896 -1875 0
1896 -1779 0
1896 -1876 0
1896 -326 0
1896 -1782 0
1896 -1880 0
1897 -412 -1896 0
-1897 412 0
-1897 1896 0
1898 -339 -1896 0
-1898 339 0
-1898 1896 0
-1899 600 1898 625 0
1899 -600 0
1899 -1898 0
1899 -625 0
1900 -635 -1899 0
-1900 635 0
-1900 1899 0
-1901 65 1897 1900 0
1901 -65 0
1901 -1897 0
1901 -1900 0
1902 -64 -1901 0
-1902 64 0
-1902 1901 0
1903 -416 -1896 0
-1903 416 0
-1903 1896 0
-1904 337 507 1875 1779 326 1782 390 0
1904 -337 0
1904 -507 0
1904 -1875 0
1904 -1779 0
1904 -326 0
1904 -1782 0
1904 -390 0
1905 -375 -1904 0
-1905 375 0
-1905 1904 0
-1906 47 1905 0
1906 -47 0
1906 -1905 0
1907 -46 -1906 0
-1907 46 0
-1907 1906 0
1908 -401 -1904 0
-1908 401 0
-1908 1904 0
-1909 50 1908 0
1909 -50 0
1909 -1908 0
1910 -49 -1909 0
-1910 49 0
-1910 1909 0
-1911 52 1907 1910 0
1911 -52 0
1911 -1907 0
1911 -1910 0
1912 -54 -1911 0
-1912 54 0
-1912 1911 0
-1913 56 100 1912 0
1913 -56 0
1913 -100 0
1913 -1912 0
1914 -58 -1913 0
-1914 58 0
-1914 1913 0
-1915 60 99 1914 0
1915 -60 0
1915 -99 0
1915 -1914 0
1916 -67 -1915 0
-1916 67 0
-1916 1915 0
-1917 69 1903 1916 0
1917 -69 0
1917 -1903 0
1917 -1916 0
1918 -71 -1917 0
-1918 71 0
-1918 1917 0
-1919 73 1902 1918 0
1919 -73 0
1919 -1902 0
1919 -1918 0
1920 -75 -1919 0
-1920 75 0
-1920 1919 0
-1921 337 506 507 343 1361 511 512 326 328 515 0
1921 -337 0
1921 -506 0
1921 -507 0
1921 -343 0
1921 -1361 0
1921 -511 0
1921 -512 0
1921 -326 0
1921 -328 0
1921 -515 0
1922 -339 -1921 0
-1922 339 0
-1922 1921 0
-1923 600 1922 625 0
1923 -600 0
1923 -1922 0
1923 -625 0
1924 -641 -1923 0
-1924 641 0
-1924 1923 0
-1925 78 1924 0
1925 -78 0
1925 -1924 0
1926 -77 -1925 0
-1926 77 0
-1926 1925 0
-1927 80 1882 1895 1920 1926 0
1927 -80 0
1927 -1882 0
1927 -1895 0
1927 -1920 0
1927 -1926 0
1928 -112 -1927 0
-1928 112 0
-1928 1927 0
-1929 3 1928 0
1929 -3 0
1929 -1928 0
1930 -12 -1929 0
-1930 12 0
-1930 1929 0
-1931 14 1872 8 1930 0
1931 -14 0
1931 -1872 0
1931 -8 0
1931 -1930 0
1932 -28 -1931 0
-1932 28 0
-1932 1931 0
-1933 30 1831 1932 0
1933 -30 0
1933 -1831 0
1933 -1932 0
1934 -119 -1933 0
-1934 119 0
-1934 1933 0
-1935 121 1608 1646 1777 1934 0
1935 -121 0
1935 -1608 0
1935 -1646 0
1935 -1777 0
1935 -1934 0
1936 -127 -1935 0
-1936 127 0
-1936 1935 0
-1937 30 1013 0
1937 -30 0
1937 -1013 0
1938 -119 -1937 0
-1938 119 0
-1938 1937 0
-1939 121 1012 83 1938 0
1939 -121 0
1939 -1012 0
1939 -83 0
1939 -1938 0
1940 -123 -1939 0
-1940 123 0
-1940 1939 0
1941 -180 -1939 0
-1941 180 0
-1941 1939 0
1942 -214 -1296 0
-1942 214 0
-1942 1296 0
-1943 216 1941 1942 0
1943 -216 0
1943 -1941 0
1943 -1942 0
1944 -218 -1943 0
-1944 218 0
-1944 1943 0
-1945 30 1051 0
1945 -30 0
1945 -1051 0
1946 -119 -1945 0
-1946 119 0
-1946 1945 0
-1947 121 1050 83 1946 0
1947 -121 0
1947 -1050 0
1947 -83 0
1947 -1946 0
1948 -134 -1947 0
-1948 134 0
-1948 1947 0
-1949 40 1948 1064 0
1949 -40 0
1949 -1948 0
1949 -1064 0
1950 -42 -1949 0
-1950 42 0
-1950 1949 0
-1951 60 1950 1075 0
1951 -60 0
1951 -1950 0
1951 -1075 0
1952 -259 -1951 0
-1952 259 0
-1952 1951 0
-1953 30 1080 0
1953 -30 0
1953 -1080 0
1954 -119 -1953 0
-1954 119 0
-1954 1953 0
-1955 121 1079 83 1954 0
1955 -121 0
1955 -1079 0
1955 -83 0
1955 -1954 0
1956 -134 -1955 0
-1956 134 0
-1956 1955 0
-1957 40 1956 1093 0
1957 -40 0
1957 -1956 0
1957 -1093 0
1958 -42 -1957 0
-1958 42 0
-1958 1957 0
-1959 60 1958 1104 0
1959 -60 0
1959 -1958 0
1959 -1104 0
1960 -67 -1959 0
-1960 67 0
-1960 1959 0
-1961 69 1960 0
1961 -69 0
1961 -1960 0
1962 -71 -1961 0
-1962 71 0
-1962 1961 0
-1963 73 63 1962 0
1963 -73 0
1963 -63 0
1963 -1962 0
1964 -299 -1963 0
-1964 299 0
-1964 1963 0
1965 -331 -1951 0
-1965 331 0
-1965 1951 0
-1966 333 1965 0
1966 -333 0
1966 -1965 0
1967 -335 -1966 0
-1967 335 0
-1967 1966 0
-1968 337 1940 1031 1034 1944 1952 1964 326 328 1967 0
1968 -337 0
1968 -1940 0
1968 -1031 0
1968 -1034 0
1968 -1944 0
1968 -1952 0
1968 -1964 0
1968 -326 0
1968 -328 0
1968 -1967 0
1969 -339 -1968 0
-1969 339 0
-1969 1968 0
-1970 30 1125 0
1970 -30 0
1970 -1125 0
1971 -210 -1970 0
-1971 210 0
-1971 1970 0
-1972 212 1971 0
1972 -212 0
1972 -1971 0
1973 -598 -1972 0
-1973 598 0
-1973 1972 0
-1974 600 1969 1123 1973 0
1974 -600 0
1974 -1969 0
1974 -1123 0
1974 -1973 0
1975 -615 -1974 0
-1975 615 0
-1975 1974 0
1976 -123 -957 0
-1976 123 0
-1976 957 0
1977 -730 -954 0
-1977 730 0
-1977 954 0
-1978 176 1977 171 173 0
1978 -176 0
1978 -1977 0
1978 -171 0
1978 -173 0
1979 -178 -1978 0
-1979 178 0
-1979 1978 0
1980 -180 -957 0
-1980 180 0
-1980 957 0
1981 -214 -952 0
-1981 214 0
-1981 952 0
-1982 216 1980 1981 0
1982 -216 0
1982 -1980 0
1982 -1981 0
1983 -218 -1982 0
-1983 218 0
-1983 1982 0
1984 -259 -968 0
-1984 259 0
-1984 968 0
1985 -299 -976 0
-1985 299 0
-1985 976 0
1986 -329 -979 0
-1986 329 0
-1986 979 0
1987 -331 -968 0
-1987 331 0
-1987 968 0
-1988 333 1987 0
1988 -333 0
1988 -1987 0
1989 -335 -1988 0
-1989 335 0
-1989 1988 0
-1990 337 1976 507 1979 1983 1984 1985 326 1986 1989 0
1990 -337 0
1990 -1976 0
1990 -507 0
1990 -1979 0
1990 -1983 0
1990 -1984 0
1990 -1985 0
1990 -326 0
1990 -1986 0
1990 -1989 0
1991 -383 -1990 0
-1991 383 0
-1991 1990 0
-1992 216 1981 0
1992 -216 0
1992 -1981 0
1993 -218 -1992 0
-1993 218 0
-1993 1992 0
-1994 337 507 343 1993 389 326 328 390 0
1994 -337 0
1994 -507 0
1994 -343 0
1994 -1993 0
1994 -389 0
1994 -326 0
1994 -328 0
1994 -390 0
1995 -339 -1994 0
-1995 339 0
-1995 1994 0
-1996 600 1995 953 0
1996 -600 0
1996 -1995 0
1996 -953 0
1997 -609 -1996 0
-1997 609 0
-1997 1996 0
-1998 73 972 219 0
1998 -73 0
1998 -972 0
1998 -219 0
1999 -299 -1998 0
-1999 299 0
-1999 1998 0
-2000 337 507 1979 1983 1999 326 1986 390 0
2000 -337 0
2000 -507 0
2000 -1979 0
2000 -1983 0
2000 -1999 0
2000 -326 0
2000 -1986 0
2000 -390 0
2001 -375 -2000 0
-2001 375 0
-2001 2000 0
-2002 47 2001 0
2002 -47 0
2002 -2001 0
2003 -84 -2002 0
-2003 84 0
-2003 2002 0
-2004 121 1997 2003 300 0
2004 -121 0
2004 -1997 0
2004 -2003 0
2004 -300 0
2005 -134 -2004 0
-2005 134 0
-2005 2004 0
-2006 40 2005 97 0
2006 -40 0
2006 -2005 0
2006 -97 0
2007 -42 -2006 0
-2007 42 0
-2007 2006 0
-2008 337 1976 507 1979 1983 1999 326 1986 390 0
2008 -337 0
2008 -1976 0
2008 -507 0
2008 -1979 0
2008 -1983 0
2008 -1999 0
2008 -326 0
2008 -1986 0
2008 -390 0
2009 -375 -2008 0
-2009 375 0
-2009 2008 0
-2010 47 2009 0
2010 -47 0
2010 -2009 0
2011 -46 -2010 0
-2011 46 0
-2011 2010 0
2012 -401 -2008 0
-2012 401 0
-2012 2008 0
-2013 50 2012 0
2013 -50 0
2013 -2012 0
2014 -49 -2013 0
-2014 49 0
-2014 2013 0
-2015 52 2011 2014 0
2015 -52 0
2015 -2011 0
2015 -2014 0
2016 -54 -2015 0
-2016 54 0
-2016 2015 0
-2017 56 100 2016 0
2017 -56 0
2017 -100 0
2017 -2016 0
2018 -58 -2017 0
-2018 58 0
-2018 2017 0
-2019 60 2007 2018 0
2019 -60 0
2019 -2007 0
2019 -2018 0
2020 -62 -2019 0
-2020 62 0
-2020 2019 0
-2021 337 1976 507 1979 1983 1984 326 1986 1989 0
2021 -337 0
2021 -1976 0
2021 -507 0
2021 -1979 0
2021 -1983 0
2021 -1984 0
2021 -326 0
2021 -1986 0
2021 -1989 0
2022 -412 -2021 0
-2022 412 0
-2022 2021 0
2023 -339 -2021 0
-2023 339 0
-2023 2021 0
-2024 600 2023 953 0
2024 -600 0
2024 -2023 0
2024 -953 0
2025 -635 -2024 0
-2025 635 0
-2025 2024 0
-2026 65 2022 2025 0
2026 -65 0
2026 -2022 0
2026 -2025 0
2027 -64 -2026 0
-2027 64 0
-2027 2026 0
2028 -416 -2021 0
-2028 416 0
-2028 2021 0
-2029 337 507 343 1993 326 328 390 0
2029 -337 0
2029 -507 0
2029 -343 0
2029 -1993 0
2029 -326 0
2029 -328 0
2029 -390 0
2030 -339 -2029 0
-2030 339 0
-2030 2029 0
-2031 600 2030 953 0
2031 -600 0
2031 -2030 0
2031 -953 0
2032 -609 -2031 0
-2032 609 0
-2032 2031 0
-2033 337 507 1979 1983 326 1986 390 0
2033 -337 0
2033 -507 0
2033 -1979 0
2033 -1983 0
2033 -326 0
2033 -1986 0
2033 -390 0
2034 -375 -2033 0
-2034 375 0
-2034 2033 0
-2035 47 2034 0
2035 -47 0
2035 -2034 0
2036 -84 -2035 0
-2036 84 0
-2036 2035 0
-2037 121 2032 2036 300 0
2037 -121 0
2037 -2032 0
2037 -2036 0
2037 -300 0
2038 -134 -2037 0
-2038 134 0
-2038 2037 0
-2039 40 2038 97 0
2039 -40 0
2039 -2038 0
2039 -97 0
2040 -42 -2039 0
-2040 42 0
-2040 2039 0
-2041 337 1976 507 1979 1983 326 1986 390 0
2041 -337 0
2041 -1976 0
2041 -507 0
2041 -1979 0
2041 -1983 0
2041 -326 0
2041 -1986 0
2041 -390 0
2042 -375 -2041 0
-2042 375 0
-2042 2041 0
-2043 47 2042 0
2043 -47 0
2043 -2042 0
2044 -46 -2043 0
-2044 46 0
-2044 2043 0
2045 -401 -2041 0
-2045 401 0
-2045 2041 0
-2046 50 2045 0
2046 -50 0
2046 -2045 0
2047 -49 -2046 0
-2047 49 0
-2047 2046 0
-2048 52 2044 2047 0
2048 -52 0
2048 -2044 0
2048 -2047 0
2049 -54 -2048 0
-2049 54 0
-2049 2048 0
-2050 56 100 2049 0
2050 -56 0
2050 -100 0
2050 -2049 0
2051 -58 -2050 0
-2051 58 0
-2051 2050 0
-2052 60 2040 2051 0
2052 -60 0
2052 -2040 0
2052 -2051 0
2053 -67 -2052 0
-2053 67 0
-2053 2052 0
-2054 69 2028 2053 0
2054 -69 0
2054 -2028 0
2054 -2053 0
2055 -71 -2054 0
-2055 71 0
-2055 2054 0
-2056 73 2027 2055 0
2056 -73 0
2056 -2027 0
2056 -2055 0
2057 -75 -2056 0
-2057 75 0
-2057 2056 0
-2058 337 1976 507 343 1983 1984 1985 326 328 1989 0
2058 -337 0
2058 -1976 0
2058 -507 0
2058 -343 0
2058 -1983 0
2058 -1984 0
2058 -1985 0
2058 -326 0
2058 -328 0
2058 -1989 0
2059 -339 -2058 0
-2059 339 0
-2059 2058 0
-2060 600 2059 953 0
2060 -600 0
2060 -2059 0
2060 -953 0
2061 -641 -2060 0
-2061 641 0
-2061 2060 0
-2062 78 2061 0
2062 -78 0
2062 -2061 0
2063 -77 -2062 0
-2063 77 0
-2063 2062 0
-2064 80 1991 2020 2057 2063 0
2064 -80 0
2064 -1991 0
2064 -2020 0
2064 -2057 0
2064 -2063 0
2065 -112 -2064 0
-2065 112 0
-2065 2064 0
-2066 3 2065 0
2066 -3 0
2066 -2065 0
2067 -12 -2066 0
-2067 12 0
-2067 2066 0
-2068 14 1975 8 2067 0
2068 -14 0
2068 -1975 0
2068 -8 0
2068 -2067 0
2069 -16 -2068 0
-2069 16 0
-2069 2068 0
-2070 18 2069 0
2070 -18 0
2070 -2069 0
2071 -20 -2070 0
-2071 20 0
-2071 2070 0
-2072 22 1137 1327 1540 1936 2071 0
2072 -22 0
2072 -1137 0
2072 -1327 0
2072 -1540 0
2072 -1936 0
2072 -2071 0
2073 -26 -2072 0
-2073 26 0
-2073 2072 0
-2074 80 23 61 74 76 0
2074 -80 0
2074 -23 0
2074 -61 0
2074 -74 0
2074 -76 0
2075 -441 -2074 0
-2075 441 0
-2075 2074 0
2076 -89 -2074 0
-2076 89 0
-2076 2074 0
-2077 80 93 104 109 76 0
2077 -80 0
2077 -93 0
2077 -104 0
2077 -109 0
2077 -76 0
2078 -112 -2077 0
-2078 112 0
-2078 2077 0
-2079 3 2078 0
2079 -3 0
2079 -2078 0
2080 -12 -2079 0
-2080 12 0
-2080 2079 0
-2081 14 8 2080 0
2081 -14 0
2081 -8 0
2081 -2080 0
2082 -28 -2081 0
-2082 28 0
-2082 2081 0
-2083 30 2076 2082 0
2083 -30 0
2083 -2076 0
2083 -2082 0
2084 -210 -2083 0
-2084 210 0
-2084 2083 0
-2085 212 2084 0
2085 -212 0
2085 -2084 0
2086 -598 -2085 0
-2086 598 0
-2086 2085 0
-2087 600 2075 2086 0
2087 -600 0
2087 -2075 0
2087 -2086 0
2088 -609 -2087 0
-2088 609 0
-2088 2087 0
-2089 80 621 61 639 643 0
2089 -80 0
2089 -621 0
2089 -61 0
2089 -639 0
2089 -643 0
2090 -82 -2089 0
-2090 82 0
-2090 2089 0
-2091 80 741 61 746 679 0
2091 -80 0
2091 -741 0
2091 -61 0
2091 -746 0
2091 -679 0
2092 -89 -2091 0
-2092 89 0
-2092 2091 0
-2093 80 657 61 74 76 0
2093 -80 0
2093 -657 0
2093 -61 0
2093 -74 0
2093 -76 0
2094 -441 -2093 0
-2094 441 0
-2094 2093 0
-2095 600 2094 625 0
2095 -600 0
2095 -2094 0
2095 -625 0
2096 -615 -2095 0
-2096 615 0
-2096 2095 0
-2097 80 667 104 676 679 0
2097 -80 0
2097 -667 0
2097 -104 0
2097 -676 0
2097 -679 0
2098 -112 -2097 0
-2098 112 0
-2098 2097 0
-2099 3 2098 0
2099 -3 0
2099 -2098 0
2100 -12 -2099 0
-2100 12 0
-2100 2099 0
-2101 14 2096 8 2100 0
2101 -14 0
2101 -2096 0
2101 -8 0
2101 -2100 0
2102 -28 -2101 0
-2102 28 0
-2102 2101 0
-2103 30 2092 2102 0
2103 -30 0
2103 -2092 0
2103 -2102 0
2104 -119 -2103 0
-2104 119 0
-2104 2103 0
-2105 121 2088 2090 83 2104 0
2105 -121 0
2105 -2088 0
2105 -2090 0
2105 -83 0
2105 -2104 0
2106 -123 -2105 0
-2106 123 0
-2106 2105 0
-2107 80 695 703 708 643 0
2107 -80 0
2107 -695 0
2107 -703 0
2107 -708 0
2107 -643 0
2108 -146 -2107 0
-2108 146 0
-2108 2107 0
-2109 80 695 714 719 643 0
2109 -80 0
2109 -695 0
2109 -714 0
2109 -719 0
2109 -643 0
2110 -112 -2109 0
-2110 112 0
-2110 2109 0
-2111 3 2110 0
2111 -3 0
2111 -2110 0
2112 -2 -2111 0
-2112 2 0
-2112 2111 0
-2113 5 2108 2112 0
2113 -5 0
2113 -2108 0
2113 -2112 0
2114 -162 -2113 0
-2114 162 0
-2114 2113 0
-2115 80 164 138 143 76 0
2115 -80 0
2115 -164 0
2115 -138 0
2115 -143 0
2115 -76 0
2116 -441 -2115 0
-2116 441 0
-2116 2115 0
2117 -89 -2115 0
-2117 89 0
-2117 2115 0
-2118 80 188 196 201 76 0
2118 -80 0
2118 -188 0
2118 -196 0
2118 -201 0
2118 -76 0
2119 -112 -2118 0
-2119 112 0
-2119 2118 0
-2120 3 2119 0
2120 -3 0
2120 -2119 0
2121 -12 -2120 0
-2121 12 0
-2121 2120 0
-2122 14 8 2121 0
2122 -14 0
2122 -8 0
2122 -2121 0
2123 -28 -2122 0
-2123 28 0
-2123 2122 0
-2124 30 2117 2123 0
2124 -30 0
2124 -2117 0
2124 -2123 0
2125 -210 -2124 0
-2125 210 0
-2125 2124 0
-2126 212 2125 0
2126 -212 0
2126 -2125 0
2127 -598 -2126 0
-2127 598 0
-2127 2126 0
-2128 600 2116 2127 0
2128 -600 0
2128 -2116 0
2128 -2127 0
2129 -730 -2128 0
-2129 730 0
-2129 2128 0
-2130 80 732 703 708 643 0
2130 -80 0
2130 -732 0
2130 -703 0
2130 -708 0
2130 -643 0
2131 -170 -2130 0
-2131 170 0
-2131 2130 0
-2132 176 2129 2131 171 173 0
2132 -176 0
2132 -2129 0
2132 -2131 0
2132 -171 0
2132 -173 0
2133 -178 -2132 0
-2133 178 0
-2133 2132 0
2134 -180 -2105 0
-2134 180 0
-2134 2105 0
-2135 80 763 772 780 783 0
2135 -80 0
2135 -763 0
2135 -772 0
2135 -780 0
2135 -783 0
2136 -89 -2135 0
-2136 89 0
-2136 2135 0
-2137 80 787 772 780 76 0
2137 -80 0
2137 -787 0
2137 -772 0
2137 -780 0
2137 -76 0
2138 -441 -2137 0
-2138 441 0
-2138 2137 0
-2139 600 2138 0
2139 -600 0
2139 -2138 0
2140 -615 -2139 0
-2140 615 0
-2140 2139 0
-2141 80 796 803 808 783 0
2141 -80 0
2141 -796 0
2141 -803 0
2141 -808 0
2141 -783 0
2142 -112 -2141 0
-2142 112 0
-2142 2141 0
-2143 3 2142 0
2143 -3 0
2143 -2142 0
2144 -12 -2143 0
-2144 12 0
-2144 2143 0
-2145 14 2140 8 2144 0
2145 -14 0
2145 -2140 0
2145 -8 0
2145 -2144 0
2146 -28 -2145 0
-2146 28 0
-2146 2145 0
-2147 30 2136 2146 0
2147 -30 0
2147 -2136 0
2147 -2146 0
2148 -210 -2147 0
-2148 210 0
-2148 2147 0
-2149 212 2148 0
2149 -212 0
2149 -2148 0
2150 -214 -2149 0
-2150 214 0
-2150 2149 0
-2151 216 2134 2150 0
2151 -216 0
2151 -2134 0
2151 -2150 0
2152 -218 -2151 0
-2152 218 0
-2152 2151 0
-2153 80 23 221 76 0
2153 -80 0
2153 -23 0
2153 -221 0
2153 -76 0
2154 -441 -2153 0
-2154 441 0
-2154 2153 0
2155 -89 -2153 0
-2155 89 0
-2155 2153 0
-2156 80 93 221 76 0
2156 -80 0
2156 -93 0
2156 -221 0
2156 -76 0
2157 -112 -2156 0
-2157 112 0
-2157 2156 0
-2158 3 2157 0
2158 -3 0
2158 -2157 0
2159 -12 -2158 0
-2159 12 0
-2159 2158 0
-2160 14 8 2159 0
2160 -14 0
2160 -8 0
2160 -2159 0
2161 -28 -2160 0
-2161 28 0
-2161 2160 0
-2162 30 2155 2161 0
2162 -30 0
2162 -2155 0
2162 -2161 0
2163 -210 -2162 0
-2163 210 0
-2163 2162 0
-2164 212 2163 0
2164 -212 0
2164 -2163 0
2165 -598 -2164 0
-2165 598 0
-2165 2164 0
-2166 600 2154 2165 0
2166 -600 0
2166 -2154 0
2166 -2165 0
2167 -609 -2166 0
-2167 609 0
-2167 2166 0
-2168 80 621 828 643 0
2168 -80 0
2168 -621 0
2168 -828 0
2168 -643 0
2169 -82 -2168 0
-2169 82 0
-2169 2168 0
-2170 80 741 832 679 0
2170 -80 0
2170 -741 0
2170 -832 0
2170 -679 0
2171 -89 -2170 0
-2171 89 0
-2171 2170 0
-2172 80 657 221 76 0
2172 -80 0
2172 -657 0
2172 -221 0
2172 -76 0
2173 -441 -2172 0
-2173 441 0
-2173 2172 0
-2174 600 2173 625 0
2174 -600 0
2174 -2173 0
2174 -625 0
2175 -615 -2174 0
-2175 615 0
-2175 2174 0
-2176 80 667 832 679 0
2176 -80 0
2176 -667 0
2176 -832 0
2176 -679 0
2177 -112 -2176 0
-2177 112 0
-2177 2176 0
-2178 3 2177 0
2178 -3 0
2178 -2177 0
2179 -12 -2178 0
-2179 12 0
-2179 2178 0
-2180 14 2175 8 2179 0
2180 -14 0
2180 -2175 0
2180 -8 0
2180 -2179 0
2181 -28 -2180 0
-2181 28 0
-2181 2180 0
-2182 30 2171 2181 0
2182 -30 0
2182 -2171 0
2182 -2181 0
2183 -119 -2182 0
-2183 119 0
-2183 2182 0
-2184 121 2167 2169 83 2183 0
2184 -121 0
2184 -2167 0
2184 -2169 0
2184 -83 0
2184 -2183 0
2185 -134 -2184 0
-2185 134 0
-2185 2184 0
-2186 80 695 828 643 0
2186 -80 0
2186 -695 0
2186 -828 0
2186 -643 0
2187 -146 -2186 0
-2187 146 0
-2187 2186 0
2188 -112 -2186 0
-2188 112 0
-2188 2186 0
-2189 3 2188 0
2189 -3 0
2189 -2188 0
2190 -2 -2189 0
-2190 2 0
-2190 2189 0
-2191 5 2187 2190 0
2191 -5 0
2191 -2187 0
2191 -2190 0
2192 -38 -2191 0
-2192 38 0
-2192 2191 0
-2193 40 2185 2192 0
2193 -40 0
2193 -2185 0
2193 -2192 0
2194 -42 -2193 0
-2194 42 0
-2194 2193 0
2195 -44 -2191 0
-2195 44 0
-2195 2191 0
-2196 80 732 828 643 0
2196 -80 0
2196 -732 0
2196 -828 0
2196 -643 0
2197 -248 -2196 0
-2197 248 0
-2197 2196 0
2198 -250 -2196 0
-2198 250 0
-2198 2196 0
-2199 50 2198 0
2199 -50 0
2199 -2198 0
2200 -49 -2199 0
-2200 49 0
-2200 2199 0
-2201 52 2197 45 2200 0
2201 -52 0
2201 -2197 0
2201 -45 0
2201 -2200 0
2202 -54 -2201 0
-2202 54 0
-2202 2201 0
-2203 56 2195 2202 0
2203 -56 0
2203 -2195 0
2203 -2202 0
2204 -58 -2203 0
-2204 58 0
-2204 2203 0
-2205 60 2194 2204 0
2205 -60 0
2205 -2194 0
2205 -2204 0
2206 -259 -2205 0
-2206 259 0
-2206 2205 0
-2207 80 164 138 76 0
2207 -80 0
2207 -164 0
2207 -138 0
2207 -76 0
2208 -441 -2207 0
-2208 441 0
-2208 2207 0
2209 -89 -2207 0
-2209 89 0
-2209 2207 0
-2210 80 188 196 76 0
2210 -80 0
2210 -188 0
2210 -196 0
2210 -76 0
2211 -112 -2210 0
-2211 112 0
-2211 2210 0
-2212 3 2211 0
2212 -3 0
2212 -2211 0
2213 -12 -2212 0
-2213 12 0
-2213 2212 0
-2214 14 8 2213 0
2214 -14 0
2214 -8 0
2214 -2213 0
2215 -28 -2214 0
-2215 28 0
-2215 2214 0
-2216 30 2209 2215 0
2216 -30 0
2216 -2209 0
2216 -2215 0
2217 -210 -2216 0
-2217 210 0
-2217 2216 0
-2218 212 2217 0
2218 -212 0
2218 -2217 0
2219 -598 -2218 0
-2219 598 0
-2219 2218 0
-2220 600 2208 2219 0
2220 -600 0
2220 -2208 0
2220 -2219 0
2221 -635 -2220 0
-2221 635 0
-2221 2220 0
-2222 65 2221 0
2222 -65 0
2222 -2221 0
2223 -64 -2222 0
-2223 64 0
-2223 2222 0
-2224 80 23 76 0
2224 -80 0
2224 -23 0
2224 -76 0
2225 -441 -2224 0
-2225 441 0
-2225 2224 0
2226 -89 -2224 0
-2226 89 0
-2226 2224 0
-2227 80 93 76 0
2227 -80 0
2227 -93 0
2227 -76 0
2228 -112 -2227 0
-2228 112 0
-2228 2227 0
-2229 3 2228 0
2229 -3 0
2229 -2228 0
2230 -12 -2229 0
-2230 12 0
-2230 2229 0
-2231 14 8 2230 0
2231 -14 0
2231 -8 0
2231 -2230 0
2232 -28 -2231 0
-2232 28 0
-2232 2231 0
-2233 30 2226 2232 0
2233 -30 0
2233 -2226 0
2233 -2232 0
2234 -210 -2233 0
-2234 210 0
-2234 2233 0
-2235 212 2234 0
2235 -212 0
2235 -2234 0
2236 -598 -2235 0
-2236 598 0
-2236 2235 0
-2237 600 2225 2236 0
2237 -600 0
2237 -2225 0
2237 -2236 0
2238 -609 -2237 0
-2238 609 0
-2238 2237 0
-2239 80 621 643 0
2239 -80 0
2239 -621 0
2239 -643 0
2240 -82 -2239 0
-2240 82 0
-2240 2239 0
-2241 80 741 679 0
2241 -80 0
2241 -741 0
2241 -679 0
2242 -89 -2241 0
-2242 89 0
-2242 2241 0
-2243 80 657 76 0
2243 -80 0
2243 -657 0
2243 -76 0
2244 -441 -2243 0
-2244 441 0
-2244 2243 0
-2245 600 2244 625 0
2245 -600 0
2245 -2244 0
2245 -625 0
2246 -615 -2245 0
-2246 615 0
-2246 2245 0
-2247 80 667 679 0
2247 -80 0
2247 -667 0
2247 -679 0
2248 -112 -2247 0
-2248 112 0
-2248 2247 0
-2249 3 2248 0
2249 -3 0
2249 -2248 0
2250 -12 -2249 0
-2250 12 0
-2250 2249 0
-2251 14 2246 8 2250 0
2251 -14 0
2251 -2246 0
2251 -8 0
2251 -2250 0
2252 -28 -2251 0
-2252 28 0
-2252 2251 0
-2253 30 2242 2252 0
2253 -30 0
2253 -2242 0
2253 -2252 0
2254 -119 -2253 0
-2254 119 0
-2254 2253 0
-2255 121 2238 2240 83 2254 0
2255 -121 0
2255 -2238 0
2255 -2240 0
2255 -83 0
2255 -2254 0
2256 -134 -2255 0
-2256 134 0
-2256 2255 0
-2257 80 695 643 0
2257 -80 0
2257 -695 0
2257 -643 0
2258 -146 -2257 0
-2258 146 0
-2258 2257 0
2259 -112 -2257 0
-2259 112 0
-2259 2257 0
-2260 3 2259 0
2260 -3 0
2260 -2259 0
2261 -2 -2260 0
-2261 2 0
-2261 2260 0
-2262 5 2258 2261 0
2262 -5 0
2262 -2258 0
2262 -2261 0
2263 -38 -2262 0
-2263 38 0
-2263 2262 0
-2264 40 2256 2263 0
2264 -40 0
2264 -2256 0
2264 -2263 0
2265 -42 -2264 0
-2265 42 0
-2265 2264 0
2266 -44 -2262 0
-2266 44 0
-2266 2262 0
-2267 80 732 643 0
2267 -80 0
2267 -732 0
2267 -643 0
2268 -248 -2267 0
-2268 248 0
-2268 2267 0
2269 -250 -2267 0
-2269 250 0
-2269 2267 0
-2270 50 2269 0
2270 -50 0
2270 -2269 0
2271 -49 -2270 0
-2271 49 0
-2271 2270 0
-2272 52 2268 45 2271 0
2272 -52 0
2272 -2268 0
2272 -45 0
2272 -2271 0
2273 -54 -2272 0
-2273 54 0
-2273 2272 0
-2274 56 2266 2273 0
2274 -56 0
2274 -2266 0
2274 -2273 0
2275 -58 -2274 0
-2275 58 0
-2275 2274 0
-2276 60 2265 2275 0
2276 -60 0
2276 -2265 0
2276 -2275 0
2277 -67 -2276 0
-2277 67 0
-2277 2276 0
-2278 69 2277 0
2278 -69 0
2278 -2277 0
2279 -71 -2278 0
-2279 71 0
-2279 2278 0
-2280 73 2223 2279 0
2280 -73 0
2280 -2223 0
2280 -2279 0
2281 -299 -2280 0
-2281 299 0
-2281 2280 0
-2282 80 938 138 143 76 0
2282 -80 0
2282 -938 0
2282 -138 0
2282 -143 0
2282 -76 0
2283 -441 -2282 0
-2283 441 0
-2283 2282 0
2284 -89 -2137 0
-2284 89 0
-2284 2137 0
-2285 30 2284 0
2285 -30 0
2285 -2284 0
2286 -210 -2285 0
-2286 210 0
-2286 2285 0
-2287 212 2286 0
2287 -212 0
2287 -2286 0
2288 -598 -2287 0
-2288 598 0
-2288 2287 0
-2289 600 2283 2288 0
2289 -600 0
2289 -2283 0
2289 -2288 0
2290 -615 -2289 0
-2290 615 0
-2290 2289 0
-2291 80 960 969 977 980 0
2291 -80 0
2291 -960 0
2291 -969 0
2291 -977 0
2291 -980 0
2292 -112 -2291 0
-2292 112 0
-2292 2291 0
-2293 3 2292 0
2293 -3 0
2293 -2292 0
2294 -12 -2293 0
-2294 12 0
-2294 2293 0
-2295 14 2290 8 2294 0
2295 -14 0
2295 -2290 0
2295 -8 0
2295 -2294 0
2296 -325 -2295 0
-2296 325 0
-2296 2295 0
-2297 80 164 138 143 0
2297 -80 0
2297 -164 0
2297 -138 0
2297 -143 0
2298 -441 -2297 0
-2298 441 0
-2298 2297 0
2299 -89 -2297 0
-2299 89 0
-2299 2297 0
-2300 80 188 196 201 0
2300 -80 0
2300 -188 0
2300 -196 0
2300 -201 0
2301 -112 -2300 0
-2301 112 0
-2301 2300 0
-2302 3 2301 0
2302 -3 0
2302 -2301 0
2303 -12 -2302 0
-2303 12 0
-2303 2302 0
-2304 14 8 2303 0
2304 -14 0
2304 -8 0
2304 -2303 0
2305 -28 -2304 0
-2305 28 0
-2305 2304 0
-2306 30 2299 2305 0
2306 -30 0
2306 -2299 0
2306 -2305 0
2307 -210 -2306 0
-2307 210 0
-2307 2306 0
-2308 212 2307 0
2308 -212 0
2308 -2307 0
2309 -598 -2308 0
-2309 598 0
-2309 2308 0
-2310 600 2298 2309 0
2310 -600 0
2310 -2298 0
2310 -2309 0
2311 -641 -2310 0
-2311 641 0
-2311 2310 0
-2312 78 2311 0
2312 -78 0
2312 -2311 0
2313 -329 -2312 0
-2313 329 0
-2313 2312 0
2314 -331 -2205 0
-2314 331 0
-2314 2205 0
-2315 333 2314 0
2315 -333 0
2315 -2314 0
2316 -335 -2315 0
-2316 335 0
-2316 2315 0
-2317 337 2106 2114 2133 2152 2206 2281 2296 326 2313 2316 0
2317 -337 0
2317 -2106 0
2317 -2114 0
2317 -2133 0
2317 -2152 0
2317 -2206 0
2317 -2281 0
2317 -2296 0
2317 -326 0
2317 -2313 0
2317 -2316 0
2318 -386 -2317 0
-2318 386 0
-2318 2317 0
2319 -82 -2074 0
-2319 82 0
-2319 2074 0
2320 -119 -2083 0
-2320 119 0
-2320 2083 0
-2321 121 2319 83 2320 0
2321 -121 0
2321 -2319 0
2321 -83 0
2321 -2320 0
2322 -123 -2321 0
-2322 123 0
-2322 2321 0
-2323 80 129 138 143 76 0
2323 -80 0
2323 -129 0
2323 -138 0
2323 -143 0
2323 -76 0
2324 -146 -2323 0
-2324 146 0
-2324 2323 0
-2325 80 129 150 155 76 0
2325 -80 0
2325 -129 0
2325 -150 0
2325 -155 0
2325 -76 0
2326 -112 -2325 0
-2326 112 0
-2326 2325 0
-2327 3 2326 0
2327 -3 0
2327 -2326 0
2328 -2 -2327 0
-2328 2 0
-2328 2327 0
-2329 5 2324 2328 0
2329 -5 0
2329 -2324 0
2329 -2328 0
2330 -162 -2329 0
-2330 162 0
-2330 2329 0
2331 -170 -2115 0
-2331 170 0
-2331 2115 0
-2332 176 2331 171 173 0
2332 -176 0
2332 -2331 0
2332 -171 0
2332 -173 0
2333 -178 -2332 0
-2333 178 0
-2333 2332 0
2334 -180 -2321 0
-2334 180 0
-2334 2321 0
2335 -214 -2126 0
-2335 214 0
-2335 2126 0
-2336 216 2334 2335 0
2336 -216 0
2336 -2334 0
2336 -2335 0
2337 -218 -2336 0
-2337 218 0
-2337 2336 0
2338 -82 -2153 0
-2338 82 0
-2338 2153 0
2339 -119 -2162 0
-2339 119 0
-2339 2162 0
-2340 121 2338 83 2339 0
2340 -121 0
2340 -2338 0
2340 -83 0
2340 -2339 0
2341 -134 -2340 0
-2341 134 0
-2341 2340 0
-2342 80 129 221 76 0
2342 -80 0
2342 -129 0
2342 -221 0
2342 -76 0
2343 -146 -2342 0
-2343 146 0
-2343 2342 0
2344 -112 -2342 0
-2344 112 0
-2344 2342 0
-2345 3 2344 0
2345 -3 0
2345 -2344 0
2346 -2 -2345 0
-2346 2 0
-2346 2345 0
-2347 5 2343 2346 0
2347 -5 0
2347 -2343 0
2347 -2346 0
2348 -38 -2347 0
-2348 38 0
-2348 2347 0
-2349 40 2341 2348 0
2349 -40 0
2349 -2341 0
2349 -2348 0
2350 -42 -2349 0
-2350 42 0
-2350 2349 0
2351 -44 -2347 0
-2351 44 0
-2351 2347 0
-2352 80 164 221 76 0
2352 -80 0
2352 -164 0
2352 -221 0
2352 -76 0
2353 -248 -2352 0
-2353 248 0
-2353 2352 0
2354 -250 -2352 0
-2354 250 0
-2354 2352 0
-2355 50 2354 0
2355 -50 0
2355 -2354 0
2356 -49 -2355 0
-2356 49 0
-2356 2355 0
-2357 52 2353 45 2356 0
2357 -52 0
2357 -2353 0
2357 -45 0
2357 -2356 0
2358 -54 -2357 0
-2358 54 0
-2358 2357 0
-2359 56 2351 2358 0
2359 -56 0
2359 -2351 0
2359 -2358 0
2360 -58 -2359 0
-2360 58 0
-2360 2359 0
-2361 60 2350 2360 0
2361 -60 0
2361 -2350 0
2361 -2360 0
2362 -259 -2361 0
-2362 259 0
-2362 2361 0
2363 -82 -2224 0
-2363 82 0
-2363 2224 0
2364 -119 -2233 0
-2364 119 0
-2364 2233 0
-2365 121 2363 83 2364 0
2365 -121 0
2365 -2363 0
2365 -83 0
2365 -2364 0
2366 -134 -2365 0
-2366 134 0
-2366 2365 0
-2367 80 129 76 0
2367 -80 0
2367 -129 0
2367 -76 0
2368 -146 -2367 0
-2368 146 0
-2368 2367 0
2369 -112 -2367 0
-2369 112 0
-2369 2367 0
-2370 3 2369 0
2370 -3 0
2370 -2369 0
2371 -2 -2370 0
-2371 2 0
-2371 2370 0
-2372 5 2368 2371 0
2372 -5 0
2372 -2368 0
2372 -2371 0
2373 -38 -2372 0
-2373 38 0
-2373 2372 0
-2374 40 2366 2373 0
2374 -40 0
2374 -2366 0
2374 -2373 0
2375 -42 -2374 0
-2375 42 0
-2375 2374 0
2376 -44 -2372 0
-2376 44 0
-2376 2372 0
-2377 80 164 76 0
2377 -80 0
2377 -164 0
2377 -76 0
2378 -248 -2377 0
-2378 248 0
-2378 2377 0
2379 -250 -2377 0
-2379 250 0
-2379 2377 0
-2380 50 2379 0
2380 -50 0
2380 -2379 0
2381 -49 -2380 0
-2381 49 0
-2381 2380 0
-2382 52 2378 45 2381 0
2382 -52 0
2382 -2378 0
2382 -45 0
2382 -2381 0
2383 -54 -2382 0
-2383 54 0
-2383 2382 0
-2384 56 2376 2383 0
2384 -56 0
2384 -2376 0
2384 -2383 0
2385 -58 -2384 0
-2385 58 0
-2385 2384 0
-2386 60 2375 2385 0
2386 -60 0
2386 -2375 0
2386 -2385 0
2387 -67 -2386 0
-2387 67 0
-2387 2386 0
-2388 69 2387 0
2388 -69 0
2388 -2387 0
2389 -71 -2388 0
-2389 71 0
-2389 2388 0
-2390 73 63 2389 0
2390 -73 0
2390 -63 0
2390 -2389 0
2391 -299 -2390 0
-2391 299 0
-2391 2390 0
-2392 80 304 313 318 76 0
2392 -80 0
2392 -304 0
2392 -313 0
2392 -318 0
2392 -76 0
2393 -112 -2392 0
-2393 112 0
-2393 2392 0
-2394 3 2393 0
2394 -3 0
2394 -2393 0
2395 -12 -2394 0
-2395 12 0
-2395 2394 0
-2396 14 8 2395 0
2396 -14 0
2396 -8 0
2396 -2395 0
2397 -325 -2396 0
-2397 325 0
-2397 2396 0
2398 -331 -2361 0
-2398 331 0
-2398 2361 0
-2399 333 2398 0
2399 -333 0
2399 -2398 0
2400 -335 -2399 0
-2400 335 0
-2400 2399 0
-2401 337 2322 2330 2333 2337 2362 2391 2397 326 328 2400 0
2401 -337 0
2401 -2322 0
2401 -2330 0
2401 -2333 0
2401 -2337 0
2401 -2362 0
2401 -2391 0
2401 -2397 0
2401 -326 0
2401 -328 0
2401 -2400 0
2402 -339 -2401 0
-2402 339 0
-2402 2401 0
-2403 80 381 382 409 438 76 0
2403 -80 0
2403 -381 0
2403 -382 0
2403 -409 0
2403 -438 0
2403 -76 0
2404 -441 -2403 0
-2404 441 0
-2404 2403 0
-2405 80 453 454 476 503 76 0
2405 -80 0
2405 -453 0
2405 -454 0
2405 -476 0
2405 -503 0
2405 -76 0
2406 -89 -2405 0
-2406 89 0
-2406 2405 0
-2407 80 537 538 560 587 76 0
2407 -80 0
2407 -537 0
2407 -538 0
2407 -560 0
2407 -587 0
2407 -76 0
2408 -112 -2407 0
-2408 112 0
-2408 2407 0
-2409 3 2408 0
2409 -3 0
2409 -2408 0
2410 -12 -2409 0
-2410 12 0
-2410 2409 0
-2411 14 8 2410 0
2411 -14 0
2411 -8 0
2411 -2410 0
2412 -28 -2411 0
-2412 28 0
-2412 2411 0
-2413 30 2406 2412 0
2413 -30 0
2413 -2406 0
2413 -2412 0
2414 -210 -2413 0
-2414 210 0
-2414 2413 0
-2415 212 2414 0
2415 -212 0
2415 -2414 0
2416 -598 -2415 0
-2416 598 0
-2416 2415 0
-2417 600 2402 2404 2416 0
2417 -600 0
2417 -2402 0
2417 -2404 0
2417 -2416 0
2418 -624 -2417 0
-2418 624 0
-2418 2417 0
2419 -613 -1432 0
-2419 613 0
-2419 1432 0
-2420 121 690 83 0
2420 -121 0
2420 -690 0
2420 -83 0
2421 -123 -2420 0
-2421 123 0
-2421 2420 0
2422 -180 -2420 0
-2422 180 0
-2422 2420 0
-2423 216 2422 1359 0
2423 -216 0
2423 -2422 0
2423 -1359 0
2424 -218 -2423 0
-2424 218 0
-2424 2423 0
2425 -134 -2420 0
-2425 134 0
-2425 2420 0
-2426 40 2425 37 0
2426 -40 0
2426 -2425 0
2426 -37 0
2427 -42 -2426 0
-2427 42 0
-2427 2426 0
-2428 60 2427 57 0
2428 -60 0
2428 -2427 0
2428 -57 0
2429 -259 -2428 0
-2429 259 0
-2429 2428 0
2430 -67 -2428 0
-2430 67 0
-2430 2428 0
-2431 69 2430 0
2431 -69 0
2431 -2430 0
2432 -71 -2431 0
-2432 71 0
-2432 2431 0
-2433 73 674 2432 0
2433 -73 0
2433 -674 0
2433 -2432 0
2434 -299 -2433 0
-2434 299 0
-2434 2433 0
2435 -331 -2428 0
-2435 331 0
-2435 2428 0
-2436 333 2435 0
2436 -333 0
2436 -2435 0
2437 -335 -2436 0
-2437 335 0
-2437 2436 0
-2438 337 2421 341 1875 2424 2429 2434 1781 326 1782 2437 0
2438 -337 0
2438 -2421 0
2438 -341 0
2438 -1875 0
2438 -2424 0
2438 -2429 0
2438 -2434 0
2438 -1781 0
2438 -326 0
2438 -1782 0
2438 -2437 0
2439 -358 -2438 0
-2439 358 0
-2439 2438 0
2440 -609 -1432 0
-2440 609 0
-2440 1432 0
-2441 73 674 367 0
2441 -73 0
2441 -674 0
2441 -367 0
2442 -299 -2441 0
-2442 299 0
-2442 2441 0
-2443 337 341 1875 1779 364 2442 1781 326 1782 372 0
2443 -337 0
2443 -341 0
2443 -1875 0
2443 -1779 0
2443 -364 0
2443 -2442 0
2443 -1781 0
2443 -326 0
2443 -1782 0
2443 -372 0
2444 -375 -2443 0
-2444 375 0
-2444 2443 0
-2445 47 2444 0
2445 -47 0
2445 -2444 0
2446 -84 -2445 0
-2446 84 0
-2446 2445 0
-2447 121 2440 2446 0
2447 -121 0
2447 -2440 0
2447 -2446 0
2448 -127 -2447 0
-2448 127 0
-2448 2447 0
2449 -615 -1432 0
-2449 615 0
-2449 1432 0
-2450 14 2449 8 11 0
2450 -14 0
2450 -2449 0
2450 -8 0
2450 -11 0
2451 -16 -2450 0
-2451 16 0
-2451 2450 0
-2452 18 2451 0
2452 -18 0
2452 -2451 0
2453 -20 -2452 0
-2453 20 0
-2453 2452 0
-2454 22 2419 2439 6 2448 2453 0
2454 -22 0
2454 -2419 0
2454 -2439 0
2454 -6 0
2454 -2448 0
2454 -2453 0
2455 -24 -2454 0
-2455 24 0
-2455 2454 0
2456 -383 -2438 0
-2456 383 0
-2456 2438 0
-2457 337 341 1875 1779 1785 1781 326 1782 390 0
2457 -337 0
2457 -341 0
2457 -1875 0
2457 -1779 0
2457 -1785 0
2457 -1781 0
2457 -326 0
2457 -1782 0
2457 -390 0
2458 -375 -2457 0
-2458 375 0
-2458 2457 0
-2459 47 2458 0
2459 -47 0
2459 -2458 0
2460 -84 -2459 0
-2460 84 0
-2460 2459 0
-2461 121 1351 2460 0
2461 -121 0
2461 -1351 0
2461 -2460 0
2462 -134 -2461 0
-2462 134 0
-2462 2461 0
-2463 40 2462 37 0
2463 -40 0
2463 -2462 0
2463 -37 0
2464 -42 -2463 0
-2464 42 0
-2464 2463 0
-2465 337 2421 341 1875 2424 1785 1781 326 1782 390 0
2465 -337 0
2465 -2421 0
2465 -341 0
2465 -1875 0
2465 -2424 0
2465 -1785 0
2465 -1781 0
2465 -326 0
2465 -1782 0
2465 -390 0
2466 -375 -2465 0
-2466 375 0
-2466 2465 0
-2467 47 2466 0
2467 -47 0
2467 -2466 0
2468 -46 -2467 0
-2468 46 0
-2468 2467 0
2469 -401 -2465 0
-2469 401 0
-2469 2465 0
-2470 50 2469 0
2470 -50 0
2470 -2469 0
2471 -49 -2470 0
-2471 49 0
-2471 2470 0
-2472 52 2468 2471 0
2472 -52 0
2472 -2468 0
2472 -2471 0
2473 -54 -2472 0
-2473 54 0
-2473 2472 0
-2474 56 43 2473 0
2474 -56 0
2474 -43 0
2474 -2473 0
2475 -58 -2474 0
-2475 58 0
-2475 2474 0
-2476 60 2464 2475 0
2476 -60 0
2476 -2464 0
2476 -2475 0
2477 -62 -2476 0
-2477 62 0
-2477 2476 0
-2478 337 2421 341 1875 2424 2429 1781 326 1782 2437 0
2478 -337 0
2478 -2421 0
2478 -341 0
2478 -1875 0
2478 -2424 0
2478 -2429 0
2478 -1781 0
2478 -326 0
2478 -1782 0
2478 -2437 0
2479 -412 -2478 0
-2479 412 0
-2479 2478 0
-2480 65 2479 1391 0
2480 -65 0
2480 -2479 0
2480 -1391 0
2481 -64 -2480 0
-2481 64 0
-2481 2480 0
2482 -416 -2478 0
-2482 416 0
-2482 2478 0
-2483 337 341 1875 1779 1781 326 1782 390 0
2483 -337 0
2483 -341 0
2483 -1875 0
2483 -1779 0
2483 -1781 0
2483 -326 0
2483 -1782 0
2483 -390 0
2484 -375 -2483 0
-2484 375 0
-2484 2483 0
-2485 47 2484 0
2485 -47 0
2485 -2484 0
2486 -84 -2485 0
-2486 84 0
-2486 2485 0
-2487 121 1397 2486 0
2487 -121 0
2487 -1397 0
2487 -2486 0
2488 -134 -2487 0
-2488 134 0
-2488 2487 0
-2489 40 2488 37 0
2489 -40 0
2489 -2488 0
2489 -37 0
2490 -42 -2489 0
-2490 42 0
-2490 2489 0
-2491 337 2421 341 1875 2424 1781 326 1782 390 0
2491 -337 0
2491 -2421 0
2491 -341 0
2491 -1875 0
2491 -2424 0
2491 -1781 0
2491 -326 0
2491 -1782 0
2491 -390 0
2492 -375 -2491 0
-2492 375 0
-2492 2491 0
-2493 47 2492 0
2493 -47 0
2493 -2492 0
2494 -46 -2493 0
-2494 46 0
-2494 2493 0
2495 -401 -2491 0
-2495 401 0
-2495 2491 0
-2496 50 2495 0
2496 -50 0
2496 -2495 0
2497 -49 -2496 0
-2497 49 0
-2497 2496 0
-2498 52 2494 2497 0
2498 -52 0
2498 -2494 0
2498 -2497 0
2499 -54 -2498 0
-2499 54 0
-2499 2498 0
-2500 56 43 2499 0
2500 -56 0
2500 -43 0
2500 -2499 0
2501 -58 -2500 0
-2501 58 0
-2501 2500 0
-2502 60 2490 2501 0
2502 -60 0
2502 -2490 0
2502 -2501 0
2503 -67 -2502 0
-2503 67 0
-2503 2502 0
-2504 69 2482 2503 0
2504 -69 0
2504 -2482 0
2504 -2503 0
2505 -71 -2504 0
-2505 71 0
-2505 2504 0
-2506 73 2481 2505 0
2506 -73 0
2506 -2481 0
2506 -2505 0
2507 -75 -2506 0
-2507 75 0
-2507 2506 0
-2508 80 2455 2456 2477 2507 1435 0
2508 -80 0
2508 -2455 0
2508 -2456 0
2508 -2477 0
2508 -2507 0
2508 -1435 0
2509 -89 -2508 0
-2509 89 0
-2509 2508 0
2510 -82 -2093 0
-2510 82 0
-2510 2093 0
-2511 121 2510 83 0
2511 -121 0
2511 -2510 0
2511 -83 0
2512 -123 -2511 0
-2512 123 0
-2512 2511 0
-2513 22 186 91 0
2513 -22 0
2513 -186 0
2513 -91 0
2514 -24 -2513 0
-2514 24 0
-2514 2513 0
-2515 40 192 37 0
2515 -40 0
2515 -192 0
2515 -37 0
2516 -42 -2515 0
-2516 42 0
-2516 2515 0
-2517 60 2516 57 0
2517 -60 0
2517 -2516 0
2517 -57 0
2518 -62 -2517 0
-2518 62 0
-2518 2517 0
2519 -67 -2517 0
-2519 67 0
-2519 2517 0
-2520 69 2519 0
2520 -69 0
2520 -2519 0
2521 -71 -2520 0
-2521 71 0
-2521 2520 0
-2522 73 63 2521 0
2522 -73 0
2522 -63 0
2522 -2521 0
2523 -75 -2522 0
-2523 75 0
-2523 2522 0
-2524 80 2514 2518 2523 76 0
2524 -80 0
2524 -2514 0
2524 -2518 0
2524 -2523 0
2524 -76 0
2525 -146 -2524 0
-2525 146 0
-2525 2524 0
-2526 80 2514 196 201 76 0
2526 -80 0
2526 -2514 0
2526 -196 0
2526 -201 0
2526 -76 0
2527 -112 -2526 0
-2527 112 0
-2527 2526 0
-2528 3 2527 0
2528 -3 0
2528 -2527 0
2529 -2 -2528 0
-2529 2 0
-2529 2528 0
-2530 5 2525 2529 0
2530 -5 0
2530 -2525 0
2530 -2529 0
2531 -162 -2530 0
-2531 162 0
-2531 2530 0
-2532 80 787 2518 2523 76 0
2532 -80 0
2532 -787 0
2532 -2518 0
2532 -2523 0
2532 -76 0
2533 -170 -2532 0
-2533 170 0
-2533 2532 0
-2534 176 2533 171 173 0
2534 -176 0
2534 -2533 0
2534 -171 0
2534 -173 0
2535 -178 -2534 0
-2535 178 0
-2535 2534 0
2536 -180 -2511 0
-2536 180 0
-2536 2511 0
-2537 216 2536 1359 0
2537 -216 0
2537 -2536 0
2537 -1359 0
2538 -218 -2537 0
-2538 218 0
-2538 2537 0
2539 -82 -2172 0
-2539 82 0
-2539 2172 0
-2540 121 2539 83 0
2540 -121 0
2540 -2539 0
2540 -83 0
2541 -134 -2540 0
-2541 134 0
-2541 2540 0
-2542 80 2514 221 76 0
2542 -80 0
2542 -2514 0
2542 -221 0
2542 -76 0
2543 -146 -2542 0
-2543 146 0
-2543 2542 0
2544 -112 -2542 0
-2544 112 0
-2544 2542 0
-2545 3 2544 0
2545 -3 0
2545 -2544 0
2546 -2 -2545 0
-2546 2 0
-2546 2545 0
-2547 5 2543 2546 0
2547 -5 0
2547 -2543 0
2547 -2546 0
2548 -38 -2547 0
-2548 38 0
-2548 2547 0
-2549 40 2541 2548 0
2549 -40 0
2549 -2541 0
2549 -2548 0
2550 -42 -2549 0
-2550 42 0
-2550 2549 0
2551 -44 -2547 0
-2551 44 0
-2551 2547 0
-2552 80 787 221 76 0
2552 -80 0
2552 -787 0
2552 -221 0
2552 -76 0
2553 -248 -2552 0
-2553 248 0
-2553 2552 0
2554 -250 -2552 0
-2554 250 0
-2554 2552 0
-2555 50 2554 0
2555 -50 0
2555 -2554 0
2556 -49 -2555 0
-2556 49 0
-2556 2555 0
-2557 52 2553 45 2556 0
2557 -52 0
2557 -2553 0
2557 -45 0
2557 -2556 0
2558 -54 -2557 0
-2558 54 0
-2558 2557 0
-2559 56 2551 2558 0
2559 -56 0
2559 -2551 0
2559 -2558 0
2560 -58 -2559 0
-2560 58 0
-2560 2559 0
-2561 60 2550 2560 0
2561 -60 0
2561 -2550 0
2561 -2560 0
2562 -259 -2561 0
-2562 259 0
-2562 2561 0
2563 -82 -2243 0
-2563 82 0
-2563 2243 0
-2564 121 2563 83 0
2564 -121 0
2564 -2563 0
2564 -83 0
2565 -134 -2564 0
-2565 134 0
-2565 2564 0
-2566 80 2514 76 0
2566 -80 0
2566 -2514 0
2566 -76 0
2567 -146 -2566 0
-2567 146 0
-2567 2566 0
2568 -112 -2566 0
-2568 112 0
-2568 2566 0
-2569 3 2568 0
2569 -3 0
2569 -2568 0
2570 -2 -2569 0
-2570 2 0
-2570 2569 0
-2571 5 2567 2570 0
2571 -5 0
2571 -2567 0
2571 -2570 0
2572 -38 -2571 0
-2572 38 0
-2572 2571 0
-2573 40 2565 2572 0
2573 -40 0
2573 -2565 0
2573 -2572 0
2574 -42 -2573 0
-2574 42 0
-2574 2573 0
2575 -44 -2571 0
-2575 44 0
-2575 2571 0
-2576 80 787 76 0
2576 -80 0
2576 -787 0
2576 -76 0
2577 -248 -2576 0
-2577 248 0
-2577 2576 0
2578 -250 -2576 0
-2578 250 0
-2578 2576 0
-2579 50 2578 0
2579 -50 0
2579 -2578 0
2580 -49 -2579 0
-2580 49 0
-2580 2579 0
-2581 52 2577 45 2580 0
2581 -52 0
2581 -2577 0
2581 -45 0
2581 -2580 0
2582 -54 -2581 0
-2582 54 0
-2582 2581 0
-2583 56 2575 2582 0
2583 -56 0
2583 -2575 0
2583 -2582 0
2584 -58 -2583 0
-2584 58 0
-2584 2583 0
-2585 60 2574 2584 0
2585 -60 0
2585 -2574 0
2585 -2584 0
2586 -67 -2585 0
-2586 67 0
-2586 2585 0
-2587 69 2586 0
2587 -69 0
2587 -2586 0
2588 -71 -2587 0
-2588 71 0
-2588 2587 0
-2589 73 63 2588 0
2589 -73 0
2589 -63 0
2589 -2588 0
2590 -299 -2589 0
-2590 299 0
-2590 2589 0
2591 -331 -2561 0
-2591 331 0
-2591 2561 0
-2592 333 2591 0
2592 -333 0
2592 -2591 0
2593 -335 -2592 0
-2593 335 0
-2593 2592 0
-2594 337 2512 2531 2535 2538 2562 2590 326 328 2593 0
2594 -337 0
2594 -2512 0
2594 -2531 0
2594 -2535 0
2594 -2538 0
2594 -2562 0
2594 -2590 0
2594 -326 0
2594 -328 0
2594 -2593 0
2595 -339 -2594 0
-2595 339 0
-2595 2594 0
2596 -259 -2517 0
-2596 259 0
-2596 2517 0
2597 -299 -2522 0
-2597 299 0
-2597 2522 0
2598 -331 -2517 0
-2598 331 0
-2598 2517 0
-2599 333 2598 0
2599 -333 0
2599 -2598 0
2600 -335 -2599 0
-2600 335 0
-2600 2599 0
-2601 337 506 341 343 1361 2596 2597 352 326 328 2600 0
2601 -337 0
2601 -506 0
2601 -341 0
2601 -343 0
2601 -1361 0
2601 -2596 0
2601 -2597 0
2601 -352 0
2601 -326 0
2601 -328 0
2601 -2600 0
2602 -358 -2601 0
-2602 358 0
-2602 2601 0
-2603 337 506 341 343 1361 364 369 352 326 328 372 0
2603 -337 0
2603 -506 0
2603 -341 0
2603 -343 0
2603 -1361 0
2603 -364 0
2603 -369 0
2603 -352 0
2603 -326 0
2603 -328 0
2603 -372 0
2604 -375 -2603 0
-2604 375 0
-2604 2603 0
-2605 47 2604 0
2605 -47 0
2605 -2604 0
2606 -84 -2605 0
-2606 84 0
-2606 2605 0
-2607 121 2606 0
2607 -121 0
2607 -2606 0
2608 -127 -2607 0
-2608 127 0
-2608 2607 0
-2609 22 2602 6 2608 91 0
2609 -22 0
2609 -2602 0
2609 -6 0
2609 -2608 0
2609 -91 0
2610 -24 -2609 0
-2610 24 0
-2610 2609 0
2611 -383 -2601 0
-2611 383 0
-2611 2601 0
2612 -84 -1837 0
-2612 84 0
-2612 1837 0
-2613 121 2612 0
2613 -121 0
2613 -2612 0
2614 -134 -2613 0
-2614 134 0
-2614 2613 0
-2615 40 2614 37 0
2615 -40 0
2615 -2614 0
2615 -37 0
2616 -42 -2615 0
-2616 42 0
-2616 2615 0
-2617 60 2616 1845 0
2617 -60 0
2617 -2616 0
2617 -1845 0
2618 -62 -2617 0
-2618 62 0
-2618 2617 0
-2619 337 506 341 343 1361 2596 352 326 328 2600 0
2619 -337 0
2619 -506 0
2619 -341 0
2619 -343 0
2619 -1361 0
2619 -2596 0
2619 -352 0
2619 -326 0
2619 -328 0
2619 -2600 0
2620 -412 -2619 0
-2620 412 0
-2620 2619 0
-2621 65 2620 0
2621 -65 0
2621 -2620 0
2622 -64 -2621 0
-2622 64 0
-2622 2621 0
2623 -416 -2619 0
-2623 416 0
-2623 2619 0
2624 -84 -1854 0
-2624 84 0
-2624 1854 0
-2625 121 2624 0
2625 -121 0
2625 -2624 0
2626 -134 -2625 0
-2626 134 0
-2626 2625 0
-2627 40 2626 37 0
2627 -40 0
2627 -2626 0
2627 -37 0
2628 -42 -2627 0
-2628 42 0
-2628 2627 0
-2629 60 2628 1862 0
2629 -60 0
2629 -2628 0
2629 -1862 0
2630 -67 -2629 0
-2630 67 0
-2630 2629 0
-2631 69 2623 2630 0
2631 -69 0
2631 -2623 0
2631 -2630 0
2632 -71 -2631 0
-2632 71 0
-2632 2631 0
-2633 73 2622 2632 0
2633 -73 0
2633 -2622 0
2633 -2632 0
2634 -75 -2633 0
-2634 75 0
-2634 2633 0
-2635 80 2610 2611 2618 2634 76 0
2635 -80 0
2635 -2610 0
2635 -2611 0
2635 -2618 0
2635 -2634 0
2635 -76 0
2636 -441 -2635 0
-2636 441 0
-2636 2635 0
-2637 600 2595 2636 625 0
2637 -600 0
2637 -2595 0
2637 -2636 0
2637 -625 0
2638 -615 -2637 0
-2638 615 0
-2638 2637 0
2639 -613 -1923 0
-2639 613 0
-2639 1923 0
-2640 121 956 83 0
2640 -121 0
2640 -956 0
2640 -83 0
2641 -123 -2640 0
-2641 123 0
-2641 2640 0
2642 -180 -2640 0
-2642 180 0
-2642 2640 0
-2643 216 2642 1359 0
2643 -216 0
2643 -2642 0
2643 -1359 0
2644 -218 -2643 0
-2644 218 0
-2644 2643 0
2645 -134 -2640 0
-2645 134 0
-2645 2640 0
-2646 40 2645 97 0
2646 -40 0
2646 -2645 0
2646 -97 0
2647 -42 -2646 0
-2647 42 0
-2647 2646 0
-2648 60 2647 102 0
2648 -60 0
2648 -2647 0
2648 -102 0
2649 -259 -2648 0
-2649 259 0
-2649 2648 0
2650 -67 -2648 0
-2650 67 0
-2650 2648 0
-2651 69 2650 0
2651 -69 0
2651 -2650 0
2652 -71 -2651 0
-2652 71 0
-2652 2651 0
-2653 73 674 2652 0
2653 -73 0
2653 -674 0
2653 -2652 0
2654 -299 -2653 0
-2654 299 0
-2654 2653 0
2655 -331 -2648 0
-2655 331 0
-2655 2648 0
-2656 333 2655 0
2656 -333 0
2656 -2655 0
2657 -335 -2656 0
-2657 335 0
-2657 2656 0
-2658 337 2641 507 1875 2644 2649 2654 326 1782 2657 0
2658 -337 0
2658 -2641 0
2658 -507 0
2658 -1875 0
2658 -2644 0
2658 -2649 0
2658 -2654 0
2658 -326 0
2658 -1782 0
2658 -2657 0
2659 -358 -2658 0
-2659 358 0
-2659 2658 0
2660 -339 -1881 0
-2660 339 0
-2660 1881 0
-2661 600 2660 625 0
2661 -600 0
2661 -2660 0
2661 -625 0
2662 -609 -2661 0
-2662 609 0
-2662 2661 0
2663 -299 -1745 0
-2663 299 0
-2663 1745 0
-2664 337 507 1875 1779 521 2663 326 1782 529 0
2664 -337 0
2664 -507 0
2664 -1875 0
2664 -1779 0
2664 -521 0
2664 -2663 0
2664 -326 0
2664 -1782 0
2664 -529 0
2665 -375 -2664 0
-2665 375 0
-2665 2664 0
-2666 47 2665 0
2666 -47 0
2666 -2665 0
2667 -84 -2666 0
-2667 84 0
-2667 2666 0
-2668 121 2662 2667 0
2668 -121 0
2668 -2662 0
2668 -2667 0
2669 -127 -2668 0
-2669 127 0
-2669 2668 0
-2670 22 2639 2659 90 2669 91 0
2670 -22 0
2670 -2639 0
2670 -2659 0
2670 -90 0
2670 -2669 0
2670 -91 0
2671 -24 -2670 0
-2671 24 0
-2671 2670 0
2672 -383 -2658 0
-2672 383 0
-2672 2658 0
2673 -339 -1883 0
-2673 339 0
-2673 1883 0
-2674 600 2673 625 0
2674 -600 0
2674 -2673 0
2674 -625 0
2675 -609 -2674 0
-2675 609 0
-2675 2674 0
2676 -84 -1885 0
-2676 84 0
-2676 1885 0
-2677 121 2675 2676 0
2677 -121 0
2677 -2675 0
2677 -2676 0
2678 -134 -2677 0
-2678 134 0
-2678 2677 0
-2679 40 2678 97 0
2679 -40 0
2679 -2678 0
2679 -97 0
2680 -42 -2679 0
-2680 42 0
-2680 2679 0
-2681 337 2641 507 1875 2644 1785 326 1782 390 0
2681 -337 0
2681 -2641 0
2681 -507 0
2681 -1875 0
2681 -2644 0
2681 -1785 0
2681 -326 0
2681 -1782 0
2681 -390 0
2682 -375 -2681 0
-2682 375 0
-2682 2681 0
-2683 47 2682 0
2683 -47 0
2683 -2682 0
2684 -46 -2683 0
-2684 46 0
-2684 2683 0
2685 -401 -2681 0
-2685 401 0
-2685 2681 0
-2686 50 2685 0
2686 -50 0
2686 -2685 0
2687 -49 -2686 0
-2687 49 0
-2687 2686 0
-2688 52 2684 2687 0
2688 -52 0
2688 -2684 0
2688 -2687 0
2689 -54 -2688 0
-2689 54 0
-2689 2688 0
-2690 56 100 2689 0
2690 -56 0
2690 -100 0
2690 -2689 0
2691 -58 -2690 0
-2691 58 0
-2691 2690 0
-2692 60 2680 2691 0
2692 -60 0
2692 -2680 0
2692 -2691 0
2693 -62 -2692 0
-2693 62 0
-2693 2692 0
-2694 337 2641 507 1875 2644 2649 326 1782 2657 0
2694 -337 0
2694 -2641 0
2694 -507 0
2694 -1875 0
2694 -2644 0
2694 -2649 0
2694 -326 0
2694 -1782 0
2694 -2657 0
2695 -412 -2694 0
-2695 412 0
-2695 2694 0
2696 -339 -2694 0
-2696 339 0
-2696 2694 0
-2697 600 2696 625 0
2697 -600 0
2697 -2696 0
2697 -625 0
2698 -635 -2697 0
-2698 635 0
-2698 2697 0
-2699 65 2695 2698 0
2699 -65 0
2699 -2695 0
2699 -2698 0
2700 -64 -2699 0
-2700 64 0
-2700 2699 0
2701 -416 -2694 0
-2701 416 0
-2701 2694 0
2702 -339 -1904 0
-2702 339 0
-2702 1904 0
-2703 600 2702 625 0
2703 -600 0
2703 -2702 0
2703 -625 0
2704 -609 -2703 0
-2704 609 0
-2704 2703 0
2705 -84 -1906 0
-2705 84 0
-2705 1906 0
-2706 121 2704 2705 0
2706 -121 0
2706 -2704 0
2706 -2705 0
2707 -134 -2706 0
-2707 134 0
-2707 2706 0
-2708 40 2707 97 0
2708 -40 0
2708 -2707 0
2708 -97 0
2709 -42 -2708 0
-2709 42 0
-2709 2708 0
-2710 337 2641 507 1875 2644 326 1782 390 0
2710 -337 0
2710 -2641 0
2710 -507 0
2710 -1875 0
2710 -2644 0
2710 -326 0
2710 -1782 0
2710 -390 0
2711 -375 -2710 0
-2711 375 0
-2711 2710 0
-2712 47 2711 0
2712 -47 0
2712 -2711 0
2713 -46 -2712 0
-2713 46 0
-2713 2712 0
2714 -401 -2710 0
-2714 401 0
-2714 2710 0
-2715 50 2714 0
2715 -50 0
2715 -2714 0
2716 -49 -2715 0
-2716 49 0
-2716 2715 0
-2717 52 2713 2716 0
2717 -52 0
2717 -2713 0
2717 -2716 0
2718 -54 -2717 0
-2718 54 0
-2718 2717 0
-2719 56 100 2718 0
2719 -56 0
2719 -100 0
2719 -2718 0
2720 -58 -2719 0
-2720 58 0
-2720 2719 0
-2721 60 2709 2720 0
2721 -60 0
2721 -2709 0
2721 -2720 0
2722 -67 -2721 0
-2722 67 0
-2722 2721 0
-2723 69 2701 2722 0
2723 -69 0
2723 -2701 0
2723 -2722 0
2724 -71 -2723 0
-2724 71 0
-2724 2723 0
-2725 73 2700 2724 0
2725 -73 0
2725 -2700 0
2725 -2724 0
2726 -75 -2725 0
-2726 75 0
-2726 2725 0
-2727 80 2671 2672 2693 2726 1926 0
2727 -80 0
2727 -2671 0
2727 -2672 0
2727 -2693 0
2727 -2726 0
2727 -1926 0
2728 -112 -2727 0
-2728 112 0
-2728 2727 0
-2729 3 2728 0
2729 -3 0
2729 -2728 0
2730 -12 -2729 0
-2730 12 0
-2730 2729 0
-2731 14 2638 8 2730 0
2731 -14 0
2731 -2638 0
2731 -8 0
2731 -2730 0
2732 -28 -2731 0
-2732 28 0
-2732 2731 0
-2733 30 2509 2732 0
2733 -30 0
2733 -2509 0
2733 -2732 0
2734 -32 -2733 0
-2734 32 0
-2734 2733 0
-2735 34 2073 2318 2418 2734 0
2735 -34 0
2735 -2073 0
2735 -2318 0
2735 -2418 0
2735 -2734 0
2736 -2737 -2735 0
-2736 2737 0
-2736 2735 0
2738 -358 -1347 0
-2738 358 0
-2738 1347 0
2739 -299 -1648 0
-2739 299 0
-2739 1648 0
-2740 337 341 1331 1353 364 2739 1342 326 1343 372 0
2740 -337 0
2740 -341 0
2740 -1331 0
2740 -1353 0
2740 -364 0
2740 -2739 0
2740 -1342 0
2740 -326 0
2740 -1343 0
2740 -372 0
2741 -375 -2740 0
-2741 375 0
-2741 2740 0
-2742 47 2741 0
2742 -47 0
2742 -2741 0
2743 -84 -2742 0
-2743 84 0
-2743 2742 0
2744 -339 -1834 0
-2744 339 0
-2744 1834 0
-2745 600 2744 625 0
2745 -600 0
2745 -2744 0
2745 -625 0
2746 -615 -2745 0
-2746 615 0
-2746 2745 0
-2747 14 2746 8 11 0
2747 -14 0
2747 -2746 0
2747 -8 0
2747 -11 0
2748 -28 -2747 0
-2748 28 0
-2748 2747 0
-2749 30 2748 0
2749 -30 0
2749 -2748 0
2750 -119 -2749 0
-2750 119 0
-2750 2749 0
-2751 121 2440 2743 2750 0
2751 -121 0
2751 -2440 0
2751 -2743 0
2751 -2750 0
2752 -127 -2751 0
-2752 127 0
-2752 2751 0
-2753 22 2419 2738 2752 2453 0
2753 -22 0
2753 -2419 0
2753 -2738 0
2753 -2752 0
2753 -2453 0
2754 -24 -2753 0
-2754 24 0
-2754 2753 0
2755 -26 -2753 0
-2755 26 0
-2755 2753 0
2756 -386 -1347 0
-2756 386 0
-2756 1347 0
2757 -624 -1432 0
-2757 624 0
-2757 1432 0
2758 -339 -2601 0
-2758 339 0
-2758 2601 0
-2759 600 2758 625 0
2759 -600 0
2759 -2758 0
2759 -625 0
2760 -615 -2759 0
-2760 615 0
-2760 2759 0
-2761 14 2760 8 11 0
2761 -14 0
2761 -2760 0
2761 -8 0
2761 -11 0
2762 -28 -2761 0
-2762 28 0
-2762 2761 0
-2763 30 2762 0
2763 -30 0
2763 -2762 0
2764 -32 -2763 0
-2764 32 0
-2764 2763 0
-2765 34 2755 2756 2757 2764 0
2765 -34 0
2765 -2755 0
2765 -2756 0
2765 -2757 0
2765 -2764 0
2766 -36 -2765 0
-2766 36 0
-2766 2765 0
-2767 80 2754 1348 2766 1386 1430 1435 0
2767 -80 0
2767 -2754 0
2767 -1348 0
2767 -2766 0
2767 -1386 0
2767 -1430 0
2767 -1435 0
2768 -146 -2767 0
-2768 146 0
-2768 2767 0
2769 -613 -1531 0
-2769 613 0
-2769 1531 0
2770 -358 -1443 0
-2770 358 0
-2770 1443 0
2771 -609 -1531 0
-2771 609 0
-2771 1531 0
2772 -299 -1653 0
-2772 299 0
-2772 1653 0
-2773 337 507 1331 1353 521 2772 1342 326 1343 529 0
2773 -337 0
2773 -507 0
2773 -1331 0
2773 -1353 0
2773 -521 0
2773 -2772 0
2773 -1342 0
2773 -326 0
2773 -1343 0
2773 -529 0
2774 -375 -2773 0
-2774 375 0
-2774 2773 0
-2775 47 2774 0
2775 -47 0
2775 -2774 0
2776 -84 -2775 0
-2776 84 0
-2776 2775 0
2777 -615 -2661 0
-2777 615 0
-2777 2661 0
-2778 14 2777 8 11 0
2778 -14 0
2778 -2777 0
2778 -8 0
2778 -11 0
2779 -28 -2778 0
-2779 28 0
-2779 2778 0
-2780 30 2779 0
2780 -30 0
2780 -2779 0
2781 -119 -2780 0
-2781 119 0
-2781 2780 0
-2782 121 2771 2776 2781 0
2782 -121 0
2782 -2771 0
2782 -2776 0
2782 -2781 0
2783 -127 -2782 0
-2783 127 0
-2783 2782 0
2784 -615 -1531 0
-2784 615 0
-2784 1531 0
-2785 14 2784 8 11 0
2785 -14 0
2785 -2784 0
2785 -8 0
2785 -11 0
2786 -16 -2785 0
-2786 16 0
-2786 2785 0
-2787 18 2786 0
2787 -18 0
2787 -2786 0
2788 -20 -2787 0
-2788 20 0
-2788 2787 0
-2789 22 2769 2770 2783 2788 0
2789 -22 0
2789 -2769 0
2789 -2770 0
2789 -2783 0
2789 -2788 0
2790 -24 -2789 0
-2790 24 0
-2790 2789 0
2791 -26 -2789 0
-2791 26 0
-2791 2789 0
2792 -386 -1443 0
-2792 386 0
-2792 1443 0
2793 -624 -1531 0
-2793 624 0
-2793 1531 0
2794 -615 -1923 0
-2794 615 0
-2794 1923 0
-2795 14 2794 8 11 0
2795 -14 0
2795 -2794 0
2795 -8 0
2795 -11 0
2796 -28 -2795 0
-2796 28 0
-2796 2795 0
-2797 30 2796 0
2797 -30 0
2797 -2796 0
2798 -32 -2797 0
-2798 32 0
-2798 2797 0
-2799 34 2791 2792 2793 2798 0
2799 -34 0
2799 -2791 0
2799 -2792 0
2799 -2793 0
2799 -2798 0
2800 -36 -2799 0
-2800 36 0
-2800 2799 0
-2801 80 2790 1444 2800 1477 1527 1534 0
2801 -80 0
2801 -2790 0
2801 -1444 0
2801 -2800 0
2801 -1477 0
2801 -1527 0
2801 -1534 0
2802 -112 -2801 0
-2802 112 0
-2802 2801 0
-2803 3 2802 0
2803 -3 0
2803 -2802 0
2804 -2 -2803 0
-2804 2 0
-2804 2803 0
-2805 5 2768 2804 0
2805 -5 0
2805 -2768 0
2805 -2804 0
2806 -2807 -2805 0
-2806 2807 0
-2806 2805 0
2808 -339 -444 0
-2808 339 0
-2808 444 0
-2809 600 2808 0
2809 -600 0
2809 -2808 0
2810 -613 -2809 0
-2810 613 0
-2810 2809 0
2811 -123 -755 0
-2811 123 0
-2811 755 0
2812 -730 -600 0
-2812 730 0
-2812 600 0
-2813 176 2812 171 173 0
2813 -176 0
2813 -2812 0
2813 -171 0
2813 -173 0
2814 -178 -2813 0
-2814 178 0
-2814 2813 0
2815 -180 -755 0
-2815 180 0
-2815 755 0
-2816 216 2815 0
2816 -216 0
2816 -2815 0
2817 -218 -2816 0
-2817 218 0
-2817 2816 0
2818 -259 -771 0
-2818 259 0
-2818 771 0
2819 -299 -779 0
-2819 299 0
-2819 779 0
2820 -325 -758 0
-2820 325 0
-2820 758 0
2821 -329 -782 0
-2821 329 0
-2821 782 0
2822 -331 -771 0
-2822 331 0
-2822 771 0
-2823 333 2822 0
2823 -333 0
2823 -2822 0
2824 -335 -2823 0
-2824 335 0
-2824 2823 0
-2825 337 2811 341 2814 2817 2818 2819 2820 326 2821 2824 0
2825 -337 0
2825 -2811 0
2825 -341 0
2825 -2814 0
2825 -2817 0
2825 -2818 0
2825 -2819 0
2825 -2820 0
2825 -326 0
2825 -2821 0
2825 -2824 0
2826 -358 -2825 0
-2826 358 0
-2826 2825 0
2827 -609 -2809 0
-2827 609 0
-2827 2809 0
2828 -299 -1681 0
-2828 299 0
-2828 1681 0
-2829 337 341 2814 1779 364 2828 2820 326 2821 372 0
2829 -337 0
2829 -341 0
2829 -2814 0
2829 -1779 0
2829 -364 0
2829 -2828 0
2829 -2820 0
2829 -326 0
2829 -2821 0
2829 -372 0
2830 -375 -2829 0
-2830 375 0
-2830 2829 0
-2831 47 2830 0
2831 -47 0
2831 -2830 0
2832 -84 -2831 0
-2832 84 0
-2832 2831 0
-2833 121 2827 2832 0
2833 -121 0
2833 -2827 0
2833 -2832 0
2834 -127 -2833 0
-2834 127 0
-2834 2833 0
2835 -615 -2809 0
-2835 615 0
-2835 2809 0
-2836 14 2835 8 11 0
2836 -14 0
2836 -2835 0
2836 -8 0
2836 -11 0
2837 -16 -2836 0
-2837 16 0
-2837 2836 0
-2838 18 2837 0
2838 -18 0
2838 -2837 0
2839 -20 -2838 0
-2839 20 0
-2839 2838 0
-2840 22 2810 2826 6 2834 2839 0
2840 -22 0
2840 -2810 0
2840 -2826 0
2840 -6 0
2840 -2834 0
2840 -2839 0
2841 -24 -2840 0
-2841 24 0
-2841 2840 0
2842 -383 -2825 0
-2842 383 0
-2842 2825 0
2843 -26 -2840 0
-2843 26 0
-2843 2840 0
2844 -386 -2825 0
-2844 386 0
-2844 2825 0
2845 -624 -2809 0
-2845 624 0
-2845 2809 0
-2846 34 2843 2844 2845 0
2846 -34 0
2846 -2843 0
2846 -2844 0
2846 -2845 0
2847 -36 -2846 0
-2847 36 0
-2847 2846 0
2848 -339 -459 0
-2848 339 0
-2848 459 0
-2849 600 2848 0
2849 -600 0
2849 -2848 0
2850 -609 -2849 0
-2850 609 0
-2850 2849 0
-2851 73 775 219 0
2851 -73 0
2851 -775 0
2851 -219 0
2852 -299 -2851 0
-2852 299 0
-2852 2851 0
-2853 337 341 2814 1779 2852 2820 326 2821 390 0
2853 -337 0
2853 -341 0
2853 -2814 0
2853 -1779 0
2853 -2852 0
2853 -2820 0
2853 -326 0
2853 -2821 0
2853 -390 0
2854 -375 -2853 0
-2854 375 0
-2854 2853 0
-2855 47 2854 0
2855 -47 0
2855 -2854 0
2856 -84 -2855 0
-2856 84 0
-2856 2855 0
-2857 121 2850 2856 0
2857 -121 0
2857 -2850 0
2857 -2856 0
2858 -134 -2857 0
-2858 134 0
-2858 2857 0
-2859 40 2858 37 0
2859 -40 0
2859 -2858 0
2859 -37 0
2860 -42 -2859 0
-2860 42 0
-2860 2859 0
-2861 337 2811 341 2814 2817 2852 2820 326 2821 390 0
2861 -337 0
2861 -2811 0
2861 -341 0
2861 -2814 0
2861 -2817 0
2861 -2852 0
2861 -2820 0
2861 -326 0
2861 -2821 0
2861 -390 0
2862 -375 -2861 0
-2862 375 0
-2862 2861 0
-2863 47 2862 0
2863 -47 0
2863 -2862 0
2864 -46 -2863 0
-2864 46 0
-2864 2863 0
2865 -401 -2861 0
-2865 401 0
-2865 2861 0
-2866 50 2865 0
2866 -50 0
2866 -2865 0
2867 -49 -2866 0
-2867 49 0
-2867 2866 0
-2868 52 2864 2867 0
2868 -52 0
2868 -2864 0
2868 -2867 0
2869 -54 -2868 0
-2869 54 0
-2869 2868 0
-2870 56 43 2869 0
2870 -56 0
2870 -43 0
2870 -2869 0
2871 -58 -2870 0
-2871 58 0
-2871 2870 0
-2872 60 2860 2871 0
2872 -60 0
2872 -2860 0
2872 -2871 0
2873 -62 -2872 0
-2873 62 0
-2873 2872 0
-2874 337 2811 341 2814 2817 2818 2820 326 2821 2824 0
2874 -337 0
2874 -2811 0
2874 -341 0
2874 -2814 0
2874 -2817 0
2874 -2818 0
2874 -2820 0
2874 -326 0
2874 -2821 0
2874 -2824 0
2875 -412 -2874 0
-2875 412 0
-2875 2874 0
2876 -339 -477 0
-2876 339 0
-2876 477 0
-2877 600 2876 0
2877 -600 0
2877 -2876 0
2878 -635 -2877 0
-2878 635 0
-2878 2877 0
-2879 65 2875 2878 0
2879 -65 0
2879 -2875 0
2879 -2878 0
2880 -64 -2879 0
-2880 64 0
-2880 2879 0
2881 -416 -2874 0
-2881 416 0
-2881 2874 0
2882 -339 -482 0
-2882 339 0
-2882 482 0
-2883 600 2882 0
2883 -600 0
2883 -2882 0
2884 -609 -2883 0
-2884 609 0
-2884 2883 0
-2885 337 341 2814 1779 2820 326 2821 390 0
2885 -337 0
2885 -341 0
2885 -2814 0
2885 -1779 0
2885 -2820 0
2885 -326 0
2885 -2821 0
2885 -390 0
2886 -375 -2885 0
-2886 375 0
-2886 2885 0
-2887 47 2886 0
2887 -47 0
2887 -2886 0
2888 -84 -2887 0
-2888 84 0
-2888 2887 0
-2889 121 2884 2888 0
2889 -121 0
2889 -2884 0
2889 -2888 0
2890 -134 -2889 0
-2890 134 0
-2890 2889 0
-2891 40 2890 37 0
2891 -40 0
2891 -2890 0
2891 -37 0
2892 -42 -2891 0
-2892 42 0
-2892 2891 0
-2893 337 2811 341 2814 2817 2820 326 2821 390 0
2893 -337 0
2893 -2811 0
2893 -341 0
2893 -2814 0
2893 -2817 0
2893 -2820 0
2893 -326 0
2893 -2821 0
2893 -390 0
2894 -375 -2893 0
-2894 375 0
-2894 2893 0
-2895 47 2894 0
2895 -47 0
2895 -2894 0
2896 -46 -2895 0
-2896 46 0
-2896 2895 0
2897 -401 -2893 0
-2897 401 0
-2897 2893 0
-2898 50 2897 0
2898 -50 0
2898 -2897 0
2899 -49 -2898 0
-2899 49 0
-2899 2898 0
-2900 52 2896 2899 0
2900 -52 0
2900 -2896 0
2900 -2899 0
2901 -54 -2900 0
-2901 54 0
-2901 2900 0
-2902 56 43 2901 0
2902 -56 0
2902 -43 0
2902 -2901 0
2903 -58 -2902 0
-2903 58 0
-2903 2902 0
-2904 60 2892 2903 0
2904 -60 0
2904 -2892 0
2904 -2903 0
2905 -67 -2904 0
-2905 67 0
-2905 2904 0
-2906 69 2881 2905 0
2906 -69 0
2906 -2881 0
2906 -2905 0
2907 -71 -2906 0
-2907 71 0
-2907 2906 0
-2908 73 2880 2907 0
2908 -73 0
2908 -2880 0
2908 -2907 0
2909 -75 -2908 0
-2909 75 0
-2909 2908 0
2910 -641 -2809 0
-2910 641 0
-2910 2809 0
-2911 78 2910 0
2911 -78 0
2911 -2910 0
2912 -77 -2911 0
-2912 77 0
-2912 2911 0
-2913 80 2841 2842 2847 2873 2909 2912 0
2913 -80 0
2913 -2841 0
2913 -2842 0
2913 -2847 0
2913 -2873 0
2913 -2909 0
2913 -2912 0
2914 -89 -2913 0
-2914 89 0
-2914 2913 0
2915 -82 -661 0
-2915 82 0
-2915 661 0
-2916 121 2915 83 0
2916 -121 0
2916 -2915 0
2916 -83 0
2917 -123 -2916 0
-2917 123 0
-2917 2916 0
2918 -26 -2513 0
-2918 26 0
-2918 2513 0
-2919 34 2918 0
2919 -34 0
2919 -2918 0
2920 -36 -2919 0
-2920 36 0
-2920 2919 0
-2921 80 2514 2920 772 780 76 0
2921 -80 0
2921 -2514 0
2921 -2920 0
2921 -772 0
2921 -780 0
2921 -76 0
2922 -146 -2921 0
-2922 146 0
-2922 2921 0
-2923 80 2514 2920 196 201 76 0
2923 -80 0
2923 -2514 0
2923 -2920 0
2923 -196 0
2923 -201 0
2923 -76 0
2924 -112 -2923 0
-2924 112 0
-2924 2923 0
-2925 3 2924 0
2925 -3 0
2925 -2924 0
2926 -2 -2925 0
-2926 2 0
-2926 2925 0
-2927 5 2922 2926 0
2927 -5 0
2927 -2922 0
2927 -2926 0
2928 -162 -2927 0
-2928 162 0
-2928 2927 0
2929 -170 -791 0
-2929 170 0
-2929 791 0
-2930 176 2929 171 173 0
2930 -176 0
2930 -2929 0
2930 -171 0
2930 -173 0
2931 -178 -2930 0
-2931 178 0
-2931 2930 0
2932 -180 -2916 0
-2932 180 0
-2932 2916 0
-2933 216 2932 0
2933 -216 0
2933 -2932 0
2934 -218 -2933 0
-2934 218 0
-2934 2933 0
2935 -82 -835 0
-2935 82 0
-2935 835 0
-2936 121 2935 83 0
2936 -121 0
2936 -2935 0
2936 -83 0
2937 -134 -2936 0
-2937 134 0
-2937 2936 0
-2938 80 2514 2920 221 76 0
2938 -80 0
2938 -2514 0
2938 -2920 0
2938 -221 0
2938 -76 0
2939 -146 -2938 0
-2939 146 0
-2939 2938 0
2940 -112 -2938 0
-2940 112 0
-2940 2938 0
-2941 3 2940 0
2941 -3 0
2941 -2940 0
2942 -2 -2941 0
-2942 2 0
-2942 2941 0
-2943 5 2939 2942 0
2943 -5 0
2943 -2939 0
2943 -2942 0
2944 -38 -2943 0
-2944 38 0
-2944 2943 0
-2945 40 2937 2944 0
2945 -40 0
2945 -2937 0
2945 -2944 0
2946 -42 -2945 0
-2946 42 0
-2946 2945 0
2947 -44 -2943 0
-2947 44 0
-2947 2943 0
-2948 80 787 790 221 76 0
2948 -80 0
2948 -787 0
2948 -790 0
2948 -221 0
2948 -76 0
2949 -248 -2948 0
-2949 248 0
-2949 2948 0
2950 -250 -2948 0
-2950 250 0
-2950 2948 0
-2951 50 2950 0
2951 -50 0
2951 -2950 0
2952 -49 -2951 0
-2952 49 0
-2952 2951 0
-2953 52 2949 45 2952 0
2953 -52 0
2953 -2949 0
2953 -45 0
2953 -2952 0
2954 -54 -2953 0
-2954 54 0
-2954 2953 0
-2955 56 2947 2954 0
2955 -56 0
2955 -2947 0
2955 -2954 0
2956 -58 -2955 0
-2956 58 0
-2956 2955 0
-2957 60 2946 2956 0
2957 -60 0
2957 -2946 0
2957 -2956 0
2958 -259 -2957 0
-2958 259 0
-2958 2957 0
2959 -82 -898 0
-2959 82 0
-2959 898 0
-2960 121 2959 83 0
2960 -121 0
2960 -2959 0
2960 -83 0
2961 -134 -2960 0
-2961 134 0
-2961 2960 0
-2962 80 2514 2920 76 0
2962 -80 0
2962 -2514 0
2962 -2920 0
2962 -76 0
2963 -146 -2962 0
-2963 146 0
-2963 2962 0
2964 -112 -2962 0
-2964 112 0
-2964 2962 0
-2965 3 2964 0
2965 -3 0
2965 -2964 0
2966 -2 -2965 0
-2966 2 0
-2966 2965 0
-2967 5 2963 2966 0
2967 -5 0
2967 -2963 0
2967 -2966 0
2968 -38 -2967 0
-2968 38 0
-2968 2967 0
-2969 40 2961 2968 0
2969 -40 0
2969 -2961 0
2969 -2968 0
2970 -42 -2969 0
-2970 42 0
-2970 2969 0
2971 -44 -2967 0
-2971 44 0
-2971 2967 0
-2972 80 787 790 76 0
2972 -80 0
2972 -787 0
2972 -790 0
2972 -76 0
2973 -248 -2972 0
-2973 248 0
-2973 2972 0
2974 -250 -2972 0
-2974 250 0
-2974 2972 0
-2975 50 2974 0
2975 -50 0
2975 -2974 0
2976 -49 -2975 0
-2976 49 0
-2976 2975 0
-2977 52 2973 45 2976 0
2977 -52 0
2977 -2973 0
2977 -45 0
2977 -2976 0
2978 -54 -2977 0
-2978 54 0
-2978 2977 0
-2979 56 2971 2978 0
2979 -56 0
2979 -2971 0
2979 -2978 0
2980 -58 -2979 0
-2980 58 0
-2980 2979 0
-2981 60 2970 2980 0
2981 -60 0
2981 -2970 0
2981 -2980 0
2982 -67 -2981 0
-2982 67 0
-2982 2981 0
-2983 69 2982 0
2983 -69 0
2983 -2982 0
2984 -71 -2983 0
-2984 71 0
-2984 2983 0
-2985 73 63 2984 0
2985 -73 0
2985 -63 0
2985 -2984 0
2986 -299 -2985 0
-2986 299 0
-2986 2985 0
2987 -331 -2957 0
-2987 331 0
-2987 2957 0
-2988 333 2987 0
2988 -333 0
2988 -2987 0
2989 -335 -2988 0
-2989 335 0
-2989 2988 0
-2990 337 2917 2928 2931 2934 2958 2986 326 328 2989 0
2990 -337 0
2990 -2917 0
2990 -2928 0
2990 -2931 0
2990 -2934 0
2990 -2958 0
2990 -2986 0
2990 -326 0
2990 -328 0
2990 -2989 0
2991 -339 -2990 0
-2991 339 0
-2991 2990 0
2992 -26 -2609 0
-2992 26 0
-2992 2609 0
2993 -386 -2601 0
-2993 386 0
-2993 2601 0
-2994 34 2992 2993 0
2994 -34 0
2994 -2992 0
2994 -2993 0
2995 -36 -2994 0
-2995 36 0
-2995 2994 0
-2996 80 2610 2611 2995 2618 2634 76 0
2996 -80 0
2996 -2610 0
2996 -2611 0
2996 -2995 0
2996 -2618 0
2996 -2634 0
2996 -76 0
2997 -441 -2996 0
-2997 441 0
-2997 2996 0
-2998 600 2991 2997 0
2998 -600 0
2998 -2991 0
2998 -2997 0
2999 -615 -2998 0
-2999 615 0
-2999 2998 0
3000 -339 -516 0
-3000 339 0
-3000 516 0
-3001 600 3000 0
3001 -600 0
3001 -3000 0
3002 -613 -3001 0
-3002 613 0
-3002 3001 0
3003 -259 -802 0
-3003 259 0
-3003 802 0
3004 -299 -807 0
-3004 299 0
-3004 807 0
3005 -331 -802 0
-3005 331 0
-3005 802 0
-3006 333 3005 0
3006 -333 0
3006 -3005 0
3007 -335 -3006 0
-3007 335 0
-3007 3006 0
-3008 337 2811 507 2814 2817 3003 3004 326 2821 3007 0
3008 -337 0
3008 -2811 0
3008 -507 0
3008 -2814 0
3008 -2817 0
3008 -3003 0
3008 -3004 0
3008 -326 0
3008 -2821 0
3008 -3007 0
3009 -358 -3008 0
-3009 358 0
-3009 3008 0
3010 -609 -3001 0
-3010 609 0
-3010 3001 0
3011 -299 -1688 0
-3011 299 0
-3011 1688 0
-3012 337 507 2814 1779 521 3011 326 2821 529 0
3012 -337 0
3012 -507 0
3012 -2814 0
3012 -1779 0
3012 -521 0
3012 -3011 0
3012 -326 0
3012 -2821 0
3012 -529 0
3013 -375 -3012 0
-3013 375 0
-3013 3012 0
-3014 47 3013 0
3014 -47 0
3014 -3013 0
3015 -84 -3014 0
-3015 84 0
-3015 3014 0
-3016 121 3010 3015 0
3016 -121 0
3016 -3010 0
3016 -3015 0
3017 -127 -3016 0
-3017 127 0
-3017 3016 0
-3018 22 3002 3009 90 3017 91 0
3018 -22 0
3018 -3002 0
3018 -3009 0
3018 -90 0
3018 -3017 0
3018 -91 0
3019 -24 -3018 0
-3019 24 0
-3019 3018 0
3020 -383 -3008 0
-3020 383 0
-3020 3008 0
3021 -26 -3018 0
-3021 26 0
-3021 3018 0
3022 -386 -3008 0
-3022 386 0
-3022 3008 0
3023 -624 -3001 0
-3023 624 0
-3023 3001 0
-3024 34 3021 3022 3023 0
3024 -34 0
3024 -3021 0
3024 -3022 0
3024 -3023 0
3025 -36 -3024 0
-3025 36 0
-3025 3024 0
3026 -339 -543 0
-3026 339 0
-3026 543 0
-3027 600 3026 0
3027 -600 0
3027 -3026 0
3028 -609 -3027 0
-3028 609 0
-3028 3027 0
-3029 337 507 2814 1779 2852 326 2821 390 0
3029 -337 0
3029 -507 0
3029 -2814 0
3029 -1779 0
3029 -2852 0
3029 -326 0
3029 -2821 0
3029 -390 0
3030 -375 -3029 0
-3030 375 0
-3030 3029 0
-3031 47 3030 0
3031 -47 0
3031 -3030 0
3032 -84 -3031 0
-3032 84 0
-3032 3031 0
-3033 121 3028 3032 0
3033 -121 0
3033 -3028 0
3033 -3032 0
3034 -134 -3033 0
-3034 134 0
-3034 3033 0
-3035 40 3034 97 0
3035 -40 0
3035 -3034 0
3035 -97 0
3036 -42 -3035 0
-3036 42 0
-3036 3035 0
-3037 337 2811 507 2814 2817 2852 326 2821 390 0
3037 -337 0
3037 -2811 0
3037 -507 0
3037 -2814 0
3037 -2817 0
3037 -2852 0
3037 -326 0
3037 -2821 0
3037 -390 0
3038 -375 -3037 0
-3038 375 0
-3038 3037 0
-3039 47 3038 0
3039 -47 0
3039 -3038 0
3040 -46 -3039 0
-3040 46 0
-3040 3039 0
3041 -401 -3037 0
-3041 401 0
-3041 3037 0
-3042 50 3041 0
3042 -50 0
3042 -3041 0
3043 -49 -3042 0
-3043 49 0
-3043 3042 0
-3044 52 3040 3043 0
3044 -52 0
3044 -3040 0
3044 -3043 0
3045 -54 -3044 0
-3045 54 0
-3045 3044 0
-3046 56 100 3045 0
3046 -56 0
3046 -100 0
3046 -3045 0
3047 -58 -3046 0
-3047 58 0
-3047 3046 0
-3048 60 3036 3047 0
3048 -60 0
3048 -3036 0
3048 -3047 0
3049 -62 -3048 0
-3049 62 0
-3049 3048 0
-3050 337 2811 507 2814 2817 3003 326 2821 3007 0
3050 -337 0
3050 -2811 0
3050 -507 0
3050 -2814 0
3050 -2817 0
3050 -3003 0
3050 -326 0
3050 -2821 0
3050 -3007 0
3051 -412 -3050 0
-3051 412 0
-3051 3050 0
3052 -339 -561 0
-3052 339 0
-3052 561 0
-3053 600 3052 0
3053 -600 0
3053 -3052 0
3054 -635 -3053 0
-3054 635 0
-3054 3053 0
-3055 65 3051 3054 0
3055 -65 0
3055 -3051 0
3055 -3054 0
3056 -64 -3055 0
-3056 64 0
-3056 3055 0
3057 -416 -3050 0
-3057 416 0
-3057 3050 0
3058 -339 -566 0
-3058 339 0
-3058 566 0
-3059 600 3058 0
3059 -600 0
3059 -3058 0
3060 -609 -3059 0
-3060 609 0
-3060 3059 0
-3061 337 507 2814 1779 326 2821 390 0
3061 -337 0
3061 -507 0
3061 -2814 0
3061 -1779 0
3061 -326 0
3061 -2821 0
3061 -390 0
3062 -375 -3061 0
-3062 375 0
-3062 3061 0
-3063 47 3062 0
3063 -47 0
3063 -3062 0
3064 -84 -3063 0
-3064 84 0
-3064 3063 0
-3065 121 3060 3064 0
3065 -121 0
3065 -3060 0
3065 -3064 0
3066 -134 -3065 0
-3066 134 0
-3066 3065 0
-3067 40 3066 97 0
3067 -40 0
3067 -3066 0
3067 -97 0
3068 -42 -3067 0
-3068 42 0
-3068 3067 0
-3069 337 2811 507 2814 2817 326 2821 390 0
3069 -337 0
3069 -2811 0
3069 -507 0
3069 -2814 0
3069 -2817 0
3069 -326 0
3069 -2821 0
3069 -390 0
3070 -375 -3069 0
-3070 375 0
-3070 3069 0
-3071 47 3070 0
3071 -47 0
3071 -3070 0
3072 -46 -3071 0
-3072 46 0
-3072 3071 0
3073 -401 -3069 0
-3073 401 0
-3073 3069 0
-3074 50 3073 0
3074 -50 0
3074 -3073 0
3075 -49 -3074 0
-3075 49 0
-3075 3074 0
-3076 52 3072 3075 0
3076 -52 0
3076 -3072 0
3076 -3075 0
3077 -54 -3076 0
-3077 54 0
-3077 3076 0
-3078 56 100 3077 0
3078 -56 0
3078 -100 0
3078 -3077 0
3079 -58 -3078 0
-3079 58 0
-3079 3078 0
-3080 60 3068 3079 0
3080 -60 0
3080 -3068 0
3080 -3079 0
3081 -67 -3080 0
-3081 67 0
-3081 3080 0
-3082 69 3057 3081 0
3082 -69 0
3082 -3057 0
3082 -3081 0
3083 -71 -3082 0
-3083 71 0
-3083 3082 0
-3084 73 3056 3083 0
3084 -73 0
3084 -3056 0
3084 -3083 0
3085 -75 -3084 0
-3085 75 0
-3085 3084 0
3086 -641 -3001 0
-3086 641 0
-3086 3001 0
-3087 78 3086 0
3087 -78 0
3087 -3086 0
3088 -77 -3087 0
-3088 77 0
-3088 3087 0
-3089 80 3019 3020 3025 3049 3085 3088 0
3089 -80 0
3089 -3019 0
3089 -3020 0
3089 -3025 0
3089 -3049 0
3089 -3085 0
3089 -3088 0
3090 -112 -3089 0
-3090 112 0
-3090 3089 0
-3091 3 3090 0
3091 -3 0
3091 -3090 0
3092 -12 -3091 0
-3092 12 0
-3092 3091 0
-3093 14 2999 8 3092 0
3093 -14 0
3093 -2999 0
3093 -8 0
3093 -3092 0
3094 -28 -3093 0
-3094 28 0
-3094 3093 0
-3095 30 2914 3094 0
3095 -30 0
3095 -2914 0
3095 -3094 0
3096 -210 -3095 0
-3096 210 0
-3096 3095 0
-3097 212 3096 0
3097 -212 0
3097 -3096 0
3098 -3099 -3097 0
-3098 3099 0
-3098 3097 0
-3100 3101 601 1009 2736 2806 3098 0
3100 -3101 0
3100 -601 0
3100 -1009 0
3100 -2736 0
3100 -2806 0
3100 -3098 0
3102 -3103 -3100 0
-3102 3103 0
-3102 3100 0
3104 -2737 -33 0
-3104 2737 0
-3104 33 0
3105 -2807 -4 0
-3105 2807 0
-3105 4 0
3106 -3099 -346 0
-3106 3099 0
-3106 346 0
-3107 3101 3104 3105 3106 0
3107 -3101 0
3107 -3104 0
3107 -3105 0
3107 -3106 0
3108 -3109 -3107 0
-3108 3109 0
-3108 3107 0
3110 -3111 -3107 0
-3110 3111 0
-3110 3107 0
-3112 34 31 0
3112 -34 0
3112 -31 0
3113 -2737 -3112 0
-3113 2737 0
-3113 3112 0
-3114 3101 3113 3105 3106 0
3114 -3101 0
3114 -3113 0
3114 -3105 0
3114 -3106 0
3115 -3116 -3114 0
-3115 3116 0
-3115 3114 0
-3117 14 3115 8 11 0
3117 -14 0
3117 -3115 0
3117 -8 0
3117 -11 0
3118 -16 -3117 0
-3118 16 0
-3118 3117 0
-3119 18 3118 0
3119 -18 0
3119 -3118 0
3120 -20 -3119 0
-3120 20 0
-3120 3119 0
-3121 22 3110 6 3120 0
3121 -22 0
3121 -3110 0
3121 -6 0
3121 -3120 0
3122 -24 -3121 0
-3122 24 0
-3122 3121 0
-3123 3101 3105 3106 0
3123 -3101 0
3123 -3105 0
3123 -3106 0
3124 -3111 -3123 0
-3124 3111 0
-3124 3123 0
3125 -3116 -3123 0
-3125 3116 0
-3125 3123 0
-3126 14 3125 8 11 0
3126 -14 0
3126 -3125 0
3126 -8 0
3126 -11 0
3127 -16 -3126 0
-3127 16 0
-3127 3126 0
-3128 18 3127 0
3128 -18 0
3128 -3127 0
3129 -20 -3128 0
-3129 20 0
-3129 3128 0
-3130 22 3124 6 3129 0
3130 -22 0
3130 -3124 0
3130 -6 0
3130 -3129 0
3131 -26 -3130 0
-3131 26 0
-3131 3130 0
3132 -3099 -212 0
-3132 3099 0
-3132 212 0
-3133 3101 3105 3132 0
3133 -3101 0
3133 -3105 0
3133 -3132 0
3134 -3116 -3133 0
-3134 3116 0
-3134 3133 0
-3135 14 3134 8 11 0
3135 -14 0
3135 -3134 0
3135 -8 0
3135 -11 0
3136 -28 -3135 0
-3136 28 0
-3136 3135 0
-3137 30 3136 0
3137 -30 0
3137 -3136 0
3138 -32 -3137 0
-3138 32 0
-3138 3137 0
-3139 34 3131 3138 0
3139 -34 0
3139 -3131 0
3139 -3138 0
3140 -36 -3139 0
-3140 36 0
-3140 3139 0
-3141 73 70 0
3141 -73 0
3141 -70 0
3142 -75 -3141 0
-3142 75 0
-3142 3141 0
-3143 80 3108 3122 3140 61 3142 76 0
3143 -80 0
3143 -3108 0
3143 -3122 0
3143 -3140 0
3143 -61 0
3143 -3142 0
3143 -76 0
3144 -441 -3143 0
-3144 441 0
-3144 3143 0
3145 -2737 -85 0
-3145 2737 0
-3145 85 0
-3146 3101 3145 3105 3132 0
3146 -3101 0
3146 -3145 0
3146 -3105 0
3146 -3132 0
3147 -3109 -3146 0
-3147 3109 0
-3147 3146 0
3148 -3111 -3146 0
-3148 3111 0
-3148 3146 0
3149 -2737 -34 0
-3149 2737 0
-3149 34 0
-3150 3101 3149 3105 3132 0
3150 -3101 0
3150 -3149 0
3150 -3105 0
3150 -3132 0
3151 -3116 -3150 0
-3151 3116 0
-3151 3150 0
-3152 14 3151 8 11 0
3152 -14 0
3152 -3151 0
3152 -8 0
3152 -11 0
3153 -16 -3152 0
-3153 16 0
-3153 3152 0
-3154 18 3153 0
3154 -18 0
3154 -3153 0
3155 -20 -3154 0
-3155 20 0
-3155 3154 0
-3156 22 3148 6 3155 0
3156 -22 0
3156 -3148 0
3156 -6 0
3156 -3155 0
3157 -24 -3156 0
-3157 24 0
-3157 3156 0
3158 -3111 -3133 0
-3158 3111 0
-3158 3133 0
3159 -16 -3135 0
-3159 16 0
-3159 3135 0
-3160 18 3159 0
3160 -18 0
3160 -3159 0
3161 -20 -3160 0
-3161 20 0
-3161 3160 0
-3162 22 3158 6 3161 0
3162 -22 0
3162 -3158 0
3162 -6 0
3162 -3161 0
3163 -26 -3162 0
-3163 26 0
-3163 3162 0
-3164 34 3163 0
3164 -34 0
3164 -3163 0
3165 -36 -3164 0
-3165 36 0
-3165 3164 0
-3166 80 3147 3157 3165 61 3142 76 0
3166 -80 0
3166 -3147 0
3166 -3157 0
3166 -3165 0
3166 -61 0
3166 -3142 0
3166 -76 0
3167 -89 -3166 0
-3167 89 0
-3167 3166 0
-3168 80 61 3142 76 0
3168 -80 0
3168 -61 0
3168 -3142 0
3168 -76 0
3169 -146 -3168 0
-3169 146 0
-3169 3168 0
-3170 73 107 0
3170 -73 0
3170 -107 0
3171 -75 -3170 0
-3171 75 0
-3171 3170 0
-3172 80 104 3171 76 0
3172 -80 0
3172 -104 0
3172 -3171 0
3172 -76 0
3173 -112 -3172 0
-3173 112 0
-3173 3172 0
-3174 3 3173 0
3174 -3 0
3174 -3173 0
3175 -2 -3174 0
-3175 2 0
-3175 3174 0
-3176 5 3169 3175 0
3176 -5 0
3176 -3169 0
3176 -3175 0
3177 -7 -3176 0
-3177 7 0
-3177 3176 0
-3178 22 3177 91 0
3178 -22 0
3178 -3177 0
3178 -91 0
3179 -26 -3178 0
-3179 26 0
-3179 3178 0
-3180 34 3179 0
3180 -34 0
3180 -3179 0
3181 -2737 -3180 0
-3181 2737 0
-3181 3180 0
-3182 22 91 0
3182 -22 0
3182 -91 0
3183 -24 -3182 0
-3183 24 0
-3183 3182 0
3184 -26 -3182 0
-3184 26 0
-3184 3182 0
-3185 34 3184 0
3185 -34 0
3185 -3184 0
3186 -36 -3185 0
-3186 36 0
-3186 3185 0
-3187 80 3183 3186 61 3142 76 0
3187 -80 0
3187 -3183 0
3187 -3186 0
3187 -61 0
3187 -3142 0
3187 -76 0
3188 -146 -3187 0
-3188 146 0
-3188 3187 0
-3189 80 3183 3186 104 3171 76 0
3189 -80 0
3189 -3183 0
3189 -3186 0
3189 -104 0
3189 -3171 0
3189 -76 0
3190 -112 -3189 0
-3190 112 0
-3190 3189 0
-3191 3 3190 0
3191 -3 0
3191 -3190 0
3192 -2 -3191 0
-3192 2 0
-3192 3191 0
-3193 5 3188 3192 0
3193 -5 0
3193 -3188 0
3193 -3192 0
3194 -2807 -3193 0
-3194 2807 0
-3194 3193 0
-3195 3101 3181 3194 3132 0
3195 -3101 0
3195 -3181 0
3195 -3194 0
3195 -3132 0
3196 -3116 -3195 0
-3196 3116 0
-3196 3195 0
3197 -2737 -95 0
-3197 2737 0
-3197 95 0
3198 -2807 -5 0
-3198 2807 0
-3198 5 0
-3199 3101 3197 3198 3132 0
3199 -3101 0
3199 -3197 0
3199 -3198 0
3199 -3132 0
3200 -3109 -3199 0
-3200 3109 0
-3200 3199 0
3201 -3111 -3199 0
-3201 3111 0
-3201 3199 0
-3202 22 3201 90 91 0
3202 -22 0
3202 -3201 0
3202 -90 0
3202 -91 0
3203 -24 -3202 0
-3203 24 0
-3203 3202 0
-3204 3101 3198 3132 0
3204 -3101 0
3204 -3198 0
3204 -3132 0
3205 -3111 -3204 0
-3205 3111 0
-3205 3204 0
-3206 22 3205 90 91 0
3206 -22 0
3206 -3205 0
3206 -90 0
3206 -91 0
3207 -26 -3206 0
-3207 26 0
-3207 3206 0
-3208 34 3207 0
3208 -34 0
3208 -3207 0
3209 -36 -3208 0
-3209 36 0
-3209 3208 0
-3210 80 3200 3203 3209 104 3171 76 0
3210 -80 0
3210 -3200 0
3210 -3203 0
3210 -3209 0
3210 -104 0
3210 -3171 0
3210 -76 0
3211 -112 -3210 0
-3211 112 0
-3211 3210 0
-3212 3 3211 0
3212 -3 0
3212 -3211 0
3213 -12 -3212 0
-3213 12 0
-3213 3212 0
-3214 14 3196 8 3213 0
3214 -14 0
3214 -3196 0
3214 -8 0
3214 -3213 0
3215 -28 -3214 0
-3215 28 0
-3215 3214 0
-3216 30 3167 3215 0
3216 -30 0
3216 -3167 0
3216 -3215 0
3217 -210 -3216 0
-3217 210 0
-3217 3216 0
-3218 212 3217 0
3218 -212 0
3218 -3217 0
3219 -598 -3218 0
-3219 598 0
-3219 3218 0
-3220 600 3144 3219 0
3220 -600 0
3220 -3144 0
3220 -3219 0
3221 -609 -3220 0
-3221 609 0
-3221 3220 0
3222 -602 -611 0
-3222 602 0
-3222 611 0
3223 -2737 -632 0
-3223 2737 0
-3223 632 0
3224 -3099 -1336 0
-3224 3099 0
-3224 1336 0
-3225 3101 3222 3223 3105 3224 0
3225 -3101 0
3225 -3222 0
3225 -3223 0
3225 -3105 0
3225 -3224 0
3226 -3109 -3225 0
-3226 3109 0
-3226 3225 0
-3227 34 623 631 0
3227 -34 0
3227 -623 0
3227 -631 0
3228 -2737 -3227 0
-3228 2737 0
-3228 3227 0
-3229 3101 3222 3228 3105 3224 0
3229 -3101 0
3229 -3222 0
3229 -3228 0
3229 -3105 0
3229 -3224 0
3230 -3111 -3229 0
-3230 3111 0
-3230 3229 0
3231 -28 -3152 0
-3231 28 0
-3231 3152 0
-3232 30 3231 0
3232 -30 0
3232 -3231 0
3233 -210 -3232 0
-3233 210 0
-3233 3232 0
-3234 212 3233 0
3234 -212 0
3234 -3233 0
3235 -598 -3234 0
-3235 598 0
-3235 3234 0
-3236 600 3235 0
3236 -600 0
3236 -3235 0
3237 -613 -3236 0
-3237 613 0
-3237 3236 0
-3238 34 962 306 0
3238 -34 0
3238 -962 0
3238 -306 0
3239 -2737 -3238 0
-3239 2737 0
-3239 3238 0
3240 -3099 -952 0
-3240 3099 0
-3240 952 0
-3241 3101 3222 3239 3105 3240 0
3241 -3101 0
3241 -3222 0
3241 -3239 0
3241 -3105 0
3241 -3240 0
3242 -3116 -3241 0
-3242 3116 0
-3242 3241 0
3243 -615 -954 0
-3243 615 0
-3243 954 0
-3244 14 3242 3243 8 11 0
3244 -14 0
3244 -3242 0
3244 -3243 0
3244 -8 0
3244 -11 0
3245 -16 -3244 0
-3245 16 0
-3245 3244 0
-3246 18 3245 0
3246 -18 0
3246 -3245 0
3247 -20 -3246 0
-3247 20 0
-3247 3246 0
-3248 22 3230 3237 6 3247 0
3248 -22 0
3248 -3230 0
3248 -3237 0
3248 -6 0
3248 -3247 0
3249 -24 -3248 0
-3249 24 0
-3249 3248 0
-3250 3101 3222 3105 3224 0
3250 -3101 0
3250 -3222 0
3250 -3105 0
3250 -3224 0
3251 -3111 -3250 0
-3251 3111 0
-3251 3250 0
3252 -210 -3137 0
-3252 210 0
-3252 3137 0
-3253 212 3252 0
3253 -212 0
3253 -3252 0
3254 -598 -3253 0
-3254 598 0
-3254 3253 0
-3255 600 3254 0
3255 -600 0
3255 -3254 0
3256 -613 -3255 0
-3256 613 0
-3256 3255 0
-3257 3101 3222 3105 3240 0
3257 -3101 0
3257 -3222 0
3257 -3105 0
3257 -3240 0
3258 -3116 -3257 0
-3258 3116 0
-3258 3257 0
-3259 14 3258 3243 8 11 0
3259 -14 0
3259 -3258 0
3259 -3243 0
3259 -8 0
3259 -11 0
3260 -16 -3259 0
-3260 16 0
-3260 3259 0
-3261 18 3260 0
3261 -18 0
3261 -3260 0
3262 -20 -3261 0
-3262 20 0
-3262 3261 0
-3263 22 3251 3256 6 3262 0
3263 -22 0
3263 -3251 0
3263 -3256 0
3263 -6 0
3263 -3262 0
3264 -26 -3263 0
-3264 26 0
-3264 3263 0
3265 -624 -3255 0
-3265 624 0
-3265 3255 0
3266 -602 -626 0
-3266 602 0
-3266 626 0
-3267 3101 3266 3105 3132 0
3267 -3101 0
3267 -3266 0
3267 -3105 0
3267 -3132 0
3268 -3116 -3267 0
-3268 3116 0
-3268 3267 0
-3269 14 3268 627 8 11 0
3269 -14 0
3269 -3268 0
3269 -627 0
3269 -8 0
3269 -11 0
3270 -28 -3269 0
-3270 28 0
-3270 3269 0
-3271 30 3270 0
3271 -30 0
3271 -3270 0
3272 -32 -3271 0
-3272 32 0
-3272 3271 0
-3273 34 3264 3265 3272 0
3273 -34 0
3273 -3264 0
3273 -3265 0
3273 -3272 0
3274 -36 -3273 0
-3274 36 0
-3274 3273 0
3275 -2737 -659 0
-3275 2737 0
-3275 659 0
-3276 3101 3275 3105 3132 0
3276 -3101 0
3276 -3275 0
3276 -3105 0
3276 -3132 0
3277 -3116 -3276 0
-3277 3116 0
-3277 3276 0
-3278 14 3277 8 11 0
3278 -14 0
3278 -3277 0
3278 -8 0
3278 -11 0
3279 -28 -3278 0
-3279 28 0
-3279 3278 0
-3280 30 3279 0
3280 -30 0
3280 -3279 0
3281 -210 -3280 0
-3281 210 0
-3281 3280 0
-3282 212 3281 0
3282 -212 0
3282 -3281 0
3283 -598 -3282 0
-3283 598 0
-3283 3282 0
-3284 600 3283 0
3284 -600 0
3284 -3283 0
3285 -641 -3284 0
-3285 641 0
-3285 3284 0
-3286 78 3285 0
3286 -78 0
3286 -3285 0
3287 -77 -3286 0
-3287 77 0
-3287 3286 0
-3288 80 3226 3249 3274 61 3142 3287 0
3288 -80 0
3288 -3226 0
3288 -3249 0
3288 -3274 0
3288 -61 0
3288 -3142 0
3288 -3287 0
3289 -82 -3288 0
-3289 82 0
-3289 3288 0
3290 -2737 -743 0
-3290 2737 0
-3290 743 0
-3291 3101 3266 3290 3105 3132 0
3291 -3101 0
3291 -3266 0
3291 -3290 0
3291 -3105 0
3291 -3132 0
3292 -3109 -3291 0
-3292 3109 0
-3292 3291 0
3293 -3111 -3291 0
-3293 3111 0
-3293 3291 0
-3294 3101 3266 3239 3105 3132 0
3294 -3101 0
3294 -3266 0
3294 -3239 0
3294 -3105 0
3294 -3132 0
3295 -3116 -3294 0
-3295 3116 0
-3295 3294 0
-3296 14 3295 627 8 11 0
3296 -14 0
3296 -3295 0
3296 -627 0
3296 -8 0
3296 -11 0
3297 -16 -3296 0
-3297 16 0
-3297 3296 0
-3298 18 3297 0
3298 -18 0
3298 -3297 0
3299 -20 -3298 0
-3299 20 0
-3299 3298 0
-3300 22 3293 665 6 3299 0
3300 -22 0
3300 -3293 0
3300 -665 0
3300 -6 0
3300 -3299 0
3301 -24 -3300 0
-3301 24 0
-3301 3300 0
3302 -3111 -3267 0
-3302 3111 0
-3302 3267 0
3303 -16 -3269 0
-3303 16 0
-3303 3269 0
-3304 18 3303 0
3304 -18 0
3304 -3303 0
3305 -20 -3304 0
-3305 20 0
-3305 3304 0
-3306 22 3302 665 6 3305 0
3306 -22 0
3306 -3302 0
3306 -665 0
3306 -6 0
3306 -3305 0
3307 -26 -3306 0
-3307 26 0
-3307 3306 0
-3308 34 3307 669 0
3308 -34 0
3308 -3307 0
3308 -669 0
3309 -36 -3308 0
-3309 36 0
-3309 3308 0
-3310 80 3292 3301 3309 61 3142 679 0
3310 -80 0
3310 -3292 0
3310 -3301 0
3310 -3309 0
3310 -61 0
3310 -3142 0
3310 -679 0
3311 -89 -3310 0
-3311 89 0
-3311 3310 0
-3312 80 657 660 61 3142 76 0
3312 -80 0
3312 -657 0
3312 -660 0
3312 -61 0
3312 -3142 0
3312 -76 0
3313 -441 -3312 0
-3313 441 0
-3313 3312 0
-3314 600 3313 625 0
3314 -600 0
3314 -3313 0
3314 -625 0
3315 -602 -3314 0
-3315 602 0
-3315 3314 0
3316 -441 -3168 0
-3316 441 0
-3316 3168 0
-3317 600 3316 625 0
3317 -600 0
3317 -3316 0
3317 -625 0
3318 -613 -3317 0
-3318 613 0
-3318 3317 0
-3319 80 61 3142 679 0
3319 -80 0
3319 -61 0
3319 -3142 0
3319 -679 0
3320 -146 -3319 0
-3320 146 0
-3320 3319 0
-3321 80 104 3171 679 0
3321 -80 0
3321 -104 0
3321 -3171 0
3321 -679 0
3322 -112 -3321 0
-3322 112 0
-3322 3321 0
-3323 3 3322 0
3323 -3 0
3323 -3322 0
3324 -2 -3323 0
-3324 2 0
-3324 3323 0
-3325 5 3320 3324 0
3325 -5 0
3325 -3320 0
3325 -3324 0
3326 -7 -3325 0
-3326 7 0
-3326 3325 0
-3327 22 3318 3326 91 0
3327 -22 0
3327 -3318 0
3327 -3326 0
3327 -91 0
3328 -26 -3327 0
-3328 26 0
-3328 3327 0
-3329 80 657 61 3142 76 0
3329 -80 0
3329 -657 0
3329 -61 0
3329 -3142 0
3329 -76 0
3330 -441 -3329 0
-3330 441 0
-3330 3329 0
-3331 600 3330 625 0
3331 -600 0
3331 -3330 0
3331 -625 0
3332 -624 -3331 0
-3332 624 0
-3332 3331 0
-3333 34 3328 3332 0
3333 -34 0
3333 -3328 0
3333 -3332 0
3334 -2737 -3333 0
-3334 2737 0
-3334 3333 0
-3335 22 665 91 0
3335 -22 0
3335 -665 0
3335 -91 0
3336 -24 -3335 0
-3336 24 0
-3336 3335 0
3337 -26 -3335 0
-3337 26 0
-3337 3335 0
-3338 34 3337 669 0
3338 -34 0
3338 -3337 0
3338 -669 0
3339 -36 -3338 0
-3339 36 0
-3339 3338 0
-3340 80 3336 3339 61 3142 679 0
3340 -80 0
3340 -3336 0
3340 -3339 0
3340 -61 0
3340 -3142 0
3340 -679 0
3341 -146 -3340 0
-3341 146 0
-3341 3340 0
-3342 80 3336 3339 104 3171 679 0
3342 -80 0
3342 -3336 0
3342 -3339 0
3342 -104 0
3342 -3171 0
3342 -679 0
3343 -112 -3342 0
-3343 112 0
-3343 3342 0
-3344 3 3343 0
3344 -3 0
3344 -3343 0
3345 -2 -3344 0
-3345 2 0
-3345 3344 0
-3346 5 3341 3345 0
3346 -5 0
3346 -3341 0
3346 -3345 0
3347 -2807 -3346 0
-3347 2807 0
-3347 3346 0
-3348 3101 3315 3334 3347 3132 0
3348 -3101 0
3348 -3315 0
3348 -3334 0
3348 -3347 0
3348 -3132 0
3349 -3116 -3348 0
-3349 3116 0
-3349 3348 0
3350 -3109 -3276 0
-3350 3109 0
-3350 3276 0
3351 -3111 -3150 0
-3351 3111 0
-3351 3150 0
-3352 22 3351 6 91 0
3352 -22 0
3352 -3351 0
3352 -6 0
3352 -91 0
3353 -24 -3352 0
-3353 24 0
-3353 3352 0
-3354 80 3350 3353 3165 61 3142 76 0
3354 -80 0
3354 -3350 0
3354 -3353 0
3354 -3165 0
3354 -61 0
3354 -3142 0
3354 -76 0
3355 -441 -3354 0
-3355 441 0
-3355 3354 0
-3356 600 3355 625 0
3356 -600 0
3356 -3355 0
3356 -625 0
3357 -615 -3356 0
-3357 615 0
-3357 3356 0
3358 -2737 -670 0
-3358 2737 0
-3358 670 0
-3359 3101 3266 3358 3198 3132 0
3359 -3101 0
3359 -3266 0
3359 -3358 0
3359 -3198 0
3359 -3132 0
3360 -3109 -3359 0
-3360 3109 0
-3360 3359 0
3361 -3111 -3359 0
-3361 3111 0
-3361 3359 0
-3362 22 3361 665 90 91 0
3362 -22 0
3362 -3361 0
3362 -665 0
3362 -90 0
3362 -91 0
3363 -24 -3362 0
-3363 24 0
-3363 3362 0
-3364 3101 3266 3198 3132 0
3364 -3101 0
3364 -3266 0
3364 -3198 0
3364 -3132 0
3365 -3111 -3364 0
-3365 3111 0
-3365 3364 0
-3366 22 3365 665 90 91 0
3366 -22 0
3366 -3365 0
3366 -665 0
3366 -90 0
3366 -91 0
3367 -26 -3366 0
-3367 26 0
-3367 3366 0
-3368 34 3367 669 0
3368 -34 0
3368 -3367 0
3368 -669 0
3369 -36 -3368 0
-3369 36 0
-3369 3368 0
-3370 80 3360 3363 3369 104 3171 679 0
3370 -80 0
3370 -3360 0
3370 -3363 0
3370 -3369 0
3370 -104 0
3370 -3171 0
3370 -679 0
3371 -112 -3370 0
-3371 112 0
-3371 3370 0
-3372 3 3371 0
3372 -3 0
3372 -3371 0
3373 -12 -3372 0
-3373 12 0
-3373 3372 0
-3374 14 3349 3357 8 3373 0
3374 -14 0
3374 -3349 0
3374 -3357 0
3374 -8 0
3374 -3373 0
3375 -28 -3374 0
-3375 28 0
-3375 3374 0
-3376 30 3311 3375 0
3376 -30 0
3376 -3311 0
3376 -3375 0
3377 -119 -3376 0
-3377 119 0
-3377 3376 0
-3378 121 3221 3289 83 3377 0
3378 -121 0
3378 -3221 0
3378 -3289 0
3378 -83 0
3378 -3377 0
3379 -123 -3378 0
-3379 123 0
-3379 3378 0
-3380 14 3243 8 11 0
3380 -14 0
3380 -3243 0
3380 -8 0
3380 -11 0
3381 -16 -3380 0
-3381 16 0
-3381 3380 0
-3382 18 3381 0
3382 -18 0
3382 -3381 0
3383 -20 -3382 0
-3383 20 0
-3383 3382 0
-3384 22 612 693 3383 0
3384 -22 0
3384 -612 0
3384 -693 0
3384 -3383 0
3385 -26 -3384 0
-3385 26 0
-3385 3384 0
-3386 34 3385 623 631 0
3386 -34 0
3386 -3385 0
3386 -623 0
3386 -631 0
3387 -2737 -3386 0
-3387 2737 0
-3387 3386 0
-3388 3101 3222 3387 3105 3224 0
3388 -3101 0
3388 -3222 0
3388 -3387 0
3388 -3105 0
3388 -3224 0
3389 -3109 -3388 0
-3389 3109 0
-3389 3388 0
3390 -609 -3236 0
-3390 609 0
-3390 3236 0
3391 -28 -3296 0
-3391 28 0
-3391 3296 0
-3392 30 3391 0
3392 -30 0
3392 -3391 0
3393 -119 -3392 0
-3393 119 0
-3393 3392 0
-3394 121 3390 83 3393 0
3394 -121 0
3394 -3390 0
3394 -83 0
3394 -3393 0
3395 -127 -3394 0
-3395 127 0
-3395 3394 0
-3396 22 3230 3237 3395 3247 0
3396 -22 0
3396 -3230 0
3396 -3237 0
3396 -3395 0
3396 -3247 0
3397 -24 -3396 0
-3397 24 0
-3397 3396 0
3398 -609 -3255 0
-3398 609 0
-3398 3255 0
3399 -119 -3271 0
-3399 119 0
-3399 3271 0
-3400 121 3398 83 3399 0
3400 -121 0
3400 -3398 0
3400 -83 0
3400 -3399 0
3401 -127 -3400 0
-3401 127 0
-3401 3400 0
-3402 22 3251 3256 3401 3262 0
3402 -22 0
3402 -3251 0
3402 -3256 0
3402 -3401 0
3402 -3262 0
3403 -26 -3402 0
-3403 26 0
-3403 3402 0
-3404 34 3403 3265 3272 0
3404 -34 0
3404 -3403 0
3404 -3265 0
3404 -3272 0
3405 -36 -3404 0
-3405 36 0
-3405 3404 0
3406 -2737 -3185 0
-3406 2737 0
-3406 3185 0
-3407 3101 3406 3105 3132 0
3407 -3101 0
3407 -3406 0
3407 -3105 0
3407 -3132 0
3408 -3116 -3407 0
-3408 3116 0
-3408 3407 0
-3409 14 3408 8 11 0
3409 -14 0
3409 -3408 0
3409 -8 0
3409 -11 0
3410 -28 -3409 0
-3410 28 0
-3410 3409 0
-3411 30 3410 0
3411 -30 0
3411 -3410 0
3412 -210 -3411 0
-3412 210 0
-3412 3411 0
-3413 212 3412 0
3413 -212 0
3413 -3412 0
3414 -598 -3413 0
-3414 598 0
-3414 3413 0
-3415 600 3414 0
3415 -600 0
3415 -3414 0
3416 -609 -3415 0
-3416 609 0
-3416 3415 0
3417 -2737 -3338 0
-3417 2737 0
-3417 3338 0
-3418 3101 3266 3417 3105 3132 0
3418 -3101 0
3418 -3266 0
3418 -3417 0
3418 -3105 0
3418 -3132 0
3419 -3116 -3418 0
-3419 3116 0
-3419 3418 0
-3420 14 3419 627 8 11 0
3420 -14 0
3420 -3419 0
3420 -627 0
3420 -8 0
3420 -11 0
3421 -28 -3420 0
-3421 28 0
-3421 3420 0
-3422 30 3421 0
3422 -30 0
3422 -3421 0
3423 -119 -3422 0
-3423 119 0
-3423 3422 0
-3424 121 3416 83 3423 0
3424 -121 0
3424 -3416 0
3424 -83 0
3424 -3423 0
3425 -134 -3424 0
-3425 134 0
-3425 3424 0
-3426 40 3425 37 0
3426 -40 0
3426 -3425 0
3426 -37 0
3427 -42 -3426 0
-3427 42 0
-3427 3426 0
-3428 60 3427 57 0
3428 -60 0
3428 -3427 0
3428 -57 0
3429 -62 -3428 0
-3429 62 0
-3429 3428 0
3430 -67 -3428 0
-3430 67 0
-3430 3428 0
-3431 69 3430 0
3431 -69 0
3431 -3430 0
3432 -71 -3431 0
-3432 71 0
-3432 3431 0
-3433 73 3432 0
3433 -73 0
3433 -3432 0
3434 -75 -3433 0
-3434 75 0
-3434 3433 0
3435 -2737 -2919 0
-3435 2737 0
-3435 2919 0
-3436 3101 3435 3105 3132 0
3436 -3101 0
3436 -3435 0
3436 -3105 0
3436 -3132 0
3437 -3116 -3436 0
-3437 3116 0
-3437 3436 0
-3438 14 3437 8 11 0
3438 -14 0
3438 -3437 0
3438 -8 0
3438 -11 0
3439 -28 -3438 0
-3439 28 0
-3439 3438 0
-3440 30 3439 0
3440 -30 0
3440 -3439 0
3441 -210 -3440 0
-3441 210 0
-3441 3440 0
-3442 212 3441 0
3442 -212 0
3442 -3441 0
3443 -598 -3442 0
-3443 598 0
-3443 3442 0
-3444 600 3443 0
3444 -600 0
3444 -3443 0
3445 -641 -3444 0
-3445 641 0
-3445 3444 0
-3446 78 3445 0
3446 -78 0
3446 -3445 0
3447 -77 -3446 0
-3447 77 0
-3447 3446 0
-3448 80 3389 3397 3405 3429 3434 3447 0
3448 -80 0
3448 -3389 0
3448 -3397 0
3448 -3405 0
3448 -3429 0
3448 -3434 0
3448 -3447 0
3449 -146 -3448 0
-3449 146 0
-3449 3448 0
-3450 3101 3222 3387 3198 3224 0
3450 -3101 0
3450 -3222 0
3450 -3387 0
3450 -3198 0
3450 -3224 0
3451 -3109 -3450 0
-3451 3109 0
-3451 3450 0
-3452 3101 3222 3228 3198 3224 0
3452 -3101 0
3452 -3222 0
3452 -3228 0
3452 -3198 0
3452 -3224 0
3453 -3111 -3452 0
-3453 3111 0
-3453 3452 0
-3454 3101 3149 3198 3132 0
3454 -3101 0
3454 -3149 0
3454 -3198 0
3454 -3132 0
3455 -3116 -3454 0
-3455 3116 0
-3455 3454 0
-3456 14 3455 8 11 0
3456 -14 0
3456 -3455 0
3456 -8 0
3456 -11 0
3457 -28 -3456 0
-3457 28 0
-3457 3456 0
-3458 30 3457 0
3458 -30 0
3458 -3457 0
3459 -210 -3458 0
-3459 210 0
-3459 3458 0
-3460 212 3459 0
3460 -212 0
3460 -3459 0
3461 -598 -3460 0
-3461 598 0
-3461 3460 0
-3462 600 3461 0
3462 -600 0
3462 -3461 0
3463 -613 -3462 0
-3463 613 0
-3463 3462 0
3464 -609 -3462 0
-3464 609 0
-3464 3462 0
-3465 3101 3266 3239 3198 3132 0
3465 -3101 0
3465 -3266 0
3465 -3239 0
3465 -3198 0
3465 -3132 0
3466 -3116 -3465 0
-3466 3116 0
-3466 3465 0
-3467 14 3466 627 8 11 0
3467 -14 0
3467 -3466 0
3467 -627 0
3467 -8 0
3467 -11 0
3468 -28 -3467 0
-3468 28 0
-3468 3467 0
-3469 30 3468 0
3469 -30 0
3469 -3468 0
3470 -119 -3469 0
-3470 119 0
-3470 3469 0
-3471 121 3464 83 3470 0
3471 -121 0
3471 -3464 0
3471 -83 0
3471 -3470 0
3472 -127 -3471 0
-3472 127 0
-3472 3471 0
-3473 3101 3222 3239 3198 3240 0
3473 -3101 0
3473 -3222 0
3473 -3239 0
3473 -3198 0
3473 -3240 0
3474 -3116 -3473 0
-3474 3116 0
-3474 3473 0
-3475 14 3474 3243 8 11 0
3475 -14 0
3475 -3474 0
3475 -3243 0
3475 -8 0
3475 -11 0
3476 -16 -3475 0
-3476 16 0
-3476 3475 0
-3477 18 3476 0
3477 -18 0
3477 -3476 0
3478 -20 -3477 0
-3478 20 0
-3478 3477 0
-3479 22 3453 3463 3472 3478 0
3479 -22 0
3479 -3453 0
3479 -3463 0
3479 -3472 0
3479 -3478 0
3480 -24 -3479 0
-3480 24 0
-3480 3479 0
-3481 3101 3222 3198 3224 0
3481 -3101 0
3481 -3222 0
3481 -3198 0
3481 -3224 0
3482 -3111 -3481 0
-3482 3111 0
-3482 3481 0
3483 -3116 -3204 0
-3483 3116 0
-3483 3204 0
-3484 14 3483 8 11 0
3484 -14 0
3484 -3483 0
3484 -8 0
3484 -11 0
3485 -28 -3484 0
-3485 28 0
-3485 3484 0
-3486 30 3485 0
3486 -30 0
3486 -3485 0
3487 -210 -3486 0
-3487 210 0
-3487 3486 0
-3488 212 3487 0
3488 -212 0
3488 -3487 0
3489 -598 -3488 0
-3489 598 0
-3489 3488 0
-3490 600 3489 0
3490 -600 0
3490 -3489 0
3491 -613 -3490 0
-3491 613 0
-3491 3490 0
3492 -609 -3490 0
-3492 609 0
-3492 3490 0
3493 -3116 -3364 0
-3493 3116 0
-3493 3364 0
-3494 14 3493 627 8 11 0
3494 -14 0
3494 -3493 0
3494 -627 0
3494 -8 0
3494 -11 0
3495 -28 -3494 0
-3495 28 0
-3495 3494 0
-3496 30 3495 0
3496 -30 0
3496 -3495 0
3497 -119 -3496 0
-3497 119 0
-3497 3496 0
-3498 121 3492 83 3497 0
3498 -121 0
3498 -3492 0
3498 -83 0
3498 -3497 0
3499 -127 -3498 0
-3499 127 0
-3499 3498 0
-3500 3101 3222 3198 3240 0
3500 -3101 0
3500 -3222 0
3500 -3198 0
3500 -3240 0
3501 -3116 -3500 0
-3501 3116 0
-3501 3500 0
-3502 14 3501 3243 8 11 0
3502 -14 0
3502 -3501 0
3502 -3243 0
3502 -8 0
3502 -11 0
3503 -16 -3502 0
-3503 16 0
-3503 3502 0
-3504 18 3503 0
3504 -18 0
3504 -3503 0
3505 -20 -3504 0
-3505 20 0
-3505 3504 0
-3506 22 3482 3491 3499 3505 0
3506 -22 0
3506 -3482 0
3506 -3491 0
3506 -3499 0
3506 -3505 0
3507 -26 -3506 0
-3507 26 0
-3507 3506 0
3508 -624 -3490 0
-3508 624 0
-3508 3490 0
3509 -32 -3496 0
-3509 32 0
-3509 3496 0
-3510 34 3507 3508 3509 0
3510 -34 0
3510 -3507 0
3510 -3508 0
3510 -3509 0
3511 -36 -3510 0
-3511 36 0
-3511 3510 0
-3512 3101 3406 3198 3132 0
3512 -3101 0
3512 -3406 0
3512 -3198 0
3512 -3132 0
3513 -3116 -3512 0
-3513 3116 0
-3513 3512 0
-3514 14 3513 8 11 0
3514 -14 0
3514 -3513 0
3514 -8 0
3514 -11 0
3515 -28 -3514 0
-3515 28 0
-3515 3514 0
-3516 30 3515 0
3516 -30 0
3516 -3515 0
3517 -210 -3516 0
-3517 210 0
-3517 3516 0
-3518 212 3517 0
3518 -212 0
3518 -3517 0
3519 -598 -3518 0
-3519 598 0
-3519 3518 0
-3520 600 3519 0
3520 -600 0
3520 -3519 0
3521 -609 -3520 0
-3521 609 0
-3521 3520 0
-3522 3101 3266 3417 3198 3132 0
3522 -3101 0
3522 -3266 0
3522 -3417 0
3522 -3198 0
3522 -3132 0
3523 -3116 -3522 0
-3523 3116 0
-3523 3522 0
-3524 14 3523 627 8 11 0
3524 -14 0
3524 -3523 0
3524 -627 0
3524 -8 0
3524 -11 0
3525 -28 -3524 0
-3525 28 0
-3525 3524 0
-3526 30 3525 0
3526 -30 0
3526 -3525 0
3527 -119 -3526 0
-3527 119 0
-3527 3526 0
-3528 121 3521 83 3527 0
3528 -121 0
3528 -3521 0
3528 -83 0
3528 -3527 0
3529 -134 -3528 0
-3529 134 0
-3529 3528 0
-3530 40 3529 97 0
3530 -40 0
3530 -3529 0
3530 -97 0
3531 -42 -3530 0
-3531 42 0
-3531 3530 0
-3532 60 3531 102 0
3532 -60 0
3532 -3531 0
3532 -102 0
3533 -62 -3532 0
-3533 62 0
-3533 3532 0
3534 -67 -3532 0
-3534 67 0
-3534 3532 0
-3535 69 3534 0
3535 -69 0
3535 -3534 0
3536 -71 -3535 0
-3536 71 0
-3536 3535 0
-3537 73 3536 0
3537 -73 0
3537 -3536 0
3538 -75 -3537 0
-3538 75 0
-3538 3537 0
-3539 3101 3435 3198 3132 0
3539 -3101 0
3539 -3435 0
3539 -3198 0
3539 -3132 0
3540 -3116 -3539 0
-3540 3116 0
-3540 3539 0
-3541 14 3540 8 11 0
3541 -14 0
3541 -3540 0
3541 -8 0
3541 -11 0
3542 -28 -3541 0
-3542 28 0
-3542 3541 0
-3543 30 3542 0
3543 -30 0
3543 -3542 0
3544 -210 -3543 0
-3544 210 0
-3544 3543 0
-3545 212 3544 0
3545 -212 0
3545 -3544 0
3546 -598 -3545 0
-3546 598 0
-3546 3545 0
-3547 600 3546 0
3547 -600 0
3547 -3546 0
3548 -641 -3547 0
-3548 641 0
-3548 3547 0
-3549 78 3548 0
3549 -78 0
3549 -3548 0
3550 -77 -3549 0
-3550 77 0
-3550 3549 0
-3551 80 3451 3480 3511 3533 3538 3550 0
3551 -80 0
3551 -3451 0
3551 -3480 0
3551 -3511 0
3551 -3533 0
3551 -3538 0
3551 -3550 0
3552 -112 -3551 0
-3552 112 0
-3552 3551 0
-3553 3 3552 0
3553 -3 0
3553 -3552 0
3554 -2 -3553 0
-3554 2 0
-3554 3553 0
-3555 5 3449 3554 0
3555 -5 0
3555 -3449 0
3555 -3554 0
3556 -162 -3555 0
-3556 162 0
-3556 3555 0
3557 -2737 -166 0
-3557 2737 0
-3557 166 0
-3558 3101 3557 3105 3106 0
3558 -3101 0
3558 -3557 0
3558 -3105 0
3558 -3106 0
3559 -3109 -3558 0
-3559 3109 0
-3559 3558 0
3560 -3111 -3114 0
-3560 3111 0
-3560 3114 0
3561 -119 -3232 0
-3561 119 0
-3561 3232 0
-3562 121 83 3561 0
3562 -121 0
3562 -83 0
3562 -3561 0
3563 -127 -3562 0
-3563 127 0
-3563 3562 0
-3564 22 3560 6 3563 3120 0
3564 -22 0
3564 -3560 0
3564 -6 0
3564 -3563 0
3564 -3120 0
3565 -24 -3564 0
-3565 24 0
-3565 3564 0
3566 -119 -3137 0
-3566 119 0
-3566 3137 0
-3567 121 83 3566 0
3567 -121 0
3567 -83 0
3567 -3566 0
3568 -127 -3567 0
-3568 127 0
-3568 3567 0
-3569 22 3124 6 3568 3129 0
3569 -22 0
3569 -3124 0
3569 -6 0
3569 -3568 0
3569 -3129 0
3570 -26 -3569 0
-3570 26 0
-3570 3569 0
-3571 34 3570 3138 0
3571 -34 0
3571 -3570 0
3571 -3138 0
3572 -36 -3571 0
-3572 36 0
-3572 3571 0
3573 -119 -3280 0
-3573 119 0
-3573 3280 0
-3574 121 83 3573 0
3574 -121 0
3574 -83 0
3574 -3573 0
3575 -134 -3574 0
-3575 134 0
-3575 3574 0
-3576 40 3575 37 0
3576 -40 0
3576 -3575 0
3576 -37 0
3577 -42 -3576 0
-3577 42 0
-3577 3576 0
-3578 60 3577 57 0
3578 -60 0
3578 -3577 0
3578 -57 0
3579 -62 -3578 0
-3579 62 0
-3579 3578 0
3580 -67 -3578 0
-3580 67 0
-3580 3578 0
-3581 69 3580 0
3581 -69 0
3581 -3580 0
3582 -71 -3581 0
-3582 71 0
-3582 3581 0
-3583 73 3582 0
3583 -73 0
3583 -3582 0
3584 -75 -3583 0
-3584 75 0
-3584 3583 0
-3585 80 3559 3565 3572 3579 3584 76 0
3585 -80 0
3585 -3559 0
3585 -3565 0
3585 -3572 0
3585 -3579 0
3585 -3584 0
3585 -76 0
3586 -441 -3585 0
-3586 441 0
-3586 3585 0
3587 -2737 -181 0
-3587 2737 0
-3587 181 0
-3588 3101 3587 3105 3132 0
3588 -3101 0
3588 -3587 0
3588 -3105 0
3588 -3132 0
3589 -3109 -3588 0
-3589 3109 0
-3589 3588 0
-3590 22 3351 6 186 3155 0
3590 -22 0
3590 -3351 0
3590 -6 0
3590 -186 0
3590 -3155 0
3591 -24 -3590 0
-3591 24 0
-3591 3590 0
-3592 22 3158 6 186 3161 0
3592 -22 0
3592 -3158 0
3592 -6 0
3592 -186 0
3592 -3161 0
3593 -26 -3592 0
-3593 26 0
-3593 3592 0
-3594 34 3593 0
3594 -34 0
3594 -3593 0
3595 -36 -3594 0
-3595 36 0
-3595 3594 0
-3596 73 778 0
3596 -73 0
3596 -778 0
3597 -75 -3596 0
-3597 75 0
-3597 3596 0
-3598 80 3589 3591 3595 772 3597 76 0
3598 -80 0
3598 -3589 0
3598 -3591 0
3598 -3595 0
3598 -772 0
3598 -3597 0
3598 -76 0
3599 -89 -3598 0
-3599 89 0
-3599 3598 0
-3600 80 772 3597 76 0
3600 -80 0
3600 -772 0
3600 -3597 0
3600 -76 0
3601 -146 -3600 0
-3601 146 0
-3601 3600 0
-3602 73 199 0
3602 -73 0
3602 -199 0
3603 -75 -3602 0
-3603 75 0
-3603 3602 0
-3604 80 196 3603 76 0
3604 -80 0
3604 -196 0
3604 -3603 0
3604 -76 0
3605 -112 -3604 0
-3605 112 0
-3605 3604 0
-3606 3 3605 0
3606 -3 0
3606 -3605 0
3607 -2 -3606 0
-3607 2 0
-3607 3606 0
-3608 5 3601 3607 0
3608 -5 0
3608 -3601 0
3608 -3607 0
3609 -7 -3608 0
-3609 7 0
-3609 3608 0
3610 -82 -3168 0
-3610 82 0
-3610 3168 0
-3611 121 3610 83 0
3611 -121 0
3611 -3610 0
3611 -83 0
3612 -127 -3611 0
-3612 127 0
-3612 3611 0
-3613 22 3609 3612 91 0
3613 -22 0
3613 -3609 0
3613 -3612 0
3613 -91 0
3614 -26 -3613 0
-3614 26 0
-3614 3613 0
-3615 34 3614 0
3615 -34 0
3615 -3614 0
3616 -2737 -3615 0
-3616 2737 0
-3616 3615 0
-3617 80 2514 2920 772 3597 76 0
3617 -80 0
3617 -2514 0
3617 -2920 0
3617 -772 0
3617 -3597 0
3617 -76 0
3618 -146 -3617 0
-3618 146 0
-3618 3617 0
-3619 80 2514 2920 196 3603 76 0
3619 -80 0
3619 -2514 0
3619 -2920 0
3619 -196 0
3619 -3603 0
3619 -76 0
3620 -112 -3619 0
-3620 112 0
-3620 3619 0
-3621 3 3620 0
3621 -3 0
3621 -3620 0
3622 -2 -3621 0
-3622 2 0
-3622 3621 0
-3623 5 3618 3622 0
3623 -5 0
3623 -3618 0
3623 -3622 0
3624 -2807 -3623 0
-3624 2807 0
-3624 3623 0
-3625 3101 3616 3624 3132 0
3625 -3101 0
3625 -3616 0
3625 -3624 0
3625 -3132 0
3626 -3116 -3625 0
-3626 3116 0
-3626 3625 0
3627 -2737 -190 0
-3627 2737 0
-3627 190 0
-3628 3101 3627 3198 3132 0
3628 -3101 0
3628 -3627 0
3628 -3198 0
3628 -3132 0
3629 -3109 -3628 0
-3629 3109 0
-3629 3628 0
3630 -3111 -3454 0
-3630 3111 0
-3630 3454 0
-3631 22 3630 90 186 91 0
3631 -22 0
3631 -3630 0
3631 -90 0
3631 -186 0
3631 -91 0
3632 -24 -3631 0
-3632 24 0
-3632 3631 0
-3633 22 3205 90 186 91 0
3633 -22 0
3633 -3205 0
3633 -90 0
3633 -186 0
3633 -91 0
3634 -26 -3633 0
-3634 26 0
-3634 3633 0
-3635 34 3634 0
3635 -34 0
3635 -3634 0
3636 -36 -3635 0
-3636 36 0
-3636 3635 0
-3637 80 3629 3632 3636 196 3603 76 0
3637 -80 0
3637 -3629 0
3637 -3632 0
3637 -3636 0
3637 -196 0
3637 -3603 0
3637 -76 0
3638 -112 -3637 0
-3638 112 0
-3638 3637 0
-3639 3 3638 0
3639 -3 0
3639 -3638 0
3640 -12 -3639 0
-3640 12 0
-3640 3639 0
-3641 14 3626 8 3640 0
3641 -14 0
3641 -3626 0
3641 -8 0
3641 -3640 0
3642 -28 -3641 0
-3642 28 0
-3642 3641 0
-3643 30 3599 3642 0
3643 -30 0
3643 -3599 0
3643 -3642 0
3644 -210 -3643 0
-3644 210 0
-3644 3643 0
-3645 212 3644 0
3645 -212 0
3645 -3644 0
3646 -598 -3645 0
-3646 598 0
-3646 3645 0
-3647 600 3586 3646 0
3647 -600 0
3647 -3586 0
3647 -3646 0
3648 -730 -3647 0
-3648 730 0
-3648 3647 0
-3649 22 612 6 693 3383 0
3649 -22 0
3649 -612 0
3649 -6 0
3649 -693 0
3649 -3383 0
3650 -26 -3649 0
-3650 26 0
-3650 3649 0
-3651 34 3650 623 631 0
3651 -34 0
3651 -3650 0
3651 -623 0
3651 -631 0
3652 -2737 -3651 0
-3652 2737 0
-3652 3651 0
-3653 3101 3222 3652 3105 3224 0
3653 -3101 0
3653 -3222 0
3653 -3652 0
3653 -3105 0
3653 -3224 0
3654 -3109 -3653 0
-3654 3109 0
-3654 3653 0
-3655 22 3230 3237 6 3395 3247 0
3655 -22 0
3655 -3230 0
3655 -3237 0
3655 -6 0
3655 -3395 0
3655 -3247 0
3656 -24 -3655 0
-3656 24 0
-3656 3655 0
-3657 22 3251 3256 6 3401 3262 0
3657 -22 0
3657 -3251 0
3657 -3256 0
3657 -6 0
3657 -3401 0
3657 -3262 0
3658 -26 -3657 0
-3658 26 0
-3658 3657 0
-3659 34 3658 3265 3272 0
3659 -34 0
3659 -3658 0
3659 -3265 0
3659 -3272 0
3660 -36 -3659 0
-3660 36 0
-3660 3659 0
3661 -609 -3284 0
-3661 609 0
-3661 3284 0
3662 -3116 -3291 0
-3662 3116 0
-3662 3291 0
-3663 14 3662 627 8 11 0
3663 -14 0
3663 -3662 0
3663 -627 0
3663 -8 0
3663 -11 0
3664 -28 -3663 0
-3664 28 0
-3664 3663 0
-3665 30 3664 0
3665 -30 0
3665 -3664 0
3666 -119 -3665 0
-3666 119 0
-3666 3665 0
-3667 121 3661 83 3666 0
3667 -121 0
3667 -3661 0
3667 -83 0
3667 -3666 0
3668 -134 -3667 0
-3668 134 0
-3668 3667 0
-3669 40 3668 37 0
3669 -40 0
3669 -3668 0
3669 -37 0
3670 -42 -3669 0
-3670 42 0
-3670 3669 0
-3671 60 3670 57 0
3671 -60 0
3671 -3670 0
3671 -57 0
3672 -62 -3671 0
-3672 62 0
-3672 3671 0
3673 -67 -3671 0
-3673 67 0
-3673 3671 0
-3674 69 3673 0
3674 -69 0
3674 -3673 0
3675 -71 -3674 0
-3675 71 0
-3675 3674 0
-3676 73 3675 0
3676 -73 0
3676 -3675 0
3677 -75 -3676 0
-3677 75 0
-3677 3676 0
3678 -2737 -789 0
-3678 2737 0
-3678 789 0
-3679 3101 3678 3105 3132 0
3679 -3101 0
3679 -3678 0
3679 -3105 0
3679 -3132 0
3680 -3116 -3679 0
-3680 3116 0
-3680 3679 0
-3681 14 3680 8 11 0
3681 -14 0
3681 -3680 0
3681 -8 0
3681 -11 0
3682 -28 -3681 0
-3682 28 0
-3682 3681 0
-3683 30 3682 0
3683 -30 0
3683 -3682 0
3684 -210 -3683 0
-3684 210 0
-3684 3683 0
-3685 212 3684 0
3685 -212 0
3685 -3684 0
3686 -598 -3685 0
-3686 598 0
-3686 3685 0
-3687 600 3686 0
3687 -600 0
3687 -3686 0
3688 -641 -3687 0
-3688 641 0
-3688 3687 0
-3689 78 3688 0
3689 -78 0
3689 -3688 0
3690 -77 -3689 0
-3690 77 0
-3690 3689 0
-3691 80 3654 3656 3660 3672 3677 3690 0
3691 -80 0
3691 -3654 0
3691 -3656 0
3691 -3660 0
3691 -3672 0
3691 -3677 0
3691 -3690 0
3692 -170 -3691 0
-3692 170 0
-3692 3691 0
-3693 176 3648 3692 171 173 0
3693 -176 0
3693 -3648 0
3693 -3692 0
3693 -171 0
3693 -173 0
3694 -178 -3693 0
-3694 178 0
-3694 3693 0
-3695 73 141 0
3695 -73 0
3695 -141 0
3696 -75 -3695 0
-3696 75 0
-3696 3695 0
-3697 80 164 167 138 3696 76 0
3697 -80 0
3697 -164 0
3697 -167 0
3697 -138 0
3697 -3696 0
3697 -76 0
3698 -441 -3697 0
-3698 441 0
-3698 3697 0
-3699 80 164 182 138 3597 76 0
3699 -80 0
3699 -164 0
3699 -182 0
3699 -138 0
3699 -3597 0
3699 -76 0
3700 -89 -3699 0
-3700 89 0
-3700 3699 0
-3701 80 188 191 196 3603 76 0
3701 -80 0
3701 -188 0
3701 -191 0
3701 -196 0
3701 -3603 0
3701 -76 0
3702 -112 -3701 0
-3702 112 0
-3702 3701 0
-3703 3 3702 0
3703 -3 0
3703 -3702 0
3704 -12 -3703 0
-3704 12 0
-3704 3703 0
-3705 14 8 3704 0
3705 -14 0
3705 -8 0
3705 -3704 0
3706 -28 -3705 0
-3706 28 0
-3706 3705 0
-3707 30 3700 3706 0
3707 -30 0
3707 -3700 0
3707 -3706 0
3708 -210 -3707 0
-3708 210 0
-3708 3707 0
-3709 212 3708 0
3709 -212 0
3709 -3708 0
3710 -598 -3709 0
-3710 598 0
-3710 3709 0
-3711 600 3698 3710 0
3711 -600 0
3711 -3698 0
3711 -3710 0
3712 -602 -3711 0
-3712 602 0
-3712 3711 0
-3713 80 138 3696 76 0
3713 -80 0
3713 -138 0
3713 -3696 0
3713 -76 0
3714 -441 -3713 0
-3714 441 0
-3714 3713 0
3715 -89 -3600 0
-3715 89 0
-3715 3600 0
3716 -12 -3606 0
-3716 12 0
-3716 3606 0
-3717 14 8 3716 0
3717 -14 0
3717 -8 0
3717 -3716 0
3718 -28 -3717 0
-3718 28 0
-3718 3717 0
-3719 30 3715 3718 0
3719 -30 0
3719 -3715 0
3719 -3718 0
3720 -210 -3719 0
-3720 210 0
-3720 3719 0
-3721 212 3720 0
3721 -212 0
3721 -3720 0
3722 -598 -3721 0
-3722 598 0
-3722 3721 0
-3723 600 3714 3722 0
3723 -600 0
3723 -3714 0
3723 -3722 0
3724 -613 -3723 0
-3724 613 0
-3724 3723 0
-3725 73 706 0
3725 -73 0
3725 -706 0
3726 -75 -3725 0
-3726 75 0
-3726 3725 0
-3727 80 703 3726 643 0
3727 -80 0
3727 -703 0
3727 -3726 0
3727 -643 0
3728 -146 -3727 0
-3728 146 0
-3728 3727 0
-3729 73 717 0
3729 -73 0
3729 -717 0
3730 -75 -3729 0
-3730 75 0
-3730 3729 0
-3731 80 714 3730 643 0
3731 -80 0
3731 -714 0
3731 -3730 0
3731 -643 0
3732 -112 -3731 0
-3732 112 0
-3732 3731 0
-3733 3 3732 0
3733 -3 0
3733 -3732 0
3734 -2 -3733 0
-3734 2 0
-3734 3733 0
-3735 5 3728 3734 0
3735 -5 0
3735 -3728 0
3735 -3734 0
3736 -7 -3735 0
-3736 7 0
-3736 3735 0
3737 -89 -3168 0
-3737 89 0
-3737 3168 0
3738 -12 -3174 0
-3738 12 0
-3738 3174 0
-3739 14 8 3738 0
3739 -14 0
3739 -8 0
3739 -3738 0
3740 -28 -3739 0
-3740 28 0
-3740 3739 0
-3741 30 3737 3740 0
3741 -30 0
3741 -3737 0
3741 -3740 0
3742 -210 -3741 0
-3742 210 0
-3742 3741 0
-3743 212 3742 0
3743 -212 0
3743 -3742 0
3744 -598 -3743 0
-3744 598 0
-3744 3743 0
-3745 600 3316 3744 0
3745 -600 0
3745 -3316 0
3745 -3744 0
3746 -609 -3745 0
-3746 609 0
-3746 3745 0
-3747 80 61 3142 643 0
3747 -80 0
3747 -61 0
3747 -3142 0
3747 -643 0
3748 -82 -3747 0
-3748 82 0
-3748 3747 0
3749 -89 -3319 0
-3749 89 0
-3749 3319 0
3750 -615 -3317 0
-3750 615 0
-3750 3317 0
3751 -12 -3323 0
-3751 12 0
-3751 3323 0
-3752 14 3750 8 3751 0
3752 -14 0
3752 -3750 0
3752 -8 0
3752 -3751 0
3753 -28 -3752 0
-3753 28 0
-3753 3752 0
-3754 30 3749 3753 0
3754 -30 0
3754 -3749 0
3754 -3753 0
3755 -119 -3754 0
-3755 119 0
-3755 3754 0
-3756 121 3746 3748 83 3755 0
3756 -121 0
3756 -3746 0
3756 -3748 0
3756 -83 0
3756 -3755 0
3757 -127 -3756 0
-3757 127 0
-3757 3756 0
-3758 30 3715 0
3758 -30 0
3758 -3715 0
3759 -210 -3758 0
-3759 210 0
-3759 3758 0
-3760 212 3759 0
3760 -212 0
3760 -3759 0
3761 -598 -3760 0
-3761 598 0
-3761 3760 0
-3762 600 3714 3761 0
3762 -600 0
3762 -3714 0
3762 -3761 0
3763 -615 -3762 0
-3763 615 0
-3763 3762 0
-3764 73 975 0
3764 -73 0
3764 -975 0
3765 -75 -3764 0
-3765 75 0
-3765 3764 0
-3766 80 969 3765 980 0
3766 -80 0
3766 -969 0
3766 -3765 0
3766 -980 0
3767 -112 -3766 0
-3767 112 0
-3767 3766 0
-3768 3 3767 0
3768 -3 0
3768 -3767 0
3769 -12 -3768 0
-3769 12 0
-3769 3768 0
-3770 14 3763 8 3769 0
3770 -14 0
3770 -3763 0
3770 -8 0
3770 -3769 0
3771 -16 -3770 0
-3771 16 0
-3771 3770 0
-3772 18 3771 0
3772 -18 0
3772 -3771 0
3773 -20 -3772 0
-3773 20 0
-3773 3772 0
-3774 22 3724 3736 3757 3773 0
3774 -22 0
3774 -3724 0
3774 -3736 0
3774 -3757 0
3774 -3773 0
3775 -26 -3774 0
-3775 26 0
-3775 3774 0
-3776 80 164 138 3696 76 0
3776 -80 0
3776 -164 0
3776 -138 0
3776 -3696 0
3776 -76 0
3777 -441 -3776 0
-3777 441 0
-3777 3776 0
3778 -89 -3776 0
-3778 89 0
-3778 3776 0
-3779 80 188 196 3603 76 0
3779 -80 0
3779 -188 0
3779 -196 0
3779 -3603 0
3779 -76 0
3780 -112 -3779 0
-3780 112 0
-3780 3779 0
-3781 3 3780 0
3781 -3 0
3781 -3780 0
3782 -12 -3781 0
-3782 12 0
-3782 3781 0
-3783 14 8 3782 0
3783 -14 0
3783 -8 0
3783 -3782 0
3784 -28 -3783 0
-3784 28 0
-3784 3783 0
-3785 30 3778 3784 0
3785 -30 0
3785 -3778 0
3785 -3784 0
3786 -210 -3785 0
-3786 210 0
-3786 3785 0
-3787 212 3786 0
3787 -212 0
3787 -3786 0
3788 -598 -3787 0
-3788 598 0
-3788 3787 0
-3789 600 3777 3788 0
3789 -600 0
3789 -3777 0
3789 -3788 0
3790 -624 -3789 0
-3790 624 0
-3790 3789 0
3791 -127 -2420 0
-3791 127 0
-3791 2420 0
-3792 22 665 6 3791 648 0
3792 -22 0
3792 -665 0
3792 -6 0
3792 -3791 0
3792 -648 0
3793 -24 -3792 0
-3793 24 0
-3793 3792 0
3794 -62 -2428 0
-3794 62 0
-3794 2428 0
-3795 73 2432 0
3795 -73 0
3795 -2432 0
3796 -75 -3795 0
-3796 75 0
-3796 3795 0
-3797 80 3793 3794 3796 679 0
3797 -80 0
3797 -3793 0
3797 -3794 0
3797 -3796 0
3797 -679 0
3798 -89 -3797 0
-3798 89 0
-3798 3797 0
-3799 73 2521 0
3799 -73 0
3799 -2521 0
3800 -75 -3799 0
-3800 75 0
-3800 3799 0
-3801 80 787 2518 3800 76 0
3801 -80 0
3801 -787 0
3801 -2518 0
3801 -3800 0
3801 -76 0
3802 -441 -3801 0
-3802 441 0
-3802 3801 0
-3803 600 3802 625 0
3803 -600 0
3803 -3802 0
3803 -625 0
3804 -615 -3803 0
-3804 615 0
-3804 3803 0
3805 -127 -2640 0
-3805 127 0
-3805 2640 0
-3806 22 665 90 3805 91 0
3806 -22 0
3806 -665 0
3806 -90 0
3806 -3805 0
3806 -91 0
3807 -24 -3806 0
-3807 24 0
-3807 3806 0
3808 -62 -2648 0
-3808 62 0
-3808 2648 0
-3809 73 2652 0
3809 -73 0
3809 -2652 0
3810 -75 -3809 0
-3810 75 0
-3810 3809 0
-3811 80 3807 3808 3810 679 0
3811 -80 0
3811 -3807 0
3811 -3808 0
3811 -3810 0
3811 -679 0
3812 -112 -3811 0
-3812 112 0
-3812 3811 0
-3813 3 3812 0
3813 -3 0
3813 -3812 0
3814 -12 -3813 0
-3814 12 0
-3814 3813 0
-3815 14 3804 8 3814 0
3815 -14 0
3815 -3804 0
3815 -8 0
3815 -3814 0
3816 -28 -3815 0
-3816 28 0
-3816 3815 0
-3817 30 3798 3816 0
3817 -30 0
3817 -3798 0
3817 -3816 0
3818 -32 -3817 0
-3818 32 0
-3818 3817 0
-3819 34 3775 3790 3818 0
3819 -34 0
3819 -3775 0
3819 -3790 0
3819 -3818 0
3820 -2737 -3819 0
-3820 2737 0
-3820 3819 0
3821 -24 -3384 0
-3821 24 0
-3821 3384 0
3822 -36 -3386 0
-3822 36 0
-3822 3386 0
-3823 80 3821 3822 703 3726 643 0
3823 -80 0
3823 -3821 0
3823 -3822 0
3823 -703 0
3823 -3726 0
3823 -643 0
3824 -146 -3823 0
-3824 146 0
-3824 3823 0
-3825 80 3821 3822 714 3730 643 0
3825 -80 0
3825 -3821 0
3825 -3822 0
3825 -714 0
3825 -3730 0
3825 -643 0
3826 -112 -3825 0
-3826 112 0
-3826 3825 0
-3827 3 3826 0
3827 -3 0
3827 -3826 0
3828 -2 -3827 0
-3828 2 0
-3828 3827 0
-3829 5 3824 3828 0
3829 -5 0
3829 -3824 0
3829 -3828 0
3830 -2807 -3829 0
-3830 2807 0
-3830 3829 0
-3831 80 763 767 772 3597 783 0
3831 -80 0
3831 -763 0
3831 -767 0
3831 -772 0
3831 -3597 0
3831 -783 0
3832 -89 -3831 0
-3832 89 0
-3832 3831 0
-3833 80 787 790 772 3597 76 0
3833 -80 0
3833 -787 0
3833 -790 0
3833 -772 0
3833 -3597 0
3833 -76 0
3834 -441 -3833 0
-3834 441 0
-3834 3833 0
-3835 600 3834 0
3835 -600 0
3835 -3834 0
3836 -615 -3835 0
-3836 615 0
-3836 3835 0
-3837 73 806 0
3837 -73 0
3837 -806 0
3838 -75 -3837 0
-3838 75 0
-3838 3837 0
-3839 80 796 799 803 3838 783 0
3839 -80 0
3839 -796 0
3839 -799 0
3839 -803 0
3839 -3838 0
3839 -783 0
3840 -112 -3839 0
-3840 112 0
-3840 3839 0
-3841 3 3840 0
3841 -3 0
3841 -3840 0
3842 -12 -3841 0
-3842 12 0
-3842 3841 0
-3843 14 3836 8 3842 0
3843 -14 0
3843 -3836 0
3843 -8 0
3843 -3842 0
3844 -28 -3843 0
-3844 28 0
-3844 3843 0
-3845 30 3832 3844 0
3845 -30 0
3845 -3832 0
3845 -3844 0
3846 -210 -3845 0
-3846 210 0
-3846 3845 0
-3847 212 3846 0
3847 -212 0
3847 -3846 0
3848 -3099 -3847 0
-3848 3099 0
-3848 3847 0
-3849 3101 3712 3820 3830 3848 0
3849 -3101 0
3849 -3712 0
3849 -3820 0
3849 -3830 0
3849 -3848 0
3850 -3851 -3849 0
-3850 3851 0
-3850 3849 0
-3852 22 3351 6 3155 0
3852 -22 0
3852 -3351 0
3852 -6 0
3852 -3155 0
3853 -24 -3852 0
-3853 24 0
-3853 3852 0
-3854 80 3147 3853 3165 61 3142 76 0
3854 -80 0
3854 -3147 0
3854 -3853 0
3854 -3165 0
3854 -61 0
3854 -3142 0
3854 -76 0
3855 -89 -3854 0
-3855 89 0
-3855 3854 0
-3856 22 3630 90 91 0
3856 -22 0
3856 -3630 0
3856 -90 0
3856 -91 0
3857 -24 -3856 0
-3857 24 0
-3857 3856 0
-3858 80 3200 3857 3209 104 3171 76 0
3858 -80 0
3858 -3200 0
3858 -3857 0
3858 -3209 0
3858 -104 0
3858 -3171 0
3858 -76 0
3859 -112 -3858 0
-3859 112 0
-3859 3858 0
-3860 3 3859 0
3860 -3 0
3860 -3859 0
3861 -12 -3860 0
-3861 12 0
-3861 3860 0
-3862 14 3196 8 3861 0
3862 -14 0
3862 -3196 0
3862 -8 0
3862 -3861 0
3863 -28 -3862 0
-3863 28 0
-3863 3862 0
-3864 30 3855 3863 0
3864 -30 0
3864 -3855 0
3864 -3863 0
3865 -210 -3864 0
-3865 210 0
-3865 3864 0
-3866 212 3865 0
3866 -212 0
3866 -3865 0
3867 -598 -3866 0
-3867 598 0
-3867 3866 0
-3868 600 3144 3867 0
3868 -600 0
3868 -3144 0
3868 -3867 0
3869 -609 -3868 0
-3869 609 0
-3869 3868 0
-3870 22 612 6 3383 0
3870 -22 0
3870 -612 0
3870 -6 0
3870 -3383 0
3871 -26 -3870 0
-3871 26 0
-3871 3870 0
-3872 34 3871 623 631 0
3872 -34 0
3872 -3871 0
3872 -623 0
3872 -631 0
3873 -2737 -3872 0
-3873 2737 0
-3873 3872 0
-3874 3101 3222 3873 3105 3224 0
3874 -3101 0
3874 -3222 0
3874 -3873 0
3874 -3105 0
3874 -3224 0
3875 -3109 -3874 0
-3875 3109 0
-3875 3874 0
-3876 80 3875 3249 3274 61 3142 3287 0
3876 -80 0
3876 -3875 0
3876 -3249 0
3876 -3274 0
3876 -61 0
3876 -3142 0
3876 -3287 0
3877 -82 -3876 0
-3877 82 0
-3877 3876 0
-3878 121 3869 3877 83 3377 0
3878 -121 0
3878 -3869 0
3878 -3877 0
3878 -83 0
3878 -3377 0
3879 -180 -3878 0
-3879 180 0
-3879 3878 0
3880 -602 -600 0
-3880 602 0
-3880 600 0
3881 -2737 -766 0
-3881 2737 0
-3881 766 0
-3882 3101 3880 3881 3105 3132 0
3882 -3101 0
3882 -3880 0
3882 -3881 0
3882 -3105 0
3882 -3132 0
3883 -3109 -3882 0
-3883 3109 0
-3883 3882 0
3884 -3111 -3882 0
-3884 3111 0
-3884 3882 0
-3885 34 765 0
3885 -34 0
3885 -765 0
3886 -2737 -3885 0
-3886 2737 0
-3886 3885 0
-3887 3101 3880 3886 3105 3132 0
3887 -3101 0
3887 -3880 0
3887 -3886 0
3887 -3105 0
3887 -3132 0
3888 -3116 -3887 0
-3888 3116 0
-3888 3887 0
-3889 14 3888 757 8 11 0
3889 -14 0
3889 -3888 0
3889 -757 0
3889 -8 0
3889 -11 0
3890 -16 -3889 0
-3890 16 0
-3890 3889 0
-3891 18 3890 0
3891 -18 0
3891 -3890 0
3892 -20 -3891 0
-3892 20 0
-3892 3891 0
-3893 22 3884 753 6 756 3892 0
3893 -22 0
3893 -3884 0
3893 -753 0
3893 -6 0
3893 -756 0
3893 -3892 0
3894 -24 -3893 0
-3894 24 0
-3894 3893 0
-3895 3101 3880 3105 3132 0
3895 -3101 0
3895 -3880 0
3895 -3105 0
3895 -3132 0
3896 -3111 -3895 0
-3896 3111 0
-3896 3895 0
3897 -3116 -3895 0
-3897 3116 0
-3897 3895 0
-3898 14 3897 757 8 11 0
3898 -14 0
3898 -3897 0
3898 -757 0
3898 -8 0
3898 -11 0
3899 -16 -3898 0
-3899 16 0
-3899 3898 0
-3900 18 3899 0
3900 -18 0
3900 -3899 0
3901 -20 -3900 0
-3901 20 0
-3901 3900 0
-3902 22 3896 753 6 756 3901 0
3902 -22 0
3902 -3896 0
3902 -753 0
3902 -6 0
3902 -756 0
3902 -3901 0
3903 -26 -3902 0
-3903 26 0
-3903 3902 0
-3904 34 3903 765 0
3904 -34 0
3904 -3903 0
3904 -765 0
3905 -36 -3904 0
-3905 36 0
-3905 3904 0
-3906 80 3883 3894 3905 772 3597 783 0
3906 -80 0
3906 -3883 0
3906 -3894 0
3906 -3905 0
3906 -772 0
3906 -3597 0
3906 -783 0
3907 -89 -3906 0
-3907 89 0
-3907 3906 0
3908 -602 -3835 0
-3908 602 0
-3908 3835 0
3909 -441 -3600 0
-3909 441 0
-3909 3600 0
-3910 600 3909 0
3910 -600 0
3910 -3909 0
3911 -613 -3910 0
-3911 613 0
-3911 3910 0
-3912 80 772 3597 783 0
3912 -80 0
3912 -772 0
3912 -3597 0
3912 -783 0
3913 -146 -3912 0
-3913 146 0
-3913 3912 0
-3914 80 803 3838 783 0
3914 -80 0
3914 -803 0
3914 -3838 0
3914 -783 0
3915 -112 -3914 0
-3915 112 0
-3915 3914 0
-3916 3 3915 0
3916 -3 0
3916 -3915 0
3917 -2 -3916 0
-3917 2 0
-3917 3916 0
-3918 5 3913 3917 0
3918 -5 0
3918 -3913 0
3918 -3917 0
3919 -7 -3918 0
-3919 7 0
-3919 3918 0
-3920 600 3316 0
3920 -600 0
3920 -3316 0
3921 -609 -3920 0
-3921 609 0
-3921 3920 0
3922 -82 -3912 0
-3922 82 0
-3922 3912 0
-3923 121 3921 3922 83 0
3923 -121 0
3923 -3921 0
3923 -3922 0
3923 -83 0
3924 -127 -3923 0
-3924 127 0
-3924 3923 0
-3925 22 3911 3919 3924 91 0
3925 -22 0
3925 -3911 0
3925 -3919 0
3925 -3924 0
3925 -91 0
3926 -26 -3925 0
-3926 26 0
-3926 3925 0
-3927 600 3802 0
3927 -600 0
3927 -3802 0
3928 -624 -3927 0
-3928 624 0
-3928 3927 0
-3929 34 3926 3928 0
3929 -34 0
3929 -3926 0
3929 -3928 0
3930 -2737 -3929 0
-3930 2737 0
-3930 3929 0
-3931 22 753 756 91 0
3931 -22 0
3931 -753 0
3931 -756 0
3931 -91 0
3932 -24 -3931 0
-3932 24 0
-3932 3931 0
3933 -26 -3931 0
-3933 26 0
-3933 3931 0
-3934 34 3933 765 0
3934 -34 0
3934 -3933 0
3934 -765 0
3935 -36 -3934 0
-3935 36 0
-3935 3934 0
-3936 80 3932 3935 772 3597 783 0
3936 -80 0
3936 -3932 0
3936 -3935 0
3936 -772 0
3936 -3597 0
3936 -783 0
3937 -146 -3936 0
-3937 146 0
-3937 3936 0
-3938 80 3932 3935 803 3838 783 0
3938 -80 0
3938 -3932 0
3938 -3935 0
3938 -803 0
3938 -3838 0
3938 -783 0
3939 -112 -3938 0
-3939 112 0
-3939 3938 0
-3940 3 3939 0
3940 -3 0
3940 -3939 0
3941 -2 -3940 0
-3941 2 0
-3941 3940 0
-3942 5 3937 3941 0
3942 -5 0
3942 -3937 0
3942 -3941 0
3943 -2807 -3942 0
-3943 2807 0
-3943 3942 0
-3944 3101 3908 3930 3943 3132 0
3944 -3101 0
3944 -3908 0
3944 -3930 0
3944 -3943 0
3944 -3132 0
3945 -3116 -3944 0
-3945 3116 0
-3945 3944 0
3946 -3109 -3679 0
-3946 3109 0
-3946 3679 0
-3947 22 3351 6 186 91 0
3947 -22 0
3947 -3351 0
3947 -6 0
3947 -186 0
3947 -91 0
3948 -24 -3947 0
-3948 24 0
-3948 3947 0
-3949 80 3946 3948 3595 772 3597 76 0
3949 -80 0
3949 -3946 0
3949 -3948 0
3949 -3595 0
3949 -772 0
3949 -3597 0
3949 -76 0
3950 -441 -3949 0
-3950 441 0
-3950 3949 0
-3951 600 3950 0
3951 -600 0
3951 -3950 0
3952 -615 -3951 0
-3952 615 0
-3952 3951 0
3953 -2737 -798 0
-3953 2737 0
-3953 798 0
-3954 3101 3880 3953 3198 3132 0
3954 -3101 0
3954 -3880 0
3954 -3953 0
3954 -3198 0
3954 -3132 0
3955 -3109 -3954 0
-3955 3109 0
-3955 3954 0
3956 -3111 -3954 0
-3956 3111 0
-3956 3954 0
-3957 22 3956 753 90 756 91 0
3957 -22 0
3957 -3956 0
3957 -753 0
3957 -90 0
3957 -756 0
3957 -91 0
3958 -24 -3957 0
-3958 24 0
-3958 3957 0
-3959 3101 3880 3198 3132 0
3959 -3101 0
3959 -3880 0
3959 -3198 0
3959 -3132 0
3960 -3111 -3959 0
-3960 3111 0
-3960 3959 0
-3961 22 3960 753 90 756 91 0
3961 -22 0
3961 -3960 0
3961 -753 0
3961 -90 0
3961 -756 0
3961 -91 0
3962 -26 -3961 0
-3962 26 0
-3962 3961 0
-3963 34 3962 765 0
3963 -34 0
3963 -3962 0
3963 -765 0
3964 -36 -3963 0
-3964 36 0
-3964 3963 0
-3965 80 3955 3958 3964 803 3838 783 0
3965 -80 0
3965 -3955 0
3965 -3958 0
3965 -3964 0
3965 -803 0
3965 -3838 0
3965 -783 0
3966 -112 -3965 0
-3966 112 0
-3966 3965 0
-3967 3 3966 0
3967 -3 0
3967 -3966 0
3968 -12 -3967 0
-3968 12 0
-3968 3967 0
-3969 14 3945 3952 8 3968 0
3969 -14 0
3969 -3945 0
3969 -3952 0
3969 -8 0
3969 -3968 0
3970 -28 -3969 0
-3970 28 0
-3970 3969 0
-3971 30 3907 3970 0
3971 -30 0
3971 -3907 0
3971 -3970 0
3972 -210 -3971 0
-3972 210 0
-3972 3971 0
-3973 212 3972 0
3973 -212 0
3973 -3972 0
3974 -214 -3973 0
-3974 214 0
-3974 3973 0
-3975 216 3850 3879 3974 0
3975 -216 0
3975 -3850 0
3975 -3879 0
3975 -3974 0
3976 -218 -3975 0
-3976 218 0
-3976 3975 0
-3977 73 219 0
3977 -73 0
3977 -219 0
3978 -75 -3977 0
-3978 75 0
-3978 3977 0
-3979 80 3108 3122 3140 3978 76 0
3979 -80 0
3979 -3108 0
3979 -3122 0
3979 -3140 0
3979 -3978 0
3979 -76 0
3980 -441 -3979 0
-3980 441 0
-3980 3979 0
-3981 80 3147 3853 3165 3978 76 0
3981 -80 0
3981 -3147 0
3981 -3853 0
3981 -3165 0
3981 -3978 0
3981 -76 0
3982 -89 -3981 0
-3982 89 0
-3982 3981 0
-3983 80 3978 76 0
3983 -80 0
3983 -3978 0
3983 -76 0
3984 -146 -3983 0
-3984 146 0
-3984 3983 0
3985 -112 -3983 0
-3985 112 0
-3985 3983 0
-3986 3 3985 0
3986 -3 0
3986 -3985 0
3987 -2 -3986 0
-3987 2 0
-3987 3986 0
-3988 5 3984 3987 0
3988 -5 0
3988 -3984 0
3988 -3987 0
3989 -7 -3988 0
-3989 7 0
-3989 3988 0
-3990 22 3989 91 0
3990 -22 0
3990 -3989 0
3990 -91 0
3991 -26 -3990 0
-3991 26 0
-3991 3990 0
-3992 34 3991 0
3992 -34 0
3992 -3991 0
3993 -2737 -3992 0
-3993 2737 0
-3993 3992 0
-3994 80 3183 3186 3978 76 0
3994 -80 0
3994 -3183 0
3994 -3186 0
3994 -3978 0
3994 -76 0
3995 -146 -3994 0
-3995 146 0
-3995 3994 0
3996 -112 -3994 0
-3996 112 0
-3996 3994 0
-3997 3 3996 0
3997 -3 0
3997 -3996 0
3998 -2 -3997 0
-3998 2 0
-3998 3997 0
-3999 5 3995 3998 0
3999 -5 0
3999 -3995 0
3999 -3998 0
4000 -2807 -3999 0
-4000 2807 0
-4000 3999 0
-4001 3101 3993 4000 3132 0
4001 -3101 0
4001 -3993 0
4001 -4000 0
4001 -3132 0
4002 -3116 -4001 0
-4002 3116 0
-4002 4001 0
-4003 80 3200 3857 3209 3978 76 0
4003 -80 0
4003 -3200 0
4003 -3857 0
4003 -3209 0
4003 -3978 0
4003 -76 0
4004 -112 -4003 0
-4004 112 0
-4004 4003 0
-4005 3 4004 0
4005 -3 0
4005 -4004 0
4006 -12 -4005 0
-4006 12 0
-4006 4005 0
-4007 14 4002 8 4006 0
4007 -14 0
4007 -4002 0
4007 -8 0
4007 -4006 0
4008 -28 -4007 0
-4008 28 0
-4008 4007 0
-4009 30 3982 4008 0
4009 -30 0
4009 -3982 0
4009 -4008 0
4010 -210 -4009 0
-4010 210 0
-4010 4009 0
-4011 212 4010 0
4011 -212 0
4011 -4010 0
4012 -598 -4011 0
-4012 598 0
-4012 4011 0
-4013 600 3980 4012 0
4013 -600 0
4013 -3980 0
4013 -4012 0
4014 -609 -4013 0
-4014 609 0
-4014 4013 0
-4015 80 3875 3249 3274 3978 3287 0
4015 -80 0
4015 -3875 0
4015 -3249 0
4015 -3274 0
4015 -3978 0
4015 -3287 0
4016 -82 -4015 0
-4016 82 0
-4016 4015 0
-4017 80 3292 3301 3309 3978 679 0
4017 -80 0
4017 -3292 0
4017 -3301 0
4017 -3309 0
4017 -3978 0
4017 -679 0
4018 -89 -4017 0
-4018 89 0
-4018 4017 0
-4019 80 657 660 3978 76 0
4019 -80 0
4019 -657 0
4019 -660 0
4019 -3978 0
4019 -76 0
4020 -441 -4019 0
-4020 441 0
-4020 4019 0
-4021 600 4020 625 0
4021 -600 0
4021 -4020 0
4021 -625 0
4022 -602 -4021 0
-4022 602 0
-4022 4021 0
4023 -441 -3983 0
-4023 441 0
-4023 3983 0
-4024 600 4023 625 0
4024 -600 0
4024 -4023 0
4024 -625 0
4025 -613 -4024 0
-4025 613 0
-4025 4024 0
-4026 80 3978 679 0
4026 -80 0
4026 -3978 0
4026 -679 0
4027 -146 -4026 0
-4027 146 0
-4027 4026 0
4028 -112 -4026 0
-4028 112 0
-4028 4026 0
-4029 3 4028 0
4029 -3 0
4029 -4028 0
4030 -2 -4029 0
-4030 2 0
-4030 4029 0
-4031 5 4027 4030 0
4031 -5 0
4031 -4027 0
4031 -4030 0
4032 -7 -4031 0
-4032 7 0
-4032 4031 0
-4033 22 4025 4032 91 0
4033 -22 0
4033 -4025 0
4033 -4032 0
4033 -91 0
4034 -26 -4033 0
-4034 26 0
-4034 4033 0
-4035 80 657 3978 76 0
4035 -80 0
4035 -657 0
4035 -3978 0
4035 -76 0
4036 -441 -4035 0
-4036 441 0
-4036 4035 0
-4037 600 4036 625 0
4037 -600 0
4037 -4036 0
4037 -625 0
4038 -624 -4037 0
-4038 624 0
-4038 4037 0
-4039 34 4034 4038 0
4039 -34 0
4039 -4034 0
4039 -4038 0
4040 -2737 -4039 0
-4040 2737 0
-4040 4039 0
-4041 80 3336 3339 3978 679 0
4041 -80 0
4041 -3336 0
4041 -3339 0
4041 -3978 0
4041 -679 0
4042 -146 -4041 0
-4042 146 0
-4042 4041 0
4043 -112 -4041 0
-4043 112 0
-4043 4041 0
-4044 3 4043 0
4044 -3 0
4044 -4043 0
4045 -2 -4044 0
-4045 2 0
-4045 4044 0
-4046 5 4042 4045 0
4046 -5 0
4046 -4042 0
4046 -4045 0
4047 -2807 -4046 0
-4047 2807 0
-4047 4046 0
-4048 3101 4022 4040 4047 3132 0
4048 -3101 0
4048 -4022 0
4048 -4040 0
4048 -4047 0
4048 -3132 0
4049 -3116 -4048 0
-4049 3116 0
-4049 4048 0
-4050 80 3350 3353 3165 3978 76 0
4050 -80 0
4050 -3350 0
4050 -3353 0
4050 -3165 0
4050 -3978 0
4050 -76 0
4051 -441 -4050 0
-4051 441 0
-4051 4050 0
-4052 600 4051 625 0
4052 -600 0
4052 -4051 0
4052 -625 0
4053 -615 -4052 0
-4053 615 0
-4053 4052 0
-4054 80 3360 3363 3369 3978 679 0
4054 -80 0
4054 -3360 0
4054 -3363 0
4054 -3369 0
4054 -3978 0
4054 -679 0
4055 -112 -4054 0
-4055 112 0
-4055 4054 0
-4056 3 4055 0
4056 -3 0
4056 -4055 0
4057 -12 -4056 0
-4057 12 0
-4057 4056 0
-4058 14 4049 4053 8 4057 0
4058 -14 0
4058 -4049 0
4058 -4053 0
4058 -8 0
4058 -4057 0
4059 -28 -4058 0
-4059 28 0
-4059 4058 0
-4060 30 4018 4059 0
4060 -30 0
4060 -4018 0
4060 -4059 0
4061 -119 -4060 0
-4061 119 0
-4061 4060 0
-4062 121 4014 4016 83 4061 0
4062 -121 0
4062 -4014 0
4062 -4016 0
4062 -83 0
4062 -4061 0
4063 -134 -4062 0
-4063 134 0
-4063 4062 0
-4064 80 3389 3397 3405 3978 3447 0
4064 -80 0
4064 -3389 0
4064 -3397 0
4064 -3405 0
4064 -3978 0
4064 -3447 0
4065 -146 -4064 0
-4065 146 0
-4065 4064 0
-4066 80 3451 3480 3511 3978 3550 0
4066 -80 0
4066 -3451 0
4066 -3480 0
4066 -3511 0
4066 -3978 0
4066 -3550 0
4067 -112 -4066 0
-4067 112 0
-4067 4066 0
-4068 3 4067 0
4068 -3 0
4068 -4067 0
4069 -2 -4068 0
-4069 2 0
-4069 4068 0
-4070 5 4065 4069 0
4070 -5 0
4070 -4065 0
4070 -4069 0
4071 -38 -4070 0
-4071 38 0
-4071 4070 0
-4072 40 4063 4071 0
4072 -40 0
4072 -4063 0
4072 -4071 0
4073 -42 -4072 0
-4073 42 0
-4073 4072 0
4074 -44 -4070 0
-4074 44 0
-4074 4070 0
-4075 80 3654 3656 3660 3978 3690 0
4075 -80 0
4075 -3654 0
4075 -3656 0
4075 -3660 0
4075 -3978 0
4075 -3690 0
4076 -248 -4075 0
-4076 248 0
-4076 4075 0
4077 -250 -4075 0
-4077 250 0
-4077 4075 0
-4078 50 4077 0
4078 -50 0
4078 -4077 0
4079 -49 -4078 0
-4079 49 0
-4079 4078 0
-4080 52 4076 45 4079 0
4080 -52 0
4080 -4076 0
4080 -45 0
4080 -4079 0
4081 -54 -4080 0
-4081 54 0
-4081 4080 0
-4082 56 4074 4081 0
4082 -56 0
4082 -4074 0
4082 -4081 0
4083 -58 -4082 0
-4083 58 0
-4083 4082 0
-4084 60 4073 4083 0
4084 -60 0
4084 -4073 0
4084 -4083 0
4085 -259 -4084 0
-4085 259 0
-4085 4084 0
-4086 80 3108 3122 3140 76 0
4086 -80 0
4086 -3108 0
4086 -3122 0
4086 -3140 0
4086 -76 0
4087 -441 -4086 0
-4087 441 0
-4087 4086 0
-4088 80 3147 3853 3165 76 0
4088 -80 0
4088 -3147 0
4088 -3853 0
4088 -3165 0
4088 -76 0
4089 -89 -4088 0
-4089 89 0
-4089 4088 0
4090 -7 -1092 0
-4090 7 0
-4090 1092 0
-4091 22 4090 91 0
4091 -22 0
4091 -4090 0
4091 -91 0
4092 -26 -4091 0
-4092 26 0
-4092 4091 0
-4093 34 4092 0
4093 -34 0
4093 -4092 0
4094 -2737 -4093 0
-4094 2737 0
-4094 4093 0
-4095 80 3183 3186 76 0
4095 -80 0
4095 -3183 0
4095 -3186 0
4095 -76 0
4096 -146 -4095 0
-4096 146 0
-4096 4095 0
4097 -112 -4095 0
-4097 112 0
-4097 4095 0
-4098 3 4097 0
4098 -3 0
4098 -4097 0
4099 -2 -4098 0
-4099 2 0
-4099 4098 0
-4100 5 4096 4099 0
4100 -5 0
4100 -4096 0
4100 -4099 0
4101 -2807 -4100 0
-4101 2807 0
-4101 4100 0
-4102 3101 4094 4101 3132 0
4102 -3101 0
4102 -4094 0
4102 -4101 0
4102 -3132 0
4103 -3116 -4102 0
-4103 3116 0
-4103 4102 0
-4104 80 3200 3857 3209 76 0
4104 -80 0
4104 -3200 0
4104 -3857 0
4104 -3209 0
4104 -76 0
4105 -112 -4104 0
-4105 112 0
-4105 4104 0
-4106 3 4105 0
4106 -3 0
4106 -4105 0
4107 -12 -4106 0
-4107 12 0
-4107 4106 0
-4108 14 4103 8 4107 0
4108 -14 0
4108 -4103 0
4108 -8 0
4108 -4107 0
4109 -28 -4108 0
-4109 28 0
-4109 4108 0
-4110 30 4089 4109 0
4110 -30 0
4110 -4089 0
4110 -4109 0
4111 -210 -4110 0
-4111 210 0
-4111 4110 0
-4112 212 4111 0
4112 -212 0
4112 -4111 0
4113 -598 -4112 0
-4113 598 0
-4113 4112 0
-4114 600 4087 4113 0
4114 -600 0
4114 -4087 0
4114 -4113 0
4115 -609 -4114 0
-4115 609 0
-4115 4114 0
-4116 80 3875 3249 3274 3287 0
4116 -80 0
4116 -3875 0
4116 -3249 0
4116 -3274 0
4116 -3287 0
4117 -82 -4116 0
-4117 82 0
-4117 4116 0
-4118 80 3292 3301 3309 679 0
4118 -80 0
4118 -3292 0
4118 -3301 0
4118 -3309 0
4118 -679 0
4119 -89 -4118 0
-4119 89 0
-4119 4118 0
4120 -602 -900 0
-4120 602 0
-4120 900 0
4121 -613 -1260 0
-4121 613 0
-4121 1260 0
4122 -146 -1258 0
-4122 146 0
-4122 1258 0
4123 -2 -1263 0
-4123 2 0
-4123 1263 0
-4124 5 4122 4123 0
4124 -5 0
4124 -4122 0
4124 -4123 0
4125 -7 -4124 0
-4125 7 0
-4125 4124 0
-4126 22 4121 4125 91 0
4126 -22 0
4126 -4121 0
4126 -4125 0
4126 -91 0
4127 -26 -4126 0
-4127 26 0
-4127 4126 0
4128 -624 -2245 0
-4128 624 0
-4128 2245 0
-4129 34 4127 4128 0
4129 -34 0
4129 -4127 0
4129 -4128 0
4130 -2737 -4129 0
-4130 2737 0
-4130 4129 0
-4131 80 3336 3339 679 0
4131 -80 0
4131 -3336 0
4131 -3339 0
4131 -679 0
4132 -146 -4131 0
-4132 146 0
-4132 4131 0
4133 -112 -4131 0
-4133 112 0
-4133 4131 0
-4134 3 4133 0
4134 -3 0
4134 -4133 0
4135 -2 -4134 0
-4135 2 0
-4135 4134 0
-4136 5 4132 4135 0
4136 -5 0
4136 -4132 0
4136 -4135 0
4137 -2807 -4136 0
-4137 2807 0
-4137 4136 0
-4138 3101 4120 4130 4137 3132 0
4138 -3101 0
4138 -4120 0
4138 -4130 0
4138 -4137 0
4138 -3132 0
4139 -3116 -4138 0
-4139 3116 0
-4139 4138 0
-4140 80 3350 3353 3165 76 0
4140 -80 0
4140 -3350 0
4140 -3353 0
4140 -3165 0
4140 -76 0
4141 -441 -4140 0
-4141 441 0
-4141 4140 0
-4142 600 4141 625 0
4142 -600 0
4142 -4141 0
4142 -625 0
4143 -615 -4142 0
-4143 615 0
-4143 4142 0
-4144 80 3360 3363 3369 679 0
4144 -80 0
4144 -3360 0
4144 -3363 0
4144 -3369 0
4144 -679 0
4145 -112 -4144 0
-4145 112 0
-4145 4144 0
-4146 3 4145 0
4146 -3 0
4146 -4145 0
4147 -12 -4146 0
-4147 12 0
-4147 4146 0
-4148 14 4139 4143 8 4147 0
4148 -14 0
4148 -4139 0
4148 -4143 0
4148 -8 0
4148 -4147 0
4149 -28 -4148 0
-4149 28 0
-4149 4148 0
-4150 30 4119 4149 0
4150 -30 0
4150 -4119 0
4150 -4149 0
4151 -119 -4150 0
-4151 119 0
-4151 4150 0
-4152 121 4115 4117 83 4151 0
4152 -121 0
4152 -4115 0
4152 -4117 0
4152 -83 0
4152 -4151 0
4153 -134 -4152 0
-4153 134 0
-4153 4152 0
-4154 80 3389 3397 3405 3447 0
4154 -80 0
4154 -3389 0
4154 -3397 0
4154 -3405 0
4154 -3447 0
4155 -146 -4154 0
-4155 146 0
-4155 4154 0
-4156 80 3451 3480 3511 3550 0
4156 -80 0
4156 -3451 0
4156 -3480 0
4156 -3511 0
4156 -3550 0
4157 -112 -4156 0
-4157 112 0
-4157 4156 0
-4158 3 4157 0
4158 -3 0
4158 -4157 0
4159 -2 -4158 0
-4159 2 0
-4159 4158 0
-4160 5 4155 4159 0
4160 -5 0
4160 -4155 0
4160 -4159 0
4161 -38 -4160 0
-4161 38 0
-4161 4160 0
-4162 40 4153 4161 0
4162 -40 0
4162 -4153 0
4162 -4161 0
4163 -42 -4162 0
-4163 42 0
-4163 4162 0
4164 -44 -4160 0
-4164 44 0
-4164 4160 0
-4165 80 3654 3656 3660 3690 0
4165 -80 0
4165 -3654 0
4165 -3656 0
4165 -3660 0
4165 -3690 0
4166 -248 -4165 0
-4166 248 0
-4166 4165 0
4167 -250 -4165 0
-4167 250 0
-4167 4165 0
-4168 50 4167 0
4168 -50 0
4168 -4167 0
4169 -49 -4168 0
-4169 49 0
-4169 4168 0
-4170 52 4166 45 4169 0
4170 -52 0
4170 -4166 0
4170 -45 0
4170 -4169 0
4171 -54 -4170 0
-4171 54 0
-4171 4170 0
-4172 56 4164 4171 0
4172 -56 0
4172 -4164 0
4172 -4171 0
4173 -58 -4172 0
-4173 58 0
-4173 4172 0
-4174 60 4163 4173 0
4174 -60 0
4174 -4163 0
4174 -4173 0
4175 -67 -4174 0
-4175 67 0
-4175 4174 0
-4176 69 4175 0
4176 -69 0
4176 -4175 0
4177 -71 -4176 0
-4177 71 0
-4177 4176 0
-4178 73 4177 0
4178 -73 0
4178 -4177 0
4179 -299 -4178 0
-4179 299 0
-4179 4178 0
-4180 80 938 941 138 3696 76 0
4180 -80 0
4180 -938 0
4180 -941 0
4180 -138 0
4180 -3696 0
4180 -76 0
4181 -441 -4180 0
-4181 441 0
-4181 4180 0
4182 -89 -3833 0
-4182 89 0
-4182 3833 0
-4183 30 4182 0
4183 -30 0
4183 -4182 0
4184 -210 -4183 0
-4184 210 0
-4184 4183 0
-4185 212 4184 0
4185 -212 0
4185 -4184 0
4186 -598 -4185 0
-4186 598 0
-4186 4185 0
-4187 600 4181 4186 0
4187 -600 0
4187 -4181 0
4187 -4186 0
4188 -602 -4187 0
-4188 602 0
-4188 4187 0
4189 -613 -3762 0
-4189 613 0
-4189 3762 0
-4190 40 965 37 0
4190 -40 0
4190 -965 0
4190 -37 0
4191 -42 -4190 0
-4191 42 0
-4191 4190 0
-4192 60 4191 57 0
4192 -60 0
4192 -4191 0
4192 -57 0
4193 -62 -4192 0
-4193 62 0
-4193 4192 0
4194 -67 -4192 0
-4194 67 0
-4194 4192 0
-4195 69 4194 0
4195 -69 0
4195 -4194 0
4196 -71 -4195 0
-4196 71 0
-4196 4195 0
-4197 73 4196 0
4197 -73 0
4197 -4196 0
4198 -75 -4197 0
-4198 75 0
-4198 4197 0
-4199 80 4193 4198 980 0
4199 -80 0
4199 -4193 0
4199 -4198 0
4199 -980 0
4200 -146 -4199 0
-4200 146 0
-4200 4199 0
4201 -2 -3768 0
-4201 2 0
-4201 3768 0
-4202 5 4200 4201 0
4202 -5 0
4202 -4200 0
4202 -4201 0
4203 -7 -4202 0
-4203 7 0
-4203 4202 0
-4204 30 3737 0
4204 -30 0
4204 -3737 0
4205 -210 -4204 0
-4205 210 0
-4205 4204 0
-4206 212 4205 0
4206 -212 0
4206 -4205 0
4207 -598 -4206 0
-4207 598 0
-4207 4206 0
-4208 600 3316 4207 0
4208 -600 0
4208 -3316 0
4208 -4207 0
4209 -609 -4208 0
-4209 609 0
-4209 4208 0
4210 -82 -4199 0
-4210 82 0
-4210 4199 0
-4211 30 3749 0
4211 -30 0
4211 -3749 0
4212 -119 -4211 0
-4212 119 0
-4212 4211 0
-4213 121 4209 4210 83 4212 0
4213 -121 0
4213 -4209 0
4213 -4210 0
4213 -83 0
4213 -4212 0
4214 -127 -4213 0
-4214 127 0
-4214 4213 0
-4215 22 4189 4203 4214 91 0
4215 -22 0
4215 -4189 0
4215 -4203 0
4215 -4214 0
4215 -91 0
4216 -26 -4215 0
-4216 26 0
-4216 4215 0
-4217 80 938 138 3696 76 0
4217 -80 0
4217 -938 0
4217 -138 0
4217 -3696 0
4217 -76 0
4218 -441 -4217 0
-4218 441 0
-4218 4217 0
4219 -89 -3801 0
-4219 89 0
-4219 3801 0
-4220 30 4219 0
4220 -30 0
4220 -4219 0
4221 -210 -4220 0
-4221 210 0
-4221 4220 0
-4222 212 4221 0
4222 -212 0
4222 -4221 0
4223 -598 -4222 0
-4223 598 0
-4223 4222 0
-4224 600 4218 4223 0
4224 -600 0
4224 -4218 0
4224 -4223 0
4225 -624 -4224 0
-4225 624 0
-4225 4224 0
-4226 22 665 6 3805 91 0
4226 -22 0
4226 -665 0
4226 -6 0
4226 -3805 0
4226 -91 0
4227 -24 -4226 0
-4227 24 0
-4227 4226 0
-4228 40 2645 37 0
4228 -40 0
4228 -2645 0
4228 -37 0
4229 -42 -4228 0
-4229 42 0
-4229 4228 0
-4230 60 4229 57 0
4230 -60 0
4230 -4229 0
4230 -57 0
4231 -62 -4230 0
-4231 62 0
-4231 4230 0
4232 -67 -4230 0
-4232 67 0
-4232 4230 0
-4233 69 4232 0
4233 -69 0
4233 -4232 0
4234 -71 -4233 0
-4234 71 0
-4234 4233 0
-4235 73 4234 0
4235 -73 0
4235 -4234 0
4236 -75 -4235 0
-4236 75 0
-4236 4235 0
-4237 80 4227 4231 4236 679 0
4237 -80 0
4237 -4227 0
4237 -4231 0
4237 -4236 0
4237 -679 0
4238 -89 -4237 0
-4238 89 0
-4238 4237 0
-4239 30 4238 0
4239 -30 0
4239 -4238 0
4240 -32 -4239 0
-4240 32 0
-4240 4239 0
-4241 34 4216 4225 4240 0
4241 -34 0
4241 -4216 0
4241 -4225 0
4241 -4240 0
4242 -2737 -4241 0
-4242 2737 0
-4242 4241 0
-4243 22 955 958 91 0
4243 -22 0
4243 -955 0
4243 -958 0
4243 -91 0
4244 -24 -4243 0
-4244 24 0
-4244 4243 0
4245 -26 -4243 0
-4245 26 0
-4245 4243 0
-4246 34 4245 962 306 0
4246 -34 0
4246 -4245 0
4246 -962 0
4246 -306 0
4247 -36 -4246 0
-4247 36 0
-4247 4246 0
-4248 80 4244 4247 4193 4198 980 0
4248 -80 0
4248 -4244 0
4248 -4247 0
4248 -4193 0
4248 -4198 0
4248 -980 0
4249 -146 -4248 0
-4249 146 0
-4249 4248 0
-4250 80 4244 4247 969 3765 980 0
4250 -80 0
4250 -4244 0
4250 -4247 0
4250 -969 0
4250 -3765 0
4250 -980 0
4251 -112 -4250 0
-4251 112 0
-4251 4250 0
-4252 3 4251 0
4252 -3 0
4252 -4251 0
4253 -2 -4252 0
-4253 2 0
-4253 4252 0
-4254 5 4249 4253 0
4254 -5 0
4254 -4249 0
4254 -4253 0
4255 -2807 -4254 0
-4255 2807 0
-4255 4254 0
-4256 22 753 6 756 91 0
4256 -22 0
4256 -753 0
4256 -6 0
4256 -756 0
4256 -91 0
4257 -24 -4256 0
-4257 24 0
-4257 4256 0
4258 -26 -4256 0
-4258 26 0
-4258 4256 0
-4259 34 4258 765 0
4259 -34 0
4259 -4258 0
4259 -765 0
4260 -36 -4259 0
-4260 36 0
-4260 4259 0
-4261 80 4257 4260 772 3597 783 0
4261 -80 0
4261 -4257 0
4261 -4260 0
4261 -772 0
4261 -3597 0
4261 -783 0
4262 -89 -4261 0
-4262 89 0
-4262 4261 0
-4263 30 4262 0
4263 -30 0
4263 -4262 0
4264 -210 -4263 0
-4264 210 0
-4264 4263 0
-4265 212 4264 0
4265 -212 0
4265 -4264 0
4266 -3099 -4265 0
-4266 3099 0
-4266 4265 0
-4267 3101 4188 4242 4255 4266 0
4267 -3101 0
4267 -4188 0
4267 -4242 0
4267 -4255 0
4267 -4266 0
4268 -3116 -4267 0
-4268 3116 0
-4268 4267 0
4269 -2737 -940 0
-4269 2737 0
-4269 940 0
-4270 3101 4269 3105 3106 0
4270 -3101 0
4270 -4269 0
4270 -3105 0
4270 -3106 0
4271 -3109 -4270 0
-4271 3109 0
-4271 4270 0
-4272 22 3560 6 302 91 0
4272 -22 0
4272 -3560 0
4272 -6 0
4272 -302 0
4272 -91 0
4273 -24 -4272 0
-4273 24 0
-4273 4272 0
-4274 22 3124 6 302 91 0
4274 -22 0
4274 -3124 0
4274 -6 0
4274 -302 0
4274 -91 0
4275 -26 -4274 0
-4275 26 0
-4275 4274 0
-4276 34 4275 306 0
4276 -34 0
4276 -4275 0
4276 -306 0
4277 -36 -4276 0
-4277 36 0
-4277 4276 0
-4278 80 4271 4273 4277 4193 4198 76 0
4278 -80 0
4278 -4271 0
4278 -4273 0
4278 -4277 0
4278 -4193 0
4278 -4198 0
4278 -76 0
4279 -441 -4278 0
-4279 441 0
-4279 4278 0
4280 -89 -3949 0
-4280 89 0
-4280 3949 0
-4281 30 4280 0
4281 -30 0
4281 -4280 0
4282 -210 -4281 0
-4282 210 0
-4282 4281 0
-4283 212 4282 0
4283 -212 0
4283 -4282 0
4284 -598 -4283 0
-4284 598 0
-4284 4283 0
-4285 600 4279 4284 0
4285 -600 0
4285 -4279 0
4285 -4284 0
4286 -615 -4285 0
-4286 615 0
-4286 4285 0
4287 -602 -954 0
-4287 602 0
-4287 954 0
4288 -2737 -963 0
-4288 2737 0
-4288 963 0
-4289 3101 4287 4288 3198 3240 0
4289 -3101 0
4289 -4287 0
4289 -4288 0
4289 -3198 0
4289 -3240 0
4290 -3109 -4289 0
-4290 3109 0
-4290 4289 0
4291 -3111 -4289 0
-4291 3111 0
-4291 4289 0
-4292 22 4291 955 90 958 91 0
4292 -22 0
4292 -4291 0
4292 -955 0
4292 -90 0
4292 -958 0
4292 -91 0
4293 -24 -4292 0
-4293 24 0
-4293 4292 0
-4294 3101 4287 3198 3240 0
4294 -3101 0
4294 -4287 0
4294 -3198 0
4294 -3240 0
4295 -3111 -4294 0
-4295 3111 0
-4295 4294 0
-4296 22 4295 955 90 958 91 0
4296 -22 0
4296 -4295 0
4296 -955 0
4296 -90 0
4296 -958 0
4296 -91 0
4297 -26 -4296 0
-4297 26 0
-4297 4296 0
-4298 34 4297 962 306 0
4298 -34 0
4298 -4297 0
4298 -962 0
4298 -306 0
4299 -36 -4298 0
-4299 36 0
-4299 4298 0
-4300 80 4290 4293 4299 969 3765 980 0
4300 -80 0
4300 -4290 0
4300 -4293 0
4300 -4299 0
4300 -969 0
4300 -3765 0
4300 -980 0
4301 -112 -4300 0
-4301 112 0
-4301 4300 0
-4302 3 4301 0
4302 -3 0
4302 -4301 0
4303 -12 -4302 0
-4303 12 0
-4303 4302 0
-4304 14 4268 4286 8 4303 0
4304 -14 0
4304 -4268 0
4304 -4286 0
4304 -8 0
4304 -4303 0
4305 -325 -4304 0
-4305 325 0
-4305 4304 0
-4306 80 3559 3565 3572 3579 3584 0
4306 -80 0
4306 -3559 0
4306 -3565 0
4306 -3572 0
4306 -3579 0
4306 -3584 0
4307 -441 -4306 0
-4307 441 0
-4307 4306 0
-4308 80 3589 3591 3595 772 3597 0
4308 -80 0
4308 -3589 0
4308 -3591 0
4308 -3595 0
4308 -772 0
4308 -3597 0
4309 -89 -4308 0
-4309 89 0
-4309 4308 0
-4310 80 772 3597 0
4310 -80 0
4310 -772 0
4310 -3597 0
4311 -146 -4310 0
-4311 146 0
-4311 4310 0
-4312 80 196 3603 0
4312 -80 0
4312 -196 0
4312 -3603 0
4313 -112 -4312 0
-4313 112 0
-4313 4312 0
-4314 3 4313 0
4314 -3 0
4314 -4313 0
4315 -2 -4314 0
-4315 2 0
-4315 4314 0
-4316 5 4311 4315 0
4316 -5 0
4316 -4311 0
4316 -4315 0
4317 -7 -4316 0
-4317 7 0
-4317 4316 0
4318 -82 -4310 0
-4318 82 0
-4318 4310 0
-4319 121 4318 83 0
4319 -121 0
4319 -4318 0
4319 -83 0
4320 -127 -4319 0
-4320 127 0
-4320 4319 0
-4321 22 4317 4320 91 0
4321 -22 0
4321 -4317 0
4321 -4320 0
4321 -91 0
4322 -26 -4321 0
-4322 26 0
-4322 4321 0
-4323 34 4322 0
4323 -34 0
4323 -4322 0
4324 -2737 -4323 0
-4324 2737 0
-4324 4323 0
-4325 80 2514 2920 772 3597 0
4325 -80 0
4325 -2514 0
4325 -2920 0
4325 -772 0
4325 -3597 0
4326 -146 -4325 0
-4326 146 0
-4326 4325 0
-4327 80 2514 2920 196 3603 0
4327 -80 0
4327 -2514 0
4327 -2920 0
4327 -196 0
4327 -3603 0
4328 -112 -4327 0
-4328 112 0
-4328 4327 0
-4329 3 4328 0
4329 -3 0
4329 -4328 0
4330 -2 -4329 0
-4330 2 0
-4330 4329 0
-4331 5 4326 4330 0
4331 -5 0
4331 -4326 0
4331 -4330 0
4332 -2807 -4331 0
-4332 2807 0
-4332 4331 0
-4333 3101 4324 4332 3132 0
4333 -3101 0
4333 -4324 0
4333 -4332 0
4333 -3132 0
4334 -3116 -4333 0
-4334 3116 0
-4334 4333 0
-4335 80 3629 3632 3636 196 3603 0
4335 -80 0
4335 -3629 0
4335 -3632 0
4335 -3636 0
4335 -196 0
4335 -3603 0
4336 -112 -4335 0
-4336 112 0
-4336 4335 0
-4337 3 4336 0
4337 -3 0
4337 -4336 0
4338 -12 -4337 0
-4338 12 0
-4338 4337 0
-4339 14 4334 8 4338 0
4339 -14 0
4339 -4334 0
4339 -8 0
4339 -4338 0
4340 -28 -4339 0
-4340 28 0
-4340 4339 0
-4341 30 4309 4340 0
4341 -30 0
4341 -4309 0
4341 -4340 0
4342 -210 -4341 0
-4342 210 0
-4342 4341 0
-4343 212 4342 0
4343 -212 0
4343 -4342 0
4344 -598 -4343 0
-4344 598 0
-4344 4343 0
-4345 600 4307 4344 0
4345 -600 0
4345 -4307 0
4345 -4344 0
4346 -641 -4345 0
-4346 641 0
-4346 4345 0
-4347 78 4346 0
4347 -78 0
4347 -4346 0
4348 -329 -4347 0
-4348 329 0
-4348 4347 0
4349 -4350 -3849 0
-4349 4350 0
-4349 3849 0
-4351 3101 4287 3239 3105 3240 0
4351 -3101 0
4351 -4287 0
4351 -3239 0
4351 -3105 0
4351 -3240 0
4352 -3116 -4351 0
-4352 3116 0
-4352 4351 0
-4353 14 4352 3243 8 11 0
4353 -14 0
4353 -4352 0
4353 -3243 0
4353 -8 0
4353 -11 0
4354 -16 -4353 0
-4354 16 0
-4354 4353 0
-4355 18 4354 0
4355 -18 0
4355 -4354 0
4356 -20 -4355 0
-4356 20 0
-4356 4355 0
-4357 22 3230 3237 6 4356 0
4357 -22 0
4357 -3230 0
4357 -3237 0
4357 -6 0
4357 -4356 0
4358 -24 -4357 0
-4358 24 0
-4358 4357 0
-4359 3101 4287 3105 3240 0
4359 -3101 0
4359 -4287 0
4359 -3105 0
4359 -3240 0
4360 -3116 -4359 0
-4360 3116 0
-4360 4359 0
-4361 14 4360 3243 8 11 0
4361 -14 0
4361 -4360 0
4361 -3243 0
4361 -8 0
4361 -11 0
4362 -16 -4361 0
-4362 16 0
-4362 4361 0
-4363 18 4362 0
4363 -18 0
4363 -4362 0
4364 -20 -4363 0
-4364 20 0
-4364 4363 0
-4365 22 3251 3256 6 4364 0
4365 -22 0
4365 -3251 0
4365 -3256 0
4365 -6 0
4365 -4364 0
4366 -26 -4365 0
-4366 26 0
-4366 4365 0
-4367 34 4366 3265 3272 0
4367 -34 0
4367 -4366 0
4367 -3265 0
4367 -3272 0
4368 -36 -4367 0
-4368 36 0
-4368 4367 0
-4369 80 3875 4358 4368 3978 3287 0
4369 -80 0
4369 -3875 0
4369 -4358 0
4369 -4368 0
4369 -3978 0
4369 -3287 0
4370 -82 -4369 0
-4370 82 0
-4370 4369 0
-4371 121 4014 4370 83 4061 0
4371 -121 0
4371 -4014 0
4371 -4370 0
4371 -83 0
4371 -4061 0
4372 -134 -4371 0
-4372 134 0
-4372 4371 0
-4373 22 3230 3237 3395 4356 0
4373 -22 0
4373 -3230 0
4373 -3237 0
4373 -3395 0
4373 -4356 0
4374 -24 -4373 0
-4374 24 0
-4374 4373 0
-4375 22 3251 3256 3401 4364 0
4375 -22 0
4375 -3251 0
4375 -3256 0
4375 -3401 0
4375 -4364 0
4376 -26 -4375 0
-4376 26 0
-4376 4375 0
-4377 34 4376 3265 3272 0
4377 -34 0
4377 -4376 0
4377 -3265 0
4377 -3272 0
4378 -36 -4377 0
-4378 36 0
-4378 4377 0
-4379 80 3389 4374 4378 3978 3447 0
4379 -80 0
4379 -3389 0
4379 -4374 0
4379 -4378 0
4379 -3978 0
4379 -3447 0
4380 -146 -4379 0
-4380 146 0
-4380 4379 0
-4381 3101 4287 3239 3198 3240 0
4381 -3101 0
4381 -4287 0
4381 -3239 0
4381 -3198 0
4381 -3240 0
4382 -3116 -4381 0
-4382 3116 0
-4382 4381 0
-4383 14 4382 3243 8 11 0
4383 -14 0
4383 -4382 0
4383 -3243 0
4383 -8 0
4383 -11 0
4384 -16 -4383 0
-4384 16 0
-4384 4383 0
-4385 18 4384 0
4385 -18 0
4385 -4384 0
4386 -20 -4385 0
-4386 20 0
-4386 4385 0
-4387 22 3453 3463 3472 4386 0
4387 -22 0
4387 -3453 0
4387 -3463 0
4387 -3472 0
4387 -4386 0
4388 -24 -4387 0
-4388 24 0
-4388 4387 0
4389 -3116 -4294 0
-4389 3116 0
-4389 4294 0
-4390 14 4389 3243 8 11 0
4390 -14 0
4390 -4389 0
4390 -3243 0
4390 -8 0
4390 -11 0
4391 -16 -4390 0
-4391 16 0
-4391 4390 0
-4392 18 4391 0
4392 -18 0
4392 -4391 0
4393 -20 -4392 0
-4393 20 0
-4393 4392 0
-4394 22 3482 3491 3499 4393 0
4394 -22 0
4394 -3482 0
4394 -3491 0
4394 -3499 0
4394 -4393 0
4395 -26 -4394 0
-4395 26 0
-4395 4394 0
-4396 34 4395 3508 3509 0
4396 -34 0
4396 -4395 0
4396 -3508 0
4396 -3509 0
4397 -36 -4396 0
-4397 36 0
-4397 4396 0
-4398 80 3451 4388 4397 3978 3550 0
4398 -80 0
4398 -3451 0
4398 -4388 0
4398 -4397 0
4398 -3978 0
4398 -3550 0
4399 -112 -4398 0
-4399 112 0
-4399 4398 0
-4400 3 4399 0
4400 -3 0
4400 -4399 0
4401 -2 -4400 0
-4401 2 0
-4401 4400 0
-4402 5 4380 4401 0
4402 -5 0
4402 -4380 0
4402 -4401 0
4403 -38 -4402 0
-4403 38 0
-4403 4402 0
-4404 40 4372 4403 0
4404 -40 0
4404 -4372 0
4404 -4403 0
4405 -42 -4404 0
-4405 42 0
-4405 4404 0
4406 -44 -4402 0
-4406 44 0
-4406 4402 0
-4407 22 3230 3237 6 3395 4356 0
4407 -22 0
4407 -3230 0
4407 -3237 0
4407 -6 0
4407 -3395 0
4407 -4356 0
4408 -24 -4407 0
-4408 24 0
-4408 4407 0
-4409 22 3251 3256 6 3401 4364 0
4409 -22 0
4409 -3251 0
4409 -3256 0
4409 -6 0
4409 -3401 0
4409 -4364 0
4410 -26 -4409 0
-4410 26 0
-4410 4409 0
-4411 34 4410 3265 3272 0
4411 -34 0
4411 -4410 0
4411 -3265 0
4411 -3272 0
4412 -36 -4411 0
-4412 36 0
-4412 4411 0
-4413 80 3654 4408 4412 3978 3690 0
4413 -80 0
4413 -3654 0
4413 -4408 0
4413 -4412 0
4413 -3978 0
4413 -3690 0
4414 -248 -4413 0
-4414 248 0
-4414 4413 0
4415 -250 -4413 0
-4415 250 0
-4415 4413 0
-4416 50 4415 0
4416 -50 0
4416 -4415 0
4417 -49 -4416 0
-4417 49 0
-4417 4416 0
-4418 52 4414 45 4417 0
4418 -52 0
4418 -4414 0
4418 -45 0
4418 -4417 0
4419 -54 -4418 0
-4419 54 0
-4419 4418 0
-4420 56 4406 4419 0
4420 -56 0
4420 -4406 0
4420 -4419 0
4421 -58 -4420 0
-4421 58 0
-4421 4420 0
-4422 60 4405 4421 0
4422 -60 0
4422 -4405 0
4422 -4421 0
4423 -331 -4422 0
-4423 331 0
-4423 4422 0
-4424 333 4349 4423 0
4424 -333 0
4424 -4349 0
4424 -4423 0
4425 -335 -4424 0
-4425 335 0
-4425 4424 0
-4426 337 3379 3556 3694 3976 4085 4179 4305 326 4348 4425 0
4426 -337 0
4426 -3379 0
4426 -3556 0
4426 -3694 0
4426 -3976 0
4426 -4085 0
4426 -4179 0
4426 -4305 0
4426 -326 0
4426 -4348 0
4426 -4425 0
4427 -412 -4426 0
-4427 412 0
-4427 4426 0
-4428 22 3110 6 4356 0
4428 -22 0
4428 -3110 0
4428 -6 0
4428 -4356 0
4429 -24 -4428 0
-4429 24 0
-4429 4428 0
-4430 22 3124 6 4364 0
4430 -22 0
4430 -3124 0
4430 -6 0
4430 -4364 0
4431 -26 -4430 0
-4431 26 0
-4431 4430 0
-4432 34 4431 3138 0
4432 -34 0
4432 -4431 0
4432 -3138 0
4433 -36 -4432 0
-4433 36 0
-4433 4432 0
-4434 80 3108 4429 4433 61 3142 76 0
4434 -80 0
4434 -3108 0
4434 -4429 0
4434 -4433 0
4434 -61 0
4434 -3142 0
4434 -76 0
4435 -82 -4434 0
-4435 82 0
-4435 4434 0
4436 -119 -3864 0
-4436 119 0
-4436 3864 0
-4437 121 4435 83 4436 0
4437 -121 0
4437 -4435 0
4437 -83 0
4437 -4436 0
4438 -123 -4437 0
-4438 123 0
-4438 4437 0
4439 -2737 -131 0
-4439 2737 0
-4439 131 0
-4440 3101 4439 3105 3106 0
4440 -3101 0
4440 -4439 0
4440 -3105 0
4440 -3106 0
4441 -3109 -4440 0
-4441 3109 0
-4441 4440 0
-4442 22 3560 3563 4356 0
4442 -22 0
4442 -3560 0
4442 -3563 0
4442 -4356 0
4443 -24 -4442 0
-4443 24 0
-4443 4442 0
-4444 22 3124 3568 4364 0
4444 -22 0
4444 -3124 0
4444 -3568 0
4444 -4364 0
4445 -26 -4444 0
-4445 26 0
-4445 4444 0
-4446 34 4445 3138 0
4446 -34 0
4446 -4445 0
4446 -3138 0
4447 -36 -4446 0
-4447 36 0
-4447 4446 0
4448 -119 -3411 0
-4448 119 0
-4448 3411 0
-4449 121 83 4448 0
4449 -121 0
4449 -83 0
4449 -4448 0
4450 -134 -4449 0
-4450 134 0
-4450 4449 0
-4451 40 4450 37 0
4451 -40 0
4451 -4450 0
4451 -37 0
4452 -42 -4451 0
-4452 42 0
-4452 4451 0
-4453 60 4452 57 0
4453 -60 0
4453 -4452 0
4453 -57 0
4454 -62 -4453 0
-4454 62 0
-4454 4453 0
4455 -67 -4453 0
-4455 67 0
-4455 4453 0
-4456 69 4455 0
4456 -69 0
4456 -4455 0
4457 -71 -4456 0
-4457 71 0
-4457 4456 0
-4458 73 4457 0
4458 -73 0
4458 -4457 0
4459 -75 -4458 0
-4459 75 0
-4459 4458 0
-4460 80 4441 4443 4447 4454 4459 76 0
4460 -80 0
4460 -4441 0
4460 -4443 0
4460 -4447 0
4460 -4454 0
4460 -4459 0
4460 -76 0
4461 -146 -4460 0
-4461 146 0
-4461 4460 0
-4462 3101 4439 3198 3106 0
4462 -3101 0
4462 -4439 0
4462 -3198 0
4462 -3106 0
4463 -3109 -4462 0
-4463 3109 0
-4463 4462 0
4464 -3111 -4462 0
-4464 3111 0
-4464 4462 0
4465 -119 -3458 0
-4465 119 0
-4465 3458 0
-4466 121 83 4465 0
4466 -121 0
4466 -83 0
4466 -4465 0
4467 -127 -4466 0
-4467 127 0
-4467 4466 0
-4468 22 4464 4467 4386 0
4468 -22 0
4468 -4464 0
4468 -4467 0
4468 -4386 0
4469 -24 -4468 0
-4469 24 0
-4469 4468 0
-4470 3101 3198 3106 0
4470 -3101 0
4470 -3198 0
4470 -3106 0
4471 -3111 -4470 0
-4471 3111 0
-4471 4470 0
4472 -119 -3486 0
-4472 119 0
-4472 3486 0
-4473 121 83 4472 0
4473 -121 0
4473 -83 0
4473 -4472 0
4474 -127 -4473 0
-4474 127 0
-4474 4473 0
-4475 22 4471 4474 4393 0
4475 -22 0
4475 -4471 0
4475 -4474 0
4475 -4393 0
4476 -26 -4475 0
-4476 26 0
-4476 4475 0
4477 -32 -3486 0
-4477 32 0
-4477 3486 0
-4478 34 4476 4477 0
4478 -34 0
4478 -4476 0
4478 -4477 0
4479 -36 -4478 0
-4479 36 0
-4479 4478 0
4480 -119 -3516 0
-4480 119 0
-4480 3516 0
-4481 121 83 4480 0
4481 -121 0
4481 -83 0
4481 -4480 0
4482 -134 -4481 0
-4482 134 0
-4482 4481 0
-4483 40 4482 97 0
4483 -40 0
4483 -4482 0
4483 -97 0
4484 -42 -4483 0
-4484 42 0
-4484 4483 0
-4485 60 4484 102 0
4485 -60 0
4485 -4484 0
4485 -102 0
4486 -62 -4485 0
-4486 62 0
-4486 4485 0
4487 -67 -4485 0
-4487 67 0
-4487 4485 0
-4488 69 4487 0
4488 -69 0
4488 -4487 0
4489 -71 -4488 0
-4489 71 0
-4489 4488 0
-4490 73 4489 0
4490 -73 0
4490 -4489 0
4491 -75 -4490 0
-4491 75 0
-4491 4490 0
-4492 80 4463 4469 4479 4486 4491 76 0
4492 -80 0
4492 -4463 0
4492 -4469 0
4492 -4479 0
4492 -4486 0
4492 -4491 0
4492 -76 0
4493 -112 -4492 0
-4493 112 0
-4493 4492 0
-4494 3 4493 0
4494 -3 0
4494 -4493 0
4495 -2 -4494 0
-4495 2 0
-4495 4494 0
-4496 5 4461 4495 0
4496 -5 0
4496 -4461 0
4496 -4495 0
4497 -162 -4496 0
-4497 162 0
-4497 4496 0
-4498 22 3560 6 3563 4356 0
4498 -22 0
4498 -3560 0
4498 -6 0
4498 -3563 0
4498 -4356 0
4499 -24 -4498 0
-4499 24 0
-4499 4498 0
-4500 22 3124 6 3568 4364 0
4500 -22 0
4500 -3124 0
4500 -6 0
4500 -3568 0
4500 -4364 0
4501 -26 -4500 0
-4501 26 0
-4501 4500 0
-4502 34 4501 3138 0
4502 -34 0
4502 -4501 0
4502 -3138 0
4503 -36 -4502 0
-4503 36 0
-4503 4502 0
-4504 80 3559 4499 4503 3579 3584 76 0
4504 -80 0
4504 -3559 0
4504 -4499 0
4504 -4503 0
4504 -3579 0
4504 -3584 0
4504 -76 0
4505 -170 -4504 0
-4505 170 0
-4505 4504 0
-4506 176 4505 171 173 0
4506 -176 0
4506 -4505 0
4506 -171 0
4506 -173 0
4507 -178 -4506 0
-4507 178 0
-4507 4506 0
4508 -146 -3713 0
-4508 146 0
-4508 3713 0
-4509 73 153 0
4509 -73 0
4509 -153 0
4510 -75 -4509 0
-4510 75 0
-4510 4509 0
-4511 80 150 4510 76 0
4511 -80 0
4511 -150 0
4511 -4510 0
4511 -76 0
4512 -112 -4511 0
-4512 112 0
-4512 4511 0
-4513 3 4512 0
4513 -3 0
4513 -4512 0
4514 -2 -4513 0
-4514 2 0
-4514 4513 0
-4515 5 4508 4514 0
4515 -5 0
4515 -4508 0
4515 -4514 0
4516 -7 -4515 0
-4516 7 0
-4516 4515 0
4517 -119 -3741 0
-4517 119 0
-4517 3741 0
-4518 121 3610 83 4517 0
4518 -121 0
4518 -3610 0
4518 -83 0
4518 -4517 0
4519 -127 -4518 0
-4519 127 0
-4519 4518 0
-4520 14 8 3769 0
4520 -14 0
4520 -8 0
4520 -3769 0
4521 -16 -4520 0
-4521 16 0
-4521 4520 0
-4522 18 4521 0
4522 -18 0
4522 -4521 0
4523 -20 -4522 0
-4523 20 0
-4523 4522 0
-4524 22 4516 4519 4523 0
4524 -22 0
4524 -4516 0
4524 -4519 0
4524 -4523 0
4525 -26 -4524 0
-4525 26 0
-4525 4524 0
4526 -32 -3785 0
-4526 32 0
-4526 3785 0
-4527 34 4525 4526 0
4527 -34 0
4527 -4525 0
4527 -4526 0
4528 -2737 -4527 0
-4528 2737 0
-4528 4527 0
-4529 80 129 132 138 3696 76 0
4529 -80 0
4529 -129 0
4529 -132 0
4529 -138 0
4529 -3696 0
4529 -76 0
4530 -146 -4529 0
-4530 146 0
-4530 4529 0
-4531 80 129 132 150 4510 76 0
4531 -80 0
4531 -129 0
4531 -132 0
4531 -150 0
4531 -4510 0
4531 -76 0
4532 -112 -4531 0
-4532 112 0
-4532 4531 0
-4533 3 4532 0
4533 -3 0
4533 -4532 0
4534 -2 -4533 0
-4534 2 0
-4534 4533 0
-4535 5 4530 4534 0
4535 -5 0
4535 -4530 0
4535 -4534 0
4536 -2807 -4535 0
-4536 2807 0
-4536 4535 0
4537 -3099 -3709 0
-4537 3099 0
-4537 3709 0
-4538 3101 4528 4536 4537 0
4538 -3101 0
4538 -4528 0
4538 -4536 0
4538 -4537 0
4539 -3851 -4538 0
-4539 3851 0
-4539 4538 0
4540 -180 -4437 0
-4540 180 0
-4540 4437 0
4541 -214 -3645 0
-4541 214 0
-4541 3645 0
-4542 216 4539 4540 4541 0
4542 -216 0
4542 -4539 0
4542 -4540 0
4542 -4541 0
4543 -218 -4542 0
-4543 218 0
-4543 4542 0
-4544 80 3108 4429 4433 3978 76 0
4544 -80 0
4544 -3108 0
4544 -4429 0
4544 -4433 0
4544 -3978 0
4544 -76 0
4545 -82 -4544 0
-4545 82 0
-4545 4544 0
4546 -119 -4009 0
-4546 119 0
-4546 4009 0
-4547 121 4545 83 4546 0
4547 -121 0
4547 -4545 0
4547 -83 0
4547 -4546 0
4548 -134 -4547 0
-4548 134 0
-4548 4547 0
-4549 80 4441 4443 4447 3978 76 0
4549 -80 0
4549 -4441 0
4549 -4443 0
4549 -4447 0
4549 -3978 0
4549 -76 0
4550 -146 -4549 0
-4550 146 0
-4550 4549 0
-4551 80 4463 4469 4479 3978 76 0
4551 -80 0
4551 -4463 0
4551 -4469 0
4551 -4479 0
4551 -3978 0
4551 -76 0
4552 -112 -4551 0
-4552 112 0
-4552 4551 0
-4553 3 4552 0
4553 -3 0
4553 -4552 0
4554 -2 -4553 0
-4554 2 0
-4554 4553 0
-4555 5 4550 4554 0
4555 -5 0
4555 -4550 0
4555 -4554 0
4556 -38 -4555 0
-4556 38 0
-4556 4555 0
-4557 40 4548 4556 0
4557 -40 0
4557 -4548 0
4557 -4556 0
4558 -42 -4557 0
-4558 42 0
-4558 4557 0
4559 -44 -4555 0
-4559 44 0
-4559 4555 0
-4560 80 3559 4499 4503 3978 76 0
4560 -80 0
4560 -3559 0
4560 -4499 0
4560 -4503 0
4560 -3978 0
4560 -76 0
4561 -248 -4560 0
-4561 248 0
-4561 4560 0
4562 -250 -4560 0
-4562 250 0
-4562 4560 0
-4563 50 4562 0
4563 -50 0
4563 -4562 0
4564 -49 -4563 0
-4564 49 0
-4564 4563 0
-4565 52 4561 45 4564 0
4565 -52 0
4565 -4561 0
4565 -45 0
4565 -4564 0
4566 -54 -4565 0
-4566 54 0
-4566 4565 0
-4567 56 4559 4566 0
4567 -56 0
4567 -4559 0
4567 -4566 0
4568 -58 -4567 0
-4568 58 0
-4568 4567 0
-4569 60 4558 4568 0
4569 -60 0
4569 -4558 0
4569 -4568 0
4570 -259 -4569 0
-4570 259 0
-4570 4569 0
-4571 80 3108 4429 4433 76 0
4571 -80 0
4571 -3108 0
4571 -4429 0
4571 -4433 0
4571 -76 0
4572 -82 -4571 0
-4572 82 0
-4572 4571 0
4573 -119 -4110 0
-4573 119 0
-4573 4110 0
-4574 121 4572 83 4573 0
4574 -121 0
4574 -4572 0
4574 -83 0
4574 -4573 0
4575 -134 -4574 0
-4575 134 0
-4575 4574 0
-4576 80 4441 4443 4447 76 0
4576 -80 0
4576 -4441 0
4576 -4443 0
4576 -4447 0
4576 -76 0
4577 -146 -4576 0
-4577 146 0
-4577 4576 0
-4578 80 4463 4469 4479 76 0
4578 -80 0
4578 -4463 0
4578 -4469 0
4578 -4479 0
4578 -76 0
4579 -112 -4578 0
-4579 112 0
-4579 4578 0
-4580 3 4579 0
4580 -3 0
4580 -4579 0
4581 -2 -4580 0
-4581 2 0
-4581 4580 0
-4582 5 4577 4581 0
4582 -5 0
4582 -4577 0
4582 -4581 0
4583 -38 -4582 0
-4583 38 0
-4583 4582 0
-4584 40 4575 4583 0
4584 -40 0
4584 -4575 0
4584 -4583 0
4585 -42 -4584 0
-4585 42 0
-4585 4584 0
4586 -44 -4582 0
-4586 44 0
-4586 4582 0
-4587 80 3559 4499 4503 76 0
4587 -80 0
4587 -3559 0
4587 -4499 0
4587 -4503 0
4587 -76 0
4588 -248 -4587 0
-4588 248 0
-4588 4587 0
4589 -250 -4587 0
-4589 250 0
-4589 4587 0
-4590 50 4589 0
4590 -50 0
4590 -4589 0
4591 -49 -4590 0
-4591 49 0
-4591 4590 0
-4592 52 4588 45 4591 0
4592 -52 0
4592 -4588 0
4592 -45 0
4592 -4591 0
4593 -54 -4592 0
-4593 54 0
-4593 4592 0
-4594 56 4586 4593 0
4594 -56 0
4594 -4586 0
4594 -4593 0
4595 -58 -4594 0
-4595 58 0
-4595 4594 0
-4596 60 4585 4595 0
4596 -60 0
4596 -4585 0
4596 -4595 0
4597 -67 -4596 0
-4597 67 0
-4597 4596 0
-4598 69 4597 0
4598 -69 0
4598 -4597 0
4599 -71 -4598 0
-4599 71 0
-4599 4598 0
-4600 73 4599 0
4600 -73 0
4600 -4599 0
4601 -299 -4600 0
-4601 299 0
-4601 4600 0
-4602 5 4508 4201 0
4602 -5 0
4602 -4508 0
4602 -4201 0
4603 -7 -4602 0
-4603 7 0
-4603 4602 0
4604 -119 -4204 0
-4604 119 0
-4604 4204 0
-4605 121 3610 83 4604 0
4605 -121 0
4605 -3610 0
4605 -83 0
4605 -4604 0
4606 -127 -4605 0
-4606 127 0
-4606 4605 0
-4607 22 4603 4606 91 0
4607 -22 0
4607 -4603 0
4607 -4606 0
4607 -91 0
4608 -26 -4607 0
-4608 26 0
-4608 4607 0
-4609 30 3798 0
4609 -30 0
4609 -3798 0
4610 -32 -4609 0
-4610 32 0
-4610 4609 0
-4611 34 4608 4610 0
4611 -34 0
4611 -4608 0
4611 -4610 0
4612 -2737 -4611 0
-4612 2737 0
-4612 4611 0
-4613 22 126 91 0
4613 -22 0
4613 -126 0
4613 -91 0
4614 -24 -4613 0
-4614 24 0
-4614 4613 0
4615 -26 -4613 0
-4615 26 0
-4615 4613 0
-4616 34 4615 31 0
4616 -34 0
4616 -4615 0
4616 -31 0
4617 -36 -4616 0
-4617 36 0
-4617 4616 0
-4618 80 4614 4617 138 3696 76 0
4618 -80 0
4618 -4614 0
4618 -4617 0
4618 -138 0
4618 -3696 0
4618 -76 0
4619 -146 -4618 0
-4619 146 0
-4619 4618 0
-4620 80 4614 4617 150 3765 76 0
4620 -80 0
4620 -4614 0
4620 -4617 0
4620 -150 0
4620 -3765 0
4620 -76 0
4621 -112 -4620 0
-4621 112 0
-4621 4620 0
-4622 3 4621 0
4622 -3 0
4622 -4621 0
4623 -2 -4622 0
-4623 2 0
-4623 4622 0
-4624 5 4619 4623 0
4624 -5 0
4624 -4619 0
4624 -4623 0
4625 -2807 -4624 0
-4625 2807 0
-4625 4624 0
4626 -3099 -4185 0
-4626 3099 0
-4626 4185 0
-4627 3101 4612 4625 4626 0
4627 -3101 0
4627 -4612 0
4627 -4625 0
4627 -4626 0
4628 -3116 -4627 0
-4628 3116 0
-4628 4627 0
4629 -2737 -307 0
-4629 2737 0
-4629 307 0
-4630 3101 4629 3198 3240 0
4630 -3101 0
4630 -4629 0
4630 -3198 0
4630 -3240 0
4631 -3109 -4630 0
-4631 3109 0
-4631 4630 0
4632 -3111 -4381 0
-4632 3111 0
-4632 4381 0
-4633 22 4632 90 302 91 0
4633 -22 0
4633 -4632 0
4633 -90 0
4633 -302 0
4633 -91 0
4634 -24 -4633 0
-4634 24 0
-4634 4633 0
-4635 22 4295 90 302 91 0
4635 -22 0
4635 -4295 0
4635 -90 0
4635 -302 0
4635 -91 0
4636 -26 -4635 0
-4636 26 0
-4636 4635 0
-4637 34 4636 306 0
4637 -34 0
4637 -4636 0
4637 -306 0
4638 -36 -4637 0
-4638 36 0
-4638 4637 0
-4639 80 4631 4634 4638 313 3765 76 0
4639 -80 0
4639 -4631 0
4639 -4634 0
4639 -4638 0
4639 -313 0
4639 -3765 0
4639 -76 0
4640 -112 -4639 0
-4640 112 0
-4640 4639 0
-4641 3 4640 0
4641 -3 0
4641 -4640 0
4642 -12 -4641 0
-4642 12 0
-4642 4641 0
-4643 14 4628 8 4642 0
4643 -14 0
4643 -4628 0
4643 -8 0
4643 -4642 0
4644 -325 -4643 0
-4644 325 0
-4644 4643 0
4645 -4350 -4538 0
-4645 4350 0
-4645 4538 0
4646 -331 -4569 0
-4646 331 0
-4646 4569 0
-4647 333 4645 4646 0
4647 -333 0
4647 -4645 0
4647 -4646 0
4648 -335 -4647 0
-4648 335 0
-4648 4647 0
-4649 337 4438 4497 4507 4543 4570 4601 4644 326 328 4648 0
4649 -337 0
4649 -4438 0
4649 -4497 0
4649 -4507 0
4649 -4543 0
4649 -4570 0
4649 -4601 0
4649 -4644 0
4649 -326 0
4649 -328 0
4649 -4648 0
4650 -339 -4649 0
-4650 339 0
-4650 4649 0
4651 -299 -3695 0
-4651 299 0
-4651 3695 0
-4652 337 340 341 343 349 350 4651 352 326 328 355 0
4652 -337 0
4652 -340 0
4652 -341 0
4652 -343 0
4652 -349 0
4652 -350 0
4652 -4651 0
4652 -352 0
4652 -326 0
4652 -328 0
4652 -355 0
4653 -1010 -4652 0
-4653 1010 0
-4653 4652 0
4654 -358 -4652 0
-4654 358 0
-4654 4652 0
-4655 73 367 0
4655 -73 0
4655 -367 0
4656 -299 -4655 0
-4656 299 0
-4656 4655 0
-4657 337 340 341 343 349 364 4656 352 326 328 372 0
4657 -337 0
4657 -340 0
4657 -341 0
4657 -343 0
4657 -349 0
4657 -364 0
4657 -4656 0
4657 -352 0
4657 -326 0
4657 -328 0
4657 -372 0
4658 -375 -4657 0
-4658 375 0
-4658 4657 0
-4659 47 4658 0
4659 -47 0
4659 -4658 0
4660 -84 -4659 0
-4660 84 0
-4660 4659 0
-4661 121 4660 124 0
4661 -121 0
4661 -4660 0
4661 -124 0
4662 -127 -4661 0
-4662 127 0
-4662 4661 0
-4663 22 4654 6 4662 19 0
4663 -22 0
4663 -4654 0
4663 -6 0
4663 -4662 0
4663 -19 0
4664 -26 -4663 0
-4664 26 0
-4664 4663 0
4665 -386 -4652 0
-4665 386 0
-4665 4652 0
-4666 34 4664 4665 31 0
4666 -34 0
4666 -4664 0
4666 -4665 0
4666 -31 0
4667 -2737 -4666 0
-4667 2737 0
-4667 4666 0
-4668 3101 4653 4667 3105 3106 0
4668 -3101 0
4668 -4653 0
4668 -4667 0
4668 -3105 0
4668 -3106 0
4669 -3109 -4668 0
-4669 3109 0
-4669 4668 0
-4670 34 4665 31 0
4670 -34 0
4670 -4665 0
4670 -31 0
4671 -2737 -4670 0
-4671 2737 0
-4671 4670 0
-4672 3101 4653 4671 3105 3106 0
4672 -3101 0
4672 -4653 0
4672 -4671 0
4672 -3105 0
4672 -3106 0
4673 -3111 -4672 0
-4673 3111 0
-4673 4672 0
4674 -123 -3562 0
-4674 123 0
-4674 3562 0
4675 -3851 -3114 0
-4675 3851 0
-4675 3114 0
4676 -180 -3562 0
-4676 180 0
-4676 3562 0
4677 -214 -3234 0
-4677 214 0
-4677 3234 0
-4678 216 4675 4676 4677 0
4678 -216 0
4678 -4675 0
4678 -4676 0
4678 -4677 0
4679 -218 -4678 0
-4679 218 0
-4679 4678 0
4680 -134 -3562 0
-4680 134 0
-4680 3562 0
-4681 40 4680 37 0
4681 -40 0
4681 -4680 0
4681 -37 0
4682 -42 -4681 0
-4682 42 0
-4682 4681 0
-4683 60 4682 57 0
4683 -60 0
4683 -4682 0
4683 -57 0
4684 -259 -4683 0
-4684 259 0
-4684 4683 0
4685 -67 -4683 0
-4685 67 0
-4685 4683 0
-4686 69 4685 0
4686 -69 0
4686 -4685 0
4687 -71 -4686 0
-4687 71 0
-4687 4686 0
-4688 73 4687 0
4688 -73 0
4688 -4687 0
4689 -299 -4688 0
-4689 299 0
-4689 4688 0
4690 -325 -4353 0
-4690 325 0
-4690 4353 0
4691 -4350 -3114 0
-4691 4350 0
-4691 3114 0
4692 -331 -4683 0
-4692 331 0
-4692 4683 0
-4693 333 4691 4692 0
4693 -333 0
4693 -4691 0
4693 -4692 0
4694 -335 -4693 0
-4694 335 0
-4694 4693 0
-4695 337 4674 341 343 4679 4684 4689 4690 326 328 4694 0
4695 -337 0
4695 -4674 0
4695 -341 0
4695 -343 0
4695 -4679 0
4695 -4684 0
4695 -4689 0
4695 -4690 0
4695 -326 0
4695 -328 0
4695 -4694 0
4696 -358 -4695 0
-4696 358 0
-4696 4695 0
4697 -3851 -3107 0
-4697 3851 0
-4697 3107 0
-4698 216 4697 4677 0
4698 -216 0
4698 -4697 0
4698 -4677 0
4699 -218 -4698 0
-4699 218 0
-4699 4698 0
4700 -4350 -3107 0
-4700 4350 0
-4700 3107 0
-4701 333 4700 370 0
4701 -333 0
4701 -4700 0
4701 -370 0
4702 -335 -4701 0
-4702 335 0
-4702 4701 0
-4703 337 341 343 4699 364 4656 4690 326 328 4702 0
4703 -337 0
4703 -341 0
4703 -343 0
4703 -4699 0
4703 -364 0
4703 -4656 0
4703 -4690 0
4703 -326 0
4703 -328 0
4703 -4702 0
4704 -375 -4703 0
-4704 375 0
-4704 4703 0
-4705 47 4704 0
4705 -47 0
4705 -4704 0
4706 -84 -4705 0
-4706 84 0
-4706 4705 0
4707 -299 -3141 0
-4707 299 0
-4707 3141 0
-4708 337 506 341 343 1361 1609 4707 352 326 328 1613 0
4708 -337 0
4708 -506 0
4708 -341 0
4708 -343 0
4708 -1361 0
4708 -1609 0
4708 -4707 0
4708 -352 0
4708 -326 0
4708 -328 0
4708 -1613 0
4709 -1010 -4708 0
-4709 1010 0
-4709 4708 0
4710 -386 -4708 0
-4710 386 0
-4710 4708 0
-4711 34 4710 0
4711 -34 0
4711 -4710 0
4712 -2737 -4711 0
-4712 2737 0
-4712 4711 0
-4713 3101 4709 4712 3105 3132 0
4713 -3101 0
4713 -4709 0
4713 -4712 0
4713 -3105 0
4713 -3132 0
4714 -3116 -4713 0
-4714 3116 0
-4714 4713 0
-4715 14 4714 8 11 0
4715 -14 0
4715 -4714 0
4715 -8 0
4715 -11 0
4716 -28 -4715 0
-4716 28 0
-4716 4715 0
-4717 30 4716 0
4717 -30 0
4717 -4716 0
4718 -119 -4717 0
-4718 119 0
-4718 4717 0
-4719 121 4706 4718 0
4719 -121 0
4719 -4706 0
4719 -4718 0
4720 -127 -4719 0
-4720 127 0
-4720 4719 0
4721 -3116 -4672 0
-4721 3116 0
-4721 4672 0
-4722 14 4721 8 11 0
4722 -14 0
4722 -4721 0
4722 -8 0
4722 -11 0
4723 -16 -4722 0
-4723 16 0
-4723 4722 0
-4724 18 4723 0
4724 -18 0
4724 -4723 0
4725 -20 -4724 0
-4725 20 0
-4725 4724 0
-4726 22 4673 4696 6 4720 4725 0
4726 -22 0
4726 -4673 0
4726 -4696 0
4726 -6 0
4726 -4720 0
4726 -4725 0
4727 -24 -4726 0
-4727 24 0
-4727 4726 0
4728 -123 -3574 0
-4728 123 0
-4728 3574 0
4729 -3851 -3558 0
-4729 3851 0
-4729 3558 0
4730 -180 -3574 0
-4730 180 0
-4730 3574 0
4731 -214 -3685 0
-4731 214 0
-4731 3685 0
-4732 216 4729 4730 4731 0
4732 -216 0
4732 -4729 0
4732 -4730 0
4732 -4731 0
4733 -218 -4732 0
-4733 218 0
-4733 4732 0
4734 -259 -3578 0
-4734 259 0
-4734 3578 0
4735 -299 -3583 0
-4735 299 0
-4735 3583 0
4736 -3116 -4270 0
-4736 3116 0
-4736 4270 0
-4737 14 4736 8 11 0
4737 -14 0
4737 -4736 0
4737 -8 0
4737 -11 0
4738 -325 -4737 0
-4738 325 0
-4738 4737 0
4739 -4350 -3558 0
-4739 4350 0
-4739 3558 0
4740 -331 -3578 0
-4740 331 0
-4740 3578 0
-4741 333 4739 4740 0
4741 -333 0
4741 -4739 0
4741 -4740 0
4742 -335 -4741 0
-4742 335 0
-4742 4741 0
-4743 337 4728 341 343 4733 4734 4735 4738 326 328 4742 0
4743 -337 0
4743 -4728 0
4743 -341 0
4743 -343 0
4743 -4733 0
4743 -4734 0
4743 -4735 0
4743 -4738 0
4743 -326 0
4743 -328 0
4743 -4742 0
4744 -383 -4743 0
-4744 383 0
-4744 4743 0
-4745 3101 4653 3105 3106 0
4745 -3101 0
4745 -4653 0
4745 -3105 0
4745 -3106 0
4746 -3111 -4745 0
-4746 3111 0
-4746 4745 0
4747 -123 -3567 0
-4747 123 0
-4747 3567 0
4748 -3851 -3123 0
-4748 3851 0
-4748 3123 0
4749 -180 -3567 0
-4749 180 0
-4749 3567 0
4750 -214 -3253 0
-4750 214 0
-4750 3253 0
-4751 216 4748 4749 4750 0
4751 -216 0
4751 -4748 0
4751 -4749 0
4751 -4750 0
4752 -218 -4751 0
-4752 218 0
-4752 4751 0
4753 -134 -3567 0
-4753 134 0
-4753 3567 0
-4754 40 4753 37 0
4754 -40 0
4754 -4753 0
4754 -37 0
4755 -42 -4754 0
-4755 42 0
-4755 4754 0
-4756 60 4755 57 0
4756 -60 0
4756 -4755 0
4756 -57 0
4757 -259 -4756 0
-4757 259 0
-4757 4756 0
4758 -67 -4756 0
-4758 67 0
-4758 4756 0
-4759 69 4758 0
4759 -69 0
4759 -4758 0
4760 -71 -4759 0
-4760 71 0
-4760 4759 0
-4761 73 4760 0
4761 -73 0
4761 -4760 0
4762 -299 -4761 0
-4762 299 0
-4762 4761 0
4763 -325 -4361 0
-4763 325 0
-4763 4361 0
4764 -4350 -3123 0
-4764 4350 0
-4764 3123 0
4765 -331 -4756 0
-4765 331 0
-4765 4756 0
-4766 333 4764 4765 0
4766 -333 0
4766 -4764 0
4766 -4765 0
4767 -335 -4766 0
-4767 335 0
-4767 4766 0
-4768 337 4747 341 343 4752 4757 4762 4763 326 328 4767 0
4768 -337 0
4768 -4747 0
4768 -341 0
4768 -343 0
4768 -4752 0
4768 -4757 0
4768 -4762 0
4768 -4763 0
4768 -326 0
4768 -328 0
4768 -4767 0
4769 -358 -4768 0
-4769 358 0
-4769 4768 0
-4770 216 4748 4750 0
4770 -216 0
4770 -4748 0
4770 -4750 0
4771 -218 -4770 0
-4771 218 0
-4771 4770 0
-4772 333 4764 370 0
4772 -333 0
4772 -4764 0
4772 -370 0
4773 -335 -4772 0
-4773 335 0
-4773 4772 0
-4774 337 341 343 4771 364 4656 4763 326 328 4773 0
4774 -337 0
4774 -341 0
4774 -343 0
4774 -4771 0
4774 -364 0
4774 -4656 0
4774 -4763 0
4774 -326 0
4774 -328 0
4774 -4773 0
4775 -375 -4774 0
-4775 375 0
-4775 4774 0
-4776 47 4775 0
4776 -47 0
4776 -4775 0
4777 -84 -4776 0
-4777 84 0
-4777 4776 0
-4778 3101 4709 3105 3132 0
4778 -3101 0
4778 -4709 0
4778 -3105 0
4778 -3132 0
4779 -3116 -4778 0
-4779 3116 0
-4779 4778 0
-4780 14 4779 8 11 0
4780 -14 0
4780 -4779 0
4780 -8 0
4780 -11 0
4781 -28 -4780 0
-4781 28 0
-4781 4780 0
-4782 30 4781 0
4782 -30 0
4782 -4781 0
4783 -119 -4782 0
-4783 119 0
-4783 4782 0
-4784 121 4777 4783 0
4784 -121 0
4784 -4777 0
4784 -4783 0
4785 -127 -4784 0
-4785 127 0
-4785 4784 0
4786 -3116 -4745 0
-4786 3116 0
-4786 4745 0
-4787 14 4786 8 11 0
4787 -14 0
4787 -4786 0
4787 -8 0
4787 -11 0
4788 -16 -4787 0
-4788 16 0
-4788 4787 0
-4789 18 4788 0
4789 -18 0
4789 -4788 0
4790 -20 -4789 0
-4790 20 0
-4790 4789 0
-4791 22 4746 4769 6 4785 4790 0
4791 -22 0
4791 -4746 0
4791 -4769 0
4791 -6 0
4791 -4785 0
4791 -4790 0
4792 -26 -4791 0
-4792 26 0
-4792 4791 0
4793 -386 -4768 0
-4793 386 0
-4793 4768 0
4794 -299 -3799 0
-4794 299 0
-4794 3799 0
-4795 337 506 341 343 1361 2596 4794 352 326 328 2600 0
4795 -337 0
4795 -506 0
4795 -341 0
4795 -343 0
4795 -1361 0
4795 -2596 0
4795 -4794 0
4795 -352 0
4795 -326 0
4795 -328 0
4795 -2600 0
4796 -1010 -4795 0
-4796 1010 0
-4796 4795 0
-4797 3101 4796 3105 3132 0
4797 -3101 0
4797 -4796 0
4797 -3105 0
4797 -3132 0
4798 -3116 -4797 0
-4798 3116 0
-4798 4797 0
-4799 14 4798 8 11 0
4799 -14 0
4799 -4798 0
4799 -8 0
4799 -11 0
4800 -28 -4799 0
-4800 28 0
-4800 4799 0
-4801 30 4800 0
4801 -30 0
4801 -4800 0
4802 -32 -4801 0
-4802 32 0
-4802 4801 0
-4803 34 4792 4793 4802 0
4803 -34 0
4803 -4792 0
4803 -4793 0
4803 -4802 0
4804 -36 -4803 0
-4804 36 0
-4804 4803 0
4805 -214 -3282 0
-4805 214 0
-4805 3282 0
-4806 216 4697 4805 0
4806 -216 0
4806 -4697 0
4806 -4805 0
4807 -218 -4806 0
-4807 218 0
-4807 4806 0
4808 -299 -3977 0
-4808 299 0
-4808 3977 0
-4809 34 658 31 0
4809 -34 0
4809 -658 0
4809 -31 0
4810 -2737 -4809 0
-4810 2737 0
-4810 4809 0
-4811 3101 4810 3105 3106 0
4811 -3101 0
4811 -4810 0
4811 -3105 0
4811 -3106 0
4812 -3116 -4811 0
-4812 3116 0
-4812 4811 0
-4813 14 4812 8 11 0
4813 -14 0
4813 -4812 0
4813 -8 0
4813 -11 0
4814 -325 -4813 0
-4814 325 0
-4814 4813 0
-4815 333 4700 0
4815 -333 0
4815 -4700 0
4816 -335 -4815 0
-4816 335 0
-4816 4815 0
-4817 337 341 343 4807 4808 4814 326 328 4816 0
4817 -337 0
4817 -341 0
4817 -343 0
4817 -4807 0
4817 -4808 0
4817 -4814 0
4817 -326 0
4817 -328 0
4817 -4816 0
4818 -375 -4817 0
-4818 375 0
-4818 4817 0
-4819 47 4818 0
4819 -47 0
4819 -4818 0
4820 -84 -4819 0
-4820 84 0
-4820 4819 0
-4821 337 506 341 343 1361 4808 352 326 328 390 0
4821 -337 0
4821 -506 0
4821 -341 0
4821 -343 0
4821 -1361 0
4821 -4808 0
4821 -352 0
4821 -326 0
4821 -328 0
4821 -390 0
4822 -1010 -4821 0
-4822 1010 0
-4822 4821 0
4823 -358 -4821 0
-4823 358 0
-4823 4821 0
-4824 22 4823 6 91 0
4824 -22 0
4824 -4823 0
4824 -6 0
4824 -91 0
4825 -26 -4824 0
-4825 26 0
-4825 4824 0
4826 -386 -4821 0
-4826 386 0
-4826 4821 0
-4827 34 4825 4826 0
4827 -34 0
4827 -4825 0
4827 -4826 0
4828 -2737 -4827 0
-4828 2737 0
-4828 4827 0
-4829 3101 4822 4828 3105 3132 0
4829 -3101 0
4829 -4822 0
4829 -4828 0
4829 -3105 0
4829 -3132 0
4830 -3116 -4829 0
-4830 3116 0
-4830 4829 0
-4831 14 4830 8 11 0
4831 -14 0
4831 -4830 0
4831 -8 0
4831 -11 0
4832 -28 -4831 0
-4832 28 0
-4832 4831 0
-4833 30 4832 0
4833 -30 0
4833 -4832 0
4834 -119 -4833 0
-4834 119 0
-4834 4833 0
-4835 121 4820 4834 0
4835 -121 0
4835 -4820 0
4835 -4834 0
4836 -134 -4835 0
-4836 134 0
-4836 4835 0
-4837 40 4836 37 0
4837 -40 0
4837 -4836 0
4837 -37 0
4838 -42 -4837 0
-4838 42 0
-4838 4837 0
-4839 333 4739 0
4839 -333 0
4839 -4739 0
4840 -335 -4839 0
-4840 335 0
-4840 4839 0
-4841 337 4728 341 343 4733 4808 4738 326 328 4840 0
4841 -337 0
4841 -4728 0
4841 -341 0
4841 -343 0
4841 -4733 0
4841 -4808 0
4841 -4738 0
4841 -326 0
4841 -328 0
4841 -4840 0
4842 -375 -4841 0
-4842 375 0
-4842 4841 0
-4843 47 4842 0
4843 -47 0
4843 -4842 0
4844 -46 -4843 0
-4844 46 0
-4844 4843 0
4845 -401 -4841 0
-4845 401 0
-4845 4841 0
-4846 50 4845 0
4846 -50 0
4846 -4845 0
4847 -49 -4846 0
-4847 49 0
-4847 4846 0
-4848 52 4844 4847 0
4848 -52 0
4848 -4844 0
4848 -4847 0
4849 -54 -4848 0
-4849 54 0
-4849 4848 0
-4850 56 43 4849 0
4850 -56 0
4850 -43 0
4850 -4849 0
4851 -58 -4850 0
-4851 58 0
-4851 4850 0
-4852 60 4838 4851 0
4852 -60 0
4852 -4838 0
4852 -4851 0
4853 -62 -4852 0
-4853 62 0
-4853 4852 0
-4854 337 4728 341 343 4733 4734 4738 326 328 4742 0
4854 -337 0
4854 -4728 0
4854 -341 0
4854 -343 0
4854 -4733 0
4854 -4734 0
4854 -4738 0
4854 -326 0
4854 -328 0
4854 -4742 0
4855 -416 -4854 0
-4855 416 0
-4855 4854 0
-4856 337 341 343 4807 4814 326 328 4816 0
4856 -337 0
4856 -341 0
4856 -343 0
4856 -4807 0
4856 -4814 0
4856 -326 0
4856 -328 0
4856 -4816 0
4857 -375 -4856 0
-4857 375 0
-4857 4856 0
-4858 47 4857 0
4858 -47 0
4858 -4857 0
4859 -84 -4858 0
-4859 84 0
-4859 4858 0
4860 -1010 -1402 0
-4860 1010 0
-4860 1402 0
4861 -358 -1402 0
-4861 358 0
-4861 1402 0
-4862 22 4861 6 91 0
4862 -22 0
4862 -4861 0
4862 -6 0
4862 -91 0
4863 -26 -4862 0
-4863 26 0
-4863 4862 0
4864 -386 -1402 0
-4864 386 0
-4864 1402 0
-4865 34 4863 4864 0
4865 -34 0
4865 -4863 0
4865 -4864 0
4866 -2737 -4865 0
-4866 2737 0
-4866 4865 0
-4867 3101 4860 4866 3105 3132 0
4867 -3101 0
4867 -4860 0
4867 -4866 0
4867 -3105 0
4867 -3132 0
4868 -3116 -4867 0
-4868 3116 0
-4868 4867 0
-4869 14 4868 8 11 0
4869 -14 0
4869 -4868 0
4869 -8 0
4869 -11 0
4870 -28 -4869 0
-4870 28 0
-4870 4869 0
-4871 30 4870 0
4871 -30 0
4871 -4870 0
4872 -119 -4871 0
-4872 119 0
-4872 4871 0
-4873 121 4859 4872 0
4873 -121 0
4873 -4859 0
4873 -4872 0
4874 -134 -4873 0
-4874 134 0
-4874 4873 0
-4875 40 4874 37 0
4875 -40 0
4875 -4874 0
4875 -37 0
4876 -42 -4875 0
-4876 42 0
-4876 4875 0
-4877 337 4728 341 343 4733 4738 326 328 4840 0
4877 -337 0
4877 -4728 0
4877 -341 0
4877 -343 0
4877 -4733 0
4877 -4738 0
4877 -326 0
4877 -328 0
4877 -4840 0
4878 -375 -4877 0
-4878 375 0
-4878 4877 0
-4879 47 4878 0
4879 -47 0
4879 -4878 0
4880 -46 -4879 0
-4880 46 0
-4880 4879 0
4881 -401 -4877 0
-4881 401 0
-4881 4877 0
-4882 50 4881 0
4882 -50 0
4882 -4881 0
4883 -49 -4882 0
-4883 49 0
-4883 4882 0
-4884 52 4880 4883 0
4884 -52 0
4884 -4880 0
4884 -4883 0
4885 -54 -4884 0
-4885 54 0
-4885 4884 0
-4886 56 43 4885 0
4886 -56 0
4886 -43 0
4886 -4885 0
4887 -58 -4886 0
-4887 58 0
-4887 4886 0
-4888 60 4876 4887 0
4888 -60 0
4888 -4876 0
4888 -4887 0
4889 -67 -4888 0
-4889 67 0
-4889 4888 0
-4890 69 4855 4889 0
4890 -69 0
4890 -4855 0
4890 -4889 0
4891 -71 -4890 0
-4891 71 0
-4891 4890 0
-4892 73 4891 0
4892 -73 0
4892 -4891 0
4893 -75 -4892 0
-4893 75 0
-4893 4892 0
-4894 80 4669 4727 4744 4804 4853 4893 76 0
4894 -80 0
4894 -4669 0
4894 -4727 0
4894 -4744 0
4894 -4804 0
4894 -4853 0
4894 -4893 0
4894 -76 0
4895 -441 -4894 0
-4895 441 0
-4895 4894 0
4896 -358 -4795 0
-4896 358 0
-4896 4795 0
-4897 337 340 341 343 443 364 4656 352 326 328 372 0
4897 -337 0
4897 -340 0
4897 -341 0
4897 -343 0
4897 -443 0
4897 -364 0
4897 -4656 0
4897 -352 0
4897 -326 0
4897 -328 0
4897 -372 0
4898 -375 -4897 0
-4898 375 0
-4898 4897 0
-4899 47 4898 0
4899 -47 0
4899 -4898 0
4900 -84 -4899 0
-4900 84 0
-4900 4899 0
-4901 121 4900 124 0
4901 -121 0
4901 -4900 0
4901 -124 0
4902 -127 -4901 0
-4902 127 0
-4902 4901 0
-4903 22 4896 6 4902 19 0
4903 -22 0
4903 -4896 0
4903 -6 0
4903 -4902 0
4903 -19 0
4904 -26 -4903 0
-4904 26 0
-4904 4903 0
4905 -386 -4795 0
-4905 386 0
-4905 4795 0
-4906 34 4904 4905 0
4906 -34 0
4906 -4904 0
4906 -4905 0
4907 -2737 -4906 0
-4907 2737 0
-4907 4906 0
-4908 3101 4796 4907 3105 3132 0
4908 -3101 0
4908 -4796 0
4908 -4907 0
4908 -3105 0
4908 -3132 0
4909 -3109 -4908 0
-4909 3109 0
-4909 4908 0
-4910 34 4905 0
4910 -34 0
4910 -4905 0
4911 -2737 -4910 0
-4911 2737 0
-4911 4910 0
-4912 3101 4796 4911 3105 3132 0
4912 -3101 0
4912 -4796 0
4912 -4911 0
4912 -3105 0
4912 -3132 0
4913 -3111 -4912 0
-4913 3111 0
-4913 4912 0
4914 -3851 -3150 0
-4914 3851 0
-4914 3150 0
-4915 216 4914 508 0
4915 -216 0
4915 -4914 0
4915 -508 0
4916 -218 -4915 0
-4916 218 0
-4916 4915 0
4917 -325 -3152 0
-4917 325 0
-4917 3152 0
4918 -4350 -3150 0
-4918 4350 0
-4918 3150 0
-4919 333 4918 2598 0
4919 -333 0
4919 -4918 0
4919 -2598 0
4920 -335 -4919 0
-4920 335 0
-4920 4919 0
-4921 337 506 341 343 4916 2596 4689 4917 326 328 4920 0
4921 -337 0
4921 -506 0
4921 -341 0
4921 -343 0
4921 -4916 0
4921 -2596 0
4921 -4689 0
4921 -4917 0
4921 -326 0
4921 -328 0
4921 -4920 0
4922 -358 -4921 0
-4922 358 0
-4922 4921 0
-4923 333 4918 370 0
4923 -333 0
4923 -4918 0
4923 -370 0
4924 -335 -4923 0
-4924 335 0
-4924 4923 0
-4925 337 506 341 343 4916 364 4656 4917 326 328 4924 0
4925 -337 0
4925 -506 0
4925 -341 0
4925 -343 0
4925 -4916 0
4925 -364 0
4925 -4656 0
4925 -4917 0
4925 -326 0
4925 -328 0
4925 -4924 0
4926 -375 -4925 0
-4926 375 0
-4926 4925 0
-4927 47 4926 0
4927 -47 0
4927 -4926 0
4928 -84 -4927 0
-4928 84 0
-4928 4927 0
-4929 121 4928 0
4929 -121 0
4929 -4928 0
4930 -127 -4929 0
-4930 127 0
-4930 4929 0
4931 -3116 -4912 0
-4931 3116 0
-4931 4912 0
-4932 14 4931 8 11 0
4932 -14 0
4932 -4931 0
4932 -8 0
4932 -11 0
4933 -16 -4932 0
-4933 16 0
-4933 4932 0
-4934 18 4933 0
4934 -18 0
4934 -4933 0
4935 -20 -4934 0
-4935 20 0
-4935 4934 0
-4936 22 4913 4922 6 4930 4935 0
4936 -22 0
4936 -4913 0
4936 -4922 0
4936 -6 0
4936 -4930 0
4936 -4935 0
4937 -24 -4936 0
-4937 24 0
-4937 4936 0
4938 -3851 -3588 0
-4938 3851 0
-4938 3588 0
-4939 216 4938 508 0
4939 -216 0
4939 -4938 0
4939 -508 0
4940 -218 -4939 0
-4940 218 0
-4940 4939 0
4941 -325 -3681 0
-4941 325 0
-4941 3681 0
4942 -4350 -3588 0
-4942 4350 0
-4942 3588 0
-4943 333 4942 2598 0
4943 -333 0
4943 -4942 0
4943 -2598 0
4944 -335 -4943 0
-4944 335 0
-4944 4943 0
-4945 337 506 341 343 4940 2596 4794 4941 326 328 4944 0
4945 -337 0
4945 -506 0
4945 -341 0
4945 -343 0
4945 -4940 0
4945 -2596 0
4945 -4794 0
4945 -4941 0
4945 -326 0
4945 -328 0
4945 -4944 0
4946 -383 -4945 0
-4946 383 0
-4946 4945 0
4947 -3111 -4797 0
-4947 3111 0
-4947 4797 0
4948 -3851 -3133 0
-4948 3851 0
-4948 3133 0
-4949 216 4948 508 0
4949 -216 0
4949 -4948 0
4949 -508 0
4950 -218 -4949 0
-4950 218 0
-4950 4949 0
4951 -325 -3135 0
-4951 325 0
-4951 3135 0
4952 -4350 -3133 0
-4952 4350 0
-4952 3133 0
-4953 333 4952 2598 0
4953 -333 0
4953 -4952 0
4953 -2598 0
4954 -335 -4953 0
-4954 335 0
-4954 4953 0
-4955 337 506 341 343 4950 2596 4762 4951 326 328 4954 0
4955 -337 0
4955 -506 0
4955 -341 0
4955 -343 0
4955 -4950 0
4955 -2596 0
4955 -4762 0
4955 -4951 0
4955 -326 0
4955 -328 0
4955 -4954 0
4956 -358 -4955 0
-4956 358 0
-4956 4955 0
-4957 333 4952 370 0
4957 -333 0
4957 -4952 0
4957 -370 0
4958 -335 -4957 0
-4958 335 0
-4958 4957 0
-4959 337 506 341 343 4950 364 4656 4951 326 328 4958 0
4959 -337 0
4959 -506 0
4959 -341 0
4959 -343 0
4959 -4950 0
4959 -364 0
4959 -4656 0
4959 -4951 0
4959 -326 0
4959 -328 0
4959 -4958 0
4960 -375 -4959 0
-4960 375 0
-4960 4959 0
-4961 47 4960 0
4961 -47 0
4961 -4960 0
4962 -84 -4961 0
-4962 84 0
-4962 4961 0
-4963 121 4962 0
4963 -121 0
4963 -4962 0
4964 -127 -4963 0
-4964 127 0
-4964 4963 0
4965 -16 -4799 0
-4965 16 0
-4965 4799 0
-4966 18 4965 0
4966 -18 0
4966 -4965 0
4967 -20 -4966 0
-4967 20 0
-4967 4966 0
-4968 22 4947 4956 6 4964 4967 0
4968 -22 0
4968 -4947 0
4968 -4956 0
4968 -6 0
4968 -4964 0
4968 -4967 0
4969 -26 -4968 0
-4969 26 0
-4969 4968 0
4970 -386 -4955 0
-4970 386 0
-4970 4955 0
-4971 34 4969 4970 0
4971 -34 0
4971 -4969 0
4971 -4970 0
4972 -36 -4971 0
-4972 36 0
-4972 4971 0
4973 -3851 -3146 0
-4973 3851 0
-4973 3146 0
-4974 216 4973 508 0
4974 -216 0
4974 -4973 0
4974 -508 0
4975 -218 -4974 0
-4975 218 0
-4975 4974 0
4976 -325 -3278 0
-4976 325 0
-4976 3278 0
4977 -4350 -3146 0
-4977 4350 0
-4977 3146 0
-4978 333 4977 0
4978 -333 0
4978 -4977 0
4979 -335 -4978 0
-4979 335 0
-4979 4978 0
-4980 337 506 341 343 4975 4808 4976 326 328 4979 0
4980 -337 0
4980 -506 0
4980 -341 0
4980 -343 0
4980 -4975 0
4980 -4808 0
4980 -4976 0
4980 -326 0
4980 -328 0
4980 -4979 0
4981 -375 -4980 0
-4981 375 0
-4981 4980 0
-4982 47 4981 0
4982 -47 0
4982 -4981 0
4983 -84 -4982 0
-4983 84 0
-4983 4982 0
-4984 121 4983 0
4984 -121 0
4984 -4983 0
4985 -134 -4984 0
-4985 134 0
-4985 4984 0
-4986 40 4985 37 0
4986 -40 0
4986 -4985 0
4986 -37 0
4987 -42 -4986 0
-4987 42 0
-4987 4986 0
-4988 333 4942 0
4988 -333 0
4988 -4942 0
4989 -335 -4988 0
-4989 335 0
-4989 4988 0
-4990 337 506 341 343 4940 4808 4941 326 328 4989 0
4990 -337 0
4990 -506 0
4990 -341 0
4990 -343 0
4990 -4940 0
4990 -4808 0
4990 -4941 0
4990 -326 0
4990 -328 0
4990 -4989 0
4991 -375 -4990 0
-4991 375 0
-4991 4990 0
-4992 47 4991 0
4992 -47 0
4992 -4991 0
4993 -46 -4992 0
-4993 46 0
-4993 4992 0
4994 -401 -4990 0
-4994 401 0
-4994 4990 0
-4995 50 4994 0
4995 -50 0
4995 -4994 0
4996 -49 -4995 0
-4996 49 0
-4996 4995 0
-4997 52 4993 4996 0
4997 -52 0
4997 -4993 0
4997 -4996 0
4998 -54 -4997 0
-4998 54 0
-4998 4997 0
-4999 56 43 4998 0
4999 -56 0
4999 -43 0
4999 -4998 0
5000 -58 -4999 0
-5000 58 0
-5000 4999 0
-5001 60 4987 5000 0
5001 -60 0
5001 -4987 0
5001 -5000 0
5002 -62 -5001 0
-5002 62 0
-5002 5001 0
-5003 337 506 341 343 4940 2596 4941 326 328 4944 0
5003 -337 0
5003 -506 0
5003 -341 0
5003 -343 0
5003 -4940 0
5003 -2596 0
5003 -4941 0
5003 -326 0
5003 -328 0
5003 -4944 0
5004 -416 -5003 0
-5004 416 0
-5004 5003 0
-5005 337 506 341 343 4975 4976 326 328 4979 0
5005 -337 0
5005 -506 0
5005 -341 0
5005 -343 0
5005 -4975 0
5005 -4976 0
5005 -326 0
5005 -328 0
5005 -4979 0
5006 -375 -5005 0
-5006 375 0
-5006 5005 0
-5007 47 5006 0
5007 -47 0
5007 -5006 0
5008 -84 -5007 0
-5008 84 0
-5008 5007 0
-5009 121 5008 0
5009 -121 0
5009 -5008 0
5010 -134 -5009 0
-5010 134 0
-5010 5009 0
-5011 40 5010 37 0
5011 -40 0
5011 -5010 0
5011 -37 0
5012 -42 -5011 0
-5012 42 0
-5012 5011 0
-5013 337 506 341 343 4940 4941 326 328 4989 0
5013 -337 0
5013 -506 0
5013 -341 0
5013 -343 0
5013 -4940 0
5013 -4941 0
5013 -326 0
5013 -328 0
5013 -4989 0
5014 -375 -5013 0
-5014 375 0
-5014 5013 0
-5015 47 5014 0
5015 -47 0
5015 -5014 0
5016 -46 -5015 0
-5016 46 0
-5016 5015 0
5017 -401 -5013 0
-5017 401 0
-5017 5013 0
-5018 50 5017 0
5018 -50 0
5018 -5017 0
5019 -49 -5018 0
-5019 49 0
-5019 5018 0
-5020 52 5016 5019 0
5020 -52 0
5020 -5016 0
5020 -5019 0
5021 -54 -5020 0
-5021 54 0
-5021 5020 0
-5022 56 43 5021 0
5022 -56 0
5022 -43 0
5022 -5021 0
5023 -58 -5022 0
-5023 58 0
-5023 5022 0
-5024 60 5012 5023 0
5024 -60 0
5024 -5012 0
5024 -5023 0
5025 -67 -5024 0
-5025 67 0
-5025 5024 0
-5026 69 5004 5025 0
5026 -69 0
5026 -5004 0
5026 -5025 0
5027 -71 -5026 0
-5027 71 0
-5027 5026 0
-5028 73 5027 0
5028 -73 0
5028 -5027 0
5029 -75 -5028 0
-5029 75 0
-5029 5028 0
-5030 80 4909 4937 4946 4972 5002 5029 76 0
5030 -80 0
5030 -4909 0
5030 -4937 0
5030 -4946 0
5030 -4972 0
5030 -5002 0
5030 -5029 0
5030 -76 0
5031 -89 -5030 0
-5031 89 0
-5031 5030 0
5032 -82 -3312 0
-5032 82 0
-5032 3312 0
-5033 121 5032 83 0
5033 -121 0
5033 -5032 0
5033 -83 0
5034 -123 -5033 0
-5034 123 0
-5034 5033 0
5035 -162 -3623 0
-5035 162 0
-5035 3623 0
5036 -170 -3833 0
-5036 170 0
-5036 3833 0
-5037 176 5036 171 173 0
5037 -176 0
5037 -5036 0
5037 -171 0
5037 -173 0
5038 -178 -5037 0
-5038 178 0
-5038 5037 0
5039 -180 -5033 0
-5039 180 0
-5039 5033 0
-5040 216 5039 0
5040 -216 0
5040 -5039 0
5041 -218 -5040 0
-5041 218 0
-5041 5040 0
5042 -82 -4019 0
-5042 82 0
-5042 4019 0
-5043 121 5042 83 0
5043 -121 0
5043 -5042 0
5043 -83 0
5044 -134 -5043 0
-5044 134 0
-5044 5043 0
-5045 80 2514 2920 3978 76 0
5045 -80 0
5045 -2514 0
5045 -2920 0
5045 -3978 0
5045 -76 0
5046 -146 -5045 0
-5046 146 0
-5046 5045 0
5047 -112 -5045 0
-5047 112 0
-5047 5045 0
-5048 3 5047 0
5048 -3 0
5048 -5047 0
5049 -2 -5048 0
-5049 2 0
-5049 5048 0
-5050 5 5046 5049 0
5050 -5 0
5050 -5046 0
5050 -5049 0
5051 -38 -5050 0
-5051 38 0
-5051 5050 0
-5052 40 5044 5051 0
5052 -40 0
5052 -5044 0
5052 -5051 0
5053 -42 -5052 0
-5053 42 0
-5053 5052 0
5054 -44 -5050 0
-5054 44 0
-5054 5050 0
-5055 80 787 790 3978 76 0
5055 -80 0
5055 -787 0
5055 -790 0
5055 -3978 0
5055 -76 0
5056 -248 -5055 0
-5056 248 0
-5056 5055 0
5057 -250 -5055 0
-5057 250 0
-5057 5055 0
-5058 50 5057 0
5058 -50 0
5058 -5057 0
5059 -49 -5058 0
-5059 49 0
-5059 5058 0
-5060 52 5056 45 5059 0
5060 -52 0
5060 -5056 0
5060 -45 0
5060 -5059 0
5061 -54 -5060 0
-5061 54 0
-5061 5060 0
-5062 56 5054 5061 0
5062 -56 0
5062 -5054 0
5062 -5061 0
5063 -58 -5062 0
-5063 58 0
-5063 5062 0
-5064 60 5053 5063 0
5064 -60 0
5064 -5053 0
5064 -5063 0
5065 -259 -5064 0
-5065 259 0
-5065 5064 0
-5066 73 2984 0
5066 -73 0
5066 -2984 0
5067 -299 -5066 0
-5067 299 0
-5067 5066 0
5068 -331 -5064 0
-5068 331 0
-5068 5064 0
-5069 333 5068 0
5069 -333 0
5069 -5068 0
5070 -335 -5069 0
-5070 335 0
-5070 5069 0
-5071 337 5034 5035 5038 5041 5065 5067 326 328 5070 0
5071 -337 0
5071 -5034 0
5071 -5035 0
5071 -5038 0
5071 -5041 0
5071 -5065 0
5071 -5067 0
5071 -326 0
5071 -328 0
5071 -5070 0
5072 -1010 -5071 0
-5072 1010 0
-5072 5071 0
5073 -123 -3611 0
-5073 123 0
-5073 3611 0
5074 -162 -3608 0
-5074 162 0
-5074 3608 0
5075 -170 -3600 0
-5075 170 0
-5075 3600 0
-5076 176 5075 171 173 0
5076 -176 0
5076 -5075 0
5076 -171 0
5076 -173 0
5077 -178 -5076 0
-5077 178 0
-5077 5076 0
5078 -180 -3611 0
-5078 180 0
-5078 3611 0
-5079 216 5078 0
5079 -216 0
5079 -5078 0
5080 -218 -5079 0
-5080 218 0
-5080 5079 0
5081 -82 -3983 0
-5081 82 0
-5081 3983 0
-5082 121 5081 83 0
5082 -121 0
5082 -5081 0
5082 -83 0
5083 -134 -5082 0
-5083 134 0
-5083 5082 0
5084 -38 -3988 0
-5084 38 0
-5084 3988 0
-5085 40 5083 5084 0
5085 -40 0
5085 -5083 0
5085 -5084 0
5086 -42 -5085 0
-5086 42 0
-5086 5085 0
5087 -44 -3988 0
-5087 44 0
-5087 3988 0
5088 -248 -3983 0
-5088 248 0
-5088 3983 0
5089 -250 -3983 0
-5089 250 0
-5089 3983 0
-5090 50 5089 0
5090 -50 0
5090 -5089 0
5091 -49 -5090 0
-5091 49 0
-5091 5090 0
-5092 52 5088 45 5091 0
5092 -52 0
5092 -5088 0
5092 -45 0
5092 -5091 0
5093 -54 -5092 0
-5093 54 0
-5093 5092 0
-5094 56 5087 5093 0
5094 -56 0
5094 -5087 0
5094 -5093 0
5095 -58 -5094 0
-5095 58 0
-5095 5094 0
-5096 60 5086 5095 0
5096 -60 0
5096 -5086 0
5096 -5095 0
5097 -259 -5096 0
-5097 259 0
-5097 5096 0
-5098 121 1079 83 0
5098 -121 0
5098 -1079 0
5098 -83 0
5099 -134 -5098 0
-5099 134 0
-5099 5098 0
-5100 40 5099 1093 0
5100 -40 0
5100 -5099 0
5100 -1093 0
5101 -42 -5100 0
-5101 42 0
-5101 5100 0
-5102 60 5101 1104 0
5102 -60 0
5102 -5101 0
5102 -1104 0
5103 -67 -5102 0
-5103 67 0
-5103 5102 0
-5104 69 5103 0
5104 -69 0
5104 -5103 0
5105 -71 -5104 0
-5105 71 0
-5105 5104 0
-5106 73 5105 0
5106 -73 0
5106 -5105 0
5107 -299 -5106 0
-5107 299 0
-5107 5106 0
5108 -331 -5096 0
-5108 331 0
-5108 5096 0
-5109 333 5108 0
5109 -333 0
5109 -5108 0
5110 -335 -5109 0
-5110 335 0
-5110 5109 0
-5111 337 5073 5074 5077 5080 5097 5107 326 328 5110 0
5111 -337 0
5111 -5073 0
5111 -5074 0
5111 -5077 0
5111 -5080 0
5111 -5097 0
5111 -5107 0
5111 -326 0
5111 -328 0
5111 -5110 0
5112 -358 -5111 0
-5112 358 0
-5112 5111 0
5113 -383 -4795 0
-5113 383 0
-5113 4795 0
5114 -375 -4821 0
-5114 375 0
-5114 4821 0
-5115 47 5114 0
5115 -47 0
5115 -5114 0
5116 -84 -5115 0
-5116 84 0
-5116 5115 0
-5117 121 5116 0
5117 -121 0
5117 -5116 0
5118 -134 -5117 0
-5118 134 0
-5118 5117 0
-5119 40 5118 37 0
5119 -40 0
5119 -5118 0
5119 -37 0
5120 -42 -5119 0
-5120 42 0
-5120 5119 0
5121 -46 -5115 0
-5121 46 0
-5121 5115 0
5122 -401 -4821 0
-5122 401 0
-5122 4821 0
-5123 50 5122 0
5123 -50 0
5123 -5122 0
5124 -49 -5123 0
-5124 49 0
-5124 5123 0
-5125 52 5121 5124 0
5125 -52 0
5125 -5121 0
5125 -5124 0
5126 -54 -5125 0
-5126 54 0
-5126 5125 0
-5127 56 43 5126 0
5127 -56 0
5127 -43 0
5127 -5126 0
5128 -58 -5127 0
-5128 58 0
-5128 5127 0
-5129 60 5120 5128 0
5129 -60 0
5129 -5120 0
5129 -5128 0
5130 -62 -5129 0
-5130 62 0
-5130 5129 0
-5131 73 2632 0
5131 -73 0
5131 -2632 0
5132 -75 -5131 0
-5132 75 0
-5132 5131 0
-5133 80 5113 5130 5132 76 0
5133 -80 0
5133 -5113 0
5133 -5130 0
5133 -5132 0
5133 -76 0
5134 -146 -5133 0
-5134 146 0
-5134 5133 0
5135 -299 -3602 0
-5135 299 0
-5135 3602 0
-5136 337 506 507 343 510 511 5135 352 326 328 515 0
5136 -337 0
5136 -506 0
5136 -507 0
5136 -343 0
5136 -510 0
5136 -511 0
5136 -5135 0
5136 -352 0
5136 -326 0
5136 -328 0
5136 -515 0
5137 -383 -5136 0
-5137 383 0
-5137 5136 0
-5138 337 506 507 343 510 4808 352 326 328 390 0
5138 -337 0
5138 -506 0
5138 -507 0
5138 -343 0
5138 -510 0
5138 -4808 0
5138 -352 0
5138 -326 0
5138 -328 0
5138 -390 0
5139 -375 -5138 0
-5139 375 0
-5139 5138 0
-5140 47 5139 0
5140 -47 0
5140 -5139 0
5141 -84 -5140 0
-5141 84 0
-5141 5140 0
-5142 121 5141 0
5142 -121 0
5142 -5141 0
5143 -134 -5142 0
-5143 134 0
-5143 5142 0
-5144 40 5143 97 0
5144 -40 0
5144 -5143 0
5144 -97 0
5145 -42 -5144 0
-5145 42 0
-5145 5144 0
5146 -46 -5140 0
-5146 46 0
-5146 5140 0
5147 -401 -5138 0
-5147 401 0
-5147 5138 0
-5148 50 5147 0
5148 -50 0
5148 -5147 0
5149 -49 -5148 0
-5149 49 0
-5149 5148 0
-5150 52 5146 5149 0
5150 -52 0
5150 -5146 0
5150 -5149 0
5151 -54 -5150 0
-5151 54 0
-5151 5150 0
-5152 56 100 5151 0
5152 -56 0
5152 -100 0
5152 -5151 0
5153 -58 -5152 0
-5153 58 0
-5153 5152 0
-5154 60 5145 5153 0
5154 -60 0
5154 -5145 0
5154 -5153 0
5155 -62 -5154 0
-5155 62 0
-5155 5154 0
-5156 73 585 0
5156 -73 0
5156 -585 0
5157 -75 -5156 0
-5157 75 0
-5157 5156 0
-5158 80 5137 5155 5157 76 0
5158 -80 0
5158 -5137 0
5158 -5155 0
5158 -5157 0
5158 -76 0
5159 -112 -5158 0
-5159 112 0
-5159 5158 0
-5160 3 5159 0
5160 -3 0
5160 -5159 0
5161 -2 -5160 0
-5161 2 0
-5161 5160 0
-5162 5 5134 5161 0
5162 -5 0
5162 -5134 0
5162 -5161 0
5163 -7 -5162 0
-5163 7 0
-5163 5162 0
5164 -383 -4708 0
-5164 383 0
-5164 4708 0
-5165 60 41 5128 0
5165 -60 0
5165 -41 0
5165 -5128 0
5166 -62 -5165 0
-5166 62 0
-5166 5165 0
-5167 73 1866 0
5167 -73 0
5167 -1866 0
5168 -75 -5167 0
-5168 75 0
-5168 5167 0
-5169 80 5164 5166 5168 76 0
5169 -80 0
5169 -5164 0
5169 -5166 0
5169 -5168 0
5169 -76 0
5170 -82 -5169 0
-5170 82 0
-5170 5169 0
5171 -75 -4655 0
-5171 75 0
-5171 4655 0
-5172 80 1647 5171 76 0
5172 -80 0
5172 -1647 0
5172 -5171 0
5172 -76 0
5173 -146 -5172 0
-5173 146 0
-5173 5172 0
-5174 73 524 0
5174 -73 0
5174 -524 0
5175 -75 -5174 0
-5175 75 0
-5175 5174 0
-5176 80 1652 5175 76 0
5176 -80 0
5176 -1652 0
5176 -5175 0
5176 -76 0
5177 -112 -5176 0
-5177 112 0
-5177 5176 0
-5178 3 5177 0
5178 -3 0
5178 -5177 0
5179 -2 -5178 0
-5179 2 0
-5179 5178 0
-5180 5 5173 5179 0
5180 -5 0
5180 -5173 0
5180 -5179 0
5181 -162 -5180 0
-5181 162 0
-5181 5180 0
5182 -170 -5172 0
-5182 170 0
-5182 5172 0
-5183 176 5182 171 173 0
5183 -176 0
5183 -5182 0
5183 -171 0
5183 -173 0
5184 -178 -5183 0
-5184 178 0
-5184 5183 0
-5185 40 5084 0
5185 -40 0
5185 -5084 0
5186 -42 -5185 0
-5186 42 0
-5186 5185 0
-5187 52 5088 5091 0
5187 -52 0
5187 -5088 0
5187 -5091 0
5188 -54 -5187 0
-5188 54 0
-5188 5187 0
-5189 56 5087 5188 0
5189 -56 0
5189 -5087 0
5189 -5188 0
5190 -58 -5189 0
-5190 58 0
-5190 5189 0
-5191 60 5186 5190 0
5191 -60 0
5191 -5186 0
5191 -5190 0
5192 -259 -5191 0
-5192 259 0
-5192 5191 0
-5193 52 1097 1100 0
5193 -52 0
5193 -1097 0
5193 -1100 0
5194 -54 -5193 0
-5194 54 0
-5194 5193 0
-5195 56 1096 5194 0
5195 -56 0
5195 -1096 0
5195 -5194 0
5196 -58 -5195 0
-5196 58 0
-5196 5195 0
-5197 60 1556 5196 0
5197 -60 0
5197 -1556 0
5197 -5196 0
5198 -67 -5197 0
-5198 67 0
-5198 5197 0
-5199 69 5198 0
5199 -69 0
5199 -5198 0
5200 -71 -5199 0
-5200 71 0
-5200 5199 0
-5201 73 5200 0
5201 -73 0
5201 -5200 0
5202 -299 -5201 0
-5202 299 0
-5202 5201 0
5203 -331 -5191 0
-5203 331 0
-5203 5191 0
-5204 333 5203 0
5204 -333 0
5204 -5203 0
5205 -335 -5204 0
-5205 335 0
-5205 5204 0
-5206 337 5181 5184 1779 5192 5202 326 328 5205 0
5206 -337 0
5206 -5181 0
5206 -5184 0
5206 -1779 0
5206 -5192 0
5206 -5202 0
5206 -326 0
5206 -328 0
5206 -5205 0
5207 -375 -5206 0
-5207 375 0
-5207 5206 0
-5208 47 5207 0
5208 -47 0
5208 -5207 0
5209 -84 -5208 0
-5209 84 0
-5209 5208 0
-5210 121 5170 5209 0
5210 -121 0
5210 -5170 0
5210 -5209 0
5211 -127 -5210 0
-5211 127 0
-5211 5210 0
-5212 22 5112 5163 5211 91 0
5212 -22 0
5212 -5112 0
5212 -5163 0
5212 -5211 0
5212 -91 0
5213 -26 -5212 0
-5213 26 0
-5213 5212 0
5214 -82 -3329 0
-5214 82 0
-5214 3329 0
-5215 121 5214 83 0
5215 -121 0
5215 -5214 0
5215 -83 0
5216 -123 -5215 0
-5216 123 0
-5216 5215 0
-5217 80 2514 772 3597 76 0
5217 -80 0
5217 -2514 0
5217 -772 0
5217 -3597 0
5217 -76 0
5218 -146 -5217 0
-5218 146 0
-5218 5217 0
-5219 80 2514 196 3603 76 0
5219 -80 0
5219 -2514 0
5219 -196 0
5219 -3603 0
5219 -76 0
5220 -112 -5219 0
-5220 112 0
-5220 5219 0
-5221 3 5220 0
5221 -3 0
5221 -5220 0
5222 -2 -5221 0
-5222 2 0
-5222 5221 0
-5223 5 5218 5222 0
5223 -5 0
5223 -5218 0
5223 -5222 0
5224 -162 -5223 0
-5224 162 0
-5224 5223 0
5225 -170 -3801 0
-5225 170 0
-5225 3801 0
-5226 176 5225 171 173 0
5226 -176 0
5226 -5225 0
5226 -171 0
5226 -173 0
5227 -178 -5226 0
-5227 178 0
-5227 5226 0
5228 -180 -5215 0
-5228 180 0
-5228 5215 0
-5229 216 5228 0
5229 -216 0
5229 -5228 0
5230 -218 -5229 0
-5230 218 0
-5230 5229 0
5231 -82 -4035 0
-5231 82 0
-5231 4035 0
-5232 121 5231 83 0
5232 -121 0
5232 -5231 0
5232 -83 0
5233 -134 -5232 0
-5233 134 0
-5233 5232 0
-5234 80 2514 3978 76 0
5234 -80 0
5234 -2514 0
5234 -3978 0
5234 -76 0
5235 -146 -5234 0
-5235 146 0
-5235 5234 0
5236 -112 -5234 0
-5236 112 0
-5236 5234 0
-5237 3 5236 0
5237 -3 0
5237 -5236 0
5238 -2 -5237 0
-5238 2 0
-5238 5237 0
-5239 5 5235 5238 0
5239 -5 0
5239 -5235 0
5239 -5238 0
5240 -38 -5239 0
-5240 38 0
-5240 5239 0
-5241 40 5233 5240 0
5241 -40 0
5241 -5233 0
5241 -5240 0
5242 -42 -5241 0
-5242 42 0
-5242 5241 0
5243 -44 -5239 0
-5243 44 0
-5243 5239 0
-5244 80 787 3978 76 0
5244 -80 0
5244 -787 0
5244 -3978 0
5244 -76 0
5245 -248 -5244 0
-5245 248 0
-5245 5244 0
5246 -250 -5244 0
-5246 250 0
-5246 5244 0
-5247 50 5246 0
5247 -50 0
5247 -5246 0
5248 -49 -5247 0
-5248 49 0
-5248 5247 0
-5249 52 5245 45 5248 0
5249 -52 0
5249 -5245 0
5249 -45 0
5249 -5248 0
5250 -54 -5249 0
-5250 54 0
-5250 5249 0
-5251 56 5243 5250 0
5251 -56 0
5251 -5243 0
5251 -5250 0
5252 -58 -5251 0
-5252 58 0
-5252 5251 0
-5253 60 5242 5252 0
5253 -60 0
5253 -5242 0
5253 -5252 0
5254 -259 -5253 0
-5254 259 0
-5254 5253 0
-5255 73 2588 0
5255 -73 0
5255 -2588 0
5256 -299 -5255 0
-5256 299 0
-5256 5255 0
5257 -331 -5253 0
-5257 331 0
-5257 5253 0
-5258 333 5257 0
5258 -333 0
5258 -5257 0
5259 -335 -5258 0
-5259 335 0
-5259 5258 0
-5260 337 5216 5224 5227 5230 5254 5256 326 328 5259 0
5260 -337 0
5260 -5216 0
5260 -5224 0
5260 -5227 0
5260 -5230 0
5260 -5254 0
5260 -5256 0
5260 -326 0
5260 -328 0
5260 -5259 0
5261 -386 -5260 0
-5261 386 0
-5261 5260 0
-5262 34 5213 5261 0
5262 -34 0
5262 -5213 0
5262 -5261 0
5263 -2737 -5262 0
-5263 2737 0
-5263 5262 0
-5264 337 506 341 343 510 364 4656 352 326 328 372 0
5264 -337 0
5264 -506 0
5264 -341 0
5264 -343 0
5264 -510 0
5264 -364 0
5264 -4656 0
5264 -352 0
5264 -326 0
5264 -328 0
5264 -372 0
5265 -375 -5264 0
-5265 375 0
-5265 5264 0
-5266 47 5265 0
5266 -47 0
5266 -5265 0
5267 -84 -5266 0
-5267 84 0
-5267 5266 0
-5268 121 5267 0
5268 -121 0
5268 -5267 0
5269 -127 -5268 0
-5269 127 0
-5269 5268 0
-5270 22 4896 5269 91 0
5270 -22 0
5270 -4896 0
5270 -5269 0
5270 -91 0
5271 -24 -5270 0
-5271 24 0
-5271 5270 0
5272 -26 -5270 0
-5272 26 0
-5272 5270 0
-5273 34 5272 4905 0
5273 -34 0
5273 -5272 0
5273 -4905 0
5274 -36 -5273 0
-5274 36 0
-5274 5273 0
-5275 80 5271 5113 5274 5130 5132 76 0
5275 -80 0
5275 -5271 0
5275 -5113 0
5275 -5274 0
5275 -5130 0
5275 -5132 0
5275 -76 0
5276 -146 -5275 0
-5276 146 0
-5276 5275 0
5277 -358 -5136 0
-5277 358 0
-5277 5136 0
5278 -299 -5174 0
-5278 299 0
-5278 5174 0
-5279 337 506 507 343 510 521 5278 352 326 328 529 0
5279 -337 0
5279 -506 0
5279 -507 0
5279 -343 0
5279 -510 0
5279 -521 0
5279 -5278 0
5279 -352 0
5279 -326 0
5279 -328 0
5279 -529 0
5280 -375 -5279 0
-5280 375 0
-5280 5279 0
-5281 47 5280 0
5281 -47 0
5281 -5280 0
5282 -84 -5281 0
-5282 84 0
-5282 5281 0
-5283 121 5282 0
5283 -121 0
5283 -5282 0
5284 -127 -5283 0
-5284 127 0
-5284 5283 0
-5285 22 5277 5284 91 0
5285 -22 0
5285 -5277 0
5285 -5284 0
5285 -91 0
5286 -24 -5285 0
-5286 24 0
-5286 5285 0
5287 -26 -5285 0
-5287 26 0
-5287 5285 0
5288 -386 -5136 0
-5288 386 0
-5288 5136 0
-5289 34 5287 5288 0
5289 -34 0
5289 -5287 0
5289 -5288 0
5290 -36 -5289 0
-5290 36 0
-5290 5289 0
-5291 80 5286 5137 5290 5155 5157 76 0
5291 -80 0
5291 -5286 0
5291 -5137 0
5291 -5290 0
5291 -5155 0
5291 -5157 0
5291 -76 0
5292 -112 -5291 0
-5292 112 0
-5292 5291 0
-5293 3 5292 0
5293 -3 0
5293 -5292 0
5294 -2 -5293 0
-5294 2 0
-5294 5293 0
-5295 5 5276 5294 0
5295 -5 0
5295 -5276 0
5295 -5294 0
5296 -2807 -5295 0
-5296 2807 0
-5296 5295 0
-5297 3101 5072 5263 5296 3132 0
5297 -3101 0
5297 -5072 0
5297 -5263 0
5297 -5296 0
5297 -3132 0
5298 -3116 -5297 0
-5298 3116 0
-5298 5297 0
-5299 337 506 507 343 510 511 5135 326 328 515 0
5299 -337 0
5299 -506 0
5299 -507 0
5299 -343 0
5299 -510 0
5299 -511 0
5299 -5135 0
5299 -326 0
5299 -328 0
5299 -515 0
5300 -1010 -5299 0
-5300 1010 0
-5300 5299 0
5301 -358 -5299 0
-5301 358 0
-5301 5299 0
-5302 337 506 507 343 510 521 5278 326 328 529 0
5302 -337 0
5302 -506 0
5302 -507 0
5302 -343 0
5302 -510 0
5302 -521 0
5302 -5278 0
5302 -326 0
5302 -328 0
5302 -529 0
5303 -375 -5302 0
-5303 375 0
-5303 5302 0
-5304 47 5303 0
5304 -47 0
5304 -5303 0
5305 -84 -5304 0
-5305 84 0
-5305 5304 0
-5306 121 5305 0
5306 -121 0
5306 -5305 0
5307 -127 -5306 0
-5307 127 0
-5307 5306 0
-5308 22 5301 90 5307 91 0
5308 -22 0
5308 -5301 0
5308 -90 0
5308 -5307 0
5308 -91 0
5309 -26 -5308 0
-5309 26 0
-5309 5308 0
5310 -386 -5299 0
-5310 386 0
-5310 5299 0
-5311 34 5309 5310 0
5311 -34 0
5311 -5309 0
5311 -5310 0
5312 -2737 -5311 0
-5312 2737 0
-5312 5311 0
-5313 3101 5300 5312 3198 3132 0
5313 -3101 0
5313 -5300 0
5313 -5312 0
5313 -3198 0
5313 -3132 0
5314 -3109 -5313 0
-5314 3109 0
-5314 5313 0
-5315 34 5310 0
5315 -34 0
5315 -5310 0
5316 -2737 -5315 0
-5316 2737 0
-5316 5315 0
-5317 3101 5300 5316 3198 3132 0
5317 -3101 0
5317 -5300 0
5317 -5316 0
5317 -3198 0
5317 -3132 0
5318 -3111 -5317 0
-5318 3111 0
-5318 5317 0
5319 -3851 -3454 0
-5319 3851 0
-5319 3454 0
-5320 216 5319 508 0
5320 -216 0
5320 -5319 0
5320 -508 0
5321 -218 -5320 0
-5321 218 0
-5321 5320 0
5322 -4350 -3454 0
-5322 4350 0
-5322 3454 0
-5323 333 5322 513 0
5323 -333 0
5323 -5322 0
5323 -513 0
5324 -335 -5323 0
-5324 335 0
-5324 5323 0
-5325 337 506 507 343 5321 511 5135 326 328 5324 0
5325 -337 0
5325 -506 0
5325 -507 0
5325 -343 0
5325 -5321 0
5325 -511 0
5325 -5135 0
5325 -326 0
5325 -328 0
5325 -5324 0
5326 -358 -5325 0
-5326 358 0
-5326 5325 0
-5327 333 5322 527 0
5327 -333 0
5327 -5322 0
5327 -527 0
5328 -335 -5327 0
-5328 335 0
-5328 5327 0
-5329 337 506 507 343 5321 521 5278 326 328 5328 0
5329 -337 0
5329 -506 0
5329 -507 0
5329 -343 0
5329 -5321 0
5329 -521 0
5329 -5278 0
5329 -326 0
5329 -328 0
5329 -5328 0
5330 -375 -5329 0
-5330 375 0
-5330 5329 0
-5331 47 5330 0
5331 -47 0
5331 -5330 0
5332 -84 -5331 0
-5332 84 0
-5332 5331 0
-5333 121 5332 0
5333 -121 0
5333 -5332 0
5334 -127 -5333 0
-5334 127 0
-5334 5333 0
-5335 22 5318 5326 90 5334 91 0
5335 -22 0
5335 -5318 0
5335 -5326 0
5335 -90 0
5335 -5334 0
5335 -91 0
5336 -24 -5335 0
-5336 24 0
-5336 5335 0
5337 -3851 -3628 0
-5337 3851 0
-5337 3628 0
-5338 216 5337 508 0
5338 -216 0
5338 -5337 0
5338 -508 0
5339 -218 -5338 0
-5339 218 0
-5339 5338 0
5340 -4350 -3628 0
-5340 4350 0
-5340 3628 0
-5341 333 5340 513 0
5341 -333 0
5341 -5340 0
5341 -513 0
5342 -335 -5341 0
-5342 335 0
-5342 5341 0
-5343 337 506 507 343 5339 511 5135 326 328 5342 0
5343 -337 0
5343 -506 0
5343 -507 0
5343 -343 0
5343 -5339 0
5343 -511 0
5343 -5135 0
5343 -326 0
5343 -328 0
5343 -5342 0
5344 -383 -5343 0
-5344 383 0
-5344 5343 0
-5345 3101 5300 3198 3132 0
5345 -3101 0
5345 -5300 0
5345 -3198 0
5345 -3132 0
5346 -3111 -5345 0
-5346 3111 0
-5346 5345 0
5347 -3851 -3204 0
-5347 3851 0
-5347 3204 0
-5348 216 5347 508 0
5348 -216 0
5348 -5347 0
5348 -508 0
5349 -218 -5348 0
-5349 218 0
-5349 5348 0
5350 -4350 -3204 0
-5350 4350 0
-5350 3204 0
-5351 333 5350 513 0
5351 -333 0
5351 -5350 0
5351 -513 0
5352 -335 -5351 0
-5352 335 0
-5352 5351 0
-5353 337 506 507 343 5349 511 5135 326 328 5352 0
5353 -337 0
5353 -506 0
5353 -507 0
5353 -343 0
5353 -5349 0
5353 -511 0
5353 -5135 0
5353 -326 0
5353 -328 0
5353 -5352 0
5354 -358 -5353 0
-5354 358 0
-5354 5353 0
-5355 333 5350 527 0
5355 -333 0
5355 -5350 0
5355 -527 0
5356 -335 -5355 0
-5356 335 0
-5356 5355 0
-5357 337 506 507 343 5349 521 5278 326 328 5356 0
5357 -337 0
5357 -506 0
5357 -507 0
5357 -343 0
5357 -5349 0
5357 -521 0
5357 -5278 0
5357 -326 0
5357 -328 0
5357 -5356 0
5358 -375 -5357 0
-5358 375 0
-5358 5357 0
-5359 47 5358 0
5359 -47 0
5359 -5358 0
5360 -84 -5359 0
-5360 84 0
-5360 5359 0
-5361 121 5360 0
5361 -121 0
5361 -5360 0
5362 -127 -5361 0
-5362 127 0
-5362 5361 0
-5363 22 5346 5354 90 5362 91 0
5363 -22 0
5363 -5346 0
5363 -5354 0
5363 -90 0
5363 -5362 0
5363 -91 0
5364 -26 -5363 0
-5364 26 0
-5364 5363 0
5365 -386 -5353 0
-5365 386 0
-5365 5353 0
-5366 34 5364 5365 0
5366 -34 0
5366 -5364 0
5366 -5365 0
5367 -36 -5366 0
-5367 36 0
-5367 5366 0
5368 -3851 -3199 0
-5368 3851 0
-5368 3199 0
-5369 216 5368 508 0
5369 -216 0
5369 -5368 0
5369 -508 0
5370 -218 -5369 0
-5370 218 0
-5370 5369 0
5371 -4350 -3199 0
-5371 4350 0
-5371 3199 0
-5372 333 5371 0
5372 -333 0
5372 -5371 0
5373 -335 -5372 0
-5373 335 0
-5373 5372 0
-5374 337 506 507 343 5370 4808 326 328 5373 0
5374 -337 0
5374 -506 0
5374 -507 0
5374 -343 0
5374 -5370 0
5374 -4808 0
5374 -326 0
5374 -328 0
5374 -5373 0
5375 -375 -5374 0
-5375 375 0
-5375 5374 0
-5376 47 5375 0
5376 -47 0
5376 -5375 0
5377 -84 -5376 0
-5377 84 0
-5377 5376 0
-5378 121 5377 0
5378 -121 0
5378 -5377 0
5379 -134 -5378 0
-5379 134 0
-5379 5378 0
-5380 40 5379 97 0
5380 -40 0
5380 -5379 0
5380 -97 0
5381 -42 -5380 0
-5381 42 0
-5381 5380 0
-5382 333 5340 0
5382 -333 0
5382 -5340 0
5383 -335 -5382 0
-5383 335 0
-5383 5382 0
-5384 337 506 507 343 5339 4808 326 328 5383 0
5384 -337 0
5384 -506 0
5384 -507 0
5384 -343 0
5384 -5339 0
5384 -4808 0
5384 -326 0
5384 -328 0
5384 -5383 0
5385 -375 -5384 0
-5385 375 0
-5385 5384 0
-5386 47 5385 0
5386 -47 0
5386 -5385 0
5387 -46 -5386 0
-5387 46 0
-5387 5386 0
5388 -401 -5384 0
-5388 401 0
-5388 5384 0
-5389 50 5388 0
5389 -50 0
5389 -5388 0
5390 -49 -5389 0
-5390 49 0
-5390 5389 0
-5391 52 5387 5390 0
5391 -52 0
5391 -5387 0
5391 -5390 0
5392 -54 -5391 0
-5392 54 0
-5392 5391 0
-5393 56 100 5392 0
5393 -56 0
5393 -100 0
5393 -5392 0
5394 -58 -5393 0
-5394 58 0
-5394 5393 0
-5395 60 5381 5394 0
5395 -60 0
5395 -5381 0
5395 -5394 0
5396 -62 -5395 0
-5396 62 0
-5396 5395 0
-5397 337 506 507 343 5339 511 326 328 5342 0
5397 -337 0
5397 -506 0
5397 -507 0
5397 -343 0
5397 -5339 0
5397 -511 0
5397 -326 0
5397 -328 0
5397 -5342 0
5398 -416 -5397 0
-5398 416 0
-5398 5397 0
-5399 337 506 507 343 5370 326 328 5373 0
5399 -337 0
5399 -506 0
5399 -507 0
5399 -343 0
5399 -5370 0
5399 -326 0
5399 -328 0
5399 -5373 0
5400 -375 -5399 0
-5400 375 0
-5400 5399 0
-5401 47 5400 0
5401 -47 0
5401 -5400 0
5402 -84 -5401 0
-5402 84 0
-5402 5401 0
-5403 121 5402 0
5403 -121 0
5403 -5402 0
5404 -134 -5403 0
-5404 134 0
-5404 5403 0
-5405 40 5404 97 0
5405 -40 0
5405 -5404 0
5405 -97 0
5406 -42 -5405 0
-5406 42 0
-5406 5405 0
-5407 337 506 507 343 5339 326 328 5383 0
5407 -337 0
5407 -506 0
5407 -507 0
5407 -343 0
5407 -5339 0
5407 -326 0
5407 -328 0
5407 -5383 0
5408 -375 -5407 0
-5408 375 0
-5408 5407 0
-5409 47 5408 0
5409 -47 0
5409 -5408 0
5410 -46 -5409 0
-5410 46 0
-5410 5409 0
5411 -401 -5407 0
-5411 401 0
-5411 5407 0
-5412 50 5411 0
5412 -50 0
5412 -5411 0
5413 -49 -5412 0
-5413 49 0
-5413 5412 0
-5414 52 5410 5413 0
5414 -52 0
5414 -5410 0
5414 -5413 0
5415 -54 -5414 0
-5415 54 0
-5415 5414 0
-5416 56 100 5415 0
5416 -56 0
5416 -100 0
5416 -5415 0
5417 -58 -5416 0
-5417 58 0
-5417 5416 0
-5418 60 5406 5417 0
5418 -60 0
5418 -5406 0
5418 -5417 0
5419 -67 -5418 0
-5419 67 0
-5419 5418 0
-5420 69 5398 5419 0
5420 -69 0
5420 -5398 0
5420 -5419 0
5421 -71 -5420 0
-5421 71 0
-5421 5420 0
-5422 73 5421 0
5422 -73 0
5422 -5421 0
5423 -75 -5422 0
-5423 75 0
-5423 5422 0
-5424 80 5314 5336 5344 5367 5396 5423 76 0
5424 -80 0
5424 -5314 0
5424 -5336 0
5424 -5344 0
5424 -5367 0
5424 -5396 0
5424 -5423 0
5424 -76 0
5425 -112 -5424 0
-5425 112 0
-5425 5424 0
-5426 3 5425 0
5426 -3 0
5426 -5425 0
5427 -12 -5426 0
-5427 12 0
-5427 5426 0
-5428 14 5298 8 5427 0
5428 -14 0
5428 -5298 0
5428 -8 0
5428 -5427 0
5429 -28 -5428 0
-5429 28 0
-5429 5428 0
-5430 30 5031 5429 0
5430 -30 0
5430 -5031 0
5430 -5429 0
5431 -210 -5430 0
-5431 210 0
-5431 5430 0
-5432 212 5431 0
5432 -212 0
5432 -5431 0
5433 -598 -5432 0
-5433 598 0
-5433 5432 0
-5434 600 4650 4895 5433 0
5434 -600 0
5434 -4650 0
5434 -4895 0
5434 -5433 0
5435 -635 -5434 0
-5435 635 0
-5435 5434 0
-5436 65 4427 5435 0
5436 -65 0
5436 -4427 0
5436 -5435 0
5437 -5438 -5436 0
-5437 5438 0
-5437 5436 0
5439 -36 -4809 0
-5439 36 0
-5439 4809 0
-5440 80 657 5439 61 74 76 0
5440 -80 0
5440 -657 0
5440 -5439 0
5440 -61 0
5440 -74 0
5440 -76 0
5441 -82 -5440 0
-5441 82 0
-5441 5440 0
-5442 30 655 0
5442 -30 0
5442 -655 0
5443 -119 -5442 0
-5443 119 0
-5443 5442 0
-5444 121 5441 83 5443 0
5444 -121 0
5444 -5441 0
5444 -83 0
5444 -5443 0
5445 -123 -5444 0
-5445 123 0
-5445 5444 0
-5446 80 4614 4617 138 143 76 0
5446 -80 0
5446 -4614 0
5446 -4617 0
5446 -138 0
5446 -143 0
5446 -76 0
5447 -146 -5446 0
-5447 146 0
-5447 5446 0
-5448 80 4614 4617 150 155 76 0
5448 -80 0
5448 -4614 0
5448 -4617 0
5448 -150 0
5448 -155 0
5448 -76 0
5449 -112 -5448 0
-5449 112 0
-5449 5448 0
-5450 3 5449 0
5450 -3 0
5450 -5449 0
5451 -2 -5450 0
-5451 2 0
-5451 5450 0
-5452 5 5447 5451 0
5452 -5 0
5452 -5447 0
5452 -5451 0
5453 -162 -5452 0
-5453 162 0
-5453 5452 0
5454 -170 -942 0
-5454 170 0
-5454 942 0
-5455 176 5454 171 173 0
5455 -176 0
5455 -5454 0
5455 -171 0
5455 -173 0
5456 -178 -5455 0
-5456 178 0
-5456 5455 0
5457 -180 -5444 0
-5457 180 0
-5457 5444 0
5458 -214 -947 0
-5458 214 0
-5458 947 0
-5459 216 5457 5458 0
5459 -216 0
5459 -5457 0
5459 -5458 0
5460 -218 -5459 0
-5460 218 0
-5460 5459 0
-5461 80 657 5439 221 76 0
5461 -80 0
5461 -657 0
5461 -5439 0
5461 -221 0
5461 -76 0
5462 -82 -5461 0
-5462 82 0
-5462 5461 0
5463 -89 -835 0
-5463 89 0
-5463 835 0
-5464 30 5463 0
5464 -30 0
5464 -5463 0
5465 -119 -5464 0
-5465 119 0
-5465 5464 0
-5466 121 5462 83 5465 0
5466 -121 0
5466 -5462 0
5466 -83 0
5466 -5465 0
5467 -134 -5466 0
-5467 134 0
-5467 5466 0
-5468 80 4614 4617 221 76 0
5468 -80 0
5468 -4614 0
5468 -4617 0
5468 -221 0
5468 -76 0
5469 -146 -5468 0
-5469 146 0
-5469 5468 0
5470 -112 -5468 0
-5470 112 0
-5470 5468 0
-5471 3 5470 0
5471 -3 0
5471 -5470 0
5472 -2 -5471 0
-5472 2 0
-5472 5471 0
-5473 5 5469 5472 0
5473 -5 0
5473 -5469 0
5473 -5472 0
5474 -38 -5473 0
-5474 38 0
-5474 5473 0
-5475 40 5467 5474 0
5475 -40 0
5475 -5467 0
5475 -5474 0
5476 -42 -5475 0
-5476 42 0
-5476 5475 0
5477 -44 -5473 0
-5477 44 0
-5477 5473 0
-5478 80 938 941 221 76 0
5478 -80 0
5478 -938 0
5478 -941 0
5478 -221 0
5478 -76 0
5479 -248 -5478 0
-5479 248 0
-5479 5478 0
5480 -250 -5478 0
-5480 250 0
-5480 5478 0
-5481 50 5480 0
5481 -50 0
5481 -5480 0
5482 -49 -5481 0
-5482 49 0
-5482 5481 0
-5483 52 5479 45 5482 0
5483 -52 0
5483 -5479 0
5483 -45 0
5483 -5482 0
5484 -54 -5483 0
-5484 54 0
-5484 5483 0
-5485 56 5477 5484 0
5485 -56 0
5485 -5477 0
5485 -5484 0
5486 -58 -5485 0
-5486 58 0
-5486 5485 0
-5487 60 5476 5486 0
5487 -60 0
5487 -5476 0
5487 -5486 0
5488 -259 -5487 0
-5488 259 0
-5488 5487 0
-5489 80 657 5439 76 0
5489 -80 0
5489 -657 0
5489 -5439 0
5489 -76 0
5490 -82 -5489 0
-5490 82 0
-5490 5489 0
5491 -89 -898 0
-5491 89 0
-5491 898 0
-5492 30 5491 0
5492 -30 0
5492 -5491 0
5493 -119 -5492 0
-5493 119 0
-5493 5492 0
-5494 121 5490 83 5493 0
5494 -121 0
5494 -5490 0
5494 -83 0
5494 -5493 0
5495 -134 -5494 0
-5495 134 0
-5495 5494 0
-5496 80 4614 4617 76 0
5496 -80 0
5496 -4614 0
5496 -4617 0
5496 -76 0
5497 -146 -5496 0
-5497 146 0
-5497 5496 0
5498 -112 -5496 0
-5498 112 0
-5498 5496 0
-5499 3 5498 0
5499 -3 0
5499 -5498 0
5500 -2 -5499 0
-5500 2 0
-5500 5499 0
-5501 5 5497 5500 0
5501 -5 0
5501 -5497 0
5501 -5500 0
5502 -38 -5501 0
-5502 38 0
-5502 5501 0
-5503 40 5495 5502 0
5503 -40 0
5503 -5495 0
5503 -5502 0
5504 -42 -5503 0
-5504 42 0
-5504 5503 0
5505 -44 -5501 0
-5505 44 0
-5505 5501 0
-5506 80 938 941 76 0
5506 -80 0
5506 -938 0
5506 -941 0
5506 -76 0
5507 -248 -5506 0
-5507 248 0
-5507 5506 0
5508 -250 -5506 0
-5508 250 0
-5508 5506 0
-5509 50 5508 0
5509 -50 0
5509 -5508 0
5510 -49 -5509 0
-5510 49 0
-5510 5509 0
-5511 52 5507 45 5510 0
5511 -52 0
5511 -5507 0
5511 -45 0
5511 -5510 0
5512 -54 -5511 0
-5512 54 0
-5512 5511 0
-5513 56 5505 5512 0
5513 -56 0
5513 -5505 0
5513 -5512 0
5514 -58 -5513 0
-5514 58 0
-5514 5513 0
-5515 60 5504 5514 0
5515 -60 0
5515 -5504 0
5515 -5514 0
5516 -67 -5515 0
-5516 67 0
-5516 5515 0
-5517 69 5516 0
5517 -69 0
5517 -5516 0
5518 -71 -5517 0
-5518 71 0
-5518 5517 0
-5519 73 63 5518 0
5519 -73 0
5519 -63 0
5519 -5518 0
5520 -299 -5519 0
-5520 299 0
-5520 5519 0
5521 -331 -5487 0
-5521 331 0
-5521 5487 0
-5522 333 5521 0
5522 -333 0
5522 -5521 0
5523 -335 -5522 0
-5523 335 0
-5523 5522 0
-5524 337 5445 5453 5456 5460 5488 5520 326 328 5523 0
5524 -337 0
5524 -5445 0
5524 -5453 0
5524 -5456 0
5524 -5460 0
5524 -5488 0
5524 -5520 0
5524 -326 0
5524 -328 0
5524 -5523 0
5525 -339 -5524 0
-5525 339 0
-5525 5524 0
-5526 22 357 6 379 91 0
5526 -22 0
5526 -357 0
5526 -6 0
5526 -379 0
5526 -91 0
5527 -24 -5526 0
-5527 24 0
-5527 5526 0
5528 -26 -5526 0
-5528 26 0
-5528 5526 0
-5529 34 5528 385 31 0
5529 -34 0
5529 -5528 0
5529 -385 0
5529 -31 0
5530 -36 -5529 0
-5530 36 0
-5530 5529 0
-5531 80 5527 382 5530 409 438 76 0
5531 -80 0
5531 -5527 0
5531 -382 0
5531 -5530 0
5531 -409 0
5531 -438 0
5531 -76 0
5532 -441 -5531 0
-5532 441 0
-5532 5531 0
-5533 22 445 6 451 91 0
5533 -22 0
5533 -445 0
5533 -6 0
5533 -451 0
5533 -91 0
5534 -24 -5533 0
-5534 24 0
-5534 5533 0
5535 -26 -5533 0
-5535 26 0
-5535 5533 0
-5536 34 5535 456 0
5536 -34 0
5536 -5535 0
5536 -456 0
5537 -36 -5536 0
-5537 36 0
-5537 5536 0
-5538 80 5534 454 5537 476 503 76 0
5538 -80 0
5538 -5534 0
5538 -454 0
5538 -5537 0
5538 -476 0
5538 -503 0
5538 -76 0
5539 -89 -5538 0
-5539 89 0
-5539 5538 0
-5540 30 5539 0
5540 -30 0
5540 -5539 0
5541 -210 -5540 0
-5541 210 0
-5541 5540 0
-5542 212 5541 0
5542 -212 0
5542 -5541 0
5543 -598 -5542 0
-5543 598 0
-5543 5542 0
-5544 600 5525 5532 5543 0
5544 -600 0
5544 -5525 0
5544 -5532 0
5544 -5543 0
5545 -602 -5544 0
-5545 602 0
-5545 5544 0
5546 -441 -5440 0
-5546 441 0
-5546 5440 0
5547 -89 -661 0
-5547 89 0
-5547 661 0
-5548 30 5547 0
5548 -30 0
5548 -5547 0
5549 -210 -5548 0
-5549 210 0
-5549 5548 0
-5550 212 5549 0
5550 -212 0
5550 -5549 0
5551 -598 -5550 0
-5551 598 0
-5551 5550 0
-5552 600 5546 5551 0
5552 -600 0
5552 -5546 0
5552 -5551 0
5553 -609 -5552 0
-5553 609 0
-5553 5552 0
-5554 22 955 6 91 0
5554 -22 0
5554 -955 0
5554 -6 0
5554 -91 0
5555 -24 -5554 0
-5555 24 0
-5555 5554 0
5556 -26 -5554 0
-5556 26 0
-5556 5554 0
-5557 34 5556 962 306 0
5557 -34 0
5557 -5556 0
5557 -962 0
5557 -306 0
5558 -36 -5557 0
-5558 36 0
-5558 5557 0
-5559 73 972 70 0
5559 -73 0
5559 -972 0
5559 -70 0
5560 -75 -5559 0
-5560 75 0
-5560 5559 0
-5561 80 5555 5558 61 5560 980 0
5561 -80 0
5561 -5555 0
5561 -5558 0
5561 -61 0
5561 -5560 0
5561 -980 0
5562 -82 -5561 0
-5562 82 0
-5562 5561 0
-5563 30 748 0
5563 -30 0
5563 -748 0
5564 -119 -5563 0
-5564 119 0
-5564 5563 0
-5565 121 5553 5562 83 5564 0
5565 -121 0
5565 -5553 0
5565 -5562 0
5565 -83 0
5565 -5564 0
5566 -123 -5565 0
-5566 123 0
-5566 5565 0
-5567 73 972 4196 0
5567 -73 0
5567 -972 0
5567 -4196 0
5568 -75 -5567 0
-5568 75 0
-5568 5567 0
-5569 80 4244 4247 4193 5568 980 0
5569 -80 0
5569 -4244 0
5569 -4247 0
5569 -4193 0
5569 -5568 0
5569 -980 0
5570 -146 -5569 0
-5570 146 0
-5570 5569 0
-5571 80 4244 4247 969 977 980 0
5571 -80 0
5571 -4244 0
5571 -4247 0
5571 -969 0
5571 -977 0
5571 -980 0
5572 -112 -5571 0
-5572 112 0
-5572 5571 0
-5573 3 5572 0
5573 -3 0
5573 -5572 0
5574 -2 -5573 0
-5574 2 0
-5574 5573 0
-5575 5 5570 5574 0
5575 -5 0
5575 -5570 0
5575 -5574 0
5576 -162 -5575 0
-5576 162 0
-5576 5575 0
5577 -730 -949 0
-5577 730 0
-5577 949 0
-5578 22 955 6 958 91 0
5578 -22 0
5578 -955 0
5578 -6 0
5578 -958 0
5578 -91 0
5579 -24 -5578 0
-5579 24 0
-5579 5578 0
5580 -26 -5578 0
-5580 26 0
-5580 5578 0
-5581 34 5580 962 306 0
5581 -34 0
5581 -5580 0
5581 -962 0
5581 -306 0
5582 -36 -5581 0
-5582 36 0
-5582 5581 0
-5583 80 5579 5582 4193 5568 980 0
5583 -80 0
5583 -5579 0
5583 -5582 0
5583 -4193 0
5583 -5568 0
5583 -980 0
5584 -170 -5583 0
-5584 170 0
-5584 5583 0
-5585 176 5577 5584 171 173 0
5585 -176 0
5585 -5577 0
5585 -5584 0
5585 -171 0
5585 -173 0
5586 -178 -5585 0
-5586 178 0
-5586 5585 0
5587 -180 -5565 0
-5587 180 0
-5587 5565 0
-5588 80 4257 4260 772 780 783 0
5588 -80 0
5588 -4257 0
5588 -4260 0
5588 -772 0
5588 -780 0
5588 -783 0
5589 -89 -5588 0
-5589 89 0
-5589 5588 0
-5590 30 5589 0
5590 -30 0
5590 -5589 0
5591 -210 -5590 0
-5591 210 0
-5591 5590 0
-5592 212 5591 0
5592 -212 0
5592 -5591 0
5593 -214 -5592 0
-5593 214 0
-5593 5592 0
-5594 216 5587 5593 0
5594 -216 0
5594 -5587 0
5594 -5593 0
5595 -218 -5594 0
-5595 218 0
-5595 5594 0
5596 -441 -5461 0
-5596 441 0
-5596 5461 0
5597 -210 -5464 0
-5597 210 0
-5597 5464 0
-5598 212 5597 0
5598 -212 0
5598 -5597 0
5599 -598 -5598 0
-5599 598 0
-5599 5598 0
-5600 600 5596 5599 0
5600 -600 0
5600 -5596 0
5600 -5599 0
5601 -609 -5600 0
-5601 609 0
-5601 5600 0
5602 -75 -1998 0
-5602 75 0
-5602 1998 0
-5603 80 5555 5558 5602 980 0
5603 -80 0
5603 -5555 0
5603 -5558 0
5603 -5602 0
5603 -980 0
5604 -82 -5603 0
-5604 82 0
-5604 5603 0
-5605 30 834 0
5605 -30 0
5605 -834 0
5606 -119 -5605 0
-5606 119 0
-5606 5605 0
-5607 121 5601 5604 83 5606 0
5607 -121 0
5607 -5601 0
5607 -5604 0
5607 -83 0
5607 -5606 0
5608 -134 -5607 0
-5608 134 0
-5608 5607 0
-5609 80 4244 4247 5602 980 0
5609 -80 0
5609 -4244 0
5609 -4247 0
5609 -5602 0
5609 -980 0
5610 -146 -5609 0
-5610 146 0
-5610 5609 0
5611 -112 -5609 0
-5611 112 0
-5611 5609 0
-5612 3 5611 0
5612 -3 0
5612 -5611 0
5613 -2 -5612 0
-5613 2 0
-5613 5612 0
-5614 5 5610 5613 0
5614 -5 0
5614 -5610 0
5614 -5613 0
5615 -38 -5614 0
-5615 38 0
-5615 5614 0
-5616 40 5608 5615 0
5616 -40 0
5616 -5608 0
5616 -5615 0
5617 -42 -5616 0
-5617 42 0
-5617 5616 0
5618 -44 -5614 0
-5618 44 0
-5618 5614 0
-5619 80 5579 5582 5602 980 0
5619 -80 0
5619 -5579 0
5619 -5582 0
5619 -5602 0
5619 -980 0
5620 -248 -5619 0
-5620 248 0
-5620 5619 0
5621 -250 -5619 0
-5621 250 0
-5621 5619 0
-5622 50 5621 0
5622 -50 0
5622 -5621 0
5623 -49 -5622 0
-5623 49 0
-5623 5622 0
-5624 52 5620 45 5623 0
5624 -52 0
5624 -5620 0
5624 -45 0
5624 -5623 0
5625 -54 -5624 0
-5625 54 0
-5625 5624 0
-5626 56 5618 5625 0
5626 -56 0
5626 -5618 0
5626 -5625 0
5627 -58 -5626 0
-5627 58 0
-5627 5626 0
-5628 60 5617 5627 0
5628 -60 0
5628 -5617 0
5628 -5627 0
5629 -259 -5628 0
-5629 259 0
-5629 5628 0
-5630 80 938 941 138 76 0
5630 -80 0
5630 -938 0
5630 -941 0
5630 -138 0
5630 -76 0
5631 -441 -5630 0
-5631 441 0
-5631 5630 0
-5632 80 787 790 138 76 0
5632 -80 0
5632 -787 0
5632 -790 0
5632 -138 0
5632 -76 0
5633 -89 -5632 0
-5633 89 0
-5633 5632 0
-5634 30 5633 0
5634 -30 0
5634 -5633 0
5635 -210 -5634 0
-5635 210 0
-5635 5634 0
-5636 212 5635 0
5636 -212 0
5636 -5635 0
5637 -598 -5636 0
-5637 598 0
-5637 5636 0
-5638 600 5631 5637 0
5638 -600 0
5638 -5631 0
5638 -5637 0
5639 -635 -5638 0
-5639 635 0
-5639 5638 0
-5640 65 5639 0
5640 -65 0
5640 -5639 0
5641 -64 -5640 0
-5641 64 0
-5641 5640 0
5642 -441 -5489 0
-5642 441 0
-5642 5489 0
5643 -210 -5492 0
-5643 210 0
-5643 5492 0
-5644 212 5643 0
5644 -212 0
5644 -5643 0
5645 -598 -5644 0
-5645 598 0
-5645 5644 0
-5646 600 5642 5645 0
5646 -600 0
5646 -5642 0
5646 -5645 0
5647 -609 -5646 0
-5647 609 0
-5647 5646 0
-5648 80 5555 5558 980 0
5648 -80 0
5648 -5555 0
5648 -5558 0
5648 -980 0
5649 -82 -5648 0
-5649 82 0
-5649 5648 0
-5650 30 897 0
5650 -30 0
5650 -897 0
5651 -119 -5650 0
-5651 119 0
-5651 5650 0
-5652 121 5647 5649 83 5651 0
5652 -121 0
5652 -5647 0
5652 -5649 0
5652 -83 0
5652 -5651 0
5653 -134 -5652 0
-5653 134 0
-5653 5652 0
-5654 80 4244 4247 980 0
5654 -80 0
5654 -4244 0
5654 -4247 0
5654 -980 0
5655 -146 -5654 0
-5655 146 0
-5655 5654 0
5656 -112 -5654 0
-5656 112 0
-5656 5654 0
-5657 3 5656 0
5657 -3 0
5657 -5656 0
5658 -2 -5657 0
-5658 2 0
-5658 5657 0
-5659 5 5655 5658 0
5659 -5 0
5659 -5655 0
5659 -5658 0
5660 -38 -5659 0
-5660 38 0
-5660 5659 0
-5661 40 5653 5660 0
5661 -40 0
5661 -5653 0
5661 -5660 0
5662 -42 -5661 0
-5662 42 0
-5662 5661 0
5663 -44 -5659 0
-5663 44 0
-5663 5659 0
-5664 80 5579 5582 980 0
5664 -80 0
5664 -5579 0
5664 -5582 0
5664 -980 0
5665 -248 -5664 0
-5665 248 0
-5665 5664 0
5666 -250 -5664 0
-5666 250 0
-5666 5664 0
-5667 50 5666 0
5667 -50 0
5667 -5666 0
5668 -49 -5667 0
-5668 49 0
-5668 5667 0
-5669 52 5665 45 5668 0
5669 -52 0
5669 -5665 0
5669 -45 0
5669 -5668 0
5670 -54 -5669 0
-5670 54 0
-5670 5669 0
-5671 56 5663 5670 0
5671 -56 0
5671 -5663 0
5671 -5670 0
5672 -58 -5671 0
-5672 58 0
-5672 5671 0
-5673 60 5662 5672 0
5673 -60 0
5673 -5662 0
5673 -5672 0
5674 -67 -5673 0
-5674 67 0
-5674 5673 0
-5675 69 5674 0
5675 -69 0
5675 -5674 0
5676 -71 -5675 0
-5676 71 0
-5676 5675 0
-5677 73 5641 5676 0
5677 -73 0
5677 -5641 0
5677 -5676 0
5678 -299 -5677 0
-5678 299 0
-5678 5677 0
-5679 80 938 941 138 143 0
5679 -80 0
5679 -938 0
5679 -941 0
5679 -138 0
5679 -143 0
5680 -441 -5679 0
-5680 441 0
-5680 5679 0
-5681 80 787 790 138 143 0
5681 -80 0
5681 -787 0
5681 -790 0
5681 -138 0
5681 -143 0
5682 -89 -5681 0
-5682 89 0
-5682 5681 0
-5683 30 5682 0
5683 -30 0
5683 -5682 0
5684 -210 -5683 0
-5684 210 0
-5684 5683 0
-5685 212 5684 0
5685 -212 0
5685 -5684 0
5686 -598 -5685 0
-5686 598 0
-5686 5685 0
-5687 600 5680 5686 0
5687 -600 0
5687 -5680 0
5687 -5686 0
5688 -641 -5687 0
-5688 641 0
-5688 5687 0
-5689 78 5688 0
5689 -78 0
5689 -5688 0
5690 -329 -5689 0
-5690 329 0
-5690 5689 0
5691 -331 -5628 0
-5691 331 0
-5691 5628 0
-5692 333 5691 0
5692 -333 0
5692 -5691 0
5693 -335 -5692 0
-5693 335 0
-5693 5692 0
-5694 337 5566 5576 5586 5595 5629 5678 326 5690 5693 0
5694 -337 0
5694 -5566 0
5694 -5576 0
5694 -5586 0
5694 -5595 0
5694 -5629 0
5694 -5678 0
5694 -326 0
5694 -5690 0
5694 -5693 0
5695 -1010 -5694 0
-5695 1010 0
-5695 5694 0
5696 -613 -1974 0
-5696 613 0
-5696 1974 0
5697 -210 -1937 0
-5697 210 0
-5697 1937 0
-5698 212 5697 0
5698 -212 0
5698 -5697 0
5699 -598 -5698 0
-5699 598 0
-5699 5698 0
-5700 600 1138 5699 0
5700 -600 0
5700 -1138 0
5700 -5699 0
5701 -609 -5700 0
-5701 609 0
-5701 5700 0
-5702 80 61 5560 980 0
5702 -80 0
5702 -61 0
5702 -5560 0
5702 -980 0
5703 -82 -5702 0
-5703 82 0
-5703 5702 0
-5704 30 1147 0
5704 -30 0
5704 -1147 0
5705 -119 -5704 0
-5705 119 0
-5705 5704 0
-5706 121 5701 5703 83 5705 0
5706 -121 0
5706 -5701 0
5706 -5703 0
5706 -83 0
5706 -5705 0
5707 -123 -5706 0
-5707 123 0
-5707 5706 0
-5708 80 4193 5568 980 0
5708 -80 0
5708 -4193 0
5708 -5568 0
5708 -980 0
5709 -146 -5708 0
-5709 146 0
-5709 5708 0
5710 -2 -1302 0
-5710 2 0
-5710 1302 0
-5711 5 5709 5710 0
5711 -5 0
5711 -5709 0
5711 -5710 0
5712 -162 -5711 0
-5712 162 0
-5712 5711 0
5713 -730 -1298 0
-5713 730 0
-5713 1298 0
5714 -170 -5708 0
-5714 170 0
-5714 5708 0
-5715 176 5713 5714 171 173 0
5715 -176 0
5715 -5713 0
5715 -5714 0
5715 -171 0
5715 -173 0
5716 -178 -5715 0
-5716 178 0
-5716 5715 0
5717 -180 -5706 0
-5717 180 0
-5717 5706 0
-5718 30 1177 0
5718 -30 0
5718 -1177 0
5719 -210 -5718 0
-5719 210 0
-5719 5718 0
-5720 212 5719 0
5720 -212 0
5720 -5719 0
5721 -214 -5720 0
-5721 214 0
-5721 5720 0
-5722 216 5717 5721 0
5722 -216 0
5722 -5717 0
5722 -5721 0
5723 -218 -5722 0
-5723 218 0
-5723 5722 0
5724 -210 -1945 0
-5724 210 0
-5724 1945 0
-5725 212 5724 0
5725 -212 0
5725 -5724 0
5726 -598 -5725 0
-5726 598 0
-5726 5725 0
-5727 600 1193 5726 0
5727 -600 0
5727 -1193 0
5727 -5726 0
5728 -609 -5727 0
-5728 609 0
-5728 5727 0
-5729 80 5602 980 0
5729 -80 0
5729 -5602 0
5729 -980 0
5730 -82 -5729 0
-5730 82 0
-5730 5729 0
-5731 30 1202 0
5731 -30 0
5731 -1202 0
5732 -119 -5731 0
-5732 119 0
-5732 5731 0
-5733 121 5728 5730 83 5732 0
5733 -121 0
5733 -5728 0
5733 -5730 0
5733 -83 0
5733 -5732 0
5734 -134 -5733 0
-5734 134 0
-5734 5733 0
5735 -146 -5729 0
-5735 146 0
-5735 5729 0
5736 -112 -5729 0
-5736 112 0
-5736 5729 0
-5737 3 5736 0
5737 -3 0
5737 -5736 0
5738 -2 -5737 0
-5738 2 0
-5738 5737 0
-5739 5 5735 5738 0
5739 -5 0
5739 -5735 0
5739 -5738 0
5740 -38 -5739 0
-5740 38 0
-5740 5739 0
-5741 40 5734 5740 0
5741 -40 0
5741 -5734 0
5741 -5740 0
5742 -42 -5741 0
-5742 42 0
-5742 5741 0
5743 -44 -5739 0
-5743 44 0
-5743 5739 0
5744 -248 -5729 0
-5744 248 0
-5744 5729 0
5745 -250 -5729 0
-5745 250 0
-5745 5729 0
-5746 50 5745 0
5746 -50 0
5746 -5745 0
5747 -49 -5746 0
-5747 49 0
-5747 5746 0
-5748 52 5744 45 5747 0
5748 -52 0
5748 -5744 0
5748 -45 0
5748 -5747 0
5749 -54 -5748 0
-5749 54 0
-5749 5748 0
-5750 56 5743 5749 0
5750 -56 0
5750 -5743 0
5750 -5749 0
5751 -58 -5750 0
-5751 58 0
-5751 5750 0
-5752 60 5742 5751 0
5752 -60 0
5752 -5742 0
5752 -5751 0
5753 -259 -5752 0
-5753 259 0
-5753 5752 0
-5754 30 1235 0
5754 -30 0
5754 -1235 0
5755 -210 -5754 0
-5755 210 0
-5755 5754 0
-5756 212 5755 0
5756 -212 0
5756 -5755 0
5757 -598 -5756 0
-5757 598 0
-5757 5756 0
-5758 600 1234 5757 0
5758 -600 0
5758 -1234 0
5758 -5757 0
5759 -635 -5758 0
-5759 635 0
-5759 5758 0
-5760 65 5759 0
5760 -65 0
5760 -5759 0
5761 -64 -5760 0
-5761 64 0
-5761 5760 0
5762 -210 -1953 0
-5762 210 0
-5762 1953 0
-5763 212 5762 0
5763 -212 0
5763 -5762 0
5764 -598 -5763 0
-5764 598 0
-5764 5763 0
-5765 600 1250 5764 0
5765 -600 0
5765 -1250 0
5765 -5764 0
5766 -609 -5765 0
-5766 609 0
-5766 5765 0
-5767 80 980 0
5767 -80 0
5767 -980 0
5768 -82 -5767 0
-5768 82 0
-5768 5767 0
-5769 30 1259 0
5769 -30 0
5769 -1259 0
5770 -119 -5769 0
-5770 119 0
-5770 5769 0
-5771 121 5766 5768 83 5770 0
5771 -121 0
5771 -5766 0
5771 -5768 0
5771 -83 0
5771 -5770 0
5772 -134 -5771 0
-5772 134 0
-5772 5771 0
5773 -146 -5767 0
-5773 146 0
-5773 5767 0
5774 -112 -5767 0
-5774 112 0
-5774 5767 0
-5775 3 5774 0
5775 -3 0
5775 -5774 0
5776 -2 -5775 0
-5776 2 0
-5776 5775 0
-5777 5 5773 5776 0
5777 -5 0
5777 -5773 0
5777 -5776 0
5778 -38 -5777 0
-5778 38 0
-5778 5777 0
-5779 40 5772 5778 0
5779 -40 0
5779 -5772 0
5779 -5778 0
5780 -42 -5779 0
-5780 42 0
-5780 5779 0
5781 -44 -5777 0
-5781 44 0
-5781 5777 0
5782 -248 -5767 0
-5782 248 0
-5782 5767 0
5783 -250 -5767 0
-5783 250 0
-5783 5767 0
-5784 50 5783 0
5784 -50 0
5784 -5783 0
5785 -49 -5784 0
-5785 49 0
-5785 5784 0
-5786 52 5782 45 5785 0
5786 -52 0
5786 -5782 0
5786 -45 0
5786 -5785 0
5787 -54 -5786 0
-5787 54 0
-5787 5786 0
-5788 56 5781 5787 0
5788 -56 0
5788 -5781 0
5788 -5787 0
5789 -58 -5788 0
-5789 58 0
-5789 5788 0
-5790 60 5780 5789 0
5790 -60 0
5790 -5780 0
5790 -5789 0
5791 -67 -5790 0
-5791 67 0
-5791 5790 0
-5792 69 5791 0
5792 -69 0
5792 -5791 0
5793 -71 -5792 0
-5793 71 0
-5793 5792 0
-5794 73 5761 5793 0
5794 -73 0
5794 -5761 0
5794 -5793 0
5795 -299 -5794 0
-5795 299 0
-5795 5794 0
-5796 30 1308 0
5796 -30 0
5796 -1308 0
5797 -210 -5796 0
-5797 210 0
-5797 5796 0
-5798 212 5797 0
5798 -212 0
5798 -5797 0
5799 -598 -5798 0
-5799 598 0
-5799 5798 0
-5800 600 1307 5799 0
5800 -600 0
5800 -1307 0
5800 -5799 0
5801 -641 -5800 0
-5801 641 0
-5801 5800 0
-5802 78 5801 0
5802 -78 0
5802 -5801 0
5803 -329 -5802 0
-5803 329 0
-5803 5802 0
5804 -331 -5752 0
-5804 331 0
-5804 5752 0
-5805 333 5804 0
5805 -333 0
5805 -5804 0
5806 -335 -5805 0
-5806 335 0
-5806 5805 0
-5807 337 5707 5712 5716 5723 5753 5795 326 5803 5806 0
5807 -337 0
5807 -5707 0
5807 -5712 0
5807 -5716 0
5807 -5723 0
5807 -5753 0
5807 -5795 0
5807 -326 0
5807 -5803 0
5807 -5806 0
5808 -358 -5807 0
-5808 358 0
-5808 5807 0
5809 -259 -4192 0
-5809 259 0
-5809 4192 0
5810 -299 -5567 0
-5810 299 0
-5810 5567 0
5811 -331 -4192 0
-5811 331 0
-5811 4192 0
-5812 333 5811 0
5812 -333 0
5812 -5811 0
5813 -335 -5812 0
-5813 335 0
-5813 5812 0
-5814 337 1976 341 1979 1983 5809 5810 326 1986 5813 0
5814 -337 0
5814 -1976 0
5814 -341 0
5814 -1979 0
5814 -1983 0
5814 -5809 0
5814 -5810 0
5814 -326 0
5814 -1986 0
5814 -5813 0
5815 -383 -5814 0
-5815 383 0
-5815 5814 0
-5816 337 341 1979 1983 1999 326 1986 390 0
5816 -337 0
5816 -341 0
5816 -1979 0
5816 -1983 0
5816 -1999 0
5816 -326 0
5816 -1986 0
5816 -390 0
5817 -375 -5816 0
-5817 375 0
-5817 5816 0
-5818 47 5817 0
5818 -47 0
5818 -5817 0
5819 -84 -5818 0
-5819 84 0
-5819 5818 0
-5820 121 1351 5819 300 0
5820 -121 0
5820 -1351 0
5820 -5819 0
5820 -300 0
5821 -134 -5820 0
-5821 134 0
-5821 5820 0
-5822 40 5821 37 0
5822 -40 0
5822 -5821 0
5822 -37 0
5823 -42 -5822 0
-5823 42 0
-5823 5822 0
-5824 337 1976 341 1979 1983 1999 326 1986 390 0
5824 -337 0
5824 -1976 0
5824 -341 0
5824 -1979 0
5824 -1983 0
5824 -1999 0
5824 -326 0
5824 -1986 0
5824 -390 0
5825 -375 -5824 0
-5825 375 0
-5825 5824 0
-5826 47 5825 0
5826 -47 0
5826 -5825 0
5827 -46 -5826 0
-5827 46 0
-5827 5826 0
5828 -401 -5824 0
-5828 401 0
-5828 5824 0
-5829 50 5828 0
5829 -50 0
5829 -5828 0
5830 -49 -5829 0
-5830 49 0
-5830 5829 0
-5831 52 5827 5830 0
5831 -52 0
5831 -5827 0
5831 -5830 0
5832 -54 -5831 0
-5832 54 0
-5832 5831 0
-5833 56 43 5832 0
5833 -56 0
5833 -43 0
5833 -5832 0
5834 -58 -5833 0
-5834 58 0
-5834 5833 0
-5835 60 5823 5834 0
5835 -60 0
5835 -5823 0
5835 -5834 0
5836 -62 -5835 0
-5836 62 0
-5836 5835 0
-5837 337 1976 341 1979 1983 5809 326 1986 5813 0
5837 -337 0
5837 -1976 0
5837 -341 0
5837 -1979 0
5837 -1983 0
5837 -5809 0
5837 -326 0
5837 -1986 0
5837 -5813 0
5838 -412 -5837 0
-5838 412 0
-5838 5837 0
-5839 65 5838 1391 0
5839 -65 0
5839 -5838 0
5839 -1391 0
5840 -64 -5839 0
-5840 64 0
-5840 5839 0
5841 -416 -5837 0
-5841 416 0
-5841 5837 0
-5842 337 341 1979 1983 326 1986 390 0
5842 -337 0
5842 -341 0
5842 -1979 0
5842 -1983 0
5842 -326 0
5842 -1986 0
5842 -390 0
5843 -375 -5842 0
-5843 375 0
-5843 5842 0
-5844 47 5843 0
5844 -47 0
5844 -5843 0
5845 -84 -5844 0
-5845 84 0
-5845 5844 0
-5846 121 1397 5845 300 0
5846 -121 0
5846 -1397 0
5846 -5845 0
5846 -300 0
5847 -134 -5846 0
-5847 134 0
-5847 5846 0
-5848 40 5847 37 0
5848 -40 0
5848 -5847 0
5848 -37 0
5849 -42 -5848 0
-5849 42 0
-5849 5848 0
-5850 337 1976 341 1979 1983 326 1986 390 0
5850 -337 0
5850 -1976 0
5850 -341 0
5850 -1979 0
5850 -1983 0
5850 -326 0
5850 -1986 0
5850 -390 0
5851 -375 -5850 0
-5851 375 0
-5851 5850 0
-5852 47 5851 0
5852 -47 0
5852 -5851 0
5853 -46 -5852 0
-5853 46 0
-5853 5852 0
5854 -401 -5850 0
-5854 401 0
-5854 5850 0
-5855 50 5854 0
5855 -50 0
5855 -5854 0
5856 -49 -5855 0
-5856 49 0
-5856 5855 0
-5857 52 5853 5856 0
5857 -52 0
5857 -5853 0
5857 -5856 0
5858 -54 -5857 0
-5858 54 0
-5858 5857 0
-5859 56 43 5858 0
5859 -56 0
5859 -43 0
5859 -5858 0
5860 -58 -5859 0
-5860 58 0
-5860 5859 0
-5861 60 5849 5860 0
5861 -60 0
5861 -5849 0
5861 -5860 0
5862 -67 -5861 0
-5862 67 0
-5862 5861 0
-5863 69 5841 5862 0
5863 -69 0
5863 -5841 0
5863 -5862 0
5864 -71 -5863 0
-5864 71 0
-5864 5863 0
-5865 73 5840 5864 0
5865 -73 0
5865 -5840 0
5865 -5864 0
5866 -75 -5865 0
-5866 75 0
-5866 5865 0
-5867 80 5815 5836 5866 1435 0
5867 -80 0
5867 -5815 0
5867 -5836 0
5867 -5866 0
5867 -1435 0
5868 -146 -5867 0
-5868 146 0
-5868 5867 0
-5869 121 1448 2003 300 0
5869 -121 0
5869 -1448 0
5869 -2003 0
5869 -300 0
5870 -134 -5869 0
-5870 134 0
-5870 5869 0
-5871 40 5870 97 0
5871 -40 0
5871 -5870 0
5871 -97 0
5872 -42 -5871 0
-5872 42 0
-5872 5871 0
-5873 60 5872 2018 0
5873 -60 0
5873 -5872 0
5873 -2018 0
5874 -62 -5873 0
-5874 62 0
-5874 5873 0
-5875 65 2022 1487 0
5875 -65 0
5875 -2022 0
5875 -1487 0
5876 -64 -5875 0
-5876 64 0
-5876 5875 0
-5877 121 1494 2036 300 0
5877 -121 0
5877 -1494 0
5877 -2036 0
5877 -300 0
5878 -134 -5877 0
-5878 134 0
-5878 5877 0
-5879 40 5878 97 0
5879 -40 0
5879 -5878 0
5879 -97 0
5880 -42 -5879 0
-5880 42 0
-5880 5879 0
-5881 60 5880 2051 0
5881 -60 0
5881 -5880 0
5881 -2051 0
5882 -67 -5881 0
-5882 67 0
-5882 5881 0
-5883 69 2028 5882 0
5883 -69 0
5883 -2028 0
5883 -5882 0
5884 -71 -5883 0
-5884 71 0
-5884 5883 0
-5885 73 5876 5884 0
5885 -73 0
5885 -5876 0
5885 -5884 0
5886 -75 -5885 0
-5886 75 0
-5886 5885 0
-5887 80 1991 5874 5886 1534 0
5887 -80 0
5887 -1991 0
5887 -5874 0
5887 -5886 0
5887 -1534 0
5888 -112 -5887 0
-5888 112 0
-5888 5887 0
-5889 3 5888 0
5889 -3 0
5889 -5888 0
5890 -2 -5889 0
-5890 2 0
-5890 5889 0
-5891 5 5868 5890 0
5891 -5 0
5891 -5868 0
5891 -5890 0
5892 -7 -5891 0
-5892 7 0
-5892 5891 0
5893 -214 -5698 0
-5893 214 0
-5893 5698 0
-5894 216 5893 0
5894 -216 0
5894 -5893 0
5895 -218 -5894 0
-5895 218 0
-5895 5894 0
-5896 337 1544 1547 5895 1554 1562 326 328 1566 0
5896 -337 0
5896 -1544 0
5896 -1547 0
5896 -5895 0
5896 -1554 0
5896 -1562 0
5896 -326 0
5896 -328 0
5896 -1566 0
5897 -339 -5896 0
-5897 339 0
-5897 5896 0
-5898 30 1588 0
5898 -30 0
5898 -1588 0
5899 -210 -5898 0
-5899 210 0
-5899 5898 0
-5900 212 5899 0
5900 -212 0
5900 -5899 0
5901 -598 -5900 0
-5901 598 0
-5901 5900 0
-5902 600 5897 1578 5901 0
5902 -600 0
5902 -5897 0
5902 -1578 0
5902 -5901 0
5903 -609 -5902 0
-5903 609 0
-5903 5902 0
5904 -46 -5818 0
-5904 46 0
-5904 5818 0
5905 -401 -5816 0
-5905 401 0
-5905 5816 0
-5906 50 5905 0
5906 -50 0
5906 -5905 0
5907 -49 -5906 0
-5907 49 0
-5907 5906 0
-5908 52 5904 5907 0
5908 -52 0
5908 -5904 0
5908 -5907 0
5909 -54 -5908 0
-5909 54 0
-5909 5908 0
-5910 56 43 5909 0
5910 -56 0
5910 -43 0
5910 -5909 0
5911 -58 -5910 0
-5911 58 0
-5911 5910 0
-5912 60 41 5911 0
5912 -60 0
5912 -41 0
5912 -5911 0
5913 -62 -5912 0
-5913 62 0
-5913 5912 0
5914 -46 -5844 0
-5914 46 0
-5914 5844 0
5915 -401 -5842 0
-5915 401 0
-5915 5842 0
-5916 50 5915 0
5916 -50 0
5916 -5915 0
5917 -49 -5916 0
-5917 49 0
-5917 5916 0
-5918 52 5914 5917 0
5918 -52 0
5918 -5914 0
5918 -5917 0
5919 -54 -5918 0
-5919 54 0
-5919 5918 0
-5920 56 43 5919 0
5920 -56 0
5920 -43 0
5920 -5919 0
5921 -58 -5920 0
-5921 58 0
-5921 5920 0
-5922 60 41 5921 0
5922 -60 0
5922 -41 0
5922 -5921 0
5923 -67 -5922 0
-5923 67 0
-5923 5922 0
-5924 69 5841 5923 0
5924 -69 0
5924 -5841 0
5924 -5923 0
5925 -71 -5924 0
-5925 71 0
-5925 5924 0
-5926 73 5840 5925 0
5926 -73 0
5926 -5840 0
5926 -5925 0
5927 -75 -5926 0
-5927 75 0
-5927 5926 0
-5928 80 5815 5913 5927 1435 0
5928 -80 0
5928 -5815 0
5928 -5913 0
5928 -5927 0
5928 -1435 0
5929 -82 -5928 0
-5929 82 0
-5929 5928 0
-5930 73 972 367 0
5930 -73 0
5930 -972 0
5930 -367 0
5931 -75 -5930 0
-5931 75 0
-5931 5930 0
-5932 80 1647 5931 980 0
5932 -80 0
5932 -1647 0
5932 -5931 0
5932 -980 0
5933 -146 -5932 0
-5933 146 0
-5933 5932 0
5934 -2 -1749 0
-5934 2 0
-5934 1749 0
-5935 5 5933 5934 0
5935 -5 0
5935 -5933 0
5935 -5934 0
5936 -162 -5935 0
-5936 162 0
-5936 5935 0
5937 -730 -1743 0
-5937 730 0
-5937 1743 0
5938 -170 -5932 0
-5938 170 0
-5938 5932 0
-5939 176 5937 5938 171 173 0
5939 -176 0
5939 -5937 0
5939 -5938 0
5939 -171 0
5939 -173 0
5940 -178 -5939 0
-5940 178 0
-5940 5939 0
-5941 30 1684 0
5941 -30 0
5941 -1684 0
5942 -210 -5941 0
-5942 210 0
-5942 5941 0
-5943 212 5942 0
5943 -212 0
5943 -5942 0
5944 -214 -5943 0
-5944 214 0
-5944 5943 0
-5945 216 5944 0
5945 -216 0
5945 -5944 0
5946 -218 -5945 0
-5946 218 0
-5946 5945 0
-5947 40 5740 0
5947 -40 0
5947 -5740 0
5948 -42 -5947 0
-5948 42 0
-5948 5947 0
-5949 52 5744 5747 0
5949 -52 0
5949 -5744 0
5949 -5747 0
5950 -54 -5949 0
-5950 54 0
-5950 5949 0
-5951 56 5743 5950 0
5951 -56 0
5951 -5743 0
5951 -5950 0
5952 -58 -5951 0
-5952 58 0
-5952 5951 0
-5953 60 5948 5952 0
5953 -60 0
5953 -5948 0
5953 -5952 0
5954 -259 -5953 0
-5954 259 0
-5954 5953 0
-5955 30 1712 0
5955 -30 0
5955 -1712 0
5956 -210 -5955 0
-5956 210 0
-5956 5955 0
-5957 212 5956 0
5957 -212 0
5957 -5956 0
5958 -598 -5957 0
-5958 598 0
-5958 5957 0
-5959 600 1711 5958 0
5959 -600 0
5959 -1711 0
5959 -5958 0
5960 -635 -5959 0
-5960 635 0
-5960 5959 0
-5961 65 5960 0
5961 -65 0
5961 -5960 0
5962 -64 -5961 0
-5962 64 0
-5962 5961 0
-5963 40 5778 0
5963 -40 0
5963 -5778 0
5964 -42 -5963 0
-5964 42 0
-5964 5963 0
-5965 52 5782 5785 0
5965 -52 0
5965 -5782 0
5965 -5785 0
5966 -54 -5965 0
-5966 54 0
-5966 5965 0
-5967 56 5781 5966 0
5967 -56 0
5967 -5781 0
5967 -5966 0
5968 -58 -5967 0
-5968 58 0
-5968 5967 0
-5969 60 5964 5968 0
5969 -60 0
5969 -5964 0
5969 -5968 0
5970 -67 -5969 0
-5970 67 0
-5970 5969 0
-5971 69 5970 0
5971 -69 0
5971 -5970 0
5972 -71 -5971 0
-5972 71 0
-5972 5971 0
-5973 73 5962 5972 0
5973 -73 0
5973 -5962 0
5973 -5972 0
5974 -299 -5973 0
-5974 299 0
-5974 5973 0
-5975 30 1756 0
5975 -30 0
5975 -1756 0
5976 -210 -5975 0
-5976 210 0
-5976 5975 0
-5977 212 5976 0
5977 -212 0
5977 -5976 0
5978 -598 -5977 0
-5978 598 0
-5978 5977 0
-5979 600 1754 5978 0
5979 -600 0
5979 -1754 0
5979 -5978 0
5980 -641 -5979 0
-5980 641 0
-5980 5979 0
-5981 78 5980 0
5981 -78 0
5981 -5980 0
5982 -329 -5981 0
-5982 329 0
-5982 5981 0
5983 -331 -5953 0
-5983 331 0
-5983 5953 0
-5984 333 5983 0
5984 -333 0
5984 -5983 0
5985 -335 -5984 0
-5985 335 0
-5985 5984 0
-5986 337 5936 5940 5946 5954 5974 326 5982 5985 0
5986 -337 0
5986 -5936 0
5986 -5940 0
5986 -5946 0
5986 -5954 0
5986 -5974 0
5986 -326 0
5986 -5982 0
5986 -5985 0
5987 -375 -5986 0
-5987 375 0
-5987 5986 0
-5988 47 5987 0
5988 -47 0
5988 -5987 0
5989 -84 -5988 0
-5989 84 0
-5989 5988 0
-5990 337 341 1875 1779 1609 1780 326 1782 1613 0
5990 -337 0
5990 -341 0
5990 -1875 0
5990 -1779 0
5990 -1609 0
5990 -1780 0
5990 -326 0
5990 -1782 0
5990 -1613 0
5991 -383 -5990 0
-5991 383 0
-5991 5990 0
5992 -46 -2459 0
-5992 46 0
-5992 2459 0
5993 -401 -2457 0
-5993 401 0
-5993 2457 0
-5994 50 5993 0
5994 -50 0
5994 -5993 0
5995 -49 -5994 0
-5995 49 0
-5995 5994 0
-5996 52 5992 5995 0
5996 -52 0
5996 -5992 0
5996 -5995 0
5997 -54 -5996 0
-5997 54 0
-5997 5996 0
-5998 56 43 5997 0
5998 -56 0
5998 -43 0
5998 -5997 0
5999 -58 -5998 0
-5999 58 0
-5999 5998 0
-6000 60 41 5999 0
6000 -60 0
6000 -41 0
6000 -5999 0
6001 -62 -6000 0
-6001 62 0
-6001 6000 0
-6002 337 341 1875 1779 1609 326 1782 1613 0
6002 -337 0
6002 -341 0
6002 -1875 0
6002 -1779 0
6002 -1609 0
6002 -326 0
6002 -1782 0
6002 -1613 0
6003 -412 -6002 0
-6003 412 0
-6003 6002 0
-6004 65 6003 1803 0
6004 -65 0
6004 -6003 0
6004 -1803 0
6005 -64 -6004 0
-6005 64 0
-6005 6004 0
6006 -416 -6002 0
-6006 416 0
-6006 6002 0
6007 -46 -2485 0
-6007 46 0
-6007 2485 0
6008 -401 -2483 0
-6008 401 0
-6008 2483 0
-6009 50 6008 0
6009 -50 0
6009 -6008 0
6010 -49 -6009 0
-6010 49 0
-6010 6009 0
-6011 52 6007 6010 0
6011 -52 0
6011 -6007 0
6011 -6010 0
6012 -54 -6011 0
-6012 54 0
-6012 6011 0
-6013 56 43 6012 0
6013 -56 0
6013 -43 0
6013 -6012 0
6014 -58 -6013 0
-6014 58 0
-6014 6013 0
-6015 60 41 6014 0
6015 -60 0
6015 -41 0
6015 -6014 0
6016 -67 -6015 0
-6016 67 0
-6016 6015 0
-6017 69 6006 6016 0
6017 -69 0
6017 -6006 0
6017 -6016 0
6018 -71 -6017 0
-6018 71 0
-6018 6017 0
-6019 73 6005 6018 0
6019 -73 0
6019 -6005 0
6019 -6018 0
6020 -75 -6019 0
-6020 75 0
-6020 6019 0
-6021 80 5991 6001 6020 1829 0
6021 -80 0
6021 -5991 0
6021 -6001 0
6021 -6020 0
6021 -1829 0
6022 -89 -6021 0
-6022 89 0
-6022 6021 0
-6023 30 6022 0
6023 -30 0
6023 -6022 0
6024 -119 -6023 0
-6024 119 0
-6024 6023 0
-6025 121 5903 5929 5989 6024 0
6025 -121 0
6025 -5903 0
6025 -5929 0
6025 -5989 0
6025 -6024 0
6026 -127 -6025 0
-6026 127 0
-6026 6025 0
-6027 22 5696 5808 5892 6026 91 0
6027 -22 0
6027 -5696 0
6027 -5808 0
6027 -5892 0
6027 -6026 0
6027 -91 0
6028 -26 -6027 0
-6028 26 0
-6028 6027 0
6029 -89 -2093 0
-6029 89 0
-6029 2093 0
-6030 30 6029 0
6030 -30 0
6030 -6029 0
6031 -210 -6030 0
-6031 210 0
-6031 6030 0
-6032 212 6031 0
6032 -212 0
6032 -6031 0
6033 -598 -6032 0
-6033 598 0
-6033 6032 0
-6034 600 2094 6033 0
6034 -600 0
6034 -2094 0
6034 -6033 0
6035 -609 -6034 0
-6035 609 0
-6035 6034 0
-6036 80 5555 61 5560 980 0
6036 -80 0
6036 -5555 0
6036 -61 0
6036 -5560 0
6036 -980 0
6037 -82 -6036 0
-6037 82 0
-6037 6036 0
-6038 30 2092 0
6038 -30 0
6038 -2092 0
6039 -119 -6038 0
-6039 119 0
-6039 6038 0
-6040 121 6035 6037 83 6039 0
6040 -121 0
6040 -6035 0
6040 -6037 0
6040 -83 0
6040 -6039 0
6041 -123 -6040 0
-6041 123 0
-6041 6040 0
-6042 80 4244 4193 5568 980 0
6042 -80 0
6042 -4244 0
6042 -4193 0
6042 -5568 0
6042 -980 0
6043 -146 -6042 0
-6043 146 0
-6043 6042 0
-6044 80 4244 969 977 980 0
6044 -80 0
6044 -4244 0
6044 -969 0
6044 -977 0
6044 -980 0
6045 -112 -6044 0
-6045 112 0
-6045 6044 0
-6046 3 6045 0
6046 -3 0
6046 -6045 0
6047 -2 -6046 0
-6047 2 0
-6047 6046 0
-6048 5 6043 6047 0
6048 -5 0
6048 -6043 0
6048 -6047 0
6049 -162 -6048 0
-6049 162 0
-6049 6048 0
6050 -730 -2289 0
-6050 730 0
-6050 2289 0
-6051 80 5579 4193 5568 980 0
6051 -80 0
6051 -5579 0
6051 -4193 0
6051 -5568 0
6051 -980 0
6052 -170 -6051 0
-6052 170 0
-6052 6051 0
-6053 176 6050 6052 171 173 0
6053 -176 0
6053 -6050 0
6053 -6052 0
6053 -171 0
6053 -173 0
6054 -178 -6053 0
-6054 178 0
-6054 6053 0
6055 -180 -6040 0
-6055 180 0
-6055 6040 0
-6056 80 4257 772 780 783 0
6056 -80 0
6056 -4257 0
6056 -772 0
6056 -780 0
6056 -783 0
6057 -89 -6056 0
-6057 89 0
-6057 6056 0
-6058 30 6057 0
6058 -30 0
6058 -6057 0
6059 -210 -6058 0
-6059 210 0
-6059 6058 0
-6060 212 6059 0
6060 -212 0
6060 -6059 0
6061 -214 -6060 0
-6061 214 0
-6061 6060 0
-6062 216 6055 6061 0
6062 -216 0
6062 -6055 0
6062 -6061 0
6063 -218 -6062 0
-6063 218 0
-6063 6062 0
6064 -89 -2172 0
-6064 89 0
-6064 2172 0
-6065 30 6064 0
6065 -30 0
6065 -6064 0
6066 -210 -6065 0
-6066 210 0
-6066 6065 0
-6067 212 6066 0
6067 -212 0
6067 -6066 0
6068 -598 -6067 0
-6068 598 0
-6068 6067 0
-6069 600 2173 6068 0
6069 -600 0
6069 -2173 0
6069 -6068 0
6070 -609 -6069 0
-6070 609 0
-6070 6069 0
-6071 80 5555 5602 980 0
6071 -80 0
6071 -5555 0
6071 -5602 0
6071 -980 0
6072 -82 -6071 0
-6072 82 0
-6072 6071 0
-6073 30 2171 0
6073 -30 0
6073 -2171 0
6074 -119 -6073 0
-6074 119 0
-6074 6073 0
-6075 121 6070 6072 83 6074 0
6075 -121 0
6075 -6070 0
6075 -6072 0
6075 -83 0
6075 -6074 0
6076 -134 -6075 0
-6076 134 0
-6076 6075 0
-6077 80 4244 5602 980 0
6077 -80 0
6077 -4244 0
6077 -5602 0
6077 -980 0
6078 -146 -6077 0
-6078 146 0
-6078 6077 0
6079 -112 -6077 0
-6079 112 0
-6079 6077 0
-6080 3 6079 0
6080 -3 0
6080 -6079 0
6081 -2 -6080 0
-6081 2 0
-6081 6080 0
-6082 5 6078 6081 0
6082 -5 0
6082 -6078 0
6082 -6081 0
6083 -38 -6082 0
-6083 38 0
-6083 6082 0
-6084 40 6076 6083 0
6084 -40 0
6084 -6076 0
6084 -6083 0
6085 -42 -6084 0
-6085 42 0
-6085 6084 0
6086 -44 -6082 0
-6086 44 0
-6086 6082 0
-6087 80 5579 5602 980 0
6087 -80 0
6087 -5579 0
6087 -5602 0
6087 -980 0
6088 -248 -6087 0
-6088 248 0
-6088 6087 0
6089 -250 -6087 0
-6089 250 0
-6089 6087 0
-6090 50 6089 0
6090 -50 0
6090 -6089 0
6091 -49 -6090 0
-6091 49 0
-6091 6090 0
-6092 52 6088 45 6091 0
6092 -52 0
6092 -6088 0
6092 -45 0
6092 -6091 0
6093 -54 -6092 0
-6093 54 0
-6093 6092 0
-6094 56 6086 6093 0
6094 -56 0
6094 -6086 0
6094 -6093 0
6095 -58 -6094 0
-6095 58 0
-6095 6094 0
-6096 60 6085 6095 0
6096 -60 0
6096 -6085 0
6096 -6095 0
6097 -259 -6096 0
-6097 259 0
-6097 6096 0
-6098 80 938 138 76 0
6098 -80 0
6098 -938 0
6098 -138 0
6098 -76 0
6099 -441 -6098 0
-6099 441 0
-6099 6098 0
6100 -89 -6098 0
-6100 89 0
-6100 6098 0
-6101 30 6100 0
6101 -30 0
6101 -6100 0
6102 -210 -6101 0
-6102 210 0
-6102 6101 0
-6103 212 6102 0
6103 -212 0
6103 -6102 0
6104 -598 -6103 0
-6104 598 0
-6104 6103 0
-6105 600 6099 6104 0
6105 -600 0
6105 -6099 0
6105 -6104 0
6106 -635 -6105 0
-6106 635 0
-6106 6105 0
-6107 65 6106 0
6107 -65 0
6107 -6106 0
6108 -64 -6107 0
-6108 64 0
-6108 6107 0
6109 -89 -2243 0
-6109 89 0
-6109 2243 0
-6110 30 6109 0
6110 -30 0
6110 -6109 0
6111 -210 -6110 0
-6111 210 0
-6111 6110 0
-6112 212 6111 0
6112 -212 0
6112 -6111 0
6113 -598 -6112 0
-6113 598 0
-6113 6112 0
-6114 600 2244 6113 0
6114 -600 0
6114 -2244 0
6114 -6113 0
6115 -609 -6114 0
-6115 609 0
-6115 6114 0
-6116 80 5555 980 0
6116 -80 0
6116 -5555 0
6116 -980 0
6117 -82 -6116 0
-6117 82 0
-6117 6116 0
-6118 30 2242 0
6118 -30 0
6118 -2242 0
6119 -119 -6118 0
-6119 119 0
-6119 6118 0
-6120 121 6115 6117 83 6119 0
6120 -121 0
6120 -6115 0
6120 -6117 0
6120 -83 0
6120 -6119 0
6121 -134 -6120 0
-6121 134 0
-6121 6120 0
-6122 80 4244 980 0
6122 -80 0
6122 -4244 0
6122 -980 0
6123 -146 -6122 0
-6123 146 0
-6123 6122 0
6124 -112 -6122 0
-6124 112 0
-6124 6122 0
-6125 3 6124 0
6125 -3 0
6125 -6124 0
6126 -2 -6125 0
-6126 2 0
-6126 6125 0
-6127 5 6123 6126 0
6127 -5 0
6127 -6123 0
6127 -6126 0
6128 -38 -6127 0
-6128 38 0
-6128 6127 0
-6129 40 6121 6128 0
6129 -40 0
6129 -6121 0
6129 -6128 0
6130 -42 -6129 0
-6130 42 0
-6130 6129 0
6131 -44 -6127 0
-6131 44 0
-6131 6127 0
-6132 80 5579 980 0
6132 -80 0
6132 -5579 0
6132 -980 0
6133 -248 -6132 0
-6133 248 0
-6133 6132 0
6134 -250 -6132 0
-6134 250 0
-6134 6132 0
-6135 50 6134 0
6135 -50 0
6135 -6134 0
6136 -49 -6135 0
-6136 49 0
-6136 6135 0
-6137 52 6133 45 6136 0
6137 -52 0
6137 -6133 0
6137 -45 0
6137 -6136 0
6138 -54 -6137 0
-6138 54 0
-6138 6137 0
-6139 56 6131 6138 0
6139 -56 0
6139 -6131 0
6139 -6138 0
6140 -58 -6139 0
-6140 58 0
-6140 6139 0
-6141 60 6130 6140 0
6141 -60 0
6141 -6130 0
6141 -6140 0
6142 -67 -6141 0
-6142 67 0
-6142 6141 0
-6143 69 6142 0
6143 -69 0
6143 -6142 0
6144 -71 -6143 0
-6144 71 0
-6144 6143 0
-6145 73 6108 6144 0
6145 -73 0
6145 -6108 0
6145 -6144 0
6146 -299 -6145 0
-6146 299 0
-6146 6145 0
-6147 80 938 138 143 0
6147 -80 0
6147 -938 0
6147 -138 0
6147 -143 0
6148 -441 -6147 0
-6148 441 0
-6148 6147 0
6149 -89 -6147 0
-6149 89 0
-6149 6147 0
-6150 30 6149 0
6150 -30 0
6150 -6149 0
6151 -210 -6150 0
-6151 210 0
-6151 6150 0
-6152 212 6151 0
6152 -212 0
6152 -6151 0
6153 -598 -6152 0
-6153 598 0
-6153 6152 0
-6154 600 6148 6153 0
6154 -600 0
6154 -6148 0
6154 -6153 0
6155 -641 -6154 0
-6155 641 0
-6155 6154 0
-6156 78 6155 0
6156 -78 0
6156 -6155 0
6157 -329 -6156 0
-6157 329 0
-6157 6156 0
6158 -331 -6096 0
-6158 331 0
-6158 6096 0
-6159 333 6158 0
6159 -333 0
6159 -6158 0
6160 -335 -6159 0
-6160 335 0
-6160 6159 0
-6161 337 6041 6049 6054 6063 6097 6146 326 6157 6160 0
6161 -337 0
6161 -6041 0
6161 -6049 0
6161 -6054 0
6161 -6063 0
6161 -6097 0
6161 -6146 0
6161 -326 0
6161 -6157 0
6161 -6160 0
6162 -386 -6161 0
-6162 386 0
-6162 6161 0
6163 -119 -6030 0
-6163 119 0
-6163 6030 0
-6164 121 2510 83 6163 0
6164 -121 0
6164 -2510 0
6164 -83 0
6164 -6163 0
6165 -123 -6164 0
-6165 123 0
-6165 6164 0
-6166 80 4614 138 143 76 0
6166 -80 0
6166 -4614 0
6166 -138 0
6166 -143 0
6166 -76 0
6167 -146 -6166 0
-6167 146 0
-6167 6166 0
-6168 80 4614 150 155 76 0
6168 -80 0
6168 -4614 0
6168 -150 0
6168 -155 0
6168 -76 0
6169 -112 -6168 0
-6169 112 0
-6169 6168 0
-6170 3 6169 0
6170 -3 0
6170 -6169 0
6171 -2 -6170 0
-6171 2 0
-6171 6170 0
-6172 5 6167 6171 0
6172 -5 0
6172 -6167 0
6172 -6171 0
6173 -162 -6172 0
-6173 162 0
-6173 6172 0
6174 -170 -2282 0
-6174 170 0
-6174 2282 0
-6175 176 6174 171 173 0
6175 -176 0
6175 -6174 0
6175 -171 0
6175 -173 0
6176 -178 -6175 0
-6176 178 0
-6176 6175 0
6177 -180 -6164 0
-6177 180 0
-6177 6164 0
6178 -214 -2287 0
-6178 214 0
-6178 2287 0
-6179 216 6177 6178 0
6179 -216 0
6179 -6177 0
6179 -6178 0
6180 -218 -6179 0
-6180 218 0
-6180 6179 0
6181 -119 -6065 0
-6181 119 0
-6181 6065 0
-6182 121 2539 83 6181 0
6182 -121 0
6182 -2539 0
6182 -83 0
6182 -6181 0
6183 -134 -6182 0
-6183 134 0
-6183 6182 0
-6184 80 4614 221 76 0
6184 -80 0
6184 -4614 0
6184 -221 0
6184 -76 0
6185 -146 -6184 0
-6185 146 0
-6185 6184 0
6186 -112 -6184 0
-6186 112 0
-6186 6184 0
-6187 3 6186 0
6187 -3 0
6187 -6186 0
6188 -2 -6187 0
-6188 2 0
-6188 6187 0
-6189 5 6185 6188 0
6189 -5 0
6189 -6185 0
6189 -6188 0
6190 -38 -6189 0
-6190 38 0
-6190 6189 0
-6191 40 6183 6190 0
6191 -40 0
6191 -6183 0
6191 -6190 0
6192 -42 -6191 0
-6192 42 0
-6192 6191 0
6193 -44 -6189 0
-6193 44 0
-6193 6189 0
-6194 80 938 221 76 0
6194 -80 0
6194 -938 0
6194 -221 0
6194 -76 0
6195 -248 -6194 0
-6195 248 0
-6195 6194 0
6196 -250 -6194 0
-6196 250 0
-6196 6194 0
-6197 50 6196 0
6197 -50 0
6197 -6196 0
6198 -49 -6197 0
-6198 49 0
-6198 6197 0
-6199 52 6195 45 6198 0
6199 -52 0
6199 -6195 0
6199 -45 0
6199 -6198 0
6200 -54 -6199 0
-6200 54 0
-6200 6199 0
-6201 56 6193 6200 0
6201 -56 0
6201 -6193 0
6201 -6200 0
6202 -58 -6201 0
-6202 58 0
-6202 6201 0
-6203 60 6192 6202 0
6203 -60 0
6203 -6192 0
6203 -6202 0
6204 -259 -6203 0
-6204 259 0
-6204 6203 0
6205 -119 -6110 0
-6205 119 0
-6205 6110 0
-6206 121 2563 83 6205 0
6206 -121 0
6206 -2563 0
6206 -83 0
6206 -6205 0
6207 -134 -6206 0
-6207 134 0
-6207 6206 0
-6208 80 4614 76 0
6208 -80 0
6208 -4614 0
6208 -76 0
6209 -146 -6208 0
-6209 146 0
-6209 6208 0
6210 -112 -6208 0
-6210 112 0
-6210 6208 0
-6211 3 6210 0
6211 -3 0
6211 -6210 0
6212 -2 -6211 0
-6212 2 0
-6212 6211 0
-6213 5 6209 6212 0
6213 -5 0
6213 -6209 0
6213 -6212 0
6214 -38 -6213 0
-6214 38 0
-6214 6213 0
-6215 40 6207 6214 0
6215 -40 0
6215 -6207 0
6215 -6214 0
6216 -42 -6215 0
-6216 42 0
-6216 6215 0
6217 -44 -6213 0
-6217 44 0
-6217 6213 0
-6218 80 938 76 0
6218 -80 0
6218 -938 0
6218 -76 0
6219 -248 -6218 0
-6219 248 0
-6219 6218 0
6220 -250 -6218 0
-6220 250 0
-6220 6218 0
-6221 50 6220 0
6221 -50 0
6221 -6220 0
6222 -49 -6221 0
-6222 49 0
-6222 6221 0
-6223 52 6219 45 6222 0
6223 -52 0
6223 -6219 0
6223 -45 0
6223 -6222 0
6224 -54 -6223 0
-6224 54 0
-6224 6223 0
-6225 56 6217 6224 0
6225 -56 0
6225 -6217 0
6225 -6224 0
6226 -58 -6225 0
-6226 58 0
-6226 6225 0
-6227 60 6216 6226 0
6227 -60 0
6227 -6216 0
6227 -6226 0
6228 -67 -6227 0
-6228 67 0
-6228 6227 0
-6229 69 6228 0
6229 -69 0
6229 -6228 0
6230 -71 -6229 0
-6230 71 0
-6230 6229 0
-6231 73 63 6230 0
6231 -73 0
6231 -63 0
6231 -6230 0
6232 -299 -6231 0
-6232 299 0
-6232 6231 0
6233 -331 -6203 0
-6233 331 0
-6233 6203 0
-6234 333 6233 0
6234 -333 0
6234 -6233 0
6235 -335 -6234 0
-6235 335 0
-6235 6234 0
-6236 337 6165 6173 6176 6180 6204 6232 326 328 6235 0
6236 -337 0
6236 -6165 0
6236 -6173 0
6236 -6176 0
6236 -6180 0
6236 -6204 0
6236 -6232 0
6236 -326 0
6236 -328 0
6236 -6235 0
6237 -339 -6236 0
-6237 339 0
-6237 6236 0
-6238 80 5527 382 409 438 76 0
6238 -80 0
6238 -5527 0
6238 -382 0
6238 -409 0
6238 -438 0
6238 -76 0
6239 -441 -6238 0
-6239 441 0
-6239 6238 0
-6240 80 5534 454 476 503 76 0
6240 -80 0
6240 -5534 0
6240 -454 0
6240 -476 0
6240 -503 0
6240 -76 0
6241 -89 -6240 0
-6241 89 0
-6241 6240 0
-6242 30 6241 0
6242 -30 0
6242 -6241 0
6243 -210 -6242 0
-6243 210 0
-6243 6242 0
-6244 212 6243 0
6244 -212 0
6244 -6243 0
6245 -598 -6244 0
-6245 598 0
-6245 6244 0
-6246 600 6237 6239 6245 0
6246 -600 0
6246 -6237 0
6246 -6239 0
6246 -6245 0
6247 -624 -6246 0
-6247 624 0
-6247 6246 0
6248 -259 -4230 0
-6248 259 0
-6248 4230 0
-6249 73 674 4234 0
6249 -73 0
6249 -674 0
6249 -4234 0
6250 -299 -6249 0
-6250 299 0
-6250 6249 0
6251 -331 -4230 0
-6251 331 0
-6251 4230 0
-6252 333 6251 0
6252 -333 0
6252 -6251 0
6253 -335 -6252 0
-6253 335 0
-6253 6252 0
-6254 337 2641 341 1875 2644 6248 6250 326 1782 6253 0
6254 -337 0
6254 -2641 0
6254 -341 0
6254 -1875 0
6254 -2644 0
6254 -6248 0
6254 -6250 0
6254 -326 0
6254 -1782 0
6254 -6253 0
6255 -358 -6254 0
-6255 358 0
-6255 6254 0
-6256 22 2419 6255 6 2448 91 0
6256 -22 0
6256 -2419 0
6256 -6255 0
6256 -6 0
6256 -2448 0
6256 -91 0
6257 -24 -6256 0
-6257 24 0
-6257 6256 0
6258 -383 -6254 0
-6258 383 0
-6258 6254 0
-6259 337 2641 341 1875 2644 1785 326 1782 390 0
6259 -337 0
6259 -2641 0
6259 -341 0
6259 -1875 0
6259 -2644 0
6259 -1785 0
6259 -326 0
6259 -1782 0
6259 -390 0
6260 -375 -6259 0
-6260 375 0
-6260 6259 0
-6261 47 6260 0
6261 -47 0
6261 -6260 0
6262 -46 -6261 0
-6262 46 0
-6262 6261 0
6263 -401 -6259 0
-6263 401 0
-6263 6259 0
-6264 50 6263 0
6264 -50 0
6264 -6263 0
6265 -49 -6264 0
-6265 49 0
-6265 6264 0
-6266 52 6262 6265 0
6266 -52 0
6266 -6262 0
6266 -6265 0
6267 -54 -6266 0
-6267 54 0
-6267 6266 0
-6268 56 43 6267 0
6268 -56 0
6268 -43 0
6268 -6267 0
6269 -58 -6268 0
-6269 58 0
-6269 6268 0
-6270 60 2464 6269 0
6270 -60 0
6270 -2464 0
6270 -6269 0
6271 -62 -6270 0
-6271 62 0
-6271 6270 0
-6272 337 2641 341 1875 2644 6248 326 1782 6253 0
6272 -337 0
6272 -2641 0
6272 -341 0
6272 -1875 0
6272 -2644 0
6272 -6248 0
6272 -326 0
6272 -1782 0
6272 -6253 0
6273 -412 -6272 0
-6273 412 0
-6273 6272 0
-6274 65 6273 1391 0
6274 -65 0
6274 -6273 0
6274 -1391 0
6275 -64 -6274 0
-6275 64 0
-6275 6274 0
6276 -416 -6272 0
-6276 416 0
-6276 6272 0
-6277 337 2641 341 1875 2644 326 1782 390 0
6277 -337 0
6277 -2641 0
6277 -341 0
6277 -1875 0
6277 -2644 0
6277 -326 0
6277 -1782 0
6277 -390 0
6278 -375 -6277 0
-6278 375 0
-6278 6277 0
-6279 47 6278 0
6279 -47 0
6279 -6278 0
6280 -46 -6279 0
-6280 46 0
-6280 6279 0
6281 -401 -6277 0
-6281 401 0
-6281 6277 0
-6282 50 6281 0
6282 -50 0
6282 -6281 0
6283 -49 -6282 0
-6283 49 0
-6283 6282 0
-6284 52 6280 6283 0
6284 -52 0
6284 -6280 0
6284 -6283 0
6285 -54 -6284 0
-6285 54 0
-6285 6284 0
-6286 56 43 6285 0
6286 -56 0
6286 -43 0
6286 -6285 0
6287 -58 -6286 0
-6287 58 0
-6287 6286 0
-6288 60 2490 6287 0
6288 -60 0
6288 -2490 0
6288 -6287 0
6289 -67 -6288 0
-6289 67 0
-6289 6288 0
-6290 69 6276 6289 0
6290 -69 0
6290 -6276 0
6290 -6289 0
6291 -71 -6290 0
-6291 71 0
-6291 6290 0
-6292 73 6275 6291 0
6292 -73 0
6292 -6275 0
6292 -6291 0
6293 -75 -6292 0
-6293 75 0
-6293 6292 0
-6294 80 6257 6258 6271 6293 1435 0
6294 -80 0
6294 -6257 0
6294 -6258 0
6294 -6271 0
6294 -6293 0
6294 -1435 0
6295 -89 -6294 0
-6295 89 0
-6295 6294 0
-6296 30 6295 0
6296 -30 0
6296 -6295 0
6297 -32 -6296 0
-6297 32 0
-6297 6296 0
-6298 34 6028 6162 6247 6297 0
6298 -34 0
6298 -6028 0
6298 -6162 0
6298 -6247 0
6298 -6297 0
6299 -2737 -6298 0
-6299 2737 0
-6299 6298 0
6300 -358 -5814 0
-6300 358 0
-6300 5814 0
6301 -299 -5930 0
-6301 299 0
-6301 5930 0
-6302 337 341 1979 1983 364 6301 326 1986 372 0
6302 -337 0
6302 -341 0
6302 -1979 0
6302 -1983 0
6302 -364 0
6302 -6301 0
6302 -326 0
6302 -1986 0
6302 -372 0
6303 -375 -6302 0
-6303 375 0
-6303 6302 0
-6304 47 6303 0
6304 -47 0
6304 -6303 0
6305 -84 -6304 0
-6305 84 0
-6305 6304 0
-6306 121 2440 6305 300 0
6306 -121 0
6306 -2440 0
6306 -6305 0
6306 -300 0
6307 -127 -6306 0
-6307 127 0
-6307 6306 0
-6308 22 2419 6300 6307 91 0
6308 -22 0
6308 -2419 0
6308 -6300 0
6308 -6307 0
6308 -91 0
6309 -24 -6308 0
-6309 24 0
-6309 6308 0
6310 -26 -6308 0
-6310 26 0
-6310 6308 0
6311 -386 -5814 0
-6311 386 0
-6311 5814 0
-6312 34 6310 6311 2757 306 0
6312 -34 0
6312 -6310 0
6312 -6311 0
6312 -2757 0
6312 -306 0
6313 -36 -6312 0
-6313 36 0
-6313 6312 0
-6314 80 6309 5815 6313 5836 5866 1435 0
6314 -80 0
6314 -6309 0
6314 -5815 0
6314 -6313 0
6314 -5836 0
6314 -5866 0
6314 -1435 0
6315 -146 -6314 0
-6315 146 0
-6315 6314 0
6316 -358 -1990 0
-6316 358 0
-6316 1990 0
-6317 337 507 1979 1983 521 2663 326 1986 529 0
6317 -337 0
6317 -507 0
6317 -1979 0
6317 -1983 0
6317 -521 0
6317 -2663 0
6317 -326 0
6317 -1986 0
6317 -529 0
6318 -375 -6317 0
-6318 375 0
-6318 6317 0
-6319 47 6318 0
6319 -47 0
6319 -6318 0
6320 -84 -6319 0
-6320 84 0
-6320 6319 0
-6321 121 2771 6320 300 0
6321 -121 0
6321 -2771 0
6321 -6320 0
6321 -300 0
6322 -127 -6321 0
-6322 127 0
-6322 6321 0
-6323 22 2769 6316 6322 91 0
6323 -22 0
6323 -2769 0
6323 -6316 0
6323 -6322 0
6323 -91 0
6324 -24 -6323 0
-6324 24 0
-6324 6323 0
6325 -26 -6323 0
-6325 26 0
-6325 6323 0
6326 -386 -1990 0
-6326 386 0
-6326 1990 0
-6327 34 6325 6326 2793 306 0
6327 -34 0
6327 -6325 0
6327 -6326 0
6327 -2793 0
6327 -306 0
6328 -36 -6327 0
-6328 36 0
-6328 6327 0
-6329 80 6324 1991 6328 5874 5886 1534 0
6329 -80 0
6329 -6324 0
6329 -1991 0
6329 -6328 0
6329 -5874 0
6329 -5886 0
6329 -1534 0
6330 -112 -6329 0
-6330 112 0
-6330 6329 0
-6331 3 6330 0
6331 -3 0
6331 -6330 0
6332 -2 -6331 0
-6332 2 0
-6332 6331 0
-6333 5 6315 6332 0
6333 -5 0
6333 -6315 0
6333 -6332 0
6334 -2807 -6333 0
-6334 2807 0
-6334 6333 0
-6335 22 2810 2826 6 2834 91 0
6335 -22 0
6335 -2810 0
6335 -2826 0
6335 -6 0
6335 -2834 0
6335 -91 0
6336 -24 -6335 0
-6336 24 0
-6336 6335 0
6337 -26 -6335 0
-6337 26 0
-6337 6335 0
-6338 34 6337 2844 2845 0
6338 -34 0
6338 -6337 0
6338 -2844 0
6338 -2845 0
6339 -36 -6338 0
-6339 36 0
-6339 6338 0
-6340 80 6336 2842 6339 2873 2909 2912 0
6340 -80 0
6340 -6336 0
6340 -2842 0
6340 -6339 0
6340 -2873 0
6340 -2909 0
6340 -2912 0
6341 -89 -6340 0
-6341 89 0
-6341 6340 0
-6342 30 6341 0
6342 -30 0
6342 -6341 0
6343 -210 -6342 0
-6343 210 0
-6343 6342 0
-6344 212 6343 0
6344 -212 0
6344 -6343 0
6345 -3099 -6344 0
-6345 3099 0
-6345 6344 0
-6346 3101 5545 5695 6299 6334 6345 0
6346 -3101 0
6346 -5545 0
6346 -5695 0
6346 -6299 0
6346 -6334 0
6346 -6345 0
6347 -3116 -6346 0
-6347 3116 0
-6347 6346 0
6348 -3109 -4811 0
-6348 3109 0
-6348 4811 0
-6349 22 3560 6 91 0
6349 -22 0
6349 -3560 0
6349 -6 0
6349 -91 0
6350 -24 -6349 0
-6350 24 0
-6350 6349 0
-6351 22 3124 6 91 0
6351 -22 0
6351 -3124 0
6351 -6 0
6351 -91 0
6352 -26 -6351 0
-6352 26 0
-6352 6351 0
-6353 34 6352 306 0
6353 -34 0
6353 -6352 0
6353 -306 0
6354 -36 -6353 0
-6354 36 0
-6354 6353 0
-6355 80 6348 6350 6354 61 74 76 0
6355 -80 0
6355 -6348 0
6355 -6350 0
6355 -6354 0
6355 -61 0
6355 -74 0
6355 -76 0
6356 -82 -6355 0
-6356 82 0
-6356 6355 0
-6357 80 3350 3353 3165 61 74 76 0
6357 -80 0
6357 -3350 0
6357 -3353 0
6357 -3165 0
6357 -61 0
6357 -74 0
6357 -76 0
6358 -89 -6357 0
-6358 89 0
-6358 6357 0
-6359 30 6358 0
6359 -30 0
6359 -6358 0
6360 -119 -6359 0
-6360 119 0
-6360 6359 0
-6361 121 6356 83 6360 0
6361 -121 0
6361 -6356 0
6361 -83 0
6361 -6360 0
6362 -123 -6361 0
-6362 123 0
-6362 6361 0
6363 -2737 -4616 0
-6363 2737 0
-6363 4616 0
-6364 3101 6363 3105 3106 0
6364 -3101 0
6364 -6363 0
6364 -3105 0
6364 -3106 0
6365 -3109 -6364 0
-6365 3109 0
-6365 6364 0
-6366 22 3560 302 91 0
6366 -22 0
6366 -3560 0
6366 -302 0
6366 -91 0
6367 -24 -6366 0
-6367 24 0
-6367 6366 0
-6368 22 3124 302 91 0
6368 -22 0
6368 -3124 0
6368 -302 0
6368 -91 0
6369 -26 -6368 0
-6369 26 0
-6369 6368 0
-6370 34 6369 306 0
6370 -34 0
6370 -6369 0
6370 -306 0
6371 -36 -6370 0
-6371 36 0
-6371 6370 0
-6372 80 6365 6367 6371 4193 5568 76 0
6372 -80 0
6372 -6365 0
6372 -6367 0
6372 -6371 0
6372 -4193 0
6372 -5568 0
6372 -76 0
6373 -146 -6372 0
-6373 146 0
-6373 6372 0
-6374 3101 6363 3198 3106 0
6374 -3101 0
6374 -6363 0
6374 -3198 0
6374 -3106 0
6375 -3109 -6374 0
-6375 3109 0
-6375 6374 0
-6376 22 4632 302 91 0
6376 -22 0
6376 -4632 0
6376 -302 0
6376 -91 0
6377 -24 -6376 0
-6377 24 0
-6377 6376 0
-6378 22 4295 302 91 0
6378 -22 0
6378 -4295 0
6378 -302 0
6378 -91 0
6379 -26 -6378 0
-6379 26 0
-6379 6378 0
-6380 34 6379 306 0
6380 -34 0
6380 -6379 0
6380 -306 0
6381 -36 -6380 0
-6381 36 0
-6381 6380 0
-6382 80 6375 6377 6381 313 318 76 0
6382 -80 0
6382 -6375 0
6382 -6377 0
6382 -6381 0
6382 -313 0
6382 -318 0
6382 -76 0
6383 -112 -6382 0
-6383 112 0
-6383 6382 0
-6384 3 6383 0
6384 -3 0
6384 -6383 0
6385 -2 -6384 0
-6385 2 0
-6385 6384 0
-6386 5 6373 6385 0
6386 -5 0
6386 -6373 0
6386 -6385 0
6387 -162 -6386 0
-6387 162 0
-6387 6386 0
-6388 80 4271 4273 4277 4193 5568 76 0
6388 -80 0
6388 -4271 0
6388 -4273 0
6388 -4277 0
6388 -4193 0
6388 -5568 0
6388 -76 0
6389 -170 -6388 0
-6389 170 0
-6389 6388 0
-6390 176 6389 171 173 0
6390 -176 0
6390 -6389 0
6390 -171 0
6390 -173 0
6391 -178 -6390 0
-6391 178 0
-6391 6390 0
6392 -7 -1030 0
-6392 7 0
-6392 1030 0
6393 -127 -1939 0
-6393 127 0
-6393 1939 0
-6394 22 6392 6393 91 0
6394 -22 0
6394 -6392 0
6394 -6393 0
6394 -91 0
6395 -26 -6394 0
-6395 26 0
-6395 6394 0
6396 -89 -2282 0
-6396 89 0
-6396 2282 0
-6397 30 6396 0
6397 -30 0
6397 -6396 0
6398 -32 -6397 0
-6398 32 0
-6398 6397 0
-6399 34 6395 6398 0
6399 -34 0
6399 -6395 0
6399 -6398 0
6400 -2737 -6399 0
-6400 2737 0
-6400 6399 0
6401 -2807 -5452 0
-6401 2807 0
-6401 5452 0
6402 -3099 -947 0
-6402 3099 0
-6402 947 0
-6403 3101 6400 6401 6402 0
6403 -3101 0
6403 -6400 0
6403 -6401 0
6403 -6402 0
6404 -3851 -6403 0
-6404 3851 0
-6404 6403 0
6405 -180 -6361 0
-6405 180 0
-6405 6361 0
-6406 80 3946 3948 3595 772 780 76 0
6406 -80 0
6406 -3946 0
6406 -3948 0
6406 -3595 0
6406 -772 0
6406 -780 0
6406 -76 0
6407 -89 -6406 0
-6407 89 0
-6407 6406 0
-6408 30 6407 0
6408 -30 0
6408 -6407 0
6409 -210 -6408 0
-6409 210 0
-6409 6408 0
-6410 212 6409 0
6410 -212 0
6410 -6409 0
6411 -214 -6410 0
-6411 214 0
-6411 6410 0
-6412 216 6404 6405 6411 0
6412 -216 0
6412 -6404 0
6412 -6405 0
6412 -6411 0
6413 -218 -6412 0
-6413 218 0
-6413 6412 0
-6414 80 6348 6350 6354 221 76 0
6414 -80 0
6414 -6348 0
6414 -6350 0
6414 -6354 0
6414 -221 0
6414 -76 0
6415 -82 -6414 0
-6415 82 0
-6415 6414 0
-6416 80 3350 3353 3165 221 76 0
6416 -80 0
6416 -3350 0
6416 -3353 0
6416 -3165 0
6416 -221 0
6416 -76 0
6417 -89 -6416 0
-6417 89 0
-6417 6416 0
-6418 30 6417 0
6418 -30 0
6418 -6417 0
6419 -119 -6418 0
-6419 119 0
-6419 6418 0
-6420 121 6415 83 6419 0
6420 -121 0
6420 -6415 0
6420 -83 0
6420 -6419 0
6421 -134 -6420 0
-6421 134 0
-6421 6420 0
-6422 80 6365 6367 6371 221 76 0
6422 -80 0
6422 -6365 0
6422 -6367 0
6422 -6371 0
6422 -221 0
6422 -76 0
6423 -146 -6422 0
-6423 146 0
-6423 6422 0
-6424 80 6375 6377 6381 221 76 0
6424 -80 0
6424 -6375 0
6424 -6377 0
6424 -6381 0
6424 -221 0
6424 -76 0
6425 -112 -6424 0
-6425 112 0
-6425 6424 0
-6426 3 6425 0
6426 -3 0
6426 -6425 0
6427 -2 -6426 0
-6427 2 0
-6427 6426 0
-6428 5 6423 6427 0
6428 -5 0
6428 -6423 0
6428 -6427 0
6429 -38 -6428 0
-6429 38 0
-6429 6428 0
-6430 40 6421 6429 0
6430 -40 0
6430 -6421 0
6430 -6429 0
6431 -42 -6430 0
-6431 42 0
-6431 6430 0
6432 -44 -6428 0
-6432 44 0
-6432 6428 0
-6433 80 4271 4273 4277 221 76 0
6433 -80 0
6433 -4271 0
6433 -4273 0
6433 -4277 0
6433 -221 0
6433 -76 0
6434 -248 -6433 0
-6434 248 0
-6434 6433 0
6435 -250 -6433 0
-6435 250 0
-6435 6433 0
-6436 50 6435 0
6436 -50 0
6436 -6435 0
6437 -49 -6436 0
-6437 49 0
-6437 6436 0
-6438 52 6434 45 6437 0
6438 -52 0
6438 -6434 0
6438 -45 0
6438 -6437 0
6439 -54 -6438 0
-6439 54 0
-6439 6438 0
-6440 56 6432 6439 0
6440 -56 0
6440 -6432 0
6440 -6439 0
6441 -58 -6440 0
-6441 58 0
-6441 6440 0
-6442 60 6431 6441 0
6442 -60 0
6442 -6431 0
6442 -6441 0
6443 -259 -6442 0
-6443 259 0
-6443 6442 0
-6444 80 6348 6350 6354 76 0
6444 -80 0
6444 -6348 0
6444 -6350 0
6444 -6354 0
6444 -76 0
6445 -82 -6444 0
-6445 82 0
-6445 6444 0
6446 -89 -4140 0
-6446 89 0
-6446 4140 0
-6447 30 6446 0
6447 -30 0
6447 -6446 0
6448 -119 -6447 0
-6448 119 0
-6448 6447 0
-6449 121 6445 83 6448 0
6449 -121 0
6449 -6445 0
6449 -83 0
6449 -6448 0
6450 -134 -6449 0
-6450 134 0
-6450 6449 0
-6451 80 6365 6367 6371 76 0
6451 -80 0
6451 -6365 0
6451 -6367 0
6451 -6371 0
6451 -76 0
6452 -146 -6451 0
-6452 146 0
-6452 6451 0
-6453 80 6375 6377 6381 76 0
6453 -80 0
6453 -6375 0
6453 -6377 0
6453 -6381 0
6453 -76 0
6454 -112 -6453 0
-6454 112 0
-6454 6453 0
-6455 3 6454 0
6455 -3 0
6455 -6454 0
6456 -2 -6455 0
-6456 2 0
-6456 6455 0
-6457 5 6452 6456 0
6457 -5 0
6457 -6452 0
6457 -6456 0
6458 -38 -6457 0
-6458 38 0
-6458 6457 0
-6459 40 6450 6458 0
6459 -40 0
6459 -6450 0
6459 -6458 0
6460 -42 -6459 0
-6460 42 0
-6460 6459 0
6461 -44 -6457 0
-6461 44 0
-6461 6457 0
-6462 80 4271 4273 4277 76 0
6462 -80 0
6462 -4271 0
6462 -4273 0
6462 -4277 0
6462 -76 0
6463 -248 -6462 0
-6463 248 0
-6463 6462 0
6464 -250 -6462 0
-6464 250 0
-6464 6462 0
-6465 50 6464 0
6465 -50 0
6465 -6464 0
6466 -49 -6465 0
-6466 49 0
-6466 6465 0
-6467 52 6463 45 6466 0
6467 -52 0
6467 -6463 0
6467 -45 0
6467 -6466 0
6468 -54 -6467 0
-6468 54 0
-6468 6467 0
-6469 56 6461 6468 0
6469 -56 0
6469 -6461 0
6469 -6468 0
6470 -58 -6469 0
-6470 58 0
-6470 6469 0
-6471 60 6460 6470 0
6471 -60 0
6471 -6460 0
6471 -6470 0
6472 -67 -6471 0
-6472 67 0
-6472 6471 0
-6473 69 6472 0
6473 -69 0
6473 -6472 0
6474 -71 -6473 0
-6474 71 0
-6474 6473 0
-6475 73 63 6474 0
6475 -73 0
6475 -63 0
6475 -6474 0
6476 -299 -6475 0
-6476 299 0
-6476 6475 0
6477 -4350 -6403 0
-6477 4350 0
-6477 6403 0
6478 -331 -6442 0
-6478 331 0
-6478 6442 0
-6479 333 6477 6478 0
6479 -333 0
6479 -6477 0
6479 -6478 0
6480 -335 -6479 0
-6480 335 0
-6480 6479 0
-6481 337 6362 6387 6391 6413 6443 6476 326 328 6480 0
6481 -337 0
6481 -6362 0
6481 -6387 0
6481 -6391 0
6481 -6413 0
6481 -6443 0
6481 -6476 0
6481 -326 0
6481 -328 0
6481 -6480 0
6482 -339 -6481 0
-6482 339 0
-6482 6481 0
6483 -1010 -356 0
-6483 1010 0
-6483 356 0
6484 -2737 -5529 0
-6484 2737 0
-6484 5529 0
-6485 3101 6483 6484 3105 3106 0
6485 -3101 0
6485 -6483 0
6485 -6484 0
6485 -3105 0
6485 -3106 0
6486 -3109 -6485 0
-6486 3109 0
-6486 6485 0
-6487 34 385 31 0
6487 -34 0
6487 -385 0
6487 -31 0
6488 -2737 -6487 0
-6488 2737 0
-6488 6487 0
-6489 3101 6483 6488 3105 3106 0
6489 -3101 0
6489 -6483 0
6489 -6488 0
6489 -3105 0
6489 -3106 0
6490 -3111 -6489 0
-6490 3111 0
-6490 6489 0
-6491 216 4675 1980 1981 0
6491 -216 0
6491 -4675 0
6491 -1980 0
6491 -1981 0
6492 -218 -6491 0
-6492 218 0
-6492 6491 0
-6493 333 4691 5811 0
6493 -333 0
6493 -4691 0
6493 -5811 0
6494 -335 -6493 0
-6494 335 0
-6494 6493 0
-6495 337 1976 341 343 6492 5809 5810 326 328 6494 0
6495 -337 0
6495 -1976 0
6495 -341 0
6495 -343 0
6495 -6492 0
6495 -5809 0
6495 -5810 0
6495 -326 0
6495 -328 0
6495 -6494 0
6496 -358 -6495 0
-6496 358 0
-6496 6495 0
-6497 216 4675 1981 0
6497 -216 0
6497 -4675 0
6497 -1981 0
6498 -218 -6497 0
-6498 218 0
-6498 6497 0
-6499 333 4691 370 0
6499 -333 0
6499 -4691 0
6499 -370 0
6500 -335 -6499 0
-6500 335 0
-6500 6499 0
-6501 337 341 343 6498 364 369 326 328 6500 0
6501 -337 0
6501 -341 0
6501 -343 0
6501 -6498 0
6501 -364 0
6501 -369 0
6501 -326 0
6501 -328 0
6501 -6500 0
6502 -375 -6501 0
-6502 375 0
-6502 6501 0
-6503 47 6502 0
6503 -47 0
6503 -6502 0
6504 -84 -6503 0
-6504 84 0
-6504 6503 0
-6505 121 6504 300 0
6505 -121 0
6505 -6504 0
6505 -300 0
6506 -127 -6505 0
-6506 127 0
-6506 6505 0
-6507 22 6490 6496 6 6506 91 0
6507 -22 0
6507 -6490 0
6507 -6496 0
6507 -6 0
6507 -6506 0
6507 -91 0
6508 -24 -6507 0
-6508 24 0
-6508 6507 0
6509 -3851 -4270 0
-6509 3851 0
-6509 4270 0
-6510 216 6509 1980 1981 0
6510 -216 0
6510 -6509 0
6510 -1980 0
6510 -1981 0
6511 -218 -6510 0
-6511 218 0
-6511 6510 0
6512 -4350 -4270 0
-6512 4350 0
-6512 4270 0
-6513 333 6512 5811 0
6513 -333 0
6513 -6512 0
6513 -5811 0
6514 -335 -6513 0
-6514 335 0
-6514 6513 0
-6515 337 1976 341 343 6511 5809 5810 326 328 6514 0
6515 -337 0
6515 -1976 0
6515 -341 0
6515 -343 0
6515 -6511 0
6515 -5809 0
6515 -5810 0
6515 -326 0
6515 -328 0
6515 -6514 0
6516 -383 -6515 0
-6516 383 0
-6516 6515 0
-6517 3101 6483 3105 3106 0
6517 -3101 0
6517 -6483 0
6517 -3105 0
6517 -3106 0
6518 -3111 -6517 0
-6518 3111 0
-6518 6517 0
-6519 216 4748 1980 1981 0
6519 -216 0
6519 -4748 0
6519 -1980 0
6519 -1981 0
6520 -218 -6519 0
-6520 218 0
-6520 6519 0
-6521 333 4764 5811 0
6521 -333 0
6521 -4764 0
6521 -5811 0
6522 -335 -6521 0
-6522 335 0
-6522 6521 0
-6523 337 1976 341 343 6520 5809 5810 326 328 6522 0
6523 -337 0
6523 -1976 0
6523 -341 0
6523 -343 0
6523 -6520 0
6523 -5809 0
6523 -5810 0
6523 -326 0
6523 -328 0
6523 -6522 0
6524 -358 -6523 0
-6524 358 0
-6524 6523 0
-6525 216 4748 1981 0
6525 -216 0
6525 -4748 0
6525 -1981 0
6526 -218 -6525 0
-6526 218 0
-6526 6525 0
-6527 337 341 343 6526 364 369 326 328 4773 0
6527 -337 0
6527 -341 0
6527 -343 0
6527 -6526 0
6527 -364 0
6527 -369 0
6527 -326 0
6527 -328 0
6527 -4773 0
6528 -375 -6527 0
-6528 375 0
-6528 6527 0
-6529 47 6528 0
6529 -47 0
6529 -6528 0
6530 -84 -6529 0
-6530 84 0
-6530 6529 0
-6531 121 6530 300 0
6531 -121 0
6531 -6530 0
6531 -300 0
6532 -127 -6531 0
-6532 127 0
-6532 6531 0
-6533 22 6518 6524 6 6532 91 0
6533 -22 0
6533 -6518 0
6533 -6524 0
6533 -6 0
6533 -6532 0
6533 -91 0
6534 -26 -6533 0
-6534 26 0
-6534 6533 0
6535 -386 -6523 0
-6535 386 0
-6535 6523 0
-6536 34 6534 6535 306 0
6536 -34 0
6536 -6534 0
6536 -6535 0
6536 -306 0
6537 -36 -6536 0
-6537 36 0
-6537 6536 0
6538 -3851 -4811 0
-6538 3851 0
-6538 4811 0
-6539 216 6538 1981 0
6539 -216 0
6539 -6538 0
6539 -1981 0
6540 -218 -6539 0
-6540 218 0
-6540 6539 0
6541 -4350 -4811 0
-6541 4350 0
-6541 4811 0
-6542 333 6541 0
6542 -333 0
6542 -6541 0
6543 -335 -6542 0
-6543 335 0
-6543 6542 0
-6544 337 341 343 6540 389 326 328 6543 0
6544 -337 0
6544 -341 0
6544 -343 0
6544 -6540 0
6544 -389 0
6544 -326 0
6544 -328 0
6544 -6543 0
6545 -375 -6544 0
-6545 375 0
-6545 6544 0
-6546 47 6545 0
6546 -47 0
6546 -6545 0
6547 -84 -6546 0
-6547 84 0
-6547 6546 0
-6548 121 6547 300 0
6548 -121 0
6548 -6547 0
6548 -300 0
6549 -134 -6548 0
-6549 134 0
-6549 6548 0
-6550 40 6549 37 0
6550 -40 0
6550 -6549 0
6550 -37 0
6551 -42 -6550 0
-6551 42 0
-6551 6550 0
-6552 333 6512 0
6552 -333 0
6552 -6512 0
6553 -335 -6552 0
-6553 335 0
-6553 6552 0
-6554 337 1976 341 343 6511 389 326 328 6553 0
6554 -337 0
6554 -1976 0
6554 -341 0
6554 -343 0
6554 -6511 0
6554 -389 0
6554 -326 0
6554 -328 0
6554 -6553 0
6555 -375 -6554 0
-6555 375 0
-6555 6554 0
-6556 47 6555 0
6556 -47 0
6556 -6555 0
6557 -46 -6556 0
-6557 46 0
-6557 6556 0
6558 -401 -6554 0
-6558 401 0
-6558 6554 0
-6559 50 6558 0
6559 -50 0
6559 -6558 0
6560 -49 -6559 0
-6560 49 0
-6560 6559 0
-6561 52 6557 6560 0
6561 -52 0
6561 -6557 0
6561 -6560 0
6562 -54 -6561 0
-6562 54 0
-6562 6561 0
-6563 56 43 6562 0
6563 -56 0
6563 -43 0
6563 -6562 0
6564 -58 -6563 0
-6564 58 0
-6564 6563 0
-6565 60 6551 6564 0
6565 -60 0
6565 -6551 0
6565 -6564 0
6566 -62 -6565 0
-6566 62 0
-6566 6565 0
-6567 337 1976 341 343 6511 5809 326 328 6514 0
6567 -337 0
6567 -1976 0
6567 -341 0
6567 -343 0
6567 -6511 0
6567 -5809 0
6567 -326 0
6567 -328 0
6567 -6514 0
6568 -412 -6567 0
-6568 412 0
-6568 6567 0
-6569 65 6568 0
6569 -65 0
6569 -6568 0
6570 -64 -6569 0
-6570 64 0
-6570 6569 0
6571 -416 -6567 0
-6571 416 0
-6571 6567 0
-6572 337 341 343 6540 326 328 6543 0
6572 -337 0
6572 -341 0
6572 -343 0
6572 -6540 0
6572 -326 0
6572 -328 0
6572 -6543 0
6573 -375 -6572 0
-6573 375 0
-6573 6572 0
-6574 47 6573 0
6574 -47 0
6574 -6573 0
6575 -84 -6574 0
-6575 84 0
-6575 6574 0
-6576 121 6575 300 0
6576 -121 0
6576 -6575 0
6576 -300 0
6577 -134 -6576 0
-6577 134 0
-6577 6576 0
-6578 40 6577 37 0
6578 -40 0
6578 -6577 0
6578 -37 0
6579 -42 -6578 0
-6579 42 0
-6579 6578 0
-6580 337 1976 341 343 6511 326 328 6553 0
6580 -337 0
6580 -1976 0
6580 -341 0
6580 -343 0
6580 -6511 0
6580 -326 0
6580 -328 0
6580 -6553 0
6581 -375 -6580 0
-6581 375 0
-6581 6580 0
-6582 47 6581 0
6582 -47 0
6582 -6581 0
6583 -46 -6582 0
-6583 46 0
-6583 6582 0
6584 -401 -6580 0
-6584 401 0
-6584 6580 0
-6585 50 6584 0
6585 -50 0
6585 -6584 0
6586 -49 -6585 0
-6586 49 0
-6586 6585 0
-6587 52 6583 6586 0
6587 -52 0
6587 -6583 0
6587 -6586 0
6588 -54 -6587 0
-6588 54 0
-6588 6587 0
-6589 56 43 6588 0
6589 -56 0
6589 -43 0
6589 -6588 0
6590 -58 -6589 0
-6590 58 0
-6590 6589 0
-6591 60 6579 6590 0
6591 -60 0
6591 -6579 0
6591 -6590 0
6592 -67 -6591 0
-6592 67 0
-6592 6591 0
-6593 69 6571 6592 0
6593 -69 0
6593 -6571 0
6593 -6592 0
6594 -71 -6593 0
-6594 71 0
-6594 6593 0
-6595 73 6570 6594 0
6595 -73 0
6595 -6570 0
6595 -6594 0
6596 -75 -6595 0
-6596 75 0
-6596 6595 0
-6597 80 6486 6508 6516 6537 6566 6596 76 0
6597 -80 0
6597 -6486 0
6597 -6508 0
6597 -6516 0
6597 -6537 0
6597 -6566 0
6597 -6596 0
6597 -76 0
6598 -441 -6597 0
-6598 441 0
-6598 6597 0
6599 -1010 -444 0
-6599 1010 0
-6599 444 0
6600 -2737 -5536 0
-6600 2737 0
-6600 5536 0
-6601 3101 6599 6600 3105 3132 0
6601 -3101 0
6601 -6599 0
6601 -6600 0
6601 -3105 0
6601 -3132 0
6602 -3109 -6601 0
-6602 3109 0
-6602 6601 0
-6603 34 456 0
6603 -34 0
6603 -456 0
6604 -2737 -6603 0
-6604 2737 0
-6604 6603 0
-6605 3101 6599 6604 3105 3132 0
6605 -3101 0
6605 -6599 0
6605 -6604 0
6605 -3105 0
6605 -3132 0
6606 -3111 -6605 0
-6606 3111 0
-6606 6605 0
-6607 337 506 341 343 4916 2596 2597 326 328 4920 0
6607 -337 0
6607 -506 0
6607 -341 0
6607 -343 0
6607 -4916 0
6607 -2596 0
6607 -2597 0
6607 -326 0
6607 -328 0
6607 -4920 0
6608 -358 -6607 0
-6608 358 0
-6608 6607 0
-6609 337 506 341 343 4916 364 369 326 328 4924 0
6609 -337 0
6609 -506 0
6609 -341 0
6609 -343 0
6609 -4916 0
6609 -364 0
6609 -369 0
6609 -326 0
6609 -328 0
6609 -4924 0
6610 -375 -6609 0
-6610 375 0
-6610 6609 0
-6611 47 6610 0
6611 -47 0
6611 -6610 0
6612 -84 -6611 0
-6612 84 0
-6612 6611 0
-6613 121 6612 0
6613 -121 0
6613 -6612 0
6614 -127 -6613 0
-6614 127 0
-6614 6613 0
-6615 22 6606 6608 6 6614 91 0
6615 -22 0
6615 -6606 0
6615 -6608 0
6615 -6 0
6615 -6614 0
6615 -91 0
6616 -24 -6615 0
-6616 24 0
-6616 6615 0
6617 -3851 -3679 0
-6617 3851 0
-6617 3679 0
-6618 216 6617 508 0
6618 -216 0
6618 -6617 0
6618 -508 0
6619 -218 -6618 0
-6619 218 0
-6619 6618 0
6620 -4350 -3679 0
-6620 4350 0
-6620 3679 0
-6621 333 6620 2598 0
6621 -333 0
6621 -6620 0
6621 -2598 0
6622 -335 -6621 0
-6622 335 0
-6622 6621 0
-6623 337 506 341 343 6619 2596 2597 326 328 6622 0
6623 -337 0
6623 -506 0
6623 -341 0
6623 -343 0
6623 -6619 0
6623 -2596 0
6623 -2597 0
6623 -326 0
6623 -328 0
6623 -6622 0
6624 -383 -6623 0
-6624 383 0
-6624 6623 0
-6625 3101 6599 3105 3132 0
6625 -3101 0
6625 -6599 0
6625 -3105 0
6625 -3132 0
6626 -3111 -6625 0
-6626 3111 0
-6626 6625 0
-6627 337 506 341 343 4950 2596 2597 326 328 4954 0
6627 -337 0
6627 -506 0
6627 -341 0
6627 -343 0
6627 -4950 0
6627 -2596 0
6627 -2597 0
6627 -326 0
6627 -328 0
6627 -4954 0
6628 -358 -6627 0
-6628 358 0
-6628 6627 0
-6629 337 506 341 343 4950 364 369 326 328 4958 0
6629 -337 0
6629 -506 0
6629 -341 0
6629 -343 0
6629 -4950 0
6629 -364 0
6629 -369 0
6629 -326 0
6629 -328 0
6629 -4958 0
6630 -375 -6629 0
-6630 375 0
-6630 6629 0
-6631 47 6630 0
6631 -47 0
6631 -6630 0
6632 -84 -6631 0
-6632 84 0
-6632 6631 0
-6633 121 6632 0
6633 -121 0
6633 -6632 0
6634 -127 -6633 0
-6634 127 0
-6634 6633 0
-6635 22 6626 6628 6 6634 91 0
6635 -22 0
6635 -6626 0
6635 -6628 0
6635 -6 0
6635 -6634 0
6635 -91 0
6636 -26 -6635 0
-6636 26 0
-6636 6635 0
6637 -386 -6627 0
-6637 386 0
-6637 6627 0
-6638 34 6636 6637 0
6638 -34 0
6638 -6636 0
6638 -6637 0
6639 -36 -6638 0
-6639 36 0
-6639 6638 0
6640 -3851 -3276 0
-6640 3851 0
-6640 3276 0
-6641 216 6640 508 0
6641 -216 0
6641 -6640 0
6641 -508 0
6642 -218 -6641 0
-6642 218 0
-6642 6641 0
6643 -4350 -3276 0
-6643 4350 0
-6643 3276 0
-6644 333 6643 0
6644 -333 0
6644 -6643 0
6645 -335 -6644 0
-6645 335 0
-6645 6644 0
-6646 337 506 341 343 6642 389 326 328 6645 0
6646 -337 0
6646 -506 0
6646 -341 0
6646 -343 0
6646 -6642 0
6646 -389 0
6646 -326 0
6646 -328 0
6646 -6645 0
6647 -375 -6646 0
-6647 375 0
-6647 6646 0
-6648 47 6647 0
6648 -47 0
6648 -6647 0
6649 -84 -6648 0
-6649 84 0
-6649 6648 0
-6650 121 6649 0
6650 -121 0
6650 -6649 0
6651 -134 -6650 0
-6651 134 0
-6651 6650 0
-6652 40 6651 37 0
6652 -40 0
6652 -6651 0
6652 -37 0
6653 -42 -6652 0
-6653 42 0
-6653 6652 0
-6654 333 6620 0
6654 -333 0
6654 -6620 0
6655 -335 -6654 0
-6655 335 0
-6655 6654 0
-6656 337 506 341 343 6619 389 326 328 6655 0
6656 -337 0
6656 -506 0
6656 -341 0
6656 -343 0
6656 -6619 0
6656 -389 0
6656 -326 0
6656 -328 0
6656 -6655 0
6657 -375 -6656 0
-6657 375 0
-6657 6656 0
-6658 47 6657 0
6658 -47 0
6658 -6657 0
6659 -46 -6658 0
-6659 46 0
-6659 6658 0
6660 -401 -6656 0
-6660 401 0
-6660 6656 0
-6661 50 6660 0
6661 -50 0
6661 -6660 0
6662 -49 -6661 0
-6662 49 0
-6662 6661 0
-6663 52 6659 6662 0
6663 -52 0
6663 -6659 0
6663 -6662 0
6664 -54 -6663 0
-6664 54 0
-6664 6663 0
-6665 56 43 6664 0
6665 -56 0
6665 -43 0
6665 -6664 0
6666 -58 -6665 0
-6666 58 0
-6666 6665 0
-6667 60 6653 6666 0
6667 -60 0
6667 -6653 0
6667 -6666 0
6668 -62 -6667 0
-6668 62 0
-6668 6667 0
-6669 337 506 341 343 6619 2596 326 328 6622 0
6669 -337 0
6669 -506 0
6669 -341 0
6669 -343 0
6669 -6619 0
6669 -2596 0
6669 -326 0
6669 -328 0
6669 -6622 0
6670 -412 -6669 0
-6670 412 0
-6670 6669 0
-6671 65 6670 0
6671 -65 0
6671 -6670 0
6672 -64 -6671 0
-6672 64 0
-6672 6671 0
6673 -416 -6669 0
-6673 416 0
-6673 6669 0
-6674 337 506 341 343 6642 326 328 6645 0
6674 -337 0
6674 -506 0
6674 -341 0
6674 -343 0
6674 -6642 0
6674 -326 0
6674 -328 0
6674 -6645 0
6675 -375 -6674 0
-6675 375 0
-6675 6674 0
-6676 47 6675 0
6676 -47 0
6676 -6675 0
6677 -84 -6676 0
-6677 84 0
-6677 6676 0
-6678 121 6677 0
6678 -121 0
6678 -6677 0
6679 -134 -6678 0
-6679 134 0
-6679 6678 0
-6680 40 6679 37 0
6680 -40 0
6680 -6679 0
6680 -37 0
6681 -42 -6680 0
-6681 42 0
-6681 6680 0
-6682 337 506 341 343 6619 326 328 6655 0
6682 -337 0
6682 -506 0
6682 -341 0
6682 -343 0
6682 -6619 0
6682 -326 0
6682 -328 0
6682 -6655 0
6683 -375 -6682 0
-6683 375 0
-6683 6682 0
-6684 47 6683 0
6684 -47 0
6684 -6683 0
6685 -46 -6684 0
-6685 46 0
-6685 6684 0
6686 -401 -6682 0
-6686 401 0
-6686 6682 0
-6687 50 6686 0
6687 -50 0
6687 -6686 0
6688 -49 -6687 0
-6688 49 0
-6688 6687 0
-6689 52 6685 6688 0
6689 -52 0
6689 -6685 0
6689 -6688 0
6690 -54 -6689 0
-6690 54 0
-6690 6689 0
-6691 56 43 6690 0
6691 -56 0
6691 -43 0
6691 -6690 0
6692 -58 -6691 0
-6692 58 0
-6692 6691 0
-6693 60 6681 6692 0
6693 -60 0
6693 -6681 0
6693 -6692 0
6694 -67 -6693 0
-6694 67 0
-6694 6693 0
-6695 69 6673 6694 0
6695 -69 0
6695 -6673 0
6695 -6694 0
6696 -71 -6695 0
-6696 71 0
-6696 6695 0
-6697 73 6672 6696 0
6697 -73 0
6697 -6672 0
6697 -6696 0
6698 -75 -6697 0
-6698 75 0
-6698 6697 0
-6699 80 6602 6616 6624 6639 6668 6698 76 0
6699 -80 0
6699 -6602 0
6699 -6616 0
6699 -6624 0
6699 -6639 0
6699 -6668 0
6699 -6698 0
6699 -76 0
6700 -89 -6699 0
-6700 89 0
-6700 6699 0
-6701 30 6700 0
6701 -30 0
6701 -6700 0
6702 -210 -6701 0
-6702 210 0
-6702 6701 0
-6703 212 6702 0
6703 -212 0
6703 -6702 0
6704 -598 -6703 0
-6704 598 0
-6704 6703 0
-6705 600 6482 6598 6704 0
6705 -600 0
6705 -6482 0
6705 -6598 0
6705 -6704 0
6706 -615 -6705 0
-6706 615 0
-6706 6705 0
6707 -339 -1990 0
-6707 339 0
-6707 1990 0
-6708 600 6707 953 0
6708 -600 0
6708 -6707 0
6708 -953 0
6709 -602 -6708 0
-6709 602 0
-6709 6708 0
6710 -1010 -1990 0
-6710 1010 0
-6710 1990 0
6711 -613 -6708 0
-6711 613 0
-6711 6708 0
6712 -299 -108 0
-6712 299 0
-6712 108 0
-6713 337 507 343 1993 1876 6712 326 328 1880 0
6713 -337 0
6713 -507 0
6713 -343 0
6713 -1993 0
6713 -1876 0
6713 -6712 0
6713 -326 0
6713 -328 0
6713 -1880 0
6714 -339 -6713 0
-6714 339 0
-6714 6713 0
-6715 600 6714 953 0
6715 -600 0
6715 -6714 0
6715 -953 0
6716 -609 -6715 0
-6716 609 0
-6716 6715 0
-6717 121 6716 6320 300 0
6717 -121 0
6717 -6716 0
6717 -6320 0
6717 -300 0
6718 -127 -6717 0
-6718 127 0
-6718 6717 0
-6719 22 6711 6316 90 6718 91 0
6719 -22 0
6719 -6711 0
6719 -6316 0
6719 -90 0
6719 -6718 0
6719 -91 0
6720 -26 -6719 0
-6720 26 0
-6720 6719 0
6721 -624 -6708 0
-6721 624 0
-6721 6708 0
-6722 34 6720 6326 6721 306 0
6722 -34 0
6722 -6720 0
6722 -6326 0
6722 -6721 0
6722 -306 0
6723 -2737 -6722 0
-6723 2737 0
-6723 6722 0
-6724 3101 6709 6710 6723 3198 3240 0
6724 -3101 0
6724 -6709 0
6724 -6710 0
6724 -6723 0
6724 -3198 0
6724 -3240 0
6725 -3109 -6724 0
-6725 3109 0
-6725 6724 0
-6726 34 6326 6721 306 0
6726 -34 0
6726 -6326 0
6726 -6721 0
6726 -306 0
6727 -2737 -6726 0
-6727 2737 0
-6727 6726 0
-6728 3101 6709 6710 6727 3198 3240 0
6728 -3101 0
6728 -6709 0
6728 -6710 0
6728 -6727 0
6728 -3198 0
6728 -3240 0
6729 -3111 -6728 0
-6729 3111 0
-6729 6728 0
6730 -3851 -4381 0
-6730 3851 0
-6730 4381 0
-6731 216 6730 1980 1981 0
6731 -216 0
6731 -6730 0
6731 -1980 0
6731 -1981 0
6732 -218 -6731 0
-6732 218 0
-6732 6731 0
6733 -4350 -4381 0
-6733 4350 0
-6733 4381 0
-6734 333 6733 1987 0
6734 -333 0
6734 -6733 0
6734 -1987 0
6735 -335 -6734 0
-6735 335 0
-6735 6734 0
-6736 337 1976 507 343 6732 1984 1985 326 328 6735 0
6736 -337 0
6736 -1976 0
6736 -507 0
6736 -343 0
6736 -6732 0
6736 -1984 0
6736 -1985 0
6736 -326 0
6736 -328 0
6736 -6735 0
6737 -339 -6736 0
-6737 339 0
-6737 6736 0
-6738 600 6737 953 0
6738 -600 0
6738 -6737 0
6738 -953 0
6739 -613 -6738 0
-6739 613 0
-6739 6738 0
-6740 337 1976 507 1979 6732 1984 1985 326 1986 6735 0
6740 -337 0
6740 -1976 0
6740 -507 0
6740 -1979 0
6740 -6732 0
6740 -1984 0
6740 -1985 0
6740 -326 0
6740 -1986 0
6740 -6735 0
6741 -358 -6740 0
-6741 358 0
-6741 6740 0
-6742 216 6730 1981 0
6742 -216 0
6742 -6730 0
6742 -1981 0
6743 -218 -6742 0
-6743 218 0
-6743 6742 0
-6744 333 6733 1878 0
6744 -333 0
6744 -6733 0
6744 -1878 0
6745 -335 -6744 0
-6745 335 0
-6745 6744 0
-6746 337 507 343 6743 1876 6712 326 328 6745 0
6746 -337 0
6746 -507 0
6746 -343 0
6746 -6743 0
6746 -1876 0
6746 -6712 0
6746 -326 0
6746 -328 0
6746 -6745 0
6747 -339 -6746 0
-6747 339 0
-6747 6746 0
-6748 600 6747 953 0
6748 -600 0
6748 -6747 0
6748 -953 0
6749 -609 -6748 0
-6749 609 0
-6749 6748 0
-6750 333 6733 527 0
6750 -333 0
6750 -6733 0
6750 -527 0
6751 -335 -6750 0
-6751 335 0
-6751 6750 0
-6752 337 507 1979 6732 521 2663 326 1986 6751 0
6752 -337 0
6752 -507 0
6752 -1979 0
6752 -6732 0
6752 -521 0
6752 -2663 0
6752 -326 0
6752 -1986 0
6752 -6751 0
6753 -375 -6752 0
-6753 375 0
-6753 6752 0
-6754 47 6753 0
6754 -47 0
6754 -6753 0
6755 -84 -6754 0
-6755 84 0
-6755 6754 0
-6756 121 6749 6755 300 0
6756 -121 0
6756 -6749 0
6756 -6755 0
6756 -300 0
6757 -127 -6756 0
-6757 127 0
-6757 6756 0
-6758 22 6729 6739 6741 90 6757 91 0
6758 -22 0
6758 -6729 0
6758 -6739 0
6758 -6741 0
6758 -90 0
6758 -6757 0
6758 -91 0
6759 -24 -6758 0
-6759 24 0
-6759 6758 0
6760 -3851 -4289 0
-6760 3851 0
-6760 4289 0
-6761 216 6760 1980 1981 0
6761 -216 0
6761 -6760 0
6761 -1980 0
6761 -1981 0
6762 -218 -6761 0
-6762 218 0
-6762 6761 0
6763 -4350 -4289 0
-6763 4350 0
-6763 4289 0
-6764 333 6763 1987 0
6764 -333 0
6764 -6763 0
6764 -1987 0
6765 -335 -6764 0
-6765 335 0
-6765 6764 0
-6766 337 1976 507 1979 6762 1984 1985 326 1986 6765 0
6766 -337 0
6766 -1976 0
6766 -507 0
6766 -1979 0
6766 -6762 0
6766 -1984 0
6766 -1985 0
6766 -326 0
6766 -1986 0
6766 -6765 0
6767 -383 -6766 0
-6767 383 0
-6767 6766 0
-6768 3101 6709 6710 3198 3240 0
6768 -3101 0
6768 -6709 0
6768 -6710 0
6768 -3198 0
6768 -3240 0
6769 -3111 -6768 0
-6769 3111 0
-6769 6768 0
6770 -3851 -4294 0
-6770 3851 0
-6770 4294 0
-6771 216 6770 1980 1981 0
6771 -216 0
6771 -6770 0
6771 -1980 0
6771 -1981 0
6772 -218 -6771 0
-6772 218 0
-6772 6771 0
6773 -4350 -4294 0
-6773 4350 0
-6773 4294 0
-6774 333 6773 1987 0
6774 -333 0
6774 -6773 0
6774 -1987 0
6775 -335 -6774 0
-6775 335 0
-6775 6774 0
-6776 337 1976 507 343 6772 1984 1985 326 328 6775 0
6776 -337 0
6776 -1976 0
6776 -507 0
6776 -343 0
6776 -6772 0
6776 -1984 0
6776 -1985 0
6776 -326 0
6776 -328 0
6776 -6775 0
6777 -339 -6776 0
-6777 339 0
-6777 6776 0
-6778 600 6777 953 0
6778 -600 0
6778 -6777 0
6778 -953 0
6779 -613 -6778 0
-6779 613 0
-6779 6778 0
-6780 337 1976 507 1979 6772 1984 1985 326 1986 6775 0
6780 -337 0
6780 -1976 0
6780 -507 0
6780 -1979 0
6780 -6772 0
6780 -1984 0
6780 -1985 0
6780 -326 0
6780 -1986 0
6780 -6775 0
6781 -358 -6780 0
-6781 358 0
-6781 6780 0
-6782 216 6770 1981 0
6782 -216 0
6782 -6770 0
6782 -1981 0
6783 -218 -6782 0
-6783 218 0
-6783 6782 0
-6784 333 6773 1878 0
6784 -333 0
6784 -6773 0
6784 -1878 0
6785 -335 -6784 0
-6785 335 0
-6785 6784 0
-6786 337 507 343 6783 1876 6712 326 328 6785 0
6786 -337 0
6786 -507 0
6786 -343 0
6786 -6783 0
6786 -1876 0
6786 -6712 0
6786 -326 0
6786 -328 0
6786 -6785 0
6787 -339 -6786 0
-6787 339 0
-6787 6786 0
-6788 600 6787 953 0
6788 -600 0
6788 -6787 0
6788 -953 0
6789 -609 -6788 0
-6789 609 0
-6789 6788 0
-6790 333 6773 527 0
6790 -333 0
6790 -6773 0
6790 -527 0
6791 -335 -6790 0
-6791 335 0
-6791 6790 0
-6792 337 507 1979 6772 521 2663 326 1986 6791 0
6792 -337 0
6792 -507 0
6792 -1979 0
6792 -6772 0
6792 -521 0
6792 -2663 0
6792 -326 0
6792 -1986 0
6792 -6791 0
6793 -375 -6792 0
-6793 375 0
-6793 6792 0
-6794 47 6793 0
6794 -47 0
6794 -6793 0
6795 -84 -6794 0
-6795 84 0
-6795 6794 0
-6796 121 6789 6795 300 0
6796 -121 0
6796 -6789 0
6796 -6795 0
6796 -300 0
6797 -127 -6796 0
-6797 127 0
-6797 6796 0
-6798 22 6769 6779 6781 90 6797 91 0
6798 -22 0
6798 -6769 0
6798 -6779 0
6798 -6781 0
6798 -90 0
6798 -6797 0
6798 -91 0
6799 -26 -6798 0
-6799 26 0
-6799 6798 0
6800 -386 -6780 0
-6800 386 0
-6800 6780 0
6801 -624 -6778 0
-6801 624 0
-6801 6778 0
-6802 34 6799 6800 6801 306 0
6802 -34 0
6802 -6799 0
6802 -6800 0
6802 -6801 0
6802 -306 0
6803 -36 -6802 0
-6803 36 0
-6803 6802 0
-6804 34 94 306 0
6804 -34 0
6804 -94 0
6804 -306 0
6805 -2737 -6804 0
-6805 2737 0
-6805 6804 0
-6806 3101 6805 3198 3240 0
6806 -3101 0
6806 -6805 0
6806 -3198 0
6806 -3240 0
6807 -3851 -6806 0
-6807 3851 0
-6807 6806 0
-6808 216 6807 1981 0
6808 -216 0
6808 -6807 0
6808 -1981 0
6809 -218 -6808 0
-6809 218 0
-6809 6808 0
6810 -4350 -6806 0
-6810 4350 0
-6810 6806 0
-6811 333 6810 0
6811 -333 0
6811 -6810 0
6812 -335 -6811 0
-6812 335 0
-6812 6811 0
-6813 337 507 343 6809 389 326 328 6812 0
6813 -337 0
6813 -507 0
6813 -343 0
6813 -6809 0
6813 -389 0
6813 -326 0
6813 -328 0
6813 -6812 0
6814 -339 -6813 0
-6814 339 0
-6814 6813 0
-6815 600 6814 953 0
6815 -600 0
6815 -6814 0
6815 -953 0
6816 -609 -6815 0
-6816 609 0
-6816 6815 0
-6817 22 955 90 91 0
6817 -22 0
6817 -955 0
6817 -90 0
6817 -91 0
6818 -26 -6817 0
-6818 26 0
-6818 6817 0
-6819 34 6818 962 306 0
6819 -34 0
6819 -6818 0
6819 -962 0
6819 -306 0
6820 -2737 -6819 0
-6820 2737 0
-6820 6819 0
-6821 3101 4287 6820 3198 3240 0
6821 -3101 0
6821 -4287 0
6821 -6820 0
6821 -3198 0
6821 -3240 0
6822 -3851 -6821 0
-6822 3851 0
-6822 6821 0
-6823 216 6822 1981 0
6823 -216 0
6823 -6822 0
6823 -1981 0
6824 -218 -6823 0
-6824 218 0
-6824 6823 0
6825 -4350 -6821 0
-6825 4350 0
-6825 6821 0
-6826 333 6825 0
6826 -333 0
6826 -6825 0
6827 -335 -6826 0
-6827 335 0
-6827 6826 0
-6828 337 507 1979 6824 1999 326 1986 6827 0
6828 -337 0
6828 -507 0
6828 -1979 0
6828 -6824 0
6828 -1999 0
6828 -326 0
6828 -1986 0
6828 -6827 0
6829 -375 -6828 0
-6829 375 0
-6829 6828 0
-6830 47 6829 0
6830 -47 0
6830 -6829 0
6831 -84 -6830 0
-6831 84 0
-6831 6830 0
-6832 121 6816 6831 300 0
6832 -121 0
6832 -6816 0
6832 -6831 0
6832 -300 0
6833 -134 -6832 0
-6833 134 0
-6833 6832 0
-6834 40 6833 97 0
6834 -40 0
6834 -6833 0
6834 -97 0
6835 -42 -6834 0
-6835 42 0
-6835 6834 0
-6836 333 6763 0
6836 -333 0
6836 -6763 0
6837 -335 -6836 0
-6837 335 0
-6837 6836 0
-6838 337 1976 507 1979 6762 1999 326 1986 6837 0
6838 -337 0
6838 -1976 0
6838 -507 0
6838 -1979 0
6838 -6762 0
6838 -1999 0
6838 -326 0
6838 -1986 0
6838 -6837 0
6839 -375 -6838 0
-6839 375 0
-6839 6838 0
-6840 47 6839 0
6840 -47 0
6840 -6839 0
6841 -46 -6840 0
-6841 46 0
-6841 6840 0
6842 -401 -6838 0
-6842 401 0
-6842 6838 0
-6843 50 6842 0
6843 -50 0
6843 -6842 0
6844 -49 -6843 0
-6844 49 0
-6844 6843 0
-6845 52 6841 6844 0
6845 -52 0
6845 -6841 0
6845 -6844 0
6846 -54 -6845 0
-6846 54 0
-6846 6845 0
-6847 56 100 6846 0
6847 -56 0
6847 -100 0
6847 -6846 0
6848 -58 -6847 0
-6848 58 0
-6848 6847 0
-6849 60 6835 6848 0
6849 -60 0
6849 -6835 0
6849 -6848 0
6850 -62 -6849 0
-6850 62 0
-6850 6849 0
-6851 337 1976 507 1979 6762 1984 326 1986 6765 0
6851 -337 0
6851 -1976 0
6851 -507 0
6851 -1979 0
6851 -6762 0
6851 -1984 0
6851 -326 0
6851 -1986 0
6851 -6765 0
6852 -412 -6851 0
-6852 412 0
-6852 6851 0
6853 -3851 -4630 0
-6853 3851 0
-6853 4630 0
-6854 216 6853 1980 1981 0
6854 -216 0
6854 -6853 0
6854 -1980 0
6854 -1981 0
6855 -218 -6854 0
-6855 218 0
-6855 6854 0
6856 -4350 -4630 0
-6856 4350 0
-6856 4630 0
-6857 333 6856 1987 0
6857 -333 0
6857 -6856 0
6857 -1987 0
6858 -335 -6857 0
-6858 335 0
-6858 6857 0
-6859 337 1976 507 343 6855 1984 326 328 6858 0
6859 -337 0
6859 -1976 0
6859 -507 0
6859 -343 0
6859 -6855 0
6859 -1984 0
6859 -326 0
6859 -328 0
6859 -6858 0
6860 -339 -6859 0
-6860 339 0
-6860 6859 0
-6861 600 6860 953 0
6861 -600 0
6861 -6860 0
6861 -953 0
6862 -635 -6861 0
-6862 635 0
-6862 6861 0
-6863 65 6852 6862 0
6863 -65 0
6863 -6852 0
6863 -6862 0
6864 -64 -6863 0
-6864 64 0
-6864 6863 0
6865 -416 -6851 0
-6865 416 0
-6865 6851 0
-6866 337 507 343 6809 326 328 6812 0
6866 -337 0
6866 -507 0
6866 -343 0
6866 -6809 0
6866 -326 0
6866 -328 0
6866 -6812 0
6867 -339 -6866 0
-6867 339 0
-6867 6866 0
-6868 600 6867 953 0
6868 -600 0
6868 -6867 0
6868 -953 0
6869 -609 -6868 0
-6869 609 0
-6869 6868 0
-6870 337 507 1979 6824 326 1986 6827 0
6870 -337 0
6870 -507 0
6870 -1979 0
6870 -6824 0
6870 -326 0
6870 -1986 0
6870 -6827 0
6871 -375 -6870 0
-6871 375 0
-6871 6870 0
-6872 47 6871 0
6872 -47 0
6872 -6871 0
6873 -84 -6872 0
-6873 84 0
-6873 6872 0
-6874 121 6869 6873 300 0
6874 -121 0
6874 -6869 0
6874 -6873 0
6874 -300 0
6875 -134 -6874 0
-6875 134 0
-6875 6874 0
-6876 40 6875 97 0
6876 -40 0
6876 -6875 0
6876 -97 0
6877 -42 -6876 0
-6877 42 0
-6877 6876 0
-6878 337 1976 507 1979 6762 326 1986 6837 0
6878 -337 0
6878 -1976 0
6878 -507 0
6878 -1979 0
6878 -6762 0
6878 -326 0
6878 -1986 0
6878 -6837 0
6879 -375 -6878 0
-6879 375 0
-6879 6878 0
-6880 47 6879 0
6880 -47 0
6880 -6879 0
6881 -46 -6880 0
-6881 46 0
-6881 6880 0
6882 -401 -6878 0
-6882 401 0
-6882 6878 0
-6883 50 6882 0
6883 -50 0
6883 -6882 0
6884 -49 -6883 0
-6884 49 0
-6884 6883 0
-6885 52 6881 6884 0
6885 -52 0
6885 -6881 0
6885 -6884 0
6886 -54 -6885 0
-6886 54 0
-6886 6885 0
-6887 56 100 6886 0
6887 -56 0
6887 -100 0
6887 -6886 0
6888 -58 -6887 0
-6888 58 0
-6888 6887 0
-6889 60 6877 6888 0
6889 -60 0
6889 -6877 0
6889 -6888 0
6890 -67 -6889 0
-6890 67 0
-6890 6889 0
-6891 69 6865 6890 0
6891 -69 0
6891 -6865 0
6891 -6890 0
6892 -71 -6891 0
-6892 71 0
-6892 6891 0
-6893 73 6864 6892 0
6893 -73 0
6893 -6864 0
6893 -6892 0
6894 -75 -6893 0
-6894 75 0
-6894 6893 0
-6895 337 1976 507 343 6855 1984 1985 326 328 6858 0
6895 -337 0
6895 -1976 0
6895 -507 0
6895 -343 0
6895 -6855 0
6895 -1984 0
6895 -1985 0
6895 -326 0
6895 -328 0
6895 -6858 0
6896 -339 -6895 0
-6896 339 0
-6896 6895 0
-6897 600 6896 953 0
6897 -600 0
6897 -6896 0
6897 -953 0
6898 -641 -6897 0
-6898 641 0
-6898 6897 0
-6899 78 6898 0
6899 -78 0
6899 -6898 0
6900 -77 -6899 0
-6900 77 0
-6900 6899 0
-6901 80 6725 6759 6767 6803 6850 6894 6900 0
6901 -80 0
6901 -6725 0
6901 -6759 0
6901 -6767 0
6901 -6803 0
6901 -6850 0
6901 -6894 0
6901 -6900 0
6902 -112 -6901 0
-6902 112 0
-6902 6901 0
-6903 3 6902 0
6903 -3 0
6903 -6902 0
6904 -12 -6903 0
-6904 12 0
-6904 6903 0
-6905 14 6347 6706 8 6904 0
6905 -14 0
6905 -6347 0
6905 -6706 0
6905 -8 0
6905 -6904 0
6906 -6907 -6905 0
-6906 6907 0
-6906 6905 0
-6908 56 43 0
6908 -56 0
6908 -43 0
6909 -58 -6908 0
-6909 58 0
-6909 6908 0
-6910 60 136 6909 0
6910 -60 0
6910 -136 0
6910 -6909 0
6911 -259 -6910 0
-6911 259 0
-6911 6910 0
6912 -67 -6910 0
-6912 67 0
-6912 6910 0
-6913 69 6912 0
6913 -69 0
6913 -6912 0
6914 -71 -6913 0
-6914 71 0
-6914 6913 0
-6915 73 63 6914 0
6915 -73 0
6915 -63 0
6915 -6914 0
6916 -299 -6915 0
-6916 299 0
-6916 6915 0
6917 -331 -6910 0
-6917 331 0
-6917 6910 0
-6918 333 6917 0
6918 -333 0
6918 -6917 0
6919 -335 -6918 0
-6919 335 0
-6919 6918 0
-6920 337 340 341 343 349 6911 6916 352 326 328 6919 0
6920 -337 0
6920 -340 0
6920 -341 0
6920 -343 0
6920 -349 0
6920 -6911 0
6920 -6916 0
6920 -352 0
6920 -326 0
6920 -328 0
6920 -6919 0
6921 -339 -6920 0
-6921 339 0
-6921 6920 0
-6922 600 6921 610 0
6922 -600 0
6922 -6921 0
6922 -610 0
6923 -602 -6922 0
-6923 602 0
-6923 6922 0
-6924 60 701 6909 0
6924 -60 0
6924 -701 0
6924 -6909 0
6925 -259 -6924 0
-6925 259 0
-6925 6924 0
6926 -67 -6924 0
-6926 67 0
-6926 6924 0
-6927 69 6926 0
6927 -69 0
6927 -6926 0
6928 -71 -6927 0
-6928 71 0
-6928 6927 0
-6929 73 637 6928 0
6929 -73 0
6929 -637 0
6929 -6928 0
6930 -299 -6929 0
-6930 299 0
-6930 6929 0
6931 -325 -3380 0
-6931 325 0
-6931 3380 0
6932 -331 -6924 0
-6932 331 0
-6932 6924 0
-6933 333 6932 0
6933 -333 0
6933 -6932 0
6934 -335 -6933 0
-6934 335 0
-6934 6933 0
-6935 337 1328 341 1331 1339 6925 6930 6931 326 1343 6934 0
6935 -337 0
6935 -1328 0
6935 -341 0
6935 -1331 0
6935 -1339 0
6935 -6925 0
6935 -6930 0
6935 -6931 0
6935 -326 0
6935 -1343 0
6935 -6934 0
6936 -1010 -6935 0
-6936 1010 0
-6936 6935 0
6937 -613 -6922 0
-6937 613 0
-6937 6922 0
6938 -358 -6935 0
-6938 358 0
-6938 6935 0
6939 -609 -6922 0
-6939 609 0
-6939 6922 0
-6940 60 41 6909 0
6940 -60 0
6940 -41 0
6940 -6909 0
6941 -259 -6940 0
-6941 259 0
-6941 6940 0
6942 -67 -6940 0
-6942 67 0
-6942 6940 0
-6943 69 6942 0
6943 -69 0
6943 -6942 0
6944 -71 -6943 0
-6944 71 0
-6944 6943 0
-6945 73 637 6944 0
6945 -73 0
6945 -637 0
6945 -6944 0
6946 -299 -6945 0
-6946 299 0
-6946 6945 0
6947 -331 -6940 0
-6947 331 0
-6947 6940 0
-6948 333 6947 0
6948 -333 0
6948 -6947 0
6949 -335 -6948 0
-6949 335 0
-6949 6948 0
-6950 337 341 1331 1353 6941 6946 6931 326 1343 6949 0
6950 -337 0
6950 -341 0
6950 -1331 0
6950 -1353 0
6950 -6941 0
6950 -6946 0
6950 -6931 0
6950 -326 0
6950 -1343 0
6950 -6949 0
6951 -375 -6950 0
-6951 375 0
-6951 6950 0
-6952 47 6951 0
6952 -47 0
6952 -6951 0
6953 -84 -6952 0
-6953 84 0
-6953 6952 0
-6954 73 63 6944 0
6954 -73 0
6954 -63 0
6954 -6944 0
6955 -299 -6954 0
-6955 299 0
-6955 6954 0
-6956 337 506 341 343 1361 6941 6955 352 326 328 6949 0
6956 -337 0
6956 -506 0
6956 -341 0
6956 -343 0
6956 -1361 0
6956 -6941 0
6956 -6955 0
6956 -352 0
6956 -326 0
6956 -328 0
6956 -6949 0
6957 -339 -6956 0
-6957 339 0
-6957 6956 0
-6958 600 6957 625 0
6958 -600 0
6958 -6957 0
6958 -625 0
6959 -615 -6958 0
-6959 615 0
-6959 6958 0
-6960 14 6959 8 11 0
6960 -14 0
6960 -6959 0
6960 -8 0
6960 -11 0
6961 -28 -6960 0
-6961 28 0
-6961 6960 0
-6962 30 6961 0
6962 -30 0
6962 -6961 0
6963 -119 -6962 0
-6963 119 0
-6963 6962 0
-6964 121 6939 6953 6963 0
6964 -121 0
6964 -6939 0
6964 -6953 0
6964 -6963 0
6965 -127 -6964 0
-6965 127 0
-6965 6964 0
6966 -615 -6922 0
-6966 615 0
-6966 6922 0
-6967 14 6966 8 11 0
6967 -14 0
6967 -6966 0
6967 -8 0
6967 -11 0
6968 -16 -6967 0
-6968 16 0
-6968 6967 0
-6969 18 6968 0
6969 -18 0
6969 -6968 0
6970 -20 -6969 0
-6970 20 0
-6970 6969 0
-6971 22 6937 6938 6 6965 6970 0
6971 -22 0
6971 -6937 0
6971 -6938 0
6971 -6 0
6971 -6965 0
6971 -6970 0
6972 -26 -6971 0
-6972 26 0
-6972 6971 0
6973 -386 -6935 0
-6973 386 0
-6973 6935 0
6974 -624 -6922 0
-6974 624 0
-6974 6922 0
-6975 60 2516 6909 0
6975 -60 0
6975 -2516 0
6975 -6909 0
6976 -259 -6975 0
-6976 259 0
-6976 6975 0
6977 -67 -6975 0
-6977 67 0
-6977 6975 0
-6978 69 6977 0
6978 -69 0
6978 -6977 0
6979 -71 -6978 0
-6979 71 0
-6979 6978 0
-6980 73 63 6979 0
6980 -73 0
6980 -63 0
6980 -6979 0
6981 -299 -6980 0
-6981 299 0
-6981 6980 0
6982 -331 -6975 0
-6982 331 0
-6982 6975 0
-6983 333 6982 0
6983 -333 0
6983 -6982 0
6984 -335 -6983 0
-6984 335 0
-6984 6983 0
-6985 337 506 341 343 1361 6976 6981 352 326 328 6984 0
6985 -337 0
6985 -506 0
6985 -341 0
6985 -343 0
6985 -1361 0
6985 -6976 0
6985 -6981 0
6985 -352 0
6985 -326 0
6985 -328 0
6985 -6984 0
6986 -339 -6985 0
-6986 339 0
-6986 6985 0
-6987 600 6986 625 0
6987 -600 0
6987 -6986 0
6987 -625 0
6988 -615 -6987 0
-6988 615 0
-6988 6987 0
-6989 14 6988 8 11 0
6989 -14 0
6989 -6988 0
6989 -8 0
6989 -11 0
6990 -28 -6989 0
-6990 28 0
-6990 6989 0
-6991 30 6990 0
6991 -30 0
6991 -6990 0
6992 -32 -6991 0
-6992 32 0
-6992 6991 0
-6993 34 6972 6973 6974 6992 0
6993 -34 0
6993 -6972 0
6993 -6973 0
6993 -6974 0
6993 -6992 0
6994 -2737 -6993 0
-6994 2737 0
-6994 6993 0
-6995 600 6986 0
6995 -600 0
6995 -6986 0
6996 -615 -6995 0
-6996 615 0
-6996 6995 0
-6997 14 6996 8 11 0
6997 -14 0
6997 -6996 0
6997 -8 0
6997 -11 0
6998 -28 -6997 0
-6998 28 0
-6998 6997 0
-6999 30 6998 0
6999 -30 0
6999 -6998 0
7000 -210 -6999 0
-7000 210 0
-7000 6999 0
-7001 212 7000 0
7001 -212 0
7001 -7000 0
7002 -3099 -7001 0
-7002 3099 0
-7002 7001 0
-7003 3101 6923 6936 6994 3105 7002 0
7003 -3101 0
7003 -6923 0
7003 -6936 0
7003 -6994 0
7003 -3105 0
7003 -7002 0
7004 -3109 -7003 0
-7004 3109 0
-7004 7003 0
-7005 34 6973 6974 6992 0
7005 -34 0
7005 -6973 0
7005 -6974 0
7005 -6992 0
7006 -2737 -7005 0
-7006 2737 0
-7006 7005 0
-7007 3101 6923 6936 7006 3105 7002 0
7007 -3101 0
7007 -6923 0
7007 -6936 0
7007 -7006 0
7007 -3105 0
7007 -7002 0
7008 -3111 -7007 0
-7008 3111 0
-7008 7007 0
-7009 60 4682 6909 0
7009 -60 0
7009 -4682 0
7009 -6909 0
7010 -259 -7009 0
-7010 259 0
-7010 7009 0
7011 -67 -7009 0
-7011 67 0
-7011 7009 0
-7012 69 7011 0
7012 -69 0
7012 -7011 0
7013 -71 -7012 0
-7013 71 0
-7013 7012 0
-7014 73 63 7013 0
7014 -73 0
7014 -63 0
7014 -7013 0
7015 -299 -7014 0
-7015 299 0
-7015 7014 0
7016 -331 -7009 0
-7016 331 0
-7016 7009 0
-7017 333 4691 7016 0
7017 -333 0
7017 -4691 0
7017 -7016 0
7018 -335 -7017 0
-7018 335 0
-7018 7017 0
-7019 337 4674 341 343 4679 7010 7015 4690 326 328 7018 0
7019 -337 0
7019 -4674 0
7019 -341 0
7019 -343 0
7019 -4679 0
7019 -7010 0
7019 -7015 0
7019 -4690 0
7019 -326 0
7019 -328 0
7019 -7018 0
7020 -339 -7019 0
-7020 339 0
-7020 7019 0
7021 -1010 -6985 0
-7021 1010 0
-7021 6985 0
7022 -386 -6985 0
-7022 386 0
-7022 6985 0
-7023 34 7022 0
7023 -34 0
7023 -7022 0
7024 -2737 -7023 0
-7024 2737 0
-7024 7023 0
-7025 3101 7021 7024 3105 3132 0
7025 -3101 0
7025 -7021 0
7025 -7024 0
7025 -3105 0
7025 -3132 0
7026 -3116 -7025 0
-7026 3116 0
-7026 7025 0
-7027 14 7026 8 11 0
7027 -14 0
7027 -7026 0
7027 -8 0
7027 -11 0
7028 -28 -7027 0
-7028 28 0
-7028 7027 0
-7029 30 7028 0
7029 -30 0
7029 -7028 0
7030 -210 -7029 0
-7030 210 0
-7030 7029 0
-7031 212 7030 0
7031 -212 0
7031 -7030 0
7032 -598 -7031 0
-7032 598 0
-7032 7031 0
-7033 600 7020 7032 0
7033 -600 0
7033 -7020 0
7033 -7032 0
7034 -613 -7033 0
-7034 613 0
-7034 7033 0
7035 -123 -3394 0
-7035 123 0
-7035 3394 0
7036 -730 -3236 0
-7036 730 0
-7036 3236 0
-7037 176 7036 171 173 0
7037 -176 0
7037 -7036 0
7037 -171 0
7037 -173 0
7038 -178 -7037 0
-7038 178 0
-7038 7037 0
7039 -3851 -3229 0
-7039 3851 0
-7039 3229 0
7040 -180 -3394 0
-7040 180 0
-7040 3394 0
7041 -28 -3889 0
-7041 28 0
-7041 3889 0
-7042 30 7041 0
7042 -30 0
7042 -7041 0
7043 -210 -7042 0
-7043 210 0
-7043 7042 0
-7044 212 7043 0
7044 -212 0
7044 -7043 0
7045 -214 -7044 0
-7045 214 0
-7045 7044 0
-7046 216 7039 7040 7045 0
7046 -216 0
7046 -7039 0
7046 -7040 0
7046 -7045 0
7047 -218 -7046 0
-7047 218 0
-7047 7046 0
7048 -134 -3394 0
-7048 134 0
-7048 3394 0
-7049 40 7048 37 0
7049 -40 0
7049 -7048 0
7049 -37 0
7050 -42 -7049 0
-7050 42 0
-7050 7049 0
-7051 60 7050 6909 0
7051 -60 0
7051 -7050 0
7051 -6909 0
7052 -259 -7051 0
-7052 259 0
-7052 7051 0
7053 -635 -3236 0
-7053 635 0
-7053 3236 0
-7054 65 7053 0
7054 -65 0
7054 -7053 0
7055 -64 -7054 0
-7055 64 0
-7055 7054 0
7056 -67 -7051 0
-7056 67 0
-7056 7051 0
-7057 69 7056 0
7057 -69 0
7057 -7056 0
7058 -71 -7057 0
-7058 71 0
-7058 7057 0
-7059 73 7055 7058 0
7059 -73 0
7059 -7055 0
7059 -7058 0
7060 -299 -7059 0
-7060 299 0
-7060 7059 0
7061 -641 -3236 0
-7061 641 0
-7061 3236 0
-7062 78 7061 0
7062 -78 0
7062 -7061 0
7063 -329 -7062 0
-7063 329 0
-7063 7062 0
7064 -4350 -3229 0
-7064 4350 0
-7064 3229 0
7065 -331 -7051 0
-7065 331 0
-7065 7051 0
-7066 333 7064 7065 0
7066 -333 0
7066 -7064 0
7066 -7065 0
7067 -335 -7066 0
-7067 335 0
-7067 7066 0
-7068 337 7035 341 7038 7047 7052 7060 4690 326 7063 7067 0
7068 -337 0
7068 -7035 0
7068 -341 0
7068 -7038 0
7068 -7047 0
7068 -7052 0
7068 -7060 0
7068 -4690 0
7068 -326 0
7068 -7063 0
7068 -7067 0
7069 -358 -7068 0
-7069 358 0
-7069 7068 0
-7070 333 4700 6947 0
7070 -333 0
7070 -4700 0
7070 -6947 0
7071 -335 -7070 0
-7071 335 0
-7071 7070 0
-7072 337 341 343 4699 6941 6955 4690 326 328 7071 0
7072 -337 0
7072 -341 0
7072 -343 0
7072 -4699 0
7072 -6941 0
7072 -6955 0
7072 -4690 0
7072 -326 0
7072 -328 0
7072 -7071 0
7073 -339 -7072 0
-7073 339 0
-7073 7072 0
7074 -1010 -6956 0
-7074 1010 0
-7074 6956 0
7075 -386 -6956 0
-7075 386 0
-7075 6956 0
-7076 34 7075 0
7076 -34 0
7076 -7075 0
7077 -2737 -7076 0
-7077 2737 0
-7077 7076 0
-7078 3101 7074 7077 3105 3132 0
7078 -3101 0
7078 -7074 0
7078 -7077 0
7078 -3105 0
7078 -3132 0
7079 -3116 -7078 0
-7079 3116 0
-7079 7078 0
-7080 14 7079 8 11 0
7080 -14 0
7080 -7079 0
7080 -8 0
7080 -11 0
7081 -28 -7080 0
-7081 28 0
-7081 7080 0
-7082 30 7081 0
7082 -30 0
7082 -7081 0
7083 -210 -7082 0
-7083 210 0
-7083 7082 0
-7084 212 7083 0
7084 -212 0
7084 -7083 0
7085 -598 -7084 0
-7085 598 0
-7085 7084 0
-7086 600 7073 7085 0
7086 -600 0
7086 -7073 0
7086 -7085 0
7087 -609 -7086 0
-7087 609 0
-7087 7086 0
-7088 216 7039 7045 0
7088 -216 0
7088 -7039 0
7088 -7045 0
7089 -218 -7088 0
-7089 218 0
-7089 7088 0
-7090 73 7055 6944 0
7090 -73 0
7090 -7055 0
7090 -6944 0
7091 -299 -7090 0
-7091 299 0
-7091 7090 0
-7092 333 7064 6947 0
7092 -333 0
7092 -7064 0
7092 -6947 0
7093 -335 -7092 0
-7093 335 0
-7093 7092 0
-7094 337 341 7038 7089 6941 7091 4690 326 7063 7093 0
7094 -337 0
7094 -341 0
7094 -7038 0
7094 -7089 0
7094 -6941 0
7094 -7091 0
7094 -4690 0
7094 -326 0
7094 -7063 0
7094 -7093 0
7095 -375 -7094 0
-7095 375 0
-7095 7094 0
-7096 47 7095 0
7096 -47 0
7096 -7095 0
7097 -84 -7096 0
-7097 84 0
-7097 7096 0
7098 -602 -6958 0
-7098 602 0
-7098 6958 0
-7099 73 674 6944 0
7099 -73 0
7099 -674 0
7099 -6944 0
7100 -299 -7099 0
-7100 299 0
-7100 7099 0
-7101 337 341 1875 1779 6941 7100 326 1782 6949 0
7101 -337 0
7101 -341 0
7101 -1875 0
7101 -1779 0
7101 -6941 0
7101 -7100 0
7101 -326 0
7101 -1782 0
7101 -6949 0
7102 -1010 -7101 0
-7102 1010 0
-7102 7101 0
7103 -386 -7101 0
-7103 386 0
-7103 7101 0
7104 -624 -6958 0
-7104 624 0
-7104 6958 0
-7105 34 7103 7104 0
7105 -34 0
7105 -7103 0
7105 -7104 0
7106 -2737 -7105 0
-7106 2737 0
-7106 7105 0
-7107 3101 7098 7102 7106 3105 3132 0
7107 -3101 0
7107 -7098 0
7107 -7102 0
7107 -7106 0
7107 -3105 0
7107 -3132 0
7108 -3116 -7107 0
-7108 3116 0
-7108 7107 0
-7109 216 4914 508 1359 0
7109 -216 0
7109 -4914 0
7109 -508 0
7109 -1359 0
7110 -218 -7109 0
-7110 218 0
-7110 7109 0
-7111 333 4918 6947 0
7111 -333 0
7111 -4918 0
7111 -6947 0
7112 -335 -7111 0
-7112 335 0
-7112 7111 0
-7113 337 506 341 343 7110 6941 6955 326 328 7112 0
7113 -337 0
7113 -506 0
7113 -341 0
7113 -343 0
7113 -7110 0
7113 -6941 0
7113 -6955 0
7113 -326 0
7113 -328 0
7113 -7112 0
7114 -339 -7113 0
-7114 339 0
-7114 7113 0
-7115 600 7114 625 0
7115 -600 0
7115 -7114 0
7115 -625 0
7116 -615 -7115 0
-7116 615 0
-7116 7115 0
-7117 14 7108 7116 8 11 0
7117 -14 0
7117 -7108 0
7117 -7116 0
7117 -8 0
7117 -11 0
7118 -28 -7117 0
-7118 28 0
-7118 7117 0
-7119 30 7118 0
7119 -30 0
7119 -7118 0
7120 -119 -7119 0
-7120 119 0
-7120 7119 0
-7121 121 7087 7097 7120 0
7121 -121 0
7121 -7087 0
7121 -7097 0
7121 -7120 0
7122 -127 -7121 0
-7122 127 0
-7122 7121 0
-7123 60 4191 6909 0
7123 -60 0
7123 -4191 0
7123 -6909 0
7124 -259 -7123 0
-7124 259 0
-7124 7123 0
7125 -67 -7123 0
-7125 67 0
-7125 7123 0
-7126 69 7125 0
7126 -69 0
7126 -7125 0
7127 -71 -7126 0
-7127 71 0
-7127 7126 0
-7128 73 972 7127 0
7128 -73 0
7128 -972 0
7128 -7127 0
7129 -299 -7128 0
-7129 299 0
-7129 7128 0
7130 -331 -7123 0
-7130 331 0
-7130 7123 0
-7131 333 7130 0
7131 -333 0
7131 -7130 0
7132 -335 -7131 0
-7132 335 0
-7132 7131 0
-7133 337 1976 341 1979 1983 7124 7129 326 1986 7132 0
7133 -337 0
7133 -1976 0
7133 -341 0
7133 -1979 0
7133 -1983 0
7133 -7124 0
7133 -7129 0
7133 -326 0
7133 -1986 0
7133 -7132 0
7134 -1010 -7133 0
-7134 1010 0
-7134 7133 0
7135 -386 -7133 0
-7135 386 0
-7135 7133 0
-7136 34 7135 6974 306 0
7136 -34 0
7136 -7135 0
7136 -6974 0
7136 -306 0
7137 -2737 -7136 0
-7137 2737 0
-7137 7136 0
-7138 3101 6923 7134 7137 3105 3240 0
7138 -3101 0
7138 -6923 0
7138 -7134 0
7138 -7137 0
7138 -3105 0
7138 -3240 0
7139 -3116 -7138 0
-7139 3116 0
-7139 7138 0
-7140 333 4691 7130 0
7140 -333 0
7140 -4691 0
7140 -7130 0
7141 -335 -7140 0
-7141 335 0
-7141 7140 0
-7142 337 1976 341 343 6492 7124 7129 326 328 7141 0
7142 -337 0
7142 -1976 0
7142 -341 0
7142 -343 0
7142 -6492 0
7142 -7124 0
7142 -7129 0
7142 -326 0
7142 -328 0
7142 -7141 0
7143 -339 -7142 0
-7143 339 0
-7143 7142 0
-7144 600 7143 953 0
7144 -600 0
7144 -7143 0
7144 -953 0
7145 -615 -7144 0
-7145 615 0
-7145 7144 0
-7146 14 7139 7145 8 11 0
7146 -14 0
7146 -7139 0
7146 -7145 0
7146 -8 0
7146 -11 0
7147 -16 -7146 0
-7147 16 0
-7147 7146 0
-7148 18 7147 0
7148 -18 0
7148 -7147 0
7149 -20 -7148 0
-7149 20 0
-7149 7148 0
-7150 22 7008 7034 7069 6 7122 7149 0
7150 -22 0
7150 -7008 0
7150 -7034 0
7150 -7069 0
7150 -6 0
7150 -7122 0
7150 -7149 0
7151 -24 -7150 0
-7151 24 0
-7151 7150 0
7152 -123 -3667 0
-7152 123 0
-7152 3667 0
7153 -730 -3687 0
-7153 730 0
-7153 3687 0
-7154 176 7153 171 173 0
7154 -176 0
7154 -7153 0
7154 -171 0
7154 -173 0
7155 -178 -7154 0
-7155 178 0
-7155 7154 0
7156 -3851 -3653 0
-7156 3851 0
-7156 3653 0
7157 -180 -3667 0
-7157 180 0
-7157 3667 0
7158 -2737 -4259 0
-7158 2737 0
-7158 4259 0
-7159 3101 3880 7158 3105 3132 0
7159 -3101 0
7159 -3880 0
7159 -7158 0
7159 -3105 0
7159 -3132 0
7160 -3116 -7159 0
-7160 3116 0
-7160 7159 0
-7161 14 7160 757 8 11 0
7161 -14 0
7161 -7160 0
7161 -757 0
7161 -8 0
7161 -11 0
7162 -28 -7161 0
-7162 28 0
-7162 7161 0
-7163 30 7162 0
7163 -30 0
7163 -7162 0
7164 -210 -7163 0
-7164 210 0
-7164 7163 0
-7165 212 7164 0
7165 -212 0
7165 -7164 0
7166 -214 -7165 0
-7166 214 0
-7166 7165 0
-7167 216 7156 7157 7166 0
7167 -216 0
7167 -7156 0
7167 -7157 0
7167 -7166 0
7168 -218 -7167 0
-7168 218 0
-7168 7167 0
-7169 60 3670 6909 0
7169 -60 0
7169 -3670 0
7169 -6909 0
7170 -259 -7169 0
-7170 259 0
-7170 7169 0
7171 -635 -3687 0
-7171 635 0
-7171 3687 0
-7172 65 7171 0
7172 -65 0
7172 -7171 0
7173 -64 -7172 0
-7173 64 0
-7173 7172 0
7174 -67 -7169 0
-7174 67 0
-7174 7169 0
-7175 69 7174 0
7175 -69 0
7175 -7174 0
7176 -71 -7175 0
-7176 71 0
-7176 7175 0
-7177 73 7173 7176 0
7177 -73 0
7177 -7173 0
7177 -7176 0
7178 -299 -7177 0
-7178 299 0
-7178 7177 0
7179 -2737 -5581 0
-7179 2737 0
-7179 5581 0
-7180 3101 4287 7179 3105 3240 0
7180 -3101 0
7180 -4287 0
7180 -7179 0
7180 -3105 0
7180 -3240 0
7181 -3116 -7180 0
-7181 3116 0
-7181 7180 0
-7182 14 7181 3243 8 11 0
7182 -14 0
7182 -7181 0
7182 -3243 0
7182 -8 0
7182 -11 0
7183 -325 -7182 0
-7183 325 0
-7183 7182 0
7184 -329 -3689 0
-7184 329 0
-7184 3689 0
7185 -4350 -3653 0
-7185 4350 0
-7185 3653 0
7186 -331 -7169 0
-7186 331 0
-7186 7169 0
-7187 333 7185 7186 0
7187 -333 0
7187 -7185 0
7187 -7186 0
7188 -335 -7187 0
-7188 335 0
-7188 7187 0
-7189 337 7152 341 7155 7168 7170 7178 7183 326 7184 7188 0
7189 -337 0
7189 -7152 0
7189 -341 0
7189 -7155 0
7189 -7168 0
7189 -7170 0
7189 -7178 0
7189 -7183 0
7189 -326 0
7189 -7184 0
7189 -7188 0
7190 -383 -7189 0
-7190 383 0
-7190 7189 0
-7191 3101 6923 6936 3105 7002 0
7191 -3101 0
7191 -6923 0
7191 -6936 0
7191 -3105 0
7191 -7002 0
7192 -3111 -7191 0
-7192 3111 0
-7192 7191 0
-7193 60 4755 6909 0
7193 -60 0
7193 -4755 0
7193 -6909 0
7194 -259 -7193 0
-7194 259 0
-7194 7193 0
7195 -67 -7193 0
-7195 67 0
-7195 7193 0
-7196 69 7195 0
7196 -69 0
7196 -7195 0
7197 -71 -7196 0
-7197 71 0
-7197 7196 0
-7198 73 63 7197 0
7198 -73 0
7198 -63 0
7198 -7197 0
7199 -299 -7198 0
-7199 299 0
-7199 7198 0
7200 -331 -7193 0
-7200 331 0
-7200 7193 0
-7201 333 4764 7200 0
7201 -333 0
7201 -4764 0
7201 -7200 0
7202 -335 -7201 0
-7202 335 0
-7202 7201 0
-7203 337 4747 341 343 4752 7194 7199 4763 326 328 7202 0
7203 -337 0
7203 -4747 0
7203 -341 0
7203 -343 0
7203 -4752 0
7203 -7194 0
7203 -7199 0
7203 -4763 0
7203 -326 0
7203 -328 0
7203 -7202 0
7204 -339 -7203 0
-7204 339 0
-7204 7203 0
-7205 3101 7021 3105 3132 0
7205 -3101 0
7205 -7021 0
7205 -3105 0
7205 -3132 0
7206 -3116 -7205 0
-7206 3116 0
-7206 7205 0
-7207 14 7206 8 11 0
7207 -14 0
7207 -7206 0
7207 -8 0
7207 -11 0
7208 -28 -7207 0
-7208 28 0
-7208 7207 0
-7209 30 7208 0
7209 -30 0
7209 -7208 0
7210 -210 -7209 0
-7210 210 0
-7210 7209 0
-7211 212 7210 0
7211 -212 0
7211 -7210 0
7212 -598 -7211 0
-7212 598 0
-7212 7211 0
-7213 600 7204 7212 0
7213 -600 0
7213 -7204 0
7213 -7212 0
7214 -613 -7213 0
-7214 613 0
-7214 7213 0
7215 -123 -3400 0
-7215 123 0
-7215 3400 0
7216 -730 -3255 0
-7216 730 0
-7216 3255 0
-7217 176 7216 171 173 0
7217 -176 0
7217 -7216 0
7217 -171 0
7217 -173 0
7218 -178 -7217 0
-7218 178 0
-7218 7217 0
7219 -3851 -3250 0
-7219 3851 0
-7219 3250 0
7220 -180 -3400 0
-7220 180 0
-7220 3400 0
7221 -28 -3898 0
-7221 28 0
-7221 3898 0
-7222 30 7221 0
7222 -30 0
7222 -7221 0
7223 -210 -7222 0
-7223 210 0
-7223 7222 0
-7224 212 7223 0
7224 -212 0
7224 -7223 0
7225 -214 -7224 0
-7225 214 0
-7225 7224 0
-7226 216 7219 7220 7225 0
7226 -216 0
7226 -7219 0
7226 -7220 0
7226 -7225 0
7227 -218 -7226 0
-7227 218 0
-7227 7226 0
7228 -134 -3400 0
-7228 134 0
-7228 3400 0
-7229 40 7228 37 0
7229 -40 0
7229 -7228 0
7229 -37 0
7230 -42 -7229 0
-7230 42 0
-7230 7229 0
-7231 60 7230 6909 0
7231 -60 0
7231 -7230 0
7231 -6909 0
7232 -259 -7231 0
-7232 259 0
-7232 7231 0
7233 -635 -3255 0
-7233 635 0
-7233 3255 0
-7234 65 7233 0
7234 -65 0
7234 -7233 0
7235 -64 -7234 0
-7235 64 0
-7235 7234 0
7236 -67 -7231 0
-7236 67 0
-7236 7231 0
-7237 69 7236 0
7237 -69 0
7237 -7236 0
7238 -71 -7237 0
-7238 71 0
-7238 7237 0
-7239 73 7235 7238 0
7239 -73 0
7239 -7235 0
7239 -7238 0
7240 -299 -7239 0
-7240 299 0
-7240 7239 0
7241 -641 -3255 0
-7241 641 0
-7241 3255 0
-7242 78 7241 0
7242 -78 0
7242 -7241 0
7243 -329 -7242 0
-7243 329 0
-7243 7242 0
7244 -4350 -3250 0
-7244 4350 0
-7244 3250 0
7245 -331 -7231 0
-7245 331 0
-7245 7231 0
-7246 333 7244 7245 0
7246 -333 0
7246 -7244 0
7246 -7245 0
7247 -335 -7246 0
-7247 335 0
-7247 7246 0
-7248 337 7215 341 7218 7227 7232 7240 4763 326 7243 7247 0
7248 -337 0
7248 -7215 0
7248 -341 0
7248 -7218 0
7248 -7227 0
7248 -7232 0
7248 -7240 0
7248 -4763 0
7248 -326 0
7248 -7243 0
7248 -7247 0
7249 -358 -7248 0
-7249 358 0
-7249 7248 0
-7250 333 4764 6947 0
7250 -333 0
7250 -4764 0
7250 -6947 0
7251 -335 -7250 0
-7251 335 0
-7251 7250 0
-7252 337 341 343 4771 6941 6955 4763 326 328 7251 0
7252 -337 0
7252 -341 0
7252 -343 0
7252 -4771 0
7252 -6941 0
7252 -6955 0
7252 -4763 0
7252 -326 0
7252 -328 0
7252 -7251 0
7253 -339 -7252 0
-7253 339 0
-7253 7252 0
-7254 3101 7074 3105 3132 0
7254 -3101 0
7254 -7074 0
7254 -3105 0
7254 -3132 0
7255 -3116 -7254 0
-7255 3116 0
-7255 7254 0
-7256 14 7255 8 11 0
7256 -14 0
7256 -7255 0
7256 -8 0
7256 -11 0
7257 -28 -7256 0
-7257 28 0
-7257 7256 0
-7258 30 7257 0
7258 -30 0
7258 -7257 0
7259 -210 -7258 0
-7259 210 0
-7259 7258 0
-7260 212 7259 0
7260 -212 0
7260 -7259 0
7261 -598 -7260 0
-7261 598 0
-7261 7260 0
-7262 600 7253 7261 0
7262 -600 0
7262 -7253 0
7262 -7261 0
7263 -609 -7262 0
-7263 609 0
-7263 7262 0
-7264 216 7219 7225 0
7264 -216 0
7264 -7219 0
7264 -7225 0
7265 -218 -7264 0
-7265 218 0
-7265 7264 0
-7266 73 7235 6944 0
7266 -73 0
7266 -7235 0
7266 -6944 0
7267 -299 -7266 0
-7267 299 0
-7267 7266 0
-7268 333 7244 6947 0
7268 -333 0
7268 -7244 0
7268 -6947 0
7269 -335 -7268 0
-7269 335 0
-7269 7268 0
-7270 337 341 7218 7265 6941 7267 4763 326 7243 7269 0
7270 -337 0
7270 -341 0
7270 -7218 0
7270 -7265 0
7270 -6941 0
7270 -7267 0
7270 -4763 0
7270 -326 0
7270 -7243 0
7270 -7269 0
7271 -375 -7270 0
-7271 375 0
-7271 7270 0
-7272 47 7271 0
7272 -47 0
7272 -7271 0
7273 -84 -7272 0
-7273 84 0
-7273 7272 0
-7274 3101 7098 7102 3105 3132 0
7274 -3101 0
7274 -7098 0
7274 -7102 0
7274 -3105 0
7274 -3132 0
7275 -3116 -7274 0
-7275 3116 0
-7275 7274 0
-7276 216 4948 508 1359 0
7276 -216 0
7276 -4948 0
7276 -508 0
7276 -1359 0
7277 -218 -7276 0
-7277 218 0
-7277 7276 0
-7278 333 4952 6947 0
7278 -333 0
7278 -4952 0
7278 -6947 0
7279 -335 -7278 0
-7279 335 0
-7279 7278 0
-7280 337 506 341 343 7277 6941 6955 326 328 7279 0
7280 -337 0
7280 -506 0
7280 -341 0
7280 -343 0
7280 -7277 0
7280 -6941 0
7280 -6955 0
7280 -326 0
7280 -328 0
7280 -7279 0
7281 -339 -7280 0
-7281 339 0
-7281 7280 0
-7282 600 7281 625 0
7282 -600 0
7282 -7281 0
7282 -625 0
7283 -615 -7282 0
-7283 615 0
-7283 7282 0
-7284 14 7275 7283 8 11 0
7284 -14 0
7284 -7275 0
7284 -7283 0
7284 -8 0
7284 -11 0
7285 -28 -7284 0
-7285 28 0
-7285 7284 0
-7286 30 7285 0
7286 -30 0
7286 -7285 0
7287 -119 -7286 0
-7287 119 0
-7287 7286 0
-7288 121 7263 7273 7287 0
7288 -121 0
7288 -7263 0
7288 -7273 0
7288 -7287 0
7289 -127 -7288 0
-7289 127 0
-7289 7288 0
-7290 3101 6923 7134 3105 3240 0
7290 -3101 0
7290 -6923 0
7290 -7134 0
7290 -3105 0
7290 -3240 0
7291 -3116 -7290 0
-7291 3116 0
-7291 7290 0
-7292 333 4764 7130 0
7292 -333 0
7292 -4764 0
7292 -7130 0
7293 -335 -7292 0
-7293 335 0
-7293 7292 0
-7294 337 1976 341 343 6520 7124 7129 326 328 7293 0
7294 -337 0
7294 -1976 0
7294 -341 0
7294 -343 0
7294 -6520 0
7294 -7124 0
7294 -7129 0
7294 -326 0
7294 -328 0
7294 -7293 0
7295 -339 -7294 0
-7295 339 0
-7295 7294 0
-7296 600 7295 953 0
7296 -600 0
7296 -7295 0
7296 -953 0
7297 -615 -7296 0
-7297 615 0
-7297 7296 0
-7298 14 7291 7297 8 11 0
7298 -14 0
7298 -7291 0
7298 -7297 0
7298 -8 0
7298 -11 0
7299 -16 -7298 0
-7299 16 0
-7299 7298 0
-7300 18 7299 0
7300 -18 0
7300 -7299 0
7301 -20 -7300 0
-7301 20 0
-7301 7300 0
-7302 22 7192 7214 7249 6 7289 7301 0
7302 -22 0
7302 -7192 0
7302 -7214 0
7302 -7249 0
7302 -6 0
7302 -7289 0
7302 -7301 0
7303 -26 -7302 0
-7303 26 0
-7303 7302 0
7304 -386 -7248 0
-7304 386 0
-7304 7248 0
7305 -624 -7213 0
-7305 624 0
-7305 7213 0
7306 -602 -6987 0
-7306 602 0
-7306 6987 0
-7307 60 4229 6909 0
7307 -60 0
7307 -4229 0
7307 -6909 0
7308 -259 -7307 0
-7308 259 0
-7308 7307 0
7309 -67 -7307 0
-7309 67 0
-7309 7307 0
-7310 69 7309 0
7310 -69 0
7310 -7309 0
7311 -71 -7310 0
-7311 71 0
-7311 7310 0
-7312 73 674 7311 0
7312 -73 0
7312 -674 0
7312 -7311 0
7313 -299 -7312 0
-7313 299 0
-7313 7312 0
7314 -331 -7307 0
-7314 331 0
-7314 7307 0
-7315 333 7314 0
7315 -333 0
7315 -7314 0
7316 -335 -7315 0
-7316 335 0
-7316 7315 0
-7317 337 2641 341 1875 2644 7308 7313 326 1782 7316 0
7317 -337 0
7317 -2641 0
7317 -341 0
7317 -1875 0
7317 -2644 0
7317 -7308 0
7317 -7313 0
7317 -326 0
7317 -1782 0
7317 -7316 0
7318 -1010 -7317 0
-7318 1010 0
-7318 7317 0
-7319 3101 7306 7318 3105 3132 0
7319 -3101 0
7319 -7306 0
7319 -7318 0
7319 -3105 0
7319 -3132 0
7320 -3116 -7319 0
-7320 3116 0
-7320 7319 0
-7321 333 4952 6982 0
7321 -333 0
7321 -4952 0
7321 -6982 0
7322 -335 -7321 0
-7322 335 0
-7322 7321 0
-7323 337 506 341 343 7277 6976 6981 326 328 7322 0
7323 -337 0
7323 -506 0
7323 -341 0
7323 -343 0
7323 -7277 0
7323 -6976 0
7323 -6981 0
7323 -326 0
7323 -328 0
7323 -7322 0
7324 -339 -7323 0
-7324 339 0
-7324 7323 0
-7325 600 7324 625 0
7325 -600 0
7325 -7324 0
7325 -625 0
7326 -615 -7325 0
-7326 615 0
-7326 7325 0
-7327 14 7320 7326 8 11 0
7327 -14 0
7327 -7320 0
7327 -7326 0
7327 -8 0
7327 -11 0
7328 -28 -7327 0
-7328 28 0
-7328 7327 0
-7329 30 7328 0
7329 -30 0
7329 -7328 0
7330 -32 -7329 0
-7330 32 0
-7330 7329 0
-7331 34 7303 7304 7305 7330 0
7331 -34 0
7331 -7303 0
7331 -7304 0
7331 -7305 0
7331 -7330 0
7332 -36 -7331 0
-7332 36 0
-7332 7331 0
-7333 337 341 343 4807 389 4814 326 328 4816 0
7333 -337 0
7333 -341 0
7333 -343 0
7333 -4807 0
7333 -389 0
7333 -4814 0
7333 -326 0
7333 -328 0
7333 -4816 0
7334 -339 -7333 0
-7334 339 0
-7334 7333 0
7335 -1010 -1362 0
-7335 1010 0
-7335 1362 0
7336 -358 -1362 0
-7336 358 0
-7336 1362 0
-7337 22 7336 6 91 0
7337 -22 0
7337 -7336 0
7337 -6 0
7337 -91 0
7338 -26 -7337 0
-7338 26 0
-7338 7337 0
7339 -386 -1362 0
-7339 386 0
-7339 1362 0
-7340 34 7338 7339 0
7340 -34 0
7340 -7338 0
7340 -7339 0
7341 -2737 -7340 0
-7341 2737 0
-7341 7340 0
-7342 3101 7335 7341 3105 3132 0
7342 -3101 0
7342 -7335 0
7342 -7341 0
7342 -3105 0
7342 -3132 0
7343 -3116 -7342 0
-7343 3116 0
-7343 7342 0
-7344 14 7343 8 11 0
7344 -14 0
7344 -7343 0
7344 -8 0
7344 -11 0
7345 -28 -7344 0
-7345 28 0
-7345 7344 0
-7346 30 7345 0
7346 -30 0
7346 -7345 0
7347 -210 -7346 0
-7347 210 0
-7347 7346 0
-7348 212 7347 0
7348 -212 0
7348 -7347 0
7349 -598 -7348 0
-7349 598 0
-7349 7348 0
-7350 600 7334 7349 0
7350 -600 0
7350 -7334 0
7350 -7349 0
7351 -609 -7350 0
-7351 609 0
-7351 7350 0
7352 -730 -3284 0
-7352 730 0
-7352 3284 0
-7353 176 7352 171 173 0
7353 -176 0
7353 -7352 0
7353 -171 0
7353 -173 0
7354 -178 -7353 0
-7354 178 0
-7354 7353 0
7355 -3851 -3874 0
-7355 3851 0
-7355 3874 0
-7356 22 753 6 91 0
7356 -22 0
7356 -753 0
7356 -6 0
7356 -91 0
7357 -26 -7356 0
-7357 26 0
-7357 7356 0
-7358 34 7357 765 0
7358 -34 0
7358 -7357 0
7358 -765 0
7359 -2737 -7358 0
-7359 2737 0
-7359 7358 0
-7360 3101 3880 7359 3105 3132 0
7360 -3101 0
7360 -3880 0
7360 -7359 0
7360 -3105 0
7360 -3132 0
7361 -3116 -7360 0
-7361 3116 0
-7361 7360 0
-7362 14 7361 757 8 11 0
7362 -14 0
7362 -7361 0
7362 -757 0
7362 -8 0
7362 -11 0
7363 -28 -7362 0
-7363 28 0
-7363 7362 0
-7364 30 7363 0
7364 -30 0
7364 -7363 0
7365 -210 -7364 0
-7365 210 0
-7365 7364 0
-7366 212 7365 0
7366 -212 0
7366 -7365 0
7367 -214 -7366 0
-7367 214 0
-7367 7366 0
-7368 216 7355 7367 0
7368 -216 0
7368 -7355 0
7368 -7367 0
7369 -218 -7368 0
-7369 218 0
-7369 7368 0
7370 -635 -3284 0
-7370 635 0
-7370 3284 0
-7371 65 7370 0
7371 -65 0
7371 -7370 0
7372 -64 -7371 0
-7372 64 0
-7372 7371 0
-7373 73 7372 219 0
7373 -73 0
7373 -7372 0
7373 -219 0
7374 -299 -7373 0
-7374 299 0
-7374 7373 0
7375 -2737 -5557 0
-7375 2737 0
-7375 5557 0
-7376 3101 4287 7375 3105 3240 0
7376 -3101 0
7376 -4287 0
7376 -7375 0
7376 -3105 0
7376 -3240 0
7377 -3116 -7376 0
-7377 3116 0
-7377 7376 0
-7378 14 7377 3243 8 11 0
7378 -14 0
7378 -7377 0
7378 -3243 0
7378 -8 0
7378 -11 0
7379 -325 -7378 0
-7379 325 0
-7379 7378 0
7380 -329 -3286 0
-7380 329 0
-7380 3286 0
7381 -4350 -3874 0
-7381 4350 0
-7381 3874 0
-7382 333 7381 0
7382 -333 0
7382 -7381 0
7383 -335 -7382 0
-7383 335 0
-7383 7382 0
-7384 337 341 7354 7369 7374 7379 326 7380 7383 0
7384 -337 0
7384 -341 0
7384 -7354 0
7384 -7369 0
7384 -7374 0
7384 -7379 0
7384 -326 0
7384 -7380 0
7384 -7383 0
7385 -375 -7384 0
-7385 375 0
-7385 7384 0
-7386 47 7385 0
7386 -47 0
7386 -7385 0
7387 -84 -7386 0
-7387 84 0
-7387 7386 0
7388 -602 -1364 0
-7388 602 0
-7388 1364 0
7389 -1010 -2457 0
-7389 1010 0
-7389 2457 0
7390 -613 -1364 0
-7390 613 0
-7390 1364 0
7391 -358 -2457 0
-7391 358 0
-7391 2457 0
-7392 22 7390 7391 6 91 0
7392 -22 0
7392 -7390 0
7392 -7391 0
7392 -6 0
7392 -91 0
7393 -26 -7392 0
-7393 26 0
-7393 7392 0
7394 -386 -2457 0
-7394 386 0
-7394 2457 0
7395 -624 -1364 0
-7395 624 0
-7395 1364 0
-7396 34 7393 7394 7395 0
7396 -34 0
7396 -7393 0
7396 -7394 0
7396 -7395 0
7397 -2737 -7396 0
-7397 2737 0
-7397 7396 0
-7398 3101 7388 7389 7397 3105 3132 0
7398 -3101 0
7398 -7388 0
7398 -7389 0
7398 -7397 0
7398 -3105 0
7398 -3132 0
7399 -3116 -7398 0
-7399 3116 0
-7399 7398 0
-7400 216 6640 508 1359 0
7400 -216 0
7400 -6640 0
7400 -508 0
7400 -1359 0
7401 -218 -7400 0
-7401 218 0
-7401 7400 0
-7402 337 506 341 343 7401 389 326 328 6645 0
7402 -337 0
7402 -506 0
7402 -341 0
7402 -343 0
7402 -7401 0
7402 -389 0
7402 -326 0
7402 -328 0
7402 -6645 0
7403 -339 -7402 0
-7403 339 0
-7403 7402 0
-7404 600 7403 625 0
7404 -600 0
7404 -7403 0
7404 -625 0
7405 -615 -7404 0
-7405 615 0
-7405 7404 0
-7406 14 7399 7405 8 11 0
7406 -14 0
7406 -7399 0
7406 -7405 0
7406 -8 0
7406 -11 0
7407 -28 -7406 0
-7407 28 0
-7407 7406 0
-7408 30 7407 0
7408 -30 0
7408 -7407 0
7409 -119 -7408 0
-7409 119 0
-7409 7408 0
-7410 121 7351 7387 7409 0
7410 -121 0
7410 -7351 0
7410 -7387 0
7410 -7409 0
7411 -134 -7410 0
-7411 134 0
-7411 7410 0
-7412 40 7411 37 0
7412 -40 0
7412 -7411 0
7412 -37 0
7413 -42 -7412 0
-7413 42 0
-7413 7412 0
-7414 60 7413 6909 0
7414 -60 0
7414 -7413 0
7414 -6909 0
7415 -62 -7414 0
-7415 62 0
-7415 7414 0
-7416 337 7152 341 7155 7168 7170 7183 326 7184 7188 0
7416 -337 0
7416 -7152 0
7416 -341 0
7416 -7155 0
7416 -7168 0
7416 -7170 0
7416 -7183 0
7416 -326 0
7416 -7184 0
7416 -7188 0
7417 -412 -7416 0
-7417 412 0
-7417 7416 0
-7418 60 3577 6909 0
7418 -60 0
7418 -3577 0
7418 -6909 0
7419 -259 -7418 0
-7419 259 0
-7419 7418 0
7420 -331 -7418 0
-7420 331 0
-7420 7418 0
-7421 333 4739 7420 0
7421 -333 0
7421 -4739 0
7421 -7420 0
7422 -335 -7421 0
-7422 335 0
-7422 7421 0
-7423 337 4728 341 343 4733 7419 4738 326 328 7422 0
7423 -337 0
7423 -4728 0
7423 -341 0
7423 -343 0
7423 -4733 0
7423 -7419 0
7423 -4738 0
7423 -326 0
7423 -328 0
7423 -7422 0
7424 -339 -7423 0
-7424 339 0
-7424 7423 0
-7425 337 506 341 343 510 6976 352 326 328 6984 0
7425 -337 0
7425 -506 0
7425 -341 0
7425 -343 0
7425 -510 0
7425 -6976 0
7425 -352 0
7425 -326 0
7425 -328 0
7425 -6984 0
7426 -1010 -7425 0
-7426 1010 0
-7426 7425 0
7427 -358 -7425 0
-7427 358 0
-7427 7425 0
7428 -375 -7425 0
-7428 375 0
-7428 7425 0
-7429 47 7428 0
7429 -47 0
7429 -7428 0
7430 -84 -7429 0
-7430 84 0
-7430 7429 0
-7431 121 7430 0
7431 -121 0
7431 -7430 0
7432 -127 -7431 0
-7432 127 0
-7432 7431 0
-7433 22 7427 6 7432 91 0
7433 -22 0
7433 -7427 0
7433 -6 0
7433 -7432 0
7433 -91 0
7434 -26 -7433 0
-7434 26 0
-7434 7433 0
7435 -386 -7425 0
-7435 386 0
-7435 7425 0
-7436 34 7434 7435 0
7436 -34 0
7436 -7434 0
7436 -7435 0
7437 -2737 -7436 0
-7437 2737 0
-7437 7436 0
-7438 3101 7426 7437 3105 3132 0
7438 -3101 0
7438 -7426 0
7438 -7437 0
7438 -3105 0
7438 -3132 0
7439 -3116 -7438 0
-7439 3116 0
-7439 7438 0
-7440 14 7439 8 11 0
7440 -14 0
7440 -7439 0
7440 -8 0
7440 -11 0
7441 -28 -7440 0
-7441 28 0
-7441 7440 0
-7442 30 7441 0
7442 -30 0
7442 -7441 0
7443 -210 -7442 0
-7443 210 0
-7443 7442 0
-7444 212 7443 0
7444 -212 0
7444 -7443 0
7445 -598 -7444 0
-7445 598 0
-7445 7444 0
-7446 600 7424 7445 0
7446 -600 0
7446 -7424 0
7446 -7445 0
7447 -635 -7446 0
-7447 635 0
-7447 7446 0
-7448 65 7417 7447 0
7448 -65 0
7448 -7417 0
7448 -7447 0
7449 -64 -7448 0
-7449 64 0
-7449 7448 0
7450 -416 -7416 0
-7450 416 0
-7450 7416 0
7451 -339 -4856 0
-7451 339 0
-7451 4856 0
7452 -210 -4871 0
-7452 210 0
-7452 4871 0
-7453 212 7452 0
7453 -212 0
7453 -7452 0
7454 -598 -7453 0
-7454 598 0
-7454 7453 0
-7455 600 7451 7454 0
7455 -600 0
7455 -7451 0
7455 -7454 0
7456 -609 -7455 0
-7456 609 0
-7456 7455 0
-7457 337 341 7354 7369 7379 326 7380 7383 0
7457 -337 0
7457 -341 0
7457 -7354 0
7457 -7369 0
7457 -7379 0
7457 -326 0
7457 -7380 0
7457 -7383 0
7458 -375 -7457 0
-7458 375 0
-7458 7457 0
-7459 47 7458 0
7459 -47 0
7459 -7458 0
7460 -84 -7459 0
-7460 84 0
-7460 7459 0
7461 -602 -1404 0
-7461 602 0
-7461 1404 0
7462 -1010 -2483 0
-7462 1010 0
-7462 2483 0
7463 -613 -1404 0
-7463 613 0
-7463 1404 0
7464 -358 -2483 0
-7464 358 0
-7464 2483 0
-7465 22 7463 7464 6 91 0
7465 -22 0
7465 -7463 0
7465 -7464 0
7465 -6 0
7465 -91 0
7466 -26 -7465 0
-7466 26 0
-7466 7465 0
7467 -386 -2483 0
-7467 386 0
-7467 2483 0
7468 -624 -1404 0
-7468 624 0
-7468 1404 0
-7469 34 7466 7467 7468 0
7469 -34 0
7469 -7466 0
7469 -7467 0
7469 -7468 0
7470 -2737 -7469 0
-7470 2737 0
-7470 7469 0
-7471 3101 7461 7462 7470 3105 3132 0
7471 -3101 0
7471 -7461 0
7471 -7462 0
7471 -7470 0
7471 -3105 0
7471 -3132 0
7472 -3116 -7471 0
-7472 3116 0
-7472 7471 0
-7473 337 506 341 343 7401 326 328 6645 0
7473 -337 0
7473 -506 0
7473 -341 0
7473 -343 0
7473 -7401 0
7473 -326 0
7473 -328 0
7473 -6645 0
7474 -339 -7473 0
-7474 339 0
-7474 7473 0
-7475 600 7474 625 0
7475 -600 0
7475 -7474 0
7475 -625 0
7476 -615 -7475 0
-7476 615 0
-7476 7475 0
-7477 14 7472 7476 8 11 0
7477 -14 0
7477 -7472 0
7477 -7476 0
7477 -8 0
7477 -11 0
7478 -28 -7477 0
-7478 28 0
-7478 7477 0
-7479 30 7478 0
7479 -30 0
7479 -7478 0
7480 -119 -7479 0
-7480 119 0
-7480 7479 0
-7481 121 7456 7460 7480 0
7481 -121 0
7481 -7456 0
7481 -7460 0
7481 -7480 0
7482 -134 -7481 0
-7482 134 0
-7482 7481 0
-7483 40 7482 37 0
7483 -40 0
7483 -7482 0
7483 -37 0
7484 -42 -7483 0
-7484 42 0
-7484 7483 0
-7485 60 7484 6909 0
7485 -60 0
7485 -7484 0
7485 -6909 0
7486 -67 -7485 0
-7486 67 0
-7486 7485 0
-7487 69 7450 7486 0
7487 -69 0
7487 -7450 0
7487 -7486 0
7488 -71 -7487 0
-7488 71 0
-7488 7487 0
-7489 73 7449 7488 0
7489 -73 0
7489 -7449 0
7489 -7488 0
7490 -75 -7489 0
-7490 75 0
-7490 7489 0
7491 -67 -7418 0
-7491 67 0
-7491 7418 0
-7492 69 7491 0
7492 -69 0
7492 -7491 0
7493 -71 -7492 0
-7493 71 0
-7493 7492 0
-7494 73 63 7493 0
7494 -73 0
7494 -63 0
7494 -7493 0
7495 -299 -7494 0
-7495 299 0
-7495 7494 0
-7496 337 4728 341 343 4733 7419 7495 4738 326 328 7422 0
7496 -337 0
7496 -4728 0
7496 -341 0
7496 -343 0
7496 -4733 0
7496 -7419 0
7496 -7495 0
7496 -4738 0
7496 -326 0
7496 -328 0
7496 -7422 0
7497 -339 -7496 0
-7497 339 0
-7497 7496 0
7498 -358 -6985 0
-7498 358 0
-7498 6985 0
7499 -375 -6956 0
-7499 375 0
-7499 6956 0
-7500 47 7499 0
7500 -47 0
7500 -7499 0
7501 -84 -7500 0
-7501 84 0
-7501 7500 0
-7502 121 7501 0
7502 -121 0
7502 -7501 0
7503 -127 -7502 0
-7503 127 0
-7503 7502 0
-7504 22 7498 6 7503 91 0
7504 -22 0
7504 -7498 0
7504 -6 0
7504 -7503 0
7504 -91 0
7505 -26 -7504 0
-7505 26 0
-7505 7504 0
-7506 34 7505 7022 0
7506 -34 0
7506 -7505 0
7506 -7022 0
7507 -2737 -7506 0
-7507 2737 0
-7507 7506 0
-7508 3101 7021 7507 3105 3132 0
7508 -3101 0
7508 -7021 0
7508 -7507 0
7508 -3105 0
7508 -3132 0
7509 -3116 -7508 0
-7509 3116 0
-7509 7508 0
-7510 14 7509 8 11 0
7510 -14 0
7510 -7509 0
7510 -8 0
7510 -11 0
7511 -28 -7510 0
-7511 28 0
-7511 7510 0
-7512 30 7511 0
7512 -30 0
7512 -7511 0
7513 -210 -7512 0
-7513 210 0
-7513 7512 0
-7514 212 7513 0
7514 -212 0
7514 -7513 0
7515 -598 -7514 0
-7515 598 0
-7515 7514 0
-7516 600 7497 7515 0
7516 -600 0
7516 -7497 0
7516 -7515 0
7517 -641 -7516 0
-7517 641 0
-7517 7516 0
-7518 78 7517 0
7518 -78 0
7518 -7517 0
7519 -77 -7518 0
-7519 77 0
-7519 7518 0
-7520 80 7004 7151 7190 7332 7415 7490 7519 0
7520 -80 0
7520 -7004 0
7520 -7151 0
7520 -7190 0
7520 -7332 0
7520 -7415 0
7520 -7490 0
7520 -7519 0
7521 -248 -7520 0
-7521 248 0
-7521 7520 0
7522 -62 -6940 0
-7522 62 0
-7522 6940 0
7523 -75 -6954 0
-7523 75 0
-7523 6954 0
-7524 80 3108 4429 4433 7522 7523 76 0
7524 -80 0
7524 -3108 0
7524 -4429 0
7524 -4433 0
7524 -7522 0
7524 -7523 0
7524 -76 0
7525 -441 -7524 0
-7525 441 0
-7525 7524 0
-7526 80 3147 3853 3165 7522 7523 76 0
7526 -80 0
7526 -3147 0
7526 -3853 0
7526 -3165 0
7526 -7522 0
7526 -7523 0
7526 -76 0
7527 -89 -7526 0
-7527 89 0
-7527 7526 0
-7528 80 7522 7523 76 0
7528 -80 0
7528 -7522 0
7528 -7523 0
7528 -76 0
7529 -146 -7528 0
-7529 146 0
-7529 7528 0
-7530 56 100 0
7530 -56 0
7530 -100 0
7531 -58 -7530 0
-7531 58 0
-7531 7530 0
-7532 60 99 7531 0
7532 -60 0
7532 -99 0
7532 -7531 0
7533 -62 -7532 0
-7533 62 0
-7533 7532 0
7534 -67 -7532 0
-7534 67 0
-7534 7532 0
-7535 69 7534 0
7535 -69 0
7535 -7534 0
7536 -71 -7535 0
-7536 71 0
-7536 7535 0
-7537 73 63 7536 0
7537 -73 0
7537 -63 0
7537 -7536 0
7538 -75 -7537 0
-7538 75 0
-7538 7537 0
-7539 80 7533 7538 76 0
7539 -80 0
7539 -7533 0
7539 -7538 0
7539 -76 0
7540 -112 -7539 0
-7540 112 0
-7540 7539 0
-7541 3 7540 0
7541 -3 0
7541 -7540 0
7542 -2 -7541 0
-7542 2 0
-7542 7541 0
-7543 5 7529 7542 0
7543 -5 0
7543 -7529 0
7543 -7542 0
7544 -7 -7543 0
-7544 7 0
-7544 7543 0
-7545 22 7544 91 0
7545 -22 0
7545 -7544 0
7545 -91 0
7546 -26 -7545 0
-7546 26 0
-7546 7545 0
-7547 34 7546 0
7547 -34 0
7547 -7546 0
7548 -2737 -7547 0
-7548 2737 0
-7548 7547 0
-7549 80 3183 3186 7522 7523 76 0
7549 -80 0
7549 -3183 0
7549 -3186 0
7549 -7522 0
7549 -7523 0
7549 -76 0
7550 -146 -7549 0
-7550 146 0
-7550 7549 0
-7551 80 3183 3186 7533 7538 76 0
7551 -80 0
7551 -3183 0
7551 -3186 0
7551 -7533 0
7551 -7538 0
7551 -76 0
7552 -112 -7551 0
-7552 112 0
-7552 7551 0
-7553 3 7552 0
7553 -3 0
7553 -7552 0
7554 -2 -7553 0
-7554 2 0
-7554 7553 0
-7555 5 7550 7554 0
7555 -5 0
7555 -7550 0
7555 -7554 0
7556 -2807 -7555 0
-7556 2807 0
-7556 7555 0
-7557 3101 7548 7556 3132 0
7557 -3101 0
7557 -7548 0
7557 -7556 0
7557 -3132 0
7558 -3116 -7557 0
-7558 3116 0
-7558 7557 0
-7559 80 3200 3857 3209 7533 7538 76 0
7559 -80 0
7559 -3200 0
7559 -3857 0
7559 -3209 0
7559 -7533 0
7559 -7538 0
7559 -76 0
7560 -112 -7559 0
-7560 112 0
-7560 7559 0
-7561 3 7560 0
7561 -3 0
7561 -7560 0
7562 -12 -7561 0
-7562 12 0
-7562 7561 0
-7563 14 7558 8 7562 0
7563 -14 0
7563 -7558 0
7563 -8 0
7563 -7562 0
7564 -28 -7563 0
-7564 28 0
-7564 7563 0
-7565 30 7527 7564 0
7565 -30 0
7565 -7527 0
7565 -7564 0
7566 -210 -7565 0
-7566 210 0
-7566 7565 0
-7567 212 7566 0
7567 -212 0
7567 -7566 0
7568 -598 -7567 0
-7568 598 0
-7568 7567 0
-7569 600 7525 7568 0
7569 -600 0
7569 -7525 0
7569 -7568 0
7570 -609 -7569 0
-7570 609 0
-7570 7569 0
-7571 73 7372 6944 0
7571 -73 0
7571 -7372 0
7571 -6944 0
7572 -75 -7571 0
-7572 75 0
-7572 7571 0
-7573 80 3875 4358 4368 7522 7572 3287 0
7573 -80 0
7573 -3875 0
7573 -4358 0
7573 -4368 0
7573 -7522 0
7573 -7572 0
7573 -3287 0
7574 -82 -7573 0
-7574 82 0
-7574 7573 0
7575 -75 -7099 0
-7575 75 0
-7575 7099 0
-7576 80 3292 3301 3309 7522 7575 679 0
7576 -80 0
7576 -3292 0
7576 -3301 0
7576 -3309 0
7576 -7522 0
7576 -7575 0
7576 -679 0
7577 -89 -7576 0
-7577 89 0
-7577 7576 0
-7578 80 657 660 7522 7523 76 0
7578 -80 0
7578 -657 0
7578 -660 0
7578 -7522 0
7578 -7523 0
7578 -76 0
7579 -441 -7578 0
-7579 441 0
-7579 7578 0
-7580 600 7579 625 0
7580 -600 0
7580 -7579 0
7580 -625 0
7581 -602 -7580 0
-7581 602 0
-7581 7580 0
7582 -441 -7528 0
-7582 441 0
-7582 7528 0
-7583 600 7582 625 0
7583 -600 0
7583 -7582 0
7583 -625 0
7584 -613 -7583 0
-7584 613 0
-7584 7583 0
-7585 80 7522 7575 679 0
7585 -80 0
7585 -7522 0
7585 -7575 0
7585 -679 0
7586 -146 -7585 0
-7586 146 0
-7586 7585 0
-7587 73 674 7536 0
7587 -73 0
7587 -674 0
7587 -7536 0
7588 -75 -7587 0
-7588 75 0
-7588 7587 0
-7589 80 7533 7588 679 0
7589 -80 0
7589 -7533 0
7589 -7588 0
7589 -679 0
7590 -112 -7589 0
-7590 112 0
-7590 7589 0
-7591 3 7590 0
7591 -3 0
7591 -7590 0
7592 -2 -7591 0
-7592 2 0
-7592 7591 0
-7593 5 7586 7592 0
7593 -5 0
7593 -7586 0
7593 -7592 0
7594 -7 -7593 0
-7594 7 0
-7594 7593 0
-7595 22 7584 7594 91 0
7595 -22 0
7595 -7584 0
7595 -7594 0
7595 -91 0
7596 -26 -7595 0
-7596 26 0
-7596 7595 0
-7597 80 657 7522 7523 76 0
7597 -80 0
7597 -657 0
7597 -7522 0
7597 -7523 0
7597 -76 0
7598 -441 -7597 0
-7598 441 0
-7598 7597 0
-7599 600 7598 625 0
7599 -600 0
7599 -7598 0
7599 -625 0
7600 -624 -7599 0
-7600 624 0
-7600 7599 0
-7601 34 7596 7600 0
7601 -34 0
7601 -7596 0
7601 -7600 0
7602 -2737 -7601 0
-7602 2737 0
-7602 7601 0
-7603 80 3336 3339 7522 7575 679 0
7603 -80 0
7603 -3336 0
7603 -3339 0
7603 -7522 0
7603 -7575 0
7603 -679 0
7604 -146 -7603 0
-7604 146 0
-7604 7603 0
-7605 80 3336 3339 7533 7588 679 0
7605 -80 0
7605 -3336 0
7605 -3339 0
7605 -7533 0
7605 -7588 0
7605 -679 0
7606 -112 -7605 0
-7606 112 0
-7606 7605 0
-7607 3 7606 0
7607 -3 0
7607 -7606 0
7608 -2 -7607 0
-7608 2 0
-7608 7607 0
-7609 5 7604 7608 0
7609 -5 0
7609 -7604 0
7609 -7608 0
7610 -2807 -7609 0
-7610 2807 0
-7610 7609 0
-7611 3101 7581 7602 7610 3132 0
7611 -3101 0
7611 -7581 0
7611 -7602 0
7611 -7610 0
7611 -3132 0
7612 -3116 -7611 0
-7612 3116 0
-7612 7611 0
-7613 80 3350 3353 3165 7522 7523 76 0
7613 -80 0
7613 -3350 0
7613 -3353 0
7613 -3165 0
7613 -7522 0
7613 -7523 0
7613 -76 0
7614 -441 -7613 0
-7614 441 0
-7614 7613 0
-7615 600 7614 625 0
7615 -600 0
7615 -7614 0
7615 -625 0
7616 -615 -7615 0
-7616 615 0
-7616 7615 0
-7617 22 4632 665 90 91 0
7617 -22 0
7617 -4632 0
7617 -665 0
7617 -90 0
7617 -91 0
7618 -24 -7617 0
-7618 24 0
-7618 7617 0
-7619 80 3360 7618 3369 7533 7588 679 0
7619 -80 0
7619 -3360 0
7619 -7618 0
7619 -3369 0
7619 -7533 0
7619 -7588 0
7619 -679 0
7620 -112 -7619 0
-7620 112 0
-7620 7619 0
-7621 3 7620 0
7621 -3 0
7621 -7620 0
7622 -12 -7621 0
-7622 12 0
-7622 7621 0
-7623 14 7612 7616 8 7622 0
7623 -14 0
7623 -7612 0
7623 -7616 0
7623 -8 0
7623 -7622 0
7624 -28 -7623 0
-7624 28 0
-7624 7623 0
-7625 30 7577 7624 0
7625 -30 0
7625 -7577 0
7625 -7624 0
7626 -119 -7625 0
-7626 119 0
-7626 7625 0
-7627 121 7570 7574 83 7626 0
7627 -121 0
7627 -7570 0
7627 -7574 0
7627 -83 0
7627 -7626 0
7628 -123 -7627 0
-7628 123 0
-7628 7627 0
-7629 60 3427 6909 0
7629 -60 0
7629 -3427 0
7629 -6909 0
7630 -62 -7629 0
-7630 62 0
-7630 7629 0
7631 -635 -3444 0
-7631 635 0
-7631 3444 0
-7632 65 7631 0
7632 -65 0
7632 -7631 0
7633 -64 -7632 0
-7633 64 0
-7633 7632 0
7634 -67 -7629 0
-7634 67 0
-7634 7629 0
-7635 69 7634 0
7635 -69 0
7635 -7634 0
7636 -71 -7635 0
-7636 71 0
-7636 7635 0
-7637 73 7633 7636 0
7637 -73 0
7637 -7633 0
7637 -7636 0
7638 -75 -7637 0
-7638 75 0
-7638 7637 0
-7639 80 3389 4374 4378 7630 7638 3447 0
7639 -80 0
7639 -3389 0
7639 -4374 0
7639 -4378 0
7639 -7630 0
7639 -7638 0
7639 -3447 0
7640 -146 -7639 0
-7640 146 0
-7640 7639 0
-7641 60 3531 7531 0
7641 -60 0
7641 -3531 0
7641 -7531 0
7642 -62 -7641 0
-7642 62 0
-7642 7641 0
7643 -635 -3547 0
-7643 635 0
-7643 3547 0
-7644 65 7643 0
7644 -65 0
7644 -7643 0
7645 -64 -7644 0
-7645 64 0
-7645 7644 0
7646 -67 -7641 0
-7646 67 0
-7646 7641 0
-7647 69 7646 0
7647 -69 0
7647 -7646 0
7648 -71 -7647 0
-7648 71 0
-7648 7647 0
-7649 73 7645 7648 0
7649 -73 0
7649 -7645 0
7649 -7648 0
7650 -75 -7649 0
-7650 75 0
-7650 7649 0
-7651 80 3451 4388 4397 7642 7650 3550 0
7651 -80 0
7651 -3451 0
7651 -4388 0
7651 -4397 0
7651 -7642 0
7651 -7650 0
7651 -3550 0
7652 -112 -7651 0
-7652 112 0
-7652 7651 0
-7653 3 7652 0
7653 -3 0
7653 -7652 0
7654 -2 -7653 0
-7654 2 0
-7654 7653 0
-7655 5 7640 7654 0
7655 -5 0
7655 -7640 0
7655 -7654 0
7656 -162 -7655 0
-7656 162 0
-7656 7655 0
7657 -62 -7418 0
-7657 62 0
-7657 7418 0
7658 -75 -7494 0
-7658 75 0
-7658 7494 0
-7659 80 3559 4499 4503 7657 7658 76 0
7659 -80 0
7659 -3559 0
7659 -4499 0
7659 -4503 0
7659 -7657 0
7659 -7658 0
7659 -76 0
7660 -441 -7659 0
-7660 441 0
-7660 7659 0
7661 -62 -6975 0
-7661 62 0
-7661 6975 0
7662 -75 -6980 0
-7662 75 0
-7662 6980 0
-7663 80 3589 3591 3595 7661 7662 76 0
7663 -80 0
7663 -3589 0
7663 -3591 0
7663 -3595 0
7663 -7661 0
7663 -7662 0
7663 -76 0
7664 -89 -7663 0
-7664 89 0
-7664 7663 0
-7665 80 7661 7662 76 0
7665 -80 0
7665 -7661 0
7665 -7662 0
7665 -76 0
7666 -146 -7665 0
-7666 146 0
-7666 7665 0
-7667 60 194 7531 0
7667 -60 0
7667 -194 0
7667 -7531 0
7668 -62 -7667 0
-7668 62 0
-7668 7667 0
7669 -67 -7667 0
-7669 67 0
-7669 7667 0
-7670 69 7669 0
7670 -69 0
7670 -7669 0
7671 -71 -7670 0
-7671 71 0
-7671 7670 0
-7672 73 63 7671 0
7672 -73 0
7672 -63 0
7672 -7671 0
7673 -75 -7672 0
-7673 75 0
-7673 7672 0
-7674 80 7668 7673 76 0
7674 -80 0
7674 -7668 0
7674 -7673 0
7674 -76 0
7675 -112 -7674 0
-7675 112 0
-7675 7674 0
-7676 3 7675 0
7676 -3 0
7676 -7675 0
7677 -2 -7676 0
-7677 2 0
-7677 7676 0
-7678 5 7666 7677 0
7678 -5 0
7678 -7666 0
7678 -7677 0
7679 -7 -7678 0
-7679 7 0
-7679 7678 0
7680 -82 -7528 0
-7680 82 0
-7680 7528 0
-7681 121 7680 83 0
7681 -121 0
7681 -7680 0
7681 -83 0
7682 -127 -7681 0
-7682 127 0
-7682 7681 0
-7683 22 7679 7682 91 0
7683 -22 0
7683 -7679 0
7683 -7682 0
7683 -91 0
7684 -26 -7683 0
-7684 26 0
-7684 7683 0
-7685 34 7684 0
7685 -34 0
7685 -7684 0
7686 -2737 -7685 0
-7686 2737 0
-7686 7685 0
-7687 80 2514 2920 7661 7662 76 0
7687 -80 0
7687 -2514 0
7687 -2920 0
7687 -7661 0
7687 -7662 0
7687 -76 0
7688 -146 -7687 0
-7688 146 0
-7688 7687 0
-7689 80 2514 2920 7668 7673 76 0
7689 -80 0
7689 -2514 0
7689 -2920 0
7689 -7668 0
7689 -7673 0
7689 -76 0
7690 -112 -7689 0
-7690 112 0
-7690 7689 0
-7691 3 7690 0
7691 -3 0
7691 -7690 0
7692 -2 -7691 0
-7692 2 0
-7692 7691 0
-7693 5 7688 7692 0
7693 -5 0
7693 -7688 0
7693 -7692 0
7694 -2807 -7693 0
-7694 2807 0
-7694 7693 0
-7695 3101 7686 7694 3132 0
7695 -3101 0
7695 -7686 0
7695 -7694 0
7695 -3132 0
7696 -3116 -7695 0
-7696 3116 0
-7696 7695 0
-7697 80 3629 3632 3636 7668 7673 76 0
7697 -80 0
7697 -3629 0
7697 -3632 0
7697 -3636 0
7697 -7668 0
7697 -7673 0
7697 -76 0
7698 -112 -7697 0
-7698 112 0
-7698 7697 0
-7699 3 7698 0
7699 -3 0
7699 -7698 0
7700 -12 -7699 0
-7700 12 0
-7700 7699 0
-7701 14 7696 8 7700 0
7701 -14 0
7701 -7696 0
7701 -8 0
7701 -7700 0
7702 -28 -7701 0
-7702 28 0
-7702 7701 0
-7703 30 7664 7702 0
7703 -30 0
7703 -7664 0
7703 -7702 0
7704 -210 -7703 0
-7704 210 0
-7704 7703 0
-7705 212 7704 0
7705 -212 0
7705 -7704 0
7706 -598 -7705 0
-7706 598 0
-7706 7705 0
-7707 600 7660 7706 0
7707 -600 0
7707 -7660 0
7707 -7706 0
7708 -730 -7707 0
-7708 730 0
-7708 7707 0
7709 -62 -7169 0
-7709 62 0
-7709 7169 0
7710 -75 -7177 0
-7710 75 0
-7710 7177 0
-7711 80 3654 4408 4412 7709 7710 3690 0
7711 -80 0
7711 -3654 0
7711 -4408 0
7711 -4412 0
7711 -7709 0
7711 -7710 0
7711 -3690 0
7712 -170 -7711 0
-7712 170 0
-7712 7711 0
-7713 176 7708 7712 171 173 0
7713 -176 0
7713 -7708 0
7713 -7712 0
7713 -171 0
7713 -173 0
7714 -178 -7713 0
-7714 178 0
-7714 7713 0
7715 -62 -6910 0
-7715 62 0
-7715 6910 0
7716 -75 -6915 0
-7716 75 0
-7716 6915 0
-7717 80 164 167 7715 7716 76 0
7717 -80 0
7717 -164 0
7717 -167 0
7717 -7715 0
7717 -7716 0
7717 -76 0
7718 -441 -7717 0
-7718 441 0
-7718 7717 0
-7719 80 164 182 7661 7662 76 0
7719 -80 0
7719 -164 0
7719 -182 0
7719 -7661 0
7719 -7662 0
7719 -76 0
7720 -89 -7719 0
-7720 89 0
-7720 7719 0
-7721 80 188 191 7668 7673 76 0
7721 -80 0
7721 -188 0
7721 -191 0
7721 -7668 0
7721 -7673 0
7721 -76 0
7722 -112 -7721 0
-7722 112 0
-7722 7721 0
-7723 3 7722 0
7723 -3 0
7723 -7722 0
7724 -12 -7723 0
-7724 12 0
-7724 7723 0
-7725 14 8 7724 0
7725 -14 0
7725 -8 0
7725 -7724 0
7726 -28 -7725 0
-7726 28 0
-7726 7725 0
-7727 30 7720 7726 0
7727 -30 0
7727 -7720 0
7727 -7726 0
7728 -210 -7727 0
-7728 210 0
-7728 7727 0
-7729 212 7728 0
7729 -212 0
7729 -7728 0
7730 -598 -7729 0
-7730 598 0
-7730 7729 0
-7731 600 7718 7730 0
7731 -600 0
7731 -7718 0
7731 -7730 0
7732 -602 -7731 0
-7732 602 0
-7732 7731 0
-7733 80 7715 7716 76 0
7733 -80 0
7733 -7715 0
7733 -7716 0
7733 -76 0
7734 -441 -7733 0
-7734 441 0
-7734 7733 0
7735 -89 -7665 0
-7735 89 0
-7735 7665 0
7736 -12 -7676 0
-7736 12 0
-7736 7676 0
-7737 14 8 7736 0
7737 -14 0
7737 -8 0
7737 -7736 0
7738 -28 -7737 0
-7738 28 0
-7738 7737 0
-7739 30 7735 7738 0
7739 -30 0
7739 -7735 0
7739 -7738 0
7740 -210 -7739 0
-7740 210 0
-7740 7739 0
-7741 212 7740 0
7741 -212 0
7741 -7740 0
7742 -598 -7741 0
-7742 598 0
-7742 7741 0
-7743 600 7734 7742 0
7743 -600 0
7743 -7734 0
7743 -7742 0
7744 -613 -7743 0
-7744 613 0
-7744 7743 0
7745 -62 -6924 0
-7745 62 0
-7745 6924 0
7746 -75 -6929 0
-7746 75 0
-7746 6929 0
-7747 80 7745 7746 643 0
7747 -80 0
7747 -7745 0
7747 -7746 0
7747 -643 0
7748 -146 -7747 0
-7748 146 0
-7748 7747 0
-7749 60 712 7531 0
7749 -60 0
7749 -712 0
7749 -7531 0
7750 -62 -7749 0
-7750 62 0
-7750 7749 0
7751 -67 -7749 0
-7751 67 0
-7751 7749 0
-7752 69 7751 0
7752 -69 0
7752 -7751 0
7753 -71 -7752 0
-7753 71 0
-7753 7752 0
-7754 73 637 7753 0
7754 -73 0
7754 -637 0
7754 -7753 0
7755 -75 -7754 0
-7755 75 0
-7755 7754 0
-7756 80 7750 7755 643 0
7756 -80 0
7756 -7750 0
7756 -7755 0
7756 -643 0
7757 -112 -7756 0
-7757 112 0
-7757 7756 0
-7758 3 7757 0
7758 -3 0
7758 -7757 0
7759 -2 -7758 0
-7759 2 0
-7759 7758 0
-7760 5 7748 7759 0
7760 -5 0
7760 -7748 0
7760 -7759 0
7761 -7 -7760 0
-7761 7 0
-7761 7760 0
7762 -89 -7528 0
-7762 89 0
-7762 7528 0
7763 -12 -7541 0
-7763 12 0
-7763 7541 0
-7764 14 8 7763 0
7764 -14 0
7764 -8 0
7764 -7763 0
7765 -28 -7764 0
-7765 28 0
-7765 7764 0
-7766 30 7762 7765 0
7766 -30 0
7766 -7762 0
7766 -7765 0
7767 -210 -7766 0
-7767 210 0
-7767 7766 0
-7768 212 7767 0
7768 -212 0
7768 -7767 0
7769 -598 -7768 0
-7769 598 0
-7769 7768 0
-7770 600 7582 7769 0
7770 -600 0
7770 -7582 0
7770 -7769 0
7771 -609 -7770 0
-7771 609 0
-7771 7770 0
7772 -75 -6945 0
-7772 75 0
-7772 6945 0
-7773 80 7522 7772 643 0
7773 -80 0
7773 -7522 0
7773 -7772 0
7773 -643 0
7774 -82 -7773 0
-7774 82 0
-7774 7773 0
7775 -89 -7585 0
-7775 89 0
-7775 7585 0
7776 -615 -7583 0
-7776 615 0
-7776 7583 0
7777 -12 -7591 0
-7777 12 0
-7777 7591 0
-7778 14 7776 8 7777 0
7778 -14 0
7778 -7776 0
7778 -8 0
7778 -7777 0
7779 -28 -7778 0
-7779 28 0
-7779 7778 0
-7780 30 7775 7779 0
7780 -30 0
7780 -7775 0
7780 -7779 0
7781 -119 -7780 0
-7781 119 0
-7781 7780 0
-7782 121 7771 7774 83 7781 0
7782 -121 0
7782 -7771 0
7782 -7774 0
7782 -83 0
7782 -7781 0
7783 -127 -7782 0
-7783 127 0
-7783 7782 0
-7784 30 7735 0
7784 -30 0
7784 -7735 0
7785 -210 -7784 0
-7785 210 0
-7785 7784 0
-7786 212 7785 0
7786 -212 0
7786 -7785 0
7787 -598 -7786 0
-7787 598 0
-7787 7786 0
-7788 600 7734 7787 0
7788 -600 0
7788 -7734 0
7788 -7787 0
7789 -615 -7788 0
-7789 615 0
-7789 7788 0
-7790 60 967 7531 0
7790 -60 0
7790 -967 0
7790 -7531 0
7791 -62 -7790 0
-7791 62 0
-7791 7790 0
7792 -67 -7790 0
-7792 67 0
-7792 7790 0
-7793 69 7792 0
7793 -69 0
7793 -7792 0
7794 -71 -7793 0
-7794 71 0
-7794 7793 0
-7795 73 972 7794 0
7795 -73 0
7795 -972 0
7795 -7794 0
7796 -75 -7795 0
-7796 75 0
-7796 7795 0
-7797 80 7791 7796 980 0
7797 -80 0
7797 -7791 0
7797 -7796 0
7797 -980 0
7798 -112 -7797 0
-7798 112 0
-7798 7797 0
-7799 3 7798 0
7799 -3 0
7799 -7798 0
7800 -12 -7799 0
-7800 12 0
-7800 7799 0
-7801 14 7789 8 7800 0
7801 -14 0
7801 -7789 0
7801 -8 0
7801 -7800 0
7802 -16 -7801 0
-7802 16 0
-7802 7801 0
-7803 18 7802 0
7803 -18 0
7803 -7802 0
7804 -20 -7803 0
-7804 20 0
-7804 7803 0
-7805 22 7744 7761 7783 7804 0
7805 -22 0
7805 -7744 0
7805 -7761 0
7805 -7783 0
7805 -7804 0
7806 -26 -7805 0
-7806 26 0
-7806 7805 0
-7807 80 164 7715 7716 76 0
7807 -80 0
7807 -164 0
7807 -7715 0
7807 -7716 0
7807 -76 0
7808 -441 -7807 0
-7808 441 0
-7808 7807 0
7809 -89 -7807 0
-7809 89 0
-7809 7807 0
-7810 80 188 7668 7673 76 0
7810 -80 0
7810 -188 0
7810 -7668 0
7810 -7673 0
7810 -76 0
7811 -112 -7810 0
-7811 112 0
-7811 7810 0
-7812 3 7811 0
7812 -3 0
7812 -7811 0
7813 -12 -7812 0
-7813 12 0
-7813 7812 0
-7814 14 8 7813 0
7814 -14 0
7814 -8 0
7814 -7813 0
7815 -28 -7814 0
-7815 28 0
-7815 7814 0
-7816 30 7809 7815 0
7816 -30 0
7816 -7809 0
7816 -7815 0
7817 -210 -7816 0
-7817 210 0
-7817 7816 0
-7818 212 7817 0
7818 -212 0
7818 -7817 0
7819 -598 -7818 0
-7819 598 0
-7819 7818 0
-7820 600 7808 7819 0
7820 -600 0
7820 -7808 0
7820 -7819 0
7821 -624 -7820 0
-7821 624 0
-7821 7820 0
-7822 60 2427 6909 0
7822 -60 0
7822 -2427 0
7822 -6909 0
7823 -62 -7822 0
-7823 62 0
-7823 7822 0
7824 -67 -7822 0
-7824 67 0
-7824 7822 0
-7825 69 7824 0
7825 -69 0
7825 -7824 0
7826 -71 -7825 0
-7826 71 0
-7826 7825 0
-7827 73 674 7826 0
7827 -73 0
7827 -674 0
7827 -7826 0
7828 -75 -7827 0
-7828 75 0
-7828 7827 0
-7829 80 3793 7823 7828 679 0
7829 -80 0
7829 -3793 0
7829 -7823 0
7829 -7828 0
7829 -679 0
7830 -89 -7829 0
-7830 89 0
-7830 7829 0
-7831 80 787 7661 7662 76 0
7831 -80 0
7831 -787 0
7831 -7661 0
7831 -7662 0
7831 -76 0
7832 -441 -7831 0
-7832 441 0
-7832 7831 0
-7833 600 7832 625 0
7833 -600 0
7833 -7832 0
7833 -625 0
7834 -615 -7833 0
-7834 615 0
-7834 7833 0
-7835 60 2647 7531 0
7835 -60 0
7835 -2647 0
7835 -7531 0
7836 -62 -7835 0
-7836 62 0
-7836 7835 0
7837 -67 -7835 0
-7837 67 0
-7837 7835 0
-7838 69 7837 0
7838 -69 0
7838 -7837 0
7839 -71 -7838 0
-7839 71 0
-7839 7838 0
-7840 73 674 7839 0
7840 -73 0
7840 -674 0
7840 -7839 0
7841 -75 -7840 0
-7841 75 0
-7841 7840 0
-7842 80 3807 7836 7841 679 0
7842 -80 0
7842 -3807 0
7842 -7836 0
7842 -7841 0
7842 -679 0
7843 -112 -7842 0
-7843 112 0
-7843 7842 0
-7844 3 7843 0
7844 -3 0
7844 -7843 0
7845 -12 -7844 0
-7845 12 0
-7845 7844 0
-7846 14 7834 8 7845 0
7846 -14 0
7846 -7834 0
7846 -8 0
7846 -7845 0
7847 -28 -7846 0
-7847 28 0
-7847 7846 0
-7848 30 7830 7847 0
7848 -30 0
7848 -7830 0
7848 -7847 0
7849 -32 -7848 0
-7849 32 0
-7849 7848 0
-7850 34 7806 7821 7849 0
7850 -34 0
7850 -7806 0
7850 -7821 0
7850 -7849 0
7851 -2737 -7850 0
-7851 2737 0
-7851 7850 0
-7852 80 3821 3822 7745 7746 643 0
7852 -80 0
7852 -3821 0
7852 -3822 0
7852 -7745 0
7852 -7746 0
7852 -643 0
7853 -146 -7852 0
-7853 146 0
-7853 7852 0
-7854 80 3821 3822 7750 7755 643 0
7854 -80 0
7854 -3821 0
7854 -3822 0
7854 -7750 0
7854 -7755 0
7854 -643 0
7855 -112 -7854 0
-7855 112 0
-7855 7854 0
-7856 3 7855 0
7856 -3 0
7856 -7855 0
7857 -2 -7856 0
-7857 2 0
-7857 7856 0
-7858 5 7853 7857 0
7858 -5 0
7858 -7853 0
7858 -7857 0
7859 -2807 -7858 0
-7859 2807 0
-7859 7858 0
-7860 60 770 6909 0
7860 -60 0
7860 -770 0
7860 -6909 0
7861 -62 -7860 0
-7861 62 0
-7861 7860 0
7862 -67 -7860 0
-7862 67 0
-7862 7860 0
-7863 69 7862 0
7863 -69 0
7863 -7862 0
7864 -71 -7863 0
-7864 71 0
-7864 7863 0
-7865 73 775 7864 0
7865 -73 0
7865 -775 0
7865 -7864 0
7866 -75 -7865 0
-7866 75 0
-7866 7865 0
-7867 80 763 767 7861 7866 783 0
7867 -80 0
7867 -763 0
7867 -767 0
7867 -7861 0
7867 -7866 0
7867 -783 0
7868 -89 -7867 0
-7868 89 0
-7868 7867 0
-7869 80 787 790 7661 7662 76 0
7869 -80 0
7869 -787 0
7869 -790 0
7869 -7661 0
7869 -7662 0
7869 -76 0
7870 -441 -7869 0
-7870 441 0
-7870 7869 0
-7871 600 7870 0
7871 -600 0
7871 -7870 0
7872 -615 -7871 0
-7872 615 0
-7872 7871 0
-7873 60 801 7531 0
7873 -60 0
7873 -801 0
7873 -7531 0
7874 -62 -7873 0
-7874 62 0
-7874 7873 0
7875 -67 -7873 0
-7875 67 0
-7875 7873 0
-7876 69 7875 0
7876 -69 0
7876 -7875 0
7877 -71 -7876 0
-7877 71 0
-7877 7876 0
-7878 73 775 7877 0
7878 -73 0
7878 -775 0
7878 -7877 0
7879 -75 -7878 0
-7879 75 0
-7879 7878 0
-7880 80 796 799 7874 7879 783 0
7880 -80 0
7880 -796 0
7880 -799 0
7880 -7874 0
7880 -7879 0
7880 -783 0
7881 -112 -7880 0
-7881 112 0
-7881 7880 0
-7882 3 7881 0
7882 -3 0
7882 -7881 0
7883 -12 -7882 0
-7883 12 0
-7883 7882 0
-7884 14 7872 8 7883 0
7884 -14 0
7884 -7872 0
7884 -8 0
7884 -7883 0
7885 -28 -7884 0
-7885 28 0
-7885 7884 0
-7886 30 7868 7885 0
7886 -30 0
7886 -7868 0
7886 -7885 0
7887 -210 -7886 0
-7887 210 0
-7887 7886 0
-7888 212 7887 0
7888 -212 0
7888 -7887 0
7889 -3099 -7888 0
-7889 3099 0
-7889 7888 0
-7890 3101 7732 7851 7859 7889 0
7890 -3101 0
7890 -7732 0
7890 -7851 0
7890 -7859 0
7890 -7889 0
7891 -3851 -7890 0
-7891 3851 0
-7891 7890 0
7892 -180 -7627 0
-7892 180 0
-7892 7627 0
-7893 80 3883 3894 3905 7861 7866 783 0
7893 -80 0
7893 -3883 0
7893 -3894 0
7893 -3905 0
7893 -7861 0
7893 -7866 0
7893 -783 0
7894 -89 -7893 0
-7894 89 0
-7894 7893 0
7895 -602 -7871 0
-7895 602 0
-7895 7871 0
7896 -441 -7665 0
-7896 441 0
-7896 7665 0
-7897 600 7896 0
7897 -600 0
7897 -7896 0
7898 -613 -7897 0
-7898 613 0
-7898 7897 0
-7899 80 7861 7866 783 0
7899 -80 0
7899 -7861 0
7899 -7866 0
7899 -783 0
7900 -146 -7899 0
-7900 146 0
-7900 7899 0
-7901 80 7874 7879 783 0
7901 -80 0
7901 -7874 0
7901 -7879 0
7901 -783 0
7902 -112 -7901 0
-7902 112 0
-7902 7901 0
-7903 3 7902 0
7903 -3 0
7903 -7902 0
7904 -2 -7903 0
-7904 2 0
-7904 7903 0
-7905 5 7900 7904 0
7905 -5 0
7905 -7900 0
7905 -7904 0
7906 -7 -7905 0
-7906 7 0
-7906 7905 0
-7907 600 7582 0
7907 -600 0
7907 -7582 0
7908 -609 -7907 0
-7908 609 0
-7908 7907 0
7909 -82 -7899 0
-7909 82 0
-7909 7899 0
-7910 121 7908 7909 83 0
7910 -121 0
7910 -7908 0
7910 -7909 0
7910 -83 0
7911 -127 -7910 0
-7911 127 0
-7911 7910 0
-7912 22 7898 7906 7911 91 0
7912 -22 0
7912 -7898 0
7912 -7906 0
7912 -7911 0
7912 -91 0
7913 -26 -7912 0
-7913 26 0
-7913 7912 0
-7914 600 7832 0
7914 -600 0
7914 -7832 0
7915 -624 -7914 0
-7915 624 0
-7915 7914 0
-7916 34 7913 7915 0
7916 -34 0
7916 -7913 0
7916 -7915 0
7917 -2737 -7916 0
-7917 2737 0
-7917 7916 0
-7918 80 3932 3935 7861 7866 783 0
7918 -80 0
7918 -3932 0
7918 -3935 0
7918 -7861 0
7918 -7866 0
7918 -783 0
7919 -146 -7918 0
-7919 146 0
-7919 7918 0
-7920 80 3932 3935 7874 7879 783 0
7920 -80 0
7920 -3932 0
7920 -3935 0
7920 -7874 0
7920 -7879 0
7920 -783 0
7921 -112 -7920 0
-7921 112 0
-7921 7920 0
-7922 3 7921 0
7922 -3 0
7922 -7921 0
7923 -2 -7922 0
-7923 2 0
-7923 7922 0
-7924 5 7919 7923 0
7924 -5 0
7924 -7919 0
7924 -7923 0
7925 -2807 -7924 0
-7925 2807 0
-7925 7924 0
-7926 3101 7895 7917 7925 3132 0
7926 -3101 0
7926 -7895 0
7926 -7917 0
7926 -7925 0
7926 -3132 0
7927 -3116 -7926 0
-7927 3116 0
-7927 7926 0
-7928 80 3946 3948 3595 7661 7662 76 0
7928 -80 0
7928 -3946 0
7928 -3948 0
7928 -3595 0
7928 -7661 0
7928 -7662 0
7928 -76 0
7929 -441 -7928 0
-7929 441 0
-7929 7928 0
-7930 600 7929 0
7930 -600 0
7930 -7929 0
7931 -615 -7930 0
-7931 615 0
-7931 7930 0
-7932 80 3955 3958 3964 7874 7879 783 0
7932 -80 0
7932 -3955 0
7932 -3958 0
7932 -3964 0
7932 -7874 0
7932 -7879 0
7932 -783 0
7933 -112 -7932 0
-7933 112 0
-7933 7932 0
-7934 3 7933 0
7934 -3 0
7934 -7933 0
7935 -12 -7934 0
-7935 12 0
-7935 7934 0
-7936 14 7927 7931 8 7935 0
7936 -14 0
7936 -7927 0
7936 -7931 0
7936 -8 0
7936 -7935 0
7937 -28 -7936 0
-7937 28 0
-7937 7936 0
-7938 30 7894 7937 0
7938 -30 0
7938 -7894 0
7938 -7937 0
7939 -210 -7938 0
-7939 210 0
-7939 7938 0
-7940 212 7939 0
7940 -212 0
7940 -7939 0
7941 -214 -7940 0
-7941 214 0
-7941 7940 0
-7942 216 7891 7892 7941 0
7942 -216 0
7942 -7891 0
7942 -7892 0
7942 -7941 0
7943 -218 -7942 0
-7943 218 0
-7943 7942 0
-7944 80 3108 4429 4433 221 76 0
7944 -80 0
7944 -3108 0
7944 -4429 0
7944 -4433 0
7944 -221 0
7944 -76 0
7945 -441 -7944 0
-7945 441 0
-7945 7944 0
-7946 80 3147 3853 3165 221 76 0
7946 -80 0
7946 -3147 0
7946 -3853 0
7946 -3165 0
7946 -221 0
7946 -76 0
7947 -89 -7946 0
-7947 89 0
-7947 7946 0
7948 -7 -1063 0
-7948 7 0
-7948 1063 0
-7949 22 7948 91 0
7949 -22 0
7949 -7948 0
7949 -91 0
7950 -26 -7949 0
-7950 26 0
-7950 7949 0
-7951 34 7950 0
7951 -34 0
7951 -7950 0
7952 -2737 -7951 0
-7952 2737 0
-7952 7951 0
-7953 80 3183 3186 221 76 0
7953 -80 0
7953 -3183 0
7953 -3186 0
7953 -221 0
7953 -76 0
7954 -146 -7953 0
-7954 146 0
-7954 7953 0
7955 -112 -7953 0
-7955 112 0
-7955 7953 0
-7956 3 7955 0
7956 -3 0
7956 -7955 0
7957 -2 -7956 0
-7957 2 0
-7957 7956 0
-7958 5 7954 7957 0
7958 -5 0
7958 -7954 0
7958 -7957 0
7959 -2807 -7958 0
-7959 2807 0
-7959 7958 0
-7960 3101 7952 7959 3132 0
7960 -3101 0
7960 -7952 0
7960 -7959 0
7960 -3132 0
7961 -3116 -7960 0
-7961 3116 0
-7961 7960 0
-7962 80 3200 3857 3209 221 76 0
7962 -80 0
7962 -3200 0
7962 -3857 0
7962 -3209 0
7962 -221 0
7962 -76 0
7963 -112 -7962 0
-7963 112 0
-7963 7962 0
-7964 3 7963 0
7964 -3 0
7964 -7963 0
7965 -12 -7964 0
-7965 12 0
-7965 7964 0
-7966 14 7961 8 7965 0
7966 -14 0
7966 -7961 0
7966 -8 0
7966 -7965 0
7967 -28 -7966 0
-7967 28 0
-7967 7966 0
-7968 30 7947 7967 0
7968 -30 0
7968 -7947 0
7968 -7967 0
7969 -210 -7968 0
-7969 210 0
-7969 7968 0
-7970 212 7969 0
7970 -212 0
7970 -7969 0
7971 -598 -7970 0
-7971 598 0
-7971 7970 0
-7972 600 7945 7971 0
7972 -600 0
7972 -7945 0
7972 -7971 0
7973 -609 -7972 0
-7973 609 0
-7973 7972 0
7974 -75 -7373 0
-7974 75 0
-7974 7373 0
-7975 80 3875 4358 4368 7974 3287 0
7975 -80 0
7975 -3875 0
7975 -4358 0
7975 -4368 0
7975 -7974 0
7975 -3287 0
7976 -82 -7975 0
-7976 82 0
-7976 7975 0
-7977 80 3292 3301 3309 832 679 0
7977 -80 0
7977 -3292 0
7977 -3301 0
7977 -3309 0
7977 -832 0
7977 -679 0
7978 -89 -7977 0
-7978 89 0
-7978 7977 0
7979 -602 -837 0
-7979 602 0
-7979 837 0
7980 -613 -1203 0
-7980 613 0
-7980 1203 0
7981 -146 -1201 0
-7981 146 0
-7981 1201 0
7982 -2 -1206 0
-7982 2 0
-7982 1206 0
-7983 5 7981 7982 0
7983 -5 0
7983 -7981 0
7983 -7982 0
7984 -7 -7983 0
-7984 7 0
-7984 7983 0
-7985 22 7980 7984 91 0
7985 -22 0
7985 -7980 0
7985 -7984 0
7985 -91 0
7986 -26 -7985 0
-7986 26 0
-7986 7985 0
7987 -624 -2174 0
-7987 624 0
-7987 2174 0
-7988 34 7986 7987 0
7988 -34 0
7988 -7986 0
7988 -7987 0
7989 -2737 -7988 0
-7989 2737 0
-7989 7988 0
-7990 80 3336 3339 832 679 0
7990 -80 0
7990 -3336 0
7990 -3339 0
7990 -832 0
7990 -679 0
7991 -146 -7990 0
-7991 146 0
-7991 7990 0
7992 -112 -7990 0
-7992 112 0
-7992 7990 0
-7993 3 7992 0
7993 -3 0
7993 -7992 0
7994 -2 -7993 0
-7994 2 0
-7994 7993 0
-7995 5 7991 7994 0
7995 -5 0
7995 -7991 0
7995 -7994 0
7996 -2807 -7995 0
-7996 2807 0
-7996 7995 0
-7997 3101 7979 7989 7996 3132 0
7997 -3101 0
7997 -7979 0
7997 -7989 0
7997 -7996 0
7997 -3132 0
7998 -3116 -7997 0
-7998 3116 0
-7998 7997 0
7999 -441 -6416 0
-7999 441 0
-7999 6416 0
-8000 600 7999 625 0
8000 -600 0
8000 -7999 0
8000 -625 0
8001 -615 -8000 0
-8001 615 0
-8001 8000 0
-8002 80 3360 7618 3369 832 679 0
8002 -80 0
8002 -3360 0
8002 -7618 0
8002 -3369 0
8002 -832 0
8002 -679 0
8003 -112 -8002 0
-8003 112 0
-8003 8002 0
-8004 3 8003 0
8004 -3 0
8004 -8003 0
8005 -12 -8004 0
-8005 12 0
-8005 8004 0
-8006 14 7998 8001 8 8005 0
8006 -14 0
8006 -7998 0
8006 -8001 0
8006 -8 0
8006 -8005 0
8007 -28 -8006 0
-8007 28 0
-8007 8006 0
-8008 30 7978 8007 0
8008 -30 0
8008 -7978 0
8008 -8007 0
8009 -119 -8008 0
-8009 119 0
-8009 8008 0
-8010 121 7973 7976 83 8009 0
8010 -121 0
8010 -7973 0
8010 -7976 0
8010 -83 0
8010 -8009 0
8011 -134 -8010 0
-8011 134 0
-8011 8010 0
-8012 73 7633 219 0
8012 -73 0
8012 -7633 0
8012 -219 0
8013 -75 -8012 0
-8013 75 0
-8013 8012 0
-8014 80 3389 4374 4378 8013 3447 0
8014 -80 0
8014 -3389 0
8014 -4374 0
8014 -4378 0
8014 -8013 0
8014 -3447 0
8015 -146 -8014 0
-8015 146 0
-8015 8014 0
-8016 73 7645 219 0
8016 -73 0
8016 -7645 0
8016 -219 0
8017 -75 -8016 0
-8017 75 0
-8017 8016 0
-8018 80 3451 4388 4397 8017 3550 0
8018 -80 0
8018 -3451 0
8018 -4388 0
8018 -4397 0
8018 -8017 0
8018 -3550 0
8019 -112 -8018 0
-8019 112 0
-8019 8018 0
-8020 3 8019 0
8020 -3 0
8020 -8019 0
8021 -2 -8020 0
-8021 2 0
-8021 8020 0
-8022 5 8015 8021 0
8022 -5 0
8022 -8015 0
8022 -8021 0
8023 -38 -8022 0
-8023 38 0
-8023 8022 0
-8024 40 8011 8023 0
8024 -40 0
8024 -8011 0
8024 -8023 0
8025 -42 -8024 0
-8025 42 0
-8025 8024 0
8026 -44 -8022 0
-8026 44 0
-8026 8022 0
-8027 56 8026 0
8027 -56 0
8027 -8026 0
8028 -58 -8027 0
-8028 58 0
-8028 8027 0
-8029 60 8025 8028 0
8029 -60 0
8029 -8025 0
8029 -8028 0
8030 -259 -8029 0
-8030 259 0
-8030 8029 0
-8031 80 3559 4499 4503 7657 76 0
8031 -80 0
8031 -3559 0
8031 -4499 0
8031 -4503 0
8031 -7657 0
8031 -76 0
8032 -441 -8031 0
-8032 441 0
-8032 8031 0
-8033 80 3589 3591 3595 7661 76 0
8033 -80 0
8033 -3589 0
8033 -3591 0
8033 -3595 0
8033 -7661 0
8033 -76 0
8034 -89 -8033 0
-8034 89 0
-8034 8033 0
-8035 80 7661 76 0
8035 -80 0
8035 -7661 0
8035 -76 0
8036 -146 -8035 0
-8036 146 0
-8036 8035 0
-8037 80 7668 76 0
8037 -80 0
8037 -7668 0
8037 -76 0
8038 -112 -8037 0
-8038 112 0
-8038 8037 0
-8039 3 8038 0
8039 -3 0
8039 -8038 0
8040 -2 -8039 0
-8040 2 0
-8040 8039 0
-8041 5 8036 8040 0
8041 -5 0
8041 -8036 0
8041 -8040 0
8042 -7 -8041 0
-8042 7 0
-8042 8041 0
8043 -82 -8035 0
-8043 82 0
-8043 8035 0
-8044 121 8043 83 0
8044 -121 0
8044 -8043 0
8044 -83 0
8045 -127 -8044 0
-8045 127 0
-8045 8044 0
-8046 22 8042 8045 91 0
8046 -22 0
8046 -8042 0
8046 -8045 0
8046 -91 0
8047 -26 -8046 0
-8047 26 0
-8047 8046 0
-8048 34 8047 0
8048 -34 0
8048 -8047 0
8049 -2737 -8048 0
-8049 2737 0
-8049 8048 0
-8050 80 2514 2920 7661 76 0
8050 -80 0
8050 -2514 0
8050 -2920 0
8050 -7661 0
8050 -76 0
8051 -146 -8050 0
-8051 146 0
-8051 8050 0
-8052 80 2514 2920 7668 76 0
8052 -80 0
8052 -2514 0
8052 -2920 0
8052 -7668 0
8052 -76 0
8053 -112 -8052 0
-8053 112 0
-8053 8052 0
-8054 3 8053 0
8054 -3 0
8054 -8053 0
8055 -2 -8054 0
-8055 2 0
-8055 8054 0
-8056 5 8051 8055 0
8056 -5 0
8056 -8051 0
8056 -8055 0
8057 -2807 -8056 0
-8057 2807 0
-8057 8056 0
-8058 3101 8049 8057 3132 0
8058 -3101 0
8058 -8049 0
8058 -8057 0
8058 -3132 0
8059 -3116 -8058 0
-8059 3116 0
-8059 8058 0
-8060 80 3629 3632 3636 7668 76 0
8060 -80 0
8060 -3629 0
8060 -3632 0
8060 -3636 0
8060 -7668 0
8060 -76 0
8061 -112 -8060 0
-8061 112 0
-8061 8060 0
-8062 3 8061 0
8062 -3 0
8062 -8061 0
8063 -12 -8062 0
-8063 12 0
-8063 8062 0
-8064 14 8059 8 8063 0
8064 -14 0
8064 -8059 0
8064 -8 0
8064 -8063 0
8065 -28 -8064 0
-8065 28 0
-8065 8064 0
-8066 30 8034 8065 0
8066 -30 0
8066 -8034 0
8066 -8065 0
8067 -210 -8066 0
-8067 210 0
-8067 8066 0
-8068 212 8067 0
8068 -212 0
8068 -8067 0
8069 -598 -8068 0
-8069 598 0
-8069 8068 0
-8070 600 8032 8069 0
8070 -600 0
8070 -8032 0
8070 -8069 0
8071 -635 -8070 0
-8071 635 0
-8071 8070 0
-8072 65 8071 0
8072 -65 0
8072 -8071 0
8073 -64 -8072 0
-8073 64 0
-8073 8072 0
8074 -441 -4571 0
-8074 441 0
-8074 4571 0
-8075 600 8074 4113 0
8075 -600 0
8075 -8074 0
8075 -4113 0
8076 -609 -8075 0
-8076 609 0
-8076 8075 0
-8077 80 3875 4358 4368 3287 0
8077 -80 0
8077 -3875 0
8077 -4358 0
8077 -4368 0
8077 -3287 0
8078 -82 -8077 0
-8078 82 0
-8078 8077 0
-8079 80 3360 7618 3369 679 0
8079 -80 0
8079 -3360 0
8079 -7618 0
8079 -3369 0
8079 -679 0
8080 -112 -8079 0
-8080 112 0
-8080 8079 0
-8081 3 8080 0
8081 -3 0
8081 -8080 0
8082 -12 -8081 0
-8082 12 0
-8082 8081 0
-8083 14 4139 4143 8 8082 0
8083 -14 0
8083 -4139 0
8083 -4143 0
8083 -8 0
8083 -8082 0
8084 -28 -8083 0
-8084 28 0
-8084 8083 0
-8085 30 4119 8084 0
8085 -30 0
8085 -4119 0
8085 -8084 0
8086 -119 -8085 0
-8086 119 0
-8086 8085 0
-8087 121 8076 8078 83 8086 0
8087 -121 0
8087 -8076 0
8087 -8078 0
8087 -83 0
8087 -8086 0
8088 -134 -8087 0
-8088 134 0
-8088 8087 0
-8089 80 3389 4374 4378 3447 0
8089 -80 0
8089 -3389 0
8089 -4374 0
8089 -4378 0
8089 -3447 0
8090 -146 -8089 0
-8090 146 0
-8090 8089 0
-8091 80 3451 4388 4397 3550 0
8091 -80 0
8091 -3451 0
8091 -4388 0
8091 -4397 0
8091 -3550 0
8092 -112 -8091 0
-8092 112 0
-8092 8091 0
-8093 3 8092 0
8093 -3 0
8093 -8092 0
8094 -2 -8093 0
-8094 2 0
-8094 8093 0
-8095 5 8090 8094 0
8095 -5 0
8095 -8090 0
8095 -8094 0
8096 -38 -8095 0
-8096 38 0
-8096 8095 0
-8097 40 8088 8096 0
8097 -40 0
8097 -8088 0
8097 -8096 0
8098 -42 -8097 0
-8098 42 0
-8098 8097 0
8099 -44 -8095 0
-8099 44 0
-8099 8095 0
-8100 56 8099 0
8100 -56 0
8100 -8099 0
8101 -58 -8100 0
-8101 58 0
-8101 8100 0
-8102 60 8098 8101 0
8102 -60 0
8102 -8098 0
8102 -8101 0
8103 -67 -8102 0
-8103 67 0
-8103 8102 0
-8104 69 8103 0
8104 -69 0
8104 -8103 0
8105 -71 -8104 0
-8105 71 0
-8105 8104 0
-8106 73 8073 8105 0
8106 -73 0
8106 -8073 0
8106 -8105 0
8107 -299 -8106 0
-8107 299 0
-8107 8106 0
-8108 80 938 941 7715 7716 76 0
8108 -80 0
8108 -938 0
8108 -941 0
8108 -7715 0
8108 -7716 0
8108 -76 0
8109 -441 -8108 0
-8109 441 0
-8109 8108 0
8110 -89 -7869 0
-8110 89 0
-8110 7869 0
-8111 30 8110 0
8111 -30 0
8111 -8110 0
8112 -210 -8111 0
-8112 210 0
-8112 8111 0
-8113 212 8112 0
8113 -212 0
8113 -8112 0
8114 -598 -8113 0
-8114 598 0
-8114 8113 0
-8115 600 8109 8114 0
8115 -600 0
8115 -8109 0
8115 -8114 0
8116 -602 -8115 0
-8116 602 0
-8116 8115 0
8117 -613 -7788 0
-8117 613 0
-8117 7788 0
8118 -62 -7123 0
-8118 62 0
-8118 7123 0
8119 -75 -7128 0
-8119 75 0
-8119 7128 0
-8120 80 8118 8119 980 0
8120 -80 0
8120 -8118 0
8120 -8119 0
8120 -980 0
8121 -146 -8120 0
-8121 146 0
-8121 8120 0
8122 -2 -7799 0
-8122 2 0
-8122 7799 0
-8123 5 8121 8122 0
8123 -5 0
8123 -8121 0
8123 -8122 0
8124 -7 -8123 0
-8124 7 0
-8124 8123 0
-8125 30 7762 0
8125 -30 0
8125 -7762 0
8126 -210 -8125 0
-8126 210 0
-8126 8125 0
-8127 212 8126 0
8127 -212 0
8127 -8126 0
8128 -598 -8127 0
-8128 598 0
-8128 8127 0
-8129 600 7582 8128 0
8129 -600 0
8129 -7582 0
8129 -8128 0
8130 -609 -8129 0
-8130 609 0
-8130 8129 0
8131 -82 -8120 0
-8131 82 0
-8131 8120 0
-8132 30 7775 0
8132 -30 0
8132 -7775 0
8133 -119 -8132 0
-8133 119 0
-8133 8132 0
-8134 121 8130 8131 83 8133 0
8134 -121 0
8134 -8130 0
8134 -8131 0
8134 -83 0
8134 -8133 0
8135 -127 -8134 0
-8135 127 0
-8135 8134 0
-8136 22 8117 8124 8135 91 0
8136 -22 0
8136 -8117 0
8136 -8124 0
8136 -8135 0
8136 -91 0
8137 -26 -8136 0
-8137 26 0
-8137 8136 0
-8138 80 938 7715 7716 76 0
8138 -80 0
8138 -938 0
8138 -7715 0
8138 -7716 0
8138 -76 0
8139 -441 -8138 0
-8139 441 0
-8139 8138 0
8140 -89 -7831 0
-8140 89 0
-8140 7831 0
-8141 30 8140 0
8141 -30 0
8141 -8140 0
8142 -210 -8141 0
-8142 210 0
-8142 8141 0
-8143 212 8142 0
8143 -212 0
8143 -8142 0
8144 -598 -8143 0
-8144 598 0
-8144 8143 0
-8145 600 8139 8144 0
8145 -600 0
8145 -8139 0
8145 -8144 0
8146 -624 -8145 0
-8146 624 0
-8146 8145 0
8147 -62 -7307 0
-8147 62 0
-8147 7307 0
8148 -75 -7312 0
-8148 75 0
-8148 7312 0
-8149 80 4227 8147 8148 679 0
8149 -80 0
8149 -4227 0
8149 -8147 0
8149 -8148 0
8149 -679 0
8150 -89 -8149 0
-8150 89 0
-8150 8149 0
-8151 30 8150 0
8151 -30 0
8151 -8150 0
8152 -32 -8151 0
-8152 32 0
-8152 8151 0
-8153 34 8137 8146 8152 0
8153 -34 0
8153 -8137 0
8153 -8146 0
8153 -8152 0
8154 -2737 -8153 0
-8154 2737 0
-8154 8153 0
-8155 80 4244 4247 8118 8119 980 0
8155 -80 0
8155 -4244 0
8155 -4247 0
8155 -8118 0
8155 -8119 0
8155 -980 0
8156 -146 -8155 0
-8156 146 0
-8156 8155 0
-8157 80 4244 4247 7791 7796 980 0
8157 -80 0
8157 -4244 0
8157 -4247 0
8157 -7791 0
8157 -7796 0
8157 -980 0
8158 -112 -8157 0
-8158 112 0
-8158 8157 0
-8159 3 8158 0
8159 -3 0
8159 -8158 0
8160 -2 -8159 0
-8160 2 0
-8160 8159 0
-8161 5 8156 8160 0
8161 -5 0
8161 -8156 0
8161 -8160 0
8162 -2807 -8161 0
-8162 2807 0
-8162 8161 0
-8163 80 4257 4260 7861 7866 783 0
8163 -80 0
8163 -4257 0
8163 -4260 0
8163 -7861 0
8163 -7866 0
8163 -783 0
8164 -89 -8163 0
-8164 89 0
-8164 8163 0
-8165 30 8164 0
8165 -30 0
8165 -8164 0
8166 -210 -8165 0
-8166 210 0
-8166 8165 0
-8167 212 8166 0
8167 -212 0
8167 -8166 0
8168 -3099 -8167 0
-8168 3099 0
-8168 8167 0
-8169 3101 8116 8154 8162 8168 0
8169 -3101 0
8169 -8116 0
8169 -8154 0
8169 -8162 0
8169 -8168 0
8170 -3116 -8169 0
-8170 3116 0
-8170 8169 0
-8171 80 4271 4273 4277 8118 8119 76 0
8171 -80 0
8171 -4271 0
8171 -4273 0
8171 -4277 0
8171 -8118 0
8171 -8119 0
8171 -76 0
8172 -441 -8171 0
-8172 441 0
-8172 8171 0
8173 -89 -7928 0
-8173 89 0
-8173 7928 0
-8174 30 8173 0
8174 -30 0
8174 -8173 0
8175 -210 -8174 0
-8175 210 0
-8175 8174 0
-8176 212 8175 0
8176 -212 0
8176 -8175 0
8177 -598 -8176 0
-8177 598 0
-8177 8176 0
-8178 600 8172 8177 0
8178 -600 0
8178 -8172 0
8178 -8177 0
8179 -615 -8178 0
-8179 615 0
-8179 8178 0
-8180 22 4632 955 90 958 91 0
8180 -22 0
8180 -4632 0
8180 -955 0
8180 -90 0
8180 -958 0
8180 -91 0
8181 -24 -8180 0
-8181 24 0
-8181 8180 0
-8182 80 4290 8181 4299 7791 7796 980 0
8182 -80 0
8182 -4290 0
8182 -8181 0
8182 -4299 0
8182 -7791 0
8182 -7796 0
8182 -980 0
8183 -112 -8182 0
-8183 112 0
-8183 8182 0
-8184 3 8183 0
8184 -3 0
8184 -8183 0
8185 -12 -8184 0
-8185 12 0
-8185 8184 0
-8186 14 8170 8179 8 8185 0
8186 -14 0
8186 -8170 0
8186 -8179 0
8186 -8 0
8186 -8185 0
8187 -325 -8186 0
-8187 325 0
-8187 8186 0
-8188 80 3559 4499 4503 7657 7658 0
8188 -80 0
8188 -3559 0
8188 -4499 0
8188 -4503 0
8188 -7657 0
8188 -7658 0
8189 -441 -8188 0
-8189 441 0
-8189 8188 0
-8190 80 3589 3591 3595 7661 7662 0
8190 -80 0
8190 -3589 0
8190 -3591 0
8190 -3595 0
8190 -7661 0
8190 -7662 0
8191 -89 -8190 0
-8191 89 0
-8191 8190 0
-8192 80 7661 7662 0
8192 -80 0
8192 -7661 0
8192 -7662 0
8193 -146 -8192 0
-8193 146 0
-8193 8192 0
-8194 80 7668 7673 0
8194 -80 0
8194 -7668 0
8194 -7673 0
8195 -112 -8194 0
-8195 112 0
-8195 8194 0
-8196 3 8195 0
8196 -3 0
8196 -8195 0
8197 -2 -8196 0
-8197 2 0
-8197 8196 0
-8198 5 8193 8197 0
8198 -5 0
8198 -8193 0
8198 -8197 0
8199 -7 -8198 0
-8199 7 0
-8199 8198 0
8200 -82 -8192 0
-8200 82 0
-8200 8192 0
-8201 121 8200 83 0
8201 -121 0
8201 -8200 0
8201 -83 0
8202 -127 -8201 0
-8202 127 0
-8202 8201 0
-8203 22 8199 8202 91 0
8203 -22 0
8203 -8199 0
8203 -8202 0
8203 -91 0
8204 -26 -8203 0
-8204 26 0
-8204 8203 0
-8205 34 8204 0
8205 -34 0
8205 -8204 0
8206 -2737 -8205 0
-8206 2737 0
-8206 8205 0
-8207 80 2514 2920 7661 7662 0
8207 -80 0
8207 -2514 0
8207 -2920 0
8207 -7661 0
8207 -7662 0
8208 -146 -8207 0
-8208 146 0
-8208 8207 0
-8209 80 2514 2920 7668 7673 0
8209 -80 0
8209 -2514 0
8209 -2920 0
8209 -7668 0
8209 -7673 0
8210 -112 -8209 0
-8210 112 0
-8210 8209 0
-8211 3 8210 0
8211 -3 0
8211 -8210 0
8212 -2 -8211 0
-8212 2 0
-8212 8211 0
-8213 5 8208 8212 0
8213 -5 0
8213 -8208 0
8213 -8212 0
8214 -2807 -8213 0
-8214 2807 0
-8214 8213 0
-8215 3101 8206 8214 3132 0
8215 -3101 0
8215 -8206 0
8215 -8214 0
8215 -3132 0
8216 -3116 -8215 0
-8216 3116 0
-8216 8215 0
-8217 80 3629 3632 3636 7668 7673 0
8217 -80 0
8217 -3629 0
8217 -3632 0
8217 -3636 0
8217 -7668 0
8217 -7673 0
8218 -112 -8217 0
-8218 112 0
-8218 8217 0
-8219 3 8218 0
8219 -3 0
8219 -8218 0
8220 -12 -8219 0
-8220 12 0
-8220 8219 0
-8221 14 8216 8 8220 0
8221 -14 0
8221 -8216 0
8221 -8 0
8221 -8220 0
8222 -28 -8221 0
-8222 28 0
-8222 8221 0
-8223 30 8191 8222 0
8223 -30 0
8223 -8191 0
8223 -8222 0
8224 -210 -8223 0
-8224 210 0
-8224 8223 0
-8225 212 8224 0
8225 -212 0
8225 -8224 0
8226 -598 -8225 0
-8226 598 0
-8226 8225 0
-8227 600 8189 8226 0
8227 -600 0
8227 -8189 0
8227 -8226 0
8228 -641 -8227 0
-8228 641 0
-8228 8227 0
-8229 78 8228 0
8229 -78 0
8229 -8228 0
8230 -329 -8229 0
-8230 329 0
-8230 8229 0
8231 -4350 -7890 0
-8231 4350 0
-8231 7890 0
8232 -331 -8029 0
-8232 331 0
-8232 8029 0
-8233 333 8231 8232 0
8233 -333 0
8233 -8231 0
8233 -8232 0
8234 -335 -8233 0
-8234 335 0
-8234 8233 0
-8235 337 7628 7656 7714 7943 8030 8107 8187 326 8230 8234 0
8235 -337 0
8235 -7628 0
8235 -7656 0
8235 -7714 0
8235 -7943 0
8235 -8030 0
8235 -8107 0
8235 -8187 0
8235 -326 0
8235 -8230 0
8235 -8234 0
8236 -375 -8235 0
-8236 375 0
-8236 8235 0
-8237 47 8236 0
8237 -47 0
8237 -8236 0
8238 -46 -8237 0
-8238 46 0
-8238 8237 0
8239 -401 -8235 0
-8239 401 0
-8239 8235 0
8240 -250 -7520 0
-8240 250 0
-8240 7520 0
-8241 50 8239 8240 0
8241 -50 0
8241 -8239 0
8241 -8240 0
8242 -49 -8241 0
-8242 49 0
-8242 8241 0
-8243 52 7521 8238 8242 0
8243 -52 0
8243 -7521 0
8243 -8238 0
8243 -8242 0
8244 -8245 -8243 0
-8244 8245 0
-8244 8243 0
-8246 8247 3102 5437 6906 8244 0
8246 -8247 0
8246 -3102 0
8246 -5437 0
8246 -6906 0
8246 -8244 0
8248 -8246 -8249 0
-8248 8246 0
-8248 8249 0
8248 0
