c BC-S1.2
p cnf 1668 5656
1 -2 -3 0
-1 2 0
-1 3 0
4 -5 -6 0
-4 5 0
-4 6 0
-7 8 4 0
7 -8 0
7 -4 0
9 -10 -7 0
-9 10 0
-9 7 0
11 -12 -13 0
-11 12 0
-11 13 0
-14 15 11 0
14 -15 0
14 -11 0
16 -17 -14 0
-16 17 0
-16 14 0
-18 19 9 16 0
18 -19 0
18 -9 0
18 -16 0
20 -21 -18 0
-20 21 0
-20 18 0
-22 23 1 20 0
22 -23 0
22 -1 0
22 -20 0
24 -25 -22 0
-24 25 0
-24 22 0
26 -27 -22 0
-26 27 0
-26 22 0
28 -29 -30 0
-28 29 0
-28 30 0
31 -32 -33 0
-31 32 0
-31 33 0
-34 35 26 28 31 0
34 -35 0
34 -26 0
34 -28 0
34 -31 0
36 -37 -34 0
-36 37 0
-36 34 0
-38 23 1 0
38 -23 0
38 -1 0
39 -40 -38 0
-39 40 0
-39 38 0
-41 8 39 4 0
41 -8 0
41 -39 0
41 -4 0
42 -10 -41 0
-42 10 0
-42 41 0
43 -44 -38 0
-43 44 0
-43 38 0
-45 13 43 0
45 -13 0
45 -43 0
46 -12 -45 0
-46 12 0
-46 45 0
-47 15 46 0
47 -15 0
47 -46 0
48 -17 -47 0
-48 17 0
-48 47 0
-49 19 42 48 0
49 -19 0
49 -42 0
49 -48 0
50 -51 -49 0
-50 51 0
-50 49 0
52 -53 -22 0
-52 53 0
-52 22 0
54 -55 -49 0
-54 55 0
-54 49 0
56 -57 -22 0
-56 57 0
-56 22 0
58 -17 -15 0
-58 17 0
-58 15 0
-59 19 9 58 0
59 -19 0
59 -9 0
59 -58 0
60 -21 -59 0
-60 21 0
-60 59 0
-61 23 1 60 0
61 -23 0
61 -1 0
61 -60 0
62 -44 -61 0
-62 44 0
-62 61 0
-63 13 62 0
63 -13 0
63 -62 0
64 -65 -63 0
-64 65 0
-64 63 0
-66 8 39 0
66 -8 0
66 -39 0
67 -10 -66 0
-67 10 0
-67 66 0
-68 19 67 48 0
68 -19 0
68 -67 0
68 -48 0
69 -70 -68 0
-69 70 0
-69 68 0
-71 6 69 0
71 -6 0
71 -69 0
72 -73 -71 0
-72 73 0
-72 71 0
-74 75 64 72 0
74 -75 0
74 -64 0
74 -72 0
76 -77 -74 0
-76 77 0
-76 74 0
78 -79 -49 0
-78 79 0
-78 49 0
80 -81 -33 0
-80 81 0
-80 33 0
-82 83 56 76 78 80 0
82 -83 0
82 -56 0
82 -76 0
82 -78 0
82 -80 0
84 -85 -82 0
-84 85 0
-84 82 0
86 -87 -22 0
-86 87 0
-86 22 0
88 -89 -30 0
-88 89 0
-88 30 0
-90 91 86 88 0
90 -91 0
90 -86 0
90 -88 0
92 -93 -90 0
-92 93 0
-92 90 0
-94 95 84 92 0
94 -95 0
94 -84 0
94 -92 0
96 -97 -94 0
-96 97 0
-96 94 0
-98 99 52 54 96 0
98 -99 0
98 -52 0
98 -54 0
98 -96 0
100 -101 -98 0
-100 101 0
-100 98 0
102 -103 -30 0
-102 103 0
-102 30 0
-104 105 24 36 50 100 102 0
104 -105 0
104 -24 0
104 -36 0
104 -50 0
104 -100 0
104 -102 0
106 -107 -104 0
-106 107 0
-106 104 0
108 -25 -61 0
-108 25 0
-108 61 0
109 -27 -61 0
-109 27 0
-109 61 0
-110 35 109 28 31 0
110 -35 0
110 -109 0
110 -28 0
110 -31 0
111 -37 -110 0
-111 37 0
-111 110 0
-112 19 42 58 0
112 -19 0
112 -42 0
112 -58 0
113 -51 -112 0
-113 51 0
-113 112 0
114 -53 -61 0
-114 53 0
-114 61 0
115 -55 -112 0
-115 55 0
-115 112 0
116 -57 -61 0
-116 57 0
-116 61 0
117 -79 -112 0
-117 79 0
-117 112 0
-118 83 116 117 80 0
118 -83 0
118 -116 0
118 -117 0
118 -80 0
119 -85 -118 0
-119 85 0
-119 118 0
120 -87 -61 0
-120 87 0
-120 61 0
-121 91 120 88 0
121 -91 0
121 -120 0
121 -88 0
122 -93 -121 0
-122 93 0
-122 121 0
-123 95 119 122 0
123 -95 0
123 -119 0
123 -122 0
124 -97 -123 0
-124 97 0
-124 123 0
-125 99 114 115 124 0
125 -99 0
125 -114 0
125 -115 0
125 -124 0
126 -101 -125 0
-126 101 0
-126 125 0
-127 105 108 111 113 126 102 0
127 -105 0
127 -108 0
127 -111 0
127 -113 0
127 -126 0
127 -102 0
128 -129 -127 0
-128 129 0
-128 127 0
-130 13 62 128 0
130 -13 0
130 -62 0
130 -128 0
131 -65 -130 0
-131 65 0
-131 130 0
132 -25 -38 0
-132 25 0
-132 38 0
133 -27 -38 0
-133 27 0
-133 38 0
-134 35 133 28 31 0
134 -35 0
134 -133 0
134 -28 0
134 -31 0
135 -37 -134 0
-135 37 0
-135 134 0
136 -53 -38 0
-136 53 0
-136 38 0
137 -57 -38 0
-137 57 0
-137 38 0
-138 83 137 80 0
138 -83 0
138 -137 0
138 -80 0
139 -85 -138 0
-139 85 0
-139 138 0
140 -87 -38 0
-140 87 0
-140 38 0
-141 91 140 88 0
141 -91 0
141 -140 0
141 -88 0
142 -93 -141 0
-142 93 0
-142 141 0
-143 95 139 142 0
143 -95 0
143 -139 0
143 -142 0
144 -97 -143 0
-144 97 0
-144 143 0
-145 99 136 144 0
145 -99 0
145 -136 0
145 -144 0
146 -101 -145 0
-146 101 0
-146 145 0
-147 105 132 135 146 102 0
147 -105 0
147 -132 0
147 -135 0
147 -146 0
147 -102 0
148 -129 -147 0
-148 129 0
-148 147 0
-149 13 43 148 0
149 -13 0
149 -43 0
149 -148 0
150 -12 -149 0
-150 12 0
-150 149 0
-151 15 150 0
151 -15 0
151 -150 0
152 -17 -151 0
-152 17 0
-152 151 0
-153 19 67 152 0
153 -19 0
153 -67 0
153 -152 0
154 -70 -153 0
-154 70 0
-154 153 0
-155 6 154 0
155 -6 0
155 -154 0
156 -73 -155 0
-156 73 0
-156 155 0
-157 75 131 156 0
157 -75 0
157 -131 0
157 -156 0
158 -159 -157 0
-158 159 0
-158 157 0
160 -73 -6 0
-160 73 0
-160 6 0
-161 75 160 0
161 -75 0
161 -160 0
162 -77 -161 0
-162 77 0
-162 161 0
-163 83 137 162 80 0
163 -83 0
163 -137 0
163 -162 0
163 -80 0
164 -85 -163 0
-164 85 0
-164 163 0
-165 95 164 142 0
165 -95 0
165 -164 0
165 -142 0
166 -97 -165 0
-166 97 0
-166 165 0
-167 99 136 166 0
167 -99 0
167 -136 0
167 -166 0
168 -101 -167 0
-168 101 0
-168 167 0
-169 105 132 135 168 102 0
169 -105 0
169 -132 0
169 -135 0
169 -168 0
169 -102 0
170 -129 -169 0
-170 129 0
-170 169 0
-171 13 170 0
171 -13 0
171 -170 0
172 -12 -171 0
-172 12 0
-172 171 0
-173 15 172 0
173 -15 0
173 -172 0
174 -17 -173 0
-174 17 0
-174 173 0
-175 19 9 174 0
175 -19 0
175 -9 0
175 -174 0
176 -21 -175 0
-176 21 0
-176 175 0
-177 23 1 176 0
177 -23 0
177 -1 0
177 -176 0
178 -179 -177 0
-178 179 0
-178 177 0
-180 13 43 170 0
180 -13 0
180 -43 0
180 -170 0
181 -12 -180 0
-181 12 0
-181 180 0
-182 15 181 0
182 -15 0
182 -181 0
183 -17 -182 0
-183 17 0
-183 182 0
-184 19 42 183 0
184 -19 0
184 -42 0
184 -183 0
185 -186 -184 0
-185 186 0
-185 184 0
187 -188 -30 0
-187 188 0
-187 30 0
-189 19 9 0
189 -19 0
189 -9 0
190 -21 -189 0
-190 21 0
-190 189 0
-191 23 1 190 0
191 -23 0
191 -1 0
191 -190 0
192 -44 -191 0
-192 44 0
-192 191 0
193 -25 -191 0
-193 25 0
-193 191 0
194 -27 -191 0
-194 27 0
-194 191 0
-195 35 194 28 31 0
195 -35 0
195 -194 0
195 -28 0
195 -31 0
196 -37 -195 0
-196 37 0
-196 195 0
-197 19 42 0
197 -19 0
197 -42 0
198 -51 -197 0
-198 51 0
-198 197 0
199 -53 -191 0
-199 53 0
-199 191 0
200 -55 -197 0
-200 55 0
-200 197 0
201 -57 -191 0
-201 57 0
-201 191 0
-202 19 67 0
202 -19 0
202 -67 0
203 -70 -202 0
-203 70 0
-203 202 0
-204 6 203 0
204 -6 0
204 -203 0
205 -73 -204 0
-205 73 0
-205 204 0
-206 75 205 0
206 -75 0
206 -205 0
207 -77 -206 0
-207 77 0
-207 206 0
208 -79 -197 0
-208 79 0
-208 197 0
-209 83 201 207 208 80 0
209 -83 0
209 -201 0
209 -207 0
209 -208 0
209 -80 0
210 -85 -209 0
-210 85 0
-210 209 0
211 -87 -191 0
-211 87 0
-211 191 0
-212 91 211 88 0
212 -91 0
212 -211 0
212 -88 0
213 -93 -212 0
-213 93 0
-213 212 0
-214 95 210 213 0
214 -95 0
214 -210 0
214 -213 0
215 -97 -214 0
-215 97 0
-215 214 0
-216 99 199 200 215 0
216 -99 0
216 -199 0
216 -200 0
216 -215 0
217 -101 -216 0
-217 101 0
-217 216 0
-218 105 193 196 198 217 102 0
218 -105 0
218 -193 0
218 -196 0
218 -198 0
218 -217 0
218 -102 0
219 -129 -218 0
-219 129 0
-219 218 0
-220 13 192 219 0
220 -13 0
220 -192 0
220 -219 0
221 -12 -220 0
-221 12 0
-221 220 0
-222 15 221 0
222 -15 0
222 -221 0
223 -224 -222 0
-223 224 0
-223 222 0
-225 95 164 0
225 -95 0
225 -164 0
226 -97 -225 0
-226 97 0
-226 225 0
-227 99 136 226 0
227 -99 0
227 -136 0
227 -226 0
228 -101 -227 0
-228 101 0
-228 227 0
-229 105 132 135 228 102 0
229 -105 0
229 -132 0
229 -135 0
229 -228 0
229 -102 0
230 -129 -229 0
-230 129 0
-230 229 0
-231 13 230 0
231 -13 0
231 -230 0
232 -12 -231 0
-232 12 0
-232 231 0
-233 15 232 0
233 -15 0
233 -232 0
234 -17 -233 0
-234 17 0
-234 233 0
-235 19 9 234 0
235 -19 0
235 -9 0
235 -234 0
236 -21 -235 0
-236 21 0
-236 235 0
-237 23 1 236 0
237 -23 0
237 -1 0
237 -236 0
238 -87 -237 0
-238 87 0
-238 237 0
-239 91 238 88 0
239 -91 0
239 -238 0
239 -88 0
240 -241 -239 0
-240 241 0
-240 239 0
-242 243 106 158 178 185 187 223 240 0
242 -243 0
242 -106 0
242 -158 0
242 -178 0
242 -185 0
242 -187 0
242 -223 0
242 -240 0
244 -245 -242 0
-244 245 0
-244 242 0
246 -65 -13 0
-246 65 0
-246 13 0
247 -10 -8 0
-247 10 0
-247 8 0
-248 19 247 16 0
248 -19 0
248 -247 0
248 -16 0
249 -70 -248 0
-249 70 0
-249 248 0
-250 6 249 0
250 -6 0
250 -249 0
251 -73 -250 0
-251 73 0
-251 250 0
-252 75 246 251 0
252 -75 0
252 -246 0
252 -251 0
253 -159 -252 0
-253 159 0
-253 252 0
254 -186 -18 0
-254 186 0
-254 18 0
255 -224 -14 0
-255 224 0
-255 14 0
-256 91 88 0
256 -91 0
256 -88 0
257 -241 -256 0
-257 241 0
-257 256 0
-258 243 253 254 187 255 257 0
258 -243 0
258 -253 0
258 -254 0
258 -187 0
258 -255 0
258 -257 0
259 -260 -258 0
-259 260 0
-259 258 0
-261 3 259 0
261 -3 0
261 -259 0
262 -2 -261 0
-262 2 0
-262 261 0
-263 75 246 160 0
263 -75 0
263 -246 0
263 -160 0
264 -159 -263 0
-264 159 0
-264 263 0
-265 243 264 187 255 257 0
265 -243 0
265 -264 0
265 -187 0
265 -255 0
265 -257 0
266 -267 -265 0
-266 267 0
-266 265 0
-268 8 266 4 0
268 -8 0
268 -266 0
268 -4 0
269 -10 -268 0
-269 10 0
-269 268 0
-270 19 269 16 0
270 -19 0
270 -269 0
270 -16 0
271 -21 -270 0
-271 21 0
-271 270 0
-272 23 262 271 0
272 -23 0
272 -262 0
272 -271 0
273 -25 -272 0
-273 25 0
-273 272 0
274 -159 -74 0
-274 159 0
-274 74 0
275 -179 -22 0
-275 179 0
-275 22 0
276 -186 -49 0
-276 186 0
-276 49 0
-277 13 192 0
277 -13 0
277 -192 0
278 -12 -277 0
-278 12 0
-278 277 0
-279 15 278 0
279 -15 0
279 -278 0
280 -224 -279 0
-280 224 0
-280 279 0
281 -241 -90 0
-281 241 0
-281 90 0
-282 243 274 275 276 187 280 281 0
282 -243 0
282 -274 0
282 -275 0
282 -276 0
282 -187 0
282 -280 0
282 -281 0
283 -284 -282 0
-283 284 0
-283 282 0
285 -27 -272 0
-285 27 0
-285 272 0
-286 35 283 285 28 31 0
286 -35 0
286 -283 0
286 -285 0
286 -28 0
286 -31 0
287 -37 -286 0
-287 37 0
-287 286 0
288 -65 -45 0
-288 65 0
-288 45 0
-289 75 288 160 0
289 -75 0
289 -288 0
289 -160 0
290 -159 -289 0
-290 159 0
-290 289 0
291 -179 -38 0
-291 179 0
-291 38 0
292 -224 -47 0
-292 224 0
-292 47 0
293 -241 -141 0
-293 241 0
-293 141 0
-294 243 290 291 187 292 293 0
294 -243 0
294 -290 0
294 -291 0
294 -187 0
294 -292 0
294 -293 0
295 -267 -294 0
-295 267 0
-295 294 0
296 -260 -265 0
-296 260 0
-296 265 0
-297 3 296 0
297 -3 0
297 -296 0
298 -2 -297 0
-298 2 0
-298 297 0
-299 23 298 0
299 -23 0
299 -298 0
300 -40 -299 0
-300 40 0
-300 299 0
-301 8 295 300 4 0
301 -8 0
301 -295 0
301 -300 0
301 -4 0
302 -10 -301 0
-302 10 0
-302 301 0
-303 243 264 187 257 0
303 -243 0
303 -264 0
303 -187 0
303 -257 0
304 -260 -303 0
-304 260 0
-304 303 0
-305 3 304 0
305 -3 0
305 -304 0
306 -2 -305 0
-306 2 0
-306 305 0
-307 23 306 0
307 -23 0
307 -306 0
308 -44 -307 0
-308 44 0
-308 307 0
-309 13 308 0
309 -13 0
309 -308 0
310 -12 -309 0
-310 12 0
-310 309 0
-311 15 310 0
311 -15 0
311 -310 0
312 -17 -311 0
-312 17 0
-312 311 0
-313 19 302 312 0
313 -19 0
313 -302 0
313 -312 0
314 -51 -313 0
-314 51 0
-314 313 0
315 -53 -272 0
-315 53 0
-315 272 0
316 -55 -313 0
-316 55 0
-316 313 0
317 -57 -272 0
-317 57 0
-317 272 0
318 -186 -59 0
-318 186 0
-318 59 0
319 -224 -15 0
-319 224 0
-319 15 0
-320 243 318 187 319 257 0
320 -243 0
320 -318 0
320 -187 0
320 -319 0
320 -257 0
321 -260 -320 0
-321 260 0
-321 320 0
-322 3 321 0
322 -3 0
322 -321 0
323 -2 -322 0
-323 2 0
-323 322 0
-324 243 187 319 257 0
324 -243 0
324 -187 0
324 -319 0
324 -257 0
325 -267 -324 0
-325 267 0
-325 324 0
-326 8 325 4 0
326 -8 0
326 -325 0
326 -4 0
327 -10 -326 0
-327 10 0
-327 326 0
-328 19 327 58 0
328 -19 0
328 -327 0
328 -58 0
329 -21 -328 0
-329 21 0
-329 328 0
-330 23 323 329 0
330 -23 0
330 -323 0
330 -329 0
331 -44 -330 0
-331 44 0
-331 330 0
-332 13 331 0
332 -13 0
332 -331 0
333 -65 -332 0
-333 65 0
-333 332 0
-334 243 291 187 292 293 0
334 -243 0
334 -291 0
334 -187 0
334 -292 0
334 -293 0
335 -267 -334 0
-335 267 0
-335 334 0
-336 243 187 255 257 0
336 -243 0
336 -187 0
336 -255 0
336 -257 0
337 -260 -336 0
-337 260 0
-337 336 0
-338 3 337 0
338 -3 0
338 -337 0
339 -2 -338 0
-339 2 0
-339 338 0
-340 23 339 0
340 -23 0
340 -339 0
341 -40 -340 0
-341 40 0
-341 340 0
-342 8 335 341 0
342 -8 0
342 -335 0
342 -341 0
343 -10 -342 0
-343 10 0
-343 342 0
344 -260 -324 0
-344 260 0
-344 324 0
-345 3 344 0
345 -3 0
345 -344 0
346 -2 -345 0
-346 2 0
-346 345 0
-347 23 346 0
347 -23 0
347 -346 0
348 -44 -347 0
-348 44 0
-348 347 0
-349 13 348 0
349 -13 0
349 -348 0
350 -12 -349 0
-350 12 0
-350 349 0
-351 15 350 0
351 -15 0
351 -350 0
352 -17 -351 0
-352 17 0
-352 351 0
-353 19 343 352 0
353 -19 0
353 -343 0
353 -352 0
354 -70 -353 0
-354 70 0
-354 353 0
-355 6 354 0
355 -6 0
355 -354 0
356 -73 -355 0
-356 73 0
-356 355 0
-357 75 333 356 0
357 -75 0
357 -333 0
357 -356 0
358 -77 -357 0
-358 77 0
-358 357 0
359 -79 -313 0
-359 79 0
-359 313 0
-360 83 317 358 359 80 0
360 -83 0
360 -317 0
360 -358 0
360 -359 0
360 -80 0
361 -85 -360 0
-361 85 0
-361 360 0
-362 243 253 254 187 255 0
362 -243 0
362 -253 0
362 -254 0
362 -187 0
362 -255 0
363 -260 -362 0
-363 260 0
-363 362 0
-364 3 363 0
364 -3 0
364 -363 0
365 -2 -364 0
-365 2 0
-365 364 0
-366 243 264 187 255 0
366 -243 0
366 -264 0
366 -187 0
366 -255 0
367 -267 -366 0
-367 267 0
-367 366 0
-368 8 367 4 0
368 -8 0
368 -367 0
368 -4 0
369 -10 -368 0
-369 10 0
-369 368 0
-370 19 369 16 0
370 -19 0
370 -369 0
370 -16 0
371 -21 -370 0
-371 21 0
-371 370 0
-372 23 365 371 0
372 -23 0
372 -365 0
372 -371 0
373 -87 -372 0
-373 87 0
-373 372 0
-374 91 373 88 0
374 -91 0
374 -373 0
374 -88 0
375 -93 -374 0
-375 93 0
-375 374 0
-376 95 361 375 0
376 -95 0
376 -361 0
376 -375 0
377 -97 -376 0
-377 97 0
-377 376 0
-378 99 315 316 377 0
378 -99 0
378 -315 0
378 -316 0
378 -377 0
379 -101 -378 0
-379 101 0
-379 378 0
-380 105 273 287 314 379 102 0
380 -105 0
380 -273 0
380 -287 0
380 -314 0
380 -379 0
380 -102 0
381 -382 -380 0
-381 382 0
-381 380 0
-383 23 20 0
383 -23 0
383 -20 0
384 -25 -383 0
-384 25 0
-384 383 0
385 -27 -383 0
-385 27 0
-385 383 0
-386 35 385 28 31 0
386 -35 0
386 -385 0
386 -28 0
386 -31 0
387 -37 -386 0
-387 37 0
-387 386 0
388 -40 -23 0
-388 40 0
-388 23 0
-389 8 388 4 0
389 -8 0
389 -388 0
389 -4 0
390 -10 -389 0
-390 10 0
-390 389 0
391 -44 -23 0
-391 44 0
-391 23 0
-392 13 391 0
392 -13 0
392 -391 0
393 -12 -392 0
-393 12 0
-393 392 0
-394 15 393 0
394 -15 0
394 -393 0
395 -17 -394 0
-395 17 0
-395 394 0
-396 19 390 395 0
396 -19 0
396 -390 0
396 -395 0
397 -51 -396 0
-397 51 0
-397 396 0
398 -53 -383 0
-398 53 0
-398 383 0
399 -55 -396 0
-399 55 0
-399 396 0
400 -57 -383 0
-400 57 0
-400 383 0
-401 23 60 0
401 -23 0
401 -60 0
402 -44 -401 0
-402 44 0
-402 401 0
-403 13 402 0
403 -13 0
403 -402 0
404 -65 -403 0
-404 65 0
-404 403 0
-405 8 388 0
405 -8 0
405 -388 0
406 -10 -405 0
-406 10 0
-406 405 0
-407 19 406 395 0
407 -19 0
407 -406 0
407 -395 0
408 -70 -407 0
-408 70 0
-408 407 0
-409 6 408 0
409 -6 0
409 -408 0
410 -73 -409 0
-410 73 0
-410 409 0
-411 75 404 410 0
411 -75 0
411 -404 0
411 -410 0
412 -77 -411 0
-412 77 0
-412 411 0
413 -79 -396 0
-413 79 0
-413 396 0
-414 83 400 412 413 80 0
414 -83 0
414 -400 0
414 -412 0
414 -413 0
414 -80 0
415 -85 -414 0
-415 85 0
-415 414 0
416 -87 -383 0
-416 87 0
-416 383 0
-417 91 416 88 0
417 -91 0
417 -416 0
417 -88 0
418 -93 -417 0
-418 93 0
-418 417 0
-419 95 415 418 0
419 -95 0
419 -415 0
419 -418 0
420 -97 -419 0
-420 97 0
-420 419 0
-421 99 398 399 420 0
421 -99 0
421 -398 0
421 -399 0
421 -420 0
422 -101 -421 0
-422 101 0
-422 421 0
-423 105 384 387 397 422 102 0
423 -105 0
423 -384 0
423 -387 0
423 -397 0
423 -422 0
423 -102 0
424 -107 -423 0
-424 107 0
-424 423 0
425 -25 -401 0
-425 25 0
-425 401 0
426 -27 -401 0
-426 27 0
-426 401 0
-427 35 426 28 31 0
427 -35 0
427 -426 0
427 -28 0
427 -31 0
428 -37 -427 0
-428 37 0
-428 427 0
-429 19 390 58 0
429 -19 0
429 -390 0
429 -58 0
430 -51 -429 0
-430 51 0
-430 429 0
431 -53 -401 0
-431 53 0
-431 401 0
432 -55 -429 0
-432 55 0
-432 429 0
433 -57 -401 0
-433 57 0
-433 401 0
434 -79 -429 0
-434 79 0
-434 429 0
-435 83 433 434 80 0
435 -83 0
435 -433 0
435 -434 0
435 -80 0
436 -85 -435 0
-436 85 0
-436 435 0
437 -87 -401 0
-437 87 0
-437 401 0
-438 91 437 88 0
438 -91 0
438 -437 0
438 -88 0
439 -93 -438 0
-439 93 0
-439 438 0
-440 95 436 439 0
440 -95 0
440 -436 0
440 -439 0
441 -97 -440 0
-441 97 0
-441 440 0
-442 99 431 432 441 0
442 -99 0
442 -431 0
442 -432 0
442 -441 0
443 -101 -442 0
-443 101 0
-443 442 0
-444 105 425 428 430 443 102 0
444 -105 0
444 -425 0
444 -428 0
444 -430 0
444 -443 0
444 -102 0
445 -129 -444 0
-445 129 0
-445 444 0
-446 13 402 445 0
446 -13 0
446 -402 0
446 -445 0
447 -65 -446 0
-447 65 0
-447 446 0
448 -25 -23 0
-448 25 0
-448 23 0
449 -27 -23 0
-449 27 0
-449 23 0
-450 35 449 28 31 0
450 -35 0
450 -449 0
450 -28 0
450 -31 0
451 -37 -450 0
-451 37 0
-451 450 0
452 -53 -23 0
-452 53 0
-452 23 0
453 -57 -23 0
-453 57 0
-453 23 0
-454 83 453 80 0
454 -83 0
454 -453 0
454 -80 0
455 -85 -454 0
-455 85 0
-455 454 0
456 -87 -23 0
-456 87 0
-456 23 0
-457 91 456 88 0
457 -91 0
457 -456 0
457 -88 0
458 -93 -457 0
-458 93 0
-458 457 0
-459 95 455 458 0
459 -95 0
459 -455 0
459 -458 0
460 -97 -459 0
-460 97 0
-460 459 0
-461 99 452 460 0
461 -99 0
461 -452 0
461 -460 0
462 -101 -461 0
-462 101 0
-462 461 0
-463 105 448 451 462 102 0
463 -105 0
463 -448 0
463 -451 0
463 -462 0
463 -102 0
464 -129 -463 0
-464 129 0
-464 463 0
-465 13 391 464 0
465 -13 0
465 -391 0
465 -464 0
466 -12 -465 0
-466 12 0
-466 465 0
-467 15 466 0
467 -15 0
467 -466 0
468 -17 -467 0
-468 17 0
-468 467 0
-469 19 406 468 0
469 -19 0
469 -406 0
469 -468 0
470 -70 -469 0
-470 70 0
-470 469 0
-471 6 470 0
471 -6 0
471 -470 0
472 -73 -471 0
-472 73 0
-472 471 0
-473 75 447 472 0
473 -75 0
473 -447 0
473 -472 0
474 -159 -473 0
-474 159 0
-474 473 0
-475 83 453 162 80 0
475 -83 0
475 -453 0
475 -162 0
475 -80 0
476 -85 -475 0
-476 85 0
-476 475 0
-477 95 476 458 0
477 -95 0
477 -476 0
477 -458 0
478 -97 -477 0
-478 97 0
-478 477 0
-479 99 452 478 0
479 -99 0
479 -452 0
479 -478 0
480 -101 -479 0
-480 101 0
-480 479 0
-481 105 448 451 480 102 0
481 -105 0
481 -448 0
481 -451 0
481 -480 0
481 -102 0
482 -129 -481 0
-482 129 0
-482 481 0
-483 13 482 0
483 -13 0
483 -482 0
484 -12 -483 0
-484 12 0
-484 483 0
-485 15 484 0
485 -15 0
485 -484 0
486 -17 -485 0
-486 17 0
-486 485 0
-487 19 9 486 0
487 -19 0
487 -9 0
487 -486 0
488 -21 -487 0
-488 21 0
-488 487 0
-489 23 488 0
489 -23 0
489 -488 0
490 -179 -489 0
-490 179 0
-490 489 0
-491 13 391 482 0
491 -13 0
491 -391 0
491 -482 0
492 -12 -491 0
-492 12 0
-492 491 0
-493 15 492 0
493 -15 0
493 -492 0
494 -17 -493 0
-494 17 0
-494 493 0
-495 19 390 494 0
495 -19 0
495 -390 0
495 -494 0
496 -186 -495 0
-496 186 0
-496 495 0
-497 23 190 0
497 -23 0
497 -190 0
498 -44 -497 0
-498 44 0
-498 497 0
499 -25 -497 0
-499 25 0
-499 497 0
500 -27 -497 0
-500 27 0
-500 497 0
-501 35 500 28 31 0
501 -35 0
501 -500 0
501 -28 0
501 -31 0
502 -37 -501 0
-502 37 0
-502 501 0
-503 19 390 0
503 -19 0
503 -390 0
504 -51 -503 0
-504 51 0
-504 503 0
505 -53 -497 0
-505 53 0
-505 497 0
506 -55 -503 0
-506 55 0
-506 503 0
507 -57 -497 0
-507 57 0
-507 497 0
-508 19 406 0
508 -19 0
508 -406 0
509 -70 -508 0
-509 70 0
-509 508 0
-510 6 509 0
510 -6 0
510 -509 0
511 -73 -510 0
-511 73 0
-511 510 0
-512 75 511 0
512 -75 0
512 -511 0
513 -77 -512 0
-513 77 0
-513 512 0
514 -79 -503 0
-514 79 0
-514 503 0
-515 83 507 513 514 80 0
515 -83 0
515 -507 0
515 -513 0
515 -514 0
515 -80 0
516 -85 -515 0
-516 85 0
-516 515 0
517 -87 -497 0
-517 87 0
-517 497 0
-518 91 517 88 0
518 -91 0
518 -517 0
518 -88 0
519 -93 -518 0
-519 93 0
-519 518 0
-520 95 516 519 0
520 -95 0
520 -516 0
520 -519 0
521 -97 -520 0
-521 97 0
-521 520 0
-522 99 505 506 521 0
522 -99 0
522 -505 0
522 -506 0
522 -521 0
523 -101 -522 0
-523 101 0
-523 522 0
-524 105 499 502 504 523 102 0
524 -105 0
524 -499 0
524 -502 0
524 -504 0
524 -523 0
524 -102 0
525 -129 -524 0
-525 129 0
-525 524 0
-526 13 498 525 0
526 -13 0
526 -498 0
526 -525 0
527 -12 -526 0
-527 12 0
-527 526 0
-528 15 527 0
528 -15 0
528 -527 0
529 -224 -528 0
-529 224 0
-529 528 0
-530 95 476 0
530 -95 0
530 -476 0
531 -97 -530 0
-531 97 0
-531 530 0
-532 99 452 531 0
532 -99 0
532 -452 0
532 -531 0
533 -101 -532 0
-533 101 0
-533 532 0
-534 105 448 451 533 102 0
534 -105 0
534 -448 0
534 -451 0
534 -533 0
534 -102 0
535 -129 -534 0
-535 129 0
-535 534 0
-536 13 535 0
536 -13 0
536 -535 0
537 -12 -536 0
-537 12 0
-537 536 0
-538 15 537 0
538 -15 0
538 -537 0
539 -17 -538 0
-539 17 0
-539 538 0
-540 19 9 539 0
540 -19 0
540 -9 0
540 -539 0
541 -21 -540 0
-541 21 0
-541 540 0
-542 23 541 0
542 -23 0
542 -541 0
543 -87 -542 0
-543 87 0
-543 542 0
-544 91 543 88 0
544 -91 0
544 -543 0
544 -88 0
545 -241 -544 0
-545 241 0
-545 544 0
-546 243 424 474 490 496 187 529 545 0
546 -243 0
546 -424 0
546 -474 0
546 -490 0
546 -496 0
546 -187 0
546 -529 0
546 -545 0
547 -260 -546 0
-547 260 0
-547 546 0
-548 3 547 0
548 -3 0
548 -547 0
549 -550 -548 0
-549 550 0
-549 548 0
-551 552 244 381 549 0
551 -552 0
551 -244 0
551 -381 0
551 -549 0
553 -554 -551 0
-553 554 0
-553 551 0
-555 19 67 58 0
555 -19 0
555 -67 0
555 -58 0
556 -70 -555 0
-556 70 0
-556 555 0
-557 6 556 0
557 -6 0
557 -556 0
558 -73 -557 0
-558 73 0
-558 557 0
-559 75 558 0
559 -75 0
559 -558 0
560 -77 -559 0
-560 77 0
-560 559 0
-561 83 116 560 117 80 0
561 -83 0
561 -116 0
561 -560 0
561 -117 0
561 -80 0
562 -85 -561 0
-562 85 0
-562 561 0
-563 95 562 122 0
563 -95 0
563 -562 0
563 -122 0
564 -97 -563 0
-564 97 0
-564 563 0
-565 99 114 115 564 0
565 -99 0
565 -114 0
565 -115 0
565 -564 0
566 -101 -565 0
-566 101 0
-566 565 0
-567 105 108 111 113 566 102 0
567 -105 0
567 -108 0
567 -111 0
567 -113 0
567 -566 0
567 -102 0
568 -107 -567 0
-568 107 0
-568 567 0
569 -159 -559 0
-569 159 0
-569 559 0
570 -179 -61 0
-570 179 0
-570 61 0
571 -186 -112 0
-571 186 0
-571 112 0
572 -241 -121 0
-572 241 0
-572 121 0
-573 243 568 569 570 571 187 319 572 0
573 -243 0
573 -568 0
573 -569 0
573 -570 0
573 -571 0
573 -187 0
573 -319 0
573 -572 0
574 -245 -573 0
-574 245 0
-574 573 0
-575 19 247 58 0
575 -19 0
575 -247 0
575 -58 0
576 -70 -575 0
-576 70 0
-576 575 0
-577 6 576 0
577 -6 0
577 -576 0
578 -73 -577 0
-578 73 0
-578 577 0
-579 75 578 0
579 -75 0
579 -578 0
580 -159 -579 0
-580 159 0
-580 579 0
-581 243 580 318 187 319 257 0
581 -243 0
581 -580 0
581 -318 0
581 -187 0
581 -319 0
581 -257 0
582 -260 -581 0
-582 260 0
-582 581 0
-583 3 582 0
583 -3 0
583 -582 0
584 -2 -583 0
-584 2 0
-584 583 0
-585 243 264 187 319 257 0
585 -243 0
585 -264 0
585 -187 0
585 -319 0
585 -257 0
586 -267 -585 0
-586 267 0
-586 585 0
-587 8 586 4 0
587 -8 0
587 -586 0
587 -4 0
588 -10 -587 0
-588 10 0
-588 587 0
-589 19 588 58 0
589 -19 0
589 -588 0
589 -58 0
590 -21 -589 0
-590 21 0
-590 589 0
-591 23 584 590 0
591 -23 0
591 -584 0
591 -590 0
592 -25 -591 0
-592 25 0
-592 591 0
-593 243 569 570 571 187 319 572 0
593 -243 0
593 -569 0
593 -570 0
593 -571 0
593 -187 0
593 -319 0
593 -572 0
594 -284 -593 0
-594 284 0
-594 593 0
595 -27 -591 0
-595 27 0
-595 591 0
-596 35 594 595 28 31 0
596 -35 0
596 -594 0
596 -595 0
596 -28 0
596 -31 0
597 -37 -596 0
-597 37 0
-597 596 0
-598 243 290 291 187 319 293 0
598 -243 0
598 -290 0
598 -291 0
598 -187 0
598 -319 0
598 -293 0
599 -267 -598 0
-599 267 0
-599 598 0
600 -260 -585 0
-600 260 0
-600 585 0
-601 3 600 0
601 -3 0
601 -600 0
602 -2 -601 0
-602 2 0
-602 601 0
-603 23 602 0
603 -23 0
603 -602 0
604 -40 -603 0
-604 40 0
-604 603 0
-605 8 599 604 4 0
605 -8 0
605 -599 0
605 -604 0
605 -4 0
606 -10 -605 0
-606 10 0
-606 605 0
-607 19 606 58 0
607 -19 0
607 -606 0
607 -58 0
608 -51 -607 0
-608 51 0
-608 607 0
609 -53 -591 0
-609 53 0
-609 591 0
610 -55 -607 0
-610 55 0
-610 607 0
611 -57 -591 0
-611 57 0
-611 591 0
-612 243 291 187 319 293 0
612 -243 0
612 -291 0
612 -187 0
612 -319 0
612 -293 0
613 -267 -612 0
-613 267 0
-613 612 0
614 -40 -347 0
-614 40 0
-614 347 0
-615 8 613 614 0
615 -8 0
615 -613 0
615 -614 0
616 -10 -615 0
-616 10 0
-616 615 0
-617 19 616 58 0
617 -19 0
617 -616 0
617 -58 0
618 -70 -617 0
-618 70 0
-618 617 0
-619 6 618 0
619 -6 0
619 -618 0
620 -73 -619 0
-620 73 0
-620 619 0
-621 75 620 0
621 -75 0
621 -620 0
622 -77 -621 0
-622 77 0
-622 621 0
623 -79 -607 0
-623 79 0
-623 607 0
-624 83 611 622 623 80 0
624 -83 0
624 -611 0
624 -622 0
624 -623 0
624 -80 0
625 -85 -624 0
-625 85 0
-625 624 0
-626 243 580 318 187 319 0
626 -243 0
626 -580 0
626 -318 0
626 -187 0
626 -319 0
627 -260 -626 0
-627 260 0
-627 626 0
-628 3 627 0
628 -3 0
628 -627 0
629 -2 -628 0
-629 2 0
-629 628 0
-630 243 264 187 319 0
630 -243 0
630 -264 0
630 -187 0
630 -319 0
631 -267 -630 0
-631 267 0
-631 630 0
-632 8 631 4 0
632 -8 0
632 -631 0
632 -4 0
633 -10 -632 0
-633 10 0
-633 632 0
-634 19 633 58 0
634 -19 0
634 -633 0
634 -58 0
635 -21 -634 0
-635 21 0
-635 634 0
-636 23 629 635 0
636 -23 0
636 -629 0
636 -635 0
637 -87 -636 0
-637 87 0
-637 636 0
-638 91 637 88 0
638 -91 0
638 -637 0
638 -88 0
639 -93 -638 0
-639 93 0
-639 638 0
-640 95 625 639 0
640 -95 0
640 -625 0
640 -639 0
641 -97 -640 0
-641 97 0
-641 640 0
-642 99 609 610 641 0
642 -99 0
642 -609 0
642 -610 0
642 -641 0
643 -101 -642 0
-643 101 0
-643 642 0
-644 105 592 597 608 643 102 0
644 -105 0
644 -592 0
644 -597 0
644 -608 0
644 -643 0
644 -102 0
645 -382 -644 0
-645 382 0
-645 644 0
-646 19 406 58 0
646 -19 0
646 -406 0
646 -58 0
647 -70 -646 0
-647 70 0
-647 646 0
-648 6 647 0
648 -6 0
648 -647 0
649 -73 -648 0
-649 73 0
-649 648 0
-650 75 649 0
650 -75 0
650 -649 0
651 -77 -650 0
-651 77 0
-651 650 0
-652 83 433 651 434 80 0
652 -83 0
652 -433 0
652 -651 0
652 -434 0
652 -80 0
653 -85 -652 0
-653 85 0
-653 652 0
-654 95 653 439 0
654 -95 0
654 -653 0
654 -439 0
655 -97 -654 0
-655 97 0
-655 654 0
-656 99 431 432 655 0
656 -99 0
656 -431 0
656 -432 0
656 -655 0
657 -101 -656 0
-657 101 0
-657 656 0
-658 105 425 428 430 657 102 0
658 -105 0
658 -425 0
658 -428 0
658 -430 0
658 -657 0
658 -102 0
659 -107 -658 0
-659 107 0
-659 658 0
660 -159 -650 0
-660 159 0
-660 650 0
661 -179 -401 0
-661 179 0
-661 401 0
662 -186 -429 0
-662 186 0
-662 429 0
663 -241 -438 0
-663 241 0
-663 438 0
-664 243 659 660 661 662 187 319 663 0
664 -243 0
664 -659 0
664 -660 0
664 -661 0
664 -662 0
664 -187 0
664 -319 0
664 -663 0
665 -260 -664 0
-665 260 0
-665 664 0
-666 3 665 0
666 -3 0
666 -665 0
667 -550 -666 0
-667 550 0
-667 666 0
-668 552 574 645 667 0
668 -552 0
668 -574 0
668 -645 0
668 -667 0
669 -670 -668 0
-669 670 0
-669 668 0
-671 35 28 31 0
671 -35 0
671 -28 0
671 -31 0
672 -37 -671 0
-672 37 0
-672 671 0
673 -51 -59 0
-673 51 0
-673 59 0
674 -55 -59 0
-674 55 0
-674 59 0
675 -77 -579 0
-675 77 0
-675 579 0
676 -79 -59 0
-676 79 0
-676 59 0
-677 83 675 676 80 0
677 -83 0
677 -675 0
677 -676 0
677 -80 0
678 -85 -677 0
-678 85 0
-678 677 0
679 -93 -256 0
-679 93 0
-679 256 0
-680 95 678 679 0
680 -95 0
680 -678 0
680 -679 0
681 -97 -680 0
-681 97 0
-681 680 0
-682 99 674 681 0
682 -99 0
682 -674 0
682 -681 0
683 -101 -682 0
-683 101 0
-683 682 0
-684 105 672 673 683 102 0
684 -105 0
684 -672 0
684 -673 0
684 -683 0
684 -102 0
685 -107 -684 0
-685 107 0
-685 684 0
-686 243 685 580 318 187 319 257 0
686 -243 0
686 -685 0
686 -580 0
686 -318 0
686 -187 0
686 -319 0
686 -257 0
687 -245 -686 0
-687 245 0
-687 686 0
688 -284 -581 0
-688 284 0
-688 581 0
-689 35 688 28 31 0
689 -35 0
689 -688 0
689 -28 0
689 -31 0
690 -37 -689 0
-690 37 0
-690 689 0
691 -51 -589 0
-691 51 0
-691 589 0
692 -55 -589 0
-692 55 0
-692 589 0
-693 8 325 0
693 -8 0
693 -325 0
694 -10 -693 0
-694 10 0
-694 693 0
-695 19 694 58 0
695 -19 0
695 -694 0
695 -58 0
696 -70 -695 0
-696 70 0
-696 695 0
-697 6 696 0
697 -6 0
697 -696 0
698 -73 -697 0
-698 73 0
-698 697 0
-699 75 698 0
699 -75 0
699 -698 0
700 -77 -699 0
-700 77 0
-700 699 0
701 -79 -589 0
-701 79 0
-701 589 0
-702 83 700 701 80 0
702 -83 0
702 -700 0
702 -701 0
702 -80 0
703 -85 -702 0
-703 85 0
-703 702 0
-704 95 703 679 0
704 -95 0
704 -703 0
704 -679 0
705 -97 -704 0
-705 97 0
-705 704 0
-706 99 692 705 0
706 -99 0
706 -692 0
706 -705 0
707 -101 -706 0
-707 101 0
-707 706 0
-708 105 690 691 707 102 0
708 -105 0
708 -690 0
708 -691 0
708 -707 0
708 -102 0
709 -382 -708 0
-709 382 0
-709 708 0
710 -260 -686 0
-710 260 0
-710 686 0
-711 3 710 0
711 -3 0
711 -710 0
712 -550 -711 0
-712 550 0
-712 711 0
-713 552 687 709 712 0
713 -552 0
713 -687 0
713 -709 0
713 -712 0
714 -715 -713 0
-714 715 0
-714 713 0
716 -717 -552 0
-716 717 0
-716 552 0
-718 75 716 578 0
718 -75 0
718 -716 0
718 -578 0
719 -77 -718 0
-719 77 0
-719 718 0
-720 83 719 676 80 0
720 -83 0
720 -719 0
720 -676 0
720 -80 0
721 -85 -720 0
-721 85 0
-721 720 0
-722 95 721 679 0
722 -95 0
722 -721 0
722 -679 0
723 -97 -722 0
-723 97 0
-723 722 0
-724 99 674 723 0
724 -99 0
724 -674 0
724 -723 0
725 -101 -724 0
-725 101 0
-725 724 0
-726 105 672 673 725 102 0
726 -105 0
726 -672 0
726 -673 0
726 -725 0
726 -102 0
727 -107 -726 0
-727 107 0
-727 726 0
-728 83 676 80 0
728 -83 0
728 -676 0
728 -80 0
729 -85 -728 0
-729 85 0
-729 728 0
-730 95 729 679 0
730 -95 0
730 -729 0
730 -679 0
731 -97 -730 0
-731 97 0
-731 730 0
-732 99 674 731 0
732 -99 0
732 -674 0
732 -731 0
733 -101 -732 0
-733 101 0
-733 732 0
-734 105 672 673 733 102 0
734 -105 0
734 -672 0
734 -673 0
734 -733 0
734 -102 0
735 -382 -734 0
-735 382 0
-735 734 0
-736 552 735 0
736 -552 0
736 -735 0
737 -717 -736 0
-737 717 0
-737 736 0
-738 75 737 578 0
738 -75 0
738 -737 0
738 -578 0
739 -159 -738 0
-739 159 0
-739 738 0
-740 243 727 739 318 187 319 257 0
740 -243 0
740 -727 0
740 -739 0
740 -318 0
740 -187 0
740 -319 0
740 -257 0
741 -260 -740 0
-741 260 0
-741 740 0
-742 3 741 0
742 -3 0
742 -741 0
743 -2 -742 0
-743 2 0
-743 742 0
744 -550 -3 0
-744 550 0
-744 3 0
-745 552 744 0
745 -552 0
745 -744 0
746 -717 -745 0
-746 717 0
-746 745 0
-747 75 746 160 0
747 -75 0
747 -746 0
747 -160 0
748 -77 -747 0
-748 77 0
-748 747 0
-749 83 748 80 0
749 -83 0
749 -748 0
749 -80 0
750 -85 -749 0
-750 85 0
-750 749 0
-751 95 750 679 0
751 -95 0
751 -750 0
751 -679 0
752 -97 -751 0
-752 97 0
-752 751 0
-753 99 752 0
753 -99 0
753 -752 0
754 -101 -753 0
-754 101 0
-754 753 0
-755 105 672 754 102 0
755 -105 0
755 -672 0
755 -754 0
755 -102 0
756 -107 -755 0
-756 107 0
-756 755 0
757 -382 -147 0
-757 382 0
-757 147 0
-758 552 757 744 0
758 -552 0
758 -757 0
758 -744 0
759 -717 -758 0
-759 717 0
-759 758 0
-760 75 759 160 0
760 -75 0
760 -759 0
760 -160 0
761 -159 -760 0
-761 159 0
-761 760 0
-762 243 756 761 187 319 257 0
762 -243 0
762 -756 0
762 -761 0
762 -187 0
762 -319 0
762 -257 0
763 -267 -762 0
-763 267 0
-763 762 0
-764 8 763 4 0
764 -8 0
764 -763 0
764 -4 0
765 -10 -764 0
-765 10 0
-765 764 0
-766 19 765 58 0
766 -19 0
766 -765 0
766 -58 0
767 -21 -766 0
-767 21 0
-767 766 0
-768 23 714 743 767 0
768 -23 0
768 -714 0
768 -743 0
768 -767 0
769 -44 -768 0
-769 44 0
-769 768 0
770 -245 -581 0
-770 245 0
-770 581 0
771 -550 -583 0
-771 550 0
-771 583 0
-772 552 770 771 0
772 -552 0
772 -770 0
772 -771 0
773 -715 -772 0
-773 715 0
-773 772 0
774 -159 -718 0
-774 159 0
-774 718 0
-775 243 774 318 187 319 257 0
775 -243 0
775 -774 0
775 -318 0
775 -187 0
775 -319 0
775 -257 0
776 -260 -775 0
-776 260 0
-776 775 0
-777 3 776 0
777 -3 0
777 -776 0
778 -2 -777 0
-778 2 0
-778 777 0
779 -159 -747 0
-779 159 0
-779 747 0
-780 243 779 187 319 257 0
780 -243 0
780 -779 0
780 -187 0
780 -319 0
780 -257 0
781 -267 -780 0
-781 267 0
-781 780 0
-782 8 781 4 0
782 -8 0
782 -781 0
782 -4 0
783 -10 -782 0
-783 10 0
-783 782 0
-784 19 783 58 0
784 -19 0
784 -783 0
784 -58 0
785 -21 -784 0
-785 21 0
-785 784 0
-786 23 773 778 785 0
786 -23 0
786 -773 0
786 -778 0
786 -785 0
787 -25 -786 0
-787 25 0
-787 786 0
788 -715 -745 0
-788 715 0
-788 745 0
-789 23 788 1 0
789 -23 0
789 -788 0
789 -1 0
790 -40 -789 0
-790 40 0
-790 789 0
-791 8 790 0
791 -8 0
791 -790 0
792 -10 -791 0
-792 10 0
-792 791 0
-793 19 792 58 0
793 -19 0
793 -792 0
793 -58 0
794 -70 -793 0
-794 70 0
-794 793 0
-795 6 794 0
795 -6 0
795 -794 0
796 -73 -795 0
-796 73 0
-796 795 0
-797 75 746 796 0
797 -75 0
797 -746 0
797 -796 0
798 -159 -797 0
-798 159 0
-798 797 0
-799 23 788 1 60 0
799 -23 0
799 -788 0
799 -1 0
799 -60 0
800 -179 -799 0
-800 179 0
-800 799 0
-801 8 790 4 0
801 -8 0
801 -790 0
801 -4 0
802 -10 -801 0
-802 10 0
-802 801 0
-803 19 802 58 0
803 -19 0
803 -802 0
803 -58 0
804 -186 -803 0
-804 186 0
-804 803 0
805 -87 -799 0
-805 87 0
-805 799 0
-806 91 805 88 0
806 -91 0
806 -805 0
806 -88 0
807 -241 -806 0
-807 241 0
-807 806 0
-808 243 798 800 804 187 319 807 0
808 -243 0
808 -798 0
808 -800 0
808 -804 0
808 -187 0
808 -319 0
808 -807 0
809 -284 -808 0
-809 284 0
-809 808 0
810 -27 -786 0
-810 27 0
-810 786 0
-811 35 809 810 28 31 0
811 -35 0
811 -809 0
811 -810 0
811 -28 0
811 -31 0
812 -37 -811 0
-812 37 0
-812 811 0
813 -179 -789 0
-813 179 0
-813 789 0
814 -87 -789 0
-814 87 0
-814 789 0
-815 91 814 88 0
815 -91 0
815 -814 0
815 -88 0
816 -241 -815 0
-816 241 0
-816 815 0
-817 243 779 813 187 319 816 0
817 -243 0
817 -779 0
817 -813 0
817 -187 0
817 -319 0
817 -816 0
818 -267 -817 0
-818 267 0
-818 817 0
819 -245 -585 0
-819 245 0
-819 585 0
820 -550 -601 0
-820 550 0
-820 601 0
-821 552 819 820 0
821 -552 0
821 -819 0
821 -820 0
822 -715 -821 0
-822 715 0
-822 821 0
823 -260 -780 0
-823 260 0
-823 780 0
-824 3 823 0
824 -3 0
824 -823 0
825 -2 -824 0
-825 2 0
-825 824 0
-826 23 822 825 0
826 -23 0
826 -822 0
826 -825 0
827 -40 -826 0
-827 40 0
-827 826 0
-828 8 818 827 4 0
828 -8 0
828 -818 0
828 -827 0
828 -4 0
829 -10 -828 0
-829 10 0
-829 828 0
-830 19 829 58 0
830 -19 0
830 -829 0
830 -58 0
831 -51 -830 0
-831 51 0
-831 830 0
832 -53 -786 0
-832 53 0
-832 786 0
833 -55 -830 0
-833 55 0
-833 830 0
834 -57 -786 0
-834 57 0
-834 786 0
-835 243 570 571 187 319 572 0
835 -243 0
835 -570 0
835 -571 0
835 -187 0
835 -319 0
835 -572 0
836 -245 -835 0
-836 245 0
-836 835 0
-837 243 661 662 187 319 663 0
837 -243 0
837 -661 0
837 -662 0
837 -187 0
837 -319 0
837 -663 0
838 -260 -837 0
-838 260 0
-838 837 0
-839 3 838 0
839 -3 0
839 -838 0
840 -550 -839 0
-840 550 0
-840 839 0
-841 552 836 840 0
841 -552 0
841 -836 0
841 -840 0
842 -717 -841 0
-842 717 0
-842 841 0
843 -245 -324 0
-843 245 0
-843 324 0
844 -550 -345 0
-844 550 0
-844 345 0
-845 552 843 844 0
845 -552 0
845 -843 0
845 -844 0
846 -715 -845 0
-846 715 0
-846 845 0
-847 23 846 346 0
847 -23 0
847 -846 0
847 -346 0
848 -40 -847 0
-848 40 0
-848 847 0
-849 8 818 848 0
849 -8 0
849 -818 0
849 -848 0
850 -10 -849 0
-850 10 0
-850 849 0
-851 19 850 58 0
851 -19 0
851 -850 0
851 -58 0
852 -70 -851 0
-852 70 0
-852 851 0
-853 6 852 0
853 -6 0
853 -852 0
854 -73 -853 0
-854 73 0
-854 853 0
-855 75 842 854 0
855 -75 0
855 -842 0
855 -854 0
856 -77 -855 0
-856 77 0
-856 855 0
857 -79 -830 0
-857 79 0
-857 830 0
-858 83 834 856 857 80 0
858 -83 0
858 -834 0
858 -856 0
858 -857 0
858 -80 0
859 -85 -858 0
-859 85 0
-859 858 0
860 -245 -626 0
-860 245 0
-860 626 0
861 -550 -628 0
-861 550 0
-861 628 0
-862 552 860 861 0
862 -552 0
862 -860 0
862 -861 0
863 -715 -862 0
-863 715 0
-863 862 0
-864 243 774 318 187 319 0
864 -243 0
864 -774 0
864 -318 0
864 -187 0
864 -319 0
865 -260 -864 0
-865 260 0
-865 864 0
-866 3 865 0
866 -3 0
866 -865 0
867 -2 -866 0
-867 2 0
-867 866 0
-868 243 779 187 319 0
868 -243 0
868 -779 0
868 -187 0
868 -319 0
869 -267 -868 0
-869 267 0
-869 868 0
-870 8 869 4 0
870 -8 0
870 -869 0
870 -4 0
871 -10 -870 0
-871 10 0
-871 870 0
-872 19 871 58 0
872 -19 0
872 -871 0
872 -58 0
873 -21 -872 0
-873 21 0
-873 872 0
-874 23 863 867 873 0
874 -23 0
874 -863 0
874 -867 0
874 -873 0
875 -87 -874 0
-875 87 0
-875 874 0
-876 91 875 88 0
876 -91 0
876 -875 0
876 -88 0
877 -93 -876 0
-877 93 0
-877 876 0
-878 95 859 877 0
878 -95 0
878 -859 0
878 -877 0
879 -97 -878 0
-879 97 0
-879 878 0
-880 99 832 833 879 0
880 -99 0
880 -832 0
880 -833 0
880 -879 0
881 -101 -880 0
-881 101 0
-881 880 0
-882 105 787 812 831 881 102 0
882 -105 0
882 -787 0
882 -812 0
882 -831 0
882 -881 0
882 -102 0
883 -129 -882 0
-883 129 0
-883 882 0
-884 13 669 769 883 0
884 -13 0
884 -669 0
884 -769 0
884 -883 0
885 -886 -884 0
-885 886 0
-885 884 0
887 -670 -552 0
-887 670 0
-887 552 0
-888 13 887 0
888 -13 0
888 -887 0
889 -12 -888 0
-889 12 0
-889 888 0
-890 15 889 0
890 -15 0
890 -889 0
891 -17 -890 0
-891 17 0
-891 890 0
-892 19 9 891 0
892 -19 0
892 -9 0
892 -891 0
893 -21 -892 0
-893 21 0
-893 892 0
-894 23 788 893 0
894 -23 0
894 -788 0
894 -893 0
895 -25 -894 0
-895 25 0
-895 894 0
896 -27 -894 0
-896 27 0
-896 894 0
-897 35 896 28 31 0
897 -35 0
897 -896 0
897 -28 0
897 -31 0
898 -37 -897 0
-898 37 0
-898 897 0
-899 23 788 0
899 -23 0
899 -788 0
900 -40 -899 0
-900 40 0
-900 899 0
-901 8 900 4 0
901 -8 0
901 -900 0
901 -4 0
902 -10 -901 0
-902 10 0
-902 901 0
903 -44 -899 0
-903 44 0
-903 899 0
-904 13 887 903 0
904 -13 0
904 -887 0
904 -903 0
905 -12 -904 0
-905 12 0
-905 904 0
-906 15 905 0
906 -15 0
906 -905 0
907 -17 -906 0
-907 17 0
-907 906 0
-908 19 902 907 0
908 -19 0
908 -902 0
908 -907 0
909 -51 -908 0
-909 51 0
-909 908 0
910 -53 -894 0
-910 53 0
-910 894 0
911 -55 -908 0
-911 55 0
-911 908 0
912 -57 -894 0
-912 57 0
-912 894 0
-913 23 788 60 0
913 -23 0
913 -788 0
913 -60 0
914 -44 -913 0
-914 44 0
-914 913 0
-915 13 887 914 0
915 -13 0
915 -887 0
915 -914 0
916 -65 -915 0
-916 65 0
-916 915 0
-917 8 900 0
917 -8 0
917 -900 0
918 -10 -917 0
-918 10 0
-918 917 0
-919 19 918 907 0
919 -19 0
919 -918 0
919 -907 0
920 -70 -919 0
-920 70 0
-920 919 0
-921 6 920 0
921 -6 0
921 -920 0
922 -73 -921 0
-922 73 0
-922 921 0
-923 75 716 916 922 0
923 -75 0
923 -716 0
923 -916 0
923 -922 0
924 -77 -923 0
-924 77 0
-924 923 0
925 -79 -908 0
-925 79 0
-925 908 0
-926 83 912 924 925 80 0
926 -83 0
926 -912 0
926 -924 0
926 -925 0
926 -80 0
927 -85 -926 0
-927 85 0
-927 926 0
928 -87 -894 0
-928 87 0
-928 894 0
-929 91 928 88 0
929 -91 0
929 -928 0
929 -88 0
930 -93 -929 0
-930 93 0
-930 929 0
-931 95 927 930 0
931 -95 0
931 -927 0
931 -930 0
932 -97 -931 0
-932 97 0
-932 931 0
-933 99 910 911 932 0
933 -99 0
933 -910 0
933 -911 0
933 -932 0
934 -101 -933 0
-934 101 0
-934 933 0
-935 105 895 898 909 934 102 0
935 -105 0
935 -895 0
935 -898 0
935 -909 0
935 -934 0
935 -102 0
936 -107 -935 0
-936 107 0
-936 935 0
-937 83 400 413 80 0
937 -83 0
937 -400 0
937 -413 0
937 -80 0
938 -85 -937 0
-938 85 0
-938 937 0
-939 95 938 418 0
939 -95 0
939 -938 0
939 -418 0
940 -97 -939 0
-940 97 0
-940 939 0
-941 99 398 399 940 0
941 -99 0
941 -398 0
941 -399 0
941 -940 0
942 -101 -941 0
-942 101 0
-942 941 0
-943 105 384 387 397 942 102 0
943 -105 0
943 -384 0
943 -387 0
943 -397 0
943 -942 0
943 -102 0
944 -382 -943 0
-944 382 0
-944 943 0
-945 552 944 0
945 -552 0
945 -944 0
946 -717 -945 0
-946 717 0
-946 945 0
947 -382 -444 0
-947 382 0
-947 444 0
-948 552 947 0
948 -552 0
948 -947 0
949 -670 -948 0
-949 670 0
-949 948 0
950 -715 -736 0
-950 715 0
-950 736 0
-951 23 950 60 0
951 -23 0
951 -950 0
951 -60 0
952 -44 -951 0
-952 44 0
-952 951 0
953 -25 -913 0
-953 25 0
-953 913 0
954 -27 -913 0
-954 27 0
-954 913 0
-955 35 954 28 31 0
955 -35 0
955 -954 0
955 -28 0
955 -31 0
956 -37 -955 0
-956 37 0
-956 955 0
-957 19 902 58 0
957 -19 0
957 -902 0
957 -58 0
958 -51 -957 0
-958 51 0
-958 957 0
959 -53 -913 0
-959 53 0
-959 913 0
960 -55 -957 0
-960 55 0
-960 957 0
961 -57 -913 0
-961 57 0
-961 913 0
962 -79 -957 0
-962 79 0
-962 957 0
-963 83 961 962 80 0
963 -83 0
963 -961 0
963 -962 0
963 -80 0
964 -85 -963 0
-964 85 0
-964 963 0
965 -87 -913 0
-965 87 0
-965 913 0
-966 91 965 88 0
966 -91 0
966 -965 0
966 -88 0
967 -93 -966 0
-967 93 0
-967 966 0
-968 95 964 967 0
968 -95 0
968 -964 0
968 -967 0
969 -97 -968 0
-969 97 0
-969 968 0
-970 99 959 960 969 0
970 -99 0
970 -959 0
970 -960 0
970 -969 0
971 -101 -970 0
-971 101 0
-971 970 0
-972 105 953 956 958 971 102 0
972 -105 0
972 -953 0
972 -956 0
972 -958 0
972 -971 0
972 -102 0
973 -129 -972 0
-973 129 0
-973 972 0
-974 13 949 952 973 0
974 -13 0
974 -949 0
974 -952 0
974 -973 0
975 -65 -974 0
-975 65 0
-975 974 0
976 -382 -463 0
-976 382 0
-976 463 0
-977 552 976 0
977 -552 0
977 -976 0
978 -715 -977 0
-978 715 0
-978 977 0
-979 23 978 0
979 -23 0
979 -978 0
980 -40 -979 0
-980 40 0
-980 979 0
-981 8 980 0
981 -8 0
981 -980 0
982 -10 -981 0
-982 10 0
-982 981 0
983 -670 -977 0
-983 670 0
-983 977 0
984 -44 -979 0
-984 44 0
-984 979 0
985 -25 -899 0
-985 25 0
-985 899 0
986 -27 -899 0
-986 27 0
-986 899 0
-987 35 986 28 31 0
987 -35 0
987 -986 0
987 -28 0
987 -31 0
988 -37 -987 0
-988 37 0
-988 987 0
989 -53 -899 0
-989 53 0
-989 899 0
990 -57 -899 0
-990 57 0
-990 899 0
-991 83 990 80 0
991 -83 0
991 -990 0
991 -80 0
992 -85 -991 0
-992 85 0
-992 991 0
993 -87 -899 0
-993 87 0
-993 899 0
-994 91 993 88 0
994 -91 0
994 -993 0
994 -88 0
995 -93 -994 0
-995 93 0
-995 994 0
-996 95 992 995 0
996 -95 0
996 -992 0
996 -995 0
997 -97 -996 0
-997 97 0
-997 996 0
-998 99 989 997 0
998 -99 0
998 -989 0
998 -997 0
999 -101 -998 0
-999 101 0
-999 998 0
-1000 105 985 988 999 102 0
1000 -105 0
1000 -985 0
1000 -988 0
1000 -999 0
1000 -102 0
1001 -129 -1000 0
-1001 129 0
-1001 1000 0
-1002 13 983 984 1001 0
1002 -13 0
1002 -983 0
1002 -984 0
1002 -1001 0
1003 -12 -1002 0
-1003 12 0
-1003 1002 0
-1004 15 1003 0
1004 -15 0
1004 -1003 0
1005 -17 -1004 0
-1005 17 0
-1005 1004 0
-1006 19 982 1005 0
1006 -19 0
1006 -982 0
1006 -1005 0
1007 -70 -1006 0
-1007 70 0
-1007 1006 0
-1008 6 1007 0
1008 -6 0
1008 -1007 0
1009 -73 -1008 0
-1009 73 0
-1009 1008 0
-1010 75 946 975 1009 0
1010 -75 0
1010 -946 0
1010 -975 0
1010 -1009 0
1011 -159 -1010 0
-1011 159 0
-1011 1010 0
1012 -51 -18 0
-1012 51 0
-1012 18 0
1013 -55 -18 0
-1013 55 0
-1013 18 0
1014 -77 -252 0
-1014 77 0
-1014 252 0
1015 -79 -18 0
-1015 79 0
-1015 18 0
-1016 83 1014 1015 80 0
1016 -83 0
1016 -1014 0
1016 -1015 0
1016 -80 0
1017 -85 -1016 0
-1017 85 0
-1017 1016 0
-1018 95 1017 679 0
1018 -95 0
1018 -1017 0
1018 -679 0
1019 -97 -1018 0
-1019 97 0
-1019 1018 0
-1020 99 1013 1019 0
1020 -99 0
1020 -1013 0
1020 -1019 0
1021 -101 -1020 0
-1021 101 0
-1021 1020 0
-1022 105 672 1012 1021 102 0
1022 -105 0
1022 -672 0
1022 -1012 0
1022 -1021 0
1022 -102 0
1023 -382 -1022 0
-1023 382 0
-1023 1022 0
-1024 552 1023 0
1024 -552 0
1024 -1023 0
1025 -715 -1024 0
-1025 715 0
-1025 1024 0
1026 -382 -481 0
-1026 382 0
-1026 481 0
-1027 552 1026 0
1027 -552 0
1027 -1026 0
1028 -670 -1027 0
-1028 670 0
-1028 1027 0
1029 -129 -755 0
-1029 129 0
-1029 755 0
-1030 13 1028 1029 0
1030 -13 0
1030 -1028 0
1030 -1029 0
1031 -12 -1030 0
-1031 12 0
-1031 1030 0
-1032 15 1031 0
1032 -15 0
1032 -1031 0
1033 -17 -1032 0
-1033 17 0
-1033 1032 0
-1034 19 9 1033 0
1034 -19 0
1034 -9 0
1034 -1033 0
1035 -21 -1034 0
-1035 21 0
-1035 1034 0
-1036 23 1025 1035 0
1036 -23 0
1036 -1025 0
1036 -1035 0
1037 -179 -1036 0
-1037 179 0
-1037 1036 0
1038 -77 -263 0
-1038 77 0
-1038 263 0
-1039 83 453 1038 80 0
1039 -83 0
1039 -453 0
1039 -1038 0
1039 -80 0
1040 -85 -1039 0
-1040 85 0
-1040 1039 0
-1041 95 1040 458 0
1041 -95 0
1041 -1040 0
1041 -458 0
1042 -97 -1041 0
-1042 97 0
-1042 1041 0
-1043 99 452 1042 0
1043 -99 0
1043 -452 0
1043 -1042 0
1044 -101 -1043 0
-1044 101 0
-1044 1043 0
-1045 105 448 451 1044 102 0
1045 -105 0
1045 -448 0
1045 -451 0
1045 -1044 0
1045 -102 0
1046 -382 -1045 0
-1046 382 0
-1046 1045 0
-1047 552 1046 0
1047 -552 0
1047 -1046 0
1048 -715 -1047 0
-1048 715 0
-1048 1047 0
-1049 23 1048 0
1049 -23 0
1049 -1048 0
1050 -40 -1049 0
-1050 40 0
-1050 1049 0
-1051 8 1050 4 0
1051 -8 0
1051 -1050 0
1051 -4 0
1052 -10 -1051 0
-1052 10 0
-1052 1051 0
1053 -715 -1027 0
-1053 715 0
-1053 1027 0
-1054 23 1053 0
1054 -23 0
1054 -1053 0
1055 -44 -1054 0
-1055 44 0
-1055 1054 0
-1056 83 990 748 80 0
1056 -83 0
1056 -990 0
1056 -748 0
1056 -80 0
1057 -85 -1056 0
-1057 85 0
-1057 1056 0
-1058 95 1057 995 0
1058 -95 0
1058 -1057 0
1058 -995 0
1059 -97 -1058 0
-1059 97 0
-1059 1058 0
-1060 99 989 1059 0
1060 -99 0
1060 -989 0
1060 -1059 0
1061 -101 -1060 0
-1061 101 0
-1061 1060 0
-1062 105 985 988 1061 102 0
1062 -105 0
1062 -985 0
1062 -988 0
1062 -1061 0
1062 -102 0
1063 -129 -1062 0
-1063 129 0
-1063 1062 0
-1064 13 1028 1055 1063 0
1064 -13 0
1064 -1028 0
1064 -1055 0
1064 -1063 0
1065 -12 -1064 0
-1065 12 0
-1065 1064 0
-1066 15 1065 0
1066 -15 0
1066 -1065 0
1067 -17 -1066 0
-1067 17 0
-1067 1066 0
-1068 19 1052 1067 0
1068 -19 0
1068 -1052 0
1068 -1067 0
1069 -186 -1068 0
-1069 186 0
-1069 1068 0
1070 -382 -524 0
-1070 382 0
-1070 524 0
-1071 552 1070 0
1071 -552 0
1071 -1070 0
1072 -670 -1071 0
-1072 670 0
-1072 1071 0
1073 -51 -189 0
-1073 51 0
-1073 189 0
1074 -55 -189 0
-1074 55 0
-1074 189 0
-1075 19 247 0
1075 -19 0
1075 -247 0
1076 -70 -1075 0
-1076 70 0
-1076 1075 0
-1077 6 1076 0
1077 -6 0
1077 -1076 0
1078 -73 -1077 0
-1078 73 0
-1078 1077 0
-1079 75 1078 0
1079 -75 0
1079 -1078 0
1080 -77 -1079 0
-1080 77 0
-1080 1079 0
1081 -79 -189 0
-1081 79 0
-1081 189 0
-1082 83 1080 1081 80 0
1082 -83 0
1082 -1080 0
1082 -1081 0
1082 -80 0
1083 -85 -1082 0
-1083 85 0
-1083 1082 0
-1084 95 1083 679 0
1084 -95 0
1084 -1083 0
1084 -679 0
1085 -97 -1084 0
-1085 97 0
-1085 1084 0
-1086 99 1074 1085 0
1086 -99 0
1086 -1074 0
1086 -1085 0
1087 -101 -1086 0
-1087 101 0
-1087 1086 0
-1088 105 672 1073 1087 102 0
1088 -105 0
1088 -672 0
1088 -1073 0
1088 -1087 0
1088 -102 0
1089 -382 -1088 0
-1089 382 0
-1089 1088 0
-1090 552 1089 0
1090 -552 0
1090 -1089 0
1091 -715 -1090 0
-1091 715 0
-1091 1090 0
-1092 23 1091 190 0
1092 -23 0
1092 -1091 0
1092 -190 0
1093 -44 -1092 0
-1093 44 0
-1093 1092 0
-1094 23 788 190 0
1094 -23 0
1094 -788 0
1094 -190 0
1095 -25 -1094 0
-1095 25 0
-1095 1094 0
1096 -27 -1094 0
-1096 27 0
-1096 1094 0
-1097 35 1096 28 31 0
1097 -35 0
1097 -1096 0
1097 -28 0
1097 -31 0
1098 -37 -1097 0
-1098 37 0
-1098 1097 0
-1099 19 902 0
1099 -19 0
1099 -902 0
1100 -51 -1099 0
-1100 51 0
-1100 1099 0
1101 -53 -1094 0
-1101 53 0
-1101 1094 0
1102 -55 -1099 0
-1102 55 0
-1102 1099 0
1103 -57 -1094 0
-1103 57 0
-1103 1094 0
-1104 19 918 0
1104 -19 0
1104 -918 0
1105 -70 -1104 0
-1105 70 0
-1105 1104 0
-1106 6 1105 0
1106 -6 0
1106 -1105 0
1107 -73 -1106 0
-1107 73 0
-1107 1106 0
-1108 75 716 1107 0
1108 -75 0
1108 -716 0
1108 -1107 0
1109 -77 -1108 0
-1109 77 0
-1109 1108 0
1110 -79 -1099 0
-1110 79 0
-1110 1099 0
-1111 83 1103 1109 1110 80 0
1111 -83 0
1111 -1103 0
1111 -1109 0
1111 -1110 0
1111 -80 0
1112 -85 -1111 0
-1112 85 0
-1112 1111 0
1113 -87 -1094 0
-1113 87 0
-1113 1094 0
-1114 91 1113 88 0
1114 -91 0
1114 -1113 0
1114 -88 0
1115 -93 -1114 0
-1115 93 0
-1115 1114 0
-1116 95 1112 1115 0
1116 -95 0
1116 -1112 0
1116 -1115 0
1117 -97 -1116 0
-1117 97 0
-1117 1116 0
-1118 99 1101 1102 1117 0
1118 -99 0
1118 -1101 0
1118 -1102 0
1118 -1117 0
1119 -101 -1118 0
-1119 101 0
-1119 1118 0
-1120 105 1095 1098 1100 1119 102 0
1120 -105 0
1120 -1095 0
1120 -1098 0
1120 -1100 0
1120 -1119 0
1120 -102 0
1121 -129 -1120 0
-1121 129 0
-1121 1120 0
-1122 13 1072 1093 1121 0
1122 -13 0
1122 -1072 0
1122 -1093 0
1122 -1121 0
1123 -12 -1122 0
-1123 12 0
-1123 1122 0
-1124 15 1123 0
1124 -15 0
1124 -1123 0
1125 -224 -1124 0
-1125 224 0
-1125 1124 0
-1126 95 1017 0
1126 -95 0
1126 -1017 0
1127 -97 -1126 0
-1127 97 0
-1127 1126 0
-1128 99 1013 1127 0
1128 -99 0
1128 -1013 0
1128 -1127 0
1129 -101 -1128 0
-1129 101 0
-1129 1128 0
-1130 105 672 1012 1129 102 0
1130 -105 0
1130 -672 0
1130 -1012 0
1130 -1129 0
1130 -102 0
1131 -382 -1130 0
-1131 382 0
-1131 1130 0
-1132 552 1131 0
1132 -552 0
1132 -1131 0
1133 -715 -1132 0
-1133 715 0
-1133 1132 0
1134 -382 -534 0
-1134 382 0
-1134 534 0
-1135 552 1134 0
1135 -552 0
1135 -1134 0
1136 -670 -1135 0
-1136 670 0
-1136 1135 0
-1137 13 1136 1029 0
1137 -13 0
1137 -1136 0
1137 -1029 0
1138 -12 -1137 0
-1138 12 0
-1138 1137 0
-1139 15 1138 0
1139 -15 0
1139 -1138 0
1140 -17 -1139 0
-1140 17 0
-1140 1139 0
-1141 19 9 1140 0
1141 -19 0
1141 -9 0
1141 -1140 0
1142 -21 -1141 0
-1142 21 0
-1142 1141 0
-1143 23 1133 1142 0
1143 -23 0
1143 -1133 0
1143 -1142 0
1144 -87 -1143 0
-1144 87 0
-1144 1143 0
-1145 91 1144 88 0
1145 -91 0
1145 -1144 0
1145 -88 0
1146 -241 -1145 0
-1146 241 0
-1146 1145 0
-1147 243 936 1011 1037 1069 187 1125 1146 0
1147 -243 0
1147 -936 0
1147 -1011 0
1147 -1037 0
1147 -1069 0
1147 -187 0
1147 -1125 0
1147 -1146 0
1148 -260 -1147 0
-1148 260 0
-1148 1147 0
-1149 3 1148 0
1149 -3 0
1149 -1148 0
1150 -1151 -1149 0
-1150 1151 0
-1150 1149 0
1152 -670 -745 0
-1152 670 0
-1152 745 0
-1153 13 1152 0
1153 -13 0
1153 -1152 0
1154 -12 -1153 0
-1154 12 0
-1154 1153 0
-1155 15 1154 0
1155 -15 0
1155 -1154 0
1156 -17 -1155 0
-1156 17 0
-1156 1155 0
-1157 19 1156 0
1157 -19 0
1157 -1156 0
1158 -21 -1157 0
-1158 21 0
-1158 1157 0
-1159 23 788 1 1158 0
1159 -23 0
1159 -788 0
1159 -1 0
1159 -1158 0
1160 -25 -1159 0
-1160 25 0
-1160 1159 0
1161 -27 -1159 0
-1161 27 0
-1161 1159 0
-1162 35 1161 28 31 0
1162 -35 0
1162 -1161 0
1162 -28 0
1162 -31 0
1163 -37 -1162 0
-1163 37 0
-1163 1162 0
1164 -44 -789 0
-1164 44 0
-1164 789 0
-1165 13 1152 1164 0
1165 -13 0
1165 -1152 0
1165 -1164 0
1166 -12 -1165 0
-1166 12 0
-1166 1165 0
-1167 15 1166 0
1167 -15 0
1167 -1166 0
1168 -17 -1167 0
-1168 17 0
-1168 1167 0
-1169 19 1168 0
1169 -19 0
1169 -1168 0
1170 -51 -1169 0
-1170 51 0
-1170 1169 0
1171 -53 -1159 0
-1171 53 0
-1171 1159 0
1172 -55 -1169 0
-1172 55 0
-1172 1169 0
1173 -57 -1159 0
-1173 57 0
-1173 1159 0
-1174 19 58 0
1174 -19 0
1174 -58 0
1175 -21 -1174 0
-1175 21 0
-1175 1174 0
-1176 23 788 1 1175 0
1176 -23 0
1176 -788 0
1176 -1 0
1176 -1175 0
1177 -44 -1176 0
-1177 44 0
-1177 1176 0
-1178 13 1152 1177 0
1178 -13 0
1178 -1152 0
1178 -1177 0
1179 -65 -1178 0
-1179 65 0
-1179 1178 0
1180 -70 -1169 0
-1180 70 0
-1180 1169 0
-1181 6 1180 0
1181 -6 0
1181 -1180 0
1182 -73 -1181 0
-1182 73 0
-1182 1181 0
-1183 75 746 1179 1182 0
1183 -75 0
1183 -746 0
1183 -1179 0
1183 -1182 0
1184 -77 -1183 0
-1184 77 0
-1184 1183 0
1185 -79 -1169 0
-1185 79 0
-1185 1169 0
-1186 83 1173 1184 1185 80 0
1186 -83 0
1186 -1173 0
1186 -1184 0
1186 -1185 0
1186 -80 0
1187 -85 -1186 0
-1187 85 0
-1187 1186 0
1188 -87 -1159 0
-1188 87 0
-1188 1159 0
-1189 91 1188 88 0
1189 -91 0
1189 -1188 0
1189 -88 0
1190 -93 -1189 0
-1190 93 0
-1190 1189 0
-1191 95 1187 1190 0
1191 -95 0
1191 -1187 0
1191 -1190 0
1192 -97 -1191 0
-1192 97 0
-1192 1191 0
-1193 99 1171 1172 1192 0
1193 -99 0
1193 -1171 0
1193 -1172 0
1193 -1192 0
1194 -101 -1193 0
-1194 101 0
-1194 1193 0
-1195 105 1160 1163 1170 1194 102 0
1195 -105 0
1195 -1160 0
1195 -1163 0
1195 -1170 0
1195 -1194 0
1195 -102 0
1196 -107 -1195 0
-1196 107 0
-1196 1195 0
-1197 83 1173 1185 80 0
1197 -83 0
1197 -1173 0
1197 -1185 0
1197 -80 0
1198 -85 -1197 0
-1198 85 0
-1198 1197 0
-1199 95 1198 1190 0
1199 -95 0
1199 -1198 0
1199 -1190 0
1200 -97 -1199 0
-1200 97 0
-1200 1199 0
-1201 99 1171 1172 1200 0
1201 -99 0
1201 -1171 0
1201 -1172 0
1201 -1200 0
1202 -101 -1201 0
-1202 101 0
-1202 1201 0
-1203 105 1160 1163 1170 1202 102 0
1203 -105 0
1203 -1160 0
1203 -1163 0
1203 -1170 0
1203 -1202 0
1203 -102 0
1204 -382 -1203 0
-1204 382 0
-1204 1203 0
-1205 552 1204 744 0
1205 -552 0
1205 -1204 0
1205 -744 0
1206 -717 -1205 0
-1206 717 0
-1206 1205 0
1207 -25 -1176 0
-1207 25 0
-1207 1176 0
1208 -27 -1176 0
-1208 27 0
-1208 1176 0
-1209 35 1208 28 31 0
1209 -35 0
1209 -1208 0
1209 -28 0
1209 -31 0
1210 -37 -1209 0
-1210 37 0
-1210 1209 0
1211 -51 -1174 0
-1211 51 0
-1211 1174 0
1212 -53 -1176 0
-1212 53 0
-1212 1176 0
1213 -55 -1174 0
-1213 55 0
-1213 1174 0
1214 -57 -1176 0
-1214 57 0
-1214 1176 0
1215 -79 -1174 0
-1215 79 0
-1215 1174 0
-1216 83 1214 1215 80 0
1216 -83 0
1216 -1214 0
1216 -1215 0
1216 -80 0
1217 -85 -1216 0
-1217 85 0
-1217 1216 0
1218 -87 -1176 0
-1218 87 0
-1218 1176 0
-1219 91 1218 88 0
1219 -91 0
1219 -1218 0
1219 -88 0
1220 -93 -1219 0
-1220 93 0
-1220 1219 0
-1221 95 1217 1220 0
1221 -95 0
1221 -1217 0
1221 -1220 0
1222 -97 -1221 0
-1222 97 0
-1222 1221 0
-1223 99 1212 1213 1222 0
1223 -99 0
1223 -1212 0
1223 -1213 0
1223 -1222 0
1224 -101 -1223 0
-1224 101 0
-1224 1223 0
-1225 105 1207 1210 1211 1224 102 0
1225 -105 0
1225 -1207 0
1225 -1210 0
1225 -1211 0
1225 -1224 0
1225 -102 0
1226 -382 -1225 0
-1226 382 0
-1226 1225 0
-1227 552 1226 744 0
1227 -552 0
1227 -1226 0
1227 -744 0
1228 -670 -1227 0
-1228 670 0
-1228 1227 0
1229 -715 -1227 0
-1229 715 0
-1229 1227 0
-1230 23 1229 1 1175 0
1230 -23 0
1230 -1229 0
1230 -1 0
1230 -1175 0
1231 -44 -1230 0
-1231 44 0
-1231 1230 0
1232 -129 -1225 0
-1232 129 0
-1232 1225 0
-1233 13 1228 1231 1232 0
1233 -13 0
1233 -1228 0
1233 -1231 0
1233 -1232 0
1234 -65 -1233 0
-1234 65 0
-1234 1233 0
1235 -670 -758 0
-1235 670 0
-1235 758 0
1236 -715 -758 0
-1236 715 0
-1236 758 0
-1237 23 1236 1 0
1237 -23 0
1237 -1236 0
1237 -1 0
1238 -44 -1237 0
-1238 44 0
-1238 1237 0
1239 -25 -789 0
-1239 25 0
-1239 789 0
1240 -27 -789 0
-1240 27 0
-1240 789 0
-1241 35 1240 28 31 0
1241 -35 0
1241 -1240 0
1241 -28 0
1241 -31 0
1242 -37 -1241 0
-1242 37 0
-1242 1241 0
1243 -53 -789 0
-1243 53 0
-1243 789 0
1244 -57 -789 0
-1244 57 0
-1244 789 0
-1245 83 1244 80 0
1245 -83 0
1245 -1244 0
1245 -80 0
1246 -85 -1245 0
-1246 85 0
-1246 1245 0
1247 -93 -815 0
-1247 93 0
-1247 815 0
-1248 95 1246 1247 0
1248 -95 0
1248 -1246 0
1248 -1247 0
1249 -97 -1248 0
-1249 97 0
-1249 1248 0
-1250 99 1243 1249 0
1250 -99 0
1250 -1243 0
1250 -1249 0
1251 -101 -1250 0
-1251 101 0
-1251 1250 0
-1252 105 1239 1242 1251 102 0
1252 -105 0
1252 -1239 0
1252 -1242 0
1252 -1251 0
1252 -102 0
1253 -129 -1252 0
-1253 129 0
-1253 1252 0
-1254 13 1235 1238 1253 0
1254 -13 0
1254 -1235 0
1254 -1238 0
1254 -1253 0
1255 -12 -1254 0
-1255 12 0
-1255 1254 0
-1256 15 1255 0
1256 -15 0
1256 -1255 0
1257 -17 -1256 0
-1257 17 0
-1257 1256 0
-1258 19 1257 0
1258 -19 0
1258 -1257 0
1259 -70 -1258 0
-1259 70 0
-1259 1258 0
-1260 6 1259 0
1260 -6 0
1260 -1259 0
1261 -73 -1260 0
-1261 73 0
-1261 1260 0
-1262 75 1206 1234 1261 0
1262 -75 0
1262 -1206 0
1262 -1234 0
1262 -1261 0
1263 -159 -1262 0
-1263 159 0
-1263 1262 0
1264 -51 -1157 0
-1264 51 0
-1264 1157 0
1265 -55 -1157 0
-1265 55 0
-1265 1157 0
1266 -70 -1157 0
-1266 70 0
-1266 1157 0
-1267 6 1266 0
1267 -6 0
1267 -1266 0
1268 -73 -1267 0
-1268 73 0
-1268 1267 0
-1269 75 246 1268 0
1269 -75 0
1269 -246 0
1269 -1268 0
1270 -77 -1269 0
-1270 77 0
-1270 1269 0
1271 -79 -1157 0
-1271 79 0
-1271 1157 0
-1272 83 1270 1271 80 0
1272 -83 0
1272 -1270 0
1272 -1271 0
1272 -80 0
1273 -85 -1272 0
-1273 85 0
-1273 1272 0
-1274 95 1273 679 0
1274 -95 0
1274 -1273 0
1274 -679 0
1275 -97 -1274 0
-1275 97 0
-1275 1274 0
-1276 99 1265 1275 0
1276 -99 0
1276 -1265 0
1276 -1275 0
1277 -101 -1276 0
-1277 101 0
-1277 1276 0
-1278 105 672 1264 1277 102 0
1278 -105 0
1278 -672 0
1278 -1264 0
1278 -1277 0
1278 -102 0
1279 -382 -1278 0
-1279 382 0
-1279 1278 0
-1280 552 1279 744 0
1280 -552 0
1280 -1279 0
1280 -744 0
1281 -715 -1280 0
-1281 715 0
-1281 1280 0
1282 -382 -169 0
-1282 382 0
-1282 169 0
-1283 552 1282 744 0
1283 -552 0
1283 -1282 0
1283 -744 0
1284 -670 -1283 0
-1284 670 0
-1284 1283 0
-1285 13 1284 1029 0
1285 -13 0
1285 -1284 0
1285 -1029 0
1286 -12 -1285 0
-1286 12 0
-1286 1285 0
-1287 15 1286 0
1287 -15 0
1287 -1286 0
1288 -17 -1287 0
-1288 17 0
-1288 1287 0
-1289 19 1288 0
1289 -19 0
1289 -1288 0
1290 -21 -1289 0
-1290 21 0
-1290 1289 0
-1291 23 1281 1 1290 0
1291 -23 0
1291 -1281 0
1291 -1 0
1291 -1290 0
1292 -179 -1291 0
-1292 179 0
-1292 1291 0
1293 -715 -1283 0
-1293 715 0
-1293 1283 0
-1294 23 1293 1 0
1294 -23 0
1294 -1293 0
1294 -1 0
1295 -44 -1294 0
-1295 44 0
-1295 1294 0
-1296 83 1244 748 80 0
1296 -83 0
1296 -1244 0
1296 -748 0
1296 -80 0
1297 -85 -1296 0
-1297 85 0
-1297 1296 0
-1298 95 1297 1247 0
1298 -95 0
1298 -1297 0
1298 -1247 0
1299 -97 -1298 0
-1299 97 0
-1299 1298 0
-1300 99 1243 1299 0
1300 -99 0
1300 -1243 0
1300 -1299 0
1301 -101 -1300 0
-1301 101 0
-1301 1300 0
-1302 105 1239 1242 1301 102 0
1302 -105 0
1302 -1239 0
1302 -1242 0
1302 -1301 0
1302 -102 0
1303 -129 -1302 0
-1303 129 0
-1303 1302 0
-1304 13 1284 1295 1303 0
1304 -13 0
1304 -1284 0
1304 -1295 0
1304 -1303 0
1305 -12 -1304 0
-1305 12 0
-1305 1304 0
-1306 15 1305 0
1306 -15 0
1306 -1305 0
1307 -17 -1306 0
-1307 17 0
-1307 1306 0
-1308 19 1307 0
1308 -19 0
1308 -1307 0
1309 -186 -1308 0
-1309 186 0
-1309 1308 0
1310 -21 -19 0
-1310 21 0
-1310 19 0
-1311 23 1 1310 0
1311 -23 0
1311 -1 0
1311 -1310 0
1312 -25 -1311 0
-1312 25 0
-1312 1311 0
1313 -27 -1311 0
-1313 27 0
-1313 1311 0
-1314 35 1313 28 31 0
1314 -35 0
1314 -1313 0
1314 -28 0
1314 -31 0
1315 -37 -1314 0
-1315 37 0
-1315 1314 0
1316 -51 -19 0
-1316 51 0
-1316 19 0
1317 -53 -1311 0
-1317 53 0
-1317 1311 0
1318 -55 -19 0
-1318 55 0
-1318 19 0
1319 -57 -1311 0
-1319 57 0
-1319 1311 0
1320 -70 -19 0
-1320 70 0
-1320 19 0
-1321 6 1320 0
1321 -6 0
1321 -1320 0
1322 -73 -1321 0
-1322 73 0
-1322 1321 0
-1323 75 1322 0
1323 -75 0
1323 -1322 0
1324 -77 -1323 0
-1324 77 0
-1324 1323 0
1325 -79 -19 0
-1325 79 0
-1325 19 0
-1326 83 1319 1324 1325 80 0
1326 -83 0
1326 -1319 0
1326 -1324 0
1326 -1325 0
1326 -80 0
1327 -85 -1326 0
-1327 85 0
-1327 1326 0
1328 -87 -1311 0
-1328 87 0
-1328 1311 0
-1329 91 1328 88 0
1329 -91 0
1329 -1328 0
1329 -88 0
1330 -93 -1329 0
-1330 93 0
-1330 1329 0
-1331 95 1327 1330 0
1331 -95 0
1331 -1327 0
1331 -1330 0
1332 -97 -1331 0
-1332 97 0
-1332 1331 0
-1333 99 1317 1318 1332 0
1333 -99 0
1333 -1317 0
1333 -1318 0
1333 -1332 0
1334 -101 -1333 0
-1334 101 0
-1334 1333 0
-1335 105 1312 1315 1316 1334 102 0
1335 -105 0
1335 -1312 0
1335 -1315 0
1335 -1316 0
1335 -1334 0
1335 -102 0
1336 -382 -1335 0
-1336 382 0
-1336 1335 0
-1337 552 1336 744 0
1337 -552 0
1337 -1336 0
1337 -744 0
1338 -670 -1337 0
-1338 670 0
-1338 1337 0
-1339 105 672 1316 1334 102 0
1339 -105 0
1339 -672 0
1339 -1316 0
1339 -1334 0
1339 -102 0
1340 -382 -1339 0
-1340 382 0
-1340 1339 0
-1341 552 1340 744 0
1341 -552 0
1341 -1340 0
1341 -744 0
1342 -715 -1341 0
-1342 715 0
-1342 1341 0
-1343 23 1342 1 1310 0
1343 -23 0
1343 -1342 0
1343 -1 0
1343 -1310 0
1344 -44 -1343 0
-1344 44 0
-1344 1343 0
-1345 23 788 1 1310 0
1345 -23 0
1345 -788 0
1345 -1 0
1345 -1310 0
1346 -25 -1345 0
-1346 25 0
-1346 1345 0
1347 -27 -1345 0
-1347 27 0
-1347 1345 0
-1348 35 1347 28 31 0
1348 -35 0
1348 -1347 0
1348 -28 0
1348 -31 0
1349 -37 -1348 0
-1349 37 0
-1349 1348 0
1350 -53 -1345 0
-1350 53 0
-1350 1345 0
1351 -57 -1345 0
-1351 57 0
-1351 1345 0
-1352 75 746 1322 0
1352 -75 0
1352 -746 0
1352 -1322 0
1353 -77 -1352 0
-1353 77 0
-1353 1352 0
-1354 83 1351 1353 1325 80 0
1354 -83 0
1354 -1351 0
1354 -1353 0
1354 -1325 0
1354 -80 0
1355 -85 -1354 0
-1355 85 0
-1355 1354 0
1356 -87 -1345 0
-1356 87 0
-1356 1345 0
-1357 91 1356 88 0
1357 -91 0
1357 -1356 0
1357 -88 0
1358 -93 -1357 0
-1358 93 0
-1358 1357 0
-1359 95 1355 1358 0
1359 -95 0
1359 -1355 0
1359 -1358 0
1360 -97 -1359 0
-1360 97 0
-1360 1359 0
-1361 99 1350 1318 1360 0
1361 -99 0
1361 -1350 0
1361 -1318 0
1361 -1360 0
1362 -101 -1361 0
-1362 101 0
-1362 1361 0
-1363 105 1346 1349 1316 1362 102 0
1363 -105 0
1363 -1346 0
1363 -1349 0
1363 -1316 0
1363 -1362 0
1363 -102 0
1364 -129 -1363 0
-1364 129 0
-1364 1363 0
-1365 13 1338 1344 1364 0
1365 -13 0
1365 -1338 0
1365 -1344 0
1365 -1364 0
1366 -12 -1365 0
-1366 12 0
-1366 1365 0
-1367 15 1366 0
1367 -15 0
1367 -1366 0
1368 -224 -1367 0
-1368 224 0
-1368 1367 0
1369 -382 -229 0
-1369 382 0
-1369 229 0
-1370 552 1369 744 0
1370 -552 0
1370 -1369 0
1370 -744 0
1371 -670 -1370 0
-1371 670 0
-1371 1370 0
-1372 13 1371 1029 0
1372 -13 0
1372 -1371 0
1372 -1029 0
1373 -12 -1372 0
-1373 12 0
-1373 1372 0
-1374 15 1373 0
1374 -15 0
1374 -1373 0
1375 -17 -1374 0
-1375 17 0
-1375 1374 0
-1376 19 1375 0
1376 -19 0
1376 -1375 0
1377 -21 -1376 0
-1377 21 0
-1377 1376 0
-1378 23 1281 1 1377 0
1378 -23 0
1378 -1281 0
1378 -1 0
1378 -1377 0
1379 -87 -1378 0
-1379 87 0
-1379 1378 0
-1380 91 1379 88 0
1380 -91 0
1380 -1379 0
1380 -88 0
1381 -241 -1380 0
-1381 241 0
-1381 1380 0
-1382 243 1196 1263 1292 1309 187 1368 1381 0
1382 -243 0
1382 -1196 0
1382 -1263 0
1382 -1292 0
1382 -1309 0
1382 -187 0
1382 -1368 0
1382 -1381 0
1383 -267 -1382 0
-1383 267 0
-1383 1382 0
1384 -107 -1278 0
-1384 107 0
-1384 1278 0
-1385 13 1232 0
1385 -13 0
1385 -1232 0
1386 -65 -1385 0
-1386 65 0
-1386 1385 0
-1387 13 148 0
1387 -13 0
1387 -148 0
1388 -12 -1387 0
-1388 12 0
-1388 1387 0
-1389 15 1388 0
1389 -15 0
1389 -1388 0
1390 -17 -1389 0
-1390 17 0
-1390 1389 0
-1391 19 1390 0
1391 -19 0
1391 -1390 0
1392 -70 -1391 0
-1392 70 0
-1392 1391 0
-1393 6 1392 0
1393 -6 0
1393 -1392 0
1394 -73 -1393 0
-1394 73 0
-1394 1393 0
-1395 75 1386 1394 0
1395 -75 0
1395 -1386 0
1395 -1394 0
1396 -159 -1395 0
-1396 159 0
-1396 1395 0
-1397 19 174 0
1397 -19 0
1397 -174 0
1398 -186 -1397 0
-1398 186 0
-1398 1397 0
1399 -129 -1339 0
-1399 129 0
-1399 1339 0
-1400 13 1399 0
1400 -13 0
1400 -1399 0
1401 -12 -1400 0
-1401 12 0
-1401 1400 0
-1402 15 1401 0
1402 -15 0
1402 -1401 0
1403 -224 -1402 0
-1403 224 0
-1403 1402 0
-1404 243 1384 1396 1398 187 1403 257 0
1404 -243 0
1404 -1384 0
1404 -1396 0
1404 -1398 0
1404 -187 0
1404 -1403 0
1404 -257 0
1405 -245 -1404 0
-1405 245 0
-1405 1404 0
1406 -159 -1269 0
-1406 159 0
-1406 1269 0
1407 -186 -1157 0
-1407 186 0
-1407 1157 0
-1408 243 1406 1407 187 255 257 0
1408 -243 0
1408 -1406 0
1408 -1407 0
1408 -187 0
1408 -255 0
1408 -257 0
1409 -284 -1408 0
-1409 284 0
-1409 1408 0
-1410 35 1409 28 31 0
1410 -35 0
1410 -1409 0
1410 -28 0
1410 -31 0
1411 -37 -1410 0
-1411 37 0
-1411 1410 0
-1412 19 16 0
1412 -19 0
1412 -16 0
1413 -51 -1412 0
-1413 51 0
-1413 1412 0
1414 -55 -1412 0
-1414 55 0
-1414 1412 0
1415 -70 -1412 0
-1415 70 0
-1415 1412 0
-1416 6 1415 0
1416 -6 0
1416 -1415 0
1417 -73 -1416 0
-1417 73 0
-1417 1416 0
-1418 75 246 1417 0
1418 -75 0
1418 -246 0
1418 -1417 0
1419 -77 -1418 0
-1419 77 0
-1419 1418 0
1420 -79 -1412 0
-1420 79 0
-1420 1412 0
-1421 83 1419 1420 80 0
1421 -83 0
1421 -1419 0
1421 -1420 0
1421 -80 0
1422 -85 -1421 0
-1422 85 0
-1422 1421 0
-1423 95 1422 679 0
1423 -95 0
1423 -1422 0
1423 -679 0
1424 -97 -1423 0
-1424 97 0
-1424 1423 0
-1425 99 1414 1424 0
1425 -99 0
1425 -1414 0
1425 -1424 0
1426 -101 -1425 0
-1426 101 0
-1426 1425 0
-1427 105 1411 1413 1426 102 0
1427 -105 0
1427 -1411 0
1427 -1413 0
1427 -1426 0
1427 -102 0
1428 -382 -1427 0
-1428 382 0
-1428 1427 0
-1429 105 672 1413 1426 102 0
1429 -105 0
1429 -672 0
1429 -1413 0
1429 -1426 0
1429 -102 0
1430 -107 -1429 0
-1430 107 0
-1430 1429 0
-1431 83 1215 80 0
1431 -83 0
1431 -1215 0
1431 -80 0
1432 -85 -1431 0
-1432 85 0
-1432 1431 0
-1433 95 1432 679 0
1433 -95 0
1433 -1432 0
1433 -679 0
1434 -97 -1433 0
-1434 97 0
-1434 1433 0
-1435 99 1213 1434 0
1435 -99 0
1435 -1213 0
1435 -1434 0
1436 -101 -1435 0
-1436 101 0
-1436 1435 0
-1437 105 672 1211 1436 102 0
1437 -105 0
1437 -672 0
1437 -1211 0
1437 -1436 0
1437 -102 0
1438 -129 -1437 0
-1438 129 0
-1438 1437 0
-1439 13 1438 0
1439 -13 0
1439 -1438 0
1440 -65 -1439 0
-1440 65 0
-1440 1439 0
-1441 13 464 0
1441 -13 0
1441 -464 0
1442 -12 -1441 0
-1442 12 0
-1442 1441 0
-1443 15 1442 0
1443 -15 0
1443 -1442 0
1444 -17 -1443 0
-1444 17 0
-1444 1443 0
-1445 19 1444 0
1445 -19 0
1445 -1444 0
1446 -70 -1445 0
-1446 70 0
-1446 1445 0
-1447 6 1446 0
1447 -6 0
1447 -1446 0
1448 -73 -1447 0
-1448 73 0
-1448 1447 0
-1449 75 1440 1448 0
1449 -75 0
1449 -1440 0
1449 -1448 0
1450 -159 -1449 0
-1450 159 0
-1450 1449 0
-1451 19 486 0
1451 -19 0
1451 -486 0
1452 -186 -1451 0
-1452 186 0
-1452 1451 0
-1453 83 1324 1325 80 0
1453 -83 0
1453 -1324 0
1453 -1325 0
1453 -80 0
1454 -85 -1453 0
-1454 85 0
-1454 1453 0
-1455 95 1454 679 0
1455 -95 0
1455 -1454 0
1455 -679 0
1456 -97 -1455 0
-1456 97 0
-1456 1455 0
-1457 99 1318 1456 0
1457 -99 0
1457 -1318 0
1457 -1456 0
1458 -101 -1457 0
-1458 101 0
-1458 1457 0
-1459 105 672 1316 1458 102 0
1459 -105 0
1459 -672 0
1459 -1316 0
1459 -1458 0
1459 -102 0
1460 -129 -1459 0
-1460 129 0
-1460 1459 0
-1461 13 1460 0
1461 -13 0
1461 -1460 0
1462 -12 -1461 0
-1462 12 0
-1462 1461 0
-1463 15 1462 0
1463 -15 0
1463 -1462 0
1464 -224 -1463 0
-1464 224 0
-1464 1463 0
-1465 243 1430 1450 1452 187 1464 257 0
1465 -243 0
1465 -1430 0
1465 -1450 0
1465 -1452 0
1465 -187 0
1465 -1464 0
1465 -257 0
1466 -260 -1465 0
-1466 260 0
-1466 1465 0
-1467 3 1466 0
1467 -3 0
1467 -1466 0
1468 -550 -1467 0
-1468 550 0
-1468 1467 0
-1469 552 1405 1428 1468 0
1469 -552 0
1469 -1405 0
1469 -1428 0
1469 -1468 0
1470 -715 -1469 0
-1470 715 0
-1470 1469 0
1471 -65 -888 0
-1471 65 0
-1471 888 0
-1472 75 716 1471 1268 0
1472 -75 0
1472 -716 0
1472 -1471 0
1472 -1268 0
1473 -77 -1472 0
-1473 77 0
-1473 1472 0
-1474 83 1473 1271 80 0
1474 -83 0
1474 -1473 0
1474 -1271 0
1474 -80 0
1475 -85 -1474 0
-1475 85 0
-1475 1474 0
-1476 95 1475 679 0
1476 -95 0
1476 -1475 0
1476 -679 0
1477 -97 -1476 0
-1477 97 0
-1477 1476 0
-1478 99 1265 1477 0
1478 -99 0
1478 -1265 0
1478 -1477 0
1479 -101 -1478 0
-1479 101 0
-1479 1478 0
-1480 105 672 1264 1479 102 0
1480 -105 0
1480 -672 0
1480 -1264 0
1480 -1479 0
1480 -102 0
1481 -107 -1480 0
-1481 107 0
-1481 1480 0
-1482 83 1271 80 0
1482 -83 0
1482 -1271 0
1482 -80 0
1483 -85 -1482 0
-1483 85 0
-1483 1482 0
-1484 95 1483 679 0
1484 -95 0
1484 -1483 0
1484 -679 0
1485 -97 -1484 0
-1485 97 0
-1485 1484 0
-1486 99 1265 1485 0
1486 -99 0
1486 -1265 0
1486 -1485 0
1487 -101 -1486 0
-1487 101 0
-1487 1486 0
-1488 105 672 1264 1487 102 0
1488 -105 0
1488 -672 0
1488 -1264 0
1488 -1487 0
1488 -102 0
1489 -382 -1488 0
-1489 382 0
-1489 1488 0
-1490 552 1489 0
1490 -552 0
1490 -1489 0
1491 -717 -1490 0
-1491 717 0
-1491 1490 0
1492 -382 -1437 0
-1492 382 0
-1492 1437 0
-1493 552 1492 0
1493 -552 0
1493 -1492 0
1494 -670 -1493 0
-1494 670 0
-1494 1493 0
-1495 13 1494 1438 0
1495 -13 0
1495 -1494 0
1495 -1438 0
1496 -65 -1495 0
-1496 65 0
-1496 1495 0
-1497 13 983 1001 0
1497 -13 0
1497 -983 0
1497 -1001 0
1498 -12 -1497 0
-1498 12 0
-1498 1497 0
-1499 15 1498 0
1499 -15 0
1499 -1498 0
1500 -17 -1499 0
-1500 17 0
-1500 1499 0
-1501 19 1500 0
1501 -19 0
1501 -1500 0
1502 -70 -1501 0
-1502 70 0
-1502 1501 0
-1503 6 1502 0
1503 -6 0
1503 -1502 0
1504 -73 -1503 0
-1504 73 0
-1504 1503 0
-1505 75 1491 1496 1504 0
1505 -75 0
1505 -1491 0
1505 -1496 0
1505 -1504 0
1506 -159 -1505 0
-1506 159 0
-1506 1505 0
-1507 19 1033 0
1507 -19 0
1507 -1033 0
1508 -186 -1507 0
-1508 186 0
-1508 1507 0
1509 -382 -1459 0
-1509 382 0
-1509 1459 0
-1510 552 1509 0
1510 -552 0
1510 -1509 0
1511 -670 -1510 0
-1511 670 0
-1511 1510 0
-1512 83 1353 1325 80 0
1512 -83 0
1512 -1353 0
1512 -1325 0
1512 -80 0
1513 -85 -1512 0
-1513 85 0
-1513 1512 0
-1514 95 1513 679 0
1514 -95 0
1514 -1513 0
1514 -679 0
1515 -97 -1514 0
-1515 97 0
-1515 1514 0
-1516 99 1318 1515 0
1516 -99 0
1516 -1318 0
1516 -1515 0
1517 -101 -1516 0
-1517 101 0
-1517 1516 0
-1518 105 672 1316 1517 102 0
1518 -105 0
1518 -672 0
1518 -1316 0
1518 -1517 0
1518 -102 0
1519 -129 -1518 0
-1519 129 0
-1519 1518 0
-1520 13 1511 1519 0
1520 -13 0
1520 -1511 0
1520 -1519 0
1521 -12 -1520 0
-1521 12 0
-1521 1520 0
-1522 15 1521 0
1522 -15 0
1522 -1521 0
1523 -224 -1522 0
-1523 224 0
-1523 1522 0
-1524 243 1481 1506 1508 187 1523 257 0
1524 -243 0
1524 -1481 0
1524 -1506 0
1524 -1508 0
1524 -187 0
1524 -1523 0
1524 -257 0
1525 -260 -1524 0
-1525 260 0
-1525 1524 0
-1526 3 1525 0
1526 -3 0
1526 -1525 0
1527 -2 -1526 0
-1527 2 0
-1527 1526 0
1528 -107 -169 0
-1528 107 0
-1528 169 0
1529 -159 -161 0
-1529 159 0
-1529 161 0
-1530 243 1528 1529 187 257 0
1530 -243 0
1530 -1528 0
1530 -1529 0
1530 -187 0
1530 -257 0
1531 -245 -1530 0
-1531 245 0
-1531 1530 0
1532 -284 -303 0
-1532 284 0
-1532 303 0
-1533 35 1532 28 31 0
1533 -35 0
1533 -1532 0
1533 -28 0
1533 -31 0
1534 -37 -1533 0
-1534 37 0
-1534 1533 0
-1535 105 1534 1458 102 0
1535 -105 0
1535 -1534 0
1535 -1458 0
1535 -102 0
1536 -382 -1535 0
-1536 382 0
-1536 1535 0
1537 -107 -481 0
-1537 107 0
-1537 481 0
-1538 243 1537 1529 187 257 0
1538 -243 0
1538 -1537 0
1538 -1529 0
1538 -187 0
1538 -257 0
1539 -260 -1538 0
-1539 260 0
-1539 1538 0
-1540 3 1539 0
1540 -3 0
1540 -1539 0
1541 -550 -1540 0
-1541 550 0
-1541 1540 0
-1542 552 1531 1536 1541 0
1542 -552 0
1542 -1531 0
1542 -1536 0
1542 -1541 0
1543 -670 -1542 0
-1543 670 0
-1543 1542 0
1544 -284 -780 0
-1544 284 0
-1544 780 0
-1545 35 1544 28 31 0
1545 -35 0
1545 -1544 0
1545 -28 0
1545 -31 0
1546 -37 -1545 0
-1546 37 0
-1546 1545 0
1547 -717 -845 0
-1547 717 0
-1547 845 0
-1548 75 1547 160 0
1548 -75 0
1548 -1547 0
1548 -160 0
1549 -77 -1548 0
-1549 77 0
-1549 1548 0
-1550 83 1549 80 0
1550 -83 0
1550 -1549 0
1550 -80 0
1551 -85 -1550 0
-1551 85 0
-1551 1550 0
-1552 95 1551 679 0
1552 -95 0
1552 -1551 0
1552 -679 0
1553 -97 -1552 0
-1553 97 0
-1553 1552 0
-1554 99 1553 0
1554 -99 0
1554 -1553 0
1555 -101 -1554 0
-1555 101 0
-1555 1554 0
-1556 105 1546 1555 102 0
1556 -105 0
1556 -1546 0
1556 -1555 0
1556 -102 0
1557 -129 -1556 0
-1557 129 0
-1557 1556 0
-1558 13 1543 1557 0
1558 -13 0
1558 -1543 0
1558 -1557 0
1559 -12 -1558 0
-1559 12 0
-1559 1558 0
-1560 15 1559 0
1560 -15 0
1560 -1559 0
1561 -17 -1560 0
-1561 17 0
-1561 1560 0
-1562 19 1561 0
1562 -19 0
1562 -1561 0
1563 -21 -1562 0
-1563 21 0
-1563 1562 0
-1564 23 1470 1527 1563 0
1564 -23 0
1564 -1470 0
1564 -1527 0
1564 -1563 0
1565 -40 -1564 0
-1565 40 0
-1565 1564 0
-1566 243 1528 1529 291 187 293 0
1566 -243 0
1566 -1528 0
1566 -1529 0
1566 -291 0
1566 -187 0
1566 -293 0
1567 -245 -1566 0
-1567 245 0
-1567 1566 0
1568 -25 -307 0
-1568 25 0
-1568 307 0
1569 -284 -598 0
-1569 284 0
-1569 598 0
1570 -27 -307 0
-1570 27 0
-1570 307 0
-1571 35 1569 1570 28 31 0
1571 -35 0
1571 -1569 0
1571 -1570 0
1571 -28 0
1571 -31 0
1572 -37 -1571 0
-1572 37 0
-1572 1571 0
1573 -53 -307 0
-1573 53 0
-1573 307 0
1574 -57 -307 0
-1574 57 0
-1574 307 0
-1575 83 1574 162 80 0
1575 -83 0
1575 -1574 0
1575 -162 0
1575 -80 0
1576 -85 -1575 0
-1576 85 0
-1576 1575 0
1577 -260 -630 0
-1577 260 0
-1577 630 0
-1578 3 1577 0
1578 -3 0
1578 -1577 0
1579 -2 -1578 0
-1579 2 0
-1579 1578 0
-1580 23 1579 0
1580 -23 0
1580 -1579 0
1581 -87 -1580 0
-1581 87 0
-1581 1580 0
-1582 91 1581 88 0
1582 -91 0
1582 -1581 0
1582 -88 0
1583 -93 -1582 0
-1583 93 0
-1583 1582 0
-1584 95 1576 1583 0
1584 -95 0
1584 -1576 0
1584 -1583 0
1585 -97 -1584 0
-1585 97 0
-1585 1584 0
-1586 99 1573 1585 0
1586 -99 0
1586 -1573 0
1586 -1585 0
1587 -101 -1586 0
-1587 101 0
-1587 1586 0
-1588 105 1568 1572 1587 102 0
1588 -105 0
1588 -1568 0
1588 -1572 0
1588 -1587 0
1588 -102 0
1589 -382 -1588 0
-1589 382 0
-1589 1588 0
1590 -179 -23 0
-1590 179 0
-1590 23 0
1591 -241 -457 0
-1591 241 0
-1591 457 0
-1592 243 1537 1529 1590 187 1591 0
1592 -243 0
1592 -1537 0
1592 -1529 0
1592 -1590 0
1592 -187 0
1592 -1591 0
1593 -260 -1592 0
-1593 260 0
-1593 1592 0
-1594 3 1593 0
1594 -3 0
1594 -1593 0
1595 -550 -1594 0
-1595 550 0
-1595 1594 0
-1596 552 1567 1589 1595 0
1596 -552 0
1596 -1567 0
1596 -1589 0
1596 -1595 0
1597 -670 -1596 0
-1597 670 0
-1597 1596 0
-1598 95 1576 679 0
1598 -95 0
1598 -1576 0
1598 -679 0
1599 -97 -1598 0
-1599 97 0
-1599 1598 0
-1600 99 1599 0
1600 -99 0
1600 -1599 0
1601 -101 -1600 0
-1601 101 0
-1601 1600 0
-1602 105 1534 1601 102 0
1602 -105 0
1602 -1534 0
1602 -1601 0
1602 -102 0
1603 -382 -1602 0
-1603 382 0
-1603 1602 0
-1604 552 1531 1603 1541 0
1604 -552 0
1604 -1531 0
1604 -1603 0
1604 -1541 0
1605 -715 -1604 0
-1605 715 0
-1605 1604 0
1606 -717 -977 0
-1606 717 0
-1606 977 0
-1607 75 1606 160 0
1607 -75 0
1607 -1606 0
1607 -160 0
1608 -159 -1607 0
-1608 159 0
-1608 1607 0
-1609 243 756 1608 187 257 0
1609 -243 0
1609 -756 0
1609 -1608 0
1609 -187 0
1609 -257 0
1610 -260 -1609 0
-1610 260 0
-1610 1609 0
-1611 3 1610 0
1611 -3 0
1611 -1610 0
1612 -2 -1611 0
-1612 2 0
-1612 1611 0
-1613 23 1605 1612 0
1613 -23 0
1613 -1605 0
1613 -1612 0
1614 -44 -1613 0
-1614 44 0
-1614 1613 0
1615 -25 -826 0
-1615 25 0
-1615 826 0
1616 -284 -817 0
-1616 284 0
-1616 817 0
1617 -27 -826 0
-1617 27 0
-1617 826 0
-1618 35 1616 1617 28 31 0
1618 -35 0
1618 -1616 0
1618 -1617 0
1618 -28 0
1618 -31 0
1619 -37 -1618 0
-1619 37 0
-1619 1618 0
1620 -53 -826 0
-1620 53 0
-1620 826 0
1621 -57 -826 0
-1621 57 0
-1621 826 0
1622 -245 -612 0
-1622 245 0
-1622 612 0
-1623 243 1590 187 1591 0
1623 -243 0
1623 -1590 0
1623 -187 0
1623 -1591 0
1624 -260 -1623 0
-1624 260 0
-1624 1623 0
-1625 3 1624 0
1625 -3 0
1625 -1624 0
1626 -550 -1625 0
-1626 550 0
-1626 1625 0
-1627 552 1622 1626 0
1627 -552 0
1627 -1622 0
1627 -1626 0
1628 -717 -1627 0
-1628 717 0
-1628 1627 0
-1629 75 1628 160 0
1629 -75 0
1629 -1628 0
1629 -160 0
1630 -77 -1629 0
-1630 77 0
-1630 1629 0
-1631 83 1621 1630 80 0
1631 -83 0
1631 -1621 0
1631 -1630 0
1631 -80 0
1632 -85 -1631 0
-1632 85 0
-1632 1631 0
1633 -245 -630 0
-1633 245 0
-1633 630 0
1634 -550 -1578 0
-1634 550 0
-1634 1578 0
-1635 552 1633 1634 0
1635 -552 0
1635 -1633 0
1635 -1634 0
1636 -715 -1635 0
-1636 715 0
-1636 1635 0
1637 -260 -868 0
-1637 260 0
-1637 868 0
-1638 3 1637 0
1638 -3 0
1638 -1637 0
1639 -2 -1638 0
-1639 2 0
-1639 1638 0
-1640 23 1636 1639 0
1640 -23 0
1640 -1636 0
1640 -1639 0
1641 -87 -1640 0
-1641 87 0
-1641 1640 0
-1642 91 1641 88 0
1642 -91 0
1642 -1641 0
1642 -88 0
1643 -93 -1642 0
-1643 93 0
-1643 1642 0
-1644 95 1632 1643 0
1644 -95 0
1644 -1632 0
1644 -1643 0
1645 -97 -1644 0
-1645 97 0
-1645 1644 0
-1646 99 1620 1645 0
1646 -99 0
1646 -1620 0
1646 -1645 0
1647 -101 -1646 0
-1647 101 0
-1647 1646 0
-1648 105 1615 1619 1647 102 0
1648 -105 0
1648 -1615 0
1648 -1619 0
1648 -1647 0
1648 -102 0
1649 -129 -1648 0
-1649 129 0
-1649 1648 0
-1650 13 1597 1614 1649 0
1650 -13 0
1650 -1597 0
1650 -1614 0
1650 -1649 0
1651 -12 -1650 0
-1651 12 0
-1651 1650 0
-1652 15 1651 0
1652 -15 0
1652 -1651 0
1653 -17 -1652 0
-1653 17 0
-1653 1652 0
-1654 19 1653 0
1654 -19 0
1654 -1653 0
1655 -70 -1654 0
-1655 70 0
-1655 1654 0
-1656 6 1655 0
1656 -6 0
1656 -1655 0
1657 -5 -1656 0
-1657 5 0
-1657 1656 0
-1658 8 1383 1565 1657 0
1658 -8 0
1658 -1383 0
1658 -1565 0
1658 -1657 0
1659 -1660 -1658 0
-1659 1660 0
-1659 1658 0
-1661 1662 1150 1659 0
1661 -1662 0
1661 -1150 0
1661 -1659 0
1663 -1664 -1661 0
-1663 1664 0
-1663 1661 0
-1665 1666 553 885 1663 0
1665 -1666 0
1665 -553 0
1665 -885 0
1665 -1663 0
1667 -1665 -1668 0
-1667 1665 0
-1667 1668 0
1667 0
