c BC-S1.2
p cnf 1479 5068
1 -2 -3 0
-1 2 0
-1 3 0
4 -5 -6 0
-4 5 0
-4 6 0
-7 8 1 4 0
7 -8 0
7 -1 0
7 -4 0
9 -10 -7 0
-9 10 0
-9 7 0
11 -12 -13 0
-11 12 0
-11 13 0
-14 15 11 0
14 -15 0
14 -11 0
16 -17 -14 0
-16 17 0
-16 14 0
18 -19 -20 0
-18 19 0
-18 20 0
-21 22 18 0
21 -22 0
21 -18 0
23 -24 -21 0
-23 24 0
-23 21 0
25 -26 -20 0
-25 26 0
-25 20 0
27 -28 -29 0
-27 28 0
-27 29 0
30 -31 -14 0
-30 31 0
-30 14 0
-32 33 27 30 0
32 -33 0
32 -27 0
32 -30 0
34 -35 -32 0
-34 35 0
-34 32 0
-36 37 25 34 0
36 -37 0
36 -25 0
36 -34 0
38 -39 -36 0
-38 39 0
-38 36 0
-40 41 16 23 38 0
40 -41 0
40 -16 0
40 -23 0
40 -38 0
42 -43 -40 0
-42 43 0
-42 40 0
44 -45 -40 0
-44 45 0
-44 40 0
-46 47 44 0
46 -47 0
46 -44 0
48 -49 -46 0
-48 49 0
-48 46 0
50 -51 -3 0
-50 51 0
-50 3 0
-52 53 9 42 48 50 0
52 -53 0
52 -9 0
52 -42 0
52 -48 0
52 -50 0
54 -55 -52 0
-54 55 0
-54 52 0
56 -24 -22 0
-56 24 0
-56 22 0
-57 41 16 56 38 0
57 -41 0
57 -16 0
57 -56 0
57 -38 0
58 -43 -57 0
-58 43 0
-58 57 0
59 -45 -57 0
-59 45 0
-59 57 0
-60 47 59 0
60 -47 0
60 -59 0
61 -49 -60 0
-61 49 0
-61 60 0
-62 53 9 58 61 50 0
62 -53 0
62 -9 0
62 -58 0
62 -61 0
62 -50 0
63 -64 -62 0
-63 64 0
-63 62 0
-65 20 63 0
65 -20 0
65 -63 0
66 -67 -65 0
-66 67 0
-66 65 0
68 -17 -15 0
-68 17 0
-68 15 0
69 -49 -47 0
-69 49 0
-69 47 0
-70 53 9 69 50 0
70 -53 0
70 -9 0
70 -69 0
70 -50 0
71 -64 -70 0
-71 64 0
-71 70 0
-72 20 71 0
72 -20 0
72 -71 0
73 -19 -72 0
-73 19 0
-73 72 0
-74 22 73 0
74 -22 0
74 -73 0
75 -24 -74 0
-75 24 0
-75 74 0
76 -26 -72 0
-76 26 0
-76 72 0
77 -31 -15 0
-77 31 0
-77 15 0
-78 33 27 77 0
78 -33 0
78 -27 0
78 -77 0
79 -35 -78 0
-79 35 0
-79 78 0
-80 37 76 79 0
80 -37 0
80 -76 0
80 -79 0
81 -39 -80 0
-81 39 0
-81 80 0
-82 41 68 75 81 0
82 -41 0
82 -68 0
82 -75 0
82 -81 0
83 -84 -82 0
-83 84 0
-83 82 0
-85 13 83 0
85 -13 0
85 -83 0
86 -87 -85 0
-86 87 0
-86 85 0
-88 89 66 86 0
88 -89 0
88 -66 0
88 -86 0
90 -91 -88 0
-90 91 0
-90 88 0
-92 37 76 34 0
92 -37 0
92 -76 0
92 -34 0
93 -39 -92 0
-93 39 0
-93 92 0
-94 41 16 75 93 0
94 -41 0
94 -16 0
94 -75 0
94 -93 0
95 -96 -94 0
-95 96 0
-95 94 0
97 -98 -3 0
-97 98 0
-97 3 0
-99 41 16 38 0
99 -41 0
99 -16 0
99 -38 0
100 -43 -99 0
-100 43 0
-100 99 0
101 -45 -99 0
-101 45 0
-101 99 0
-102 47 101 0
102 -47 0
102 -101 0
103 -49 -102 0
-103 49 0
-103 102 0
-104 53 9 100 103 50 0
104 -53 0
104 -9 0
104 -100 0
104 -103 0
104 -50 0
105 -64 -104 0
-105 64 0
-105 104 0
-106 20 105 0
106 -20 0
106 -105 0
107 -19 -106 0
-107 19 0
-107 106 0
-108 22 107 0
108 -22 0
108 -107 0
109 -110 -108 0
-109 110 0
-109 108 0
111 -112 -3 0
-111 112 0
-111 3 0
-113 114 111 0
113 -114 0
113 -111 0
115 -116 -113 0
-115 116 0
-115 113 0
-117 118 54 90 95 97 109 115 0
117 -118 0
117 -54 0
117 -90 0
117 -95 0
117 -97 0
117 -109 0
117 -115 0
119 -120 -117 0
-119 120 0
-119 117 0
121 -67 -20 0
-121 67 0
-121 20 0
-122 37 25 79 0
122 -37 0
122 -25 0
122 -79 0
123 -39 -122 0
-123 39 0
-123 122 0
-124 41 68 23 123 0
124 -41 0
124 -68 0
124 -23 0
124 -123 0
125 -84 -124 0
-125 84 0
-125 124 0
-126 13 125 0
126 -13 0
126 -125 0
127 -87 -126 0
-127 87 0
-127 126 0
-128 89 121 127 0
128 -89 0
128 -121 0
128 -127 0
129 -91 -128 0
-129 91 0
-129 128 0
130 -96 -40 0
-130 96 0
-130 40 0
131 -110 -21 0
-131 110 0
-131 21 0
-132 118 129 130 97 131 115 0
132 -118 0
132 -129 0
132 -130 0
132 -97 0
132 -131 0
132 -115 0
133 -134 -132 0
-133 134 0
-133 132 0
-135 8 133 1 4 0
135 -8 0
135 -133 0
135 -1 0
135 -4 0
136 -10 -135 0
-136 10 0
-136 135 0
137 -87 -13 0
-137 87 0
-137 13 0
-138 89 121 137 0
138 -89 0
138 -121 0
138 -137 0
139 -91 -138 0
-139 91 0
-139 138 0
-140 118 139 97 131 115 0
140 -118 0
140 -139 0
140 -97 0
140 -131 0
140 -115 0
141 -142 -140 0
-141 142 0
-141 140 0
-143 15 141 11 0
143 -15 0
143 -141 0
143 -11 0
144 -17 -143 0
-144 17 0
-144 143 0
145 -146 -140 0
-145 146 0
-145 140 0
-147 29 145 0
147 -29 0
147 -145 0
148 -28 -147 0
-148 28 0
-148 147 0
149 -31 -143 0
-149 31 0
-149 143 0
-150 33 148 149 0
150 -33 0
150 -148 0
150 -149 0
151 -35 -150 0
-151 35 0
-151 150 0
-152 37 25 151 0
152 -37 0
152 -25 0
152 -151 0
153 -39 -152 0
-153 39 0
-153 152 0
-154 41 144 23 153 0
154 -41 0
154 -144 0
154 -23 0
154 -153 0
155 -43 -154 0
-155 43 0
-155 154 0
156 -45 -154 0
-156 45 0
-156 154 0
-157 47 156 0
157 -47 0
157 -156 0
158 -49 -157 0
-158 49 0
-158 157 0
-159 53 136 155 158 50 0
159 -53 0
159 -136 0
159 -155 0
159 -158 0
159 -50 0
160 -161 -159 0
-160 161 0
-160 159 0
-162 33 30 0
162 -33 0
162 -30 0
163 -35 -162 0
-163 35 0
-163 162 0
-164 37 25 163 0
164 -37 0
164 -25 0
164 -163 0
165 -39 -164 0
-165 39 0
-165 164 0
-166 41 16 23 165 0
166 -41 0
166 -16 0
166 -23 0
166 -165 0
167 -43 -166 0
-167 43 0
-167 166 0
168 -45 -166 0
-168 45 0
-168 166 0
-169 47 168 0
169 -47 0
169 -168 0
170 -49 -169 0
-170 49 0
-170 169 0
-171 53 9 167 170 50 0
171 -53 0
171 -9 0
171 -167 0
171 -170 0
171 -50 0
172 -55 -171 0
-172 55 0
-172 171 0
-173 41 16 56 165 0
173 -41 0
173 -16 0
173 -56 0
173 -165 0
174 -43 -173 0
-174 43 0
-174 173 0
175 -45 -173 0
-175 45 0
-175 173 0
-176 47 175 0
176 -47 0
176 -175 0
177 -49 -176 0
-177 49 0
-177 176 0
-178 53 9 174 177 50 0
178 -53 0
178 -9 0
178 -174 0
178 -177 0
178 -50 0
179 -64 -178 0
-179 64 0
-179 178 0
-180 20 179 0
180 -20 0
180 -179 0
181 -67 -180 0
-181 67 0
-181 180 0
-182 33 77 0
182 -33 0
182 -77 0
183 -35 -182 0
-183 35 0
-183 182 0
-184 37 76 183 0
184 -37 0
184 -76 0
184 -183 0
185 -39 -184 0
-185 39 0
-185 184 0
-186 41 68 75 185 0
186 -41 0
186 -68 0
186 -75 0
186 -185 0
187 -84 -186 0
-187 84 0
-187 186 0
-188 13 187 0
188 -13 0
188 -187 0
189 -87 -188 0
-189 87 0
-189 188 0
-190 89 181 189 0
190 -89 0
190 -181 0
190 -189 0
191 -91 -190 0
-191 91 0
-191 190 0
-192 37 76 163 0
192 -37 0
192 -76 0
192 -163 0
193 -39 -192 0
-193 39 0
-193 192 0
-194 41 16 75 193 0
194 -41 0
194 -16 0
194 -75 0
194 -193 0
195 -96 -194 0
-195 96 0
-195 194 0
-196 41 16 165 0
196 -41 0
196 -16 0
196 -165 0
197 -43 -196 0
-197 43 0
-197 196 0
198 -45 -196 0
-198 45 0
-198 196 0
-199 47 198 0
199 -47 0
199 -198 0
200 -49 -199 0
-200 49 0
-200 199 0
-201 53 9 197 200 50 0
201 -53 0
201 -9 0
201 -197 0
201 -200 0
201 -50 0
202 -64 -201 0
-202 64 0
-202 201 0
-203 20 202 0
203 -20 0
203 -202 0
204 -19 -203 0
-204 19 0
-204 203 0
-205 22 204 0
205 -22 0
205 -204 0
206 -110 -205 0
-206 110 0
-206 205 0
-207 118 172 191 195 97 206 115 0
207 -118 0
207 -172 0
207 -191 0
207 -195 0
207 -97 0
207 -206 0
207 -115 0
208 -146 -207 0
-208 146 0
-208 207 0
-209 29 208 0
209 -29 0
209 -208 0
210 -211 -209 0
-210 211 0
-210 209 0
-212 213 119 160 210 0
212 -213 0
212 -119 0
212 -160 0
212 -210 0
214 -215 -212 0
-214 215 0
-214 212 0
216 -217 -213 0
-216 217 0
-216 213 0
-218 20 216 0
218 -20 0
218 -216 0
219 -19 -218 0
-219 19 0
-219 218 0
-220 22 219 0
220 -22 0
220 -219 0
221 -24 -220 0
-221 24 0
-221 220 0
222 -223 -213 0
-222 223 0
-222 213 0
224 -26 -218 0
-224 26 0
-224 218 0
-225 37 222 224 163 0
225 -37 0
225 -222 0
225 -224 0
225 -163 0
226 -39 -225 0
-226 39 0
-226 225 0
-227 41 16 221 226 0
227 -41 0
227 -16 0
227 -221 0
227 -226 0
228 -43 -227 0
-228 43 0
-228 227 0
229 -45 -227 0
-229 45 0
-229 227 0
-230 47 229 0
230 -47 0
230 -229 0
231 -49 -230 0
-231 49 0
-231 230 0
-232 53 9 228 231 50 0
232 -53 0
232 -9 0
232 -228 0
232 -231 0
232 -50 0
233 -55 -232 0
-233 55 0
-233 232 0
234 -161 -171 0
-234 161 0
-234 171 0
-235 213 234 0
235 -213 0
235 -234 0
236 -237 -235 0
-236 237 0
-236 235 0
238 -161 -178 0
-238 161 0
-238 178 0
-239 213 238 0
239 -213 0
239 -238 0
240 -217 -239 0
-240 217 0
-240 239 0
-241 41 16 56 226 0
241 -41 0
241 -16 0
241 -56 0
241 -226 0
242 -43 -241 0
-242 43 0
-242 241 0
243 -45 -241 0
-243 45 0
-243 241 0
-244 47 243 0
244 -47 0
244 -243 0
245 -49 -244 0
-245 49 0
-245 244 0
-246 53 9 242 245 50 0
246 -53 0
246 -9 0
246 -242 0
246 -245 0
246 -50 0
247 -64 -246 0
-247 64 0
-247 246 0
-248 20 240 247 0
248 -20 0
248 -240 0
248 -247 0
249 -67 -248 0
-249 67 0
-249 248 0
250 -161 -70 0
-250 161 0
-250 70 0
-251 213 250 0
251 -213 0
251 -250 0
252 -217 -251 0
-252 217 0
-252 251 0
-253 20 252 71 0
253 -20 0
253 -252 0
253 -71 0
254 -19 -253 0
-254 19 0
-254 253 0
-255 22 254 0
255 -22 0
255 -254 0
256 -24 -255 0
-256 24 0
-256 255 0
257 -223 -251 0
-257 223 0
-257 251 0
258 -26 -253 0
-258 26 0
-258 253 0
-259 37 257 258 183 0
259 -37 0
259 -257 0
259 -258 0
259 -183 0
260 -39 -259 0
-260 39 0
-260 259 0
-261 41 68 256 260 0
261 -41 0
261 -68 0
261 -256 0
261 -260 0
262 -84 -261 0
-262 84 0
-262 261 0
-263 13 262 0
263 -13 0
263 -262 0
264 -87 -263 0
-264 87 0
-264 263 0
-265 89 236 249 264 0
265 -89 0
265 -236 0
265 -249 0
265 -264 0
266 -91 -265 0
-266 91 0
-266 265 0
-267 37 257 258 163 0
267 -37 0
267 -257 0
267 -258 0
267 -163 0
268 -39 -267 0
-268 39 0
-268 267 0
-269 41 16 256 268 0
269 -41 0
269 -16 0
269 -256 0
269 -268 0
270 -96 -269 0
-270 96 0
-270 269 0
271 -161 -201 0
-271 161 0
-271 201 0
-272 213 271 0
272 -213 0
272 -271 0
273 -217 -272 0
-273 217 0
-273 272 0
-274 41 16 226 0
274 -41 0
274 -16 0
274 -226 0
275 -43 -274 0
-275 43 0
-275 274 0
276 -45 -274 0
-276 45 0
-276 274 0
-277 47 276 0
277 -47 0
277 -276 0
278 -49 -277 0
-278 49 0
-278 277 0
-279 53 9 275 278 50 0
279 -53 0
279 -9 0
279 -275 0
279 -278 0
279 -50 0
280 -64 -279 0
-280 64 0
-280 279 0
-281 20 273 280 0
281 -20 0
281 -273 0
281 -280 0
282 -19 -281 0
-282 19 0
-282 281 0
-283 22 282 0
283 -22 0
283 -282 0
284 -110 -283 0
-284 110 0
-284 283 0
-285 118 233 266 270 97 284 115 0
285 -118 0
285 -233 0
285 -266 0
285 -270 0
285 -97 0
285 -284 0
285 -115 0
286 -146 -285 0
-286 146 0
-286 285 0
-287 29 286 0
287 -29 0
287 -286 0
288 -289 -287 0
-288 289 0
-288 287 0
290 -55 -70 0
-290 55 0
-290 70 0
291 -211 -29 0
-291 211 0
-291 29 0
-292 213 250 291 0
292 -213 0
292 -250 0
292 -291 0
293 -237 -292 0
-293 237 0
-293 292 0
294 -217 -292 0
-294 217 0
-294 292 0
-295 20 294 71 0
295 -20 0
295 -294 0
295 -71 0
296 -67 -295 0
-296 67 0
-296 295 0
-297 89 293 296 137 0
297 -89 0
297 -293 0
297 -296 0
297 -137 0
298 -91 -297 0
-298 91 0
-298 297 0
299 -19 -295 0
-299 19 0
-299 295 0
-300 22 299 0
300 -22 0
300 -299 0
301 -110 -300 0
-301 110 0
-301 300 0
-302 118 290 298 97 301 115 0
302 -118 0
302 -290 0
302 -298 0
302 -97 0
302 -301 0
302 -115 0
303 -142 -302 0
-303 142 0
-303 302 0
-304 15 303 11 0
304 -15 0
304 -303 0
304 -11 0
305 -17 -304 0
-305 17 0
-305 304 0
-306 89 137 0
306 -89 0
306 -137 0
307 -91 -306 0
-307 91 0
-307 306 0
-308 118 290 307 97 115 0
308 -118 0
308 -290 0
308 -307 0
308 -97 0
308 -115 0
309 -120 -308 0
-309 120 0
-309 308 0
-310 118 139 97 115 0
310 -118 0
310 -139 0
310 -97 0
310 -115 0
311 -134 -310 0
-311 134 0
-311 310 0
-312 8 311 1 4 0
312 -8 0
312 -311 0
312 -1 0
312 -4 0
313 -10 -312 0
-313 10 0
-313 312 0
-314 53 313 69 50 0
314 -53 0
314 -313 0
314 -69 0
314 -50 0
315 -161 -314 0
-315 161 0
-315 314 0
316 -146 -308 0
-316 146 0
-316 308 0
-317 29 316 0
317 -29 0
317 -316 0
318 -211 -317 0
-318 211 0
-318 317 0
-319 213 309 315 318 0
319 -213 0
319 -309 0
319 -315 0
319 -318 0
320 -217 -319 0
-320 217 0
-320 319 0
-321 213 291 0
321 -213 0
321 -291 0
322 -237 -321 0
-322 237 0
-322 321 0
-323 89 322 137 0
323 -89 0
323 -322 0
323 -137 0
324 -91 -323 0
-324 91 0
-324 323 0
-325 118 324 97 115 0
325 -118 0
325 -324 0
325 -97 0
325 -115 0
326 -134 -325 0
-326 134 0
-326 325 0
-327 8 326 1 4 0
327 -8 0
327 -326 0
327 -1 0
327 -4 0
328 -10 -327 0
-328 10 0
-328 327 0
-329 53 328 69 50 0
329 -53 0
329 -328 0
329 -69 0
329 -50 0
330 -64 -329 0
-330 64 0
-330 329 0
-331 20 320 330 0
331 -20 0
331 -320 0
331 -330 0
332 -19 -331 0
-332 19 0
-332 331 0
-333 22 332 0
333 -22 0
333 -332 0
334 -24 -333 0
-334 24 0
-334 333 0
335 -67 -72 0
-335 67 0
-335 72 0
-336 89 335 137 0
336 -89 0
336 -335 0
336 -137 0
337 -91 -336 0
-337 91 0
-337 336 0
338 -110 -74 0
-338 110 0
-338 74 0
-339 118 290 337 97 338 115 0
339 -118 0
339 -290 0
339 -337 0
339 -97 0
339 -338 0
339 -115 0
340 -120 -339 0
-340 120 0
-340 339 0
341 -134 -140 0
-341 134 0
-341 140 0
-342 8 341 1 4 0
342 -8 0
342 -341 0
342 -1 0
342 -4 0
343 -10 -342 0
-343 10 0
-343 342 0
-344 53 343 69 50 0
344 -53 0
344 -343 0
344 -69 0
344 -50 0
345 -161 -344 0
-345 161 0
-345 344 0
346 -146 -339 0
-346 146 0
-346 339 0
-347 29 346 0
347 -29 0
347 -346 0
348 -211 -347 0
-348 211 0
-348 347 0
-349 213 340 345 348 0
349 -213 0
349 -340 0
349 -345 0
349 -348 0
350 -223 -349 0
-350 223 0
-350 349 0
351 -110 -22 0
-351 110 0
-351 22 0
-352 118 290 307 97 351 115 0
352 -118 0
352 -290 0
352 -307 0
352 -97 0
352 -351 0
352 -115 0
353 -120 -352 0
-353 120 0
-353 352 0
-354 118 139 97 351 115 0
354 -118 0
354 -139 0
354 -97 0
354 -351 0
354 -115 0
355 -134 -354 0
-355 134 0
-355 354 0
-356 8 355 1 4 0
356 -8 0
356 -355 0
356 -1 0
356 -4 0
357 -10 -356 0
-357 10 0
-357 356 0
-358 53 357 69 50 0
358 -53 0
358 -357 0
358 -69 0
358 -50 0
359 -161 -358 0
-359 161 0
-359 358 0
360 -146 -352 0
-360 146 0
-360 352 0
-361 29 360 0
361 -29 0
361 -360 0
362 -211 -361 0
-362 211 0
-362 361 0
-363 213 353 359 362 0
363 -213 0
363 -353 0
363 -359 0
363 -362 0
364 -217 -363 0
-364 217 0
-364 363 0
-365 118 324 97 351 115 0
365 -118 0
365 -324 0
365 -97 0
365 -351 0
365 -115 0
366 -134 -365 0
-366 134 0
-366 365 0
-367 8 366 1 4 0
367 -8 0
367 -366 0
367 -1 0
367 -4 0
368 -10 -367 0
-368 10 0
-368 367 0
-369 53 368 69 50 0
369 -53 0
369 -368 0
369 -69 0
369 -50 0
370 -64 -369 0
-370 64 0
-370 369 0
-371 20 364 370 0
371 -20 0
371 -364 0
371 -370 0
372 -26 -371 0
-372 26 0
-372 371 0
373 -237 -251 0
-373 237 0
-373 251 0
374 -67 -253 0
-374 67 0
-374 253 0
-375 89 373 374 137 0
375 -89 0
375 -373 0
375 -374 0
375 -137 0
376 -91 -375 0
-376 91 0
-376 375 0
377 -110 -255 0
-377 110 0
-377 255 0
-378 118 290 376 97 377 115 0
378 -118 0
378 -290 0
378 -376 0
378 -97 0
378 -377 0
378 -115 0
379 -146 -378 0
-379 146 0
-379 378 0
-380 29 379 0
380 -29 0
380 -379 0
381 -28 -380 0
-381 28 0
-381 380 0
382 -31 -304 0
-382 31 0
-382 304 0
-383 33 381 382 0
383 -33 0
383 -381 0
383 -382 0
384 -35 -383 0
-384 35 0
-384 383 0
-385 37 350 372 384 0
385 -37 0
385 -350 0
385 -372 0
385 -384 0
386 -39 -385 0
-386 39 0
-386 385 0
-387 41 305 334 386 0
387 -41 0
387 -305 0
387 -334 0
387 -386 0
388 -389 -387 0
-388 389 0
-388 387 0
-390 391 214 288 388 0
390 -391 0
390 -214 0
390 -288 0
390 -388 0
392 -393 -390 0
-392 393 0
-392 390 0
394 -289 -29 0
-394 289 0
-394 29 0
395 -389 -40 0
-395 389 0
-395 40 0
-396 391 394 395 0
396 -391 0
396 -394 0
396 -395 0
397 -398 -396 0
-397 398 0
-397 396 0
399 -400 -396 0
-399 400 0
-399 396 0
-401 8 399 1 4 0
401 -8 0
401 -399 0
401 -1 0
401 -4 0
402 -10 -401 0
-402 10 0
-402 401 0
-403 391 394 0
403 -391 0
403 -394 0
404 -405 -403 0
-404 405 0
-404 403 0
-406 15 404 11 0
406 -15 0
406 -404 0
406 -11 0
407 -17 -406 0
-407 17 0
-407 406 0
408 -409 -403 0
-408 409 0
-408 403 0
-410 20 408 0
410 -20 0
410 -408 0
411 -19 -410 0
-411 19 0
-411 410 0
-412 22 411 0
412 -22 0
412 -411 0
413 -24 -412 0
-413 24 0
-413 412 0
414 -26 -410 0
-414 26 0
-414 410 0
415 -31 -406 0
-415 31 0
-415 406 0
-416 33 27 415 0
416 -33 0
416 -27 0
416 -415 0
417 -35 -416 0
-417 35 0
-417 416 0
-418 37 414 417 0
418 -37 0
418 -414 0
418 -417 0
419 -39 -418 0
-419 39 0
-419 418 0
-420 41 407 413 419 0
420 -41 0
420 -407 0
420 -413 0
420 -419 0
421 -43 -420 0
-421 43 0
-421 420 0
422 -423 -396 0
-422 423 0
-422 396 0
424 -45 -420 0
-424 45 0
-424 420 0
-425 47 422 424 0
425 -47 0
425 -422 0
425 -424 0
426 -49 -425 0
-426 49 0
-426 425 0
-427 53 397 402 421 426 50 0
427 -53 0
427 -397 0
427 -402 0
427 -421 0
427 -426 0
427 -50 0
428 -55 -427 0
-428 55 0
-428 427 0
429 -389 -94 0
-429 389 0
-429 94 0
-430 391 394 429 0
430 -391 0
430 -394 0
430 -429 0
431 -432 -430 0
-431 432 0
-431 430 0
433 -398 -403 0
-433 398 0
-433 403 0
434 -400 -403 0
-434 400 0
-434 403 0
-435 8 434 1 4 0
435 -8 0
435 -434 0
435 -1 0
435 -4 0
436 -10 -435 0
-436 10 0
-436 435 0
437 -423 -403 0
-437 423 0
-437 403 0
-438 47 437 0
438 -47 0
438 -437 0
439 -49 -438 0
-439 49 0
-439 438 0
-440 53 433 436 439 50 0
440 -53 0
440 -433 0
440 -436 0
440 -439 0
440 -50 0
441 -64 -440 0
-441 64 0
-441 440 0
-442 20 408 441 0
442 -20 0
442 -408 0
442 -441 0
443 -19 -442 0
-443 19 0
-443 442 0
-444 22 443 0
444 -22 0
444 -443 0
445 -24 -444 0
-445 24 0
-445 444 0
446 -26 -442 0
-446 26 0
-446 442 0
-447 37 446 417 0
447 -37 0
447 -446 0
447 -417 0
448 -39 -447 0
-448 39 0
-448 447 0
-449 41 407 445 448 0
449 -41 0
449 -407 0
449 -445 0
449 -448 0
450 -96 -449 0
-450 96 0
-450 449 0
-451 37 34 0
451 -37 0
451 -34 0
452 -39 -451 0
-452 39 0
-452 451 0
-453 41 16 452 0
453 -41 0
453 -16 0
453 -452 0
454 -389 -453 0
-454 389 0
-454 453 0
-455 391 394 454 0
455 -391 0
455 -394 0
455 -454 0
456 -409 -455 0
-456 409 0
-456 455 0
457 -389 -99 0
-457 389 0
-457 99 0
-458 391 394 457 0
458 -391 0
458 -394 0
458 -457 0
459 -398 -458 0
-459 398 0
-459 458 0
460 -400 -458 0
-460 400 0
-460 458 0
-461 8 460 1 4 0
461 -8 0
461 -460 0
461 -1 0
461 -4 0
462 -10 -461 0
-462 10 0
-462 461 0
-463 41 407 419 0
463 -41 0
463 -407 0
463 -419 0
464 -43 -463 0
-464 43 0
-464 463 0
465 -423 -458 0
-465 423 0
-465 458 0
466 -45 -463 0
-466 45 0
-466 463 0
-467 47 465 466 0
467 -47 0
467 -465 0
467 -466 0
468 -49 -467 0
-468 49 0
-468 467 0
-469 53 459 462 464 468 50 0
469 -53 0
469 -459 0
469 -462 0
469 -464 0
469 -468 0
469 -50 0
470 -64 -469 0
-470 64 0
-470 469 0
-471 20 456 470 0
471 -20 0
471 -456 0
471 -470 0
472 -19 -471 0
-472 19 0
-472 471 0
-473 22 472 0
473 -22 0
473 -472 0
474 -110 -473 0
-474 110 0
-474 473 0
475 -476 -430 0
-475 476 0
-475 430 0
-477 114 475 111 0
477 -114 0
477 -475 0
477 -111 0
478 -116 -477 0
-478 116 0
-478 477 0
-479 118 428 431 450 97 474 478 0
479 -118 0
479 -428 0
479 -431 0
479 -450 0
479 -97 0
479 -474 0
479 -478 0
480 -120 -479 0
-480 120 0
-480 479 0
481 -96 -166 0
-481 96 0
-481 166 0
-482 118 481 97 131 115 0
482 -118 0
482 -481 0
482 -97 0
482 -131 0
482 -115 0
483 -146 -482 0
-483 146 0
-483 482 0
-484 29 483 0
484 -29 0
484 -483 0
485 -289 -484 0
-485 289 0
-485 484 0
-486 118 97 131 115 0
486 -118 0
486 -97 0
486 -131 0
486 -115 0
487 -142 -486 0
-487 142 0
-487 486 0
-488 15 487 11 0
488 -15 0
488 -487 0
488 -11 0
489 -17 -488 0
-489 17 0
-489 488 0
490 -146 -486 0
-490 146 0
-490 486 0
-491 29 490 0
491 -29 0
491 -490 0
492 -28 -491 0
-492 28 0
-492 491 0
493 -31 -488 0
-493 31 0
-493 488 0
-494 33 492 493 0
494 -33 0
494 -492 0
494 -493 0
495 -35 -494 0
-495 35 0
-495 494 0
-496 37 25 495 0
496 -37 0
496 -25 0
496 -495 0
497 -39 -496 0
-497 39 0
-497 496 0
-498 41 489 23 497 0
498 -41 0
498 -489 0
498 -23 0
498 -497 0
499 -389 -498 0
-499 389 0
-499 498 0
-500 391 485 499 0
500 -391 0
500 -485 0
500 -499 0
501 -398 -500 0
-501 398 0
-501 500 0
502 -432 -396 0
-502 432 0
-502 396 0
503 -96 -420 0
-503 96 0
-503 420 0
504 -409 -458 0
-504 409 0
-504 458 0
-505 20 504 0
505 -20 0
505 -504 0
506 -19 -505 0
-506 19 0
-506 505 0
-507 22 506 0
507 -22 0
507 -506 0
508 -110 -507 0
-508 110 0
-508 507 0
509 -476 -396 0
-509 476 0
-509 396 0
-510 114 509 111 0
510 -114 0
510 -509 0
510 -111 0
511 -116 -510 0
-511 116 0
-511 510 0
-512 118 502 503 97 508 511 0
512 -118 0
512 -502 0
512 -503 0
512 -97 0
512 -508 0
512 -511 0
513 -134 -512 0
-513 134 0
-513 512 0
514 -400 -500 0
-514 400 0
-514 500 0
-515 8 513 514 1 4 0
515 -8 0
515 -513 0
515 -514 0
515 -1 0
515 -4 0
516 -10 -515 0
-516 10 0
-516 515 0
517 -432 -403 0
-517 432 0
-517 403 0
518 -110 -412 0
-518 110 0
-518 412 0
519 -476 -403 0
-519 476 0
-519 403 0
-520 114 519 111 0
520 -114 0
520 -519 0
520 -111 0
521 -116 -520 0
-521 116 0
-521 520 0
-522 118 517 97 518 521 0
522 -118 0
522 -517 0
522 -97 0
522 -518 0
522 -521 0
523 -142 -522 0
-523 142 0
-523 522 0
524 -289 -491 0
-524 289 0
-524 491 0
-525 391 524 0
525 -391 0
525 -524 0
526 -405 -525 0
-526 405 0
-526 525 0
-527 15 523 526 11 0
527 -15 0
527 -523 0
527 -526 0
527 -11 0
528 -17 -527 0
-528 17 0
-528 527 0
-529 118 97 115 0
529 -118 0
529 -97 0
529 -115 0
530 -146 -529 0
-530 146 0
-530 529 0
-531 29 530 0
531 -29 0
531 -530 0
532 -289 -531 0
-532 289 0
-532 531 0
-533 391 532 0
533 -391 0
533 -532 0
534 -409 -533 0
-534 409 0
-534 533 0
-535 20 534 0
535 -20 0
535 -534 0
536 -19 -535 0
-536 19 0
-536 535 0
-537 22 536 0
537 -22 0
537 -536 0
538 -24 -537 0
-538 24 0
-538 537 0
-539 118 97 351 115 0
539 -118 0
539 -97 0
539 -351 0
539 -115 0
540 -146 -539 0
-540 146 0
-540 539 0
-541 29 540 0
541 -29 0
541 -540 0
542 -289 -541 0
-542 289 0
-542 541 0
-543 391 542 0
543 -391 0
543 -542 0
544 -409 -543 0
-544 409 0
-544 543 0
-545 20 544 0
545 -20 0
545 -544 0
546 -26 -545 0
-546 26 0
-546 545 0
547 -146 -522 0
-547 146 0
-547 522 0
-548 29 547 0
548 -29 0
548 -547 0
549 -28 -548 0
-549 28 0
-549 548 0
550 -31 -527 0
-550 31 0
-550 527 0
-551 33 549 550 0
551 -33 0
551 -549 0
551 -550 0
552 -35 -551 0
-552 35 0
-552 551 0
-553 37 546 552 0
553 -37 0
553 -546 0
553 -552 0
554 -39 -553 0
-554 39 0
-554 553 0
-555 41 528 538 554 0
555 -41 0
555 -528 0
555 -538 0
555 -554 0
556 -43 -555 0
-556 43 0
-556 555 0
557 -423 -500 0
-557 423 0
-557 500 0
558 -45 -555 0
-558 45 0
-558 555 0
-559 47 557 558 0
559 -47 0
559 -557 0
559 -558 0
560 -49 -559 0
-560 49 0
-560 559 0
-561 53 501 516 556 560 50 0
561 -53 0
561 -501 0
561 -516 0
561 -556 0
561 -560 0
561 -50 0
562 -161 -561 0
-562 161 0
-562 561 0
563 -389 -166 0
-563 389 0
-563 166 0
-564 391 394 563 0
564 -391 0
564 -394 0
564 -563 0
565 -398 -564 0
-565 398 0
-565 564 0
566 -400 -564 0
-566 400 0
-566 564 0
-567 8 566 1 4 0
567 -8 0
567 -566 0
567 -1 0
567 -4 0
568 -10 -567 0
-568 10 0
-568 567 0
-569 33 415 0
569 -33 0
569 -415 0
570 -35 -569 0
-570 35 0
-570 569 0
-571 37 414 570 0
571 -37 0
571 -414 0
571 -570 0
572 -39 -571 0
-572 39 0
-572 571 0
-573 41 407 413 572 0
573 -41 0
573 -407 0
573 -413 0
573 -572 0
574 -43 -573 0
-574 43 0
-574 573 0
575 -423 -564 0
-575 423 0
-575 564 0
576 -45 -573 0
-576 45 0
-576 573 0
-577 47 575 576 0
577 -47 0
577 -575 0
577 -576 0
578 -49 -577 0
-578 49 0
-578 577 0
-579 53 565 568 574 578 50 0
579 -53 0
579 -565 0
579 -568 0
579 -574 0
579 -578 0
579 -50 0
580 -55 -579 0
-580 55 0
-580 579 0
581 -389 -194 0
-581 389 0
-581 194 0
-582 391 394 581 0
582 -391 0
582 -394 0
582 -581 0
583 -432 -582 0
-583 432 0
-583 582 0
-584 37 446 570 0
584 -37 0
584 -446 0
584 -570 0
585 -39 -584 0
-585 39 0
-585 584 0
-586 41 407 445 585 0
586 -41 0
586 -407 0
586 -445 0
586 -585 0
587 -96 -586 0
-587 96 0
-587 586 0
-588 37 163 0
588 -37 0
588 -163 0
589 -39 -588 0
-589 39 0
-589 588 0
-590 41 16 589 0
590 -41 0
590 -16 0
590 -589 0
591 -389 -590 0
-591 389 0
-591 590 0
-592 391 394 591 0
592 -391 0
592 -394 0
592 -591 0
593 -409 -592 0
-593 409 0
-593 592 0
594 -389 -196 0
-594 389 0
-594 196 0
-595 391 394 594 0
595 -391 0
595 -394 0
595 -594 0
596 -398 -595 0
-596 398 0
-596 595 0
597 -400 -595 0
-597 400 0
-597 595 0
-598 8 597 1 4 0
598 -8 0
598 -597 0
598 -1 0
598 -4 0
599 -10 -598 0
-599 10 0
-599 598 0
-600 41 407 572 0
600 -41 0
600 -407 0
600 -572 0
601 -43 -600 0
-601 43 0
-601 600 0
602 -423 -595 0
-602 423 0
-602 595 0
603 -45 -600 0
-603 45 0
-603 600 0
-604 47 602 603 0
604 -47 0
604 -602 0
604 -603 0
605 -49 -604 0
-605 49 0
-605 604 0
-606 53 596 599 601 605 50 0
606 -53 0
606 -596 0
606 -599 0
606 -601 0
606 -605 0
606 -50 0
607 -64 -606 0
-607 64 0
-607 606 0
-608 20 593 607 0
608 -20 0
608 -593 0
608 -607 0
609 -19 -608 0
-609 19 0
-609 608 0
-610 22 609 0
610 -22 0
610 -609 0
611 -110 -610 0
-611 110 0
-611 610 0
612 -476 -582 0
-612 476 0
-612 582 0
-613 114 612 111 0
613 -114 0
613 -612 0
613 -111 0
614 -116 -613 0
-614 116 0
-614 613 0
-615 118 580 583 587 97 611 614 0
615 -118 0
615 -580 0
615 -583 0
615 -587 0
615 -97 0
615 -611 0
615 -614 0
616 -146 -615 0
-616 146 0
-616 615 0
-617 29 616 0
617 -29 0
617 -616 0
618 -211 -617 0
-618 211 0
-618 617 0
-619 213 480 562 618 0
619 -213 0
619 -480 0
619 -562 0
619 -618 0
620 -237 -619 0
-620 237 0
-620 619 0
621 -389 -57 0
-621 389 0
-621 57 0
-622 391 394 621 0
622 -391 0
622 -394 0
622 -621 0
623 -398 -622 0
-623 398 0
-623 622 0
624 -400 -622 0
-624 400 0
-624 622 0
-625 8 624 1 4 0
625 -8 0
625 -624 0
625 -1 0
625 -4 0
626 -10 -625 0
-626 10 0
-626 625 0
-627 41 407 56 419 0
627 -41 0
627 -407 0
627 -56 0
627 -419 0
628 -43 -627 0
-628 43 0
-628 627 0
629 -423 -622 0
-629 423 0
-629 622 0
630 -45 -627 0
-630 45 0
-630 627 0
-631 47 629 630 0
631 -47 0
631 -629 0
631 -630 0
632 -49 -631 0
-632 49 0
-632 631 0
-633 53 623 626 628 632 50 0
633 -53 0
633 -623 0
633 -626 0
633 -628 0
633 -632 0
633 -50 0
634 -55 -633 0
-634 55 0
-634 633 0
-635 41 16 56 452 0
635 -41 0
635 -16 0
635 -56 0
635 -452 0
636 -389 -635 0
-636 389 0
-636 635 0
-637 391 394 636 0
637 -391 0
637 -394 0
637 -636 0
638 -432 -637 0
-638 432 0
-638 637 0
-639 37 417 0
639 -37 0
639 -417 0
640 -39 -639 0
-640 39 0
-640 639 0
-641 41 407 56 640 0
641 -41 0
641 -407 0
641 -56 0
641 -640 0
642 -96 -641 0
-642 96 0
-642 641 0
643 -476 -637 0
-643 476 0
-643 637 0
-644 114 643 111 0
644 -114 0
644 -643 0
644 -111 0
645 -116 -644 0
-645 116 0
-645 644 0
-646 118 634 638 642 97 351 645 0
646 -118 0
646 -634 0
646 -638 0
646 -642 0
646 -97 0
646 -351 0
646 -645 0
647 -120 -646 0
-647 120 0
-647 646 0
648 -96 -173 0
-648 96 0
-648 173 0
-649 118 648 97 351 115 0
649 -118 0
649 -648 0
649 -97 0
649 -351 0
649 -115 0
650 -146 -649 0
-650 146 0
-650 649 0
-651 29 650 0
651 -29 0
651 -650 0
652 -289 -651 0
-652 289 0
-652 651 0
653 -142 -539 0
-653 142 0
-653 539 0
-654 15 653 11 0
654 -15 0
654 -653 0
654 -11 0
655 -17 -654 0
-655 17 0
-655 654 0
656 -28 -541 0
-656 28 0
-656 541 0
657 -31 -654 0
-657 31 0
-657 654 0
-658 33 656 657 0
658 -33 0
658 -656 0
658 -657 0
659 -35 -658 0
-659 35 0
-659 658 0
-660 37 25 659 0
660 -37 0
660 -25 0
660 -659 0
661 -39 -660 0
-661 39 0
-661 660 0
-662 41 655 56 661 0
662 -41 0
662 -655 0
662 -56 0
662 -661 0
663 -389 -662 0
-663 389 0
-663 662 0
-664 391 652 663 0
664 -391 0
664 -652 0
664 -663 0
665 -398 -664 0
-665 398 0
-665 664 0
666 -432 -622 0
-666 432 0
-666 622 0
667 -96 -627 0
-667 96 0
-667 627 0
668 -476 -622 0
-668 476 0
-668 622 0
-669 114 668 111 0
669 -114 0
669 -668 0
669 -111 0
670 -116 -669 0
-670 116 0
-670 669 0
-671 118 666 667 97 351 670 0
671 -118 0
671 -666 0
671 -667 0
671 -97 0
671 -351 0
671 -670 0
672 -134 -671 0
-672 134 0
-672 671 0
673 -400 -664 0
-673 400 0
-673 664 0
-674 8 672 673 1 4 0
674 -8 0
674 -672 0
674 -673 0
674 -1 0
674 -4 0
675 -10 -674 0
-675 10 0
-675 674 0
-676 118 517 97 351 521 0
676 -118 0
676 -517 0
676 -97 0
676 -351 0
676 -521 0
677 -142 -676 0
-677 142 0
-677 676 0
678 -405 -543 0
-678 405 0
-678 543 0
-679 15 677 678 11 0
679 -15 0
679 -677 0
679 -678 0
679 -11 0
680 -17 -679 0
-680 17 0
-680 679 0
681 -146 -676 0
-681 146 0
-681 676 0
-682 29 681 0
682 -29 0
682 -681 0
683 -28 -682 0
-683 28 0
-683 682 0
684 -31 -679 0
-684 31 0
-684 679 0
-685 33 683 684 0
685 -33 0
685 -683 0
685 -684 0
686 -35 -685 0
-686 35 0
-686 685 0
-687 37 686 0
687 -37 0
687 -686 0
688 -39 -687 0
-688 39 0
-688 687 0
-689 41 680 56 688 0
689 -41 0
689 -680 0
689 -56 0
689 -688 0
690 -43 -689 0
-690 43 0
-690 689 0
691 -423 -664 0
-691 423 0
-691 664 0
692 -45 -689 0
-692 45 0
-692 689 0
-693 47 691 692 0
693 -47 0
693 -691 0
693 -692 0
694 -49 -693 0
-694 49 0
-694 693 0
-695 53 665 675 690 694 50 0
695 -53 0
695 -665 0
695 -675 0
695 -690 0
695 -694 0
695 -50 0
696 -161 -695 0
-696 161 0
-696 695 0
697 -389 -173 0
-697 389 0
-697 173 0
-698 391 394 697 0
698 -391 0
698 -394 0
698 -697 0
699 -398 -698 0
-699 398 0
-699 698 0
700 -400 -698 0
-700 400 0
-700 698 0
-701 8 700 1 4 0
701 -8 0
701 -700 0
701 -1 0
701 -4 0
702 -10 -701 0
-702 10 0
-702 701 0
-703 41 407 56 572 0
703 -41 0
703 -407 0
703 -56 0
703 -572 0
704 -43 -703 0
-704 43 0
-704 703 0
705 -423 -698 0
-705 423 0
-705 698 0
706 -45 -703 0
-706 45 0
-706 703 0
-707 47 705 706 0
707 -47 0
707 -705 0
707 -706 0
708 -49 -707 0
-708 49 0
-708 707 0
-709 53 699 702 704 708 50 0
709 -53 0
709 -699 0
709 -702 0
709 -704 0
709 -708 0
709 -50 0
710 -55 -709 0
-710 55 0
-710 709 0
-711 41 16 56 589 0
711 -41 0
711 -16 0
711 -56 0
711 -589 0
712 -389 -711 0
-712 389 0
-712 711 0
-713 391 394 712 0
713 -391 0
713 -394 0
713 -712 0
714 -432 -713 0
-714 432 0
-714 713 0
-715 37 570 0
715 -37 0
715 -570 0
716 -39 -715 0
-716 39 0
-716 715 0
-717 41 407 56 716 0
717 -41 0
717 -407 0
717 -56 0
717 -716 0
718 -96 -717 0
-718 96 0
-718 717 0
719 -476 -713 0
-719 476 0
-719 713 0
-720 114 719 111 0
720 -114 0
720 -719 0
720 -111 0
721 -116 -720 0
-721 116 0
-721 720 0
-722 118 710 714 718 97 351 721 0
722 -118 0
722 -710 0
722 -714 0
722 -718 0
722 -97 0
722 -351 0
722 -721 0
723 -146 -722 0
-723 146 0
-723 722 0
-724 29 723 0
724 -29 0
724 -723 0
725 -211 -724 0
-725 211 0
-725 724 0
-726 213 647 696 725 0
726 -213 0
726 -647 0
726 -696 0
726 -725 0
727 -217 -726 0
-727 217 0
-727 726 0
728 -55 -62 0
-728 55 0
-728 62 0
729 -96 -635 0
-729 96 0
-729 635 0
-730 118 728 729 97 351 115 0
730 -118 0
730 -728 0
730 -729 0
730 -97 0
730 -351 0
730 -115 0
731 -120 -730 0
-731 120 0
-731 730 0
732 -96 -57 0
-732 96 0
-732 57 0
-733 118 732 97 351 115 0
733 -118 0
733 -732 0
733 -97 0
733 -351 0
733 -115 0
734 -134 -733 0
-734 134 0
-734 733 0
-735 8 734 1 4 0
735 -8 0
735 -734 0
735 -1 0
735 -4 0
736 -10 -735 0
-736 10 0
-736 735 0
737 -43 -662 0
-737 43 0
-737 662 0
738 -45 -662 0
-738 45 0
-738 662 0
-739 47 738 0
739 -47 0
739 -738 0
740 -49 -739 0
-740 49 0
-740 739 0
-741 53 736 737 740 50 0
741 -53 0
741 -736 0
741 -737 0
741 -740 0
741 -50 0
742 -161 -741 0
-742 161 0
-742 741 0
743 -55 -178 0
-743 55 0
-743 178 0
744 -96 -711 0
-744 96 0
-744 711 0
-745 118 743 744 97 351 115 0
745 -118 0
745 -743 0
745 -744 0
745 -97 0
745 -351 0
745 -115 0
746 -146 -745 0
-746 146 0
-746 745 0
-747 29 746 0
747 -29 0
747 -746 0
748 -211 -747 0
-748 211 0
-748 747 0
-749 213 731 742 748 0
749 -213 0
749 -731 0
749 -742 0
749 -748 0
750 -215 -749 0
-750 215 0
-750 749 0
751 -55 -246 0
-751 55 0
-751 246 0
-752 37 257 163 0
752 -37 0
752 -257 0
752 -163 0
753 -39 -752 0
-753 39 0
-753 752 0
-754 41 16 56 753 0
754 -41 0
754 -16 0
754 -56 0
754 -753 0
755 -96 -754 0
-755 96 0
-755 754 0
-756 118 751 755 97 351 115 0
756 -118 0
756 -751 0
756 -755 0
756 -97 0
756 -351 0
756 -115 0
757 -146 -756 0
-757 146 0
-757 756 0
-758 29 757 0
758 -29 0
758 -757 0
759 -289 -758 0
-759 289 0
-759 758 0
-760 118 290 97 351 115 0
760 -118 0
760 -290 0
760 -97 0
760 -351 0
760 -115 0
761 -142 -760 0
-761 142 0
-761 760 0
-762 15 761 11 0
762 -15 0
762 -761 0
762 -11 0
763 -17 -762 0
-763 17 0
-763 762 0
764 -120 -760 0
-764 120 0
-764 760 0
765 -134 -539 0
-765 134 0
-765 539 0
-766 8 765 1 4 0
766 -8 0
766 -765 0
766 -1 0
766 -4 0
767 -10 -766 0
-767 10 0
-767 766 0
-768 53 767 69 50 0
768 -53 0
768 -767 0
768 -69 0
768 -50 0
769 -161 -768 0
-769 161 0
-769 768 0
770 -146 -760 0
-770 146 0
-770 760 0
-771 29 770 0
771 -29 0
771 -770 0
772 -211 -771 0
-772 211 0
-772 771 0
-773 213 764 769 772 0
773 -213 0
773 -764 0
773 -769 0
773 -772 0
774 -223 -773 0
-774 223 0
-774 773 0
775 -28 -771 0
-775 28 0
-775 771 0
776 -31 -762 0
-776 31 0
-776 762 0
-777 33 775 776 0
777 -33 0
777 -775 0
777 -776 0
778 -35 -777 0
-778 35 0
-778 777 0
-779 37 774 778 0
779 -37 0
779 -774 0
779 -778 0
780 -39 -779 0
-780 39 0
-780 779 0
-781 41 763 56 780 0
781 -41 0
781 -763 0
781 -56 0
781 -780 0
782 -389 -781 0
-782 389 0
-782 781 0
-783 391 750 759 782 0
783 -391 0
783 -750 0
783 -759 0
783 -782 0
784 -409 -783 0
-784 409 0
-784 783 0
785 -120 -733 0
-785 120 0
-785 733 0
786 -211 -651 0
-786 211 0
-786 651 0
-787 213 785 786 0
787 -213 0
787 -785 0
787 -786 0
788 -215 -787 0
-788 215 0
-788 787 0
789 -96 -241 0
-789 96 0
-789 241 0
-790 118 789 97 351 115 0
790 -118 0
790 -789 0
790 -97 0
790 -351 0
790 -115 0
791 -146 -790 0
-791 146 0
-791 790 0
-792 29 791 0
792 -29 0
792 -791 0
793 -289 -792 0
-793 289 0
-793 792 0
794 -120 -539 0
-794 120 0
-794 539 0
795 -211 -541 0
-795 211 0
-795 541 0
-796 213 794 795 0
796 -213 0
796 -794 0
796 -795 0
797 -223 -796 0
-797 223 0
-797 796 0
-798 37 797 659 0
798 -37 0
798 -797 0
798 -659 0
799 -39 -798 0
-799 39 0
-799 798 0
-800 41 655 56 799 0
800 -41 0
800 -655 0
800 -56 0
800 -799 0
801 -389 -800 0
-801 389 0
-801 800 0
-802 391 788 793 801 0
802 -391 0
802 -788 0
802 -793 0
802 -801 0
803 -398 -802 0
-803 398 0
-803 802 0
804 -215 -321 0
-804 215 0
-804 321 0
805 -223 -321 0
-805 223 0
-805 321 0
-806 37 805 34 0
806 -37 0
806 -805 0
806 -34 0
807 -39 -806 0
-807 39 0
-807 806 0
-808 41 16 56 807 0
808 -41 0
808 -16 0
808 -56 0
808 -807 0
809 -389 -808 0
-809 389 0
-809 808 0
-810 391 804 394 809 0
810 -391 0
810 -804 0
810 -394 0
810 -809 0
811 -432 -810 0
-811 432 0
-811 810 0
-812 391 804 394 0
812 -391 0
812 -804 0
812 -394 0
813 -405 -812 0
-813 405 0
-813 812 0
-814 15 813 11 0
814 -15 0
814 -813 0
814 -11 0
815 -17 -814 0
-815 17 0
-815 814 0
816 -31 -814 0
-816 31 0
-816 814 0
-817 33 27 816 0
817 -33 0
817 -27 0
817 -816 0
818 -35 -817 0
-818 35 0
-818 817 0
-819 37 805 818 0
819 -37 0
819 -805 0
819 -818 0
820 -39 -819 0
-820 39 0
-820 819 0
-821 41 815 56 820 0
821 -41 0
821 -815 0
821 -56 0
821 -820 0
822 -96 -821 0
-822 96 0
-822 821 0
823 -476 -810 0
-823 476 0
-823 810 0
-824 114 823 111 0
824 -114 0
824 -823 0
824 -111 0
825 -116 -824 0
-825 116 0
-825 824 0
-826 118 811 822 97 351 825 0
826 -118 0
826 -811 0
826 -822 0
826 -97 0
826 -351 0
826 -825 0
827 -134 -826 0
-827 134 0
-827 826 0
828 -400 -802 0
-828 400 0
-828 802 0
-829 8 827 828 1 4 0
829 -8 0
829 -827 0
829 -828 0
829 -1 0
829 -4 0
830 -10 -829 0
-830 10 0
-830 829 0
831 -432 -812 0
-831 432 0
-831 812 0
832 -476 -812 0
-832 476 0
-832 812 0
-833 114 832 111 0
833 -114 0
833 -832 0
833 -111 0
834 -116 -833 0
-834 116 0
-834 833 0
-835 118 831 97 351 834 0
835 -118 0
835 -831 0
835 -97 0
835 -351 0
835 -834 0
836 -142 -835 0
-836 142 0
-836 835 0
837 -215 -796 0
-837 215 0
-837 796 0
-838 391 837 542 0
838 -391 0
838 -837 0
838 -542 0
839 -405 -838 0
-839 405 0
-839 838 0
-840 15 836 839 11 0
840 -15 0
840 -836 0
840 -839 0
840 -11 0
841 -17 -840 0
-841 17 0
-841 840 0
842 -120 -676 0
-842 120 0
-842 676 0
843 -211 -682 0
-843 211 0
-843 682 0
-844 213 842 843 0
844 -213 0
844 -842 0
844 -843 0
845 -223 -844 0
-845 223 0
-845 844 0
846 -146 -835 0
-846 146 0
-846 835 0
-847 29 846 0
847 -29 0
847 -846 0
848 -28 -847 0
-848 28 0
-848 847 0
849 -31 -840 0
-849 31 0
-849 840 0
-850 33 848 849 0
850 -33 0
850 -848 0
850 -849 0
851 -35 -850 0
-851 35 0
-851 850 0
-852 37 845 851 0
852 -37 0
852 -845 0
852 -851 0
853 -39 -852 0
-853 39 0
-853 852 0
-854 41 841 56 853 0
854 -41 0
854 -841 0
854 -56 0
854 -853 0
855 -43 -854 0
-855 43 0
-855 854 0
856 -423 -802 0
-856 423 0
-856 802 0
857 -45 -854 0
-857 45 0
-857 854 0
-858 47 856 857 0
858 -47 0
858 -856 0
858 -857 0
859 -49 -858 0
-859 49 0
-859 858 0
-860 53 803 830 855 859 50 0
860 -53 0
860 -803 0
860 -830 0
860 -855 0
860 -859 0
860 -50 0
861 -64 -860 0
-861 64 0
-861 860 0
-862 20 727 784 861 0
862 -20 0
862 -727 0
862 -784 0
862 -861 0
863 -67 -862 0
-863 67 0
-863 862 0
864 -398 -812 0
-864 398 0
-864 812 0
865 -400 -812 0
-865 400 0
-865 812 0
-866 8 865 1 4 0
866 -8 0
866 -865 0
866 -1 0
866 -4 0
867 -10 -866 0
-867 10 0
-867 866 0
868 -423 -812 0
-868 423 0
-868 812 0
-869 47 868 0
869 -47 0
869 -868 0
870 -49 -869 0
-870 49 0
-870 869 0
-871 53 864 867 870 50 0
871 -53 0
871 -864 0
871 -867 0
871 -870 0
871 -50 0
872 -55 -871 0
-872 55 0
-872 871 0
873 -215 -292 0
-873 215 0
-873 292 0
-874 391 873 394 0
874 -391 0
874 -873 0
874 -394 0
875 -432 -874 0
-875 432 0
-875 874 0
876 -161 -440 0
-876 161 0
-876 440 0
-877 213 876 291 0
877 -213 0
877 -876 0
877 -291 0
878 -217 -877 0
-878 217 0
-878 877 0
879 -409 -874 0
-879 409 0
-879 874 0
880 -64 -871 0
-880 64 0
-880 871 0
-881 20 878 879 880 0
881 -20 0
881 -878 0
881 -879 0
881 -880 0
882 -19 -881 0
-882 19 0
-882 881 0
-883 22 882 0
883 -22 0
883 -882 0
884 -110 -883 0
-884 110 0
-884 883 0
885 -476 -874 0
-885 476 0
-885 874 0
-886 114 885 111 0
886 -114 0
886 -885 0
886 -111 0
887 -116 -886 0
-887 116 0
-887 886 0
-888 118 872 875 97 884 887 0
888 -118 0
888 -872 0
888 -875 0
888 -97 0
888 -884 0
888 -887 0
889 -142 -888 0
-889 142 0
-889 888 0
-890 118 290 97 338 115 0
890 -118 0
890 -290 0
890 -97 0
890 -338 0
890 -115 0
891 -120 -890 0
-891 120 0
-891 890 0
892 -134 -486 0
-892 134 0
-892 486 0
-893 8 892 1 4 0
893 -8 0
893 -892 0
893 -1 0
893 -4 0
894 -10 -893 0
-894 10 0
-894 893 0
-895 53 894 69 50 0
895 -53 0
895 -894 0
895 -69 0
895 -50 0
896 -161 -895 0
-896 161 0
-896 895 0
897 -146 -890 0
-897 146 0
-897 890 0
-898 29 897 0
898 -29 0
898 -897 0
899 -211 -898 0
-899 211 0
-899 898 0
-900 213 891 896 899 0
900 -213 0
900 -891 0
900 -896 0
900 -899 0
901 -215 -900 0
-901 215 0
-901 900 0
-902 118 290 97 377 115 0
902 -118 0
902 -290 0
902 -97 0
902 -377 0
902 -115 0
903 -146 -902 0
-903 146 0
-903 902 0
-904 29 903 0
904 -29 0
904 -903 0
905 -289 -904 0
-905 289 0
-905 904 0
-906 391 901 905 0
906 -391 0
906 -901 0
906 -905 0
907 -405 -906 0
-907 405 0
-907 906 0
-908 15 889 907 0
908 -15 0
908 -889 0
908 -907 0
909 -17 -908 0
-909 17 0
-909 908 0
910 -55 -440 0
-910 55 0
-910 440 0
-911 118 910 517 97 521 0
911 -118 0
911 -910 0
911 -517 0
911 -97 0
911 -521 0
912 -120 -911 0
-912 120 0
-912 911 0
913 -398 -533 0
-913 398 0
-913 533 0
914 -134 -676 0
-914 134 0
-914 676 0
915 -400 -533 0
-915 400 0
-915 533 0
-916 8 914 915 1 4 0
916 -8 0
916 -914 0
916 -915 0
916 -1 0
916 -4 0
917 -10 -916 0
-917 10 0
-917 916 0
918 -423 -533 0
-918 423 0
-918 533 0
-919 47 918 0
919 -47 0
919 -918 0
920 -49 -919 0
-920 49 0
-920 919 0
-921 53 913 917 920 50 0
921 -53 0
921 -913 0
921 -917 0
921 -920 0
921 -50 0
922 -161 -921 0
-922 161 0
-922 921 0
923 -146 -911 0
-923 146 0
-923 911 0
-924 29 923 0
924 -29 0
924 -923 0
925 -211 -924 0
-925 211 0
-925 924 0
-926 213 912 922 925 0
926 -213 0
926 -912 0
926 -922 0
926 -925 0
927 -217 -926 0
-927 217 0
-927 926 0
-928 118 290 97 115 0
928 -118 0
928 -290 0
928 -97 0
928 -115 0
929 -120 -928 0
-929 120 0
-929 928 0
930 -146 -928 0
-930 146 0
-930 928 0
-931 29 930 0
931 -29 0
931 -930 0
932 -211 -931 0
-932 211 0
-932 931 0
-933 213 929 769 932 0
933 -213 0
933 -929 0
933 -769 0
933 -932 0
934 -215 -933 0
-934 215 0
-934 933 0
935 -289 -931 0
-935 289 0
-935 931 0
-936 391 934 935 0
936 -391 0
936 -934 0
936 -935 0
937 -409 -936 0
-937 409 0
-937 936 0
938 -398 -838 0
-938 398 0
-938 838 0
939 -134 -835 0
-939 134 0
-939 835 0
940 -400 -838 0
-940 400 0
-940 838 0
-941 8 939 940 1 4 0
941 -8 0
941 -939 0
941 -940 0
941 -1 0
941 -4 0
942 -10 -941 0
-942 10 0
-942 941 0
943 -423 -838 0
-943 423 0
-943 838 0
-944 47 943 0
944 -47 0
944 -943 0
945 -49 -944 0
-945 49 0
-945 944 0
-946 53 938 942 945 50 0
946 -53 0
946 -938 0
946 -942 0
946 -945 0
946 -50 0
947 -64 -946 0
-947 64 0
-947 946 0
-948 20 927 937 947 0
948 -20 0
948 -927 0
948 -937 0
948 -947 0
949 -19 -948 0
-949 19 0
-949 948 0
-950 22 949 0
950 -22 0
950 -949 0
951 -24 -950 0
-951 24 0
-951 950 0
952 -110 -444 0
-952 110 0
-952 444 0
-953 118 910 517 97 952 521 0
953 -118 0
953 -910 0
953 -517 0
953 -97 0
953 -952 0
953 -521 0
954 -120 -953 0
-954 120 0
-954 953 0
955 -398 -525 0
-955 398 0
-955 525 0
956 -134 -522 0
-956 134 0
-956 522 0
957 -400 -525 0
-957 400 0
-957 525 0
-958 8 956 957 1 4 0
958 -8 0
958 -956 0
958 -957 0
958 -1 0
958 -4 0
959 -10 -958 0
-959 10 0
-959 958 0
960 -423 -525 0
-960 423 0
-960 525 0
-961 47 960 0
961 -47 0
961 -960 0
962 -49 -961 0
-962 49 0
-962 961 0
-963 53 955 959 962 50 0
963 -53 0
963 -955 0
963 -959 0
963 -962 0
963 -50 0
964 -161 -963 0
-964 161 0
-964 963 0
965 -146 -953 0
-965 146 0
-965 953 0
-966 29 965 0
966 -29 0
966 -965 0
967 -211 -966 0
-967 211 0
-967 966 0
-968 213 954 964 967 0
968 -213 0
968 -954 0
968 -964 0
968 -967 0
969 -223 -968 0
-969 223 0
-969 968 0
-970 118 910 517 97 351 521 0
970 -118 0
970 -910 0
970 -517 0
970 -97 0
970 -351 0
970 -521 0
971 -120 -970 0
-971 120 0
-971 970 0
972 -398 -543 0
-972 398 0
-972 543 0
973 -400 -543 0
-973 400 0
-973 543 0
-974 8 914 973 1 4 0
974 -8 0
974 -914 0
974 -973 0
974 -1 0
974 -4 0
975 -10 -974 0
-975 10 0
-975 974 0
976 -423 -543 0
-976 423 0
-976 543 0
-977 47 976 0
977 -47 0
977 -976 0
978 -49 -977 0
-978 49 0
-978 977 0
-979 53 972 975 978 50 0
979 -53 0
979 -972 0
979 -975 0
979 -978 0
979 -50 0
980 -161 -979 0
-980 161 0
-980 979 0
981 -146 -970 0
-981 146 0
-981 970 0
-982 29 981 0
982 -29 0
982 -981 0
983 -211 -982 0
-983 211 0
-983 982 0
-984 213 971 980 983 0
984 -213 0
984 -971 0
984 -980 0
984 -983 0
985 -217 -984 0
-985 217 0
-985 984 0
986 -215 -773 0
-986 215 0
-986 773 0
987 -289 -771 0
-987 289 0
-987 771 0
-988 391 986 987 0
988 -391 0
988 -986 0
988 -987 0
989 -409 -988 0
-989 409 0
-989 988 0
-990 20 985 989 947 0
990 -20 0
990 -985 0
990 -989 0
990 -947 0
991 -26 -990 0
-991 26 0
-991 990 0
992 -215 -251 0
-992 215 0
-992 251 0
-993 391 992 394 0
993 -391 0
993 -992 0
993 -394 0
994 -432 -993 0
-994 432 0
-994 993 0
-995 213 876 0
995 -213 0
995 -876 0
996 -217 -995 0
-996 217 0
-996 995 0
997 -409 -993 0
-997 409 0
-997 993 0
-998 20 996 997 880 0
998 -20 0
998 -996 0
998 -997 0
998 -880 0
999 -19 -998 0
-999 19 0
-999 998 0
-1000 22 999 0
1000 -22 0
1000 -999 0
1001 -110 -1000 0
-1001 110 0
-1001 1000 0
1002 -476 -993 0
-1002 476 0
-1002 993 0
-1003 114 1002 111 0
1003 -114 0
1003 -1002 0
1003 -111 0
1004 -116 -1003 0
-1004 116 0
-1004 1003 0
-1005 118 872 994 97 1001 1004 0
1005 -118 0
1005 -872 0
1005 -994 0
1005 -97 0
1005 -1001 0
1005 -1004 0
1006 -146 -1005 0
-1006 146 0
-1006 1005 0
-1007 29 1006 0
1007 -29 0
1007 -1006 0
1008 -28 -1007 0
-1008 28 0
-1008 1007 0
1009 -31 -908 0
-1009 31 0
-1009 908 0
-1010 33 1008 1009 0
1010 -33 0
1010 -1008 0
1010 -1009 0
1011 -35 -1010 0
-1011 35 0
-1011 1010 0
-1012 37 969 991 1011 0
1012 -37 0
1012 -969 0
1012 -991 0
1012 -1011 0
1013 -39 -1012 0
-1013 39 0
-1013 1012 0
-1014 41 909 951 1013 0
1014 -41 0
1014 -909 0
1014 -951 0
1014 -1013 0
1015 -84 -1014 0
-1015 84 0
-1015 1014 0
-1016 13 1015 0
1016 -13 0
1016 -1015 0
1017 -87 -1016 0
-1017 87 0
-1017 1016 0
-1018 89 620 863 1017 0
1018 -89 0
1018 -620 0
1018 -863 0
1018 -1017 0
1019 -1020 -1018 0
-1019 1020 0
-1019 1018 0
1021 -237 -877 0
-1021 237 0
-1021 877 0
1022 -67 -881 0
-1022 67 0
-1022 881 0
-1023 89 1021 1022 137 0
1023 -89 0
1023 -1021 0
1023 -1022 0
1023 -137 0
1024 -91 -1023 0
-1024 91 0
-1024 1023 0
-1025 118 872 1024 875 97 884 887 0
1025 -118 0
1025 -872 0
1025 -1024 0
1025 -875 0
1025 -97 0
1025 -884 0
1025 -887 0
1026 -142 -1025 0
-1026 142 0
-1026 1025 0
1027 -215 -349 0
-1027 215 0
-1027 349 0
1028 -289 -380 0
-1028 289 0
-1028 380 0
-1029 391 1027 1028 0
1029 -391 0
1029 -1027 0
1029 -1028 0
1030 -405 -1029 0
-1030 405 0
-1030 1029 0
-1031 15 1026 1030 11 0
1031 -15 0
1031 -1026 0
1031 -1030 0
1031 -11 0
1032 -17 -1031 0
-1032 17 0
-1032 1031 0
-1033 118 910 307 517 97 521 0
1033 -118 0
1033 -910 0
1033 -307 0
1033 -517 0
1033 -97 0
1033 -521 0
1034 -120 -1033 0
-1034 120 0
-1034 1033 0
1035 -289 -317 0
-1035 289 0
-1035 317 0
-1036 391 1035 0
1036 -391 0
1036 -1035 0
1037 -398 -1036 0
-1037 398 0
-1037 1036 0
-1038 118 307 517 97 521 0
1038 -118 0
1038 -307 0
1038 -517 0
1038 -97 0
1038 -521 0
1039 -134 -1038 0
-1039 134 0
-1039 1038 0
1040 -146 -310 0
-1040 146 0
-1040 310 0
-1041 29 1040 0
1041 -29 0
1041 -1040 0
1042 -289 -1041 0
-1042 289 0
-1042 1041 0
-1043 391 1042 0
1043 -391 0
1043 -1042 0
1044 -400 -1043 0
-1044 400 0
-1044 1043 0
-1045 8 1039 1044 1 4 0
1045 -8 0
1045 -1039 0
1045 -1044 0
1045 -1 0
1045 -4 0
1046 -10 -1045 0
-1046 10 0
-1046 1045 0
1047 -423 -1043 0
-1047 423 0
-1047 1043 0
-1048 47 1047 0
1048 -47 0
1048 -1047 0
1049 -49 -1048 0
-1049 49 0
-1049 1048 0
-1050 53 1037 1046 1049 50 0
1050 -53 0
1050 -1037 0
1050 -1046 0
1050 -1049 0
1050 -50 0
1051 -161 -1050 0
-1051 161 0
-1051 1050 0
1052 -146 -1033 0
-1052 146 0
-1052 1033 0
-1053 29 1052 0
1053 -29 0
1053 -1052 0
1054 -211 -1053 0
-1054 211 0
-1054 1053 0
-1055 213 1034 1051 1054 0
1055 -213 0
1055 -1034 0
1055 -1051 0
1055 -1054 0
1056 -217 -1055 0
-1056 217 0
-1056 1055 0
1057 -215 -319 0
-1057 215 0
-1057 319 0
-1058 89 373 137 0
1058 -89 0
1058 -373 0
1058 -137 0
1059 -91 -1058 0
-1059 91 0
-1059 1058 0
-1060 118 290 1059 97 115 0
1060 -118 0
1060 -290 0
1060 -1059 0
1060 -97 0
1060 -115 0
1061 -146 -1060 0
-1061 146 0
-1061 1060 0
-1062 29 1061 0
1062 -29 0
1062 -1061 0
1063 -289 -1062 0
-1063 289 0
-1063 1062 0
-1064 391 1057 1063 0
1064 -391 0
1064 -1057 0
1064 -1063 0
1065 -409 -1064 0
-1065 409 0
-1065 1064 0
1066 -211 -1041 0
-1066 211 0
-1066 1041 0
-1067 213 309 1066 0
1067 -213 0
1067 -309 0
1067 -1066 0
1068 -215 -1067 0
-1068 215 0
-1068 1067 0
1069 -146 -325 0
-1069 146 0
-1069 325 0
-1070 29 1069 0
1070 -29 0
1070 -1069 0
1071 -289 -1070 0
-1071 289 0
-1071 1070 0
-1072 391 1068 1071 0
1072 -391 0
1072 -1068 0
1072 -1071 0
1073 -398 -1072 0
-1073 398 0
-1073 1072 0
-1074 118 324 831 97 834 0
1074 -118 0
1074 -324 0
1074 -831 0
1074 -97 0
1074 -834 0
1075 -134 -1074 0
-1075 134 0
-1075 1074 0
1076 -120 -310 0
-1076 120 0
-1076 310 0
-1077 213 1076 1066 0
1077 -213 0
1077 -1076 0
1077 -1066 0
1078 -215 -1077 0
-1078 215 0
-1078 1077 0
-1079 391 1078 1071 0
1079 -391 0
1079 -1078 0
1079 -1071 0
1080 -400 -1079 0
-1080 400 0
-1080 1079 0
-1081 8 1075 1080 1 4 0
1081 -8 0
1081 -1075 0
1081 -1080 0
1081 -1 0
1081 -4 0
1082 -10 -1081 0
-1082 10 0
-1082 1081 0
1083 -423 -1079 0
-1083 423 0
-1083 1079 0
-1084 47 1083 0
1084 -47 0
1084 -1083 0
1085 -49 -1084 0
-1085 49 0
-1085 1084 0
-1086 53 1073 1082 1085 50 0
1086 -53 0
1086 -1073 0
1086 -1082 0
1086 -1085 0
1086 -50 0
1087 -64 -1086 0
-1087 64 0
-1087 1086 0
-1088 20 1056 1065 1087 0
1088 -20 0
1088 -1056 0
1088 -1065 0
1088 -1087 0
1089 -19 -1088 0
-1089 19 0
-1089 1088 0
-1090 22 1089 0
1090 -22 0
1090 -1089 0
1091 -24 -1090 0
-1091 24 0
-1091 1090 0
1092 -67 -442 0
-1092 67 0
-1092 442 0
-1093 89 1092 137 0
1093 -89 0
1093 -1092 0
1093 -137 0
1094 -91 -1093 0
-1094 91 0
-1094 1093 0
-1095 118 910 1094 517 97 952 521 0
1095 -118 0
1095 -910 0
1095 -1094 0
1095 -517 0
1095 -97 0
1095 -952 0
1095 -521 0
1096 -120 -1095 0
-1096 120 0
-1096 1095 0
1097 -289 -147 0
-1097 289 0
-1097 147 0
-1098 391 1097 0
1098 -391 0
1098 -1097 0
1099 -398 -1098 0
-1099 398 0
-1099 1098 0
1100 -67 -410 0
-1100 67 0
-1100 410 0
-1101 89 1100 137 0
1101 -89 0
1101 -1100 0
1101 -137 0
1102 -91 -1101 0
-1102 91 0
-1102 1101 0
-1103 118 1102 517 97 518 521 0
1103 -118 0
1103 -1102 0
1103 -517 0
1103 -97 0
1103 -518 0
1103 -521 0
1104 -134 -1103 0
-1104 134 0
-1104 1103 0
1105 -400 -1098 0
-1105 400 0
-1105 1098 0
-1106 8 1104 1105 1 4 0
1106 -8 0
1106 -1104 0
1106 -1105 0
1106 -1 0
1106 -4 0
1107 -10 -1106 0
-1107 10 0
-1107 1106 0
1108 -423 -1098 0
-1108 423 0
-1108 1098 0
-1109 47 1108 0
1109 -47 0
1109 -1108 0
1110 -49 -1109 0
-1110 49 0
-1110 1109 0
-1111 53 1099 1107 1110 50 0
1111 -53 0
1111 -1099 0
1111 -1107 0
1111 -1110 0
1111 -50 0
1112 -161 -1111 0
-1112 161 0
-1112 1111 0
1113 -146 -1095 0
-1113 146 0
-1113 1095 0
-1114 29 1113 0
1114 -29 0
1114 -1113 0
1115 -211 -1114 0
-1115 211 0
-1115 1114 0
-1116 213 1096 1112 1115 0
1116 -213 0
1116 -1096 0
1116 -1112 0
1116 -1115 0
1117 -223 -1116 0
-1117 223 0
-1117 1116 0
-1118 118 910 307 517 97 351 521 0
1118 -118 0
1118 -910 0
1118 -307 0
1118 -517 0
1118 -97 0
1118 -351 0
1118 -521 0
1119 -120 -1118 0
-1119 120 0
-1119 1118 0
1120 -289 -361 0
-1120 289 0
-1120 361 0
-1121 391 1120 0
1121 -391 0
1121 -1120 0
1122 -398 -1121 0
-1122 398 0
-1122 1121 0
-1123 118 307 517 97 351 521 0
1123 -118 0
1123 -307 0
1123 -517 0
1123 -97 0
1123 -351 0
1123 -521 0
1124 -134 -1123 0
-1124 134 0
-1124 1123 0
1125 -146 -354 0
-1125 146 0
-1125 354 0
-1126 29 1125 0
1126 -29 0
1126 -1125 0
1127 -289 -1126 0
-1127 289 0
-1127 1126 0
-1128 391 1127 0
1128 -391 0
1128 -1127 0
1129 -400 -1128 0
-1129 400 0
-1129 1128 0
-1130 8 1124 1129 1 4 0
1130 -8 0
1130 -1124 0
1130 -1129 0
1130 -1 0
1130 -4 0
1131 -10 -1130 0
-1131 10 0
-1131 1130 0
1132 -423 -1128 0
-1132 423 0
-1132 1128 0
-1133 47 1132 0
1133 -47 0
1133 -1132 0
1134 -49 -1133 0
-1134 49 0
-1134 1133 0
-1135 53 1122 1131 1134 50 0
1135 -53 0
1135 -1122 0
1135 -1131 0
1135 -1134 0
1135 -50 0
1136 -161 -1135 0
-1136 161 0
-1136 1135 0
1137 -146 -1118 0
-1137 146 0
-1137 1118 0
-1138 29 1137 0
1138 -29 0
1138 -1137 0
1139 -211 -1138 0
-1139 211 0
-1139 1138 0
-1140 213 1119 1136 1139 0
1140 -213 0
1140 -1119 0
1140 -1136 0
1140 -1139 0
1141 -217 -1140 0
-1141 217 0
-1141 1140 0
1142 -215 -363 0
-1142 215 0
-1142 363 0
-1143 118 290 1059 97 351 115 0
1143 -118 0
1143 -290 0
1143 -1059 0
1143 -97 0
1143 -351 0
1143 -115 0
1144 -146 -1143 0
-1144 146 0
-1144 1143 0
-1145 29 1144 0
1145 -29 0
1145 -1144 0
1146 -289 -1145 0
-1146 289 0
-1146 1145 0
-1147 391 1142 1146 0
1147 -391 0
1147 -1142 0
1147 -1146 0
1148 -409 -1147 0
-1148 409 0
-1148 1147 0
1149 -211 -1126 0
-1149 211 0
-1149 1126 0
-1150 213 353 1149 0
1150 -213 0
1150 -353 0
1150 -1149 0
1151 -215 -1150 0
-1151 215 0
-1151 1150 0
1152 -146 -365 0
-1152 146 0
-1152 365 0
-1153 29 1152 0
1153 -29 0
1153 -1152 0
1154 -289 -1153 0
-1154 289 0
-1154 1153 0
-1155 391 1151 1154 0
1155 -391 0
1155 -1151 0
1155 -1154 0
1156 -398 -1155 0
-1156 398 0
-1156 1155 0
-1157 118 324 831 97 351 834 0
1157 -118 0
1157 -324 0
1157 -831 0
1157 -97 0
1157 -351 0
1157 -834 0
1158 -134 -1157 0
-1158 134 0
-1158 1157 0
1159 -120 -354 0
-1159 120 0
-1159 354 0
-1160 213 1159 1149 0
1160 -213 0
1160 -1159 0
1160 -1149 0
1161 -215 -1160 0
-1161 215 0
-1161 1160 0
-1162 391 1161 1154 0
1162 -391 0
1162 -1161 0
1162 -1154 0
1163 -400 -1162 0
-1163 400 0
-1163 1162 0
-1164 8 1158 1163 1 4 0
1164 -8 0
1164 -1158 0
1164 -1163 0
1164 -1 0
1164 -4 0
1165 -10 -1164 0
-1165 10 0
-1165 1164 0
1166 -423 -1162 0
-1166 423 0
-1166 1162 0
-1167 47 1166 0
1167 -47 0
1167 -1166 0
1168 -49 -1167 0
-1168 49 0
-1168 1167 0
-1169 53 1156 1165 1168 50 0
1169 -53 0
1169 -1156 0
1169 -1165 0
1169 -1168 0
1169 -50 0
1170 -64 -1169 0
-1170 64 0
-1170 1169 0
-1171 20 1141 1148 1170 0
1171 -20 0
1171 -1141 0
1171 -1148 0
1171 -1170 0
1172 -26 -1171 0
-1172 26 0
-1172 1171 0
1173 -237 -995 0
-1173 237 0
-1173 995 0
1174 -67 -998 0
-1174 67 0
-1174 998 0
-1175 89 1173 1174 137 0
1175 -89 0
1175 -1173 0
1175 -1174 0
1175 -137 0
1176 -91 -1175 0
-1176 91 0
-1176 1175 0
-1177 118 872 1176 994 97 1001 1004 0
1177 -118 0
1177 -872 0
1177 -1176 0
1177 -994 0
1177 -97 0
1177 -1001 0
1177 -1004 0
1178 -146 -1177 0
-1178 146 0
-1178 1177 0
-1179 29 1178 0
1179 -29 0
1179 -1178 0
1180 -28 -1179 0
-1180 28 0
-1180 1179 0
1181 -31 -1031 0
-1181 31 0
-1181 1031 0
-1182 33 1180 1181 0
1182 -33 0
1182 -1180 0
1182 -1181 0
1183 -35 -1182 0
-1183 35 0
-1183 1182 0
-1184 37 1117 1172 1183 0
1184 -37 0
1184 -1117 0
1184 -1172 0
1184 -1183 0
1185 -39 -1184 0
-1185 39 0
-1185 1184 0
-1186 41 1032 1091 1185 0
1186 -41 0
1186 -1032 0
1186 -1091 0
1186 -1185 0
1187 -1188 -1186 0
-1187 1188 0
-1187 1186 0
1189 -120 -132 0
-1189 120 0
-1189 132 0
-1190 37 25 183 0
1190 -37 0
1190 -25 0
1190 -183 0
1191 -39 -1190 0
-1191 39 0
-1191 1190 0
-1192 41 68 23 1191 0
1192 -41 0
1192 -68 0
1192 -23 0
1192 -1191 0
1193 -84 -1192 0
-1193 84 0
-1193 1192 0
-1194 13 1193 0
1194 -13 0
1194 -1193 0
1195 -87 -1194 0
-1195 87 0
-1195 1194 0
-1196 89 121 1195 0
1196 -89 0
1196 -121 0
1196 -1195 0
1197 -91 -1196 0
-1197 91 0
-1197 1196 0
-1198 118 1197 481 97 131 115 0
1198 -118 0
1198 -1197 0
1198 -481 0
1198 -97 0
1198 -131 0
1198 -115 0
1199 -146 -1198 0
-1199 146 0
-1199 1198 0
-1200 29 1199 0
1200 -29 0
1200 -1199 0
1201 -211 -1200 0
-1201 211 0
-1201 1200 0
-1202 213 1189 1201 0
1202 -213 0
1202 -1189 0
1202 -1201 0
1203 -215 -1202 0
-1203 215 0
-1203 1202 0
1204 -67 -218 0
-1204 67 0
-1204 218 0
-1205 37 222 224 183 0
1205 -37 0
1205 -222 0
1205 -224 0
1205 -183 0
1206 -39 -1205 0
-1206 39 0
-1206 1205 0
-1207 41 68 221 1206 0
1207 -41 0
1207 -68 0
1207 -221 0
1207 -1206 0
1208 -84 -1207 0
-1208 84 0
-1208 1207 0
-1209 13 1208 0
1209 -13 0
1209 -1208 0
1210 -87 -1209 0
-1210 87 0
-1210 1209 0
-1211 89 322 1204 1210 0
1211 -89 0
1211 -322 0
1211 -1204 0
1211 -1210 0
1212 -91 -1211 0
-1212 91 0
-1212 1211 0
1213 -96 -227 0
-1213 96 0
-1213 227 0
1214 -110 -220 0
-1214 110 0
-1214 220 0
-1215 118 1212 1213 97 1214 115 0
1215 -118 0
1215 -1212 0
1215 -1213 0
1215 -97 0
1215 -1214 0
1215 -115 0
1216 -146 -1215 0
-1216 146 0
-1216 1215 0
-1217 29 1216 0
1217 -29 0
1217 -1216 0
1218 -289 -1217 0
-1218 289 0
-1218 1217 0
1219 -217 -321 0
-1219 217 0
-1219 321 0
-1220 20 1219 0
1220 -20 0
1220 -1219 0
1221 -67 -1220 0
-1221 67 0
-1221 1220 0
-1222 89 322 1221 137 0
1222 -89 0
1222 -322 0
1222 -1221 0
1222 -137 0
1223 -91 -1222 0
-1223 91 0
-1223 1222 0
1224 -19 -1220 0
-1224 19 0
-1224 1220 0
-1225 22 1224 0
1225 -22 0
1225 -1224 0
1226 -110 -1225 0
-1226 110 0
-1226 1225 0
-1227 118 1223 97 1226 115 0
1227 -118 0
1227 -1223 0
1227 -97 0
1227 -1226 0
1227 -115 0
1228 -142 -1227 0
-1228 142 0
-1228 1227 0
-1229 15 1228 11 0
1229 -15 0
1229 -1228 0
1229 -11 0
1230 -17 -1229 0
-1230 17 0
-1230 1229 0
1231 -217 -1077 0
-1231 217 0
-1231 1077 0
-1232 20 1231 0
1232 -20 0
1232 -1231 0
1233 -19 -1232 0
-1233 19 0
-1233 1232 0
-1234 22 1233 0
1234 -22 0
1234 -1233 0
1235 -24 -1234 0
-1235 24 0
-1235 1234 0
1236 -120 -140 0
-1236 120 0
-1236 140 0
1237 -211 -147 0
-1237 211 0
-1237 147 0
-1238 213 1236 1237 0
1238 -213 0
1238 -1236 0
1238 -1237 0
1239 -223 -1238 0
-1239 223 0
-1239 1238 0
1240 -217 -1160 0
-1240 217 0
-1240 1160 0
-1241 20 1240 0
1241 -20 0
1241 -1240 0
1242 -26 -1241 0
-1242 26 0
-1242 1241 0
1243 -146 -1227 0
-1243 146 0
-1243 1227 0
-1244 29 1243 0
1244 -29 0
1244 -1243 0
1245 -28 -1244 0
-1245 28 0
-1245 1244 0
1246 -31 -1229 0
-1246 31 0
-1246 1229 0
-1247 33 1245 1246 0
1247 -33 0
1247 -1245 0
1247 -1246 0
1248 -35 -1247 0
-1248 35 0
-1248 1247 0
-1249 37 1239 1242 1248 0
1249 -37 0
1249 -1239 0
1249 -1242 0
1249 -1248 0
1250 -39 -1249 0
-1250 39 0
-1250 1249 0
-1251 41 1230 1235 1250 0
1251 -41 0
1251 -1230 0
1251 -1235 0
1251 -1250 0
1252 -389 -1251 0
-1252 389 0
-1252 1251 0
-1253 391 1203 1218 1252 0
1253 -391 0
1253 -1203 0
1253 -1218 0
1253 -1252 0
1254 -398 -1253 0
-1254 398 0
-1254 1253 0
1255 -409 -810 0
-1255 409 0
-1255 810 0
-1256 20 1219 1255 0
1256 -20 0
1256 -1219 0
1256 -1255 0
1257 -67 -1256 0
-1257 67 0
-1257 1256 0
-1258 15 813 0
1258 -15 0
1258 -813 0
1259 -17 -1258 0
-1259 17 0
-1259 1258 0
1260 -409 -812 0
-1260 409 0
-1260 812 0
-1261 20 1219 1260 0
1261 -20 0
1261 -1219 0
1261 -1260 0
1262 -19 -1261 0
-1262 19 0
-1262 1261 0
-1263 22 1262 0
1263 -22 0
1263 -1262 0
1264 -24 -1263 0
-1264 24 0
-1264 1263 0
1265 -26 -1261 0
-1265 26 0
-1265 1261 0
1266 -31 -1258 0
-1266 31 0
-1266 1258 0
-1267 33 27 1266 0
1267 -33 0
1267 -27 0
1267 -1266 0
1268 -35 -1267 0
-1268 35 0
-1268 1267 0
-1269 37 805 1265 1268 0
1269 -37 0
1269 -805 0
1269 -1265 0
1269 -1268 0
1270 -39 -1269 0
-1270 39 0
-1270 1269 0
-1271 41 1259 1264 1270 0
1271 -41 0
1271 -1259 0
1271 -1264 0
1271 -1270 0
1272 -84 -1271 0
-1272 84 0
-1272 1271 0
-1273 13 1272 0
1273 -13 0
1273 -1272 0
1274 -87 -1273 0
-1274 87 0
-1274 1273 0
-1275 89 322 1257 1274 0
1275 -89 0
1275 -322 0
1275 -1257 0
1275 -1274 0
1276 -91 -1275 0
-1276 91 0
-1276 1275 0
-1277 37 805 1265 34 0
1277 -37 0
1277 -805 0
1277 -1265 0
1277 -34 0
1278 -39 -1277 0
-1278 39 0
-1278 1277 0
-1279 41 16 1264 1278 0
1279 -41 0
1279 -16 0
1279 -1264 0
1279 -1278 0
1280 -389 -1279 0
-1280 389 0
-1280 1279 0
-1281 391 804 394 1280 0
1281 -391 0
1281 -804 0
1281 -394 0
1281 -1280 0
1282 -432 -1281 0
-1282 432 0
-1282 1281 0
-1283 37 805 1265 818 0
1283 -37 0
1283 -805 0
1283 -1265 0
1283 -818 0
1284 -39 -1283 0
-1284 39 0
-1284 1283 0
-1285 41 815 1264 1284 0
1285 -41 0
1285 -815 0
1285 -1264 0
1285 -1284 0
1286 -96 -1285 0
-1286 96 0
-1286 1285 0
-1287 41 16 807 0
1287 -41 0
1287 -16 0
1287 -807 0
1288 -389 -1287 0
-1288 389 0
-1288 1287 0
-1289 391 804 394 1288 0
1289 -391 0
1289 -804 0
1289 -394 0
1289 -1288 0
1290 -409 -1289 0
-1290 409 0
-1290 1289 0
-1291 20 1219 1290 0
1291 -20 0
1291 -1219 0
1291 -1290 0
1292 -19 -1291 0
-1292 19 0
-1292 1291 0
-1293 22 1292 0
1293 -22 0
1293 -1292 0
1294 -110 -1293 0
-1294 110 0
-1294 1293 0
1295 -476 -1281 0
-1295 476 0
-1295 1281 0
-1296 114 1295 111 0
1296 -114 0
1296 -1295 0
1296 -111 0
1297 -116 -1296 0
-1297 116 0
-1297 1296 0
-1298 118 1276 1282 1286 97 1294 1297 0
1298 -118 0
1298 -1276 0
1298 -1282 0
1298 -1286 0
1298 -97 0
1298 -1294 0
1298 -1297 0
1299 -134 -1298 0
-1299 134 0
-1299 1298 0
1300 -400 -1253 0
-1300 400 0
-1300 1253 0
-1301 8 1299 1300 1 0
1301 -8 0
1301 -1299 0
1301 -1300 0
1301 -1 0
1302 -10 -1301 0
-1302 10 0
-1302 1301 0
1303 -67 -1261 0
-1303 67 0
-1303 1261 0
-1304 89 322 1303 137 0
1304 -89 0
1304 -322 0
1304 -1303 0
1304 -137 0
1305 -91 -1304 0
-1305 91 0
-1305 1304 0
1306 -110 -1263 0
-1306 110 0
-1306 1263 0
-1307 118 1305 831 97 1306 834 0
1307 -118 0
1307 -1305 0
1307 -831 0
1307 -97 0
1307 -1306 0
1307 -834 0
1308 -142 -1307 0
-1308 142 0
-1308 1307 0
1309 -215 -1238 0
-1309 215 0
-1309 1238 0
1310 -289 -1244 0
-1310 289 0
-1310 1244 0
-1311 391 1309 1310 0
1311 -391 0
1311 -1309 0
1311 -1310 0
1312 -405 -1311 0
-1312 405 0
-1312 1311 0
-1313 15 1308 1312 11 0
1313 -15 0
1313 -1308 0
1313 -1312 0
1313 -11 0
1314 -17 -1313 0
-1314 17 0
-1314 1313 0
1315 -120 -1038 0
-1315 120 0
-1315 1038 0
1316 -146 -1038 0
-1316 146 0
-1316 1038 0
-1317 29 1316 0
1317 -29 0
1317 -1316 0
1318 -211 -1317 0
-1318 211 0
-1318 1317 0
-1319 213 1315 1318 0
1319 -213 0
1319 -1315 0
1319 -1318 0
1320 -217 -1319 0
-1320 217 0
-1320 1319 0
1321 -409 -1079 0
-1321 409 0
-1321 1079 0
-1322 20 1320 1321 0
1322 -20 0
1322 -1320 0
1322 -1321 0
1323 -19 -1322 0
-1323 19 0
-1323 1322 0
-1324 22 1323 0
1324 -22 0
1324 -1323 0
1325 -24 -1324 0
-1325 24 0
-1325 1324 0
1326 -120 -1103 0
-1326 120 0
-1326 1103 0
1327 -146 -1103 0
-1327 146 0
-1327 1103 0
-1328 29 1327 0
1328 -29 0
1328 -1327 0
1329 -211 -1328 0
-1329 211 0
-1329 1328 0
-1330 213 1326 1329 0
1330 -213 0
1330 -1326 0
1330 -1329 0
1331 -223 -1330 0
-1331 223 0
-1331 1330 0
1332 -120 -1123 0
-1332 120 0
-1332 1123 0
1333 -146 -1123 0
-1333 146 0
-1333 1123 0
-1334 29 1333 0
1334 -29 0
1334 -1333 0
1335 -211 -1334 0
-1335 211 0
-1335 1334 0
-1336 213 1332 1335 0
1336 -213 0
1336 -1332 0
1336 -1335 0
1337 -217 -1336 0
-1337 217 0
-1337 1336 0
1338 -409 -1162 0
-1338 409 0
-1338 1162 0
-1339 20 1337 1338 0
1339 -20 0
1339 -1337 0
1339 -1338 0
1340 -26 -1339 0
-1340 26 0
-1340 1339 0
1341 -146 -1307 0
-1341 146 0
-1341 1307 0
-1342 29 1341 0
1342 -29 0
1342 -1341 0
1343 -28 -1342 0
-1343 28 0
-1343 1342 0
1344 -31 -1313 0
-1344 31 0
-1344 1313 0
-1345 33 1343 1344 0
1345 -33 0
1345 -1343 0
1345 -1344 0
1346 -35 -1345 0
-1346 35 0
-1346 1345 0
-1347 37 1331 1340 1346 0
1347 -37 0
1347 -1331 0
1347 -1340 0
1347 -1346 0
1348 -39 -1347 0
-1348 39 0
-1348 1347 0
-1349 41 1314 1325 1348 0
1349 -41 0
1349 -1314 0
1349 -1325 0
1349 -1348 0
1350 -43 -1349 0
-1350 43 0
-1350 1349 0
1351 -423 -1253 0
-1351 423 0
-1351 1253 0
1352 -45 -1349 0
-1352 45 0
-1352 1349 0
-1353 47 1351 1352 0
1353 -47 0
1353 -1351 0
1353 -1352 0
1354 -49 -1353 0
-1354 49 0
-1354 1353 0
-1355 53 1254 1302 1350 1354 50 0
1355 -53 0
1355 -1254 0
1355 -1302 0
1355 -1350 0
1355 -1354 0
1355 -50 0
1356 -1357 -1355 0
-1356 1357 0
-1356 1355 0
-1358 6 1356 0
1358 -6 0
1358 -1356 0
1359 -1360 -1358 0
-1359 1360 0
-1359 1358 0
-1361 1362 392 1019 1187 1359 0
1361 -1362 0
1361 -392 0
1361 -1019 0
1361 -1187 0
1361 -1359 0
1363 -1364 -1361 0
-1363 1364 0
-1363 1361 0
-1365 118 54 90 95 97 109 0
1365 -118 0
1365 -54 0
1365 -90 0
1365 -95 0
1365 -97 0
1365 -109 0
1366 -120 -1365 0
-1366 120 0
-1366 1365 0
-1367 118 129 130 97 131 0
1367 -118 0
1367 -129 0
1367 -130 0
1367 -97 0
1367 -131 0
1368 -134 -1367 0
-1368 134 0
-1368 1367 0
-1369 8 1368 1 4 0
1369 -8 0
1369 -1368 0
1369 -1 0
1369 -4 0
1370 -10 -1369 0
-1370 10 0
-1370 1369 0
-1371 118 139 97 131 0
1371 -118 0
1371 -139 0
1371 -97 0
1371 -131 0
1372 -142 -1371 0
-1372 142 0
-1372 1371 0
-1373 15 1372 11 0
1373 -15 0
1373 -1372 0
1373 -11 0
1374 -17 -1373 0
-1374 17 0
-1374 1373 0
1375 -146 -1371 0
-1375 146 0
-1375 1371 0
-1376 29 1375 0
1376 -29 0
1376 -1375 0
1377 -28 -1376 0
-1377 28 0
-1377 1376 0
1378 -31 -1373 0
-1378 31 0
-1378 1373 0
-1379 33 1377 1378 0
1379 -33 0
1379 -1377 0
1379 -1378 0
1380 -35 -1379 0
-1380 35 0
-1380 1379 0
-1381 37 25 1380 0
1381 -37 0
1381 -25 0
1381 -1380 0
1382 -39 -1381 0
-1382 39 0
-1382 1381 0
-1383 41 1374 23 1382 0
1383 -41 0
1383 -1374 0
1383 -23 0
1383 -1382 0
1384 -43 -1383 0
-1384 43 0
-1384 1383 0
1385 -45 -1383 0
-1385 45 0
-1385 1383 0
-1386 47 1385 0
1386 -47 0
1386 -1385 0
1387 -49 -1386 0
-1387 49 0
-1387 1386 0
-1388 53 1370 1384 1387 50 0
1388 -53 0
1388 -1370 0
1388 -1384 0
1388 -1387 0
1388 -50 0
1389 -161 -1388 0
-1389 161 0
-1389 1388 0
-1390 118 172 191 195 97 206 0
1390 -118 0
1390 -172 0
1390 -191 0
1390 -195 0
1390 -97 0
1390 -206 0
1391 -146 -1390 0
-1391 146 0
-1391 1390 0
-1392 29 1391 0
1392 -29 0
1392 -1391 0
1393 -211 -1392 0
-1393 211 0
-1393 1392 0
-1394 213 1366 1389 1393 0
1394 -213 0
1394 -1366 0
1394 -1389 0
1394 -1393 0
1395 -215 -1394 0
-1395 215 0
-1395 1394 0
-1396 118 233 266 270 97 284 0
1396 -118 0
1396 -233 0
1396 -266 0
1396 -270 0
1396 -97 0
1396 -284 0
1397 -146 -1396 0
-1397 146 0
-1397 1396 0
-1398 29 1397 0
1398 -29 0
1398 -1397 0
1399 -289 -1398 0
-1399 289 0
-1399 1398 0
-1400 118 290 298 97 301 0
1400 -118 0
1400 -290 0
1400 -298 0
1400 -97 0
1400 -301 0
1401 -142 -1400 0
-1401 142 0
-1401 1400 0
-1402 15 1401 11 0
1402 -15 0
1402 -1401 0
1402 -11 0
1403 -17 -1402 0
-1403 17 0
-1403 1402 0
-1404 118 290 307 97 0
1404 -118 0
1404 -290 0
1404 -307 0
1404 -97 0
1405 -120 -1404 0
-1405 120 0
-1405 1404 0
-1406 118 139 97 0
1406 -118 0
1406 -139 0
1406 -97 0
1407 -134 -1406 0
-1407 134 0
-1407 1406 0
-1408 8 1407 1 4 0
1408 -8 0
1408 -1407 0
1408 -1 0
1408 -4 0
1409 -10 -1408 0
-1409 10 0
-1409 1408 0
-1410 53 1409 69 50 0
1410 -53 0
1410 -1409 0
1410 -69 0
1410 -50 0
1411 -161 -1410 0
-1411 161 0
-1411 1410 0
1412 -146 -1404 0
-1412 146 0
-1412 1404 0
-1413 29 1412 0
1413 -29 0
1413 -1412 0
1414 -211 -1413 0
-1414 211 0
-1414 1413 0
-1415 213 1405 1411 1414 0
1415 -213 0
1415 -1405 0
1415 -1411 0
1415 -1414 0
1416 -217 -1415 0
-1416 217 0
-1416 1415 0
-1417 118 324 97 0
1417 -118 0
1417 -324 0
1417 -97 0
1418 -134 -1417 0
-1418 134 0
-1418 1417 0
-1419 8 1418 1 4 0
1419 -8 0
1419 -1418 0
1419 -1 0
1419 -4 0
1420 -10 -1419 0
-1420 10 0
-1420 1419 0
-1421 53 1420 69 50 0
1421 -53 0
1421 -1420 0
1421 -69 0
1421 -50 0
1422 -64 -1421 0
-1422 64 0
-1422 1421 0
-1423 20 1416 1422 0
1423 -20 0
1423 -1416 0
1423 -1422 0
1424 -19 -1423 0
-1424 19 0
-1424 1423 0
-1425 22 1424 0
1425 -22 0
1425 -1424 0
1426 -24 -1425 0
-1426 24 0
-1426 1425 0
-1427 118 290 337 97 338 0
1427 -118 0
1427 -290 0
1427 -337 0
1427 -97 0
1427 -338 0
1428 -120 -1427 0
-1428 120 0
-1428 1427 0
1429 -134 -1371 0
-1429 134 0
-1429 1371 0
-1430 8 1429 1 4 0
1430 -8 0
1430 -1429 0
1430 -1 0
1430 -4 0
1431 -10 -1430 0
-1431 10 0
-1431 1430 0
-1432 53 1431 69 50 0
1432 -53 0
1432 -1431 0
1432 -69 0
1432 -50 0
1433 -161 -1432 0
-1433 161 0
-1433 1432 0
1434 -146 -1427 0
-1434 146 0
-1434 1427 0
-1435 29 1434 0
1435 -29 0
1435 -1434 0
1436 -211 -1435 0
-1436 211 0
-1436 1435 0
-1437 213 1428 1433 1436 0
1437 -213 0
1437 -1428 0
1437 -1433 0
1437 -1436 0
1438 -223 -1437 0
-1438 223 0
-1438 1437 0
-1439 118 290 307 97 351 0
1439 -118 0
1439 -290 0
1439 -307 0
1439 -97 0
1439 -351 0
1440 -120 -1439 0
-1440 120 0
-1440 1439 0
-1441 118 139 97 351 0
1441 -118 0
1441 -139 0
1441 -97 0
1441 -351 0
1442 -134 -1441 0
-1442 134 0
-1442 1441 0
-1443 8 1442 1 4 0
1443 -8 0
1443 -1442 0
1443 -1 0
1443 -4 0
1444 -10 -1443 0
-1444 10 0
-1444 1443 0
-1445 53 1444 69 50 0
1445 -53 0
1445 -1444 0
1445 -69 0
1445 -50 0
1446 -161 -1445 0
-1446 161 0
-1446 1445 0
1447 -146 -1439 0
-1447 146 0
-1447 1439 0
-1448 29 1447 0
1448 -29 0
1448 -1447 0
1449 -211 -1448 0
-1449 211 0
-1449 1448 0
-1450 213 1440 1446 1449 0
1450 -213 0
1450 -1440 0
1450 -1446 0
1450 -1449 0
1451 -217 -1450 0
-1451 217 0
-1451 1450 0
-1452 118 324 97 351 0
1452 -118 0
1452 -324 0
1452 -97 0
1452 -351 0
1453 -134 -1452 0
-1453 134 0
-1453 1452 0
-1454 8 1453 1 4 0
1454 -8 0
1454 -1453 0
1454 -1 0
1454 -4 0
1455 -10 -1454 0
-1455 10 0
-1455 1454 0
-1456 53 1455 69 50 0
1456 -53 0
1456 -1455 0
1456 -69 0
1456 -50 0
1457 -64 -1456 0
-1457 64 0
-1457 1456 0
-1458 20 1451 1457 0
1458 -20 0
1458 -1451 0
1458 -1457 0
1459 -26 -1458 0
-1459 26 0
-1459 1458 0
-1460 118 290 376 97 377 0
1460 -118 0
1460 -290 0
1460 -376 0
1460 -97 0
1460 -377 0
1461 -146 -1460 0
-1461 146 0
-1461 1460 0
-1462 29 1461 0
1462 -29 0
1462 -1461 0
1463 -28 -1462 0
-1463 28 0
-1463 1462 0
1464 -31 -1402 0
-1464 31 0
-1464 1402 0
-1465 33 1463 1464 0
1465 -33 0
1465 -1463 0
1465 -1464 0
1466 -35 -1465 0
-1466 35 0
-1466 1465 0
-1467 37 1438 1459 1466 0
1467 -37 0
1467 -1438 0
1467 -1459 0
1467 -1466 0
1468 -39 -1467 0
-1468 39 0
-1468 1467 0
-1469 41 1403 1426 1468 0
1469 -41 0
1469 -1403 0
1469 -1426 0
1469 -1468 0
1470 -389 -1469 0
-1470 389 0
-1470 1469 0
-1471 391 1395 1399 1470 0
1471 -391 0
1471 -1395 0
1471 -1399 0
1471 -1470 0
1472 -476 -1471 0
-1472 476 0
-1472 1471 0
-1473 114 1472 111 0
1473 -114 0
1473 -1472 0
1473 -111 0
1474 -1475 -1473 0
-1474 1475 0
-1474 1473 0
-1476 1477 1363 1474 0
1476 -1477 0
1476 -1363 0
1476 -1474 0
1478 -1476 -1479 0
-1478 1476 0
-1478 1479 0
1478 0
