c BC-S1.2
p cnf 58 115
1 -2 -3 0
-1 2 0
-1 3 0
-4 5 1 0
4 -5 0
4 -1 0
6 -7 -4 0
-6 7 0
-6 4 0
8 -9 -10 0
-8 9 0
-8 10 0
11 -12 -3 0
-11 12 0
-11 3 0
-13 14 11 0
13 -14 0
13 -11 0
15 -16 -13 0
-15 16 0
-15 13 0
-17 18 6 8 15 0
17 -18 0
17 -6 0
17 -8 0
17 -15 0
19 -20 -17 0
-19 20 0
-19 17 0
21 -22 -13 0
-21 22 0
-21 13 0
-23 24 19 21 0
23 -24 0
23 -19 0
23 -21 0
25 -26 -23 0
-25 26 0
-25 23 0
-27 28 25 0
27 -28 0
27 -25 0
29 -30 -27 0
-29 30 0
-29 27 0
-31 32 29 0
31 -32 0
31 -29 0
33 -34 -31 0
-33 34 0
-33 31 0
35 -36 -28 0
-35 36 0
-35 28 0
-37 18 35 8 15 0
37 -18 0
37 -35 0
37 -8 0
37 -15 0
38 -20 -37 0
-38 20 0
-38 37 0
-39 24 38 21 0
39 -24 0
39 -38 0
39 -21 0
40 -41 -39 0
-40 41 0
-40 39 0
-42 3 40 0
42 -3 0
42 -40 0
43 -2 -42 0
-43 2 0
-43 42 0
-44 5 43 0
44 -5 0
44 -43 0
45 -46 -44 0
-45 46 0
-45 44 0
47 -7 -5 0
-47 7 0
-47 5 0
-48 18 47 35 8 15 0
48 -18 0
48 -47 0
48 -35 0
48 -8 0
48 -15 0
49 -20 -48 0
-49 20 0
-49 48 0
-50 24 49 21 0
50 -24 0
50 -49 0
50 -21 0
51 -41 -50 0
-51 41 0
-51 50 0
-52 3 51 0
52 -3 0
52 -51 0
53 -54 -52 0
-53 54 0
-53 52 0
-55 56 33 45 53 0
55 -56 0
55 -33 0
55 -45 0
55 -53 0
57 -55 -58 0
-57 55 0
-57 58 0
57 0
