c BC-S1.2
p cnf 3283 12021
1 -2 -3 0
-1 2 0
-1 3 0
4 -5 -6 0
-4 5 0
-4 6 0
-7 8 1 4 0
7 -8 0
7 -1 0
7 -4 0
9 -10 -7 0
-9 10 0
-9 7 0
11 -12 -13 0
-11 12 0
-11 13 0
14 -15 -16 0
-14 15 0
-14 16 0
-17 18 9 11 14 0
17 -18 0
17 -9 0
17 -11 0
17 -14 0
19 -20 -17 0
-19 20 0
-19 17 0
21 -22 -17 0
-21 22 0
-21 17 0
23 -24 -16 0
-23 24 0
-23 16 0
-25 26 23 0
25 -26 0
25 -23 0
27 -28 -25 0
-27 28 0
-27 25 0
29 -30 -16 0
-29 30 0
-29 16 0
-31 32 21 27 29 0
31 -32 0
31 -21 0
31 -27 0
31 -29 0
33 -34 -31 0
-33 34 0
-33 31 0
35 -36 -37 0
-35 36 0
-35 37 0
38 -39 -6 0
-38 39 0
-38 6 0
40 -41 -42 0
-40 41 0
-40 42 0
43 -44 -45 0
-43 44 0
-43 45 0
-46 47 40 43 0
46 -47 0
46 -40 0
46 -43 0
48 -49 -46 0
-48 49 0
-48 46 0
50 -51 -52 0
-50 51 0
-50 52 0
53 -54 -31 0
-53 54 0
-53 31 0
-55 56 50 53 0
55 -56 0
55 -50 0
55 -53 0
57 -58 -55 0
-57 58 0
-57 55 0
-59 60 57 0
59 -60 0
59 -57 0
61 -62 -59 0
-61 62 0
-61 59 0
63 -64 -3 0
-63 64 0
-63 3 0
-65 66 19 33 35 38 48 61 63 0
65 -66 0
65 -19 0
65 -33 0
65 -35 0
65 -38 0
65 -48 0
65 -61 0
65 -63 0
67 -68 -65 0
-67 68 0
-67 65 0
-69 70 67 0
69 -70 0
69 -67 0
71 -72 -69 0
-71 72 0
-71 69 0
73 -74 -70 0
-73 74 0
-73 70 0
-75 3 73 0
75 -3 0
75 -73 0
76 -2 -75 0
-76 2 0
-76 75 0
-77 8 76 4 0
77 -8 0
77 -76 0
77 -4 0
78 -10 -77 0
-78 10 0
-78 77 0
79 -80 -70 0
-79 80 0
-79 70 0
81 -82 -70 0
-81 82 0
-81 70 0
-83 16 81 0
83 -16 0
83 -81 0
84 -15 -83 0
-84 15 0
-84 83 0
-85 18 78 79 11 84 0
85 -18 0
85 -78 0
85 -79 0
85 -11 0
85 -84 0
86 -20 -85 0
-86 20 0
-86 85 0
87 -22 -85 0
-87 22 0
-87 85 0
88 -89 -70 0
-88 89 0
-88 70 0
90 -24 -83 0
-90 24 0
-90 83 0
-91 26 90 0
91 -26 0
91 -90 0
92 -28 -91 0
-92 28 0
-92 91 0
93 -30 -83 0
-93 30 0
-93 83 0
-94 32 87 88 92 93 0
94 -32 0
94 -87 0
94 -88 0
94 -92 0
94 -93 0
95 -34 -94 0
-95 34 0
-95 94 0
96 -97 -70 0
-96 97 0
-96 70 0
-98 47 96 40 43 0
98 -47 0
98 -96 0
98 -40 0
98 -43 0
99 -49 -98 0
-99 49 0
-99 98 0
100 -54 -94 0
-100 54 0
-100 94 0
-101 56 50 100 0
101 -56 0
101 -50 0
101 -100 0
102 -58 -101 0
-102 58 0
-102 101 0
-103 60 102 0
103 -60 0
103 -102 0
104 -62 -103 0
-104 62 0
-104 103 0
105 -64 -75 0
-105 64 0
-105 75 0
-106 66 86 95 35 38 99 104 105 0
106 -66 0
106 -86 0
106 -95 0
106 -35 0
106 -38 0
106 -99 0
106 -104 0
106 -105 0
107 -108 -106 0
-107 108 0
-107 106 0
109 -110 -42 0
-109 110 0
-109 42 0
111 -112 -45 0
-111 112 0
-111 45 0
-113 114 71 107 109 111 0
113 -114 0
113 -71 0
113 -107 0
113 -109 0
113 -111 0
115 -116 -113 0
-115 116 0
-115 113 0
117 -118 -42 0
-117 118 0
-117 42 0
-119 120 115 117 0
119 -120 0
119 -115 0
119 -117 0
121 -122 -119 0
-121 122 0
-121 119 0
-123 120 117 0
123 -120 0
123 -117 0
124 -125 -123 0
-124 125 0
-124 123 0
-126 56 53 0
126 -56 0
126 -53 0
127 -58 -126 0
-127 58 0
-127 126 0
-128 60 127 0
128 -60 0
128 -127 0
129 -62 -128 0
-129 62 0
-129 128 0
-130 66 19 33 35 38 48 129 63 0
130 -66 0
130 -19 0
130 -33 0
130 -35 0
130 -38 0
130 -48 0
130 -129 0
130 -63 0
131 -68 -130 0
-131 68 0
-131 130 0
-132 70 124 131 0
132 -70 0
132 -124 0
132 -131 0
133 -72 -132 0
-133 72 0
-133 132 0
-134 70 124 0
134 -70 0
134 -124 0
135 -74 -134 0
-135 74 0
-135 134 0
-136 3 135 0
136 -3 0
136 -135 0
137 -2 -136 0
-137 2 0
-137 136 0
-138 8 137 4 0
138 -8 0
138 -137 0
138 -4 0
139 -10 -138 0
-139 10 0
-139 138 0
140 -80 -134 0
-140 80 0
-140 134 0
141 -82 -134 0
-141 82 0
-141 134 0
-142 16 141 0
142 -16 0
142 -141 0
143 -15 -142 0
-143 15 0
-143 142 0
-144 18 139 140 11 143 0
144 -18 0
144 -139 0
144 -140 0
144 -11 0
144 -143 0
145 -20 -144 0
-145 20 0
-145 144 0
146 -22 -144 0
-146 22 0
-146 144 0
147 -89 -134 0
-147 89 0
-147 134 0
148 -24 -142 0
-148 24 0
-148 142 0
-149 26 148 0
149 -26 0
149 -148 0
150 -28 -149 0
-150 28 0
-150 149 0
151 -30 -142 0
-151 30 0
-151 142 0
-152 32 146 147 150 151 0
152 -32 0
152 -146 0
152 -147 0
152 -150 0
152 -151 0
153 -34 -152 0
-153 34 0
-153 152 0
154 -97 -134 0
-154 97 0
-154 134 0
-155 47 154 40 43 0
155 -47 0
155 -154 0
155 -40 0
155 -43 0
156 -49 -155 0
-156 49 0
-156 155 0
157 -54 -152 0
-157 54 0
-157 152 0
-158 56 157 0
158 -56 0
158 -157 0
159 -58 -158 0
-159 58 0
-159 158 0
-160 60 159 0
160 -60 0
160 -159 0
161 -62 -160 0
-161 62 0
-161 160 0
162 -64 -136 0
-162 64 0
-162 136 0
-163 66 145 153 35 38 156 161 162 0
163 -66 0
163 -145 0
163 -153 0
163 -35 0
163 -38 0
163 -156 0
163 -161 0
163 -162 0
164 -108 -163 0
-164 108 0
-164 163 0
-165 114 133 164 109 111 0
165 -114 0
165 -133 0
165 -164 0
165 -109 0
165 -111 0
166 -167 -165 0
-166 167 0
-166 165 0
-168 52 166 0
168 -52 0
168 -166 0
169 -170 -168 0
-169 170 0
-169 168 0
171 -108 -65 0
-171 108 0
-171 65 0
-172 114 171 109 111 0
172 -114 0
172 -171 0
172 -109 0
172 -111 0
173 -116 -172 0
-173 116 0
-173 172 0
-174 120 173 117 0
174 -120 0
174 -173 0
174 -117 0
175 -125 -174 0
-175 125 0
-175 174 0
-176 114 109 111 0
176 -114 0
176 -109 0
176 -111 0
177 -178 -176 0
-177 178 0
-177 176 0
-179 3 177 0
179 -3 0
179 -177 0
180 -2 -179 0
-180 2 0
-180 179 0
181 -182 -176 0
-181 182 0
-181 176 0
-183 6 181 0
183 -6 0
183 -181 0
184 -5 -183 0
-184 5 0
-184 183 0
-185 8 180 184 0
185 -8 0
185 -180 0
185 -184 0
186 -10 -185 0
-186 10 0
-186 185 0
-187 18 186 11 14 0
187 -18 0
187 -186 0
187 -11 0
187 -14 0
188 -20 -187 0
-188 20 0
-188 187 0
189 -22 -187 0
-189 22 0
-189 187 0
190 -191 -176 0
-190 191 0
-190 176 0
-192 32 189 190 27 29 0
192 -32 0
192 -189 0
192 -190 0
192 -27 0
192 -29 0
193 -34 -192 0
-193 34 0
-193 192 0
194 -195 -176 0
-194 195 0
-194 176 0
-196 37 194 0
196 -37 0
196 -194 0
197 -36 -196 0
-197 36 0
-197 196 0
198 -39 -183 0
-198 39 0
-198 183 0
199 -200 -176 0
-199 200 0
-199 176 0
201 -167 -176 0
-201 167 0
-201 176 0
-202 52 201 0
202 -52 0
202 -201 0
203 -51 -202 0
-203 51 0
-203 202 0
204 -205 -176 0
-204 205 0
-204 176 0
206 -54 -192 0
-206 54 0
-206 192 0
-207 56 203 204 206 0
207 -56 0
207 -203 0
207 -204 0
207 -206 0
208 -58 -207 0
-208 58 0
-208 207 0
-209 60 199 208 0
209 -60 0
209 -199 0
209 -208 0
210 -62 -209 0
-210 62 0
-210 209 0
211 -64 -179 0
-211 64 0
-211 179 0
-212 66 188 193 197 198 48 210 211 0
212 -66 0
212 -188 0
212 -193 0
212 -197 0
212 -198 0
212 -48 0
212 -210 0
212 -211 0
213 -68 -212 0
-213 68 0
-213 212 0
-214 70 175 213 0
214 -70 0
214 -175 0
214 -213 0
215 -216 -214 0
-215 216 0
-215 214 0
-217 218 121 169 215 0
217 -218 0
217 -121 0
217 -169 0
217 -215 0
219 -220 -217 0
-219 220 0
-219 217 0
221 -122 -123 0
-221 122 0
-221 123 0
222 -170 -52 0
-222 170 0
-222 52 0
-223 70 124 67 0
223 -70 0
223 -124 0
223 -67 0
224 -216 -223 0
-224 216 0
-224 223 0
-225 218 221 222 224 0
225 -218 0
225 -221 0
225 -222 0
225 -224 0
226 -227 -225 0
-226 227 0
-226 225 0
-228 218 221 222 0
228 -218 0
228 -221 0
228 -222 0
229 -230 -228 0
-229 230 0
-229 228 0
-231 18 229 9 11 14 0
231 -18 0
231 -229 0
231 -9 0
231 -11 0
231 -14 0
232 -20 -231 0
-232 20 0
-232 231 0
233 -22 -231 0
-233 22 0
-233 231 0
-234 32 233 27 29 0
234 -32 0
234 -233 0
234 -27 0
234 -29 0
235 -34 -234 0
-235 34 0
-235 234 0
236 -237 -228 0
-236 237 0
-236 228 0
-238 45 236 0
238 -45 0
238 -236 0
239 -44 -238 0
-239 44 0
-239 238 0
-240 47 40 239 0
240 -47 0
240 -40 0
240 -239 0
241 -49 -240 0
-241 49 0
-241 240 0
242 -54 -234 0
-242 54 0
-242 234 0
-243 56 50 242 0
243 -56 0
243 -50 0
243 -242 0
244 -58 -243 0
-244 58 0
-244 243 0
-245 60 244 0
245 -60 0
245 -244 0
246 -62 -245 0
-246 62 0
-246 245 0
-247 66 232 235 35 38 241 246 63 0
247 -66 0
247 -232 0
247 -235 0
247 -35 0
247 -38 0
247 -241 0
247 -246 0
247 -63 0
248 -68 -247 0
-248 68 0
-248 247 0
-249 70 124 248 0
249 -70 0
249 -124 0
249 -248 0
250 -72 -249 0
-250 72 0
-250 249 0
251 -216 -134 0
-251 216 0
-251 134 0
-252 218 221 222 251 0
252 -218 0
252 -221 0
252 -222 0
252 -251 0
253 -230 -252 0
-253 230 0
-253 252 0
-254 18 253 139 140 11 143 0
254 -18 0
254 -253 0
254 -139 0
254 -140 0
254 -11 0
254 -143 0
255 -20 -254 0
-255 20 0
-255 254 0
256 -22 -254 0
-256 22 0
-256 254 0
-257 32 256 147 150 151 0
257 -32 0
257 -256 0
257 -147 0
257 -150 0
257 -151 0
258 -34 -257 0
-258 34 0
-258 257 0
259 -237 -252 0
-259 237 0
-259 252 0
-260 45 259 0
260 -45 0
260 -259 0
261 -44 -260 0
-261 44 0
-261 260 0
-262 47 154 40 261 0
262 -47 0
262 -154 0
262 -40 0
262 -261 0
263 -49 -262 0
-263 49 0
-263 262 0
264 -54 -257 0
-264 54 0
-264 257 0
-265 56 50 264 0
265 -56 0
265 -50 0
265 -264 0
266 -58 -265 0
-266 58 0
-266 265 0
-267 60 266 0
267 -60 0
267 -266 0
268 -62 -267 0
-268 62 0
-268 267 0
-269 66 255 258 35 38 263 268 162 0
269 -66 0
269 -255 0
269 -258 0
269 -35 0
269 -38 0
269 -263 0
269 -268 0
269 -162 0
270 -108 -269 0
-270 108 0
-270 269 0
-271 47 40 0
271 -47 0
271 -40 0
272 -49 -271 0
-272 49 0
-272 271 0
-273 66 19 33 35 38 272 61 63 0
273 -66 0
273 -19 0
273 -33 0
273 -35 0
273 -38 0
273 -272 0
273 -61 0
273 -63 0
274 -68 -273 0
-274 68 0
-274 273 0
-275 70 124 274 0
275 -70 0
275 -124 0
275 -274 0
276 -216 -275 0
-276 216 0
-276 275 0
-277 218 221 222 276 0
277 -218 0
277 -221 0
277 -222 0
277 -276 0
278 -237 -277 0
-278 237 0
-278 277 0
-279 45 278 0
279 -45 0
279 -278 0
280 -112 -279 0
-280 112 0
-280 279 0
-281 114 226 250 270 109 280 0
281 -114 0
281 -226 0
281 -250 0
281 -270 0
281 -109 0
281 -280 0
282 -283 -281 0
-282 283 0
-282 281 0
-284 66 19 33 38 48 61 63 0
284 -66 0
284 -19 0
284 -33 0
284 -38 0
284 -48 0
284 -61 0
284 -63 0
285 -68 -284 0
-285 68 0
-285 284 0
-286 70 124 285 0
286 -70 0
286 -124 0
286 -285 0
287 -216 -286 0
-287 216 0
-287 286 0
-288 218 221 222 287 0
288 -218 0
288 -221 0
288 -222 0
288 -287 0
289 -227 -288 0
-289 227 0
-289 288 0
-290 66 232 235 38 241 246 63 0
290 -66 0
290 -232 0
290 -235 0
290 -38 0
290 -241 0
290 -246 0
290 -63 0
291 -68 -290 0
-291 68 0
-291 290 0
-292 70 124 291 0
292 -70 0
292 -124 0
292 -291 0
293 -72 -292 0
-293 72 0
-293 292 0
-294 66 255 258 38 263 268 162 0
294 -66 0
294 -255 0
294 -258 0
294 -38 0
294 -263 0
294 -268 0
294 -162 0
295 -108 -294 0
-295 108 0
-295 294 0
-296 66 19 33 38 272 61 63 0
296 -66 0
296 -19 0
296 -33 0
296 -38 0
296 -272 0
296 -61 0
296 -63 0
297 -68 -296 0
-297 68 0
-297 296 0
-298 70 124 297 0
298 -70 0
298 -124 0
298 -297 0
299 -216 -298 0
-299 216 0
-299 298 0
-300 218 221 222 299 0
300 -218 0
300 -221 0
300 -222 0
300 -299 0
301 -237 -300 0
-301 237 0
-301 300 0
-302 45 301 0
302 -45 0
302 -301 0
303 -112 -302 0
-303 112 0
-303 302 0
-304 114 289 293 295 109 303 0
304 -114 0
304 -289 0
304 -293 0
304 -295 0
304 -109 0
304 -303 0
305 -195 -304 0
-305 195 0
-305 304 0
-306 37 305 0
306 -37 0
306 -305 0
307 -308 -306 0
-307 308 0
-307 306 0
309 -227 -228 0
-309 227 0
-309 228 0
-310 18 229 9 11 0
310 -18 0
310 -229 0
310 -9 0
310 -11 0
311 -20 -310 0
-311 20 0
-311 310 0
312 -22 -310 0
-312 22 0
-312 310 0
-313 32 312 29 0
313 -32 0
313 -312 0
313 -29 0
314 -34 -313 0
-314 34 0
-314 313 0
315 -54 -313 0
-315 54 0
-315 313 0
-316 56 50 315 0
316 -56 0
316 -50 0
316 -315 0
317 -58 -316 0
-317 58 0
-317 316 0
-318 60 317 0
318 -60 0
318 -317 0
319 -62 -318 0
-319 62 0
-319 318 0
-320 66 311 314 35 38 241 319 63 0
320 -66 0
320 -311 0
320 -314 0
320 -35 0
320 -38 0
320 -241 0
320 -319 0
320 -63 0
321 -108 -320 0
-321 108 0
-321 320 0
322 -112 -238 0
-322 112 0
-322 238 0
-323 114 309 321 109 322 0
323 -114 0
323 -309 0
323 -321 0
323 -109 0
323 -322 0
324 -116 -323 0
-324 116 0
-324 323 0
-325 120 324 117 0
325 -120 0
325 -324 0
325 -117 0
326 -125 -325 0
-326 125 0
-326 325 0
327 -116 -176 0
-327 116 0
-327 176 0
-328 120 327 117 0
328 -120 0
328 -327 0
328 -117 0
329 -122 -328 0
-329 122 0
-329 328 0
330 -170 -202 0
-330 170 0
-330 202 0
-331 218 329 330 0
331 -218 0
331 -329 0
331 -330 0
332 -230 -331 0
-332 230 0
-332 331 0
-333 114 309 109 322 0
333 -114 0
333 -309 0
333 -109 0
333 -322 0
334 -178 -333 0
-334 178 0
-334 333 0
-335 3 334 0
335 -3 0
335 -334 0
336 -2 -335 0
-336 2 0
-336 335 0
337 -182 -333 0
-337 182 0
-337 333 0
-338 6 337 0
338 -6 0
338 -337 0
339 -5 -338 0
-339 5 0
-339 338 0
-340 8 336 339 0
340 -8 0
340 -336 0
340 -339 0
341 -10 -340 0
-341 10 0
-341 340 0
-342 18 332 341 11 0
342 -18 0
342 -332 0
342 -341 0
342 -11 0
343 -20 -342 0
-343 20 0
-343 342 0
344 -22 -342 0
-344 22 0
-344 342 0
345 -191 -333 0
-345 191 0
-345 333 0
-346 32 344 345 29 0
346 -32 0
346 -344 0
346 -345 0
346 -29 0
347 -34 -346 0
-347 34 0
-347 346 0
348 -195 -333 0
-348 195 0
-348 333 0
-349 37 348 0
349 -37 0
349 -348 0
350 -36 -349 0
-350 36 0
-350 349 0
351 -39 -338 0
-351 39 0
-351 338 0
352 -237 -331 0
-352 237 0
-352 331 0
-353 45 352 0
353 -45 0
353 -352 0
354 -44 -353 0
-354 44 0
-354 353 0
-355 47 40 354 0
355 -47 0
355 -40 0
355 -354 0
356 -49 -355 0
-356 49 0
-356 355 0
357 -200 -333 0
-357 200 0
-357 333 0
358 -167 -333 0
-358 167 0
-358 333 0
-359 52 358 0
359 -52 0
359 -358 0
360 -51 -359 0
-360 51 0
-360 359 0
361 -205 -333 0
-361 205 0
-361 333 0
362 -54 -346 0
-362 54 0
-362 346 0
-363 56 360 361 362 0
363 -56 0
363 -360 0
363 -361 0
363 -362 0
364 -58 -363 0
-364 58 0
-364 363 0
-365 60 357 364 0
365 -60 0
365 -357 0
365 -364 0
366 -62 -365 0
-366 62 0
-366 365 0
367 -64 -335 0
-367 64 0
-367 335 0
-368 66 343 347 350 351 356 366 367 0
368 -66 0
368 -343 0
368 -347 0
368 -350 0
368 -351 0
368 -356 0
368 -366 0
368 -367 0
369 -68 -368 0
-369 68 0
-369 368 0
-370 70 326 369 0
370 -70 0
370 -326 0
370 -369 0
371 -82 -370 0
-371 82 0
-371 370 0
-372 16 371 0
372 -16 0
372 -371 0
373 -24 -372 0
-373 24 0
-373 372 0
-374 26 373 0
374 -26 0
374 -373 0
375 -376 -374 0
-375 376 0
-375 374 0
-377 18 11 14 0
377 -18 0
377 -11 0
377 -14 0
378 -20 -377 0
-378 20 0
-378 377 0
379 -22 -377 0
-379 22 0
-379 377 0
-380 32 379 27 29 0
380 -32 0
380 -379 0
380 -27 0
380 -29 0
381 -34 -380 0
-381 34 0
-381 380 0
382 -54 -380 0
-382 54 0
-382 380 0
-383 56 50 382 0
383 -56 0
383 -50 0
383 -382 0
384 -58 -383 0
-384 58 0
-384 383 0
-385 60 384 0
385 -60 0
385 -384 0
386 -62 -385 0
-386 62 0
-386 385 0
-387 66 378 381 35 38 48 386 63 0
387 -66 0
387 -378 0
387 -381 0
387 -35 0
387 -38 0
387 -48 0
387 -386 0
387 -63 0
388 -68 -387 0
-388 68 0
-388 387 0
-389 70 124 388 0
389 -70 0
389 -124 0
389 -388 0
390 -216 -389 0
-390 216 0
-390 389 0
-391 218 221 222 390 0
391 -218 0
391 -221 0
391 -222 0
391 -390 0
392 -227 -391 0
-392 227 0
-392 391 0
-393 18 229 11 14 0
393 -18 0
393 -229 0
393 -11 0
393 -14 0
394 -20 -393 0
-394 20 0
-394 393 0
395 -22 -393 0
-395 22 0
-395 393 0
-396 32 395 27 29 0
396 -32 0
396 -395 0
396 -27 0
396 -29 0
397 -34 -396 0
-397 34 0
-397 396 0
398 -54 -396 0
-398 54 0
-398 396 0
-399 56 50 398 0
399 -56 0
399 -50 0
399 -398 0
400 -58 -399 0
-400 58 0
-400 399 0
-401 60 400 0
401 -60 0
401 -400 0
402 -62 -401 0
-402 62 0
-402 401 0
-403 66 394 397 35 38 241 402 63 0
403 -66 0
403 -394 0
403 -397 0
403 -35 0
403 -38 0
403 -241 0
403 -402 0
403 -63 0
404 -68 -403 0
-404 68 0
-404 403 0
-405 70 124 404 0
405 -70 0
405 -124 0
405 -404 0
406 -72 -405 0
-406 72 0
-406 405 0
-407 18 253 140 11 143 0
407 -18 0
407 -253 0
407 -140 0
407 -11 0
407 -143 0
408 -20 -407 0
-408 20 0
-408 407 0
409 -22 -407 0
-409 22 0
-409 407 0
-410 32 409 147 150 151 0
410 -32 0
410 -409 0
410 -147 0
410 -150 0
410 -151 0
411 -34 -410 0
-411 34 0
-411 410 0
412 -54 -410 0
-412 54 0
-412 410 0
-413 56 50 412 0
413 -56 0
413 -50 0
413 -412 0
414 -58 -413 0
-414 58 0
-414 413 0
-415 60 414 0
415 -60 0
415 -414 0
416 -62 -415 0
-416 62 0
-416 415 0
-417 66 408 411 35 38 263 416 162 0
417 -66 0
417 -408 0
417 -411 0
417 -35 0
417 -38 0
417 -263 0
417 -416 0
417 -162 0
418 -108 -417 0
-418 108 0
-418 417 0
-419 66 378 381 35 38 272 386 63 0
419 -66 0
419 -378 0
419 -381 0
419 -35 0
419 -38 0
419 -272 0
419 -386 0
419 -63 0
420 -68 -419 0
-420 68 0
-420 419 0
-421 70 124 420 0
421 -70 0
421 -124 0
421 -420 0
422 -216 -421 0
-422 216 0
-422 421 0
-423 218 221 222 422 0
423 -218 0
423 -221 0
423 -222 0
423 -422 0
424 -237 -423 0
-424 237 0
-424 423 0
-425 45 424 0
425 -45 0
425 -424 0
426 -112 -425 0
-426 112 0
-426 425 0
-427 114 392 406 418 109 426 0
427 -114 0
427 -392 0
427 -406 0
427 -418 0
427 -109 0
427 -426 0
428 -178 -427 0
-428 178 0
-428 427 0
429 -108 -403 0
-429 108 0
-429 403 0
-430 114 309 429 109 322 0
430 -114 0
430 -309 0
430 -429 0
430 -109 0
430 -322 0
431 -116 -430 0
-431 116 0
-431 430 0
-432 120 431 117 0
432 -120 0
432 -431 0
432 -117 0
433 -125 -432 0
-433 125 0
-433 432 0
-434 18 332 11 14 0
434 -18 0
434 -332 0
434 -11 0
434 -14 0
435 -20 -434 0
-435 20 0
-435 434 0
436 -22 -434 0
-436 22 0
-436 434 0
-437 32 436 345 27 29 0
437 -32 0
437 -436 0
437 -345 0
437 -27 0
437 -29 0
438 -34 -437 0
-438 34 0
-438 437 0
439 -54 -437 0
-439 54 0
-439 437 0
-440 56 360 361 439 0
440 -56 0
440 -360 0
440 -361 0
440 -439 0
441 -58 -440 0
-441 58 0
-441 440 0
-442 60 357 441 0
442 -60 0
442 -357 0
442 -441 0
443 -62 -442 0
-443 62 0
-443 442 0
-444 66 435 438 350 351 356 443 0
444 -66 0
444 -435 0
444 -438 0
444 -350 0
444 -351 0
444 -356 0
444 -443 0
445 -68 -444 0
-445 68 0
-445 444 0
-446 70 433 445 0
446 -70 0
446 -433 0
446 -445 0
447 -74 -446 0
-447 74 0
-447 446 0
-448 3 428 447 0
448 -3 0
448 -428 0
448 -447 0
449 -2 -448 0
-449 2 0
-449 448 0
450 -182 -427 0
-450 182 0
-450 427 0
-451 6 450 0
451 -6 0
451 -450 0
452 -5 -451 0
-452 5 0
-452 451 0
-453 8 449 452 0
453 -8 0
453 -449 0
453 -452 0
454 -455 -453 0
-454 455 0
-454 453 0
456 -457 -13 0
-456 457 0
-456 13 0
458 -216 -69 0
-458 216 0
-458 69 0
-459 218 221 222 458 0
459 -218 0
459 -221 0
459 -222 0
459 -458 0
460 -227 -459 0
-460 227 0
-460 459 0
-461 70 248 0
461 -70 0
461 -248 0
462 -72 -461 0
-462 72 0
-462 461 0
463 -216 -70 0
-463 216 0
-463 70 0
-464 218 221 222 463 0
464 -218 0
464 -221 0
464 -222 0
464 -463 0
465 -230 -464 0
-465 230 0
-465 464 0
-466 18 465 78 79 11 84 0
466 -18 0
466 -465 0
466 -78 0
466 -79 0
466 -11 0
466 -84 0
467 -20 -466 0
-467 20 0
-467 466 0
468 -22 -466 0
-468 22 0
-468 466 0
-469 32 468 88 92 93 0
469 -32 0
469 -468 0
469 -88 0
469 -92 0
469 -93 0
470 -34 -469 0
-470 34 0
-470 469 0
471 -237 -464 0
-471 237 0
-471 464 0
-472 45 471 0
472 -45 0
472 -471 0
473 -44 -472 0
-473 44 0
-473 472 0
-474 47 96 40 473 0
474 -47 0
474 -96 0
474 -40 0
474 -473 0
475 -49 -474 0
-475 49 0
-475 474 0
476 -54 -469 0
-476 54 0
-476 469 0
-477 56 50 476 0
477 -56 0
477 -50 0
477 -476 0
478 -58 -477 0
-478 58 0
-478 477 0
-479 60 478 0
479 -60 0
479 -478 0
480 -62 -479 0
-480 62 0
-480 479 0
-481 66 467 470 35 38 475 480 105 0
481 -66 0
481 -467 0
481 -470 0
481 -35 0
481 -38 0
481 -475 0
481 -480 0
481 -105 0
482 -108 -481 0
-482 108 0
-482 481 0
-483 70 274 0
483 -70 0
483 -274 0
484 -216 -483 0
-484 216 0
-484 483 0
-485 218 221 222 484 0
485 -218 0
485 -221 0
485 -222 0
485 -484 0
486 -237 -485 0
-486 237 0
-486 485 0
-487 45 486 0
487 -45 0
487 -486 0
488 -112 -487 0
-488 112 0
-488 487 0
-489 114 460 462 482 109 488 0
489 -114 0
489 -460 0
489 -462 0
489 -482 0
489 -109 0
489 -488 0
490 -116 -489 0
-490 116 0
-490 489 0
-491 120 490 117 0
491 -120 0
491 -490 0
491 -117 0
492 -493 -491 0
-492 493 0
-492 491 0
-494 56 50 0
494 -56 0
494 -50 0
495 -58 -494 0
-495 58 0
-495 494 0
-496 60 495 0
496 -60 0
496 -495 0
497 -62 -496 0
-497 62 0
-497 496 0
-498 66 35 38 48 497 63 0
498 -66 0
498 -35 0
498 -38 0
498 -48 0
498 -497 0
498 -63 0
499 -68 -498 0
-499 68 0
-499 498 0
-500 70 499 0
500 -70 0
500 -499 0
501 -72 -500 0
-501 72 0
-501 500 0
-502 66 35 38 99 497 105 0
502 -66 0
502 -35 0
502 -38 0
502 -99 0
502 -497 0
502 -105 0
503 -108 -502 0
-503 108 0
-503 502 0
-504 114 501 503 109 111 0
504 -114 0
504 -501 0
504 -503 0
504 -109 0
504 -111 0
505 -116 -504 0
-505 116 0
-505 504 0
-506 120 505 117 0
506 -120 0
506 -505 0
506 -117 0
507 -122 -506 0
-507 122 0
-507 506 0
508 -58 -56 0
-508 58 0
-508 56 0
-509 60 508 0
509 -60 0
509 -508 0
510 -62 -509 0
-510 62 0
-510 509 0
-511 66 35 38 48 510 63 0
511 -66 0
511 -35 0
511 -38 0
511 -48 0
511 -510 0
511 -63 0
512 -68 -511 0
-512 68 0
-512 511 0
-513 70 124 512 0
513 -70 0
513 -124 0
513 -512 0
514 -72 -513 0
-514 72 0
-514 513 0
-515 66 35 38 156 510 162 0
515 -66 0
515 -35 0
515 -38 0
515 -156 0
515 -510 0
515 -162 0
516 -108 -515 0
-516 108 0
-516 515 0
-517 114 514 516 109 111 0
517 -114 0
517 -514 0
517 -516 0
517 -109 0
517 -111 0
518 -167 -517 0
-518 167 0
-518 517 0
-519 52 518 0
519 -52 0
519 -518 0
520 -170 -519 0
-520 170 0
-520 519 0
521 -108 -498 0
-521 108 0
-521 498 0
-522 114 521 109 111 0
522 -114 0
522 -521 0
522 -109 0
522 -111 0
523 -116 -522 0
-523 116 0
-523 522 0
-524 120 523 117 0
524 -120 0
524 -523 0
524 -117 0
525 -125 -524 0
-525 125 0
-525 524 0
-526 56 203 204 0
526 -56 0
526 -203 0
526 -204 0
527 -58 -526 0
-527 58 0
-527 526 0
-528 60 199 527 0
528 -60 0
528 -199 0
528 -527 0
529 -62 -528 0
-529 62 0
-529 528 0
-530 66 197 198 48 529 211 0
530 -66 0
530 -197 0
530 -198 0
530 -48 0
530 -529 0
530 -211 0
531 -68 -530 0
-531 68 0
-531 530 0
-532 70 525 531 0
532 -70 0
532 -525 0
532 -531 0
533 -216 -532 0
-533 216 0
-533 532 0
-534 218 507 520 533 0
534 -218 0
534 -507 0
534 -520 0
534 -533 0
535 -230 -534 0
-535 230 0
-535 534 0
-536 70 124 499 0
536 -70 0
536 -124 0
536 -499 0
537 -216 -536 0
-537 216 0
-537 536 0
-538 218 221 222 537 0
538 -218 0
538 -221 0
538 -222 0
538 -537 0
539 -227 -538 0
-539 227 0
-539 538 0
-540 66 35 38 241 497 63 0
540 -66 0
540 -35 0
540 -38 0
540 -241 0
540 -497 0
540 -63 0
541 -68 -540 0
-541 68 0
-541 540 0
-542 70 124 541 0
542 -70 0
542 -124 0
542 -541 0
543 -72 -542 0
-543 72 0
-543 542 0
-544 66 35 38 263 497 162 0
544 -66 0
544 -35 0
544 -38 0
544 -263 0
544 -497 0
544 -162 0
545 -108 -544 0
-545 108 0
-545 544 0
-546 66 35 38 272 497 63 0
546 -66 0
546 -35 0
546 -38 0
546 -272 0
546 -497 0
546 -63 0
547 -68 -546 0
-547 68 0
-547 546 0
-548 70 124 547 0
548 -70 0
548 -124 0
548 -547 0
549 -216 -548 0
-549 216 0
-549 548 0
-550 218 221 222 549 0
550 -218 0
550 -221 0
550 -222 0
550 -549 0
551 -237 -550 0
-551 237 0
-551 550 0
-552 45 551 0
552 -45 0
552 -551 0
553 -112 -552 0
-553 112 0
-553 552 0
-554 114 539 543 545 109 553 0
554 -114 0
554 -539 0
554 -543 0
554 -545 0
554 -109 0
554 -553 0
555 -178 -554 0
-555 178 0
-555 554 0
556 -108 -540 0
-556 108 0
-556 540 0
-557 114 309 556 109 322 0
557 -114 0
557 -309 0
557 -556 0
557 -109 0
557 -322 0
558 -116 -557 0
-558 116 0
-558 557 0
-559 120 558 117 0
559 -120 0
559 -558 0
559 -117 0
560 -125 -559 0
-560 125 0
-560 559 0
-561 56 360 361 0
561 -56 0
561 -360 0
561 -361 0
562 -58 -561 0
-562 58 0
-562 561 0
-563 60 357 562 0
563 -60 0
563 -357 0
563 -562 0
564 -62 -563 0
-564 62 0
-564 563 0
-565 66 350 351 356 564 0
565 -66 0
565 -350 0
565 -351 0
565 -356 0
565 -564 0
566 -68 -565 0
-566 68 0
-566 565 0
-567 70 560 566 0
567 -70 0
567 -560 0
567 -566 0
568 -74 -567 0
-568 74 0
-568 567 0
-569 3 555 568 0
569 -3 0
569 -555 0
569 -568 0
570 -2 -569 0
-570 2 0
-570 569 0
571 -182 -554 0
-571 182 0
-571 554 0
-572 6 571 0
572 -6 0
572 -571 0
573 -5 -572 0
-573 5 0
-573 572 0
-574 8 570 573 0
574 -8 0
574 -570 0
574 -573 0
575 -10 -574 0
-575 10 0
-575 574 0
-576 66 350 351 356 564 367 0
576 -66 0
576 -350 0
576 -351 0
576 -356 0
576 -564 0
576 -367 0
577 -68 -576 0
-577 68 0
-577 576 0
-578 70 560 577 0
578 -70 0
578 -560 0
578 -577 0
579 -80 -578 0
-579 80 0
-579 578 0
580 -82 -578 0
-580 82 0
-580 578 0
-581 16 580 0
581 -16 0
581 -580 0
582 -15 -581 0
-582 15 0
-582 581 0
-583 18 535 575 579 11 582 0
583 -18 0
583 -535 0
583 -575 0
583 -579 0
583 -11 0
583 -582 0
584 -22 -583 0
-584 22 0
-584 583 0
-585 66 19 35 38 48 61 63 0
585 -66 0
585 -19 0
585 -35 0
585 -38 0
585 -48 0
585 -61 0
585 -63 0
586 -68 -585 0
-586 68 0
-586 585 0
-587 70 124 586 0
587 -70 0
587 -124 0
587 -586 0
588 -216 -587 0
-588 216 0
-588 587 0
-589 218 221 222 588 0
589 -218 0
589 -221 0
589 -222 0
589 -588 0
590 -227 -589 0
-590 227 0
-590 589 0
-591 66 232 35 38 241 246 63 0
591 -66 0
591 -232 0
591 -35 0
591 -38 0
591 -241 0
591 -246 0
591 -63 0
592 -68 -591 0
-592 68 0
-592 591 0
-593 70 124 592 0
593 -70 0
593 -124 0
593 -592 0
594 -72 -593 0
-594 72 0
-594 593 0
-595 66 255 35 38 263 268 162 0
595 -66 0
595 -255 0
595 -35 0
595 -38 0
595 -263 0
595 -268 0
595 -162 0
596 -108 -595 0
-596 108 0
-596 595 0
-597 66 19 35 38 272 61 63 0
597 -66 0
597 -19 0
597 -35 0
597 -38 0
597 -272 0
597 -61 0
597 -63 0
598 -68 -597 0
-598 68 0
-598 597 0
-599 70 124 598 0
599 -70 0
599 -124 0
599 -598 0
600 -216 -599 0
-600 216 0
-600 599 0
-601 218 221 222 600 0
601 -218 0
601 -221 0
601 -222 0
601 -600 0
602 -237 -601 0
-602 237 0
-602 601 0
-603 45 602 0
603 -45 0
603 -602 0
604 -112 -603 0
-604 112 0
-604 603 0
-605 114 590 594 596 109 604 0
605 -114 0
605 -590 0
605 -594 0
605 -596 0
605 -109 0
605 -604 0
606 -191 -605 0
-606 191 0
-606 605 0
607 -108 -591 0
-607 108 0
-607 591 0
-608 114 309 607 109 322 0
608 -114 0
608 -309 0
608 -607 0
608 -109 0
608 -322 0
609 -116 -608 0
-609 116 0
-609 608 0
-610 120 609 117 0
610 -120 0
610 -609 0
610 -117 0
611 -125 -610 0
-611 125 0
-611 610 0
-612 18 332 341 11 14 0
612 -18 0
612 -332 0
612 -341 0
612 -11 0
612 -14 0
613 -20 -612 0
-613 20 0
-613 612 0
-614 66 613 350 351 356 564 367 0
614 -66 0
614 -613 0
614 -350 0
614 -351 0
614 -356 0
614 -564 0
614 -367 0
615 -68 -614 0
-615 68 0
-615 614 0
-616 70 611 615 0
616 -70 0
616 -611 0
616 -615 0
617 -89 -616 0
-617 89 0
-617 616 0
-618 66 311 35 38 241 319 63 0
618 -66 0
618 -311 0
618 -35 0
618 -38 0
618 -241 0
618 -319 0
618 -63 0
619 -108 -618 0
-619 108 0
-619 618 0
-620 114 309 619 109 322 0
620 -114 0
620 -309 0
620 -619 0
620 -109 0
620 -322 0
621 -116 -620 0
-621 116 0
-621 620 0
-622 120 621 117 0
622 -120 0
622 -621 0
622 -117 0
623 -125 -622 0
-623 125 0
-623 622 0
-624 66 343 350 351 356 564 367 0
624 -66 0
624 -343 0
624 -350 0
624 -351 0
624 -356 0
624 -564 0
624 -367 0
625 -68 -624 0
-625 68 0
-625 624 0
-626 70 623 625 0
626 -70 0
626 -623 0
626 -625 0
627 -82 -626 0
-627 82 0
-627 626 0
-628 16 627 0
628 -16 0
628 -627 0
629 -24 -628 0
-629 24 0
-629 628 0
-630 26 629 0
630 -26 0
630 -629 0
631 -28 -630 0
-631 28 0
-631 630 0
-632 66 311 35 38 241 497 63 0
632 -66 0
632 -311 0
632 -35 0
632 -38 0
632 -241 0
632 -497 0
632 -63 0
633 -108 -632 0
-633 108 0
-633 632 0
-634 114 309 633 109 322 0
634 -114 0
634 -309 0
634 -633 0
634 -109 0
634 -322 0
635 -116 -634 0
-635 116 0
-635 634 0
-636 120 635 117 0
636 -120 0
636 -635 0
636 -117 0
637 -125 -636 0
-637 125 0
-637 636 0
-638 70 637 625 0
638 -70 0
638 -637 0
638 -625 0
639 -82 -638 0
-639 82 0
-639 638 0
-640 16 639 0
640 -16 0
640 -639 0
641 -30 -640 0
-641 30 0
-641 640 0
-642 32 584 606 617 631 641 0
642 -32 0
642 -584 0
642 -606 0
642 -617 0
642 -631 0
642 -641 0
643 -644 -642 0
-643 644 0
-643 642 0
-645 646 492 643 0
645 -646 0
645 -492 0
645 -643 0
647 -648 -645 0
-647 648 0
-647 645 0
-649 650 219 282 307 375 454 456 647 0
649 -650 0
649 -219 0
649 -282 0
649 -307 0
649 -375 0
649 -454 0
649 -456 0
649 -647 0
651 -652 -649 0
-651 652 0
-651 649 0
653 -308 -37 0
-653 308 0
-653 37 0
654 -376 -25 0
-654 376 0
-654 25 0
-655 8 1 0
655 -8 0
655 -1 0
656 -455 -655 0
-656 455 0
-656 655 0
657 -648 -646 0
-657 648 0
-657 646 0
-658 650 653 654 656 456 657 0
658 -650 0
658 -653 0
658 -654 0
658 -656 0
658 -456 0
658 -657 0
659 -660 -658 0
-659 660 0
-659 658 0
-661 6 659 0
661 -6 0
661 -659 0
662 -39 -661 0
-662 39 0
-662 661 0
663 -455 -7 0
-663 455 0
-663 7 0
-664 650 653 654 663 456 657 0
664 -650 0
664 -653 0
664 -654 0
664 -663 0
664 -456 0
664 -657 0
665 -666 -664 0
-665 666 0
-665 664 0
-667 52 665 0
667 -52 0
667 -665 0
668 -51 -667 0
-668 51 0
-668 667 0
-669 56 668 0
669 -56 0
669 -668 0
670 -58 -669 0
-670 58 0
-670 669 0
-671 60 670 0
671 -60 0
671 -670 0
672 -62 -671 0
-672 62 0
-672 671 0
-673 66 35 662 48 672 63 0
673 -66 0
673 -35 0
673 -662 0
673 -48 0
673 -672 0
673 -63 0
674 -68 -673 0
-674 68 0
-674 673 0
-675 70 674 0
675 -70 0
675 -674 0
676 -72 -675 0
-676 72 0
-676 675 0
677 -376 -91 0
-677 376 0
-677 91 0
-678 8 76 0
678 -8 0
678 -76 0
679 -455 -678 0
-679 455 0
-679 678 0
-680 650 653 677 679 456 657 0
680 -650 0
680 -653 0
680 -677 0
680 -679 0
680 -456 0
680 -657 0
681 -660 -680 0
-681 660 0
-681 680 0
-682 6 681 0
682 -6 0
682 -681 0
683 -39 -682 0
-683 39 0
-683 682 0
684 -455 -77 0
-684 455 0
-684 77 0
-685 650 653 677 684 456 657 0
685 -650 0
685 -653 0
685 -677 0
685 -684 0
685 -456 0
685 -657 0
686 -666 -685 0
-686 666 0
-686 685 0
-687 52 686 0
687 -52 0
687 -686 0
688 -51 -687 0
-688 51 0
-688 687 0
-689 56 688 0
689 -56 0
689 -688 0
690 -58 -689 0
-690 58 0
-690 689 0
-691 60 690 0
691 -60 0
691 -690 0
692 -62 -691 0
-692 62 0
-692 691 0
-693 66 35 683 99 692 105 0
693 -66 0
693 -35 0
693 -683 0
693 -99 0
693 -692 0
693 -105 0
694 -108 -693 0
-694 108 0
-694 693 0
-695 114 676 694 109 111 0
695 -114 0
695 -676 0
695 -694 0
695 -109 0
695 -111 0
696 -116 -695 0
-696 116 0
-696 695 0
-697 120 696 117 0
697 -120 0
697 -696 0
697 -117 0
698 -122 -697 0
-698 122 0
-698 697 0
699 -283 -517 0
-699 283 0
-699 517 0
-700 66 38 48 510 63 0
700 -66 0
700 -38 0
700 -48 0
700 -510 0
700 -63 0
701 -68 -700 0
-701 68 0
-701 700 0
-702 70 124 701 0
702 -70 0
702 -124 0
702 -701 0
703 -72 -702 0
-703 72 0
-703 702 0
-704 66 38 156 510 162 0
704 -66 0
704 -38 0
704 -156 0
704 -510 0
704 -162 0
705 -108 -704 0
-705 108 0
-705 704 0
-706 114 703 705 109 111 0
706 -114 0
706 -703 0
706 -705 0
706 -109 0
706 -111 0
707 -195 -706 0
-707 195 0
-707 706 0
-708 37 707 0
708 -37 0
708 -707 0
709 -308 -708 0
-709 308 0
-709 708 0
710 -108 -511 0
-710 108 0
-710 511 0
-711 114 710 109 111 0
711 -114 0
711 -710 0
711 -109 0
711 -111 0
712 -116 -711 0
-712 116 0
-712 711 0
-713 120 712 117 0
713 -120 0
713 -712 0
713 -117 0
714 -125 -713 0
-714 125 0
-714 713 0
-715 56 204 0
715 -56 0
715 -204 0
716 -58 -715 0
-716 58 0
-716 715 0
-717 60 199 716 0
717 -60 0
717 -199 0
717 -716 0
718 -62 -717 0
-718 62 0
-718 717 0
-719 66 197 198 48 718 211 0
719 -66 0
719 -197 0
719 -198 0
719 -48 0
719 -718 0
719 -211 0
720 -68 -719 0
-720 68 0
-720 719 0
-721 70 714 720 0
721 -70 0
721 -714 0
721 -720 0
722 -82 -721 0
-722 82 0
-722 721 0
-723 16 722 0
723 -16 0
723 -722 0
724 -24 -723 0
-724 24 0
-724 723 0
-725 26 724 0
725 -26 0
725 -724 0
726 -376 -725 0
-726 376 0
-726 725 0
727 -178 -517 0
-727 178 0
-727 517 0
728 -74 -721 0
-728 74 0
-728 721 0
-729 3 727 728 0
729 -3 0
729 -727 0
729 -728 0
730 -2 -729 0
-730 2 0
-730 729 0
731 -182 -517 0
-731 182 0
-731 517 0
-732 6 731 0
732 -6 0
732 -731 0
733 -5 -732 0
-733 5 0
-733 732 0
-734 8 730 733 0
734 -8 0
734 -730 0
734 -733 0
735 -455 -734 0
-735 455 0
-735 734 0
-736 70 512 0
736 -70 0
736 -512 0
737 -72 -736 0
-737 72 0
-737 736 0
-738 66 35 38 99 510 105 0
738 -66 0
738 -35 0
738 -38 0
738 -99 0
738 -510 0
738 -105 0
739 -108 -738 0
-739 108 0
-739 738 0
-740 114 737 739 109 111 0
740 -114 0
740 -737 0
740 -739 0
740 -109 0
740 -111 0
741 -116 -740 0
-741 116 0
-741 740 0
-742 120 741 117 0
742 -120 0
742 -741 0
742 -117 0
743 -493 -742 0
-743 493 0
-743 742 0
-744 646 743 0
744 -646 0
744 -743 0
745 -648 -744 0
-745 648 0
-745 744 0
-746 650 699 709 726 735 456 745 0
746 -650 0
746 -699 0
746 -709 0
746 -726 0
746 -735 0
746 -456 0
746 -745 0
747 -666 -746 0
-747 666 0
-747 746 0
748 -493 -123 0
-748 493 0
-748 123 0
-749 646 748 0
749 -646 0
749 -748 0
750 -648 -749 0
-750 648 0
-750 749 0
-751 650 653 654 656 456 750 0
751 -650 0
751 -653 0
751 -654 0
751 -656 0
751 -456 0
751 -750 0
752 -660 -751 0
-752 660 0
-752 751 0
-753 6 752 0
753 -6 0
753 -752 0
754 -39 -753 0
-754 39 0
-754 753 0
-755 66 35 754 48 510 63 0
755 -66 0
755 -35 0
755 -754 0
755 -48 0
755 -510 0
755 -63 0
756 -68 -755 0
-756 68 0
-756 755 0
-757 70 124 756 0
757 -70 0
757 -124 0
757 -756 0
758 -72 -757 0
-758 72 0
-758 757 0
759 -376 -149 0
-759 376 0
-759 149 0
-760 8 137 0
760 -8 0
760 -137 0
761 -455 -760 0
-761 455 0
-761 760 0
-762 650 653 759 761 456 750 0
762 -650 0
762 -653 0
762 -759 0
762 -761 0
762 -456 0
762 -750 0
763 -660 -762 0
-763 660 0
-763 762 0
-764 6 763 0
764 -6 0
764 -763 0
765 -39 -764 0
-765 39 0
-765 764 0
-766 66 35 765 156 510 162 0
766 -66 0
766 -35 0
766 -765 0
766 -156 0
766 -510 0
766 -162 0
767 -108 -766 0
-767 108 0
-767 766 0
-768 114 758 767 109 111 0
768 -114 0
768 -758 0
768 -767 0
768 -109 0
768 -111 0
769 -167 -768 0
-769 167 0
-769 768 0
-770 52 747 769 0
770 -52 0
770 -747 0
770 -769 0
771 -170 -770 0
-771 170 0
-771 770 0
772 -108 -673 0
-772 108 0
-772 673 0
-773 114 772 109 111 0
773 -114 0
773 -772 0
773 -109 0
773 -111 0
774 -116 -773 0
-774 116 0
-774 773 0
-775 120 774 117 0
775 -120 0
775 -774 0
775 -117 0
776 -125 -775 0
-776 125 0
-776 775 0
777 -283 -176 0
-777 283 0
-777 176 0
778 -308 -196 0
-778 308 0
-778 196 0
-779 8 180 0
779 -8 0
779 -180 0
780 -455 -779 0
-780 455 0
-780 779 0
781 -493 -328 0
-781 493 0
-781 328 0
-782 646 781 0
782 -646 0
782 -781 0
783 -648 -782 0
-783 648 0
-783 782 0
-784 650 777 778 654 780 456 783 0
784 -650 0
784 -777 0
784 -778 0
784 -654 0
784 -780 0
784 -456 0
784 -783 0
785 -660 -784 0
-785 660 0
-785 784 0
-786 6 785 181 0
786 -6 0
786 -785 0
786 -181 0
787 -39 -786 0
-787 39 0
-787 786 0
788 -455 -185 0
-788 455 0
-788 185 0
-789 650 777 778 654 788 456 783 0
789 -650 0
789 -777 0
789 -778 0
789 -654 0
789 -788 0
789 -456 0
789 -783 0
790 -666 -789 0
-790 666 0
-790 789 0
-791 52 790 201 0
791 -52 0
791 -790 0
791 -201 0
792 -51 -791 0
-792 51 0
-792 791 0
-793 56 792 204 0
793 -56 0
793 -792 0
793 -204 0
794 -58 -793 0
-794 58 0
-794 793 0
-795 60 199 794 0
795 -60 0
795 -199 0
795 -794 0
796 -62 -795 0
-796 62 0
-796 795 0
-797 66 197 787 48 796 211 0
797 -66 0
797 -197 0
797 -787 0
797 -48 0
797 -796 0
797 -211 0
798 -68 -797 0
-798 68 0
-798 797 0
-799 70 776 798 0
799 -70 0
799 -776 0
799 -798 0
800 -216 -799 0
-800 216 0
-800 799 0
-801 218 698 771 800 0
801 -218 0
801 -698 0
801 -771 0
801 -800 0
802 -230 -801 0
-802 230 0
-802 801 0
803 -220 -534 0
-803 220 0
-803 534 0
804 -283 -554 0
-804 283 0
-804 554 0
-805 66 38 48 497 63 0
805 -66 0
805 -38 0
805 -48 0
805 -497 0
805 -63 0
806 -68 -805 0
-806 68 0
-806 805 0
-807 70 124 806 0
807 -70 0
807 -124 0
807 -806 0
808 -216 -807 0
-808 216 0
-808 807 0
-809 218 221 222 808 0
809 -218 0
809 -221 0
809 -222 0
809 -808 0
810 -227 -809 0
-810 227 0
-810 809 0
-811 66 38 241 497 63 0
811 -66 0
811 -38 0
811 -241 0
811 -497 0
811 -63 0
812 -68 -811 0
-812 68 0
-812 811 0
-813 70 124 812 0
813 -70 0
813 -124 0
813 -812 0
814 -72 -813 0
-814 72 0
-814 813 0
-815 66 38 263 497 162 0
815 -66 0
815 -38 0
815 -263 0
815 -497 0
815 -162 0
816 -108 -815 0
-816 108 0
-816 815 0
-817 66 38 272 497 63 0
817 -66 0
817 -38 0
817 -272 0
817 -497 0
817 -63 0
818 -68 -817 0
-818 68 0
-818 817 0
-819 70 124 818 0
819 -70 0
819 -124 0
819 -818 0
820 -216 -819 0
-820 216 0
-820 819 0
-821 218 221 222 820 0
821 -218 0
821 -221 0
821 -222 0
821 -820 0
822 -237 -821 0
-822 237 0
-822 821 0
-823 45 822 0
823 -45 0
823 -822 0
824 -112 -823 0
-824 112 0
-824 823 0
-825 114 810 814 816 109 824 0
825 -114 0
825 -810 0
825 -814 0
825 -816 0
825 -109 0
825 -824 0
826 -195 -825 0
-826 195 0
-826 825 0
-827 37 826 0
827 -37 0
827 -826 0
828 -308 -827 0
-828 308 0
-828 827 0
829 -24 -581 0
-829 24 0
-829 581 0
-830 26 829 0
830 -26 0
830 -829 0
831 -376 -830 0
-831 376 0
-831 830 0
832 -455 -574 0
-832 455 0
-832 574 0
833 -216 -500 0
-833 216 0
-833 500 0
-834 218 221 222 833 0
834 -218 0
834 -221 0
834 -222 0
834 -833 0
835 -227 -834 0
-835 227 0
-835 834 0
-836 70 541 0
836 -70 0
836 -541 0
837 -72 -836 0
-837 72 0
-837 836 0
-838 66 35 38 475 497 105 0
838 -66 0
838 -35 0
838 -38 0
838 -475 0
838 -497 0
838 -105 0
839 -108 -838 0
-839 108 0
-839 838 0
-840 70 547 0
840 -70 0
840 -547 0
841 -216 -840 0
-841 216 0
-841 840 0
-842 218 221 222 841 0
842 -218 0
842 -221 0
842 -222 0
842 -841 0
843 -237 -842 0
-843 237 0
-843 842 0
-844 45 843 0
844 -45 0
844 -843 0
845 -112 -844 0
-845 112 0
-845 844 0
-846 114 835 837 839 109 845 0
846 -114 0
846 -835 0
846 -837 0
846 -839 0
846 -109 0
846 -845 0
847 -116 -846 0
-847 116 0
-847 846 0
-848 120 847 117 0
848 -120 0
848 -847 0
848 -117 0
849 -493 -848 0
-849 493 0
-849 848 0
-850 646 849 0
850 -646 0
850 -849 0
851 -648 -850 0
-851 648 0
-851 850 0
-852 650 803 804 828 831 832 456 851 0
852 -650 0
852 -803 0
852 -804 0
852 -828 0
852 -831 0
852 -832 0
852 -456 0
852 -851 0
853 -854 -852 0
-853 854 0
-853 852 0
855 -82 -513 0
-855 82 0
-855 513 0
-856 16 855 0
856 -16 0
856 -855 0
857 -24 -856 0
-857 24 0
-857 856 0
-858 26 857 0
858 -26 0
858 -857 0
859 -376 -858 0
-859 376 0
-859 858 0
-860 650 653 859 456 750 0
860 -650 0
860 -653 0
860 -859 0
860 -456 0
860 -750 0
861 -666 -860 0
-861 666 0
-861 860 0
-862 52 861 0
862 -52 0
862 -861 0
863 -170 -862 0
-863 170 0
-863 862 0
-864 650 653 654 456 750 0
864 -650 0
864 -653 0
864 -654 0
864 -456 0
864 -750 0
865 -660 -864 0
-865 660 0
-865 864 0
-866 6 865 0
866 -6 0
866 -865 0
867 -39 -866 0
-867 39 0
-867 866 0
868 -666 -864 0
-868 666 0
-868 864 0
-869 52 868 0
869 -52 0
869 -868 0
870 -51 -869 0
-870 51 0
-870 869 0
-871 56 870 0
871 -56 0
871 -870 0
872 -58 -871 0
-872 58 0
-872 871 0
-873 60 872 0
873 -60 0
873 -872 0
874 -62 -873 0
-874 62 0
-874 873 0
-875 66 35 867 48 874 63 0
875 -66 0
875 -35 0
875 -867 0
875 -48 0
875 -874 0
875 -63 0
876 -68 -875 0
-876 68 0
-876 875 0
-877 70 124 876 0
877 -70 0
877 -124 0
877 -876 0
878 -216 -877 0
-878 216 0
-878 877 0
-879 218 221 863 878 0
879 -218 0
879 -221 0
879 -863 0
879 -878 0
880 -227 -879 0
-880 227 0
-880 879 0
881 -220 -228 0
-881 220 0
-881 228 0
-882 650 881 653 654 456 750 0
882 -650 0
882 -881 0
882 -653 0
882 -654 0
882 -456 0
882 -750 0
883 -660 -882 0
-883 660 0
-883 882 0
-884 6 883 0
884 -6 0
884 -883 0
885 -39 -884 0
-885 39 0
-885 884 0
886 -170 -869 0
-886 170 0
-886 869 0
-887 218 221 886 0
887 -218 0
887 -221 0
887 -886 0
888 -237 -887 0
-888 237 0
-888 887 0
-889 45 888 0
889 -45 0
889 -888 0
890 -44 -889 0
-890 44 0
-890 889 0
-891 47 40 890 0
891 -47 0
891 -40 0
891 -890 0
892 -49 -891 0
-892 49 0
-892 891 0
893 -666 -882 0
-893 666 0
-893 882 0
-894 52 893 0
894 -52 0
894 -893 0
895 -51 -894 0
-895 51 0
-895 894 0
-896 56 895 0
896 -56 0
896 -895 0
897 -58 -896 0
-897 58 0
-897 896 0
-898 60 897 0
898 -60 0
898 -897 0
899 -62 -898 0
-899 62 0
-899 898 0
-900 66 35 885 892 899 63 0
900 -66 0
900 -35 0
900 -885 0
900 -892 0
900 -899 0
900 -63 0
901 -68 -900 0
-901 68 0
-901 900 0
-902 70 124 901 0
902 -70 0
902 -124 0
902 -901 0
903 -72 -902 0
-903 72 0
-903 902 0
904 -220 -252 0
-904 220 0
-904 252 0
-905 650 904 653 759 456 750 0
905 -650 0
905 -904 0
905 -653 0
905 -759 0
905 -456 0
905 -750 0
906 -660 -905 0
-906 660 0
-906 905 0
-907 6 906 0
907 -6 0
907 -906 0
908 -39 -907 0
-908 39 0
-908 907 0
909 -666 -905 0
-909 666 0
-909 905 0
-910 52 909 0
910 -52 0
910 -909 0
911 -170 -910 0
-911 170 0
-911 910 0
-912 218 221 911 251 0
912 -218 0
912 -221 0
912 -911 0
912 -251 0
913 -237 -912 0
-913 237 0
-913 912 0
-914 45 913 0
914 -45 0
914 -913 0
915 -44 -914 0
-915 44 0
-915 914 0
-916 47 154 40 915 0
916 -47 0
916 -154 0
916 -40 0
916 -915 0
917 -49 -916 0
-917 49 0
-917 916 0
918 -51 -910 0
-918 51 0
-918 910 0
-919 56 918 0
919 -56 0
919 -918 0
920 -58 -919 0
-920 58 0
-920 919 0
-921 60 920 0
921 -60 0
921 -920 0
922 -62 -921 0
-922 62 0
-922 921 0
-923 66 35 908 917 922 162 0
923 -66 0
923 -35 0
923 -908 0
923 -917 0
923 -922 0
923 -162 0
924 -108 -923 0
-924 108 0
-924 923 0
-925 66 35 38 272 510 63 0
925 -66 0
925 -35 0
925 -38 0
925 -272 0
925 -510 0
925 -63 0
926 -68 -925 0
-926 68 0
-926 925 0
-927 70 124 926 0
927 -70 0
927 -124 0
927 -926 0
928 -82 -927 0
-928 82 0
-928 927 0
-929 16 928 0
929 -16 0
929 -928 0
930 -24 -929 0
-930 24 0
-930 929 0
-931 26 930 0
931 -26 0
931 -930 0
932 -376 -931 0
-932 376 0
-932 931 0
-933 650 653 932 456 750 0
933 -650 0
933 -653 0
933 -932 0
933 -456 0
933 -750 0
934 -666 -933 0
-934 666 0
-934 933 0
-935 52 934 0
935 -52 0
935 -934 0
936 -170 -935 0
-936 170 0
-936 935 0
-937 66 35 867 272 874 63 0
937 -66 0
937 -35 0
937 -867 0
937 -272 0
937 -874 0
937 -63 0
938 -68 -937 0
-938 68 0
-938 937 0
-939 70 124 938 0
939 -70 0
939 -124 0
939 -938 0
940 -216 -939 0
-940 216 0
-940 939 0
-941 218 221 936 940 0
941 -218 0
941 -221 0
941 -936 0
941 -940 0
942 -237 -941 0
-942 237 0
-942 941 0
-943 45 942 0
943 -45 0
943 -942 0
944 -112 -943 0
-944 112 0
-944 943 0
-945 114 880 903 924 109 944 0
945 -114 0
945 -880 0
945 -903 0
945 -924 0
945 -109 0
945 -944 0
946 -178 -945 0
-946 178 0
-946 945 0
947 -227 -887 0
-947 227 0
-947 887 0
948 -108 -900 0
-948 108 0
-948 900 0
949 -112 -889 0
-949 112 0
-949 889 0
-950 114 947 948 109 949 0
950 -114 0
950 -947 0
950 -948 0
950 -109 0
950 -949 0
951 -116 -950 0
-951 116 0
-951 950 0
-952 120 951 117 0
952 -120 0
952 -951 0
952 -117 0
953 -125 -952 0
-953 125 0
-953 952 0
-954 114 947 109 949 0
954 -114 0
954 -947 0
954 -109 0
954 -949 0
955 -195 -954 0
-955 195 0
-955 954 0
-956 37 955 0
956 -37 0
956 -955 0
957 -36 -956 0
-957 36 0
-957 956 0
958 -220 -331 0
-958 220 0
-958 331 0
959 -283 -333 0
-959 283 0
-959 333 0
960 -308 -349 0
-960 308 0
-960 349 0
961 -116 -333 0
-961 116 0
-961 333 0
-962 120 961 117 0
962 -120 0
962 -961 0
962 -117 0
963 -493 -962 0
-963 493 0
-963 962 0
-964 646 963 0
964 -646 0
964 -963 0
965 -648 -964 0
-965 648 0
-965 964 0
-966 650 958 959 960 654 456 965 0
966 -650 0
966 -958 0
966 -959 0
966 -960 0
966 -654 0
966 -456 0
966 -965 0
967 -660 -966 0
-967 660 0
-967 966 0
968 -182 -954 0
-968 182 0
-968 954 0
-969 6 967 968 0
969 -6 0
969 -967 0
969 -968 0
970 -39 -969 0
-970 39 0
-970 969 0
-971 650 777 778 654 456 783 0
971 -650 0
971 -777 0
971 -778 0
971 -654 0
971 -456 0
971 -783 0
972 -666 -971 0
-972 666 0
-972 971 0
-973 52 972 201 0
973 -52 0
973 -972 0
973 -201 0
974 -170 -973 0
-974 170 0
-974 973 0
-975 218 329 974 0
975 -218 0
975 -329 0
975 -974 0
976 -237 -975 0
-976 237 0
-976 975 0
-977 45 976 0
977 -45 0
977 -976 0
978 -44 -977 0
-978 44 0
-978 977 0
-979 47 40 978 0
979 -47 0
979 -40 0
979 -978 0
980 -49 -979 0
-980 49 0
-980 979 0
981 -200 -954 0
-981 200 0
-981 954 0
982 -666 -966 0
-982 666 0
-982 966 0
983 -167 -954 0
-983 167 0
-983 954 0
-984 52 982 983 0
984 -52 0
984 -982 0
984 -983 0
985 -51 -984 0
-985 51 0
-985 984 0
986 -205 -954 0
-986 205 0
-986 954 0
-987 56 985 986 0
987 -56 0
987 -985 0
987 -986 0
988 -58 -987 0
-988 58 0
-988 987 0
-989 60 981 988 0
989 -60 0
989 -981 0
989 -988 0
990 -62 -989 0
-990 62 0
-990 989 0
-991 66 957 970 980 990 0
991 -66 0
991 -957 0
991 -970 0
991 -980 0
991 -990 0
992 -68 -991 0
-992 68 0
-992 991 0
-993 70 953 992 0
993 -70 0
993 -953 0
993 -992 0
994 -74 -993 0
-994 74 0
-994 993 0
-995 3 946 994 0
995 -3 0
995 -946 0
995 -994 0
996 -2 -995 0
-996 2 0
-996 995 0
-997 66 350 356 564 367 0
997 -66 0
997 -350 0
997 -356 0
997 -564 0
997 -367 0
998 -68 -997 0
-998 68 0
-998 997 0
-999 70 560 998 0
999 -70 0
999 -560 0
999 -998 0
1000 -82 -999 0
-1000 82 0
-1000 999 0
-1001 16 1000 0
1001 -16 0
1001 -1000 0
1002 -24 -1001 0
-1002 24 0
-1002 1001 0
-1003 26 1002 0
1003 -26 0
1003 -1002 0
1004 -376 -1003 0
-1004 376 0
-1004 1003 0
-1005 650 803 804 828 1004 456 851 0
1005 -650 0
1005 -803 0
1005 -804 0
1005 -828 0
1005 -1004 0
1005 -456 0
1005 -851 0
1006 -660 -1005 0
-1006 660 0
-1006 1005 0
-1007 66 35 48 874 63 0
1007 -66 0
1007 -35 0
1007 -48 0
1007 -874 0
1007 -63 0
1008 -68 -1007 0
-1008 68 0
-1008 1007 0
-1009 70 124 1008 0
1009 -70 0
1009 -124 0
1009 -1008 0
1010 -216 -1009 0
-1010 216 0
-1010 1009 0
-1011 218 221 863 1010 0
1011 -218 0
1011 -221 0
1011 -863 0
1011 -1010 0
1012 -227 -1011 0
-1012 227 0
-1012 1011 0
-1013 66 35 892 899 63 0
1013 -66 0
1013 -35 0
1013 -892 0
1013 -899 0
1013 -63 0
1014 -68 -1013 0
-1014 68 0
-1014 1013 0
-1015 70 124 1014 0
1015 -70 0
1015 -124 0
1015 -1014 0
1016 -72 -1015 0
-1016 72 0
-1016 1015 0
-1017 66 35 917 922 162 0
1017 -66 0
1017 -35 0
1017 -917 0
1017 -922 0
1017 -162 0
1018 -108 -1017 0
-1018 108 0
-1018 1017 0
-1019 66 35 272 874 63 0
1019 -66 0
1019 -35 0
1019 -272 0
1019 -874 0
1019 -63 0
1020 -68 -1019 0
-1020 68 0
-1020 1019 0
-1021 70 124 1020 0
1021 -70 0
1021 -124 0
1021 -1020 0
1022 -216 -1021 0
-1022 216 0
-1022 1021 0
-1023 218 221 936 1022 0
1023 -218 0
1023 -221 0
1023 -936 0
1023 -1022 0
1024 -237 -1023 0
-1024 237 0
-1024 1023 0
-1025 45 1024 0
1025 -45 0
1025 -1024 0
1026 -112 -1025 0
-1026 112 0
-1026 1025 0
-1027 114 1012 1016 1018 109 1026 0
1027 -114 0
1027 -1012 0
1027 -1016 0
1027 -1018 0
1027 -109 0
1027 -1026 0
1028 -182 -1027 0
-1028 182 0
-1028 1027 0
-1029 6 1006 1028 0
1029 -6 0
1029 -1006 0
1029 -1028 0
1030 -5 -1029 0
-1030 5 0
-1030 1029 0
-1031 8 996 1030 0
1031 -8 0
1031 -996 0
1031 -1030 0
1032 -10 -1031 0
-1032 10 0
-1032 1031 0
1033 -170 -667 0
-1033 170 0
-1033 667 0
-1034 218 221 1033 0
1034 -218 0
1034 -221 0
1034 -1033 0
1035 -227 -1034 0
-1035 227 0
-1035 1034 0
-1036 650 881 653 654 656 456 657 0
1036 -650 0
1036 -881 0
1036 -653 0
1036 -654 0
1036 -656 0
1036 -456 0
1036 -657 0
1037 -660 -1036 0
-1037 660 0
-1037 1036 0
-1038 6 1037 0
1038 -6 0
1038 -1037 0
1039 -39 -1038 0
-1039 39 0
-1039 1038 0
1040 -237 -1034 0
-1040 237 0
-1040 1034 0
-1041 45 1040 0
1041 -45 0
1041 -1040 0
1042 -44 -1041 0
-1042 44 0
-1042 1041 0
-1043 47 40 1042 0
1043 -47 0
1043 -40 0
1043 -1042 0
1044 -49 -1043 0
-1044 49 0
-1044 1043 0
-1045 650 881 653 654 663 456 657 0
1045 -650 0
1045 -881 0
1045 -653 0
1045 -654 0
1045 -663 0
1045 -456 0
1045 -657 0
1046 -666 -1045 0
-1046 666 0
-1046 1045 0
-1047 52 1046 0
1047 -52 0
1047 -1046 0
1048 -51 -1047 0
-1048 51 0
-1048 1047 0
-1049 56 1048 0
1049 -56 0
1049 -1048 0
1050 -58 -1049 0
-1050 58 0
-1050 1049 0
-1051 60 1050 0
1051 -60 0
1051 -1050 0
1052 -62 -1051 0
-1052 62 0
-1052 1051 0
-1053 66 35 1039 1044 1052 63 0
1053 -66 0
1053 -35 0
1053 -1039 0
1053 -1044 0
1053 -1052 0
1053 -63 0
1054 -108 -1053 0
-1054 108 0
-1054 1053 0
1055 -112 -1041 0
-1055 112 0
-1055 1041 0
-1056 114 1035 1054 109 1055 0
1056 -114 0
1056 -1035 0
1056 -1054 0
1056 -109 0
1056 -1055 0
1057 -116 -1056 0
-1057 116 0
-1057 1056 0
-1058 120 1057 117 0
1058 -120 0
1058 -1057 0
1058 -117 0
1059 -125 -1058 0
-1059 125 0
-1059 1058 0
-1060 650 653 654 663 456 750 0
1060 -650 0
1060 -653 0
1060 -654 0
1060 -663 0
1060 -456 0
1060 -750 0
1061 -666 -1060 0
-1061 666 0
-1061 1060 0
-1062 52 1061 0
1062 -52 0
1062 -1061 0
1063 -170 -1062 0
-1063 170 0
-1063 1062 0
-1064 218 221 1063 0
1064 -218 0
1064 -221 0
1064 -1063 0
1065 -227 -1064 0
-1065 227 0
-1065 1064 0
1066 -237 -1064 0
-1066 237 0
-1066 1064 0
-1067 45 1066 0
1067 -45 0
1067 -1066 0
1068 -112 -1067 0
-1068 112 0
-1068 1067 0
-1069 114 1065 109 1068 0
1069 -114 0
1069 -1065 0
1069 -109 0
1069 -1068 0
1070 -195 -1069 0
-1070 195 0
-1070 1069 0
-1071 37 1070 0
1071 -37 0
1071 -1070 0
1072 -36 -1071 0
-1072 36 0
-1072 1071 0
-1073 8 336 0
1073 -8 0
1073 -336 0
1074 -455 -1073 0
-1074 455 0
-1074 1073 0
-1075 650 958 959 960 654 1074 456 965 0
1075 -650 0
1075 -958 0
1075 -959 0
1075 -960 0
1075 -654 0
1075 -1074 0
1075 -456 0
1075 -965 0
1076 -660 -1075 0
-1076 660 0
-1076 1075 0
1077 -666 -751 0
-1077 666 0
-1077 751 0
-1078 52 1077 0
1078 -52 0
1078 -1077 0
1079 -170 -1078 0
-1079 170 0
-1079 1078 0
-1080 218 221 1079 0
1080 -218 0
1080 -221 0
1080 -1079 0
1081 -227 -1080 0
-1081 227 0
-1081 1080 0
1082 -237 -1080 0
-1082 237 0
-1082 1080 0
-1083 45 1082 0
1083 -45 0
1083 -1082 0
1084 -112 -1083 0
-1084 112 0
-1084 1083 0
-1085 114 1081 109 1084 0
1085 -114 0
1085 -1081 0
1085 -109 0
1085 -1084 0
1086 -182 -1085 0
-1086 182 0
-1086 1085 0
-1087 6 1076 1086 0
1087 -6 0
1087 -1076 0
1087 -1086 0
1088 -39 -1087 0
-1088 39 0
-1088 1087 0
1089 -170 -791 0
-1089 170 0
-1089 791 0
-1090 218 329 1089 0
1090 -218 0
1090 -329 0
1090 -1089 0
1091 -237 -1090 0
-1091 237 0
-1091 1090 0
-1092 45 1091 0
1092 -45 0
1092 -1091 0
1093 -44 -1092 0
-1093 44 0
-1093 1092 0
-1094 47 40 1093 0
1094 -47 0
1094 -40 0
1094 -1093 0
1095 -49 -1094 0
-1095 49 0
-1095 1094 0
1096 -200 -1069 0
-1096 200 0
-1096 1069 0
1097 -455 -340 0
-1097 455 0
-1097 340 0
-1098 650 958 959 960 654 1097 456 965 0
1098 -650 0
1098 -958 0
1098 -959 0
1098 -960 0
1098 -654 0
1098 -1097 0
1098 -456 0
1098 -965 0
1099 -666 -1098 0
-1099 666 0
-1099 1098 0
-1100 218 221 0
1100 -218 0
1100 -221 0
1101 -227 -1100 0
-1101 227 0
-1101 1100 0
1102 -237 -1100 0
-1102 237 0
-1102 1100 0
-1103 45 1102 0
1103 -45 0
1103 -1102 0
1104 -112 -1103 0
-1104 112 0
-1104 1103 0
-1105 114 1101 109 1104 0
1105 -114 0
1105 -1101 0
1105 -109 0
1105 -1104 0
1106 -167 -1105 0
-1106 167 0
-1106 1105 0
-1107 52 1099 1106 0
1107 -52 0
1107 -1099 0
1107 -1106 0
1108 -51 -1107 0
-1108 51 0
-1108 1107 0
1109 -205 -1069 0
-1109 205 0
-1109 1069 0
-1110 56 1108 1109 0
1110 -56 0
1110 -1108 0
1110 -1109 0
1111 -58 -1110 0
-1111 58 0
-1111 1110 0
-1112 60 1096 1111 0
1112 -60 0
1112 -1096 0
1112 -1111 0
1113 -62 -1112 0
-1113 62 0
-1113 1112 0
-1114 8 4 0
1114 -8 0
1114 -4 0
1115 -455 -1114 0
-1115 455 0
-1115 1114 0
-1116 650 653 654 1115 456 750 0
1116 -650 0
1116 -653 0
1116 -654 0
1116 -1115 0
1116 -456 0
1116 -750 0
1117 -666 -1116 0
-1117 666 0
-1117 1116 0
-1118 52 1117 0
1118 -52 0
1118 -1117 0
1119 -170 -1118 0
-1119 170 0
-1119 1118 0
-1120 218 221 1119 0
1120 -218 0
1120 -221 0
1120 -1119 0
1121 -227 -1120 0
-1121 227 0
-1121 1120 0
1122 -237 -1120 0
-1122 237 0
-1122 1120 0
-1123 45 1122 0
1123 -45 0
1123 -1122 0
1124 -112 -1123 0
-1124 112 0
-1124 1123 0
-1125 114 1121 109 1124 0
1125 -114 0
1125 -1121 0
1125 -109 0
1125 -1124 0
1126 -178 -1125 0
-1126 178 0
-1126 1125 0
-1127 3 1126 0
1127 -3 0
1127 -1126 0
1128 -64 -1127 0
-1128 64 0
-1128 1127 0
-1129 66 1072 1088 1095 1113 1128 0
1129 -66 0
1129 -1072 0
1129 -1088 0
1129 -1095 0
1129 -1113 0
1129 -1128 0
1130 -68 -1129 0
-1130 68 0
-1130 1129 0
-1131 70 1059 1130 0
1131 -70 0
1131 -1059 0
1131 -1130 0
1132 -80 -1131 0
-1132 80 0
-1132 1131 0
1133 -82 -1131 0
-1133 82 0
-1133 1131 0
-1134 16 1133 0
1134 -16 0
1134 -1133 0
1135 -15 -1134 0
-1135 15 0
-1135 1134 0
-1136 18 802 853 1032 1132 11 1135 0
1136 -18 0
1136 -802 0
1136 -853 0
1136 -1032 0
1136 -1132 0
1136 -11 0
1136 -1135 0
1137 -22 -1136 0
-1137 22 0
-1137 1136 0
-1138 18 9 11 0
1138 -18 0
1138 -9 0
1138 -11 0
1139 -20 -1138 0
-1139 20 0
-1139 1138 0
-1140 66 1139 35 38 48 510 63 0
1140 -66 0
1140 -1139 0
1140 -35 0
1140 -38 0
1140 -48 0
1140 -510 0
1140 -63 0
1141 -68 -1140 0
-1141 68 0
-1141 1140 0
-1142 70 124 1141 0
1142 -70 0
1142 -124 0
1142 -1141 0
1143 -82 -1142 0
-1143 82 0
-1143 1142 0
-1144 16 1143 0
1144 -16 0
1144 -1143 0
1145 -24 -1144 0
-1145 24 0
-1145 1144 0
-1146 26 1145 0
1146 -26 0
1146 -1145 0
1147 -376 -1146 0
-1147 376 0
-1147 1146 0
-1148 66 378 35 38 48 510 63 0
1148 -66 0
1148 -378 0
1148 -35 0
1148 -38 0
1148 -48 0
1148 -510 0
1148 -63 0
1149 -68 -1148 0
-1149 68 0
-1149 1148 0
-1150 70 124 1149 0
1150 -70 0
1150 -124 0
1150 -1149 0
1151 -74 -1150 0
-1151 74 0
-1151 1150 0
-1152 3 1151 0
1152 -3 0
1152 -1151 0
1153 -2 -1152 0
-1153 2 0
-1153 1152 0
-1154 8 1153 4 0
1154 -8 0
1154 -1153 0
1154 -4 0
1155 -455 -1154 0
-1155 455 0
-1155 1154 0
-1156 650 653 1147 1155 456 750 0
1156 -650 0
1156 -653 0
1156 -1147 0
1156 -1155 0
1156 -456 0
1156 -750 0
1157 -666 -1156 0
-1157 666 0
-1157 1156 0
-1158 52 1157 0
1158 -52 0
1158 -1157 0
1159 -170 -1158 0
-1159 170 0
-1159 1158 0
1160 -854 -1060 0
-1160 854 0
-1160 1060 0
1161 -5 -866 0
-1161 5 0
-1161 866 0
-1162 8 1 1161 0
1162 -8 0
1162 -1 0
1162 -1161 0
1163 -10 -1162 0
-1163 10 0
-1163 1162 0
-1164 18 1160 1163 11 14 0
1164 -18 0
1164 -1160 0
1164 -1163 0
1164 -11 0
1164 -14 0
1165 -20 -1164 0
-1165 20 0
-1165 1164 0
1166 -51 -1062 0
-1166 51 0
-1166 1062 0
-1167 56 1166 0
1167 -56 0
1167 -1166 0
1168 -58 -1167 0
-1168 58 0
-1168 1167 0
-1169 60 1168 0
1169 -60 0
1169 -1168 0
1170 -62 -1169 0
-1170 62 0
-1170 1169 0
-1171 66 1165 35 754 48 1170 63 0
1171 -66 0
1171 -1165 0
1171 -35 0
1171 -754 0
1171 -48 0
1171 -1170 0
1171 -63 0
1172 -68 -1171 0
-1172 68 0
-1172 1171 0
-1173 70 124 1172 0
1173 -70 0
1173 -124 0
1173 -1172 0
1174 -216 -1173 0
-1174 216 0
-1174 1173 0
-1175 218 221 1159 1174 0
1175 -218 0
1175 -221 0
1175 -1159 0
1175 -1174 0
1176 -227 -1175 0
-1176 227 0
-1176 1175 0
1177 -230 -1064 0
-1177 230 0
-1177 1064 0
-1178 650 881 653 654 663 456 750 0
1178 -650 0
1178 -881 0
1178 -653 0
1178 -654 0
1178 -663 0
1178 -456 0
1178 -750 0
1179 -854 -1178 0
-1179 854 0
-1179 1178 0
1180 -5 -884 0
-1180 5 0
-1180 884 0
-1181 8 1 1180 0
1181 -8 0
1181 -1 0
1181 -1180 0
1182 -10 -1181 0
-1182 10 0
-1182 1181 0
-1183 18 1177 1179 1182 11 14 0
1183 -18 0
1183 -1177 0
1183 -1179 0
1183 -1182 0
1183 -11 0
1183 -14 0
1184 -20 -1183 0
-1184 20 0
-1184 1183 0
-1185 650 881 653 654 656 456 750 0
1185 -650 0
1185 -881 0
1185 -653 0
1185 -654 0
1185 -656 0
1185 -456 0
1185 -750 0
1186 -660 -1185 0
-1186 660 0
-1186 1185 0
-1187 6 1186 0
1187 -6 0
1187 -1186 0
1188 -39 -1187 0
-1188 39 0
-1188 1187 0
1189 -44 -1067 0
-1189 44 0
-1189 1067 0
-1190 47 40 1189 0
1190 -47 0
1190 -40 0
1190 -1189 0
1191 -49 -1190 0
-1191 49 0
-1191 1190 0
1192 -666 -1178 0
-1192 666 0
-1192 1178 0
-1193 52 1192 0
1193 -52 0
1193 -1192 0
1194 -51 -1193 0
-1194 51 0
-1194 1193 0
-1195 56 1194 0
1195 -56 0
1195 -1194 0
1196 -58 -1195 0
-1196 58 0
-1196 1195 0
-1197 60 1196 0
1197 -60 0
1197 -1196 0
1198 -62 -1197 0
-1198 62 0
-1198 1197 0
-1199 66 1184 35 1188 1191 1198 63 0
1199 -66 0
1199 -1184 0
1199 -35 0
1199 -1188 0
1199 -1191 0
1199 -1198 0
1199 -63 0
1200 -68 -1199 0
-1200 68 0
-1200 1199 0
-1201 70 124 1200 0
1201 -70 0
1201 -124 0
1201 -1200 0
1202 -72 -1201 0
-1202 72 0
-1202 1201 0
1203 -455 -138 0
-1203 455 0
-1203 138 0
-1204 650 653 759 1203 456 750 0
1204 -650 0
1204 -653 0
1204 -759 0
1204 -1203 0
1204 -456 0
1204 -750 0
1205 -666 -1204 0
-1205 666 0
-1205 1204 0
-1206 52 1205 0
1206 -52 0
1206 -1205 0
1207 -170 -1206 0
-1207 170 0
-1207 1206 0
-1208 218 221 1207 251 0
1208 -218 0
1208 -221 0
1208 -1207 0
1208 -251 0
1209 -230 -1208 0
-1209 230 0
-1209 1208 0
-1210 650 904 653 759 1203 456 750 0
1210 -650 0
1210 -904 0
1210 -653 0
1210 -759 0
1210 -1203 0
1210 -456 0
1210 -750 0
1211 -854 -1210 0
-1211 854 0
-1211 1210 0
1212 -5 -907 0
-1212 5 0
-1212 907 0
-1213 8 137 1212 0
1213 -8 0
1213 -137 0
1213 -1212 0
1214 -10 -1213 0
-1214 10 0
-1214 1213 0
-1215 18 1209 1211 1214 140 11 143 0
1215 -18 0
1215 -1209 0
1215 -1211 0
1215 -1214 0
1215 -140 0
1215 -11 0
1215 -143 0
1216 -20 -1215 0
-1216 20 0
-1216 1215 0
-1217 650 904 653 759 761 456 750 0
1217 -650 0
1217 -904 0
1217 -653 0
1217 -759 0
1217 -761 0
1217 -456 0
1217 -750 0
1218 -660 -1217 0
-1218 660 0
-1218 1217 0
-1219 6 1218 0
1219 -6 0
1219 -1218 0
1220 -39 -1219 0
-1220 39 0
-1220 1219 0
1221 -237 -1208 0
-1221 237 0
-1221 1208 0
-1222 45 1221 0
1222 -45 0
1222 -1221 0
1223 -44 -1222 0
-1223 44 0
-1223 1222 0
-1224 47 154 40 1223 0
1224 -47 0
1224 -154 0
1224 -40 0
1224 -1223 0
1225 -49 -1224 0
-1225 49 0
-1225 1224 0
1226 -666 -1210 0
-1226 666 0
-1226 1210 0
-1227 52 1226 0
1227 -52 0
1227 -1226 0
1228 -51 -1227 0
-1228 51 0
-1228 1227 0
-1229 56 1228 0
1229 -56 0
1229 -1228 0
1230 -58 -1229 0
-1230 58 0
-1230 1229 0
-1231 60 1230 0
1231 -60 0
1231 -1230 0
1232 -62 -1231 0
-1232 62 0
-1232 1231 0
-1233 66 1216 35 1220 1225 1232 162 0
1233 -66 0
1233 -1216 0
1233 -35 0
1233 -1220 0
1233 -1225 0
1233 -1232 0
1233 -162 0
1234 -108 -1233 0
-1234 108 0
-1234 1233 0
-1235 66 1139 35 38 272 510 63 0
1235 -66 0
1235 -1139 0
1235 -35 0
1235 -38 0
1235 -272 0
1235 -510 0
1235 -63 0
1236 -68 -1235 0
-1236 68 0
-1236 1235 0
-1237 70 124 1236 0
1237 -70 0
1237 -124 0
1237 -1236 0
1238 -82 -1237 0
-1238 82 0
-1238 1237 0
-1239 16 1238 0
1239 -16 0
1239 -1238 0
1240 -24 -1239 0
-1240 24 0
-1240 1239 0
-1241 26 1240 0
1241 -26 0
1241 -1240 0
1242 -376 -1241 0
-1242 376 0
-1242 1241 0
-1243 66 378 35 38 272 510 63 0
1243 -66 0
1243 -378 0
1243 -35 0
1243 -38 0
1243 -272 0
1243 -510 0
1243 -63 0
1244 -68 -1243 0
-1244 68 0
-1244 1243 0
-1245 70 124 1244 0
1245 -70 0
1245 -124 0
1245 -1244 0
1246 -74 -1245 0
-1246 74 0
-1246 1245 0
-1247 3 1246 0
1247 -3 0
1247 -1246 0
1248 -2 -1247 0
-1248 2 0
-1248 1247 0
-1249 8 1248 4 0
1249 -8 0
1249 -1248 0
1249 -4 0
1250 -455 -1249 0
-1250 455 0
-1250 1249 0
-1251 650 653 1242 1250 456 750 0
1251 -650 0
1251 -653 0
1251 -1242 0
1251 -1250 0
1251 -456 0
1251 -750 0
1252 -666 -1251 0
-1252 666 0
-1252 1251 0
-1253 52 1252 0
1253 -52 0
1253 -1252 0
1254 -170 -1253 0
-1254 170 0
-1254 1253 0
-1255 66 1165 35 754 272 1170 63 0
1255 -66 0
1255 -1165 0
1255 -35 0
1255 -754 0
1255 -272 0
1255 -1170 0
1255 -63 0
1256 -68 -1255 0
-1256 68 0
-1256 1255 0
-1257 70 124 1256 0
1257 -70 0
1257 -124 0
1257 -1256 0
1258 -216 -1257 0
-1258 216 0
-1258 1257 0
-1259 218 221 1254 1258 0
1259 -218 0
1259 -221 0
1259 -1254 0
1259 -1258 0
1260 -237 -1259 0
-1260 237 0
-1260 1259 0
-1261 45 1260 0
1261 -45 0
1261 -1260 0
1262 -112 -1261 0
-1262 112 0
-1262 1261 0
-1263 114 1176 1202 1234 109 1262 0
1263 -114 0
1263 -1176 0
1263 -1202 0
1263 -1234 0
1263 -109 0
1263 -1262 0
1264 -191 -1263 0
-1264 191 0
-1264 1263 0
1265 -230 -1034 0
-1265 230 0
-1265 1034 0
1266 -854 -1045 0
-1266 854 0
-1266 1045 0
-1267 18 1265 1266 1182 11 14 0
1267 -18 0
1267 -1265 0
1267 -1266 0
1267 -1182 0
1267 -11 0
1267 -14 0
1268 -20 -1267 0
-1268 20 0
-1268 1267 0
-1269 66 1268 35 1039 1044 1052 63 0
1269 -66 0
1269 -1268 0
1269 -35 0
1269 -1039 0
1269 -1044 0
1269 -1052 0
1269 -63 0
1270 -108 -1269 0
-1270 108 0
-1270 1269 0
-1271 114 1035 1270 109 1055 0
1271 -114 0
1271 -1035 0
1271 -1270 0
1271 -109 0
1271 -1055 0
1272 -116 -1271 0
-1272 116 0
-1272 1271 0
-1273 120 1272 117 0
1273 -120 0
1273 -1272 0
1273 -117 0
1274 -125 -1273 0
-1274 125 0
-1274 1273 0
1275 -230 -1090 0
-1275 230 0
-1275 1090 0
1276 -854 -1098 0
-1276 854 0
-1276 1098 0
1277 -178 -954 0
-1277 178 0
-1277 954 0
-1278 3 1277 0
1278 -3 0
1278 -1277 0
1279 -2 -1278 0
-1279 2 0
-1279 1278 0
1280 -5 -969 0
-1280 5 0
-1280 969 0
-1281 8 1279 1280 0
1281 -8 0
1281 -1279 0
1281 -1280 0
1282 -10 -1281 0
-1282 10 0
-1282 1281 0
-1283 18 1275 1276 1282 11 14 0
1283 -18 0
1283 -1275 0
1283 -1276 0
1283 -1282 0
1283 -11 0
1283 -14 0
1284 -20 -1283 0
-1284 20 0
-1284 1283 0
-1285 66 1284 1072 1088 1095 1113 1128 0
1285 -66 0
1285 -1284 0
1285 -1072 0
1285 -1088 0
1285 -1095 0
1285 -1113 0
1285 -1128 0
1286 -68 -1285 0
-1286 68 0
-1286 1285 0
-1287 70 1274 1286 0
1287 -70 0
1287 -1274 0
1287 -1286 0
1288 -89 -1287 0
-1288 89 0
-1288 1287 0
-1289 650 653 663 456 657 0
1289 -650 0
1289 -653 0
1289 -663 0
1289 -456 0
1289 -657 0
1290 -666 -1289 0
-1290 666 0
-1290 1289 0
-1291 52 1290 0
1291 -52 0
1291 -1290 0
1292 -170 -1291 0
-1292 170 0
-1292 1291 0
-1293 218 221 1292 0
1293 -218 0
1293 -221 0
1293 -1292 0
1294 -227 -1293 0
-1294 227 0
-1294 1293 0
1295 -230 -1293 0
-1295 230 0
-1295 1293 0
-1296 650 881 653 663 456 657 0
1296 -650 0
1296 -881 0
1296 -653 0
1296 -663 0
1296 -456 0
1296 -657 0
1297 -854 -1296 0
-1297 854 0
-1297 1296 0
-1298 650 881 653 456 657 0
1298 -650 0
1298 -881 0
1298 -653 0
1298 -456 0
1298 -657 0
1299 -660 -1298 0
-1299 660 0
-1299 1298 0
-1300 6 1299 0
1300 -6 0
1300 -1299 0
1301 -5 -1300 0
-1301 5 0
-1301 1300 0
-1302 8 1 1301 0
1302 -8 0
1302 -1 0
1302 -1301 0
1303 -10 -1302 0
-1303 10 0
-1303 1302 0
-1304 18 1295 1297 1303 11 0
1304 -18 0
1304 -1295 0
1304 -1297 0
1304 -1303 0
1304 -11 0
1305 -20 -1304 0
-1305 20 0
-1305 1304 0
-1306 650 881 653 656 456 657 0
1306 -650 0
1306 -881 0
1306 -653 0
1306 -656 0
1306 -456 0
1306 -657 0
1307 -660 -1306 0
-1307 660 0
-1307 1306 0
-1308 6 1307 0
1308 -6 0
1308 -1307 0
1309 -39 -1308 0
-1309 39 0
-1309 1308 0
1310 -237 -1293 0
-1310 237 0
-1310 1293 0
-1311 45 1310 0
1311 -45 0
1311 -1310 0
1312 -44 -1311 0
-1312 44 0
-1312 1311 0
-1313 47 40 1312 0
1313 -47 0
1313 -40 0
1313 -1312 0
1314 -49 -1313 0
-1314 49 0
-1314 1313 0
1315 -666 -1296 0
-1315 666 0
-1315 1296 0
-1316 52 1315 0
1316 -52 0
1316 -1315 0
1317 -51 -1316 0
-1317 51 0
-1317 1316 0
-1318 56 1317 0
1318 -56 0
1318 -1317 0
1319 -58 -1318 0
-1319 58 0
-1319 1318 0
-1320 60 1319 0
1320 -60 0
1320 -1319 0
1321 -62 -1320 0
-1321 62 0
-1321 1320 0
-1322 66 1305 35 1309 1314 1321 63 0
1322 -66 0
1322 -1305 0
1322 -35 0
1322 -1309 0
1322 -1314 0
1322 -1321 0
1322 -63 0
1323 -108 -1322 0
-1323 108 0
-1323 1322 0
1324 -112 -1311 0
-1324 112 0
-1324 1311 0
-1325 114 1294 1323 109 1324 0
1325 -114 0
1325 -1294 0
1325 -1323 0
1325 -109 0
1325 -1324 0
1326 -116 -1325 0
-1326 116 0
-1326 1325 0
-1327 120 1326 117 0
1327 -120 0
1327 -1326 0
1327 -117 0
1328 -125 -1327 0
-1328 125 0
-1328 1327 0
-1329 650 777 778 788 456 783 0
1329 -650 0
1329 -777 0
1329 -778 0
1329 -788 0
1329 -456 0
1329 -783 0
1330 -666 -1329 0
-1330 666 0
-1330 1329 0
-1331 52 1330 201 0
1331 -52 0
1331 -1330 0
1331 -201 0
1332 -170 -1331 0
-1332 170 0
-1332 1331 0
-1333 218 329 1332 0
1333 -218 0
1333 -329 0
1333 -1332 0
1334 -230 -1333 0
-1334 230 0
-1334 1333 0
-1335 650 958 959 960 1097 456 965 0
1335 -650 0
1335 -958 0
1335 -959 0
1335 -960 0
1335 -1097 0
1335 -456 0
1335 -965 0
1336 -854 -1335 0
-1336 854 0
-1336 1335 0
-1337 650 653 456 750 0
1337 -650 0
1337 -653 0
1337 -456 0
1337 -750 0
1338 -666 -1337 0
-1338 666 0
-1338 1337 0
-1339 52 1338 0
1339 -52 0
1339 -1338 0
1340 -170 -1339 0
-1340 170 0
-1340 1339 0
-1341 218 221 1340 0
1341 -218 0
1341 -221 0
1341 -1340 0
1342 -227 -1341 0
-1342 227 0
-1342 1341 0
1343 -237 -1341 0
-1343 237 0
-1343 1341 0
-1344 45 1343 0
1344 -45 0
1344 -1343 0
1345 -112 -1344 0
-1345 112 0
-1345 1344 0
-1346 114 1342 109 1345 0
1346 -114 0
1346 -1342 0
1346 -109 0
1346 -1345 0
1347 -178 -1346 0
-1347 178 0
-1347 1346 0
-1348 3 1347 0
1348 -3 0
1348 -1347 0
1349 -2 -1348 0
-1349 2 0
-1349 1348 0
-1350 650 958 959 960 456 965 0
1350 -650 0
1350 -958 0
1350 -959 0
1350 -960 0
1350 -456 0
1350 -965 0
1351 -660 -1350 0
-1351 660 0
-1351 1350 0
1352 -182 -1346 0
-1352 182 0
-1352 1346 0
-1353 6 1351 1352 0
1353 -6 0
1353 -1351 0
1353 -1352 0
1354 -5 -1353 0
-1354 5 0
-1354 1353 0
-1355 8 1349 1354 0
1355 -8 0
1355 -1349 0
1355 -1354 0
1356 -10 -1355 0
-1356 10 0
-1356 1355 0
-1357 18 1334 1336 1356 11 0
1357 -18 0
1357 -1334 0
1357 -1336 0
1357 -1356 0
1357 -11 0
1358 -20 -1357 0
-1358 20 0
-1358 1357 0
-1359 650 653 663 456 750 0
1359 -650 0
1359 -653 0
1359 -663 0
1359 -456 0
1359 -750 0
1360 -666 -1359 0
-1360 666 0
-1360 1359 0
-1361 52 1360 0
1361 -52 0
1361 -1360 0
1362 -170 -1361 0
-1362 170 0
-1362 1361 0
-1363 218 221 1362 0
1363 -218 0
1363 -221 0
1363 -1362 0
1364 -227 -1363 0
-1364 227 0
-1364 1363 0
1365 -237 -1363 0
-1365 237 0
-1365 1363 0
-1366 45 1365 0
1366 -45 0
1366 -1365 0
1367 -112 -1366 0
-1367 112 0
-1367 1366 0
-1368 114 1364 109 1367 0
1368 -114 0
1368 -1364 0
1368 -109 0
1368 -1367 0
1369 -195 -1368 0
-1369 195 0
-1369 1368 0
-1370 37 1369 0
1370 -37 0
1370 -1369 0
1371 -36 -1370 0
-1371 36 0
-1371 1370 0
-1372 650 958 959 960 1074 456 965 0
1372 -650 0
1372 -958 0
1372 -959 0
1372 -960 0
1372 -1074 0
1372 -456 0
1372 -965 0
1373 -660 -1372 0
-1373 660 0
-1373 1372 0
-1374 650 653 656 456 750 0
1374 -650 0
1374 -653 0
1374 -656 0
1374 -456 0
1374 -750 0
1375 -666 -1374 0
-1375 666 0
-1375 1374 0
-1376 52 1375 0
1376 -52 0
1376 -1375 0
1377 -170 -1376 0
-1377 170 0
-1377 1376 0
-1378 218 221 1377 0
1378 -218 0
1378 -221 0
1378 -1377 0
1379 -227 -1378 0
-1379 227 0
-1379 1378 0
1380 -237 -1378 0
-1380 237 0
-1380 1378 0
-1381 45 1380 0
1381 -45 0
1381 -1380 0
1382 -112 -1381 0
-1382 112 0
-1382 1381 0
-1383 114 1379 109 1382 0
1383 -114 0
1383 -1379 0
1383 -109 0
1383 -1382 0
1384 -182 -1383 0
-1384 182 0
-1384 1383 0
-1385 6 1373 1384 0
1385 -6 0
1385 -1373 0
1385 -1384 0
1386 -39 -1385 0
-1386 39 0
-1386 1385 0
1387 -237 -1333 0
-1387 237 0
-1387 1333 0
-1388 45 1387 0
1388 -45 0
1388 -1387 0
1389 -44 -1388 0
-1389 44 0
-1389 1388 0
-1390 47 40 1389 0
1390 -47 0
1390 -40 0
1390 -1389 0
1391 -49 -1390 0
-1391 49 0
-1391 1390 0
1392 -200 -1368 0
-1392 200 0
-1392 1368 0
1393 -666 -1335 0
-1393 666 0
-1393 1335 0
-1394 52 1393 1106 0
1394 -52 0
1394 -1393 0
1394 -1106 0
1395 -51 -1394 0
-1395 51 0
-1395 1394 0
1396 -205 -1368 0
-1396 205 0
-1396 1368 0
-1397 56 1395 1396 0
1397 -56 0
1397 -1395 0
1397 -1396 0
1398 -58 -1397 0
-1398 58 0
-1398 1397 0
-1399 60 1392 1398 0
1399 -60 0
1399 -1392 0
1399 -1398 0
1400 -62 -1399 0
-1400 62 0
-1400 1399 0
-1401 650 653 1115 456 750 0
1401 -650 0
1401 -653 0
1401 -1115 0
1401 -456 0
1401 -750 0
1402 -666 -1401 0
-1402 666 0
-1402 1401 0
-1403 52 1402 0
1403 -52 0
1403 -1402 0
1404 -170 -1403 0
-1404 170 0
-1404 1403 0
-1405 218 221 1404 0
1405 -218 0
1405 -221 0
1405 -1404 0
1406 -227 -1405 0
-1406 227 0
-1406 1405 0
1407 -237 -1405 0
-1407 237 0
-1407 1405 0
-1408 45 1407 0
1408 -45 0
1408 -1407 0
1409 -112 -1408 0
-1409 112 0
-1409 1408 0
-1410 114 1406 109 1409 0
1410 -114 0
1410 -1406 0
1410 -109 0
1410 -1409 0
1411 -178 -1410 0
-1411 178 0
-1411 1410 0
-1412 3 1411 0
1412 -3 0
1412 -1411 0
1413 -64 -1412 0
-1413 64 0
-1413 1412 0
-1414 66 1358 1371 1386 1391 1400 1413 0
1414 -66 0
1414 -1358 0
1414 -1371 0
1414 -1386 0
1414 -1391 0
1414 -1400 0
1414 -1413 0
1415 -68 -1414 0
-1415 68 0
-1415 1414 0
-1416 70 1328 1415 0
1416 -70 0
1416 -1328 0
1416 -1415 0
1417 -82 -1416 0
-1417 82 0
-1417 1416 0
-1418 16 1417 0
1418 -16 0
1418 -1417 0
1419 -24 -1418 0
-1419 24 0
-1419 1418 0
-1420 26 1419 0
1420 -26 0
1420 -1419 0
1421 -28 -1420 0
-1421 28 0
-1421 1420 0
-1422 18 1265 1266 1182 11 0
1422 -18 0
1422 -1265 0
1422 -1266 0
1422 -1182 0
1422 -11 0
1423 -20 -1422 0
-1423 20 0
-1423 1422 0
-1424 66 1423 35 1039 1044 1052 63 0
1424 -66 0
1424 -1423 0
1424 -35 0
1424 -1039 0
1424 -1044 0
1424 -1052 0
1424 -63 0
1425 -108 -1424 0
-1425 108 0
-1425 1424 0
-1426 114 1035 1425 109 1055 0
1426 -114 0
1426 -1035 0
1426 -1425 0
1426 -109 0
1426 -1055 0
1427 -116 -1426 0
-1427 116 0
-1427 1426 0
-1428 120 1427 117 0
1428 -120 0
1428 -1427 0
1428 -117 0
1429 -125 -1428 0
-1429 125 0
-1429 1428 0
-1430 18 1275 1276 1282 11 0
1430 -18 0
1430 -1275 0
1430 -1276 0
1430 -1282 0
1430 -11 0
1431 -20 -1430 0
-1431 20 0
-1431 1430 0
-1432 66 1431 1072 1088 1095 1113 1128 0
1432 -66 0
1432 -1431 0
1432 -1072 0
1432 -1088 0
1432 -1095 0
1432 -1113 0
1432 -1128 0
1433 -68 -1432 0
-1433 68 0
-1433 1432 0
-1434 70 1429 1433 0
1434 -70 0
1434 -1429 0
1434 -1433 0
1435 -82 -1434 0
-1435 82 0
-1435 1434 0
-1436 16 1435 0
1436 -16 0
1436 -1435 0
1437 -30 -1436 0
-1437 30 0
-1437 1436 0
-1438 32 1137 1264 1288 1421 1437 0
1438 -32 0
1438 -1137 0
1438 -1264 0
1438 -1288 0
1438 -1421 0
1438 -1437 0
1439 -1440 -1438 0
-1439 1440 0
-1439 1438 0
-1441 1442 651 1439 0
1441 -1442 0
1441 -651 0
1441 -1439 0
1443 -1444 -1441 0
-1443 1444 0
-1443 1441 0
1445 -10 -1114 0
-1445 10 0
-1445 1114 0
-1446 18 1445 11 14 0
1446 -18 0
1446 -1445 0
1446 -11 0
1446 -14 0
1447 -20 -1446 0
-1447 20 0
-1447 1446 0
1448 -22 -1446 0
-1448 22 0
-1448 1446 0
-1449 32 1448 27 29 0
1449 -32 0
1449 -1448 0
1449 -27 0
1449 -29 0
1450 -34 -1449 0
-1450 34 0
-1450 1449 0
1451 -54 -1449 0
-1451 54 0
-1451 1449 0
-1452 56 50 1451 0
1452 -56 0
1452 -50 0
1452 -1451 0
1453 -58 -1452 0
-1453 58 0
-1453 1452 0
-1454 60 1453 0
1454 -60 0
1454 -1453 0
1455 -62 -1454 0
-1455 62 0
-1455 1454 0
-1456 66 1447 1450 35 38 48 1455 63 0
1456 -66 0
1456 -1447 0
1456 -1450 0
1456 -35 0
1456 -38 0
1456 -48 0
1456 -1455 0
1456 -63 0
1457 -68 -1456 0
-1457 68 0
-1457 1456 0
-1458 70 124 1457 0
1458 -70 0
1458 -124 0
1458 -1457 0
1459 -216 -1458 0
-1459 216 0
-1459 1458 0
-1460 218 221 222 1459 0
1460 -218 0
1460 -221 0
1460 -222 0
1460 -1459 0
1461 -220 -1460 0
-1461 220 0
-1461 1460 0
-1462 18 229 1445 11 0
1462 -18 0
1462 -229 0
1462 -1445 0
1462 -11 0
1463 -20 -1462 0
-1463 20 0
-1463 1462 0
1464 -22 -1462 0
-1464 22 0
-1464 1462 0
-1465 32 1464 29 0
1465 -32 0
1465 -1464 0
1465 -29 0
1466 -34 -1465 0
-1466 34 0
-1466 1465 0
1467 -54 -1465 0
-1467 54 0
-1467 1465 0
-1468 56 50 1467 0
1468 -56 0
1468 -50 0
1468 -1467 0
1469 -58 -1468 0
-1469 58 0
-1469 1468 0
-1470 60 1469 0
1470 -60 0
1470 -1469 0
1471 -62 -1470 0
-1471 62 0
-1471 1470 0
-1472 66 1463 1466 35 38 241 1471 63 0
1472 -66 0
1472 -1463 0
1472 -1466 0
1472 -35 0
1472 -38 0
1472 -241 0
1472 -1471 0
1472 -63 0
1473 -68 -1472 0
-1473 68 0
-1473 1472 0
-1474 70 124 1473 0
1474 -70 0
1474 -124 0
1474 -1473 0
1475 -82 -1474 0
-1475 82 0
-1475 1474 0
-1476 16 1475 0
1476 -16 0
1476 -1475 0
1477 -24 -1476 0
-1477 24 0
-1477 1476 0
-1478 26 1477 0
1478 -26 0
1478 -1477 0
1479 -376 -1478 0
-1479 376 0
-1479 1478 0
1480 -230 -538 0
-1480 230 0
-1480 538 0
1481 -80 -542 0
-1481 80 0
-1481 542 0
1482 -82 -542 0
-1482 82 0
-1482 542 0
-1483 16 1482 0
1483 -16 0
1483 -1482 0
1484 -15 -1483 0
-1484 15 0
-1484 1483 0
-1485 18 1480 1445 1481 11 1484 0
1485 -18 0
1485 -1480 0
1485 -1445 0
1485 -1481 0
1485 -11 0
1485 -1484 0
1486 -22 -1485 0
-1486 22 0
-1486 1485 0
-1487 18 229 1445 11 14 0
1487 -18 0
1487 -229 0
1487 -1445 0
1487 -11 0
1487 -14 0
1488 -20 -1487 0
-1488 20 0
-1488 1487 0
-1489 66 1488 35 38 241 497 63 0
1489 -66 0
1489 -1488 0
1489 -35 0
1489 -38 0
1489 -241 0
1489 -497 0
1489 -63 0
1490 -68 -1489 0
-1490 68 0
-1490 1489 0
-1491 70 124 1490 0
1491 -70 0
1491 -124 0
1491 -1490 0
1492 -89 -1491 0
-1492 89 0
-1492 1491 0
-1493 66 1463 35 38 241 497 63 0
1493 -66 0
1493 -1463 0
1493 -35 0
1493 -38 0
1493 -241 0
1493 -497 0
1493 -63 0
1494 -68 -1493 0
-1494 68 0
-1494 1493 0
-1495 70 124 1494 0
1495 -70 0
1495 -124 0
1495 -1494 0
1496 -82 -1495 0
-1496 82 0
-1496 1495 0
-1497 16 1496 0
1497 -16 0
1497 -1496 0
1498 -24 -1497 0
-1498 24 0
-1498 1497 0
-1499 26 1498 0
1499 -26 0
1499 -1498 0
1500 -28 -1499 0
-1500 28 0
-1500 1499 0
1501 -30 -1497 0
-1501 30 0
-1501 1497 0
-1502 32 1486 1492 1500 1501 0
1502 -32 0
1502 -1486 0
1502 -1492 0
1502 -1500 0
1502 -1501 0
1503 -644 -1502 0
-1503 644 0
-1503 1502 0
-1504 646 748 1503 0
1504 -646 0
1504 -748 0
1504 -1503 0
1505 -648 -1504 0
-1505 648 0
-1505 1504 0
-1506 650 1461 653 1479 1115 456 1505 0
1506 -650 0
1506 -1461 0
1506 -653 0
1506 -1479 0
1506 -1115 0
1506 -456 0
1506 -1505 0
1507 -652 -1506 0
-1507 652 0
-1507 1506 0
-1508 650 653 859 1115 456 750 0
1508 -650 0
1508 -653 0
1508 -859 0
1508 -1115 0
1508 -456 0
1508 -750 0
1509 -666 -1508 0
-1509 666 0
-1509 1508 0
-1510 52 1509 0
1510 -52 0
1510 -1509 0
1511 -170 -1510 0
-1511 170 0
-1511 1510 0
1512 -455 -8 0
-1512 455 0
-1512 8 0
-1513 650 653 654 1512 456 750 0
1513 -650 0
1513 -653 0
1513 -654 0
1513 -1512 0
1513 -456 0
1513 -750 0
1514 -660 -1513 0
-1514 660 0
-1514 1513 0
-1515 6 1514 0
1515 -6 0
1515 -1514 0
1516 -39 -1515 0
-1516 39 0
-1516 1515 0
1517 -51 -1118 0
-1517 51 0
-1517 1118 0
-1518 56 1517 0
1518 -56 0
1518 -1517 0
1519 -58 -1518 0
-1519 58 0
-1519 1518 0
-1520 60 1519 0
1520 -60 0
1520 -1519 0
1521 -62 -1520 0
-1521 62 0
-1521 1520 0
-1522 66 35 1516 48 1521 63 0
1522 -66 0
1522 -35 0
1522 -1516 0
1522 -48 0
1522 -1521 0
1522 -63 0
1523 -68 -1522 0
-1523 68 0
-1523 1522 0
-1524 70 124 1523 0
1524 -70 0
1524 -124 0
1524 -1523 0
1525 -216 -1524 0
-1525 216 0
-1525 1524 0
-1526 218 221 1511 1525 0
1526 -218 0
1526 -221 0
1526 -1511 0
1526 -1525 0
1527 -230 -1526 0
-1527 230 0
-1527 1526 0
1528 -220 -538 0
-1528 220 0
-1528 538 0
1529 -24 -1483 0
-1529 24 0
-1529 1483 0
-1530 26 1529 0
1530 -26 0
1530 -1529 0
1531 -376 -1530 0
-1531 376 0
-1531 1530 0
-1532 650 1528 653 1531 1115 456 750 0
1532 -650 0
1532 -1528 0
1532 -653 0
1532 -1531 0
1532 -1115 0
1532 -456 0
1532 -750 0
1533 -854 -1532 0
-1533 854 0
-1533 1532 0
-1534 650 1528 653 1531 456 750 0
1534 -650 0
1534 -1528 0
1534 -653 0
1534 -1531 0
1534 -456 0
1534 -750 0
1535 -660 -1534 0
-1535 660 0
-1535 1534 0
-1536 6 1535 0
1536 -6 0
1536 -1535 0
1537 -5 -1536 0
-1537 5 0
-1537 1536 0
-1538 8 1537 0
1538 -8 0
1538 -1537 0
1539 -10 -1538 0
-1539 10 0
-1539 1538 0
-1540 650 881 653 654 1512 456 750 0
1540 -650 0
1540 -881 0
1540 -653 0
1540 -654 0
1540 -1512 0
1540 -456 0
1540 -750 0
1541 -660 -1540 0
-1541 660 0
-1541 1540 0
-1542 6 1541 0
1542 -6 0
1542 -1541 0
1543 -39 -1542 0
-1543 39 0
-1543 1542 0
1544 -44 -1123 0
-1544 44 0
-1544 1123 0
-1545 47 40 1544 0
1545 -47 0
1545 -40 0
1545 -1544 0
1546 -49 -1545 0
-1546 49 0
-1546 1545 0
-1547 650 881 653 654 1115 456 750 0
1547 -650 0
1547 -881 0
1547 -653 0
1547 -654 0
1547 -1115 0
1547 -456 0
1547 -750 0
1548 -666 -1547 0
-1548 666 0
-1548 1547 0
-1549 52 1548 0
1549 -52 0
1549 -1548 0
1550 -51 -1549 0
-1550 51 0
-1550 1549 0
-1551 56 1550 0
1551 -56 0
1551 -1550 0
1552 -58 -1551 0
-1552 58 0
-1552 1551 0
-1553 60 1552 0
1553 -60 0
1553 -1552 0
1554 -62 -1553 0
-1554 62 0
-1554 1553 0
-1555 66 35 1543 1546 1554 63 0
1555 -66 0
1555 -35 0
1555 -1543 0
1555 -1546 0
1555 -1554 0
1555 -63 0
1556 -68 -1555 0
-1556 68 0
-1556 1555 0
-1557 70 124 1556 0
1557 -70 0
1557 -124 0
1557 -1556 0
1558 -80 -1557 0
-1558 80 0
-1558 1557 0
1559 -82 -1557 0
-1559 82 0
-1559 1557 0
-1560 16 1559 0
1560 -16 0
1560 -1559 0
1561 -15 -1560 0
-1561 15 0
-1561 1560 0
-1562 18 1527 1533 1539 1558 11 1561 0
1562 -18 0
1562 -1527 0
1562 -1533 0
1562 -1539 0
1562 -1558 0
1562 -11 0
1562 -1561 0
1563 -22 -1562 0
-1563 22 0
-1563 1562 0
1564 -230 -1120 0
-1564 230 0
-1564 1120 0
1565 -854 -1547 0
-1565 854 0
-1565 1547 0
-1566 8 1180 0
1566 -8 0
1566 -1180 0
1567 -10 -1566 0
-1567 10 0
-1567 1566 0
-1568 18 1564 1565 1567 11 14 0
1568 -18 0
1568 -1564 0
1568 -1565 0
1568 -1567 0
1568 -11 0
1568 -14 0
1569 -20 -1568 0
-1569 20 0
-1569 1568 0
-1570 66 1569 35 1543 1546 1554 63 0
1570 -66 0
1570 -1569 0
1570 -35 0
1570 -1543 0
1570 -1546 0
1570 -1554 0
1570 -63 0
1571 -68 -1570 0
-1571 68 0
-1571 1570 0
-1572 70 124 1571 0
1572 -70 0
1572 -124 0
1572 -1571 0
1573 -89 -1572 0
-1573 89 0
-1573 1572 0
1574 -230 -1405 0
-1574 230 0
-1574 1405 0
-1575 650 881 653 1115 456 750 0
1575 -650 0
1575 -881 0
1575 -653 0
1575 -1115 0
1575 -456 0
1575 -750 0
1576 -854 -1575 0
-1576 854 0
-1576 1575 0
-1577 650 881 653 456 750 0
1577 -650 0
1577 -881 0
1577 -653 0
1577 -456 0
1577 -750 0
1578 -660 -1577 0
-1578 660 0
-1578 1577 0
-1579 6 1578 0
1579 -6 0
1579 -1578 0
1580 -5 -1579 0
-1580 5 0
-1580 1579 0
-1581 8 1580 0
1581 -8 0
1581 -1580 0
1582 -10 -1581 0
-1582 10 0
-1582 1581 0
-1583 18 1574 1576 1582 11 0
1583 -18 0
1583 -1574 0
1583 -1576 0
1583 -1582 0
1583 -11 0
1584 -20 -1583 0
-1584 20 0
-1584 1583 0
-1585 650 881 653 1512 456 750 0
1585 -650 0
1585 -881 0
1585 -653 0
1585 -1512 0
1585 -456 0
1585 -750 0
1586 -660 -1585 0
-1586 660 0
-1586 1585 0
-1587 6 1586 0
1587 -6 0
1587 -1586 0
1588 -39 -1587 0
-1588 39 0
-1588 1587 0
1589 -44 -1408 0
-1589 44 0
-1589 1408 0
-1590 47 40 1589 0
1590 -47 0
1590 -40 0
1590 -1589 0
1591 -49 -1590 0
-1591 49 0
-1591 1590 0
1592 -666 -1575 0
-1592 666 0
-1592 1575 0
-1593 52 1592 0
1593 -52 0
1593 -1592 0
1594 -51 -1593 0
-1594 51 0
-1594 1593 0
-1595 56 1594 0
1595 -56 0
1595 -1594 0
1596 -58 -1595 0
-1596 58 0
-1596 1595 0
-1597 60 1596 0
1597 -60 0
1597 -1596 0
1598 -62 -1597 0
-1598 62 0
-1598 1597 0
-1599 66 1584 35 1588 1591 1598 63 0
1599 -66 0
1599 -1584 0
1599 -35 0
1599 -1588 0
1599 -1591 0
1599 -1598 0
1599 -63 0
1600 -68 -1599 0
-1600 68 0
-1600 1599 0
-1601 70 124 1600 0
1601 -70 0
1601 -124 0
1601 -1600 0
1602 -82 -1601 0
-1602 82 0
-1602 1601 0
-1603 16 1602 0
1603 -16 0
1603 -1602 0
1604 -24 -1603 0
-1604 24 0
-1604 1603 0
-1605 26 1604 0
1605 -26 0
1605 -1604 0
1606 -28 -1605 0
-1606 28 0
-1606 1605 0
-1607 18 1564 1565 1567 11 0
1607 -18 0
1607 -1564 0
1607 -1565 0
1607 -1567 0
1607 -11 0
1608 -20 -1607 0
-1608 20 0
-1608 1607 0
-1609 66 1608 35 1543 1546 1554 63 0
1609 -66 0
1609 -1608 0
1609 -35 0
1609 -1543 0
1609 -1546 0
1609 -1554 0
1609 -63 0
1610 -68 -1609 0
-1610 68 0
-1610 1609 0
-1611 70 124 1610 0
1611 -70 0
1611 -124 0
1611 -1610 0
1612 -82 -1611 0
-1612 82 0
-1612 1611 0
-1613 16 1612 0
1613 -16 0
1613 -1612 0
1614 -30 -1613 0
-1614 30 0
-1614 1613 0
-1615 32 1563 1573 1606 1614 0
1615 -32 0
1615 -1563 0
1615 -1573 0
1615 -1606 0
1615 -1614 0
1616 -1440 -1615 0
-1616 1440 0
-1616 1615 0
-1617 1442 1507 1616 0
1617 -1442 0
1617 -1507 0
1617 -1616 0
1618 -1619 -1617 0
-1618 1619 0
-1618 1617 0
-1620 18 1445 11 0
1620 -18 0
1620 -1445 0
1620 -11 0
1621 -20 -1620 0
-1621 20 0
-1621 1620 0
1622 -22 -1620 0
-1622 22 0
-1622 1620 0
-1623 32 1622 29 0
1623 -32 0
1623 -1622 0
1623 -29 0
1624 -34 -1623 0
-1624 34 0
-1624 1623 0
1625 -54 -1623 0
-1625 54 0
-1625 1623 0
-1626 56 50 1625 0
1626 -56 0
1626 -50 0
1626 -1625 0
1627 -58 -1626 0
-1627 58 0
-1627 1626 0
-1628 60 1627 0
1628 -60 0
1628 -1627 0
1629 -62 -1628 0
-1629 62 0
-1629 1628 0
-1630 66 1621 1624 35 38 48 1629 63 0
1630 -66 0
1630 -1621 0
1630 -1624 0
1630 -35 0
1630 -38 0
1630 -48 0
1630 -1629 0
1630 -63 0
1631 -68 -1630 0
-1631 68 0
-1631 1630 0
-1632 70 124 1631 0
1632 -70 0
1632 -124 0
1632 -1631 0
1633 -82 -1632 0
-1633 82 0
-1633 1632 0
-1634 16 1633 0
1634 -16 0
1634 -1633 0
1635 -24 -1634 0
-1635 24 0
-1635 1634 0
-1636 26 1635 0
1636 -26 0
1636 -1635 0
1637 -376 -1636 0
-1637 376 0
-1637 1636 0
1638 -80 -536 0
-1638 80 0
-1638 536 0
1639 -82 -536 0
-1639 82 0
-1639 536 0
-1640 16 1639 0
1640 -16 0
1640 -1639 0
1641 -15 -1640 0
-1641 15 0
-1641 1640 0
-1642 18 1445 1638 11 1641 0
1642 -18 0
1642 -1445 0
1642 -1638 0
1642 -11 0
1642 -1641 0
1643 -22 -1642 0
-1643 22 0
-1643 1642 0
-1644 66 1447 35 38 48 497 63 0
1644 -66 0
1644 -1447 0
1644 -35 0
1644 -38 0
1644 -48 0
1644 -497 0
1644 -63 0
1645 -68 -1644 0
-1645 68 0
-1645 1644 0
-1646 70 124 1645 0
1646 -70 0
1646 -124 0
1646 -1645 0
1647 -89 -1646 0
-1647 89 0
-1647 1646 0
-1648 66 1621 35 38 48 497 63 0
1648 -66 0
1648 -1621 0
1648 -35 0
1648 -38 0
1648 -48 0
1648 -497 0
1648 -63 0
1649 -68 -1648 0
-1649 68 0
-1649 1648 0
-1650 70 124 1649 0
1650 -70 0
1650 -124 0
1650 -1649 0
1651 -82 -1650 0
-1651 82 0
-1651 1650 0
-1652 16 1651 0
1652 -16 0
1652 -1651 0
1653 -24 -1652 0
-1653 24 0
-1653 1652 0
-1654 26 1653 0
1654 -26 0
1654 -1653 0
1655 -28 -1654 0
-1655 28 0
-1655 1654 0
1656 -30 -1652 0
-1656 30 0
-1656 1652 0
-1657 32 1643 1647 1655 1656 0
1657 -32 0
1657 -1643 0
1657 -1647 0
1657 -1655 0
1657 -1656 0
1658 -644 -1657 0
-1658 644 0
-1658 1657 0
-1659 646 748 1658 0
1659 -646 0
1659 -748 0
1659 -1658 0
1660 -648 -1659 0
-1660 648 0
-1660 1659 0
-1661 650 653 1637 1115 456 1660 0
1661 -650 0
1661 -653 0
1661 -1637 0
1661 -1115 0
1661 -456 0
1661 -1660 0
1662 -652 -1661 0
-1662 652 0
-1662 1661 0
1663 -24 -1640 0
-1663 24 0
-1663 1640 0
-1664 26 1663 0
1664 -26 0
1664 -1663 0
1665 -376 -1664 0
-1665 376 0
-1665 1664 0
-1666 650 653 1665 1115 456 750 0
1666 -650 0
1666 -653 0
1666 -1665 0
1666 -1115 0
1666 -456 0
1666 -750 0
1667 -854 -1666 0
-1667 854 0
-1667 1666 0
-1668 650 653 1665 456 750 0
1668 -650 0
1668 -653 0
1668 -1665 0
1668 -456 0
1668 -750 0
1669 -660 -1668 0
-1669 660 0
-1669 1668 0
-1670 6 1669 0
1670 -6 0
1670 -1669 0
1671 -5 -1670 0
-1671 5 0
-1671 1670 0
-1672 8 1671 0
1672 -8 0
1672 -1671 0
1673 -10 -1672 0
-1673 10 0
-1673 1672 0
1674 -80 -1524 0
-1674 80 0
-1674 1524 0
1675 -82 -1524 0
-1675 82 0
-1675 1524 0
-1676 16 1675 0
1676 -16 0
1676 -1675 0
1677 -15 -1676 0
-1677 15 0
-1677 1676 0
-1678 18 1667 1673 1674 11 1677 0
1678 -18 0
1678 -1667 0
1678 -1673 0
1678 -1674 0
1678 -11 0
1678 -1677 0
1679 -22 -1678 0
-1679 22 0
-1679 1678 0
1680 -854 -1116 0
-1680 854 0
-1680 1116 0
-1681 8 1161 0
1681 -8 0
1681 -1161 0
1682 -10 -1681 0
-1682 10 0
-1682 1681 0
-1683 18 1680 1682 11 14 0
1683 -18 0
1683 -1680 0
1683 -1682 0
1683 -11 0
1683 -14 0
1684 -20 -1683 0
-1684 20 0
-1684 1683 0
-1685 66 1684 35 1516 48 1521 63 0
1685 -66 0
1685 -1684 0
1685 -35 0
1685 -1516 0
1685 -48 0
1685 -1521 0
1685 -63 0
1686 -68 -1685 0
-1686 68 0
-1686 1685 0
-1687 70 124 1686 0
1687 -70 0
1687 -124 0
1687 -1686 0
1688 -89 -1687 0
-1688 89 0
-1688 1687 0
1689 -854 -1401 0
-1689 854 0
-1689 1401 0
1690 -660 -1337 0
-1690 660 0
-1690 1337 0
-1691 6 1690 0
1691 -6 0
1691 -1690 0
1692 -5 -1691 0
-1692 5 0
-1692 1691 0
-1693 8 1692 0
1693 -8 0
1693 -1692 0
1694 -10 -1693 0
-1694 10 0
-1694 1693 0
-1695 18 1689 1694 11 0
1695 -18 0
1695 -1689 0
1695 -1694 0
1695 -11 0
1696 -20 -1695 0
-1696 20 0
-1696 1695 0
1697 -51 -1403 0
-1697 51 0
-1697 1403 0
-1698 56 1697 0
1698 -56 0
1698 -1697 0
1699 -58 -1698 0
-1699 58 0
-1699 1698 0
-1700 60 1699 0
1700 -60 0
1700 -1699 0
1701 -62 -1700 0
-1701 62 0
-1701 1700 0
-1702 66 1696 35 1588 48 1701 63 0
1702 -66 0
1702 -1696 0
1702 -35 0
1702 -1588 0
1702 -48 0
1702 -1701 0
1702 -63 0
1703 -68 -1702 0
-1703 68 0
-1703 1702 0
-1704 70 124 1703 0
1704 -70 0
1704 -124 0
1704 -1703 0
1705 -82 -1704 0
-1705 82 0
-1705 1704 0
-1706 16 1705 0
1706 -16 0
1706 -1705 0
1707 -24 -1706 0
-1707 24 0
-1707 1706 0
-1708 26 1707 0
1708 -26 0
1708 -1707 0
1709 -28 -1708 0
-1709 28 0
-1709 1708 0
-1710 18 1680 1682 11 0
1710 -18 0
1710 -1680 0
1710 -1682 0
1710 -11 0
1711 -20 -1710 0
-1711 20 0
-1711 1710 0
-1712 66 1711 35 1516 48 1521 63 0
1712 -66 0
1712 -1711 0
1712 -35 0
1712 -1516 0
1712 -48 0
1712 -1521 0
1712 -63 0
1713 -68 -1712 0
-1713 68 0
-1713 1712 0
-1714 70 124 1713 0
1714 -70 0
1714 -124 0
1714 -1713 0
1715 -82 -1714 0
-1715 82 0
-1715 1714 0
-1716 16 1715 0
1716 -16 0
1716 -1715 0
1717 -30 -1716 0
-1717 30 0
-1717 1716 0
-1718 32 1679 1688 1709 1717 0
1718 -32 0
1718 -1679 0
1718 -1688 0
1718 -1709 0
1718 -1717 0
1719 -1440 -1718 0
-1719 1440 0
-1719 1718 0
-1720 1442 1662 1719 0
1720 -1442 0
1720 -1662 0
1720 -1719 0
1721 -1722 -1720 0
-1721 1722 0
-1721 1720 0
-1723 56 1625 0
1723 -56 0
1723 -1625 0
1724 -58 -1723 0
-1724 58 0
-1724 1723 0
-1725 60 1724 0
1725 -60 0
1725 -1724 0
1726 -62 -1725 0
-1726 62 0
-1726 1725 0
-1727 66 1621 1624 35 38 48 1726 63 0
1727 -66 0
1727 -1621 0
1727 -1624 0
1727 -35 0
1727 -38 0
1727 -48 0
1727 -1726 0
1727 -63 0
1728 -68 -1727 0
-1728 68 0
-1728 1727 0
-1729 70 124 1728 0
1729 -70 0
1729 -124 0
1729 -1728 0
1730 -82 -1729 0
-1730 82 0
-1730 1729 0
-1731 16 1730 0
1731 -16 0
1731 -1730 0
1732 -24 -1731 0
-1732 24 0
-1732 1731 0
-1733 26 1732 0
1733 -26 0
1733 -1732 0
1734 -376 -1733 0
-1734 376 0
-1734 1733 0
1735 -80 -513 0
-1735 80 0
-1735 513 0
1736 -15 -856 0
-1736 15 0
-1736 856 0
-1737 18 1445 1735 11 1736 0
1737 -18 0
1737 -1445 0
1737 -1735 0
1737 -11 0
1737 -1736 0
1738 -22 -1737 0
-1738 22 0
-1738 1737 0
-1739 66 1447 35 38 48 510 63 0
1739 -66 0
1739 -1447 0
1739 -35 0
1739 -38 0
1739 -48 0
1739 -510 0
1739 -63 0
1740 -68 -1739 0
-1740 68 0
-1740 1739 0
-1741 70 124 1740 0
1741 -70 0
1741 -124 0
1741 -1740 0
1742 -89 -1741 0
-1742 89 0
-1742 1741 0
-1743 66 1621 35 38 48 510 63 0
1743 -66 0
1743 -1621 0
1743 -35 0
1743 -38 0
1743 -48 0
1743 -510 0
1743 -63 0
1744 -68 -1743 0
-1744 68 0
-1744 1743 0
-1745 70 124 1744 0
1745 -70 0
1745 -124 0
1745 -1744 0
1746 -82 -1745 0
-1746 82 0
-1746 1745 0
-1747 16 1746 0
1747 -16 0
1747 -1746 0
1748 -24 -1747 0
-1748 24 0
-1748 1747 0
-1749 26 1748 0
1749 -26 0
1749 -1748 0
1750 -28 -1749 0
-1750 28 0
-1750 1749 0
1751 -30 -1747 0
-1751 30 0
-1751 1747 0
-1752 32 1738 1742 1750 1751 0
1752 -32 0
1752 -1738 0
1752 -1742 0
1752 -1750 0
1752 -1751 0
1753 -644 -1752 0
-1753 644 0
-1753 1752 0
-1754 646 748 1753 0
1754 -646 0
1754 -748 0
1754 -1753 0
1755 -648 -1754 0
-1755 648 0
-1755 1754 0
-1756 650 653 1734 1115 456 1755 0
1756 -650 0
1756 -653 0
1756 -1734 0
1756 -1115 0
1756 -456 0
1756 -1755 0
1757 -652 -1756 0
-1757 652 0
-1757 1756 0
1758 -854 -1508 0
-1758 854 0
-1758 1508 0
1759 -660 -860 0
-1759 660 0
-1759 860 0
-1760 6 1759 0
1760 -6 0
1760 -1759 0
1761 -5 -1760 0
-1761 5 0
-1761 1760 0
-1762 8 1761 0
1762 -8 0
1762 -1761 0
1763 -10 -1762 0
-1763 10 0
-1763 1762 0
-1764 66 35 1516 48 510 63 0
1764 -66 0
1764 -35 0
1764 -1516 0
1764 -48 0
1764 -510 0
1764 -63 0
1765 -68 -1764 0
-1765 68 0
-1765 1764 0
-1766 70 124 1765 0
1766 -70 0
1766 -124 0
1766 -1765 0
1767 -80 -1766 0
-1767 80 0
-1767 1766 0
1768 -82 -1766 0
-1768 82 0
-1768 1766 0
-1769 16 1768 0
1769 -16 0
1769 -1768 0
1770 -15 -1769 0
-1770 15 0
-1770 1769 0
-1771 18 1758 1763 1767 11 1770 0
1771 -18 0
1771 -1758 0
1771 -1763 0
1771 -1767 0
1771 -11 0
1771 -1770 0
1772 -22 -1771 0
-1772 22 0
-1772 1771 0
-1773 66 1684 35 1516 48 510 63 0
1773 -66 0
1773 -1684 0
1773 -35 0
1773 -1516 0
1773 -48 0
1773 -510 0
1773 -63 0
1774 -68 -1773 0
-1774 68 0
-1774 1773 0
-1775 70 124 1774 0
1775 -70 0
1775 -124 0
1775 -1774 0
1776 -89 -1775 0
-1776 89 0
-1776 1775 0
-1777 66 1696 35 1588 48 510 63 0
1777 -66 0
1777 -1696 0
1777 -35 0
1777 -1588 0
1777 -48 0
1777 -510 0
1777 -63 0
1778 -68 -1777 0
-1778 68 0
-1778 1777 0
-1779 70 124 1778 0
1779 -70 0
1779 -124 0
1779 -1778 0
1780 -82 -1779 0
-1780 82 0
-1780 1779 0
-1781 16 1780 0
1781 -16 0
1781 -1780 0
1782 -24 -1781 0
-1782 24 0
-1782 1781 0
-1783 26 1782 0
1783 -26 0
1783 -1782 0
1784 -28 -1783 0
-1784 28 0
-1784 1783 0
-1785 66 1711 35 1516 48 510 63 0
1785 -66 0
1785 -1711 0
1785 -35 0
1785 -1516 0
1785 -48 0
1785 -510 0
1785 -63 0
1786 -68 -1785 0
-1786 68 0
-1786 1785 0
-1787 70 124 1786 0
1787 -70 0
1787 -124 0
1787 -1786 0
1788 -82 -1787 0
-1788 82 0
-1788 1787 0
-1789 16 1788 0
1789 -16 0
1789 -1788 0
1790 -30 -1789 0
-1790 30 0
-1790 1789 0
-1791 32 1772 1776 1784 1790 0
1791 -32 0
1791 -1772 0
1791 -1776 0
1791 -1784 0
1791 -1790 0
1792 -1440 -1791 0
-1792 1440 0
-1792 1791 0
-1793 1442 1757 1792 0
1793 -1442 0
1793 -1757 0
1793 -1792 0
1794 -1795 -1793 0
-1794 1795 0
-1794 1793 0
1796 -80 -702 0
-1796 80 0
-1796 702 0
1797 -82 -702 0
-1797 82 0
-1797 702 0
-1798 16 1797 0
1798 -16 0
1798 -1797 0
1799 -15 -1798 0
-1799 15 0
-1799 1798 0
-1800 18 1445 1796 11 1799 0
1800 -18 0
1800 -1445 0
1800 -1796 0
1800 -11 0
1800 -1799 0
1801 -22 -1800 0
-1801 22 0
-1801 1800 0
-1802 66 1447 38 48 510 63 0
1802 -66 0
1802 -1447 0
1802 -38 0
1802 -48 0
1802 -510 0
1802 -63 0
1803 -68 -1802 0
-1803 68 0
-1803 1802 0
-1804 70 124 1803 0
1804 -70 0
1804 -124 0
1804 -1803 0
1805 -89 -1804 0
-1805 89 0
-1805 1804 0
-1806 66 1621 38 48 510 63 0
1806 -66 0
1806 -1621 0
1806 -38 0
1806 -48 0
1806 -510 0
1806 -63 0
1807 -68 -1806 0
-1807 68 0
-1807 1806 0
-1808 70 124 1807 0
1808 -70 0
1808 -124 0
1808 -1807 0
1809 -82 -1808 0
-1809 82 0
-1809 1808 0
-1810 16 1809 0
1810 -16 0
1810 -1809 0
1811 -24 -1810 0
-1811 24 0
-1811 1810 0
-1812 26 1811 0
1812 -26 0
1812 -1811 0
1813 -28 -1812 0
-1813 28 0
-1813 1812 0
1814 -30 -1810 0
-1814 30 0
-1814 1810 0
-1815 32 1801 1805 1813 1814 0
1815 -32 0
1815 -1801 0
1815 -1805 0
1815 -1813 0
1815 -1814 0
1816 -1440 -1815 0
-1816 1440 0
-1816 1815 0
-1817 1442 1816 0
1817 -1442 0
1817 -1816 0
1818 -1819 -1817 0
-1818 1819 0
-1818 1817 0
-1820 37 1818 0
1820 -37 0
1820 -1818 0
1821 -308 -1820 0
-1821 308 0
-1821 1820 0
1822 -1440 -1623 0
-1822 1440 0
-1822 1623 0
-1823 1442 1822 0
1823 -1442 0
1823 -1822 0
1824 -1825 -1823 0
-1824 1825 0
-1824 1823 0
-1826 32 29 0
1826 -32 0
1826 -29 0
1827 -1440 -1826 0
-1827 1440 0
-1827 1826 0
-1828 1442 1827 0
1828 -1442 0
1828 -1827 0
1829 -1830 -1828 0
-1829 1830 0
-1829 1828 0
-1831 13 1829 0
1831 -13 0
1831 -1829 0
1832 -12 -1831 0
-1832 12 0
-1832 1831 0
-1833 18 1445 1832 0
1833 -18 0
1833 -1445 0
1833 -1832 0
1834 -20 -1833 0
-1834 20 0
-1834 1833 0
1835 -1830 -1442 0
-1835 1830 0
-1835 1442 0
-1836 13 1835 0
1836 -13 0
1836 -1835 0
1837 -12 -1836 0
-1837 12 0
-1837 1836 0
-1838 18 1445 1837 0
1838 -18 0
1838 -1445 0
1838 -1837 0
1839 -22 -1838 0
-1839 22 0
-1839 1838 0
-1840 32 1839 29 0
1840 -32 0
1840 -1839 0
1840 -29 0
1841 -34 -1840 0
-1841 34 0
-1841 1840 0
1842 -1819 -1823 0
-1842 1819 0
-1842 1823 0
-1843 37 1842 0
1843 -37 0
1843 -1842 0
1844 -36 -1843 0
-1844 36 0
-1844 1843 0
1845 -1846 -1823 0
-1845 1846 0
-1845 1823 0
1847 -54 -1840 0
-1847 54 0
-1847 1840 0
-1848 56 1845 1847 0
1848 -56 0
1848 -1845 0
1848 -1847 0
1849 -58 -1848 0
-1849 58 0
-1849 1848 0
-1850 60 1849 0
1850 -60 0
1850 -1849 0
1851 -62 -1850 0
-1851 62 0
-1851 1850 0
-1852 66 1824 1834 1841 1844 38 48 1851 63 0
1852 -66 0
1852 -1824 0
1852 -1834 0
1852 -1841 0
1852 -1844 0
1852 -38 0
1852 -48 0
1852 -1851 0
1852 -63 0
1853 -68 -1852 0
-1853 68 0
-1853 1852 0
-1854 70 124 1853 0
1854 -70 0
1854 -124 0
1854 -1853 0
1855 -82 -1854 0
-1855 82 0
-1855 1854 0
-1856 16 1855 0
1856 -16 0
1856 -1855 0
1857 -24 -1856 0
-1857 24 0
-1857 1856 0
-1858 26 1857 0
1858 -26 0
1858 -1857 0
1859 -376 -1858 0
-1859 376 0
-1859 1858 0
-1860 18 1445 1735 1736 0
1860 -18 0
1860 -1445 0
1860 -1735 0
1860 -1736 0
1861 -22 -1860 0
-1861 22 0
-1861 1860 0
-1862 18 1445 14 0
1862 -18 0
1862 -1445 0
1862 -14 0
1863 -20 -1862 0
-1863 20 0
-1863 1862 0
-1864 66 1863 35 38 48 510 63 0
1864 -66 0
1864 -1863 0
1864 -35 0
1864 -38 0
1864 -48 0
1864 -510 0
1864 -63 0
1865 -68 -1864 0
-1865 68 0
-1865 1864 0
-1866 70 124 1865 0
1866 -70 0
1866 -124 0
1866 -1865 0
1867 -89 -1866 0
-1867 89 0
-1867 1866 0
-1868 18 1445 0
1868 -18 0
1868 -1445 0
1869 -20 -1868 0
-1869 20 0
-1869 1868 0
-1870 66 1869 35 38 48 510 63 0
1870 -66 0
1870 -1869 0
1870 -35 0
1870 -38 0
1870 -48 0
1870 -510 0
1870 -63 0
1871 -68 -1870 0
-1871 68 0
-1871 1870 0
-1872 70 124 1871 0
1872 -70 0
1872 -124 0
1872 -1871 0
1873 -82 -1872 0
-1873 82 0
-1873 1872 0
-1874 16 1873 0
1874 -16 0
1874 -1873 0
1875 -24 -1874 0
-1875 24 0
-1875 1874 0
-1876 26 1875 0
1876 -26 0
1876 -1875 0
1877 -28 -1876 0
-1877 28 0
-1877 1876 0
1878 -30 -1874 0
-1878 30 0
-1878 1874 0
-1879 32 1861 1867 1877 1878 0
1879 -32 0
1879 -1861 0
1879 -1867 0
1879 -1877 0
1879 -1878 0
1880 -1440 -1879 0
-1880 1440 0
-1880 1879 0
-1881 1442 1880 0
1881 -1442 0
1881 -1880 0
1882 -1830 -1881 0
-1882 1830 0
-1882 1881 0
-1883 13 1882 0
1883 -13 0
1883 -1882 0
1884 -457 -1883 0
-1884 457 0
-1884 1883 0
1885 -1825 -1442 0
-1885 1825 0
-1885 1442 0
1886 -1819 -1442 0
-1886 1819 0
-1886 1442 0
-1887 37 1886 0
1887 -37 0
1887 -1886 0
1888 -36 -1887 0
-1888 36 0
-1888 1887 0
1889 -1846 -1442 0
-1889 1846 0
-1889 1442 0
-1890 56 1889 0
1890 -56 0
1890 -1889 0
1891 -58 -1890 0
-1891 58 0
-1891 1890 0
-1892 60 1891 0
1892 -60 0
1892 -1891 0
1893 -62 -1892 0
-1893 62 0
-1893 1892 0
-1894 66 1885 1888 38 48 1893 63 0
1894 -66 0
1894 -1885 0
1894 -1888 0
1894 -38 0
1894 -48 0
1894 -1893 0
1894 -63 0
1895 -68 -1894 0
-1895 68 0
-1895 1894 0
-1896 70 124 1895 0
1896 -70 0
1896 -124 0
1896 -1895 0
1897 -80 -1896 0
-1897 80 0
-1897 1896 0
1898 -82 -1896 0
-1898 82 0
-1898 1896 0
-1899 16 1898 0
1899 -16 0
1899 -1898 0
1900 -15 -1899 0
-1900 15 0
-1900 1899 0
-1901 18 1445 1897 1837 1900 0
1901 -18 0
1901 -1445 0
1901 -1897 0
1901 -1837 0
1901 -1900 0
1902 -22 -1901 0
-1902 22 0
-1902 1901 0
-1903 18 1445 1837 14 0
1903 -18 0
1903 -1445 0
1903 -1837 0
1903 -14 0
1904 -20 -1903 0
-1904 20 0
-1904 1903 0
-1905 66 1885 1904 1888 38 48 1893 63 0
1905 -66 0
1905 -1885 0
1905 -1904 0
1905 -1888 0
1905 -38 0
1905 -48 0
1905 -1893 0
1905 -63 0
1906 -68 -1905 0
-1906 68 0
-1906 1905 0
-1907 70 124 1906 0
1907 -70 0
1907 -124 0
1907 -1906 0
1908 -89 -1907 0
-1908 89 0
-1908 1907 0
1909 -20 -1838 0
-1909 20 0
-1909 1838 0
-1910 66 1885 1909 1888 38 48 1893 63 0
1910 -66 0
1910 -1885 0
1910 -1909 0
1910 -1888 0
1910 -38 0
1910 -48 0
1910 -1893 0
1910 -63 0
1911 -68 -1910 0
-1911 68 0
-1911 1910 0
-1912 70 124 1911 0
1912 -70 0
1912 -124 0
1912 -1911 0
1913 -82 -1912 0
-1913 82 0
-1913 1912 0
-1914 16 1913 0
1914 -16 0
1914 -1913 0
1915 -24 -1914 0
-1915 24 0
-1915 1914 0
-1916 26 1915 0
1916 -26 0
1916 -1915 0
1917 -28 -1916 0
-1917 28 0
-1917 1916 0
1918 -30 -1914 0
-1918 30 0
-1918 1914 0
-1919 32 1902 1908 1917 1918 0
1919 -32 0
1919 -1902 0
1919 -1908 0
1919 -1917 0
1919 -1918 0
1920 -644 -1919 0
-1920 644 0
-1920 1919 0
-1921 646 748 1920 0
1921 -646 0
1921 -748 0
1921 -1920 0
1922 -648 -1921 0
-1922 648 0
-1922 1921 0
-1923 650 1821 1859 1115 1884 1922 0
1923 -650 0
1923 -1821 0
1923 -1859 0
1923 -1115 0
1923 -1884 0
1923 -1922 0
1924 -666 -1923 0
-1924 666 0
-1924 1923 0
-1925 52 1794 1924 0
1925 -52 0
1925 -1794 0
1925 -1924 0
1926 -170 -1925 0
-1926 170 0
-1926 1925 0
1927 -644 -1449 0
-1927 644 0
-1927 1449 0
-1928 646 748 1927 0
1928 -646 0
1928 -748 0
1928 -1927 0
1929 -648 -1928 0
-1929 648 0
-1929 1928 0
-1930 650 653 654 1115 456 1929 0
1930 -650 0
1930 -653 0
1930 -654 0
1930 -1115 0
1930 -456 0
1930 -1929 0
1931 -652 -1930 0
-1931 652 0
-1931 1930 0
1932 -22 -1683 0
-1932 22 0
-1932 1683 0
-1933 32 1932 27 29 0
1933 -32 0
1933 -1932 0
1933 -27 0
1933 -29 0
1934 -1440 -1933 0
-1934 1440 0
-1934 1933 0
-1935 1442 1931 1934 0
1935 -1442 0
1935 -1931 0
1935 -1934 0
1936 -1825 -1935 0
-1936 1825 0
-1936 1935 0
1937 -1440 -1449 0
-1937 1440 0
-1937 1449 0
-1938 1442 1937 0
1938 -1442 0
1938 -1937 0
1939 -1819 -1938 0
-1939 1819 0
-1939 1938 0
-1940 37 1939 0
1940 -37 0
1940 -1939 0
1941 -308 -1940 0
-1941 308 0
-1941 1940 0
-1942 32 27 29 0
1942 -32 0
1942 -27 0
1942 -29 0
1943 -1440 -1942 0
-1943 1440 0
-1943 1942 0
-1944 1442 1943 0
1944 -1442 0
1944 -1943 0
1945 -1830 -1944 0
-1945 1830 0
-1945 1944 0
-1946 13 1945 0
1946 -13 0
1946 -1945 0
1947 -457 -1946 0
-1947 457 0
-1947 1946 0
1948 -644 -1942 0
-1948 644 0
-1948 1942 0
-1949 646 748 1948 0
1949 -646 0
1949 -748 0
1949 -1948 0
1950 -648 -1949 0
-1950 648 0
-1950 1949 0
-1951 650 1941 654 1115 1947 1950 0
1951 -650 0
1951 -1941 0
1951 -654 0
1951 -1115 0
1951 -1947 0
1951 -1950 0
1952 -854 -1951 0
-1952 854 0
-1952 1951 0
1953 -1819 -1944 0
-1953 1819 0
-1953 1944 0
-1954 37 1953 0
1954 -37 0
1954 -1953 0
1955 -308 -1954 0
-1955 308 0
-1955 1954 0
-1956 650 1955 654 1947 1950 0
1956 -650 0
1956 -1955 0
1956 -654 0
1956 -1947 0
1956 -1950 0
1957 -660 -1956 0
-1957 660 0
-1957 1956 0
-1958 6 1957 0
1958 -6 0
1958 -1957 0
1959 -5 -1958 0
-1959 5 0
-1959 1958 0
-1960 8 1959 0
1960 -8 0
1960 -1959 0
1961 -10 -1960 0
-1961 10 0
-1961 1960 0
-1962 650 653 654 1115 456 1950 0
1962 -650 0
1962 -653 0
1962 -654 0
1962 -1115 0
1962 -456 0
1962 -1950 0
1963 -652 -1962 0
-1963 652 0
-1963 1962 0
-1964 1442 1963 1943 0
1964 -1442 0
1964 -1963 0
1964 -1943 0
1965 -1830 -1964 0
-1965 1830 0
-1965 1964 0
-1966 13 1965 0
1966 -13 0
1966 -1965 0
1967 -12 -1966 0
-1967 12 0
-1967 1966 0
-1968 18 1952 1961 1967 14 0
1968 -18 0
1968 -1952 0
1968 -1961 0
1968 -1967 0
1968 -14 0
1969 -20 -1968 0
-1969 20 0
-1969 1968 0
1970 -308 -1887 0
-1970 308 0
-1970 1887 0
1971 -457 -1836 0
-1971 457 0
-1971 1836 0
-1972 650 1970 654 1115 1971 750 0
1972 -650 0
1972 -1970 0
1972 -654 0
1972 -1115 0
1972 -1971 0
1972 -750 0
1973 -854 -1972 0
-1973 854 0
-1973 1972 0
-1974 650 1970 654 1971 750 0
1974 -650 0
1974 -1970 0
1974 -654 0
1974 -1971 0
1974 -750 0
1975 -660 -1974 0
-1975 660 0
-1975 1974 0
-1976 6 1975 0
1976 -6 0
1976 -1975 0
1977 -5 -1976 0
-1977 5 0
-1977 1976 0
-1978 8 1977 0
1978 -8 0
1978 -1977 0
1979 -10 -1978 0
-1979 10 0
-1979 1978 0
1980 -652 -1116 0
-1980 652 0
-1980 1116 0
-1981 1442 1980 0
1981 -1442 0
1981 -1980 0
1982 -1830 -1981 0
-1982 1830 0
-1982 1981 0
-1983 13 1982 0
1983 -13 0
1983 -1982 0
1984 -12 -1983 0
-1984 12 0
-1984 1983 0
-1985 18 1973 1979 1984 14 0
1985 -18 0
1985 -1973 0
1985 -1979 0
1985 -1984 0
1985 -14 0
1986 -22 -1985 0
-1986 22 0
-1986 1985 0
-1987 32 1986 27 29 0
1987 -32 0
1987 -1986 0
1987 -27 0
1987 -29 0
1988 -34 -1987 0
-1988 34 0
-1988 1987 0
1989 -1819 -1935 0
-1989 1819 0
-1989 1935 0
-1990 37 1989 0
1990 -37 0
1990 -1989 0
1991 -36 -1990 0
-1991 36 0
-1991 1990 0
1992 -10 -8 0
-1992 10 0
-1992 8 0
-1993 18 1992 11 14 0
1993 -18 0
1993 -1992 0
1993 -11 0
1993 -14 0
1994 -22 -1993 0
-1994 22 0
-1994 1993 0
-1995 32 1994 27 29 0
1995 -32 0
1995 -1994 0
1995 -27 0
1995 -29 0
1996 -1440 -1995 0
-1996 1440 0
-1996 1995 0
-1997 1442 1996 0
1997 -1442 0
1997 -1996 0
1998 -1819 -1997 0
-1998 1819 0
-1998 1997 0
-1999 37 1998 0
1999 -37 0
1999 -1998 0
2000 -308 -1999 0
-2000 308 0
-2000 1999 0
-2001 18 1992 14 0
2001 -18 0
2001 -1992 0
2001 -14 0
2002 -22 -2001 0
-2002 22 0
-2002 2001 0
-2003 32 2002 27 29 0
2003 -32 0
2003 -2002 0
2003 -27 0
2003 -29 0
2004 -1440 -2003 0
-2004 1440 0
-2004 2003 0
-2005 1442 2004 0
2005 -1442 0
2005 -2004 0
2006 -1830 -2005 0
-2006 1830 0
-2006 2005 0
-2007 13 2006 0
2007 -13 0
2007 -2006 0
2008 -457 -2007 0
-2008 457 0
-2008 2007 0
-2009 18 1992 1837 14 0
2009 -18 0
2009 -1992 0
2009 -1837 0
2009 -14 0
2010 -22 -2009 0
-2010 22 0
-2010 2009 0
-2011 32 2010 27 29 0
2011 -32 0
2011 -2010 0
2011 -27 0
2011 -29 0
2012 -644 -2011 0
-2012 644 0
-2012 2011 0
-2013 646 748 2012 0
2013 -646 0
2013 -748 0
2013 -2012 0
2014 -648 -2013 0
-2014 648 0
-2014 2013 0
-2015 650 2000 654 1512 2008 2014 0
2015 -650 0
2015 -2000 0
2015 -654 0
2015 -1512 0
2015 -2008 0
2015 -2014 0
2016 -660 -2015 0
-2016 660 0
-2016 2015 0
-2017 6 2016 0
2017 -6 0
2017 -2016 0
2018 -39 -2017 0
-2018 39 0
-2018 2017 0
2019 -1846 -1935 0
-2019 1846 0
-2019 1935 0
2020 -1795 -1935 0
-2020 1795 0
-2020 1935 0
2021 -22 -1862 0
-2021 22 0
-2021 1862 0
-2022 32 2021 27 29 0
2022 -32 0
2022 -2021 0
2022 -27 0
2022 -29 0
2023 -1440 -2022 0
-2023 1440 0
-2023 2022 0
-2024 1442 2023 0
2024 -1442 0
2024 -2023 0
2025 -1830 -2024 0
-2025 1830 0
-2025 2024 0
-2026 13 2025 0
2026 -13 0
2026 -2025 0
2027 -457 -2026 0
-2027 457 0
-2027 2026 0
2028 -22 -1903 0
-2028 22 0
-2028 1903 0
-2029 32 2028 27 29 0
2029 -32 0
2029 -2028 0
2029 -27 0
2029 -29 0
2030 -644 -2029 0
-2030 644 0
-2030 2029 0
-2031 646 748 2030 0
2031 -646 0
2031 -748 0
2031 -2030 0
2032 -648 -2031 0
-2032 648 0
-2032 2031 0
-2033 650 1941 654 1115 2027 2032 0
2033 -650 0
2033 -1941 0
2033 -654 0
2033 -1115 0
2033 -2027 0
2033 -2032 0
2034 -666 -2033 0
-2034 666 0
-2034 2033 0
-2035 52 2020 2034 0
2035 -52 0
2035 -2020 0
2035 -2034 0
2036 -51 -2035 0
-2036 51 0
-2036 2035 0
2037 -54 -1987 0
-2037 54 0
-2037 1987 0
-2038 56 2019 2036 2037 0
2038 -56 0
2038 -2019 0
2038 -2036 0
2038 -2037 0
2039 -58 -2038 0
-2039 58 0
-2039 2038 0
-2040 60 2039 0
2040 -60 0
2040 -2039 0
2041 -62 -2040 0
-2041 62 0
-2041 2040 0
-2042 66 1936 1969 1988 1991 2018 48 2041 63 0
2042 -66 0
2042 -1936 0
2042 -1969 0
2042 -1988 0
2042 -1991 0
2042 -2018 0
2042 -48 0
2042 -2041 0
2042 -63 0
2043 -68 -2042 0
-2043 68 0
-2043 2042 0
-2044 70 124 2043 0
2044 -70 0
2044 -124 0
2044 -2043 0
2045 -216 -2044 0
-2045 216 0
-2045 2044 0
-2046 218 221 1721 1926 2045 0
2046 -218 0
2046 -221 0
2046 -1721 0
2046 -1926 0
2046 -2045 0
2047 -227 -2046 0
-2047 227 0
-2047 2046 0
2048 -22 -1487 0
-2048 22 0
-2048 1487 0
-2049 32 2048 27 29 0
2049 -32 0
2049 -2048 0
2049 -27 0
2049 -29 0
2050 -644 -2049 0
-2050 644 0
-2050 2049 0
-2051 646 748 2050 0
2051 -646 0
2051 -748 0
2051 -2050 0
2052 -648 -2051 0
-2052 648 0
-2052 2051 0
-2053 650 881 653 654 1115 456 2052 0
2053 -650 0
2053 -881 0
2053 -653 0
2053 -654 0
2053 -1115 0
2053 -456 0
2053 -2052 0
2054 -652 -2053 0
-2054 652 0
-2054 2053 0
2055 -22 -1568 0
-2055 22 0
-2055 1568 0
-2056 32 2055 27 29 0
2056 -32 0
2056 -2055 0
2056 -27 0
2056 -29 0
2057 -1440 -2056 0
-2057 1440 0
-2057 2056 0
-2058 1442 2054 2057 0
2058 -1442 0
2058 -2054 0
2058 -2057 0
2059 -1825 -2058 0
-2059 1825 0
-2059 2058 0
-2060 1442 1931 1943 0
2060 -1442 0
2060 -1931 0
2060 -1943 0
2061 -1722 -2060 0
-2061 1722 0
-2061 2060 0
2062 -1795 -2060 0
-2062 1795 0
-2062 2060 0
-2063 650 1955 654 1115 1947 1950 0
2063 -650 0
2063 -1955 0
2063 -654 0
2063 -1115 0
2063 -1947 0
2063 -1950 0
2064 -666 -2063 0
-2064 666 0
-2064 2063 0
-2065 52 2062 2064 0
2065 -52 0
2065 -2062 0
2065 -2064 0
2066 -170 -2065 0
-2066 170 0
-2066 2065 0
-2067 218 221 2061 2066 0
2067 -218 0
2067 -221 0
2067 -2061 0
2067 -2066 0
2068 -230 -2067 0
-2068 230 0
-2068 2067 0
2069 -1722 -1938 0
-2069 1722 0
-2069 1938 0
2070 -1795 -1938 0
-2070 1795 0
-2070 1938 0
-2071 52 2070 0
2071 -52 0
2071 -2070 0
2072 -170 -2071 0
-2072 170 0
-2072 2071 0
-2073 218 221 2069 2072 0
2073 -218 0
2073 -221 0
2073 -2069 0
2073 -2072 0
2074 -220 -2073 0
-2074 220 0
-2074 2073 0
-2075 650 2074 1955 654 1115 1947 1950 0
2075 -650 0
2075 -2074 0
2075 -1955 0
2075 -654 0
2075 -1115 0
2075 -1947 0
2075 -1950 0
2076 -854 -2075 0
-2076 854 0
-2076 2075 0
2077 -1722 -1944 0
-2077 1722 0
-2077 1944 0
2078 -1795 -1944 0
-2078 1795 0
-2078 1944 0
-2079 52 2078 0
2079 -52 0
2079 -2078 0
2080 -170 -2079 0
-2080 170 0
-2080 2079 0
-2081 218 221 2077 2080 0
2081 -218 0
2081 -221 0
2081 -2077 0
2081 -2080 0
2082 -220 -2081 0
-2082 220 0
-2082 2081 0
-2083 650 2082 1955 654 1947 1950 0
2083 -650 0
2083 -2082 0
2083 -1955 0
2083 -654 0
2083 -1947 0
2083 -1950 0
2084 -660 -2083 0
-2084 660 0
-2084 2083 0
-2085 6 2084 0
2085 -6 0
2085 -2084 0
2086 -5 -2085 0
-2086 5 0
-2086 2085 0
-2087 8 2086 0
2087 -8 0
2087 -2086 0
2088 -10 -2087 0
-2088 10 0
-2088 2087 0
-2089 650 881 653 654 1115 456 1950 0
2089 -650 0
2089 -881 0
2089 -653 0
2089 -654 0
2089 -1115 0
2089 -456 0
2089 -1950 0
2090 -652 -2089 0
-2090 652 0
-2090 2089 0
-2091 1442 2090 1943 0
2091 -1442 0
2091 -2090 0
2091 -1943 0
2092 -1830 -2091 0
-2092 1830 0
-2092 2091 0
-2093 13 2092 0
2093 -13 0
2093 -2092 0
2094 -12 -2093 0
-2094 12 0
-2094 2093 0
-2095 18 2068 2076 2088 2094 14 0
2095 -18 0
2095 -2068 0
2095 -2076 0
2095 -2088 0
2095 -2094 0
2095 -14 0
2096 -20 -2095 0
-2096 20 0
-2096 2095 0
2097 -1722 -1981 0
-2097 1722 0
-2097 1981 0
2098 -1795 -1981 0
-2098 1795 0
-2098 1981 0
2099 -666 -1972 0
-2099 666 0
-2099 1972 0
-2100 52 2098 2099 0
2100 -52 0
2100 -2098 0
2100 -2099 0
2101 -170 -2100 0
-2101 170 0
-2101 2100 0
-2102 218 221 2097 2101 0
2102 -218 0
2102 -221 0
2102 -2097 0
2102 -2101 0
2103 -230 -2102 0
-2103 230 0
-2103 2102 0
2104 -1722 -1442 0
-2104 1722 0
-2104 1442 0
2105 -1795 -1442 0
-2105 1795 0
-2105 1442 0
-2106 52 2105 0
2106 -52 0
2106 -2105 0
2107 -170 -2106 0
-2107 170 0
-2107 2106 0
-2108 218 221 2104 2107 0
2108 -218 0
2108 -221 0
2108 -2104 0
2108 -2107 0
2109 -220 -2108 0
-2109 220 0
-2109 2108 0
-2110 650 2109 1970 654 1115 1971 750 0
2110 -650 0
2110 -2109 0
2110 -1970 0
2110 -654 0
2110 -1115 0
2110 -1971 0
2110 -750 0
2111 -854 -2110 0
-2111 854 0
-2111 2110 0
-2112 650 2109 1970 654 1971 750 0
2112 -650 0
2112 -2109 0
2112 -1970 0
2112 -654 0
2112 -1971 0
2112 -750 0
2113 -660 -2112 0
-2113 660 0
-2113 2112 0
-2114 6 2113 0
2114 -6 0
2114 -2113 0
2115 -5 -2114 0
-2115 5 0
-2115 2114 0
-2116 8 2115 0
2116 -8 0
2116 -2115 0
2117 -10 -2116 0
-2117 10 0
-2117 2116 0
2118 -652 -1547 0
-2118 652 0
-2118 1547 0
-2119 1442 2118 0
2119 -1442 0
2119 -2118 0
2120 -1830 -2119 0
-2120 1830 0
-2120 2119 0
-2121 13 2120 0
2121 -13 0
2121 -2120 0
2122 -12 -2121 0
-2122 12 0
-2122 2121 0
-2123 18 2103 2111 2117 2122 14 0
2123 -18 0
2123 -2103 0
2123 -2111 0
2123 -2117 0
2123 -2122 0
2123 -14 0
2124 -22 -2123 0
-2124 22 0
-2124 2123 0
-2125 32 2124 27 29 0
2125 -32 0
2125 -2124 0
2125 -27 0
2125 -29 0
2126 -34 -2125 0
-2126 34 0
-2126 2125 0
2127 -1819 -2058 0
-2127 1819 0
-2127 2058 0
-2128 37 2127 0
2128 -37 0
2128 -2127 0
2129 -36 -2128 0
-2129 36 0
-2129 2128 0
2130 -1722 -1997 0
-2130 1722 0
-2130 1997 0
2131 -1795 -1997 0
-2131 1795 0
-2131 1997 0
-2132 52 2131 0
2132 -52 0
2132 -2131 0
2133 -170 -2132 0
-2133 170 0
-2133 2132 0
-2134 218 221 2130 2133 0
2134 -218 0
2134 -221 0
2134 -2130 0
2134 -2133 0
2135 -220 -2134 0
-2135 220 0
-2135 2134 0
-2136 18 229 1992 11 14 0
2136 -18 0
2136 -229 0
2136 -1992 0
2136 -11 0
2136 -14 0
2137 -22 -2136 0
-2137 22 0
-2137 2136 0
-2138 32 2137 27 29 0
2138 -32 0
2138 -2137 0
2138 -27 0
2138 -29 0
2139 -1440 -2138 0
-2139 1440 0
-2139 2138 0
-2140 1442 2139 0
2140 -1442 0
2140 -2139 0
2141 -1819 -2140 0
-2141 1819 0
-2141 2140 0
-2142 37 2141 0
2142 -37 0
2142 -2141 0
2143 -308 -2142 0
-2143 308 0
-2143 2142 0
-2144 18 229 1992 14 0
2144 -18 0
2144 -229 0
2144 -1992 0
2144 -14 0
2145 -22 -2144 0
-2145 22 0
-2145 2144 0
-2146 32 2145 27 29 0
2146 -32 0
2146 -2145 0
2146 -27 0
2146 -29 0
2147 -1440 -2146 0
-2147 1440 0
-2147 2146 0
-2148 1442 2147 0
2148 -1442 0
2148 -2147 0
2149 -1830 -2148 0
-2149 1830 0
-2149 2148 0
-2150 13 2149 0
2150 -13 0
2150 -2149 0
2151 -457 -2150 0
-2151 457 0
-2151 2150 0
2152 -230 -2108 0
-2152 230 0
-2152 2108 0
-2153 18 2152 1992 1837 14 0
2153 -18 0
2153 -2152 0
2153 -1992 0
2153 -1837 0
2153 -14 0
2154 -22 -2153 0
-2154 22 0
-2154 2153 0
-2155 32 2154 27 29 0
2155 -32 0
2155 -2154 0
2155 -27 0
2155 -29 0
2156 -644 -2155 0
-2156 644 0
-2156 2155 0
-2157 646 748 2156 0
2157 -646 0
2157 -748 0
2157 -2156 0
2158 -648 -2157 0
-2158 648 0
-2158 2157 0
-2159 650 2135 2143 654 1512 2151 2158 0
2159 -650 0
2159 -2135 0
2159 -2143 0
2159 -654 0
2159 -1512 0
2159 -2151 0
2159 -2158 0
2160 -660 -2159 0
-2160 660 0
-2160 2159 0
-2161 6 2160 0
2161 -6 0
2161 -2160 0
2162 -39 -2161 0
-2162 39 0
-2162 2161 0
2163 -1722 -1935 0
-2163 1722 0
-2163 1935 0
2164 -170 -2035 0
-2164 170 0
-2164 2035 0
-2165 218 221 2163 2164 0
2165 -218 0
2165 -221 0
2165 -2163 0
2165 -2164 0
2166 -237 -2165 0
-2166 237 0
-2166 2165 0
-2167 45 2166 0
2167 -45 0
2167 -2166 0
2168 -44 -2167 0
-2168 44 0
-2168 2167 0
-2169 47 40 2168 0
2169 -47 0
2169 -40 0
2169 -2168 0
2170 -49 -2169 0
-2170 49 0
-2170 2169 0
2171 -1846 -2058 0
-2171 1846 0
-2171 2058 0
2172 -230 -1100 0
-2172 230 0
-2172 1100 0
-2173 18 2172 1565 1567 11 14 0
2173 -18 0
2173 -2172 0
2173 -1565 0
2173 -1567 0
2173 -11 0
2173 -14 0
2174 -22 -2173 0
-2174 22 0
-2174 2173 0
-2175 32 2174 27 29 0
2175 -32 0
2175 -2174 0
2175 -27 0
2175 -29 0
2176 -1440 -2175 0
-2176 1440 0
-2176 2175 0
-2177 1442 2054 2176 0
2177 -1442 0
2177 -2054 0
2177 -2176 0
2178 -1795 -2177 0
-2178 1795 0
-2178 2177 0
-2179 218 221 2069 0
2179 -218 0
2179 -221 0
2179 -2069 0
2180 -220 -2179 0
-2180 220 0
-2180 2179 0
2181 -1440 -2049 0
-2181 1440 0
-2181 2049 0
-2182 1442 2181 0
2182 -1442 0
2182 -2181 0
2183 -1819 -2182 0
-2183 1819 0
-2183 2182 0
-2184 37 2183 0
2184 -37 0
2184 -2183 0
2185 -308 -2184 0
-2185 308 0
-2185 2184 0
-2186 18 229 1445 14 0
2186 -18 0
2186 -229 0
2186 -1445 0
2186 -14 0
2187 -22 -2186 0
-2187 22 0
-2187 2186 0
-2188 32 2187 27 29 0
2188 -32 0
2188 -2187 0
2188 -27 0
2188 -29 0
2189 -1440 -2188 0
-2189 1440 0
-2189 2188 0
-2190 1442 2189 0
2190 -1442 0
2190 -2189 0
2191 -1830 -2190 0
-2191 1830 0
-2191 2190 0
-2192 13 2191 0
2192 -13 0
2192 -2191 0
2193 -457 -2192 0
-2193 457 0
-2193 2192 0
-2194 218 221 2104 0
2194 -218 0
2194 -221 0
2194 -2104 0
2195 -230 -2194 0
-2195 230 0
-2195 2194 0
-2196 18 2195 1445 1837 14 0
2196 -18 0
2196 -2195 0
2196 -1445 0
2196 -1837 0
2196 -14 0
2197 -22 -2196 0
-2197 22 0
-2197 2196 0
-2198 32 2197 27 29 0
2198 -32 0
2198 -2197 0
2198 -27 0
2198 -29 0
2199 -644 -2198 0
-2199 644 0
-2199 2198 0
-2200 646 748 2199 0
2200 -646 0
2200 -748 0
2200 -2199 0
2201 -648 -2200 0
-2201 648 0
-2201 2200 0
-2202 650 2180 2185 654 1115 2193 2201 0
2202 -650 0
2202 -2180 0
2202 -2185 0
2202 -654 0
2202 -1115 0
2202 -2193 0
2202 -2201 0
2203 -666 -2202 0
-2203 666 0
-2203 2202 0
-2204 52 2178 2203 0
2204 -52 0
2204 -2178 0
2204 -2203 0
2205 -51 -2204 0
-2205 51 0
-2205 2204 0
2206 -54 -2125 0
-2206 54 0
-2206 2125 0
-2207 56 2171 2205 2206 0
2207 -56 0
2207 -2171 0
2207 -2205 0
2207 -2206 0
2208 -58 -2207 0
-2208 58 0
-2208 2207 0
-2209 60 2208 0
2209 -60 0
2209 -2208 0
2210 -62 -2209 0
-2210 62 0
-2210 2209 0
-2211 66 2059 2096 2126 2129 2162 2170 2210 63 0
2211 -66 0
2211 -2059 0
2211 -2096 0
2211 -2126 0
2211 -2129 0
2211 -2162 0
2211 -2170 0
2211 -2210 0
2211 -63 0
2212 -68 -2211 0
-2212 68 0
-2212 2211 0
-2213 70 124 2212 0
2213 -70 0
2213 -124 0
2213 -2212 0
2214 -72 -2213 0
-2214 72 0
-2214 2213 0
-2215 18 253 1445 140 11 143 0
2215 -18 0
2215 -253 0
2215 -1445 0
2215 -140 0
2215 -11 0
2215 -143 0
2216 -22 -2215 0
-2216 22 0
-2216 2215 0
-2217 32 2216 147 150 151 0
2217 -32 0
2217 -2216 0
2217 -147 0
2217 -150 0
2217 -151 0
2218 -644 -2217 0
-2218 644 0
-2218 2217 0
-2219 646 748 2218 0
2219 -646 0
2219 -748 0
2219 -2218 0
2220 -648 -2219 0
-2220 648 0
-2220 2219 0
-2221 650 904 653 759 1115 456 2220 0
2221 -650 0
2221 -904 0
2221 -653 0
2221 -759 0
2221 -1115 0
2221 -456 0
2221 -2220 0
2222 -652 -2221 0
-2222 652 0
-2222 2221 0
-2223 650 653 759 1115 456 750 0
2223 -650 0
2223 -653 0
2223 -759 0
2223 -1115 0
2223 -456 0
2223 -750 0
2224 -666 -2223 0
-2224 666 0
-2224 2223 0
-2225 52 2224 0
2225 -52 0
2225 -2224 0
2226 -170 -2225 0
-2226 170 0
-2226 2225 0
-2227 218 221 2226 251 0
2227 -218 0
2227 -221 0
2227 -2226 0
2227 -251 0
2228 -230 -2227 0
-2228 230 0
-2228 2227 0
-2229 650 904 653 759 1115 456 750 0
2229 -650 0
2229 -904 0
2229 -653 0
2229 -759 0
2229 -1115 0
2229 -456 0
2229 -750 0
2230 -854 -2229 0
-2230 854 0
-2230 2229 0
-2231 8 1212 0
2231 -8 0
2231 -1212 0
2232 -10 -2231 0
-2232 10 0
-2232 2231 0
-2233 18 2228 2230 2232 140 11 143 0
2233 -18 0
2233 -2228 0
2233 -2230 0
2233 -2232 0
2233 -140 0
2233 -11 0
2233 -143 0
2234 -22 -2233 0
-2234 22 0
-2234 2233 0
-2235 32 2234 147 150 151 0
2235 -32 0
2235 -2234 0
2235 -147 0
2235 -150 0
2235 -151 0
2236 -1440 -2235 0
-2236 1440 0
-2236 2235 0
-2237 1442 2222 2236 0
2237 -1442 0
2237 -2222 0
2237 -2236 0
2238 -1825 -2237 0
-2238 1825 0
-2238 2237 0
-2239 32 147 150 151 0
2239 -32 0
2239 -147 0
2239 -150 0
2239 -151 0
2240 -644 -2239 0
-2240 644 0
-2240 2239 0
-2241 646 748 2240 0
2241 -646 0
2241 -748 0
2241 -2240 0
2242 -648 -2241 0
-2242 648 0
-2242 2241 0
-2243 650 653 759 1115 456 2242 0
2243 -650 0
2243 -653 0
2243 -759 0
2243 -1115 0
2243 -456 0
2243 -2242 0
2244 -652 -2243 0
-2244 652 0
-2244 2243 0
2245 -1440 -2239 0
-2245 1440 0
-2245 2239 0
-2246 1442 2244 2245 0
2246 -1442 0
2246 -2244 0
2246 -2245 0
2247 -1722 -2246 0
-2247 1722 0
-2247 2246 0
2248 -1795 -2246 0
-2248 1795 0
-2248 2246 0
2249 -1819 -2246 0
-2249 1819 0
-2249 2246 0
-2250 37 2249 0
2250 -37 0
2250 -2249 0
2251 -308 -2250 0
-2251 308 0
-2251 2250 0
2252 -1830 -2246 0
-2252 1830 0
-2252 2246 0
-2253 13 2252 0
2253 -13 0
2253 -2252 0
2254 -457 -2253 0
-2254 457 0
-2254 2253 0
-2255 650 2251 759 1115 2254 2242 0
2255 -650 0
2255 -2251 0
2255 -759 0
2255 -1115 0
2255 -2254 0
2255 -2242 0
2256 -666 -2255 0
-2256 666 0
-2256 2255 0
-2257 52 2248 2256 0
2257 -52 0
2257 -2248 0
2257 -2256 0
2258 -170 -2257 0
-2258 170 0
-2258 2257 0
-2259 218 221 2247 2258 251 0
2259 -218 0
2259 -221 0
2259 -2247 0
2259 -2258 0
2259 -251 0
2260 -230 -2259 0
-2260 230 0
-2260 2259 0
-2261 52 2248 0
2261 -52 0
2261 -2248 0
2262 -170 -2261 0
-2262 170 0
-2262 2261 0
-2263 218 221 2247 2262 251 0
2263 -218 0
2263 -221 0
2263 -2247 0
2263 -2262 0
2263 -251 0
2264 -220 -2263 0
-2264 220 0
-2264 2263 0
-2265 1442 2245 0
2265 -1442 0
2265 -2245 0
2266 -1819 -2265 0
-2266 1819 0
-2266 2265 0
-2267 37 2266 0
2267 -37 0
2267 -2266 0
2268 -308 -2267 0
-2268 308 0
-2268 2267 0
2269 -1830 -2265 0
-2269 1830 0
-2269 2265 0
-2270 13 2269 0
2270 -13 0
2270 -2269 0
2271 -457 -2270 0
-2271 457 0
-2271 2270 0
-2272 650 2264 2268 759 1115 2271 2242 0
2272 -650 0
2272 -2264 0
2272 -2268 0
2272 -759 0
2272 -1115 0
2272 -2271 0
2272 -2242 0
2273 -854 -2272 0
-2273 854 0
-2273 2272 0
2274 -1722 -2265 0
-2274 1722 0
-2274 2265 0
2275 -1795 -2265 0
-2275 1795 0
-2275 2265 0
-2276 52 2275 0
2276 -52 0
2276 -2275 0
2277 -170 -2276 0
-2277 170 0
-2277 2276 0
-2278 218 221 2274 2277 251 0
2278 -218 0
2278 -221 0
2278 -2274 0
2278 -2277 0
2278 -251 0
2279 -220 -2278 0
-2279 220 0
-2279 2278 0
-2280 650 2279 2268 759 2271 2242 0
2280 -650 0
2280 -2279 0
2280 -2268 0
2280 -759 0
2280 -2271 0
2280 -2242 0
2281 -660 -2280 0
-2281 660 0
-2281 2280 0
-2282 6 2281 0
2282 -6 0
2282 -2281 0
2283 -5 -2282 0
-2283 5 0
-2283 2282 0
-2284 8 2283 0
2284 -8 0
2284 -2283 0
2285 -10 -2284 0
-2285 10 0
-2285 2284 0
-2286 650 904 653 759 1115 456 2242 0
2286 -650 0
2286 -904 0
2286 -653 0
2286 -759 0
2286 -1115 0
2286 -456 0
2286 -2242 0
2287 -652 -2286 0
-2287 652 0
-2287 2286 0
-2288 1442 2287 2245 0
2288 -1442 0
2288 -2287 0
2288 -2245 0
2289 -1830 -2288 0
-2289 1830 0
-2289 2288 0
-2290 13 2289 0
2290 -13 0
2290 -2289 0
2291 -12 -2290 0
-2291 12 0
-2291 2290 0
-2292 18 2260 2273 2285 140 2291 143 0
2292 -18 0
2292 -2260 0
2292 -2273 0
2292 -2285 0
2292 -140 0
2292 -2291 0
2292 -143 0
2293 -20 -2292 0
-2293 20 0
-2293 2292 0
2294 -652 -2223 0
-2294 652 0
-2294 2223 0
-2295 1442 2294 0
2295 -1442 0
2295 -2294 0
2296 -1722 -2295 0
-2296 1722 0
-2296 2295 0
2297 -1795 -2295 0
-2297 1795 0
-2297 2295 0
-2298 650 1970 759 1115 1971 750 0
2298 -650 0
2298 -1970 0
2298 -759 0
2298 -1115 0
2298 -1971 0
2298 -750 0
2299 -666 -2298 0
-2299 666 0
-2299 2298 0
-2300 52 2297 2299 0
2300 -52 0
2300 -2297 0
2300 -2299 0
2301 -170 -2300 0
-2301 170 0
-2301 2300 0
-2302 218 221 2296 2301 251 0
2302 -218 0
2302 -221 0
2302 -2296 0
2302 -2301 0
2302 -251 0
2303 -230 -2302 0
-2303 230 0
-2303 2302 0
-2304 650 2279 1970 759 1115 1971 750 0
2304 -650 0
2304 -2279 0
2304 -1970 0
2304 -759 0
2304 -1115 0
2304 -1971 0
2304 -750 0
2305 -854 -2304 0
-2305 854 0
-2305 2304 0
-2306 650 2279 1970 759 1971 750 0
2306 -650 0
2306 -2279 0
2306 -1970 0
2306 -759 0
2306 -1971 0
2306 -750 0
2307 -660 -2306 0
-2307 660 0
-2307 2306 0
-2308 6 2307 0
2308 -6 0
2308 -2307 0
2309 -5 -2308 0
-2309 5 0
-2309 2308 0
-2310 8 2309 0
2310 -8 0
2310 -2309 0
2311 -10 -2310 0
-2311 10 0
-2311 2310 0
2312 -652 -2229 0
-2312 652 0
-2312 2229 0
-2313 1442 2312 0
2313 -1442 0
2313 -2312 0
2314 -1830 -2313 0
-2314 1830 0
-2314 2313 0
-2315 13 2314 0
2315 -13 0
2315 -2314 0
2316 -12 -2315 0
-2316 12 0
-2316 2315 0
-2317 18 2303 2305 2311 140 2316 143 0
2317 -18 0
2317 -2303 0
2317 -2305 0
2317 -2311 0
2317 -140 0
2317 -2316 0
2317 -143 0
2318 -22 -2317 0
-2318 22 0
-2318 2317 0
-2319 32 2318 147 150 151 0
2319 -32 0
2319 -2318 0
2319 -147 0
2319 -150 0
2319 -151 0
2320 -34 -2319 0
-2320 34 0
-2320 2319 0
2321 -1819 -2237 0
-2321 1819 0
-2321 2237 0
-2322 37 2321 0
2322 -37 0
2322 -2321 0
2323 -36 -2322 0
-2323 36 0
-2323 2322 0
-2324 18 1992 140 11 143 0
2324 -18 0
2324 -1992 0
2324 -140 0
2324 -11 0
2324 -143 0
2325 -22 -2324 0
-2325 22 0
-2325 2324 0
-2326 32 2325 147 150 151 0
2326 -32 0
2326 -2325 0
2326 -147 0
2326 -150 0
2326 -151 0
2327 -1440 -2326 0
-2327 1440 0
-2327 2326 0
-2328 1442 2327 0
2328 -1442 0
2328 -2327 0
2329 -1722 -2328 0
-2329 1722 0
-2329 2328 0
2330 -1795 -2328 0
-2330 1795 0
-2330 2328 0
-2331 52 2330 0
2331 -52 0
2331 -2330 0
2332 -170 -2331 0
-2332 170 0
-2332 2331 0
-2333 218 221 2329 2332 251 0
2333 -218 0
2333 -221 0
2333 -2329 0
2333 -2332 0
2333 -251 0
2334 -220 -2333 0
-2334 220 0
-2334 2333 0
-2335 18 253 1992 140 11 143 0
2335 -18 0
2335 -253 0
2335 -1992 0
2335 -140 0
2335 -11 0
2335 -143 0
2336 -22 -2335 0
-2336 22 0
-2336 2335 0
-2337 32 2336 147 150 151 0
2337 -32 0
2337 -2336 0
2337 -147 0
2337 -150 0
2337 -151 0
2338 -1440 -2337 0
-2338 1440 0
-2338 2337 0
-2339 1442 2338 0
2339 -1442 0
2339 -2338 0
2340 -1819 -2339 0
-2340 1819 0
-2340 2339 0
-2341 37 2340 0
2341 -37 0
2341 -2340 0
2342 -308 -2341 0
-2342 308 0
-2342 2341 0
-2343 18 253 1992 140 143 0
2343 -18 0
2343 -253 0
2343 -1992 0
2343 -140 0
2343 -143 0
2344 -22 -2343 0
-2344 22 0
-2344 2343 0
-2345 32 2344 147 150 151 0
2345 -32 0
2345 -2344 0
2345 -147 0
2345 -150 0
2345 -151 0
2346 -1440 -2345 0
-2346 1440 0
-2346 2345 0
-2347 1442 2346 0
2347 -1442 0
2347 -2346 0
2348 -1830 -2347 0
-2348 1830 0
-2348 2347 0
-2349 13 2348 0
2349 -13 0
2349 -2348 0
2350 -457 -2349 0
-2350 457 0
-2350 2349 0
2351 -230 -2278 0
-2351 230 0
-2351 2278 0
-2352 18 2351 1992 140 1837 143 0
2352 -18 0
2352 -2351 0
2352 -1992 0
2352 -140 0
2352 -1837 0
2352 -143 0
2353 -22 -2352 0
-2353 22 0
-2353 2352 0
-2354 32 2353 147 150 151 0
2354 -32 0
2354 -2353 0
2354 -147 0
2354 -150 0
2354 -151 0
2355 -644 -2354 0
-2355 644 0
-2355 2354 0
-2356 646 748 2355 0
2356 -646 0
2356 -748 0
2356 -2355 0
2357 -648 -2356 0
-2357 648 0
-2357 2356 0
-2358 650 2334 2342 759 1512 2350 2357 0
2358 -650 0
2358 -2334 0
2358 -2342 0
2358 -759 0
2358 -1512 0
2358 -2350 0
2358 -2357 0
2359 -660 -2358 0
-2359 660 0
-2359 2358 0
-2360 6 2359 0
2360 -6 0
2360 -2359 0
2361 -39 -2360 0
-2361 39 0
-2361 2360 0
-2362 18 1445 140 11 143 0
2362 -18 0
2362 -1445 0
2362 -140 0
2362 -11 0
2362 -143 0
2363 -22 -2362 0
-2363 22 0
-2363 2362 0
-2364 32 2363 147 150 151 0
2364 -32 0
2364 -2363 0
2364 -147 0
2364 -150 0
2364 -151 0
2365 -644 -2364 0
-2365 644 0
-2365 2364 0
-2366 646 748 2365 0
2366 -646 0
2366 -748 0
2366 -2365 0
2367 -648 -2366 0
-2367 648 0
-2367 2366 0
-2368 650 653 759 1115 456 2367 0
2368 -650 0
2368 -653 0
2368 -759 0
2368 -1115 0
2368 -456 0
2368 -2367 0
2369 -652 -2368 0
-2369 652 0
-2369 2368 0
2370 -854 -2223 0
-2370 854 0
-2370 2223 0
-2371 18 2370 2232 140 11 143 0
2371 -18 0
2371 -2370 0
2371 -2232 0
2371 -140 0
2371 -11 0
2371 -143 0
2372 -22 -2371 0
-2372 22 0
-2372 2371 0
-2373 32 2372 147 150 151 0
2373 -32 0
2373 -2372 0
2373 -147 0
2373 -150 0
2373 -151 0
2374 -1440 -2373 0
-2374 1440 0
-2374 2373 0
-2375 1442 2369 2374 0
2375 -1442 0
2375 -2369 0
2375 -2374 0
2376 -1722 -2375 0
-2376 1722 0
-2376 2375 0
2377 -1795 -2375 0
-2377 1795 0
-2377 2375 0
2378 -1440 -2364 0
-2378 1440 0
-2378 2364 0
-2379 1442 2378 0
2379 -1442 0
2379 -2378 0
2380 -1819 -2379 0
-2380 1819 0
-2380 2379 0
-2381 37 2380 0
2381 -37 0
2381 -2380 0
2382 -308 -2381 0
-2382 308 0
-2382 2381 0
-2383 18 1445 140 143 0
2383 -18 0
2383 -1445 0
2383 -140 0
2383 -143 0
2384 -22 -2383 0
-2384 22 0
-2384 2383 0
-2385 32 2384 147 150 151 0
2385 -32 0
2385 -2384 0
2385 -147 0
2385 -150 0
2385 -151 0
2386 -1440 -2385 0
-2386 1440 0
-2386 2385 0
-2387 1442 2386 0
2387 -1442 0
2387 -2386 0
2388 -1830 -2387 0
-2388 1830 0
-2388 2387 0
-2389 13 2388 0
2389 -13 0
2389 -2388 0
2390 -457 -2389 0
-2390 457 0
-2390 2389 0
-2391 18 1445 140 1837 143 0
2391 -18 0
2391 -1445 0
2391 -140 0
2391 -1837 0
2391 -143 0
2392 -22 -2391 0
-2392 22 0
-2392 2391 0
-2393 32 2392 147 150 151 0
2393 -32 0
2393 -2392 0
2393 -147 0
2393 -150 0
2393 -151 0
2394 -644 -2393 0
-2394 644 0
-2394 2393 0
-2395 646 748 2394 0
2395 -646 0
2395 -748 0
2395 -2394 0
2396 -648 -2395 0
-2396 648 0
-2396 2395 0
-2397 650 2382 759 1115 2390 2396 0
2397 -650 0
2397 -2382 0
2397 -759 0
2397 -1115 0
2397 -2390 0
2397 -2396 0
2398 -666 -2397 0
-2398 666 0
-2398 2397 0
-2399 52 2377 2398 0
2399 -52 0
2399 -2377 0
2399 -2398 0
2400 -170 -2399 0
-2400 170 0
-2400 2399 0
-2401 218 221 2376 2400 251 0
2401 -218 0
2401 -221 0
2401 -2376 0
2401 -2400 0
2401 -251 0
2402 -237 -2401 0
-2402 237 0
-2402 2401 0
-2403 45 2402 0
2403 -45 0
2403 -2402 0
2404 -44 -2403 0
-2404 44 0
-2404 2403 0
-2405 47 154 40 2404 0
2405 -47 0
2405 -154 0
2405 -40 0
2405 -2404 0
2406 -49 -2405 0
-2406 49 0
-2406 2405 0
2407 -1846 -2237 0
-2407 1846 0
-2407 2237 0
-2408 218 221 251 0
2408 -218 0
2408 -221 0
2408 -251 0
2409 -230 -2408 0
-2409 230 0
-2409 2408 0
-2410 18 2409 2230 2232 140 11 143 0
2410 -18 0
2410 -2409 0
2410 -2230 0
2410 -2232 0
2410 -140 0
2410 -11 0
2410 -143 0
2411 -22 -2410 0
-2411 22 0
-2411 2410 0
-2412 32 2411 147 150 151 0
2412 -32 0
2412 -2411 0
2412 -147 0
2412 -150 0
2412 -151 0
2413 -1440 -2412 0
-2413 1440 0
-2413 2412 0
-2414 1442 2222 2413 0
2414 -1442 0
2414 -2222 0
2414 -2413 0
2415 -1795 -2414 0
-2415 1795 0
-2415 2414 0
2416 -1722 -2379 0
-2416 1722 0
-2416 2379 0
-2417 218 221 2416 251 0
2417 -218 0
2417 -221 0
2417 -2416 0
2417 -251 0
2418 -220 -2417 0
-2418 220 0
-2418 2417 0
2419 -1440 -2217 0
-2419 1440 0
-2419 2217 0
-2420 1442 2419 0
2420 -1442 0
2420 -2419 0
2421 -1819 -2420 0
-2421 1819 0
-2421 2420 0
-2422 37 2421 0
2422 -37 0
2422 -2421 0
2423 -308 -2422 0
-2423 308 0
-2423 2422 0
-2424 18 253 1445 140 143 0
2424 -18 0
2424 -253 0
2424 -1445 0
2424 -140 0
2424 -143 0
2425 -22 -2424 0
-2425 22 0
-2425 2424 0
-2426 32 2425 147 150 151 0
2426 -32 0
2426 -2425 0
2426 -147 0
2426 -150 0
2426 -151 0
2427 -1440 -2426 0
-2427 1440 0
-2427 2426 0
-2428 1442 2427 0
2428 -1442 0
2428 -2427 0
2429 -1830 -2428 0
-2429 1830 0
-2429 2428 0
-2430 13 2429 0
2430 -13 0
2430 -2429 0
2431 -457 -2430 0
-2431 457 0
-2431 2430 0
-2432 218 221 2104 251 0
2432 -218 0
2432 -221 0
2432 -2104 0
2432 -251 0
2433 -230 -2432 0
-2433 230 0
-2433 2432 0
-2434 18 2433 1445 140 1837 143 0
2434 -18 0
2434 -2433 0
2434 -1445 0
2434 -140 0
2434 -1837 0
2434 -143 0
2435 -22 -2434 0
-2435 22 0
-2435 2434 0
-2436 32 2435 147 150 151 0
2436 -32 0
2436 -2435 0
2436 -147 0
2436 -150 0
2436 -151 0
2437 -644 -2436 0
-2437 644 0
-2437 2436 0
-2438 646 748 2437 0
2438 -646 0
2438 -748 0
2438 -2437 0
2439 -648 -2438 0
-2439 648 0
-2439 2438 0
-2440 650 2418 2423 759 1115 2431 2439 0
2440 -650 0
2440 -2418 0
2440 -2423 0
2440 -759 0
2440 -1115 0
2440 -2431 0
2440 -2439 0
2441 -666 -2440 0
-2441 666 0
-2441 2440 0
-2442 52 2415 2441 0
2442 -52 0
2442 -2415 0
2442 -2441 0
2443 -51 -2442 0
-2443 51 0
-2443 2442 0
2444 -54 -2319 0
-2444 54 0
-2444 2319 0
-2445 56 2407 2443 2444 0
2445 -56 0
2445 -2407 0
2445 -2443 0
2445 -2444 0
2446 -58 -2445 0
-2446 58 0
-2446 2445 0
-2447 60 2446 0
2447 -60 0
2447 -2446 0
2448 -62 -2447 0
-2448 62 0
-2448 2447 0
-2449 66 2238 2293 2320 2323 2361 2406 2448 162 0
2449 -66 0
2449 -2238 0
2449 -2293 0
2449 -2320 0
2449 -2323 0
2449 -2361 0
2449 -2406 0
2449 -2448 0
2449 -162 0
2450 -108 -2449 0
-2450 108 0
-2450 2449 0
-2451 66 1621 1624 35 38 272 1629 63 0
2451 -66 0
2451 -1621 0
2451 -1624 0
2451 -35 0
2451 -38 0
2451 -272 0
2451 -1629 0
2451 -63 0
2452 -68 -2451 0
-2452 68 0
-2452 2451 0
-2453 70 124 2452 0
2453 -70 0
2453 -124 0
2453 -2452 0
2454 -82 -2453 0
-2454 82 0
-2454 2453 0
-2455 16 2454 0
2455 -16 0
2455 -2454 0
2456 -24 -2455 0
-2456 24 0
-2456 2455 0
-2457 26 2456 0
2457 -26 0
2457 -2456 0
2458 -376 -2457 0
-2458 376 0
-2458 2457 0
2459 -80 -548 0
-2459 80 0
-2459 548 0
2460 -82 -548 0
-2460 82 0
-2460 548 0
-2461 16 2460 0
2461 -16 0
2461 -2460 0
2462 -15 -2461 0
-2462 15 0
-2462 2461 0
-2463 18 1445 2459 11 2462 0
2463 -18 0
2463 -1445 0
2463 -2459 0
2463 -11 0
2463 -2462 0
2464 -22 -2463 0
-2464 22 0
-2464 2463 0
-2465 66 1447 35 38 272 497 63 0
2465 -66 0
2465 -1447 0
2465 -35 0
2465 -38 0
2465 -272 0
2465 -497 0
2465 -63 0
2466 -68 -2465 0
-2466 68 0
-2466 2465 0
-2467 70 124 2466 0
2467 -70 0
2467 -124 0
2467 -2466 0
2468 -89 -2467 0
-2468 89 0
-2468 2467 0
-2469 66 1621 35 38 272 497 63 0
2469 -66 0
2469 -1621 0
2469 -35 0
2469 -38 0
2469 -272 0
2469 -497 0
2469 -63 0
2470 -68 -2469 0
-2470 68 0
-2470 2469 0
-2471 70 124 2470 0
2471 -70 0
2471 -124 0
2471 -2470 0
2472 -82 -2471 0
-2472 82 0
-2472 2471 0
-2473 16 2472 0
2473 -16 0
2473 -2472 0
2474 -24 -2473 0
-2474 24 0
-2474 2473 0
-2475 26 2474 0
2475 -26 0
2475 -2474 0
2476 -28 -2475 0
-2476 28 0
-2476 2475 0
2477 -30 -2473 0
-2477 30 0
-2477 2473 0
-2478 32 2464 2468 2476 2477 0
2478 -32 0
2478 -2464 0
2478 -2468 0
2478 -2476 0
2478 -2477 0
2479 -644 -2478 0
-2479 644 0
-2479 2478 0
-2480 646 748 2479 0
2480 -646 0
2480 -748 0
2480 -2479 0
2481 -648 -2480 0
-2481 648 0
-2481 2480 0
-2482 650 653 2458 1115 456 2481 0
2482 -650 0
2482 -653 0
2482 -2458 0
2482 -1115 0
2482 -456 0
2482 -2481 0
2483 -652 -2482 0
-2483 652 0
-2483 2482 0
2484 -24 -2461 0
-2484 24 0
-2484 2461 0
-2485 26 2484 0
2485 -26 0
2485 -2484 0
2486 -376 -2485 0
-2486 376 0
-2486 2485 0
-2487 650 653 2486 1115 456 750 0
2487 -650 0
2487 -653 0
2487 -2486 0
2487 -1115 0
2487 -456 0
2487 -750 0
2488 -854 -2487 0
-2488 854 0
-2488 2487 0
-2489 650 653 2486 456 750 0
2489 -650 0
2489 -653 0
2489 -2486 0
2489 -456 0
2489 -750 0
2490 -660 -2489 0
-2490 660 0
-2490 2489 0
-2491 6 2490 0
2491 -6 0
2491 -2490 0
2492 -5 -2491 0
-2492 5 0
-2492 2491 0
-2493 8 2492 0
2493 -8 0
2493 -2492 0
2494 -10 -2493 0
-2494 10 0
-2494 2493 0
-2495 66 35 1516 272 1521 63 0
2495 -66 0
2495 -35 0
2495 -1516 0
2495 -272 0
2495 -1521 0
2495 -63 0
2496 -68 -2495 0
-2496 68 0
-2496 2495 0
-2497 70 124 2496 0
2497 -70 0
2497 -124 0
2497 -2496 0
2498 -80 -2497 0
-2498 80 0
-2498 2497 0
2499 -82 -2497 0
-2499 82 0
-2499 2497 0
-2500 16 2499 0
2500 -16 0
2500 -2499 0
2501 -15 -2500 0
-2501 15 0
-2501 2500 0
-2502 18 2488 2494 2498 11 2501 0
2502 -18 0
2502 -2488 0
2502 -2494 0
2502 -2498 0
2502 -11 0
2502 -2501 0
2503 -22 -2502 0
-2503 22 0
-2503 2502 0
-2504 66 1684 35 1516 272 1521 63 0
2504 -66 0
2504 -1684 0
2504 -35 0
2504 -1516 0
2504 -272 0
2504 -1521 0
2504 -63 0
2505 -68 -2504 0
-2505 68 0
-2505 2504 0
-2506 70 124 2505 0
2506 -70 0
2506 -124 0
2506 -2505 0
2507 -89 -2506 0
-2507 89 0
-2507 2506 0
-2508 66 1696 35 1588 272 1701 63 0
2508 -66 0
2508 -1696 0
2508 -35 0
2508 -1588 0
2508 -272 0
2508 -1701 0
2508 -63 0
2509 -68 -2508 0
-2509 68 0
-2509 2508 0
-2510 70 124 2509 0
2510 -70 0
2510 -124 0
2510 -2509 0
2511 -82 -2510 0
-2511 82 0
-2511 2510 0
-2512 16 2511 0
2512 -16 0
2512 -2511 0
2513 -24 -2512 0
-2513 24 0
-2513 2512 0
-2514 26 2513 0
2514 -26 0
2514 -2513 0
2515 -28 -2514 0
-2515 28 0
-2515 2514 0
-2516 66 1711 35 1516 272 1521 63 0
2516 -66 0
2516 -1711 0
2516 -35 0
2516 -1516 0
2516 -272 0
2516 -1521 0
2516 -63 0
2517 -68 -2516 0
-2517 68 0
-2517 2516 0
-2518 70 124 2517 0
2518 -70 0
2518 -124 0
2518 -2517 0
2519 -82 -2518 0
-2519 82 0
-2519 2518 0
-2520 16 2519 0
2520 -16 0
2520 -2519 0
2521 -30 -2520 0
-2521 30 0
-2521 2520 0
-2522 32 2503 2507 2515 2521 0
2522 -32 0
2522 -2503 0
2522 -2507 0
2522 -2515 0
2522 -2521 0
2523 -1440 -2522 0
-2523 1440 0
-2523 2522 0
-2524 1442 2483 2523 0
2524 -1442 0
2524 -2483 0
2524 -2523 0
2525 -1722 -2524 0
-2525 1722 0
-2525 2524 0
-2526 66 1621 1624 35 38 272 1726 63 0
2526 -66 0
2526 -1621 0
2526 -1624 0
2526 -35 0
2526 -38 0
2526 -272 0
2526 -1726 0
2526 -63 0
2527 -68 -2526 0
-2527 68 0
-2527 2526 0
-2528 70 124 2527 0
2528 -70 0
2528 -124 0
2528 -2527 0
2529 -82 -2528 0
-2529 82 0
-2529 2528 0
-2530 16 2529 0
2530 -16 0
2530 -2529 0
2531 -24 -2530 0
-2531 24 0
-2531 2530 0
-2532 26 2531 0
2532 -26 0
2532 -2531 0
2533 -376 -2532 0
-2533 376 0
-2533 2532 0
2534 -80 -927 0
-2534 80 0
-2534 927 0
2535 -15 -929 0
-2535 15 0
-2535 929 0
-2536 18 1445 2534 11 2535 0
2536 -18 0
2536 -1445 0
2536 -2534 0
2536 -11 0
2536 -2535 0
2537 -22 -2536 0
-2537 22 0
-2537 2536 0
-2538 66 1447 35 38 272 510 63 0
2538 -66 0
2538 -1447 0
2538 -35 0
2538 -38 0
2538 -272 0
2538 -510 0
2538 -63 0
2539 -68 -2538 0
-2539 68 0
-2539 2538 0
-2540 70 124 2539 0
2540 -70 0
2540 -124 0
2540 -2539 0
2541 -89 -2540 0
-2541 89 0
-2541 2540 0
-2542 66 1621 35 38 272 510 63 0
2542 -66 0
2542 -1621 0
2542 -35 0
2542 -38 0
2542 -272 0
2542 -510 0
2542 -63 0
2543 -68 -2542 0
-2543 68 0
-2543 2542 0
-2544 70 124 2543 0
2544 -70 0
2544 -124 0
2544 -2543 0
2545 -82 -2544 0
-2545 82 0
-2545 2544 0
-2546 16 2545 0
2546 -16 0
2546 -2545 0
2547 -24 -2546 0
-2547 24 0
-2547 2546 0
-2548 26 2547 0
2548 -26 0
2548 -2547 0
2549 -28 -2548 0
-2549 28 0
-2549 2548 0
2550 -30 -2546 0
-2550 30 0
-2550 2546 0
-2551 32 2537 2541 2549 2550 0
2551 -32 0
2551 -2537 0
2551 -2541 0
2551 -2549 0
2551 -2550 0
2552 -644 -2551 0
-2552 644 0
-2552 2551 0
-2553 646 748 2552 0
2553 -646 0
2553 -748 0
2553 -2552 0
2554 -648 -2553 0
-2554 648 0
-2554 2553 0
-2555 650 653 2533 1115 456 2554 0
2555 -650 0
2555 -653 0
2555 -2533 0
2555 -1115 0
2555 -456 0
2555 -2554 0
2556 -652 -2555 0
-2556 652 0
-2556 2555 0
-2557 650 653 932 1115 456 750 0
2557 -650 0
2557 -653 0
2557 -932 0
2557 -1115 0
2557 -456 0
2557 -750 0
2558 -854 -2557 0
-2558 854 0
-2558 2557 0
2559 -660 -933 0
-2559 660 0
-2559 933 0
-2560 6 2559 0
2560 -6 0
2560 -2559 0
2561 -5 -2560 0
-2561 5 0
-2561 2560 0
-2562 8 2561 0
2562 -8 0
2562 -2561 0
2563 -10 -2562 0
-2563 10 0
-2563 2562 0
-2564 66 35 1516 272 510 63 0
2564 -66 0
2564 -35 0
2564 -1516 0
2564 -272 0
2564 -510 0
2564 -63 0
2565 -68 -2564 0
-2565 68 0
-2565 2564 0
-2566 70 124 2565 0
2566 -70 0
2566 -124 0
2566 -2565 0
2567 -80 -2566 0
-2567 80 0
-2567 2566 0
2568 -82 -2566 0
-2568 82 0
-2568 2566 0
-2569 16 2568 0
2569 -16 0
2569 -2568 0
2570 -15 -2569 0
-2570 15 0
-2570 2569 0
-2571 18 2558 2563 2567 11 2570 0
2571 -18 0
2571 -2558 0
2571 -2563 0
2571 -2567 0
2571 -11 0
2571 -2570 0
2572 -22 -2571 0
-2572 22 0
-2572 2571 0
-2573 66 1684 35 1516 272 510 63 0
2573 -66 0
2573 -1684 0
2573 -35 0
2573 -1516 0
2573 -272 0
2573 -510 0
2573 -63 0
2574 -68 -2573 0
-2574 68 0
-2574 2573 0
-2575 70 124 2574 0
2575 -70 0
2575 -124 0
2575 -2574 0
2576 -89 -2575 0
-2576 89 0
-2576 2575 0
-2577 66 1696 35 1588 272 510 63 0
2577 -66 0
2577 -1696 0
2577 -35 0
2577 -1588 0
2577 -272 0
2577 -510 0
2577 -63 0
2578 -68 -2577 0
-2578 68 0
-2578 2577 0
-2579 70 124 2578 0
2579 -70 0
2579 -124 0
2579 -2578 0
2580 -82 -2579 0
-2580 82 0
-2580 2579 0
-2581 16 2580 0
2581 -16 0
2581 -2580 0
2582 -24 -2581 0
-2582 24 0
-2582 2581 0
-2583 26 2582 0
2583 -26 0
2583 -2582 0
2584 -28 -2583 0
-2584 28 0
-2584 2583 0
-2585 66 1711 35 1516 272 510 63 0
2585 -66 0
2585 -1711 0
2585 -35 0
2585 -1516 0
2585 -272 0
2585 -510 0
2585 -63 0
2586 -68 -2585 0
-2586 68 0
-2586 2585 0
-2587 70 124 2586 0
2587 -70 0
2587 -124 0
2587 -2586 0
2588 -82 -2587 0
-2588 82 0
-2588 2587 0
-2589 16 2588 0
2589 -16 0
2589 -2588 0
2590 -30 -2589 0
-2590 30 0
-2590 2589 0
-2591 32 2572 2576 2584 2590 0
2591 -32 0
2591 -2572 0
2591 -2576 0
2591 -2584 0
2591 -2590 0
2592 -1440 -2591 0
-2592 1440 0
-2592 2591 0
-2593 1442 2556 2592 0
2593 -1442 0
2593 -2556 0
2593 -2592 0
2594 -1795 -2593 0
-2594 1795 0
-2594 2593 0
-2595 66 38 272 510 63 0
2595 -66 0
2595 -38 0
2595 -272 0
2595 -510 0
2595 -63 0
2596 -68 -2595 0
-2596 68 0
-2596 2595 0
-2597 70 124 2596 0
2597 -70 0
2597 -124 0
2597 -2596 0
2598 -80 -2597 0
-2598 80 0
-2598 2597 0
2599 -82 -2597 0
-2599 82 0
-2599 2597 0
-2600 16 2599 0
2600 -16 0
2600 -2599 0
2601 -15 -2600 0
-2601 15 0
-2601 2600 0
-2602 18 1445 2598 11 2601 0
2602 -18 0
2602 -1445 0
2602 -2598 0
2602 -11 0
2602 -2601 0
2603 -22 -2602 0
-2603 22 0
-2603 2602 0
-2604 66 1447 38 272 510 63 0
2604 -66 0
2604 -1447 0
2604 -38 0
2604 -272 0
2604 -510 0
2604 -63 0
2605 -68 -2604 0
-2605 68 0
-2605 2604 0
-2606 70 124 2605 0
2606 -70 0
2606 -124 0
2606 -2605 0
2607 -89 -2606 0
-2607 89 0
-2607 2606 0
-2608 66 1621 38 272 510 63 0
2608 -66 0
2608 -1621 0
2608 -38 0
2608 -272 0
2608 -510 0
2608 -63 0
2609 -68 -2608 0
-2609 68 0
-2609 2608 0
-2610 70 124 2609 0
2610 -70 0
2610 -124 0
2610 -2609 0
2611 -82 -2610 0
-2611 82 0
-2611 2610 0
-2612 16 2611 0
2612 -16 0
2612 -2611 0
2613 -24 -2612 0
-2613 24 0
-2613 2612 0
-2614 26 2613 0
2614 -26 0
2614 -2613 0
2615 -28 -2614 0
-2615 28 0
-2615 2614 0
2616 -30 -2612 0
-2616 30 0
-2616 2612 0
-2617 32 2603 2607 2615 2616 0
2617 -32 0
2617 -2603 0
2617 -2607 0
2617 -2615 0
2617 -2616 0
2618 -1440 -2617 0
-2618 1440 0
-2618 2617 0
-2619 1442 2618 0
2619 -1442 0
2619 -2618 0
2620 -1819 -2619 0
-2620 1819 0
-2620 2619 0
-2621 37 2620 0
2621 -37 0
2621 -2620 0
2622 -308 -2621 0
-2622 308 0
-2622 2621 0
-2623 66 1824 1834 1841 1844 38 272 1851 63 0
2623 -66 0
2623 -1824 0
2623 -1834 0
2623 -1841 0
2623 -1844 0
2623 -38 0
2623 -272 0
2623 -1851 0
2623 -63 0
2624 -68 -2623 0
-2624 68 0
-2624 2623 0
-2625 70 124 2624 0
2625 -70 0
2625 -124 0
2625 -2624 0
2626 -82 -2625 0
-2626 82 0
-2626 2625 0
-2627 16 2626 0
2627 -16 0
2627 -2626 0
2628 -24 -2627 0
-2628 24 0
-2628 2627 0
-2629 26 2628 0
2629 -26 0
2629 -2628 0
2630 -376 -2629 0
-2630 376 0
-2630 2629 0
-2631 18 1445 2534 2535 0
2631 -18 0
2631 -1445 0
2631 -2534 0
2631 -2535 0
2632 -22 -2631 0
-2632 22 0
-2632 2631 0
-2633 66 1863 35 38 272 510 63 0
2633 -66 0
2633 -1863 0
2633 -35 0
2633 -38 0
2633 -272 0
2633 -510 0
2633 -63 0
2634 -68 -2633 0
-2634 68 0
-2634 2633 0
-2635 70 124 2634 0
2635 -70 0
2635 -124 0
2635 -2634 0
2636 -89 -2635 0
-2636 89 0
-2636 2635 0
-2637 66 1869 35 38 272 510 63 0
2637 -66 0
2637 -1869 0
2637 -35 0
2637 -38 0
2637 -272 0
2637 -510 0
2637 -63 0
2638 -68 -2637 0
-2638 68 0
-2638 2637 0
-2639 70 124 2638 0
2639 -70 0
2639 -124 0
2639 -2638 0
2640 -82 -2639 0
-2640 82 0
-2640 2639 0
-2641 16 2640 0
2641 -16 0
2641 -2640 0
2642 -24 -2641 0
-2642 24 0
-2642 2641 0
-2643 26 2642 0
2643 -26 0
2643 -2642 0
2644 -28 -2643 0
-2644 28 0
-2644 2643 0
2645 -30 -2641 0
-2645 30 0
-2645 2641 0
-2646 32 2632 2636 2644 2645 0
2646 -32 0
2646 -2632 0
2646 -2636 0
2646 -2644 0
2646 -2645 0
2647 -1440 -2646 0
-2647 1440 0
-2647 2646 0
-2648 1442 2647 0
2648 -1442 0
2648 -2647 0
2649 -1830 -2648 0
-2649 1830 0
-2649 2648 0
-2650 13 2649 0
2650 -13 0
2650 -2649 0
2651 -457 -2650 0
-2651 457 0
-2651 2650 0
-2652 66 1885 1888 38 272 1893 63 0
2652 -66 0
2652 -1885 0
2652 -1888 0
2652 -38 0
2652 -272 0
2652 -1893 0
2652 -63 0
2653 -68 -2652 0
-2653 68 0
-2653 2652 0
-2654 70 124 2653 0
2654 -70 0
2654 -124 0
2654 -2653 0
2655 -80 -2654 0
-2655 80 0
-2655 2654 0
2656 -82 -2654 0
-2656 82 0
-2656 2654 0
-2657 16 2656 0
2657 -16 0
2657 -2656 0
2658 -15 -2657 0
-2658 15 0
-2658 2657 0
-2659 18 1445 2655 1837 2658 0
2659 -18 0
2659 -1445 0
2659 -2655 0
2659 -1837 0
2659 -2658 0
2660 -22 -2659 0
-2660 22 0
-2660 2659 0
-2661 66 1885 1904 1888 38 272 1893 63 0
2661 -66 0
2661 -1885 0
2661 -1904 0
2661 -1888 0
2661 -38 0
2661 -272 0
2661 -1893 0
2661 -63 0
2662 -68 -2661 0
-2662 68 0
-2662 2661 0
-2663 70 124 2662 0
2663 -70 0
2663 -124 0
2663 -2662 0
2664 -89 -2663 0
-2664 89 0
-2664 2663 0
-2665 66 1885 1909 1888 38 272 1893 63 0
2665 -66 0
2665 -1885 0
2665 -1909 0
2665 -1888 0
2665 -38 0
2665 -272 0
2665 -1893 0
2665 -63 0
2666 -68 -2665 0
-2666 68 0
-2666 2665 0
-2667 70 124 2666 0
2667 -70 0
2667 -124 0
2667 -2666 0
2668 -82 -2667 0
-2668 82 0
-2668 2667 0
-2669 16 2668 0
2669 -16 0
2669 -2668 0
2670 -24 -2669 0
-2670 24 0
-2670 2669 0
-2671 26 2670 0
2671 -26 0
2671 -2670 0
2672 -28 -2671 0
-2672 28 0
-2672 2671 0
2673 -30 -2669 0
-2673 30 0
-2673 2669 0
-2674 32 2660 2664 2672 2673 0
2674 -32 0
2674 -2660 0
2674 -2664 0
2674 -2672 0
2674 -2673 0
2675 -644 -2674 0
-2675 644 0
-2675 2674 0
-2676 646 748 2675 0
2676 -646 0
2676 -748 0
2676 -2675 0
2677 -648 -2676 0
-2677 648 0
-2677 2676 0
-2678 650 2622 2630 1115 2651 2677 0
2678 -650 0
2678 -2622 0
2678 -2630 0
2678 -1115 0
2678 -2651 0
2678 -2677 0
2679 -666 -2678 0
-2679 666 0
-2679 2678 0
-2680 52 2594 2679 0
2680 -52 0
2680 -2594 0
2680 -2679 0
2681 -170 -2680 0
-2681 170 0
-2681 2680 0
2682 -854 -2063 0
-2682 854 0
-2682 2063 0
-2683 18 2682 1961 1967 14 0
2683 -18 0
2683 -2682 0
2683 -1961 0
2683 -1967 0
2683 -14 0
2684 -20 -2683 0
-2684 20 0
-2684 2683 0
-2685 66 1936 2684 1988 1991 2018 272 2041 63 0
2685 -66 0
2685 -1936 0
2685 -2684 0
2685 -1988 0
2685 -1991 0
2685 -2018 0
2685 -272 0
2685 -2041 0
2685 -63 0
2686 -68 -2685 0
-2686 68 0
-2686 2685 0
-2687 70 124 2686 0
2687 -70 0
2687 -124 0
2687 -2686 0
2688 -216 -2687 0
-2688 216 0
-2688 2687 0
-2689 218 221 2525 2681 2688 0
2689 -218 0
2689 -221 0
2689 -2525 0
2689 -2681 0
2689 -2688 0
2690 -237 -2689 0
-2690 237 0
-2690 2689 0
-2691 45 2690 0
2691 -45 0
2691 -2690 0
2692 -112 -2691 0
-2692 112 0
-2692 2691 0
-2693 114 1618 2047 2214 2450 109 2692 0
2693 -114 0
2693 -1618 0
2693 -2047 0
2693 -2214 0
2693 -2450 0
2693 -109 0
2693 -2692 0
2694 -178 -2693 0
-2694 178 0
-2694 2693 0
2695 -1619 -2058 0
-2695 1619 0
-2695 2058 0
-2696 646 2030 0
2696 -646 0
2696 -2030 0
2697 -648 -2696 0
-2697 648 0
-2697 2696 0
-2698 650 1941 654 1115 2027 2697 0
2698 -650 0
2698 -1941 0
2698 -654 0
2698 -1115 0
2698 -2027 0
2698 -2697 0
2699 -666 -2698 0
-2699 666 0
-2699 2698 0
-2700 52 2020 2699 0
2700 -52 0
2700 -2020 0
2700 -2699 0
2701 -170 -2700 0
-2701 170 0
-2701 2700 0
-2702 218 221 2163 2701 0
2702 -218 0
2702 -221 0
2702 -2163 0
2702 -2701 0
2703 -227 -2702 0
-2703 227 0
-2703 2702 0
-2704 650 2082 1955 654 1115 1947 1950 0
2704 -650 0
2704 -2082 0
2704 -1955 0
2704 -654 0
2704 -1115 0
2704 -1947 0
2704 -1950 0
2705 -854 -2704 0
-2705 854 0
-2705 2704 0
-2706 18 2068 2705 2088 2094 14 0
2706 -18 0
2706 -2068 0
2706 -2705 0
2706 -2088 0
2706 -2094 0
2706 -14 0
2707 -20 -2706 0
-2707 20 0
-2707 2706 0
-2708 646 2156 0
2708 -646 0
2708 -2156 0
2709 -648 -2708 0
-2709 648 0
-2709 2708 0
-2710 650 2135 2143 654 1512 2151 2709 0
2710 -650 0
2710 -2135 0
2710 -2143 0
2710 -654 0
2710 -1512 0
2710 -2151 0
2710 -2709 0
2711 -660 -2710 0
-2711 660 0
-2711 2710 0
-2712 6 2711 0
2712 -6 0
2712 -2711 0
2713 -39 -2712 0
-2713 39 0
-2713 2712 0
2714 -237 -2702 0
-2714 237 0
-2714 2702 0
-2715 45 2714 0
2715 -45 0
2715 -2714 0
2716 -44 -2715 0
-2716 44 0
-2716 2715 0
-2717 47 40 2716 0
2717 -47 0
2717 -40 0
2717 -2716 0
2718 -49 -2717 0
-2718 49 0
-2718 2717 0
-2719 646 2199 0
2719 -646 0
2719 -2199 0
2720 -648 -2719 0
-2720 648 0
-2720 2719 0
-2721 650 2180 2185 654 1115 2193 2720 0
2721 -650 0
2721 -2180 0
2721 -2185 0
2721 -654 0
2721 -1115 0
2721 -2193 0
2721 -2720 0
2722 -666 -2721 0
-2722 666 0
-2722 2721 0
-2723 52 2178 2722 0
2723 -52 0
2723 -2178 0
2723 -2722 0
2724 -51 -2723 0
-2724 51 0
-2724 2723 0
-2725 56 2171 2724 2206 0
2725 -56 0
2725 -2171 0
2725 -2724 0
2725 -2206 0
2726 -58 -2725 0
-2726 58 0
-2726 2725 0
-2727 60 2726 0
2727 -60 0
2727 -2726 0
2728 -62 -2727 0
-2728 62 0
-2728 2727 0
-2729 66 2059 2707 2126 2129 2713 2718 2728 63 0
2729 -66 0
2729 -2059 0
2729 -2707 0
2729 -2126 0
2729 -2129 0
2729 -2713 0
2729 -2718 0
2729 -2728 0
2729 -63 0
2730 -108 -2729 0
-2730 108 0
-2730 2729 0
2731 -112 -2715 0
-2731 112 0
-2731 2715 0
-2732 114 2695 2703 2730 109 2731 0
2732 -114 0
2732 -2695 0
2732 -2703 0
2732 -2730 0
2732 -109 0
2732 -2731 0
2733 -116 -2732 0
-2733 116 0
-2733 2732 0
-2734 120 2733 117 0
2734 -120 0
2734 -2733 0
2734 -117 0
2735 -125 -2734 0
-2735 125 0
-2735 2734 0
-2736 8 339 0
2736 -8 0
2736 -339 0
2737 -455 -2736 0
-2737 455 0
-2737 2736 0
2738 -10 -2736 0
-2738 10 0
-2738 2736 0
-2739 18 332 2738 11 14 0
2739 -18 0
2739 -332 0
2739 -2738 0
2739 -11 0
2739 -14 0
2740 -22 -2739 0
-2740 22 0
-2740 2739 0
-2741 32 2740 345 27 29 0
2741 -32 0
2741 -2740 0
2741 -345 0
2741 -27 0
2741 -29 0
2742 -644 -2741 0
-2742 644 0
-2742 2741 0
-2743 646 963 2742 0
2743 -646 0
2743 -963 0
2743 -2742 0
2744 -648 -2743 0
-2744 648 0
-2744 2743 0
-2745 650 958 959 960 654 2737 456 2744 0
2745 -650 0
2745 -958 0
2745 -959 0
2745 -960 0
2745 -654 0
2745 -2737 0
2745 -456 0
2745 -2744 0
2746 -652 -2745 0
-2746 652 0
-2746 2745 0
-2747 8 184 0
2747 -8 0
2747 -184 0
2748 -455 -2747 0
-2748 455 0
-2748 2747 0
-2749 650 777 778 654 2748 456 783 0
2749 -650 0
2749 -777 0
2749 -778 0
2749 -654 0
2749 -2748 0
2749 -456 0
2749 -783 0
2750 -666 -2749 0
-2750 666 0
-2750 2749 0
-2751 52 2750 201 0
2751 -52 0
2751 -2750 0
2751 -201 0
2752 -170 -2751 0
-2752 170 0
-2752 2751 0
-2753 218 329 2752 0
2753 -218 0
2753 -329 0
2753 -2752 0
2754 -230 -2753 0
-2754 230 0
-2754 2753 0
-2755 650 958 959 960 654 2737 456 965 0
2755 -650 0
2755 -958 0
2755 -959 0
2755 -960 0
2755 -654 0
2755 -2737 0
2755 -456 0
2755 -965 0
2756 -854 -2755 0
-2756 854 0
-2756 2755 0
-2757 8 1280 0
2757 -8 0
2757 -1280 0
2758 -10 -2757 0
-2758 10 0
-2758 2757 0
-2759 18 2754 2756 2758 11 14 0
2759 -18 0
2759 -2754 0
2759 -2756 0
2759 -2758 0
2759 -11 0
2759 -14 0
2760 -22 -2759 0
-2760 22 0
-2760 2759 0
2761 -191 -1125 0
-2761 191 0
-2761 1125 0
-2762 32 2760 2761 27 29 0
2762 -32 0
2762 -2760 0
2762 -2761 0
2762 -27 0
2762 -29 0
2763 -1440 -2762 0
-2763 1440 0
-2763 2762 0
-2764 1442 2746 2763 0
2764 -1442 0
2764 -2746 0
2764 -2763 0
2765 -1825 -2764 0
-2765 1825 0
-2765 2764 0
2766 -1619 -2060 0
-2766 1619 0
-2766 2060 0
-2767 114 2766 109 111 0
2767 -114 0
2767 -2766 0
2767 -109 0
2767 -111 0
2768 -116 -2767 0
-2768 116 0
-2768 2767 0
-2769 120 2768 117 0
2769 -120 0
2769 -2768 0
2769 -117 0
2770 -122 -2769 0
-2770 122 0
-2770 2769 0
-2771 32 190 27 29 0
2771 -32 0
2771 -190 0
2771 -27 0
2771 -29 0
2772 -644 -2771 0
-2772 644 0
-2772 2771 0
-2773 646 781 2772 0
2773 -646 0
2773 -781 0
2773 -2772 0
2774 -648 -2773 0
-2774 648 0
-2774 2773 0
-2775 650 777 778 654 2748 456 2774 0
2775 -650 0
2775 -777 0
2775 -778 0
2775 -654 0
2775 -2748 0
2775 -456 0
2775 -2774 0
2776 -652 -2775 0
-2776 652 0
-2776 2775 0
2777 -1440 -2771 0
-2777 1440 0
-2777 2771 0
-2778 1442 2776 2777 0
2778 -1442 0
2778 -2776 0
2778 -2777 0
2779 -1722 -2778 0
-2779 1722 0
-2779 2778 0
2780 -1795 -2778 0
-2780 1795 0
-2780 2778 0
2781 -1619 -1938 0
-2781 1619 0
-2781 1938 0
-2782 114 2781 109 111 0
2782 -114 0
2782 -2781 0
2782 -109 0
2782 -111 0
2783 -283 -2782 0
-2783 283 0
-2783 2782 0
2784 -1819 -2778 0
-2784 1819 0
-2784 2778 0
2785 -195 -2782 0
-2785 195 0
-2785 2782 0
-2786 37 2784 2785 0
2786 -37 0
2786 -2784 0
2786 -2785 0
2787 -308 -2786 0
-2787 308 0
-2787 2786 0
2788 -1619 -1944 0
-2788 1619 0
-2788 1944 0
-2789 114 2788 109 111 0
2789 -114 0
2789 -2788 0
2789 -109 0
2789 -111 0
2790 -182 -2789 0
-2790 182 0
-2790 2789 0
-2791 6 2790 0
2791 -6 0
2791 -2790 0
2792 -5 -2791 0
-2792 5 0
-2792 2791 0
-2793 8 2792 0
2793 -8 0
2793 -2792 0
2794 -455 -2793 0
-2794 455 0
-2794 2793 0
2795 -1830 -2778 0
-2795 1830 0
-2795 2778 0
-2796 13 2795 0
2796 -13 0
2796 -2795 0
2797 -457 -2796 0
-2797 457 0
-2797 2796 0
2798 -116 -2789 0
-2798 116 0
-2798 2789 0
-2799 120 2798 117 0
2799 -120 0
2799 -2798 0
2799 -117 0
2800 -493 -2799 0
-2800 493 0
-2800 2799 0
2801 -1619 -1442 0
-2801 1619 0
-2801 1442 0
-2802 114 2801 109 111 0
2802 -114 0
2802 -2801 0
2802 -109 0
2802 -111 0
2803 -191 -2802 0
-2803 191 0
-2803 2802 0
-2804 32 2803 27 29 0
2804 -32 0
2804 -2803 0
2804 -27 0
2804 -29 0
2805 -644 -2804 0
-2805 644 0
-2805 2804 0
-2806 646 2800 2805 0
2806 -646 0
2806 -2800 0
2806 -2805 0
2807 -648 -2806 0
-2807 648 0
-2807 2806 0
-2808 650 2783 2787 654 2794 2797 2807 0
2808 -650 0
2808 -2783 0
2808 -2787 0
2808 -654 0
2808 -2794 0
2808 -2797 0
2808 -2807 0
2809 -666 -2808 0
-2809 666 0
-2809 2808 0
2810 -167 -2767 0
-2810 167 0
-2810 2767 0
-2811 52 2780 2809 2810 0
2811 -52 0
2811 -2780 0
2811 -2809 0
2811 -2810 0
2812 -170 -2811 0
-2812 170 0
-2812 2811 0
-2813 218 2770 2779 2812 0
2813 -218 0
2813 -2770 0
2813 -2779 0
2813 -2812 0
2814 -230 -2813 0
-2814 230 0
-2814 2813 0
2815 -122 -2799 0
-2815 122 0
-2815 2799 0
2816 -167 -2789 0
-2816 167 0
-2816 2789 0
-2817 52 2780 2816 0
2817 -52 0
2817 -2780 0
2817 -2816 0
2818 -170 -2817 0
-2818 170 0
-2818 2817 0
-2819 218 2815 2779 2818 0
2819 -218 0
2819 -2815 0
2819 -2779 0
2819 -2818 0
2820 -220 -2819 0
-2820 220 0
-2820 2819 0
2821 -227 -2081 0
-2821 227 0
-2821 2081 0
2822 -237 -2081 0
-2822 237 0
-2822 2081 0
-2823 45 2822 0
2823 -45 0
2823 -2822 0
2824 -112 -2823 0
-2824 112 0
-2824 2823 0
-2825 114 2788 2821 109 2824 0
2825 -114 0
2825 -2788 0
2825 -2821 0
2825 -109 0
2825 -2824 0
2826 -283 -2825 0
-2826 283 0
-2826 2825 0
-2827 32 345 27 29 0
2827 -32 0
2827 -345 0
2827 -27 0
2827 -29 0
2828 -1440 -2827 0
-2828 1440 0
-2828 2827 0
-2829 1442 2828 0
2829 -1442 0
2829 -2828 0
2830 -1819 -2829 0
-2830 1819 0
-2830 2829 0
2831 -195 -2825 0
-2831 195 0
-2831 2825 0
-2832 37 2830 2831 0
2832 -37 0
2832 -2830 0
2832 -2831 0
2833 -308 -2832 0
-2833 308 0
-2833 2832 0
2834 -182 -2825 0
-2834 182 0
-2834 2825 0
-2835 6 2834 0
2835 -6 0
2835 -2834 0
2836 -5 -2835 0
-2836 5 0
-2836 2835 0
-2837 8 2836 0
2837 -8 0
2837 -2836 0
2838 -455 -2837 0
-2838 455 0
-2838 2837 0
2839 -1830 -2829 0
-2839 1830 0
-2839 2829 0
-2840 13 2839 0
2840 -13 0
2840 -2839 0
2841 -457 -2840 0
-2841 457 0
-2841 2840 0
2842 -116 -2825 0
-2842 116 0
-2842 2825 0
-2843 120 2842 117 0
2843 -120 0
2843 -2842 0
2843 -117 0
2844 -493 -2843 0
-2844 493 0
-2844 2843 0
2845 -227 -2108 0
-2845 227 0
-2845 2108 0
2846 -237 -2108 0
-2846 237 0
-2846 2108 0
-2847 45 2846 0
2847 -45 0
2847 -2846 0
2848 -112 -2847 0
-2848 112 0
-2848 2847 0
-2849 114 2801 2845 109 2848 0
2849 -114 0
2849 -2801 0
2849 -2845 0
2849 -109 0
2849 -2848 0
2850 -191 -2849 0
-2850 191 0
-2850 2849 0
-2851 32 2850 27 29 0
2851 -32 0
2851 -2850 0
2851 -27 0
2851 -29 0
2852 -644 -2851 0
-2852 644 0
-2852 2851 0
-2853 646 2844 2852 0
2853 -646 0
2853 -2844 0
2853 -2852 0
2854 -648 -2853 0
-2854 648 0
-2854 2853 0
-2855 650 2820 2826 2833 654 2838 2841 2854 0
2855 -650 0
2855 -2820 0
2855 -2826 0
2855 -2833 0
2855 -654 0
2855 -2838 0
2855 -2841 0
2855 -2854 0
2856 -854 -2855 0
-2856 854 0
-2856 2855 0
-2857 1442 2777 0
2857 -1442 0
2857 -2777 0
2858 -1722 -2857 0
-2858 1722 0
-2858 2857 0
2859 -1795 -2857 0
-2859 1795 0
-2859 2857 0
-2860 52 2859 2816 0
2860 -52 0
2860 -2859 0
2860 -2816 0
2861 -170 -2860 0
-2861 170 0
-2861 2860 0
-2862 218 2815 2858 2861 0
2862 -218 0
2862 -2815 0
2862 -2858 0
2862 -2861 0
2863 -220 -2862 0
-2863 220 0
-2863 2862 0
-2864 650 2863 2826 2833 654 2841 2854 0
2864 -650 0
2864 -2863 0
2864 -2826 0
2864 -2833 0
2864 -654 0
2864 -2841 0
2864 -2854 0
2865 -660 -2864 0
-2865 660 0
-2865 2864 0
-2866 650 881 653 654 456 1950 0
2866 -650 0
2866 -881 0
2866 -653 0
2866 -654 0
2866 -456 0
2866 -1950 0
2867 -652 -2866 0
-2867 652 0
-2867 2866 0
-2868 1442 2867 1943 0
2868 -1442 0
2868 -2867 0
2868 -1943 0
2869 -1619 -2868 0
-2869 1619 0
-2869 2868 0
2870 -1722 -2868 0
-2870 1722 0
-2870 2868 0
2871 -1795 -2868 0
-2871 1795 0
-2871 2868 0
2872 -666 -1956 0
-2872 666 0
-2872 1956 0
-2873 52 2871 2872 0
2873 -52 0
2873 -2871 0
2873 -2872 0
2874 -170 -2873 0
-2874 170 0
-2874 2873 0
-2875 218 221 2870 2874 0
2875 -218 0
2875 -221 0
2875 -2870 0
2875 -2874 0
2876 -227 -2875 0
-2876 227 0
-2876 2875 0
2877 -237 -2875 0
-2877 237 0
-2877 2875 0
-2878 45 2877 0
2878 -45 0
2878 -2877 0
2879 -112 -2878 0
-2879 112 0
-2879 2878 0
-2880 114 2869 2876 109 2879 0
2880 -114 0
2880 -2869 0
2880 -2876 0
2880 -109 0
2880 -2879 0
2881 -182 -2880 0
-2881 182 0
-2881 2880 0
-2882 6 2865 2881 0
2882 -6 0
2882 -2865 0
2882 -2881 0
2883 -5 -2882 0
-2883 5 0
-2883 2882 0
-2884 8 2883 0
2884 -8 0
2884 -2883 0
2885 -10 -2884 0
-2885 10 0
-2885 2884 0
2886 -644 -2827 0
-2886 644 0
-2886 2827 0
-2887 646 963 2886 0
2887 -646 0
2887 -963 0
2887 -2886 0
2888 -648 -2887 0
-2888 648 0
-2888 2887 0
-2889 650 958 959 960 654 2737 456 2888 0
2889 -650 0
2889 -958 0
2889 -959 0
2889 -960 0
2889 -654 0
2889 -2737 0
2889 -456 0
2889 -2888 0
2890 -652 -2889 0
-2890 652 0
-2890 2889 0
-2891 32 2761 27 29 0
2891 -32 0
2891 -2761 0
2891 -27 0
2891 -29 0
2892 -1440 -2891 0
-2892 1440 0
-2892 2891 0
-2893 1442 2890 2892 0
2893 -1442 0
2893 -2890 0
2893 -2892 0
2894 -1830 -2893 0
-2894 1830 0
-2894 2893 0
-2895 13 2894 0
2895 -13 0
2895 -2894 0
2896 -12 -2895 0
-2896 12 0
-2896 2895 0
-2897 18 2814 2856 2885 2896 14 0
2897 -18 0
2897 -2814 0
2897 -2856 0
2897 -2885 0
2897 -2896 0
2897 -14 0
2898 -20 -2897 0
-2898 20 0
-2898 2897 0
2899 -1619 -1981 0
-2899 1619 0
-2899 1981 0
-2900 114 2899 109 111 0
2900 -114 0
2900 -2899 0
2900 -109 0
2900 -111 0
2901 -116 -2900 0
-2901 116 0
-2901 2900 0
-2902 120 2901 117 0
2902 -120 0
2902 -2901 0
2902 -117 0
2903 -122 -2902 0
-2903 122 0
-2903 2902 0
2904 -652 -2749 0
-2904 652 0
-2904 2749 0
-2905 1442 2904 0
2905 -1442 0
2905 -2904 0
2906 -1722 -2905 0
-2906 1722 0
-2906 2905 0
2907 -1795 -2905 0
-2907 1795 0
-2907 2905 0
2908 -283 -2802 0
-2908 283 0
-2908 2802 0
2909 -195 -2802 0
-2909 195 0
-2909 2802 0
-2910 37 1886 2909 0
2910 -37 0
2910 -1886 0
2910 -2909 0
2911 -308 -2910 0
-2911 308 0
-2911 2910 0
2912 -182 -2802 0
-2912 182 0
-2912 2802 0
-2913 6 2912 0
2913 -6 0
2913 -2912 0
2914 -5 -2913 0
-2914 5 0
-2914 2913 0
-2915 8 2914 0
2915 -8 0
2915 -2914 0
2916 -455 -2915 0
-2916 455 0
-2916 2915 0
2917 -116 -2802 0
-2917 116 0
-2917 2802 0
-2918 120 2917 117 0
2918 -120 0
2918 -2917 0
2918 -117 0
2919 -493 -2918 0
-2919 493 0
-2919 2918 0
-2920 646 2919 0
2920 -646 0
2920 -2919 0
2921 -648 -2920 0
-2921 648 0
-2921 2920 0
-2922 650 2908 2911 654 2916 1971 2921 0
2922 -650 0
2922 -2908 0
2922 -2911 0
2922 -654 0
2922 -2916 0
2922 -1971 0
2922 -2921 0
2923 -666 -2922 0
-2923 666 0
-2923 2922 0
2924 -167 -2900 0
-2924 167 0
-2924 2900 0
-2925 52 2907 2923 2924 0
2925 -52 0
2925 -2907 0
2925 -2923 0
2925 -2924 0
2926 -170 -2925 0
-2926 170 0
-2926 2925 0
-2927 218 2903 2906 2926 0
2927 -218 0
2927 -2903 0
2927 -2906 0
2927 -2926 0
2928 -230 -2927 0
-2928 230 0
-2928 2927 0
2929 -122 -2918 0
-2929 122 0
-2929 2918 0
2930 -167 -2802 0
-2930 167 0
-2930 2802 0
-2931 52 2105 2930 0
2931 -52 0
2931 -2105 0
2931 -2930 0
2932 -170 -2931 0
-2932 170 0
-2932 2931 0
-2933 218 2929 2104 2932 0
2933 -218 0
2933 -2929 0
2933 -2104 0
2933 -2932 0
2934 -220 -2933 0
-2934 220 0
-2934 2933 0
2935 -283 -2849 0
-2935 283 0
-2935 2849 0
2936 -195 -2849 0
-2936 195 0
-2936 2849 0
-2937 37 1886 2936 0
2937 -37 0
2937 -1886 0
2937 -2936 0
2938 -308 -2937 0
-2938 308 0
-2938 2937 0
2939 -182 -2849 0
-2939 182 0
-2939 2849 0
-2940 6 2939 0
2940 -6 0
2940 -2939 0
2941 -5 -2940 0
-2941 5 0
-2941 2940 0
-2942 8 2941 0
2942 -8 0
2942 -2941 0
2943 -455 -2942 0
-2943 455 0
-2943 2942 0
2944 -116 -2849 0
-2944 116 0
-2944 2849 0
-2945 120 2944 117 0
2945 -120 0
2945 -2944 0
2945 -117 0
2946 -493 -2945 0
-2946 493 0
-2946 2945 0
-2947 646 2946 0
2947 -646 0
2947 -2946 0
2948 -648 -2947 0
-2948 648 0
-2948 2947 0
-2949 650 2934 2935 2938 654 2943 1971 2948 0
2949 -650 0
2949 -2934 0
2949 -2935 0
2949 -2938 0
2949 -654 0
2949 -2943 0
2949 -1971 0
2949 -2948 0
2950 -854 -2949 0
-2950 854 0
-2950 2949 0
-2951 650 2934 2935 2938 654 1971 2948 0
2951 -650 0
2951 -2934 0
2951 -2935 0
2951 -2938 0
2951 -654 0
2951 -1971 0
2951 -2948 0
2952 -660 -2951 0
-2952 660 0
-2952 2951 0
2953 -652 -882 0
-2953 652 0
-2953 882 0
-2954 1442 2953 0
2954 -1442 0
2954 -2953 0
2955 -1619 -2954 0
-2955 1619 0
-2955 2954 0
2956 -652 -864 0
-2956 652 0
-2956 864 0
-2957 1442 2956 0
2957 -1442 0
2957 -2956 0
2958 -1722 -2957 0
-2958 1722 0
-2958 2957 0
2959 -1795 -2957 0
-2959 1795 0
-2959 2957 0
2960 -666 -1974 0
-2960 666 0
-2960 1974 0
-2961 52 2959 2960 0
2961 -52 0
2961 -2959 0
2961 -2960 0
2962 -170 -2961 0
-2962 170 0
-2962 2961 0
-2963 218 221 2958 2962 0
2963 -218 0
2963 -221 0
2963 -2958 0
2963 -2962 0
2964 -227 -2963 0
-2964 227 0
-2964 2963 0
2965 -237 -2963 0
-2965 237 0
-2965 2963 0
-2966 45 2965 0
2966 -45 0
2966 -2965 0
2967 -112 -2966 0
-2967 112 0
-2967 2966 0
-2968 114 2955 2964 109 2967 0
2968 -114 0
2968 -2955 0
2968 -2964 0
2968 -109 0
2968 -2967 0
2969 -182 -2968 0
-2969 182 0
-2969 2968 0
-2970 6 2952 2969 0
2970 -6 0
2970 -2952 0
2970 -2969 0
2971 -5 -2970 0
-2971 5 0
-2971 2970 0
-2972 8 2971 0
2972 -8 0
2972 -2971 0
2973 -10 -2972 0
-2973 10 0
-2973 2972 0
2974 -652 -2755 0
-2974 652 0
-2974 2755 0
-2975 1442 2974 0
2975 -1442 0
2975 -2974 0
2976 -1830 -2975 0
-2976 1830 0
-2976 2975 0
-2977 13 2976 0
2977 -13 0
2977 -2976 0
2978 -12 -2977 0
-2978 12 0
-2978 2977 0
-2979 18 2928 2950 2973 2978 14 0
2979 -18 0
2979 -2928 0
2979 -2950 0
2979 -2973 0
2979 -2978 0
2979 -14 0
2980 -22 -2979 0
-2980 22 0
-2980 2979 0
2981 -1619 -2119 0
-2981 1619 0
-2981 2119 0
2982 -227 -2102 0
-2982 227 0
-2982 2102 0
2983 -237 -2102 0
-2983 237 0
-2983 2102 0
-2984 45 2983 0
2984 -45 0
2984 -2983 0
2985 -112 -2984 0
-2985 112 0
-2985 2984 0
-2986 114 2981 2982 109 2985 0
2986 -114 0
2986 -2981 0
2986 -2982 0
2986 -109 0
2986 -2985 0
2987 -191 -2986 0
-2987 191 0
-2987 2986 0
-2988 32 2980 2987 27 29 0
2988 -32 0
2988 -2980 0
2988 -2987 0
2988 -27 0
2988 -29 0
2989 -34 -2988 0
-2989 34 0
-2989 2988 0
-2990 650 958 959 654 2737 456 2744 0
2990 -650 0
2990 -958 0
2990 -959 0
2990 -654 0
2990 -2737 0
2990 -456 0
2990 -2744 0
2991 -652 -2990 0
-2991 652 0
-2991 2990 0
-2992 650 958 959 654 2737 456 965 0
2992 -650 0
2992 -958 0
2992 -959 0
2992 -654 0
2992 -2737 0
2992 -456 0
2992 -965 0
2993 -854 -2992 0
-2993 854 0
-2993 2992 0
-2994 650 958 959 654 456 965 0
2994 -650 0
2994 -958 0
2994 -959 0
2994 -654 0
2994 -456 0
2994 -965 0
2995 -660 -2994 0
-2995 660 0
-2995 2994 0
-2996 6 2995 968 0
2996 -6 0
2996 -2995 0
2996 -968 0
2997 -5 -2996 0
-2997 5 0
-2997 2996 0
-2998 8 2997 0
2998 -8 0
2998 -2997 0
2999 -10 -2998 0
-2999 10 0
-2999 2998 0
-3000 18 2754 2993 2999 11 14 0
3000 -18 0
3000 -2754 0
3000 -2993 0
3000 -2999 0
3000 -11 0
3000 -14 0
3001 -22 -3000 0
-3001 22 0
-3001 3000 0
-3002 32 3001 2761 27 29 0
3002 -32 0
3002 -3001 0
3002 -2761 0
3002 -27 0
3002 -29 0
3003 -1440 -3002 0
-3003 1440 0
-3003 3002 0
-3004 1442 2991 3003 0
3004 -1442 0
3004 -2991 0
3004 -3003 0
3005 -1819 -3004 0
-3005 1819 0
-3005 3004 0
-3006 650 654 1115 2027 2032 0
3006 -650 0
3006 -654 0
3006 -1115 0
3006 -2027 0
3006 -2032 0
3007 -666 -3006 0
-3007 666 0
-3007 3006 0
-3008 52 2020 3007 0
3008 -52 0
3008 -2020 0
3008 -3007 0
3009 -170 -3008 0
-3009 170 0
-3009 3008 0
-3010 218 221 2163 3009 0
3010 -218 0
3010 -221 0
3010 -2163 0
3010 -3009 0
3011 -227 -3010 0
-3011 227 0
-3011 3010 0
3012 -237 -3010 0
-3012 237 0
-3012 3010 0
-3013 45 3012 0
3013 -45 0
3013 -3012 0
3014 -112 -3013 0
-3014 112 0
-3014 3013 0
-3015 114 2695 3011 109 3014 0
3015 -114 0
3015 -2695 0
3015 -3011 0
3015 -109 0
3015 -3014 0
3016 -195 -3015 0
-3016 195 0
-3016 3015 0
-3017 37 3005 3016 0
3017 -37 0
3017 -3005 0
3017 -3016 0
3018 -36 -3017 0
-3018 36 0
-3018 3017 0
3019 -1619 -1997 0
-3019 1619 0
-3019 1997 0
-3020 114 3019 109 111 0
3020 -114 0
3020 -3019 0
3020 -109 0
3020 -111 0
3021 -116 -3020 0
-3021 116 0
-3021 3020 0
-3022 120 3021 117 0
3022 -120 0
3022 -3021 0
3022 -117 0
3023 -122 -3022 0
-3023 122 0
-3023 3022 0
-3024 32 1994 190 27 29 0
3024 -32 0
3024 -1994 0
3024 -190 0
3024 -27 0
3024 -29 0
3025 -1440 -3024 0
-3025 1440 0
-3025 3024 0
-3026 1442 3025 0
3026 -1442 0
3026 -3025 0
3027 -1722 -3026 0
-3027 1722 0
-3027 3026 0
3028 -1795 -3026 0
-3028 1795 0
-3028 3026 0
3029 -167 -3020 0
-3029 167 0
-3029 3020 0
-3030 52 3028 3029 0
3030 -52 0
3030 -3028 0
3030 -3029 0
3031 -170 -3030 0
-3031 170 0
-3031 3030 0
-3032 218 3023 3027 3031 0
3032 -218 0
3032 -3023 0
3032 -3027 0
3032 -3031 0
3033 -220 -3032 0
-3033 220 0
-3033 3032 0
3034 -1619 -2140 0
-3034 1619 0
-3034 2140 0
3035 -227 -2134 0
-3035 227 0
-3035 2134 0
3036 -237 -2134 0
-3036 237 0
-3036 2134 0
-3037 45 3036 0
3037 -45 0
3037 -3036 0
3038 -112 -3037 0
-3038 112 0
-3038 3037 0
-3039 114 3034 3035 109 3038 0
3039 -114 0
3039 -3034 0
3039 -3035 0
3039 -109 0
3039 -3038 0
3040 -283 -3039 0
-3040 283 0
-3040 3039 0
-3041 18 332 1992 11 14 0
3041 -18 0
3041 -332 0
3041 -1992 0
3041 -11 0
3041 -14 0
3042 -22 -3041 0
-3042 22 0
-3042 3041 0
-3043 32 3042 345 27 29 0
3043 -32 0
3043 -3042 0
3043 -345 0
3043 -27 0
3043 -29 0
3044 -1440 -3043 0
-3044 1440 0
-3044 3043 0
-3045 1442 3044 0
3045 -1442 0
3045 -3044 0
3046 -1819 -3045 0
-3046 1819 0
-3046 3045 0
3047 -195 -3039 0
-3047 195 0
-3047 3039 0
-3048 37 3046 3047 0
3048 -37 0
3048 -3046 0
3048 -3047 0
3049 -308 -3048 0
-3049 308 0
-3049 3048 0
-3050 18 332 1992 14 0
3050 -18 0
3050 -332 0
3050 -1992 0
3050 -14 0
3051 -22 -3050 0
-3051 22 0
-3051 3050 0
-3052 32 3051 345 27 29 0
3052 -32 0
3052 -3051 0
3052 -345 0
3052 -27 0
3052 -29 0
3053 -1440 -3052 0
-3053 1440 0
-3053 3052 0
-3054 1442 3053 0
3054 -1442 0
3054 -3053 0
3055 -1830 -3054 0
-3055 1830 0
-3055 3054 0
-3056 13 3055 0
3056 -13 0
3056 -3055 0
3057 -457 -3056 0
-3057 457 0
-3057 3056 0
3058 -116 -3039 0
-3058 116 0
-3058 3039 0
-3059 120 3058 117 0
3059 -120 0
3059 -3058 0
3059 -117 0
3060 -493 -3059 0
-3060 493 0
-3060 3059 0
3061 -230 -2933 0
-3061 230 0
-3061 2933 0
-3062 18 3061 1992 1837 14 0
3062 -18 0
3062 -3061 0
3062 -1992 0
3062 -1837 0
3062 -14 0
3063 -22 -3062 0
-3063 22 0
-3063 3062 0
-3064 32 3063 2850 27 29 0
3064 -32 0
3064 -3063 0
3064 -2850 0
3064 -27 0
3064 -29 0
3065 -644 -3064 0
-3065 644 0
-3065 3064 0
-3066 646 3060 3065 0
3066 -646 0
3066 -3060 0
3066 -3065 0
3067 -648 -3066 0
-3067 648 0
-3067 3066 0
-3068 650 3033 3040 3049 654 1512 3057 3067 0
3068 -650 0
3068 -3033 0
3068 -3040 0
3068 -3049 0
3068 -654 0
3068 -1512 0
3068 -3057 0
3068 -3067 0
3069 -660 -3068 0
-3069 660 0
-3069 3068 0
3070 -644 -2138 0
-3070 644 0
-3070 2138 0
-3071 646 748 3070 0
3071 -646 0
3071 -748 0
3071 -3070 0
3072 -648 -3071 0
-3072 648 0
-3072 3071 0
-3073 650 881 653 654 1512 456 3072 0
3073 -650 0
3073 -881 0
3073 -653 0
3073 -654 0
3073 -1512 0
3073 -456 0
3073 -3072 0
3074 -652 -3073 0
-3074 652 0
-3074 3073 0
3075 -666 -1513 0
-3075 666 0
-3075 1513 0
-3076 52 3075 0
3076 -52 0
3076 -3075 0
3077 -170 -3076 0
-3077 170 0
-3077 3076 0
-3078 218 221 3077 0
3078 -218 0
3078 -221 0
3078 -3077 0
3079 -230 -3078 0
-3079 230 0
-3079 3078 0
3080 -854 -1540 0
-3080 854 0
-3080 1540 0
-3081 18 3079 3080 1992 11 14 0
3081 -18 0
3081 -3079 0
3081 -3080 0
3081 -1992 0
3081 -11 0
3081 -14 0
3082 -22 -3081 0
-3082 22 0
-3082 3081 0
-3083 32 3082 27 29 0
3083 -32 0
3083 -3082 0
3083 -27 0
3083 -29 0
3084 -1440 -3083 0
-3084 1440 0
-3084 3083 0
-3085 1442 3074 3084 0
3085 -1442 0
3085 -3074 0
3085 -3084 0
3086 -1619 -3085 0
-3086 1619 0
-3086 3085 0
3087 -644 -1995 0
-3087 644 0
-3087 1995 0
-3088 646 748 3087 0
3088 -646 0
3088 -748 0
3088 -3087 0
3089 -648 -3088 0
-3089 648 0
-3089 3088 0
-3090 650 653 654 1512 456 3089 0
3090 -650 0
3090 -653 0
3090 -654 0
3090 -1512 0
3090 -456 0
3090 -3089 0
3091 -652 -3090 0
-3091 652 0
-3091 3090 0
3092 -854 -1513 0
-3092 854 0
-3092 1513 0
-3093 18 3092 1992 11 14 0
3093 -18 0
3093 -3092 0
3093 -1992 0
3093 -11 0
3093 -14 0
3094 -22 -3093 0
-3094 22 0
-3094 3093 0
-3095 32 3094 27 29 0
3095 -32 0
3095 -3094 0
3095 -27 0
3095 -29 0
3096 -1440 -3095 0
-3096 1440 0
-3096 3095 0
-3097 1442 3091 3096 0
3097 -1442 0
3097 -3091 0
3097 -3096 0
3098 -1722 -3097 0
-3098 1722 0
-3098 3097 0
3099 -1795 -3097 0
-3099 1795 0
-3099 3097 0
3100 -666 -2015 0
-3100 666 0
-3100 2015 0
-3101 52 3099 3100 0
3101 -52 0
3101 -3099 0
3101 -3100 0
3102 -170 -3101 0
-3102 170 0
-3102 3101 0
-3103 218 221 3098 3102 0
3103 -218 0
3103 -221 0
3103 -3098 0
3103 -3102 0
3104 -227 -3103 0
-3104 227 0
-3104 3103 0
3105 -237 -3103 0
-3105 237 0
-3105 3103 0
-3106 45 3105 0
3106 -45 0
3106 -3105 0
3107 -112 -3106 0
-3107 112 0
-3107 3106 0
-3108 114 3086 3104 109 3107 0
3108 -114 0
3108 -3086 0
3108 -3104 0
3108 -109 0
3108 -3107 0
3109 -182 -3108 0
-3109 182 0
-3109 3108 0
-3110 6 3069 3109 0
3110 -6 0
3110 -3069 0
3110 -3109 0
3111 -39 -3110 0
-3111 39 0
-3111 3110 0
3112 -1619 -1935 0
-3112 1619 0
-3112 1935 0
-3113 114 3112 109 111 0
3113 -114 0
3113 -3112 0
3113 -109 0
3113 -111 0
3114 -116 -3113 0
-3114 116 0
-3114 3113 0
-3115 120 3114 117 0
3115 -120 0
3115 -3114 0
3115 -117 0
3116 -122 -3115 0
-3116 122 0
-3116 3115 0
3117 -10 -2747 0
-3117 10 0
-3117 2747 0
-3118 18 3117 11 14 0
3118 -18 0
3118 -3117 0
3118 -11 0
3118 -14 0
3119 -22 -3118 0
-3119 22 0
-3119 3118 0
-3120 32 3119 190 27 29 0
3120 -32 0
3120 -3119 0
3120 -190 0
3120 -27 0
3120 -29 0
3121 -644 -3120 0
-3121 644 0
-3121 3120 0
-3122 646 781 3121 0
3122 -646 0
3122 -781 0
3122 -3121 0
3123 -648 -3122 0
-3123 648 0
-3123 3122 0
-3124 650 777 778 654 2748 456 3123 0
3124 -650 0
3124 -777 0
3124 -778 0
3124 -654 0
3124 -2748 0
3124 -456 0
3124 -3123 0
3125 -652 -3124 0
-3125 652 0
-3125 3124 0
3126 -854 -2749 0
-3126 854 0
-3126 2749 0
3127 -660 -971 0
-3127 660 0
-3127 971 0
-3128 6 3127 181 0
3128 -6 0
3128 -3127 0
3128 -181 0
3129 -5 -3128 0
-3129 5 0
-3129 3128 0
-3130 8 3129 0
3130 -8 0
3130 -3129 0
3131 -10 -3130 0
-3131 10 0
-3131 3130 0
-3132 18 3126 3131 11 14 0
3132 -18 0
3132 -3126 0
3132 -3131 0
3132 -11 0
3132 -14 0
3133 -22 -3132 0
-3133 22 0
-3133 3132 0
-3134 32 3133 190 27 29 0
3134 -32 0
3134 -3133 0
3134 -190 0
3134 -27 0
3134 -29 0
3135 -1440 -3134 0
-3135 1440 0
-3135 3134 0
-3136 1442 3125 3135 0
3136 -1442 0
3136 -3125 0
3136 -3135 0
3137 -1722 -3136 0
-3137 1722 0
-3137 3136 0
3138 -1795 -3136 0
-3138 1795 0
-3138 3136 0
3139 -1440 -3120 0
-3139 1440 0
-3139 3120 0
-3140 1442 3139 0
3140 -1442 0
3140 -3139 0
3141 -1819 -3140 0
-3141 1819 0
-3141 3140 0
-3142 37 3141 2785 0
3142 -37 0
3142 -3141 0
3142 -2785 0
3143 -308 -3142 0
-3143 308 0
-3143 3142 0
3144 -182 -3020 0
-3144 182 0
-3144 3020 0
-3145 6 3144 0
3145 -6 0
3145 -3144 0
3146 -5 -3145 0
-3146 5 0
-3146 3145 0
-3147 8 3146 0
3147 -8 0
3147 -3146 0
3148 -455 -3147 0
-3148 455 0
-3148 3147 0
-3149 18 3117 14 0
3149 -18 0
3149 -3117 0
3149 -14 0
3150 -22 -3149 0
-3150 22 0
-3150 3149 0
-3151 32 3150 190 27 29 0
3151 -32 0
3151 -3150 0
3151 -190 0
3151 -27 0
3151 -29 0
3152 -1440 -3151 0
-3152 1440 0
-3152 3151 0
-3153 1442 3152 0
3153 -1442 0
3153 -3152 0
3154 -1830 -3153 0
-3154 1830 0
-3154 3153 0
-3155 13 3154 0
3155 -13 0
3155 -3154 0
3156 -457 -3155 0
-3156 457 0
-3156 3155 0
3157 -116 -2782 0
-3157 116 0
-3157 2782 0
-3158 120 3157 117 0
3158 -120 0
3158 -3157 0
3158 -117 0
3159 -493 -3158 0
-3159 493 0
-3159 3158 0
3160 -10 -2915 0
-3160 10 0
-3160 2915 0
-3161 18 3160 1837 14 0
3161 -18 0
3161 -3160 0
3161 -1837 0
3161 -14 0
3162 -22 -3161 0
-3162 22 0
-3162 3161 0
-3163 32 3162 2803 27 29 0
3163 -32 0
3163 -3162 0
3163 -2803 0
3163 -27 0
3163 -29 0
3164 -644 -3163 0
-3164 644 0
-3164 3163 0
-3165 646 3159 3164 0
3165 -646 0
3165 -3159 0
3165 -3164 0
3166 -648 -3165 0
-3166 648 0
-3166 3165 0
-3167 650 2783 3143 654 3148 3156 3166 0
3167 -650 0
3167 -2783 0
3167 -3143 0
3167 -654 0
3167 -3148 0
3167 -3156 0
3167 -3166 0
3168 -666 -3167 0
-3168 666 0
-3168 3167 0
3169 -167 -3113 0
-3169 167 0
-3169 3113 0
-3170 52 3138 3168 3169 0
3170 -52 0
3170 -3138 0
3170 -3168 0
3170 -3169 0
3171 -170 -3170 0
-3171 170 0
-3171 3170 0
-3172 218 3116 3137 3171 0
3172 -218 0
3172 -3116 0
3172 -3137 0
3172 -3171 0
3173 -237 -3172 0
-3173 237 0
-3173 3172 0
-3174 45 3173 0
3174 -45 0
3174 -3173 0
3175 -44 -3174 0
-3175 44 0
-3175 3174 0
-3176 47 40 3175 0
3176 -47 0
3176 -40 0
3176 -3175 0
3177 -49 -3176 0
-3177 49 0
-3177 3176 0
3178 -227 -2165 0
-3178 227 0
-3178 2165 0
3179 -112 -2167 0
-3179 112 0
-3179 2167 0
-3180 114 2695 3178 109 3179 0
3180 -114 0
3180 -2695 0
3180 -3178 0
3180 -109 0
3180 -3179 0
3181 -200 -3180 0
-3181 200 0
-3181 3180 0
3182 -1846 -2764 0
-3182 1846 0
-3182 2764 0
-3183 218 329 0
3183 -218 0
3183 -329 0
3184 -230 -3183 0
-3184 230 0
-3184 3183 0
3185 -182 -1105 0
-3185 182 0
-3185 1105 0
-3186 6 967 3185 0
3186 -6 0
3186 -967 0
3186 -3185 0
3187 -5 -3186 0
-3187 5 0
-3187 3186 0
-3188 8 3187 0
3188 -8 0
3188 -3187 0
3189 -10 -3188 0
-3189 10 0
-3189 3188 0
-3190 18 3184 2756 3189 11 14 0
3190 -18 0
3190 -3184 0
3190 -2756 0
3190 -3189 0
3190 -11 0
3190 -14 0
3191 -22 -3190 0
-3191 22 0
-3191 3190 0
3192 -191 -1105 0
-3192 191 0
-3192 1105 0
-3193 32 3191 3192 27 29 0
3193 -32 0
3193 -3191 0
3193 -3192 0
3193 -27 0
3193 -29 0
3194 -1440 -3193 0
-3194 1440 0
-3194 3193 0
-3195 1442 2746 3194 0
3195 -1442 0
3195 -2746 0
3195 -3194 0
3196 -1795 -3195 0
-3196 1795 0
-3196 3195 0
3197 -122 -3158 0
-3197 122 0
-3197 3158 0
3198 -1722 -3140 0
-3198 1722 0
-3198 3140 0
-3199 218 3197 3198 0
3199 -218 0
3199 -3197 0
3199 -3198 0
3200 -220 -3199 0
-3200 220 0
-3200 3199 0
3201 -1619 -2182 0
-3201 1619 0
-3201 2182 0
3202 -227 -2179 0
-3202 227 0
-3202 2179 0
3203 -237 -2179 0
-3203 237 0
-3203 2179 0
-3204 45 3203 0
3204 -45 0
3204 -3203 0
3205 -112 -3204 0
-3205 112 0
-3205 3204 0
-3206 114 3201 3202 109 3205 0
3206 -114 0
3206 -3201 0
3206 -3202 0
3206 -109 0
3206 -3205 0
3207 -283 -3206 0
-3207 283 0
-3207 3206 0
3208 -1440 -2741 0
-3208 1440 0
-3208 2741 0
-3209 1442 3208 0
3209 -1442 0
3209 -3208 0
3210 -1819 -3209 0
-3210 1819 0
-3210 3209 0
3211 -195 -3206 0
-3211 195 0
-3211 3206 0
-3212 37 3210 3211 0
3212 -37 0
3212 -3210 0
3212 -3211 0
3213 -308 -3212 0
-3213 308 0
-3213 3212 0
-3214 218 221 2130 0
3214 -218 0
3214 -221 0
3214 -2130 0
3215 -227 -3214 0
-3215 227 0
-3215 3214 0
3216 -237 -3214 0
-3216 237 0
-3216 3214 0
-3217 45 3216 0
3217 -45 0
3217 -3216 0
3218 -112 -3217 0
-3218 112 0
-3218 3217 0
-3219 114 3034 3215 109 3218 0
3219 -114 0
3219 -3034 0
3219 -3215 0
3219 -109 0
3219 -3218 0
3220 -182 -3219 0
-3220 182 0
-3220 3219 0
-3221 6 3220 0
3221 -6 0
3221 -3220 0
3222 -5 -3221 0
-3222 5 0
-3222 3221 0
-3223 8 3222 0
3223 -8 0
3223 -3222 0
3224 -455 -3223 0
-3224 455 0
-3224 3223 0
-3225 18 332 2738 14 0
3225 -18 0
3225 -332 0
3225 -2738 0
3225 -14 0
3226 -22 -3225 0
-3226 22 0
-3226 3225 0
-3227 32 3226 345 27 29 0
3227 -32 0
3227 -3226 0
3227 -345 0
3227 -27 0
3227 -29 0
3228 -1440 -3227 0
-3228 1440 0
-3228 3227 0
-3229 1442 3228 0
3229 -1442 0
3229 -3228 0
3230 -1830 -3229 0
-3230 1830 0
-3230 3229 0
-3231 13 3230 0
3231 -13 0
3231 -3230 0
3232 -457 -3231 0
-3232 457 0
-3232 3231 0
3233 -116 -3206 0
-3233 116 0
-3233 3206 0
-3234 120 3233 117 0
3234 -120 0
3234 -3233 0
3234 -117 0
3235 -493 -3234 0
-3235 493 0
-3235 3234 0
-3236 218 2929 2104 0
3236 -218 0
3236 -2929 0
3236 -2104 0
3237 -230 -3236 0
-3237 230 0
-3237 3236 0
3238 -227 -2194 0
-3238 227 0
-3238 2194 0
3239 -237 -2194 0
-3239 237 0
-3239 2194 0
-3240 45 3239 0
3240 -45 0
3240 -3239 0
3241 -112 -3240 0
-3241 112 0
-3241 3240 0
-3242 114 2801 3238 109 3241 0
3242 -114 0
3242 -2801 0
3242 -3238 0
3242 -109 0
3242 -3241 0
3243 -182 -3242 0
-3243 182 0
-3243 3242 0
-3244 6 3243 0
3244 -6 0
3244 -3243 0
3245 -5 -3244 0
-3245 5 0
-3245 3244 0
-3246 8 3245 0
3246 -8 0
3246 -3245 0
3247 -10 -3246 0
-3247 10 0
-3247 3246 0
-3248 18 3237 3247 1837 14 0
3248 -18 0
3248 -3237 0
3248 -3247 0
3248 -1837 0
3248 -14 0
3249 -22 -3248 0
-3249 22 0
-3249 3248 0
3250 -191 -3242 0
-3250 191 0
-3250 3242 0
-3251 32 3249 3250 27 29 0
3251 -32 0
3251 -3249 0
3251 -3250 0
3251 -27 0
3251 -29 0
3252 -644 -3251 0
-3252 644 0
-3252 3251 0
-3253 646 3235 3252 0
3253 -646 0
3253 -3235 0
3253 -3252 0
3254 -648 -3253 0
-3254 648 0
-3254 3253 0
-3255 650 3200 3207 3213 654 3224 3232 3254 0
3255 -650 0
3255 -3200 0
3255 -3207 0
3255 -3213 0
3255 -654 0
3255 -3224 0
3255 -3232 0
3255 -3254 0
3256 -666 -3255 0
-3256 666 0
-3256 3255 0
3257 -1619 -2177 0
-3257 1619 0
-3257 2177 0
-3258 218 221 2163 0
3258 -218 0
3258 -221 0
3258 -2163 0
3259 -227 -3258 0
-3259 227 0
-3259 3258 0
3260 -237 -3258 0
-3260 237 0
-3260 3258 0
-3261 45 3260 0
3261 -45 0
3261 -3260 0
3262 -112 -3261 0
-3262 112 0
-3262 3261 0
-3263 114 3257 3259 109 3262 0
3263 -114 0
3263 -3257 0
3263 -3259 0
3263 -109 0
3263 -3262 0
3264 -167 -3263 0
-3264 167 0
-3264 3263 0
-3265 52 3196 3256 3264 0
3265 -52 0
3265 -3196 0
3265 -3256 0
3265 -3264 0
3266 -51 -3265 0
-3266 51 0
-3266 3265 0
3267 -205 -3180 0
-3267 205 0
-3267 3180 0
3268 -54 -2988 0
-3268 54 0
-3268 2988 0
-3269 56 3182 3266 3267 3268 0
3269 -56 0
3269 -3182 0
3269 -3266 0
3269 -3267 0
3269 -3268 0
3270 -58 -3269 0
-3270 58 0
-3270 3269 0
-3271 60 3181 3270 0
3271 -60 0
3271 -3181 0
3271 -3270 0
3272 -62 -3271 0
-3272 62 0
-3272 3271 0
-3273 66 2765 2898 2989 3018 3111 3177 3272 0
3273 -66 0
3273 -2765 0
3273 -2898 0
3273 -2989 0
3273 -3018 0
3273 -3111 0
3273 -3177 0
3273 -3272 0
3274 -68 -3273 0
-3274 68 0
-3274 3273 0
-3275 70 2735 3274 0
3275 -70 0
3275 -2735 0
3275 -3274 0
3276 -74 -3275 0
-3276 74 0
-3276 3275 0
-3277 3 2694 3276 0
3277 -3 0
3277 -2694 0
3277 -3276 0
3278 -3279 -3277 0
-3278 3279 0
-3278 3277 0
-3280 3281 1443 3278 0
3280 -3281 0
3280 -1443 0
3280 -3278 0
3282 -3280 -3283 0
-3282 3280 0
-3282 3283 0
3282 0
