c BC-S1.2
p cnf 117 255
1 -2 -3 0
-1 2 0
-1 3 0
4 -5 -3 0
-4 5 0
-4 3 0
6 -7 -8 0
-6 7 0
-6 8 0
9 -10 -11 0
-9 10 0
-9 11 0
-12 13 9 0
12 -13 0
12 -9 0
14 -15 -12 0
-14 15 0
-14 12 0
-16 17 4 6 14 0
16 -17 0
16 -4 0
16 -6 0
16 -14 0
18 -19 -16 0
-18 19 0
-18 16 0
-20 21 18 0
20 -21 0
20 -18 0
22 -23 -20 0
-22 23 0
-22 20 0
24 -25 -3 0
-24 25 0
-24 3 0
26 -27 -16 0
-26 27 0
-26 16 0
28 -29 -8 0
-28 29 0
-28 8 0
30 -31 -32 0
-30 31 0
-30 32 0
-33 34 22 24 26 28 30 0
33 -34 0
33 -22 0
33 -24 0
33 -26 0
33 -28 0
33 -30 0
35 -36 -33 0
-35 36 0
-35 33 0
-37 34 24 28 30 0
37 -34 0
37 -24 0
37 -28 0
37 -30 0
38 -39 -37 0
-38 39 0
-38 37 0
-40 13 38 9 0
40 -13 0
40 -38 0
40 -9 0
41 -15 -40 0
-41 15 0
-41 40 0
-42 17 4 6 41 0
42 -17 0
42 -4 0
42 -6 0
42 -41 0
43 -19 -42 0
-43 19 0
-43 42 0
-44 21 43 0
44 -21 0
44 -43 0
45 -46 -44 0
-45 46 0
-45 44 0
47 -48 -3 0
-47 48 0
-47 3 0
49 -50 -33 0
-49 50 0
-49 33 0
51 -52 -8 0
-51 52 0
-51 8 0
-53 54 45 47 49 51 0
53 -54 0
53 -45 0
53 -47 0
53 -49 0
53 -51 0
55 -56 -53 0
-55 56 0
-55 53 0
57 -58 -32 0
-57 58 0
-57 32 0
59 -60 -8 0
-59 60 0
-59 8 0
-61 62 1 35 55 57 59 0
61 -62 0
61 -1 0
61 -35 0
61 -55 0
61 -57 0
61 -59 0
63 -64 -61 0
-63 64 0
-63 61 0
-65 66 63 0
65 -66 0
65 -63 0
67 -68 -65 0
-67 68 0
-67 65 0
-69 62 35 55 57 59 0
69 -62 0
69 -35 0
69 -55 0
69 -57 0
69 -59 0
70 -64 -69 0
-70 64 0
-70 69 0
-71 66 70 0
71 -66 0
71 -70 0
72 -73 -71 0
-72 73 0
-72 71 0
-74 3 72 0
74 -3 0
74 -72 0
75 -76 -74 0
-75 76 0
-75 74 0
-77 78 75 0
77 -78 0
77 -75 0
79 -80 -77 0
-79 80 0
-79 77 0
81 -15 -13 0
-81 15 0
-81 13 0
-82 17 4 6 81 0
82 -17 0
82 -4 0
82 -6 0
82 -81 0
83 -19 -82 0
-83 19 0
-83 82 0
-84 21 83 0
84 -21 0
84 -83 0
85 -23 -84 0
-85 23 0
-85 84 0
86 -27 -82 0
-86 27 0
-86 82 0
-87 34 85 24 86 28 30 0
87 -34 0
87 -85 0
87 -24 0
87 -86 0
87 -28 0
87 -30 0
88 -36 -87 0
-88 36 0
-88 87 0
-89 13 38 0
89 -13 0
89 -38 0
90 -15 -89 0
-90 15 0
-90 89 0
-91 17 4 6 90 0
91 -17 0
91 -4 0
91 -6 0
91 -90 0
92 -19 -91 0
-92 19 0
-92 91 0
-93 21 92 0
93 -21 0
93 -92 0
94 -46 -93 0
-94 46 0
-94 93 0
95 -50 -87 0
-95 50 0
-95 87 0
-96 54 94 47 95 51 0
96 -54 0
96 -94 0
96 -47 0
96 -95 0
96 -51 0
97 -56 -96 0
-97 56 0
-97 96 0
-98 62 1 88 97 57 59 0
98 -62 0
98 -1 0
98 -88 0
98 -97 0
98 -57 0
98 -59 0
99 -64 -98 0
-99 64 0
-99 98 0
-100 66 99 0
100 -66 0
100 -99 0
101 -102 -100 0
-101 102 0
-101 100 0
-103 11 101 0
103 -11 0
103 -101 0
104 -105 -103 0
-104 105 0
-104 103 0
-106 107 67 79 104 0
106 -107 0
106 -67 0
106 -79 0
106 -104 0
108 -109 -106 0
-108 109 0
-108 106 0
-110 111 108 0
110 -111 0
110 -108 0
112 -113 -110 0
-112 113 0
-112 110 0
-114 115 112 0
114 -115 0
114 -112 0
116 -114 -117 0
-116 114 0
-116 117 0
116 0
