c BC-S1.2
p cnf 1197 4029
1 -2 -3 0
-1 2 0
-1 3 0
4 -5 -3 0
-4 5 0
-4 3 0
6 -7 -8 0
-6 7 0
-6 8 0
9 -10 -11 0
-9 10 0
-9 11 0
-12 13 6 9 0
12 -13 0
12 -6 0
12 -9 0
14 -15 -12 0
-14 15 0
-14 12 0
16 -17 -18 0
-16 17 0
-16 18 0
-19 20 4 14 16 0
19 -20 0
19 -4 0
19 -14 0
19 -16 0
21 -22 -19 0
-21 22 0
-21 19 0
23 -24 -18 0
-23 24 0
-23 18 0
-25 26 21 23 0
25 -26 0
25 -21 0
25 -23 0
27 -28 -25 0
-27 28 0
-27 25 0
-29 30 1 27 0
29 -30 0
29 -1 0
29 -27 0
31 -32 -29 0
-31 32 0
-31 29 0
-33 34 31 0
33 -34 0
33 -31 0
35 -36 -33 0
-35 36 0
-35 33 0
37 -38 -39 0
-37 38 0
-37 39 0
-40 41 35 37 0
40 -41 0
40 -35 0
40 -37 0
42 -43 -40 0
-42 43 0
-42 40 0
-44 20 4 16 0
44 -20 0
44 -4 0
44 -16 0
45 -46 -44 0
-45 46 0
-45 44 0
-47 8 45 0
47 -8 0
47 -45 0
48 -7 -47 0
-48 7 0
-48 47 0
49 -22 -44 0
-49 22 0
-49 44 0
-50 26 49 23 0
50 -26 0
50 -49 0
50 -23 0
51 -52 -50 0
-51 52 0
-51 50 0
-53 11 51 0
53 -11 0
53 -51 0
54 -10 -53 0
-54 10 0
-54 53 0
-55 13 48 54 0
55 -13 0
55 -48 0
55 -54 0
56 -57 -55 0
-56 57 0
-56 55 0
58 -59 -18 0
-58 59 0
-58 18 0
-60 61 42 56 58 0
60 -61 0
60 -42 0
60 -56 0
60 -58 0
62 -63 -60 0
-62 63 0
-62 60 0
64 -36 -34 0
-64 36 0
-64 34 0
-65 41 64 37 0
65 -41 0
65 -64 0
65 -37 0
66 -43 -65 0
-66 43 0
-66 65 0
-67 61 66 56 58 0
67 -61 0
67 -66 0
67 -56 0
67 -58 0
68 -69 -67 0
-68 69 0
-68 67 0
-70 3 68 0
70 -3 0
70 -68 0
71 -2 -70 0
-71 2 0
-71 70 0
72 -57 -12 0
-72 57 0
-72 12 0
-73 61 66 72 58 0
73 -61 0
73 -66 0
73 -72 0
73 -58 0
74 -69 -73 0
-74 69 0
-74 73 0
-75 3 74 0
75 -3 0
75 -74 0
76 -5 -75 0
-76 5 0
-76 75 0
-77 20 76 14 16 0
77 -20 0
77 -76 0
77 -14 0
77 -16 0
78 -22 -77 0
-78 22 0
-78 77 0
-79 26 78 23 0
79 -26 0
79 -78 0
79 -23 0
80 -28 -79 0
-80 28 0
-80 79 0
-81 30 71 80 0
81 -30 0
81 -71 0
81 -80 0
82 -83 -81 0
-82 83 0
-82 81 0
84 -85 -81 0
-84 85 0
-84 81 0
-86 87 84 0
86 -87 0
86 -84 0
88 -89 -86 0
-88 89 0
-88 86 0
-90 91 82 88 0
90 -91 0
90 -82 0
90 -88 0
92 -93 -90 0
-92 93 0
-92 90 0
94 -32 -30 0
-94 32 0
-94 30 0
-95 34 94 0
95 -34 0
95 -94 0
96 -36 -95 0
-96 36 0
-96 95 0
-97 41 96 37 0
97 -41 0
97 -96 0
97 -37 0
98 -43 -97 0
-98 43 0
-98 97 0
-99 61 98 72 58 0
99 -61 0
99 -98 0
99 -72 0
99 -58 0
100 -69 -99 0
-100 69 0
-100 99 0
-101 3 100 0
101 -3 0
101 -100 0
102 -5 -101 0
-102 5 0
-102 101 0
-103 20 102 14 16 0
103 -20 0
103 -102 0
103 -14 0
103 -16 0
104 -22 -103 0
-104 22 0
-104 103 0
-105 26 104 23 0
105 -26 0
105 -104 0
105 -23 0
106 -107 -105 0
-106 107 0
-106 105 0
-108 26 23 0
108 -26 0
108 -23 0
109 -28 -108 0
-109 28 0
-109 108 0
-110 30 109 0
110 -30 0
110 -109 0
111 -32 -110 0
-111 32 0
-111 110 0
-112 34 111 0
112 -34 0
112 -111 0
113 -36 -112 0
-113 36 0
-113 112 0
-114 41 113 37 0
114 -41 0
114 -113 0
114 -37 0
115 -43 -114 0
-115 43 0
-115 114 0
-116 13 54 0
116 -13 0
116 -54 0
117 -57 -116 0
-117 57 0
-117 116 0
-118 61 115 117 58 0
118 -61 0
118 -115 0
118 -117 0
118 -58 0
119 -69 -118 0
-119 69 0
-119 118 0
-120 3 119 0
120 -3 0
120 -119 0
121 -5 -120 0
-121 5 0
-121 120 0
122 -52 -108 0
-122 52 0
-122 108 0
-123 11 122 0
123 -11 0
123 -122 0
124 -10 -123 0
-124 10 0
-124 123 0
-125 13 124 0
125 -13 0
125 -124 0
126 -15 -125 0
-126 15 0
-126 125 0
-127 20 121 126 16 0
127 -20 0
127 -121 0
127 -126 0
127 -16 0
128 -46 -127 0
-128 46 0
-128 127 0
-129 8 128 0
129 -8 0
129 -128 0
130 -131 -129 0
-130 131 0
-130 129 0
132 -133 -18 0
-132 133 0
-132 18 0
-134 135 62 92 106 130 132 0
134 -135 0
134 -62 0
134 -92 0
134 -106 0
134 -130 0
134 -132 0
136 -137 -134 0
-136 137 0
-136 134 0
-138 139 136 0
138 -139 0
138 -136 0
140 -141 -138 0
-140 141 0
-140 138 0
-142 143 140 0
142 -143 0
142 -140 0
144 -145 -142 0
-144 145 0
-144 142 0
-146 147 144 0
146 -147 0
146 -144 0
148 -149 -146 0
-148 149 0
-148 146 0
150 -83 -29 0
-150 83 0
-150 29 0
151 -85 -29 0
-151 85 0
-151 29 0
-152 87 151 0
152 -87 0
152 -151 0
153 -89 -152 0
-153 89 0
-153 152 0
-154 91 150 153 0
154 -91 0
154 -150 0
154 -153 0
155 -93 -154 0
-155 93 0
-155 154 0
156 -107 -25 0
-156 107 0
-156 25 0
-157 20 4 126 16 0
157 -20 0
157 -4 0
157 -126 0
157 -16 0
158 -46 -157 0
-158 46 0
-158 157 0
-159 8 158 0
159 -8 0
159 -158 0
160 -131 -159 0
-160 131 0
-160 159 0
-161 135 155 156 160 132 0
161 -135 0
161 -155 0
161 -156 0
161 -160 0
161 -132 0
162 -163 -161 0
-162 163 0
-162 161 0
164 -89 -87 0
-164 89 0
-164 87 0
-165 91 164 0
165 -91 0
165 -164 0
166 -93 -165 0
-166 93 0
-166 165 0
-167 135 166 156 160 132 0
167 -135 0
167 -166 0
167 -156 0
167 -160 0
167 -132 0
168 -169 -167 0
-168 169 0
-168 167 0
170 -171 -167 0
-170 171 0
-170 167 0
-172 3 170 0
172 -3 0
172 -170 0
173 -2 -172 0
-173 2 0
-173 172 0
174 -131 -8 0
-174 131 0
-174 8 0
-175 135 166 174 132 0
175 -135 0
175 -166 0
175 -174 0
175 -132 0
176 -171 -175 0
-176 171 0
-176 175 0
-177 3 176 0
177 -3 0
177 -176 0
178 -5 -177 0
-178 5 0
-178 177 0
-179 20 178 14 16 0
179 -20 0
179 -178 0
179 -14 0
179 -16 0
180 -22 -179 0
-180 22 0
-180 179 0
-181 26 180 23 0
181 -26 0
181 -180 0
181 -23 0
182 -28 -181 0
-182 28 0
-182 181 0
-183 30 168 173 182 0
183 -30 0
183 -168 0
183 -173 0
183 -182 0
184 -32 -183 0
-184 32 0
-184 183 0
-185 34 184 0
185 -34 0
185 -184 0
186 -36 -185 0
-186 36 0
-186 185 0
-187 41 162 186 37 0
187 -41 0
187 -162 0
187 -186 0
187 -37 0
188 -43 -187 0
-188 43 0
-188 187 0
189 -83 -110 0
-189 83 0
-189 110 0
190 -85 -110 0
-190 85 0
-190 110 0
-191 87 190 0
191 -87 0
191 -190 0
192 -89 -191 0
-192 89 0
-192 191 0
-193 91 189 192 0
193 -91 0
193 -189 0
193 -192 0
194 -93 -193 0
-194 93 0
-194 193 0
195 -107 -50 0
-195 107 0
-195 50 0
-196 135 194 195 174 132 0
196 -135 0
196 -194 0
196 -195 0
196 -174 0
196 -132 0
197 -171 -196 0
-197 171 0
-197 196 0
-198 3 197 0
198 -3 0
198 -197 0
199 -5 -198 0
-199 5 0
-199 198 0
-200 20 199 16 0
200 -20 0
200 -199 0
200 -16 0
201 -46 -200 0
-201 46 0
-201 200 0
-202 8 201 0
202 -8 0
202 -201 0
203 -7 -202 0
-203 7 0
-203 202 0
204 -83 -30 0
-204 83 0
-204 30 0
205 -85 -30 0
-205 85 0
-205 30 0
-206 87 205 0
206 -87 0
206 -205 0
207 -89 -206 0
-207 89 0
-207 206 0
-208 91 204 207 0
208 -91 0
208 -204 0
208 -207 0
209 -93 -208 0
-209 93 0
-209 208 0
-210 135 209 174 132 0
210 -135 0
210 -209 0
210 -174 0
210 -132 0
211 -171 -210 0
-211 171 0
-211 210 0
-212 3 211 0
212 -3 0
212 -211 0
213 -5 -212 0
-213 5 0
-213 212 0
-214 20 213 16 0
214 -20 0
214 -213 0
214 -16 0
215 -22 -214 0
-215 22 0
-215 214 0
-216 26 215 23 0
216 -26 0
216 -215 0
216 -23 0
217 -52 -216 0
-217 52 0
-217 216 0
-218 11 217 0
218 -11 0
218 -217 0
219 -10 -218 0
-219 10 0
-219 218 0
-220 13 203 219 0
220 -13 0
220 -203 0
220 -219 0
221 -57 -220 0
-221 57 0
-221 220 0
-222 61 188 221 58 0
222 -61 0
222 -188 0
222 -221 0
222 -58 0
223 -224 -222 0
-223 224 0
-223 222 0
225 -226 -134 0
-225 226 0
-225 134 0
227 -163 -210 0
-227 163 0
-227 210 0
228 -169 -175 0
-228 169 0
-228 175 0
-229 30 228 0
229 -30 0
229 -228 0
230 -32 -229 0
-230 32 0
-230 229 0
-231 34 230 0
231 -34 0
231 -230 0
232 -36 -231 0
-232 36 0
-232 231 0
-233 41 227 232 37 0
233 -41 0
233 -227 0
233 -232 0
233 -37 0
234 -43 -233 0
-234 43 0
-234 233 0
-235 13 6 0
235 -13 0
235 -6 0
236 -57 -235 0
-236 57 0
-236 235 0
-237 61 234 236 58 0
237 -61 0
237 -234 0
237 -236 0
237 -58 0
238 -69 -237 0
-238 69 0
-238 237 0
-239 61 98 236 58 0
239 -61 0
239 -98 0
239 -236 0
239 -58 0
240 -63 -239 0
-240 63 0
-240 239 0
-241 135 240 209 174 132 0
241 -135 0
241 -240 0
241 -209 0
241 -174 0
241 -132 0
242 -171 -241 0
-242 171 0
-242 241 0
-243 3 238 242 0
243 -3 0
243 -238 0
243 -242 0
244 -5 -243 0
-244 5 0
-244 243 0
245 -15 -235 0
-245 15 0
-245 235 0
-246 20 244 245 16 0
246 -20 0
246 -244 0
246 -245 0
246 -16 0
247 -22 -246 0
-247 22 0
-247 246 0
-248 26 247 23 0
248 -26 0
248 -247 0
248 -23 0
249 -52 -248 0
-249 52 0
-249 248 0
-250 11 249 0
250 -11 0
250 -249 0
251 -252 -250 0
-251 252 0
-251 250 0
-253 254 251 0
253 -254 0
253 -251 0
255 -256 -253 0
-255 256 0
-255 253 0
257 -63 -67 0
-257 63 0
-257 67 0
258 -93 -91 0
-258 93 0
-258 91 0
259 -107 -79 0
-259 107 0
-259 79 0
-260 61 66 117 58 0
260 -61 0
260 -66 0
260 -117 0
260 -58 0
261 -69 -260 0
-261 69 0
-261 260 0
-262 3 261 0
262 -3 0
262 -261 0
263 -5 -262 0
-263 5 0
-263 262 0
-264 20 263 126 16 0
264 -20 0
264 -263 0
264 -126 0
264 -16 0
265 -46 -264 0
-265 46 0
-265 264 0
-266 8 265 0
266 -8 0
266 -265 0
267 -131 -266 0
-267 131 0
-267 266 0
-268 135 257 258 259 267 132 0
268 -135 0
268 -257 0
268 -258 0
268 -259 0
268 -267 0
268 -132 0
269 -169 -268 0
-269 169 0
-269 268 0
-270 135 258 156 160 132 0
270 -135 0
270 -258 0
270 -156 0
270 -160 0
270 -132 0
271 -163 -270 0
-271 163 0
-271 270 0
-272 41 271 64 37 0
272 -41 0
272 -271 0
272 -64 0
272 -37 0
273 -43 -272 0
-273 43 0
-273 272 0
-274 20 16 0
274 -20 0
274 -16 0
275 -46 -274 0
-275 46 0
-275 274 0
-276 8 275 0
276 -8 0
276 -275 0
277 -7 -276 0
-277 7 0
-277 276 0
278 -22 -274 0
-278 22 0
-278 274 0
-279 26 278 23 0
279 -26 0
279 -278 0
279 -23 0
280 -52 -279 0
-280 52 0
-280 279 0
-281 11 280 0
281 -11 0
281 -280 0
282 -10 -281 0
-282 10 0
-282 281 0
-283 13 277 282 0
283 -13 0
283 -277 0
283 -282 0
284 -57 -283 0
-284 57 0
-284 283 0
-285 61 273 284 58 0
285 -61 0
285 -273 0
285 -284 0
285 -58 0
286 -69 -285 0
-286 69 0
-286 285 0
-287 20 14 16 0
287 -20 0
287 -14 0
287 -16 0
288 -22 -287 0
-288 22 0
-288 287 0
-289 26 288 23 0
289 -26 0
289 -288 0
289 -23 0
290 -107 -289 0
-290 107 0
-290 289 0
-291 20 126 16 0
291 -20 0
291 -126 0
291 -16 0
292 -46 -291 0
-292 46 0
-292 291 0
-293 8 292 0
293 -8 0
293 -292 0
294 -131 -293 0
-294 131 0
-294 293 0
-295 135 257 258 290 294 132 0
295 -135 0
295 -257 0
295 -258 0
295 -290 0
295 -294 0
295 -132 0
296 -171 -295 0
-296 171 0
-296 295 0
-297 3 286 296 0
297 -3 0
297 -286 0
297 -296 0
298 -2 -297 0
-298 2 0
-298 297 0
-299 135 258 174 132 0
299 -135 0
299 -258 0
299 -174 0
299 -132 0
300 -163 -299 0
-300 163 0
-300 299 0
-301 41 300 64 37 0
301 -41 0
301 -300 0
301 -64 0
301 -37 0
302 -43 -301 0
-302 43 0
-302 301 0
-303 61 302 72 58 0
303 -61 0
303 -302 0
303 -72 0
303 -58 0
304 -69 -303 0
-304 69 0
-304 303 0
305 -63 -73 0
-305 63 0
-305 73 0
-306 135 305 258 174 132 0
306 -135 0
306 -305 0
306 -258 0
306 -174 0
306 -132 0
307 -171 -306 0
-307 171 0
-307 306 0
-308 3 304 307 0
308 -3 0
308 -304 0
308 -307 0
309 -5 -308 0
-309 5 0
-309 308 0
-310 20 309 14 16 0
310 -20 0
310 -309 0
310 -14 0
310 -16 0
311 -22 -310 0
-311 22 0
-311 310 0
-312 26 311 23 0
312 -26 0
312 -311 0
312 -23 0
313 -28 -312 0
-313 28 0
-313 312 0
-314 30 269 298 313 0
314 -30 0
314 -269 0
314 -298 0
314 -313 0
315 -85 -314 0
-315 85 0
-315 314 0
-316 87 315 0
316 -87 0
316 -315 0
317 -318 -316 0
-317 318 0
-317 316 0
319 -320 -250 0
-319 320 0
-319 250 0
321 -163 -196 0
-321 163 0
-321 196 0
322 -169 -196 0
-322 169 0
-322 196 0
-323 30 322 109 0
323 -30 0
323 -322 0
323 -109 0
324 -32 -323 0
-324 32 0
-324 323 0
-325 34 324 0
325 -34 0
325 -324 0
326 -36 -325 0
-326 36 0
-326 325 0
-327 41 321 326 37 0
327 -41 0
327 -321 0
327 -326 0
327 -37 0
328 -43 -327 0
-328 43 0
-328 327 0
-329 61 328 58 0
329 -61 0
329 -328 0
329 -58 0
330 -69 -329 0
-330 69 0
-330 329 0
331 -63 -118 0
-331 63 0
-331 118 0
332 -107 -108 0
-332 107 0
-332 108 0
-333 135 331 194 332 174 132 0
333 -135 0
333 -331 0
333 -194 0
333 -332 0
333 -174 0
333 -132 0
334 -171 -333 0
-334 171 0
-334 333 0
-335 3 330 334 0
335 -3 0
335 -330 0
335 -334 0
336 -5 -335 0
-336 5 0
-336 335 0
-337 20 336 16 0
337 -20 0
337 -336 0
337 -16 0
338 -46 -337 0
-338 46 0
-338 337 0
-339 8 338 0
339 -8 0
339 -338 0
340 -7 -339 0
-340 7 0
-340 339 0
-341 61 234 58 0
341 -61 0
341 -234 0
341 -58 0
342 -69 -341 0
-342 69 0
-342 341 0
-343 61 98 58 0
343 -61 0
343 -98 0
343 -58 0
344 -63 -343 0
-344 63 0
-344 343 0
-345 135 344 209 174 132 0
345 -135 0
345 -344 0
345 -209 0
345 -174 0
345 -132 0
346 -171 -345 0
-346 171 0
-346 345 0
-347 3 342 346 0
347 -3 0
347 -342 0
347 -346 0
348 -5 -347 0
-348 5 0
-348 347 0
-349 20 348 16 0
349 -20 0
349 -348 0
349 -16 0
350 -22 -349 0
-350 22 0
-350 349 0
-351 26 350 23 0
351 -26 0
351 -350 0
351 -23 0
352 -52 -351 0
-352 52 0
-352 351 0
-353 11 352 0
353 -11 0
353 -352 0
354 -10 -353 0
-354 10 0
-354 353 0
-355 13 340 354 0
355 -13 0
355 -340 0
355 -354 0
356 -357 -355 0
-356 357 0
-356 355 0
-358 359 148 223 225 255 317 319 356 0
358 -359 0
358 -148 0
358 -223 0
358 -225 0
358 -255 0
358 -317 0
358 -319 0
358 -356 0
360 -361 -358 0
-360 361 0
-360 358 0
362 -141 -139 0
-362 141 0
-362 139 0
-363 143 362 0
363 -143 0
363 -362 0
364 -145 -363 0
-364 145 0
-364 363 0
-365 147 364 0
365 -147 0
365 -364 0
366 -149 -365 0
-366 149 0
-366 365 0
-367 20 4 245 16 0
367 -20 0
367 -4 0
367 -245 0
367 -16 0
368 -22 -367 0
-368 22 0
-368 367 0
-369 26 368 23 0
369 -26 0
369 -368 0
369 -23 0
370 -52 -369 0
-370 52 0
-370 369 0
-371 11 370 0
371 -11 0
371 -370 0
372 -252 -371 0
-372 252 0
-372 371 0
-373 254 372 0
373 -254 0
373 -372 0
374 -256 -373 0
-374 256 0
-374 373 0
375 -318 -152 0
-375 318 0
-375 152 0
376 -320 -371 0
-376 320 0
-376 371 0
377 -357 -55 0
-377 357 0
-377 55 0
-378 359 366 374 375 376 377 0
378 -359 0
378 -366 0
378 -374 0
378 -375 0
378 -376 0
378 -377 0
379 -380 -378 0
-379 380 0
-379 378 0
381 -252 -11 0
-381 252 0
-381 11 0
-382 254 381 0
382 -254 0
382 -381 0
383 -256 -382 0
-383 256 0
-383 382 0
384 -318 -87 0
-384 318 0
-384 87 0
385 -320 -11 0
-385 320 0
-385 11 0
-386 13 48 9 0
386 -13 0
386 -48 0
386 -9 0
387 -357 -386 0
-387 357 0
-387 386 0
-388 359 366 383 384 385 387 0
388 -359 0
388 -366 0
388 -383 0
388 -384 0
388 -385 0
388 -387 0
389 -390 -388 0
-389 390 0
-389 388 0
-391 26 389 21 23 0
391 -26 0
391 -389 0
391 -21 0
391 -23 0
392 -28 -391 0
-392 28 0
-392 391 0
-393 30 1 392 0
393 -30 0
393 -1 0
393 -392 0
394 -83 -393 0
-394 83 0
-394 393 0
395 -85 -393 0
-395 85 0
-395 393 0
-396 87 395 0
396 -87 0
396 -395 0
397 -89 -396 0
-397 89 0
-397 396 0
-398 91 379 394 397 0
398 -91 0
398 -379 0
398 -394 0
398 -397 0
399 -93 -398 0
-399 93 0
-399 398 0
-400 30 1 0
400 -30 0
400 -1 0
401 -85 -400 0
-401 85 0
-401 400 0
-402 87 401 0
402 -87 0
402 -401 0
403 -318 -402 0
-403 318 0
-403 402 0
-404 359 366 383 403 385 387 0
404 -359 0
404 -366 0
404 -383 0
404 -403 0
404 -385 0
404 -387 0
405 -390 -404 0
-405 390 0
-405 404 0
-406 26 405 21 23 0
406 -26 0
406 -405 0
406 -21 0
406 -23 0
407 -107 -406 0
-407 107 0
-407 406 0
-408 359 366 383 403 385 0
408 -359 0
408 -366 0
408 -383 0
408 -403 0
408 -385 0
409 -390 -408 0
-409 390 0
-409 408 0
-410 26 409 49 23 0
410 -26 0
410 -409 0
410 -49 0
410 -23 0
411 -52 -410 0
-411 52 0
-411 410 0
-412 11 411 0
412 -11 0
412 -411 0
413 -10 -412 0
-413 10 0
-413 412 0
-414 13 413 0
414 -13 0
414 -413 0
415 -15 -414 0
-415 15 0
-415 414 0
-416 20 4 415 16 0
416 -20 0
416 -4 0
416 -415 0
416 -16 0
417 -46 -416 0
-417 46 0
-417 416 0
-418 8 417 0
418 -8 0
418 -417 0
419 -131 -418 0
-419 131 0
-419 418 0
-420 135 399 407 419 132 0
420 -135 0
420 -399 0
420 -407 0
420 -419 0
420 -132 0
421 -163 -420 0
-421 163 0
-421 420 0
-422 41 421 37 0
422 -41 0
422 -421 0
422 -37 0
423 -43 -422 0
-423 43 0
-423 422 0
424 -252 -53 0
-424 252 0
-424 53 0
-425 254 424 0
425 -254 0
425 -424 0
426 -256 -425 0
-426 256 0
-426 425 0
427 -318 -191 0
-427 318 0
-427 191 0
428 -320 -53 0
-428 320 0
-428 53 0
-429 359 366 426 427 428 0
429 -359 0
429 -366 0
429 -426 0
429 -427 0
429 -428 0
430 -380 -429 0
-430 380 0
-430 429 0
-431 359 366 383 384 385 0
431 -359 0
431 -366 0
431 -383 0
431 -384 0
431 -385 0
432 -390 -431 0
-432 390 0
-432 431 0
-433 26 432 49 23 0
433 -26 0
433 -432 0
433 -49 0
433 -23 0
434 -28 -433 0
-434 28 0
-434 433 0
-435 30 434 0
435 -30 0
435 -434 0
436 -83 -435 0
-436 83 0
-436 435 0
437 -85 -435 0
-437 85 0
-437 435 0
-438 87 437 0
438 -87 0
438 -437 0
439 -89 -438 0
-439 89 0
-439 438 0
-440 91 430 436 439 0
440 -91 0
440 -430 0
440 -436 0
440 -439 0
441 -93 -440 0
-441 93 0
-441 440 0
442 -318 -206 0
-442 318 0
-442 206 0
-443 359 366 383 442 385 0
443 -359 0
443 -366 0
443 -383 0
443 -442 0
443 -385 0
444 -390 -443 0
-444 390 0
-444 443 0
-445 26 444 49 23 0
445 -26 0
445 -444 0
445 -49 0
445 -23 0
446 -107 -445 0
-446 107 0
-446 445 0
-447 135 441 446 174 132 0
447 -135 0
447 -441 0
447 -446 0
447 -174 0
447 -132 0
448 -171 -447 0
-448 171 0
-448 447 0
-449 3 448 0
449 -3 0
449 -448 0
450 -5 -449 0
-450 5 0
-450 449 0
-451 20 450 16 0
451 -20 0
451 -450 0
451 -16 0
452 -46 -451 0
-452 46 0
-452 451 0
-453 8 452 0
453 -8 0
453 -452 0
454 -7 -453 0
-454 7 0
-454 453 0
455 -83 -400 0
-455 83 0
-455 400 0
456 -89 -402 0
-456 89 0
-456 402 0
-457 91 455 456 0
457 -91 0
457 -455 0
457 -456 0
458 -93 -457 0
-458 93 0
-458 457 0
459 -131 -47 0
-459 131 0
-459 47 0
-460 135 458 459 132 0
460 -135 0
460 -458 0
460 -459 0
460 -132 0
461 -137 -460 0
-461 137 0
-461 460 0
-462 139 461 0
462 -139 0
462 -461 0
463 -141 -462 0
-463 141 0
-463 462 0
-464 143 463 0
464 -143 0
464 -463 0
465 -145 -464 0
-465 145 0
-465 464 0
-466 147 465 0
466 -147 0
466 -465 0
467 -149 -466 0
-467 149 0
-467 466 0
468 -226 -460 0
-468 226 0
-468 460 0
-469 135 258 459 132 0
469 -135 0
469 -258 0
469 -459 0
469 -132 0
470 -169 -469 0
-470 169 0
-470 469 0
471 -171 -469 0
-471 171 0
-471 469 0
-472 3 471 0
472 -3 0
472 -471 0
473 -2 -472 0
-473 2 0
-473 472 0
-474 30 470 473 0
474 -30 0
474 -470 0
474 -473 0
475 -85 -474 0
-475 85 0
-475 474 0
-476 87 475 0
476 -87 0
476 -475 0
477 -318 -476 0
-477 318 0
-477 476 0
-478 359 467 468 383 477 385 0
478 -359 0
478 -467 0
478 -468 0
478 -383 0
478 -477 0
478 -385 0
479 -390 -478 0
-479 390 0
-479 478 0
480 -380 -443 0
-480 380 0
-480 443 0
-481 91 480 204 207 0
481 -91 0
481 -480 0
481 -204 0
481 -207 0
482 -93 -481 0
-482 93 0
-482 481 0
-483 135 482 174 132 0
483 -135 0
483 -482 0
483 -174 0
483 -132 0
484 -171 -483 0
-484 171 0
-484 483 0
-485 3 484 0
485 -3 0
485 -484 0
486 -5 -485 0
-486 5 0
-486 485 0
-487 20 486 16 0
487 -20 0
487 -486 0
487 -16 0
488 -22 -487 0
-488 22 0
-488 487 0
-489 26 479 488 23 0
489 -26 0
489 -479 0
489 -488 0
489 -23 0
490 -52 -489 0
-490 52 0
-490 489 0
-491 11 490 0
491 -11 0
491 -490 0
492 -10 -491 0
-492 10 0
-492 491 0
-493 13 454 492 0
493 -13 0
493 -454 0
493 -492 0
494 -57 -493 0
-494 57 0
-494 493 0
-495 61 423 494 58 0
495 -61 0
495 -423 0
495 -494 0
495 -58 0
496 -497 -495 0
-496 497 0
-496 495 0
-498 41 37 0
498 -41 0
498 -37 0
499 -43 -498 0
-499 43 0
-499 498 0
500 -52 -433 0
-500 52 0
-500 433 0
-501 11 500 0
501 -11 0
501 -500 0
502 -10 -501 0
-502 10 0
-502 501 0
-503 13 48 502 0
503 -13 0
503 -48 0
503 -502 0
504 -57 -503 0
-504 57 0
-504 503 0
-505 61 499 504 58 0
505 -61 0
505 -499 0
505 -504 0
505 -58 0
506 -63 -505 0
-506 63 0
-506 505 0
-507 61 499 56 58 0
507 -61 0
507 -499 0
507 -56 0
507 -58 0
508 -224 -507 0
-508 224 0
-508 507 0
-509 61 499 236 58 0
509 -61 0
509 -499 0
509 -236 0
509 -58 0
510 -69 -509 0
-510 69 0
-510 509 0
-511 3 510 0
511 -3 0
511 -510 0
512 -5 -511 0
-512 5 0
-512 511 0
-513 20 512 245 16 0
513 -20 0
513 -512 0
513 -245 0
513 -16 0
514 -22 -513 0
-514 22 0
-514 513 0
-515 26 514 23 0
515 -26 0
515 -514 0
515 -23 0
516 -52 -515 0
-516 52 0
-516 515 0
-517 11 516 0
517 -11 0
517 -516 0
518 -252 -517 0
-518 252 0
-518 517 0
-519 254 518 0
519 -254 0
519 -518 0
520 -256 -519 0
-520 256 0
-520 519 0
521 -320 -517 0
-521 320 0
-521 517 0
-522 61 499 117 58 0
522 -61 0
522 -499 0
522 -117 0
522 -58 0
523 -69 -522 0
-523 69 0
-523 522 0
-524 3 523 0
524 -3 0
524 -523 0
525 -5 -524 0
-525 5 0
-525 524 0
-526 20 525 16 0
526 -20 0
526 -525 0
526 -16 0
527 -46 -526 0
-527 46 0
-527 526 0
-528 8 527 0
528 -8 0
528 -527 0
529 -7 -528 0
-529 7 0
-529 528 0
-530 61 499 58 0
530 -61 0
530 -499 0
530 -58 0
531 -69 -530 0
-531 69 0
-531 530 0
-532 3 531 0
532 -3 0
532 -531 0
533 -5 -532 0
-533 5 0
-533 532 0
-534 20 533 16 0
534 -20 0
534 -533 0
534 -16 0
535 -22 -534 0
-535 22 0
-535 534 0
-536 26 535 23 0
536 -26 0
536 -535 0
536 -23 0
537 -52 -536 0
-537 52 0
-537 536 0
-538 11 537 0
538 -11 0
538 -537 0
539 -10 -538 0
-539 10 0
-539 538 0
-540 13 529 539 0
540 -13 0
540 -529 0
540 -539 0
541 -357 -540 0
-541 357 0
-541 540 0
-542 359 366 508 520 384 521 541 0
542 -359 0
542 -366 0
542 -508 0
542 -520 0
542 -384 0
542 -521 0
542 -541 0
543 -380 -542 0
-543 380 0
-543 542 0
-544 91 543 164 0
544 -91 0
544 -543 0
544 -164 0
545 -93 -544 0
-545 93 0
-545 544 0
546 -57 -386 0
-546 57 0
-546 386 0
-547 61 499 546 58 0
547 -61 0
547 -499 0
547 -546 0
547 -58 0
548 -224 -547 0
-548 224 0
-548 547 0
549 -46 -534 0
-549 46 0
-549 534 0
-550 8 549 0
550 -8 0
550 -549 0
551 -7 -550 0
-551 7 0
-551 550 0
-552 13 551 9 0
552 -13 0
552 -551 0
552 -9 0
553 -357 -552 0
-553 357 0
-553 552 0
-554 359 366 548 383 384 385 553 0
554 -359 0
554 -366 0
554 -548 0
554 -383 0
554 -384 0
554 -385 0
554 -553 0
555 -390 -554 0
-555 390 0
-555 554 0
-556 61 499 72 58 0
556 -61 0
556 -499 0
556 -72 0
556 -58 0
557 -69 -556 0
-557 69 0
-557 556 0
-558 3 557 0
558 -3 0
558 -557 0
559 -5 -558 0
-559 5 0
-559 558 0
-560 20 559 14 16 0
560 -20 0
560 -559 0
560 -14 0
560 -16 0
561 -22 -560 0
-561 22 0
-561 560 0
-562 26 555 561 23 0
562 -26 0
562 -555 0
562 -561 0
562 -23 0
563 -107 -562 0
-563 107 0
-563 562 0
-564 13 502 0
564 -13 0
564 -502 0
565 -57 -564 0
-565 57 0
-565 564 0
-566 61 499 565 58 0
566 -61 0
566 -499 0
566 -565 0
566 -58 0
567 -69 -566 0
-567 69 0
-567 566 0
-568 3 567 0
568 -3 0
568 -567 0
569 -5 -568 0
-569 5 0
-569 568 0
570 -224 -530 0
-570 224 0
-570 530 0
-571 359 366 570 383 384 385 0
571 -359 0
571 -366 0
571 -570 0
571 -383 0
571 -384 0
571 -385 0
572 -390 -571 0
-572 390 0
-572 571 0
-573 26 572 23 0
573 -26 0
573 -572 0
573 -23 0
574 -52 -573 0
-574 52 0
-574 573 0
-575 11 574 0
575 -11 0
575 -574 0
576 -10 -575 0
-576 10 0
-576 575 0
-577 13 576 0
577 -13 0
577 -576 0
578 -15 -577 0
-578 15 0
-578 577 0
-579 20 569 578 16 0
579 -20 0
579 -569 0
579 -578 0
579 -16 0
580 -46 -579 0
-580 46 0
-580 579 0
-581 8 580 0
581 -8 0
581 -580 0
582 -131 -581 0
-582 131 0
-582 581 0
-583 135 506 545 563 582 132 0
583 -135 0
583 -506 0
583 -545 0
583 -563 0
583 -582 0
583 -132 0
584 -169 -583 0
-584 169 0
-584 583 0
-585 359 366 374 384 376 377 0
585 -359 0
585 -366 0
585 -374 0
585 -384 0
585 -376 0
585 -377 0
586 -380 -585 0
-586 380 0
-586 585 0
-587 91 586 164 0
587 -91 0
587 -586 0
587 -164 0
588 -93 -587 0
-588 93 0
-588 587 0
589 -107 -391 0
-589 107 0
-589 391 0
590 -15 -564 0
-590 15 0
-590 564 0
-591 20 4 590 16 0
591 -20 0
591 -4 0
591 -590 0
591 -16 0
592 -46 -591 0
-592 46 0
-592 591 0
-593 8 592 0
593 -8 0
593 -592 0
594 -131 -593 0
-594 131 0
-594 593 0
-595 135 588 589 594 132 0
595 -135 0
595 -588 0
595 -589 0
595 -594 0
595 -132 0
596 -163 -595 0
-596 163 0
-596 595 0
-597 41 596 37 0
597 -41 0
597 -596 0
597 -37 0
598 -43 -597 0
-598 43 0
-598 597 0
-599 135 166 459 132 0
599 -135 0
599 -166 0
599 -459 0
599 -132 0
600 -137 -599 0
-600 137 0
-600 599 0
-601 139 600 0
601 -139 0
601 -600 0
602 -141 -601 0
-602 141 0
-602 601 0
-603 143 602 0
603 -143 0
603 -602 0
604 -145 -603 0
-604 145 0
-604 603 0
-605 147 604 0
605 -147 0
605 -604 0
606 -149 -605 0
-606 149 0
-606 605 0
607 -226 -599 0
-607 226 0
-607 599 0
-608 359 606 607 383 384 385 0
608 -359 0
608 -606 0
608 -607 0
608 -383 0
608 -384 0
608 -385 0
609 -390 -608 0
-609 390 0
-609 608 0
-610 26 609 278 23 0
610 -26 0
610 -609 0
610 -278 0
610 -23 0
611 -52 -610 0
-611 52 0
-611 610 0
-612 11 611 0
612 -11 0
612 -611 0
613 -10 -612 0
-613 10 0
-613 612 0
-614 13 277 613 0
614 -13 0
614 -277 0
614 -613 0
615 -57 -614 0
-615 57 0
-615 614 0
-616 61 598 615 58 0
616 -61 0
616 -598 0
616 -615 0
616 -58 0
617 -69 -616 0
-617 69 0
-617 616 0
-618 20 245 16 0
618 -20 0
618 -245 0
618 -16 0
619 -22 -618 0
-619 22 0
-619 618 0
-620 26 619 23 0
620 -26 0
620 -619 0
620 -23 0
621 -52 -620 0
-621 52 0
-621 620 0
-622 11 621 0
622 -11 0
622 -621 0
623 -252 -622 0
-623 252 0
-623 622 0
-624 254 623 0
624 -254 0
624 -623 0
625 -256 -624 0
-625 256 0
-625 624 0
626 -320 -622 0
-626 320 0
-626 622 0
627 -357 -283 0
-627 357 0
-627 283 0
-628 359 366 508 625 384 626 627 0
628 -359 0
628 -366 0
628 -508 0
628 -625 0
628 -384 0
628 -626 0
628 -627 0
629 -380 -628 0
-629 380 0
-629 628 0
-630 91 629 164 0
630 -91 0
630 -629 0
630 -164 0
631 -93 -630 0
-631 93 0
-631 630 0
-632 13 277 9 0
632 -13 0
632 -277 0
632 -9 0
633 -357 -632 0
-633 357 0
-633 632 0
-634 359 366 548 383 384 385 633 0
634 -359 0
634 -366 0
634 -548 0
634 -383 0
634 -384 0
634 -385 0
634 -633 0
635 -390 -634 0
-635 390 0
-635 634 0
-636 26 635 288 23 0
636 -26 0
636 -635 0
636 -288 0
636 -23 0
637 -107 -636 0
-637 107 0
-637 636 0
-638 20 578 16 0
638 -20 0
638 -578 0
638 -16 0
639 -46 -638 0
-639 46 0
-639 638 0
-640 8 639 0
640 -8 0
640 -639 0
641 -131 -640 0
-641 131 0
-641 640 0
-642 135 506 631 637 641 132 0
642 -135 0
642 -506 0
642 -631 0
642 -637 0
642 -641 0
642 -132 0
643 -171 -642 0
-643 171 0
-643 642 0
-644 3 617 643 0
644 -3 0
644 -617 0
644 -643 0
645 -2 -644 0
-645 2 0
-645 644 0
646 -63 -547 0
-646 63 0
-646 547 0
647 -57 -125 0
-647 57 0
-647 125 0
-648 61 499 647 58 0
648 -61 0
648 -499 0
648 -647 0
648 -58 0
649 -69 -648 0
-649 69 0
-649 648 0
-650 3 649 0
650 -3 0
650 -649 0
651 -5 -650 0
-651 5 0
-651 650 0
-652 20 651 126 16 0
652 -20 0
652 -651 0
652 -126 0
652 -16 0
653 -46 -652 0
-653 46 0
-653 652 0
-654 8 653 0
654 -8 0
654 -653 0
655 -131 -654 0
-655 131 0
-655 654 0
-656 135 646 166 655 132 0
656 -135 0
656 -646 0
656 -166 0
656 -655 0
656 -132 0
657 -137 -656 0
-657 137 0
-657 656 0
-658 139 657 0
658 -139 0
658 -657 0
659 -141 -658 0
-659 141 0
-659 658 0
-660 143 659 0
660 -143 0
660 -659 0
661 -145 -660 0
-661 145 0
-661 660 0
-662 147 661 0
662 -147 0
662 -661 0
663 -149 -662 0
-663 149 0
-663 662 0
-664 135 166 160 132 0
664 -135 0
664 -166 0
664 -160 0
664 -132 0
665 -163 -664 0
-665 163 0
-665 664 0
-666 41 665 37 0
666 -41 0
666 -665 0
666 -37 0
667 -43 -666 0
-667 43 0
-667 666 0
-668 20 178 16 0
668 -20 0
668 -178 0
668 -16 0
669 -46 -668 0
-669 46 0
-669 668 0
-670 8 669 0
670 -8 0
670 -669 0
671 -7 -670 0
-671 7 0
-671 670 0
-672 13 671 9 0
672 -13 0
672 -671 0
672 -9 0
673 -57 -672 0
-673 57 0
-673 672 0
-674 61 667 673 58 0
674 -61 0
674 -667 0
674 -673 0
674 -58 0
675 -224 -674 0
-675 224 0
-675 674 0
676 -226 -656 0
-676 226 0
-676 656 0
677 -163 -175 0
-677 163 0
-677 175 0
-678 41 677 37 0
678 -41 0
678 -677 0
678 -37 0
679 -43 -678 0
-679 43 0
-679 678 0
-680 61 679 58 0
680 -61 0
680 -679 0
680 -58 0
681 -69 -680 0
-681 69 0
-681 680 0
682 -63 -530 0
-682 63 0
-682 530 0
-683 135 682 166 174 132 0
683 -135 0
683 -682 0
683 -166 0
683 -174 0
683 -132 0
684 -171 -683 0
-684 171 0
-684 683 0
-685 3 681 684 0
685 -3 0
685 -681 0
685 -684 0
686 -5 -685 0
-686 5 0
-686 685 0
-687 20 686 16 0
687 -20 0
687 -686 0
687 -16 0
688 -46 -687 0
-688 46 0
-688 687 0
-689 8 688 0
689 -8 0
689 -688 0
690 -7 -689 0
-690 7 0
-690 689 0
-691 13 690 9 0
691 -13 0
691 -690 0
691 -9 0
692 -357 -691 0
-692 357 0
-692 691 0
-693 359 663 675 676 383 384 385 692 0
693 -359 0
693 -663 0
693 -675 0
693 -676 0
693 -383 0
693 -384 0
693 -385 0
693 -692 0
694 -390 -693 0
-694 390 0
-694 693 0
695 -357 -12 0
-695 357 0
-695 12 0
-696 359 366 383 384 385 695 0
696 -359 0
696 -366 0
696 -383 0
696 -384 0
696 -385 0
696 -695 0
697 -380 -696 0
-697 380 0
-697 696 0
-698 91 697 164 0
698 -91 0
698 -697 0
698 -164 0
699 -93 -698 0
-699 93 0
-699 698 0
-700 135 699 174 132 0
700 -135 0
700 -699 0
700 -174 0
700 -132 0
701 -163 -700 0
-701 163 0
-701 700 0
-702 41 701 37 0
702 -41 0
702 -701 0
702 -37 0
703 -43 -702 0
-703 43 0
-703 702 0
-704 61 703 72 58 0
704 -61 0
704 -703 0
704 -72 0
704 -58 0
705 -69 -704 0
-705 69 0
-705 704 0
706 -63 -556 0
-706 63 0
-706 556 0
707 -224 -556 0
-707 224 0
-707 556 0
-708 359 366 707 383 384 385 695 0
708 -359 0
708 -366 0
708 -707 0
708 -383 0
708 -384 0
708 -385 0
708 -695 0
709 -380 -708 0
-709 380 0
-709 708 0
-710 91 709 164 0
710 -91 0
710 -709 0
710 -164 0
711 -93 -710 0
-711 93 0
-711 710 0
-712 135 706 711 174 132 0
712 -135 0
712 -706 0
712 -711 0
712 -174 0
712 -132 0
713 -171 -712 0
-713 171 0
-713 712 0
-714 3 705 713 0
714 -3 0
714 -705 0
714 -713 0
715 -5 -714 0
-715 5 0
-715 714 0
-716 20 715 14 16 0
716 -20 0
716 -715 0
716 -14 0
716 -16 0
717 -22 -716 0
-717 22 0
-717 716 0
-718 26 694 717 23 0
718 -26 0
718 -694 0
718 -717 0
718 -23 0
719 -28 -718 0
-719 28 0
-719 718 0
-720 30 584 645 719 0
720 -30 0
720 -584 0
720 -645 0
720 -719 0
721 -32 -720 0
-721 32 0
-721 720 0
-722 34 496 721 0
722 -34 0
722 -496 0
722 -721 0
723 -724 -722 0
-723 724 0
-723 722 0
725 -163 -447 0
-725 163 0
-725 447 0
-726 91 430 164 0
726 -91 0
726 -430 0
726 -164 0
727 -93 -726 0
-727 93 0
-727 726 0
728 -107 -433 0
-728 107 0
-728 433 0
-729 135 727 728 174 132 0
729 -135 0
729 -727 0
729 -728 0
729 -174 0
729 -132 0
730 -169 -729 0
-730 169 0
-730 729 0
731 -137 -175 0
-731 137 0
-731 175 0
-732 139 731 0
732 -139 0
732 -731 0
733 -141 -732 0
-733 141 0
-733 732 0
-734 143 733 0
734 -143 0
734 -733 0
735 -145 -734 0
-735 145 0
-735 734 0
-736 147 735 0
736 -147 0
736 -735 0
737 -149 -736 0
-737 149 0
-737 736 0
738 -226 -175 0
-738 226 0
-738 175 0
-739 359 737 738 383 384 385 0
739 -359 0
739 -737 0
739 -738 0
739 -383 0
739 -384 0
739 -385 0
740 -390 -739 0
-740 390 0
-740 739 0
-741 26 740 23 0
741 -26 0
741 -740 0
741 -23 0
742 -28 -741 0
-742 28 0
-742 741 0
-743 30 730 742 0
743 -30 0
743 -730 0
743 -742 0
744 -32 -743 0
-744 32 0
-744 743 0
-745 34 744 0
745 -34 0
745 -744 0
746 -36 -745 0
-746 36 0
-746 745 0
-747 41 725 746 37 0
747 -41 0
747 -725 0
747 -746 0
747 -37 0
748 -43 -747 0
-748 43 0
-748 747 0
-749 61 748 58 0
749 -61 0
749 -748 0
749 -58 0
750 -69 -749 0
-750 69 0
-750 749 0
751 -32 -435 0
-751 32 0
-751 435 0
-752 34 751 0
752 -34 0
752 -751 0
753 -36 -752 0
-753 36 0
-753 752 0
-754 41 753 37 0
754 -41 0
754 -753 0
754 -37 0
755 -43 -754 0
-755 43 0
-755 754 0
-756 61 755 58 0
756 -61 0
756 -755 0
756 -58 0
757 -63 -756 0
-757 63 0
-757 756 0
758 -224 -118 0
-758 224 0
-758 118 0
759 -252 -123 0
-759 252 0
-759 123 0
-760 254 759 0
760 -254 0
760 -759 0
761 -256 -760 0
-761 256 0
-761 760 0
762 -320 -123 0
-762 320 0
-762 123 0
-763 359 366 758 761 427 762 0
763 -359 0
763 -366 0
763 -758 0
763 -761 0
763 -427 0
763 -762 0
764 -380 -763 0
-764 380 0
-764 763 0
-765 61 66 58 0
765 -61 0
765 -66 0
765 -58 0
766 -224 -765 0
-766 224 0
-766 765 0
-767 359 366 766 383 384 385 0
767 -359 0
767 -366 0
767 -766 0
767 -383 0
767 -384 0
767 -385 0
768 -390 -767 0
-768 390 0
-768 767 0
-769 26 768 23 0
769 -26 0
769 -768 0
769 -23 0
770 -28 -769 0
-770 28 0
-770 769 0
-771 30 770 0
771 -30 0
771 -770 0
772 -83 -771 0
-772 83 0
-772 771 0
773 -85 -771 0
-773 85 0
-773 771 0
-774 87 773 0
774 -87 0
774 -773 0
775 -89 -774 0
-775 89 0
-775 774 0
-776 91 764 772 775 0
776 -91 0
776 -764 0
776 -772 0
776 -775 0
777 -93 -776 0
-777 93 0
-777 776 0
778 -224 -343 0
-778 224 0
-778 343 0
-779 359 366 778 383 442 385 0
779 -359 0
779 -366 0
779 -778 0
779 -383 0
779 -442 0
779 -385 0
780 -390 -779 0
-780 390 0
-780 779 0
-781 26 780 23 0
781 -26 0
781 -780 0
781 -23 0
782 -107 -781 0
-782 107 0
-782 781 0
-783 135 757 777 782 174 132 0
783 -135 0
783 -757 0
783 -777 0
783 -782 0
783 -174 0
783 -132 0
784 -171 -783 0
-784 171 0
-784 783 0
-785 3 750 784 0
785 -3 0
785 -750 0
785 -784 0
786 -5 -785 0
-786 5 0
-786 785 0
-787 20 786 16 0
787 -20 0
787 -786 0
787 -16 0
788 -46 -787 0
-788 46 0
-788 787 0
-789 8 788 0
789 -8 0
789 -788 0
790 -7 -789 0
-790 7 0
-790 789 0
791 -32 -400 0
-791 32 0
-791 400 0
-792 34 791 0
792 -34 0
792 -791 0
793 -36 -792 0
-793 36 0
-793 792 0
-794 41 793 37 0
794 -41 0
794 -793 0
794 -37 0
795 -43 -794 0
-795 43 0
-795 794 0
-796 61 795 58 0
796 -61 0
796 -795 0
796 -58 0
797 -63 -796 0
-797 63 0
-797 796 0
798 -69 -765 0
-798 69 0
-798 765 0
-799 3 798 0
799 -3 0
799 -798 0
800 -2 -799 0
-800 2 0
-800 799 0
-801 30 800 0
801 -30 0
801 -800 0
802 -83 -801 0
-802 83 0
-802 801 0
803 -85 -801 0
-803 85 0
-803 801 0
-804 87 803 0
804 -87 0
804 -803 0
805 -89 -804 0
-805 89 0
-805 804 0
-806 91 802 805 0
806 -91 0
806 -802 0
806 -805 0
807 -93 -806 0
-807 93 0
-807 806 0
808 -69 -343 0
-808 69 0
-808 343 0
-809 3 808 0
809 -3 0
809 -808 0
810 -5 -809 0
-810 5 0
-810 809 0
-811 20 810 16 0
811 -20 0
811 -810 0
811 -16 0
812 -46 -811 0
-812 46 0
-812 811 0
-813 8 812 0
813 -8 0
813 -812 0
814 -131 -813 0
-814 131 0
-814 813 0
-815 135 797 807 814 132 0
815 -135 0
815 -797 0
815 -807 0
815 -814 0
815 -132 0
816 -137 -815 0
-816 137 0
-816 815 0
-817 139 816 0
817 -139 0
817 -816 0
818 -141 -817 0
-818 141 0
-818 817 0
-819 143 818 0
819 -143 0
819 -818 0
820 -145 -819 0
-820 145 0
-820 819 0
-821 147 820 0
821 -147 0
821 -820 0
822 -149 -821 0
-822 149 0
-822 821 0
823 -163 -460 0
-823 163 0
-823 460 0
824 -169 -599 0
-824 169 0
-824 599 0
825 -171 -599 0
-825 171 0
-825 599 0
-826 3 825 0
826 -3 0
826 -825 0
827 -2 -826 0
-827 2 0
-827 826 0
-828 30 824 827 0
828 -30 0
828 -824 0
828 -827 0
829 -32 -828 0
-829 32 0
-829 828 0
-830 34 829 0
830 -34 0
830 -829 0
831 -36 -830 0
-831 36 0
-831 830 0
-832 41 823 831 37 0
832 -41 0
832 -823 0
832 -831 0
832 -37 0
833 -43 -832 0
-833 43 0
-833 832 0
-834 61 833 58 0
834 -61 0
834 -833 0
834 -58 0
835 -224 -834 0
-835 224 0
-835 834 0
836 -226 -815 0
-836 226 0
-836 815 0
837 -63 -765 0
-837 63 0
-837 765 0
838 -5 -799 0
-838 5 0
-838 799 0
-839 20 838 16 0
839 -20 0
839 -838 0
839 -16 0
840 -46 -839 0
-840 46 0
-840 839 0
-841 8 840 0
841 -8 0
841 -840 0
842 -131 -841 0
-842 131 0
-842 841 0
-843 135 837 258 842 132 0
843 -135 0
843 -837 0
843 -258 0
843 -842 0
843 -132 0
844 -169 -843 0
-844 169 0
-844 843 0
845 -163 -469 0
-845 163 0
-845 469 0
-846 41 845 64 37 0
846 -41 0
846 -845 0
846 -64 0
846 -37 0
847 -43 -846 0
-847 43 0
-847 846 0
-848 61 847 58 0
848 -61 0
848 -847 0
848 -58 0
849 -69 -848 0
-849 69 0
-849 848 0
850 -131 -276 0
-850 131 0
-850 276 0
-851 135 837 258 850 132 0
851 -135 0
851 -837 0
851 -258 0
851 -850 0
851 -132 0
852 -171 -851 0
-852 171 0
-852 851 0
-853 3 849 852 0
853 -3 0
853 -849 0
853 -852 0
854 -2 -853 0
-854 2 0
-854 853 0
-855 30 844 854 0
855 -30 0
855 -844 0
855 -854 0
856 -85 -855 0
-856 85 0
-856 855 0
-857 87 856 0
857 -87 0
857 -856 0
858 -318 -857 0
-858 318 0
-858 857 0
-859 359 822 835 836 383 858 385 0
859 -359 0
859 -822 0
859 -835 0
859 -836 0
859 -383 0
859 -858 0
859 -385 0
860 -390 -859 0
-860 390 0
-860 859 0
861 -163 -483 0
-861 163 0
-861 483 0
862 -380 -431 0
-862 380 0
-862 431 0
-863 91 862 164 0
863 -91 0
863 -862 0
863 -164 0
864 -93 -863 0
-864 93 0
-864 863 0
-865 135 864 174 132 0
865 -135 0
865 -864 0
865 -174 0
865 -132 0
866 -169 -865 0
-866 169 0
-866 865 0
-867 30 866 0
867 -30 0
867 -866 0
868 -32 -867 0
-868 32 0
-868 867 0
-869 34 868 0
869 -34 0
869 -868 0
870 -36 -869 0
-870 36 0
-870 869 0
-871 41 861 870 37 0
871 -41 0
871 -861 0
871 -870 0
871 -37 0
872 -43 -871 0
-872 43 0
-872 871 0
-873 61 872 58 0
873 -61 0
873 -872 0
873 -58 0
874 -69 -873 0
-874 69 0
-874 873 0
875 -380 -779 0
-875 380 0
-875 779 0
-876 91 875 204 207 0
876 -91 0
876 -875 0
876 -204 0
876 -207 0
877 -93 -876 0
-877 93 0
-877 876 0
-878 135 344 877 174 132 0
878 -135 0
878 -344 0
878 -877 0
878 -174 0
878 -132 0
879 -171 -878 0
-879 171 0
-879 878 0
-880 3 874 879 0
880 -3 0
880 -874 0
880 -879 0
881 -5 -880 0
-881 5 0
-881 880 0
-882 20 881 16 0
882 -20 0
882 -881 0
882 -16 0
883 -22 -882 0
-883 22 0
-883 882 0
-884 26 860 883 23 0
884 -26 0
884 -860 0
884 -883 0
884 -23 0
885 -52 -884 0
-885 52 0
-885 884 0
-886 11 885 0
886 -11 0
886 -885 0
887 -10 -886 0
-887 10 0
-887 886 0
-888 13 790 887 0
888 -13 0
888 -790 0
888 -887 0
889 -890 -888 0
-889 890 0
-889 888 0
-891 61 66 504 58 0
891 -61 0
891 -66 0
891 -504 0
891 -58 0
892 -63 -891 0
-892 63 0
-892 891 0
893 -224 -67 0
-893 224 0
-893 67 0
-894 61 66 236 58 0
894 -61 0
894 -66 0
894 -236 0
894 -58 0
895 -69 -894 0
-895 69 0
-895 894 0
-896 3 895 0
896 -3 0
896 -895 0
897 -5 -896 0
-897 5 0
-897 896 0
-898 20 897 245 16 0
898 -20 0
898 -897 0
898 -245 0
898 -16 0
899 -22 -898 0
-899 22 0
-899 898 0
-900 26 899 23 0
900 -26 0
900 -899 0
900 -23 0
901 -52 -900 0
-901 52 0
-901 900 0
-902 11 901 0
902 -11 0
902 -901 0
903 -252 -902 0
-903 252 0
-903 902 0
-904 254 903 0
904 -254 0
904 -903 0
905 -256 -904 0
-905 256 0
-905 904 0
906 -320 -902 0
-906 320 0
-906 902 0
-907 20 263 16 0
907 -20 0
907 -263 0
907 -16 0
908 -46 -907 0
-908 46 0
-908 907 0
-909 8 908 0
909 -8 0
909 -908 0
910 -7 -909 0
-910 7 0
-910 909 0
911 -69 -756 0
-911 69 0
-911 756 0
-912 3 911 0
912 -3 0
912 -911 0
913 -5 -912 0
-913 5 0
-913 912 0
-914 20 913 16 0
914 -20 0
914 -913 0
914 -16 0
915 -22 -914 0
-915 22 0
-915 914 0
-916 26 915 23 0
916 -26 0
916 -915 0
916 -23 0
917 -52 -916 0
-917 52 0
-917 916 0
-918 11 917 0
918 -11 0
918 -917 0
919 -10 -918 0
-919 10 0
-919 918 0
-920 13 910 919 0
920 -13 0
920 -910 0
920 -919 0
921 -357 -920 0
-921 357 0
-921 920 0
-922 359 366 893 905 384 906 921 0
922 -359 0
922 -366 0
922 -893 0
922 -905 0
922 -384 0
922 -906 0
922 -921 0
923 -380 -922 0
-923 380 0
-923 922 0
-924 91 923 0
924 -91 0
924 -923 0
925 -93 -924 0
-925 93 0
-925 924 0
-926 61 66 546 58 0
926 -61 0
926 -66 0
926 -546 0
926 -58 0
927 -224 -926 0
-927 224 0
-927 926 0
928 -7 -841 0
-928 7 0
-928 841 0
-929 13 928 9 0
929 -13 0
929 -928 0
929 -9 0
930 -357 -929 0
-930 357 0
-930 929 0
-931 359 366 927 383 384 385 930 0
931 -359 0
931 -366 0
931 -927 0
931 -383 0
931 -384 0
931 -385 0
931 -930 0
932 -390 -931 0
-932 390 0
-932 931 0
-933 26 932 78 23 0
933 -26 0
933 -932 0
933 -78 0
933 -23 0
934 -107 -933 0
-934 107 0
-934 933 0
-935 61 66 565 58 0
935 -61 0
935 -66 0
935 -565 0
935 -58 0
936 -69 -935 0
-936 69 0
-936 935 0
-937 3 936 0
937 -3 0
937 -936 0
938 -5 -937 0
-938 5 0
-938 937 0
939 -52 -769 0
-939 52 0
-939 769 0
-940 11 939 0
940 -11 0
940 -939 0
941 -10 -940 0
-941 10 0
-941 940 0
-942 13 941 0
942 -13 0
942 -941 0
943 -15 -942 0
-943 15 0
-943 942 0
-944 20 938 943 16 0
944 -20 0
944 -938 0
944 -943 0
944 -16 0
945 -46 -944 0
-945 46 0
-945 944 0
-946 8 945 0
946 -8 0
946 -945 0
947 -131 -946 0
-947 131 0
-947 946 0
-948 135 892 925 934 947 132 0
948 -135 0
948 -892 0
948 -925 0
948 -934 0
948 -947 0
948 -132 0
949 -169 -948 0
-949 169 0
-949 948 0
-950 91 586 0
950 -91 0
950 -586 0
951 -93 -950 0
-951 93 0
-951 950 0
-952 135 951 589 594 132 0
952 -135 0
952 -951 0
952 -589 0
952 -594 0
952 -132 0
953 -163 -952 0
-953 163 0
-953 952 0
-954 41 953 64 37 0
954 -41 0
954 -953 0
954 -64 0
954 -37 0
955 -43 -954 0
-955 43 0
-955 954 0
956 -137 -469 0
-956 137 0
-956 469 0
-957 139 956 0
957 -139 0
957 -956 0
958 -141 -957 0
-958 141 0
-958 957 0
-959 143 958 0
959 -143 0
959 -958 0
960 -145 -959 0
-960 145 0
-960 959 0
-961 147 960 0
961 -147 0
961 -960 0
962 -149 -961 0
-962 149 0
-962 961 0
963 -226 -469 0
-963 226 0
-963 469 0
-964 359 962 963 383 384 385 0
964 -359 0
964 -962 0
964 -963 0
964 -383 0
964 -384 0
964 -385 0
965 -390 -964 0
-965 390 0
-965 964 0
-966 26 965 278 23 0
966 -26 0
966 -965 0
966 -278 0
966 -23 0
967 -52 -966 0
-967 52 0
-967 966 0
-968 11 967 0
968 -11 0
968 -967 0
969 -10 -968 0
-969 10 0
-969 968 0
-970 13 277 969 0
970 -13 0
970 -277 0
970 -969 0
971 -57 -970 0
-971 57 0
-971 970 0
-972 61 955 971 58 0
972 -61 0
972 -955 0
972 -971 0
972 -58 0
973 -69 -972 0
-973 69 0
-973 972 0
-974 359 366 893 625 384 626 627 0
974 -359 0
974 -366 0
974 -893 0
974 -625 0
974 -384 0
974 -626 0
974 -627 0
975 -380 -974 0
-975 380 0
-975 974 0
-976 91 975 0
976 -91 0
976 -975 0
977 -93 -976 0
-977 93 0
-977 976 0
-978 359 366 927 383 384 385 633 0
978 -359 0
978 -366 0
978 -927 0
978 -383 0
978 -384 0
978 -385 0
978 -633 0
979 -390 -978 0
-979 390 0
-979 978 0
-980 26 979 288 23 0
980 -26 0
980 -979 0
980 -288 0
980 -23 0
981 -107 -980 0
-981 107 0
-981 980 0
-982 20 943 16 0
982 -20 0
982 -943 0
982 -16 0
983 -46 -982 0
-983 46 0
-983 982 0
-984 8 983 0
984 -8 0
984 -983 0
985 -131 -984 0
-985 131 0
-985 984 0
-986 135 892 977 981 985 132 0
986 -135 0
986 -892 0
986 -977 0
986 -981 0
986 -985 0
986 -132 0
987 -171 -986 0
-987 171 0
-987 986 0
-988 3 973 987 0
988 -3 0
988 -973 0
988 -987 0
989 -2 -988 0
-989 2 0
-989 988 0
990 -63 -926 0
-990 63 0
-990 926 0
-991 61 66 647 58 0
991 -61 0
991 -66 0
991 -647 0
991 -58 0
992 -69 -991 0
-992 69 0
-992 991 0
-993 3 992 0
993 -3 0
993 -992 0
994 -5 -993 0
-994 5 0
-994 993 0
-995 20 994 126 16 0
995 -20 0
995 -994 0
995 -126 0
995 -16 0
996 -46 -995 0
-996 46 0
-996 995 0
-997 8 996 0
997 -8 0
997 -996 0
998 -131 -997 0
-998 131 0
-998 997 0
-999 135 990 258 998 132 0
999 -135 0
999 -990 0
999 -258 0
999 -998 0
999 -132 0
1000 -137 -999 0
-1000 137 0
-1000 999 0
-1001 139 1000 0
1001 -139 0
1001 -1000 0
1002 -141 -1001 0
-1002 141 0
-1002 1001 0
-1003 143 1002 0
1003 -143 0
1003 -1002 0
1004 -145 -1003 0
-1004 145 0
-1004 1003 0
-1005 147 1004 0
1005 -147 0
1005 -1004 0
1006 -149 -1005 0
-1006 149 0
-1006 1005 0
-1007 135 258 160 132 0
1007 -135 0
1007 -258 0
1007 -160 0
1007 -132 0
1008 -163 -1007 0
-1008 163 0
-1008 1007 0
-1009 41 1008 64 37 0
1009 -41 0
1009 -1008 0
1009 -64 0
1009 -37 0
1010 -43 -1009 0
-1010 43 0
-1010 1009 0
1011 -171 -299 0
-1011 171 0
-1011 299 0
-1012 3 1011 0
1012 -3 0
1012 -1011 0
1013 -5 -1012 0
-1013 5 0
-1013 1012 0
-1014 20 1013 16 0
1014 -20 0
1014 -1013 0
1014 -16 0
1015 -46 -1014 0
-1015 46 0
-1015 1014 0
-1016 8 1015 0
1016 -8 0
1016 -1015 0
1017 -7 -1016 0
-1017 7 0
-1017 1016 0
-1018 13 1017 9 0
1018 -13 0
1018 -1017 0
1018 -9 0
1019 -57 -1018 0
-1019 57 0
-1019 1018 0
-1020 61 1010 1019 58 0
1020 -61 0
1020 -1010 0
1020 -1019 0
1020 -58 0
1021 -224 -1020 0
-1021 224 0
-1021 1020 0
1022 -226 -999 0
-1022 226 0
-1022 999 0
-1023 61 302 58 0
1023 -61 0
1023 -302 0
1023 -58 0
1024 -69 -1023 0
-1024 69 0
-1024 1023 0
-1025 135 837 258 174 132 0
1025 -135 0
1025 -837 0
1025 -258 0
1025 -174 0
1025 -132 0
1026 -171 -1025 0
-1026 171 0
-1026 1025 0
-1027 3 1024 1026 0
1027 -3 0
1027 -1024 0
1027 -1026 0
1028 -5 -1027 0
-1028 5 0
-1028 1027 0
-1029 20 1028 16 0
1029 -20 0
1029 -1028 0
1029 -16 0
1030 -46 -1029 0
-1030 46 0
-1030 1029 0
-1031 8 1030 0
1031 -8 0
1031 -1030 0
1032 -7 -1031 0
-1032 7 0
-1032 1031 0
-1033 13 1032 9 0
1033 -13 0
1033 -1032 0
1033 -9 0
1034 -357 -1033 0
-1034 357 0
-1034 1033 0
-1035 359 1006 1021 1022 383 384 385 1034 0
1035 -359 0
1035 -1006 0
1035 -1021 0
1035 -1022 0
1035 -383 0
1035 -384 0
1035 -385 0
1035 -1034 0
1036 -390 -1035 0
-1036 390 0
-1036 1035 0
-1037 91 697 0
1037 -91 0
1037 -697 0
1038 -93 -1037 0
-1038 93 0
-1038 1037 0
-1039 135 1038 174 132 0
1039 -135 0
1039 -1038 0
1039 -174 0
1039 -132 0
1040 -163 -1039 0
-1040 163 0
-1040 1039 0
-1041 41 1040 64 37 0
1041 -41 0
1041 -1040 0
1041 -64 0
1041 -37 0
1042 -43 -1041 0
-1042 43 0
-1042 1041 0
-1043 61 1042 72 58 0
1043 -61 0
1043 -1042 0
1043 -72 0
1043 -58 0
1044 -69 -1043 0
-1044 69 0
-1044 1043 0
1045 -224 -73 0
-1045 224 0
-1045 73 0
-1046 359 366 1045 383 384 385 695 0
1046 -359 0
1046 -366 0
1046 -1045 0
1046 -383 0
1046 -384 0
1046 -385 0
1046 -695 0
1047 -380 -1046 0
-1047 380 0
-1047 1046 0
-1048 91 1047 0
1048 -91 0
1048 -1047 0
1049 -93 -1048 0
-1049 93 0
-1049 1048 0
-1050 135 305 1049 174 132 0
1050 -135 0
1050 -305 0
1050 -1049 0
1050 -174 0
1050 -132 0
1051 -171 -1050 0
-1051 171 0
-1051 1050 0
-1052 3 1044 1051 0
1052 -3 0
1052 -1044 0
1052 -1051 0
1053 -5 -1052 0
-1053 5 0
-1053 1052 0
-1054 20 1053 14 16 0
1054 -20 0
1054 -1053 0
1054 -14 0
1054 -16 0
1055 -22 -1054 0
-1055 22 0
-1055 1054 0
-1056 26 1036 1055 23 0
1056 -26 0
1056 -1036 0
1056 -1055 0
1056 -23 0
1057 -28 -1056 0
-1057 28 0
-1057 1056 0
-1058 30 949 989 1057 0
1058 -30 0
1058 -949 0
1058 -989 0
1058 -1057 0
1059 -85 -1058 0
-1059 85 0
-1059 1058 0
-1060 87 1059 0
1060 -87 0
1060 -1059 0
1061 -1062 -1060 0
-1061 1062 0
-1061 1060 0
1063 -145 -143 0
-1063 145 0
-1063 143 0
-1064 147 1063 0
1064 -147 0
1064 -1063 0
1065 -149 -1064 0
-1065 149 0
-1065 1064 0
-1066 359 1065 383 384 385 387 0
1066 -359 0
1066 -1065 0
1066 -383 0
1066 -384 0
1066 -385 0
1066 -387 0
1067 -390 -1066 0
-1067 390 0
-1067 1066 0
-1068 26 1067 21 23 0
1068 -26 0
1068 -1067 0
1068 -21 0
1068 -23 0
1069 -28 -1068 0
-1069 28 0
-1069 1068 0
-1070 30 1 1069 0
1070 -30 0
1070 -1 0
1070 -1069 0
1071 -32 -1070 0
-1071 32 0
-1071 1070 0
-1072 34 1071 0
1072 -34 0
1072 -1071 0
1073 -36 -1072 0
-1073 36 0
-1073 1072 0
-1074 41 1073 37 0
1074 -41 0
1074 -1073 0
1074 -37 0
1075 -43 -1074 0
-1075 43 0
-1075 1074 0
-1076 359 1065 383 403 385 0
1076 -359 0
1076 -1065 0
1076 -383 0
1076 -403 0
1076 -385 0
1077 -390 -1076 0
-1077 390 0
-1077 1076 0
-1078 26 1077 49 23 0
1078 -26 0
1078 -1077 0
1078 -49 0
1078 -23 0
1079 -52 -1078 0
-1079 52 0
-1079 1078 0
-1080 11 1079 0
1080 -11 0
1080 -1079 0
1081 -10 -1080 0
-1081 10 0
-1081 1080 0
-1082 13 48 1081 0
1082 -13 0
1082 -48 0
1082 -1081 0
1083 -57 -1082 0
-1083 57 0
-1083 1082 0
-1084 61 1075 1083 58 0
1084 -61 0
1084 -1075 0
1084 -1083 0
1084 -58 0
1085 -63 -1084 0
-1085 63 0
-1085 1084 0
1086 -224 -60 0
-1086 224 0
-1086 60 0
1087 -69 -239 0
-1087 69 0
-1087 239 0
-1088 3 1087 0
1088 -3 0
1088 -1087 0
1089 -5 -1088 0
-1089 5 0
-1089 1088 0
-1090 20 1089 245 16 0
1090 -20 0
1090 -1089 0
1090 -245 0
1090 -16 0
1091 -22 -1090 0
-1091 22 0
-1091 1090 0
-1092 26 1091 23 0
1092 -26 0
1092 -1091 0
1092 -23 0
1093 -52 -1092 0
-1093 52 0
-1093 1092 0
-1094 11 1093 0
1094 -11 0
1094 -1093 0
1095 -252 -1094 0
-1095 252 0
-1095 1094 0
-1096 254 1095 0
1096 -254 0
1096 -1095 0
1097 -256 -1096 0
-1097 256 0
-1097 1096 0
1098 -318 -86 0
-1098 318 0
-1098 86 0
1099 -320 -1094 0
-1099 320 0
-1099 1094 0
-1100 20 121 16 0
1100 -20 0
1100 -121 0
1100 -16 0
1101 -46 -1100 0
-1101 46 0
-1101 1100 0
-1102 8 1101 0
1102 -8 0
1102 -1101 0
1103 -7 -1102 0
-1103 7 0
-1103 1102 0
1104 -22 -811 0
-1104 22 0
-1104 811 0
-1105 26 1104 23 0
1105 -26 0
1105 -1104 0
1105 -23 0
1106 -52 -1105 0
-1106 52 0
-1106 1105 0
-1107 11 1106 0
1107 -11 0
1107 -1106 0
1108 -10 -1107 0
-1108 10 0
-1108 1107 0
-1109 13 1103 1108 0
1109 -13 0
1109 -1103 0
1109 -1108 0
1110 -357 -1109 0
-1110 357 0
-1110 1109 0
-1111 359 1065 1086 1097 1098 1099 1110 0
1111 -359 0
1111 -1065 0
1111 -1086 0
1111 -1097 0
1111 -1098 0
1111 -1099 0
1111 -1110 0
1112 -380 -1111 0
-1112 380 0
-1112 1111 0
-1113 359 1065 383 384 385 0
1113 -359 0
1113 -1065 0
1113 -383 0
1113 -384 0
1113 -385 0
1114 -390 -1113 0
-1114 390 0
-1114 1113 0
-1115 26 1114 49 23 0
1115 -26 0
1115 -1114 0
1115 -49 0
1115 -23 0
1116 -52 -1115 0
-1116 52 0
-1116 1115 0
-1117 11 1116 0
1117 -11 0
1117 -1116 0
1118 -10 -1117 0
-1118 10 0
-1118 1117 0
-1119 13 48 1118 0
1119 -13 0
1119 -48 0
1119 -1118 0
1120 -57 -1119 0
-1120 57 0
-1120 1119 0
-1121 61 66 1120 58 0
1121 -61 0
1121 -66 0
1121 -1120 0
1121 -58 0
1122 -69 -1121 0
-1122 69 0
-1122 1121 0
-1123 3 1122 0
1123 -3 0
1123 -1122 0
1124 -2 -1123 0
-1124 2 0
-1124 1123 0
-1125 359 1065 927 383 384 385 930 0
1125 -359 0
1125 -1065 0
1125 -927 0
1125 -383 0
1125 -384 0
1125 -385 0
1125 -930 0
1126 -390 -1125 0
-1126 390 0
-1126 1125 0
-1127 26 1126 78 23 0
1127 -26 0
1127 -1126 0
1127 -78 0
1127 -23 0
1128 -28 -1127 0
-1128 28 0
-1128 1127 0
-1129 30 1124 1128 0
1129 -30 0
1129 -1124 0
1129 -1128 0
1130 -83 -1129 0
-1130 83 0
-1130 1129 0
1131 -85 -1129 0
-1131 85 0
-1131 1129 0
-1132 87 1131 0
1132 -87 0
1132 -1131 0
1133 -89 -1132 0
-1133 89 0
-1133 1132 0
-1134 91 1112 1130 1133 0
1134 -91 0
1134 -1112 0
1134 -1130 0
1134 -1133 0
1135 -93 -1134 0
-1135 93 0
-1135 1134 0
-1136 61 795 546 58 0
1136 -61 0
1136 -795 0
1136 -546 0
1136 -58 0
1137 -224 -1136 0
-1137 224 0
-1137 1136 0
1138 -69 -926 0
-1138 69 0
-1138 926 0
-1139 3 1138 0
1139 -3 0
1139 -1138 0
1140 -2 -1139 0
-1140 2 0
-1140 1139 0
-1141 30 1140 0
1141 -30 0
1141 -1140 0
1142 -85 -1141 0
-1142 85 0
-1142 1141 0
-1143 87 1142 0
1143 -87 0
1143 -1142 0
1144 -318 -1143 0
-1144 318 0
-1144 1143 0
1145 -7 -813 0
-1145 7 0
-1145 813 0
-1146 13 1145 9 0
1146 -13 0
1146 -1145 0
1146 -9 0
1147 -357 -1146 0
-1147 357 0
-1147 1146 0
-1148 359 1065 1137 383 1144 385 1147 0
1148 -359 0
1148 -1065 0
1148 -1137 0
1148 -383 0
1148 -1144 0
1148 -385 0
1148 -1147 0
1149 -390 -1148 0
-1149 390 0
-1149 1148 0
-1150 26 1149 104 23 0
1150 -26 0
1150 -1149 0
1150 -104 0
1150 -23 0
1151 -107 -1150 0
-1151 107 0
-1151 1150 0
1152 -357 -125 0
-1152 357 0
-1152 125 0
-1153 359 1065 383 384 385 1152 0
1153 -359 0
1153 -1065 0
1153 -383 0
1153 -384 0
1153 -385 0
1153 -1152 0
1154 -390 -1153 0
-1154 390 0
-1154 1153 0
-1155 26 1154 23 0
1155 -26 0
1155 -1154 0
1155 -23 0
1156 -28 -1155 0
-1156 28 0
-1156 1155 0
-1157 30 1156 0
1157 -30 0
1157 -1156 0
1158 -32 -1157 0
-1158 32 0
-1158 1157 0
-1159 34 1158 0
1159 -34 0
1159 -1158 0
1160 -36 -1159 0
-1160 36 0
-1160 1159 0
-1161 41 1160 37 0
1161 -41 0
1161 -1160 0
1161 -37 0
1162 -43 -1161 0
-1162 43 0
-1162 1161 0
-1163 359 1065 383 442 385 0
1163 -359 0
1163 -1065 0
1163 -383 0
1163 -442 0
1163 -385 0
1164 -390 -1163 0
-1164 390 0
-1164 1163 0
-1165 26 1164 49 23 0
1165 -26 0
1165 -1164 0
1165 -49 0
1165 -23 0
1166 -52 -1165 0
-1166 52 0
-1166 1165 0
-1167 11 1166 0
1167 -11 0
1167 -1166 0
1168 -10 -1167 0
-1168 10 0
-1168 1167 0
-1169 13 1168 0
1169 -13 0
1169 -1168 0
1170 -57 -1169 0
-1170 57 0
-1170 1169 0
-1171 61 1162 1170 58 0
1171 -61 0
1171 -1162 0
1171 -1170 0
1171 -58 0
1172 -69 -1171 0
-1172 69 0
-1172 1171 0
-1173 3 1172 0
1173 -3 0
1173 -1172 0
1174 -5 -1173 0
-1174 5 0
-1174 1173 0
1175 -224 -796 0
-1175 224 0
-1175 796 0
1176 -318 -804 0
-1176 318 0
-1176 804 0
-1177 359 1065 1175 383 1176 385 0
1177 -359 0
1177 -1065 0
1177 -1175 0
1177 -383 0
1177 -1176 0
1177 -385 0
1178 -390 -1177 0
-1178 390 0
-1178 1177 0
-1179 26 1178 23 0
1179 -26 0
1179 -1178 0
1179 -23 0
1180 -52 -1179 0
-1180 52 0
-1180 1179 0
-1181 11 1180 0
1181 -11 0
1181 -1180 0
1182 -10 -1181 0
-1182 10 0
-1182 1181 0
-1183 13 1182 0
1183 -13 0
1183 -1182 0
1184 -15 -1183 0
-1184 15 0
-1184 1183 0
-1185 20 1174 1184 16 0
1185 -20 0
1185 -1174 0
1185 -1184 0
1185 -16 0
1186 -46 -1185 0
-1186 46 0
-1186 1185 0
-1187 8 1186 0
1187 -8 0
1187 -1186 0
1188 -131 -1187 0
-1188 131 0
-1188 1187 0
-1189 135 1085 1135 1151 1188 132 0
1189 -135 0
1189 -1085 0
1189 -1135 0
1189 -1151 0
1189 -1188 0
1189 -132 0
1190 -137 -1189 0
-1190 137 0
-1190 1189 0
-1191 139 1190 0
1191 -139 0
1191 -1190 0
1192 -1193 -1191 0
-1192 1193 0
-1192 1191 0
-1194 1195 360 723 889 1061 1192 0
1194 -1195 0
1194 -360 0
1194 -723 0
1194 -889 0
1194 -1061 0
1194 -1192 0
1196 -1194 -1197 0
-1196 1194 0
-1196 1197 0
1196 0
