c BC-S1.2
p cnf 173 457
1 -2 -3 0
-1 2 0
-1 3 0
4 -5 -6 0
-4 5 0
-4 6 0
7 -8 -9 0
-7 8 0
-7 9 0
-10 11 7 0
10 -11 0
10 -7 0
12 -13 -10 0
-12 13 0
-12 10 0
-14 15 4 12 0
14 -15 0
14 -4 0
14 -12 0
16 -17 -14 0
-16 17 0
-16 14 0
-18 19 16 0
18 -19 0
18 -16 0
20 -21 -18 0
-20 21 0
-20 18 0
-22 23 20 0
22 -23 0
22 -20 0
24 -25 -22 0
-24 25 0
-24 22 0
26 -27 -18 0
-26 27 0
-26 18 0
-28 29 24 26 0
28 -29 0
28 -24 0
28 -26 0
30 -31 -28 0
-30 31 0
-30 28 0
-32 29 26 0
32 -29 0
32 -26 0
33 -34 -32 0
-33 34 0
-33 32 0
-35 23 33 20 0
35 -23 0
35 -33 0
35 -20 0
36 -37 -35 0
-36 37 0
-36 35 0
-38 39 30 36 0
38 -39 0
38 -30 0
38 -36 0
40 -41 -38 0
-40 41 0
-40 38 0
-42 43 40 0
42 -43 0
42 -40 0
44 -45 -42 0
-44 45 0
-44 42 0
46 -47 -19 0
-46 47 0
-46 19 0
-48 15 12 46 0
48 -15 0
48 -12 0
48 -46 0
49 -50 -48 0
-49 50 0
-49 48 0
-51 6 49 0
51 -6 0
51 -49 0
52 -53 -51 0
-52 53 0
-52 51 0
-54 15 4 12 46 0
54 -15 0
54 -4 0
54 -12 0
54 -46 0
55 -56 -54 0
-55 56 0
-55 54 0
-57 11 7 55 0
57 -11 0
57 -7 0
57 -55 0
58 -59 -57 0
-58 59 0
-58 57 0
-60 61 1 44 52 58 0
60 -61 0
60 -1 0
60 -44 0
60 -52 0
60 -58 0
62 -63 -60 0
-62 63 0
-62 60 0
64 -45 -43 0
-64 45 0
-64 43 0
65 -59 -10 0
-65 59 0
-65 10 0
-66 61 1 64 65 0
66 -61 0
66 -1 0
66 -64 0
66 -65 0
67 -68 -66 0
-67 68 0
-67 66 0
-69 6 67 0
69 -6 0
69 -67 0
70 -5 -69 0
-70 5 0
-70 69 0
71 -53 -6 0
-71 53 0
-71 6 0
-72 61 1 64 71 65 0
72 -61 0
72 -1 0
72 -64 0
72 -71 0
72 -65 0
73 -74 -72 0
-73 74 0
-73 72 0
-75 11 73 7 0
75 -11 0
75 -73 0
75 -7 0
76 -13 -75 0
-76 13 0
-76 75 0
-77 15 70 76 0
77 -15 0
77 -70 0
77 -76 0
78 -17 -77 0
-78 17 0
-78 77 0
-79 19 78 0
79 -19 0
79 -78 0
80 -27 -79 0
-80 27 0
-80 79 0
-81 29 80 0
81 -29 0
81 -80 0
82 -31 -81 0
-82 31 0
-82 81 0
-83 39 82 0
83 -39 0
83 -82 0
84 -85 -83 0
-84 85 0
-84 83 0
86 -87 -39 0
-86 87 0
-86 39 0
88 -41 -39 0
-88 41 0
-88 39 0
-89 43 88 0
89 -43 0
89 -88 0
90 -45 -89 0
-90 45 0
-90 89 0
-91 61 1 90 65 0
91 -61 0
91 -1 0
91 -90 0
91 -65 0
92 -68 -91 0
-92 68 0
-92 91 0
-93 6 92 0
93 -6 0
93 -92 0
94 -5 -93 0
-94 5 0
-94 93 0
-95 61 1 90 71 65 0
95 -61 0
95 -1 0
95 -90 0
95 -71 0
95 -65 0
96 -74 -95 0
-96 74 0
-96 95 0
-97 11 96 7 0
97 -11 0
97 -96 0
97 -7 0
98 -13 -97 0
-98 13 0
-98 97 0
-99 15 94 98 0
99 -15 0
99 -94 0
99 -98 0
100 -17 -99 0
-100 17 0
-100 99 0
-101 19 100 0
101 -19 0
101 -100 0
102 -27 -101 0
-102 27 0
-102 101 0
-103 29 86 102 0
103 -29 0
103 -86 0
103 -102 0
104 -34 -103 0
-104 34 0
-104 103 0
105 -31 -29 0
-105 31 0
-105 29 0
-106 39 105 0
106 -39 0
106 -105 0
107 -41 -106 0
-107 41 0
-107 106 0
-108 43 107 0
108 -43 0
108 -107 0
109 -45 -108 0
-109 45 0
-109 108 0
-110 61 1 109 65 0
110 -61 0
110 -1 0
110 -109 0
110 -65 0
111 -68 -110 0
-111 68 0
-111 110 0
-112 6 111 0
112 -6 0
112 -111 0
113 -5 -112 0
-113 5 0
-113 112 0
-114 61 1 109 71 65 0
114 -61 0
114 -1 0
114 -109 0
114 -71 0
114 -65 0
115 -74 -114 0
-115 74 0
-115 114 0
-116 11 115 7 0
116 -11 0
116 -115 0
116 -7 0
117 -13 -116 0
-117 13 0
-117 116 0
-118 15 113 117 0
118 -15 0
118 -113 0
118 -117 0
119 -17 -118 0
-119 17 0
-119 118 0
-120 19 119 0
120 -19 0
120 -119 0
121 -21 -120 0
-121 21 0
-121 120 0
-122 23 84 104 121 0
122 -23 0
122 -84 0
122 -104 0
122 -121 0
123 -124 -122 0
-123 124 0
-123 122 0
-125 15 12 0
125 -15 0
125 -12 0
126 -17 -125 0
-126 17 0
-126 125 0
-127 19 126 0
127 -19 0
127 -126 0
128 -21 -127 0
-128 21 0
-128 127 0
-129 23 128 0
129 -23 0
129 -128 0
130 -25 -129 0
-130 25 0
-130 129 0
131 -27 -127 0
-131 27 0
-131 127 0
-132 29 130 131 0
132 -29 0
132 -130 0
132 -131 0
133 -31 -132 0
-133 31 0
-133 132 0
-134 29 131 0
134 -29 0
134 -131 0
135 -34 -134 0
-135 34 0
-135 134 0
-136 23 135 128 0
136 -23 0
136 -135 0
136 -128 0
137 -37 -136 0
-137 37 0
-137 136 0
-138 39 133 137 0
138 -39 0
138 -133 0
138 -137 0
139 -41 -138 0
-139 41 0
-139 138 0
-140 43 139 0
140 -43 0
140 -139 0
141 -45 -140 0
-141 45 0
-141 140 0
142 -56 -48 0
-142 56 0
-142 48 0
-143 11 7 142 0
143 -11 0
143 -7 0
143 -142 0
144 -59 -143 0
-144 59 0
-144 143 0
-145 61 1 141 144 0
145 -61 0
145 -1 0
145 -141 0
145 -144 0
146 -68 -145 0
-146 68 0
-146 145 0
147 -21 -19 0
-147 21 0
-147 19 0
-148 23 147 0
148 -23 0
148 -147 0
149 -25 -148 0
-149 25 0
-149 148 0
150 -27 -19 0
-150 27 0
-150 19 0
-151 29 149 150 0
151 -29 0
151 -149 0
151 -150 0
152 -31 -151 0
-152 31 0
-152 151 0
-153 29 150 0
153 -29 0
153 -150 0
154 -34 -153 0
-154 34 0
-154 153 0
-155 23 154 147 0
155 -23 0
155 -154 0
155 -147 0
156 -37 -155 0
-156 37 0
-156 155 0
-157 39 152 156 0
157 -39 0
157 -152 0
157 -156 0
158 -41 -157 0
-158 41 0
-158 157 0
-159 43 158 0
159 -43 0
159 -158 0
160 -45 -159 0
-160 45 0
-160 159 0
-161 61 1 160 65 0
161 -61 0
161 -1 0
161 -160 0
161 -65 0
162 -74 -161 0
-162 74 0
-162 161 0
-163 11 162 7 0
163 -11 0
163 -162 0
163 -7 0
164 -13 -163 0
-164 13 0
-164 163 0
-165 15 164 46 0
165 -15 0
165 -164 0
165 -46 0
166 -50 -165 0
-166 50 0
-166 165 0
-167 6 146 166 0
167 -6 0
167 -146 0
167 -166 0
168 -169 -167 0
-168 169 0
-168 167 0
-170 171 62 123 168 0
170 -171 0
170 -62 0
170 -123 0
170 -168 0
172 -170 -173 0
-172 170 0
-172 173 0
172 0
