c BC-S1.2
p cnf 78 147
1 -2 -3 0
-1 2 0
-1 3 0
4 -5 -6 0
-4 5 0
-4 6 0
-7 8 4 0
7 -8 0
7 -4 0
9 -10 -7 0
-9 10 0
-9 7 0
11 -12 -8 0
-11 12 0
-11 8 0
-13 6 11 0
13 -6 0
13 -11 0
14 -15 -13 0
-14 15 0
-14 13 0
-16 17 1 9 14 0
16 -17 0
16 -1 0
16 -9 0
16 -14 0
18 -19 -16 0
-18 19 0
-18 16 0
20 -21 -22 0
-20 21 0
-20 22 0
-23 24 18 20 0
23 -24 0
23 -18 0
23 -20 0
25 -26 -23 0
-25 26 0
-25 23 0
27 -28 -29 0
-27 28 0
-27 29 0
-30 31 25 27 0
30 -31 0
30 -25 0
30 -27 0
32 -33 -30 0
-32 33 0
-32 30 0
-34 35 32 0
34 -35 0
34 -32 0
36 -37 -34 0
-36 37 0
-36 34 0
-38 39 36 0
38 -39 0
38 -36 0
40 -41 -38 0
-40 41 0
-40 38 0
42 -43 -39 0
-42 43 0
-42 39 0
-44 35 42 0
44 -35 0
44 -42 0
45 -46 -44 0
-45 46 0
-45 44 0
-47 31 45 27 0
47 -31 0
47 -45 0
47 -27 0
48 -49 -47 0
-48 49 0
-48 47 0
-50 24 20 48 0
50 -24 0
50 -20 0
50 -48 0
51 -52 -50 0
-51 52 0
-51 50 0
-53 17 1 51 0
53 -17 0
53 -1 0
53 -51 0
54 -55 -53 0
-54 55 0
-54 53 0
-56 17 1 0
56 -17 0
56 -1 0
57 -19 -56 0
-57 19 0
-57 56 0
-58 24 57 20 0
58 -24 0
58 -57 0
58 -20 0
59 -26 -58 0
-59 26 0
-59 58 0
-60 31 59 45 27 0
60 -31 0
60 -59 0
60 -45 0
60 -27 0
61 -62 -60 0
-61 62 0
-61 60 0
-63 6 54 61 0
63 -6 0
63 -54 0
63 -61 0
64 -5 -63 0
-64 5 0
-64 63 0
-65 8 64 0
65 -8 0
65 -64 0
66 -67 -65 0
-66 67 0
-66 65 0
-68 35 42 32 0
68 -35 0
68 -42 0
68 -32 0
69 -70 -68 0
-69 70 0
-69 68 0
-71 72 40 66 69 0
71 -72 0
71 -40 0
71 -66 0
71 -69 0
73 -74 -71 0
-73 74 0
-73 71 0
-75 76 73 0
75 -76 0
75 -73 0
77 -75 -78 0
-77 75 0
-77 78 0
77 0
