c BC-S1.2
p cnf 103 222
1 -2 -3 0
-1 2 0
-1 3 0
4 -5 -6 0
-4 5 0
-4 6 0
7 -8 -9 0
-7 8 0
-7 9 0
-10 11 7 0
10 -11 0
10 -7 0
12 -13 -10 0
-12 13 0
-12 10 0
14 -15 -16 0
-14 15 0
-14 16 0
-17 18 12 14 0
17 -18 0
17 -12 0
17 -14 0
19 -20 -17 0
-19 20 0
-19 17 0
-21 22 19 0
21 -22 0
21 -19 0
23 -24 -21 0
-23 24 0
-23 21 0
-25 18 14 0
25 -18 0
25 -14 0
26 -27 -25 0
-26 27 0
-26 25 0
-28 11 7 26 0
28 -11 0
28 -7 0
28 -26 0
29 -30 -28 0
-29 30 0
-29 28 0
-31 32 1 4 23 29 0
31 -32 0
31 -1 0
31 -4 0
31 -23 0
31 -29 0
33 -34 -31 0
-33 34 0
-33 31 0
-35 32 1 4 29 0
35 -32 0
35 -1 0
35 -4 0
35 -29 0
36 -37 -35 0
-36 37 0
-36 35 0
-38 32 1 4 0
38 -32 0
38 -1 0
38 -4 0
39 -40 -38 0
-39 40 0
-39 38 0
-41 11 39 7 0
41 -11 0
41 -39 0
41 -7 0
42 -13 -41 0
-42 13 0
-42 41 0
-43 18 42 14 0
43 -18 0
43 -42 0
43 -14 0
44 -20 -43 0
-44 20 0
-44 43 0
-45 22 36 44 0
45 -22 0
45 -36 0
45 -44 0
46 -47 -45 0
-46 47 0
-46 45 0
-48 49 33 46 0
48 -49 0
48 -33 0
48 -46 0
50 -51 -48 0
-50 51 0
-50 48 0
52 -47 -22 0
-52 47 0
-52 22 0
-53 49 52 0
53 -49 0
53 -52 0
54 -55 -53 0
-54 55 0
-54 53 0
56 -24 -22 0
-56 24 0
-56 22 0
-57 32 1 4 54 56 0
57 -32 0
57 -1 0
57 -4 0
57 -54 0
57 -56 0
58 -40 -57 0
-58 40 0
-58 57 0
-59 11 58 7 0
59 -11 0
59 -58 0
59 -7 0
60 -13 -59 0
-60 13 0
-60 59 0
-61 18 60 14 0
61 -18 0
61 -60 0
61 -14 0
62 -63 -61 0
-62 63 0
-62 61 0
-64 65 62 0
64 -65 0
64 -62 0
66 -67 -64 0
-66 67 0
-66 64 0
-68 69 50 66 0
68 -69 0
68 -50 0
68 -66 0
70 -71 -68 0
-70 71 0
-70 68 0
-72 73 70 0
72 -73 0
72 -70 0
74 -75 -72 0
-74 75 0
-74 72 0
76 -77 -73 0
-76 77 0
-76 73 0
78 -79 -73 0
-78 79 0
-78 73 0
-80 65 78 62 0
80 -65 0
80 -78 0
80 -62 0
81 -67 -80 0
-81 67 0
-81 80 0
-82 69 76 50 81 0
82 -69 0
82 -76 0
82 -50 0
82 -81 0
83 -84 -82 0
-83 84 0
-83 82 0
85 -63 -17 0
-85 63 0
-85 17 0
-86 65 78 85 0
86 -65 0
86 -78 0
86 -85 0
87 -67 -86 0
-87 67 0
-87 86 0
-88 69 76 87 0
88 -69 0
88 -76 0
88 -87 0
89 -90 -88 0
-89 90 0
-89 88 0
91 -47 -21 0
-91 47 0
-91 21 0
-92 49 89 91 0
92 -49 0
92 -89 0
92 -91 0
93 -55 -92 0
-93 55 0
-93 92 0
-94 32 1 93 23 29 0
94 -32 0
94 -1 0
94 -93 0
94 -23 0
94 -29 0
95 -96 -94 0
-95 96 0
-95 94 0
-97 6 95 0
97 -6 0
97 -95 0
98 -99 -97 0
-98 99 0
-98 97 0
-100 101 74 83 98 0
100 -101 0
100 -74 0
100 -83 0
100 -98 0
102 -100 -103 0
-102 100 0
-102 103 0
102 0
