c BC-S1.2
p cnf 4745 17128
1 -2 -3 0
-1 2 0
-1 3 0
-4 5 1 0
4 -5 0
4 -1 0
6 -7 -4 0
-6 7 0
-6 4 0
8 -9 -10 0
-8 9 0
-8 10 0
11 -12 -13 0
-11 12 0
-11 13 0
14 -15 -3 0
-14 15 0
-14 3 0
-16 17 11 14 0
16 -17 0
16 -11 0
16 -14 0
18 -19 -16 0
-18 19 0
-18 16 0
20 -21 -22 0
-20 21 0
-20 22 0
23 -24 -25 0
-23 24 0
-23 25 0
-26 27 20 23 0
26 -27 0
26 -20 0
26 -23 0
28 -29 -26 0
-28 29 0
-28 26 0
-30 31 8 18 28 0
30 -31 0
30 -8 0
30 -18 0
30 -28 0
32 -33 -30 0
-32 33 0
-32 30 0
34 -35 -16 0
-34 35 0
-34 16 0
-36 37 34 0
36 -37 0
36 -34 0
38 -39 -36 0
-38 39 0
-38 36 0
-40 41 6 32 38 0
40 -41 0
40 -6 0
40 -32 0
40 -38 0
42 -43 -40 0
-42 43 0
-42 40 0
44 -45 -16 0
-44 45 0
-44 16 0
-46 47 44 0
46 -47 0
46 -44 0
48 -49 -46 0
-48 49 0
-48 46 0
-50 51 42 48 0
50 -51 0
50 -42 0
50 -48 0
52 -53 -50 0
-52 53 0
-52 50 0
54 -55 -4 0
-54 55 0
-54 4 0
56 -57 -46 0
-56 57 0
-56 46 0
-58 59 56 0
58 -59 0
58 -56 0
60 -61 -58 0
-60 61 0
-60 58 0
-62 63 52 54 60 0
62 -63 0
62 -52 0
62 -54 0
62 -60 0
64 -65 -62 0
-64 65 0
-64 62 0
-66 51 48 0
66 -51 0
66 -48 0
67 -53 -66 0
-67 53 0
-67 66 0
-68 63 67 54 60 0
68 -63 0
68 -67 0
68 -54 0
68 -60 0
69 -70 -68 0
-69 70 0
-69 68 0
71 -72 -68 0
-71 72 0
-71 68 0
73 -74 -68 0
-73 74 0
-73 68 0
-75 17 73 11 14 0
75 -17 0
75 -73 0
75 -11 0
75 -14 0
76 -19 -75 0
-76 19 0
-76 75 0
-77 31 71 8 76 28 0
77 -31 0
77 -71 0
77 -8 0
77 -76 0
77 -28 0
78 -33 -77 0
-78 33 0
-78 77 0
79 -35 -75 0
-79 35 0
-79 75 0
-80 37 79 0
80 -37 0
80 -79 0
81 -39 -80 0
-81 39 0
-81 80 0
-82 41 69 6 78 81 0
82 -41 0
82 -69 0
82 -6 0
82 -78 0
82 -81 0
83 -84 -82 0
-83 84 0
-83 82 0
-85 63 54 60 0
85 -63 0
85 -54 0
85 -60 0
86 -70 -85 0
-86 70 0
-86 85 0
87 -72 -85 0
-87 72 0
-87 85 0
88 -74 -85 0
-88 74 0
-88 85 0
-89 17 88 11 14 0
89 -17 0
89 -88 0
89 -11 0
89 -14 0
90 -19 -89 0
-90 19 0
-90 89 0
-91 31 87 8 90 28 0
91 -31 0
91 -87 0
91 -8 0
91 -90 0
91 -28 0
92 -33 -91 0
-92 33 0
-92 91 0
93 -35 -89 0
-93 35 0
-93 89 0
-94 37 93 0
94 -37 0
94 -93 0
95 -39 -94 0
-95 39 0
-95 94 0
-96 41 86 6 92 95 0
96 -41 0
96 -86 0
96 -6 0
96 -92 0
96 -95 0
97 -43 -96 0
-97 43 0
-97 96 0
98 -61 -59 0
-98 61 0
-98 59 0
-99 63 54 98 0
99 -63 0
99 -54 0
99 -98 0
100 -74 -99 0
-100 74 0
-100 99 0
-101 17 100 11 14 0
101 -17 0
101 -100 0
101 -11 0
101 -14 0
102 -45 -101 0
-102 45 0
-102 101 0
-103 47 102 0
103 -47 0
103 -102 0
104 -49 -103 0
-104 49 0
-104 103 0
-105 51 97 104 0
105 -51 0
105 -97 0
105 -104 0
106 -107 -105 0
-106 107 0
-106 105 0
-108 41 6 38 0
108 -41 0
108 -6 0
108 -38 0
109 -43 -108 0
-109 43 0
-109 108 0
-110 51 109 48 0
110 -51 0
110 -109 0
110 -48 0
111 -53 -110 0
-111 53 0
-111 110 0
-112 63 111 54 60 0
112 -63 0
112 -111 0
112 -54 0
112 -60 0
113 -72 -112 0
-113 72 0
-113 112 0
114 -74 -112 0
-114 74 0
-114 112 0
-115 17 114 11 14 0
115 -17 0
115 -114 0
115 -11 0
115 -14 0
116 -19 -115 0
-116 19 0
-116 115 0
-117 31 113 8 116 28 0
117 -31 0
117 -113 0
117 -8 0
117 -116 0
117 -28 0
118 -119 -117 0
-118 119 0
-118 117 0
120 -121 -4 0
-120 121 0
-120 4 0
-122 123 118 120 0
122 -123 0
122 -118 0
122 -120 0
124 -125 -122 0
-124 125 0
-124 122 0
126 -127 -4 0
-126 127 0
-126 4 0
128 -129 -26 0
-128 129 0
-128 26 0
-130 131 126 128 0
130 -131 0
130 -126 0
130 -128 0
132 -133 -130 0
-132 133 0
-132 130 0
-134 135 124 132 0
134 -135 0
134 -124 0
134 -132 0
136 -137 -134 0
-136 137 0
-136 134 0
138 -139 -10 0
-138 139 0
-138 10 0
140 -141 -134 0
-140 141 0
-140 134 0
-142 143 140 0
142 -143 0
142 -140 0
144 -145 -142 0
-144 145 0
-144 142 0
-146 147 138 144 0
146 -147 0
146 -138 0
146 -144 0
148 -149 -146 0
-148 149 0
-148 146 0
-150 151 64 83 106 136 148 0
150 -151 0
150 -64 0
150 -83 0
150 -106 0
150 -136 0
150 -148 0
152 -153 -150 0
-152 153 0
-152 150 0
-154 123 120 0
154 -123 0
154 -120 0
155 -125 -154 0
-155 125 0
-155 154 0
-156 135 155 132 0
156 -135 0
156 -155 0
156 -132 0
157 -137 -156 0
-157 137 0
-157 156 0
158 -141 -156 0
-158 141 0
-158 156 0
-159 143 158 0
159 -143 0
159 -158 0
160 -145 -159 0
-160 145 0
-160 159 0
-161 147 138 160 0
161 -147 0
161 -138 0
161 -160 0
162 -149 -161 0
-162 149 0
-162 161 0
-163 151 157 162 0
163 -151 0
163 -157 0
163 -162 0
164 -165 -163 0
-164 165 0
-164 163 0
166 -125 -123 0
-166 125 0
-166 123 0
-167 131 128 0
167 -131 0
167 -128 0
168 -133 -167 0
-168 133 0
-168 167 0
-169 135 166 168 0
169 -135 0
169 -166 0
169 -168 0
170 -137 -169 0
-170 137 0
-170 169 0
171 -141 -169 0
-171 141 0
-171 169 0
-172 143 171 0
172 -143 0
172 -171 0
173 -145 -172 0
-173 145 0
-173 172 0
-174 147 138 173 0
174 -147 0
174 -138 0
174 -173 0
175 -149 -174 0
-175 149 0
-175 174 0
-176 151 170 175 0
176 -151 0
176 -170 0
176 -175 0
177 -178 -176 0
-177 178 0
-177 176 0
-179 3 177 0
179 -3 0
179 -177 0
180 -2 -179 0
-180 2 0
-180 179 0
-181 5 164 180 0
181 -5 0
181 -164 0
181 -180 0
182 -7 -181 0
-182 7 0
-182 181 0
183 -121 -5 0
-183 121 0
-183 5 0
-184 123 183 0
184 -123 0
184 -183 0
185 -125 -184 0
-185 125 0
-185 184 0
186 -127 -5 0
-186 127 0
-186 5 0
-187 131 186 128 0
187 -131 0
187 -186 0
187 -128 0
188 -133 -187 0
-188 133 0
-188 187 0
-189 135 185 188 0
189 -135 0
189 -185 0
189 -188 0
190 -137 -189 0
-190 137 0
-190 189 0
191 -141 -189 0
-191 141 0
-191 189 0
-192 143 191 0
192 -143 0
192 -191 0
193 -145 -192 0
-193 145 0
-193 192 0
-194 147 138 193 0
194 -147 0
194 -138 0
194 -193 0
195 -149 -194 0
-195 149 0
-195 194 0
-196 151 190 195 0
196 -151 0
196 -190 0
196 -195 0
197 -178 -196 0
-197 178 0
-197 196 0
-198 3 197 0
198 -3 0
198 -197 0
199 -15 -198 0
-199 15 0
-199 198 0
-200 17 11 199 0
200 -17 0
200 -11 0
200 -199 0
201 -35 -200 0
-201 35 0
-201 200 0
-202 37 201 0
202 -37 0
202 -201 0
203 -39 -202 0
-203 39 0
-203 202 0
-204 41 182 203 0
204 -41 0
204 -182 0
204 -203 0
205 -43 -204 0
-205 43 0
-205 204 0
206 -84 -108 0
-206 84 0
-206 108 0
-207 151 206 157 162 0
207 -151 0
207 -206 0
207 -157 0
207 -162 0
208 -209 -207 0
-208 209 0
-208 207 0
210 -7 -5 0
-210 7 0
-210 5 0
211 -39 -37 0
-211 39 0
-211 37 0
-212 41 210 211 0
212 -41 0
212 -210 0
212 -211 0
213 -84 -212 0
-213 84 0
-213 212 0
-214 151 213 190 195 0
214 -151 0
214 -213 0
214 -190 0
214 -195 0
215 -178 -214 0
-215 178 0
-215 214 0
-216 3 215 0
216 -3 0
216 -215 0
217 -15 -216 0
-217 15 0
-217 216 0
-218 17 11 217 0
218 -17 0
218 -11 0
218 -217 0
219 -45 -218 0
-219 45 0
-219 218 0
-220 47 208 219 0
220 -47 0
220 -208 0
220 -219 0
221 -49 -220 0
-221 49 0
-221 220 0
-222 51 205 221 0
222 -51 0
222 -205 0
222 -221 0
223 -53 -222 0
-223 53 0
-223 222 0
-224 41 38 0
224 -41 0
224 -38 0
225 -84 -224 0
-225 84 0
-225 224 0
226 -43 -224 0
-226 43 0
-226 224 0
-227 51 226 48 0
227 -51 0
227 -226 0
227 -48 0
228 -107 -227 0
-228 107 0
-228 227 0
-229 151 225 228 157 162 0
229 -151 0
229 -225 0
229 -228 0
229 -157 0
229 -162 0
230 -165 -229 0
-230 165 0
-230 229 0
-231 151 225 228 170 175 0
231 -151 0
231 -225 0
231 -228 0
231 -170 0
231 -175 0
232 -178 -231 0
-232 178 0
-232 231 0
-233 3 232 0
233 -3 0
233 -232 0
234 -2 -233 0
-234 2 0
-234 233 0
-235 5 230 234 0
235 -5 0
235 -230 0
235 -234 0
236 -55 -235 0
-236 55 0
-236 235 0
-237 51 109 0
237 -51 0
237 -109 0
238 -107 -237 0
-238 107 0
-238 237 0
-239 151 206 238 157 162 0
239 -151 0
239 -206 0
239 -238 0
239 -157 0
239 -162 0
240 -209 -239 0
-240 209 0
-240 239 0
241 -43 -212 0
-241 43 0
-241 212 0
-242 51 241 0
242 -51 0
242 -241 0
243 -107 -242 0
-243 107 0
-243 242 0
-244 151 213 243 190 195 0
244 -151 0
244 -213 0
244 -243 0
244 -190 0
244 -195 0
245 -178 -244 0
-245 178 0
-245 244 0
-246 3 245 0
246 -3 0
246 -245 0
247 -15 -246 0
-247 15 0
-247 246 0
-248 17 11 247 0
248 -17 0
248 -11 0
248 -247 0
249 -45 -248 0
-249 45 0
-249 248 0
-250 47 240 249 0
250 -47 0
250 -240 0
250 -249 0
251 -57 -250 0
-251 57 0
-251 250 0
-252 59 251 0
252 -59 0
252 -251 0
253 -61 -252 0
-253 61 0
-253 252 0
-254 63 223 236 253 0
254 -63 0
254 -223 0
254 -236 0
254 -253 0
255 -72 -254 0
-255 72 0
-255 254 0
-256 41 182 211 0
256 -41 0
256 -182 0
256 -211 0
257 -43 -256 0
-257 43 0
-257 256 0
-258 47 208 0
258 -47 0
258 -208 0
259 -49 -258 0
-259 49 0
-259 258 0
-260 51 257 259 0
260 -51 0
260 -257 0
260 -259 0
261 -53 -260 0
-261 53 0
-261 260 0
-262 47 240 0
262 -47 0
262 -240 0
263 -57 -262 0
-263 57 0
-263 262 0
-264 59 263 0
264 -59 0
264 -263 0
265 -61 -264 0
-265 61 0
-265 264 0
-266 63 261 236 265 0
266 -63 0
266 -261 0
266 -236 0
266 -265 0
267 -74 -266 0
-267 74 0
-267 266 0
268 -49 -47 0
-268 49 0
-268 47 0
-269 51 241 268 0
269 -51 0
269 -241 0
269 -268 0
270 -53 -269 0
-270 53 0
-270 269 0
271 -55 -5 0
-271 55 0
-271 5 0
272 -57 -47 0
-272 57 0
-272 47 0
-273 59 272 0
273 -59 0
273 -272 0
274 -61 -273 0
-274 61 0
-274 273 0
-275 63 270 271 274 0
275 -63 0
275 -270 0
275 -271 0
275 -274 0
276 -65 -275 0
-276 65 0
-276 275 0
277 -70 -275 0
-277 70 0
-277 275 0
-278 41 277 210 211 0
278 -41 0
278 -277 0
278 -210 0
278 -211 0
279 -84 -278 0
-279 84 0
-279 278 0
-280 63 271 274 0
280 -63 0
280 -271 0
280 -274 0
281 -70 -280 0
-281 70 0
-281 280 0
-282 41 281 210 211 0
282 -41 0
282 -281 0
282 -210 0
282 -211 0
283 -43 -282 0
-283 43 0
-283 282 0
-284 51 283 268 0
284 -51 0
284 -283 0
284 -268 0
285 -107 -284 0
-285 107 0
-285 284 0
-286 151 276 279 285 190 195 0
286 -151 0
286 -276 0
286 -279 0
286 -285 0
286 -190 0
286 -195 0
287 -178 -286 0
-287 178 0
-287 286 0
-288 3 287 0
288 -3 0
288 -287 0
289 -15 -288 0
-289 15 0
-289 288 0
-290 17 267 11 289 0
290 -17 0
290 -267 0
290 -11 0
290 -289 0
291 -19 -290 0
-291 19 0
-291 290 0
292 -65 -112 0
-292 65 0
-292 112 0
-293 41 69 6 81 0
293 -41 0
293 -69 0
293 -6 0
293 -81 0
294 -84 -293 0
-294 84 0
-294 293 0
-295 41 86 6 95 0
295 -41 0
295 -86 0
295 -6 0
295 -95 0
296 -43 -295 0
-296 43 0
-296 295 0
-297 51 296 104 0
297 -51 0
297 -296 0
297 -104 0
298 -107 -297 0
-298 107 0
-298 297 0
-299 151 292 294 298 157 162 0
299 -151 0
299 -292 0
299 -294 0
299 -298 0
299 -157 0
299 -162 0
300 -301 -299 0
-300 301 0
-300 299 0
-302 131 126 0
302 -131 0
302 -126 0
303 -133 -302 0
-303 133 0
-303 302 0
-304 135 155 303 0
304 -135 0
304 -155 0
304 -303 0
305 -137 -304 0
-305 137 0
-305 304 0
306 -141 -304 0
-306 141 0
-306 304 0
-307 143 306 0
307 -143 0
307 -306 0
308 -145 -307 0
-308 145 0
-308 307 0
-309 147 138 308 0
309 -147 0
309 -138 0
309 -308 0
310 -149 -309 0
-310 149 0
-310 309 0
-311 151 292 294 298 305 310 0
311 -151 0
311 -292 0
311 -294 0
311 -298 0
311 -305 0
311 -310 0
312 -313 -311 0
-312 313 0
-312 311 0
-314 25 312 0
314 -25 0
314 -312 0
315 -24 -314 0
-315 24 0
-315 314 0
-316 27 300 20 315 0
316 -27 0
316 -300 0
316 -20 0
316 -315 0
317 -29 -316 0
-317 29 0
-317 316 0
-318 31 255 8 291 317 0
318 -31 0
318 -255 0
318 -8 0
318 -291 0
318 -317 0
319 -320 -318 0
-319 320 0
-319 318 0
321 -322 -22 0
-321 322 0
-321 22 0
323 -53 -105 0
-323 53 0
-323 105 0
-324 63 323 54 60 0
324 -63 0
324 -323 0
324 -54 0
324 -60 0
325 -65 -324 0
-325 65 0
-325 324 0
326 -53 -51 0
-326 53 0
-326 51 0
-327 63 326 54 60 0
327 -63 0
327 -326 0
327 -54 0
327 -60 0
328 -70 -327 0
-328 70 0
-328 327 0
329 -72 -327 0
-329 72 0
-329 327 0
330 -74 -327 0
-330 74 0
-330 327 0
-331 17 330 11 14 0
331 -17 0
331 -330 0
331 -11 0
331 -14 0
332 -19 -331 0
-332 19 0
-332 331 0
-333 31 329 8 332 28 0
333 -31 0
333 -329 0
333 -8 0
333 -332 0
333 -28 0
334 -33 -333 0
-334 33 0
-334 333 0
335 -35 -331 0
-335 35 0
-335 331 0
-336 37 335 0
336 -37 0
336 -335 0
337 -39 -336 0
-337 39 0
-337 336 0
-338 41 328 6 334 337 0
338 -41 0
338 -328 0
338 -6 0
338 -334 0
338 -337 0
339 -84 -338 0
-339 84 0
-339 338 0
340 -19 -101 0
-340 19 0
-340 101 0
-341 31 87 8 340 28 0
341 -31 0
341 -87 0
341 -8 0
341 -340 0
341 -28 0
342 -33 -341 0
-342 33 0
-342 341 0
343 -35 -101 0
-343 35 0
-343 101 0
-344 37 343 0
344 -37 0
344 -343 0
345 -39 -344 0
-345 39 0
-345 344 0
-346 41 86 6 342 345 0
346 -41 0
346 -86 0
346 -6 0
346 -342 0
346 -345 0
347 -43 -346 0
-347 43 0
-347 346 0
-348 51 347 104 0
348 -51 0
348 -347 0
348 -104 0
349 -107 -348 0
-349 107 0
-349 348 0
350 -53 -237 0
-350 53 0
-350 237 0
-351 63 350 54 60 0
351 -63 0
351 -350 0
351 -54 0
351 -60 0
352 -72 -351 0
-352 72 0
-352 351 0
353 -74 -351 0
-353 74 0
-353 351 0
-354 17 353 11 14 0
354 -17 0
354 -353 0
354 -11 0
354 -14 0
355 -19 -354 0
-355 19 0
-355 354 0
-356 31 352 8 355 28 0
356 -31 0
356 -352 0
356 -8 0
356 -355 0
356 -28 0
357 -119 -356 0
-357 119 0
-357 356 0
-358 123 357 120 0
358 -123 0
358 -357 0
358 -120 0
359 -125 -358 0
-359 125 0
-359 358 0
-360 135 359 132 0
360 -135 0
360 -359 0
360 -132 0
361 -137 -360 0
-361 137 0
-361 360 0
362 -141 -360 0
-362 141 0
-362 360 0
-363 143 362 0
363 -143 0
363 -362 0
364 -145 -363 0
-364 145 0
-364 363 0
-365 147 138 364 0
365 -147 0
365 -138 0
365 -364 0
366 -149 -365 0
-366 149 0
-366 365 0
-367 151 325 339 349 361 366 0
367 -151 0
367 -325 0
367 -339 0
367 -349 0
367 -361 0
367 -366 0
368 -209 -367 0
-368 209 0
-368 367 0
-369 31 8 28 0
369 -31 0
369 -8 0
369 -28 0
370 -119 -369 0
-370 119 0
-370 369 0
-371 123 370 120 0
371 -123 0
371 -370 0
371 -120 0
372 -125 -371 0
-372 125 0
-372 371 0
-373 135 372 132 0
373 -135 0
373 -372 0
373 -132 0
374 -137 -373 0
-374 137 0
-374 373 0
375 -141 -373 0
-375 141 0
-375 373 0
-376 143 375 0
376 -143 0
376 -375 0
377 -145 -376 0
-377 145 0
-377 376 0
-378 147 138 377 0
378 -147 0
378 -138 0
378 -377 0
379 -149 -378 0
-379 149 0
-379 378 0
-380 151 374 379 0
380 -151 0
380 -374 0
380 -379 0
381 -165 -380 0
-381 165 0
-381 380 0
-382 123 370 0
382 -123 0
382 -370 0
383 -125 -382 0
-383 125 0
-383 382 0
-384 135 383 168 0
384 -135 0
384 -383 0
384 -168 0
385 -137 -384 0
-385 137 0
-385 384 0
386 -141 -384 0
-386 141 0
-386 384 0
-387 143 386 0
387 -143 0
387 -386 0
388 -145 -387 0
-388 145 0
-388 387 0
-389 147 138 388 0
389 -147 0
389 -138 0
389 -388 0
390 -149 -389 0
-390 149 0
-390 389 0
-391 151 385 390 0
391 -151 0
391 -385 0
391 -390 0
392 -178 -391 0
-392 178 0
-392 391 0
-393 3 392 0
393 -3 0
393 -392 0
394 -2 -393 0
-394 2 0
-394 393 0
-395 5 381 394 0
395 -5 0
395 -381 0
395 -394 0
396 -7 -395 0
-396 7 0
-396 395 0
397 -301 -163 0
-397 301 0
-397 163 0
-398 151 305 310 0
398 -151 0
398 -305 0
398 -310 0
399 -313 -398 0
-399 313 0
-399 398 0
-400 25 399 0
400 -25 0
400 -399 0
401 -24 -400 0
-401 24 0
-401 400 0
-402 27 397 20 401 0
402 -27 0
402 -397 0
402 -20 0
402 -401 0
403 -29 -402 0
-403 29 0
-403 402 0
-404 31 8 403 0
404 -31 0
404 -8 0
404 -403 0
405 -33 -404 0
-405 33 0
-405 404 0
-406 41 396 405 211 0
406 -41 0
406 -396 0
406 -405 0
406 -211 0
407 -43 -406 0
-407 43 0
-407 406 0
-408 51 407 0
408 -51 0
408 -407 0
409 -53 -408 0
-409 53 0
-409 408 0
410 -33 -369 0
-410 33 0
-410 369 0
-411 41 410 38 0
411 -41 0
411 -410 0
411 -38 0
412 -84 -411 0
-412 84 0
-412 411 0
413 -43 -411 0
-413 43 0
-413 411 0
-414 51 413 0
414 -51 0
414 -413 0
415 -107 -414 0
-415 107 0
-415 414 0
-416 151 412 415 374 379 0
416 -151 0
416 -412 0
416 -415 0
416 -374 0
416 -379 0
417 -165 -416 0
-417 165 0
-417 416 0
-418 151 412 415 385 390 0
418 -151 0
418 -412 0
418 -415 0
418 -385 0
418 -390 0
419 -178 -418 0
-419 178 0
-419 418 0
-420 3 419 0
420 -3 0
420 -419 0
421 -2 -420 0
-421 2 0
-421 420 0
-422 5 417 421 0
422 -5 0
422 -417 0
422 -421 0
423 -55 -422 0
-423 55 0
-423 422 0
-424 63 409 423 98 0
424 -63 0
424 -409 0
424 -423 0
424 -98 0
425 -74 -424 0
-425 74 0
-425 424 0
-426 41 210 410 211 0
426 -41 0
426 -210 0
426 -410 0
426 -211 0
427 -43 -426 0
-427 43 0
-427 426 0
-428 51 427 0
428 -51 0
428 -427 0
429 -53 -428 0
-429 53 0
-429 428 0
-430 63 429 271 98 0
430 -63 0
430 -429 0
430 -271 0
430 -98 0
431 -65 -430 0
-431 65 0
-431 430 0
-432 63 326 271 98 0
432 -63 0
432 -326 0
432 -271 0
432 -98 0
433 -70 -432 0
-433 70 0
-433 432 0
434 -72 -432 0
-434 72 0
-434 432 0
-435 31 434 8 28 0
435 -31 0
435 -434 0
435 -8 0
435 -28 0
436 -33 -435 0
-436 33 0
-436 435 0
-437 41 433 210 436 211 0
437 -41 0
437 -433 0
437 -210 0
437 -436 0
437 -211 0
438 -84 -437 0
-438 84 0
-438 437 0
439 -72 -280 0
-439 72 0
-439 280 0
-440 31 439 8 28 0
440 -31 0
440 -439 0
440 -8 0
440 -28 0
441 -33 -440 0
-441 33 0
-441 440 0
-442 41 281 210 441 211 0
442 -41 0
442 -281 0
442 -210 0
442 -441 0
442 -211 0
443 -43 -442 0
-443 43 0
-443 442 0
-444 51 443 0
444 -51 0
444 -443 0
445 -107 -444 0
-445 107 0
-445 444 0
446 -72 -430 0
-446 72 0
-446 430 0
-447 31 446 8 28 0
447 -31 0
447 -446 0
447 -8 0
447 -28 0
448 -119 -447 0
-448 119 0
-448 447 0
-449 123 448 183 0
449 -123 0
449 -448 0
449 -183 0
450 -125 -449 0
-450 125 0
-450 449 0
-451 135 450 188 0
451 -135 0
451 -450 0
451 -188 0
452 -137 -451 0
-452 137 0
-452 451 0
453 -141 -451 0
-453 141 0
-453 451 0
-454 143 453 0
454 -143 0
454 -453 0
455 -145 -454 0
-455 145 0
-455 454 0
-456 147 138 455 0
456 -147 0
456 -138 0
456 -455 0
457 -149 -456 0
-457 149 0
-457 456 0
-458 151 431 438 445 452 457 0
458 -151 0
458 -431 0
458 -438 0
458 -445 0
458 -452 0
458 -457 0
459 -178 -458 0
-459 178 0
-459 458 0
-460 3 459 0
460 -3 0
460 -459 0
461 -15 -460 0
-461 15 0
-461 460 0
-462 17 425 11 461 0
462 -17 0
462 -425 0
462 -11 0
462 -461 0
463 -45 -462 0
-463 45 0
-463 462 0
-464 47 368 463 0
464 -47 0
464 -368 0
464 -463 0
465 -466 -464 0
-465 466 0
-465 464 0
-467 468 152 319 321 465 0
467 -468 0
467 -152 0
467 -319 0
467 -321 0
467 -465 0
469 -470 -467 0
-469 470 0
-469 467 0
471 -466 -46 0
-471 466 0
-471 46 0
-472 468 321 471 0
472 -468 0
472 -321 0
472 -471 0
473 -474 -472 0
-473 474 0
-473 472 0
-475 123 473 120 0
475 -123 0
475 -473 0
475 -120 0
476 -125 -475 0
-476 125 0
-476 475 0
-477 135 476 132 0
477 -135 0
477 -476 0
477 -132 0
478 -137 -477 0
-478 137 0
-478 477 0
479 -141 -477 0
-479 141 0
-479 477 0
-480 143 479 0
480 -143 0
480 -479 0
481 -145 -480 0
-481 145 0
-481 480 0
-482 147 138 481 0
482 -147 0
482 -138 0
482 -481 0
483 -149 -482 0
-483 149 0
-483 482 0
-484 151 478 483 0
484 -151 0
484 -478 0
484 -483 0
485 -165 -484 0
-485 165 0
-485 484 0
-486 123 473 0
486 -123 0
486 -473 0
487 -125 -486 0
-487 125 0
-487 486 0
-488 135 487 168 0
488 -135 0
488 -487 0
488 -168 0
489 -137 -488 0
-489 137 0
-489 488 0
490 -141 -488 0
-490 141 0
-490 488 0
-491 143 490 0
491 -143 0
491 -490 0
492 -145 -491 0
-492 145 0
-492 491 0
-493 147 138 492 0
493 -147 0
493 -138 0
493 -492 0
494 -149 -493 0
-494 149 0
-494 493 0
-495 151 489 494 0
495 -151 0
495 -489 0
495 -494 0
496 -178 -495 0
-496 178 0
-496 495 0
-497 3 496 0
497 -3 0
497 -496 0
498 -2 -497 0
-498 2 0
-498 497 0
-499 5 485 498 0
499 -5 0
499 -485 0
499 -498 0
500 -7 -499 0
-500 7 0
-500 499 0
501 -153 -163 0
-501 153 0
-501 163 0
502 -209 -163 0
-502 209 0
-502 163 0
503 -45 -200 0
-503 45 0
-503 200 0
-504 47 502 503 0
504 -47 0
504 -502 0
504 -503 0
505 -466 -504 0
-505 466 0
-505 504 0
-506 468 501 321 505 0
506 -468 0
506 -501 0
506 -321 0
506 -505 0
507 -508 -506 0
-507 508 0
-507 506 0
509 -466 -47 0
-509 466 0
-509 47 0
-510 468 321 509 0
510 -468 0
510 -321 0
510 -509 0
511 -474 -510 0
-511 474 0
-511 510 0
-512 123 511 183 0
512 -123 0
512 -511 0
512 -183 0
513 -125 -512 0
-513 125 0
-513 512 0
-514 135 513 188 0
514 -135 0
514 -513 0
514 -188 0
515 -137 -514 0
-515 137 0
-515 514 0
516 -141 -514 0
-516 141 0
-516 514 0
-517 143 516 0
517 -143 0
517 -516 0
518 -145 -517 0
-518 145 0
-518 517 0
-519 147 138 518 0
519 -147 0
519 -138 0
519 -518 0
520 -149 -519 0
-520 149 0
-520 519 0
-521 151 515 520 0
521 -151 0
521 -515 0
521 -520 0
522 -178 -521 0
-522 178 0
-522 521 0
-523 3 522 0
523 -3 0
523 -522 0
524 -15 -523 0
-524 15 0
-524 523 0
-525 17 11 524 0
525 -17 0
525 -11 0
525 -524 0
526 -35 -525 0
-526 35 0
-526 525 0
-527 37 526 0
527 -37 0
527 -526 0
528 -39 -527 0
-528 39 0
-528 527 0
-529 41 500 507 528 0
529 -41 0
529 -500 0
529 -507 0
529 -528 0
530 -43 -529 0
-530 43 0
-530 529 0
531 -508 -472 0
-531 508 0
-531 472 0
-532 41 6 531 38 0
532 -41 0
532 -6 0
532 -531 0
532 -38 0
533 -84 -532 0
-533 84 0
-533 532 0
-534 151 533 478 483 0
534 -151 0
534 -533 0
534 -478 0
534 -483 0
535 -209 -534 0
-535 209 0
-535 534 0
536 -508 -510 0
-536 508 0
-536 510 0
-537 41 210 536 211 0
537 -41 0
537 -210 0
537 -536 0
537 -211 0
538 -84 -537 0
-538 84 0
-538 537 0
-539 151 538 515 520 0
539 -151 0
539 -538 0
539 -515 0
539 -520 0
540 -178 -539 0
-540 178 0
-540 539 0
-541 3 540 0
541 -3 0
541 -540 0
542 -15 -541 0
-542 15 0
-542 541 0
-543 17 11 542 0
543 -17 0
543 -11 0
543 -542 0
544 -45 -543 0
-544 45 0
-544 543 0
-545 47 535 544 0
545 -47 0
545 -535 0
545 -544 0
546 -49 -545 0
-546 49 0
-546 545 0
-547 51 530 546 0
547 -51 0
547 -530 0
547 -546 0
548 -53 -547 0
-548 53 0
-548 547 0
-549 41 531 38 0
549 -41 0
549 -531 0
549 -38 0
550 -84 -549 0
-550 84 0
-550 549 0
551 -43 -549 0
-551 43 0
-551 549 0
-552 51 551 48 0
552 -51 0
552 -551 0
552 -48 0
553 -107 -552 0
-553 107 0
-553 552 0
-554 151 550 553 478 483 0
554 -151 0
554 -550 0
554 -553 0
554 -478 0
554 -483 0
555 -165 -554 0
-555 165 0
-555 554 0
-556 151 550 553 489 494 0
556 -151 0
556 -550 0
556 -553 0
556 -489 0
556 -494 0
557 -178 -556 0
-557 178 0
-557 556 0
-558 3 557 0
558 -3 0
558 -557 0
559 -2 -558 0
-559 2 0
-559 558 0
-560 5 555 559 0
560 -5 0
560 -555 0
560 -559 0
561 -55 -560 0
-561 55 0
-561 560 0
562 -43 -532 0
-562 43 0
-562 532 0
-563 51 562 0
563 -51 0
563 -562 0
564 -107 -563 0
-564 107 0
-564 563 0
-565 151 533 564 478 483 0
565 -151 0
565 -533 0
565 -564 0
565 -478 0
565 -483 0
566 -209 -565 0
-566 209 0
-566 565 0
567 -43 -537 0
-567 43 0
-567 537 0
-568 51 567 0
568 -51 0
568 -567 0
569 -107 -568 0
-569 107 0
-569 568 0
-570 151 538 569 515 520 0
570 -151 0
570 -538 0
570 -569 0
570 -515 0
570 -520 0
571 -178 -570 0
-571 178 0
-571 570 0
-572 3 571 0
572 -3 0
572 -571 0
573 -15 -572 0
-573 15 0
-573 572 0
-574 17 11 573 0
574 -17 0
574 -11 0
574 -573 0
575 -45 -574 0
-575 45 0
-575 574 0
-576 47 566 575 0
576 -47 0
576 -566 0
576 -575 0
577 -57 -576 0
-577 57 0
-577 576 0
-578 59 577 0
578 -59 0
578 -577 0
579 -61 -578 0
-579 61 0
-579 578 0
-580 63 548 561 579 0
580 -63 0
580 -548 0
580 -561 0
580 -579 0
581 -72 -580 0
-581 72 0
-581 580 0
-582 47 502 0
582 -47 0
582 -502 0
583 -466 -582 0
-583 466 0
-583 582 0
-584 468 501 321 583 0
584 -468 0
584 -501 0
584 -321 0
584 -583 0
585 -508 -584 0
-585 508 0
-585 584 0
-586 41 500 585 211 0
586 -41 0
586 -500 0
586 -585 0
586 -211 0
587 -43 -586 0
-587 43 0
-587 586 0
-588 47 535 0
588 -47 0
588 -535 0
589 -49 -588 0
-589 49 0
-589 588 0
-590 51 587 589 0
590 -51 0
590 -587 0
590 -589 0
591 -53 -590 0
-591 53 0
-591 590 0
-592 47 566 0
592 -47 0
592 -566 0
593 -57 -592 0
-593 57 0
-593 592 0
-594 59 593 0
594 -59 0
594 -593 0
595 -61 -594 0
-595 61 0
-595 594 0
-596 63 591 561 595 0
596 -63 0
596 -591 0
596 -561 0
596 -595 0
597 -74 -596 0
-597 74 0
-597 596 0
-598 51 567 268 0
598 -51 0
598 -567 0
598 -268 0
599 -53 -598 0
-599 53 0
-599 598 0
-600 63 599 271 274 0
600 -63 0
600 -599 0
600 -271 0
600 -274 0
601 -65 -600 0
-601 65 0
-601 600 0
602 -70 -600 0
-602 70 0
-602 600 0
-603 41 602 210 536 211 0
603 -41 0
603 -602 0
603 -210 0
603 -536 0
603 -211 0
604 -84 -603 0
-604 84 0
-604 603 0
-605 41 281 210 536 211 0
605 -41 0
605 -281 0
605 -210 0
605 -536 0
605 -211 0
606 -43 -605 0
-606 43 0
-606 605 0
-607 51 606 268 0
607 -51 0
607 -606 0
607 -268 0
608 -107 -607 0
-608 107 0
-608 607 0
-609 151 601 604 608 515 520 0
609 -151 0
609 -601 0
609 -604 0
609 -608 0
609 -515 0
609 -520 0
610 -178 -609 0
-610 178 0
-610 609 0
-611 3 610 0
611 -3 0
611 -610 0
612 -15 -611 0
-612 15 0
-612 611 0
-613 17 597 11 612 0
613 -17 0
613 -597 0
613 -11 0
613 -612 0
614 -19 -613 0
-614 19 0
-614 613 0
-615 51 562 48 0
615 -51 0
615 -562 0
615 -48 0
616 -53 -615 0
-616 53 0
-616 615 0
-617 63 616 54 60 0
617 -63 0
617 -616 0
617 -54 0
617 -60 0
618 -65 -617 0
-618 65 0
-618 617 0
-619 63 326 54 98 0
619 -63 0
619 -326 0
619 -54 0
619 -98 0
620 -74 -619 0
-620 74 0
-620 619 0
-621 17 620 11 14 0
621 -17 0
621 -620 0
621 -11 0
621 -14 0
622 -45 -621 0
-622 45 0
-622 621 0
-623 47 622 0
623 -47 0
623 -622 0
624 -466 -623 0
-624 466 0
-624 623 0
-625 468 321 624 0
625 -468 0
625 -321 0
625 -624 0
626 -508 -625 0
-626 508 0
-626 625 0
-627 41 69 6 626 81 0
627 -41 0
627 -69 0
627 -6 0
627 -626 0
627 -81 0
628 -84 -627 0
-628 84 0
-628 627 0
629 -466 -103 0
-629 466 0
-629 103 0
-630 468 321 629 0
630 -468 0
630 -321 0
630 -629 0
631 -508 -630 0
-631 508 0
-631 630 0
-632 41 86 6 631 95 0
632 -41 0
632 -86 0
632 -6 0
632 -631 0
632 -95 0
633 -43 -632 0
-633 43 0
-633 632 0
-634 51 633 104 0
634 -51 0
634 -633 0
634 -104 0
635 -107 -634 0
-635 107 0
-635 634 0
-636 63 350 54 98 0
636 -63 0
636 -350 0
636 -54 0
636 -98 0
637 -74 -636 0
-637 74 0
-637 636 0
-638 17 637 11 14 0
638 -17 0
638 -637 0
638 -11 0
638 -14 0
639 -45 -638 0
-639 45 0
-639 638 0
-640 47 639 0
640 -47 0
640 -639 0
641 -466 -640 0
-641 466 0
-641 640 0
-642 468 321 641 0
642 -468 0
642 -321 0
642 -641 0
643 -474 -642 0
-643 474 0
-643 642 0
-644 123 643 120 0
644 -123 0
644 -643 0
644 -120 0
645 -125 -644 0
-645 125 0
-645 644 0
-646 135 645 132 0
646 -135 0
646 -645 0
646 -132 0
647 -137 -646 0
-647 137 0
-647 646 0
648 -141 -646 0
-648 141 0
-648 646 0
-649 143 648 0
649 -143 0
649 -648 0
650 -145 -649 0
-650 145 0
-650 649 0
-651 147 138 650 0
651 -147 0
651 -138 0
651 -650 0
652 -149 -651 0
-652 149 0
-652 651 0
-653 151 618 628 635 647 652 0
653 -151 0
653 -618 0
653 -628 0
653 -635 0
653 -647 0
653 -652 0
654 -301 -653 0
-654 301 0
-654 653 0
-655 135 645 303 0
655 -135 0
655 -645 0
655 -303 0
656 -137 -655 0
-656 137 0
-656 655 0
657 -141 -655 0
-657 141 0
-657 655 0
-658 143 657 0
658 -143 0
658 -657 0
659 -145 -658 0
-659 145 0
-659 658 0
-660 147 138 659 0
660 -147 0
660 -138 0
660 -659 0
661 -149 -660 0
-661 149 0
-661 660 0
-662 151 618 628 635 656 661 0
662 -151 0
662 -618 0
662 -628 0
662 -635 0
662 -656 0
662 -661 0
663 -313 -662 0
-663 313 0
-663 662 0
-664 25 663 0
664 -25 0
664 -663 0
665 -24 -664 0
-665 24 0
-665 664 0
-666 27 654 20 665 0
666 -27 0
666 -654 0
666 -20 0
666 -665 0
667 -29 -666 0
-667 29 0
-667 666 0
-668 31 581 8 614 667 0
668 -31 0
668 -581 0
668 -8 0
668 -614 0
668 -667 0
669 -670 -668 0
-669 670 0
-669 668 0
671 -320 -30 0
-671 320 0
-671 30 0
-672 468 671 321 471 0
672 -468 0
672 -671 0
672 -321 0
672 -471 0
673 -508 -672 0
-673 508 0
-673 672 0
-674 41 32 673 38 0
674 -41 0
674 -32 0
674 -673 0
674 -38 0
675 -43 -674 0
-675 43 0
-675 674 0
-676 51 675 48 0
676 -51 0
676 -675 0
676 -48 0
677 -53 -676 0
-677 53 0
-677 676 0
-678 63 677 54 60 0
678 -63 0
678 -677 0
678 -54 0
678 -60 0
679 -65 -678 0
-679 65 0
-679 678 0
680 -320 -77 0
-680 320 0
-680 77 0
-681 468 680 321 624 0
681 -468 0
681 -680 0
681 -321 0
681 -624 0
682 -508 -681 0
-682 508 0
-682 681 0
-683 41 69 78 682 81 0
683 -41 0
683 -69 0
683 -78 0
683 -682 0
683 -81 0
684 -84 -683 0
-684 84 0
-684 683 0
685 -320 -91 0
-685 320 0
-685 91 0
-686 468 685 321 629 0
686 -468 0
686 -685 0
686 -321 0
686 -629 0
687 -508 -686 0
-687 508 0
-687 686 0
-688 41 86 92 687 95 0
688 -41 0
688 -86 0
688 -92 0
688 -687 0
688 -95 0
689 -43 -688 0
-689 43 0
-689 688 0
-690 51 689 104 0
690 -51 0
690 -689 0
690 -104 0
691 -107 -690 0
-691 107 0
-691 690 0
692 -53 -227 0
-692 53 0
-692 227 0
-693 63 692 54 60 0
693 -63 0
693 -692 0
693 -54 0
693 -60 0
694 -72 -693 0
-694 72 0
-694 693 0
695 -74 -693 0
-695 74 0
-695 693 0
-696 17 695 11 14 0
696 -17 0
696 -695 0
696 -11 0
696 -14 0
697 -19 -696 0
-697 19 0
-697 696 0
-698 31 694 8 697 28 0
698 -31 0
698 -694 0
698 -8 0
698 -697 0
698 -28 0
699 -320 -698 0
-699 320 0
-699 698 0
700 -53 -414 0
-700 53 0
-700 414 0
-701 63 700 54 98 0
701 -63 0
701 -700 0
701 -54 0
701 -98 0
702 -74 -701 0
-702 74 0
-702 701 0
-703 17 702 11 14 0
703 -17 0
703 -702 0
703 -11 0
703 -14 0
704 -45 -703 0
-704 45 0
-704 703 0
-705 47 704 0
705 -47 0
705 -704 0
706 -466 -705 0
-706 466 0
-706 705 0
-707 468 699 321 706 0
707 -468 0
707 -699 0
707 -321 0
707 -706 0
708 -474 -707 0
-708 474 0
-708 707 0
709 -53 -552 0
-709 53 0
-709 552 0
-710 63 709 54 60 0
710 -63 0
710 -709 0
710 -54 0
710 -60 0
711 -72 -710 0
-711 72 0
-711 710 0
712 -74 -710 0
-712 74 0
-712 710 0
-713 17 712 11 14 0
713 -17 0
713 -712 0
713 -11 0
713 -14 0
714 -19 -713 0
-714 19 0
-714 713 0
-715 31 711 8 714 28 0
715 -31 0
715 -711 0
715 -8 0
715 -714 0
715 -28 0
716 -119 -715 0
-716 119 0
-716 715 0
-717 123 708 716 120 0
717 -123 0
717 -708 0
717 -716 0
717 -120 0
718 -125 -717 0
-718 125 0
-718 717 0
-719 135 718 132 0
719 -135 0
719 -718 0
719 -132 0
720 -137 -719 0
-720 137 0
-720 719 0
721 -141 -719 0
-721 141 0
-721 719 0
-722 143 721 0
722 -143 0
722 -721 0
723 -145 -722 0
-723 145 0
-723 722 0
-724 147 138 723 0
724 -147 0
724 -138 0
724 -723 0
725 -149 -724 0
-725 149 0
-725 724 0
-726 151 679 684 691 720 725 0
726 -151 0
726 -679 0
726 -684 0
726 -691 0
726 -720 0
726 -725 0
727 -165 -726 0
-727 165 0
-727 726 0
-728 63 677 271 60 0
728 -63 0
728 -677 0
728 -271 0
728 -60 0
729 -65 -728 0
-729 65 0
-729 728 0
-730 63 67 271 60 0
730 -63 0
730 -67 0
730 -271 0
730 -60 0
731 -70 -730 0
-731 70 0
-731 730 0
732 -72 -730 0
-732 72 0
-732 730 0
733 -74 -600 0
-733 74 0
-733 600 0
-734 17 733 11 14 0
734 -17 0
734 -733 0
734 -11 0
734 -14 0
735 -19 -734 0
-735 19 0
-735 734 0
-736 31 732 8 735 28 0
736 -31 0
736 -732 0
736 -8 0
736 -735 0
736 -28 0
737 -33 -736 0
-737 33 0
-737 736 0
738 -74 -275 0
-738 74 0
-738 275 0
-739 17 738 11 14 0
739 -17 0
739 -738 0
739 -11 0
739 -14 0
740 -19 -739 0
-740 19 0
-740 739 0
-741 31 732 8 740 28 0
741 -31 0
741 -732 0
741 -8 0
741 -740 0
741 -28 0
742 -320 -741 0
-742 320 0
-742 741 0
743 -74 -432 0
-743 74 0
-743 432 0
-744 17 743 11 14 0
744 -17 0
744 -743 0
744 -11 0
744 -14 0
745 -45 -744 0
-745 45 0
-745 744 0
-746 47 745 0
746 -47 0
746 -745 0
747 -466 -746 0
-747 466 0
-747 746 0
-748 468 742 321 747 0
748 -468 0
748 -742 0
748 -321 0
748 -747 0
749 -508 -748 0
-749 508 0
-749 748 0
750 -74 -730 0
-750 74 0
-750 730 0
-751 17 750 11 14 0
751 -17 0
751 -750 0
751 -11 0
751 -14 0
752 -35 -751 0
-752 35 0
-752 751 0
-753 37 752 0
753 -37 0
753 -752 0
754 -39 -753 0
-754 39 0
-754 753 0
-755 41 731 210 737 749 754 0
755 -41 0
755 -731 0
755 -210 0
755 -737 0
755 -749 0
755 -754 0
756 -84 -755 0
-756 84 0
-756 755 0
-757 63 271 60 0
757 -63 0
757 -271 0
757 -60 0
758 -70 -757 0
-758 70 0
-758 757 0
759 -72 -757 0
-759 72 0
-759 757 0
760 -74 -280 0
-760 74 0
-760 280 0
-761 17 760 11 14 0
761 -17 0
761 -760 0
761 -11 0
761 -14 0
762 -19 -761 0
-762 19 0
-762 761 0
-763 31 759 8 762 28 0
763 -31 0
763 -759 0
763 -8 0
763 -762 0
763 -28 0
764 -33 -763 0
-764 33 0
-764 763 0
765 -320 -763 0
-765 320 0
-765 763 0
766 -45 -761 0
-766 45 0
-766 761 0
-767 47 766 0
767 -47 0
767 -766 0
768 -466 -767 0
-768 466 0
-768 767 0
-769 468 765 321 768 0
769 -468 0
769 -765 0
769 -321 0
769 -768 0
770 -508 -769 0
-770 508 0
-770 769 0
771 -35 -761 0
-771 35 0
-771 761 0
-772 37 771 0
772 -37 0
772 -771 0
773 -39 -772 0
-773 39 0
-773 772 0
-774 41 758 210 764 770 773 0
774 -41 0
774 -758 0
774 -210 0
774 -764 0
774 -770 0
774 -773 0
775 -43 -774 0
-775 43 0
-775 774 0
776 -49 -767 0
-776 49 0
-776 767 0
-777 51 775 776 0
777 -51 0
777 -775 0
777 -776 0
778 -107 -777 0
-778 107 0
-778 777 0
-779 63 692 271 60 0
779 -63 0
779 -692 0
779 -271 0
779 -60 0
780 -72 -779 0
-780 72 0
-780 779 0
-781 31 780 8 740 28 0
781 -31 0
781 -780 0
781 -8 0
781 -740 0
781 -28 0
782 -320 -781 0
-782 320 0
-782 781 0
783 -74 -430 0
-783 74 0
-783 430 0
-784 17 783 11 14 0
784 -17 0
784 -783 0
784 -11 0
784 -14 0
785 -45 -784 0
-785 45 0
-785 784 0
-786 47 785 0
786 -47 0
786 -785 0
787 -466 -786 0
-787 466 0
-787 786 0
-788 468 782 321 787 0
788 -468 0
788 -782 0
788 -321 0
788 -787 0
789 -474 -788 0
-789 474 0
-789 788 0
-790 63 709 271 60 0
790 -63 0
790 -709 0
790 -271 0
790 -60 0
791 -72 -790 0
-791 72 0
-791 790 0
-792 31 791 8 735 28 0
792 -31 0
792 -791 0
792 -8 0
792 -735 0
792 -28 0
793 -119 -792 0
-793 119 0
-793 792 0
-794 123 789 793 0
794 -123 0
794 -789 0
794 -793 0
795 -125 -794 0
-795 125 0
-795 794 0
-796 135 795 168 0
796 -135 0
796 -795 0
796 -168 0
797 -137 -796 0
-797 137 0
-797 796 0
798 -141 -796 0
-798 141 0
-798 796 0
-799 143 798 0
799 -143 0
799 -798 0
800 -145 -799 0
-800 145 0
-800 799 0
-801 147 138 800 0
801 -147 0
801 -138 0
801 -800 0
802 -149 -801 0
-802 149 0
-802 801 0
-803 151 729 756 778 797 802 0
803 -151 0
803 -729 0
803 -756 0
803 -778 0
803 -797 0
803 -802 0
804 -178 -803 0
-804 178 0
-804 803 0
-805 3 804 0
805 -3 0
805 -804 0
806 -2 -805 0
-806 2 0
-806 805 0
-807 5 727 806 0
807 -5 0
807 -727 0
807 -806 0
808 -809 -807 0
-808 809 0
-808 807 0
-810 41 6 32 673 38 0
810 -41 0
810 -6 0
810 -32 0
810 -673 0
810 -38 0
811 -43 -810 0
-811 43 0
-811 810 0
-812 51 811 48 0
812 -51 0
812 -811 0
812 -48 0
813 -53 -812 0
-813 53 0
-813 812 0
-814 63 813 54 60 0
814 -63 0
814 -813 0
814 -54 0
814 -60 0
815 -65 -814 0
-815 65 0
-815 814 0
-816 41 69 6 78 682 81 0
816 -41 0
816 -69 0
816 -6 0
816 -78 0
816 -682 0
816 -81 0
817 -84 -816 0
-817 84 0
-817 816 0
-818 41 86 6 92 687 95 0
818 -41 0
818 -86 0
818 -6 0
818 -92 0
818 -687 0
818 -95 0
819 -43 -818 0
-819 43 0
-819 818 0
-820 51 819 104 0
820 -51 0
820 -819 0
820 -104 0
821 -107 -820 0
-821 107 0
-821 820 0
822 -320 -117 0
-822 320 0
-822 117 0
-823 41 6 410 38 0
823 -41 0
823 -6 0
823 -410 0
823 -38 0
824 -43 -823 0
-824 43 0
-824 823 0
-825 51 824 0
825 -51 0
825 -824 0
826 -53 -825 0
-826 53 0
-826 825 0
-827 63 826 54 98 0
827 -63 0
827 -826 0
827 -54 0
827 -98 0
828 -74 -827 0
-828 74 0
-828 827 0
-829 17 828 11 14 0
829 -17 0
829 -828 0
829 -11 0
829 -14 0
830 -45 -829 0
-830 45 0
-830 829 0
-831 47 830 0
831 -47 0
831 -830 0
832 -466 -831 0
-832 466 0
-832 831 0
-833 468 822 321 832 0
833 -468 0
833 -822 0
833 -321 0
833 -832 0
834 -474 -833 0
-834 474 0
-834 833 0
835 -72 -617 0
-835 72 0
-835 617 0
836 -74 -617 0
-836 74 0
-836 617 0
-837 17 836 11 14 0
837 -17 0
837 -836 0
837 -11 0
837 -14 0
838 -19 -837 0
-838 19 0
-838 837 0
-839 31 835 8 838 28 0
839 -31 0
839 -835 0
839 -8 0
839 -838 0
839 -28 0
840 -119 -839 0
-840 119 0
-840 839 0
-841 123 834 840 120 0
841 -123 0
841 -834 0
841 -840 0
841 -120 0
842 -125 -841 0
-842 125 0
-842 841 0
-843 135 842 132 0
843 -135 0
843 -842 0
843 -132 0
844 -137 -843 0
-844 137 0
-844 843 0
845 -141 -843 0
-845 141 0
-845 843 0
-846 143 845 0
846 -143 0
846 -845 0
847 -145 -846 0
-847 145 0
-847 846 0
-848 147 138 847 0
848 -147 0
848 -138 0
848 -847 0
849 -149 -848 0
-849 149 0
-849 848 0
-850 151 815 817 821 844 849 0
850 -151 0
850 -815 0
850 -817 0
850 -821 0
850 -844 0
850 -849 0
851 -852 -850 0
-851 852 0
-851 850 0
853 -854 -22 0
-853 854 0
-853 22 0
855 -856 -13 0
-855 856 0
-855 13 0
-857 858 851 853 855 0
857 -858 0
857 -851 0
857 -853 0
857 -855 0
859 -860 -857 0
-859 860 0
-859 857 0
861 -474 -672 0
-861 474 0
-861 672 0
862 -119 -30 0
-862 119 0
-862 30 0
-863 123 861 862 120 0
863 -123 0
863 -861 0
863 -862 0
863 -120 0
864 -125 -863 0
-864 125 0
-864 863 0
-865 135 864 132 0
865 -135 0
865 -864 0
865 -132 0
866 -137 -865 0
-866 137 0
-866 865 0
867 -141 -865 0
-867 141 0
-867 865 0
-868 143 867 0
868 -143 0
868 -867 0
869 -145 -868 0
-869 145 0
-869 868 0
-870 147 138 869 0
870 -147 0
870 -138 0
870 -869 0
871 -149 -870 0
-871 149 0
-871 870 0
-872 151 866 871 0
872 -151 0
872 -866 0
872 -871 0
873 -165 -872 0
-873 165 0
-873 872 0
-874 123 861 862 0
874 -123 0
874 -861 0
874 -862 0
875 -125 -874 0
-875 125 0
-875 874 0
-876 135 875 168 0
876 -135 0
876 -875 0
876 -168 0
877 -137 -876 0
-877 137 0
-877 876 0
878 -141 -876 0
-878 141 0
-878 876 0
-879 143 878 0
879 -143 0
879 -878 0
880 -145 -879 0
-880 145 0
-880 879 0
-881 147 138 880 0
881 -147 0
881 -138 0
881 -880 0
882 -149 -881 0
-882 149 0
-882 881 0
-883 151 877 882 0
883 -151 0
883 -877 0
883 -882 0
884 -178 -883 0
-884 178 0
-884 883 0
-885 3 884 0
885 -3 0
885 -884 0
886 -2 -885 0
-886 2 0
-886 885 0
-887 5 873 886 0
887 -5 0
887 -873 0
887 -886 0
888 -7 -887 0
-888 7 0
-888 887 0
889 -19 -525 0
-889 19 0
-889 525 0
890 -301 -484 0
-890 301 0
-890 484 0
-891 135 476 303 0
891 -135 0
891 -476 0
891 -303 0
892 -137 -891 0
-892 137 0
-892 891 0
893 -141 -891 0
-893 141 0
-893 891 0
-894 143 893 0
894 -143 0
894 -893 0
895 -145 -894 0
-895 145 0
-895 894 0
-896 147 138 895 0
896 -147 0
896 -138 0
896 -895 0
897 -149 -896 0
-897 149 0
-897 896 0
-898 151 892 897 0
898 -151 0
898 -892 0
898 -897 0
899 -313 -898 0
-899 313 0
-899 898 0
-900 25 899 0
900 -25 0
900 -899 0
901 -24 -900 0
-901 24 0
-901 900 0
-902 27 890 20 901 0
902 -27 0
902 -890 0
902 -20 0
902 -901 0
903 -29 -902 0
-903 29 0
-903 902 0
-904 31 8 889 903 0
904 -31 0
904 -8 0
904 -889 0
904 -903 0
905 -33 -904 0
-905 33 0
-905 904 0
906 -153 -872 0
-906 153 0
-906 872 0
907 -19 -200 0
-907 19 0
-907 200 0
-908 31 8 907 403 0
908 -31 0
908 -8 0
908 -907 0
908 -403 0
909 -320 -908 0
-909 320 0
-909 908 0
910 -209 -872 0
-910 209 0
-910 872 0
-911 123 370 183 0
911 -123 0
911 -370 0
911 -183 0
912 -125 -911 0
-912 125 0
-912 911 0
-913 135 912 188 0
913 -135 0
913 -912 0
913 -188 0
914 -137 -913 0
-914 137 0
-914 913 0
915 -141 -913 0
-915 141 0
-915 913 0
-916 143 915 0
916 -143 0
916 -915 0
917 -145 -916 0
-917 145 0
-917 916 0
-918 147 138 917 0
918 -147 0
918 -138 0
918 -917 0
919 -149 -918 0
-919 149 0
-919 918 0
-920 151 914 919 0
920 -151 0
920 -914 0
920 -919 0
921 -178 -920 0
-921 178 0
-921 920 0
-922 3 921 0
922 -3 0
922 -921 0
923 -15 -922 0
-923 15 0
-923 922 0
-924 17 11 923 0
924 -17 0
924 -11 0
924 -923 0
925 -45 -924 0
-925 45 0
-925 924 0
-926 47 910 925 0
926 -47 0
926 -910 0
926 -925 0
927 -466 -926 0
-927 466 0
-927 926 0
-928 468 906 909 321 927 0
928 -468 0
928 -906 0
928 -909 0
928 -321 0
928 -927 0
929 -508 -928 0
-929 508 0
-929 928 0
930 -320 -369 0
-930 320 0
-930 369 0
-931 468 930 321 509 0
931 -468 0
931 -930 0
931 -321 0
931 -509 0
932 -474 -931 0
-932 474 0
-932 931 0
-933 123 932 370 183 0
933 -123 0
933 -932 0
933 -370 0
933 -183 0
934 -125 -933 0
-934 125 0
-934 933 0
-935 135 934 188 0
935 -135 0
935 -934 0
935 -188 0
936 -137 -935 0
-936 137 0
-936 935 0
937 -141 -935 0
-937 141 0
-937 935 0
-938 143 937 0
938 -143 0
938 -937 0
939 -145 -938 0
-939 145 0
-939 938 0
-940 147 138 939 0
940 -147 0
940 -138 0
940 -939 0
941 -149 -940 0
-941 149 0
-941 940 0
-942 151 936 941 0
942 -151 0
942 -936 0
942 -941 0
943 -178 -942 0
-943 178 0
-943 942 0
-944 3 943 0
944 -3 0
944 -943 0
945 -15 -944 0
-945 15 0
-945 944 0
-946 17 11 945 0
946 -17 0
946 -11 0
946 -945 0
947 -35 -946 0
-947 35 0
-947 946 0
-948 37 947 0
948 -37 0
948 -947 0
949 -39 -948 0
-949 39 0
-949 948 0
-950 41 888 905 929 949 0
950 -41 0
950 -888 0
950 -905 0
950 -929 0
950 -949 0
951 -43 -950 0
-951 43 0
-951 950 0
952 -84 -810 0
-952 84 0
-952 810 0
-953 151 952 866 871 0
953 -151 0
953 -952 0
953 -866 0
953 -871 0
954 -209 -953 0
-954 209 0
-954 953 0
955 -508 -931 0
-955 508 0
-955 931 0
-956 41 210 410 955 211 0
956 -41 0
956 -210 0
956 -410 0
956 -955 0
956 -211 0
957 -84 -956 0
-957 84 0
-957 956 0
-958 151 957 936 941 0
958 -151 0
958 -957 0
958 -936 0
958 -941 0
959 -178 -958 0
-959 178 0
-959 958 0
-960 3 959 0
960 -3 0
960 -959 0
961 -15 -960 0
-961 15 0
-961 960 0
-962 17 11 961 0
962 -17 0
962 -11 0
962 -961 0
963 -45 -962 0
-963 45 0
-963 962 0
-964 47 954 963 0
964 -47 0
964 -954 0
964 -963 0
965 -49 -964 0
-965 49 0
-965 964 0
-966 51 951 965 0
966 -51 0
966 -951 0
966 -965 0
967 -53 -966 0
-967 53 0
-967 966 0
968 -84 -674 0
-968 84 0
-968 674 0
969 -107 -676 0
-969 107 0
-969 676 0
-970 151 968 969 866 871 0
970 -151 0
970 -968 0
970 -969 0
970 -866 0
970 -871 0
971 -165 -970 0
-971 165 0
-971 970 0
-972 151 968 969 877 882 0
972 -151 0
972 -968 0
972 -969 0
972 -877 0
972 -882 0
973 -178 -972 0
-973 178 0
-973 972 0
-974 3 973 0
974 -3 0
974 -973 0
975 -2 -974 0
-975 2 0
-975 974 0
-976 5 971 975 0
976 -5 0
976 -971 0
976 -975 0
977 -55 -976 0
-977 55 0
-977 976 0
-978 51 811 0
978 -51 0
978 -811 0
979 -107 -978 0
-979 107 0
-979 978 0
-980 151 952 979 866 871 0
980 -151 0
980 -952 0
980 -979 0
980 -866 0
980 -871 0
981 -209 -980 0
-981 209 0
-981 980 0
982 -43 -956 0
-982 43 0
-982 956 0
-983 51 982 0
983 -51 0
983 -982 0
984 -107 -983 0
-984 107 0
-984 983 0
-985 151 957 984 936 941 0
985 -151 0
985 -957 0
985 -984 0
985 -936 0
985 -941 0
986 -178 -985 0
-986 178 0
-986 985 0
-987 3 986 0
987 -3 0
987 -986 0
988 -15 -987 0
-988 15 0
-988 987 0
-989 17 11 988 0
989 -17 0
989 -11 0
989 -988 0
990 -45 -989 0
-990 45 0
-990 989 0
-991 47 981 990 0
991 -47 0
991 -981 0
991 -990 0
992 -57 -991 0
-992 57 0
-992 991 0
-993 59 992 0
993 -59 0
993 -992 0
994 -61 -993 0
-994 61 0
-994 993 0
-995 63 967 977 994 0
995 -63 0
995 -967 0
995 -977 0
995 -994 0
996 -997 -995 0
-996 997 0
-996 995 0
998 -19 -621 0
-998 19 0
-998 621 0
-999 31 329 8 998 28 0
999 -31 0
999 -329 0
999 -8 0
999 -998 0
999 -28 0
1000 -33 -999 0
-1000 33 0
-1000 999 0
1001 -35 -621 0
-1001 35 0
-1001 621 0
-1002 37 1001 0
1002 -37 0
1002 -1001 0
1003 -39 -1002 0
-1003 39 0
-1003 1002 0
-1004 41 328 6 1000 1003 0
1004 -41 0
1004 -328 0
1004 -6 0
1004 -1000 0
1004 -1003 0
1005 -84 -1004 0
-1005 84 0
-1005 1004 0
-1006 151 325 1005 349 361 366 0
1006 -151 0
1006 -325 0
1006 -1005 0
1006 -349 0
1006 -361 0
1006 -366 0
1007 -209 -1006 0
-1007 209 0
-1007 1006 0
-1008 47 1007 463 0
1008 -47 0
1008 -1007 0
1008 -463 0
1009 -466 -1008 0
-1009 466 0
-1009 1008 0
-1010 468 152 319 321 1009 0
1010 -468 0
1010 -152 0
1010 -319 0
1010 -321 0
1010 -1009 0
1011 -1012 -1010 0
-1011 1012 0
-1011 1010 0
1013 -53 -978 0
-1013 53 0
-1013 978 0
-1014 63 1013 54 0
1014 -63 0
1014 -1013 0
1014 -54 0
1015 -65 -1014 0
-1015 65 0
-1015 1014 0
-1016 63 326 54 0
1016 -63 0
1016 -326 0
1016 -54 0
1017 -70 -1016 0
-1017 70 0
-1017 1016 0
1018 -72 -1016 0
-1018 72 0
-1018 1016 0
1019 -74 -1016 0
-1019 74 0
-1019 1016 0
-1020 17 1019 11 14 0
1020 -17 0
1020 -1019 0
1020 -11 0
1020 -14 0
1021 -19 -1020 0
-1021 19 0
-1021 1020 0
-1022 31 1018 8 1021 28 0
1022 -31 0
1022 -1018 0
1022 -8 0
1022 -1021 0
1022 -28 0
1023 -33 -1022 0
-1023 33 0
-1023 1022 0
1024 -320 -1022 0
-1024 320 0
-1024 1022 0
-1025 468 1024 321 0
1025 -468 0
1025 -1024 0
1025 -321 0
1026 -508 -1025 0
-1026 508 0
-1026 1025 0
1027 -35 -1020 0
-1027 35 0
-1027 1020 0
-1028 37 1027 0
1028 -37 0
1028 -1027 0
1029 -39 -1028 0
-1029 39 0
-1029 1028 0
-1030 41 1017 6 1023 1026 1029 0
1030 -41 0
1030 -1017 0
1030 -6 0
1030 -1023 0
1030 -1026 0
1030 -1029 0
1031 -84 -1030 0
-1031 84 0
-1031 1030 0
-1032 63 54 0
1032 -63 0
1032 -54 0
1033 -70 -1032 0
-1033 70 0
-1033 1032 0
1034 -72 -1032 0
-1034 72 0
-1034 1032 0
1035 -74 -1032 0
-1035 74 0
-1035 1032 0
-1036 17 1035 11 14 0
1036 -17 0
1036 -1035 0
1036 -11 0
1036 -14 0
1037 -19 -1036 0
-1037 19 0
-1037 1036 0
-1038 31 1034 8 1037 28 0
1038 -31 0
1038 -1034 0
1038 -8 0
1038 -1037 0
1038 -28 0
1039 -33 -1038 0
-1039 33 0
-1039 1038 0
1040 -320 -1038 0
-1040 320 0
-1040 1038 0
-1041 468 1040 321 0
1041 -468 0
1041 -1040 0
1041 -321 0
1042 -508 -1041 0
-1042 508 0
-1042 1041 0
1043 -35 -1036 0
-1043 35 0
-1043 1036 0
-1044 37 1043 0
1044 -37 0
1044 -1043 0
1045 -39 -1044 0
-1045 39 0
-1045 1044 0
-1046 41 1033 6 1039 1042 1045 0
1046 -41 0
1046 -1033 0
1046 -6 0
1046 -1039 0
1046 -1042 0
1046 -1045 0
1047 -43 -1046 0
-1047 43 0
-1047 1046 0
-1048 51 1047 0
1048 -51 0
1048 -1047 0
1049 -107 -1048 0
-1049 107 0
-1049 1048 0
-1050 63 350 54 0
1050 -63 0
1050 -350 0
1050 -54 0
1051 -72 -1050 0
-1051 72 0
-1051 1050 0
1052 -74 -1050 0
-1052 74 0
-1052 1050 0
-1053 17 1052 11 14 0
1053 -17 0
1053 -1052 0
1053 -11 0
1053 -14 0
1054 -19 -1053 0
-1054 19 0
-1054 1053 0
-1055 31 1051 8 1054 28 0
1055 -31 0
1055 -1051 0
1055 -8 0
1055 -1054 0
1055 -28 0
1056 -320 -1055 0
-1056 320 0
-1056 1055 0
-1057 468 1056 321 0
1057 -468 0
1057 -1056 0
1057 -321 0
1058 -474 -1057 0
-1058 474 0
-1058 1057 0
1059 -53 -563 0
-1059 53 0
-1059 563 0
-1060 63 1059 54 0
1060 -63 0
1060 -1059 0
1060 -54 0
1061 -72 -1060 0
-1061 72 0
-1061 1060 0
1062 -74 -1060 0
-1062 74 0
-1062 1060 0
-1063 17 1062 11 14 0
1063 -17 0
1063 -1062 0
1063 -11 0
1063 -14 0
1064 -19 -1063 0
-1064 19 0
-1064 1063 0
-1065 31 1061 8 1064 28 0
1065 -31 0
1065 -1061 0
1065 -8 0
1065 -1064 0
1065 -28 0
1066 -119 -1065 0
-1066 119 0
-1066 1065 0
-1067 123 1058 1066 120 0
1067 -123 0
1067 -1058 0
1067 -1066 0
1067 -120 0
1068 -125 -1067 0
-1068 125 0
-1068 1067 0
-1069 135 1068 132 0
1069 -135 0
1069 -1068 0
1069 -132 0
1070 -137 -1069 0
-1070 137 0
-1070 1069 0
1071 -141 -1069 0
-1071 141 0
-1071 1069 0
-1072 143 1071 0
1072 -143 0
1072 -1071 0
1073 -145 -1072 0
-1073 145 0
-1073 1072 0
-1074 147 138 1073 0
1074 -147 0
1074 -138 0
1074 -1073 0
1075 -149 -1074 0
-1075 149 0
-1075 1074 0
-1076 151 1015 1031 1049 1070 1075 0
1076 -151 0
1076 -1015 0
1076 -1031 0
1076 -1049 0
1076 -1070 0
1076 -1075 0
1077 -209 -1076 0
-1077 209 0
-1077 1076 0
-1078 123 932 370 120 0
1078 -123 0
1078 -932 0
1078 -370 0
1078 -120 0
1079 -125 -1078 0
-1079 125 0
-1079 1078 0
-1080 135 1079 132 0
1080 -135 0
1080 -1079 0
1080 -132 0
1081 -137 -1080 0
-1081 137 0
-1081 1080 0
1082 -141 -1080 0
-1082 141 0
-1082 1080 0
-1083 143 1082 0
1083 -143 0
1083 -1082 0
1084 -145 -1083 0
-1084 145 0
-1084 1083 0
-1085 147 138 1084 0
1085 -147 0
1085 -138 0
1085 -1084 0
1086 -149 -1085 0
-1086 149 0
-1086 1085 0
-1087 151 1081 1086 0
1087 -151 0
1087 -1081 0
1087 -1086 0
1088 -165 -1087 0
-1088 165 0
-1088 1087 0
-1089 123 932 370 0
1089 -123 0
1089 -932 0
1089 -370 0
1090 -125 -1089 0
-1090 125 0
-1090 1089 0
-1091 135 1090 168 0
1091 -135 0
1091 -1090 0
1091 -168 0
1092 -137 -1091 0
-1092 137 0
-1092 1091 0
1093 -141 -1091 0
-1093 141 0
-1093 1091 0
-1094 143 1093 0
1094 -143 0
1094 -1093 0
1095 -145 -1094 0
-1095 145 0
-1095 1094 0
-1096 147 138 1095 0
1096 -147 0
1096 -138 0
1096 -1095 0
1097 -149 -1096 0
-1097 149 0
-1097 1096 0
-1098 151 1092 1097 0
1098 -151 0
1098 -1092 0
1098 -1097 0
1099 -178 -1098 0
-1099 178 0
-1099 1098 0
-1100 3 1099 0
1100 -3 0
1100 -1099 0
1101 -2 -1100 0
-1101 2 0
-1101 1100 0
-1102 5 1088 1101 0
1102 -5 0
1102 -1088 0
1102 -1101 0
1103 -7 -1102 0
-1103 7 0
-1103 1102 0
-1104 123 511 120 0
1104 -123 0
1104 -511 0
1104 -120 0
1105 -125 -1104 0
-1105 125 0
-1105 1104 0
-1106 135 1105 132 0
1106 -135 0
1106 -1105 0
1106 -132 0
1107 -137 -1106 0
-1107 137 0
-1107 1106 0
1108 -141 -1106 0
-1108 141 0
-1108 1106 0
-1109 143 1108 0
1109 -143 0
1109 -1108 0
1110 -145 -1109 0
-1110 145 0
-1110 1109 0
-1111 147 138 1110 0
1111 -147 0
1111 -138 0
1111 -1110 0
1112 -149 -1111 0
-1112 149 0
-1112 1111 0
-1113 151 1107 1112 0
1113 -151 0
1113 -1107 0
1113 -1112 0
1114 -301 -1113 0
-1114 301 0
-1114 1113 0
-1115 135 1105 303 0
1115 -135 0
1115 -1105 0
1115 -303 0
1116 -137 -1115 0
-1116 137 0
-1116 1115 0
1117 -141 -1115 0
-1117 141 0
-1117 1115 0
-1118 143 1117 0
1118 -143 0
1118 -1117 0
1119 -145 -1118 0
-1119 145 0
-1119 1118 0
-1120 147 138 1119 0
1120 -147 0
1120 -138 0
1120 -1119 0
1121 -149 -1120 0
-1121 149 0
-1121 1120 0
-1122 151 1116 1121 0
1122 -151 0
1122 -1116 0
1122 -1121 0
1123 -313 -1122 0
-1123 313 0
-1123 1122 0
-1124 25 1123 0
1124 -25 0
1124 -1123 0
1125 -24 -1124 0
-1125 24 0
-1125 1124 0
-1126 27 1114 20 1125 0
1126 -27 0
1126 -1114 0
1126 -20 0
1126 -1125 0
1127 -29 -1126 0
-1127 29 0
-1127 1126 0
-1128 31 8 1127 0
1128 -31 0
1128 -8 0
1128 -1127 0
1129 -33 -1128 0
-1129 33 0
-1129 1128 0
1130 -153 -380 0
-1130 153 0
-1130 380 0
1131 -320 -404 0
-1131 320 0
-1131 404 0
-1132 468 1130 1131 321 0
1132 -468 0
1132 -1130 0
1132 -1131 0
1132 -321 0
1133 -508 -1132 0
-1133 508 0
-1133 1132 0
-1134 41 1103 1129 1133 211 0
1134 -41 0
1134 -1103 0
1134 -1129 0
1134 -1133 0
1134 -211 0
1135 -43 -1134 0
-1135 43 0
-1135 1134 0
-1136 51 1135 0
1136 -51 0
1136 -1135 0
1137 -53 -1136 0
-1137 53 0
-1137 1136 0
-1138 41 410 955 38 0
1138 -41 0
1138 -410 0
1138 -955 0
1138 -38 0
1139 -84 -1138 0
-1139 84 0
-1139 1138 0
1140 -43 -1138 0
-1140 43 0
-1140 1138 0
-1141 51 1140 0
1141 -51 0
1141 -1140 0
1142 -107 -1141 0
-1142 107 0
-1142 1141 0
-1143 151 1139 1142 1081 1086 0
1143 -151 0
1143 -1139 0
1143 -1142 0
1143 -1081 0
1143 -1086 0
1144 -165 -1143 0
-1144 165 0
-1144 1143 0
-1145 151 957 984 1092 1097 0
1145 -151 0
1145 -957 0
1145 -984 0
1145 -1092 0
1145 -1097 0
1146 -178 -1145 0
-1146 178 0
-1146 1145 0
-1147 3 1146 0
1147 -3 0
1147 -1146 0
1148 -2 -1147 0
-1148 2 0
-1148 1147 0
-1149 5 1144 1148 0
1149 -5 0
1149 -1144 0
1149 -1148 0
1150 -55 -1149 0
-1150 55 0
-1150 1149 0
-1151 63 1137 1150 0
1151 -63 0
1151 -1137 0
1151 -1150 0
1152 -74 -1151 0
-1152 74 0
-1152 1151 0
1153 -53 -983 0
-1153 53 0
-1153 983 0
-1154 63 1153 271 0
1154 -63 0
1154 -1153 0
1154 -271 0
1155 -65 -1154 0
-1155 65 0
-1155 1154 0
1156 -70 -1154 0
-1156 70 0
-1156 1154 0
1157 -72 -1154 0
-1157 72 0
-1157 1154 0
-1158 31 1157 8 28 0
1158 -31 0
1158 -1157 0
1158 -8 0
1158 -28 0
1159 -33 -1158 0
-1159 33 0
-1159 1158 0
-1160 63 326 271 0
1160 -63 0
1160 -326 0
1160 -271 0
1161 -72 -1160 0
-1161 72 0
-1161 1160 0
-1162 31 1161 8 28 0
1162 -31 0
1162 -1161 0
1162 -8 0
1162 -28 0
1163 -320 -1162 0
-1163 320 0
-1163 1162 0
-1164 468 1163 321 509 0
1164 -468 0
1164 -1163 0
1164 -321 0
1164 -509 0
1165 -508 -1164 0
-1165 508 0
-1165 1164 0
-1166 41 1156 210 1159 1165 211 0
1166 -41 0
1166 -1156 0
1166 -210 0
1166 -1159 0
1166 -1165 0
1166 -211 0
1167 -84 -1166 0
-1167 84 0
-1167 1166 0
-1168 63 271 0
1168 -63 0
1168 -271 0
1169 -70 -1168 0
-1169 70 0
-1169 1168 0
1170 -72 -1168 0
-1170 72 0
-1170 1168 0
-1171 31 1170 8 28 0
1171 -31 0
1171 -1170 0
1171 -8 0
1171 -28 0
1172 -33 -1171 0
-1172 33 0
-1172 1171 0
1173 -320 -1171 0
-1173 320 0
-1173 1171 0
-1174 468 1173 321 509 0
1174 -468 0
1174 -1173 0
1174 -321 0
1174 -509 0
1175 -508 -1174 0
-1175 508 0
-1175 1174 0
-1176 41 1169 210 1172 1175 211 0
1176 -41 0
1176 -1169 0
1176 -210 0
1176 -1172 0
1176 -1175 0
1176 -211 0
1177 -43 -1176 0
-1177 43 0
-1177 1176 0
-1178 51 1177 0
1178 -51 0
1178 -1177 0
1179 -107 -1178 0
-1179 107 0
-1179 1178 0
-1180 63 429 271 0
1180 -63 0
1180 -429 0
1180 -271 0
1181 -72 -1180 0
-1181 72 0
-1181 1180 0
-1182 31 1181 8 28 0
1182 -31 0
1182 -1181 0
1182 -8 0
1182 -28 0
1183 -320 -1182 0
-1183 320 0
-1183 1182 0
-1184 468 1183 321 509 0
1184 -468 0
1184 -1183 0
1184 -321 0
1184 -509 0
1185 -474 -1184 0
-1185 474 0
-1185 1184 0
1186 -119 -1158 0
-1186 119 0
-1186 1158 0
-1187 123 1185 1186 183 0
1187 -123 0
1187 -1185 0
1187 -1186 0
1187 -183 0
1188 -125 -1187 0
-1188 125 0
-1188 1187 0
-1189 135 1188 188 0
1189 -135 0
1189 -1188 0
1189 -188 0
1190 -137 -1189 0
-1190 137 0
-1190 1189 0
1191 -141 -1189 0
-1191 141 0
-1191 1189 0
-1192 143 1191 0
1192 -143 0
1192 -1191 0
1193 -145 -1192 0
-1193 145 0
-1193 1192 0
-1194 147 138 1193 0
1194 -147 0
1194 -138 0
1194 -1193 0
1195 -149 -1194 0
-1195 149 0
-1195 1194 0
-1196 151 1155 1167 1179 1190 1195 0
1196 -151 0
1196 -1155 0
1196 -1167 0
1196 -1179 0
1196 -1190 0
1196 -1195 0
1197 -178 -1196 0
-1197 178 0
-1197 1196 0
-1198 3 1197 0
1198 -3 0
1198 -1197 0
1199 -15 -1198 0
-1199 15 0
-1199 1198 0
-1200 17 1152 11 1199 0
1200 -17 0
1200 -1152 0
1200 -11 0
1200 -1199 0
1201 -45 -1200 0
-1201 45 0
-1201 1200 0
-1202 47 1077 1201 0
1202 -47 0
1202 -1077 0
1202 -1201 0
1203 -57 -1202 0
-1203 57 0
-1203 1202 0
-1204 59 1203 0
1204 -59 0
1204 -1203 0
1205 -1206 -1204 0
-1205 1206 0
-1205 1204 0
-1207 1208 996 1011 1205 0
1207 -1208 0
1207 -996 0
1207 -1011 0
1207 -1205 0
1209 -1210 -1207 0
-1209 1210 0
-1209 1207 0
1211 -145 -143 0
-1211 145 0
-1211 143 0
-1212 147 138 1211 0
1212 -147 0
1212 -138 0
1212 -1211 0
1213 -149 -1212 0
-1213 149 0
-1213 1212 0
-1214 151 64 83 106 1213 0
1214 -151 0
1214 -64 0
1214 -83 0
1214 -106 0
1214 -1213 0
1215 -153 -1214 0
-1215 153 0
-1215 1214 0
-1216 151 1213 0
1216 -151 0
1216 -1213 0
1217 -165 -1216 0
-1217 165 0
-1217 1216 0
1218 -178 -1216 0
-1218 178 0
-1218 1216 0
-1219 3 1218 0
1219 -3 0
1219 -1218 0
1220 -2 -1219 0
-1220 2 0
-1220 1219 0
-1221 5 1217 1220 0
1221 -5 0
1221 -1217 0
1221 -1220 0
1222 -7 -1221 0
-1222 7 0
-1222 1221 0
1223 -15 -1219 0
-1223 15 0
-1223 1219 0
-1224 17 11 1223 0
1224 -17 0
1224 -11 0
1224 -1223 0
1225 -35 -1224 0
-1225 35 0
-1225 1224 0
-1226 37 1225 0
1226 -37 0
1226 -1225 0
1227 -39 -1226 0
-1227 39 0
-1227 1226 0
-1228 41 1222 1227 0
1228 -41 0
1228 -1222 0
1228 -1227 0
1229 -43 -1228 0
-1229 43 0
-1229 1228 0
-1230 151 206 1213 0
1230 -151 0
1230 -206 0
1230 -1213 0
1231 -209 -1230 0
-1231 209 0
-1231 1230 0
-1232 151 213 1213 0
1232 -151 0
1232 -213 0
1232 -1213 0
1233 -178 -1232 0
-1233 178 0
-1233 1232 0
-1234 3 1233 0
1234 -3 0
1234 -1233 0
1235 -15 -1234 0
-1235 15 0
-1235 1234 0
-1236 17 11 1235 0
1236 -17 0
1236 -11 0
1236 -1235 0
1237 -45 -1236 0
-1237 45 0
-1237 1236 0
-1238 47 1231 1237 0
1238 -47 0
1238 -1231 0
1238 -1237 0
1239 -49 -1238 0
-1239 49 0
-1239 1238 0
-1240 51 1229 1239 0
1240 -51 0
1240 -1229 0
1240 -1239 0
1241 -53 -1240 0
-1241 53 0
-1241 1240 0
-1242 151 225 228 1213 0
1242 -151 0
1242 -225 0
1242 -228 0
1242 -1213 0
1243 -165 -1242 0
-1243 165 0
-1243 1242 0
1244 -178 -1242 0
-1244 178 0
-1244 1242 0
-1245 3 1244 0
1245 -3 0
1245 -1244 0
1246 -2 -1245 0
-1246 2 0
-1246 1245 0
-1247 5 1243 1246 0
1247 -5 0
1247 -1243 0
1247 -1246 0
1248 -55 -1247 0
-1248 55 0
-1248 1247 0
-1249 151 206 238 1213 0
1249 -151 0
1249 -206 0
1249 -238 0
1249 -1213 0
1250 -209 -1249 0
-1250 209 0
-1250 1249 0
-1251 151 213 243 1213 0
1251 -151 0
1251 -213 0
1251 -243 0
1251 -1213 0
1252 -178 -1251 0
-1252 178 0
-1252 1251 0
-1253 3 1252 0
1253 -3 0
1253 -1252 0
1254 -15 -1253 0
-1254 15 0
-1254 1253 0
-1255 17 11 1254 0
1255 -17 0
1255 -11 0
1255 -1254 0
1256 -45 -1255 0
-1256 45 0
-1256 1255 0
-1257 47 1250 1256 0
1257 -47 0
1257 -1250 0
1257 -1256 0
1258 -57 -1257 0
-1258 57 0
-1258 1257 0
-1259 59 1258 0
1259 -59 0
1259 -1258 0
1260 -61 -1259 0
-1260 61 0
-1260 1259 0
-1261 63 1241 1248 1260 0
1261 -63 0
1261 -1241 0
1261 -1248 0
1261 -1260 0
1262 -72 -1261 0
-1262 72 0
-1262 1261 0
-1263 41 1222 211 0
1263 -41 0
1263 -1222 0
1263 -211 0
1264 -43 -1263 0
-1264 43 0
-1264 1263 0
-1265 47 1231 0
1265 -47 0
1265 -1231 0
1266 -49 -1265 0
-1266 49 0
-1266 1265 0
-1267 51 1264 1266 0
1267 -51 0
1267 -1264 0
1267 -1266 0
1268 -53 -1267 0
-1268 53 0
-1268 1267 0
-1269 47 1250 0
1269 -47 0
1269 -1250 0
1270 -57 -1269 0
-1270 57 0
-1270 1269 0
-1271 59 1270 0
1271 -59 0
1271 -1270 0
1272 -61 -1271 0
-1272 61 0
-1272 1271 0
-1273 63 1268 1248 1272 0
1273 -63 0
1273 -1268 0
1273 -1248 0
1273 -1272 0
1274 -74 -1273 0
-1274 74 0
-1274 1273 0
-1275 151 276 279 285 1213 0
1275 -151 0
1275 -276 0
1275 -279 0
1275 -285 0
1275 -1213 0
1276 -178 -1275 0
-1276 178 0
-1276 1275 0
-1277 3 1276 0
1277 -3 0
1277 -1276 0
1278 -15 -1277 0
-1278 15 0
-1278 1277 0
-1279 17 1274 11 1278 0
1279 -17 0
1279 -1274 0
1279 -11 0
1279 -1278 0
1280 -19 -1279 0
-1280 19 0
-1280 1279 0
-1281 151 292 294 298 1213 0
1281 -151 0
1281 -292 0
1281 -294 0
1281 -298 0
1281 -1213 0
1282 -301 -1281 0
-1282 301 0
-1282 1281 0
1283 -313 -1281 0
-1283 313 0
-1283 1281 0
-1284 25 1283 0
1284 -25 0
1284 -1283 0
1285 -24 -1284 0
-1285 24 0
-1285 1284 0
-1286 27 1282 20 1285 0
1286 -27 0
1286 -1282 0
1286 -20 0
1286 -1285 0
1287 -29 -1286 0
-1287 29 0
-1287 1286 0
-1288 31 1262 8 1280 1287 0
1288 -31 0
1288 -1262 0
1288 -8 0
1288 -1280 0
1288 -1287 0
1289 -320 -1288 0
-1289 320 0
-1289 1288 0
-1290 151 325 1005 349 1213 0
1290 -151 0
1290 -325 0
1290 -1005 0
1290 -349 0
1290 -1213 0
1291 -209 -1290 0
-1291 209 0
-1291 1290 0
1292 -301 -1216 0
-1292 301 0
-1292 1216 0
1293 -313 -1216 0
-1293 313 0
-1293 1216 0
-1294 25 1293 0
1294 -25 0
1294 -1293 0
1295 -24 -1294 0
-1295 24 0
-1295 1294 0
-1296 27 1292 20 1295 0
1296 -27 0
1296 -1292 0
1296 -20 0
1296 -1295 0
1297 -29 -1296 0
-1297 29 0
-1297 1296 0
-1298 31 8 1297 0
1298 -31 0
1298 -8 0
1298 -1297 0
1299 -33 -1298 0
-1299 33 0
-1299 1298 0
-1300 41 1222 1299 211 0
1300 -41 0
1300 -1222 0
1300 -1299 0
1300 -211 0
1301 -43 -1300 0
-1301 43 0
-1301 1300 0
-1302 51 1301 0
1302 -51 0
1302 -1301 0
1303 -53 -1302 0
-1303 53 0
-1303 1302 0
-1304 151 412 415 1213 0
1304 -151 0
1304 -412 0
1304 -415 0
1304 -1213 0
1305 -165 -1304 0
-1305 165 0
-1305 1304 0
1306 -178 -1304 0
-1306 178 0
-1306 1304 0
-1307 3 1306 0
1307 -3 0
1307 -1306 0
1308 -2 -1307 0
-1308 2 0
-1308 1307 0
-1309 5 1305 1308 0
1309 -5 0
1309 -1305 0
1309 -1308 0
1310 -55 -1309 0
-1310 55 0
-1310 1309 0
-1311 63 1303 1310 98 0
1311 -63 0
1311 -1303 0
1311 -1310 0
1311 -98 0
1312 -74 -1311 0
-1312 74 0
-1312 1311 0
-1313 151 431 438 445 1213 0
1313 -151 0
1313 -431 0
1313 -438 0
1313 -445 0
1313 -1213 0
1314 -178 -1313 0
-1314 178 0
-1314 1313 0
-1315 3 1314 0
1315 -3 0
1315 -1314 0
1316 -15 -1315 0
-1316 15 0
-1316 1315 0
-1317 17 1312 11 1316 0
1317 -17 0
1317 -1312 0
1317 -11 0
1317 -1316 0
1318 -45 -1317 0
-1318 45 0
-1318 1317 0
-1319 47 1291 1318 0
1319 -47 0
1319 -1291 0
1319 -1318 0
1320 -466 -1319 0
-1320 466 0
-1320 1319 0
-1321 468 1215 1289 321 1320 0
1321 -468 0
1321 -1215 0
1321 -1289 0
1321 -321 0
1321 -1320 0
1322 -474 -1321 0
-1322 474 0
-1322 1321 0
1323 -153 -1216 0
-1323 153 0
-1323 1216 0
1324 -209 -1216 0
-1324 209 0
-1324 1216 0
1325 -45 -1224 0
-1325 45 0
-1325 1224 0
-1326 47 1324 1325 0
1326 -47 0
1326 -1324 0
1326 -1325 0
1327 -466 -1326 0
-1327 466 0
-1327 1326 0
-1328 468 1323 321 1327 0
1328 -468 0
1328 -1323 0
1328 -321 0
1328 -1327 0
1329 -508 -1328 0
-1329 508 0
-1329 1328 0
-1330 41 1222 1329 1227 0
1330 -41 0
1330 -1222 0
1330 -1329 0
1330 -1227 0
1331 -43 -1330 0
-1331 43 0
-1331 1330 0
-1332 151 533 1213 0
1332 -151 0
1332 -533 0
1332 -1213 0
1333 -209 -1332 0
-1333 209 0
-1333 1332 0
-1334 151 538 1213 0
1334 -151 0
1334 -538 0
1334 -1213 0
1335 -178 -1334 0
-1335 178 0
-1335 1334 0
-1336 3 1335 0
1336 -3 0
1336 -1335 0
1337 -15 -1336 0
-1337 15 0
-1337 1336 0
-1338 17 11 1337 0
1338 -17 0
1338 -11 0
1338 -1337 0
1339 -45 -1338 0
-1339 45 0
-1339 1338 0
-1340 47 1333 1339 0
1340 -47 0
1340 -1333 0
1340 -1339 0
1341 -49 -1340 0
-1341 49 0
-1341 1340 0
-1342 51 1331 1341 0
1342 -51 0
1342 -1331 0
1342 -1341 0
1343 -53 -1342 0
-1343 53 0
-1343 1342 0
-1344 151 550 553 1213 0
1344 -151 0
1344 -550 0
1344 -553 0
1344 -1213 0
1345 -165 -1344 0
-1345 165 0
-1345 1344 0
1346 -178 -1344 0
-1346 178 0
-1346 1344 0
-1347 3 1346 0
1347 -3 0
1347 -1346 0
1348 -2 -1347 0
-1348 2 0
-1348 1347 0
-1349 5 1345 1348 0
1349 -5 0
1349 -1345 0
1349 -1348 0
1350 -55 -1349 0
-1350 55 0
-1350 1349 0
-1351 151 533 564 1213 0
1351 -151 0
1351 -533 0
1351 -564 0
1351 -1213 0
1352 -209 -1351 0
-1352 209 0
-1352 1351 0
-1353 151 538 569 1213 0
1353 -151 0
1353 -538 0
1353 -569 0
1353 -1213 0
1354 -178 -1353 0
-1354 178 0
-1354 1353 0
-1355 3 1354 0
1355 -3 0
1355 -1354 0
1356 -15 -1355 0
-1356 15 0
-1356 1355 0
-1357 17 11 1356 0
1357 -17 0
1357 -11 0
1357 -1356 0
1358 -45 -1357 0
-1358 45 0
-1358 1357 0
-1359 47 1352 1358 0
1359 -47 0
1359 -1352 0
1359 -1358 0
1360 -57 -1359 0
-1360 57 0
-1360 1359 0
-1361 59 1360 0
1361 -59 0
1361 -1360 0
1362 -61 -1361 0
-1362 61 0
-1362 1361 0
-1363 63 1343 1350 1362 0
1363 -63 0
1363 -1343 0
1363 -1350 0
1363 -1362 0
1364 -72 -1363 0
-1364 72 0
-1364 1363 0
-1365 41 1222 1329 211 0
1365 -41 0
1365 -1222 0
1365 -1329 0
1365 -211 0
1366 -43 -1365 0
-1366 43 0
-1366 1365 0
-1367 47 1333 0
1367 -47 0
1367 -1333 0
1368 -49 -1367 0
-1368 49 0
-1368 1367 0
-1369 51 1366 1368 0
1369 -51 0
1369 -1366 0
1369 -1368 0
1370 -53 -1369 0
-1370 53 0
-1370 1369 0
-1371 47 1352 0
1371 -47 0
1371 -1352 0
1372 -57 -1371 0
-1372 57 0
-1372 1371 0
-1373 59 1372 0
1373 -59 0
1373 -1372 0
1374 -61 -1373 0
-1374 61 0
-1374 1373 0
-1375 63 1370 1350 1374 0
1375 -63 0
1375 -1370 0
1375 -1350 0
1375 -1374 0
1376 -74 -1375 0
-1376 74 0
-1376 1375 0
-1377 151 601 604 608 1213 0
1377 -151 0
1377 -601 0
1377 -604 0
1377 -608 0
1377 -1213 0
1378 -178 -1377 0
-1378 178 0
-1378 1377 0
-1379 3 1378 0
1379 -3 0
1379 -1378 0
1380 -15 -1379 0
-1380 15 0
-1380 1379 0
-1381 17 1376 11 1380 0
1381 -17 0
1381 -1376 0
1381 -11 0
1381 -1380 0
1382 -19 -1381 0
-1382 19 0
-1382 1381 0
-1383 151 618 628 635 1213 0
1383 -151 0
1383 -618 0
1383 -628 0
1383 -635 0
1383 -1213 0
1384 -301 -1383 0
-1384 301 0
-1384 1383 0
1385 -313 -1383 0
-1385 313 0
-1385 1383 0
-1386 25 1385 0
1386 -25 0
1386 -1385 0
1387 -24 -1386 0
-1387 24 0
-1387 1386 0
-1388 27 1384 20 1387 0
1388 -27 0
1388 -1384 0
1388 -20 0
1388 -1387 0
1389 -29 -1388 0
-1389 29 0
-1389 1388 0
-1390 31 1364 8 1382 1389 0
1390 -31 0
1390 -1364 0
1390 -8 0
1390 -1382 0
1390 -1389 0
1391 -119 -1390 0
-1391 119 0
-1391 1390 0
-1392 151 679 684 691 1213 0
1392 -151 0
1392 -679 0
1392 -684 0
1392 -691 0
1392 -1213 0
1393 -165 -1392 0
-1393 165 0
-1393 1392 0
-1394 151 729 756 778 1213 0
1394 -151 0
1394 -729 0
1394 -756 0
1394 -778 0
1394 -1213 0
1395 -178 -1394 0
-1395 178 0
-1395 1394 0
-1396 3 1395 0
1396 -3 0
1396 -1395 0
1397 -2 -1396 0
-1397 2 0
-1397 1396 0
-1398 5 1393 1397 0
1398 -5 0
1398 -1393 0
1398 -1397 0
1399 -121 -1398 0
-1399 121 0
-1399 1398 0
-1400 123 1322 1391 1399 0
1400 -123 0
1400 -1322 0
1400 -1391 0
1400 -1399 0
1401 -125 -1400 0
-1401 125 0
-1401 1400 0
1402 -127 -1398 0
-1402 127 0
-1402 1398 0
-1403 31 8 18 0
1403 -31 0
1403 -8 0
1403 -18 0
1404 -33 -1403 0
-1404 33 0
-1404 1403 0
1405 -320 -1403 0
-1405 320 0
-1405 1403 0
-1406 468 1405 321 471 0
1406 -468 0
1406 -1405 0
1406 -321 0
1406 -471 0
1407 -508 -1406 0
-1407 508 0
-1407 1406 0
-1408 41 6 1404 1407 38 0
1408 -41 0
1408 -6 0
1408 -1404 0
1408 -1407 0
1408 -38 0
1409 -43 -1408 0
-1409 43 0
-1409 1408 0
-1410 51 1409 48 0
1410 -51 0
1410 -1409 0
1410 -48 0
1411 -53 -1410 0
-1411 53 0
-1411 1410 0
-1412 63 1411 54 60 0
1412 -63 0
1412 -1411 0
1412 -54 0
1412 -60 0
1413 -65 -1412 0
-1413 65 0
-1413 1412 0
-1414 31 71 8 76 0
1414 -31 0
1414 -71 0
1414 -8 0
1414 -76 0
1415 -33 -1414 0
-1415 33 0
-1415 1414 0
1416 -320 -1414 0
-1416 320 0
-1416 1414 0
-1417 468 1416 321 624 0
1417 -468 0
1417 -1416 0
1417 -321 0
1417 -624 0
1418 -508 -1417 0
-1418 508 0
-1418 1417 0
-1419 41 69 6 1415 1418 81 0
1419 -41 0
1419 -69 0
1419 -6 0
1419 -1415 0
1419 -1418 0
1419 -81 0
1420 -84 -1419 0
-1420 84 0
-1420 1419 0
-1421 31 87 8 90 0
1421 -31 0
1421 -87 0
1421 -8 0
1421 -90 0
1422 -33 -1421 0
-1422 33 0
-1422 1421 0
1423 -320 -1421 0
-1423 320 0
-1423 1421 0
-1424 468 1423 321 629 0
1424 -468 0
1424 -1423 0
1424 -321 0
1424 -629 0
1425 -508 -1424 0
-1425 508 0
-1425 1424 0
-1426 41 86 6 1422 1425 95 0
1426 -41 0
1426 -86 0
1426 -6 0
1426 -1422 0
1426 -1425 0
1426 -95 0
1427 -43 -1426 0
-1427 43 0
-1427 1426 0
-1428 51 1427 104 0
1428 -51 0
1428 -1427 0
1428 -104 0
1429 -107 -1428 0
-1429 107 0
-1429 1428 0
-1430 151 1413 1420 1429 1213 0
1430 -151 0
1430 -1413 0
1430 -1420 0
1430 -1429 0
1430 -1213 0
1431 -301 -1430 0
-1431 301 0
-1431 1430 0
1432 -313 -1430 0
-1432 313 0
-1432 1430 0
-1433 25 1432 0
1433 -25 0
1433 -1432 0
1434 -24 -1433 0
-1434 24 0
-1434 1433 0
-1435 27 1431 20 1434 0
1435 -27 0
1435 -1431 0
1435 -20 0
1435 -1434 0
1436 -129 -1435 0
-1436 129 0
-1436 1435 0
-1437 131 1402 1436 0
1437 -131 0
1437 -1402 0
1437 -1436 0
1438 -133 -1437 0
-1438 133 0
-1438 1437 0
-1439 135 1401 1438 0
1439 -135 0
1439 -1401 0
1439 -1438 0
1440 -1441 -1439 0
-1440 1441 0
-1440 1439 0
-1442 151 64 83 106 0
1442 -151 0
1442 -64 0
1442 -83 0
1442 -106 0
1443 -153 -1442 0
-1443 153 0
-1443 1442 0
1444 -165 -151 0
-1444 165 0
-1444 151 0
1445 -178 -151 0
-1445 178 0
-1445 151 0
-1446 3 1445 0
1446 -3 0
1446 -1445 0
1447 -2 -1446 0
-1447 2 0
-1447 1446 0
-1448 5 1444 1447 0
1448 -5 0
1448 -1444 0
1448 -1447 0
1449 -7 -1448 0
-1449 7 0
-1449 1448 0
1450 -15 -1446 0
-1450 15 0
-1450 1446 0
-1451 17 11 1450 0
1451 -17 0
1451 -11 0
1451 -1450 0
1452 -35 -1451 0
-1452 35 0
-1452 1451 0
-1453 37 1452 0
1453 -37 0
1453 -1452 0
1454 -39 -1453 0
-1454 39 0
-1454 1453 0
-1455 41 1449 1454 0
1455 -41 0
1455 -1449 0
1455 -1454 0
1456 -43 -1455 0
-1456 43 0
-1456 1455 0
-1457 151 206 0
1457 -151 0
1457 -206 0
1458 -209 -1457 0
-1458 209 0
-1458 1457 0
-1459 151 213 0
1459 -151 0
1459 -213 0
1460 -178 -1459 0
-1460 178 0
-1460 1459 0
-1461 3 1460 0
1461 -3 0
1461 -1460 0
1462 -15 -1461 0
-1462 15 0
-1462 1461 0
-1463 17 11 1462 0
1463 -17 0
1463 -11 0
1463 -1462 0
1464 -45 -1463 0
-1464 45 0
-1464 1463 0
-1465 47 1458 1464 0
1465 -47 0
1465 -1458 0
1465 -1464 0
1466 -49 -1465 0
-1466 49 0
-1466 1465 0
-1467 51 1456 1466 0
1467 -51 0
1467 -1456 0
1467 -1466 0
1468 -53 -1467 0
-1468 53 0
-1468 1467 0
-1469 151 225 228 0
1469 -151 0
1469 -225 0
1469 -228 0
1470 -165 -1469 0
-1470 165 0
-1470 1469 0
1471 -178 -1469 0
-1471 178 0
-1471 1469 0
-1472 3 1471 0
1472 -3 0
1472 -1471 0
1473 -2 -1472 0
-1473 2 0
-1473 1472 0
-1474 5 1470 1473 0
1474 -5 0
1474 -1470 0
1474 -1473 0
1475 -55 -1474 0
-1475 55 0
-1475 1474 0
-1476 151 206 238 0
1476 -151 0
1476 -206 0
1476 -238 0
1477 -209 -1476 0
-1477 209 0
-1477 1476 0
-1478 151 213 243 0
1478 -151 0
1478 -213 0
1478 -243 0
1479 -178 -1478 0
-1479 178 0
-1479 1478 0
-1480 3 1479 0
1480 -3 0
1480 -1479 0
1481 -15 -1480 0
-1481 15 0
-1481 1480 0
-1482 17 11 1481 0
1482 -17 0
1482 -11 0
1482 -1481 0
1483 -45 -1482 0
-1483 45 0
-1483 1482 0
-1484 47 1477 1483 0
1484 -47 0
1484 -1477 0
1484 -1483 0
1485 -57 -1484 0
-1485 57 0
-1485 1484 0
-1486 59 1485 0
1486 -59 0
1486 -1485 0
1487 -61 -1486 0
-1487 61 0
-1487 1486 0
-1488 63 1468 1475 1487 0
1488 -63 0
1488 -1468 0
1488 -1475 0
1488 -1487 0
1489 -72 -1488 0
-1489 72 0
-1489 1488 0
-1490 41 1449 211 0
1490 -41 0
1490 -1449 0
1490 -211 0
1491 -43 -1490 0
-1491 43 0
-1491 1490 0
-1492 47 1458 0
1492 -47 0
1492 -1458 0
1493 -49 -1492 0
-1493 49 0
-1493 1492 0
-1494 51 1491 1493 0
1494 -51 0
1494 -1491 0
1494 -1493 0
1495 -53 -1494 0
-1495 53 0
-1495 1494 0
-1496 47 1477 0
1496 -47 0
1496 -1477 0
1497 -57 -1496 0
-1497 57 0
-1497 1496 0
-1498 59 1497 0
1498 -59 0
1498 -1497 0
1499 -61 -1498 0
-1499 61 0
-1499 1498 0
-1500 63 1495 1475 1499 0
1500 -63 0
1500 -1495 0
1500 -1475 0
1500 -1499 0
1501 -74 -1500 0
-1501 74 0
-1501 1500 0
-1502 151 276 279 285 0
1502 -151 0
1502 -276 0
1502 -279 0
1502 -285 0
1503 -178 -1502 0
-1503 178 0
-1503 1502 0
-1504 3 1503 0
1504 -3 0
1504 -1503 0
1505 -15 -1504 0
-1505 15 0
-1505 1504 0
-1506 17 1501 11 1505 0
1506 -17 0
1506 -1501 0
1506 -11 0
1506 -1505 0
1507 -19 -1506 0
-1507 19 0
-1507 1506 0
-1508 151 292 294 298 0
1508 -151 0
1508 -292 0
1508 -294 0
1508 -298 0
1509 -301 -1508 0
-1509 301 0
-1509 1508 0
1510 -313 -1508 0
-1510 313 0
-1510 1508 0
-1511 25 1510 0
1511 -25 0
1511 -1510 0
1512 -24 -1511 0
-1512 24 0
-1512 1511 0
-1513 27 1509 20 1512 0
1513 -27 0
1513 -1509 0
1513 -20 0
1513 -1512 0
1514 -29 -1513 0
-1514 29 0
-1514 1513 0
-1515 31 1489 8 1507 1514 0
1515 -31 0
1515 -1489 0
1515 -8 0
1515 -1507 0
1515 -1514 0
1516 -320 -1515 0
-1516 320 0
-1516 1515 0
-1517 151 325 1005 349 0
1517 -151 0
1517 -325 0
1517 -1005 0
1517 -349 0
1518 -209 -1517 0
-1518 209 0
-1518 1517 0
1519 -301 -151 0
-1519 301 0
-1519 151 0
1520 -313 -151 0
-1520 313 0
-1520 151 0
-1521 25 1520 0
1521 -25 0
1521 -1520 0
1522 -24 -1521 0
-1522 24 0
-1522 1521 0
-1523 27 1519 20 1522 0
1523 -27 0
1523 -1519 0
1523 -20 0
1523 -1522 0
1524 -29 -1523 0
-1524 29 0
-1524 1523 0
-1525 31 8 1524 0
1525 -31 0
1525 -8 0
1525 -1524 0
1526 -33 -1525 0
-1526 33 0
-1526 1525 0
-1527 41 1449 1526 211 0
1527 -41 0
1527 -1449 0
1527 -1526 0
1527 -211 0
1528 -43 -1527 0
-1528 43 0
-1528 1527 0
-1529 51 1528 0
1529 -51 0
1529 -1528 0
1530 -53 -1529 0
-1530 53 0
-1530 1529 0
-1531 151 412 415 0
1531 -151 0
1531 -412 0
1531 -415 0
1532 -165 -1531 0
-1532 165 0
-1532 1531 0
1533 -178 -1531 0
-1533 178 0
-1533 1531 0
-1534 3 1533 0
1534 -3 0
1534 -1533 0
1535 -2 -1534 0
-1535 2 0
-1535 1534 0
-1536 5 1532 1535 0
1536 -5 0
1536 -1532 0
1536 -1535 0
1537 -55 -1536 0
-1537 55 0
-1537 1536 0
-1538 63 1530 1537 98 0
1538 -63 0
1538 -1530 0
1538 -1537 0
1538 -98 0
1539 -74 -1538 0
-1539 74 0
-1539 1538 0
-1540 151 431 438 445 0
1540 -151 0
1540 -431 0
1540 -438 0
1540 -445 0
1541 -178 -1540 0
-1541 178 0
-1541 1540 0
-1542 3 1541 0
1542 -3 0
1542 -1541 0
1543 -15 -1542 0
-1543 15 0
-1543 1542 0
-1544 17 1539 11 1543 0
1544 -17 0
1544 -1539 0
1544 -11 0
1544 -1543 0
1545 -45 -1544 0
-1545 45 0
-1545 1544 0
-1546 47 1518 1545 0
1546 -47 0
1546 -1518 0
1546 -1545 0
1547 -466 -1546 0
-1547 466 0
-1547 1546 0
-1548 468 1443 1516 321 1547 0
1548 -468 0
1548 -1443 0
1548 -1516 0
1548 -321 0
1548 -1547 0
1549 -474 -1548 0
-1549 474 0
-1549 1548 0
1550 -153 -151 0
-1550 153 0
-1550 151 0
1551 -209 -151 0
-1551 209 0
-1551 151 0
1552 -45 -1451 0
-1552 45 0
-1552 1451 0
-1553 47 1551 1552 0
1553 -47 0
1553 -1551 0
1553 -1552 0
1554 -466 -1553 0
-1554 466 0
-1554 1553 0
-1555 468 1550 321 1554 0
1555 -468 0
1555 -1550 0
1555 -321 0
1555 -1554 0
1556 -508 -1555 0
-1556 508 0
-1556 1555 0
-1557 41 1449 1556 1454 0
1557 -41 0
1557 -1449 0
1557 -1556 0
1557 -1454 0
1558 -43 -1557 0
-1558 43 0
-1558 1557 0
-1559 151 533 0
1559 -151 0
1559 -533 0
1560 -209 -1559 0
-1560 209 0
-1560 1559 0
-1561 151 538 0
1561 -151 0
1561 -538 0
1562 -178 -1561 0
-1562 178 0
-1562 1561 0
-1563 3 1562 0
1563 -3 0
1563 -1562 0
1564 -15 -1563 0
-1564 15 0
-1564 1563 0
-1565 17 11 1564 0
1565 -17 0
1565 -11 0
1565 -1564 0
1566 -45 -1565 0
-1566 45 0
-1566 1565 0
-1567 47 1560 1566 0
1567 -47 0
1567 -1560 0
1567 -1566 0
1568 -49 -1567 0
-1568 49 0
-1568 1567 0
-1569 51 1558 1568 0
1569 -51 0
1569 -1558 0
1569 -1568 0
1570 -53 -1569 0
-1570 53 0
-1570 1569 0
-1571 151 550 553 0
1571 -151 0
1571 -550 0
1571 -553 0
1572 -165 -1571 0
-1572 165 0
-1572 1571 0
1573 -178 -1571 0
-1573 178 0
-1573 1571 0
-1574 3 1573 0
1574 -3 0
1574 -1573 0
1575 -2 -1574 0
-1575 2 0
-1575 1574 0
-1576 5 1572 1575 0
1576 -5 0
1576 -1572 0
1576 -1575 0
1577 -55 -1576 0
-1577 55 0
-1577 1576 0
-1578 151 533 564 0
1578 -151 0
1578 -533 0
1578 -564 0
1579 -209 -1578 0
-1579 209 0
-1579 1578 0
-1580 151 538 569 0
1580 -151 0
1580 -538 0
1580 -569 0
1581 -178 -1580 0
-1581 178 0
-1581 1580 0
-1582 3 1581 0
1582 -3 0
1582 -1581 0
1583 -15 -1582 0
-1583 15 0
-1583 1582 0
-1584 17 11 1583 0
1584 -17 0
1584 -11 0
1584 -1583 0
1585 -45 -1584 0
-1585 45 0
-1585 1584 0
-1586 47 1579 1585 0
1586 -47 0
1586 -1579 0
1586 -1585 0
1587 -57 -1586 0
-1587 57 0
-1587 1586 0
-1588 59 1587 0
1588 -59 0
1588 -1587 0
1589 -61 -1588 0
-1589 61 0
-1589 1588 0
-1590 63 1570 1577 1589 0
1590 -63 0
1590 -1570 0
1590 -1577 0
1590 -1589 0
1591 -72 -1590 0
-1591 72 0
-1591 1590 0
-1592 41 1449 1556 211 0
1592 -41 0
1592 -1449 0
1592 -1556 0
1592 -211 0
1593 -43 -1592 0
-1593 43 0
-1593 1592 0
-1594 47 1560 0
1594 -47 0
1594 -1560 0
1595 -49 -1594 0
-1595 49 0
-1595 1594 0
-1596 51 1593 1595 0
1596 -51 0
1596 -1593 0
1596 -1595 0
1597 -53 -1596 0
-1597 53 0
-1597 1596 0
-1598 47 1579 0
1598 -47 0
1598 -1579 0
1599 -57 -1598 0
-1599 57 0
-1599 1598 0
-1600 59 1599 0
1600 -59 0
1600 -1599 0
1601 -61 -1600 0
-1601 61 0
-1601 1600 0
-1602 63 1597 1577 1601 0
1602 -63 0
1602 -1597 0
1602 -1577 0
1602 -1601 0
1603 -74 -1602 0
-1603 74 0
-1603 1602 0
-1604 151 601 604 608 0
1604 -151 0
1604 -601 0
1604 -604 0
1604 -608 0
1605 -178 -1604 0
-1605 178 0
-1605 1604 0
-1606 3 1605 0
1606 -3 0
1606 -1605 0
1607 -15 -1606 0
-1607 15 0
-1607 1606 0
-1608 17 1603 11 1607 0
1608 -17 0
1608 -1603 0
1608 -11 0
1608 -1607 0
1609 -19 -1608 0
-1609 19 0
-1609 1608 0
-1610 151 618 628 635 0
1610 -151 0
1610 -618 0
1610 -628 0
1610 -635 0
1611 -301 -1610 0
-1611 301 0
-1611 1610 0
1612 -313 -1610 0
-1612 313 0
-1612 1610 0
-1613 25 1612 0
1613 -25 0
1613 -1612 0
1614 -24 -1613 0
-1614 24 0
-1614 1613 0
-1615 27 1611 20 1614 0
1615 -27 0
1615 -1611 0
1615 -20 0
1615 -1614 0
1616 -29 -1615 0
-1616 29 0
-1616 1615 0
-1617 31 1591 8 1609 1616 0
1617 -31 0
1617 -1591 0
1617 -8 0
1617 -1609 0
1617 -1616 0
1618 -119 -1617 0
-1618 119 0
-1618 1617 0
-1619 151 679 684 691 0
1619 -151 0
1619 -679 0
1619 -684 0
1619 -691 0
1620 -165 -1619 0
-1620 165 0
-1620 1619 0
-1621 151 729 756 778 0
1621 -151 0
1621 -729 0
1621 -756 0
1621 -778 0
1622 -178 -1621 0
-1622 178 0
-1622 1621 0
-1623 3 1622 0
1623 -3 0
1623 -1622 0
1624 -2 -1623 0
-1624 2 0
-1624 1623 0
-1625 5 1620 1624 0
1625 -5 0
1625 -1620 0
1625 -1624 0
1626 -121 -1625 0
-1626 121 0
-1626 1625 0
-1627 123 1549 1618 1626 0
1627 -123 0
1627 -1549 0
1627 -1618 0
1627 -1626 0
1628 -125 -1627 0
-1628 125 0
-1628 1627 0
1629 -127 -1625 0
-1629 127 0
-1629 1625 0
-1630 151 1413 1420 1429 0
1630 -151 0
1630 -1413 0
1630 -1420 0
1630 -1429 0
1631 -301 -1630 0
-1631 301 0
-1631 1630 0
1632 -313 -1630 0
-1632 313 0
-1632 1630 0
-1633 25 1632 0
1633 -25 0
1633 -1632 0
1634 -24 -1633 0
-1634 24 0
-1634 1633 0
-1635 27 1631 20 1634 0
1635 -27 0
1635 -1631 0
1635 -20 0
1635 -1634 0
1636 -129 -1635 0
-1636 129 0
-1636 1635 0
-1637 131 1629 1636 0
1637 -131 0
1637 -1629 0
1637 -1636 0
1638 -133 -1637 0
-1638 133 0
-1638 1637 0
-1639 135 1628 1638 0
1639 -135 0
1639 -1628 0
1639 -1638 0
1640 -141 -1639 0
-1640 141 0
-1640 1639 0
-1641 143 1640 0
1641 -143 0
1641 -1640 0
1642 -145 -1641 0
-1642 145 0
-1642 1641 0
-1643 147 138 1642 0
1643 -147 0
1643 -138 0
1643 -1642 0
1644 -1645 -1643 0
-1644 1645 0
-1644 1643 0
-1646 31 8 903 0
1646 -31 0
1646 -8 0
1646 -903 0
1647 -33 -1646 0
-1647 33 0
-1647 1646 0
1648 -209 -380 0
-1648 209 0
-1648 380 0
-1649 47 1648 0
1649 -47 0
1649 -1648 0
1650 -466 -1649 0
-1650 466 0
-1650 1649 0
-1651 468 1130 1131 321 1650 0
1651 -468 0
1651 -1130 0
1651 -1131 0
1651 -321 0
1651 -1650 0
1652 -508 -1651 0
-1652 508 0
-1652 1651 0
-1653 41 1103 1647 1652 211 0
1653 -41 0
1653 -1103 0
1653 -1647 0
1653 -1652 0
1653 -211 0
1654 -43 -1653 0
-1654 43 0
-1654 1653 0
-1655 41 6 410 955 38 0
1655 -41 0
1655 -6 0
1655 -410 0
1655 -955 0
1655 -38 0
1656 -84 -1655 0
-1656 84 0
-1656 1655 0
-1657 151 1656 1081 1086 0
1657 -151 0
1657 -1656 0
1657 -1081 0
1657 -1086 0
1658 -209 -1657 0
-1658 209 0
-1658 1657 0
-1659 47 1658 0
1659 -47 0
1659 -1658 0
1660 -49 -1659 0
-1660 49 0
-1660 1659 0
-1661 51 1654 1660 0
1661 -51 0
1661 -1654 0
1661 -1660 0
1662 -53 -1661 0
-1662 53 0
-1662 1661 0
-1663 51 1140 48 0
1663 -51 0
1663 -1140 0
1663 -48 0
1664 -107 -1663 0
-1664 107 0
-1664 1663 0
-1665 151 1139 1664 1081 1086 0
1665 -151 0
1665 -1139 0
1665 -1664 0
1665 -1081 0
1665 -1086 0
1666 -165 -1665 0
-1666 165 0
-1666 1665 0
-1667 151 957 1664 1092 1097 0
1667 -151 0
1667 -957 0
1667 -1664 0
1667 -1092 0
1667 -1097 0
1668 -178 -1667 0
-1668 178 0
-1668 1667 0
-1669 3 1668 0
1669 -3 0
1669 -1668 0
1670 -2 -1669 0
-1670 2 0
-1670 1669 0
-1671 5 1666 1670 0
1671 -5 0
1671 -1666 0
1671 -1670 0
1672 -55 -1671 0
-1672 55 0
-1672 1671 0
1673 -43 -1655 0
-1673 43 0
-1673 1655 0
-1674 51 1673 0
1674 -51 0
1674 -1673 0
1675 -107 -1674 0
-1675 107 0
-1675 1674 0
-1676 151 1656 1675 1081 1086 0
1676 -151 0
1676 -1656 0
1676 -1675 0
1676 -1081 0
1676 -1086 0
1677 -209 -1676 0
-1677 209 0
-1677 1676 0
-1678 47 1677 0
1678 -47 0
1678 -1677 0
1679 -57 -1678 0
-1679 57 0
-1679 1678 0
-1680 59 1679 0
1680 -59 0
1680 -1679 0
1681 -61 -1680 0
-1681 61 0
-1681 1680 0
-1682 63 1662 1672 1681 0
1682 -63 0
1682 -1662 0
1682 -1672 0
1682 -1681 0
1683 -74 -1682 0
-1683 74 0
-1683 1682 0
-1684 51 982 268 0
1684 -51 0
1684 -982 0
1684 -268 0
1685 -53 -1684 0
-1685 53 0
-1685 1684 0
-1686 63 1685 271 274 0
1686 -63 0
1686 -1685 0
1686 -271 0
1686 -274 0
1687 -65 -1686 0
-1687 65 0
-1687 1686 0
1688 -70 -1686 0
-1688 70 0
-1688 1686 0
1689 -72 -600 0
-1689 72 0
-1689 600 0
-1690 31 1689 8 28 0
1690 -31 0
1690 -1689 0
1690 -8 0
1690 -28 0
1691 -33 -1690 0
-1691 33 0
-1691 1690 0
1692 -72 -275 0
-1692 72 0
-1692 275 0
-1693 31 1692 8 28 0
1693 -31 0
1693 -1692 0
1693 -8 0
1693 -28 0
1694 -320 -1693 0
-1694 320 0
-1694 1693 0
-1695 468 1694 321 509 0
1695 -468 0
1695 -1694 0
1695 -321 0
1695 -509 0
1696 -508 -1695 0
-1696 508 0
-1696 1695 0
-1697 41 1688 210 1691 1696 211 0
1697 -41 0
1697 -1688 0
1697 -210 0
1697 -1691 0
1697 -1696 0
1697 -211 0
1698 -84 -1697 0
-1698 84 0
-1698 1697 0
1699 -320 -440 0
-1699 320 0
-1699 440 0
-1700 468 1699 321 509 0
1700 -468 0
1700 -1699 0
1700 -321 0
1700 -509 0
1701 -508 -1700 0
-1701 508 0
-1701 1700 0
-1702 41 281 210 441 1701 211 0
1702 -41 0
1702 -281 0
1702 -210 0
1702 -441 0
1702 -1701 0
1702 -211 0
1703 -43 -1702 0
-1703 43 0
-1703 1702 0
-1704 51 1703 268 0
1704 -51 0
1704 -1703 0
1704 -268 0
1705 -107 -1704 0
-1705 107 0
-1705 1704 0
1706 -474 -1695 0
-1706 474 0
-1706 1695 0
1707 -119 -1690 0
-1707 119 0
-1707 1690 0
-1708 123 1706 1707 183 0
1708 -123 0
1708 -1706 0
1708 -1707 0
1708 -183 0
1709 -125 -1708 0
-1709 125 0
-1709 1708 0
-1710 135 1709 188 0
1710 -135 0
1710 -1709 0
1710 -188 0
1711 -137 -1710 0
-1711 137 0
-1711 1710 0
1712 -141 -1710 0
-1712 141 0
-1712 1710 0
-1713 143 1712 0
1713 -143 0
1713 -1712 0
1714 -145 -1713 0
-1714 145 0
-1714 1713 0
-1715 147 138 1714 0
1715 -147 0
1715 -138 0
1715 -1714 0
1716 -149 -1715 0
-1716 149 0
-1716 1715 0
-1717 151 1687 1698 1705 1711 1716 0
1717 -151 0
1717 -1687 0
1717 -1698 0
1717 -1705 0
1717 -1711 0
1717 -1716 0
1718 -178 -1717 0
-1718 178 0
-1718 1717 0
-1719 3 1718 0
1719 -3 0
1719 -1718 0
1720 -15 -1719 0
-1720 15 0
-1720 1719 0
-1721 17 1683 11 1720 0
1721 -17 0
1721 -1683 0
1721 -11 0
1721 -1720 0
1722 -1723 -1721 0
-1722 1723 0
-1722 1721 0
1724 -1725 -13 0
-1724 1725 0
-1724 13 0
1726 -1727 -995 0
-1726 1727 0
-1726 995 0
1728 -1729 -1439 0
-1728 1729 0
-1728 1439 0
-1730 1731 1726 1728 0
1730 -1731 0
1730 -1726 0
1730 -1728 0
1732 -1733 -1730 0
-1732 1733 0
-1732 1730 0
-1734 1735 469 669 808 859 1209 1440 1644 1722 1724 1732 0
1734 -1735 0
1734 -469 0
1734 -669 0
1734 -808 0
1734 -859 0
1734 -1209 0
1734 -1440 0
1734 -1644 0
1734 -1722 0
1734 -1724 0
1734 -1732 0
1736 -1737 -1734 0
-1736 1737 0
-1736 1734 0
1738 -470 -672 0
-1738 470 0
-1738 672 0
1739 -670 -30 0
-1739 670 0
-1739 30 0
1740 -809 -4 0
-1740 809 0
-1740 4 0
-1741 858 853 855 0
1741 -858 0
1741 -853 0
1741 -855 0
1742 -860 -1741 0
-1742 860 0
-1742 1741 0
1743 -1012 -672 0
-1743 1012 0
-1743 672 0
1744 -1206 -58 0
-1744 1206 0
-1744 58 0
-1745 1208 1743 1744 0
1745 -1208 0
1745 -1743 0
1745 -1744 0
1746 -1210 -1745 0
-1746 1210 0
-1746 1745 0
1747 -1441 -865 0
-1747 1441 0
-1747 865 0
1748 -1645 -870 0
-1748 1645 0
-1748 870 0
1749 -1723 -16 0
-1749 1723 0
-1749 16 0
1750 -1729 -865 0
-1750 1729 0
-1750 865 0
-1751 1731 1750 0
1751 -1731 0
1751 -1750 0
1752 -1733 -1751 0
-1752 1733 0
-1752 1751 0
-1753 1735 1738 1739 1740 1742 1746 1747 1748 1749 1724 1752 0
1753 -1735 0
1753 -1738 0
1753 -1739 0
1753 -1740 0
1753 -1742 0
1753 -1746 0
1753 -1747 0
1753 -1748 0
1753 -1749 0
1753 -1724 0
1753 -1752 0
1754 -1755 -1753 0
-1754 1755 0
-1754 1753 0
1756 -1757 -1753 0
-1756 1757 0
-1756 1753 0
1758 -470 -472 0
-1758 470 0
-1758 472 0
1759 -1012 -472 0
-1759 1012 0
-1759 472 0
-1760 1208 1759 1744 0
1760 -1208 0
1760 -1759 0
1760 -1744 0
1761 -1210 -1760 0
-1761 1210 0
-1761 1760 0
1762 -1441 -477 0
-1762 1441 0
-1762 477 0
1763 -1645 -482 0
-1763 1645 0
-1763 482 0
1764 -1729 -477 0
-1764 1729 0
-1764 477 0
-1765 1731 1764 0
1765 -1731 0
1765 -1764 0
1766 -1733 -1765 0
-1766 1733 0
-1766 1765 0
-1767 1735 1758 1740 1742 1761 1762 1763 1749 1724 1766 0
1767 -1735 0
1767 -1758 0
1767 -1740 0
1767 -1742 0
1767 -1761 0
1767 -1762 0
1767 -1763 0
1767 -1749 0
1767 -1724 0
1767 -1766 0
1768 -1769 -1767 0
-1768 1769 0
-1768 1767 0
-1770 10 1768 0
1770 -10 0
1770 -1768 0
1771 -9 -1770 0
-1771 9 0
-1771 1770 0
1772 -1441 -891 0
-1772 1441 0
-1772 891 0
1773 -1645 -896 0
-1773 1645 0
-1773 896 0
1774 -1729 -891 0
-1774 1729 0
-1774 891 0
-1775 1731 1774 0
1775 -1731 0
1775 -1774 0
1776 -1733 -1775 0
-1776 1733 0
-1776 1775 0
-1777 1735 1758 1740 1742 1761 1772 1773 1749 1724 1776 0
1777 -1735 0
1777 -1758 0
1777 -1740 0
1777 -1742 0
1777 -1761 0
1777 -1772 0
1777 -1773 0
1777 -1749 0
1777 -1724 0
1777 -1776 0
1778 -1779 -1777 0
-1778 1779 0
-1778 1777 0
-1780 22 1778 0
1780 -22 0
1780 -1778 0
1781 -21 -1780 0
-1781 21 0
-1781 1780 0
1782 -1783 -1777 0
-1782 1783 0
-1782 1777 0
-1784 25 1782 0
1784 -25 0
1784 -1782 0
1785 -24 -1784 0
-1785 24 0
-1785 1784 0
-1786 27 1781 1785 0
1786 -27 0
1786 -1781 0
1786 -1785 0
1787 -29 -1786 0
-1787 29 0
-1787 1786 0
-1788 31 1771 18 1787 0
1788 -31 0
1788 -1771 0
1788 -18 0
1788 -1787 0
1789 -33 -1788 0
-1789 33 0
-1789 1788 0
1790 -1441 -156 0
-1790 1441 0
-1790 156 0
1791 -1645 -161 0
-1791 1645 0
-1791 161 0
1792 -1729 -156 0
-1792 1729 0
-1792 156 0
-1793 1731 1792 0
1793 -1731 0
1793 -1792 0
1794 -1733 -1793 0
-1794 1733 0
-1794 1793 0
-1795 1735 1758 1740 1742 1761 1790 1791 1749 1724 1794 0
1795 -1735 0
1795 -1758 0
1795 -1740 0
1795 -1742 0
1795 -1761 0
1795 -1790 0
1795 -1791 0
1795 -1749 0
1795 -1724 0
1795 -1794 0
1796 -1769 -1795 0
-1796 1769 0
-1796 1795 0
-1797 10 1796 0
1797 -10 0
1797 -1796 0
1798 -9 -1797 0
-1798 9 0
-1798 1797 0
1799 -1441 -304 0
-1799 1441 0
-1799 304 0
1800 -1645 -309 0
-1800 1645 0
-1800 309 0
1801 -1729 -304 0
-1801 1729 0
-1801 304 0
-1802 1731 1801 0
1802 -1731 0
1802 -1801 0
1803 -1733 -1802 0
-1803 1733 0
-1803 1802 0
-1804 1735 1758 1740 1742 1761 1799 1800 1749 1724 1803 0
1804 -1735 0
1804 -1758 0
1804 -1740 0
1804 -1742 0
1804 -1761 0
1804 -1799 0
1804 -1800 0
1804 -1749 0
1804 -1724 0
1804 -1803 0
1805 -1779 -1804 0
-1805 1779 0
-1805 1804 0
-1806 22 1805 0
1806 -22 0
1806 -1805 0
1807 -21 -1806 0
-1807 21 0
-1807 1806 0
1808 -1783 -1804 0
-1808 1783 0
-1808 1804 0
-1809 25 1808 0
1809 -25 0
1809 -1808 0
1810 -24 -1809 0
-1810 24 0
-1810 1809 0
-1811 27 1807 1810 0
1811 -27 0
1811 -1807 0
1811 -1810 0
1812 -29 -1811 0
-1812 29 0
-1812 1811 0
-1813 31 1798 18 1812 0
1813 -31 0
1813 -1798 0
1813 -18 0
1813 -1812 0
1814 -320 -1813 0
-1814 320 0
-1814 1813 0
-1815 27 23 0
1815 -27 0
1815 -23 0
1816 -29 -1815 0
-1816 29 0
-1816 1815 0
-1817 31 8 18 1816 0
1817 -31 0
1817 -8 0
1817 -18 0
1817 -1816 0
1818 -670 -1817 0
-1818 670 0
-1818 1817 0
-1819 1208 1744 0
1819 -1208 0
1819 -1744 0
1820 -1210 -1819 0
-1820 1210 0
-1820 1819 0
1821 -119 -1817 0
-1821 119 0
-1821 1817 0
-1822 123 1821 120 0
1822 -123 0
1822 -1821 0
1822 -120 0
1823 -125 -1822 0
-1823 125 0
-1823 1822 0
1824 -129 -1815 0
-1824 129 0
-1824 1815 0
-1825 131 126 1824 0
1825 -131 0
1825 -126 0
1825 -1824 0
1826 -133 -1825 0
-1826 133 0
-1826 1825 0
-1827 135 1823 1826 0
1827 -135 0
1827 -1823 0
1827 -1826 0
1828 -1441 -1827 0
-1828 1441 0
-1828 1827 0
1829 -141 -1827 0
-1829 141 0
-1829 1827 0
-1830 143 1829 0
1830 -143 0
1830 -1829 0
1831 -145 -1830 0
-1831 145 0
-1831 1830 0
-1832 147 138 1831 0
1832 -147 0
1832 -138 0
1832 -1831 0
1833 -1645 -1832 0
-1833 1645 0
-1833 1832 0
1834 -1729 -1827 0
-1834 1729 0
-1834 1827 0
-1835 1731 1834 0
1835 -1731 0
1835 -1834 0
1836 -1733 -1835 0
-1836 1733 0
-1836 1835 0
-1837 1735 1818 1740 1742 1820 1828 1833 1749 1724 1836 0
1837 -1735 0
1837 -1818 0
1837 -1740 0
1837 -1742 0
1837 -1820 0
1837 -1828 0
1837 -1833 0
1837 -1749 0
1837 -1724 0
1837 -1836 0
1838 -1779 -1837 0
-1838 1779 0
-1838 1837 0
-1839 22 1838 0
1839 -22 0
1839 -1838 0
1840 -322 -1839 0
-1840 322 0
-1840 1839 0
-1841 468 1814 1840 471 0
1841 -468 0
1841 -1814 0
1841 -1840 0
1841 -471 0
1842 -508 -1841 0
-1842 508 0
-1842 1841 0
-1843 41 1756 6 1789 1842 38 0
1843 -41 0
1843 -1756 0
1843 -6 0
1843 -1789 0
1843 -1842 0
1843 -38 0
1844 -43 -1843 0
-1844 43 0
-1844 1843 0
1845 -1846 -1753 0
-1845 1846 0
-1845 1753 0
-1847 51 1844 1845 48 0
1847 -51 0
1847 -1844 0
1847 -1845 0
1847 -48 0
1848 -53 -1847 0
-1848 53 0
-1848 1847 0
-1849 63 1754 1848 54 60 0
1849 -63 0
1849 -1754 0
1849 -1848 0
1849 -54 0
1849 -60 0
1850 -65 -1849 0
-1850 65 0
-1850 1849 0
-1851 51 1845 48 0
1851 -51 0
1851 -1845 0
1851 -48 0
1852 -53 -1851 0
-1852 53 0
-1852 1851 0
-1853 63 1754 1852 54 60 0
1853 -63 0
1853 -1754 0
1853 -1852 0
1853 -54 0
1853 -60 0
1854 -70 -1853 0
-1854 70 0
-1854 1853 0
1855 -470 -681 0
-1855 470 0
-1855 681 0
1856 -670 -77 0
-1856 670 0
-1856 77 0
1857 -997 -68 0
-1857 997 0
-1857 68 0
1858 -1012 -681 0
-1858 1012 0
-1858 681 0
1859 -45 -1020 0
-1859 45 0
-1859 1020 0
-1860 47 1859 0
1860 -47 0
1860 -1859 0
1861 -57 -1860 0
-1861 57 0
-1861 1860 0
-1862 59 1861 0
1862 -59 0
1862 -1861 0
1863 -1206 -1862 0
-1863 1206 0
-1863 1862 0
-1864 1208 1857 1858 1863 0
1864 -1208 0
1864 -1857 0
1864 -1858 0
1864 -1863 0
1865 -1210 -1864 0
-1865 1210 0
-1865 1864 0
1866 -474 -681 0
-1866 474 0
-1866 681 0
1867 -119 -77 0
-1867 119 0
-1867 77 0
-1868 123 1866 1867 120 0
1868 -123 0
1868 -1866 0
1868 -1867 0
1868 -120 0
1869 -125 -1868 0
-1869 125 0
-1869 1868 0
-1870 135 1869 132 0
1870 -135 0
1870 -1869 0
1870 -132 0
1871 -1441 -1870 0
-1871 1441 0
-1871 1870 0
1872 -141 -1870 0
-1872 141 0
-1872 1870 0
-1873 143 1872 0
1873 -143 0
1873 -1872 0
1874 -145 -1873 0
-1874 145 0
-1874 1873 0
-1875 147 138 1874 0
1875 -147 0
1875 -138 0
1875 -1874 0
1876 -1645 -1875 0
-1876 1645 0
-1876 1875 0
1877 -1723 -75 0
-1877 1723 0
-1877 75 0
1878 -1727 -68 0
-1878 1727 0
-1878 68 0
1879 -1729 -1870 0
-1879 1729 0
-1879 1870 0
-1880 1731 1878 1879 0
1880 -1731 0
1880 -1878 0
1880 -1879 0
1881 -1733 -1880 0
-1881 1733 0
-1881 1880 0
-1882 1735 1855 1856 1740 1742 1865 1871 1876 1877 1724 1881 0
1882 -1735 0
1882 -1855 0
1882 -1856 0
1882 -1740 0
1882 -1742 0
1882 -1865 0
1882 -1871 0
1882 -1876 0
1882 -1877 0
1882 -1724 0
1882 -1881 0
1883 -1757 -1882 0
-1883 1757 0
-1883 1882 0
1884 -72 -1853 0
-1884 72 0
-1884 1853 0
1885 -470 -625 0
-1885 470 0
-1885 625 0
1886 -1012 -625 0
-1886 1012 0
-1886 625 0
-1887 1208 1857 1886 1863 0
1887 -1208 0
1887 -1857 0
1887 -1886 0
1887 -1863 0
1888 -1210 -1887 0
-1888 1210 0
-1888 1887 0
1889 -474 -625 0
-1889 474 0
-1889 625 0
-1890 123 1889 120 0
1890 -123 0
1890 -1889 0
1890 -120 0
1891 -125 -1890 0
-1891 125 0
-1891 1890 0
-1892 135 1891 132 0
1892 -135 0
1892 -1891 0
1892 -132 0
1893 -1441 -1892 0
-1893 1441 0
-1893 1892 0
1894 -141 -1892 0
-1894 141 0
-1894 1892 0
-1895 143 1894 0
1895 -143 0
1895 -1894 0
1896 -145 -1895 0
-1896 145 0
-1896 1895 0
-1897 147 138 1896 0
1897 -147 0
1897 -138 0
1897 -1896 0
1898 -1645 -1897 0
-1898 1645 0
-1898 1897 0
1899 -1729 -1892 0
-1899 1729 0
-1899 1892 0
-1900 1731 1878 1899 0
1900 -1731 0
1900 -1878 0
1900 -1899 0
1901 -1733 -1900 0
-1901 1733 0
-1901 1900 0
-1902 1735 1885 1740 1742 1888 1893 1898 1877 1724 1901 0
1902 -1735 0
1902 -1885 0
1902 -1740 0
1902 -1742 0
1902 -1888 0
1902 -1893 0
1902 -1898 0
1902 -1877 0
1902 -1724 0
1902 -1901 0
1903 -1769 -1902 0
-1903 1769 0
-1903 1902 0
-1904 10 1903 0
1904 -10 0
1904 -1903 0
1905 -9 -1904 0
-1905 9 0
-1905 1904 0
1906 -1755 -1767 0
-1906 1755 0
-1906 1767 0
1907 -1846 -1767 0
-1907 1846 0
-1907 1767 0
-1908 51 1907 48 0
1908 -51 0
1908 -1907 0
1908 -48 0
1909 -53 -1908 0
-1909 53 0
-1909 1908 0
-1910 63 1906 1909 54 60 0
1910 -63 0
1910 -1906 0
1910 -1909 0
1910 -54 0
1910 -60 0
1911 -74 -1910 0
-1911 74 0
-1911 1910 0
-1912 17 1911 11 14 0
1912 -17 0
1912 -1911 0
1912 -11 0
1912 -14 0
1913 -19 -1912 0
-1913 19 0
-1913 1912 0
-1914 135 1891 303 0
1914 -135 0
1914 -1891 0
1914 -303 0
1915 -1441 -1914 0
-1915 1441 0
-1915 1914 0
1916 -141 -1914 0
-1916 141 0
-1916 1914 0
-1917 143 1916 0
1917 -143 0
1917 -1916 0
1918 -145 -1917 0
-1918 145 0
-1918 1917 0
-1919 147 138 1918 0
1919 -147 0
1919 -138 0
1919 -1918 0
1920 -1645 -1919 0
-1920 1645 0
-1920 1919 0
1921 -1729 -1914 0
-1921 1729 0
-1921 1914 0
-1922 1731 1878 1921 0
1922 -1731 0
1922 -1878 0
1922 -1921 0
1923 -1733 -1922 0
-1923 1733 0
-1923 1922 0
-1924 1735 1885 1740 1742 1888 1915 1920 1877 1724 1923 0
1924 -1735 0
1924 -1885 0
1924 -1740 0
1924 -1742 0
1924 -1888 0
1924 -1915 0
1924 -1920 0
1924 -1877 0
1924 -1724 0
1924 -1923 0
1925 -1779 -1924 0
-1925 1779 0
-1925 1924 0
-1926 22 1925 0
1926 -22 0
1926 -1925 0
1927 -21 -1926 0
-1927 21 0
-1927 1926 0
1928 -1783 -1924 0
-1928 1783 0
-1928 1924 0
-1929 25 1928 0
1929 -25 0
1929 -1928 0
1930 -24 -1929 0
-1930 24 0
-1930 1929 0
-1931 27 1927 1930 0
1931 -27 0
1931 -1927 0
1931 -1930 0
1932 -29 -1931 0
-1932 29 0
-1932 1931 0
-1933 31 1884 1905 1913 1932 0
1933 -31 0
1933 -1884 0
1933 -1905 0
1933 -1913 0
1933 -1932 0
1934 -33 -1933 0
-1934 33 0
-1934 1933 0
1935 -1755 -1795 0
-1935 1755 0
-1935 1795 0
1936 -1846 -1795 0
-1936 1846 0
-1936 1795 0
-1937 51 1936 48 0
1937 -51 0
1937 -1936 0
1937 -48 0
1938 -53 -1937 0
-1938 53 0
-1938 1937 0
-1939 63 1935 1938 54 60 0
1939 -63 0
1939 -1935 0
1939 -1938 0
1939 -54 0
1939 -60 0
1940 -72 -1939 0
-1940 72 0
-1940 1939 0
-1941 1208 1857 1863 0
1941 -1208 0
1941 -1857 0
1941 -1863 0
1942 -1210 -1941 0
-1942 1210 0
-1942 1941 0
-1943 1731 1878 1792 0
1943 -1731 0
1943 -1878 0
1943 -1792 0
1944 -1733 -1943 0
-1944 1733 0
-1944 1943 0
-1945 1735 1740 1742 1942 1790 1791 1877 1724 1944 0
1945 -1735 0
1945 -1740 0
1945 -1742 0
1945 -1942 0
1945 -1790 0
1945 -1791 0
1945 -1877 0
1945 -1724 0
1945 -1944 0
1946 -1769 -1945 0
-1946 1769 0
-1946 1945 0
-1947 10 1946 0
1947 -10 0
1947 -1946 0
1948 -9 -1947 0
-1948 9 0
-1948 1947 0
1949 -74 -1939 0
-1949 74 0
-1949 1939 0
-1950 17 1949 11 14 0
1950 -17 0
1950 -1949 0
1950 -11 0
1950 -14 0
1951 -19 -1950 0
-1951 19 0
-1951 1950 0
-1952 1731 1878 1801 0
1952 -1731 0
1952 -1878 0
1952 -1801 0
1953 -1733 -1952 0
-1953 1733 0
-1953 1952 0
-1954 1735 1740 1742 1942 1799 1800 1877 1724 1953 0
1954 -1735 0
1954 -1740 0
1954 -1742 0
1954 -1942 0
1954 -1799 0
1954 -1800 0
1954 -1877 0
1954 -1724 0
1954 -1953 0
1955 -1779 -1954 0
-1955 1779 0
-1955 1954 0
-1956 22 1955 0
1956 -22 0
1956 -1955 0
1957 -21 -1956 0
-1957 21 0
-1957 1956 0
1958 -1783 -1954 0
-1958 1783 0
-1958 1954 0
-1959 25 1958 0
1959 -25 0
1959 -1958 0
1960 -24 -1959 0
-1960 24 0
-1960 1959 0
-1961 27 1957 1960 0
1961 -27 0
1961 -1957 0
1961 -1960 0
1962 -29 -1961 0
-1962 29 0
-1962 1961 0
-1963 31 1940 1948 1951 1962 0
1963 -31 0
1963 -1940 0
1963 -1948 0
1963 -1951 0
1963 -1962 0
1964 -320 -1963 0
-1964 320 0
-1964 1963 0
-1965 31 71 8 76 1816 0
1965 -31 0
1965 -71 0
1965 -8 0
1965 -76 0
1965 -1816 0
1966 -670 -1965 0
-1966 670 0
-1966 1965 0
1967 -119 -1965 0
-1967 119 0
-1967 1965 0
-1968 123 1967 120 0
1968 -123 0
1968 -1967 0
1968 -120 0
1969 -125 -1968 0
-1969 125 0
-1969 1968 0
-1970 135 1969 1826 0
1970 -135 0
1970 -1969 0
1970 -1826 0
1971 -1441 -1970 0
-1971 1441 0
-1971 1970 0
1972 -141 -1970 0
-1972 141 0
-1972 1970 0
-1973 143 1972 0
1973 -143 0
1973 -1972 0
1974 -145 -1973 0
-1974 145 0
-1974 1973 0
-1975 147 138 1974 0
1975 -147 0
1975 -138 0
1975 -1974 0
1976 -1645 -1975 0
-1976 1645 0
-1976 1975 0
1977 -1729 -1970 0
-1977 1729 0
-1977 1970 0
-1978 1731 1878 1977 0
1978 -1731 0
1978 -1878 0
1978 -1977 0
1979 -1733 -1978 0
-1979 1733 0
-1979 1978 0
-1980 1735 1966 1740 1742 1942 1971 1976 1877 1724 1979 0
1980 -1735 0
1980 -1966 0
1980 -1740 0
1980 -1742 0
1980 -1942 0
1980 -1971 0
1980 -1976 0
1980 -1877 0
1980 -1724 0
1980 -1979 0
1981 -1779 -1980 0
-1981 1779 0
-1981 1980 0
-1982 22 1981 0
1982 -22 0
1982 -1981 0
1983 -322 -1982 0
-1983 322 0
-1983 1982 0
1984 -670 -369 0
-1984 670 0
-1984 369 0
1985 -1206 -59 0
-1985 1206 0
-1985 59 0
-1986 1208 1985 0
1986 -1208 0
1986 -1985 0
1987 -1210 -1986 0
-1987 1210 0
-1987 1986 0
1988 -1441 -373 0
-1988 1441 0
-1988 373 0
1989 -1645 -378 0
-1989 1645 0
-1989 378 0
1990 -1729 -373 0
-1990 1729 0
-1990 373 0
-1991 1731 1990 0
1991 -1731 0
1991 -1990 0
1992 -1733 -1991 0
-1992 1733 0
-1992 1991 0
-1993 1735 1984 1740 1742 1987 1988 1989 1749 1724 1992 0
1993 -1735 0
1993 -1984 0
1993 -1740 0
1993 -1742 0
1993 -1987 0
1993 -1988 0
1993 -1989 0
1993 -1749 0
1993 -1724 0
1993 -1992 0
1994 -1755 -1993 0
-1994 1755 0
-1994 1993 0
1995 -1846 -1993 0
-1995 1846 0
-1995 1993 0
-1996 51 1995 0
1996 -51 0
1996 -1995 0
1997 -53 -1996 0
-1997 53 0
-1997 1996 0
-1998 63 1994 1997 54 98 0
1998 -63 0
1998 -1994 0
1998 -1997 0
1998 -54 0
1998 -98 0
1999 -74 -1998 0
-1999 74 0
-1999 1998 0
-2000 17 1999 11 14 0
2000 -17 0
2000 -1999 0
2000 -11 0
2000 -14 0
2001 -45 -2000 0
-2001 45 0
-2001 2000 0
-2002 47 2001 0
2002 -47 0
2002 -2001 0
2003 -466 -2002 0
-2003 466 0
-2003 2002 0
-2004 468 1964 1983 2003 0
2004 -468 0
2004 -1964 0
2004 -1983 0
2004 -2003 0
2005 -508 -2004 0
-2005 508 0
-2005 2004 0
2006 -470 -931 0
-2006 470 0
-2006 931 0
2007 -1012 -931 0
-2007 1012 0
-2007 931 0
-2008 1208 2007 1744 0
2008 -1208 0
2008 -2007 0
2008 -1744 0
2009 -1210 -2008 0
-2009 1210 0
-2009 2008 0
2010 -1441 -1080 0
-2010 1441 0
-2010 1080 0
2011 -1645 -1085 0
-2011 1645 0
-2011 1085 0
2012 -1729 -1080 0
-2012 1729 0
-2012 1080 0
-2013 1731 2012 0
2013 -1731 0
2013 -2012 0
2014 -1733 -2013 0
-2014 1733 0
-2014 2013 0
-2015 1735 2006 1984 1740 1742 2009 2010 2011 1749 1724 2014 0
2015 -1735 0
2015 -2006 0
2015 -1984 0
2015 -1740 0
2015 -1742 0
2015 -2009 0
2015 -2010 0
2015 -2011 0
2015 -1749 0
2015 -1724 0
2015 -2014 0
2016 -1755 -2015 0
-2016 1755 0
-2016 2015 0
2017 -1846 -2015 0
-2017 1846 0
-2017 2015 0
-2018 51 2017 48 0
2018 -51 0
2018 -2017 0
2018 -48 0
2019 -53 -2018 0
-2019 53 0
-2019 2018 0
-2020 63 2016 2019 54 60 0
2020 -63 0
2020 -2016 0
2020 -2019 0
2020 -54 0
2020 -60 0
2021 -74 -2020 0
-2021 74 0
-2021 2020 0
-2022 17 2021 11 14 0
2022 -17 0
2022 -2021 0
2022 -11 0
2022 -14 0
2023 -35 -2022 0
-2023 35 0
-2023 2022 0
-2024 37 2023 0
2024 -37 0
2024 -2023 0
2025 -39 -2024 0
-2025 39 0
-2025 2024 0
-2026 41 1854 1883 6 1934 2005 2025 0
2026 -41 0
2026 -1854 0
2026 -1883 0
2026 -6 0
2026 -1934 0
2026 -2005 0
2026 -2025 0
2027 -84 -2026 0
-2027 84 0
-2027 2026 0
2028 -470 -833 0
-2028 470 0
-2028 833 0
2029 -670 -839 0
-2029 670 0
-2029 839 0
2030 -997 -814 0
-2030 997 0
-2030 814 0
2031 -1012 -833 0
-2031 1012 0
-2031 833 0
2032 -53 -1674 0
-2032 53 0
-2032 1674 0
-2033 63 2032 54 0
2033 -63 0
2033 -2032 0
2033 -54 0
2034 -74 -2033 0
-2034 74 0
-2034 2033 0
-2035 17 2034 11 14 0
2035 -17 0
2035 -2034 0
2035 -11 0
2035 -14 0
2036 -45 -2035 0
-2036 45 0
-2036 2035 0
-2037 47 2036 0
2037 -47 0
2037 -2036 0
2038 -57 -2037 0
-2038 57 0
-2038 2037 0
-2039 59 2038 0
2039 -59 0
2039 -2038 0
2040 -1206 -2039 0
-2040 1206 0
-2040 2039 0
-2041 1208 2030 2031 2040 0
2041 -1208 0
2041 -2030 0
2041 -2031 0
2041 -2040 0
2042 -1210 -2041 0
-2042 1210 0
-2042 2041 0
2043 -1441 -843 0
-2043 1441 0
-2043 843 0
2044 -1645 -848 0
-2044 1645 0
-2044 848 0
-2045 51 1673 48 0
2045 -51 0
2045 -1673 0
2045 -48 0
2046 -53 -2045 0
-2046 53 0
-2046 2045 0
-2047 63 2046 54 60 0
2047 -63 0
2047 -2046 0
2047 -54 0
2047 -60 0
2048 -74 -2047 0
-2048 74 0
-2048 2047 0
-2049 17 2048 11 14 0
2049 -17 0
2049 -2048 0
2049 -11 0
2049 -14 0
2050 -1723 -2049 0
-2050 1723 0
-2050 2049 0
2051 -1727 -814 0
-2051 1727 0
-2051 814 0
2052 -1729 -843 0
-2052 1729 0
-2052 843 0
-2053 1731 2051 2052 0
2053 -1731 0
2053 -2051 0
2053 -2052 0
2054 -1733 -2053 0
-2054 1733 0
-2054 2053 0
-2055 1735 2028 2029 1740 1742 2042 2043 2044 2050 1724 2054 0
2055 -1735 0
2055 -2028 0
2055 -2029 0
2055 -1740 0
2055 -1742 0
2055 -2042 0
2055 -2043 0
2055 -2044 0
2055 -2050 0
2055 -1724 0
2055 -2054 0
2056 -2057 -2055 0
-2056 2057 0
-2056 2055 0
-2058 63 1754 54 60 0
2058 -63 0
2058 -1754 0
2058 -54 0
2058 -60 0
2059 -70 -2058 0
-2059 70 0
-2059 2058 0
2060 -470 -686 0
-2060 470 0
-2060 686 0
2061 -670 -91 0
-2061 670 0
-2061 91 0
2062 -997 -85 0
-2062 997 0
-2062 85 0
2063 -1012 -686 0
-2063 1012 0
-2063 686 0
2064 -45 -1036 0
-2064 45 0
-2064 1036 0
-2065 47 2064 0
2065 -47 0
2065 -2064 0
2066 -57 -2065 0
-2066 57 0
-2066 2065 0
-2067 59 2066 0
2067 -59 0
2067 -2066 0
2068 -1206 -2067 0
-2068 1206 0
-2068 2067 0
-2069 1208 2062 2063 2068 0
2069 -1208 0
2069 -2062 0
2069 -2063 0
2069 -2068 0
2070 -1210 -2069 0
-2070 1210 0
-2070 2069 0
2071 -474 -686 0
-2071 474 0
-2071 686 0
2072 -119 -91 0
-2072 119 0
-2072 91 0
-2073 123 2071 2072 120 0
2073 -123 0
2073 -2071 0
2073 -2072 0
2073 -120 0
2074 -125 -2073 0
-2074 125 0
-2074 2073 0
-2075 135 2074 132 0
2075 -135 0
2075 -2074 0
2075 -132 0
2076 -1441 -2075 0
-2076 1441 0
-2076 2075 0
2077 -141 -2075 0
-2077 141 0
-2077 2075 0
-2078 143 2077 0
2078 -143 0
2078 -2077 0
2079 -145 -2078 0
-2079 145 0
-2079 2078 0
-2080 147 138 2079 0
2080 -147 0
2080 -138 0
2080 -2079 0
2081 -1645 -2080 0
-2081 1645 0
-2081 2080 0
2082 -1723 -89 0
-2082 1723 0
-2082 89 0
2083 -1727 -85 0
-2083 1727 0
-2083 85 0
2084 -1729 -2075 0
-2084 1729 0
-2084 2075 0
-2085 1731 2083 2084 0
2085 -1731 0
2085 -2083 0
2085 -2084 0
2086 -1733 -2085 0
-2086 1733 0
-2086 2085 0
-2087 1735 2060 2061 1740 1742 2070 2076 2081 2082 1724 2086 0
2087 -1735 0
2087 -2060 0
2087 -2061 0
2087 -1740 0
2087 -1742 0
2087 -2070 0
2087 -2076 0
2087 -2081 0
2087 -2082 0
2087 -1724 0
2087 -2086 0
2088 -1757 -2087 0
-2088 1757 0
-2088 2087 0
2089 -72 -2058 0
-2089 72 0
-2089 2058 0
2090 -470 -630 0
-2090 470 0
-2090 630 0
2091 -1012 -630 0
-2091 1012 0
-2091 630 0
-2092 1208 2062 2091 2068 0
2092 -1208 0
2092 -2062 0
2092 -2091 0
2092 -2068 0
2093 -1210 -2092 0
-2093 1210 0
-2093 2092 0
2094 -474 -630 0
-2094 474 0
-2094 630 0
-2095 123 2094 120 0
2095 -123 0
2095 -2094 0
2095 -120 0
2096 -125 -2095 0
-2096 125 0
-2096 2095 0
-2097 135 2096 132 0
2097 -135 0
2097 -2096 0
2097 -132 0
2098 -1441 -2097 0
-2098 1441 0
-2098 2097 0
2099 -141 -2097 0
-2099 141 0
-2099 2097 0
-2100 143 2099 0
2100 -143 0
2100 -2099 0
2101 -145 -2100 0
-2101 145 0
-2101 2100 0
-2102 147 138 2101 0
2102 -147 0
2102 -138 0
2102 -2101 0
2103 -1645 -2102 0
-2103 1645 0
-2103 2102 0
2104 -1729 -2097 0
-2104 1729 0
-2104 2097 0
-2105 1731 2083 2104 0
2105 -1731 0
2105 -2083 0
2105 -2104 0
2106 -1733 -2105 0
-2106 1733 0
-2106 2105 0
-2107 1735 2090 1740 1742 2093 2098 2103 2082 1724 2106 0
2107 -1735 0
2107 -2090 0
2107 -1740 0
2107 -1742 0
2107 -2093 0
2107 -2098 0
2107 -2103 0
2107 -2082 0
2107 -1724 0
2107 -2106 0
2108 -1769 -2107 0
-2108 1769 0
-2108 2107 0
-2109 10 2108 0
2109 -10 0
2109 -2108 0
2110 -9 -2109 0
-2110 9 0
-2110 2109 0
-2111 63 1906 54 60 0
2111 -63 0
2111 -1906 0
2111 -54 0
2111 -60 0
2112 -74 -2111 0
-2112 74 0
-2112 2111 0
-2113 17 2112 11 14 0
2113 -17 0
2113 -2112 0
2113 -11 0
2113 -14 0
2114 -19 -2113 0
-2114 19 0
-2114 2113 0
-2115 135 2096 303 0
2115 -135 0
2115 -2096 0
2115 -303 0
2116 -1441 -2115 0
-2116 1441 0
-2116 2115 0
2117 -141 -2115 0
-2117 141 0
-2117 2115 0
-2118 143 2117 0
2118 -143 0
2118 -2117 0
2119 -145 -2118 0
-2119 145 0
-2119 2118 0
-2120 147 138 2119 0
2120 -147 0
2120 -138 0
2120 -2119 0
2121 -1645 -2120 0
-2121 1645 0
-2121 2120 0
2122 -1729 -2115 0
-2122 1729 0
-2122 2115 0
-2123 1731 2083 2122 0
2123 -1731 0
2123 -2083 0
2123 -2122 0
2124 -1733 -2123 0
-2124 1733 0
-2124 2123 0
-2125 1735 2090 1740 1742 2093 2116 2121 2082 1724 2124 0
2125 -1735 0
2125 -2090 0
2125 -1740 0
2125 -1742 0
2125 -2093 0
2125 -2116 0
2125 -2121 0
2125 -2082 0
2125 -1724 0
2125 -2124 0
2126 -1779 -2125 0
-2126 1779 0
-2126 2125 0
-2127 22 2126 0
2127 -22 0
2127 -2126 0
2128 -21 -2127 0
-2128 21 0
-2128 2127 0
2129 -1783 -2125 0
-2129 1783 0
-2129 2125 0
-2130 25 2129 0
2130 -25 0
2130 -2129 0
2131 -24 -2130 0
-2131 24 0
-2131 2130 0
-2132 27 2128 2131 0
2132 -27 0
2132 -2128 0
2132 -2131 0
2133 -29 -2132 0
-2133 29 0
-2133 2132 0
-2134 31 2089 2110 2114 2133 0
2134 -31 0
2134 -2089 0
2134 -2110 0
2134 -2114 0
2134 -2133 0
2135 -33 -2134 0
-2135 33 0
-2135 2134 0
-2136 63 1935 54 60 0
2136 -63 0
2136 -1935 0
2136 -54 0
2136 -60 0
2137 -72 -2136 0
-2137 72 0
-2137 2136 0
-2138 1208 2062 2068 0
2138 -1208 0
2138 -2062 0
2138 -2068 0
2139 -1210 -2138 0
-2139 1210 0
-2139 2138 0
-2140 1731 2083 1792 0
2140 -1731 0
2140 -2083 0
2140 -1792 0
2141 -1733 -2140 0
-2141 1733 0
-2141 2140 0
-2142 1735 1740 1742 2139 1790 1791 2082 1724 2141 0
2142 -1735 0
2142 -1740 0
2142 -1742 0
2142 -2139 0
2142 -1790 0
2142 -1791 0
2142 -2082 0
2142 -1724 0
2142 -2141 0
2143 -1769 -2142 0
-2143 1769 0
-2143 2142 0
-2144 10 2143 0
2144 -10 0
2144 -2143 0
2145 -9 -2144 0
-2145 9 0
-2145 2144 0
2146 -74 -2136 0
-2146 74 0
-2146 2136 0
-2147 17 2146 11 14 0
2147 -17 0
2147 -2146 0
2147 -11 0
2147 -14 0
2148 -19 -2147 0
-2148 19 0
-2148 2147 0
-2149 1731 2083 1801 0
2149 -1731 0
2149 -2083 0
2149 -1801 0
2150 -1733 -2149 0
-2150 1733 0
-2150 2149 0
-2151 1735 1740 1742 2139 1799 1800 2082 1724 2150 0
2151 -1735 0
2151 -1740 0
2151 -1742 0
2151 -2139 0
2151 -1799 0
2151 -1800 0
2151 -2082 0
2151 -1724 0
2151 -2150 0
2152 -1779 -2151 0
-2152 1779 0
-2152 2151 0
-2153 22 2152 0
2153 -22 0
2153 -2152 0
2154 -21 -2153 0
-2154 21 0
-2154 2153 0
2155 -1783 -2151 0
-2155 1783 0
-2155 2151 0
-2156 25 2155 0
2156 -25 0
2156 -2155 0
2157 -24 -2156 0
-2157 24 0
-2157 2156 0
-2158 27 2154 2157 0
2158 -27 0
2158 -2154 0
2158 -2157 0
2159 -29 -2158 0
-2159 29 0
-2159 2158 0
-2160 31 2137 2145 2148 2159 0
2160 -31 0
2160 -2137 0
2160 -2145 0
2160 -2148 0
2160 -2159 0
2161 -320 -2160 0
-2161 320 0
-2161 2160 0
-2162 31 87 8 90 1816 0
2162 -31 0
2162 -87 0
2162 -8 0
2162 -90 0
2162 -1816 0
2163 -670 -2162 0
-2163 670 0
-2163 2162 0
2164 -119 -2162 0
-2164 119 0
-2164 2162 0
-2165 123 2164 120 0
2165 -123 0
2165 -2164 0
2165 -120 0
2166 -125 -2165 0
-2166 125 0
-2166 2165 0
-2167 135 2166 1826 0
2167 -135 0
2167 -2166 0
2167 -1826 0
2168 -1441 -2167 0
-2168 1441 0
-2168 2167 0
2169 -141 -2167 0
-2169 141 0
-2169 2167 0
-2170 143 2169 0
2170 -143 0
2170 -2169 0
2171 -145 -2170 0
-2171 145 0
-2171 2170 0
-2172 147 138 2171 0
2172 -147 0
2172 -138 0
2172 -2171 0
2173 -1645 -2172 0
-2173 1645 0
-2173 2172 0
2174 -1729 -2167 0
-2174 1729 0
-2174 2167 0
-2175 1731 2083 2174 0
2175 -1731 0
2175 -2083 0
2175 -2174 0
2176 -1733 -2175 0
-2176 1733 0
-2176 2175 0
-2177 1735 2163 1740 1742 2139 2168 2173 2082 1724 2176 0
2177 -1735 0
2177 -2163 0
2177 -1740 0
2177 -1742 0
2177 -2139 0
2177 -2168 0
2177 -2173 0
2177 -2082 0
2177 -1724 0
2177 -2176 0
2178 -1779 -2177 0
-2178 1779 0
-2178 2177 0
-2179 22 2178 0
2179 -22 0
2179 -2178 0
2180 -322 -2179 0
-2180 322 0
-2180 2179 0
-2181 63 1994 54 98 0
2181 -63 0
2181 -1994 0
2181 -54 0
2181 -98 0
2182 -74 -2181 0
-2182 74 0
-2182 2181 0
-2183 17 2182 11 14 0
2183 -17 0
2183 -2182 0
2183 -11 0
2183 -14 0
2184 -45 -2183 0
-2184 45 0
-2184 2183 0
-2185 47 2184 0
2185 -47 0
2185 -2184 0
2186 -466 -2185 0
-2186 466 0
-2186 2185 0
-2187 468 2161 2180 2186 0
2187 -468 0
2187 -2161 0
2187 -2180 0
2187 -2186 0
2188 -508 -2187 0
-2188 508 0
-2188 2187 0
-2189 63 2016 54 60 0
2189 -63 0
2189 -2016 0
2189 -54 0
2189 -60 0
2190 -74 -2189 0
-2190 74 0
-2190 2189 0
-2191 17 2190 11 14 0
2191 -17 0
2191 -2190 0
2191 -11 0
2191 -14 0
2192 -35 -2191 0
-2192 35 0
-2192 2191 0
-2193 37 2192 0
2193 -37 0
2193 -2192 0
2194 -39 -2193 0
-2194 39 0
-2194 2193 0
-2195 41 2059 2088 6 2135 2188 2194 0
2195 -41 0
2195 -2059 0
2195 -2088 0
2195 -6 0
2195 -2135 0
2195 -2188 0
2195 -2194 0
2196 -43 -2195 0
-2196 43 0
-2196 2195 0
2197 -1846 -2087 0
-2197 1846 0
-2197 2087 0
-2198 1208 2007 1985 0
2198 -1208 0
2198 -2007 0
2198 -1985 0
2199 -1210 -2198 0
-2199 1210 0
-2199 2198 0
-2200 1735 2006 1984 1740 1742 2199 2010 2011 1749 1724 2014 0
2200 -1735 0
2200 -2006 0
2200 -1984 0
2200 -1740 0
2200 -1742 0
2200 -2199 0
2200 -2010 0
2200 -2011 0
2200 -1749 0
2200 -1724 0
2200 -2014 0
2201 -1755 -2200 0
-2201 1755 0
-2201 2200 0
-2202 63 2201 54 98 0
2202 -63 0
2202 -2201 0
2202 -54 0
2202 -98 0
2203 -74 -2202 0
-2203 74 0
-2203 2202 0
-2204 17 2203 11 14 0
2204 -17 0
2204 -2203 0
2204 -11 0
2204 -14 0
2205 -45 -2204 0
-2205 45 0
-2205 2204 0
-2206 47 2205 0
2206 -47 0
2206 -2205 0
2207 -49 -2206 0
-2207 49 0
-2207 2206 0
-2208 51 2196 2197 2207 0
2208 -51 0
2208 -2196 0
2208 -2197 0
2208 -2207 0
2209 -107 -2208 0
-2209 107 0
-2209 2208 0
2210 -1645 -1212 0
-2210 1645 0
-2210 1212 0
2211 -1733 -1731 0
-2211 1733 0
-2211 1731 0
-2212 1735 1758 1739 1740 1742 1761 2210 1749 1724 2211 0
2212 -1735 0
2212 -1758 0
2212 -1739 0
2212 -1740 0
2212 -1742 0
2212 -1761 0
2212 -2210 0
2212 -1749 0
2212 -1724 0
2212 -2211 0
2213 -1755 -2212 0
-2213 1755 0
-2213 2212 0
2214 -1757 -2212 0
-2214 1757 0
-2214 2212 0
-2215 41 2214 6 38 0
2215 -41 0
2215 -2214 0
2215 -6 0
2215 -38 0
2216 -43 -2215 0
-2216 43 0
-2216 2215 0
2217 -1846 -2212 0
-2217 1846 0
-2217 2212 0
-2218 51 2216 2217 48 0
2218 -51 0
2218 -2216 0
2218 -2217 0
2218 -48 0
2219 -53 -2218 0
-2219 53 0
-2219 2218 0
-2220 63 2213 2219 54 60 0
2220 -63 0
2220 -2213 0
2220 -2219 0
2220 -54 0
2220 -60 0
2221 -72 -2220 0
-2221 72 0
-2221 2220 0
2222 -997 -112 0
-2222 997 0
-2222 112 0
2223 -45 -1053 0
-2223 45 0
-2223 1053 0
-2224 47 2223 0
2224 -47 0
2224 -2223 0
2225 -57 -2224 0
-2225 57 0
-2225 2224 0
-2226 59 2225 0
2226 -59 0
2226 -2225 0
2227 -1206 -2226 0
-2227 1206 0
-2227 2226 0
-2228 1208 2222 2227 0
2228 -1208 0
2228 -2222 0
2228 -2227 0
2229 -1210 -2228 0
-2229 1210 0
-2229 2228 0
2230 -1723 -115 0
-2230 1723 0
-2230 115 0
2231 -1727 -112 0
-2231 1727 0
-2231 112 0
-2232 1731 2231 0
2232 -1731 0
2232 -2231 0
2233 -1733 -2232 0
-2233 1733 0
-2233 2232 0
-2234 1735 1740 1742 2229 2210 2230 1724 2233 0
2234 -1735 0
2234 -1740 0
2234 -1742 0
2234 -2229 0
2234 -2210 0
2234 -2230 0
2234 -1724 0
2234 -2233 0
2235 -1769 -2234 0
-2235 1769 0
-2235 2234 0
-2236 10 2235 0
2236 -10 0
2236 -2235 0
2237 -9 -2236 0
-2237 9 0
-2237 2236 0
-2238 1735 1758 1740 1742 1761 2210 1749 1724 2211 0
2238 -1735 0
2238 -1758 0
2238 -1740 0
2238 -1742 0
2238 -1761 0
2238 -2210 0
2238 -1749 0
2238 -1724 0
2238 -2211 0
2239 -1755 -2238 0
-2239 1755 0
-2239 2238 0
2240 -1757 -2238 0
-2240 1757 0
-2240 2238 0
-2241 41 2240 6 38 0
2241 -41 0
2241 -2240 0
2241 -6 0
2241 -38 0
2242 -43 -2241 0
-2242 43 0
-2242 2241 0
2243 -1846 -2238 0
-2243 1846 0
-2243 2238 0
-2244 51 2242 2243 48 0
2244 -51 0
2244 -2242 0
2244 -2243 0
2244 -48 0
2245 -53 -2244 0
-2245 53 0
-2245 2244 0
-2246 63 2239 2245 54 60 0
2246 -63 0
2246 -2239 0
2246 -2245 0
2246 -54 0
2246 -60 0
2247 -74 -2246 0
-2247 74 0
-2247 2246 0
-2248 17 2247 11 14 0
2248 -17 0
2248 -2247 0
2248 -11 0
2248 -14 0
2249 -19 -2248 0
-2249 19 0
-2249 2248 0
2250 -1779 -2234 0
-2250 1779 0
-2250 2234 0
-2251 22 2250 0
2251 -22 0
2251 -2250 0
2252 -21 -2251 0
-2252 21 0
-2252 2251 0
2253 -1783 -2234 0
-2253 1783 0
-2253 2234 0
-2254 25 2253 0
2254 -25 0
2254 -2253 0
2255 -24 -2254 0
-2255 24 0
-2255 2254 0
-2256 27 2252 2255 0
2256 -27 0
2256 -2252 0
2256 -2255 0
2257 -29 -2256 0
-2257 29 0
-2257 2256 0
-2258 31 2221 2237 2249 2257 0
2258 -31 0
2258 -2221 0
2258 -2237 0
2258 -2249 0
2258 -2257 0
2259 -320 -2258 0
-2259 320 0
-2259 2258 0
-2260 31 113 8 116 1816 0
2260 -31 0
2260 -113 0
2260 -8 0
2260 -116 0
2260 -1816 0
2261 -670 -2260 0
-2261 670 0
-2261 2260 0
2262 -33 -1817 0
-2262 33 0
-2262 1817 0
-2263 41 6 2262 38 0
2263 -41 0
2263 -6 0
2263 -2262 0
2263 -38 0
2264 -43 -2263 0
-2264 43 0
-2264 2263 0
-2265 51 2264 48 0
2265 -51 0
2265 -2264 0
2265 -48 0
2266 -53 -2265 0
-2266 53 0
-2266 2265 0
-2267 63 2266 54 60 0
2267 -63 0
2267 -2266 0
2267 -54 0
2267 -60 0
2268 -997 -2267 0
-2268 997 0
-2268 2267 0
-2269 31 8 1816 0
2269 -31 0
2269 -8 0
2269 -1816 0
2270 -33 -2269 0
-2270 33 0
-2270 2269 0
-2271 41 6 2270 38 0
2271 -41 0
2271 -6 0
2271 -2270 0
2271 -38 0
2272 -43 -2271 0
-2272 43 0
-2272 2271 0
-2273 51 2272 0
2273 -51 0
2273 -2272 0
2274 -53 -2273 0
-2274 53 0
-2274 2273 0
-2275 63 2274 54 0
2275 -63 0
2275 -2274 0
2275 -54 0
2276 -74 -2275 0
-2276 74 0
-2276 2275 0
-2277 17 2276 11 14 0
2277 -17 0
2277 -2276 0
2277 -11 0
2277 -14 0
2278 -45 -2277 0
-2278 45 0
-2278 2277 0
-2279 47 2278 0
2279 -47 0
2279 -2278 0
2280 -57 -2279 0
-2280 57 0
-2280 2279 0
-2281 59 2280 0
2281 -59 0
2281 -2280 0
2282 -1206 -2281 0
-2282 1206 0
-2282 2281 0
-2283 1208 2268 2282 0
2283 -1208 0
2283 -2268 0
2283 -2282 0
2284 -1210 -2283 0
-2284 1210 0
-2284 2283 0
-2285 51 2272 48 0
2285 -51 0
2285 -2272 0
2285 -48 0
2286 -53 -2285 0
-2286 53 0
-2286 2285 0
-2287 63 2286 54 60 0
2287 -63 0
2287 -2286 0
2287 -54 0
2287 -60 0
2288 -74 -2287 0
-2288 74 0
-2288 2287 0
-2289 17 2288 11 14 0
2289 -17 0
2289 -2288 0
2289 -11 0
2289 -14 0
2290 -1723 -2289 0
-2290 1723 0
-2290 2289 0
2291 -1727 -2267 0
-2291 1727 0
-2291 2267 0
-2292 1731 2291 0
2292 -1731 0
2292 -2291 0
2293 -1733 -2292 0
-2293 1733 0
-2293 2292 0
-2294 1735 2261 1740 1742 2284 2210 2290 1724 2293 0
2294 -1735 0
2294 -2261 0
2294 -1740 0
2294 -1742 0
2294 -2284 0
2294 -2210 0
2294 -2290 0
2294 -1724 0
2294 -2293 0
2295 -1779 -2294 0
-2295 1779 0
-2295 2294 0
-2296 22 2295 0
2296 -22 0
2296 -2295 0
2297 -322 -2296 0
-2297 322 0
-2297 2296 0
-2298 1735 1984 1740 1742 1987 2210 1749 1724 2211 0
2298 -1735 0
2298 -1984 0
2298 -1740 0
2298 -1742 0
2298 -1987 0
2298 -2210 0
2298 -1749 0
2298 -1724 0
2298 -2211 0
2299 -1755 -2298 0
-2299 1755 0
-2299 2298 0
2300 -1757 -2298 0
-2300 1757 0
-2300 2298 0
-2301 1735 1740 1742 1987 2210 1749 1724 2211 0
2301 -1735 0
2301 -1740 0
2301 -1742 0
2301 -1987 0
2301 -2210 0
2301 -1749 0
2301 -1724 0
2301 -2211 0
2302 -1769 -2301 0
-2302 1769 0
-2302 2301 0
-2303 10 2302 0
2303 -10 0
2303 -2302 0
2304 -9 -2303 0
-2304 9 0
-2304 2303 0
2305 -1779 -2301 0
-2305 1779 0
-2305 2301 0
-2306 22 2305 0
2306 -22 0
2306 -2305 0
2307 -21 -2306 0
-2307 21 0
-2307 2306 0
2308 -1783 -2301 0
-2308 1783 0
-2308 2301 0
-2309 25 2308 0
2309 -25 0
2309 -2308 0
2310 -24 -2309 0
-2310 24 0
-2310 2309 0
-2311 27 2307 2310 0
2311 -27 0
2311 -2307 0
2311 -2310 0
2312 -29 -2311 0
-2312 29 0
-2312 2311 0
-2313 31 2304 2312 0
2313 -31 0
2313 -2304 0
2313 -2312 0
2314 -33 -2313 0
-2314 33 0
-2314 2313 0
-2315 41 2300 6 2314 38 0
2315 -41 0
2315 -2300 0
2315 -6 0
2315 -2314 0
2315 -38 0
2316 -43 -2315 0
-2316 43 0
-2316 2315 0
2317 -1846 -2298 0
-2317 1846 0
-2317 2298 0
-2318 51 2316 2317 0
2318 -51 0
2318 -2316 0
2318 -2317 0
2319 -53 -2318 0
-2319 53 0
-2319 2318 0
-2320 63 2299 2319 54 98 0
2320 -63 0
2320 -2299 0
2320 -2319 0
2320 -54 0
2320 -98 0
2321 -74 -2320 0
-2321 74 0
-2321 2320 0
-2322 17 2321 11 14 0
2322 -17 0
2322 -2321 0
2322 -11 0
2322 -14 0
2323 -45 -2322 0
-2323 45 0
-2323 2322 0
-2324 47 2323 0
2324 -47 0
2324 -2323 0
2325 -466 -2324 0
-2325 466 0
-2325 2324 0
-2326 468 2259 2297 2325 0
2326 -468 0
2326 -2259 0
2326 -2297 0
2326 -2325 0
2327 -474 -2326 0
-2327 474 0
-2327 2326 0
2328 -1779 -2238 0
-2328 1779 0
-2328 2238 0
-2329 22 2328 0
2329 -22 0
2329 -2328 0
2330 -322 -2329 0
-2330 322 0
-2330 2329 0
-2331 468 2330 471 0
2331 -468 0
2331 -2330 0
2331 -471 0
2332 -508 -2331 0
-2332 508 0
-2332 2331 0
-2333 41 2214 6 2332 38 0
2333 -41 0
2333 -2214 0
2333 -6 0
2333 -2332 0
2333 -38 0
2334 -43 -2333 0
-2334 43 0
-2334 2333 0
-2335 51 2334 2217 48 0
2335 -51 0
2335 -2334 0
2335 -2217 0
2335 -48 0
2336 -53 -2335 0
-2336 53 0
-2336 2335 0
-2337 63 2213 2336 54 60 0
2337 -63 0
2337 -2213 0
2337 -2336 0
2337 -54 0
2337 -60 0
2338 -72 -2337 0
-2338 72 0
-2338 2337 0
2339 -470 -642 0
-2339 470 0
-2339 642 0
2340 -997 -617 0
-2340 997 0
-2340 617 0
2341 -1012 -642 0
-2341 1012 0
-2341 642 0
-2342 41 6 536 38 0
2342 -41 0
2342 -6 0
2342 -536 0
2342 -38 0
2343 -43 -2342 0
-2343 43 0
-2343 2342 0
-2344 51 2343 0
2344 -51 0
2344 -2343 0
2345 -53 -2344 0
-2345 53 0
-2345 2344 0
-2346 63 2345 54 0
2346 -63 0
2346 -2345 0
2346 -54 0
2347 -74 -2346 0
-2347 74 0
-2347 2346 0
-2348 17 2347 11 14 0
2348 -17 0
2348 -2347 0
2348 -11 0
2348 -14 0
2349 -45 -2348 0
-2349 45 0
-2349 2348 0
-2350 47 2349 0
2350 -47 0
2350 -2349 0
2351 -57 -2350 0
-2351 57 0
-2351 2350 0
-2352 59 2351 0
2352 -59 0
2352 -2351 0
2353 -1206 -2352 0
-2353 1206 0
-2353 2352 0
-2354 1208 2340 2341 2353 0
2354 -1208 0
2354 -2340 0
2354 -2341 0
2354 -2353 0
2355 -1210 -2354 0
-2355 1210 0
-2355 2354 0
2356 -1723 -837 0
-2356 1723 0
-2356 837 0
2357 -1727 -617 0
-2357 1727 0
-2357 617 0
-2358 1731 2357 0
2358 -1731 0
2358 -2357 0
2359 -1733 -2358 0
-2359 1733 0
-2359 2358 0
-2360 1735 2339 1740 1742 2355 2210 2356 1724 2359 0
2360 -1735 0
2360 -2339 0
2360 -1740 0
2360 -1742 0
2360 -2355 0
2360 -2210 0
2360 -2356 0
2360 -1724 0
2360 -2359 0
2361 -1769 -2360 0
-2361 1769 0
-2361 2360 0
-2362 10 2361 0
2362 -10 0
2362 -2361 0
2363 -9 -2362 0
-2363 9 0
-2363 2362 0
-2364 41 2240 6 2332 38 0
2364 -41 0
2364 -2240 0
2364 -6 0
2364 -2332 0
2364 -38 0
2365 -43 -2364 0
-2365 43 0
-2365 2364 0
-2366 51 2365 2243 48 0
2366 -51 0
2366 -2365 0
2366 -2243 0
2366 -48 0
2367 -53 -2366 0
-2367 53 0
-2367 2366 0
-2368 63 2239 2367 54 60 0
2368 -63 0
2368 -2239 0
2368 -2367 0
2368 -54 0
2368 -60 0
2369 -74 -2368 0
-2369 74 0
-2369 2368 0
-2370 17 2369 11 14 0
2370 -17 0
2370 -2369 0
2370 -11 0
2370 -14 0
2371 -19 -2370 0
-2371 19 0
-2371 2370 0
2372 -1779 -2360 0
-2372 1779 0
-2372 2360 0
-2373 22 2372 0
2373 -22 0
2373 -2372 0
2374 -21 -2373 0
-2374 21 0
-2374 2373 0
2375 -1783 -2360 0
-2375 1783 0
-2375 2360 0
-2376 25 2375 0
2376 -25 0
2376 -2375 0
2377 -24 -2376 0
-2377 24 0
-2377 2376 0
-2378 27 2374 2377 0
2378 -27 0
2378 -2374 0
2378 -2377 0
2379 -29 -2378 0
-2379 29 0
-2379 2378 0
-2380 31 2338 2363 2371 2379 0
2380 -31 0
2380 -2338 0
2380 -2363 0
2380 -2371 0
2380 -2379 0
2381 -119 -2380 0
-2381 119 0
-2381 2380 0
-2382 123 2327 2381 120 0
2382 -123 0
2382 -2327 0
2382 -2381 0
2382 -120 0
2383 -125 -2382 0
-2383 125 0
-2383 2382 0
-2384 31 113 8 116 0
2384 -31 0
2384 -113 0
2384 -8 0
2384 -116 0
2385 -320 -2384 0
-2385 320 0
-2385 2384 0
-2386 31 8 0
2386 -31 0
2386 -8 0
2387 -33 -2386 0
-2387 33 0
-2387 2386 0
-2388 41 6 2387 38 0
2388 -41 0
2388 -6 0
2388 -2387 0
2388 -38 0
2389 -43 -2388 0
-2389 43 0
-2389 2388 0
-2390 51 2389 0
2390 -51 0
2390 -2389 0
2391 -53 -2390 0
-2391 53 0
-2391 2390 0
-2392 63 2391 54 98 0
2392 -63 0
2392 -2391 0
2392 -54 0
2392 -98 0
2393 -74 -2392 0
-2393 74 0
-2393 2392 0
-2394 17 2393 11 14 0
2394 -17 0
2394 -2393 0
2394 -11 0
2394 -14 0
2395 -45 -2394 0
-2395 45 0
-2395 2394 0
-2396 47 2395 0
2396 -47 0
2396 -2395 0
2397 -466 -2396 0
-2397 466 0
-2397 2396 0
-2398 468 2385 321 2397 0
2398 -468 0
2398 -2385 0
2398 -321 0
2398 -2397 0
2399 -470 -2398 0
-2399 470 0
-2399 2398 0
-2400 31 835 8 838 0
2400 -31 0
2400 -835 0
2400 -8 0
2400 -838 0
2401 -670 -2400 0
-2401 670 0
-2401 2400 0
2402 -997 -1412 0
-2402 997 0
-2402 1412 0
2403 -1012 -2398 0
-2403 1012 0
-2403 2398 0
2404 -320 -2386 0
-2404 320 0
-2404 2386 0
-2405 468 2404 321 509 0
2405 -468 0
2405 -2404 0
2405 -321 0
2405 -509 0
2406 -508 -2405 0
-2406 508 0
-2406 2405 0
-2407 41 6 2387 2406 38 0
2407 -41 0
2407 -6 0
2407 -2387 0
2407 -2406 0
2407 -38 0
2408 -43 -2407 0
-2408 43 0
-2408 2407 0
-2409 51 2408 0
2409 -51 0
2409 -2408 0
2410 -53 -2409 0
-2410 53 0
-2410 2409 0
-2411 63 2410 54 0
2411 -63 0
2411 -2410 0
2411 -54 0
2412 -74 -2411 0
-2412 74 0
-2412 2411 0
-2413 17 2412 11 14 0
2413 -17 0
2413 -2412 0
2413 -11 0
2413 -14 0
2414 -45 -2413 0
-2414 45 0
-2414 2413 0
-2415 47 2414 0
2415 -47 0
2415 -2414 0
2416 -57 -2415 0
-2416 57 0
-2416 2415 0
-2417 59 2416 0
2417 -59 0
2417 -2416 0
2418 -1206 -2417 0
-2418 1206 0
-2418 2417 0
-2419 1208 2402 2403 2418 0
2419 -1208 0
2419 -2402 0
2419 -2403 0
2419 -2418 0
2420 -1210 -2419 0
-2420 1210 0
-2420 2419 0
-2421 51 2408 48 0
2421 -51 0
2421 -2408 0
2421 -48 0
2422 -53 -2421 0
-2422 53 0
-2422 2421 0
-2423 63 2422 54 60 0
2423 -63 0
2423 -2422 0
2423 -54 0
2423 -60 0
2424 -74 -2423 0
-2424 74 0
-2424 2423 0
-2425 17 2424 11 14 0
2425 -17 0
2425 -2424 0
2425 -11 0
2425 -14 0
2426 -1723 -2425 0
-2426 1723 0
-2426 2425 0
2427 -1727 -1412 0
-2427 1727 0
-2427 1412 0
-2428 1731 2427 0
2428 -1731 0
2428 -2427 0
2429 -1733 -2428 0
-2429 1733 0
-2429 2428 0
-2430 1735 2399 2401 1740 1742 2420 2210 2426 1724 2429 0
2430 -1735 0
2430 -2399 0
2430 -2401 0
2430 -1740 0
2430 -1742 0
2430 -2420 0
2430 -2210 0
2430 -2426 0
2430 -1724 0
2430 -2429 0
2431 -1779 -2430 0
-2431 1779 0
-2431 2430 0
-2432 22 2431 0
2432 -22 0
2432 -2431 0
2433 -21 -2432 0
-2433 21 0
-2433 2432 0
2434 -1783 -2430 0
-2434 1783 0
-2434 2430 0
-2435 25 2434 0
2435 -25 0
2435 -2434 0
2436 -24 -2435 0
-2436 24 0
-2436 2435 0
-2437 27 2433 2436 0
2437 -27 0
2437 -2433 0
2437 -2436 0
2438 -129 -2437 0
-2438 129 0
-2438 2437 0
-2439 131 126 2438 0
2439 -131 0
2439 -126 0
2439 -2438 0
2440 -133 -2439 0
-2440 133 0
-2440 2439 0
-2441 135 2383 2440 0
2441 -135 0
2441 -2383 0
2441 -2440 0
2442 -137 -2441 0
-2442 137 0
-2442 2441 0
-2443 31 113 116 28 0
2443 -31 0
2443 -113 0
2443 -116 0
2443 -28 0
2444 -320 -2443 0
-2444 320 0
-2444 2443 0
-2445 31 28 0
2445 -31 0
2445 -28 0
2446 -33 -2445 0
-2446 33 0
-2446 2445 0
-2447 41 6 2446 38 0
2447 -41 0
2447 -6 0
2447 -2446 0
2447 -38 0
2448 -43 -2447 0
-2448 43 0
-2448 2447 0
-2449 51 2448 0
2449 -51 0
2449 -2448 0
2450 -53 -2449 0
-2450 53 0
-2450 2449 0
-2451 63 2450 54 98 0
2451 -63 0
2451 -2450 0
2451 -54 0
2451 -98 0
2452 -74 -2451 0
-2452 74 0
-2452 2451 0
-2453 17 2452 11 14 0
2453 -17 0
2453 -2452 0
2453 -11 0
2453 -14 0
2454 -45 -2453 0
-2454 45 0
-2454 2453 0
-2455 47 2454 0
2455 -47 0
2455 -2454 0
2456 -466 -2455 0
-2456 466 0
-2456 2455 0
-2457 468 2444 321 2456 0
2457 -468 0
2457 -2444 0
2457 -321 0
2457 -2456 0
2458 -470 -2457 0
-2458 470 0
-2458 2457 0
-2459 31 835 838 28 0
2459 -31 0
2459 -835 0
2459 -838 0
2459 -28 0
2460 -670 -2459 0
-2460 670 0
-2460 2459 0
-2461 31 18 28 0
2461 -31 0
2461 -18 0
2461 -28 0
2462 -33 -2461 0
-2462 33 0
-2462 2461 0
2463 -320 -2461 0
-2463 320 0
-2463 2461 0
-2464 468 2463 321 471 0
2464 -468 0
2464 -2463 0
2464 -321 0
2464 -471 0
2465 -508 -2464 0
-2465 508 0
-2465 2464 0
-2466 41 6 2462 2465 38 0
2466 -41 0
2466 -6 0
2466 -2462 0
2466 -2465 0
2466 -38 0
2467 -43 -2466 0
-2467 43 0
-2467 2466 0
-2468 51 2467 48 0
2468 -51 0
2468 -2467 0
2468 -48 0
2469 -53 -2468 0
-2469 53 0
-2469 2468 0
-2470 63 2469 54 60 0
2470 -63 0
2470 -2469 0
2470 -54 0
2470 -60 0
2471 -997 -2470 0
-2471 997 0
-2471 2470 0
2472 -1012 -2457 0
-2472 1012 0
-2472 2457 0
2473 -320 -2445 0
-2473 320 0
-2473 2445 0
-2474 468 2473 321 509 0
2474 -468 0
2474 -2473 0
2474 -321 0
2474 -509 0
2475 -508 -2474 0
-2475 508 0
-2475 2474 0
-2476 41 6 2446 2475 38 0
2476 -41 0
2476 -6 0
2476 -2446 0
2476 -2475 0
2476 -38 0
2477 -43 -2476 0
-2477 43 0
-2477 2476 0
-2478 51 2477 0
2478 -51 0
2478 -2477 0
2479 -53 -2478 0
-2479 53 0
-2479 2478 0
-2480 63 2479 54 0
2480 -63 0
2480 -2479 0
2480 -54 0
2481 -74 -2480 0
-2481 74 0
-2481 2480 0
-2482 17 2481 11 14 0
2482 -17 0
2482 -2481 0
2482 -11 0
2482 -14 0
2483 -45 -2482 0
-2483 45 0
-2483 2482 0
-2484 47 2483 0
2484 -47 0
2484 -2483 0
2485 -57 -2484 0
-2485 57 0
-2485 2484 0
-2486 59 2485 0
2486 -59 0
2486 -2485 0
2487 -1206 -2486 0
-2487 1206 0
-2487 2486 0
-2488 1208 2471 2472 2487 0
2488 -1208 0
2488 -2471 0
2488 -2472 0
2488 -2487 0
2489 -1210 -2488 0
-2489 1210 0
-2489 2488 0
2490 -474 -2457 0
-2490 474 0
-2490 2457 0
2491 -119 -2459 0
-2491 119 0
-2491 2459 0
-2492 123 2490 2491 120 0
2492 -123 0
2492 -2490 0
2492 -2491 0
2492 -120 0
2493 -125 -2492 0
-2493 125 0
-2493 2492 0
-2494 135 2493 132 0
2494 -135 0
2494 -2493 0
2494 -132 0
2495 -1441 -2494 0
-2495 1441 0
-2495 2494 0
-2496 51 2477 48 0
2496 -51 0
2496 -2477 0
2496 -48 0
2497 -53 -2496 0
-2497 53 0
-2497 2496 0
-2498 63 2497 54 60 0
2498 -63 0
2498 -2497 0
2498 -54 0
2498 -60 0
2499 -74 -2498 0
-2499 74 0
-2499 2498 0
-2500 17 2499 11 14 0
2500 -17 0
2500 -2499 0
2500 -11 0
2500 -14 0
2501 -1723 -2500 0
-2501 1723 0
-2501 2500 0
2502 -1727 -2470 0
-2502 1727 0
-2502 2470 0
2503 -1729 -2494 0
-2503 1729 0
-2503 2494 0
-2504 1731 2502 2503 0
2504 -1731 0
2504 -2502 0
2504 -2503 0
2505 -1733 -2504 0
-2505 1733 0
-2505 2504 0
-2506 1735 2458 2460 1740 1742 2489 2495 2501 1724 2505 0
2506 -1735 0
2506 -2458 0
2506 -2460 0
2506 -1740 0
2506 -1742 0
2506 -2489 0
2506 -2495 0
2506 -2501 0
2506 -1724 0
2506 -2505 0
2507 -1769 -2506 0
-2507 1769 0
-2507 2506 0
-2508 10 2507 0
2508 -10 0
2508 -2507 0
2509 -139 -2508 0
-2509 139 0
-2509 2508 0
-2510 1735 2028 2029 1740 1742 2042 2043 2050 1724 2054 0
2510 -1735 0
2510 -2028 0
2510 -2029 0
2510 -1740 0
2510 -1742 0
2510 -2042 0
2510 -2043 0
2510 -2050 0
2510 -1724 0
2510 -2054 0
2511 -2512 -2510 0
-2511 2512 0
-2511 2510 0
-2513 1735 1758 1739 1740 1742 1761 1749 1724 2211 0
2513 -1735 0
2513 -1758 0
2513 -1739 0
2513 -1740 0
2513 -1742 0
2513 -1761 0
2513 -1749 0
2513 -1724 0
2513 -2211 0
2514 -1755 -2513 0
-2514 1755 0
-2514 2513 0
2515 -1757 -2513 0
-2515 1757 0
-2515 2513 0
-2516 41 2515 6 38 0
2516 -41 0
2516 -2515 0
2516 -6 0
2516 -38 0
2517 -43 -2516 0
-2517 43 0
-2517 2516 0
2518 -1846 -2513 0
-2518 1846 0
-2518 2513 0
-2519 51 2517 2518 48 0
2519 -51 0
2519 -2517 0
2519 -2518 0
2519 -48 0
2520 -53 -2519 0
-2520 53 0
-2520 2519 0
-2521 63 2514 2520 54 60 0
2521 -63 0
2521 -2514 0
2521 -2520 0
2521 -54 0
2521 -60 0
2522 -72 -2521 0
-2522 72 0
-2522 2521 0
-2523 1735 1740 1742 2229 2230 1724 2233 0
2523 -1735 0
2523 -1740 0
2523 -1742 0
2523 -2229 0
2523 -2230 0
2523 -1724 0
2523 -2233 0
2524 -1769 -2523 0
-2524 1769 0
-2524 2523 0
-2525 10 2524 0
2525 -10 0
2525 -2524 0
2526 -9 -2525 0
-2526 9 0
-2526 2525 0
-2527 1735 1758 1740 1742 1761 1749 1724 2211 0
2527 -1735 0
2527 -1758 0
2527 -1740 0
2527 -1742 0
2527 -1761 0
2527 -1749 0
2527 -1724 0
2527 -2211 0
2528 -1755 -2527 0
-2528 1755 0
-2528 2527 0
2529 -1757 -2527 0
-2529 1757 0
-2529 2527 0
-2530 41 2529 6 38 0
2530 -41 0
2530 -2529 0
2530 -6 0
2530 -38 0
2531 -43 -2530 0
-2531 43 0
-2531 2530 0
2532 -1846 -2527 0
-2532 1846 0
-2532 2527 0
-2533 51 2531 2532 48 0
2533 -51 0
2533 -2531 0
2533 -2532 0
2533 -48 0
2534 -53 -2533 0
-2534 53 0
-2534 2533 0
-2535 63 2528 2534 54 60 0
2535 -63 0
2535 -2528 0
2535 -2534 0
2535 -54 0
2535 -60 0
2536 -74 -2535 0
-2536 74 0
-2536 2535 0
-2537 17 2536 11 14 0
2537 -17 0
2537 -2536 0
2537 -11 0
2537 -14 0
2538 -19 -2537 0
-2538 19 0
-2538 2537 0
2539 -1779 -2523 0
-2539 1779 0
-2539 2523 0
-2540 22 2539 0
2540 -22 0
2540 -2539 0
2541 -21 -2540 0
-2541 21 0
-2541 2540 0
2542 -1783 -2523 0
-2542 1783 0
-2542 2523 0
-2543 25 2542 0
2543 -25 0
2543 -2542 0
2544 -24 -2543 0
-2544 24 0
-2544 2543 0
-2545 27 2541 2544 0
2545 -27 0
2545 -2541 0
2545 -2544 0
2546 -29 -2545 0
-2546 29 0
-2546 2545 0
-2547 31 2522 2526 2538 2546 0
2547 -31 0
2547 -2522 0
2547 -2526 0
2547 -2538 0
2547 -2546 0
2548 -320 -2547 0
-2548 320 0
-2548 2547 0
-2549 1735 2261 1740 1742 2284 2290 1724 2293 0
2549 -1735 0
2549 -2261 0
2549 -1740 0
2549 -1742 0
2549 -2284 0
2549 -2290 0
2549 -1724 0
2549 -2293 0
2550 -1779 -2549 0
-2550 1779 0
-2550 2549 0
-2551 22 2550 0
2551 -22 0
2551 -2550 0
2552 -322 -2551 0
-2552 322 0
-2552 2551 0
-2553 1735 1984 1740 1742 1987 1749 1724 2211 0
2553 -1735 0
2553 -1984 0
2553 -1740 0
2553 -1742 0
2553 -1987 0
2553 -1749 0
2553 -1724 0
2553 -2211 0
2554 -1755 -2553 0
-2554 1755 0
-2554 2553 0
2555 -1757 -2553 0
-2555 1757 0
-2555 2553 0
-2556 1735 1740 1742 1987 1749 1724 2211 0
2556 -1735 0
2556 -1740 0
2556 -1742 0
2556 -1987 0
2556 -1749 0
2556 -1724 0
2556 -2211 0
2557 -1769 -2556 0
-2557 1769 0
-2557 2556 0
-2558 10 2557 0
2558 -10 0
2558 -2557 0
2559 -9 -2558 0
-2559 9 0
-2559 2558 0
2560 -1779 -2556 0
-2560 1779 0
-2560 2556 0
-2561 22 2560 0
2561 -22 0
2561 -2560 0
2562 -21 -2561 0
-2562 21 0
-2562 2561 0
2563 -1783 -2556 0
-2563 1783 0
-2563 2556 0
-2564 25 2563 0
2564 -25 0
2564 -2563 0
2565 -24 -2564 0
-2565 24 0
-2565 2564 0
-2566 27 2562 2565 0
2566 -27 0
2566 -2562 0
2566 -2565 0
2567 -29 -2566 0
-2567 29 0
-2567 2566 0
-2568 31 2559 2567 0
2568 -31 0
2568 -2559 0
2568 -2567 0
2569 -33 -2568 0
-2569 33 0
-2569 2568 0
-2570 41 2555 6 2569 38 0
2570 -41 0
2570 -2555 0
2570 -6 0
2570 -2569 0
2570 -38 0
2571 -43 -2570 0
-2571 43 0
-2571 2570 0
2572 -1846 -2553 0
-2572 1846 0
-2572 2553 0
-2573 51 2571 2572 0
2573 -51 0
2573 -2571 0
2573 -2572 0
2574 -53 -2573 0
-2574 53 0
-2574 2573 0
-2575 63 2554 2574 54 98 0
2575 -63 0
2575 -2554 0
2575 -2574 0
2575 -54 0
2575 -98 0
2576 -74 -2575 0
-2576 74 0
-2576 2575 0
-2577 17 2576 11 14 0
2577 -17 0
2577 -2576 0
2577 -11 0
2577 -14 0
2578 -45 -2577 0
-2578 45 0
-2578 2577 0
-2579 47 2578 0
2579 -47 0
2579 -2578 0
2580 -466 -2579 0
-2580 466 0
-2580 2579 0
-2581 468 2548 2552 2580 0
2581 -468 0
2581 -2548 0
2581 -2552 0
2581 -2580 0
2582 -474 -2581 0
-2582 474 0
-2582 2581 0
2583 -1779 -2527 0
-2583 1779 0
-2583 2527 0
-2584 22 2583 0
2584 -22 0
2584 -2583 0
2585 -322 -2584 0
-2585 322 0
-2585 2584 0
-2586 468 2585 471 0
2586 -468 0
2586 -2585 0
2586 -471 0
2587 -508 -2586 0
-2587 508 0
-2587 2586 0
-2588 41 2515 6 2587 38 0
2588 -41 0
2588 -2515 0
2588 -6 0
2588 -2587 0
2588 -38 0
2589 -43 -2588 0
-2589 43 0
-2589 2588 0
-2590 51 2589 2518 48 0
2590 -51 0
2590 -2589 0
2590 -2518 0
2590 -48 0
2591 -53 -2590 0
-2591 53 0
-2591 2590 0
-2592 63 2514 2591 54 60 0
2592 -63 0
2592 -2514 0
2592 -2591 0
2592 -54 0
2592 -60 0
2593 -72 -2592 0
-2593 72 0
-2593 2592 0
-2594 1735 2339 1740 1742 2355 2356 1724 2359 0
2594 -1735 0
2594 -2339 0
2594 -1740 0
2594 -1742 0
2594 -2355 0
2594 -2356 0
2594 -1724 0
2594 -2359 0
2595 -1769 -2594 0
-2595 1769 0
-2595 2594 0
-2596 10 2595 0
2596 -10 0
2596 -2595 0
2597 -9 -2596 0
-2597 9 0
-2597 2596 0
-2598 41 2529 6 2587 38 0
2598 -41 0
2598 -2529 0
2598 -6 0
2598 -2587 0
2598 -38 0
2599 -43 -2598 0
-2599 43 0
-2599 2598 0
-2600 51 2599 2532 48 0
2600 -51 0
2600 -2599 0
2600 -2532 0
2600 -48 0
2601 -53 -2600 0
-2601 53 0
-2601 2600 0
-2602 63 2528 2601 54 60 0
2602 -63 0
2602 -2528 0
2602 -2601 0
2602 -54 0
2602 -60 0
2603 -74 -2602 0
-2603 74 0
-2603 2602 0
-2604 17 2603 11 14 0
2604 -17 0
2604 -2603 0
2604 -11 0
2604 -14 0
2605 -19 -2604 0
-2605 19 0
-2605 2604 0
2606 -1779 -2594 0
-2606 1779 0
-2606 2594 0
-2607 22 2606 0
2607 -22 0
2607 -2606 0
2608 -21 -2607 0
-2608 21 0
-2608 2607 0
2609 -1783 -2594 0
-2609 1783 0
-2609 2594 0
-2610 25 2609 0
2610 -25 0
2610 -2609 0
2611 -24 -2610 0
-2611 24 0
-2611 2610 0
-2612 27 2608 2611 0
2612 -27 0
2612 -2608 0
2612 -2611 0
2613 -29 -2612 0
-2613 29 0
-2613 2612 0
-2614 31 2593 2597 2605 2613 0
2614 -31 0
2614 -2593 0
2614 -2597 0
2614 -2605 0
2614 -2613 0
2615 -119 -2614 0
-2615 119 0
-2615 2614 0
-2616 123 2582 2615 120 0
2616 -123 0
2616 -2582 0
2616 -2615 0
2616 -120 0
2617 -125 -2616 0
-2617 125 0
-2617 2616 0
-2618 1735 2399 2401 1740 1742 2420 2426 1724 2429 0
2618 -1735 0
2618 -2399 0
2618 -2401 0
2618 -1740 0
2618 -1742 0
2618 -2420 0
2618 -2426 0
2618 -1724 0
2618 -2429 0
2619 -1779 -2618 0
-2619 1779 0
-2619 2618 0
-2620 22 2619 0
2620 -22 0
2620 -2619 0
2621 -21 -2620 0
-2621 21 0
-2621 2620 0
2622 -1783 -2618 0
-2622 1783 0
-2622 2618 0
-2623 25 2622 0
2623 -25 0
2623 -2622 0
2624 -24 -2623 0
-2624 24 0
-2624 2623 0
-2625 27 2621 2624 0
2625 -27 0
2625 -2621 0
2625 -2624 0
2626 -129 -2625 0
-2626 129 0
-2626 2625 0
-2627 131 126 2626 0
2627 -131 0
2627 -126 0
2627 -2626 0
2628 -133 -2627 0
-2628 133 0
-2628 2627 0
-2629 135 2617 2628 0
2629 -135 0
2629 -2617 0
2629 -2628 0
2630 -141 -2629 0
-2630 141 0
-2630 2629 0
-2631 143 2511 2630 0
2631 -143 0
2631 -2511 0
2631 -2630 0
2632 -145 -2631 0
-2632 145 0
-2632 2631 0
-2633 147 2509 2632 0
2633 -147 0
2633 -2509 0
2633 -2632 0
2634 -149 -2633 0
-2634 149 0
-2634 2633 0
-2635 151 1850 2027 2056 2209 2442 2634 0
2635 -151 0
2635 -1850 0
2635 -2027 0
2635 -2056 0
2635 -2209 0
2635 -2442 0
2635 -2634 0
2636 -2637 -2635 0
-2636 2637 0
-2636 2635 0
-2638 1208 1743 1985 0
2638 -1208 0
2638 -1743 0
2638 -1985 0
2639 -1210 -2638 0
-2639 1210 0
-2639 2638 0
-2640 1735 1738 1739 1740 1742 2639 1747 1748 1749 1724 1752 0
2640 -1735 0
2640 -1738 0
2640 -1739 0
2640 -1740 0
2640 -1742 0
2640 -2639 0
2640 -1747 0
2640 -1748 0
2640 -1749 0
2640 -1724 0
2640 -1752 0
2641 -1755 -2640 0
-2641 1755 0
-2641 2640 0
2642 -1757 -2640 0
-2642 1757 0
-2642 2640 0
-2643 1208 1759 1985 0
2643 -1208 0
2643 -1759 0
2643 -1985 0
2644 -1210 -2643 0
-2644 1210 0
-2644 2643 0
-2645 1735 1758 1740 1742 2644 1762 1763 1749 1724 1766 0
2645 -1735 0
2645 -1758 0
2645 -1740 0
2645 -1742 0
2645 -2644 0
2645 -1762 0
2645 -1763 0
2645 -1749 0
2645 -1724 0
2645 -1766 0
2646 -1769 -2645 0
-2646 1769 0
-2646 2645 0
-2647 10 2646 0
2647 -10 0
2647 -2646 0
2648 -9 -2647 0
-2648 9 0
-2648 2647 0
-2649 1735 1758 1740 1742 2644 1772 1773 1749 1724 1776 0
2649 -1735 0
2649 -1758 0
2649 -1740 0
2649 -1742 0
2649 -2644 0
2649 -1772 0
2649 -1773 0
2649 -1749 0
2649 -1724 0
2649 -1776 0
2650 -1779 -2649 0
-2650 1779 0
-2650 2649 0
-2651 22 2650 0
2651 -22 0
2651 -2650 0
2652 -21 -2651 0
-2652 21 0
-2652 2651 0
2653 -1783 -2649 0
-2653 1783 0
-2653 2649 0
-2654 25 2653 0
2654 -25 0
2654 -2653 0
2655 -24 -2654 0
-2655 24 0
-2655 2654 0
-2656 27 2652 2655 0
2656 -27 0
2656 -2652 0
2656 -2655 0
2657 -29 -2656 0
-2657 29 0
-2657 2656 0
-2658 31 2648 18 2657 0
2658 -31 0
2658 -2648 0
2658 -18 0
2658 -2657 0
2659 -33 -2658 0
-2659 33 0
-2659 2658 0
-2660 1735 1758 1740 1742 1987 1790 1791 1749 1724 1794 0
2660 -1735 0
2660 -1758 0
2660 -1740 0
2660 -1742 0
2660 -1987 0
2660 -1790 0
2660 -1791 0
2660 -1749 0
2660 -1724 0
2660 -1794 0
2661 -1769 -2660 0
-2661 1769 0
-2661 2660 0
-2662 10 2661 0
2662 -10 0
2662 -2661 0
2663 -9 -2662 0
-2663 9 0
-2663 2662 0
-2664 1735 1758 1740 1742 1987 1799 1800 1749 1724 1803 0
2664 -1735 0
2664 -1758 0
2664 -1740 0
2664 -1742 0
2664 -1987 0
2664 -1799 0
2664 -1800 0
2664 -1749 0
2664 -1724 0
2664 -1803 0
2665 -1779 -2664 0
-2665 1779 0
-2665 2664 0
-2666 22 2665 0
2666 -22 0
2666 -2665 0
2667 -21 -2666 0
-2667 21 0
-2667 2666 0
2668 -1783 -2664 0
-2668 1783 0
-2668 2664 0
-2669 25 2668 0
2669 -25 0
2669 -2668 0
2670 -24 -2669 0
-2670 24 0
-2670 2669 0
-2671 27 2667 2670 0
2671 -27 0
2671 -2667 0
2671 -2670 0
2672 -29 -2671 0
-2672 29 0
-2672 2671 0
-2673 31 2663 18 2672 0
2673 -31 0
2673 -2663 0
2673 -18 0
2673 -2672 0
2674 -320 -2673 0
-2674 320 0
-2674 2673 0
-2675 1735 1818 1740 1742 1987 1828 1833 1749 1724 1836 0
2675 -1735 0
2675 -1818 0
2675 -1740 0
2675 -1742 0
2675 -1987 0
2675 -1828 0
2675 -1833 0
2675 -1749 0
2675 -1724 0
2675 -1836 0
2676 -1779 -2675 0
-2676 1779 0
-2676 2675 0
-2677 22 2676 0
2677 -22 0
2677 -2676 0
2678 -322 -2677 0
-2678 322 0
-2678 2677 0
-2679 468 2674 2678 471 0
2679 -468 0
2679 -2674 0
2679 -2678 0
2679 -471 0
2680 -508 -2679 0
-2680 508 0
-2680 2679 0
-2681 41 2642 6 2659 2680 38 0
2681 -41 0
2681 -2642 0
2681 -6 0
2681 -2659 0
2681 -2680 0
2681 -38 0
2682 -43 -2681 0
-2682 43 0
-2682 2681 0
2683 -1846 -2640 0
-2683 1846 0
-2683 2640 0
-2684 51 2682 2683 0
2684 -51 0
2684 -2682 0
2684 -2683 0
2685 -53 -2684 0
-2685 53 0
-2685 2684 0
-2686 63 2641 2685 54 0
2686 -63 0
2686 -2641 0
2686 -2685 0
2686 -54 0
2687 -65 -2686 0
-2687 65 0
-2687 2686 0
-2688 51 2683 0
2688 -51 0
2688 -2683 0
2689 -53 -2688 0
-2689 53 0
-2689 2688 0
-2690 63 2641 2689 54 0
2690 -63 0
2690 -2641 0
2690 -2689 0
2690 -54 0
2691 -70 -2690 0
-2691 70 0
-2691 2690 0
2692 -470 -1025 0
-2692 470 0
-2692 1025 0
2693 -670 -1022 0
-2693 670 0
-2693 1022 0
2694 -997 -1016 0
-2694 997 0
-2694 1016 0
2695 -1012 -1025 0
-2695 1012 0
-2695 1025 0
-2696 1208 2694 2695 1985 0
2696 -1208 0
2696 -2694 0
2696 -2695 0
2696 -1985 0
2697 -1210 -2696 0
-2697 1210 0
-2697 2696 0
2698 -474 -1025 0
-2698 474 0
-2698 1025 0
2699 -119 -1022 0
-2699 119 0
-2699 1022 0
-2700 123 2698 2699 120 0
2700 -123 0
2700 -2698 0
2700 -2699 0
2700 -120 0
2701 -125 -2700 0
-2701 125 0
-2701 2700 0
-2702 135 2701 132 0
2702 -135 0
2702 -2701 0
2702 -132 0
2703 -1441 -2702 0
-2703 1441 0
-2703 2702 0
2704 -141 -2702 0
-2704 141 0
-2704 2702 0
-2705 143 2704 0
2705 -143 0
2705 -2704 0
2706 -145 -2705 0
-2706 145 0
-2706 2705 0
-2707 147 138 2706 0
2707 -147 0
2707 -138 0
2707 -2706 0
2708 -1645 -2707 0
-2708 1645 0
-2708 2707 0
2709 -1723 -1020 0
-2709 1723 0
-2709 1020 0
2710 -1727 -1016 0
-2710 1727 0
-2710 1016 0
2711 -1729 -2702 0
-2711 1729 0
-2711 2702 0
-2712 1731 2710 2711 0
2712 -1731 0
2712 -2710 0
2712 -2711 0
2713 -1733 -2712 0
-2713 1733 0
-2713 2712 0
-2714 1735 2692 2693 1740 1742 2697 2703 2708 2709 1724 2713 0
2714 -1735 0
2714 -2692 0
2714 -2693 0
2714 -1740 0
2714 -1742 0
2714 -2697 0
2714 -2703 0
2714 -2708 0
2714 -2709 0
2714 -1724 0
2714 -2713 0
2715 -1757 -2714 0
-2715 1757 0
-2715 2714 0
2716 -72 -2690 0
-2716 72 0
-2716 2690 0
-2717 468 321 0
2717 -468 0
2717 -321 0
2718 -470 -2717 0
-2718 470 0
-2718 2717 0
2719 -1012 -2717 0
-2719 1012 0
-2719 2717 0
-2720 1208 2694 2719 1985 0
2720 -1208 0
2720 -2694 0
2720 -2719 0
2720 -1985 0
2721 -1210 -2720 0
-2721 1210 0
-2721 2720 0
2722 -474 -2717 0
-2722 474 0
-2722 2717 0
-2723 123 2722 120 0
2723 -123 0
2723 -2722 0
2723 -120 0
2724 -125 -2723 0
-2724 125 0
-2724 2723 0
-2725 135 2724 132 0
2725 -135 0
2725 -2724 0
2725 -132 0
2726 -1441 -2725 0
-2726 1441 0
-2726 2725 0
2727 -141 -2725 0
-2727 141 0
-2727 2725 0
-2728 143 2727 0
2728 -143 0
2728 -2727 0
2729 -145 -2728 0
-2729 145 0
-2729 2728 0
-2730 147 138 2729 0
2730 -147 0
2730 -138 0
2730 -2729 0
2731 -1645 -2730 0
-2731 1645 0
-2731 2730 0
2732 -1729 -2725 0
-2732 1729 0
-2732 2725 0
-2733 1731 2710 2732 0
2733 -1731 0
2733 -2710 0
2733 -2732 0
2734 -1733 -2733 0
-2734 1733 0
-2734 2733 0
-2735 1735 2718 1740 1742 2721 2726 2731 2709 1724 2734 0
2735 -1735 0
2735 -2718 0
2735 -1740 0
2735 -1742 0
2735 -2721 0
2735 -2726 0
2735 -2731 0
2735 -2709 0
2735 -1724 0
2735 -2734 0
2736 -1769 -2735 0
-2736 1769 0
-2736 2735 0
-2737 10 2736 0
2737 -10 0
2737 -2736 0
2738 -9 -2737 0
-2738 9 0
-2738 2737 0
2739 -1755 -2645 0
-2739 1755 0
-2739 2645 0
2740 -1846 -2645 0
-2740 1846 0
-2740 2645 0
-2741 51 2740 0
2741 -51 0
2741 -2740 0
2742 -53 -2741 0
-2742 53 0
-2742 2741 0
-2743 63 2739 2742 54 0
2743 -63 0
2743 -2739 0
2743 -2742 0
2743 -54 0
2744 -74 -2743 0
-2744 74 0
-2744 2743 0
-2745 17 2744 11 14 0
2745 -17 0
2745 -2744 0
2745 -11 0
2745 -14 0
2746 -19 -2745 0
-2746 19 0
-2746 2745 0
-2747 135 2724 303 0
2747 -135 0
2747 -2724 0
2747 -303 0
2748 -1441 -2747 0
-2748 1441 0
-2748 2747 0
2749 -141 -2747 0
-2749 141 0
-2749 2747 0
-2750 143 2749 0
2750 -143 0
2750 -2749 0
2751 -145 -2750 0
-2751 145 0
-2751 2750 0
-2752 147 138 2751 0
2752 -147 0
2752 -138 0
2752 -2751 0
2753 -1645 -2752 0
-2753 1645 0
-2753 2752 0
2754 -1729 -2747 0
-2754 1729 0
-2754 2747 0
-2755 1731 2710 2754 0
2755 -1731 0
2755 -2710 0
2755 -2754 0
2756 -1733 -2755 0
-2756 1733 0
-2756 2755 0
-2757 1735 2718 1740 1742 2721 2748 2753 2709 1724 2756 0
2757 -1735 0
2757 -2718 0
2757 -1740 0
2757 -1742 0
2757 -2721 0
2757 -2748 0
2757 -2753 0
2757 -2709 0
2757 -1724 0
2757 -2756 0
2758 -1779 -2757 0
-2758 1779 0
-2758 2757 0
-2759 22 2758 0
2759 -22 0
2759 -2758 0
2760 -21 -2759 0
-2760 21 0
-2760 2759 0
2761 -1783 -2757 0
-2761 1783 0
-2761 2757 0
-2762 25 2761 0
2762 -25 0
2762 -2761 0
2763 -24 -2762 0
-2763 24 0
-2763 2762 0
-2764 27 2760 2763 0
2764 -27 0
2764 -2760 0
2764 -2763 0
2765 -29 -2764 0
-2765 29 0
-2765 2764 0
-2766 31 2716 2738 2746 2765 0
2766 -31 0
2766 -2716 0
2766 -2738 0
2766 -2746 0
2766 -2765 0
2767 -33 -2766 0
-2767 33 0
-2767 2766 0
2768 -1755 -2660 0
-2768 1755 0
-2768 2660 0
2769 -1846 -2660 0
-2769 1846 0
-2769 2660 0
-2770 51 2769 0
2770 -51 0
2770 -2769 0
2771 -53 -2770 0
-2771 53 0
-2771 2770 0
-2772 63 2768 2771 54 0
2772 -63 0
2772 -2768 0
2772 -2771 0
2772 -54 0
2773 -72 -2772 0
-2773 72 0
-2773 2772 0
-2774 1735 1740 1742 2721 1790 1791 2709 1724 2734 0
2774 -1735 0
2774 -1740 0
2774 -1742 0
2774 -2721 0
2774 -1790 0
2774 -1791 0
2774 -2709 0
2774 -1724 0
2774 -2734 0
2775 -1769 -2774 0
-2775 1769 0
-2775 2774 0
-2776 10 2775 0
2776 -10 0
2776 -2775 0
2777 -9 -2776 0
-2777 9 0
-2777 2776 0
2778 -74 -2772 0
-2778 74 0
-2778 2772 0
-2779 17 2778 11 14 0
2779 -17 0
2779 -2778 0
2779 -11 0
2779 -14 0
2780 -19 -2779 0
-2780 19 0
-2780 2779 0
-2781 1735 1740 1742 2721 1799 1800 2709 1724 2756 0
2781 -1735 0
2781 -1740 0
2781 -1742 0
2781 -2721 0
2781 -1799 0
2781 -1800 0
2781 -2709 0
2781 -1724 0
2781 -2756 0
2782 -1779 -2781 0
-2782 1779 0
-2782 2781 0
-2783 22 2782 0
2783 -22 0
2783 -2782 0
2784 -21 -2783 0
-2784 21 0
-2784 2783 0
2785 -1783 -2781 0
-2785 1783 0
-2785 2781 0
-2786 25 2785 0
2786 -25 0
2786 -2785 0
2787 -24 -2786 0
-2787 24 0
-2787 2786 0
-2788 27 2784 2787 0
2788 -27 0
2788 -2784 0
2788 -2787 0
2789 -29 -2788 0
-2789 29 0
-2789 2788 0
-2790 31 2773 2777 2780 2789 0
2790 -31 0
2790 -2773 0
2790 -2777 0
2790 -2780 0
2790 -2789 0
2791 -320 -2790 0
-2791 320 0
-2791 2790 0
-2792 31 1018 8 1021 1816 0
2792 -31 0
2792 -1018 0
2792 -8 0
2792 -1021 0
2792 -1816 0
2793 -670 -2792 0
-2793 670 0
-2793 2792 0
-2794 1208 2694 1985 0
2794 -1208 0
2794 -2694 0
2794 -1985 0
2795 -1210 -2794 0
-2795 1210 0
-2795 2794 0
2796 -119 -2792 0
-2796 119 0
-2796 2792 0
-2797 123 2796 120 0
2797 -123 0
2797 -2796 0
2797 -120 0
2798 -125 -2797 0
-2798 125 0
-2798 2797 0
-2799 135 2798 1826 0
2799 -135 0
2799 -2798 0
2799 -1826 0
2800 -1441 -2799 0
-2800 1441 0
-2800 2799 0
2801 -141 -2799 0
-2801 141 0
-2801 2799 0
-2802 143 2801 0
2802 -143 0
2802 -2801 0
2803 -145 -2802 0
-2803 145 0
-2803 2802 0
-2804 147 138 2803 0
2804 -147 0
2804 -138 0
2804 -2803 0
2805 -1645 -2804 0
-2805 1645 0
-2805 2804 0
2806 -1729 -2799 0
-2806 1729 0
-2806 2799 0
-2807 1731 2710 2806 0
2807 -1731 0
2807 -2710 0
2807 -2806 0
2808 -1733 -2807 0
-2808 1733 0
-2808 2807 0
-2809 1735 2793 1740 1742 2795 2800 2805 2709 1724 2808 0
2809 -1735 0
2809 -2793 0
2809 -1740 0
2809 -1742 0
2809 -2795 0
2809 -2800 0
2809 -2805 0
2809 -2709 0
2809 -1724 0
2809 -2808 0
2810 -1779 -2809 0
-2810 1779 0
-2810 2809 0
-2811 22 2810 0
2811 -22 0
2811 -2810 0
2812 -322 -2811 0
-2812 322 0
-2812 2811 0
-2813 468 2791 2812 0
2813 -468 0
2813 -2791 0
2813 -2812 0
2814 -508 -2813 0
-2814 508 0
-2814 2813 0
2815 -1846 -2200 0
-2815 1846 0
-2815 2200 0
-2816 51 2815 0
2816 -51 0
2816 -2815 0
2817 -53 -2816 0
-2817 53 0
-2817 2816 0
-2818 63 2201 2817 54 0
2818 -63 0
2818 -2201 0
2818 -2817 0
2818 -54 0
2819 -74 -2818 0
-2819 74 0
-2819 2818 0
-2820 17 2819 11 14 0
2820 -17 0
2820 -2819 0
2820 -11 0
2820 -14 0
2821 -35 -2820 0
-2821 35 0
-2821 2820 0
-2822 37 2821 0
2822 -37 0
2822 -2821 0
2823 -39 -2822 0
-2823 39 0
-2823 2822 0
-2824 41 2691 2715 6 2767 2814 2823 0
2824 -41 0
2824 -2691 0
2824 -2715 0
2824 -6 0
2824 -2767 0
2824 -2814 0
2824 -2823 0
2825 -84 -2824 0
-2825 84 0
-2825 2824 0
2826 -470 -1057 0
-2826 470 0
-2826 1057 0
2827 -670 -1065 0
-2827 670 0
-2827 1065 0
2828 -997 -1014 0
-2828 997 0
-2828 1014 0
2829 -1012 -1057 0
-2829 1012 0
-2829 1057 0
-2830 1208 2828 2829 1985 0
2830 -1208 0
2830 -2828 0
2830 -2829 0
2830 -1985 0
2831 -1210 -2830 0
-2831 1210 0
-2831 2830 0
2832 -1441 -1069 0
-2832 1441 0
-2832 1069 0
2833 -1645 -1074 0
-2833 1645 0
-2833 1074 0
2834 -1723 -2035 0
-2834 1723 0
-2834 2035 0
2835 -1727 -1014 0
-2835 1727 0
-2835 1014 0
2836 -1729 -1069 0
-2836 1729 0
-2836 1069 0
-2837 1731 2835 2836 0
2837 -1731 0
2837 -2835 0
2837 -2836 0
2838 -1733 -2837 0
-2838 1733 0
-2838 2837 0
-2839 1735 2826 2827 1740 1742 2831 2832 2833 2834 1724 2838 0
2839 -1735 0
2839 -2826 0
2839 -2827 0
2839 -1740 0
2839 -1742 0
2839 -2831 0
2839 -2832 0
2839 -2833 0
2839 -2834 0
2839 -1724 0
2839 -2838 0
2840 -2057 -2839 0
-2840 2057 0
-2840 2839 0
-2841 63 2641 54 0
2841 -63 0
2841 -2641 0
2841 -54 0
2842 -70 -2841 0
-2842 70 0
-2842 2841 0
2843 -470 -1041 0
-2843 470 0
-2843 1041 0
2844 -670 -1038 0
-2844 670 0
-2844 1038 0
2845 -997 -1032 0
-2845 997 0
-2845 1032 0
2846 -1012 -1041 0
-2846 1012 0
-2846 1041 0
-2847 1208 2845 2846 1985 0
2847 -1208 0
2847 -2845 0
2847 -2846 0
2847 -1985 0
2848 -1210 -2847 0
-2848 1210 0
-2848 2847 0
2849 -474 -1041 0
-2849 474 0
-2849 1041 0
2850 -119 -1038 0
-2850 119 0
-2850 1038 0
-2851 123 2849 2850 120 0
2851 -123 0
2851 -2849 0
2851 -2850 0
2851 -120 0
2852 -125 -2851 0
-2852 125 0
-2852 2851 0
-2853 135 2852 132 0
2853 -135 0
2853 -2852 0
2853 -132 0
2854 -1441 -2853 0
-2854 1441 0
-2854 2853 0
2855 -141 -2853 0
-2855 141 0
-2855 2853 0
-2856 143 2855 0
2856 -143 0
2856 -2855 0
2857 -145 -2856 0
-2857 145 0
-2857 2856 0
-2858 147 138 2857 0
2858 -147 0
2858 -138 0
2858 -2857 0
2859 -1645 -2858 0
-2859 1645 0
-2859 2858 0
2860 -1723 -1036 0
-2860 1723 0
-2860 1036 0
2861 -1727 -1032 0
-2861 1727 0
-2861 1032 0
2862 -1729 -2853 0
-2862 1729 0
-2862 2853 0
-2863 1731 2861 2862 0
2863 -1731 0
2863 -2861 0
2863 -2862 0
2864 -1733 -2863 0
-2864 1733 0
-2864 2863 0
-2865 1735 2843 2844 1740 1742 2848 2854 2859 2860 1724 2864 0
2865 -1735 0
2865 -2843 0
2865 -2844 0
2865 -1740 0
2865 -1742 0
2865 -2848 0
2865 -2854 0
2865 -2859 0
2865 -2860 0
2865 -1724 0
2865 -2864 0
2866 -1757 -2865 0
-2866 1757 0
-2866 2865 0
2867 -72 -2841 0
-2867 72 0
-2867 2841 0
-2868 1208 2845 2719 1985 0
2868 -1208 0
2868 -2845 0
2868 -2719 0
2868 -1985 0
2869 -1210 -2868 0
-2869 1210 0
-2869 2868 0
-2870 1731 2861 2732 0
2870 -1731 0
2870 -2861 0
2870 -2732 0
2871 -1733 -2870 0
-2871 1733 0
-2871 2870 0
-2872 1735 2718 1740 1742 2869 2726 2731 2860 1724 2871 0
2872 -1735 0
2872 -2718 0
2872 -1740 0
2872 -1742 0
2872 -2869 0
2872 -2726 0
2872 -2731 0
2872 -2860 0
2872 -1724 0
2872 -2871 0
2873 -1769 -2872 0
-2873 1769 0
-2873 2872 0
-2874 10 2873 0
2874 -10 0
2874 -2873 0
2875 -9 -2874 0
-2875 9 0
-2875 2874 0
-2876 63 2739 54 0
2876 -63 0
2876 -2739 0
2876 -54 0
2877 -74 -2876 0
-2877 74 0
-2877 2876 0
-2878 17 2877 11 14 0
2878 -17 0
2878 -2877 0
2878 -11 0
2878 -14 0
2879 -19 -2878 0
-2879 19 0
-2879 2878 0
-2880 1731 2861 2754 0
2880 -1731 0
2880 -2861 0
2880 -2754 0
2881 -1733 -2880 0
-2881 1733 0
-2881 2880 0
-2882 1735 2718 1740 1742 2869 2748 2753 2860 1724 2881 0
2882 -1735 0
2882 -2718 0
2882 -1740 0
2882 -1742 0
2882 -2869 0
2882 -2748 0
2882 -2753 0
2882 -2860 0
2882 -1724 0
2882 -2881 0
2883 -1779 -2882 0
-2883 1779 0
-2883 2882 0
-2884 22 2883 0
2884 -22 0
2884 -2883 0
2885 -21 -2884 0
-2885 21 0
-2885 2884 0
2886 -1783 -2882 0
-2886 1783 0
-2886 2882 0
-2887 25 2886 0
2887 -25 0
2887 -2886 0
2888 -24 -2887 0
-2888 24 0
-2888 2887 0
-2889 27 2885 2888 0
2889 -27 0
2889 -2885 0
2889 -2888 0
2890 -29 -2889 0
-2890 29 0
-2890 2889 0
-2891 31 2867 2875 2879 2890 0
2891 -31 0
2891 -2867 0
2891 -2875 0
2891 -2879 0
2891 -2890 0
2892 -33 -2891 0
-2892 33 0
-2892 2891 0
-2893 63 2768 54 0
2893 -63 0
2893 -2768 0
2893 -54 0
2894 -72 -2893 0
-2894 72 0
-2894 2893 0
-2895 1735 1740 1742 2869 1790 1791 2860 1724 2871 0
2895 -1735 0
2895 -1740 0
2895 -1742 0
2895 -2869 0
2895 -1790 0
2895 -1791 0
2895 -2860 0
2895 -1724 0
2895 -2871 0
2896 -1769 -2895 0
-2896 1769 0
-2896 2895 0
-2897 10 2896 0
2897 -10 0
2897 -2896 0
2898 -9 -2897 0
-2898 9 0
-2898 2897 0
2899 -74 -2893 0
-2899 74 0
-2899 2893 0
-2900 17 2899 11 14 0
2900 -17 0
2900 -2899 0
2900 -11 0
2900 -14 0
2901 -19 -2900 0
-2901 19 0
-2901 2900 0
-2902 1735 1740 1742 2869 1799 1800 2860 1724 2881 0
2902 -1735 0
2902 -1740 0
2902 -1742 0
2902 -2869 0
2902 -1799 0
2902 -1800 0
2902 -2860 0
2902 -1724 0
2902 -2881 0
2903 -1779 -2902 0
-2903 1779 0
-2903 2902 0
-2904 22 2903 0
2904 -22 0
2904 -2903 0
2905 -21 -2904 0
-2905 21 0
-2905 2904 0
2906 -1783 -2902 0
-2906 1783 0
-2906 2902 0
-2907 25 2906 0
2907 -25 0
2907 -2906 0
2908 -24 -2907 0
-2908 24 0
-2908 2907 0
-2909 27 2905 2908 0
2909 -27 0
2909 -2905 0
2909 -2908 0
2910 -29 -2909 0
-2910 29 0
-2910 2909 0
-2911 31 2894 2898 2901 2910 0
2911 -31 0
2911 -2894 0
2911 -2898 0
2911 -2901 0
2911 -2910 0
2912 -320 -2911 0
-2912 320 0
-2912 2911 0
-2913 31 1034 8 1037 1816 0
2913 -31 0
2913 -1034 0
2913 -8 0
2913 -1037 0
2913 -1816 0
2914 -670 -2913 0
-2914 670 0
-2914 2913 0
-2915 1208 2845 1985 0
2915 -1208 0
2915 -2845 0
2915 -1985 0
2916 -1210 -2915 0
-2916 1210 0
-2916 2915 0
2917 -119 -2913 0
-2917 119 0
-2917 2913 0
-2918 123 2917 120 0
2918 -123 0
2918 -2917 0
2918 -120 0
2919 -125 -2918 0
-2919 125 0
-2919 2918 0
-2920 135 2919 1826 0
2920 -135 0
2920 -2919 0
2920 -1826 0
2921 -1441 -2920 0
-2921 1441 0
-2921 2920 0
2922 -141 -2920 0
-2922 141 0
-2922 2920 0
-2923 143 2922 0
2923 -143 0
2923 -2922 0
2924 -145 -2923 0
-2924 145 0
-2924 2923 0
-2925 147 138 2924 0
2925 -147 0
2925 -138 0
2925 -2924 0
2926 -1645 -2925 0
-2926 1645 0
-2926 2925 0
2927 -1729 -2920 0
-2927 1729 0
-2927 2920 0
-2928 1731 2861 2927 0
2928 -1731 0
2928 -2861 0
2928 -2927 0
2929 -1733 -2928 0
-2929 1733 0
-2929 2928 0
-2930 1735 2914 1740 1742 2916 2921 2926 2860 1724 2929 0
2930 -1735 0
2930 -2914 0
2930 -1740 0
2930 -1742 0
2930 -2916 0
2930 -2921 0
2930 -2926 0
2930 -2860 0
2930 -1724 0
2930 -2929 0
2931 -1779 -2930 0
-2931 1779 0
-2931 2930 0
-2932 22 2931 0
2932 -22 0
2932 -2931 0
2933 -322 -2932 0
-2933 322 0
-2933 2932 0
-2934 468 2912 2933 0
2934 -468 0
2934 -2912 0
2934 -2933 0
2935 -508 -2934 0
-2935 508 0
-2935 2934 0
-2936 63 2201 54 0
2936 -63 0
2936 -2201 0
2936 -54 0
2937 -74 -2936 0
-2937 74 0
-2937 2936 0
-2938 17 2937 11 14 0
2938 -17 0
2938 -2937 0
2938 -11 0
2938 -14 0
2939 -35 -2938 0
-2939 35 0
-2939 2938 0
-2940 37 2939 0
2940 -37 0
2940 -2939 0
2941 -39 -2940 0
-2941 39 0
-2941 2940 0
-2942 41 2842 2866 6 2892 2935 2941 0
2942 -41 0
2942 -2842 0
2942 -2866 0
2942 -6 0
2942 -2892 0
2942 -2935 0
2942 -2941 0
2943 -43 -2942 0
-2943 43 0
-2943 2942 0
2944 -1846 -2865 0
-2944 1846 0
-2944 2865 0
-2945 51 2943 2944 0
2945 -51 0
2945 -2943 0
2945 -2944 0
2946 -107 -2945 0
-2946 107 0
-2946 2945 0
2947 -1755 -2301 0
-2947 1755 0
-2947 2301 0
2948 -1757 -2301 0
-2948 1757 0
-2948 2301 0
-2949 41 2948 6 38 0
2949 -41 0
2949 -2948 0
2949 -6 0
2949 -38 0
2950 -43 -2949 0
-2950 43 0
-2950 2949 0
2951 -1846 -2301 0
-2951 1846 0
-2951 2301 0
-2952 51 2950 2951 0
2952 -51 0
2952 -2950 0
2952 -2951 0
2953 -53 -2952 0
-2953 53 0
-2953 2952 0
-2954 63 2947 2953 54 0
2954 -63 0
2954 -2947 0
2954 -2953 0
2954 -54 0
2955 -72 -2954 0
-2955 72 0
-2955 2954 0
2956 -997 -1050 0
-2956 997 0
-2956 1050 0
-2957 1208 2956 1985 0
2957 -1208 0
2957 -2956 0
2957 -1985 0
2958 -1210 -2957 0
-2958 1210 0
-2958 2957 0
2959 -1723 -1053 0
-2959 1723 0
-2959 1053 0
2960 -1727 -1050 0
-2960 1727 0
-2960 1050 0
-2961 1731 2960 0
2961 -1731 0
2961 -2960 0
2962 -1733 -2961 0
-2962 1733 0
-2962 2961 0
-2963 1735 1740 1742 2958 2210 2959 1724 2962 0
2963 -1735 0
2963 -1740 0
2963 -1742 0
2963 -2958 0
2963 -2210 0
2963 -2959 0
2963 -1724 0
2963 -2962 0
2964 -1769 -2963 0
-2964 1769 0
-2964 2963 0
-2965 10 2964 0
2965 -10 0
2965 -2964 0
2966 -9 -2965 0
-2966 9 0
-2966 2965 0
-2967 41 2300 6 38 0
2967 -41 0
2967 -2300 0
2967 -6 0
2967 -38 0
2968 -43 -2967 0
-2968 43 0
-2968 2967 0
-2969 51 2968 2317 0
2969 -51 0
2969 -2968 0
2969 -2317 0
2970 -53 -2969 0
-2970 53 0
-2970 2969 0
-2971 63 2299 2970 54 0
2971 -63 0
2971 -2299 0
2971 -2970 0
2971 -54 0
2972 -74 -2971 0
-2972 74 0
-2972 2971 0
-2973 17 2972 11 14 0
2973 -17 0
2973 -2972 0
2973 -11 0
2973 -14 0
2974 -19 -2973 0
-2974 19 0
-2974 2973 0
2975 -1779 -2963 0
-2975 1779 0
-2975 2963 0
-2976 22 2975 0
2976 -22 0
2976 -2975 0
2977 -21 -2976 0
-2977 21 0
-2977 2976 0
2978 -1783 -2963 0
-2978 1783 0
-2978 2963 0
-2979 25 2978 0
2979 -25 0
2979 -2978 0
2980 -24 -2979 0
-2980 24 0
-2980 2979 0
-2981 27 2977 2980 0
2981 -27 0
2981 -2977 0
2981 -2980 0
2982 -29 -2981 0
-2982 29 0
-2982 2981 0
-2983 31 2955 2966 2974 2982 0
2983 -31 0
2983 -2955 0
2983 -2966 0
2983 -2974 0
2983 -2982 0
2984 -320 -2983 0
-2984 320 0
-2984 2983 0
-2985 31 1051 8 1054 1816 0
2985 -31 0
2985 -1051 0
2985 -8 0
2985 -1054 0
2985 -1816 0
2986 -670 -2985 0
-2986 670 0
-2986 2985 0
-2987 51 2264 0
2987 -51 0
2987 -2264 0
2988 -53 -2987 0
-2988 53 0
-2988 2987 0
-2989 63 2988 54 0
2989 -63 0
2989 -2988 0
2989 -54 0
2990 -997 -2989 0
-2990 997 0
-2990 2989 0
-2991 1208 2990 1985 0
2991 -1208 0
2991 -2990 0
2991 -1985 0
2992 -1210 -2991 0
-2992 1210 0
-2992 2991 0
2993 -1723 -2277 0
-2993 1723 0
-2993 2277 0
2994 -1727 -2989 0
-2994 1727 0
-2994 2989 0
-2995 1731 2994 0
2995 -1731 0
2995 -2994 0
2996 -1733 -2995 0
-2996 1733 0
-2996 2995 0
-2997 1735 2986 1740 1742 2992 2210 2993 1724 2996 0
2997 -1735 0
2997 -2986 0
2997 -1740 0
2997 -1742 0
2997 -2992 0
2997 -2210 0
2997 -2993 0
2997 -1724 0
2997 -2996 0
2998 -1779 -2997 0
-2998 1779 0
-2998 2997 0
-2999 22 2998 0
2999 -22 0
2999 -2998 0
3000 -322 -2999 0
-3000 322 0
-3000 2999 0
-3001 468 2984 3000 0
3001 -468 0
3001 -2984 0
3001 -3000 0
3002 -474 -3001 0
-3002 474 0
-3002 3001 0
-3003 1735 1738 1739 1740 1742 2639 2210 1749 1724 2211 0
3003 -1735 0
3003 -1738 0
3003 -1739 0
3003 -1740 0
3003 -1742 0
3003 -2639 0
3003 -2210 0
3003 -1749 0
3003 -1724 0
3003 -2211 0
3004 -1755 -3003 0
-3004 1755 0
-3004 3003 0
3005 -1757 -3003 0
-3005 1757 0
-3005 3003 0
3006 -322 -2306 0
-3006 322 0
-3006 2306 0
-3007 468 3006 471 0
3007 -468 0
3007 -3006 0
3007 -471 0
3008 -508 -3007 0
-3008 508 0
-3008 3007 0
-3009 41 3005 6 3008 38 0
3009 -41 0
3009 -3005 0
3009 -6 0
3009 -3008 0
3009 -38 0
3010 -43 -3009 0
-3010 43 0
-3010 3009 0
3011 -1846 -3003 0
-3011 1846 0
-3011 3003 0
-3012 51 3010 3011 0
3012 -51 0
3012 -3010 0
3012 -3011 0
3013 -53 -3012 0
-3013 53 0
-3013 3012 0
-3014 63 3004 3013 54 0
3014 -63 0
3014 -3004 0
3014 -3013 0
3014 -54 0
3015 -72 -3014 0
-3015 72 0
-3015 3014 0
3016 -997 -1060 0
-3016 997 0
-3016 1060 0
-3017 1208 3016 2719 1985 0
3017 -1208 0
3017 -3016 0
3017 -2719 0
3017 -1985 0
3018 -1210 -3017 0
-3018 1210 0
-3018 3017 0
3019 -1723 -1063 0
-3019 1723 0
-3019 1063 0
3020 -1727 -1060 0
-3020 1727 0
-3020 1060 0
-3021 1731 3020 0
3021 -1731 0
3021 -3020 0
3022 -1733 -3021 0
-3022 1733 0
-3022 3021 0
-3023 1735 2718 1740 1742 3018 2210 3019 1724 3022 0
3023 -1735 0
3023 -2718 0
3023 -1740 0
3023 -1742 0
3023 -3018 0
3023 -2210 0
3023 -3019 0
3023 -1724 0
3023 -3022 0
3024 -1769 -3023 0
-3024 1769 0
-3024 3023 0
-3025 10 3024 0
3025 -10 0
3025 -3024 0
3026 -9 -3025 0
-3026 9 0
-3026 3025 0
-3027 1735 1758 1740 1742 2199 2210 1749 1724 2211 0
3027 -1735 0
3027 -1758 0
3027 -1740 0
3027 -1742 0
3027 -2199 0
3027 -2210 0
3027 -1749 0
3027 -1724 0
3027 -2211 0
3028 -1755 -3027 0
-3028 1755 0
-3028 3027 0
3029 -1757 -3027 0
-3029 1757 0
-3029 3027 0
-3030 41 3029 6 3008 38 0
3030 -41 0
3030 -3029 0
3030 -6 0
3030 -3008 0
3030 -38 0
3031 -43 -3030 0
-3031 43 0
-3031 3030 0
3032 -1846 -3027 0
-3032 1846 0
-3032 3027 0
-3033 51 3031 3032 0
3033 -51 0
3033 -3031 0
3033 -3032 0
3034 -53 -3033 0
-3034 53 0
-3034 3033 0
-3035 63 3028 3034 54 0
3035 -63 0
3035 -3028 0
3035 -3034 0
3035 -54 0
3036 -74 -3035 0
-3036 74 0
-3036 3035 0
-3037 17 3036 11 14 0
3037 -17 0
3037 -3036 0
3037 -11 0
3037 -14 0
3038 -19 -3037 0
-3038 19 0
-3038 3037 0
3039 -1779 -3023 0
-3039 1779 0
-3039 3023 0
-3040 22 3039 0
3040 -22 0
3040 -3039 0
3041 -21 -3040 0
-3041 21 0
-3041 3040 0
3042 -1783 -3023 0
-3042 1783 0
-3042 3023 0
-3043 25 3042 0
3043 -25 0
3043 -3042 0
3044 -24 -3043 0
-3044 24 0
-3044 3043 0
-3045 27 3041 3044 0
3045 -27 0
3045 -3041 0
3045 -3044 0
3046 -29 -3045 0
-3046 29 0
-3046 3045 0
-3047 31 3015 3026 3038 3046 0
3047 -31 0
3047 -3015 0
3047 -3026 0
3047 -3038 0
3047 -3046 0
3048 -119 -3047 0
-3048 119 0
-3048 3047 0
-3049 123 3002 3048 120 0
3049 -123 0
3049 -3002 0
3049 -3048 0
3049 -120 0
3050 -125 -3049 0
-3050 125 0
-3050 3049 0
-3051 31 1051 8 1054 0
3051 -31 0
3051 -1051 0
3051 -8 0
3051 -1054 0
3052 -320 -3051 0
-3052 320 0
-3052 3051 0
-3053 468 3052 321 0
3053 -468 0
3053 -3052 0
3053 -321 0
3054 -470 -3053 0
-3054 470 0
-3054 3053 0
-3055 31 1061 8 1064 0
3055 -31 0
3055 -1061 0
3055 -8 0
3055 -1064 0
3056 -670 -3055 0
-3056 670 0
-3056 3055 0
-3057 51 1409 0
3057 -51 0
3057 -1409 0
3058 -53 -3057 0
-3058 53 0
-3058 3057 0
-3059 63 3058 54 0
3059 -63 0
3059 -3058 0
3059 -54 0
3060 -997 -3059 0
-3060 997 0
-3060 3059 0
3061 -1012 -3053 0
-3061 1012 0
-3061 3053 0
-3062 1208 3060 3061 1985 0
3062 -1208 0
3062 -3060 0
3062 -3061 0
3062 -1985 0
3063 -1210 -3062 0
-3063 1210 0
-3063 3062 0
3064 -1723 -2413 0
-3064 1723 0
-3064 2413 0
3065 -1727 -3059 0
-3065 1727 0
-3065 3059 0
-3066 1731 3065 0
3066 -1731 0
3066 -3065 0
3067 -1733 -3066 0
-3067 1733 0
-3067 3066 0
-3068 1735 3054 3056 1740 1742 3063 2210 3064 1724 3067 0
3068 -1735 0
3068 -3054 0
3068 -3056 0
3068 -1740 0
3068 -1742 0
3068 -3063 0
3068 -2210 0
3068 -3064 0
3068 -1724 0
3068 -3067 0
3069 -1779 -3068 0
-3069 1779 0
-3069 3068 0
-3070 22 3069 0
3070 -22 0
3070 -3069 0
3071 -21 -3070 0
-3071 21 0
-3071 3070 0
3072 -1783 -3068 0
-3072 1783 0
-3072 3068 0
-3073 25 3072 0
3073 -25 0
3073 -3072 0
3074 -24 -3073 0
-3074 24 0
-3074 3073 0
-3075 27 3071 3074 0
3075 -27 0
3075 -3071 0
3075 -3074 0
3076 -129 -3075 0
-3076 129 0
-3076 3075 0
-3077 131 126 3076 0
3077 -131 0
3077 -126 0
3077 -3076 0
3078 -133 -3077 0
-3078 133 0
-3078 3077 0
-3079 135 3050 3078 0
3079 -135 0
3079 -3050 0
3079 -3078 0
3080 -137 -3079 0
-3080 137 0
-3080 3079 0
-3081 31 1051 1054 28 0
3081 -31 0
3081 -1051 0
3081 -1054 0
3081 -28 0
3082 -320 -3081 0
-3082 320 0
-3082 3081 0
-3083 468 3082 321 0
3083 -468 0
3083 -3082 0
3083 -321 0
3084 -470 -3083 0
-3084 470 0
-3084 3083 0
-3085 31 1061 1064 28 0
3085 -31 0
3085 -1061 0
3085 -1064 0
3085 -28 0
3086 -670 -3085 0
-3086 670 0
-3086 3085 0
-3087 51 2467 0
3087 -51 0
3087 -2467 0
3088 -53 -3087 0
-3088 53 0
-3088 3087 0
-3089 63 3088 54 0
3089 -63 0
3089 -3088 0
3089 -54 0
3090 -997 -3089 0
-3090 997 0
-3090 3089 0
3091 -1012 -3083 0
-3091 1012 0
-3091 3083 0
-3092 1208 3090 3091 1985 0
3092 -1208 0
3092 -3090 0
3092 -3091 0
3092 -1985 0
3093 -1210 -3092 0
-3093 1210 0
-3093 3092 0
3094 -474 -3083 0
-3094 474 0
-3094 3083 0
3095 -119 -3085 0
-3095 119 0
-3095 3085 0
-3096 123 3094 3095 120 0
3096 -123 0
3096 -3094 0
3096 -3095 0
3096 -120 0
3097 -125 -3096 0
-3097 125 0
-3097 3096 0
-3098 135 3097 132 0
3098 -135 0
3098 -3097 0
3098 -132 0
3099 -1441 -3098 0
-3099 1441 0
-3099 3098 0
3100 -1723 -2482 0
-3100 1723 0
-3100 2482 0
3101 -1727 -3089 0
-3101 1727 0
-3101 3089 0
3102 -1729 -3098 0
-3102 1729 0
-3102 3098 0
-3103 1731 3101 3102 0
3103 -1731 0
3103 -3101 0
3103 -3102 0
3104 -1733 -3103 0
-3104 1733 0
-3104 3103 0
-3105 1735 3084 3086 1740 1742 3093 3099 3100 1724 3104 0
3105 -1735 0
3105 -3084 0
3105 -3086 0
3105 -1740 0
3105 -1742 0
3105 -3093 0
3105 -3099 0
3105 -3100 0
3105 -1724 0
3105 -3104 0
3106 -1769 -3105 0
-3106 1769 0
-3106 3105 0
-3107 10 3106 0
3107 -10 0
3107 -3106 0
3108 -139 -3107 0
-3108 139 0
-3108 3107 0
-3109 1735 2826 2827 1740 1742 2831 2832 2834 1724 2838 0
3109 -1735 0
3109 -2826 0
3109 -2827 0
3109 -1740 0
3109 -1742 0
3109 -2831 0
3109 -2832 0
3109 -2834 0
3109 -1724 0
3109 -2838 0
3110 -2512 -3109 0
-3110 2512 0
-3110 3109 0
3111 -1755 -2556 0
-3111 1755 0
-3111 2556 0
3112 -1757 -2556 0
-3112 1757 0
-3112 2556 0
-3113 41 3112 6 38 0
3113 -41 0
3113 -3112 0
3113 -6 0
3113 -38 0
3114 -43 -3113 0
-3114 43 0
-3114 3113 0
3115 -1846 -2556 0
-3115 1846 0
-3115 2556 0
-3116 51 3114 3115 0
3116 -51 0
3116 -3114 0
3116 -3115 0
3117 -53 -3116 0
-3117 53 0
-3117 3116 0
-3118 63 3111 3117 54 0
3118 -63 0
3118 -3111 0
3118 -3117 0
3118 -54 0
3119 -72 -3118 0
-3119 72 0
-3119 3118 0
-3120 1735 1740 1742 2958 2959 1724 2962 0
3120 -1735 0
3120 -1740 0
3120 -1742 0
3120 -2958 0
3120 -2959 0
3120 -1724 0
3120 -2962 0
3121 -1769 -3120 0
-3121 1769 0
-3121 3120 0
-3122 10 3121 0
3122 -10 0
3122 -3121 0
3123 -9 -3122 0
-3123 9 0
-3123 3122 0
-3124 41 2555 6 38 0
3124 -41 0
3124 -2555 0
3124 -6 0
3124 -38 0
3125 -43 -3124 0
-3125 43 0
-3125 3124 0
-3126 51 3125 2572 0
3126 -51 0
3126 -3125 0
3126 -2572 0
3127 -53 -3126 0
-3127 53 0
-3127 3126 0
-3128 63 2554 3127 54 0
3128 -63 0
3128 -2554 0
3128 -3127 0
3128 -54 0
3129 -74 -3128 0
-3129 74 0
-3129 3128 0
-3130 17 3129 11 14 0
3130 -17 0
3130 -3129 0
3130 -11 0
3130 -14 0
3131 -19 -3130 0
-3131 19 0
-3131 3130 0
3132 -1779 -3120 0
-3132 1779 0
-3132 3120 0
-3133 22 3132 0
3133 -22 0
3133 -3132 0
3134 -21 -3133 0
-3134 21 0
-3134 3133 0
3135 -1783 -3120 0
-3135 1783 0
-3135 3120 0
-3136 25 3135 0
3136 -25 0
3136 -3135 0
3137 -24 -3136 0
-3137 24 0
-3137 3136 0
-3138 27 3134 3137 0
3138 -27 0
3138 -3134 0
3138 -3137 0
3139 -29 -3138 0
-3139 29 0
-3139 3138 0
-3140 31 3119 3123 3131 3139 0
3140 -31 0
3140 -3119 0
3140 -3123 0
3140 -3131 0
3140 -3139 0
3141 -320 -3140 0
-3141 320 0
-3141 3140 0
-3142 1735 2986 1740 1742 2992 2993 1724 2996 0
3142 -1735 0
3142 -2986 0
3142 -1740 0
3142 -1742 0
3142 -2992 0
3142 -2993 0
3142 -1724 0
3142 -2996 0
3143 -1779 -3142 0
-3143 1779 0
-3143 3142 0
-3144 22 3143 0
3144 -22 0
3144 -3143 0
3145 -322 -3144 0
-3145 322 0
-3145 3144 0
-3146 468 3141 3145 0
3146 -468 0
3146 -3141 0
3146 -3145 0
3147 -474 -3146 0
-3147 474 0
-3147 3146 0
-3148 1735 1738 1739 1740 1742 2639 1749 1724 2211 0
3148 -1735 0
3148 -1738 0
3148 -1739 0
3148 -1740 0
3148 -1742 0
3148 -2639 0
3148 -1749 0
3148 -1724 0
3148 -2211 0
3149 -1755 -3148 0
-3149 1755 0
-3149 3148 0
3150 -1757 -3148 0
-3150 1757 0
-3150 3148 0
3151 -322 -2561 0
-3151 322 0
-3151 2561 0
-3152 468 3151 471 0
3152 -468 0
3152 -3151 0
3152 -471 0
3153 -508 -3152 0
-3153 508 0
-3153 3152 0
-3154 41 3150 6 3153 38 0
3154 -41 0
3154 -3150 0
3154 -6 0
3154 -3153 0
3154 -38 0
3155 -43 -3154 0
-3155 43 0
-3155 3154 0
3156 -1846 -3148 0
-3156 1846 0
-3156 3148 0
-3157 51 3155 3156 0
3157 -51 0
3157 -3155 0
3157 -3156 0
3158 -53 -3157 0
-3158 53 0
-3158 3157 0
-3159 63 3149 3158 54 0
3159 -63 0
3159 -3149 0
3159 -3158 0
3159 -54 0
3160 -72 -3159 0
-3160 72 0
-3160 3159 0
-3161 1735 2718 1740 1742 3018 3019 1724 3022 0
3161 -1735 0
3161 -2718 0
3161 -1740 0
3161 -1742 0
3161 -3018 0
3161 -3019 0
3161 -1724 0
3161 -3022 0
3162 -1769 -3161 0
-3162 1769 0
-3162 3161 0
-3163 10 3162 0
3163 -10 0
3163 -3162 0
3164 -9 -3163 0
-3164 9 0
-3164 3163 0
-3165 1735 1758 1740 1742 2199 1749 1724 2211 0
3165 -1735 0
3165 -1758 0
3165 -1740 0
3165 -1742 0
3165 -2199 0
3165 -1749 0
3165 -1724 0
3165 -2211 0
3166 -1755 -3165 0
-3166 1755 0
-3166 3165 0
3167 -1757 -3165 0
-3167 1757 0
-3167 3165 0
-3168 41 3167 6 3153 38 0
3168 -41 0
3168 -3167 0
3168 -6 0
3168 -3153 0
3168 -38 0
3169 -43 -3168 0
-3169 43 0
-3169 3168 0
3170 -1846 -3165 0
-3170 1846 0
-3170 3165 0
-3171 51 3169 3170 0
3171 -51 0
3171 -3169 0
3171 -3170 0
3172 -53 -3171 0
-3172 53 0
-3172 3171 0
-3173 63 3166 3172 54 0
3173 -63 0
3173 -3166 0
3173 -3172 0
3173 -54 0
3174 -74 -3173 0
-3174 74 0
-3174 3173 0
-3175 17 3174 11 14 0
3175 -17 0
3175 -3174 0
3175 -11 0
3175 -14 0
3176 -19 -3175 0
-3176 19 0
-3176 3175 0
3177 -1779 -3161 0
-3177 1779 0
-3177 3161 0
-3178 22 3177 0
3178 -22 0
3178 -3177 0
3179 -21 -3178 0
-3179 21 0
-3179 3178 0
3180 -1783 -3161 0
-3180 1783 0
-3180 3161 0
-3181 25 3180 0
3181 -25 0
3181 -3180 0
3182 -24 -3181 0
-3182 24 0
-3182 3181 0
-3183 27 3179 3182 0
3183 -27 0
3183 -3179 0
3183 -3182 0
3184 -29 -3183 0
-3184 29 0
-3184 3183 0
-3185 31 3160 3164 3176 3184 0
3185 -31 0
3185 -3160 0
3185 -3164 0
3185 -3176 0
3185 -3184 0
3186 -119 -3185 0
-3186 119 0
-3186 3185 0
-3187 123 3147 3186 120 0
3187 -123 0
3187 -3147 0
3187 -3186 0
3187 -120 0
3188 -125 -3187 0
-3188 125 0
-3188 3187 0
-3189 1735 3054 3056 1740 1742 3063 3064 1724 3067 0
3189 -1735 0
3189 -3054 0
3189 -3056 0
3189 -1740 0
3189 -1742 0
3189 -3063 0
3189 -3064 0
3189 -1724 0
3189 -3067 0
3190 -1779 -3189 0
-3190 1779 0
-3190 3189 0
-3191 22 3190 0
3191 -22 0
3191 -3190 0
3192 -21 -3191 0
-3192 21 0
-3192 3191 0
3193 -1783 -3189 0
-3193 1783 0
-3193 3189 0
-3194 25 3193 0
3194 -25 0
3194 -3193 0
3195 -24 -3194 0
-3195 24 0
-3195 3194 0
-3196 27 3192 3195 0
3196 -27 0
3196 -3192 0
3196 -3195 0
3197 -129 -3196 0
-3197 129 0
-3197 3196 0
-3198 131 126 3197 0
3198 -131 0
3198 -126 0
3198 -3197 0
3199 -133 -3198 0
-3199 133 0
-3199 3198 0
-3200 135 3188 3199 0
3200 -135 0
3200 -3188 0
3200 -3199 0
3201 -141 -3200 0
-3201 141 0
-3201 3200 0
-3202 143 3110 3201 0
3202 -143 0
3202 -3110 0
3202 -3201 0
3203 -145 -3202 0
-3203 145 0
-3203 3202 0
-3204 147 3108 3203 0
3204 -147 0
3204 -3108 0
3204 -3203 0
3205 -149 -3204 0
-3205 149 0
-3205 3204 0
-3206 151 2687 2825 2840 2946 3080 3205 0
3206 -151 0
3206 -2687 0
3206 -2825 0
3206 -2840 0
3206 -2946 0
3206 -3080 0
3206 -3205 0
3207 -209 -3206 0
-3207 209 0
-3207 3206 0
-3208 151 1656 1675 374 379 0
3208 -151 0
3208 -1656 0
3208 -1675 0
3208 -374 0
3208 -379 0
3209 -153 -3208 0
-3209 153 0
-3209 3208 0
3210 -301 -239 0
-3210 301 0
-3210 239 0
-3211 151 206 238 305 310 0
3211 -151 0
3211 -206 0
3211 -238 0
3211 -305 0
3211 -310 0
3212 -313 -3211 0
-3212 313 0
-3212 3211 0
-3213 25 3212 0
3213 -25 0
3213 -3212 0
3214 -24 -3213 0
-3214 24 0
-3214 3213 0
-3215 27 3210 20 3214 0
3215 -27 0
3215 -3210 0
3215 -20 0
3215 -3214 0
3216 -29 -3215 0
-3216 29 0
-3216 3215 0
-3217 31 8 3216 0
3217 -31 0
3217 -8 0
3217 -3216 0
3218 -320 -3217 0
-3218 320 0
-3218 3217 0
-3219 468 3209 3218 321 0
3219 -468 0
3219 -3209 0
3219 -3218 0
3219 -321 0
3220 -470 -3219 0
-3220 470 0
-3220 3219 0
3221 -84 -2342 0
-3221 84 0
-3221 2342 0
3222 -107 -2344 0
-3222 107 0
-3222 2344 0
-3223 151 3221 3222 1107 1112 0
3223 -151 0
3223 -3221 0
3223 -3222 0
3223 -1107 0
3223 -1112 0
3224 -301 -3223 0
-3224 301 0
-3224 3223 0
-3225 151 3221 3222 1116 1121 0
3225 -151 0
3225 -3221 0
3225 -3222 0
3225 -1116 0
3225 -1121 0
3226 -313 -3225 0
-3226 313 0
-3226 3225 0
-3227 25 3226 0
3227 -25 0
3227 -3226 0
3228 -24 -3227 0
-3228 24 0
-3228 3227 0
-3229 27 3224 20 3228 0
3229 -27 0
3229 -3224 0
3229 -20 0
3229 -3228 0
3230 -29 -3229 0
-3230 29 0
-3230 3229 0
-3231 31 8 3230 0
3231 -31 0
3231 -8 0
3231 -3230 0
3232 -670 -3231 0
-3232 670 0
-3232 3231 0
3233 -809 -1149 0
-3233 809 0
-3233 1149 0
3234 -852 -1676 0
-3234 852 0
-3234 1676 0
-3235 858 3234 853 855 0
3235 -858 0
3235 -3234 0
3235 -853 0
3235 -855 0
3236 -860 -3235 0
-3236 860 0
-3236 3235 0
3237 -1012 -3219 0
-3237 1012 0
-3237 3219 0
-3238 1208 3237 1985 0
3238 -1208 0
3238 -3237 0
3238 -1985 0
3239 -1210 -3238 0
-3239 1210 0
-3239 3238 0
-3240 151 1656 1675 1213 0
3240 -151 0
3240 -1656 0
3240 -1675 0
3240 -1213 0
3241 -153 -3240 0
-3241 153 0
-3241 3240 0
3242 -301 -1249 0
-3242 301 0
-3242 1249 0
3243 -313 -1249 0
-3243 313 0
-3243 1249 0
-3244 25 3243 0
3244 -25 0
3244 -3243 0
3245 -24 -3244 0
-3245 24 0
-3245 3244 0
-3246 27 3242 20 3245 0
3246 -27 0
3246 -3242 0
3246 -20 0
3246 -3245 0
3247 -29 -3246 0
-3247 29 0
-3247 3246 0
-3248 31 8 3247 0
3248 -31 0
3248 -8 0
3248 -3247 0
3249 -320 -3248 0
-3249 320 0
-3249 3248 0
-3250 468 3241 3249 321 0
3250 -468 0
3250 -3241 0
3250 -3249 0
3250 -321 0
3251 -474 -3250 0
-3251 474 0
-3251 3250 0
-3252 151 3221 3222 1213 0
3252 -151 0
3252 -3221 0
3252 -3222 0
3252 -1213 0
3253 -301 -3252 0
-3253 301 0
-3253 3252 0
3254 -313 -3252 0
-3254 313 0
-3254 3252 0
-3255 25 3254 0
3255 -25 0
3255 -3254 0
3256 -24 -3255 0
-3256 24 0
-3256 3255 0
-3257 27 3253 20 3256 0
3257 -27 0
3257 -3253 0
3257 -20 0
3257 -3256 0
3258 -29 -3257 0
-3258 29 0
-3258 3257 0
-3259 31 8 3258 0
3259 -31 0
3259 -8 0
3259 -3258 0
3260 -119 -3259 0
-3260 119 0
-3260 3259 0
-3261 151 1139 1142 1213 0
3261 -151 0
3261 -1139 0
3261 -1142 0
3261 -1213 0
3262 -165 -3261 0
-3262 165 0
-3262 3261 0
3263 -178 -3261 0
-3263 178 0
-3263 3261 0
-3264 3 3263 0
3264 -3 0
3264 -3263 0
3265 -2 -3264 0
-3265 2 0
-3265 3264 0
-3266 5 3262 3265 0
3266 -5 0
3266 -3262 0
3266 -3265 0
3267 -121 -3266 0
-3267 121 0
-3267 3266 0
-3268 123 3251 3260 3267 0
3268 -123 0
3268 -3251 0
3268 -3260 0
3268 -3267 0
3269 -125 -3268 0
-3269 125 0
-3269 3268 0
3270 -127 -3266 0
-3270 127 0
-3270 3266 0
3271 -84 -2407 0
-3271 84 0
-3271 2407 0
3272 -107 -2409 0
-3272 107 0
-3272 2409 0
-3273 151 3271 3272 1213 0
3273 -151 0
3273 -3271 0
3273 -3272 0
3273 -1213 0
3274 -301 -3273 0
-3274 301 0
-3274 3273 0
3275 -313 -3273 0
-3275 313 0
-3275 3273 0
-3276 25 3275 0
3276 -25 0
3276 -3275 0
3277 -24 -3276 0
-3277 24 0
-3277 3276 0
-3278 27 3274 20 3277 0
3278 -27 0
3278 -3274 0
3278 -20 0
3278 -3277 0
3279 -129 -3278 0
-3279 129 0
-3279 3278 0
-3280 131 3270 3279 0
3280 -131 0
3280 -3270 0
3280 -3279 0
3281 -133 -3280 0
-3281 133 0
-3281 3280 0
-3282 135 3269 3281 0
3282 -135 0
3282 -3269 0
3282 -3281 0
3283 -1441 -3282 0
-3283 1441 0
-3283 3282 0
-3284 151 1656 1675 0
3284 -151 0
3284 -1656 0
3284 -1675 0
3285 -153 -3284 0
-3285 153 0
-3285 3284 0
3286 -301 -1476 0
-3286 301 0
-3286 1476 0
3287 -313 -1476 0
-3287 313 0
-3287 1476 0
-3288 25 3287 0
3288 -25 0
3288 -3287 0
3289 -24 -3288 0
-3289 24 0
-3289 3288 0
-3290 27 3286 20 3289 0
3290 -27 0
3290 -3286 0
3290 -20 0
3290 -3289 0
3291 -29 -3290 0
-3291 29 0
-3291 3290 0
-3292 31 8 3291 0
3292 -31 0
3292 -8 0
3292 -3291 0
3293 -320 -3292 0
-3293 320 0
-3293 3292 0
-3294 468 3285 3293 321 0
3294 -468 0
3294 -3285 0
3294 -3293 0
3294 -321 0
3295 -474 -3294 0
-3295 474 0
-3295 3294 0
-3296 151 3221 3222 0
3296 -151 0
3296 -3221 0
3296 -3222 0
3297 -301 -3296 0
-3297 301 0
-3297 3296 0
3298 -313 -3296 0
-3298 313 0
-3298 3296 0
-3299 25 3298 0
3299 -25 0
3299 -3298 0
3300 -24 -3299 0
-3300 24 0
-3300 3299 0
-3301 27 3297 20 3300 0
3301 -27 0
3301 -3297 0
3301 -20 0
3301 -3300 0
3302 -29 -3301 0
-3302 29 0
-3302 3301 0
-3303 31 8 3302 0
3303 -31 0
3303 -8 0
3303 -3302 0
3304 -119 -3303 0
-3304 119 0
-3304 3303 0
-3305 151 1139 1142 0
3305 -151 0
3305 -1139 0
3305 -1142 0
3306 -165 -3305 0
-3306 165 0
-3306 3305 0
3307 -178 -3305 0
-3307 178 0
-3307 3305 0
-3308 3 3307 0
3308 -3 0
3308 -3307 0
3309 -2 -3308 0
-3309 2 0
-3309 3308 0
-3310 5 3306 3309 0
3310 -5 0
3310 -3306 0
3310 -3309 0
3311 -121 -3310 0
-3311 121 0
-3311 3310 0
-3312 123 3295 3304 3311 0
3312 -123 0
3312 -3295 0
3312 -3304 0
3312 -3311 0
3313 -125 -3312 0
-3313 125 0
-3313 3312 0
3314 -127 -3310 0
-3314 127 0
-3314 3310 0
-3315 151 3271 3272 0
3315 -151 0
3315 -3271 0
3315 -3272 0
3316 -301 -3315 0
-3316 301 0
-3316 3315 0
3317 -313 -3315 0
-3317 313 0
-3317 3315 0
-3318 25 3317 0
3318 -25 0
3318 -3317 0
3319 -24 -3318 0
-3319 24 0
-3319 3318 0
-3320 27 3316 20 3319 0
3320 -27 0
3320 -3316 0
3320 -20 0
3320 -3319 0
3321 -129 -3320 0
-3321 129 0
-3321 3320 0
-3322 131 3314 3321 0
3322 -131 0
3322 -3314 0
3322 -3321 0
3323 -133 -3322 0
-3323 133 0
-3323 3322 0
-3324 135 3313 3323 0
3324 -135 0
3324 -3313 0
3324 -3323 0
3325 -141 -3324 0
-3325 141 0
-3325 3324 0
-3326 143 3325 0
3326 -143 0
3326 -3325 0
3327 -145 -3326 0
-3327 145 0
-3327 3326 0
-3328 147 138 3327 0
3328 -147 0
3328 -138 0
3328 -3327 0
3329 -1645 -3328 0
-3329 1645 0
-3329 3328 0
3330 -1729 -3282 0
-3330 1729 0
-3330 3282 0
-3331 1731 3330 0
3331 -1731 0
3331 -3330 0
3332 -1733 -3331 0
-3332 1733 0
-3332 3331 0
-3333 1735 3220 3232 3233 3236 3239 3283 3329 1724 3332 0
3333 -1735 0
3333 -3220 0
3333 -3232 0
3333 -3233 0
3333 -3236 0
3333 -3239 0
3333 -3283 0
3333 -3329 0
3333 -1724 0
3333 -3332 0
3334 -1755 -3333 0
-3334 1755 0
-3334 3333 0
3335 -470 -1132 0
-3335 470 0
-3335 1132 0
3336 -670 -1128 0
-3336 670 0
-3336 1128 0
3337 -809 -1102 0
-3337 809 0
-3337 1102 0
3338 -852 -1087 0
-3338 852 0
-3338 1087 0
-3339 858 3338 853 855 0
3339 -858 0
3339 -3338 0
3339 -853 0
3339 -855 0
3340 -860 -3339 0
-3340 860 0
-3340 3339 0
3341 -1012 -1132 0
-3341 1012 0
-3341 1132 0
-3342 1208 3341 1985 0
3342 -1208 0
3342 -3341 0
3342 -1985 0
3343 -1210 -3342 0
-3343 1210 0
-3343 3342 0
3344 -320 -1298 0
-3344 320 0
-3344 1298 0
-3345 468 1323 3344 321 0
3345 -468 0
3345 -1323 0
3345 -3344 0
3345 -321 0
3346 -474 -3345 0
-3346 474 0
-3346 3345 0
3347 -119 -1298 0
-3347 119 0
-3347 1298 0
3348 -121 -1221 0
-3348 121 0
-3348 1221 0
-3349 123 3346 3347 3348 0
3349 -123 0
3349 -3346 0
3349 -3347 0
3349 -3348 0
3350 -125 -3349 0
-3350 125 0
-3350 3349 0
3351 -127 -1221 0
-3351 127 0
-3351 1221 0
3352 -129 -1296 0
-3352 129 0
-3352 1296 0
-3353 131 3351 3352 0
3353 -131 0
3353 -3351 0
3353 -3352 0
3354 -133 -3353 0
-3354 133 0
-3354 3353 0
-3355 135 3350 3354 0
3355 -135 0
3355 -3350 0
3355 -3354 0
3356 -1441 -3355 0
-3356 1441 0
-3356 3355 0
3357 -320 -1525 0
-3357 320 0
-3357 1525 0
-3358 468 1550 3357 321 0
3358 -468 0
3358 -1550 0
3358 -3357 0
3358 -321 0
3359 -474 -3358 0
-3359 474 0
-3359 3358 0
3360 -119 -1525 0
-3360 119 0
-3360 1525 0
3361 -121 -1448 0
-3361 121 0
-3361 1448 0
-3362 123 3359 3360 3361 0
3362 -123 0
3362 -3359 0
3362 -3360 0
3362 -3361 0
3363 -125 -3362 0
-3363 125 0
-3363 3362 0
3364 -127 -1448 0
-3364 127 0
-3364 1448 0
3365 -129 -1523 0
-3365 129 0
-3365 1523 0
-3366 131 3364 3365 0
3366 -131 0
3366 -3364 0
3366 -3365 0
3367 -133 -3366 0
-3367 133 0
-3367 3366 0
-3368 135 3363 3367 0
3368 -135 0
3368 -3363 0
3368 -3367 0
3369 -141 -3368 0
-3369 141 0
-3369 3368 0
-3370 143 3369 0
3370 -143 0
3370 -3369 0
3371 -145 -3370 0
-3371 145 0
-3371 3370 0
-3372 147 138 3371 0
3372 -147 0
3372 -138 0
3372 -3371 0
3373 -1645 -3372 0
-3373 1645 0
-3373 3372 0
3374 -1729 -3355 0
-3374 1729 0
-3374 3355 0
-3375 1731 3374 0
3375 -1731 0
3375 -3374 0
3376 -1733 -3375 0
-3376 1733 0
-3376 3375 0
-3377 1735 3335 3336 3337 3340 3343 3356 3373 1724 3376 0
3377 -1735 0
3377 -3335 0
3377 -3336 0
3377 -3337 0
3377 -3340 0
3377 -3343 0
3377 -3356 0
3377 -3373 0
3377 -1724 0
3377 -3376 0
3378 -1757 -3377 0
-3378 1757 0
-3378 3377 0
3379 -2057 -2200 0
-3379 2057 0
-3379 2200 0
3380 -320 -2313 0
-3380 320 0
-3380 2313 0
3381 -670 -2269 0
-3381 670 0
-3381 2269 0
-3382 1735 3381 1740 1742 1987 2210 1749 1724 2211 0
3382 -1735 0
3382 -3381 0
3382 -1740 0
3382 -1742 0
3382 -1987 0
3382 -2210 0
3382 -1749 0
3382 -1724 0
3382 -2211 0
3383 -1779 -3382 0
-3383 1779 0
-3383 3382 0
-3384 22 3383 0
3384 -22 0
3384 -3383 0
3385 -322 -3384 0
-3385 322 0
-3385 3384 0
-3386 468 3380 3385 509 0
3386 -468 0
3386 -3380 0
3386 -3385 0
3386 -509 0
3387 -474 -3386 0
-3387 474 0
-3387 3386 0
-3388 1735 2718 1740 1742 2869 2210 1749 1724 2211 0
3388 -1735 0
3388 -2718 0
3388 -1740 0
3388 -1742 0
3388 -2869 0
3388 -2210 0
3388 -1749 0
3388 -1724 0
3388 -2211 0
3389 -1769 -3388 0
-3389 1769 0
-3389 3388 0
-3390 10 3389 0
3390 -10 0
3390 -3389 0
3391 -9 -3390 0
-3391 9 0
-3391 3390 0
3392 -1779 -3388 0
-3392 1779 0
-3392 3388 0
-3393 22 3392 0
3393 -22 0
3393 -3392 0
3394 -21 -3393 0
-3394 21 0
-3394 3393 0
3395 -1783 -3388 0
-3395 1783 0
-3395 3388 0
-3396 25 3395 0
3396 -25 0
3396 -3395 0
3397 -24 -3396 0
-3397 24 0
-3397 3396 0
-3398 27 3394 3397 0
3398 -27 0
3398 -3394 0
3398 -3397 0
3399 -29 -3398 0
-3399 29 0
-3399 3398 0
-3400 31 3391 3399 0
3400 -31 0
3400 -3391 0
3400 -3399 0
3401 -119 -3400 0
-3401 119 0
-3401 3400 0
-3402 123 3387 3401 120 0
3402 -123 0
3402 -3387 0
3402 -3401 0
3402 -120 0
3403 -125 -3402 0
-3403 125 0
-3403 3402 0
3404 -470 -2405 0
-3404 470 0
-3404 2405 0
3405 -670 -2386 0
-3405 670 0
-3405 2386 0
3406 -1012 -2405 0
-3406 1012 0
-3406 2405 0
-3407 1208 3406 1985 0
3407 -1208 0
3407 -3406 0
3407 -1985 0
3408 -1210 -3407 0
-3408 1210 0
-3408 3407 0
-3409 1735 3404 3405 1740 1742 3408 2210 1749 1724 2211 0
3409 -1735 0
3409 -3404 0
3409 -3405 0
3409 -1740 0
3409 -1742 0
3409 -3408 0
3409 -2210 0
3409 -1749 0
3409 -1724 0
3409 -2211 0
3410 -1779 -3409 0
-3410 1779 0
-3410 3409 0
-3411 22 3410 0
3411 -22 0
3411 -3410 0
3412 -21 -3411 0
-3412 21 0
-3412 3411 0
3413 -1783 -3409 0
-3413 1783 0
-3413 3409 0
-3414 25 3413 0
3414 -25 0
3414 -3413 0
3415 -24 -3414 0
-3415 24 0
-3415 3414 0
-3416 27 3412 3415 0
3416 -27 0
3416 -3412 0
3416 -3415 0
3417 -129 -3416 0
-3417 129 0
-3417 3416 0
-3418 131 126 3417 0
3418 -131 0
3418 -126 0
3418 -3417 0
3419 -133 -3418 0
-3419 133 0
-3419 3418 0
-3420 135 3403 3419 0
3420 -135 0
3420 -3403 0
3420 -3419 0
3421 -137 -3420 0
-3421 137 0
-3421 3420 0
3422 -470 -2474 0
-3422 470 0
-3422 2474 0
3423 -670 -2445 0
-3423 670 0
-3423 2445 0
3424 -1012 -2474 0
-3424 1012 0
-3424 2474 0
-3425 1208 3424 1985 0
3425 -1208 0
3425 -3424 0
3425 -1985 0
3426 -1210 -3425 0
-3426 1210 0
-3426 3425 0
3427 -474 -2474 0
-3427 474 0
-3427 2474 0
3428 -119 -2445 0
-3428 119 0
-3428 2445 0
-3429 123 3427 3428 120 0
3429 -123 0
3429 -3427 0
3429 -3428 0
3429 -120 0
3430 -125 -3429 0
-3430 125 0
-3430 3429 0
-3431 135 3430 132 0
3431 -135 0
3431 -3430 0
3431 -132 0
3432 -1441 -3431 0
-3432 1441 0
-3432 3431 0
3433 -1729 -3431 0
-3433 1729 0
-3433 3431 0
-3434 1731 3433 0
3434 -1731 0
3434 -3433 0
3435 -1733 -3434 0
-3435 1733 0
-3435 3434 0
-3436 1735 3422 3423 1740 1742 3426 3432 1749 1724 3435 0
3436 -1735 0
3436 -3422 0
3436 -3423 0
3436 -1740 0
3436 -1742 0
3436 -3426 0
3436 -3432 0
3436 -1749 0
3436 -1724 0
3436 -3435 0
3437 -1769 -3436 0
-3437 1769 0
-3437 3436 0
-3438 10 3437 0
3438 -10 0
3438 -3437 0
3439 -139 -3438 0
-3439 139 0
-3439 3438 0
-3440 1735 2006 1984 1740 1742 2199 2010 1749 1724 2014 0
3440 -1735 0
3440 -2006 0
3440 -1984 0
3440 -1740 0
3440 -1742 0
3440 -2199 0
3440 -2010 0
3440 -1749 0
3440 -1724 0
3440 -2014 0
3441 -2512 -3440 0
-3441 2512 0
-3441 3440 0
3442 -320 -2568 0
-3442 320 0
-3442 2568 0
-3443 1735 3381 1740 1742 1987 1749 1724 2211 0
3443 -1735 0
3443 -3381 0
3443 -1740 0
3443 -1742 0
3443 -1987 0
3443 -1749 0
3443 -1724 0
3443 -2211 0
3444 -1779 -3443 0
-3444 1779 0
-3444 3443 0
-3445 22 3444 0
3445 -22 0
3445 -3444 0
3446 -322 -3445 0
-3446 322 0
-3446 3445 0
-3447 468 3442 3446 509 0
3447 -468 0
3447 -3442 0
3447 -3446 0
3447 -509 0
3448 -474 -3447 0
-3448 474 0
-3448 3447 0
-3449 1735 2718 1740 1742 2869 1749 1724 2211 0
3449 -1735 0
3449 -2718 0
3449 -1740 0
3449 -1742 0
3449 -2869 0
3449 -1749 0
3449 -1724 0
3449 -2211 0
3450 -1769 -3449 0
-3450 1769 0
-3450 3449 0
-3451 10 3450 0
3451 -10 0
3451 -3450 0
3452 -9 -3451 0
-3452 9 0
-3452 3451 0
3453 -1779 -3449 0
-3453 1779 0
-3453 3449 0
-3454 22 3453 0
3454 -22 0
3454 -3453 0
3455 -21 -3454 0
-3455 21 0
-3455 3454 0
3456 -1783 -3449 0
-3456 1783 0
-3456 3449 0
-3457 25 3456 0
3457 -25 0
3457 -3456 0
3458 -24 -3457 0
-3458 24 0
-3458 3457 0
-3459 27 3455 3458 0
3459 -27 0
3459 -3455 0
3459 -3458 0
3460 -29 -3459 0
-3460 29 0
-3460 3459 0
-3461 31 3452 3460 0
3461 -31 0
3461 -3452 0
3461 -3460 0
3462 -119 -3461 0
-3462 119 0
-3462 3461 0
-3463 123 3448 3462 120 0
3463 -123 0
3463 -3448 0
3463 -3462 0
3463 -120 0
3464 -125 -3463 0
-3464 125 0
-3464 3463 0
-3465 1735 3404 3405 1740 1742 3408 1749 1724 2211 0
3465 -1735 0
3465 -3404 0
3465 -3405 0
3465 -1740 0
3465 -1742 0
3465 -3408 0
3465 -1749 0
3465 -1724 0
3465 -2211 0
3466 -1779 -3465 0
-3466 1779 0
-3466 3465 0
-3467 22 3466 0
3467 -22 0
3467 -3466 0
3468 -21 -3467 0
-3468 21 0
-3468 3467 0
3469 -1783 -3465 0
-3469 1783 0
-3469 3465 0
-3470 25 3469 0
3470 -25 0
3470 -3469 0
3471 -24 -3470 0
-3471 24 0
-3471 3470 0
-3472 27 3468 3471 0
3472 -27 0
3472 -3468 0
3472 -3471 0
3473 -129 -3472 0
-3473 129 0
-3473 3472 0
-3474 131 126 3473 0
3474 -131 0
3474 -126 0
3474 -3473 0
3475 -133 -3474 0
-3475 133 0
-3475 3474 0
-3476 135 3464 3475 0
3476 -135 0
3476 -3464 0
3476 -3475 0
3477 -141 -3476 0
-3477 141 0
-3477 3476 0
-3478 143 3441 3477 0
3478 -143 0
3478 -3441 0
3478 -3477 0
3479 -145 -3478 0
-3479 145 0
-3479 3478 0
-3480 147 3439 3479 0
3480 -147 0
3480 -3439 0
3480 -3479 0
3481 -149 -3480 0
-3481 149 0
-3481 3480 0
-3482 151 3379 3421 3481 0
3482 -151 0
3482 -3379 0
3482 -3421 0
3482 -3481 0
3483 -165 -3482 0
-3483 165 0
-3483 3482 0
3484 -1441 -1091 0
-3484 1441 0
-3484 1091 0
3485 -1645 -1096 0
-3485 1645 0
-3485 1096 0
3486 -1729 -1091 0
-3486 1729 0
-3486 1091 0
-3487 1731 3486 0
3487 -1731 0
3487 -3486 0
3488 -1733 -3487 0
-3488 1733 0
-3488 3487 0
-3489 1735 2006 1984 1742 2199 3484 3485 1749 1724 3488 0
3489 -1735 0
3489 -2006 0
3489 -1984 0
3489 -1742 0
3489 -2199 0
3489 -3484 0
3489 -3485 0
3489 -1749 0
3489 -1724 0
3489 -3488 0
3490 -2057 -3489 0
-3490 2057 0
-3490 3489 0
-3491 1735 1742 1987 2210 1749 1724 2211 0
3491 -1735 0
3491 -1742 0
3491 -1987 0
3491 -2210 0
3491 -1749 0
3491 -1724 0
3491 -2211 0
3492 -1769 -3491 0
-3492 1769 0
-3492 3491 0
-3493 10 3492 0
3493 -10 0
3493 -3492 0
3494 -9 -3493 0
-3494 9 0
-3494 3493 0
3495 -1779 -3491 0
-3495 1779 0
-3495 3491 0
-3496 22 3495 0
3496 -22 0
3496 -3495 0
3497 -21 -3496 0
-3497 21 0
-3497 3496 0
3498 -1783 -3491 0
-3498 1783 0
-3498 3491 0
-3499 25 3498 0
3499 -25 0
3499 -3498 0
3500 -24 -3499 0
-3500 24 0
-3500 3499 0
-3501 27 3497 3500 0
3501 -27 0
3501 -3497 0
3501 -3500 0
3502 -29 -3501 0
-3502 29 0
-3502 3501 0
-3503 31 3494 3502 0
3503 -31 0
3503 -3494 0
3503 -3502 0
3504 -320 -3503 0
-3504 320 0
-3504 3503 0
-3505 1735 3381 1742 1987 2210 1749 1724 2211 0
3505 -1735 0
3505 -3381 0
3505 -1742 0
3505 -1987 0
3505 -2210 0
3505 -1749 0
3505 -1724 0
3505 -2211 0
3506 -1779 -3505 0
-3506 1779 0
-3506 3505 0
-3507 22 3506 0
3507 -22 0
3507 -3506 0
3508 -322 -3507 0
-3508 322 0
-3508 3507 0
-3509 468 3504 3508 509 0
3509 -468 0
3509 -3504 0
3509 -3508 0
3509 -509 0
3510 -474 -3509 0
-3510 474 0
-3510 3509 0
-3511 1735 2718 1742 3426 2210 1749 1724 2211 0
3511 -1735 0
3511 -2718 0
3511 -1742 0
3511 -3426 0
3511 -2210 0
3511 -1749 0
3511 -1724 0
3511 -2211 0
3512 -1769 -3511 0
-3512 1769 0
-3512 3511 0
-3513 10 3512 0
3513 -10 0
3513 -3512 0
3514 -9 -3513 0
-3514 9 0
-3514 3513 0
-3515 1735 2718 1742 3408 2210 1749 1724 2211 0
3515 -1735 0
3515 -2718 0
3515 -1742 0
3515 -3408 0
3515 -2210 0
3515 -1749 0
3515 -1724 0
3515 -2211 0
3516 -1779 -3515 0
-3516 1779 0
-3516 3515 0
-3517 22 3516 0
3517 -22 0
3517 -3516 0
3518 -21 -3517 0
-3518 21 0
-3518 3517 0
3519 -1783 -3515 0
-3519 1783 0
-3519 3515 0
-3520 25 3519 0
3520 -25 0
3520 -3519 0
3521 -24 -3520 0
-3521 24 0
-3521 3520 0
-3522 27 3518 3521 0
3522 -27 0
3522 -3518 0
3522 -3521 0
3523 -29 -3522 0
-3523 29 0
-3523 3522 0
-3524 31 3514 3523 0
3524 -31 0
3524 -3514 0
3524 -3523 0
3525 -119 -3524 0
-3525 119 0
-3525 3524 0
-3526 123 3510 3525 0
3526 -123 0
3526 -3510 0
3526 -3525 0
3527 -125 -3526 0
-3527 125 0
-3527 3526 0
-3528 1735 3404 3405 1742 3408 2210 1749 1724 2211 0
3528 -1735 0
3528 -3404 0
3528 -3405 0
3528 -1742 0
3528 -3408 0
3528 -2210 0
3528 -1749 0
3528 -1724 0
3528 -2211 0
3529 -1779 -3528 0
-3529 1779 0
-3529 3528 0
-3530 22 3529 0
3530 -22 0
3530 -3529 0
3531 -21 -3530 0
-3531 21 0
-3531 3530 0
3532 -1783 -3528 0
-3532 1783 0
-3532 3528 0
-3533 25 3532 0
3533 -25 0
3533 -3532 0
3534 -24 -3533 0
-3534 24 0
-3534 3533 0
-3535 27 3531 3534 0
3535 -27 0
3535 -3531 0
3535 -3534 0
3536 -129 -3535 0
-3536 129 0
-3536 3535 0
-3537 131 3536 0
3537 -131 0
3537 -3536 0
3538 -133 -3537 0
-3538 133 0
-3538 3537 0
-3539 135 3527 3538 0
3539 -135 0
3539 -3527 0
3539 -3538 0
3540 -137 -3539 0
-3540 137 0
-3540 3539 0
-3541 123 3427 3428 0
3541 -123 0
3541 -3427 0
3541 -3428 0
3542 -125 -3541 0
-3542 125 0
-3542 3541 0
-3543 135 3542 168 0
3543 -135 0
3543 -3542 0
3543 -168 0
3544 -1441 -3543 0
-3544 1441 0
-3544 3543 0
3545 -1729 -3543 0
-3545 1729 0
-3545 3543 0
-3546 1731 3545 0
3546 -1731 0
3546 -3545 0
3547 -1733 -3546 0
-3547 1733 0
-3547 3546 0
-3548 1735 3422 3423 1742 3426 3544 1749 1724 3547 0
3548 -1735 0
3548 -3422 0
3548 -3423 0
3548 -1742 0
3548 -3426 0
3548 -3544 0
3548 -1749 0
3548 -1724 0
3548 -3547 0
3549 -1769 -3548 0
-3549 1769 0
-3549 3548 0
-3550 10 3549 0
3550 -10 0
3550 -3549 0
3551 -139 -3550 0
-3551 139 0
-3551 3550 0
-3552 1735 2006 1984 1742 2199 3484 1749 1724 3488 0
3552 -1735 0
3552 -2006 0
3552 -1984 0
3552 -1742 0
3552 -2199 0
3552 -3484 0
3552 -1749 0
3552 -1724 0
3552 -3488 0
3553 -2512 -3552 0
-3553 2512 0
-3553 3552 0
-3554 1735 1742 1987 1749 1724 2211 0
3554 -1735 0
3554 -1742 0
3554 -1987 0
3554 -1749 0
3554 -1724 0
3554 -2211 0
3555 -1769 -3554 0
-3555 1769 0
-3555 3554 0
-3556 10 3555 0
3556 -10 0
3556 -3555 0
3557 -9 -3556 0
-3557 9 0
-3557 3556 0
3558 -1779 -3554 0
-3558 1779 0
-3558 3554 0
-3559 22 3558 0
3559 -22 0
3559 -3558 0
3560 -21 -3559 0
-3560 21 0
-3560 3559 0
3561 -1783 -3554 0
-3561 1783 0
-3561 3554 0
-3562 25 3561 0
3562 -25 0
3562 -3561 0
3563 -24 -3562 0
-3563 24 0
-3563 3562 0
-3564 27 3560 3563 0
3564 -27 0
3564 -3560 0
3564 -3563 0
3565 -29 -3564 0
-3565 29 0
-3565 3564 0
-3566 31 3557 3565 0
3566 -31 0
3566 -3557 0
3566 -3565 0
3567 -320 -3566 0
-3567 320 0
-3567 3566 0
-3568 1735 3381 1742 1987 1749 1724 2211 0
3568 -1735 0
3568 -3381 0
3568 -1742 0
3568 -1987 0
3568 -1749 0
3568 -1724 0
3568 -2211 0
3569 -1779 -3568 0
-3569 1779 0
-3569 3568 0
-3570 22 3569 0
3570 -22 0
3570 -3569 0
3571 -322 -3570 0
-3571 322 0
-3571 3570 0
-3572 468 3567 3571 509 0
3572 -468 0
3572 -3567 0
3572 -3571 0
3572 -509 0
3573 -474 -3572 0
-3573 474 0
-3573 3572 0
-3574 1735 2718 1742 3426 1749 1724 2211 0
3574 -1735 0
3574 -2718 0
3574 -1742 0
3574 -3426 0
3574 -1749 0
3574 -1724 0
3574 -2211 0
3575 -1769 -3574 0
-3575 1769 0
-3575 3574 0
-3576 10 3575 0
3576 -10 0
3576 -3575 0
3577 -9 -3576 0
-3577 9 0
-3577 3576 0
-3578 1735 2718 1742 3408 1749 1724 2211 0
3578 -1735 0
3578 -2718 0
3578 -1742 0
3578 -3408 0
3578 -1749 0
3578 -1724 0
3578 -2211 0
3579 -1779 -3578 0
-3579 1779 0
-3579 3578 0
-3580 22 3579 0
3580 -22 0
3580 -3579 0
3581 -21 -3580 0
-3581 21 0
-3581 3580 0
3582 -1783 -3578 0
-3582 1783 0
-3582 3578 0
-3583 25 3582 0
3583 -25 0
3583 -3582 0
3584 -24 -3583 0
-3584 24 0
-3584 3583 0
-3585 27 3581 3584 0
3585 -27 0
3585 -3581 0
3585 -3584 0
3586 -29 -3585 0
-3586 29 0
-3586 3585 0
-3587 31 3577 3586 0
3587 -31 0
3587 -3577 0
3587 -3586 0
3588 -119 -3587 0
-3588 119 0
-3588 3587 0
-3589 123 3573 3588 0
3589 -123 0
3589 -3573 0
3589 -3588 0
3590 -125 -3589 0
-3590 125 0
-3590 3589 0
-3591 1735 3404 3405 1742 3408 1749 1724 2211 0
3591 -1735 0
3591 -3404 0
3591 -3405 0
3591 -1742 0
3591 -3408 0
3591 -1749 0
3591 -1724 0
3591 -2211 0
3592 -1779 -3591 0
-3592 1779 0
-3592 3591 0
-3593 22 3592 0
3593 -22 0
3593 -3592 0
3594 -21 -3593 0
-3594 21 0
-3594 3593 0
3595 -1783 -3591 0
-3595 1783 0
-3595 3591 0
-3596 25 3595 0
3596 -25 0
3596 -3595 0
3597 -24 -3596 0
-3597 24 0
-3597 3596 0
-3598 27 3594 3597 0
3598 -27 0
3598 -3594 0
3598 -3597 0
3599 -129 -3598 0
-3599 129 0
-3599 3598 0
-3600 131 3599 0
3600 -131 0
3600 -3599 0
3601 -133 -3600 0
-3601 133 0
-3601 3600 0
-3602 135 3590 3601 0
3602 -135 0
3602 -3590 0
3602 -3601 0
3603 -141 -3602 0
-3603 141 0
-3603 3602 0
-3604 143 3553 3603 0
3604 -143 0
3604 -3553 0
3604 -3603 0
3605 -145 -3604 0
-3605 145 0
-3605 3604 0
-3606 147 3551 3605 0
3606 -147 0
3606 -3551 0
3606 -3605 0
3607 -149 -3606 0
-3607 149 0
-3607 3606 0
-3608 151 3490 3540 3607 0
3608 -151 0
3608 -3490 0
3608 -3540 0
3608 -3607 0
3609 -178 -3608 0
-3609 178 0
-3609 3608 0
-3610 3 3609 0
3610 -3 0
3610 -3609 0
3611 -2 -3610 0
-3611 2 0
-3611 3610 0
-3612 5 3483 3611 0
3612 -5 0
3612 -3483 0
3612 -3611 0
3613 -7 -3612 0
-3613 7 0
-3613 3612 0
-3614 468 501 321 0
3614 -468 0
3614 -501 0
3614 -321 0
3615 -470 -3614 0
-3615 470 0
-3615 3614 0
3616 -165 -1113 0
-3616 165 0
-3616 1113 0
3617 -137 -3543 0
-3617 137 0
-3617 3543 0
3618 -141 -3543 0
-3618 141 0
-3618 3543 0
-3619 143 3618 0
3619 -143 0
3619 -3618 0
3620 -145 -3619 0
-3620 145 0
-3620 3619 0
-3621 147 138 3620 0
3621 -147 0
3621 -138 0
3621 -3620 0
3622 -149 -3621 0
-3622 149 0
-3622 3621 0
-3623 151 3617 3622 0
3623 -151 0
3623 -3617 0
3623 -3622 0
3624 -178 -3623 0
-3624 178 0
-3624 3623 0
-3625 3 3624 0
3625 -3 0
3625 -3624 0
3626 -2 -3625 0
-3626 2 0
-3626 3625 0
-3627 5 3616 3626 0
3627 -5 0
3627 -3616 0
3627 -3626 0
3628 -809 -3627 0
-3628 809 0
-3628 3627 0
3629 -852 -1113 0
-3629 852 0
-3629 1113 0
-3630 858 3629 853 855 0
3630 -858 0
3630 -3629 0
3630 -853 0
3630 -855 0
3631 -860 -3630 0
-3631 860 0
-3631 3630 0
3632 -1012 -3614 0
-3632 1012 0
-3632 3614 0
-3633 1208 3632 1985 0
3633 -1208 0
3633 -3632 0
3633 -1985 0
3634 -1210 -3633 0
-3634 1210 0
-3634 3633 0
-3635 468 1323 321 0
3635 -468 0
3635 -1323 0
3635 -321 0
3636 -474 -3635 0
-3636 474 0
-3636 3635 0
-3637 123 3636 3348 0
3637 -123 0
3637 -3636 0
3637 -3348 0
3638 -125 -3637 0
-3638 125 0
-3638 3637 0
-3639 135 3638 3354 0
3639 -135 0
3639 -3638 0
3639 -3354 0
3640 -1441 -3639 0
-3640 1441 0
-3640 3639 0
-3641 468 1550 321 0
3641 -468 0
3641 -1550 0
3641 -321 0
3642 -474 -3641 0
-3642 474 0
-3642 3641 0
-3643 123 3642 3361 0
3643 -123 0
3643 -3642 0
3643 -3361 0
3644 -125 -3643 0
-3644 125 0
-3644 3643 0
-3645 135 3644 3367 0
3645 -135 0
3645 -3644 0
3645 -3367 0
3646 -141 -3645 0
-3646 141 0
-3646 3645 0
-3647 143 3646 0
3647 -143 0
3647 -3646 0
3648 -145 -3647 0
-3648 145 0
-3648 3647 0
-3649 147 138 3648 0
3649 -147 0
3649 -138 0
3649 -3648 0
3650 -1645 -3649 0
-3650 1645 0
-3650 3649 0
3651 -1729 -3639 0
-3651 1729 0
-3651 3639 0
-3652 1731 3651 0
3652 -1731 0
3652 -3651 0
3653 -1733 -3652 0
-3653 1733 0
-3653 3652 0
-3654 1735 3615 3628 3631 3634 3640 3650 1724 3653 0
3654 -1735 0
3654 -3615 0
3654 -3628 0
3654 -3631 0
3654 -3634 0
3654 -3640 0
3654 -3650 0
3654 -1724 0
3654 -3653 0
3655 -1769 -3654 0
-3655 1769 0
-3655 3654 0
-3656 10 3655 0
3656 -10 0
3656 -3655 0
3657 -9 -3656 0
-3657 9 0
-3657 3656 0
-3658 1735 2718 1740 1742 2869 2726 2731 1749 1724 2871 0
3658 -1735 0
3658 -2718 0
3658 -1740 0
3658 -1742 0
3658 -2869 0
3658 -2726 0
3658 -2731 0
3658 -1749 0
3658 -1724 0
3658 -2871 0
3659 -2057 -3658 0
-3659 2057 0
-3659 3658 0
-3660 468 3006 509 0
3660 -468 0
3660 -3006 0
3660 -509 0
3661 -474 -3660 0
-3661 474 0
-3661 3660 0
-3662 123 3661 120 0
3662 -123 0
3662 -3661 0
3662 -120 0
3663 -125 -3662 0
-3663 125 0
-3663 3662 0
-3664 135 3663 303 0
3664 -135 0
3664 -3663 0
3664 -303 0
3665 -137 -3664 0
-3665 137 0
-3665 3664 0
-3666 1735 2718 1740 1742 2869 2726 1749 1724 2871 0
3666 -1735 0
3666 -2718 0
3666 -1740 0
3666 -1742 0
3666 -2869 0
3666 -2726 0
3666 -1749 0
3666 -1724 0
3666 -2871 0
3667 -1769 -3666 0
-3667 1769 0
-3667 3666 0
-3668 10 3667 0
3668 -10 0
3668 -3667 0
3669 -139 -3668 0
-3669 139 0
-3669 3668 0
3670 -2512 -3666 0
-3670 2512 0
-3670 3666 0
-3671 468 3151 509 0
3671 -468 0
3671 -3151 0
3671 -509 0
3672 -474 -3671 0
-3672 474 0
-3672 3671 0
-3673 123 3672 120 0
3673 -123 0
3673 -3672 0
3673 -120 0
3674 -125 -3673 0
-3674 125 0
-3674 3673 0
-3675 135 3674 303 0
3675 -135 0
3675 -3674 0
3675 -303 0
3676 -141 -3675 0
-3676 141 0
-3676 3675 0
-3677 143 3670 3676 0
3677 -143 0
3677 -3670 0
3677 -3676 0
3678 -145 -3677 0
-3678 145 0
-3678 3677 0
-3679 147 3669 3678 0
3679 -147 0
3679 -3669 0
3679 -3678 0
3680 -149 -3679 0
-3680 149 0
-3680 3679 0
-3681 151 3659 3665 3680 0
3681 -151 0
3681 -3659 0
3681 -3665 0
3681 -3680 0
3682 -301 -3681 0
-3682 301 0
-3682 3681 0
3683 -153 -398 0
-3683 153 0
-3683 398 0
-3684 468 3683 321 0
3684 -468 0
3684 -3683 0
3684 -321 0
3685 -470 -3684 0
-3685 470 0
-3685 3684 0
3686 -165 -1122 0
-3686 165 0
-3686 1122 0
-3687 123 511 0
3687 -123 0
3687 -511 0
3688 -125 -3687 0
-3688 125 0
-3688 3687 0
3689 -133 -131 0
-3689 133 0
-3689 131 0
-3690 135 3688 3689 0
3690 -135 0
3690 -3688 0
3690 -3689 0
3691 -137 -3690 0
-3691 137 0
-3691 3690 0
3692 -141 -3690 0
-3692 141 0
-3692 3690 0
-3693 143 3692 0
3693 -143 0
3693 -3692 0
3694 -145 -3693 0
-3694 145 0
-3694 3693 0
-3695 147 138 3694 0
3695 -147 0
3695 -138 0
3695 -3694 0
3696 -149 -3695 0
-3696 149 0
-3696 3695 0
-3697 151 3691 3696 0
3697 -151 0
3697 -3691 0
3697 -3696 0
3698 -178 -3697 0
-3698 178 0
-3698 3697 0
-3699 3 3698 0
3699 -3 0
3699 -3698 0
3700 -2 -3699 0
-3700 2 0
-3700 3699 0
-3701 5 3686 3700 0
3701 -5 0
3701 -3686 0
3701 -3700 0
3702 -809 -3701 0
-3702 809 0
-3702 3701 0
3703 -852 -1122 0
-3703 852 0
-3703 1122 0
-3704 858 3703 853 855 0
3704 -858 0
3704 -3703 0
3704 -853 0
3704 -855 0
3705 -860 -3704 0
-3705 860 0
-3705 3704 0
3706 -1012 -3684 0
-3706 1012 0
-3706 3684 0
-3707 1208 3706 1985 0
3707 -1208 0
3707 -3706 0
3707 -1985 0
3708 -1210 -3707 0
-3708 1210 0
-3708 3707 0
-3709 131 3351 0
3709 -131 0
3709 -3351 0
3710 -133 -3709 0
-3710 133 0
-3710 3709 0
-3711 135 3638 3710 0
3711 -135 0
3711 -3638 0
3711 -3710 0
3712 -1441 -3711 0
-3712 1441 0
-3712 3711 0
-3713 131 3364 0
3713 -131 0
3713 -3364 0
3714 -133 -3713 0
-3714 133 0
-3714 3713 0
-3715 135 3644 3714 0
3715 -135 0
3715 -3644 0
3715 -3714 0
3716 -141 -3715 0
-3716 141 0
-3716 3715 0
-3717 143 3716 0
3717 -143 0
3717 -3716 0
3718 -145 -3717 0
-3718 145 0
-3718 3717 0
-3719 147 138 3718 0
3719 -147 0
3719 -138 0
3719 -3718 0
3720 -1645 -3719 0
-3720 1645 0
-3720 3719 0
3721 -1729 -3711 0
-3721 1729 0
-3721 3711 0
-3722 1731 3721 0
3722 -1731 0
3722 -3721 0
3723 -1733 -3722 0
-3723 1733 0
-3723 3722 0
-3724 1735 3685 3702 3705 3708 3712 3720 1724 3723 0
3724 -1735 0
3724 -3685 0
3724 -3702 0
3724 -3705 0
3724 -3708 0
3724 -3712 0
3724 -3720 0
3724 -1724 0
3724 -3723 0
3725 -1779 -3724 0
-3725 1779 0
-3725 3724 0
-3726 22 3725 0
3726 -22 0
3726 -3725 0
3727 -21 -3726 0
-3727 21 0
-3727 3726 0
3728 -1783 -3724 0
-3728 1783 0
-3728 3724 0
-3729 1735 2718 1740 1742 2869 2748 2753 1749 1724 2881 0
3729 -1735 0
3729 -2718 0
3729 -1740 0
3729 -1742 0
3729 -2869 0
3729 -2748 0
3729 -2753 0
3729 -1749 0
3729 -1724 0
3729 -2881 0
3730 -2057 -3729 0
-3730 2057 0
-3730 3729 0
-3731 1735 2718 1740 1742 2869 2748 1749 1724 2881 0
3731 -1735 0
3731 -2718 0
3731 -1740 0
3731 -1742 0
3731 -2869 0
3731 -2748 0
3731 -1749 0
3731 -1724 0
3731 -2881 0
3732 -1769 -3731 0
-3732 1769 0
-3732 3731 0
-3733 10 3732 0
3733 -10 0
3733 -3732 0
3734 -139 -3733 0
-3734 139 0
-3734 3733 0
3735 -2512 -3731 0
-3735 2512 0
-3735 3731 0
-3736 143 3735 3676 0
3736 -143 0
3736 -3735 0
3736 -3676 0
3737 -145 -3736 0
-3737 145 0
-3737 3736 0
-3738 147 3734 3737 0
3738 -147 0
3738 -3734 0
3738 -3737 0
3739 -149 -3738 0
-3739 149 0
-3739 3738 0
-3740 151 3730 3665 3739 0
3740 -151 0
3740 -3730 0
3740 -3665 0
3740 -3739 0
3741 -313 -3740 0
-3741 313 0
-3741 3740 0
-3742 25 3728 3741 0
3742 -25 0
3742 -3728 0
3742 -3741 0
3743 -24 -3742 0
-3743 24 0
-3743 3742 0
-3744 27 3682 3727 3743 0
3744 -27 0
3744 -3682 0
3744 -3727 0
3744 -3743 0
3745 -29 -3744 0
-3745 29 0
-3745 3744 0
-3746 31 3657 3745 0
3746 -31 0
3746 -3657 0
3746 -3745 0
3747 -33 -3746 0
-3747 33 0
-3747 3746 0
3748 -2057 -1993 0
-3748 2057 0
-3748 1993 0
3749 -119 -2313 0
-3749 119 0
-3749 2313 0
-3750 123 3749 120 0
3750 -123 0
3750 -3749 0
3750 -120 0
3751 -125 -3750 0
-3751 125 0
-3751 3750 0
-3752 135 3751 3419 0
3752 -135 0
3752 -3751 0
3752 -3419 0
3753 -137 -3752 0
-3753 137 0
-3753 3752 0
-3754 1735 1984 1740 1742 1987 1988 1749 1724 1992 0
3754 -1735 0
3754 -1984 0
3754 -1740 0
3754 -1742 0
3754 -1987 0
3754 -1988 0
3754 -1749 0
3754 -1724 0
3754 -1992 0
3755 -2512 -3754 0
-3755 2512 0
-3755 3754 0
3756 -119 -2568 0
-3756 119 0
-3756 2568 0
-3757 123 3756 120 0
3757 -123 0
3757 -3756 0
3757 -120 0
3758 -125 -3757 0
-3758 125 0
-3758 3757 0
-3759 135 3758 3475 0
3759 -135 0
3759 -3758 0
3759 -3475 0
3760 -141 -3759 0
-3760 141 0
-3760 3759 0
-3761 143 3755 3760 0
3761 -143 0
3761 -3755 0
3761 -3760 0
3762 -145 -3761 0
-3762 145 0
-3762 3761 0
-3763 147 3439 3762 0
3763 -147 0
3763 -3439 0
3763 -3762 0
3764 -149 -3763 0
-3764 149 0
-3764 3763 0
-3765 151 3748 3753 3764 0
3765 -151 0
3765 -3748 0
3765 -3753 0
3765 -3764 0
3766 -153 -3765 0
-3766 153 0
-3766 3765 0
3767 -809 -181 0
-3767 809 0
-3767 181 0
3768 -852 -163 0
-3768 852 0
-3768 163 0
-3769 858 3768 853 855 0
3769 -858 0
3769 -3768 0
3769 -853 0
3769 -855 0
3770 -860 -3769 0
-3770 860 0
-3770 3769 0
-3771 123 3348 0
3771 -123 0
3771 -3348 0
3772 -125 -3771 0
-3772 125 0
-3772 3771 0
-3773 135 3772 3354 0
3773 -135 0
3773 -3772 0
3773 -3354 0
3774 -1441 -3773 0
-3774 1441 0
-3774 3773 0
-3775 123 3361 0
3775 -123 0
3775 -3361 0
3776 -125 -3775 0
-3776 125 0
-3776 3775 0
-3777 135 3776 3367 0
3777 -135 0
3777 -3776 0
3777 -3367 0
3778 -141 -3777 0
-3778 141 0
-3778 3777 0
-3779 143 3778 0
3779 -143 0
3779 -3778 0
3780 -145 -3779 0
-3780 145 0
-3780 3779 0
-3781 147 138 3780 0
3781 -147 0
3781 -138 0
3781 -3780 0
3782 -1645 -3781 0
-3782 1645 0
-3782 3781 0
3783 -1729 -3773 0
-3783 1729 0
-3783 3773 0
-3784 1731 3783 0
3784 -1731 0
3784 -3783 0
3785 -1733 -3784 0
-3785 1733 0
-3785 3784 0
-3786 1735 3767 3770 1987 3774 3782 1724 3785 0
3786 -1735 0
3786 -3767 0
3786 -3770 0
3786 -1987 0
3786 -3774 0
3786 -3782 0
3786 -1724 0
3786 -3785 0
3787 -1769 -3786 0
-3787 1769 0
-3787 3786 0
-3788 10 3787 0
3788 -10 0
3788 -3787 0
3789 -9 -3788 0
-3789 9 0
-3789 3788 0
-3790 1735 1740 1742 1987 1790 1791 1749 1724 1794 0
3790 -1735 0
3790 -1740 0
3790 -1742 0
3790 -1987 0
3790 -1790 0
3790 -1791 0
3790 -1749 0
3790 -1724 0
3790 -1794 0
3791 -2057 -3790 0
-3791 2057 0
-3791 3790 0
3792 -1769 -3790 0
-3792 1769 0
-3792 3790 0
-3793 10 3792 0
3793 -10 0
3793 -3792 0
3794 -139 -3793 0
-3794 139 0
-3794 3793 0
-3795 1735 1740 1742 1987 1790 1749 1724 1794 0
3795 -1735 0
3795 -1740 0
3795 -1742 0
3795 -1987 0
3795 -1790 0
3795 -1749 0
3795 -1724 0
3795 -1794 0
3796 -2512 -3795 0
-3796 2512 0
-3796 3795 0
-3797 143 3796 306 0
3797 -143 0
3797 -3796 0
3797 -306 0
3798 -145 -3797 0
-3798 145 0
-3798 3797 0
-3799 147 3794 3798 0
3799 -147 0
3799 -3794 0
3799 -3798 0
3800 -149 -3799 0
-3800 149 0
-3800 3799 0
-3801 151 3791 305 3800 0
3801 -151 0
3801 -3791 0
3801 -305 0
3801 -3800 0
3802 -301 -3801 0
-3802 301 0
-3802 3801 0
3803 -165 -398 0
-3803 165 0
-3803 398 0
-3804 135 166 3689 0
3804 -135 0
3804 -166 0
3804 -3689 0
3805 -137 -3804 0
-3805 137 0
-3805 3804 0
3806 -141 -3804 0
-3806 141 0
-3806 3804 0
-3807 143 3806 0
3807 -143 0
3807 -3806 0
3808 -145 -3807 0
-3808 145 0
-3808 3807 0
-3809 147 138 3808 0
3809 -147 0
3809 -138 0
3809 -3808 0
3810 -149 -3809 0
-3810 149 0
-3810 3809 0
-3811 151 3805 3810 0
3811 -151 0
3811 -3805 0
3811 -3810 0
3812 -178 -3811 0
-3812 178 0
-3812 3811 0
-3813 3 3812 0
3813 -3 0
3813 -3812 0
3814 -2 -3813 0
-3814 2 0
-3814 3813 0
-3815 5 3803 3814 0
3815 -5 0
3815 -3803 0
3815 -3814 0
3816 -809 -3815 0
-3816 809 0
-3816 3815 0
3817 -852 -398 0
-3817 852 0
-3817 398 0
-3818 858 3817 853 855 0
3818 -858 0
3818 -3817 0
3818 -853 0
3818 -855 0
3819 -860 -3818 0
-3819 860 0
-3819 3818 0
-3820 135 3772 3710 0
3820 -135 0
3820 -3772 0
3820 -3710 0
3821 -1441 -3820 0
-3821 1441 0
-3821 3820 0
-3822 135 3776 3714 0
3822 -135 0
3822 -3776 0
3822 -3714 0
3823 -141 -3822 0
-3823 141 0
-3823 3822 0
-3824 143 3823 0
3824 -143 0
3824 -3823 0
3825 -145 -3824 0
-3825 145 0
-3825 3824 0
-3826 147 138 3825 0
3826 -147 0
3826 -138 0
3826 -3825 0
3827 -1645 -3826 0
-3827 1645 0
-3827 3826 0
3828 -1729 -3820 0
-3828 1729 0
-3828 3820 0
-3829 1731 3828 0
3829 -1731 0
3829 -3828 0
3830 -1733 -3829 0
-3830 1733 0
-3830 3829 0
-3831 1735 3816 3819 1987 3821 3827 1724 3830 0
3831 -1735 0
3831 -3816 0
3831 -3819 0
3831 -1987 0
3831 -3821 0
3831 -3827 0
3831 -1724 0
3831 -3830 0
3832 -1779 -3831 0
-3832 1779 0
-3832 3831 0
-3833 22 3832 0
3833 -22 0
3833 -3832 0
3834 -21 -3833 0
-3834 21 0
-3834 3833 0
3835 -1783 -3831 0
-3835 1783 0
-3835 3831 0
-3836 1735 1740 1742 1987 1799 1800 1749 1724 1803 0
3836 -1735 0
3836 -1740 0
3836 -1742 0
3836 -1987 0
3836 -1799 0
3836 -1800 0
3836 -1749 0
3836 -1724 0
3836 -1803 0
3837 -2057 -3836 0
-3837 2057 0
-3837 3836 0
3838 -1769 -3836 0
-3838 1769 0
-3838 3836 0
-3839 10 3838 0
3839 -10 0
3839 -3838 0
3840 -139 -3839 0
-3840 139 0
-3840 3839 0
-3841 1735 1740 1742 1987 1799 1749 1724 1803 0
3841 -1735 0
3841 -1740 0
3841 -1742 0
3841 -1987 0
3841 -1799 0
3841 -1749 0
3841 -1724 0
3841 -1803 0
3842 -2512 -3841 0
-3842 2512 0
-3842 3841 0
-3843 143 3842 306 0
3843 -143 0
3843 -3842 0
3843 -306 0
3844 -145 -3843 0
-3844 145 0
-3844 3843 0
-3845 147 3840 3844 0
3845 -147 0
3845 -3840 0
3845 -3844 0
3846 -149 -3845 0
-3846 149 0
-3846 3845 0
-3847 151 3837 305 3846 0
3847 -151 0
3847 -3837 0
3847 -305 0
3847 -3846 0
3848 -313 -3847 0
-3848 313 0
-3848 3847 0
-3849 25 3835 3848 0
3849 -25 0
3849 -3835 0
3849 -3848 0
3850 -24 -3849 0
-3850 24 0
-3850 3849 0
-3851 27 3802 3834 3850 0
3851 -27 0
3851 -3802 0
3851 -3834 0
3851 -3850 0
3852 -29 -3851 0
-3852 29 0
-3852 3851 0
-3853 31 3789 3852 0
3853 -31 0
3853 -3789 0
3853 -3852 0
3854 -320 -3853 0
-3854 320 0
-3854 3853 0
3855 -301 -398 0
-3855 301 0
-3855 398 0
-3856 27 3855 401 0
3856 -27 0
3856 -3855 0
3856 -401 0
3857 -29 -3856 0
-3857 29 0
-3857 3856 0
-3858 31 8 3857 0
3858 -31 0
3858 -8 0
3858 -3857 0
3859 -670 -3858 0
-3859 670 0
-3859 3858 0
3860 -119 -2269 0
-3860 119 0
-3860 2269 0
-3861 123 3860 120 0
3861 -123 0
3861 -3860 0
3861 -120 0
3862 -125 -3861 0
-3862 125 0
-3862 3861 0
-3863 135 3862 1826 0
3863 -135 0
3863 -3862 0
3863 -1826 0
3864 -137 -3863 0
-3864 137 0
-3864 3863 0
3865 -141 -3863 0
-3865 141 0
-3865 3863 0
-3866 143 3865 0
3866 -143 0
3866 -3865 0
3867 -145 -3866 0
-3867 145 0
-3867 3866 0
-3868 147 138 3867 0
3868 -147 0
3868 -138 0
3868 -3867 0
3869 -149 -3868 0
-3869 149 0
-3869 3868 0
-3870 151 3864 3869 0
3870 -151 0
3870 -3864 0
3870 -3869 0
3871 -165 -3870 0
-3871 165 0
-3871 3870 0
-3872 123 3860 0
3872 -123 0
3872 -3860 0
3873 -125 -3872 0
-3873 125 0
-3873 3872 0
-3874 131 1824 0
3874 -131 0
3874 -1824 0
3875 -133 -3874 0
-3875 133 0
-3875 3874 0
-3876 135 3873 3875 0
3876 -135 0
3876 -3873 0
3876 -3875 0
3877 -137 -3876 0
-3877 137 0
-3877 3876 0
3878 -141 -3876 0
-3878 141 0
-3878 3876 0
-3879 143 3878 0
3879 -143 0
3879 -3878 0
3880 -145 -3879 0
-3880 145 0
-3880 3879 0
-3881 147 138 3880 0
3881 -147 0
3881 -138 0
3881 -3880 0
3882 -149 -3881 0
-3882 149 0
-3882 3881 0
-3883 151 3877 3882 0
3883 -151 0
3883 -3877 0
3883 -3882 0
3884 -178 -3883 0
-3884 178 0
-3884 3883 0
-3885 3 3884 0
3885 -3 0
3885 -3884 0
3886 -2 -3885 0
-3886 2 0
-3886 3885 0
-3887 5 3871 3886 0
3887 -5 0
3887 -3871 0
3887 -3886 0
3888 -809 -3887 0
-3888 809 0
-3888 3887 0
3889 -852 -3870 0
-3889 852 0
-3889 3870 0
-3890 858 3889 853 855 0
3890 -858 0
3890 -3889 0
3890 -853 0
3890 -855 0
3891 -860 -3890 0
-3891 860 0
-3891 3890 0
-3892 27 1292 1295 0
3892 -27 0
3892 -1292 0
3892 -1295 0
3893 -29 -3892 0
-3893 29 0
-3893 3892 0
-3894 31 8 3893 0
3894 -31 0
3894 -8 0
3894 -3893 0
3895 -119 -3894 0
-3895 119 0
-3895 3894 0
-3896 123 3895 3348 0
3896 -123 0
3896 -3895 0
3896 -3348 0
3897 -125 -3896 0
-3897 125 0
-3897 3896 0
3898 -129 -3892 0
-3898 129 0
-3898 3892 0
-3899 131 3351 3898 0
3899 -131 0
3899 -3351 0
3899 -3898 0
3900 -133 -3899 0
-3900 133 0
-3900 3899 0
-3901 135 3897 3900 0
3901 -135 0
3901 -3897 0
3901 -3900 0
3902 -1441 -3901 0
-3902 1441 0
-3902 3901 0
-3903 27 1519 1522 0
3903 -27 0
3903 -1519 0
3903 -1522 0
3904 -29 -3903 0
-3904 29 0
-3904 3903 0
-3905 31 8 3904 0
3905 -31 0
3905 -8 0
3905 -3904 0
3906 -119 -3905 0
-3906 119 0
-3906 3905 0
-3907 123 3906 3361 0
3907 -123 0
3907 -3906 0
3907 -3361 0
3908 -125 -3907 0
-3908 125 0
-3908 3907 0
3909 -129 -3903 0
-3909 129 0
-3909 3903 0
-3910 131 3364 3909 0
3910 -131 0
3910 -3364 0
3910 -3909 0
3911 -133 -3910 0
-3911 133 0
-3911 3910 0
-3912 135 3908 3911 0
3912 -135 0
3912 -3908 0
3912 -3911 0
3913 -141 -3912 0
-3913 141 0
-3913 3912 0
-3914 143 3913 0
3914 -143 0
3914 -3913 0
3915 -145 -3914 0
-3915 145 0
-3915 3914 0
-3916 147 138 3915 0
3916 -147 0
3916 -138 0
3916 -3915 0
3917 -1645 -3916 0
-3917 1645 0
-3917 3916 0
3918 -1729 -3901 0
-3918 1729 0
-3918 3901 0
-3919 1731 3918 0
3919 -1731 0
3919 -3918 0
3920 -1733 -3919 0
-3920 1733 0
-3920 3919 0
-3921 1735 3859 3888 3891 1987 3902 3917 1724 3920 0
3921 -1735 0
3921 -3859 0
3921 -3888 0
3921 -3891 0
3921 -1987 0
3921 -3902 0
3921 -3917 0
3921 -1724 0
3921 -3920 0
3922 -1779 -3921 0
-3922 1779 0
-3922 3921 0
-3923 22 3922 0
3923 -22 0
3923 -3922 0
3924 -322 -3923 0
-3924 322 0
-3924 3923 0
-3925 468 3766 3854 3924 0
3925 -468 0
3925 -3766 0
3925 -3854 0
3925 -3924 0
3926 -508 -3925 0
-3926 508 0
-3926 3925 0
-3927 41 3378 3613 3747 3926 211 0
3927 -41 0
3927 -3378 0
3927 -3613 0
3927 -3747 0
3927 -3926 0
3927 -211 0
3928 -43 -3927 0
-3928 43 0
-3928 3927 0
-3929 151 1656 374 379 0
3929 -151 0
3929 -1656 0
3929 -374 0
3929 -379 0
3930 -153 -3929 0
-3930 153 0
-3930 3929 0
3931 -301 -207 0
-3931 301 0
-3931 207 0
-3932 151 206 305 310 0
3932 -151 0
3932 -206 0
3932 -305 0
3932 -310 0
3933 -313 -3932 0
-3933 313 0
-3933 3932 0
-3934 25 3933 0
3934 -25 0
3934 -3933 0
3935 -24 -3934 0
-3935 24 0
-3935 3934 0
-3936 27 3931 20 3935 0
3936 -27 0
3936 -3931 0
3936 -20 0
3936 -3935 0
3937 -29 -3936 0
-3937 29 0
-3937 3936 0
-3938 31 8 3937 0
3938 -31 0
3938 -8 0
3938 -3937 0
3939 -320 -3938 0
-3939 320 0
-3939 3938 0
-3940 468 3930 3939 321 0
3940 -468 0
3940 -3930 0
3940 -3939 0
3940 -321 0
3941 -470 -3940 0
-3941 470 0
-3941 3940 0
-3942 151 1139 1081 1086 0
3942 -151 0
3942 -1139 0
3942 -1081 0
3942 -1086 0
3943 -165 -3942 0
-3943 165 0
-3943 3942 0
-3944 151 957 1092 1097 0
3944 -151 0
3944 -957 0
3944 -1092 0
3944 -1097 0
3945 -178 -3944 0
-3945 178 0
-3945 3944 0
-3946 3 3945 0
3946 -3 0
3946 -3945 0
3947 -2 -3946 0
-3947 2 0
-3947 3946 0
-3948 5 3943 3947 0
3948 -5 0
3948 -3943 0
3948 -3947 0
3949 -809 -3948 0
-3949 809 0
-3949 3948 0
3950 -852 -1657 0
-3950 852 0
-3950 1657 0
-3951 858 3950 853 855 0
3951 -858 0
3951 -3950 0
3951 -853 0
3951 -855 0
3952 -860 -3951 0
-3952 860 0
-3952 3951 0
3953 -1012 -3940 0
-3953 1012 0
-3953 3940 0
-3954 1208 3953 1985 0
3954 -1208 0
3954 -3953 0
3954 -1985 0
3955 -1210 -3954 0
-3955 1210 0
-3955 3954 0
-3956 151 1656 1213 0
3956 -151 0
3956 -1656 0
3956 -1213 0
3957 -153 -3956 0
-3957 153 0
-3957 3956 0
3958 -301 -1230 0
-3958 301 0
-3958 1230 0
3959 -313 -1230 0
-3959 313 0
-3959 1230 0
-3960 25 3959 0
3960 -25 0
3960 -3959 0
3961 -24 -3960 0
-3961 24 0
-3961 3960 0
-3962 27 3958 20 3961 0
3962 -27 0
3962 -3958 0
3962 -20 0
3962 -3961 0
3963 -29 -3962 0
-3963 29 0
-3963 3962 0
-3964 31 8 3963 0
3964 -31 0
3964 -8 0
3964 -3963 0
3965 -320 -3964 0
-3965 320 0
-3965 3964 0
-3966 468 3957 3965 321 0
3966 -468 0
3966 -3957 0
3966 -3965 0
3966 -321 0
3967 -474 -3966 0
-3967 474 0
-3967 3966 0
-3968 151 1139 1213 0
3968 -151 0
3968 -1139 0
3968 -1213 0
3969 -165 -3968 0
-3969 165 0
-3969 3968 0
3970 -178 -3968 0
-3970 178 0
-3970 3968 0
-3971 3 3970 0
3971 -3 0
3971 -3970 0
3972 -2 -3971 0
-3972 2 0
-3972 3971 0
-3973 5 3969 3972 0
3973 -5 0
3973 -3969 0
3973 -3972 0
3974 -121 -3973 0
-3974 121 0
-3974 3973 0
-3975 123 3967 3260 3974 0
3975 -123 0
3975 -3967 0
3975 -3260 0
3975 -3974 0
3976 -125 -3975 0
-3976 125 0
-3976 3975 0
3977 -127 -3973 0
-3977 127 0
-3977 3973 0
-3978 131 3977 3279 0
3978 -131 0
3978 -3977 0
3978 -3279 0
3979 -133 -3978 0
-3979 133 0
-3979 3978 0
-3980 135 3976 3979 0
3980 -135 0
3980 -3976 0
3980 -3979 0
3981 -1441 -3980 0
-3981 1441 0
-3981 3980 0
-3982 151 1656 0
3982 -151 0
3982 -1656 0
3983 -153 -3982 0
-3983 153 0
-3983 3982 0
3984 -301 -1457 0
-3984 301 0
-3984 1457 0
3985 -313 -1457 0
-3985 313 0
-3985 1457 0
-3986 25 3985 0
3986 -25 0
3986 -3985 0
3987 -24 -3986 0
-3987 24 0
-3987 3986 0
-3988 27 3984 20 3987 0
3988 -27 0
3988 -3984 0
3988 -20 0
3988 -3987 0
3989 -29 -3988 0
-3989 29 0
-3989 3988 0
-3990 31 8 3989 0
3990 -31 0
3990 -8 0
3990 -3989 0
3991 -320 -3990 0
-3991 320 0
-3991 3990 0
-3992 468 3983 3991 321 0
3992 -468 0
3992 -3983 0
3992 -3991 0
3992 -321 0
3993 -474 -3992 0
-3993 474 0
-3993 3992 0
-3994 151 1139 0
3994 -151 0
3994 -1139 0
3995 -165 -3994 0
-3995 165 0
-3995 3994 0
3996 -178 -3994 0
-3996 178 0
-3996 3994 0
-3997 3 3996 0
3997 -3 0
3997 -3996 0
3998 -2 -3997 0
-3998 2 0
-3998 3997 0
-3999 5 3995 3998 0
3999 -5 0
3999 -3995 0
3999 -3998 0
4000 -121 -3999 0
-4000 121 0
-4000 3999 0
-4001 123 3993 3304 4000 0
4001 -123 0
4001 -3993 0
4001 -3304 0
4001 -4000 0
4002 -125 -4001 0
-4002 125 0
-4002 4001 0
4003 -127 -3999 0
-4003 127 0
-4003 3999 0
-4004 131 4003 3321 0
4004 -131 0
4004 -4003 0
4004 -3321 0
4005 -133 -4004 0
-4005 133 0
-4005 4004 0
-4006 135 4002 4005 0
4006 -135 0
4006 -4002 0
4006 -4005 0
4007 -141 -4006 0
-4007 141 0
-4007 4006 0
-4008 143 4007 0
4008 -143 0
4008 -4007 0
4009 -145 -4008 0
-4009 145 0
-4009 4008 0
-4010 147 138 4009 0
4010 -147 0
4010 -138 0
4010 -4009 0
4011 -1645 -4010 0
-4011 1645 0
-4011 4010 0
4012 -1729 -3980 0
-4012 1729 0
-4012 3980 0
-4013 1731 4012 0
4013 -1731 0
4013 -4012 0
4014 -1733 -4013 0
-4014 1733 0
-4014 4013 0
-4015 1735 3941 3232 3949 3952 3955 3981 4011 1724 4014 0
4015 -1735 0
4015 -3941 0
4015 -3232 0
4015 -3949 0
4015 -3952 0
4015 -3955 0
4015 -3981 0
4015 -4011 0
4015 -1724 0
4015 -4014 0
4016 -1846 -4015 0
-4016 1846 0
-4016 4015 0
-4017 51 3928 4016 0
4017 -51 0
4017 -3928 0
4017 -4016 0
4018 -53 -4017 0
-4018 53 0
-4018 4017 0
4019 -1757 -2200 0
-4019 1757 0
-4019 2200 0
-4020 1735 2718 1740 1742 2721 2726 2731 1749 1724 2734 0
4020 -1735 0
4020 -2718 0
4020 -1740 0
4020 -1742 0
4020 -2721 0
4020 -2726 0
4020 -2731 0
4020 -1749 0
4020 -1724 0
4020 -2734 0
4021 -1769 -4020 0
-4021 1769 0
-4021 4020 0
-4022 10 4021 0
4022 -10 0
4022 -4021 0
4023 -9 -4022 0
-4023 9 0
-4023 4022 0
-4024 1735 2718 1740 1742 2721 2748 2753 1749 1724 2756 0
4024 -1735 0
4024 -2718 0
4024 -1740 0
4024 -1742 0
4024 -2721 0
4024 -2748 0
4024 -2753 0
4024 -1749 0
4024 -1724 0
4024 -2756 0
4025 -1779 -4024 0
-4025 1779 0
-4025 4024 0
-4026 22 4025 0
4026 -22 0
4026 -4025 0
4027 -21 -4026 0
-4027 21 0
-4027 4026 0
4028 -1783 -4024 0
-4028 1783 0
-4028 4024 0
-4029 25 4028 0
4029 -25 0
4029 -4028 0
4030 -24 -4029 0
-4030 24 0
-4030 4029 0
-4031 27 4027 4030 0
4031 -27 0
4031 -4027 0
4031 -4030 0
4032 -29 -4031 0
-4032 29 0
-4032 4031 0
-4033 31 4023 4032 0
4033 -31 0
4033 -4023 0
4033 -4032 0
4034 -33 -4033 0
-4034 33 0
-4034 4033 0
4035 -9 -3793 0
-4035 9 0
-4035 3793 0
4036 -1779 -3836 0
-4036 1779 0
-4036 3836 0
-4037 22 4036 0
4037 -22 0
4037 -4036 0
4038 -21 -4037 0
-4038 21 0
-4038 4037 0
4039 -1783 -3836 0
-4039 1783 0
-4039 3836 0
-4040 25 4039 0
4040 -25 0
4040 -4039 0
4041 -24 -4040 0
-4041 24 0
-4041 4040 0
-4042 27 4038 4041 0
4042 -27 0
4042 -4038 0
4042 -4041 0
4043 -29 -4042 0
-4043 29 0
-4043 4042 0
-4044 31 4035 4043 0
4044 -31 0
4044 -4035 0
4044 -4043 0
4045 -320 -4044 0
-4045 320 0
-4045 4044 0
4046 -1441 -3863 0
-4046 1441 0
-4046 3863 0
4047 -1645 -3868 0
-4047 1645 0
-4047 3868 0
4048 -1729 -3863 0
-4048 1729 0
-4048 3863 0
-4049 1731 4048 0
4049 -1731 0
4049 -4048 0
4050 -1733 -4049 0
-4050 1733 0
-4050 4049 0
-4051 1735 3381 1740 1742 1987 4046 4047 1749 1724 4050 0
4051 -1735 0
4051 -3381 0
4051 -1740 0
4051 -1742 0
4051 -1987 0
4051 -4046 0
4051 -4047 0
4051 -1749 0
4051 -1724 0
4051 -4050 0
4052 -1779 -4051 0
-4052 1779 0
-4052 4051 0
-4053 22 4052 0
4053 -22 0
4053 -4052 0
4054 -322 -4053 0
-4054 322 0
-4054 4053 0
-4055 468 4045 4054 509 0
4055 -468 0
4055 -4045 0
4055 -4054 0
4055 -509 0
4056 -508 -4055 0
-4056 508 0
-4056 4055 0
-4057 41 4019 4034 4056 38 0
4057 -41 0
4057 -4019 0
4057 -4034 0
4057 -4056 0
4057 -38 0
4058 -84 -4057 0
-4058 84 0
-4058 4057 0
4059 -1769 -3658 0
-4059 1769 0
-4059 3658 0
-4060 10 4059 0
4060 -10 0
4060 -4059 0
4061 -9 -4060 0
-4061 9 0
-4061 4060 0
4062 -1779 -3729 0
-4062 1779 0
-4062 3729 0
-4063 22 4062 0
4063 -22 0
4063 -4062 0
4064 -21 -4063 0
-4064 21 0
-4064 4063 0
4065 -1783 -3729 0
-4065 1783 0
-4065 3729 0
-4066 25 4065 0
4066 -25 0
4066 -4065 0
4067 -24 -4066 0
-4067 24 0
-4067 4066 0
-4068 27 4064 4067 0
4068 -27 0
4068 -4064 0
4068 -4067 0
4069 -29 -4068 0
-4069 29 0
-4069 4068 0
-4070 31 4061 4069 0
4070 -31 0
4070 -4061 0
4070 -4069 0
4071 -33 -4070 0
-4071 33 0
-4071 4070 0
-4072 41 4019 4071 4056 38 0
4072 -41 0
4072 -4019 0
4072 -4071 0
4072 -4056 0
4072 -38 0
4073 -43 -4072 0
-4073 43 0
-4073 4072 0
-4074 51 4073 2815 0
4074 -51 0
4074 -4073 0
4074 -2815 0
4075 -107 -4074 0
-4075 107 0
-4075 4074 0
4076 -29 -3416 0
-4076 29 0
-4076 3416 0
-4077 31 3514 4076 0
4077 -31 0
4077 -3514 0
4077 -4076 0
4078 -119 -4077 0
-4078 119 0
-4078 4077 0
-4079 123 3387 4078 120 0
4079 -123 0
4079 -3387 0
4079 -4078 0
4079 -120 0
4080 -125 -4079 0
-4080 125 0
-4080 4079 0
-4081 135 4080 3419 0
4081 -135 0
4081 -4080 0
4081 -3419 0
4082 -137 -4081 0
-4082 137 0
-4082 4081 0
4083 -29 -3472 0
-4083 29 0
-4083 3472 0
-4084 31 3577 4083 0
4084 -31 0
4084 -3577 0
4084 -4083 0
4085 -119 -4084 0
-4085 119 0
-4085 4084 0
-4086 123 3448 4085 120 0
4086 -123 0
4086 -3448 0
4086 -4085 0
4086 -120 0
4087 -125 -4086 0
-4087 125 0
-4087 4086 0
-4088 135 4087 3475 0
4088 -135 0
4088 -4087 0
4088 -3475 0
4089 -141 -4088 0
-4089 141 0
-4089 4088 0
-4090 143 3441 4089 0
4090 -143 0
4090 -3441 0
4090 -4089 0
4091 -145 -4090 0
-4091 145 0
-4091 4090 0
-4092 147 3439 4091 0
4092 -147 0
4092 -3439 0
4092 -4091 0
4093 -149 -4092 0
-4093 149 0
-4093 4092 0
-4094 151 4058 3379 4075 4082 4093 0
4094 -151 0
4094 -4058 0
4094 -3379 0
4094 -4075 0
4094 -4082 0
4094 -4093 0
4095 -165 -4094 0
-4095 165 0
-4095 4094 0
4096 -1757 -3489 0
-4096 1757 0
-4096 3489 0
4097 -1645 -3621 0
-4097 1645 0
-4097 3621 0
-4098 1735 2718 1742 3426 3544 4097 1749 1724 3547 0
4098 -1735 0
4098 -2718 0
4098 -1742 0
4098 -3426 0
4098 -3544 0
4098 -4097 0
4098 -1749 0
4098 -1724 0
4098 -3547 0
4099 -1769 -4098 0
-4099 1769 0
-4099 4098 0
-4100 10 4099 0
4100 -10 0
4100 -4099 0
4101 -9 -4100 0
-4101 9 0
-4101 4100 0
4102 -1441 -3690 0
-4102 1441 0
-4102 3690 0
4103 -1645 -3695 0
-4103 1645 0
-4103 3695 0
4104 -1729 -3690 0
-4104 1729 0
-4104 3690 0
-4105 1731 4104 0
4105 -1731 0
4105 -4104 0
4106 -1733 -4105 0
-4106 1733 0
-4106 4105 0
-4107 1735 2718 1742 3408 4102 4103 1749 1724 4106 0
4107 -1735 0
4107 -2718 0
4107 -1742 0
4107 -3408 0
4107 -4102 0
4107 -4103 0
4107 -1749 0
4107 -1724 0
4107 -4106 0
4108 -1779 -4107 0
-4108 1779 0
-4108 4107 0
-4109 22 4108 0
4109 -22 0
4109 -4108 0
4110 -21 -4109 0
-4110 21 0
-4110 4109 0
4111 -1783 -4107 0
-4111 1783 0
-4111 4107 0
-4112 25 4111 0
4112 -25 0
4112 -4111 0
4113 -24 -4112 0
-4113 24 0
-4113 4112 0
-4114 27 4110 4113 0
4114 -27 0
4114 -4110 0
4114 -4113 0
4115 -29 -4114 0
-4115 29 0
-4115 4114 0
-4116 31 4101 4115 0
4116 -31 0
4116 -4101 0
4116 -4115 0
4117 -33 -4116 0
-4117 33 0
-4117 4116 0
4118 -1441 -169 0
-4118 1441 0
-4118 169 0
4119 -1645 -174 0
-4119 1645 0
-4119 174 0
4120 -1729 -169 0
-4120 1729 0
-4120 169 0
-4121 1731 4120 0
4121 -1731 0
4121 -4120 0
4122 -1733 -4121 0
-4122 1733 0
-4122 4121 0
-4123 1735 1742 1987 4118 4119 1749 1724 4122 0
4123 -1735 0
4123 -1742 0
4123 -1987 0
4123 -4118 0
4123 -4119 0
4123 -1749 0
4123 -1724 0
4123 -4122 0
4124 -1769 -4123 0
-4124 1769 0
-4124 4123 0
-4125 10 4124 0
4125 -10 0
4125 -4124 0
4126 -9 -4125 0
-4126 9 0
-4126 4125 0
4127 -1441 -3804 0
-4127 1441 0
-4127 3804 0
4128 -1645 -3809 0
-4128 1645 0
-4128 3809 0
4129 -1729 -3804 0
-4129 1729 0
-4129 3804 0
-4130 1731 4129 0
4130 -1731 0
4130 -4129 0
4131 -1733 -4130 0
-4131 1733 0
-4131 4130 0
-4132 1735 1742 1987 4127 4128 1749 1724 4131 0
4132 -1735 0
4132 -1742 0
4132 -1987 0
4132 -4127 0
4132 -4128 0
4132 -1749 0
4132 -1724 0
4132 -4131 0
4133 -1779 -4132 0
-4133 1779 0
-4133 4132 0
-4134 22 4133 0
4134 -22 0
4134 -4133 0
4135 -21 -4134 0
-4135 21 0
-4135 4134 0
4136 -1783 -4132 0
-4136 1783 0
-4136 4132 0
-4137 25 4136 0
4137 -25 0
4137 -4136 0
4138 -24 -4137 0
-4138 24 0
-4138 4137 0
-4139 27 4135 4138 0
4139 -27 0
4139 -4135 0
4139 -4138 0
4140 -29 -4139 0
-4140 29 0
-4140 4139 0
-4141 31 4126 4140 0
4141 -31 0
4141 -4126 0
4141 -4140 0
4142 -320 -4141 0
-4142 320 0
-4142 4141 0
4143 -1441 -3876 0
-4143 1441 0
-4143 3876 0
4144 -1645 -3881 0
-4144 1645 0
-4144 3881 0
4145 -1729 -3876 0
-4145 1729 0
-4145 3876 0
-4146 1731 4145 0
4146 -1731 0
4146 -4145 0
4147 -1733 -4146 0
-4147 1733 0
-4147 4146 0
-4148 1735 3381 1742 1987 4143 4144 1749 1724 4147 0
4148 -1735 0
4148 -3381 0
4148 -1742 0
4148 -1987 0
4148 -4143 0
4148 -4144 0
4148 -1749 0
4148 -1724 0
4148 -4147 0
4149 -1779 -4148 0
-4149 1779 0
-4149 4148 0
-4150 22 4149 0
4150 -22 0
4150 -4149 0
4151 -322 -4150 0
-4151 322 0
-4151 4150 0
-4152 468 4142 4151 509 0
4152 -468 0
4152 -4142 0
4152 -4151 0
4152 -509 0
4153 -508 -4152 0
-4153 508 0
-4153 4152 0
-4154 41 4096 210 4117 4153 38 0
4154 -41 0
4154 -4096 0
4154 -210 0
4154 -4117 0
4154 -4153 0
4154 -38 0
4155 -84 -4154 0
-4155 84 0
-4155 4154 0
4156 -43 -4154 0
-4156 43 0
-4156 4154 0
4157 -1846 -3489 0
-4157 1846 0
-4157 3489 0
-4158 51 4156 4157 0
4158 -51 0
4158 -4156 0
4158 -4157 0
4159 -107 -4158 0
-4159 107 0
-4159 4158 0
-4160 151 4155 3490 4159 3540 3607 0
4160 -151 0
4160 -4155 0
4160 -3490 0
4160 -4159 0
4160 -3540 0
4160 -3607 0
4161 -178 -4160 0
-4161 178 0
-4161 4160 0
-4162 3 4161 0
4162 -3 0
4162 -4161 0
4163 -2 -4162 0
-4163 2 0
-4163 4162 0
-4164 5 4095 4163 0
4164 -5 0
4164 -4095 0
4164 -4163 0
4165 -55 -4164 0
-4165 55 0
-4165 4164 0
-4166 63 3334 4018 4165 0
4166 -63 0
4166 -3334 0
4166 -4018 0
4166 -4165 0
4167 -74 -4166 0
-4167 74 0
-4167 4166 0
4168 -809 -5 0
-4168 809 0
-4168 5 0
4169 -1441 -935 0
-4169 1441 0
-4169 935 0
4170 -1645 -940 0
-4170 1645 0
-4170 940 0
4171 -1729 -935 0
-4171 1729 0
-4171 935 0
-4172 1731 4171 0
4172 -1731 0
4172 -4171 0
4173 -1733 -4172 0
-4173 1733 0
-4173 4172 0
-4174 1735 2006 1984 4168 1742 2199 4169 4170 1724 4173 0
4174 -1735 0
4174 -2006 0
4174 -1984 0
4174 -4168 0
4174 -1742 0
4174 -2199 0
4174 -4169 0
4174 -4170 0
4174 -1724 0
4174 -4173 0
4175 -1755 -4174 0
-4175 1755 0
-4175 4174 0
4176 -1757 -4174 0
-4176 1757 0
-4176 4174 0
4177 -1441 -514 0
-4177 1441 0
-4177 514 0
4178 -1645 -519 0
-4178 1645 0
-4178 519 0
4179 -1729 -514 0
-4179 1729 0
-4179 514 0
-4180 1731 4179 0
4180 -1731 0
4180 -4179 0
4181 -1733 -4180 0
-4181 1733 0
-4181 4180 0
-4182 1735 2718 4168 1742 3426 4177 4178 1724 4181 0
4182 -1735 0
4182 -2718 0
4182 -4168 0
4182 -1742 0
4182 -3426 0
4182 -4177 0
4182 -4178 0
4182 -1724 0
4182 -4181 0
4183 -1769 -4182 0
-4183 1769 0
-4183 4182 0
-4184 10 4183 0
4184 -10 0
4184 -4183 0
4185 -9 -4184 0
-4185 9 0
-4185 4184 0
-4186 131 186 0
4186 -131 0
4186 -186 0
4187 -133 -4186 0
-4187 133 0
-4187 4186 0
-4188 135 513 4187 0
4188 -135 0
4188 -513 0
4188 -4187 0
4189 -1441 -4188 0
-4189 1441 0
-4189 4188 0
4190 -141 -4188 0
-4190 141 0
-4190 4188 0
-4191 143 4190 0
4191 -143 0
4191 -4190 0
4192 -145 -4191 0
-4192 145 0
-4192 4191 0
-4193 147 138 4192 0
4193 -147 0
4193 -138 0
4193 -4192 0
4194 -1645 -4193 0
-4194 1645 0
-4194 4193 0
4195 -1729 -4188 0
-4195 1729 0
-4195 4188 0
-4196 1731 4195 0
4196 -1731 0
4196 -4195 0
4197 -1733 -4196 0
-4197 1733 0
-4197 4196 0
-4198 1735 2718 4168 1742 3408 4189 4194 1724 4197 0
4198 -1735 0
4198 -2718 0
4198 -4168 0
4198 -1742 0
4198 -3408 0
4198 -4189 0
4198 -4194 0
4198 -1724 0
4198 -4197 0
4199 -1779 -4198 0
-4199 1779 0
-4199 4198 0
-4200 22 4199 0
4200 -22 0
4200 -4199 0
4201 -21 -4200 0
-4201 21 0
-4201 4200 0
4202 -1783 -4198 0
-4202 1783 0
-4202 4198 0
-4203 25 4202 0
4203 -25 0
4203 -4202 0
4204 -24 -4203 0
-4204 24 0
-4204 4203 0
-4205 27 4201 4204 0
4205 -27 0
4205 -4201 0
4205 -4204 0
4206 -29 -4205 0
-4206 29 0
-4206 4205 0
-4207 31 4185 4206 0
4207 -31 0
4207 -4185 0
4207 -4206 0
4208 -33 -4207 0
-4208 33 0
-4208 4207 0
4209 -1441 -189 0
-4209 1441 0
-4209 189 0
4210 -1645 -194 0
-4210 1645 0
-4210 194 0
4211 -1729 -189 0
-4211 1729 0
-4211 189 0
-4212 1731 4211 0
4212 -1731 0
4212 -4211 0
4213 -1733 -4212 0
-4213 1733 0
-4213 4212 0
-4214 1735 4168 1742 1987 4209 4210 1724 4213 0
4214 -1735 0
4214 -4168 0
4214 -1742 0
4214 -1987 0
4214 -4209 0
4214 -4210 0
4214 -1724 0
4214 -4213 0
4215 -1769 -4214 0
-4215 1769 0
-4215 4214 0
-4216 10 4215 0
4216 -10 0
4216 -4215 0
4217 -9 -4216 0
-4217 9 0
-4217 4216 0
-4218 135 185 4187 0
4218 -135 0
4218 -185 0
4218 -4187 0
4219 -1441 -4218 0
-4219 1441 0
-4219 4218 0
4220 -141 -4218 0
-4220 141 0
-4220 4218 0
-4221 143 4220 0
4221 -143 0
4221 -4220 0
4222 -145 -4221 0
-4222 145 0
-4222 4221 0
-4223 147 138 4222 0
4223 -147 0
4223 -138 0
4223 -4222 0
4224 -1645 -4223 0
-4224 1645 0
-4224 4223 0
4225 -1729 -4218 0
-4225 1729 0
-4225 4218 0
-4226 1731 4225 0
4226 -1731 0
4226 -4225 0
4227 -1733 -4226 0
-4227 1733 0
-4227 4226 0
-4228 1735 4168 1742 1987 4219 4224 1724 4227 0
4228 -1735 0
4228 -4168 0
4228 -1742 0
4228 -1987 0
4228 -4219 0
4228 -4224 0
4228 -1724 0
4228 -4227 0
4229 -1779 -4228 0
-4229 1779 0
-4229 4228 0
-4230 22 4229 0
4230 -22 0
4230 -4229 0
4231 -21 -4230 0
-4231 21 0
-4231 4230 0
4232 -1783 -4228 0
-4232 1783 0
-4232 4228 0
-4233 25 4232 0
4233 -25 0
4233 -4232 0
4234 -24 -4233 0
-4234 24 0
-4234 4233 0
-4235 27 4231 4234 0
4235 -27 0
4235 -4231 0
4235 -4234 0
4236 -29 -4235 0
-4236 29 0
-4236 4235 0
-4237 31 4217 4236 0
4237 -31 0
4237 -4217 0
4237 -4236 0
4238 -320 -4237 0
-4238 320 0
-4238 4237 0
-4239 123 3860 183 0
4239 -123 0
4239 -3860 0
4239 -183 0
4240 -125 -4239 0
-4240 125 0
-4240 4239 0
-4241 131 186 1824 0
4241 -131 0
4241 -186 0
4241 -1824 0
4242 -133 -4241 0
-4242 133 0
-4242 4241 0
-4243 135 4240 4242 0
4243 -135 0
4243 -4240 0
4243 -4242 0
4244 -1441 -4243 0
-4244 1441 0
-4244 4243 0
4245 -141 -4243 0
-4245 141 0
-4245 4243 0
-4246 143 4245 0
4246 -143 0
4246 -4245 0
4247 -145 -4246 0
-4247 145 0
-4247 4246 0
-4248 147 138 4247 0
4248 -147 0
4248 -138 0
4248 -4247 0
4249 -1645 -4248 0
-4249 1645 0
-4249 4248 0
4250 -1729 -4243 0
-4250 1729 0
-4250 4243 0
-4251 1731 4250 0
4251 -1731 0
4251 -4250 0
4252 -1733 -4251 0
-4252 1733 0
-4252 4251 0
-4253 1735 3381 4168 1742 1987 4244 4249 1724 4252 0
4253 -1735 0
4253 -3381 0
4253 -4168 0
4253 -1742 0
4253 -1987 0
4253 -4244 0
4253 -4249 0
4253 -1724 0
4253 -4252 0
4254 -1779 -4253 0
-4254 1779 0
-4254 4253 0
-4255 22 4254 0
4255 -22 0
4255 -4254 0
4256 -322 -4255 0
-4256 322 0
-4256 4255 0
-4257 468 4238 4256 509 0
4257 -468 0
4257 -4238 0
4257 -4256 0
4257 -509 0
4258 -508 -4257 0
-4258 508 0
-4258 4257 0
-4259 41 4176 210 4208 4258 211 0
4259 -41 0
4259 -4176 0
4259 -210 0
4259 -4208 0
4259 -4258 0
4259 -211 0
4260 -43 -4259 0
-4260 43 0
-4260 4259 0
4261 -1846 -4174 0
-4261 1846 0
-4261 4174 0
-4262 51 4260 4261 0
4262 -51 0
4262 -4260 0
4262 -4261 0
4263 -53 -4262 0
-4263 53 0
-4263 4262 0
-4264 63 4175 4263 271 0
4264 -63 0
4264 -4175 0
4264 -4263 0
4264 -271 0
4265 -65 -4264 0
-4265 65 0
-4265 4264 0
-4266 51 4261 0
4266 -51 0
4266 -4261 0
4267 -53 -4266 0
-4267 53 0
-4267 4266 0
-4268 63 4175 4267 271 0
4268 -63 0
4268 -4175 0
4268 -4267 0
4268 -271 0
4269 -70 -4268 0
-4269 70 0
-4269 4268 0
4270 -470 -1164 0
-4270 470 0
-4270 1164 0
4271 -670 -1162 0
-4271 670 0
-4271 1162 0
4272 -997 -1154 0
-4272 997 0
-4272 1154 0
4273 -1012 -1164 0
-4273 1012 0
-4273 1164 0
-4274 1208 4272 4273 1985 0
4274 -1208 0
4274 -4272 0
4274 -4273 0
4274 -1985 0
4275 -1210 -4274 0
-4275 1210 0
-4275 4274 0
4276 -474 -1164 0
-4276 474 0
-4276 1164 0
4277 -119 -1162 0
-4277 119 0
-4277 1162 0
-4278 123 4276 4277 183 0
4278 -123 0
4278 -4276 0
4278 -4277 0
4278 -183 0
4279 -125 -4278 0
-4279 125 0
-4279 4278 0
-4280 135 4279 188 0
4280 -135 0
4280 -4279 0
4280 -188 0
4281 -1441 -4280 0
-4281 1441 0
-4281 4280 0
4282 -141 -4280 0
-4282 141 0
-4282 4280 0
-4283 143 4282 0
4283 -143 0
4283 -4282 0
4284 -145 -4283 0
-4284 145 0
-4284 4283 0
-4285 147 138 4284 0
4285 -147 0
4285 -138 0
4285 -4284 0
4286 -1645 -4285 0
-4286 1645 0
-4286 4285 0
4287 -1727 -1154 0
-4287 1727 0
-4287 1154 0
4288 -1729 -4280 0
-4288 1729 0
-4288 4280 0
-4289 1731 4287 4288 0
4289 -1731 0
4289 -4287 0
4289 -4288 0
4290 -1733 -4289 0
-4290 1733 0
-4290 4289 0
-4291 1735 4270 4271 4168 1742 4275 4281 4286 1724 4290 0
4291 -1735 0
4291 -4270 0
4291 -4271 0
4291 -4168 0
4291 -1742 0
4291 -4275 0
4291 -4281 0
4291 -4286 0
4291 -1724 0
4291 -4290 0
4292 -1757 -4291 0
-4292 1757 0
-4292 4291 0
-4293 1735 2006 4168 1742 2199 4177 4178 1724 4181 0
4293 -1735 0
4293 -2006 0
4293 -4168 0
4293 -1742 0
4293 -2199 0
4293 -4177 0
4293 -4178 0
4293 -1724 0
4293 -4181 0
4294 -1755 -4293 0
-4294 1755 0
-4294 4293 0
4295 -1846 -4293 0
-4295 1846 0
-4295 4293 0
-4296 51 4295 0
4296 -51 0
4296 -4295 0
4297 -53 -4296 0
-4297 53 0
-4297 4296 0
-4298 63 4294 4297 271 0
4298 -63 0
4298 -4294 0
4298 -4297 0
4298 -271 0
4299 -72 -4298 0
-4299 72 0
-4299 4298 0
4300 -997 -1160 0
-4300 997 0
-4300 1160 0
-4301 1208 4300 2719 1985 0
4301 -1208 0
4301 -4300 0
4301 -2719 0
4301 -1985 0
4302 -1210 -4301 0
-4302 1210 0
-4302 4301 0
4303 -1727 -1160 0
-4303 1727 0
-4303 1160 0
-4304 1731 4303 4179 0
4304 -1731 0
4304 -4303 0
4304 -4179 0
4305 -1733 -4304 0
-4305 1733 0
-4305 4304 0
-4306 1735 2718 4168 1742 4302 4177 4178 1724 4305 0
4306 -1735 0
4306 -2718 0
4306 -4168 0
4306 -1742 0
4306 -4302 0
4306 -4177 0
4306 -4178 0
4306 -1724 0
4306 -4305 0
4307 -1769 -4306 0
-4307 1769 0
-4307 4306 0
-4308 10 4307 0
4308 -10 0
4308 -4307 0
4309 -9 -4308 0
-4309 9 0
-4309 4308 0
-4310 1731 4303 4195 0
4310 -1731 0
4310 -4303 0
4310 -4195 0
4311 -1733 -4310 0
-4311 1733 0
-4311 4310 0
-4312 1735 2718 4168 1742 4302 4189 4194 1724 4311 0
4312 -1735 0
4312 -2718 0
4312 -4168 0
4312 -1742 0
4312 -4302 0
4312 -4189 0
4312 -4194 0
4312 -1724 0
4312 -4311 0
4313 -1779 -4312 0
-4313 1779 0
-4313 4312 0
-4314 22 4313 0
4314 -22 0
4314 -4313 0
4315 -21 -4314 0
-4315 21 0
-4315 4314 0
4316 -1783 -4312 0
-4316 1783 0
-4316 4312 0
-4317 25 4316 0
4317 -25 0
4317 -4316 0
4318 -24 -4317 0
-4318 24 0
-4318 4317 0
-4319 27 4315 4318 0
4319 -27 0
4319 -4315 0
4319 -4318 0
4320 -29 -4319 0
-4320 29 0
-4320 4319 0
-4321 31 4299 4309 4320 0
4321 -31 0
4321 -4299 0
4321 -4309 0
4321 -4320 0
4322 -33 -4321 0
-4322 33 0
-4322 4321 0
4323 -1755 -4214 0
-4323 1755 0
-4323 4214 0
4324 -1846 -4214 0
-4324 1846 0
-4324 4214 0
-4325 51 4324 0
4325 -51 0
4325 -4324 0
4326 -53 -4325 0
-4326 53 0
-4326 4325 0
-4327 63 4323 4326 271 0
4327 -63 0
4327 -4323 0
4327 -4326 0
4327 -271 0
4328 -72 -4327 0
-4328 72 0
-4328 4327 0
-4329 1731 4303 4211 0
4329 -1731 0
4329 -4303 0
4329 -4211 0
4330 -1733 -4329 0
-4330 1733 0
-4330 4329 0
-4331 1735 4168 1742 4302 4209 4210 1724 4330 0
4331 -1735 0
4331 -4168 0
4331 -1742 0
4331 -4302 0
4331 -4209 0
4331 -4210 0
4331 -1724 0
4331 -4330 0
4332 -1769 -4331 0
-4332 1769 0
-4332 4331 0
-4333 10 4332 0
4333 -10 0
4333 -4332 0
4334 -9 -4333 0
-4334 9 0
-4334 4333 0
-4335 1731 4303 4225 0
4335 -1731 0
4335 -4303 0
4335 -4225 0
4336 -1733 -4335 0
-4336 1733 0
-4336 4335 0
-4337 1735 4168 1742 4302 4219 4224 1724 4336 0
4337 -1735 0
4337 -4168 0
4337 -1742 0
4337 -4302 0
4337 -4219 0
4337 -4224 0
4337 -1724 0
4337 -4336 0
4338 -1779 -4337 0
-4338 1779 0
-4338 4337 0
-4339 22 4338 0
4339 -22 0
4339 -4338 0
4340 -21 -4339 0
-4340 21 0
-4340 4339 0
4341 -1783 -4337 0
-4341 1783 0
-4341 4337 0
-4342 25 4341 0
4342 -25 0
4342 -4341 0
4343 -24 -4342 0
-4343 24 0
-4343 4342 0
-4344 27 4340 4343 0
4344 -27 0
4344 -4340 0
4344 -4343 0
4345 -29 -4344 0
-4345 29 0
-4345 4344 0
-4346 31 4328 4334 4345 0
4346 -31 0
4346 -4328 0
4346 -4334 0
4346 -4345 0
4347 -320 -4346 0
-4347 320 0
-4347 4346 0
-4348 31 1161 8 1816 0
4348 -31 0
4348 -1161 0
4348 -8 0
4348 -1816 0
4349 -670 -4348 0
-4349 670 0
-4349 4348 0
-4350 1208 4300 1985 0
4350 -1208 0
4350 -4300 0
4350 -1985 0
4351 -1210 -4350 0
-4351 1210 0
-4351 4350 0
4352 -119 -4348 0
-4352 119 0
-4352 4348 0
-4353 123 4352 183 0
4353 -123 0
4353 -4352 0
4353 -183 0
4354 -125 -4353 0
-4354 125 0
-4354 4353 0
-4355 135 4354 4242 0
4355 -135 0
4355 -4354 0
4355 -4242 0
4356 -1441 -4355 0
-4356 1441 0
-4356 4355 0
4357 -141 -4355 0
-4357 141 0
-4357 4355 0
-4358 143 4357 0
4358 -143 0
4358 -4357 0
4359 -145 -4358 0
-4359 145 0
-4359 4358 0
-4360 147 138 4359 0
4360 -147 0
4360 -138 0
4360 -4359 0
4361 -1645 -4360 0
-4361 1645 0
-4361 4360 0
4362 -1729 -4355 0
-4362 1729 0
-4362 4355 0
-4363 1731 4303 4362 0
4363 -1731 0
4363 -4303 0
4363 -4362 0
4364 -1733 -4363 0
-4364 1733 0
-4364 4363 0
-4365 1735 4349 4168 1742 4351 4356 4361 1724 4364 0
4365 -1735 0
4365 -4349 0
4365 -4168 0
4365 -1742 0
4365 -4351 0
4365 -4356 0
4365 -4361 0
4365 -1724 0
4365 -4364 0
4366 -1779 -4365 0
-4366 1779 0
-4366 4365 0
-4367 22 4366 0
4367 -22 0
4367 -4366 0
4368 -322 -4367 0
-4368 322 0
-4368 4367 0
-4369 468 4347 4368 509 0
4369 -468 0
4369 -4347 0
4369 -4368 0
4369 -509 0
4370 -508 -4369 0
-4370 508 0
-4370 4369 0
-4371 41 4269 4292 210 4322 4370 211 0
4371 -41 0
4371 -4269 0
4371 -4292 0
4371 -210 0
4371 -4322 0
4371 -4370 0
4371 -211 0
4372 -84 -4371 0
-4372 84 0
-4372 4371 0
4373 -470 -1184 0
-4373 470 0
-4373 1184 0
4374 -670 -1158 0
-4374 670 0
-4374 1158 0
4375 -1012 -1184 0
-4375 1012 0
-4375 1184 0
-4376 1208 4272 4375 1985 0
4376 -1208 0
4376 -4272 0
4376 -4375 0
4376 -1985 0
4377 -1210 -4376 0
-4377 1210 0
-4377 4376 0
4378 -1441 -1189 0
-4378 1441 0
-4378 1189 0
4379 -1645 -1194 0
-4379 1645 0
-4379 1194 0
4380 -1729 -1189 0
-4380 1729 0
-4380 1189 0
-4381 1731 4287 4380 0
4381 -1731 0
4381 -4287 0
4381 -4380 0
4382 -1733 -4381 0
-4382 1733 0
-4382 4381 0
-4383 1735 4373 4374 4168 1742 4377 4378 4379 1724 4382 0
4383 -1735 0
4383 -4373 0
4383 -4374 0
4383 -4168 0
4383 -1742 0
4383 -4377 0
4383 -4378 0
4383 -4379 0
4383 -1724 0
4383 -4382 0
4384 -2057 -4383 0
-4384 2057 0
-4384 4383 0
-4385 63 4175 271 0
4385 -63 0
4385 -4175 0
4385 -271 0
4386 -70 -4385 0
-4386 70 0
-4386 4385 0
4387 -470 -1174 0
-4387 470 0
-4387 1174 0
4388 -670 -1171 0
-4388 670 0
-4388 1171 0
4389 -997 -1168 0
-4389 997 0
-4389 1168 0
4390 -1012 -1174 0
-4390 1012 0
-4390 1174 0
-4391 1208 4389 4390 1985 0
4391 -1208 0
4391 -4389 0
4391 -4390 0
4391 -1985 0
4392 -1210 -4391 0
-4392 1210 0
-4392 4391 0
4393 -474 -1174 0
-4393 474 0
-4393 1174 0
4394 -119 -1171 0
-4394 119 0
-4394 1171 0
-4395 123 4393 4394 183 0
4395 -123 0
4395 -4393 0
4395 -4394 0
4395 -183 0
4396 -125 -4395 0
-4396 125 0
-4396 4395 0
-4397 135 4396 188 0
4397 -135 0
4397 -4396 0
4397 -188 0
4398 -1441 -4397 0
-4398 1441 0
-4398 4397 0
4399 -141 -4397 0
-4399 141 0
-4399 4397 0
-4400 143 4399 0
4400 -143 0
4400 -4399 0
4401 -145 -4400 0
-4401 145 0
-4401 4400 0
-4402 147 138 4401 0
4402 -147 0
4402 -138 0
4402 -4401 0
4403 -1645 -4402 0
-4403 1645 0
-4403 4402 0
4404 -1727 -1168 0
-4404 1727 0
-4404 1168 0
4405 -1729 -4397 0
-4405 1729 0
-4405 4397 0
-4406 1731 4404 4405 0
4406 -1731 0
4406 -4404 0
4406 -4405 0
4407 -1733 -4406 0
-4407 1733 0
-4407 4406 0
-4408 1735 4387 4388 4168 1742 4392 4398 4403 1724 4407 0
4408 -1735 0
4408 -4387 0
4408 -4388 0
4408 -4168 0
4408 -1742 0
4408 -4392 0
4408 -4398 0
4408 -4403 0
4408 -1724 0
4408 -4407 0
4409 -1757 -4408 0
-4409 1757 0
-4409 4408 0
-4410 63 4294 271 0
4410 -63 0
4410 -4294 0
4410 -271 0
4411 -72 -4410 0
-4411 72 0
-4411 4410 0
-4412 1208 4389 2719 1985 0
4412 -1208 0
4412 -4389 0
4412 -2719 0
4412 -1985 0
4413 -1210 -4412 0
-4413 1210 0
-4413 4412 0
-4414 1731 4404 4179 0
4414 -1731 0
4414 -4404 0
4414 -4179 0
4415 -1733 -4414 0
-4415 1733 0
-4415 4414 0
-4416 1735 2718 4168 1742 4413 4177 4178 1724 4415 0
4416 -1735 0
4416 -2718 0
4416 -4168 0
4416 -1742 0
4416 -4413 0
4416 -4177 0
4416 -4178 0
4416 -1724 0
4416 -4415 0
4417 -1769 -4416 0
-4417 1769 0
-4417 4416 0
-4418 10 4417 0
4418 -10 0
4418 -4417 0
4419 -9 -4418 0
-4419 9 0
-4419 4418 0
-4420 1731 4404 4195 0
4420 -1731 0
4420 -4404 0
4420 -4195 0
4421 -1733 -4420 0
-4421 1733 0
-4421 4420 0
-4422 1735 2718 4168 1742 4413 4189 4194 1724 4421 0
4422 -1735 0
4422 -2718 0
4422 -4168 0
4422 -1742 0
4422 -4413 0
4422 -4189 0
4422 -4194 0
4422 -1724 0
4422 -4421 0
4423 -1779 -4422 0
-4423 1779 0
-4423 4422 0
-4424 22 4423 0
4424 -22 0
4424 -4423 0
4425 -21 -4424 0
-4425 21 0
-4425 4424 0
4426 -1783 -4422 0
-4426 1783 0
-4426 4422 0
-4427 25 4426 0
4427 -25 0
4427 -4426 0
4428 -24 -4427 0
-4428 24 0
-4428 4427 0
-4429 27 4425 4428 0
4429 -27 0
4429 -4425 0
4429 -4428 0
4430 -29 -4429 0
-4430 29 0
-4430 4429 0
-4431 31 4411 4419 4430 0
4431 -31 0
4431 -4411 0
4431 -4419 0
4431 -4430 0
4432 -33 -4431 0
-4432 33 0
-4432 4431 0
-4433 63 4323 271 0
4433 -63 0
4433 -4323 0
4433 -271 0
4434 -72 -4433 0
-4434 72 0
-4434 4433 0
-4435 1731 4404 4211 0
4435 -1731 0
4435 -4404 0
4435 -4211 0
4436 -1733 -4435 0
-4436 1733 0
-4436 4435 0
-4437 1735 4168 1742 4413 4209 4210 1724 4436 0
4437 -1735 0
4437 -4168 0
4437 -1742 0
4437 -4413 0
4437 -4209 0
4437 -4210 0
4437 -1724 0
4437 -4436 0
4438 -1769 -4437 0
-4438 1769 0
-4438 4437 0
-4439 10 4438 0
4439 -10 0
4439 -4438 0
4440 -9 -4439 0
-4440 9 0
-4440 4439 0
-4441 1731 4404 4225 0
4441 -1731 0
4441 -4404 0
4441 -4225 0
4442 -1733 -4441 0
-4442 1733 0
-4442 4441 0
-4443 1735 4168 1742 4413 4219 4224 1724 4442 0
4443 -1735 0
4443 -4168 0
4443 -1742 0
4443 -4413 0
4443 -4219 0
4443 -4224 0
4443 -1724 0
4443 -4442 0
4444 -1779 -4443 0
-4444 1779 0
-4444 4443 0
-4445 22 4444 0
4445 -22 0
4445 -4444 0
4446 -21 -4445 0
-4446 21 0
-4446 4445 0
4447 -1783 -4443 0
-4447 1783 0
-4447 4443 0
-4448 25 4447 0
4448 -25 0
4448 -4447 0
4449 -24 -4448 0
-4449 24 0
-4449 4448 0
-4450 27 4446 4449 0
4450 -27 0
4450 -4446 0
4450 -4449 0
4451 -29 -4450 0
-4451 29 0
-4451 4450 0
-4452 31 4434 4440 4451 0
4452 -31 0
4452 -4434 0
4452 -4440 0
4452 -4451 0
4453 -320 -4452 0
-4453 320 0
-4453 4452 0
-4454 31 1170 8 1816 0
4454 -31 0
4454 -1170 0
4454 -8 0
4454 -1816 0
4455 -670 -4454 0
-4455 670 0
-4455 4454 0
-4456 1208 4389 1985 0
4456 -1208 0
4456 -4389 0
4456 -1985 0
4457 -1210 -4456 0
-4457 1210 0
-4457 4456 0
4458 -119 -4454 0
-4458 119 0
-4458 4454 0
-4459 123 4458 183 0
4459 -123 0
4459 -4458 0
4459 -183 0
4460 -125 -4459 0
-4460 125 0
-4460 4459 0
-4461 135 4460 4242 0
4461 -135 0
4461 -4460 0
4461 -4242 0
4462 -1441 -4461 0
-4462 1441 0
-4462 4461 0
4463 -141 -4461 0
-4463 141 0
-4463 4461 0
-4464 143 4463 0
4464 -143 0
4464 -4463 0
4465 -145 -4464 0
-4465 145 0
-4465 4464 0
-4466 147 138 4465 0
4466 -147 0
4466 -138 0
4466 -4465 0
4467 -1645 -4466 0
-4467 1645 0
-4467 4466 0
4468 -1729 -4461 0
-4468 1729 0
-4468 4461 0
-4469 1731 4404 4468 0
4469 -1731 0
4469 -4404 0
4469 -4468 0
4470 -1733 -4469 0
-4470 1733 0
-4470 4469 0
-4471 1735 4455 4168 1742 4457 4462 4467 1724 4470 0
4471 -1735 0
4471 -4455 0
4471 -4168 0
4471 -1742 0
4471 -4457 0
4471 -4462 0
4471 -4467 0
4471 -1724 0
4471 -4470 0
4472 -1779 -4471 0
-4472 1779 0
-4472 4471 0
-4473 22 4472 0
4473 -22 0
4473 -4472 0
4474 -322 -4473 0
-4474 322 0
-4474 4473 0
-4475 468 4453 4474 509 0
4475 -468 0
4475 -4453 0
4475 -4474 0
4475 -509 0
4476 -508 -4475 0
-4476 508 0
-4476 4475 0
-4477 41 4386 4409 210 4432 4476 211 0
4477 -41 0
4477 -4386 0
4477 -4409 0
4477 -210 0
4477 -4432 0
4477 -4476 0
4477 -211 0
4478 -43 -4477 0
-4478 43 0
-4478 4477 0
4479 -1846 -4408 0
-4479 1846 0
-4479 4408 0
-4480 51 4478 4479 0
4480 -51 0
4480 -4478 0
4480 -4479 0
4481 -107 -4480 0
-4481 107 0
-4481 4480 0
-4482 1735 4168 1742 1987 2210 1724 2211 0
4482 -1735 0
4482 -4168 0
4482 -1742 0
4482 -1987 0
4482 -2210 0
4482 -1724 0
4482 -2211 0
4483 -1755 -4482 0
-4483 1755 0
-4483 4482 0
4484 -1757 -4482 0
-4484 1757 0
-4484 4482 0
-4485 41 4484 210 211 0
4485 -41 0
4485 -4484 0
4485 -210 0
4485 -211 0
4486 -43 -4485 0
-4486 43 0
-4486 4485 0
4487 -1846 -4482 0
-4487 1846 0
-4487 4482 0
-4488 51 4486 4487 0
4488 -51 0
4488 -4486 0
4488 -4487 0
4489 -53 -4488 0
-4489 53 0
-4489 4488 0
-4490 63 4483 4489 271 0
4490 -63 0
4490 -4483 0
4490 -4489 0
4490 -271 0
4491 -72 -4490 0
-4491 72 0
-4491 4490 0
4492 -53 -242 0
-4492 53 0
-4492 242 0
-4493 63 4492 271 0
4493 -63 0
4493 -4492 0
4493 -271 0
4494 -997 -4493 0
-4494 997 0
-4494 4493 0
-4495 1208 4494 1985 0
4495 -1208 0
4495 -4494 0
4495 -1985 0
4496 -1210 -4495 0
-4496 1210 0
-4496 4495 0
4497 -1727 -4493 0
-4497 1727 0
-4497 4493 0
-4498 1731 4497 0
4498 -1731 0
4498 -4497 0
4499 -1733 -4498 0
-4499 1733 0
-4499 4498 0
-4500 1735 4168 1742 4496 2210 1724 4499 0
4500 -1735 0
4500 -4168 0
4500 -1742 0
4500 -4496 0
4500 -2210 0
4500 -1724 0
4500 -4499 0
4501 -1769 -4500 0
-4501 1769 0
-4501 4500 0
-4502 10 4501 0
4502 -10 0
4502 -4501 0
4503 -9 -4502 0
-4503 9 0
-4503 4502 0
4504 -1779 -4500 0
-4504 1779 0
-4504 4500 0
-4505 22 4504 0
4505 -22 0
4505 -4504 0
4506 -21 -4505 0
-4506 21 0
-4506 4505 0
4507 -1783 -4500 0
-4507 1783 0
-4507 4500 0
-4508 25 4507 0
4508 -25 0
4508 -4507 0
4509 -24 -4508 0
-4509 24 0
-4509 4508 0
-4510 27 4506 4509 0
4510 -27 0
4510 -4506 0
4510 -4509 0
4511 -29 -4510 0
-4511 29 0
-4511 4510 0
-4512 31 4491 4503 4511 0
4512 -31 0
4512 -4491 0
4512 -4503 0
4512 -4511 0
4513 -320 -4512 0
-4513 320 0
-4513 4512 0
-4514 31 4491 8 1816 0
4514 -31 0
4514 -4491 0
4514 -8 0
4514 -1816 0
4515 -670 -4514 0
-4515 670 0
-4515 4514 0
-4516 41 210 2270 211 0
4516 -41 0
4516 -210 0
4516 -2270 0
4516 -211 0
4517 -43 -4516 0
-4517 43 0
-4517 4516 0
-4518 51 4517 0
4518 -51 0
4518 -4517 0
4519 -53 -4518 0
-4519 53 0
-4519 4518 0
-4520 63 4519 271 0
4520 -63 0
4520 -4519 0
4520 -271 0
4521 -997 -4520 0
-4521 997 0
-4521 4520 0
-4522 1208 4521 1985 0
4522 -1208 0
4522 -4521 0
4522 -1985 0
4523 -1210 -4522 0
-4523 1210 0
-4523 4522 0
4524 -1727 -4520 0
-4524 1727 0
-4524 4520 0
-4525 1731 4524 0
4525 -1731 0
4525 -4524 0
4526 -1733 -4525 0
-4526 1733 0
-4526 4525 0
-4527 1735 4515 4168 1742 4523 2210 1724 4526 0
4527 -1735 0
4527 -4515 0
4527 -4168 0
4527 -1742 0
4527 -4523 0
4527 -2210 0
4527 -1724 0
4527 -4526 0
4528 -1779 -4527 0
-4528 1779 0
-4528 4527 0
-4529 22 4528 0
4529 -22 0
4529 -4528 0
4530 -322 -4529 0
-4530 322 0
-4530 4529 0
-4531 468 4513 4530 509 0
4531 -468 0
4531 -4513 0
4531 -4530 0
4531 -509 0
4532 -474 -4531 0
-4532 474 0
-4532 4531 0
-4533 1735 2006 4168 1742 2199 2210 1724 2211 0
4533 -1735 0
4533 -2006 0
4533 -4168 0
4533 -1742 0
4533 -2199 0
4533 -2210 0
4533 -1724 0
4533 -2211 0
4534 -1755 -4533 0
-4534 1755 0
-4534 4533 0
4535 -1757 -4533 0
-4535 1757 0
-4535 4533 0
4536 -1779 -4482 0
-4536 1779 0
-4536 4482 0
-4537 22 4536 0
4537 -22 0
4537 -4536 0
4538 -322 -4537 0
-4538 322 0
-4538 4537 0
-4539 468 4538 509 0
4539 -468 0
4539 -4538 0
4539 -509 0
4540 -508 -4539 0
-4540 508 0
-4540 4539 0
-4541 41 4535 210 4540 211 0
4541 -41 0
4541 -4535 0
4541 -210 0
4541 -4540 0
4541 -211 0
4542 -43 -4541 0
-4542 43 0
-4542 4541 0
4543 -1846 -4533 0
-4543 1846 0
-4543 4533 0
-4544 51 4542 4543 0
4544 -51 0
4544 -4542 0
4544 -4543 0
4545 -53 -4544 0
-4545 53 0
-4545 4544 0
-4546 63 4534 4545 271 0
4546 -63 0
4546 -4534 0
4546 -4545 0
4546 -271 0
4547 -72 -4546 0
-4547 72 0
-4547 4546 0
4548 -53 -568 0
-4548 53 0
-4548 568 0
-4549 63 4548 271 0
4549 -63 0
4549 -4548 0
4549 -271 0
4550 -997 -4549 0
-4550 997 0
-4550 4549 0
-4551 1208 4550 2719 1985 0
4551 -1208 0
4551 -4550 0
4551 -2719 0
4551 -1985 0
4552 -1210 -4551 0
-4552 1210 0
-4552 4551 0
4553 -1727 -4549 0
-4553 1727 0
-4553 4549 0
-4554 1731 4553 0
4554 -1731 0
4554 -4553 0
4555 -1733 -4554 0
-4555 1733 0
-4555 4554 0
-4556 1735 2718 4168 1742 4552 2210 1724 4555 0
4556 -1735 0
4556 -2718 0
4556 -4168 0
4556 -1742 0
4556 -4552 0
4556 -2210 0
4556 -1724 0
4556 -4555 0
4557 -1769 -4556 0
-4557 1769 0
-4557 4556 0
-4558 10 4557 0
4558 -10 0
4558 -4557 0
4559 -9 -4558 0
-4559 9 0
-4559 4558 0
4560 -1779 -4556 0
-4560 1779 0
-4560 4556 0
-4561 22 4560 0
4561 -22 0
4561 -4560 0
4562 -21 -4561 0
-4562 21 0
-4562 4561 0
4563 -1783 -4556 0
-4563 1783 0
-4563 4556 0
-4564 25 4563 0
4564 -25 0
4564 -4563 0
4565 -24 -4564 0
-4565 24 0
-4565 4564 0
-4566 27 4562 4565 0
4566 -27 0
4566 -4562 0
4566 -4565 0
4567 -29 -4566 0
-4567 29 0
-4567 4566 0
-4568 31 4547 4559 4567 0
4568 -31 0
4568 -4547 0
4568 -4559 0
4568 -4567 0
4569 -119 -4568 0
-4569 119 0
-4569 4568 0
-4570 123 4532 4569 183 0
4570 -123 0
4570 -4532 0
4570 -4569 0
4570 -183 0
4571 -125 -4570 0
-4571 125 0
-4571 4570 0
-4572 31 4491 8 0
4572 -31 0
4572 -4491 0
4572 -8 0
4573 -320 -4572 0
-4573 320 0
-4573 4572 0
-4574 468 4573 321 509 0
4574 -468 0
4574 -4573 0
4574 -321 0
4574 -509 0
4575 -470 -4574 0
-4575 470 0
-4575 4574 0
4576 -72 -4549 0
-4576 72 0
-4576 4549 0
-4577 31 4576 8 0
4577 -31 0
4577 -4576 0
4577 -8 0
4578 -670 -4577 0
-4578 670 0
-4578 4577 0
-4579 41 210 2387 2406 211 0
4579 -41 0
4579 -210 0
4579 -2387 0
4579 -2406 0
4579 -211 0
4580 -43 -4579 0
-4580 43 0
-4580 4579 0
-4581 51 4580 0
4581 -51 0
4581 -4580 0
4582 -53 -4581 0
-4582 53 0
-4582 4581 0
-4583 63 4582 271 0
4583 -63 0
4583 -4582 0
4583 -271 0
4584 -997 -4583 0
-4584 997 0
-4584 4583 0
4585 -72 -4493 0
-4585 72 0
-4585 4493 0
-4586 31 4585 8 0
4586 -31 0
4586 -4585 0
4586 -8 0
4587 -320 -4586 0
-4587 320 0
-4587 4586 0
-4588 468 4587 321 509 0
4588 -468 0
4588 -4587 0
4588 -321 0
4588 -509 0
4589 -1012 -4588 0
-4589 1012 0
-4589 4588 0
-4590 1208 4584 4589 1985 0
4590 -1208 0
4590 -4584 0
4590 -4589 0
4590 -1985 0
4591 -1210 -4590 0
-4591 1210 0
-4591 4590 0
4592 -1727 -4583 0
-4592 1727 0
-4592 4583 0
-4593 1731 4592 0
4593 -1731 0
4593 -4592 0
4594 -1733 -4593 0
-4594 1733 0
-4594 4593 0
-4595 1735 4575 4578 4168 1742 4591 2210 1724 4594 0
4595 -1735 0
4595 -4575 0
4595 -4578 0
4595 -4168 0
4595 -1742 0
4595 -4591 0
4595 -2210 0
4595 -1724 0
4595 -4594 0
4596 -1779 -4595 0
-4596 1779 0
-4596 4595 0
-4597 22 4596 0
4597 -22 0
4597 -4596 0
4598 -21 -4597 0
-4598 21 0
-4598 4597 0
4599 -1783 -4595 0
-4599 1783 0
-4599 4595 0
-4600 25 4599 0
4600 -25 0
4600 -4599 0
4601 -24 -4600 0
-4601 24 0
-4601 4600 0
-4602 27 4598 4601 0
4602 -27 0
4602 -4598 0
4602 -4601 0
4603 -129 -4602 0
-4603 129 0
-4603 4602 0
-4604 131 186 4603 0
4604 -131 0
4604 -186 0
4604 -4603 0
4605 -133 -4604 0
-4605 133 0
-4605 4604 0
-4606 135 4571 4605 0
4606 -135 0
4606 -4571 0
4606 -4605 0
4607 -137 -4606 0
-4607 137 0
-4607 4606 0
-4608 31 4585 28 0
4608 -31 0
4608 -4585 0
4608 -28 0
4609 -320 -4608 0
-4609 320 0
-4609 4608 0
-4610 468 4609 321 509 0
4610 -468 0
4610 -4609 0
4610 -321 0
4610 -509 0
4611 -470 -4610 0
-4611 470 0
-4611 4610 0
-4612 31 4576 28 0
4612 -31 0
4612 -4576 0
4612 -28 0
4613 -670 -4612 0
-4613 670 0
-4613 4612 0
-4614 41 210 2446 2475 211 0
4614 -41 0
4614 -210 0
4614 -2446 0
4614 -2475 0
4614 -211 0
4615 -43 -4614 0
-4615 43 0
-4615 4614 0
-4616 51 4615 0
4616 -51 0
4616 -4615 0
4617 -53 -4616 0
-4617 53 0
-4617 4616 0
-4618 63 4617 271 0
4618 -63 0
4618 -4617 0
4618 -271 0
4619 -997 -4618 0
-4619 997 0
-4619 4618 0
4620 -1012 -4610 0
-4620 1012 0
-4620 4610 0
-4621 1208 4619 4620 1985 0
4621 -1208 0
4621 -4619 0
4621 -4620 0
4621 -1985 0
4622 -1210 -4621 0
-4622 1210 0
-4622 4621 0
-4623 31 4491 28 0
4623 -31 0
4623 -4491 0
4623 -28 0
4624 -320 -4623 0
-4624 320 0
-4624 4623 0
-4625 468 4624 321 509 0
4625 -468 0
4625 -4624 0
4625 -321 0
4625 -509 0
4626 -474 -4625 0
-4626 474 0
-4626 4625 0
4627 -119 -4612 0
-4627 119 0
-4627 4612 0
-4628 123 4626 4627 183 0
4628 -123 0
4628 -4626 0
4628 -4627 0
4628 -183 0
4629 -125 -4628 0
-4629 125 0
-4629 4628 0
-4630 135 4629 188 0
4630 -135 0
4630 -4629 0
4630 -188 0
4631 -1441 -4630 0
-4631 1441 0
-4631 4630 0
4632 -1727 -4618 0
-4632 1727 0
-4632 4618 0
4633 -474 -4610 0
-4633 474 0
-4633 4610 0
-4634 123 4633 4627 183 0
4634 -123 0
4634 -4633 0
4634 -4627 0
4634 -183 0
4635 -125 -4634 0
-4635 125 0
-4635 4634 0
-4636 135 4635 188 0
4636 -135 0
4636 -4635 0
4636 -188 0
4637 -1729 -4636 0
-4637 1729 0
-4637 4636 0
-4638 1731 4632 4637 0
4638 -1731 0
4638 -4632 0
4638 -4637 0
4639 -1733 -4638 0
-4639 1733 0
-4639 4638 0
-4640 1735 4611 4613 4168 1742 4622 4631 1724 4639 0
4640 -1735 0
4640 -4611 0
4640 -4613 0
4640 -4168 0
4640 -1742 0
4640 -4622 0
4640 -4631 0
4640 -1724 0
4640 -4639 0
4641 -1769 -4640 0
-4641 1769 0
-4641 4640 0
-4642 10 4641 0
4642 -10 0
4642 -4641 0
4643 -139 -4642 0
-4643 139 0
-4643 4642 0
-4644 1735 4373 4374 4168 1742 4377 4378 1724 4382 0
4644 -1735 0
4644 -4373 0
4644 -4374 0
4644 -4168 0
4644 -1742 0
4644 -4377 0
4644 -4378 0
4644 -1724 0
4644 -4382 0
4645 -2512 -4644 0
-4645 2512 0
-4645 4644 0
-4646 1735 4168 1742 1987 1724 2211 0
4646 -1735 0
4646 -4168 0
4646 -1742 0
4646 -1987 0
4646 -1724 0
4646 -2211 0
4647 -1755 -4646 0
-4647 1755 0
-4647 4646 0
4648 -1757 -4646 0
-4648 1757 0
-4648 4646 0
-4649 41 4648 210 211 0
4649 -41 0
4649 -4648 0
4649 -210 0
4649 -211 0
4650 -43 -4649 0
-4650 43 0
-4650 4649 0
4651 -1846 -4646 0
-4651 1846 0
-4651 4646 0
-4652 51 4650 4651 0
4652 -51 0
4652 -4650 0
4652 -4651 0
4653 -53 -4652 0
-4653 53 0
-4653 4652 0
-4654 63 4647 4653 271 0
4654 -63 0
4654 -4647 0
4654 -4653 0
4654 -271 0
4655 -72 -4654 0
-4655 72 0
-4655 4654 0
-4656 1735 4168 1742 4496 1724 4499 0
4656 -1735 0
4656 -4168 0
4656 -1742 0
4656 -4496 0
4656 -1724 0
4656 -4499 0
4657 -1769 -4656 0
-4657 1769 0
-4657 4656 0
-4658 10 4657 0
4658 -10 0
4658 -4657 0
4659 -9 -4658 0
-4659 9 0
-4659 4658 0
4660 -1779 -4656 0
-4660 1779 0
-4660 4656 0
-4661 22 4660 0
4661 -22 0
4661 -4660 0
4662 -21 -4661 0
-4662 21 0
-4662 4661 0
4663 -1783 -4656 0
-4663 1783 0
-4663 4656 0
-4664 25 4663 0
4664 -25 0
4664 -4663 0
4665 -24 -4664 0
-4665 24 0
-4665 4664 0
-4666 27 4662 4665 0
4666 -27 0
4666 -4662 0
4666 -4665 0
4667 -29 -4666 0
-4667 29 0
-4667 4666 0
-4668 31 4655 4659 4667 0
4668 -31 0
4668 -4655 0
4668 -4659 0
4668 -4667 0
4669 -320 -4668 0
-4669 320 0
-4669 4668 0
-4670 31 4585 8 1816 0
4670 -31 0
4670 -4585 0
4670 -8 0
4670 -1816 0
4671 -670 -4670 0
-4671 670 0
-4671 4670 0
-4672 1735 4671 4168 1742 4523 1724 4526 0
4672 -1735 0
4672 -4671 0
4672 -4168 0
4672 -1742 0
4672 -4523 0
4672 -1724 0
4672 -4526 0
4673 -1779 -4672 0
-4673 1779 0
-4673 4672 0
-4674 22 4673 0
4674 -22 0
4674 -4673 0
4675 -322 -4674 0
-4675 322 0
-4675 4674 0
-4676 468 4669 4675 509 0
4676 -468 0
4676 -4669 0
4676 -4675 0
4676 -509 0
4677 -474 -4676 0
-4677 474 0
-4677 4676 0
-4678 1735 2006 4168 1742 2199 1724 2211 0
4678 -1735 0
4678 -2006 0
4678 -4168 0
4678 -1742 0
4678 -2199 0
4678 -1724 0
4678 -2211 0
4679 -1755 -4678 0
-4679 1755 0
-4679 4678 0
4680 -1757 -4678 0
-4680 1757 0
-4680 4678 0
4681 -1779 -4646 0
-4681 1779 0
-4681 4646 0
-4682 22 4681 0
4682 -22 0
4682 -4681 0
4683 -322 -4682 0
-4683 322 0
-4683 4682 0
-4684 468 4683 509 0
4684 -468 0
4684 -4683 0
4684 -509 0
4685 -508 -4684 0
-4685 508 0
-4685 4684 0
-4686 41 4680 210 4685 211 0
4686 -41 0
4686 -4680 0
4686 -210 0
4686 -4685 0
4686 -211 0
4687 -43 -4686 0
-4687 43 0
-4687 4686 0
4688 -1846 -4678 0
-4688 1846 0
-4688 4678 0
-4689 51 4687 4688 0
4689 -51 0
4689 -4687 0
4689 -4688 0
4690 -53 -4689 0
-4690 53 0
-4690 4689 0
-4691 63 4679 4690 271 0
4691 -63 0
4691 -4679 0
4691 -4690 0
4691 -271 0
4692 -72 -4691 0
-4692 72 0
-4692 4691 0
-4693 1735 2718 4168 1742 4552 1724 4555 0
4693 -1735 0
4693 -2718 0
4693 -4168 0
4693 -1742 0
4693 -4552 0
4693 -1724 0
4693 -4555 0
4694 -1769 -4693 0
-4694 1769 0
-4694 4693 0
-4695 10 4694 0
4695 -10 0
4695 -4694 0
4696 -9 -4695 0
-4696 9 0
-4696 4695 0
4697 -1779 -4693 0
-4697 1779 0
-4697 4693 0
-4698 22 4697 0
4698 -22 0
4698 -4697 0
4699 -21 -4698 0
-4699 21 0
-4699 4698 0
4700 -1783 -4693 0
-4700 1783 0
-4700 4693 0
-4701 25 4700 0
4701 -25 0
4701 -4700 0
4702 -24 -4701 0
-4702 24 0
-4702 4701 0
-4703 27 4699 4702 0
4703 -27 0
4703 -4699 0
4703 -4702 0
4704 -29 -4703 0
-4704 29 0
-4704 4703 0
-4705 31 4692 4696 4704 0
4705 -31 0
4705 -4692 0
4705 -4696 0
4705 -4704 0
4706 -119 -4705 0
-4706 119 0
-4706 4705 0
-4707 123 4677 4706 183 0
4707 -123 0
4707 -4677 0
4707 -4706 0
4707 -183 0
4708 -125 -4707 0
-4708 125 0
-4708 4707 0
4709 -470 -4588 0
-4709 470 0
-4709 4588 0
-4710 1735 4709 4578 4168 1742 4591 1724 4594 0
4710 -1735 0
4710 -4709 0
4710 -4578 0
4710 -4168 0
4710 -1742 0
4710 -4591 0
4710 -1724 0
4710 -4594 0
4711 -1779 -4710 0
-4711 1779 0
-4711 4710 0
-4712 22 4711 0
4712 -22 0
4712 -4711 0
4713 -21 -4712 0
-4713 21 0
-4713 4712 0
4714 -1783 -4710 0
-4714 1783 0
-4714 4710 0
-4715 25 4714 0
4715 -25 0
4715 -4714 0
4716 -24 -4715 0
-4716 24 0
-4716 4715 0
-4717 27 4713 4716 0
4717 -27 0
4717 -4713 0
4717 -4716 0
4718 -129 -4717 0
-4718 129 0
-4718 4717 0
-4719 131 186 4718 0
4719 -131 0
4719 -186 0
4719 -4718 0
4720 -133 -4719 0
-4720 133 0
-4720 4719 0
-4721 135 4708 4720 0
4721 -135 0
4721 -4708 0
4721 -4720 0
4722 -141 -4721 0
-4722 141 0
-4722 4721 0
-4723 143 4645 4722 0
4723 -143 0
4723 -4645 0
4723 -4722 0
4724 -145 -4723 0
-4724 145 0
-4724 4723 0
-4725 147 4643 4724 0
4725 -147 0
4725 -4643 0
4725 -4724 0
4726 -149 -4725 0
-4726 149 0
-4726 4725 0
-4727 151 4265 4372 4384 4481 4607 4726 0
4727 -151 0
4727 -4265 0
4727 -4372 0
4727 -4384 0
4727 -4481 0
4727 -4607 0
4727 -4726 0
4728 -178 -4727 0
-4728 178 0
-4728 4727 0
-4729 3 4728 0
4729 -3 0
4729 -4728 0
4730 -15 -4729 0
-4730 15 0
-4730 4729 0
-4731 17 4167 11 4730 0
4731 -17 0
4731 -4167 0
4731 -11 0
4731 -4730 0
4732 -45 -4731 0
-4732 45 0
-4732 4731 0
-4733 47 3207 4732 0
4733 -47 0
4733 -3207 0
4733 -4732 0
4734 -57 -4733 0
-4734 57 0
-4734 4733 0
-4735 59 4734 0
4735 -59 0
4735 -4734 0
4736 -4737 -4735 0
-4736 4737 0
-4736 4735 0
-4738 4739 1736 2636 4736 0
4738 -4739 0
4738 -1736 0
4738 -2636 0
4738 -4736 0
4740 -4741 -4738 0
-4740 4741 0
-4740 4738 0
-4742 4743 4740 0
4742 -4743 0
4742 -4740 0
4744 -4742 -4745 0
-4744 4742 0
-4744 4745 0
4744 0
