c BC-S1.2
p cnf 56 99
1 -2 -3 0
-1 2 0
-1 3 0
-4 5 1 0
4 -5 0
4 -1 0
6 -7 -4 0
-6 7 0
-6 4 0
8 -9 -4 0
-8 9 0
-8 4 0
10 -11 -4 0
-10 11 0
-10 4 0
-12 13 10 0
12 -13 0
12 -10 0
14 -15 -12 0
-14 15 0
-14 12 0
16 -17 -3 0
-16 17 0
-16 3 0
-18 19 8 14 16 0
18 -19 0
18 -8 0
18 -14 0
18 -16 0
20 -21 -18 0
-20 21 0
-20 18 0
-22 23 6 20 0
22 -23 0
22 -6 0
22 -20 0
24 -25 -22 0
-24 25 0
-24 22 0
26 -27 -4 0
-26 27 0
-26 4 0
28 -29 -4 0
-28 29 0
-28 4 0
30 -31 -22 0
-30 31 0
-30 22 0
32 -33 -34 0
-32 33 0
-32 34 0
-35 36 28 30 32 0
35 -36 0
35 -28 0
35 -30 0
35 -32 0
37 -38 -35 0
-37 38 0
-37 35 0
-39 40 26 37 0
39 -40 0
39 -26 0
39 -37 0
41 -42 -39 0
-41 42 0
-41 39 0
-43 36 28 30 0
43 -36 0
43 -28 0
43 -30 0
44 -38 -43 0
-44 38 0
-44 43 0
-45 40 26 44 0
45 -40 0
45 -26 0
45 -44 0
46 -47 -45 0
-46 47 0
-46 45 0
-48 34 46 0
48 -34 0
48 -46 0
49 -50 -48 0
-49 50 0
-49 48 0
51 -52 -3 0
-51 52 0
-51 3 0
-53 54 24 41 49 51 0
53 -54 0
53 -24 0
53 -41 0
53 -49 0
53 -51 0
55 -53 -56 0
-55 53 0
-55 56 0
55 0
