c BC-S1.2
p cnf 104 217
1 -2 -3 0
-1 2 0
-1 3 0
4 -5 -3 0
-4 5 0
-4 3 0
6 -7 -8 0
-6 7 0
-6 8 0
9 -10 -3 0
-9 10 0
-9 3 0
-11 12 9 0
11 -12 0
11 -9 0
13 -14 -11 0
-13 14 0
-13 11 0
15 -16 -17 0
-15 16 0
-15 17 0
-18 19 15 0
18 -19 0
18 -15 0
20 -21 -18 0
-20 21 0
-20 18 0
22 -23 -24 0
-22 23 0
-22 24 0
-25 26 22 0
25 -26 0
25 -22 0
27 -28 -25 0
-27 28 0
-27 25 0
-29 30 6 13 20 27 0
29 -30 0
29 -6 0
29 -13 0
29 -20 0
29 -27 0
31 -32 -29 0
-31 32 0
-31 29 0
-33 34 31 0
33 -34 0
33 -31 0
35 -36 -33 0
-35 36 0
-35 33 0
-37 38 35 0
37 -38 0
37 -35 0
39 -40 -37 0
-39 40 0
-39 37 0
-41 42 4 39 0
41 -42 0
41 -4 0
41 -39 0
43 -44 -41 0
-43 44 0
-43 41 0
-45 46 1 43 0
45 -46 0
45 -1 0
45 -43 0
47 -48 -45 0
-47 48 0
-47 45 0
49 -40 -38 0
-49 40 0
-49 38 0
-50 42 4 49 0
50 -42 0
50 -4 0
50 -49 0
51 -44 -50 0
-51 44 0
-51 50 0
-52 46 51 0
52 -46 0
52 -51 0
53 -54 -52 0
-53 54 0
-53 52 0
-55 3 53 0
55 -3 0
55 -53 0
56 -10 -55 0
-56 10 0
-56 55 0
-57 12 56 0
57 -12 0
57 -56 0
58 -14 -57 0
-58 14 0
-58 57 0
59 -54 -46 0
-59 54 0
-59 46 0
-60 3 59 0
60 -3 0
60 -59 0
61 -5 -60 0
-61 5 0
-61 60 0
-62 42 61 0
62 -42 0
62 -61 0
63 -64 -62 0
-63 64 0
-63 62 0
-65 38 63 0
65 -38 0
65 -63 0
66 -67 -65 0
-66 67 0
-66 65 0
-68 30 6 58 66 20 27 0
68 -30 0
68 -6 0
68 -58 0
68 -66 0
68 -20 0
68 -27 0
69 -32 -68 0
-69 32 0
-69 68 0
-70 34 69 0
70 -34 0
70 -69 0
71 -72 -70 0
-71 72 0
-71 70 0
73 -36 -34 0
-73 36 0
-73 34 0
-74 38 73 0
74 -38 0
74 -73 0
75 -40 -74 0
-75 40 0
-75 74 0
-76 42 4 75 0
76 -42 0
76 -4 0
76 -75 0
77 -44 -76 0
-77 44 0
-77 76 0
-78 46 77 0
78 -46 0
78 -77 0
79 -54 -78 0
-79 54 0
-79 78 0
-80 3 79 0
80 -3 0
80 -79 0
81 -10 -80 0
-81 10 0
-81 80 0
-82 12 81 0
82 -12 0
82 -81 0
83 -14 -82 0
-83 14 0
-83 82 0
-84 38 63 73 0
84 -38 0
84 -63 0
84 -73 0
85 -67 -84 0
-85 67 0
-85 84 0
86 -87 -34 0
-86 87 0
-86 34 0
-88 30 6 83 85 86 20 27 0
88 -30 0
88 -6 0
88 -83 0
88 -85 0
88 -86 0
88 -20 0
88 -27 0
89 -90 -88 0
-89 90 0
-89 88 0
-91 19 89 15 0
91 -19 0
91 -89 0
91 -15 0
92 -93 -91 0
-92 93 0
-92 91 0
94 -95 -96 0
-94 95 0
-94 96 0
-97 98 71 92 94 0
97 -98 0
97 -71 0
97 -92 0
97 -94 0
99 -100 -97 0
-99 100 0
-99 97 0
-101 102 47 99 0
101 -102 0
101 -47 0
101 -99 0
103 -101 -104 0
-103 101 0
-103 104 0
103 0
