c BC-S1.2
p cnf 79 149
1 -2 -3 0
-1 2 0
-1 3 0
4 -5 -6 0
-4 5 0
-4 6 0
-7 8 4 0
7 -8 0
7 -4 0
9 -10 -7 0
-9 10 0
-9 7 0
11 -12 -6 0
-11 12 0
-11 6 0
13 -14 -6 0
-13 14 0
-13 6 0
15 -16 -17 0
-15 16 0
-15 17 0
18 -19 -20 0
-18 19 0
-18 20 0
-21 22 15 18 0
21 -22 0
21 -15 0
21 -18 0
23 -24 -21 0
-23 24 0
-23 21 0
-25 26 13 23 0
25 -26 0
25 -13 0
25 -23 0
27 -28 -25 0
-27 28 0
-27 25 0
-29 30 9 11 27 0
29 -30 0
29 -9 0
29 -11 0
29 -27 0
31 -32 -29 0
-31 32 0
-31 29 0
33 -10 -8 0
-33 10 0
-33 8 0
-34 30 33 11 0
34 -30 0
34 -33 0
34 -11 0
35 -36 -34 0
-35 36 0
-35 34 0
-37 6 35 0
37 -6 0
37 -35 0
38 -14 -37 0
-38 14 0
-38 37 0
-39 26 38 0
39 -26 0
39 -38 0
40 -41 -39 0
-40 41 0
-40 39 0
-42 22 40 18 0
42 -22 0
42 -40 0
42 -18 0
43 -44 -42 0
-43 44 0
-43 42 0
-45 17 43 0
45 -17 0
45 -43 0
46 -47 -45 0
-46 47 0
-46 45 0
-48 49 31 46 0
48 -49 0
48 -31 0
48 -46 0
50 -51 -48 0
-50 51 0
-50 48 0
52 -53 -49 0
-52 53 0
-52 49 0
-54 30 33 11 52 0
54 -30 0
54 -33 0
54 -11 0
54 -52 0
55 -36 -54 0
-55 36 0
-55 54 0
-56 6 55 0
56 -6 0
56 -55 0
57 -14 -56 0
-57 14 0
-57 56 0
-58 26 57 0
58 -26 0
58 -57 0
59 -41 -58 0
-59 41 0
-59 58 0
-60 22 59 18 0
60 -22 0
60 -59 0
60 -18 0
61 -44 -60 0
-61 44 0
-61 60 0
-62 17 61 0
62 -17 0
62 -61 0
63 -64 -62 0
-63 64 0
-63 62 0
65 -66 -67 0
-65 66 0
-65 67 0
-68 69 65 0
68 -69 0
68 -65 0
70 -71 -68 0
-70 71 0
-70 68 0
-72 73 1 50 63 70 0
72 -73 0
72 -1 0
72 -50 0
72 -63 0
72 -70 0
74 -75 -72 0
-74 75 0
-74 72 0
-76 77 74 0
76 -77 0
76 -74 0
78 -76 -79 0
-78 76 0
-78 79 0
78 0
