c BC-S1.2
p cnf 409 1315
1 -2 -3 0
-1 2 0
-1 3 0
4 -5 -3 0
-4 5 0
-4 3 0
6 -7 -8 0
-6 7 0
-6 8 0
9 -10 -11 0
-9 10 0
-9 11 0
-12 13 6 9 0
12 -13 0
12 -6 0
12 -9 0
14 -15 -12 0
-14 15 0
-14 12 0
-16 17 14 0
16 -17 0
16 -14 0
18 -19 -16 0
-18 19 0
-18 16 0
-20 21 4 18 0
20 -21 0
20 -4 0
20 -18 0
22 -23 -20 0
-22 23 0
-22 20 0
-24 25 1 22 0
24 -25 0
24 -1 0
24 -22 0
26 -27 -24 0
-26 27 0
-26 24 0
28 -29 -8 0
-28 29 0
-28 8 0
30 -31 -3 0
-30 31 0
-30 3 0
-32 33 26 28 30 0
32 -33 0
32 -26 0
32 -28 0
32 -30 0
34 -35 -32 0
-34 35 0
-34 32 0
36 -37 -8 0
-36 37 0
-36 8 0
38 -19 -17 0
-38 19 0
-38 17 0
-39 21 4 38 0
39 -21 0
39 -4 0
39 -38 0
40 -23 -39 0
-40 23 0
-40 39 0
-41 25 1 40 0
41 -25 0
41 -1 0
41 -40 0
42 -27 -41 0
-42 27 0
-42 41 0
-43 33 42 28 30 0
43 -33 0
43 -42 0
43 -28 0
43 -30 0
44 -45 -43 0
-44 45 0
-44 43 0
46 -47 -41 0
-46 47 0
-46 41 0
-48 11 46 0
48 -11 0
48 -46 0
49 -10 -48 0
-49 10 0
-49 48 0
-50 13 44 6 49 0
50 -13 0
50 -44 0
50 -6 0
50 -49 0
51 -52 -50 0
-51 52 0
-51 50 0
53 -54 -3 0
-53 54 0
-53 3 0
55 -56 -3 0
-55 56 0
-55 3 0
57 -58 -59 0
-57 58 0
-57 59 0
-60 61 55 57 0
60 -61 0
60 -55 0
60 -57 0
62 -63 -60 0
-62 63 0
-62 60 0
-64 25 1 0
64 -25 0
64 -1 0
65 -27 -64 0
-65 27 0
-65 64 0
-66 33 65 28 30 0
66 -33 0
66 -65 0
66 -28 0
66 -30 0
67 -45 -66 0
-67 45 0
-67 66 0
68 -47 -64 0
-68 47 0
-68 64 0
-69 11 68 0
69 -11 0
69 -68 0
70 -10 -69 0
-70 10 0
-70 69 0
-71 13 67 6 70 0
71 -13 0
71 -67 0
71 -6 0
71 -70 0
72 -15 -71 0
-72 15 0
-72 71 0
-73 17 72 0
73 -17 0
73 -72 0
74 -19 -73 0
-74 19 0
-74 73 0
-75 21 4 74 0
75 -21 0
75 -4 0
75 -74 0
76 -77 -75 0
-76 77 0
-76 75 0
-78 79 51 53 62 76 0
78 -79 0
78 -51 0
78 -53 0
78 -62 0
78 -76 0
80 -81 -78 0
-80 81 0
-80 78 0
-82 21 4 0
82 -21 0
82 -4 0
83 -23 -82 0
-83 23 0
-83 82 0
-84 25 1 83 0
84 -25 0
84 -1 0
84 -83 0
85 -27 -84 0
-85 27 0
-85 84 0
-86 33 85 28 30 0
86 -33 0
86 -85 0
86 -28 0
86 -30 0
87 -45 -86 0
-87 45 0
-87 86 0
88 -47 -84 0
-88 47 0
-88 84 0
-89 11 88 0
89 -11 0
89 -88 0
90 -10 -89 0
-90 10 0
-90 89 0
-91 13 87 6 90 0
91 -13 0
91 -87 0
91 -6 0
91 -90 0
92 -15 -91 0
-92 15 0
-92 91 0
-93 17 92 0
93 -17 0
93 -92 0
94 -95 -93 0
-94 95 0
-94 93 0
-96 97 34 36 80 94 0
96 -97 0
96 -34 0
96 -36 0
96 -80 0
96 -94 0
98 -99 -96 0
-98 99 0
-98 96 0
100 -52 -12 0
-100 52 0
-100 12 0
101 -77 -20 0
-101 77 0
-101 20 0
-102 79 100 53 62 101 0
102 -79 0
102 -100 0
102 -53 0
102 -62 0
102 -101 0
103 -81 -102 0
-103 81 0
-103 102 0
104 -95 -16 0
-104 95 0
-104 16 0
-105 97 36 103 104 0
105 -97 0
105 -36 0
105 -103 0
105 -104 0
106 -107 -105 0
-106 107 0
-106 105 0
-108 25 106 1 22 0
108 -25 0
108 -106 0
108 -1 0
108 -22 0
109 -27 -108 0
-109 27 0
-109 108 0
-110 33 109 28 30 0
110 -33 0
110 -109 0
110 -28 0
110 -30 0
111 -112 -110 0
-111 112 0
-111 110 0
113 -77 -39 0
-113 77 0
-113 39 0
-114 79 100 53 62 113 0
114 -79 0
114 -100 0
114 -53 0
114 -62 0
114 -113 0
115 -81 -114 0
-115 81 0
-115 114 0
116 -95 -17 0
-116 95 0
-116 17 0
-117 97 36 115 116 0
117 -97 0
117 -36 0
117 -115 0
117 -116 0
118 -107 -117 0
-118 107 0
-118 117 0
-119 25 118 1 40 0
119 -25 0
119 -118 0
119 -1 0
119 -40 0
120 -27 -119 0
-120 27 0
-120 119 0
-121 33 120 28 30 0
121 -33 0
121 -120 0
121 -28 0
121 -30 0
122 -45 -121 0
-122 45 0
-122 121 0
-123 33 28 30 0
123 -33 0
123 -28 0
123 -30 0
124 -35 -123 0
-124 35 0
-124 123 0
-125 79 53 62 113 0
125 -79 0
125 -53 0
125 -62 0
125 -113 0
126 -81 -125 0
-126 81 0
-126 125 0
-127 97 124 36 126 116 0
127 -97 0
127 -124 0
127 -36 0
127 -126 0
127 -116 0
128 -107 -127 0
-128 107 0
-128 127 0
-129 25 128 1 40 0
129 -25 0
129 -128 0
129 -1 0
129 -40 0
130 -47 -129 0
-130 47 0
-130 129 0
-131 11 130 0
131 -11 0
131 -130 0
132 -10 -131 0
-132 10 0
-132 131 0
-133 13 122 6 132 0
133 -13 0
133 -122 0
133 -6 0
133 -132 0
134 -135 -133 0
-134 135 0
-134 133 0
-136 97 36 116 0
136 -97 0
136 -36 0
136 -116 0
137 -107 -136 0
-137 107 0
-137 136 0
-138 25 137 1 40 0
138 -25 0
138 -137 0
138 -1 0
138 -40 0
139 -27 -138 0
-139 27 0
-139 138 0
-140 33 139 28 30 0
140 -33 0
140 -139 0
140 -28 0
140 -30 0
141 -45 -140 0
-141 45 0
-141 140 0
-142 97 124 36 116 0
142 -97 0
142 -124 0
142 -36 0
142 -116 0
143 -107 -142 0
-143 107 0
-143 142 0
-144 25 143 1 40 0
144 -25 0
144 -143 0
144 -1 0
144 -40 0
145 -47 -144 0
-145 47 0
-145 144 0
-146 11 145 0
146 -11 0
146 -145 0
147 -10 -146 0
-147 10 0
-147 146 0
-148 13 141 6 147 0
148 -13 0
148 -141 0
148 -6 0
148 -147 0
149 -52 -148 0
-149 52 0
-149 148 0
-150 25 137 1 0
150 -25 0
150 -137 0
150 -1 0
151 -27 -150 0
-151 27 0
-151 150 0
-152 33 151 28 30 0
152 -33 0
152 -151 0
152 -28 0
152 -30 0
153 -45 -152 0
-153 45 0
-153 152 0
-154 25 143 1 0
154 -25 0
154 -143 0
154 -1 0
155 -47 -154 0
-155 47 0
-155 154 0
-156 11 155 0
156 -11 0
156 -155 0
157 -10 -156 0
-157 10 0
-157 156 0
-158 13 153 6 157 0
158 -13 0
158 -153 0
158 -6 0
158 -157 0
159 -15 -158 0
-159 15 0
-159 158 0
-160 17 159 0
160 -17 0
160 -159 0
161 -19 -160 0
-161 19 0
-161 160 0
-162 21 4 161 0
162 -21 0
162 -4 0
162 -161 0
163 -77 -162 0
-163 77 0
-163 162 0
-164 79 149 53 62 163 0
164 -79 0
164 -149 0
164 -53 0
164 -62 0
164 -163 0
165 -166 -164 0
-165 166 0
-165 164 0
-167 168 98 111 134 165 0
167 -168 0
167 -98 0
167 -111 0
167 -134 0
167 -165 0
169 -170 -167 0
-169 170 0
-169 167 0
171 -45 -123 0
-171 45 0
-171 123 0
-172 13 171 6 9 0
172 -13 0
172 -171 0
172 -6 0
172 -9 0
173 -52 -172 0
-173 52 0
-173 172 0
174 -15 -172 0
-174 15 0
-174 172 0
-175 17 174 0
175 -17 0
175 -174 0
176 -19 -175 0
-176 19 0
-176 175 0
-177 21 4 176 0
177 -21 0
177 -4 0
177 -176 0
178 -77 -177 0
-178 77 0
-178 177 0
-179 79 173 53 62 178 0
179 -79 0
179 -173 0
179 -53 0
179 -62 0
179 -178 0
180 -81 -179 0
-180 81 0
-180 179 0
181 -95 -175 0
-181 95 0
-181 175 0
-182 97 124 36 180 181 0
182 -97 0
182 -124 0
182 -36 0
182 -180 0
182 -181 0
183 -99 -182 0
-183 99 0
-183 182 0
184 -135 -172 0
-184 135 0
-184 172 0
185 -166 -179 0
-185 166 0
-185 179 0
-186 168 183 111 184 185 0
186 -168 0
186 -183 0
186 -111 0
186 -184 0
186 -185 0
187 -188 -186 0
-187 188 0
-187 186 0
189 -112 -32 0
-189 112 0
-189 32 0
-190 168 189 184 0
190 -168 0
190 -189 0
190 -184 0
191 -192 -190 0
-191 192 0
-191 190 0
-193 59 191 0
193 -59 0
193 -191 0
194 -58 -193 0
-194 58 0
-194 193 0
-195 61 55 194 0
195 -61 0
195 -55 0
195 -194 0
196 -63 -195 0
-196 63 0
-196 195 0
-197 79 173 53 196 178 0
197 -79 0
197 -173 0
197 -53 0
197 -196 0
197 -178 0
198 -81 -197 0
-198 81 0
-198 197 0
-199 97 124 36 198 181 0
199 -97 0
199 -124 0
199 -36 0
199 -198 0
199 -181 0
200 -107 -199 0
-200 107 0
-200 199 0
201 -23 -177 0
-201 23 0
-201 177 0
-202 25 187 200 1 201 0
202 -25 0
202 -187 0
202 -200 0
202 -1 0
202 -201 0
203 -204 -202 0
-203 204 0
-203 202 0
205 -206 -8 0
-205 206 0
-205 8 0
-207 61 55 0
207 -61 0
207 -55 0
208 -63 -207 0
-208 63 0
-208 207 0
-209 79 51 53 208 76 0
209 -79 0
209 -51 0
209 -53 0
209 -208 0
209 -76 0
210 -81 -209 0
-210 81 0
-210 209 0
-211 97 34 36 210 94 0
211 -97 0
211 -34 0
211 -36 0
211 -210 0
211 -94 0
212 -99 -211 0
-212 99 0
-212 211 0
-213 79 100 53 208 101 0
213 -79 0
213 -100 0
213 -53 0
213 -208 0
213 -101 0
214 -81 -213 0
-214 81 0
-214 213 0
-215 97 36 214 104 0
215 -97 0
215 -36 0
215 -214 0
215 -104 0
216 -107 -215 0
-216 107 0
-216 215 0
-217 25 216 1 22 0
217 -25 0
217 -216 0
217 -1 0
217 -22 0
218 -27 -217 0
-218 27 0
-218 217 0
-219 33 218 28 30 0
219 -33 0
219 -218 0
219 -28 0
219 -30 0
220 -112 -219 0
-220 112 0
-220 219 0
-221 79 100 53 208 113 0
221 -79 0
221 -100 0
221 -53 0
221 -208 0
221 -113 0
222 -81 -221 0
-222 81 0
-222 221 0
-223 97 36 222 116 0
223 -97 0
223 -36 0
223 -222 0
223 -116 0
224 -107 -223 0
-224 107 0
-224 223 0
-225 25 224 1 40 0
225 -25 0
225 -224 0
225 -1 0
225 -40 0
226 -27 -225 0
-226 27 0
-226 225 0
-227 33 226 28 30 0
227 -33 0
227 -226 0
227 -28 0
227 -30 0
228 -45 -227 0
-228 45 0
-228 227 0
-229 79 53 208 113 0
229 -79 0
229 -53 0
229 -208 0
229 -113 0
230 -81 -229 0
-230 81 0
-230 229 0
-231 97 124 36 230 116 0
231 -97 0
231 -124 0
231 -36 0
231 -230 0
231 -116 0
232 -107 -231 0
-232 107 0
-232 231 0
-233 25 232 1 40 0
233 -25 0
233 -232 0
233 -1 0
233 -40 0
234 -47 -233 0
-234 47 0
-234 233 0
-235 11 234 0
235 -11 0
235 -234 0
236 -10 -235 0
-236 10 0
-236 235 0
-237 13 228 6 236 0
237 -13 0
237 -228 0
237 -6 0
237 -236 0
238 -135 -237 0
-238 135 0
-238 237 0
-239 79 149 53 208 163 0
239 -79 0
239 -149 0
239 -53 0
239 -208 0
239 -163 0
240 -166 -239 0
-240 166 0
-240 239 0
-241 168 212 220 238 240 0
241 -168 0
241 -212 0
241 -220 0
241 -238 0
241 -240 0
242 -192 -241 0
-242 192 0
-242 241 0
-243 59 242 0
243 -59 0
243 -242 0
244 -245 -243 0
-244 245 0
-244 243 0
-246 247 169 203 205 244 0
246 -247 0
246 -169 0
246 -203 0
246 -205 0
246 -244 0
248 -249 -246 0
-248 249 0
-248 246 0
-250 168 184 185 0
250 -168 0
250 -184 0
250 -185 0
251 -188 -250 0
-251 188 0
-251 250 0
-252 25 251 1 22 0
252 -25 0
252 -251 0
252 -1 0
252 -22 0
253 -27 -252 0
-253 27 0
-253 252 0
-254 33 253 28 30 0
254 -33 0
254 -253 0
254 -28 0
254 -30 0
255 -35 -254 0
-255 35 0
-255 254 0
256 -188 -168 0
-256 188 0
-256 168 0
-257 25 256 1 40 0
257 -25 0
257 -256 0
257 -1 0
257 -40 0
258 -27 -257 0
-258 27 0
-258 257 0
-259 33 258 28 30 0
259 -33 0
259 -258 0
259 -28 0
259 -30 0
260 -45 -259 0
-260 45 0
-260 259 0
261 -112 -123 0
-261 112 0
-261 123 0
-262 168 261 0
262 -168 0
262 -261 0
263 -188 -262 0
-263 188 0
-263 262 0
-264 25 263 1 40 0
264 -25 0
264 -263 0
264 -1 0
264 -40 0
265 -47 -264 0
-265 47 0
-265 264 0
-266 11 265 0
266 -11 0
266 -265 0
267 -10 -266 0
-267 10 0
-267 266 0
-268 13 260 6 267 0
268 -13 0
268 -260 0
268 -6 0
268 -267 0
269 -52 -268 0
-269 52 0
-269 268 0
270 -135 -50 0
-270 135 0
-270 50 0
-271 168 189 270 0
271 -168 0
271 -189 0
271 -270 0
272 -192 -271 0
-272 192 0
-272 271 0
-273 59 272 0
273 -59 0
273 -272 0
274 -58 -273 0
-274 58 0
-274 273 0
-275 61 55 274 0
275 -61 0
275 -55 0
275 -274 0
276 -63 -275 0
-276 63 0
-276 275 0
-277 25 256 1 0
277 -25 0
277 -256 0
277 -1 0
278 -27 -277 0
-278 27 0
-278 277 0
-279 33 278 28 30 0
279 -33 0
279 -278 0
279 -28 0
279 -30 0
280 -45 -279 0
-280 45 0
-280 279 0
-281 25 263 1 0
281 -25 0
281 -263 0
281 -1 0
282 -47 -281 0
-282 47 0
-282 281 0
-283 11 282 0
283 -11 0
283 -282 0
284 -10 -283 0
-284 10 0
-284 283 0
-285 13 280 6 284 0
285 -13 0
285 -280 0
285 -6 0
285 -284 0
286 -15 -285 0
-286 15 0
-286 285 0
-287 17 286 0
287 -17 0
287 -286 0
288 -19 -287 0
-288 19 0
-288 287 0
-289 21 4 288 0
289 -21 0
289 -4 0
289 -288 0
290 -77 -289 0
-290 77 0
-290 289 0
-291 79 269 53 276 290 0
291 -79 0
291 -269 0
291 -53 0
291 -276 0
291 -290 0
292 -81 -291 0
-292 81 0
-292 291 0
293 -77 -82 0
-293 77 0
-293 82 0
-294 79 100 53 62 293 0
294 -79 0
294 -100 0
294 -53 0
294 -62 0
294 -293 0
295 -166 -294 0
-295 166 0
-295 294 0
-296 168 295 0
296 -168 0
296 -295 0
297 -188 -296 0
-297 188 0
-297 296 0
-298 25 297 1 83 0
298 -25 0
298 -297 0
298 -1 0
298 -83 0
299 -27 -298 0
-299 27 0
-299 298 0
-300 33 299 28 30 0
300 -33 0
300 -299 0
300 -28 0
300 -30 0
301 -45 -300 0
-301 45 0
-301 300 0
-302 79 53 62 293 0
302 -79 0
302 -53 0
302 -62 0
302 -293 0
303 -166 -302 0
-303 166 0
-303 302 0
-304 168 261 303 0
304 -168 0
304 -261 0
304 -303 0
305 -188 -304 0
-305 188 0
-305 304 0
-306 25 305 1 83 0
306 -25 0
306 -305 0
306 -1 0
306 -83 0
307 -47 -306 0
-307 47 0
-307 306 0
-308 11 307 0
308 -11 0
308 -307 0
309 -10 -308 0
-309 10 0
-309 308 0
-310 13 301 6 309 0
310 -13 0
310 -301 0
310 -6 0
310 -309 0
311 -15 -310 0
-311 15 0
-311 310 0
-312 17 311 0
312 -17 0
312 -311 0
313 -95 -312 0
-313 95 0
-313 312 0
-314 97 255 36 292 313 0
314 -97 0
314 -255 0
314 -36 0
314 -292 0
314 -313 0
315 -316 -314 0
-315 316 0
-315 314 0
317 -99 -105 0
-317 99 0
-317 105 0
-318 168 317 184 185 0
318 -168 0
318 -317 0
318 -184 0
318 -185 0
319 -188 -318 0
-319 188 0
-319 318 0
-320 168 184 0
320 -168 0
320 -184 0
321 -192 -320 0
-321 192 0
-321 320 0
-322 59 321 0
322 -59 0
322 -321 0
323 -58 -322 0
-323 58 0
-323 322 0
-324 61 55 323 0
324 -61 0
324 -55 0
324 -323 0
325 -63 -324 0
-325 63 0
-325 324 0
-326 79 100 53 325 101 0
326 -79 0
326 -100 0
326 -53 0
326 -325 0
326 -101 0
327 -81 -326 0
-327 81 0
-327 326 0
-328 97 36 327 104 0
328 -97 0
328 -36 0
328 -327 0
328 -104 0
329 -107 -328 0
-329 107 0
-329 328 0
-330 25 319 329 1 22 0
330 -25 0
330 -319 0
330 -329 0
330 -1 0
330 -22 0
331 -27 -330 0
-331 27 0
-331 330 0
-332 33 331 28 30 0
332 -33 0
332 -331 0
332 -28 0
332 -30 0
333 -334 -332 0
-333 334 0
-333 332 0
335 -336 -3 0
-335 336 0
-335 3 0
337 -99 -117 0
-337 99 0
-337 117 0
338 -166 -114 0
-338 166 0
-338 114 0
-339 168 337 338 0
339 -168 0
339 -337 0
339 -338 0
340 -188 -339 0
-340 188 0
-340 339 0
341 -192 -168 0
-341 192 0
-341 168 0
-342 59 341 0
342 -59 0
342 -341 0
343 -58 -342 0
-343 58 0
-343 342 0
-344 61 55 343 0
344 -61 0
344 -55 0
344 -343 0
345 -63 -344 0
-345 63 0
-345 344 0
-346 79 100 53 345 113 0
346 -79 0
346 -100 0
346 -53 0
346 -345 0
346 -113 0
347 -81 -346 0
-347 81 0
-347 346 0
-348 97 36 347 116 0
348 -97 0
348 -36 0
348 -347 0
348 -116 0
349 -107 -348 0
-349 107 0
-349 348 0
-350 25 340 349 1 40 0
350 -25 0
350 -340 0
350 -349 0
350 -1 0
350 -40 0
351 -27 -350 0
-351 27 0
-351 350 0
-352 33 351 28 30 0
352 -33 0
352 -351 0
352 -28 0
352 -30 0
353 -45 -352 0
-353 45 0
-353 352 0
354 -99 -127 0
-354 99 0
-354 127 0
355 -166 -125 0
-355 166 0
-355 125 0
-356 168 354 261 355 0
356 -168 0
356 -354 0
356 -261 0
356 -355 0
357 -188 -356 0
-357 188 0
-357 356 0
358 -192 -262 0
-358 192 0
-358 262 0
-359 59 358 0
359 -59 0
359 -358 0
360 -58 -359 0
-360 58 0
-360 359 0
-361 61 55 360 0
361 -61 0
361 -55 0
361 -360 0
362 -63 -361 0
-362 63 0
-362 361 0
-363 79 53 362 113 0
363 -79 0
363 -53 0
363 -362 0
363 -113 0
364 -81 -363 0
-364 81 0
-364 363 0
-365 97 124 36 364 116 0
365 -97 0
365 -124 0
365 -36 0
365 -364 0
365 -116 0
366 -107 -365 0
-366 107 0
-366 365 0
-367 25 357 366 1 40 0
367 -25 0
367 -357 0
367 -366 0
367 -1 0
367 -40 0
368 -47 -367 0
-368 47 0
-368 367 0
-369 11 368 0
369 -11 0
369 -368 0
370 -10 -369 0
-370 10 0
-370 369 0
-371 13 353 6 370 0
371 -13 0
371 -353 0
371 -6 0
371 -370 0
372 -373 -371 0
-372 373 0
-372 371 0
-374 13 171 6 0
374 -13 0
374 -171 0
374 -6 0
375 -52 -374 0
-375 52 0
-375 374 0
376 -15 -374 0
-376 15 0
-376 374 0
-377 17 376 0
377 -17 0
377 -376 0
378 -19 -377 0
-378 19 0
-378 377 0
-379 21 4 378 0
379 -21 0
379 -4 0
379 -378 0
380 -77 -379 0
-380 77 0
-380 379 0
-381 79 375 53 62 380 0
381 -79 0
381 -375 0
381 -53 0
381 -62 0
381 -380 0
382 -81 -381 0
-382 81 0
-382 381 0
383 -95 -377 0
-383 95 0
-383 377 0
-384 97 124 36 382 383 0
384 -97 0
384 -124 0
384 -36 0
384 -382 0
384 -383 0
385 -99 -384 0
-385 99 0
-385 384 0
386 -135 -374 0
-386 135 0
-386 374 0
387 -166 -381 0
-387 166 0
-387 381 0
-388 168 385 261 386 387 0
388 -168 0
388 -385 0
388 -261 0
388 -386 0
388 -387 0
389 -188 -388 0
-389 188 0
-389 388 0
-390 168 261 386 0
390 -168 0
390 -261 0
390 -386 0
391 -192 -390 0
-391 192 0
-391 390 0
-392 59 391 0
392 -59 0
392 -391 0
393 -58 -392 0
-393 58 0
-393 392 0
-394 61 55 393 0
394 -61 0
394 -55 0
394 -393 0
395 -63 -394 0
-395 63 0
-395 394 0
-396 79 375 53 395 380 0
396 -79 0
396 -375 0
396 -53 0
396 -395 0
396 -380 0
397 -81 -396 0
-397 81 0
-397 396 0
-398 97 124 36 397 383 0
398 -97 0
398 -124 0
398 -36 0
398 -397 0
398 -383 0
399 -107 -398 0
-399 107 0
-399 398 0
400 -23 -379 0
-400 23 0
-400 379 0
-401 25 389 399 1 400 0
401 -25 0
401 -389 0
401 -399 0
401 -1 0
401 -400 0
402 -47 -401 0
-402 47 0
-402 401 0
-403 11 402 0
403 -11 0
403 -402 0
404 -405 -403 0
-404 405 0
-404 403 0
-406 407 248 315 333 335 372 404 0
406 -407 0
406 -248 0
406 -315 0
406 -333 0
406 -335 0
406 -372 0
406 -404 0
408 -406 -409 0
-408 406 0
-408 409 0
408 0
