c BC-S1.2
p cnf 84 150
1 -2 -3 0
-1 2 0
-1 3 0
4 -5 -6 0
-4 5 0
-4 6 0
7 -8 -9 0
-7 8 0
-7 9 0
-10 11 4 7 0
10 -11 0
10 -4 0
10 -7 0
12 -13 -10 0
-12 13 0
-12 10 0
-14 15 12 0
14 -15 0
14 -12 0
16 -17 -14 0
-16 17 0
-16 14 0
-18 19 16 0
18 -19 0
18 -16 0
20 -21 -18 0
-20 21 0
-20 18 0
22 -23 -19 0
-22 23 0
-22 19 0
-24 15 22 0
24 -15 0
24 -22 0
25 -26 -24 0
-25 26 0
-25 24 0
-27 11 25 7 0
27 -11 0
27 -25 0
27 -7 0
28 -29 -27 0
-28 29 0
-28 27 0
-30 6 28 0
30 -6 0
30 -28 0
31 -32 -30 0
-31 32 0
-31 30 0
-33 34 20 31 0
33 -34 0
33 -20 0
33 -31 0
35 -36 -33 0
-35 36 0
-35 33 0
37 -38 -34 0
-37 38 0
-37 34 0
-39 19 37 0
39 -19 0
39 -37 0
40 -23 -39 0
-40 23 0
-40 39 0
-41 15 40 0
41 -15 0
41 -40 0
42 -26 -41 0
-42 26 0
-42 41 0
-43 11 42 7 0
43 -11 0
43 -42 0
43 -7 0
44 -29 -43 0
-44 29 0
-44 43 0
-45 6 44 0
45 -6 0
45 -44 0
46 -47 -45 0
-46 47 0
-46 45 0
-48 49 35 46 0
48 -49 0
48 -35 0
48 -46 0
50 -51 -48 0
-50 51 0
-50 48 0
52 -47 -30 0
-52 47 0
-52 30 0
-53 49 52 0
53 -49 0
53 -52 0
54 -55 -53 0
-54 55 0
-54 53 0
-56 34 54 20 31 0
56 -34 0
56 -54 0
56 -20 0
56 -31 0
57 -58 -56 0
-57 58 0
-57 56 0
-59 60 50 57 0
59 -60 0
59 -50 0
59 -57 0
61 -62 -59 0
-61 62 0
-61 59 0
-63 64 61 0
63 -64 0
63 -61 0
65 -66 -63 0
-65 66 0
-65 63 0
67 -68 -69 0
-67 68 0
-67 69 0
-70 71 67 0
70 -71 0
70 -67 0
72 -73 -70 0
-72 73 0
-72 70 0
-74 75 1 65 72 0
74 -75 0
74 -1 0
74 -65 0
74 -72 0
76 -77 -74 0
-76 77 0
-76 74 0
78 -79 -80 0
-78 79 0
-78 80 0
-81 82 76 78 0
81 -82 0
81 -76 0
81 -78 0
83 -81 -84 0
-83 81 0
-83 84 0
83 0
