c BC-S1.2
p cnf 82 173
1 -2 -3 0
-1 2 0
-1 3 0
-4 5 1 0
4 -5 0
4 -1 0
6 -7 -4 0
-6 7 0
-6 4 0
8 -9 -3 0
-8 9 0
-8 3 0
10 -11 -12 0
-10 11 0
-10 12 0
-13 14 6 8 10 0
13 -14 0
13 -6 0
13 -8 0
13 -10 0
15 -16 -13 0
-15 16 0
-15 13 0
-17 18 15 0
17 -18 0
17 -15 0
19 -20 -17 0
-19 20 0
-19 17 0
21 -22 -13 0
-21 22 0
-21 13 0
23 -24 -4 0
-23 24 0
-23 4 0
-25 26 19 21 23 0
25 -26 0
25 -19 0
25 -21 0
25 -23 0
27 -28 -25 0
-27 28 0
-27 25 0
-29 30 27 0
29 -30 0
29 -27 0
31 -32 -29 0
-31 32 0
-31 29 0
33 -34 -25 0
-33 34 0
-33 25 0
35 -36 -3 0
-35 36 0
-35 3 0
-37 14 6 8 0
37 -14 0
37 -6 0
37 -8 0
38 -16 -37 0
-38 16 0
-38 37 0
-39 18 38 0
39 -18 0
39 -38 0
40 -20 -39 0
-40 20 0
-40 39 0
41 -22 -37 0
-41 22 0
-41 37 0
-42 26 40 41 23 0
42 -26 0
42 -40 0
42 -41 0
42 -23 0
43 -44 -42 0
-43 44 0
-43 42 0
-45 12 43 0
45 -12 0
45 -43 0
46 -47 -45 0
-46 47 0
-46 45 0
48 -20 -18 0
-48 20 0
-48 18 0
-49 26 48 41 23 0
49 -26 0
49 -48 0
49 -41 0
49 -23 0
50 -44 -49 0
-50 44 0
-50 49 0
-51 12 50 0
51 -12 0
51 -50 0
52 -11 -51 0
-52 11 0
-52 51 0
-53 14 6 8 52 0
53 -14 0
53 -6 0
53 -8 0
53 -52 0
54 -55 -53 0
-54 55 0
-54 53 0
-56 57 33 35 46 54 0
56 -57 0
56 -33 0
56 -35 0
56 -46 0
56 -54 0
58 -59 -56 0
-58 59 0
-58 56 0
-60 26 41 23 0
60 -26 0
60 -41 0
60 -23 0
61 -44 -60 0
-61 44 0
-61 60 0
-62 12 61 0
62 -12 0
62 -61 0
63 -11 -62 0
-63 11 0
-63 62 0
-64 14 6 8 63 0
64 -14 0
64 -6 0
64 -8 0
64 -63 0
65 -16 -64 0
-65 16 0
-65 64 0
-66 18 65 0
66 -18 0
66 -65 0
67 -68 -66 0
-67 68 0
-67 66 0
69 -70 -56 0
-69 70 0
-69 56 0
71 -72 -25 0
-71 72 0
-71 25 0
73 -74 -45 0
-73 74 0
-73 45 0
-75 76 67 69 71 73 0
75 -76 0
75 -67 0
75 -69 0
75 -71 0
75 -73 0
77 -78 -75 0
-77 78 0
-77 75 0
-79 80 31 58 77 0
79 -80 0
79 -31 0
79 -58 0
79 -77 0
81 -79 -82 0
-81 79 0
-81 82 0
81 0
