c BC-S1.2
p cnf 66 124
1 -2 -3 0
-1 2 0
-1 3 0
4 -5 -3 0
-4 5 0
-4 3 0
6 -7 -3 0
-6 7 0
-6 3 0
-8 9 6 0
8 -9 0
8 -6 0
10 -11 -8 0
-10 11 0
-10 8 0
-12 13 4 10 0
12 -13 0
12 -4 0
12 -10 0
14 -15 -12 0
-14 15 0
-14 12 0
-16 17 14 0
16 -17 0
16 -14 0
18 -19 -16 0
-18 19 0
-18 16 0
20 -21 -17 0
-20 21 0
-20 17 0
-22 9 20 6 0
22 -9 0
22 -20 0
22 -6 0
23 -11 -22 0
-23 11 0
-23 22 0
-24 13 4 23 0
24 -13 0
24 -4 0
24 -23 0
25 -26 -24 0
-25 26 0
-25 24 0
27 -28 -29 0
-27 28 0
-27 29 0
-30 31 18 25 27 0
30 -31 0
30 -18 0
30 -25 0
30 -27 0
32 -33 -30 0
-32 33 0
-32 30 0
34 -35 -3 0
-34 35 0
-34 3 0
36 -37 -30 0
-36 37 0
-36 30 0
38 -39 -30 0
-38 39 0
-38 30 0
-40 13 4 0
40 -13 0
40 -4 0
41 -15 -40 0
-41 15 0
-41 40 0
-42 17 41 0
42 -17 0
42 -41 0
43 -21 -42 0
-43 21 0
-43 42 0
-44 9 43 6 0
44 -9 0
44 -43 0
44 -6 0
45 -46 -44 0
-45 46 0
-45 44 0
47 -48 -29 0
-47 48 0
-47 29 0
-49 50 38 45 47 0
49 -50 0
49 -38 0
49 -45 0
49 -47 0
51 -52 -49 0
-51 52 0
-51 49 0
53 -54 -44 0
-53 54 0
-53 44 0
55 -56 -29 0
-55 56 0
-55 29 0
-57 58 34 36 51 53 55 0
57 -58 0
57 -34 0
57 -36 0
57 -51 0
57 -53 0
57 -55 0
59 -60 -57 0
-59 60 0
-59 57 0
61 -62 -49 0
-61 62 0
-61 49 0
-63 64 1 32 59 61 0
63 -64 0
63 -1 0
63 -32 0
63 -59 0
63 -61 0
65 -63 -66 0
-65 63 0
-65 66 0
65 0
