c BC-S1.2
p cnf 589 2034
1 -2 -3 0
-1 2 0
-1 3 0
4 -5 -3 0
-4 5 0
-4 3 0
6 -7 -8 0
-6 7 0
-6 8 0
9 -10 -11 0
-9 10 0
-9 11 0
-12 13 6 9 0
12 -13 0
12 -6 0
12 -9 0
14 -15 -12 0
-14 15 0
-14 12 0
-16 17 14 0
16 -17 0
16 -14 0
18 -19 -16 0
-18 19 0
-18 16 0
-20 21 4 18 0
20 -21 0
20 -4 0
20 -18 0
22 -23 -20 0
-22 23 0
-22 20 0
-24 25 1 22 0
24 -25 0
24 -1 0
24 -22 0
26 -27 -24 0
-26 27 0
-26 24 0
28 -29 -8 0
-28 29 0
-28 8 0
30 -31 -3 0
-30 31 0
-30 3 0
-32 33 26 28 30 0
32 -33 0
32 -26 0
32 -28 0
32 -30 0
34 -35 -32 0
-34 35 0
-34 32 0
36 -37 -8 0
-36 37 0
-36 8 0
38 -19 -17 0
-38 19 0
-38 17 0
-39 21 4 38 0
39 -21 0
39 -4 0
39 -38 0
40 -23 -39 0
-40 23 0
-40 39 0
-41 25 1 40 0
41 -25 0
41 -1 0
41 -40 0
42 -27 -41 0
-42 27 0
-42 41 0
-43 33 42 28 30 0
43 -33 0
43 -42 0
43 -28 0
43 -30 0
44 -45 -43 0
-44 45 0
-44 43 0
46 -47 -41 0
-46 47 0
-46 41 0
-48 11 46 0
48 -11 0
48 -46 0
49 -10 -48 0
-49 10 0
-49 48 0
-50 13 44 6 49 0
50 -13 0
50 -44 0
50 -6 0
50 -49 0
51 -52 -50 0
-51 52 0
-51 50 0
53 -54 -3 0
-53 54 0
-53 3 0
55 -56 -3 0
-55 56 0
-55 3 0
57 -58 -59 0
-57 58 0
-57 59 0
-60 61 55 57 0
60 -61 0
60 -55 0
60 -57 0
62 -63 -60 0
-62 63 0
-62 60 0
-64 25 1 0
64 -25 0
64 -1 0
65 -27 -64 0
-65 27 0
-65 64 0
-66 33 65 28 30 0
66 -33 0
66 -65 0
66 -28 0
66 -30 0
67 -45 -66 0
-67 45 0
-67 66 0
68 -47 -64 0
-68 47 0
-68 64 0
-69 11 68 0
69 -11 0
69 -68 0
70 -10 -69 0
-70 10 0
-70 69 0
-71 13 67 6 70 0
71 -13 0
71 -67 0
71 -6 0
71 -70 0
72 -15 -71 0
-72 15 0
-72 71 0
-73 17 72 0
73 -17 0
73 -72 0
74 -19 -73 0
-74 19 0
-74 73 0
-75 21 4 74 0
75 -21 0
75 -4 0
75 -74 0
76 -77 -75 0
-76 77 0
-76 75 0
-78 79 51 53 62 76 0
78 -79 0
78 -51 0
78 -53 0
78 -62 0
78 -76 0
80 -81 -78 0
-80 81 0
-80 78 0
-82 21 4 0
82 -21 0
82 -4 0
83 -23 -82 0
-83 23 0
-83 82 0
-84 25 1 83 0
84 -25 0
84 -1 0
84 -83 0
85 -27 -84 0
-85 27 0
-85 84 0
-86 33 85 28 30 0
86 -33 0
86 -85 0
86 -28 0
86 -30 0
87 -45 -86 0
-87 45 0
-87 86 0
88 -47 -84 0
-88 47 0
-88 84 0
-89 11 88 0
89 -11 0
89 -88 0
90 -10 -89 0
-90 10 0
-90 89 0
-91 13 87 6 90 0
91 -13 0
91 -87 0
91 -6 0
91 -90 0
92 -15 -91 0
-92 15 0
-92 91 0
-93 17 92 0
93 -17 0
93 -92 0
94 -95 -93 0
-94 95 0
-94 93 0
-96 97 34 36 80 94 0
96 -97 0
96 -34 0
96 -36 0
96 -80 0
96 -94 0
98 -99 -96 0
-98 99 0
-98 96 0
100 -52 -12 0
-100 52 0
-100 12 0
101 -77 -20 0
-101 77 0
-101 20 0
-102 79 100 53 62 101 0
102 -79 0
102 -100 0
102 -53 0
102 -62 0
102 -101 0
103 -81 -102 0
-103 81 0
-103 102 0
104 -95 -16 0
-104 95 0
-104 16 0
-105 97 36 103 104 0
105 -97 0
105 -36 0
105 -103 0
105 -104 0
106 -107 -105 0
-106 107 0
-106 105 0
-108 25 106 1 22 0
108 -25 0
108 -106 0
108 -1 0
108 -22 0
109 -27 -108 0
-109 27 0
-109 108 0
-110 33 109 28 30 0
110 -33 0
110 -109 0
110 -28 0
110 -30 0
111 -112 -110 0
-111 112 0
-111 110 0
113 -114 -3 0
-113 114 0
-113 3 0
115 -77 -39 0
-115 77 0
-115 39 0
-116 79 100 53 62 115 0
116 -79 0
116 -100 0
116 -53 0
116 -62 0
116 -115 0
117 -81 -116 0
-117 81 0
-117 116 0
118 -95 -17 0
-118 95 0
-118 17 0
-119 97 36 117 118 0
119 -97 0
119 -36 0
119 -117 0
119 -118 0
120 -107 -119 0
-120 107 0
-120 119 0
-121 25 120 1 40 0
121 -25 0
121 -120 0
121 -1 0
121 -40 0
122 -27 -121 0
-122 27 0
-122 121 0
-123 33 122 28 30 0
123 -33 0
123 -122 0
123 -28 0
123 -30 0
124 -45 -123 0
-124 45 0
-124 123 0
-125 33 28 30 0
125 -33 0
125 -28 0
125 -30 0
126 -35 -125 0
-126 35 0
-126 125 0
-127 79 53 62 115 0
127 -79 0
127 -53 0
127 -62 0
127 -115 0
128 -81 -127 0
-128 81 0
-128 127 0
-129 97 126 36 128 118 0
129 -97 0
129 -126 0
129 -36 0
129 -128 0
129 -118 0
130 -107 -129 0
-130 107 0
-130 129 0
-131 25 130 1 40 0
131 -25 0
131 -130 0
131 -1 0
131 -40 0
132 -47 -131 0
-132 47 0
-132 131 0
-133 11 132 0
133 -11 0
133 -132 0
134 -10 -133 0
-134 10 0
-134 133 0
-135 13 124 6 134 0
135 -13 0
135 -124 0
135 -6 0
135 -134 0
136 -137 -135 0
-136 137 0
-136 135 0
138 -45 -125 0
-138 45 0
-138 125 0
-139 13 138 6 0
139 -13 0
139 -138 0
139 -6 0
140 -52 -139 0
-140 52 0
-140 139 0
141 -15 -139 0
-141 15 0
-141 139 0
-142 17 141 0
142 -17 0
142 -141 0
143 -19 -142 0
-143 19 0
-143 142 0
-144 21 4 143 0
144 -21 0
144 -4 0
144 -143 0
145 -77 -144 0
-145 77 0
-145 144 0
-146 79 140 53 62 145 0
146 -79 0
146 -140 0
146 -53 0
146 -62 0
146 -145 0
147 -81 -146 0
-147 81 0
-147 146 0
148 -95 -142 0
-148 95 0
-148 142 0
-149 97 126 36 147 148 0
149 -97 0
149 -126 0
149 -36 0
149 -147 0
149 -148 0
150 -107 -149 0
-150 107 0
-150 149 0
151 -23 -144 0
-151 23 0
-151 144 0
-152 25 150 1 151 0
152 -25 0
152 -150 0
152 -1 0
152 -151 0
153 -47 -152 0
-153 47 0
-153 152 0
-154 11 153 0
154 -11 0
154 -153 0
155 -156 -154 0
-155 156 0
-155 154 0
-157 158 98 111 113 136 155 0
157 -158 0
157 -98 0
157 -111 0
157 -113 0
157 -136 0
157 -155 0
159 -160 -157 0
-159 160 0
-159 157 0
161 -137 -12 0
-161 137 0
-161 12 0
162 -156 -11 0
-162 156 0
-162 11 0
-163 158 113 161 162 0
163 -158 0
163 -113 0
163 -161 0
163 -162 0
164 -165 -163 0
-164 165 0
-164 163 0
-166 25 164 1 22 0
166 -25 0
166 -164 0
166 -1 0
166 -22 0
167 -27 -166 0
-167 27 0
-167 166 0
-168 33 167 28 30 0
168 -33 0
168 -167 0
168 -28 0
168 -30 0
169 -35 -168 0
-169 35 0
-169 168 0
-170 25 164 1 40 0
170 -25 0
170 -164 0
170 -1 0
170 -40 0
171 -27 -170 0
-171 27 0
-171 170 0
-172 33 171 28 30 0
172 -33 0
172 -171 0
172 -28 0
172 -30 0
173 -45 -172 0
-173 45 0
-173 172 0
174 -112 -125 0
-174 112 0
-174 125 0
-175 158 174 113 162 0
175 -158 0
175 -174 0
175 -113 0
175 -162 0
176 -165 -175 0
-176 165 0
-176 175 0
-177 25 176 1 40 0
177 -25 0
177 -176 0
177 -1 0
177 -40 0
178 -47 -177 0
-178 47 0
-178 177 0
-179 11 178 0
179 -11 0
179 -178 0
180 -10 -179 0
-180 10 0
-180 179 0
-181 13 173 6 180 0
181 -13 0
181 -173 0
181 -6 0
181 -180 0
182 -52 -181 0
-182 52 0
-182 181 0
183 -112 -32 0
-183 112 0
-183 32 0
184 -137 -50 0
-184 137 0
-184 50 0
-185 25 1 151 0
185 -25 0
185 -1 0
185 -151 0
186 -47 -185 0
-186 47 0
-186 185 0
-187 11 186 0
187 -11 0
187 -186 0
188 -156 -187 0
-188 156 0
-188 187 0
-189 158 183 113 184 188 0
189 -158 0
189 -183 0
189 -113 0
189 -184 0
189 -188 0
190 -191 -189 0
-190 191 0
-190 189 0
-192 59 190 0
192 -59 0
192 -190 0
193 -58 -192 0
-193 58 0
-193 192 0
-194 61 55 193 0
194 -61 0
194 -55 0
194 -193 0
195 -63 -194 0
-195 63 0
-195 194 0
-196 25 164 1 0
196 -25 0
196 -164 0
196 -1 0
197 -27 -196 0
-197 27 0
-197 196 0
-198 33 197 28 30 0
198 -33 0
198 -197 0
198 -28 0
198 -30 0
199 -45 -198 0
-199 45 0
-199 198 0
-200 25 176 1 0
200 -25 0
200 -176 0
200 -1 0
201 -47 -200 0
-201 47 0
-201 200 0
-202 11 201 0
202 -11 0
202 -201 0
203 -10 -202 0
-203 10 0
-203 202 0
-204 13 199 6 203 0
204 -13 0
204 -199 0
204 -6 0
204 -203 0
205 -15 -204 0
-205 15 0
-205 204 0
-206 17 205 0
206 -17 0
206 -205 0
207 -19 -206 0
-207 19 0
-207 206 0
-208 21 4 207 0
208 -21 0
208 -4 0
208 -207 0
209 -77 -208 0
-209 77 0
-209 208 0
-210 79 182 53 195 209 0
210 -79 0
210 -182 0
210 -53 0
210 -195 0
210 -209 0
211 -81 -210 0
-211 81 0
-211 210 0
-212 25 164 1 83 0
212 -25 0
212 -164 0
212 -1 0
212 -83 0
213 -27 -212 0
-213 27 0
-213 212 0
-214 33 213 28 30 0
214 -33 0
214 -213 0
214 -28 0
214 -30 0
215 -45 -214 0
-215 45 0
-215 214 0
-216 25 176 1 83 0
216 -25 0
216 -176 0
216 -1 0
216 -83 0
217 -47 -216 0
-217 47 0
-217 216 0
-218 11 217 0
218 -11 0
218 -217 0
219 -10 -218 0
-219 10 0
-219 218 0
-220 13 215 6 219 0
220 -13 0
220 -215 0
220 -6 0
220 -219 0
221 -15 -220 0
-221 15 0
-221 220 0
-222 17 221 0
222 -17 0
222 -221 0
223 -95 -222 0
-223 95 0
-223 222 0
-224 97 169 36 211 223 0
224 -97 0
224 -169 0
224 -36 0
224 -211 0
224 -223 0
225 -226 -224 0
-225 226 0
-225 224 0
227 -99 -105 0
-227 99 0
-227 105 0
-228 158 227 113 161 162 0
228 -158 0
228 -227 0
228 -113 0
228 -161 0
228 -162 0
229 -165 -228 0
-229 165 0
-229 228 0
230 -191 -163 0
-230 191 0
-230 163 0
-231 59 230 0
231 -59 0
231 -230 0
232 -58 -231 0
-232 58 0
-232 231 0
-233 61 55 232 0
233 -61 0
233 -55 0
233 -232 0
234 -63 -233 0
-234 63 0
-234 233 0
-235 79 100 53 234 101 0
235 -79 0
235 -100 0
235 -53 0
235 -234 0
235 -101 0
236 -81 -235 0
-236 81 0
-236 235 0
-237 97 36 236 104 0
237 -97 0
237 -36 0
237 -236 0
237 -104 0
238 -107 -237 0
-238 107 0
-238 237 0
-239 25 229 238 1 22 0
239 -25 0
239 -229 0
239 -238 0
239 -1 0
239 -22 0
240 -27 -239 0
-240 27 0
-240 239 0
-241 33 240 28 30 0
241 -33 0
241 -240 0
241 -28 0
241 -30 0
242 -243 -241 0
-242 243 0
-242 241 0
244 -99 -119 0
-244 99 0
-244 119 0
-245 158 244 113 161 162 0
245 -158 0
245 -244 0
245 -113 0
245 -161 0
245 -162 0
246 -165 -245 0
-246 165 0
-246 245 0
-247 79 100 53 234 115 0
247 -79 0
247 -100 0
247 -53 0
247 -234 0
247 -115 0
248 -81 -247 0
-248 81 0
-248 247 0
-249 97 36 248 118 0
249 -97 0
249 -36 0
249 -248 0
249 -118 0
250 -107 -249 0
-250 107 0
-250 249 0
-251 25 246 250 1 40 0
251 -25 0
251 -246 0
251 -250 0
251 -1 0
251 -40 0
252 -27 -251 0
-252 27 0
-252 251 0
-253 33 252 28 30 0
253 -33 0
253 -252 0
253 -28 0
253 -30 0
254 -45 -253 0
-254 45 0
-254 253 0
255 -99 -129 0
-255 99 0
-255 129 0
-256 158 255 174 113 162 0
256 -158 0
256 -255 0
256 -174 0
256 -113 0
256 -162 0
257 -165 -256 0
-257 165 0
-257 256 0
258 -191 -175 0
-258 191 0
-258 175 0
-259 59 258 0
259 -59 0
259 -258 0
260 -58 -259 0
-260 58 0
-260 259 0
-261 61 55 260 0
261 -61 0
261 -55 0
261 -260 0
262 -63 -261 0
-262 63 0
-262 261 0
-263 79 53 262 115 0
263 -79 0
263 -53 0
263 -262 0
263 -115 0
264 -81 -263 0
-264 81 0
-264 263 0
-265 97 126 36 264 118 0
265 -97 0
265 -126 0
265 -36 0
265 -264 0
265 -118 0
266 -107 -265 0
-266 107 0
-266 265 0
-267 25 257 266 1 40 0
267 -25 0
267 -257 0
267 -266 0
267 -1 0
267 -40 0
268 -47 -267 0
-268 47 0
-268 267 0
-269 11 268 0
269 -11 0
269 -268 0
270 -10 -269 0
-270 10 0
-270 269 0
-271 13 254 6 270 0
271 -13 0
271 -254 0
271 -6 0
271 -270 0
272 -273 -271 0
-272 273 0
-272 271 0
-274 97 36 118 0
274 -97 0
274 -36 0
274 -118 0
275 -99 -274 0
-275 99 0
-275 274 0
-276 158 275 113 161 162 0
276 -158 0
276 -275 0
276 -113 0
276 -161 0
276 -162 0
277 -165 -276 0
-277 165 0
-277 276 0
278 -107 -274 0
-278 107 0
-278 274 0
-279 25 277 278 1 40 0
279 -25 0
279 -277 0
279 -278 0
279 -1 0
279 -40 0
280 -27 -279 0
-280 27 0
-280 279 0
-281 33 280 28 30 0
281 -33 0
281 -280 0
281 -28 0
281 -30 0
282 -45 -281 0
-282 45 0
-282 281 0
-283 97 126 36 118 0
283 -97 0
283 -126 0
283 -36 0
283 -118 0
284 -99 -283 0
-284 99 0
-284 283 0
-285 158 284 174 113 162 0
285 -158 0
285 -284 0
285 -174 0
285 -113 0
285 -162 0
286 -165 -285 0
-286 165 0
-286 285 0
287 -107 -283 0
-287 107 0
-287 283 0
-288 25 286 287 1 40 0
288 -25 0
288 -286 0
288 -287 0
288 -1 0
288 -40 0
289 -47 -288 0
-289 47 0
-289 288 0
-290 11 289 0
290 -11 0
290 -289 0
291 -10 -290 0
-291 10 0
-291 290 0
-292 13 282 6 291 0
292 -13 0
292 -282 0
292 -6 0
292 -291 0
293 -52 -292 0
-293 52 0
-293 292 0
-294 97 34 36 94 0
294 -97 0
294 -34 0
294 -36 0
294 -94 0
295 -99 -294 0
-295 99 0
-295 294 0
-296 97 36 104 0
296 -97 0
296 -36 0
296 -104 0
297 -107 -296 0
-297 107 0
-297 296 0
-298 25 297 1 22 0
298 -25 0
298 -297 0
298 -1 0
298 -22 0
299 -27 -298 0
-299 27 0
-299 298 0
-300 33 299 28 30 0
300 -33 0
300 -299 0
300 -28 0
300 -30 0
301 -112 -300 0
-301 112 0
-301 300 0
-302 25 278 1 40 0
302 -25 0
302 -278 0
302 -1 0
302 -40 0
303 -27 -302 0
-303 27 0
-303 302 0
-304 33 303 28 30 0
304 -33 0
304 -303 0
304 -28 0
304 -30 0
305 -45 -304 0
-305 45 0
-305 304 0
-306 25 287 1 40 0
306 -25 0
306 -287 0
306 -1 0
306 -40 0
307 -47 -306 0
-307 47 0
-307 306 0
-308 11 307 0
308 -11 0
308 -307 0
309 -10 -308 0
-309 10 0
-309 308 0
-310 13 305 6 309 0
310 -13 0
310 -305 0
310 -6 0
310 -309 0
311 -137 -310 0
-311 137 0
-311 310 0
-312 97 126 36 148 0
312 -97 0
312 -126 0
312 -36 0
312 -148 0
313 -107 -312 0
-313 107 0
-313 312 0
-314 25 313 1 151 0
314 -25 0
314 -313 0
314 -1 0
314 -151 0
315 -47 -314 0
-315 47 0
-315 314 0
-316 11 315 0
316 -11 0
316 -315 0
317 -156 -316 0
-317 156 0
-317 316 0
-318 158 295 301 113 311 317 0
318 -158 0
318 -295 0
318 -301 0
318 -113 0
318 -311 0
318 -317 0
319 -191 -318 0
-319 191 0
-319 318 0
-320 59 319 0
320 -59 0
320 -319 0
321 -58 -320 0
-321 58 0
-321 320 0
-322 61 55 321 0
322 -61 0
322 -55 0
322 -321 0
323 -63 -322 0
-323 63 0
-323 322 0
-324 25 277 278 1 0
324 -25 0
324 -277 0
324 -278 0
324 -1 0
325 -27 -324 0
-325 27 0
-325 324 0
-326 33 325 28 30 0
326 -33 0
326 -325 0
326 -28 0
326 -30 0
327 -45 -326 0
-327 45 0
-327 326 0
-328 25 286 287 1 0
328 -25 0
328 -286 0
328 -287 0
328 -1 0
329 -47 -328 0
-329 47 0
-329 328 0
-330 11 329 0
330 -11 0
330 -329 0
331 -10 -330 0
-331 10 0
-331 330 0
-332 13 327 6 331 0
332 -13 0
332 -327 0
332 -6 0
332 -331 0
333 -15 -332 0
-333 15 0
-333 332 0
-334 17 333 0
334 -17 0
334 -333 0
335 -19 -334 0
-335 19 0
-335 334 0
-336 21 4 335 0
336 -21 0
336 -4 0
336 -335 0
337 -77 -336 0
-337 77 0
-337 336 0
-338 79 293 53 323 337 0
338 -79 0
338 -293 0
338 -53 0
338 -323 0
338 -337 0
339 -340 -338 0
-339 340 0
-339 338 0
-341 342 159 225 242 272 339 0
341 -342 0
341 -159 0
341 -225 0
341 -242 0
341 -272 0
341 -339 0
343 -344 -341 0
-343 344 0
-343 341 0
-345 13 138 6 9 0
345 -13 0
345 -138 0
345 -6 0
345 -9 0
346 -52 -345 0
-346 52 0
-346 345 0
347 -15 -345 0
-347 15 0
-347 345 0
-348 17 347 0
348 -17 0
348 -347 0
349 -19 -348 0
-349 19 0
-349 348 0
-350 21 4 349 0
350 -21 0
350 -4 0
350 -349 0
351 -77 -350 0
-351 77 0
-351 350 0
-352 79 346 53 62 351 0
352 -79 0
352 -346 0
352 -53 0
352 -62 0
352 -351 0
353 -81 -352 0
-353 81 0
-353 352 0
354 -95 -348 0
-354 95 0
-354 348 0
-355 97 126 36 353 354 0
355 -97 0
355 -126 0
355 -36 0
355 -353 0
355 -354 0
356 -99 -355 0
-356 99 0
-356 355 0
357 -137 -345 0
-357 137 0
-357 345 0
-358 158 356 174 113 357 162 0
358 -158 0
358 -356 0
358 -174 0
358 -113 0
358 -357 0
358 -162 0
359 -160 -358 0
-359 160 0
-359 358 0
-360 158 174 113 357 162 0
360 -158 0
360 -174 0
360 -113 0
360 -357 0
360 -162 0
361 -191 -360 0
-361 191 0
-361 360 0
-362 59 361 0
362 -59 0
362 -361 0
363 -58 -362 0
-363 58 0
-363 362 0
-364 61 55 363 0
364 -61 0
364 -55 0
364 -363 0
365 -63 -364 0
-365 63 0
-365 364 0
-366 79 346 53 365 351 0
366 -79 0
366 -346 0
366 -53 0
366 -365 0
366 -351 0
367 -81 -366 0
-367 81 0
-367 366 0
-368 97 126 36 367 354 0
368 -97 0
368 -126 0
368 -36 0
368 -367 0
368 -354 0
369 -226 -368 0
-369 226 0
-369 368 0
370 -243 -125 0
-370 243 0
-370 125 0
371 -273 -345 0
-371 273 0
-371 345 0
-372 97 126 36 354 0
372 -97 0
372 -126 0
372 -36 0
372 -354 0
373 -99 -372 0
-373 99 0
-373 372 0
-374 158 373 174 113 357 162 0
374 -158 0
374 -373 0
374 -174 0
374 -113 0
374 -357 0
374 -162 0
375 -191 -374 0
-375 191 0
-375 374 0
-376 59 375 0
376 -59 0
376 -375 0
377 -58 -376 0
-377 58 0
-377 376 0
-378 61 55 377 0
378 -61 0
378 -55 0
378 -377 0
379 -63 -378 0
-379 63 0
-379 378 0
-380 79 346 53 379 351 0
380 -79 0
380 -346 0
380 -53 0
380 -379 0
380 -351 0
381 -340 -380 0
-381 340 0
-381 380 0
-382 342 359 369 370 371 381 0
382 -342 0
382 -359 0
382 -369 0
382 -370 0
382 -371 0
382 -381 0
383 -384 -382 0
-383 384 0
-383 382 0
-385 342 370 371 0
385 -342 0
385 -370 0
385 -371 0
386 -387 -385 0
-386 387 0
-386 385 0
-388 59 386 0
388 -59 0
388 -386 0
389 -58 -388 0
-389 58 0
-389 388 0
-390 61 55 389 0
390 -61 0
390 -55 0
390 -389 0
391 -63 -390 0
-391 63 0
-391 390 0
-392 79 346 53 391 351 0
392 -79 0
392 -346 0
392 -53 0
392 -391 0
392 -351 0
393 -81 -392 0
-393 81 0
-393 392 0
-394 97 126 36 393 354 0
394 -97 0
394 -126 0
394 -36 0
394 -393 0
394 -354 0
395 -99 -394 0
-395 99 0
-395 394 0
-396 158 395 174 113 357 162 0
396 -158 0
396 -395 0
396 -174 0
396 -113 0
396 -357 0
396 -162 0
397 -165 -396 0
-397 165 0
-397 396 0
398 -160 -360 0
-398 160 0
-398 360 0
-399 342 398 370 371 0
399 -342 0
399 -398 0
399 -370 0
399 -371 0
400 -387 -399 0
-400 387 0
-400 399 0
-401 59 400 361 0
401 -59 0
401 -400 0
401 -361 0
402 -58 -401 0
-402 58 0
-402 401 0
-403 61 55 402 0
403 -61 0
403 -55 0
403 -402 0
404 -63 -403 0
-404 63 0
-404 403 0
-405 79 346 53 404 351 0
405 -79 0
405 -346 0
405 -53 0
405 -404 0
405 -351 0
406 -81 -405 0
-406 81 0
-406 405 0
-407 97 126 36 406 354 0
407 -97 0
407 -126 0
407 -36 0
407 -406 0
407 -354 0
408 -107 -407 0
-408 107 0
-408 407 0
409 -23 -350 0
-409 23 0
-409 350 0
-410 25 383 397 408 1 409 0
410 -25 0
410 -383 0
410 -397 0
410 -408 0
410 -1 0
410 -409 0
411 -412 -410 0
-411 412 0
-411 410 0
413 -414 -8 0
-413 414 0
-413 8 0
-415 61 55 0
415 -61 0
415 -55 0
416 -63 -415 0
-416 63 0
-416 415 0
-417 79 51 53 416 76 0
417 -79 0
417 -51 0
417 -53 0
417 -416 0
417 -76 0
418 -81 -417 0
-418 81 0
-418 417 0
-419 97 34 36 418 94 0
419 -97 0
419 -34 0
419 -36 0
419 -418 0
419 -94 0
420 -99 -419 0
-420 99 0
-420 419 0
-421 79 100 53 416 101 0
421 -79 0
421 -100 0
421 -53 0
421 -416 0
421 -101 0
422 -81 -421 0
-422 81 0
-422 421 0
-423 97 36 422 104 0
423 -97 0
423 -36 0
423 -422 0
423 -104 0
424 -107 -423 0
-424 107 0
-424 423 0
-425 25 424 1 22 0
425 -25 0
425 -424 0
425 -1 0
425 -22 0
426 -27 -425 0
-426 27 0
-426 425 0
-427 33 426 28 30 0
427 -33 0
427 -426 0
427 -28 0
427 -30 0
428 -112 -427 0
-428 112 0
-428 427 0
-429 79 100 53 416 115 0
429 -79 0
429 -100 0
429 -53 0
429 -416 0
429 -115 0
430 -81 -429 0
-430 81 0
-430 429 0
-431 97 36 430 118 0
431 -97 0
431 -36 0
431 -430 0
431 -118 0
432 -107 -431 0
-432 107 0
-432 431 0
-433 25 432 1 40 0
433 -25 0
433 -432 0
433 -1 0
433 -40 0
434 -27 -433 0
-434 27 0
-434 433 0
-435 33 434 28 30 0
435 -33 0
435 -434 0
435 -28 0
435 -30 0
436 -45 -435 0
-436 45 0
-436 435 0
-437 79 53 416 115 0
437 -79 0
437 -53 0
437 -416 0
437 -115 0
438 -81 -437 0
-438 81 0
-438 437 0
-439 97 126 36 438 118 0
439 -97 0
439 -126 0
439 -36 0
439 -438 0
439 -118 0
440 -107 -439 0
-440 107 0
-440 439 0
-441 25 440 1 40 0
441 -25 0
441 -440 0
441 -1 0
441 -40 0
442 -47 -441 0
-442 47 0
-442 441 0
-443 11 442 0
443 -11 0
443 -442 0
444 -10 -443 0
-444 10 0
-444 443 0
-445 13 436 6 444 0
445 -13 0
445 -436 0
445 -6 0
445 -444 0
446 -137 -445 0
-446 137 0
-446 445 0
-447 79 140 53 416 145 0
447 -79 0
447 -140 0
447 -53 0
447 -416 0
447 -145 0
448 -81 -447 0
-448 81 0
-448 447 0
-449 97 126 36 448 148 0
449 -97 0
449 -126 0
449 -36 0
449 -448 0
449 -148 0
450 -107 -449 0
-450 107 0
-450 449 0
-451 25 450 1 151 0
451 -25 0
451 -450 0
451 -1 0
451 -151 0
452 -47 -451 0
-452 47 0
-452 451 0
-453 11 452 0
453 -11 0
453 -452 0
454 -156 -453 0
-454 156 0
-454 453 0
-455 158 420 428 113 446 454 0
455 -158 0
455 -420 0
455 -428 0
455 -113 0
455 -446 0
455 -454 0
456 -160 -455 0
-456 160 0
-456 455 0
-457 79 182 53 416 209 0
457 -79 0
457 -182 0
457 -53 0
457 -416 0
457 -209 0
458 -81 -457 0
-458 81 0
-458 457 0
-459 97 169 36 458 223 0
459 -97 0
459 -169 0
459 -36 0
459 -458 0
459 -223 0
460 -226 -459 0
-460 226 0
-460 459 0
461 -99 -423 0
-461 99 0
-461 423 0
-462 158 461 113 161 162 0
462 -158 0
462 -461 0
462 -113 0
462 -161 0
462 -162 0
463 -165 -462 0
-463 165 0
-463 462 0
-464 25 463 424 1 22 0
464 -25 0
464 -463 0
464 -424 0
464 -1 0
464 -22 0
465 -27 -464 0
-465 27 0
-465 464 0
-466 33 465 28 30 0
466 -33 0
466 -465 0
466 -28 0
466 -30 0
467 -243 -466 0
-467 243 0
-467 466 0
468 -99 -431 0
-468 99 0
-468 431 0
-469 158 468 113 161 162 0
469 -158 0
469 -468 0
469 -113 0
469 -161 0
469 -162 0
470 -165 -469 0
-470 165 0
-470 469 0
-471 25 470 432 1 40 0
471 -25 0
471 -470 0
471 -432 0
471 -1 0
471 -40 0
472 -27 -471 0
-472 27 0
-472 471 0
-473 33 472 28 30 0
473 -33 0
473 -472 0
473 -28 0
473 -30 0
474 -45 -473 0
-474 45 0
-474 473 0
475 -99 -439 0
-475 99 0
-475 439 0
-476 158 475 174 113 162 0
476 -158 0
476 -475 0
476 -174 0
476 -113 0
476 -162 0
477 -165 -476 0
-477 165 0
-477 476 0
-478 25 477 440 1 40 0
478 -25 0
478 -477 0
478 -440 0
478 -1 0
478 -40 0
479 -47 -478 0
-479 47 0
-479 478 0
-480 11 479 0
480 -11 0
480 -479 0
481 -10 -480 0
-481 10 0
-481 480 0
-482 13 474 6 481 0
482 -13 0
482 -474 0
482 -6 0
482 -481 0
483 -273 -482 0
-483 273 0
-483 482 0
-484 79 293 53 416 337 0
484 -79 0
484 -293 0
484 -53 0
484 -416 0
484 -337 0
485 -340 -484 0
-485 340 0
-485 484 0
-486 342 456 460 467 483 485 0
486 -342 0
486 -456 0
486 -460 0
486 -467 0
486 -483 0
486 -485 0
487 -387 -486 0
-487 387 0
-487 486 0
488 -340 -421 0
-488 340 0
-488 421 0
-489 342 370 371 488 0
489 -342 0
489 -370 0
489 -371 0
489 -488 0
490 -384 -489 0
-490 384 0
-490 489 0
-491 25 490 1 22 0
491 -25 0
491 -490 0
491 -1 0
491 -22 0
492 -27 -491 0
-492 27 0
-492 491 0
-493 33 492 28 30 0
493 -33 0
493 -492 0
493 -28 0
493 -30 0
494 -35 -493 0
-494 35 0
-494 493 0
495 -384 -385 0
-495 384 0
-495 385 0
-496 25 495 1 40 0
496 -25 0
496 -495 0
496 -1 0
496 -40 0
497 -27 -496 0
-497 27 0
-497 496 0
-498 33 497 28 30 0
498 -33 0
498 -497 0
498 -28 0
498 -30 0
499 -45 -498 0
-499 45 0
-499 498 0
-500 342 370 0
500 -342 0
500 -370 0
501 -384 -500 0
-501 384 0
-501 500 0
-502 25 501 1 40 0
502 -25 0
502 -501 0
502 -1 0
502 -40 0
503 -47 -502 0
-503 47 0
-503 502 0
-504 11 503 0
504 -11 0
504 -503 0
505 -10 -504 0
-505 10 0
-505 504 0
-506 13 499 6 505 0
506 -13 0
506 -499 0
506 -6 0
506 -505 0
507 -52 -506 0
-507 52 0
-507 506 0
-508 25 495 1 0
508 -25 0
508 -495 0
508 -1 0
509 -27 -508 0
-509 27 0
-509 508 0
-510 33 509 28 30 0
510 -33 0
510 -509 0
510 -28 0
510 -30 0
511 -45 -510 0
-511 45 0
-511 510 0
-512 25 501 1 0
512 -25 0
512 -501 0
512 -1 0
513 -47 -512 0
-513 47 0
-513 512 0
-514 11 513 0
514 -11 0
514 -513 0
515 -10 -514 0
-515 10 0
-515 514 0
-516 13 511 6 515 0
516 -13 0
516 -511 0
516 -6 0
516 -515 0
517 -15 -516 0
-517 15 0
-517 516 0
-518 17 517 0
518 -17 0
518 -517 0
519 -19 -518 0
-519 19 0
-519 518 0
-520 21 4 519 0
520 -21 0
520 -4 0
520 -519 0
521 -77 -520 0
-521 77 0
-521 520 0
-522 79 507 53 416 521 0
522 -79 0
522 -507 0
522 -53 0
522 -416 0
522 -521 0
523 -81 -522 0
-523 81 0
-523 522 0
524 -77 -82 0
-524 77 0
-524 82 0
-525 79 100 53 416 524 0
525 -79 0
525 -100 0
525 -53 0
525 -416 0
525 -524 0
526 -340 -525 0
-526 340 0
-526 525 0
-527 342 370 371 526 0
527 -342 0
527 -370 0
527 -371 0
527 -526 0
528 -384 -527 0
-528 384 0
-528 527 0
-529 25 528 1 83 0
529 -25 0
529 -528 0
529 -1 0
529 -83 0
530 -27 -529 0
-530 27 0
-530 529 0
-531 33 530 28 30 0
531 -33 0
531 -530 0
531 -28 0
531 -30 0
532 -45 -531 0
-532 45 0
-532 531 0
-533 79 53 416 524 0
533 -79 0
533 -53 0
533 -416 0
533 -524 0
534 -340 -533 0
-534 340 0
-534 533 0
-535 342 370 534 0
535 -342 0
535 -370 0
535 -534 0
536 -384 -535 0
-536 384 0
-536 535 0
-537 25 536 1 83 0
537 -25 0
537 -536 0
537 -1 0
537 -83 0
538 -47 -537 0
-538 47 0
-538 537 0
-539 11 538 0
539 -11 0
539 -538 0
540 -10 -539 0
-540 10 0
-540 539 0
-541 13 532 6 540 0
541 -13 0
541 -532 0
541 -6 0
541 -540 0
542 -15 -541 0
-542 15 0
-542 541 0
-543 17 542 0
543 -17 0
543 -542 0
544 -95 -543 0
-544 95 0
-544 543 0
-545 97 494 36 523 544 0
545 -97 0
545 -494 0
545 -36 0
545 -523 0
545 -544 0
546 -99 -545 0
-546 99 0
-546 545 0
547 -226 -423 0
-547 226 0
-547 423 0
-548 342 547 370 371 488 0
548 -342 0
548 -547 0
548 -370 0
548 -371 0
548 -488 0
549 -384 -548 0
-549 384 0
-549 548 0
-550 25 549 424 1 22 0
550 -25 0
550 -549 0
550 -424 0
550 -1 0
550 -22 0
551 -27 -550 0
-551 27 0
-551 550 0
-552 33 551 28 30 0
552 -33 0
552 -551 0
552 -28 0
552 -30 0
553 -112 -552 0
-553 112 0
-553 552 0
554 -226 -431 0
-554 226 0
-554 431 0
555 -340 -429 0
-555 340 0
-555 429 0
-556 342 554 370 371 555 0
556 -342 0
556 -554 0
556 -370 0
556 -371 0
556 -555 0
557 -384 -556 0
-557 384 0
-557 556 0
-558 25 557 432 1 40 0
558 -25 0
558 -557 0
558 -432 0
558 -1 0
558 -40 0
559 -27 -558 0
-559 27 0
-559 558 0
-560 33 559 28 30 0
560 -33 0
560 -559 0
560 -28 0
560 -30 0
561 -45 -560 0
-561 45 0
-561 560 0
562 -226 -439 0
-562 226 0
-562 439 0
563 -340 -437 0
-563 340 0
-563 437 0
-564 342 562 370 563 0
564 -342 0
564 -562 0
564 -370 0
564 -563 0
565 -384 -564 0
-565 384 0
-565 564 0
-566 25 565 440 1 40 0
566 -25 0
566 -565 0
566 -440 0
566 -1 0
566 -40 0
567 -47 -566 0
-567 47 0
-567 566 0
-568 11 567 0
568 -11 0
568 -567 0
569 -10 -568 0
-569 10 0
-569 568 0
-570 13 561 6 569 0
570 -13 0
570 -561 0
570 -6 0
570 -569 0
571 -137 -570 0
-571 137 0
-571 570 0
572 -226 -449 0
-572 226 0
-572 449 0
573 -273 -139 0
-573 273 0
-573 139 0
574 -340 -447 0
-574 340 0
-574 447 0
-575 342 572 370 573 574 0
575 -342 0
575 -572 0
575 -370 0
575 -573 0
575 -574 0
576 -384 -575 0
-576 384 0
-576 575 0
-577 25 576 450 1 151 0
577 -25 0
577 -576 0
577 -450 0
577 -1 0
577 -151 0
578 -47 -577 0
-578 47 0
-578 577 0
-579 11 578 0
579 -11 0
579 -578 0
580 -156 -579 0
-580 156 0
-580 579 0
-581 158 546 553 113 571 580 0
581 -158 0
581 -546 0
581 -553 0
581 -113 0
581 -571 0
581 -580 0
582 -191 -581 0
-582 191 0
-582 581 0
-583 59 487 582 0
583 -59 0
583 -487 0
583 -582 0
584 -585 -583 0
-584 585 0
-584 583 0
-586 587 343 411 413 584 0
586 -587 0
586 -343 0
586 -411 0
586 -413 0
586 -584 0
588 -586 -589 0
-588 586 0
-588 589 0
588 0
