c BC-S1.2
p cnf 179 472
1 -2 -3 0
-1 2 0
-1 3 0
-4 5 1 0
4 -5 0
4 -1 0
6 -7 -4 0
-6 7 0
-6 4 0
8 -9 -4 0
-8 9 0
-8 4 0
10 -11 -4 0
-10 11 0
-10 4 0
12 -13 -3 0
-12 13 0
-12 3 0
14 -15 -4 0
-14 15 0
-14 4 0
-16 17 14 0
16 -17 0
16 -14 0
18 -19 -16 0
-18 19 0
-18 16 0
-20 21 10 12 18 0
20 -21 0
20 -10 0
20 -12 0
20 -18 0
22 -23 -20 0
-22 23 0
-22 20 0
24 -25 -26 0
-24 25 0
-24 26 0
27 -28 -16 0
-27 28 0
-27 16 0
-29 30 24 27 0
29 -30 0
29 -24 0
29 -27 0
31 -32 -29 0
-31 32 0
-31 29 0
33 -34 -26 0
-33 34 0
-33 26 0
-35 36 22 31 33 0
35 -36 0
35 -22 0
35 -31 0
35 -33 0
37 -38 -35 0
-37 38 0
-37 35 0
39 -40 -3 0
-39 40 0
-39 3 0
41 -42 -26 0
-41 42 0
-41 26 0
43 -44 -16 0
-43 44 0
-43 16 0
-45 46 43 0
45 -46 0
45 -43 0
47 -48 -45 0
-47 48 0
-47 45 0
-49 50 8 37 39 41 47 0
49 -50 0
49 -8 0
49 -37 0
49 -39 0
49 -41 0
49 -47 0
51 -52 -49 0
-51 52 0
-51 49 0
53 -54 -45 0
-53 54 0
-53 45 0
55 -56 -16 0
-55 56 0
-55 16 0
-57 58 55 0
57 -58 0
57 -55 0
59 -60 -57 0
-59 60 0
-59 57 0
-61 62 51 53 59 0
61 -62 0
61 -51 0
61 -53 0
61 -59 0
63 -64 -61 0
-63 64 0
-63 61 0
-65 62 53 59 0
65 -62 0
65 -53 0
65 -59 0
66 -67 -65 0
-66 67 0
-66 65 0
-68 17 14 66 0
68 -17 0
68 -14 0
68 -66 0
69 -19 -68 0
-69 19 0
-69 68 0
-70 21 10 12 69 0
70 -21 0
70 -10 0
70 -12 0
70 -69 0
71 -23 -70 0
-71 23 0
-71 70 0
72 -73 -65 0
-72 73 0
-72 65 0
74 -28 -68 0
-74 28 0
-74 68 0
-75 30 72 24 74 0
75 -30 0
75 -72 0
75 -24 0
75 -74 0
76 -32 -75 0
-76 32 0
-76 75 0
-77 36 71 76 33 0
77 -36 0
77 -71 0
77 -76 0
77 -33 0
78 -38 -77 0
-78 38 0
-78 77 0
-79 62 59 0
79 -62 0
79 -59 0
80 -67 -79 0
-80 67 0
-80 79 0
-81 17 14 80 0
81 -17 0
81 -14 0
81 -80 0
82 -44 -81 0
-82 44 0
-82 81 0
-83 46 82 0
83 -46 0
83 -82 0
84 -48 -83 0
-84 48 0
-84 83 0
-85 50 8 78 39 41 84 0
85 -50 0
85 -8 0
85 -78 0
85 -39 0
85 -41 0
85 -84 0
86 -87 -85 0
-86 87 0
-86 85 0
-88 36 76 33 0
88 -36 0
88 -76 0
88 -33 0
89 -38 -88 0
-89 38 0
-89 88 0
-90 50 8 89 39 41 84 0
90 -50 0
90 -8 0
90 -89 0
90 -39 0
90 -41 0
90 -84 0
91 -92 -90 0
-91 92 0
-91 90 0
-93 36 31 33 0
93 -36 0
93 -31 0
93 -33 0
94 -38 -93 0
-94 38 0
-94 93 0
-95 50 8 94 39 41 47 0
95 -50 0
95 -8 0
95 -94 0
95 -39 0
95 -41 0
95 -47 0
96 -52 -95 0
-96 52 0
-96 95 0
-97 62 96 53 59 0
97 -62 0
97 -96 0
97 -53 0
97 -59 0
98 -67 -97 0
-98 67 0
-98 97 0
-99 17 14 98 0
99 -17 0
99 -14 0
99 -98 0
100 -19 -99 0
-100 19 0
-100 99 0
-101 21 10 91 12 100 0
101 -21 0
101 -10 0
101 -91 0
101 -12 0
101 -100 0
102 -103 -101 0
-102 103 0
-102 101 0
104 -105 -3 0
-104 105 0
-104 3 0
-106 21 10 12 0
106 -21 0
106 -10 0
106 -12 0
107 -23 -106 0
-107 23 0
-107 106 0
-108 36 107 31 33 0
108 -36 0
108 -107 0
108 -31 0
108 -33 0
109 -38 -108 0
-109 38 0
-109 108 0
-110 50 8 109 39 41 47 0
110 -50 0
110 -8 0
110 -109 0
110 -39 0
110 -41 0
110 -47 0
111 -52 -110 0
-111 52 0
-111 110 0
-112 62 111 53 59 0
112 -62 0
112 -111 0
112 -53 0
112 -59 0
113 -67 -112 0
-113 67 0
-113 112 0
-114 17 14 113 0
114 -17 0
114 -14 0
114 -113 0
115 -116 -114 0
-115 116 0
-115 114 0
-117 118 6 63 86 102 104 115 0
117 -118 0
117 -6 0
117 -63 0
117 -86 0
117 -102 0
117 -104 0
117 -115 0
119 -120 -117 0
-119 120 0
-119 117 0
-121 36 22 33 0
121 -36 0
121 -22 0
121 -33 0
122 -38 -121 0
-122 38 0
-122 121 0
-123 50 8 122 39 41 47 0
123 -50 0
123 -8 0
123 -122 0
123 -39 0
123 -41 0
123 -47 0
124 -52 -123 0
-124 52 0
-124 123 0
-125 62 124 53 59 0
125 -62 0
125 -124 0
125 -53 0
125 -59 0
126 -73 -125 0
-126 73 0
-126 125 0
-127 36 107 33 0
127 -36 0
127 -107 0
127 -33 0
128 -38 -127 0
-128 38 0
-128 127 0
-129 50 8 128 39 41 47 0
129 -50 0
129 -8 0
129 -128 0
129 -39 0
129 -41 0
129 -47 0
130 -52 -129 0
-130 52 0
-130 129 0
-131 62 130 53 59 0
131 -62 0
131 -130 0
131 -53 0
131 -59 0
132 -67 -131 0
-132 67 0
-132 131 0
-133 17 14 132 0
133 -17 0
133 -14 0
133 -132 0
134 -28 -133 0
-134 28 0
-134 133 0
-135 30 126 24 134 0
135 -30 0
135 -126 0
135 -24 0
135 -134 0
136 -137 -135 0
-136 137 0
-136 135 0
-138 62 111 53 0
138 -62 0
138 -111 0
138 -53 0
139 -67 -138 0
-139 67 0
-139 138 0
-140 17 14 139 0
140 -17 0
140 -14 0
140 -139 0
141 -56 -140 0
-141 56 0
-141 140 0
-142 58 141 0
142 -58 0
142 -141 0
143 -144 -142 0
-143 144 0
-143 142 0
145 -146 -4 0
-145 146 0
-145 4 0
-147 50 8 39 41 84 0
147 -50 0
147 -8 0
147 -39 0
147 -41 0
147 -84 0
148 -92 -147 0
-148 92 0
-148 147 0
-149 50 8 39 41 47 0
149 -50 0
149 -8 0
149 -39 0
149 -41 0
149 -47 0
150 -52 -149 0
-150 52 0
-150 149 0
-151 62 150 53 59 0
151 -62 0
151 -150 0
151 -53 0
151 -59 0
152 -67 -151 0
-152 67 0
-152 151 0
-153 17 14 152 0
153 -17 0
153 -14 0
153 -152 0
154 -19 -153 0
-154 19 0
-154 153 0
-155 21 10 148 12 154 0
155 -21 0
155 -10 0
155 -148 0
155 -12 0
155 -154 0
156 -23 -155 0
-156 23 0
-156 155 0
157 -73 -151 0
-157 73 0
-157 151 0
158 -28 -153 0
-158 28 0
-158 153 0
-159 30 157 24 158 0
159 -30 0
159 -157 0
159 -24 0
159 -158 0
160 -32 -159 0
-160 32 0
-160 159 0
-161 36 156 160 33 0
161 -36 0
161 -156 0
161 -160 0
161 -33 0
162 -163 -161 0
-162 163 0
-162 161 0
-164 165 145 162 0
164 -165 0
164 -145 0
164 -162 0
166 -167 -164 0
-166 167 0
-166 164 0
168 -169 -161 0
-168 169 0
-168 161 0
170 -171 -135 0
-170 171 0
-170 135 0
-172 173 168 170 0
172 -173 0
172 -168 0
172 -170 0
174 -175 -172 0
-174 175 0
-174 172 0
-176 177 119 136 143 166 174 0
176 -177 0
176 -119 0
176 -136 0
176 -143 0
176 -166 0
176 -174 0
178 -176 -179 0
-178 176 0
-178 179 0
178 0
