c BC-S1.2
p cnf 81 132
1 -2 -3 0
-1 2 0
-1 3 0
-4 5 1 0
4 -5 0
4 -1 0
6 -7 -4 0
-6 7 0
-6 4 0
8 -9 -4 0
-8 9 0
-8 4 0
10 -11 -4 0
-10 11 0
-10 4 0
12 -13 -3 0
-12 13 0
-12 3 0
14 -15 -4 0
-14 15 0
-14 4 0
16 -17 -3 0
-16 17 0
-16 3 0
-18 19 14 16 0
18 -19 0
18 -14 0
18 -16 0
20 -21 -18 0
-20 21 0
-20 18 0
22 -23 -24 0
-22 23 0
-22 24 0
-25 26 22 0
25 -26 0
25 -22 0
27 -28 -25 0
-27 28 0
-27 25 0
29 -30 -4 0
-29 30 0
-29 4 0
-31 32 29 0
31 -32 0
31 -29 0
33 -34 -31 0
-33 34 0
-33 31 0
35 -36 -25 0
-35 36 0
-35 25 0
-37 38 35 0
37 -38 0
37 -35 0
39 -40 -37 0
-39 40 0
-39 37 0
-41 42 20 27 33 39 0
41 -42 0
41 -20 0
41 -27 0
41 -33 0
41 -39 0
43 -44 -41 0
-43 44 0
-43 41 0
-45 46 10 12 43 0
45 -46 0
45 -10 0
45 -12 0
45 -43 0
47 -48 -45 0
-47 48 0
-47 45 0
49 -50 -25 0
-49 50 0
-49 25 0
51 -52 -24 0
-51 52 0
-51 24 0
-53 54 47 49 51 0
53 -54 0
53 -47 0
53 -49 0
53 -51 0
55 -56 -53 0
-55 56 0
-55 53 0
57 -58 -3 0
-57 58 0
-57 3 0
59 -60 -24 0
-59 60 0
-59 24 0
61 -62 -63 0
-61 62 0
-61 63 0
-64 65 8 55 57 59 61 0
64 -65 0
64 -8 0
64 -55 0
64 -57 0
64 -59 0
64 -61 0
66 -67 -64 0
-66 67 0
-66 64 0
68 -69 -63 0
-68 69 0
-68 63 0
-70 71 66 68 0
70 -71 0
70 -66 0
70 -68 0
72 -73 -70 0
-72 73 0
-72 70 0
-74 75 6 72 0
74 -75 0
74 -6 0
74 -72 0
76 -77 -74 0
-76 77 0
-76 74 0
-78 79 76 0
78 -79 0
78 -76 0
80 -78 -81 0
-80 78 0
-80 81 0
80 0
