c BC-S1.2
p cnf 112 223
1 -2 -3 0
-1 2 0
-1 3 0
4 -5 -3 0
-4 5 0
-4 3 0
-6 7 4 0
6 -7 0
6 -4 0
8 -9 -6 0
-8 9 0
-8 6 0
10 -11 -6 0
-10 11 0
-10 6 0
12 -13 -3 0
-12 13 0
-12 3 0
-14 15 10 12 0
14 -15 0
14 -10 0
14 -12 0
16 -17 -14 0
-16 17 0
-16 14 0
-18 19 8 16 0
18 -19 0
18 -8 0
18 -16 0
20 -21 -18 0
-20 21 0
-20 18 0
22 -23 -14 0
-22 23 0
-22 14 0
-24 25 22 0
24 -25 0
24 -22 0
26 -27 -24 0
-26 27 0
-26 24 0
28 -29 -3 0
-28 29 0
-28 3 0
-30 31 28 0
30 -31 0
30 -28 0
32 -33 -30 0
-32 33 0
-32 30 0
-34 35 32 0
34 -35 0
34 -32 0
36 -37 -34 0
-36 37 0
-36 34 0
-38 39 1 20 26 36 0
38 -39 0
38 -1 0
38 -20 0
38 -26 0
38 -36 0
40 -41 -38 0
-40 41 0
-40 38 0
-42 39 1 26 36 0
42 -39 0
42 -1 0
42 -26 0
42 -36 0
43 -44 -42 0
-43 44 0
-43 42 0
-45 7 43 4 0
45 -7 0
45 -43 0
45 -4 0
46 -9 -45 0
-46 9 0
-46 45 0
47 -27 -25 0
-47 27 0
-47 25 0
-48 39 1 47 36 0
48 -39 0
48 -1 0
48 -47 0
48 -36 0
49 -44 -48 0
-49 44 0
-49 48 0
-50 7 49 4 0
50 -7 0
50 -49 0
50 -4 0
51 -11 -50 0
-51 11 0
-51 50 0
-52 15 51 12 0
52 -15 0
52 -51 0
52 -12 0
53 -17 -52 0
-53 17 0
-53 52 0
-54 19 46 53 0
54 -19 0
54 -46 0
54 -53 0
55 -56 -54 0
-55 56 0
-55 54 0
57 -58 -38 0
-57 58 0
-57 38 0
59 -60 -34 0
-59 60 0
-59 34 0
-61 62 57 59 0
61 -62 0
61 -57 0
61 -59 0
63 -64 -61 0
-63 64 0
-63 61 0
65 -66 -3 0
-65 66 0
-65 3 0
67 -68 -54 0
-67 68 0
-67 54 0
69 -70 -38 0
-69 70 0
-69 38 0
71 -72 -54 0
-71 72 0
-71 54 0
73 -21 -19 0
-73 21 0
-73 19 0
-74 39 1 73 47 36 0
74 -39 0
74 -1 0
74 -73 0
74 -47 0
74 -36 0
75 -44 -74 0
-75 44 0
-75 74 0
-76 7 75 4 0
76 -7 0
76 -75 0
76 -4 0
77 -11 -76 0
-77 11 0
-77 76 0
-78 15 77 12 0
78 -15 0
78 -77 0
78 -12 0
79 -80 -78 0
-79 80 0
-79 78 0
81 -82 -54 0
-81 82 0
-81 54 0
83 -84 -34 0
-83 84 0
-83 34 0
85 -86 -3 0
-85 86 0
-85 3 0
-87 88 85 0
87 -88 0
87 -85 0
89 -90 -87 0
-89 90 0
-89 87 0
-91 92 81 83 89 0
91 -92 0
91 -81 0
91 -83 0
91 -89 0
93 -94 -91 0
-93 94 0
-93 91 0
-95 96 69 71 79 93 0
95 -96 0
95 -69 0
95 -71 0
95 -79 0
95 -93 0
97 -98 -95 0
-97 98 0
-97 95 0
-99 100 67 97 0
99 -100 0
99 -67 0
99 -97 0
101 -102 -99 0
-101 102 0
-101 99 0
103 -104 -30 0
-103 104 0
-103 30 0
-105 106 40 55 63 65 101 103 0
105 -106 0
105 -40 0
105 -55 0
105 -63 0
105 -65 0
105 -101 0
105 -103 0
107 -108 -105 0
-107 108 0
-107 105 0
-109 110 107 0
109 -110 0
109 -107 0
111 -109 -112 0
-111 109 0
-111 112 0
111 0
