c BC-S1.2
p cnf 319 897
1 -2 -3 0
-1 2 0
-1 3 0
4 -5 -6 0
-4 5 0
-4 6 0
-7 8 4 0
7 -8 0
7 -4 0
9 -10 -7 0
-9 10 0
-9 7 0
11 -12 -7 0
-11 12 0
-11 7 0
13 -14 -6 0
-13 14 0
-13 6 0
-15 16 11 13 0
15 -16 0
15 -11 0
15 -13 0
17 -18 -15 0
-17 18 0
-17 15 0
19 -20 -21 0
-19 20 0
-19 21 0
-22 23 9 17 19 0
22 -23 0
22 -9 0
22 -17 0
22 -19 0
24 -25 -22 0
-24 25 0
-24 22 0
-26 16 13 0
26 -16 0
26 -13 0
27 -18 -26 0
-27 18 0
-27 26 0
-28 23 27 19 0
28 -23 0
28 -27 0
28 -19 0
29 -30 -28 0
-29 30 0
-29 28 0
-31 6 29 0
31 -6 0
31 -29 0
32 -5 -31 0
-32 5 0
-32 31 0
-33 8 32 0
33 -8 0
33 -32 0
34 -35 -33 0
-34 35 0
-34 33 0
36 -37 -22 0
-36 37 0
-36 22 0
-38 39 36 0
38 -39 0
38 -36 0
40 -41 -38 0
-40 41 0
-40 38 0
-42 43 24 34 40 0
42 -43 0
42 -24 0
42 -34 0
42 -40 0
44 -45 -42 0
-44 45 0
-44 42 0
-46 47 44 0
46 -47 0
46 -44 0
48 -49 -46 0
-48 49 0
-48 46 0
-50 51 48 0
50 -51 0
50 -48 0
52 -53 -50 0
-52 53 0
-52 50 0
-54 55 1 52 0
54 -55 0
54 -1 0
54 -52 0
56 -57 -54 0
-56 57 0
-56 54 0
58 -35 -8 0
-58 35 0
-58 8 0
59 -41 -39 0
-59 41 0
-59 39 0
-60 43 58 59 0
60 -43 0
60 -58 0
60 -59 0
61 -45 -60 0
-61 45 0
-61 60 0
-62 47 61 0
62 -47 0
62 -61 0
63 -49 -62 0
-63 49 0
-63 62 0
-64 51 63 0
64 -51 0
64 -63 0
65 -53 -64 0
-65 53 0
-65 64 0
-66 55 1 65 0
66 -55 0
66 -1 0
66 -65 0
67 -68 -66 0
-67 68 0
-67 66 0
69 -10 -8 0
-69 10 0
-69 8 0
70 -12 -8 0
-70 12 0
-70 8 0
71 -72 -64 0
-71 72 0
-71 64 0
-73 16 70 13 71 0
73 -16 0
73 -70 0
73 -13 0
73 -71 0
74 -18 -73 0
-74 18 0
-74 73 0
75 -76 -62 0
-75 76 0
-75 62 0
-77 23 67 69 74 19 75 0
77 -23 0
77 -67 0
77 -69 0
77 -74 0
77 -19 0
77 -75 0
78 -30 -77 0
-78 30 0
-78 77 0
-79 6 78 0
79 -6 0
79 -78 0
80 -81 -79 0
-80 81 0
-80 79 0
82 -53 -51 0
-82 53 0
-82 51 0
-83 55 1 82 0
83 -55 0
83 -1 0
83 -82 0
84 -68 -83 0
-84 68 0
-84 83 0
85 -72 -51 0
-85 72 0
-85 51 0
-86 16 11 13 85 0
86 -16 0
86 -11 0
86 -13 0
86 -85 0
87 -18 -86 0
-87 18 0
-87 86 0
-88 23 84 9 87 19 0
88 -23 0
88 -84 0
88 -9 0
88 -87 0
88 -19 0
89 -25 -88 0
-89 25 0
-89 88 0
-90 16 13 85 0
90 -16 0
90 -13 0
90 -85 0
91 -18 -90 0
-91 18 0
-91 90 0
-92 23 84 91 19 0
92 -23 0
92 -84 0
92 -91 0
92 -19 0
93 -30 -92 0
-93 30 0
-93 92 0
-94 6 93 0
94 -6 0
94 -93 0
95 -5 -94 0
-95 5 0
-95 94 0
-96 8 95 0
96 -8 0
96 -95 0
97 -35 -96 0
-97 35 0
-97 96 0
98 -37 -88 0
-98 37 0
-98 88 0
-99 39 98 0
99 -39 0
99 -98 0
100 -41 -99 0
-100 41 0
-100 99 0
-101 43 89 97 100 0
101 -43 0
101 -89 0
101 -97 0
101 -100 0
102 -45 -101 0
-102 45 0
-102 101 0
-103 47 102 0
103 -47 0
103 -102 0
104 -105 -103 0
-104 105 0
-104 103 0
-106 107 80 104 0
106 -107 0
106 -80 0
106 -104 0
108 -109 -106 0
-108 109 0
-108 106 0
110 -111 -3 0
-110 111 0
-110 3 0
-112 113 56 108 110 0
112 -113 0
112 -56 0
112 -108 0
112 -110 0
114 -115 -112 0
-114 115 0
-114 112 0
-116 117 114 0
116 -117 0
116 -114 0
118 -119 -116 0
-118 119 0
-118 116 0
-120 121 118 0
120 -121 0
120 -118 0
122 -123 -120 0
-122 123 0
-122 120 0
-124 125 122 0
124 -125 0
124 -122 0
126 -127 -124 0
-126 127 0
-126 124 0
-128 129 126 0
128 -129 0
128 -126 0
130 -131 -128 0
-130 131 0
-130 128 0
132 -123 -121 0
-132 123 0
-132 121 0
-133 125 132 0
133 -125 0
133 -132 0
134 -127 -133 0
-134 127 0
-134 133 0
-135 129 134 0
135 -129 0
135 -134 0
136 -137 -135 0
-136 137 0
-136 135 0
-138 117 136 0
138 -117 0
138 -136 0
139 -140 -138 0
-139 140 0
-139 138 0
-141 3 139 0
141 -3 0
141 -139 0
142 -2 -141 0
-142 2 0
-142 141 0
143 -137 -129 0
-143 137 0
-143 129 0
-144 117 143 0
144 -117 0
144 -143 0
145 -119 -144 0
-145 119 0
-145 144 0
-146 121 145 0
146 -121 0
146 -145 0
147 -123 -146 0
-147 123 0
-147 146 0
-148 125 147 0
148 -125 0
148 -147 0
149 -150 -148 0
-149 150 0
-149 148 0
151 -152 -148 0
-151 152 0
-151 148 0
153 -154 -138 0
-153 154 0
-153 138 0
155 -127 -125 0
-155 127 0
-155 125 0
-156 129 155 0
156 -129 0
156 -155 0
157 -137 -156 0
-157 137 0
-157 156 0
-158 117 157 0
158 -117 0
158 -157 0
159 -119 -158 0
-159 119 0
-159 158 0
-160 121 159 0
160 -121 0
160 -159 0
161 -162 -160 0
-161 162 0
-161 160 0
163 -164 -138 0
-163 164 0
-163 138 0
-165 16 163 11 13 0
165 -16 0
165 -163 0
165 -11 0
165 -13 0
166 -18 -165 0
-166 18 0
-166 165 0
167 -119 -117 0
-167 119 0
-167 117 0
-168 121 167 0
168 -121 0
168 -167 0
169 -123 -168 0
-169 123 0
-169 168 0
-170 125 169 0
170 -125 0
170 -169 0
171 -127 -170 0
-171 127 0
-171 170 0
-172 129 171 0
172 -129 0
172 -171 0
173 -174 -172 0
-173 174 0
-173 172 0
-175 23 151 153 9 161 166 173 0
175 -23 0
175 -151 0
175 -153 0
175 -9 0
175 -161 0
175 -166 0
175 -173 0
176 -25 -175 0
-176 25 0
-176 175 0
177 -178 -138 0
-177 178 0
-177 138 0
-179 16 163 13 0
179 -16 0
179 -163 0
179 -13 0
180 -18 -179 0
-180 18 0
-180 179 0
-181 23 151 153 161 180 173 0
181 -23 0
181 -151 0
181 -153 0
181 -161 0
181 -180 0
181 -173 0
182 -30 -181 0
-182 30 0
-182 181 0
-183 6 182 0
183 -6 0
183 -182 0
184 -5 -183 0
-184 5 0
-184 183 0
-185 8 184 0
185 -8 0
185 -184 0
186 -35 -185 0
-186 35 0
-186 185 0
187 -37 -175 0
-187 37 0
-187 175 0
188 -189 -138 0
-188 189 0
-188 138 0
-190 39 187 188 0
190 -39 0
190 -187 0
190 -188 0
191 -41 -190 0
-191 41 0
-191 190 0
-192 43 149 176 177 186 191 0
192 -43 0
192 -149 0
192 -176 0
192 -177 0
192 -186 0
192 -191 0
193 -45 -192 0
-193 45 0
-193 192 0
-194 47 193 0
194 -47 0
194 -193 0
195 -49 -194 0
-195 49 0
-195 194 0
-196 51 195 0
196 -51 0
196 -195 0
197 -53 -196 0
-197 53 0
-197 196 0
-198 55 142 197 0
198 -55 0
198 -142 0
198 -197 0
199 -57 -198 0
-199 57 0
-199 198 0
200 -201 -160 0
-200 201 0
-200 160 0
-202 39 188 0
202 -39 0
202 -188 0
203 -41 -202 0
-203 41 0
-203 202 0
-204 43 149 177 58 203 0
204 -43 0
204 -149 0
204 -177 0
204 -58 0
204 -203 0
205 -45 -204 0
-205 45 0
-205 204 0
-206 47 205 0
206 -47 0
206 -205 0
207 -49 -206 0
-207 49 0
-207 206 0
-208 51 207 0
208 -51 0
208 -207 0
209 -53 -208 0
-209 53 0
-209 208 0
-210 55 142 209 0
210 -55 0
210 -142 0
210 -209 0
211 -68 -210 0
-211 68 0
-211 210 0
212 -72 -208 0
-212 72 0
-212 208 0
-213 16 163 70 13 212 0
213 -16 0
213 -163 0
213 -70 0
213 -13 0
213 -212 0
214 -18 -213 0
-214 18 0
-214 213 0
215 -76 -206 0
-215 76 0
-215 206 0
-216 23 151 211 153 69 161 214 173 215 0
216 -23 0
216 -151 0
216 -211 0
216 -153 0
216 -69 0
216 -161 0
216 -214 0
216 -173 0
216 -215 0
217 -30 -216 0
-217 30 0
-217 216 0
-218 6 217 0
218 -6 0
218 -217 0
219 -81 -218 0
-219 81 0
-219 218 0
-220 55 142 82 0
220 -55 0
220 -142 0
220 -82 0
221 -68 -220 0
-221 68 0
-221 220 0
-222 16 163 11 13 85 0
222 -16 0
222 -163 0
222 -11 0
222 -13 0
222 -85 0
223 -18 -222 0
-223 18 0
-223 222 0
-224 23 151 221 153 9 161 223 173 0
224 -23 0
224 -151 0
224 -221 0
224 -153 0
224 -9 0
224 -161 0
224 -223 0
224 -173 0
225 -25 -224 0
-225 25 0
-225 224 0
-226 16 163 13 85 0
226 -16 0
226 -163 0
226 -13 0
226 -85 0
227 -18 -226 0
-227 18 0
-227 226 0
-228 23 151 221 153 161 227 173 0
228 -23 0
228 -151 0
228 -221 0
228 -153 0
228 -161 0
228 -227 0
228 -173 0
229 -30 -228 0
-229 30 0
-229 228 0
-230 6 229 0
230 -6 0
230 -229 0
231 -5 -230 0
-231 5 0
-231 230 0
-232 8 231 0
232 -8 0
232 -231 0
233 -35 -232 0
-233 35 0
-233 232 0
234 -37 -224 0
-234 37 0
-234 224 0
-235 39 234 188 0
235 -39 0
235 -234 0
235 -188 0
236 -41 -235 0
-236 41 0
-236 235 0
-237 43 149 225 177 233 236 0
237 -43 0
237 -149 0
237 -225 0
237 -177 0
237 -233 0
237 -236 0
238 -45 -237 0
-238 45 0
-238 237 0
-239 47 238 0
239 -47 0
239 -238 0
240 -105 -239 0
-240 105 0
-240 239 0
-241 107 200 219 240 0
241 -107 0
241 -200 0
241 -219 0
241 -240 0
242 -109 -241 0
-242 109 0
-242 241 0
243 -111 -141 0
-243 111 0
-243 141 0
-244 113 199 242 243 0
244 -113 0
244 -199 0
244 -242 0
244 -243 0
245 -246 -244 0
-245 246 0
-245 244 0
247 -150 -133 0
-247 150 0
-247 133 0
248 -152 -133 0
-248 152 0
-248 133 0
249 -162 -121 0
-249 162 0
-249 121 0
250 -174 -135 0
-250 174 0
-250 135 0
-251 23 248 9 249 17 250 0
251 -23 0
251 -248 0
251 -9 0
251 -249 0
251 -17 0
251 -250 0
252 -25 -251 0
-252 25 0
-252 251 0
-253 23 248 249 27 250 0
253 -23 0
253 -248 0
253 -249 0
253 -27 0
253 -250 0
254 -30 -253 0
-254 30 0
-254 253 0
-255 6 254 0
255 -6 0
255 -254 0
256 -5 -255 0
-256 5 0
-256 255 0
-257 8 256 0
257 -8 0
257 -256 0
258 -35 -257 0
-258 35 0
-258 257 0
259 -37 -251 0
-259 37 0
-259 251 0
-260 39 259 0
260 -39 0
260 -259 0
261 -41 -260 0
-261 41 0
-261 260 0
-262 43 247 252 258 261 0
262 -43 0
262 -247 0
262 -252 0
262 -258 0
262 -261 0
263 -45 -262 0
-263 45 0
-263 262 0
-264 47 263 0
264 -47 0
264 -263 0
265 -49 -264 0
-265 49 0
-265 264 0
-266 51 265 0
266 -51 0
266 -265 0
267 -53 -266 0
-267 53 0
-267 266 0
-268 55 1 267 0
268 -55 0
268 -1 0
268 -267 0
269 -57 -268 0
-269 57 0
-269 268 0
270 -201 -121 0
-270 201 0
-270 121 0
-271 43 247 58 59 0
271 -43 0
271 -247 0
271 -58 0
271 -59 0
272 -45 -271 0
-272 45 0
-272 271 0
-273 47 272 0
273 -47 0
273 -272 0
274 -49 -273 0
-274 49 0
-274 273 0
-275 51 274 0
275 -51 0
275 -274 0
276 -53 -275 0
-276 53 0
-276 275 0
-277 55 1 276 0
277 -55 0
277 -1 0
277 -276 0
278 -68 -277 0
-278 68 0
-278 277 0
279 -72 -275 0
-279 72 0
-279 275 0
-280 16 70 13 279 0
280 -16 0
280 -70 0
280 -13 0
280 -279 0
281 -18 -280 0
-281 18 0
-281 280 0
282 -76 -273 0
-282 76 0
-282 273 0
-283 23 248 278 69 249 281 250 282 0
283 -23 0
283 -248 0
283 -278 0
283 -69 0
283 -249 0
283 -281 0
283 -250 0
283 -282 0
284 -30 -283 0
-284 30 0
-284 283 0
-285 6 284 0
285 -6 0
285 -284 0
286 -81 -285 0
-286 81 0
-286 285 0
-287 23 248 84 9 249 87 250 0
287 -23 0
287 -248 0
287 -84 0
287 -9 0
287 -249 0
287 -87 0
287 -250 0
288 -25 -287 0
-288 25 0
-288 287 0
-289 23 248 84 249 91 250 0
289 -23 0
289 -248 0
289 -84 0
289 -249 0
289 -91 0
289 -250 0
290 -30 -289 0
-290 30 0
-290 289 0
-291 6 290 0
291 -6 0
291 -290 0
292 -5 -291 0
-292 5 0
-292 291 0
-293 8 292 0
293 -8 0
293 -292 0
294 -35 -293 0
-294 35 0
-294 293 0
295 -37 -287 0
-295 37 0
-295 287 0
-296 39 295 0
296 -39 0
296 -295 0
297 -41 -296 0
-297 41 0
-297 296 0
-298 43 247 288 294 297 0
298 -43 0
298 -247 0
298 -288 0
298 -294 0
298 -297 0
299 -45 -298 0
-299 45 0
-299 298 0
-300 47 299 0
300 -47 0
300 -299 0
301 -105 -300 0
-301 105 0
-301 300 0
-302 107 270 286 301 0
302 -107 0
302 -270 0
302 -286 0
302 -301 0
303 -109 -302 0
-303 109 0
-303 302 0
-304 113 269 303 110 0
304 -113 0
304 -269 0
304 -303 0
304 -110 0
305 -115 -304 0
-305 115 0
-305 304 0
-306 117 305 136 0
306 -117 0
306 -305 0
306 -136 0
307 -308 -306 0
-307 308 0
-307 306 0
-309 21 245 307 0
309 -21 0
309 -245 0
309 -307 0
310 -311 -309 0
-310 311 0
-310 309 0
-312 313 310 0
312 -313 0
312 -310 0
314 -315 -312 0
-314 315 0
-314 312 0
-316 317 130 314 0
316 -317 0
316 -130 0
316 -314 0
318 -316 -319 0
-318 316 0
-318 319 0
318 0
