c BC-S1.2
p cnf 1236 4704
1 -2 -3 0
-1 2 0
-1 3 0
4 -5 -6 0
-4 5 0
-4 6 0
7 -8 -9 0
-7 8 0
-7 9 0
-10 11 4 7 0
10 -11 0
10 -4 0
10 -7 0
12 -13 -10 0
-12 13 0
-12 10 0
14 -15 -9 0
-14 15 0
-14 9 0
16 -17 -18 0
-16 17 0
-16 18 0
19 -20 -9 0
-19 20 0
-19 9 0
21 -22 -23 0
-21 22 0
-21 23 0
24 -25 -26 0
-24 25 0
-24 26 0
27 -28 -29 0
-27 28 0
-27 29 0
30 -31 -3 0
-30 31 0
-30 3 0
32 -33 -34 0
-32 33 0
-32 34 0
-35 36 32 0
35 -36 0
35 -32 0
37 -38 -35 0
-37 38 0
-37 35 0
-39 40 16 19 21 24 27 30 37 0
39 -40 0
39 -16 0
39 -19 0
39 -21 0
39 -24 0
39 -27 0
39 -30 0
39 -37 0
41 -42 -39 0
-41 42 0
-41 39 0
-43 44 41 0
43 -44 0
43 -41 0
45 -46 -43 0
-45 46 0
-45 43 0
-47 48 12 14 45 0
47 -48 0
47 -12 0
47 -14 0
47 -45 0
49 -50 -47 0
-49 50 0
-49 47 0
-51 48 14 45 0
51 -48 0
51 -14 0
51 -45 0
52 -53 -51 0
-52 53 0
-52 51 0
54 -55 -51 0
-54 55 0
-54 51 0
-56 6 54 0
56 -6 0
56 -54 0
57 -5 -56 0
-57 5 0
-57 56 0
-58 11 52 57 7 0
58 -11 0
58 -52 0
58 -57 0
58 -7 0
59 -60 -58 0
-59 60 0
-59 58 0
61 -62 -63 0
-61 62 0
-61 63 0
64 -65 -63 0
-64 65 0
-64 63 0
-66 67 64 0
66 -67 0
66 -64 0
68 -69 -66 0
-68 69 0
-68 66 0
-70 71 68 0
70 -71 0
70 -68 0
72 -73 -70 0
-72 73 0
-72 70 0
74 -75 -63 0
-74 75 0
-74 63 0
76 -77 -70 0
-76 77 0
-76 70 0
78 -79 -70 0
-78 79 0
-78 70 0
-80 81 78 0
80 -81 0
80 -78 0
82 -83 -80 0
-82 83 0
-82 80 0
-84 85 74 76 82 0
84 -85 0
84 -74 0
84 -76 0
84 -82 0
86 -87 -84 0
-86 87 0
-86 84 0
-88 11 7 0
88 -11 0
88 -7 0
89 -13 -88 0
-89 13 0
-89 88 0
-90 48 89 14 45 0
90 -48 0
90 -89 0
90 -14 0
90 -45 0
91 -55 -90 0
-91 55 0
-91 90 0
-92 6 91 0
92 -6 0
92 -91 0
93 -94 -92 0
-93 94 0
-93 92 0
95 -96 -47 0
-95 96 0
-95 47 0
97 -98 -43 0
-97 98 0
-97 43 0
-99 40 16 19 21 97 24 27 30 37 0
99 -40 0
99 -16 0
99 -19 0
99 -21 0
99 -97 0
99 -24 0
99 -27 0
99 -30 0
99 -37 0
100 -101 -99 0
-100 101 0
-100 99 0
-102 103 95 100 0
102 -103 0
102 -95 0
102 -100 0
104 -105 -102 0
-104 105 0
-104 102 0
106 -107 -99 0
-106 107 0
-106 99 0
-108 109 104 106 0
108 -109 0
108 -104 0
108 -106 0
110 -111 -108 0
-110 111 0
-110 108 0
112 -113 -66 0
-112 113 0
-112 66 0
114 -115 -47 0
-114 115 0
-114 47 0
-116 117 114 0
116 -117 0
116 -114 0
118 -119 -116 0
-118 119 0
-118 116 0
120 -98 -44 0
-120 98 0
-120 44 0
-121 40 16 19 21 120 24 27 30 0
121 -40 0
121 -16 0
121 -19 0
121 -21 0
121 -120 0
121 -24 0
121 -27 0
121 -30 0
122 -123 -121 0
-122 123 0
-122 121 0
-124 34 122 0
124 -34 0
124 -122 0
125 -33 -124 0
-125 33 0
-125 124 0
-126 36 125 0
126 -36 0
126 -125 0
127 -128 -126 0
-127 128 0
-127 126 0
-129 130 49 59 61 72 86 93 110 112 118 127 0
129 -130 0
129 -49 0
129 -59 0
129 -61 0
129 -72 0
129 -86 0
129 -93 0
129 -110 0
129 -112 0
129 -118 0
129 -127 0
131 -132 -129 0
-131 132 0
-131 129 0
133 -94 -6 0
-133 94 0
-133 6 0
-134 40 16 19 21 120 24 27 30 37 0
134 -40 0
134 -16 0
134 -19 0
134 -21 0
134 -120 0
134 -24 0
134 -27 0
134 -30 0
134 -37 0
135 -101 -134 0
-135 101 0
-135 134 0
-136 103 135 0
136 -103 0
136 -135 0
137 -105 -136 0
-137 105 0
-137 136 0
138 -107 -134 0
-138 107 0
-138 134 0
-139 109 137 138 0
139 -109 0
139 -137 0
139 -138 0
140 -111 -139 0
-140 111 0
-140 139 0
141 -119 -117 0
-141 119 0
-141 117 0
-142 130 61 72 86 133 140 112 141 127 0
142 -130 0
142 -61 0
142 -72 0
142 -86 0
142 -133 0
142 -140 0
142 -112 0
142 -141 0
142 -127 0
143 -144 -142 0
-143 144 0
-143 142 0
-145 9 143 0
145 -9 0
145 -143 0
146 -8 -145 0
-146 8 0
-146 145 0
-147 11 4 146 0
147 -11 0
147 -4 0
147 -146 0
148 -13 -147 0
-148 13 0
-148 147 0
-149 11 4 0
149 -11 0
149 -4 0
150 -60 -149 0
-150 60 0
-150 149 0
-151 130 150 61 72 86 133 140 112 141 127 0
151 -130 0
151 -150 0
151 -61 0
151 -72 0
151 -86 0
151 -133 0
151 -140 0
151 -112 0
151 -141 0
151 -127 0
152 -144 -151 0
-152 144 0
-152 151 0
-153 9 152 0
153 -9 0
153 -152 0
154 -15 -153 0
-154 15 0
-154 153 0
155 -60 -10 0
-155 60 0
-155 10 0
156 -101 -39 0
-156 101 0
-156 39 0
-157 103 156 0
157 -103 0
157 -156 0
158 -105 -157 0
-158 105 0
-158 157 0
159 -107 -39 0
-159 107 0
-159 39 0
-160 109 158 159 0
160 -109 0
160 -158 0
160 -159 0
161 -111 -160 0
-161 111 0
-161 160 0
-162 40 16 19 21 24 27 30 0
162 -40 0
162 -16 0
162 -19 0
162 -21 0
162 -24 0
162 -27 0
162 -30 0
163 -123 -162 0
-163 123 0
-163 162 0
-164 34 163 0
164 -34 0
164 -163 0
165 -33 -164 0
-165 33 0
-165 164 0
-166 36 165 0
166 -36 0
166 -165 0
167 -128 -166 0
-167 128 0
-167 166 0
-168 130 155 61 72 86 133 161 112 141 167 0
168 -130 0
168 -155 0
168 -61 0
168 -72 0
168 -86 0
168 -133 0
168 -161 0
168 -112 0
168 -141 0
168 -167 0
169 -170 -168 0
-169 170 0
-169 168 0
171 -105 -103 0
-171 105 0
-171 103 0
-172 109 171 0
172 -109 0
172 -171 0
173 -111 -172 0
-173 111 0
-173 172 0
174 -128 -35 0
-174 128 0
-174 35 0
-175 130 150 61 72 86 133 173 112 141 174 0
175 -130 0
175 -150 0
175 -61 0
175 -72 0
175 -86 0
175 -133 0
175 -173 0
175 -112 0
175 -141 0
175 -174 0
176 -144 -175 0
-176 144 0
-176 175 0
-177 9 176 0
177 -9 0
177 -176 0
178 -20 -177 0
-178 20 0
-178 177 0
-179 40 16 178 21 24 27 30 37 0
179 -40 0
179 -16 0
179 -178 0
179 -21 0
179 -24 0
179 -27 0
179 -30 0
179 -37 0
180 -42 -179 0
-180 42 0
-180 179 0
-181 44 169 180 0
181 -44 0
181 -169 0
181 -180 0
182 -46 -181 0
-182 46 0
-182 181 0
-183 48 148 154 182 0
183 -48 0
183 -148 0
183 -154 0
183 -182 0
184 -185 -183 0
-184 185 0
-184 183 0
186 -15 -145 0
-186 15 0
-186 145 0
-187 130 61 72 86 133 161 112 141 167 0
187 -130 0
187 -61 0
187 -72 0
187 -86 0
187 -133 0
187 -161 0
187 -112 0
187 -141 0
187 -167 0
188 -170 -187 0
-188 170 0
-188 187 0
-189 130 61 72 86 133 173 112 141 174 0
189 -130 0
189 -61 0
189 -72 0
189 -86 0
189 -133 0
189 -173 0
189 -112 0
189 -141 0
189 -174 0
190 -144 -189 0
-190 144 0
-190 189 0
-191 9 190 0
191 -9 0
191 -190 0
192 -20 -191 0
-192 20 0
-192 191 0
-193 40 16 192 21 24 27 30 37 0
193 -40 0
193 -16 0
193 -192 0
193 -21 0
193 -24 0
193 -27 0
193 -30 0
193 -37 0
194 -42 -193 0
-194 42 0
-194 193 0
-195 44 188 194 0
195 -44 0
195 -188 0
195 -194 0
196 -46 -195 0
-196 46 0
-196 195 0
-197 48 186 196 0
197 -48 0
197 -186 0
197 -196 0
198 -53 -197 0
-198 53 0
-198 197 0
199 -55 -197 0
-199 55 0
-199 197 0
-200 6 199 0
200 -6 0
200 -199 0
201 -5 -200 0
-201 5 0
-201 200 0
202 -50 -51 0
-202 50 0
-202 51 0
203 -94 -56 0
-203 94 0
-203 56 0
204 -96 -51 0
-204 96 0
-204 51 0
-205 103 204 135 0
205 -103 0
205 -204 0
205 -135 0
206 -105 -205 0
-206 105 0
-206 205 0
-207 109 206 138 0
207 -109 0
207 -206 0
207 -138 0
208 -111 -207 0
-208 111 0
-208 207 0
209 -115 -51 0
-209 115 0
-209 51 0
-210 117 209 0
210 -117 0
210 -209 0
211 -119 -210 0
-211 119 0
-211 210 0
-212 130 202 61 72 86 203 208 112 211 127 0
212 -130 0
212 -202 0
212 -61 0
212 -72 0
212 -86 0
212 -203 0
212 -208 0
212 -112 0
212 -211 0
212 -127 0
213 -144 -212 0
-213 144 0
-213 212 0
-214 9 213 0
214 -9 0
214 -213 0
215 -8 -214 0
-215 8 0
-215 214 0
-216 11 198 201 215 0
216 -11 0
216 -198 0
216 -201 0
216 -215 0
217 -218 -216 0
-217 218 0
-217 216 0
-219 11 146 0
219 -11 0
219 -146 0
220 -13 -219 0
-220 13 0
-220 219 0
221 -60 -11 0
-221 60 0
-221 11 0
-222 130 221 61 72 86 133 140 112 141 127 0
222 -130 0
222 -221 0
222 -61 0
222 -72 0
222 -86 0
222 -133 0
222 -140 0
222 -112 0
222 -141 0
222 -127 0
223 -144 -222 0
-223 144 0
-223 222 0
-224 9 223 0
224 -9 0
224 -223 0
225 -15 -224 0
-225 15 0
-225 224 0
226 -60 -88 0
-226 60 0
-226 88 0
-227 130 226 61 72 86 133 161 112 141 167 0
227 -130 0
227 -226 0
227 -61 0
227 -72 0
227 -86 0
227 -133 0
227 -161 0
227 -112 0
227 -141 0
227 -167 0
228 -170 -227 0
-228 170 0
-228 227 0
-229 130 221 61 72 86 133 173 112 141 174 0
229 -130 0
229 -221 0
229 -61 0
229 -72 0
229 -86 0
229 -133 0
229 -173 0
229 -112 0
229 -141 0
229 -174 0
230 -144 -229 0
-230 144 0
-230 229 0
-231 9 230 0
231 -9 0
231 -230 0
232 -20 -231 0
-232 20 0
-232 231 0
-233 40 16 232 21 24 27 30 37 0
233 -40 0
233 -16 0
233 -232 0
233 -21 0
233 -24 0
233 -27 0
233 -30 0
233 -37 0
234 -42 -233 0
-234 42 0
-234 233 0
-235 44 228 234 0
235 -44 0
235 -228 0
235 -234 0
236 -46 -235 0
-236 46 0
-236 235 0
-237 48 220 225 236 0
237 -48 0
237 -220 0
237 -225 0
237 -236 0
238 -55 -237 0
-238 55 0
-238 237 0
-239 6 238 0
239 -6 0
239 -238 0
240 -241 -239 0
-240 241 0
-240 239 0
242 -13 -149 0
-242 13 0
-242 149 0
-243 48 242 14 45 0
243 -48 0
243 -242 0
243 -14 0
243 -45 0
244 -50 -243 0
-244 50 0
-244 243 0
-245 11 52 57 0
245 -11 0
245 -52 0
245 -57 0
246 -60 -245 0
-246 60 0
-246 245 0
247 -13 -11 0
-247 13 0
-247 11 0
-248 48 247 14 45 0
248 -48 0
248 -247 0
248 -14 0
248 -45 0
249 -55 -248 0
-249 55 0
-249 248 0
-250 6 249 0
250 -6 0
250 -249 0
251 -94 -250 0
-251 94 0
-251 250 0
252 -96 -243 0
-252 96 0
-252 243 0
-253 103 252 135 0
253 -103 0
253 -252 0
253 -135 0
254 -105 -253 0
-254 105 0
-254 253 0
-255 109 254 138 0
255 -109 0
255 -254 0
255 -138 0
256 -111 -255 0
-256 111 0
-256 255 0
257 -115 -243 0
-257 115 0
-257 243 0
-258 117 257 0
258 -117 0
258 -257 0
259 -119 -258 0
-259 119 0
-259 258 0
-260 130 244 246 61 72 86 251 256 112 259 127 0
260 -130 0
260 -244 0
260 -246 0
260 -61 0
260 -72 0
260 -86 0
260 -251 0
260 -256 0
260 -112 0
260 -259 0
260 -127 0
261 -144 -260 0
-261 144 0
-261 260 0
-262 9 261 0
262 -9 0
262 -261 0
263 -264 -262 0
-263 264 0
-263 262 0
-265 266 131 184 217 240 263 0
265 -266 0
265 -131 0
265 -184 0
265 -217 0
265 -240 0
265 -263 0
267 -268 -265 0
-267 268 0
-267 265 0
269 -46 -44 0
-269 46 0
-269 44 0
-270 48 12 14 269 0
270 -48 0
270 -12 0
270 -14 0
270 -269 0
271 -50 -270 0
-271 50 0
-271 270 0
-272 48 14 269 0
272 -48 0
272 -14 0
272 -269 0
273 -53 -272 0
-273 53 0
-273 272 0
274 -55 -272 0
-274 55 0
-274 272 0
-275 6 274 0
275 -6 0
275 -274 0
276 -5 -275 0
-276 5 0
-276 275 0
-277 11 273 276 7 0
277 -11 0
277 -273 0
277 -276 0
277 -7 0
278 -60 -277 0
-278 60 0
-278 277 0
-279 48 89 14 269 0
279 -48 0
279 -89 0
279 -14 0
279 -269 0
280 -55 -279 0
-280 55 0
-280 279 0
-281 6 280 0
281 -6 0
281 -280 0
282 -94 -281 0
-282 94 0
-282 281 0
283 -96 -270 0
-283 96 0
-283 270 0
-284 103 283 0
284 -103 0
284 -283 0
285 -105 -284 0
-285 105 0
-285 284 0
-286 109 285 0
286 -109 0
286 -285 0
287 -111 -286 0
-287 111 0
-287 286 0
288 -115 -270 0
-288 115 0
-288 270 0
-289 117 288 0
289 -117 0
289 -288 0
290 -119 -289 0
-290 119 0
-290 289 0
-291 130 271 278 61 72 86 282 287 112 290 174 0
291 -130 0
291 -271 0
291 -278 0
291 -61 0
291 -72 0
291 -86 0
291 -282 0
291 -287 0
291 -112 0
291 -290 0
291 -174 0
292 -132 -291 0
-292 132 0
-292 291 0
293 -8 -191 0
-293 8 0
-293 191 0
-294 11 4 293 0
294 -11 0
294 -4 0
294 -293 0
295 -13 -294 0
-295 13 0
-295 294 0
296 -15 -177 0
-296 15 0
-296 177 0
-297 130 155 61 72 86 133 173 112 141 174 0
297 -130 0
297 -155 0
297 -61 0
297 -72 0
297 -86 0
297 -133 0
297 -173 0
297 -112 0
297 -141 0
297 -174 0
298 -170 -297 0
-298 170 0
-298 297 0
-299 44 298 0
299 -44 0
299 -298 0
300 -46 -299 0
-300 46 0
-300 299 0
-301 48 295 296 300 0
301 -48 0
301 -295 0
301 -296 0
301 -300 0
302 -185 -301 0
-302 185 0
-302 301 0
303 -15 -191 0
-303 15 0
-303 191 0
304 -170 -189 0
-304 170 0
-304 189 0
-305 44 304 0
305 -44 0
305 -304 0
306 -46 -305 0
-306 46 0
-306 305 0
-307 48 303 306 0
307 -48 0
307 -303 0
307 -306 0
308 -53 -307 0
-308 53 0
-308 307 0
309 -55 -307 0
-309 55 0
-309 307 0
-310 6 309 0
310 -6 0
310 -309 0
311 -5 -310 0
-311 5 0
-311 310 0
312 -50 -272 0
-312 50 0
-312 272 0
313 -94 -275 0
-313 94 0
-313 275 0
314 -96 -272 0
-314 96 0
-314 272 0
-315 103 314 0
315 -103 0
315 -314 0
316 -105 -315 0
-316 105 0
-316 315 0
-317 109 316 0
317 -109 0
317 -316 0
318 -111 -317 0
-318 111 0
-318 317 0
319 -115 -272 0
-319 115 0
-319 272 0
-320 117 319 0
320 -117 0
320 -319 0
321 -119 -320 0
-321 119 0
-321 320 0
-322 130 312 61 72 86 313 318 112 321 174 0
322 -130 0
322 -312 0
322 -61 0
322 -72 0
322 -86 0
322 -313 0
322 -318 0
322 -112 0
322 -321 0
322 -174 0
323 -144 -322 0
-323 144 0
-323 322 0
-324 9 323 0
324 -9 0
324 -323 0
325 -8 -324 0
-325 8 0
-325 324 0
-326 11 308 311 325 0
326 -11 0
326 -308 0
326 -311 0
326 -325 0
327 -218 -326 0
-327 218 0
-327 326 0
-328 11 293 0
328 -11 0
328 -293 0
329 -13 -328 0
-329 13 0
-329 328 0
330 -15 -231 0
-330 15 0
-330 231 0
-331 130 226 61 72 86 133 173 112 141 174 0
331 -130 0
331 -226 0
331 -61 0
331 -72 0
331 -86 0
331 -133 0
331 -173 0
331 -112 0
331 -141 0
331 -174 0
332 -170 -331 0
-332 170 0
-332 331 0
-333 44 332 0
333 -44 0
333 -332 0
334 -46 -333 0
-334 46 0
-334 333 0
-335 48 329 330 334 0
335 -48 0
335 -329 0
335 -330 0
335 -334 0
336 -55 -335 0
-336 55 0
-336 335 0
-337 6 336 0
337 -6 0
337 -336 0
338 -241 -337 0
-338 241 0
-338 337 0
-339 48 242 14 269 0
339 -48 0
339 -242 0
339 -14 0
339 -269 0
340 -50 -339 0
-340 50 0
-340 339 0
-341 11 273 276 0
341 -11 0
341 -273 0
341 -276 0
342 -60 -341 0
-342 60 0
-342 341 0
-343 48 247 14 269 0
343 -48 0
343 -247 0
343 -14 0
343 -269 0
344 -55 -343 0
-344 55 0
-344 343 0
-345 6 344 0
345 -6 0
345 -344 0
346 -94 -345 0
-346 94 0
-346 345 0
347 -96 -339 0
-347 96 0
-347 339 0
-348 103 347 0
348 -103 0
348 -347 0
349 -105 -348 0
-349 105 0
-349 348 0
-350 109 349 0
350 -109 0
350 -349 0
351 -111 -350 0
-351 111 0
-351 350 0
352 -115 -339 0
-352 115 0
-352 339 0
-353 117 352 0
353 -117 0
353 -352 0
354 -119 -353 0
-354 119 0
-354 353 0
-355 130 340 342 61 72 86 346 351 112 354 174 0
355 -130 0
355 -340 0
355 -342 0
355 -61 0
355 -72 0
355 -86 0
355 -346 0
355 -351 0
355 -112 0
355 -354 0
355 -174 0
356 -144 -355 0
-356 144 0
-356 355 0
-357 9 356 0
357 -9 0
357 -356 0
358 -264 -357 0
-358 264 0
-358 357 0
-359 266 292 302 327 338 358 0
359 -266 0
359 -292 0
359 -302 0
359 -327 0
359 -338 0
359 -358 0
360 -361 -359 0
-360 361 0
-360 359 0
-362 18 360 0
362 -18 0
362 -360 0
363 -17 -362 0
-363 17 0
-363 362 0
364 -185 -339 0
-364 185 0
-364 339 0
365 -218 -341 0
-365 218 0
-365 341 0
366 -241 -345 0
-366 241 0
-366 345 0
-367 266 364 365 366 0
367 -266 0
367 -364 0
367 -365 0
367 -366 0
368 -369 -367 0
-368 369 0
-368 367 0
-370 109 368 349 0
370 -109 0
370 -368 0
370 -349 0
371 -111 -370 0
-371 111 0
-371 370 0
372 -373 -367 0
-372 373 0
-372 367 0
-374 34 372 0
374 -34 0
374 -372 0
375 -33 -374 0
-375 33 0
-375 374 0
-376 36 375 0
376 -36 0
376 -375 0
377 -128 -376 0
-377 128 0
-377 376 0
-378 130 340 342 61 72 86 346 371 112 354 377 0
378 -130 0
378 -340 0
378 -342 0
378 -61 0
378 -72 0
378 -86 0
378 -346 0
378 -371 0
378 -112 0
378 -354 0
378 -377 0
379 -144 -378 0
-379 144 0
-379 378 0
-380 9 379 0
380 -9 0
380 -379 0
381 -20 -380 0
-381 20 0
-381 380 0
382 -185 -47 0
-382 185 0
-382 47 0
383 -218 -58 0
-383 218 0
-383 58 0
384 -241 -92 0
-384 241 0
-384 92 0
385 -264 -9 0
-385 264 0
-385 9 0
-386 266 382 383 384 385 0
386 -266 0
386 -382 0
386 -383 0
386 -384 0
386 -385 0
387 -369 -386 0
-387 369 0
-387 386 0
-388 109 387 285 0
388 -109 0
388 -387 0
388 -285 0
389 -111 -388 0
-389 111 0
-389 388 0
390 -185 -270 0
-390 185 0
-390 270 0
391 -218 -277 0
-391 218 0
-391 277 0
392 -241 -281 0
-392 241 0
-392 281 0
-393 266 390 391 392 385 0
393 -266 0
393 -390 0
393 -391 0
393 -392 0
393 -385 0
394 -373 -393 0
-394 373 0
-394 393 0
-395 34 394 0
395 -34 0
395 -394 0
396 -33 -395 0
-396 33 0
-396 395 0
-397 36 396 0
397 -36 0
397 -396 0
398 -128 -397 0
-398 128 0
-398 397 0
-399 130 271 278 61 72 86 282 389 112 290 398 0
399 -130 0
399 -271 0
399 -278 0
399 -61 0
399 -72 0
399 -86 0
399 -282 0
399 -389 0
399 -112 0
399 -290 0
399 -398 0
400 -170 -399 0
-400 170 0
-400 399 0
-401 44 400 0
401 -44 0
401 -400 0
402 -98 -401 0
-402 98 0
-402 401 0
-403 130 271 278 61 72 86 282 287 112 290 0
403 -130 0
403 -271 0
403 -278 0
403 -61 0
403 -72 0
403 -86 0
403 -282 0
403 -287 0
403 -112 0
403 -290 0
404 -132 -403 0
-404 132 0
-404 403 0
-405 130 61 72 86 133 173 112 141 0
405 -130 0
405 -61 0
405 -72 0
405 -86 0
405 -133 0
405 -173 0
405 -112 0
405 -141 0
406 -144 -405 0
-406 144 0
-406 405 0
-407 9 406 0
407 -9 0
407 -406 0
408 -8 -407 0
-408 8 0
-408 407 0
-409 11 4 408 0
409 -11 0
409 -4 0
409 -408 0
410 -13 -409 0
-410 13 0
-410 409 0
-411 130 150 61 72 86 133 173 112 141 0
411 -130 0
411 -150 0
411 -61 0
411 -72 0
411 -86 0
411 -133 0
411 -173 0
411 -112 0
411 -141 0
412 -144 -411 0
-412 144 0
-412 411 0
-413 9 412 0
413 -9 0
413 -412 0
414 -15 -413 0
-414 15 0
-414 413 0
-415 130 155 61 72 86 133 173 112 141 0
415 -130 0
415 -155 0
415 -61 0
415 -72 0
415 -86 0
415 -133 0
415 -173 0
415 -112 0
415 -141 0
416 -170 -415 0
-416 170 0
-416 415 0
-417 44 416 0
417 -44 0
417 -416 0
418 -46 -417 0
-418 46 0
-418 417 0
-419 48 410 414 418 0
419 -48 0
419 -410 0
419 -414 0
419 -418 0
420 -185 -419 0
-420 185 0
-420 419 0
421 -15 -407 0
-421 15 0
-421 407 0
422 -170 -405 0
-422 170 0
-422 405 0
-423 44 422 0
423 -44 0
423 -422 0
424 -46 -423 0
-424 46 0
-424 423 0
-425 48 421 424 0
425 -48 0
425 -421 0
425 -424 0
426 -53 -425 0
-426 53 0
-426 425 0
427 -55 -425 0
-427 55 0
-427 425 0
-428 6 427 0
428 -6 0
428 -427 0
429 -5 -428 0
-429 5 0
-429 428 0
-430 130 312 61 72 86 313 318 112 321 0
430 -130 0
430 -312 0
430 -61 0
430 -72 0
430 -86 0
430 -313 0
430 -318 0
430 -112 0
430 -321 0
431 -144 -430 0
-431 144 0
-431 430 0
-432 9 431 0
432 -9 0
432 -431 0
433 -8 -432 0
-433 8 0
-433 432 0
-434 11 426 429 433 0
434 -11 0
434 -426 0
434 -429 0
434 -433 0
435 -218 -434 0
-435 218 0
-435 434 0
-436 11 408 0
436 -11 0
436 -408 0
437 -13 -436 0
-437 13 0
-437 436 0
-438 130 221 61 72 86 133 173 112 141 0
438 -130 0
438 -221 0
438 -61 0
438 -72 0
438 -86 0
438 -133 0
438 -173 0
438 -112 0
438 -141 0
439 -144 -438 0
-439 144 0
-439 438 0
-440 9 439 0
440 -9 0
440 -439 0
441 -15 -440 0
-441 15 0
-441 440 0
-442 130 226 61 72 86 133 173 112 141 0
442 -130 0
442 -226 0
442 -61 0
442 -72 0
442 -86 0
442 -133 0
442 -173 0
442 -112 0
442 -141 0
443 -170 -442 0
-443 170 0
-443 442 0
-444 44 443 0
444 -44 0
444 -443 0
445 -46 -444 0
-445 46 0
-445 444 0
-446 48 437 441 445 0
446 -48 0
446 -437 0
446 -441 0
446 -445 0
447 -55 -446 0
-447 55 0
-447 446 0
-448 6 447 0
448 -6 0
448 -447 0
449 -241 -448 0
-449 241 0
-449 448 0
-450 130 340 342 61 72 86 346 351 112 354 0
450 -130 0
450 -340 0
450 -342 0
450 -61 0
450 -72 0
450 -86 0
450 -346 0
450 -351 0
450 -112 0
450 -354 0
451 -144 -450 0
-451 144 0
-451 450 0
-452 9 451 0
452 -9 0
452 -451 0
453 -264 -452 0
-453 264 0
-453 452 0
-454 266 404 420 435 449 453 0
454 -266 0
454 -404 0
454 -420 0
454 -435 0
454 -449 0
454 -453 0
455 -373 -454 0
-455 373 0
-455 454 0
-456 34 455 0
456 -34 0
456 -455 0
457 -33 -456 0
-457 33 0
-457 456 0
-458 36 457 0
458 -36 0
458 -457 0
459 -38 -458 0
-459 38 0
-459 458 0
-460 40 363 381 21 402 24 27 30 459 0
460 -40 0
460 -363 0
460 -381 0
460 -21 0
460 -402 0
460 -24 0
460 -27 0
460 -30 0
460 -459 0
461 -462 -460 0
-461 462 0
-461 460 0
-463 464 461 0
463 -464 0
463 -461 0
465 -466 -463 0
-465 466 0
-465 463 0
467 -468 -23 0
-467 468 0
-467 23 0
469 -470 -29 0
-469 470 0
-469 29 0
471 -241 -6 0
-471 241 0
-471 6 0
-472 266 471 0
472 -266 0
472 -471 0
473 -369 -472 0
-473 369 0
-473 472 0
474 -361 -472 0
-474 361 0
-474 472 0
-475 18 474 0
475 -18 0
475 -474 0
476 -17 -475 0
-476 17 0
-476 475 0
477 -373 -472 0
-477 373 0
-477 472 0
-478 34 477 0
478 -34 0
478 -477 0
479 -33 -478 0
-479 33 0
-479 478 0
-480 36 479 0
480 -36 0
480 -479 0
481 -38 -480 0
-481 38 0
-481 480 0
-482 40 476 19 21 120 24 27 30 481 0
482 -40 0
482 -476 0
482 -19 0
482 -21 0
482 -120 0
482 -24 0
482 -27 0
482 -30 0
482 -481 0
483 -107 -482 0
-483 107 0
-483 482 0
-484 109 473 483 0
484 -109 0
484 -473 0
484 -483 0
485 -111 -484 0
-485 111 0
-485 484 0
-486 40 476 19 21 120 24 27 30 0
486 -40 0
486 -476 0
486 -19 0
486 -21 0
486 -120 0
486 -24 0
486 -27 0
486 -30 0
487 -123 -486 0
-487 123 0
-487 486 0
-488 34 477 487 0
488 -34 0
488 -477 0
488 -487 0
489 -33 -488 0
-489 33 0
-489 488 0
-490 36 489 0
490 -36 0
490 -489 0
491 -128 -490 0
-491 128 0
-491 490 0
-492 130 61 72 86 133 485 112 141 491 0
492 -130 0
492 -61 0
492 -72 0
492 -86 0
492 -133 0
492 -485 0
492 -112 0
492 -141 0
492 -491 0
493 -144 -492 0
-493 144 0
-493 492 0
-494 9 493 0
494 -9 0
494 -493 0
495 -8 -494 0
-495 8 0
-495 494 0
-496 11 4 495 0
496 -11 0
496 -4 0
496 -495 0
497 -13 -496 0
-497 13 0
-497 496 0
498 -218 -149 0
-498 218 0
-498 149 0
-499 266 498 471 0
499 -266 0
499 -498 0
499 -471 0
500 -369 -499 0
-500 369 0
-500 499 0
501 -361 -499 0
-501 361 0
-501 499 0
-502 18 501 0
502 -18 0
502 -501 0
503 -17 -502 0
-503 17 0
-503 502 0
504 -373 -499 0
-504 373 0
-504 499 0
-505 34 504 0
505 -34 0
505 -504 0
506 -33 -505 0
-506 33 0
-506 505 0
-507 36 506 0
507 -36 0
507 -506 0
508 -38 -507 0
-508 38 0
-508 507 0
-509 40 503 19 21 120 24 27 30 508 0
509 -40 0
509 -503 0
509 -19 0
509 -21 0
509 -120 0
509 -24 0
509 -27 0
509 -30 0
509 -508 0
510 -107 -509 0
-510 107 0
-510 509 0
-511 109 500 510 0
511 -109 0
511 -500 0
511 -510 0
512 -111 -511 0
-512 111 0
-512 511 0
-513 40 503 19 21 120 24 27 30 0
513 -40 0
513 -503 0
513 -19 0
513 -21 0
513 -120 0
513 -24 0
513 -27 0
513 -30 0
514 -123 -513 0
-514 123 0
-514 513 0
-515 34 504 514 0
515 -34 0
515 -504 0
515 -514 0
516 -33 -515 0
-516 33 0
-516 515 0
-517 36 516 0
517 -36 0
517 -516 0
518 -128 -517 0
-518 128 0
-518 517 0
-519 130 150 61 72 86 133 512 112 141 518 0
519 -130 0
519 -150 0
519 -61 0
519 -72 0
519 -86 0
519 -133 0
519 -512 0
519 -112 0
519 -141 0
519 -518 0
520 -144 -519 0
-520 144 0
-520 519 0
-521 9 520 0
521 -9 0
521 -520 0
522 -15 -521 0
-522 15 0
-522 521 0
523 -218 -10 0
-523 218 0
-523 10 0
-524 266 523 471 385 0
524 -266 0
524 -523 0
524 -471 0
524 -385 0
525 -369 -524 0
-525 369 0
-525 524 0
526 -361 -524 0
-526 361 0
-526 524 0
-527 18 526 0
527 -18 0
527 -526 0
528 -17 -527 0
-528 17 0
-528 527 0
529 -373 -524 0
-529 373 0
-529 524 0
-530 34 529 0
530 -34 0
530 -529 0
531 -33 -530 0
-531 33 0
-531 530 0
-532 36 531 0
532 -36 0
532 -531 0
533 -38 -532 0
-533 38 0
-533 532 0
-534 40 528 19 21 24 27 30 533 0
534 -40 0
534 -528 0
534 -19 0
534 -21 0
534 -24 0
534 -27 0
534 -30 0
534 -533 0
535 -107 -534 0
-535 107 0
-535 534 0
-536 109 525 535 0
536 -109 0
536 -525 0
536 -535 0
537 -111 -536 0
-537 111 0
-537 536 0
-538 40 528 19 21 24 27 30 0
538 -40 0
538 -528 0
538 -19 0
538 -21 0
538 -24 0
538 -27 0
538 -30 0
539 -123 -538 0
-539 123 0
-539 538 0
-540 34 529 539 0
540 -34 0
540 -529 0
540 -539 0
541 -33 -540 0
-541 33 0
-541 540 0
-542 36 541 0
542 -36 0
542 -541 0
543 -128 -542 0
-543 128 0
-543 542 0
-544 130 155 61 72 86 133 537 112 141 543 0
544 -130 0
544 -155 0
544 -61 0
544 -72 0
544 -86 0
544 -133 0
544 -537 0
544 -112 0
544 -141 0
544 -543 0
545 -170 -544 0
-545 170 0
-545 544 0
546 -111 -109 0
-546 111 0
-546 109 0
-547 130 155 61 72 86 133 546 112 141 174 0
547 -130 0
547 -155 0
547 -61 0
547 -72 0
547 -86 0
547 -133 0
547 -546 0
547 -112 0
547 -141 0
547 -174 0
548 -132 -547 0
-548 132 0
-548 547 0
-549 130 61 72 86 133 546 112 141 174 0
549 -130 0
549 -61 0
549 -72 0
549 -86 0
549 -133 0
549 -546 0
549 -112 0
549 -141 0
549 -174 0
550 -144 -549 0
-550 144 0
-550 549 0
-551 9 550 0
551 -9 0
551 -550 0
552 -8 -551 0
-552 8 0
-552 551 0
-553 11 4 552 0
553 -11 0
553 -4 0
553 -552 0
554 -218 -553 0
-554 218 0
-554 553 0
-555 130 150 61 72 86 133 546 112 141 174 0
555 -130 0
555 -150 0
555 -61 0
555 -72 0
555 -86 0
555 -133 0
555 -546 0
555 -112 0
555 -141 0
555 -174 0
556 -144 -555 0
-556 144 0
-556 555 0
-557 9 556 0
557 -9 0
557 -556 0
558 -264 -557 0
-558 264 0
-558 557 0
-559 266 548 554 471 558 0
559 -266 0
559 -548 0
559 -554 0
559 -471 0
559 -558 0
560 -361 -559 0
-560 361 0
-560 559 0
-561 18 560 0
561 -18 0
561 -560 0
562 -17 -561 0
-562 17 0
-562 561 0
-563 109 500 0
563 -109 0
563 -500 0
564 -111 -563 0
-564 111 0
-564 563 0
565 -128 -507 0
-565 128 0
-565 507 0
-566 130 150 61 72 86 133 564 112 141 565 0
566 -130 0
566 -150 0
566 -61 0
566 -72 0
566 -86 0
566 -133 0
566 -564 0
566 -112 0
566 -141 0
566 -565 0
567 -144 -566 0
-567 144 0
-567 566 0
-568 9 567 0
568 -9 0
568 -567 0
569 -20 -568 0
-569 20 0
-569 568 0
-570 130 155 61 72 86 133 546 112 141 0
570 -130 0
570 -155 0
570 -61 0
570 -72 0
570 -86 0
570 -133 0
570 -546 0
570 -112 0
570 -141 0
571 -132 -570 0
-571 132 0
-571 570 0
-572 130 61 72 86 133 546 112 141 0
572 -130 0
572 -61 0
572 -72 0
572 -86 0
572 -133 0
572 -546 0
572 -112 0
572 -141 0
573 -144 -572 0
-573 144 0
-573 572 0
-574 9 573 0
574 -9 0
574 -573 0
575 -8 -574 0
-575 8 0
-575 574 0
-576 11 4 575 0
576 -11 0
576 -4 0
576 -575 0
577 -218 -576 0
-577 218 0
-577 576 0
-578 130 150 61 72 86 133 546 112 141 0
578 -130 0
578 -150 0
578 -61 0
578 -72 0
578 -86 0
578 -133 0
578 -546 0
578 -112 0
578 -141 0
579 -144 -578 0
-579 144 0
-579 578 0
-580 9 579 0
580 -9 0
580 -579 0
581 -264 -580 0
-581 264 0
-581 580 0
-582 266 571 577 471 581 0
582 -266 0
582 -571 0
582 -577 0
582 -471 0
582 -581 0
583 -373 -582 0
-583 373 0
-583 582 0
-584 34 583 0
584 -34 0
584 -583 0
585 -33 -584 0
-585 33 0
-585 584 0
-586 36 585 0
586 -36 0
586 -585 0
587 -38 -586 0
-587 38 0
-587 586 0
-588 40 562 569 21 24 27 30 587 0
588 -40 0
588 -562 0
588 -569 0
588 -21 0
588 -24 0
588 -27 0
588 -30 0
588 -587 0
589 -42 -588 0
-589 42 0
-589 588 0
-590 44 545 589 0
590 -44 0
590 -545 0
590 -589 0
591 -46 -590 0
-591 46 0
-591 590 0
-592 48 497 522 591 0
592 -48 0
592 -497 0
592 -522 0
592 -591 0
593 -96 -592 0
-593 96 0
-593 592 0
-594 130 271 278 61 72 86 282 546 112 290 174 0
594 -130 0
594 -271 0
594 -278 0
594 -61 0
594 -72 0
594 -86 0
594 -282 0
594 -546 0
594 -112 0
594 -290 0
594 -174 0
595 -132 -594 0
-595 132 0
-595 594 0
596 -13 -553 0
-596 13 0
-596 553 0
597 -15 -557 0
-597 15 0
-597 557 0
598 -170 -547 0
-598 170 0
-598 547 0
-599 44 598 0
599 -44 0
599 -598 0
600 -46 -599 0
-600 46 0
-600 599 0
-601 48 596 597 600 0
601 -48 0
601 -596 0
601 -597 0
601 -600 0
602 -185 -601 0
-602 185 0
-602 601 0
603 -15 -551 0
-603 15 0
-603 551 0
604 -170 -549 0
-604 170 0
-604 549 0
-605 44 604 0
605 -44 0
605 -604 0
606 -46 -605 0
-606 46 0
-606 605 0
-607 48 603 606 0
607 -48 0
607 -603 0
607 -606 0
608 -53 -607 0
-608 53 0
-608 607 0
609 -55 -607 0
-609 55 0
-609 607 0
-610 6 609 0
610 -6 0
610 -609 0
611 -5 -610 0
-611 5 0
-611 610 0
-612 130 312 61 72 86 313 546 112 321 174 0
612 -130 0
612 -312 0
612 -61 0
612 -72 0
612 -86 0
612 -313 0
612 -546 0
612 -112 0
612 -321 0
612 -174 0
613 -144 -612 0
-613 144 0
-613 612 0
-614 9 613 0
614 -9 0
614 -613 0
615 -8 -614 0
-615 8 0
-615 614 0
-616 11 608 611 615 0
616 -11 0
616 -608 0
616 -611 0
616 -615 0
617 -218 -616 0
-617 218 0
-617 616 0
-618 11 552 0
618 -11 0
618 -552 0
619 -13 -618 0
-619 13 0
-619 618 0
-620 130 221 61 72 86 133 546 112 141 174 0
620 -130 0
620 -221 0
620 -61 0
620 -72 0
620 -86 0
620 -133 0
620 -546 0
620 -112 0
620 -141 0
620 -174 0
621 -144 -620 0
-621 144 0
-621 620 0
-622 9 621 0
622 -9 0
622 -621 0
623 -15 -622 0
-623 15 0
-623 622 0
-624 130 226 61 72 86 133 546 112 141 174 0
624 -130 0
624 -226 0
624 -61 0
624 -72 0
624 -86 0
624 -133 0
624 -546 0
624 -112 0
624 -141 0
624 -174 0
625 -170 -624 0
-625 170 0
-625 624 0
-626 44 625 0
626 -44 0
626 -625 0
627 -46 -626 0
-627 46 0
-627 626 0
-628 48 619 623 627 0
628 -48 0
628 -619 0
628 -623 0
628 -627 0
629 -55 -628 0
-629 55 0
-629 628 0
-630 6 629 0
630 -6 0
630 -629 0
631 -241 -630 0
-631 241 0
-631 630 0
-632 130 340 342 61 72 86 346 546 112 354 174 0
632 -130 0
632 -340 0
632 -342 0
632 -61 0
632 -72 0
632 -86 0
632 -346 0
632 -546 0
632 -112 0
632 -354 0
632 -174 0
633 -144 -632 0
-633 144 0
-633 632 0
-634 9 633 0
634 -9 0
634 -633 0
635 -264 -634 0
-635 264 0
-635 634 0
-636 266 595 602 617 631 635 0
636 -266 0
636 -595 0
636 -602 0
636 -617 0
636 -631 0
636 -635 0
637 -361 -636 0
-637 361 0
-637 636 0
-638 18 637 0
638 -18 0
638 -637 0
639 -17 -638 0
-639 17 0
-639 638 0
-640 109 368 0
640 -109 0
640 -368 0
641 -111 -640 0
-641 111 0
-641 640 0
-642 130 340 342 61 72 86 346 641 112 354 377 0
642 -130 0
642 -340 0
642 -342 0
642 -61 0
642 -72 0
642 -86 0
642 -346 0
642 -641 0
642 -112 0
642 -354 0
642 -377 0
643 -144 -642 0
-643 144 0
-643 642 0
-644 9 643 0
644 -9 0
644 -643 0
645 -20 -644 0
-645 20 0
-645 644 0
-646 109 387 0
646 -109 0
646 -387 0
647 -111 -646 0
-647 111 0
-647 646 0
-648 130 271 278 61 72 86 282 647 112 290 398 0
648 -130 0
648 -271 0
648 -278 0
648 -61 0
648 -72 0
648 -86 0
648 -282 0
648 -647 0
648 -112 0
648 -290 0
648 -398 0
649 -170 -648 0
-649 170 0
-649 648 0
-650 44 649 0
650 -44 0
650 -649 0
651 -98 -650 0
-651 98 0
-651 650 0
-652 130 271 278 61 72 86 282 546 112 290 0
652 -130 0
652 -271 0
652 -278 0
652 -61 0
652 -72 0
652 -86 0
652 -282 0
652 -546 0
652 -112 0
652 -290 0
653 -132 -652 0
-653 132 0
-653 652 0
654 -13 -576 0
-654 13 0
-654 576 0
655 -15 -580 0
-655 15 0
-655 580 0
656 -170 -570 0
-656 170 0
-656 570 0
-657 44 656 0
657 -44 0
657 -656 0
658 -46 -657 0
-658 46 0
-658 657 0
-659 48 654 655 658 0
659 -48 0
659 -654 0
659 -655 0
659 -658 0
660 -185 -659 0
-660 185 0
-660 659 0
661 -15 -574 0
-661 15 0
-661 574 0
662 -170 -572 0
-662 170 0
-662 572 0
-663 44 662 0
663 -44 0
663 -662 0
664 -46 -663 0
-664 46 0
-664 663 0
-665 48 661 664 0
665 -48 0
665 -661 0
665 -664 0
666 -53 -665 0
-666 53 0
-666 665 0
667 -55 -665 0
-667 55 0
-667 665 0
-668 6 667 0
668 -6 0
668 -667 0
669 -5 -668 0
-669 5 0
-669 668 0
-670 130 312 61 72 86 313 546 112 321 0
670 -130 0
670 -312 0
670 -61 0
670 -72 0
670 -86 0
670 -313 0
670 -546 0
670 -112 0
670 -321 0
671 -144 -670 0
-671 144 0
-671 670 0
-672 9 671 0
672 -9 0
672 -671 0
673 -8 -672 0
-673 8 0
-673 672 0
-674 11 666 669 673 0
674 -11 0
674 -666 0
674 -669 0
674 -673 0
675 -218 -674 0
-675 218 0
-675 674 0
-676 11 575 0
676 -11 0
676 -575 0
677 -13 -676 0
-677 13 0
-677 676 0
-678 130 221 61 72 86 133 546 112 141 0
678 -130 0
678 -221 0
678 -61 0
678 -72 0
678 -86 0
678 -133 0
678 -546 0
678 -112 0
678 -141 0
679 -144 -678 0
-679 144 0
-679 678 0
-680 9 679 0
680 -9 0
680 -679 0
681 -15 -680 0
-681 15 0
-681 680 0
-682 130 226 61 72 86 133 546 112 141 0
682 -130 0
682 -226 0
682 -61 0
682 -72 0
682 -86 0
682 -133 0
682 -546 0
682 -112 0
682 -141 0
683 -170 -682 0
-683 170 0
-683 682 0
-684 44 683 0
684 -44 0
684 -683 0
685 -46 -684 0
-685 46 0
-685 684 0
-686 48 677 681 685 0
686 -48 0
686 -677 0
686 -681 0
686 -685 0
687 -55 -686 0
-687 55 0
-687 686 0
-688 6 687 0
688 -6 0
688 -687 0
689 -241 -688 0
-689 241 0
-689 688 0
-690 130 340 342 61 72 86 346 546 112 354 0
690 -130 0
690 -340 0
690 -342 0
690 -61 0
690 -72 0
690 -86 0
690 -346 0
690 -546 0
690 -112 0
690 -354 0
691 -144 -690 0
-691 144 0
-691 690 0
-692 9 691 0
692 -9 0
692 -691 0
693 -264 -692 0
-693 264 0
-693 692 0
-694 266 653 660 675 689 693 0
694 -266 0
694 -653 0
694 -660 0
694 -675 0
694 -689 0
694 -693 0
695 -373 -694 0
-695 373 0
-695 694 0
-696 34 695 0
696 -34 0
696 -695 0
697 -33 -696 0
-697 33 0
-697 696 0
-698 36 697 0
698 -36 0
698 -697 0
699 -38 -698 0
-699 38 0
-699 698 0
-700 40 639 645 21 651 24 27 30 699 0
700 -40 0
700 -639 0
700 -645 0
700 -21 0
700 -651 0
700 -24 0
700 -27 0
700 -30 0
700 -699 0
701 -101 -700 0
-701 101 0
-701 700 0
-702 103 593 701 0
702 -103 0
702 -593 0
702 -701 0
703 -704 -702 0
-703 704 0
-703 702 0
705 -706 -460 0
-705 706 0
-705 460 0
-707 708 267 465 467 469 703 705 0
707 -708 0
707 -267 0
707 -465 0
707 -467 0
707 -469 0
707 -703 0
707 -705 0
709 -710 -707 0
-709 710 0
-709 707 0
711 -466 -464 0
-711 466 0
-711 464 0
712 -704 -284 0
-712 704 0
-712 284 0
-713 708 711 467 469 712 0
713 -708 0
713 -711 0
713 -467 0
713 -469 0
713 -712 0
714 -715 -713 0
-714 715 0
-714 713 0
-716 109 285 714 0
716 -109 0
716 -285 0
716 -714 0
717 -111 -716 0
-717 111 0
-717 716 0
718 -719 -713 0
-718 719 0
-718 713 0
-720 36 32 718 0
720 -36 0
720 -32 0
720 -718 0
721 -128 -720 0
-721 128 0
-721 720 0
-722 130 271 278 61 72 86 282 717 112 290 721 0
722 -130 0
722 -271 0
722 -278 0
722 -61 0
722 -72 0
722 -86 0
722 -282 0
722 -717 0
722 -112 0
722 -290 0
722 -721 0
723 -132 -722 0
-723 132 0
-723 722 0
724 -704 -103 0
-724 704 0
-724 103 0
-725 708 711 467 469 724 0
725 -708 0
725 -711 0
725 -467 0
725 -469 0
725 -724 0
726 -715 -725 0
-726 715 0
-726 725 0
-727 109 171 726 0
727 -109 0
727 -171 0
727 -726 0
728 -111 -727 0
-728 111 0
-728 727 0
729 -719 -725 0
-729 719 0
-729 725 0
-730 36 32 729 0
730 -36 0
730 -32 0
730 -729 0
731 -128 -730 0
-731 128 0
-731 730 0
-732 130 61 72 86 133 728 112 141 731 0
732 -130 0
732 -61 0
732 -72 0
732 -86 0
732 -133 0
732 -728 0
732 -112 0
732 -141 0
732 -731 0
733 -144 -732 0
-733 144 0
-733 732 0
-734 9 733 0
734 -9 0
734 -733 0
735 -8 -734 0
-735 8 0
-735 734 0
-736 11 4 735 0
736 -11 0
736 -4 0
736 -735 0
737 -13 -736 0
-737 13 0
-737 736 0
-738 130 150 61 72 86 133 728 112 141 731 0
738 -130 0
738 -150 0
738 -61 0
738 -72 0
738 -86 0
738 -133 0
738 -728 0
738 -112 0
738 -141 0
738 -731 0
739 -144 -738 0
-739 144 0
-739 738 0
-740 9 739 0
740 -9 0
740 -739 0
741 -15 -740 0
-741 15 0
-741 740 0
-742 130 155 61 72 86 133 728 112 141 731 0
742 -130 0
742 -155 0
742 -61 0
742 -72 0
742 -86 0
742 -133 0
742 -728 0
742 -112 0
742 -141 0
742 -731 0
743 -170 -742 0
-743 170 0
-743 742 0
-744 44 743 0
744 -44 0
744 -743 0
745 -46 -744 0
-745 46 0
-745 744 0
-746 48 737 741 745 0
746 -48 0
746 -737 0
746 -741 0
746 -745 0
747 -185 -746 0
-747 185 0
-747 746 0
748 -15 -734 0
-748 15 0
-748 734 0
749 -170 -732 0
-749 170 0
-749 732 0
-750 44 749 0
750 -44 0
750 -749 0
751 -46 -750 0
-751 46 0
-751 750 0
-752 48 748 751 0
752 -48 0
752 -748 0
752 -751 0
753 -53 -752 0
-753 53 0
-753 752 0
754 -55 -752 0
-754 55 0
-754 752 0
-755 6 754 0
755 -6 0
755 -754 0
756 -5 -755 0
-756 5 0
-756 755 0
757 -704 -315 0
-757 704 0
-757 315 0
-758 708 711 467 469 757 0
758 -708 0
758 -711 0
758 -467 0
758 -469 0
758 -757 0
759 -715 -758 0
-759 715 0
-759 758 0
-760 109 316 759 0
760 -109 0
760 -316 0
760 -759 0
761 -111 -760 0
-761 111 0
-761 760 0
762 -719 -758 0
-762 719 0
-762 758 0
-763 36 32 762 0
763 -36 0
763 -32 0
763 -762 0
764 -128 -763 0
-764 128 0
-764 763 0
-765 130 312 61 72 86 313 761 112 321 764 0
765 -130 0
765 -312 0
765 -61 0
765 -72 0
765 -86 0
765 -313 0
765 -761 0
765 -112 0
765 -321 0
765 -764 0
766 -144 -765 0
-766 144 0
-766 765 0
-767 9 766 0
767 -9 0
767 -766 0
768 -8 -767 0
-768 8 0
-768 767 0
-769 11 753 756 768 0
769 -11 0
769 -753 0
769 -756 0
769 -768 0
770 -218 -769 0
-770 218 0
-770 769 0
-771 11 735 0
771 -11 0
771 -735 0
772 -13 -771 0
-772 13 0
-772 771 0
-773 130 221 61 72 86 133 728 112 141 731 0
773 -130 0
773 -221 0
773 -61 0
773 -72 0
773 -86 0
773 -133 0
773 -728 0
773 -112 0
773 -141 0
773 -731 0
774 -144 -773 0
-774 144 0
-774 773 0
-775 9 774 0
775 -9 0
775 -774 0
776 -15 -775 0
-776 15 0
-776 775 0
-777 130 226 61 72 86 133 728 112 141 731 0
777 -130 0
777 -226 0
777 -61 0
777 -72 0
777 -86 0
777 -133 0
777 -728 0
777 -112 0
777 -141 0
777 -731 0
778 -170 -777 0
-778 170 0
-778 777 0
-779 44 778 0
779 -44 0
779 -778 0
780 -46 -779 0
-780 46 0
-780 779 0
-781 48 772 776 780 0
781 -48 0
781 -772 0
781 -776 0
781 -780 0
782 -55 -781 0
-782 55 0
-782 781 0
-783 6 782 0
783 -6 0
783 -782 0
784 -241 -783 0
-784 241 0
-784 783 0
785 -704 -348 0
-785 704 0
-785 348 0
-786 708 711 467 469 785 0
786 -708 0
786 -711 0
786 -467 0
786 -469 0
786 -785 0
787 -715 -786 0
-787 715 0
-787 786 0
-788 109 349 787 0
788 -109 0
788 -349 0
788 -787 0
789 -111 -788 0
-789 111 0
-789 788 0
790 -719 -786 0
-790 719 0
-790 786 0
-791 36 32 790 0
791 -36 0
791 -32 0
791 -790 0
792 -128 -791 0
-792 128 0
-792 791 0
-793 130 340 342 61 72 86 346 789 112 354 792 0
793 -130 0
793 -340 0
793 -342 0
793 -61 0
793 -72 0
793 -86 0
793 -346 0
793 -789 0
793 -112 0
793 -354 0
793 -792 0
794 -144 -793 0
-794 144 0
-794 793 0
-795 9 794 0
795 -9 0
795 -794 0
796 -264 -795 0
-796 264 0
-796 795 0
797 -96 -601 0
-797 96 0
-797 601 0
-798 103 797 0
798 -103 0
798 -797 0
799 -704 -798 0
-799 704 0
-799 798 0
-800 708 711 467 469 799 0
800 -708 0
800 -711 0
800 -467 0
800 -469 0
800 -799 0
801 -802 -800 0
-801 802 0
-801 800 0
-803 266 723 747 770 784 796 801 0
803 -266 0
803 -723 0
803 -747 0
803 -770 0
803 -784 0
803 -796 0
803 -801 0
804 -361 -803 0
-804 361 0
-804 803 0
-805 18 804 0
805 -18 0
805 -804 0
806 -17 -805 0
-806 17 0
-806 805 0
-807 103 347 135 0
807 -103 0
807 -347 0
807 -135 0
808 -704 -807 0
-808 704 0
-808 807 0
-809 708 711 467 469 808 0
809 -708 0
809 -711 0
809 -467 0
809 -469 0
809 -808 0
810 -802 -809 0
-810 802 0
-810 809 0
-811 266 364 365 366 810 0
811 -266 0
811 -364 0
811 -365 0
811 -366 0
811 -810 0
812 -369 -811 0
-812 369 0
-812 811 0
813 -268 -367 0
-813 268 0
-813 367 0
-814 708 813 711 467 469 785 0
814 -708 0
814 -813 0
814 -711 0
814 -467 0
814 -469 0
814 -785 0
815 -715 -814 0
-815 715 0
-815 814 0
-816 109 812 349 815 0
816 -109 0
816 -812 0
816 -349 0
816 -815 0
817 -111 -816 0
-817 111 0
-817 816 0
818 -802 -786 0
-818 802 0
-818 786 0
-819 266 364 365 366 818 0
819 -266 0
819 -364 0
819 -365 0
819 -366 0
819 -818 0
820 -373 -819 0
-820 373 0
-820 819 0
-821 34 820 0
821 -34 0
821 -820 0
822 -33 -821 0
-822 33 0
-822 821 0
823 -719 -814 0
-823 719 0
-823 814 0
-824 36 822 823 0
824 -36 0
824 -822 0
824 -823 0
825 -128 -824 0
-825 128 0
-825 824 0
-826 130 340 342 61 72 86 346 817 112 354 825 0
826 -130 0
826 -340 0
826 -342 0
826 -61 0
826 -72 0
826 -86 0
826 -346 0
826 -817 0
826 -112 0
826 -354 0
826 -825 0
827 -144 -826 0
-827 144 0
-827 826 0
-828 9 827 0
828 -9 0
828 -827 0
829 -20 -828 0
-829 20 0
-829 828 0
-830 103 95 156 0
830 -103 0
830 -95 0
830 -156 0
831 -704 -830 0
-831 704 0
-831 830 0
-832 708 711 467 469 831 0
832 -708 0
832 -711 0
832 -467 0
832 -469 0
832 -831 0
833 -802 -832 0
-833 802 0
-833 832 0
-834 266 390 391 392 385 833 0
834 -266 0
834 -390 0
834 -391 0
834 -392 0
834 -385 0
834 -833 0
835 -369 -834 0
-835 369 0
-835 834 0
836 -268 -386 0
-836 268 0
-836 386 0
-837 708 836 711 467 469 712 0
837 -708 0
837 -836 0
837 -711 0
837 -467 0
837 -469 0
837 -712 0
838 -715 -837 0
-838 715 0
-838 837 0
-839 109 835 285 838 0
839 -109 0
839 -835 0
839 -285 0
839 -838 0
840 -111 -839 0
-840 111 0
-840 839 0
841 -802 -713 0
-841 802 0
-841 713 0
-842 266 390 391 392 385 841 0
842 -266 0
842 -390 0
842 -391 0
842 -392 0
842 -385 0
842 -841 0
843 -373 -842 0
-843 373 0
-843 842 0
-844 34 843 0
844 -34 0
844 -843 0
845 -33 -844 0
-845 33 0
-845 844 0
846 -268 -393 0
-846 268 0
-846 393 0
-847 708 846 711 467 469 712 0
847 -708 0
847 -846 0
847 -711 0
847 -467 0
847 -469 0
847 -712 0
848 -719 -847 0
-848 719 0
-848 847 0
-849 36 845 848 0
849 -36 0
849 -845 0
849 -848 0
850 -128 -849 0
-850 128 0
-850 849 0
-851 130 271 278 61 72 86 282 840 112 290 850 0
851 -130 0
851 -271 0
851 -278 0
851 -61 0
851 -72 0
851 -86 0
851 -282 0
851 -840 0
851 -112 0
851 -290 0
851 -850 0
852 -170 -851 0
-852 170 0
-852 851 0
-853 44 852 0
853 -44 0
853 -852 0
854 -98 -853 0
-854 98 0
-854 853 0
855 -268 -359 0
-855 268 0
-855 359 0
-856 130 61 72 86 133 564 112 141 565 0
856 -130 0
856 -61 0
856 -72 0
856 -86 0
856 -133 0
856 -564 0
856 -112 0
856 -141 0
856 -565 0
857 -144 -856 0
-857 144 0
-857 856 0
-858 9 857 0
858 -9 0
858 -857 0
859 -8 -858 0
-859 8 0
-859 858 0
-860 11 4 859 0
860 -11 0
860 -4 0
860 -859 0
861 -13 -860 0
-861 13 0
-861 860 0
862 -15 -568 0
-862 15 0
-862 568 0
-863 109 525 0
863 -109 0
863 -525 0
864 -111 -863 0
-864 111 0
-864 863 0
865 -128 -532 0
-865 128 0
-865 532 0
-866 130 155 61 72 86 133 864 112 141 865 0
866 -130 0
866 -155 0
866 -61 0
866 -72 0
866 -86 0
866 -133 0
866 -864 0
866 -112 0
866 -141 0
866 -865 0
867 -170 -866 0
-867 170 0
-867 866 0
-868 44 867 0
868 -44 0
868 -867 0
869 -46 -868 0
-869 46 0
-869 868 0
-870 48 861 862 869 0
870 -48 0
870 -861 0
870 -862 0
870 -869 0
871 -96 -870 0
-871 96 0
-871 870 0
-872 103 871 0
872 -103 0
872 -871 0
873 -704 -872 0
-873 704 0
-873 872 0
-874 708 855 711 467 469 873 0
874 -708 0
874 -855 0
874 -711 0
874 -467 0
874 -469 0
874 -873 0
875 -876 -874 0
-875 876 0
-875 874 0
-877 26 875 0
877 -26 0
877 -875 0
878 -25 -877 0
-878 25 0
-878 877 0
-879 130 271 278 61 72 86 282 717 112 290 0
879 -130 0
879 -271 0
879 -278 0
879 -61 0
879 -72 0
879 -86 0
879 -282 0
879 -717 0
879 -112 0
879 -290 0
880 -132 -879 0
-880 132 0
-880 879 0
-881 130 61 72 86 133 728 112 141 0
881 -130 0
881 -61 0
881 -72 0
881 -86 0
881 -133 0
881 -728 0
881 -112 0
881 -141 0
882 -144 -881 0
-882 144 0
-882 881 0
-883 9 882 0
883 -9 0
883 -882 0
884 -8 -883 0
-884 8 0
-884 883 0
-885 11 4 884 0
885 -11 0
885 -4 0
885 -884 0
886 -13 -885 0
-886 13 0
-886 885 0
-887 130 150 61 72 86 133 728 112 141 0
887 -130 0
887 -150 0
887 -61 0
887 -72 0
887 -86 0
887 -133 0
887 -728 0
887 -112 0
887 -141 0
888 -144 -887 0
-888 144 0
-888 887 0
-889 9 888 0
889 -9 0
889 -888 0
890 -15 -889 0
-890 15 0
-890 889 0
-891 130 155 61 72 86 133 728 112 141 0
891 -130 0
891 -155 0
891 -61 0
891 -72 0
891 -86 0
891 -133 0
891 -728 0
891 -112 0
891 -141 0
892 -170 -891 0
-892 170 0
-892 891 0
-893 44 892 0
893 -44 0
893 -892 0
894 -46 -893 0
-894 46 0
-894 893 0
-895 48 886 890 894 0
895 -48 0
895 -886 0
895 -890 0
895 -894 0
896 -185 -895 0
-896 185 0
-896 895 0
897 -15 -883 0
-897 15 0
-897 883 0
898 -170 -881 0
-898 170 0
-898 881 0
-899 44 898 0
899 -44 0
899 -898 0
900 -46 -899 0
-900 46 0
-900 899 0
-901 48 897 900 0
901 -48 0
901 -897 0
901 -900 0
902 -53 -901 0
-902 53 0
-902 901 0
903 -55 -901 0
-903 55 0
-903 901 0
-904 6 903 0
904 -6 0
904 -903 0
905 -5 -904 0
-905 5 0
-905 904 0
-906 130 312 61 72 86 313 761 112 321 0
906 -130 0
906 -312 0
906 -61 0
906 -72 0
906 -86 0
906 -313 0
906 -761 0
906 -112 0
906 -321 0
907 -144 -906 0
-907 144 0
-907 906 0
-908 9 907 0
908 -9 0
908 -907 0
909 -8 -908 0
-909 8 0
-909 908 0
-910 11 902 905 909 0
910 -11 0
910 -902 0
910 -905 0
910 -909 0
911 -218 -910 0
-911 218 0
-911 910 0
-912 11 884 0
912 -11 0
912 -884 0
913 -13 -912 0
-913 13 0
-913 912 0
-914 130 221 61 72 86 133 728 112 141 0
914 -130 0
914 -221 0
914 -61 0
914 -72 0
914 -86 0
914 -133 0
914 -728 0
914 -112 0
914 -141 0
915 -144 -914 0
-915 144 0
-915 914 0
-916 9 915 0
916 -9 0
916 -915 0
917 -15 -916 0
-917 15 0
-917 916 0
-918 130 226 61 72 86 133 728 112 141 0
918 -130 0
918 -226 0
918 -61 0
918 -72 0
918 -86 0
918 -133 0
918 -728 0
918 -112 0
918 -141 0
919 -170 -918 0
-919 170 0
-919 918 0
-920 44 919 0
920 -44 0
920 -919 0
921 -46 -920 0
-921 46 0
-921 920 0
-922 48 913 917 921 0
922 -48 0
922 -913 0
922 -917 0
922 -921 0
923 -55 -922 0
-923 55 0
-923 922 0
-924 6 923 0
924 -6 0
924 -923 0
925 -241 -924 0
-925 241 0
-925 924 0
-926 130 340 342 61 72 86 346 789 112 354 0
926 -130 0
926 -340 0
926 -342 0
926 -61 0
926 -72 0
926 -86 0
926 -346 0
926 -789 0
926 -112 0
926 -354 0
927 -144 -926 0
-927 144 0
-927 926 0
-928 9 927 0
928 -9 0
928 -927 0
929 -264 -928 0
-929 264 0
-929 928 0
930 -96 -659 0
-930 96 0
-930 659 0
-931 103 930 0
931 -103 0
931 -930 0
932 -704 -931 0
-932 704 0
-932 931 0
-933 708 711 467 469 932 0
933 -708 0
933 -711 0
933 -467 0
933 -469 0
933 -932 0
934 -802 -933 0
-934 802 0
-934 933 0
-935 266 880 896 911 925 929 934 0
935 -266 0
935 -880 0
935 -896 0
935 -911 0
935 -925 0
935 -929 0
935 -934 0
936 -373 -935 0
-936 373 0
-936 935 0
-937 34 936 0
937 -34 0
937 -936 0
938 -33 -937 0
-938 33 0
-938 937 0
-939 130 271 278 61 72 86 282 287 112 290 127 0
939 -130 0
939 -271 0
939 -278 0
939 -61 0
939 -72 0
939 -86 0
939 -282 0
939 -287 0
939 -112 0
939 -290 0
939 -127 0
940 -132 -939 0
-940 132 0
-940 939 0
-941 130 61 72 86 133 173 112 141 127 0
941 -130 0
941 -61 0
941 -72 0
941 -86 0
941 -133 0
941 -173 0
941 -112 0
941 -141 0
941 -127 0
942 -144 -941 0
-942 144 0
-942 941 0
-943 9 942 0
943 -9 0
943 -942 0
944 -8 -943 0
-944 8 0
-944 943 0
-945 11 4 944 0
945 -11 0
945 -4 0
945 -944 0
946 -13 -945 0
-946 13 0
-946 945 0
-947 130 150 61 72 86 133 173 112 141 127 0
947 -130 0
947 -150 0
947 -61 0
947 -72 0
947 -86 0
947 -133 0
947 -173 0
947 -112 0
947 -141 0
947 -127 0
948 -144 -947 0
-948 144 0
-948 947 0
-949 9 948 0
949 -9 0
949 -948 0
950 -15 -949 0
-950 15 0
-950 949 0
-951 130 155 61 72 86 133 173 112 141 167 0
951 -130 0
951 -155 0
951 -61 0
951 -72 0
951 -86 0
951 -133 0
951 -173 0
951 -112 0
951 -141 0
951 -167 0
952 -170 -951 0
-952 170 0
-952 951 0
-953 44 952 0
953 -44 0
953 -952 0
954 -46 -953 0
-954 46 0
-954 953 0
-955 48 946 950 954 0
955 -48 0
955 -946 0
955 -950 0
955 -954 0
956 -185 -955 0
-956 185 0
-956 955 0
957 -15 -943 0
-957 15 0
-957 943 0
-958 130 61 72 86 133 173 112 141 167 0
958 -130 0
958 -61 0
958 -72 0
958 -86 0
958 -133 0
958 -173 0
958 -112 0
958 -141 0
958 -167 0
959 -170 -958 0
-959 170 0
-959 958 0
-960 44 959 0
960 -44 0
960 -959 0
961 -46 -960 0
-961 46 0
-961 960 0
-962 48 957 961 0
962 -48 0
962 -957 0
962 -961 0
963 -53 -962 0
-963 53 0
-963 962 0
964 -55 -962 0
-964 55 0
-964 962 0
-965 6 964 0
965 -6 0
965 -964 0
966 -5 -965 0
-966 5 0
-966 965 0
-967 130 312 61 72 86 313 318 112 321 127 0
967 -130 0
967 -312 0
967 -61 0
967 -72 0
967 -86 0
967 -313 0
967 -318 0
967 -112 0
967 -321 0
967 -127 0
968 -144 -967 0
-968 144 0
-968 967 0
-969 9 968 0
969 -9 0
969 -968 0
970 -8 -969 0
-970 8 0
-970 969 0
-971 11 963 966 970 0
971 -11 0
971 -963 0
971 -966 0
971 -970 0
972 -218 -971 0
-972 218 0
-972 971 0
-973 11 944 0
973 -11 0
973 -944 0
974 -13 -973 0
-974 13 0
-974 973 0
-975 130 221 61 72 86 133 173 112 141 127 0
975 -130 0
975 -221 0
975 -61 0
975 -72 0
975 -86 0
975 -133 0
975 -173 0
975 -112 0
975 -141 0
975 -127 0
976 -144 -975 0
-976 144 0
-976 975 0
-977 9 976 0
977 -9 0
977 -976 0
978 -15 -977 0
-978 15 0
-978 977 0
-979 130 226 61 72 86 133 173 112 141 167 0
979 -130 0
979 -226 0
979 -61 0
979 -72 0
979 -86 0
979 -133 0
979 -173 0
979 -112 0
979 -141 0
979 -167 0
980 -170 -979 0
-980 170 0
-980 979 0
-981 44 980 0
981 -44 0
981 -980 0
982 -46 -981 0
-982 46 0
-982 981 0
-983 48 974 978 982 0
983 -48 0
983 -974 0
983 -978 0
983 -982 0
984 -55 -983 0
-984 55 0
-984 983 0
-985 6 984 0
985 -6 0
985 -984 0
986 -241 -985 0
-986 241 0
-986 985 0
-987 130 340 342 61 72 86 346 351 112 354 127 0
987 -130 0
987 -340 0
987 -342 0
987 -61 0
987 -72 0
987 -86 0
987 -346 0
987 -351 0
987 -112 0
987 -354 0
987 -127 0
988 -144 -987 0
-988 144 0
-988 987 0
-989 9 988 0
989 -9 0
989 -988 0
990 -264 -989 0
-990 264 0
-990 989 0
-991 266 940 956 972 986 990 0
991 -266 0
991 -940 0
991 -956 0
991 -972 0
991 -986 0
991 -990 0
992 -268 -991 0
-992 268 0
-992 991 0
-993 130 61 72 86 133 564 112 141 0
993 -130 0
993 -61 0
993 -72 0
993 -86 0
993 -133 0
993 -564 0
993 -112 0
993 -141 0
994 -144 -993 0
-994 144 0
-994 993 0
-995 9 994 0
995 -9 0
995 -994 0
996 -8 -995 0
-996 8 0
-996 995 0
-997 11 4 996 0
997 -11 0
997 -4 0
997 -996 0
998 -13 -997 0
-998 13 0
-998 997 0
-999 130 150 61 72 86 133 564 112 141 0
999 -130 0
999 -150 0
999 -61 0
999 -72 0
999 -86 0
999 -133 0
999 -564 0
999 -112 0
999 -141 0
1000 -144 -999 0
-1000 144 0
-1000 999 0
-1001 9 1000 0
1001 -9 0
1001 -1000 0
1002 -15 -1001 0
-1002 15 0
-1002 1001 0
-1003 130 155 61 72 86 133 864 112 141 0
1003 -130 0
1003 -155 0
1003 -61 0
1003 -72 0
1003 -86 0
1003 -133 0
1003 -864 0
1003 -112 0
1003 -141 0
1004 -170 -1003 0
-1004 170 0
-1004 1003 0
-1005 44 1004 0
1005 -44 0
1005 -1004 0
1006 -46 -1005 0
-1006 46 0
-1006 1005 0
-1007 48 998 1002 1006 0
1007 -48 0
1007 -998 0
1007 -1002 0
1007 -1006 0
1008 -96 -1007 0
-1008 96 0
-1008 1007 0
-1009 103 1008 0
1009 -103 0
1009 -1008 0
1010 -704 -1009 0
-1010 704 0
-1010 1009 0
-1011 708 992 711 467 469 1010 0
1011 -708 0
1011 -992 0
1011 -711 0
1011 -467 0
1011 -469 0
1011 -1010 0
1012 -719 -1011 0
-1012 719 0
-1012 1011 0
-1013 36 938 1012 0
1013 -36 0
1013 -938 0
1013 -1012 0
1014 -38 -1013 0
-1014 38 0
-1014 1013 0
-1015 40 806 829 21 854 878 27 30 1014 0
1015 -40 0
1015 -806 0
1015 -829 0
1015 -21 0
1015 -854 0
1015 -878 0
1015 -27 0
1015 -30 0
1015 -1014 0
1016 -1017 -1015 0
-1016 1017 0
-1016 1015 0
-1018 1019 1 709 1016 0
1018 -1019 0
1018 -1 0
1018 -709 0
1018 -1016 0
1020 -1021 -1018 0
-1020 1021 0
-1020 1018 0
-1022 103 95 135 0
1022 -103 0
1022 -95 0
1022 -135 0
1023 -105 -1022 0
-1023 105 0
-1023 1022 0
-1024 109 1023 138 0
1024 -109 0
1024 -1023 0
1024 -138 0
1025 -111 -1024 0
-1025 111 0
-1025 1024 0
-1026 130 49 59 61 72 86 93 1025 112 118 127 0
1026 -130 0
1026 -49 0
1026 -59 0
1026 -61 0
1026 -72 0
1026 -86 0
1026 -93 0
1026 -1025 0
1026 -112 0
1026 -118 0
1026 -127 0
1027 -132 -1026 0
-1027 132 0
-1027 1026 0
-1028 266 1027 184 217 240 263 0
1028 -266 0
1028 -1027 0
1028 -184 0
1028 -217 0
1028 -240 0
1028 -263 0
1029 -268 -1028 0
-1029 268 0
-1029 1028 0
1030 -1017 -460 0
-1030 1017 0
-1030 460 0
-1031 1019 1 1030 0
1031 -1019 0
1031 -1 0
1031 -1030 0
1032 -1033 -1031 0
-1032 1033 0
-1032 1031 0
-1034 708 1029 465 467 469 1032 703 705 0
1034 -708 0
1034 -1029 0
1034 -465 0
1034 -467 0
1034 -469 0
1034 -1032 0
1034 -703 0
1034 -705 0
1035 -1036 -1034 0
-1035 1036 0
-1035 1034 0
-1037 1019 1 0
1037 -1019 0
1037 -1 0
1038 -1033 -1037 0
-1038 1033 0
-1038 1037 0
-1039 708 711 467 469 1038 712 0
1039 -708 0
1039 -711 0
1039 -467 0
1039 -469 0
1039 -1038 0
1039 -712 0
1040 -715 -1039 0
-1040 715 0
-1040 1039 0
-1041 109 285 1040 0
1041 -109 0
1041 -285 0
1041 -1040 0
1042 -111 -1041 0
-1042 111 0
-1042 1041 0
1043 -719 -1039 0
-1043 719 0
-1043 1039 0
-1044 36 32 1043 0
1044 -36 0
1044 -32 0
1044 -1043 0
1045 -128 -1044 0
-1045 128 0
-1045 1044 0
-1046 130 271 278 61 72 86 282 1042 112 290 1045 0
1046 -130 0
1046 -271 0
1046 -278 0
1046 -61 0
1046 -72 0
1046 -86 0
1046 -282 0
1046 -1042 0
1046 -112 0
1046 -290 0
1046 -1045 0
1047 -132 -1046 0
-1047 132 0
-1047 1046 0
-1048 708 711 467 469 1038 724 0
1048 -708 0
1048 -711 0
1048 -467 0
1048 -469 0
1048 -1038 0
1048 -724 0
1049 -715 -1048 0
-1049 715 0
-1049 1048 0
-1050 109 171 1049 0
1050 -109 0
1050 -171 0
1050 -1049 0
1051 -111 -1050 0
-1051 111 0
-1051 1050 0
1052 -719 -1048 0
-1052 719 0
-1052 1048 0
-1053 36 32 1052 0
1053 -36 0
1053 -32 0
1053 -1052 0
1054 -128 -1053 0
-1054 128 0
-1054 1053 0
-1055 130 61 72 86 133 1051 112 141 1054 0
1055 -130 0
1055 -61 0
1055 -72 0
1055 -86 0
1055 -133 0
1055 -1051 0
1055 -112 0
1055 -141 0
1055 -1054 0
1056 -144 -1055 0
-1056 144 0
-1056 1055 0
-1057 9 1056 0
1057 -9 0
1057 -1056 0
1058 -8 -1057 0
-1058 8 0
-1058 1057 0
-1059 11 4 1058 0
1059 -11 0
1059 -4 0
1059 -1058 0
1060 -13 -1059 0
-1060 13 0
-1060 1059 0
-1061 130 150 61 72 86 133 1051 112 141 1054 0
1061 -130 0
1061 -150 0
1061 -61 0
1061 -72 0
1061 -86 0
1061 -133 0
1061 -1051 0
1061 -112 0
1061 -141 0
1061 -1054 0
1062 -144 -1061 0
-1062 144 0
-1062 1061 0
-1063 9 1062 0
1063 -9 0
1063 -1062 0
1064 -15 -1063 0
-1064 15 0
-1064 1063 0
-1065 130 155 61 72 86 133 1051 112 141 1054 0
1065 -130 0
1065 -155 0
1065 -61 0
1065 -72 0
1065 -86 0
1065 -133 0
1065 -1051 0
1065 -112 0
1065 -141 0
1065 -1054 0
1066 -170 -1065 0
-1066 170 0
-1066 1065 0
-1067 44 1066 0
1067 -44 0
1067 -1066 0
1068 -46 -1067 0
-1068 46 0
-1068 1067 0
-1069 48 1060 1064 1068 0
1069 -48 0
1069 -1060 0
1069 -1064 0
1069 -1068 0
1070 -185 -1069 0
-1070 185 0
-1070 1069 0
1071 -15 -1057 0
-1071 15 0
-1071 1057 0
1072 -170 -1055 0
-1072 170 0
-1072 1055 0
-1073 44 1072 0
1073 -44 0
1073 -1072 0
1074 -46 -1073 0
-1074 46 0
-1074 1073 0
-1075 48 1071 1074 0
1075 -48 0
1075 -1071 0
1075 -1074 0
1076 -53 -1075 0
-1076 53 0
-1076 1075 0
1077 -55 -1075 0
-1077 55 0
-1077 1075 0
-1078 6 1077 0
1078 -6 0
1078 -1077 0
1079 -5 -1078 0
-1079 5 0
-1079 1078 0
-1080 708 711 467 469 1038 757 0
1080 -708 0
1080 -711 0
1080 -467 0
1080 -469 0
1080 -1038 0
1080 -757 0
1081 -715 -1080 0
-1081 715 0
-1081 1080 0
-1082 109 316 1081 0
1082 -109 0
1082 -316 0
1082 -1081 0
1083 -111 -1082 0
-1083 111 0
-1083 1082 0
1084 -719 -1080 0
-1084 719 0
-1084 1080 0
-1085 36 32 1084 0
1085 -36 0
1085 -32 0
1085 -1084 0
1086 -128 -1085 0
-1086 128 0
-1086 1085 0
-1087 130 312 61 72 86 313 1083 112 321 1086 0
1087 -130 0
1087 -312 0
1087 -61 0
1087 -72 0
1087 -86 0
1087 -313 0
1087 -1083 0
1087 -112 0
1087 -321 0
1087 -1086 0
1088 -144 -1087 0
-1088 144 0
-1088 1087 0
-1089 9 1088 0
1089 -9 0
1089 -1088 0
1090 -8 -1089 0
-1090 8 0
-1090 1089 0
-1091 11 1076 1079 1090 0
1091 -11 0
1091 -1076 0
1091 -1079 0
1091 -1090 0
1092 -218 -1091 0
-1092 218 0
-1092 1091 0
-1093 11 1058 0
1093 -11 0
1093 -1058 0
1094 -13 -1093 0
-1094 13 0
-1094 1093 0
-1095 130 221 61 72 86 133 1051 112 141 1054 0
1095 -130 0
1095 -221 0
1095 -61 0
1095 -72 0
1095 -86 0
1095 -133 0
1095 -1051 0
1095 -112 0
1095 -141 0
1095 -1054 0
1096 -144 -1095 0
-1096 144 0
-1096 1095 0
-1097 9 1096 0
1097 -9 0
1097 -1096 0
1098 -15 -1097 0
-1098 15 0
-1098 1097 0
-1099 130 226 61 72 86 133 1051 112 141 1054 0
1099 -130 0
1099 -226 0
1099 -61 0
1099 -72 0
1099 -86 0
1099 -133 0
1099 -1051 0
1099 -112 0
1099 -141 0
1099 -1054 0
1100 -170 -1099 0
-1100 170 0
-1100 1099 0
-1101 44 1100 0
1101 -44 0
1101 -1100 0
1102 -46 -1101 0
-1102 46 0
-1102 1101 0
-1103 48 1094 1098 1102 0
1103 -48 0
1103 -1094 0
1103 -1098 0
1103 -1102 0
1104 -55 -1103 0
-1104 55 0
-1104 1103 0
-1105 6 1104 0
1105 -6 0
1105 -1104 0
1106 -241 -1105 0
-1106 241 0
-1106 1105 0
-1107 708 711 467 469 1038 785 0
1107 -708 0
1107 -711 0
1107 -467 0
1107 -469 0
1107 -1038 0
1107 -785 0
1108 -715 -1107 0
-1108 715 0
-1108 1107 0
-1109 109 349 1108 0
1109 -109 0
1109 -349 0
1109 -1108 0
1110 -111 -1109 0
-1110 111 0
-1110 1109 0
1111 -719 -1107 0
-1111 719 0
-1111 1107 0
-1112 36 32 1111 0
1112 -36 0
1112 -32 0
1112 -1111 0
1113 -128 -1112 0
-1113 128 0
-1113 1112 0
-1114 130 340 342 61 72 86 346 1110 112 354 1113 0
1114 -130 0
1114 -340 0
1114 -342 0
1114 -61 0
1114 -72 0
1114 -86 0
1114 -346 0
1114 -1110 0
1114 -112 0
1114 -354 0
1114 -1113 0
1115 -144 -1114 0
-1115 144 0
-1115 1114 0
-1116 9 1115 0
1116 -9 0
1116 -1115 0
1117 -264 -1116 0
-1117 264 0
-1117 1116 0
-1118 708 711 467 469 1038 799 0
1118 -708 0
1118 -711 0
1118 -467 0
1118 -469 0
1118 -1038 0
1118 -799 0
1119 -802 -1118 0
-1119 802 0
-1119 1118 0
-1120 266 1047 1070 1092 1106 1117 1119 0
1120 -266 0
1120 -1047 0
1120 -1070 0
1120 -1092 0
1120 -1106 0
1120 -1117 0
1120 -1119 0
1121 -361 -1120 0
-1121 361 0
-1121 1120 0
-1122 18 1121 0
1122 -18 0
1122 -1121 0
1123 -17 -1122 0
-1123 17 0
-1123 1122 0
-1124 708 711 467 469 1038 808 0
1124 -708 0
1124 -711 0
1124 -467 0
1124 -469 0
1124 -1038 0
1124 -808 0
1125 -802 -1124 0
-1125 802 0
-1125 1124 0
-1126 266 364 365 366 1125 0
1126 -266 0
1126 -364 0
1126 -365 0
1126 -366 0
1126 -1125 0
1127 -369 -1126 0
-1127 369 0
-1127 1126 0
-1128 708 813 711 467 469 1038 785 0
1128 -708 0
1128 -813 0
1128 -711 0
1128 -467 0
1128 -469 0
1128 -1038 0
1128 -785 0
1129 -715 -1128 0
-1129 715 0
-1129 1128 0
-1130 109 1127 349 1129 0
1130 -109 0
1130 -1127 0
1130 -349 0
1130 -1129 0
1131 -111 -1130 0
-1131 111 0
-1131 1130 0
1132 -802 -1107 0
-1132 802 0
-1132 1107 0
-1133 266 364 365 366 1132 0
1133 -266 0
1133 -364 0
1133 -365 0
1133 -366 0
1133 -1132 0
1134 -373 -1133 0
-1134 373 0
-1134 1133 0
-1135 34 1134 0
1135 -34 0
1135 -1134 0
1136 -33 -1135 0
-1136 33 0
-1136 1135 0
1137 -719 -1128 0
-1137 719 0
-1137 1128 0
-1138 36 1136 1137 0
1138 -36 0
1138 -1136 0
1138 -1137 0
1139 -128 -1138 0
-1139 128 0
-1139 1138 0
-1140 130 340 342 61 72 86 346 1131 112 354 1139 0
1140 -130 0
1140 -340 0
1140 -342 0
1140 -61 0
1140 -72 0
1140 -86 0
1140 -346 0
1140 -1131 0
1140 -112 0
1140 -354 0
1140 -1139 0
1141 -144 -1140 0
-1141 144 0
-1141 1140 0
-1142 9 1141 0
1142 -9 0
1142 -1141 0
1143 -20 -1142 0
-1143 20 0
-1143 1142 0
-1144 708 711 467 469 1038 831 0
1144 -708 0
1144 -711 0
1144 -467 0
1144 -469 0
1144 -1038 0
1144 -831 0
1145 -802 -1144 0
-1145 802 0
-1145 1144 0
-1146 266 390 391 392 385 1145 0
1146 -266 0
1146 -390 0
1146 -391 0
1146 -392 0
1146 -385 0
1146 -1145 0
1147 -369 -1146 0
-1147 369 0
-1147 1146 0
-1148 708 836 711 467 469 1038 712 0
1148 -708 0
1148 -836 0
1148 -711 0
1148 -467 0
1148 -469 0
1148 -1038 0
1148 -712 0
1149 -715 -1148 0
-1149 715 0
-1149 1148 0
-1150 109 1147 285 1149 0
1150 -109 0
1150 -1147 0
1150 -285 0
1150 -1149 0
1151 -111 -1150 0
-1151 111 0
-1151 1150 0
1152 -802 -1039 0
-1152 802 0
-1152 1039 0
-1153 266 390 391 392 385 1152 0
1153 -266 0
1153 -390 0
1153 -391 0
1153 -392 0
1153 -385 0
1153 -1152 0
1154 -373 -1153 0
-1154 373 0
-1154 1153 0
-1155 34 1154 0
1155 -34 0
1155 -1154 0
1156 -33 -1155 0
-1156 33 0
-1156 1155 0
-1157 708 846 711 467 469 1038 712 0
1157 -708 0
1157 -846 0
1157 -711 0
1157 -467 0
1157 -469 0
1157 -1038 0
1157 -712 0
1158 -719 -1157 0
-1158 719 0
-1158 1157 0
-1159 36 1156 1158 0
1159 -36 0
1159 -1156 0
1159 -1158 0
1160 -128 -1159 0
-1160 128 0
-1160 1159 0
-1161 130 271 278 61 72 86 282 1151 112 290 1160 0
1161 -130 0
1161 -271 0
1161 -278 0
1161 -61 0
1161 -72 0
1161 -86 0
1161 -282 0
1161 -1151 0
1161 -112 0
1161 -290 0
1161 -1160 0
1162 -170 -1161 0
-1162 170 0
-1162 1161 0
-1163 44 1162 0
1163 -44 0
1163 -1162 0
1164 -98 -1163 0
-1164 98 0
-1164 1163 0
-1165 708 855 711 467 469 1038 873 0
1165 -708 0
1165 -855 0
1165 -711 0
1165 -467 0
1165 -469 0
1165 -1038 0
1165 -873 0
1166 -876 -1165 0
-1166 876 0
-1166 1165 0
-1167 26 1166 0
1167 -26 0
1167 -1166 0
1168 -25 -1167 0
-1168 25 0
-1168 1167 0
-1169 130 271 278 61 72 86 282 1042 112 290 0
1169 -130 0
1169 -271 0
1169 -278 0
1169 -61 0
1169 -72 0
1169 -86 0
1169 -282 0
1169 -1042 0
1169 -112 0
1169 -290 0
1170 -132 -1169 0
-1170 132 0
-1170 1169 0
-1171 130 61 72 86 133 1051 112 141 0
1171 -130 0
1171 -61 0
1171 -72 0
1171 -86 0
1171 -133 0
1171 -1051 0
1171 -112 0
1171 -141 0
1172 -144 -1171 0
-1172 144 0
-1172 1171 0
-1173 9 1172 0
1173 -9 0
1173 -1172 0
1174 -8 -1173 0
-1174 8 0
-1174 1173 0
-1175 11 4 1174 0
1175 -11 0
1175 -4 0
1175 -1174 0
1176 -13 -1175 0
-1176 13 0
-1176 1175 0
-1177 130 150 61 72 86 133 1051 112 141 0
1177 -130 0
1177 -150 0
1177 -61 0
1177 -72 0
1177 -86 0
1177 -133 0
1177 -1051 0
1177 -112 0
1177 -141 0
1178 -144 -1177 0
-1178 144 0
-1178 1177 0
-1179 9 1178 0
1179 -9 0
1179 -1178 0
1180 -15 -1179 0
-1180 15 0
-1180 1179 0
-1181 130 155 61 72 86 133 1051 112 141 0
1181 -130 0
1181 -155 0
1181 -61 0
1181 -72 0
1181 -86 0
1181 -133 0
1181 -1051 0
1181 -112 0
1181 -141 0
1182 -170 -1181 0
-1182 170 0
-1182 1181 0
-1183 44 1182 0
1183 -44 0
1183 -1182 0
1184 -46 -1183 0
-1184 46 0
-1184 1183 0
-1185 48 1176 1180 1184 0
1185 -48 0
1185 -1176 0
1185 -1180 0
1185 -1184 0
1186 -185 -1185 0
-1186 185 0
-1186 1185 0
1187 -15 -1173 0
-1187 15 0
-1187 1173 0
1188 -170 -1171 0
-1188 170 0
-1188 1171 0
-1189 44 1188 0
1189 -44 0
1189 -1188 0
1190 -46 -1189 0
-1190 46 0
-1190 1189 0
-1191 48 1187 1190 0
1191 -48 0
1191 -1187 0
1191 -1190 0
1192 -53 -1191 0
-1192 53 0
-1192 1191 0
1193 -55 -1191 0
-1193 55 0
-1193 1191 0
-1194 6 1193 0
1194 -6 0
1194 -1193 0
1195 -5 -1194 0
-1195 5 0
-1195 1194 0
-1196 130 312 61 72 86 313 1083 112 321 0
1196 -130 0
1196 -312 0
1196 -61 0
1196 -72 0
1196 -86 0
1196 -313 0
1196 -1083 0
1196 -112 0
1196 -321 0
1197 -144 -1196 0
-1197 144 0
-1197 1196 0
-1198 9 1197 0
1198 -9 0
1198 -1197 0
1199 -8 -1198 0
-1199 8 0
-1199 1198 0
-1200 11 1192 1195 1199 0
1200 -11 0
1200 -1192 0
1200 -1195 0
1200 -1199 0
1201 -218 -1200 0
-1201 218 0
-1201 1200 0
-1202 11 1174 0
1202 -11 0
1202 -1174 0
1203 -13 -1202 0
-1203 13 0
-1203 1202 0
-1204 130 221 61 72 86 133 1051 112 141 0
1204 -130 0
1204 -221 0
1204 -61 0
1204 -72 0
1204 -86 0
1204 -133 0
1204 -1051 0
1204 -112 0
1204 -141 0
1205 -144 -1204 0
-1205 144 0
-1205 1204 0
-1206 9 1205 0
1206 -9 0
1206 -1205 0
1207 -15 -1206 0
-1207 15 0
-1207 1206 0
-1208 130 226 61 72 86 133 1051 112 141 0
1208 -130 0
1208 -226 0
1208 -61 0
1208 -72 0
1208 -86 0
1208 -133 0
1208 -1051 0
1208 -112 0
1208 -141 0
1209 -170 -1208 0
-1209 170 0
-1209 1208 0
-1210 44 1209 0
1210 -44 0
1210 -1209 0
1211 -46 -1210 0
-1211 46 0
-1211 1210 0
-1212 48 1203 1207 1211 0
1212 -48 0
1212 -1203 0
1212 -1207 0
1212 -1211 0
1213 -55 -1212 0
-1213 55 0
-1213 1212 0
-1214 6 1213 0
1214 -6 0
1214 -1213 0
1215 -241 -1214 0
-1215 241 0
-1215 1214 0
-1216 130 340 342 61 72 86 346 1110 112 354 0
1216 -130 0
1216 -340 0
1216 -342 0
1216 -61 0
1216 -72 0
1216 -86 0
1216 -346 0
1216 -1110 0
1216 -112 0
1216 -354 0
1217 -144 -1216 0
-1217 144 0
-1217 1216 0
-1218 9 1217 0
1218 -9 0
1218 -1217 0
1219 -264 -1218 0
-1219 264 0
-1219 1218 0
-1220 708 711 467 469 1038 932 0
1220 -708 0
1220 -711 0
1220 -467 0
1220 -469 0
1220 -1038 0
1220 -932 0
1221 -802 -1220 0
-1221 802 0
-1221 1220 0
-1222 266 1170 1186 1201 1215 1219 1221 0
1222 -266 0
1222 -1170 0
1222 -1186 0
1222 -1201 0
1222 -1215 0
1222 -1219 0
1222 -1221 0
1223 -373 -1222 0
-1223 373 0
-1223 1222 0
-1224 34 1223 0
1224 -34 0
1224 -1223 0
1225 -33 -1224 0
-1225 33 0
-1225 1224 0
-1226 708 992 711 467 469 1038 1010 0
1226 -708 0
1226 -992 0
1226 -711 0
1226 -467 0
1226 -469 0
1226 -1038 0
1226 -1010 0
1227 -719 -1226 0
-1227 719 0
-1227 1226 0
-1228 36 1225 1227 0
1228 -36 0
1228 -1225 0
1228 -1227 0
1229 -38 -1228 0
-1229 38 0
-1229 1228 0
-1230 40 1123 1143 21 1164 1168 27 30 1229 0
1230 -40 0
1230 -1123 0
1230 -1143 0
1230 -21 0
1230 -1164 0
1230 -1168 0
1230 -27 0
1230 -30 0
1230 -1229 0
1231 -1232 -1230 0
-1231 1232 0
-1231 1230 0
-1233 1234 1020 1035 1231 0
1233 -1234 0
1233 -1020 0
1233 -1035 0
1233 -1231 0
1235 -1233 -1236 0
-1235 1233 0
-1235 1236 0
1235 0
