c BC-S1.2
p cnf 123 278
1 -2 -3 0
-1 2 0
-1 3 0
4 -5 -6 0
-4 5 0
-4 6 0
-7 8 4 0
7 -8 0
7 -4 0
9 -10 -7 0
-9 10 0
-9 7 0
11 -12 -13 0
-11 12 0
-11 13 0
-14 15 9 11 0
14 -15 0
14 -9 0
14 -11 0
16 -17 -14 0
-16 17 0
-16 14 0
-18 19 16 0
18 -19 0
18 -16 0
20 -21 -18 0
-20 21 0
-20 18 0
-22 23 20 0
22 -23 0
22 -20 0
24 -25 -22 0
-24 25 0
-24 22 0
-26 27 24 0
26 -27 0
26 -24 0
28 -29 -26 0
-28 29 0
-28 26 0
30 -31 -27 0
-30 31 0
-30 27 0
32 -33 -27 0
-32 33 0
-32 27 0
-34 19 32 16 0
34 -19 0
34 -32 0
34 -16 0
35 -21 -34 0
-35 21 0
-35 34 0
-36 23 30 35 0
36 -23 0
36 -30 0
36 -35 0
37 -38 -36 0
-37 38 0
-37 36 0
-39 40 28 37 0
39 -40 0
39 -28 0
39 -37 0
41 -42 -39 0
-41 42 0
-41 39 0
-43 44 41 0
43 -44 0
43 -41 0
45 -46 -43 0
-45 46 0
-45 43 0
47 -48 -14 0
-47 48 0
-47 14 0
-49 50 47 0
49 -50 0
49 -47 0
51 -52 -49 0
-51 52 0
-51 49 0
-53 15 11 0
53 -15 0
53 -11 0
54 -55 -53 0
-54 55 0
-54 53 0
-56 8 4 54 0
56 -8 0
56 -4 0
56 -54 0
57 -58 -56 0
-57 58 0
-57 56 0
-59 60 1 45 51 57 0
59 -60 0
59 -1 0
59 -45 0
59 -51 0
59 -57 0
61 -62 -59 0
-61 62 0
-61 59 0
63 -29 -27 0
-63 29 0
-63 27 0
-64 60 1 51 57 0
64 -60 0
64 -1 0
64 -51 0
64 -57 0
65 -66 -64 0
-65 66 0
-65 64 0
-67 44 65 0
67 -44 0
67 -65 0
68 -69 -67 0
-68 69 0
-68 67 0
-70 40 63 68 0
70 -40 0
70 -63 0
70 -68 0
71 -72 -70 0
-71 72 0
-71 70 0
73 -74 -70 0
-73 74 0
-73 70 0
-75 27 73 0
75 -27 0
75 -73 0
76 -31 -75 0
-76 31 0
-76 75 0
77 -33 -75 0
-77 33 0
-77 75 0
-78 40 63 0
78 -40 0
78 -63 0
79 -42 -78 0
-79 42 0
-79 78 0
-80 44 79 0
80 -44 0
80 -79 0
81 -46 -80 0
-81 46 0
-81 80 0
82 -52 -50 0
-82 52 0
-82 50 0
-83 60 1 81 82 0
83 -60 0
83 -1 0
83 -81 0
83 -82 0
84 -85 -83 0
-84 85 0
-84 83 0
-86 8 84 4 0
86 -8 0
86 -84 0
86 -4 0
87 -10 -86 0
-87 10 0
-87 86 0
-88 15 87 11 0
88 -15 0
88 -87 0
88 -11 0
89 -17 -88 0
-89 17 0
-89 88 0
-90 19 77 89 0
90 -19 0
90 -77 0
90 -89 0
91 -21 -90 0
-91 21 0
-91 90 0
-92 23 71 76 91 0
92 -23 0
92 -71 0
92 -76 0
92 -91 0
93 -94 -92 0
-93 94 0
-93 92 0
-95 60 1 45 57 0
95 -60 0
95 -1 0
95 -45 0
95 -57 0
96 -97 -95 0
-96 97 0
-96 95 0
98 -21 -19 0
-98 21 0
-98 19 0
-99 23 98 0
99 -23 0
99 -98 0
100 -25 -99 0
-100 25 0
-100 99 0
-101 27 100 0
101 -27 0
101 -100 0
102 -29 -101 0
-102 29 0
-102 101 0
-103 19 32 0
103 -19 0
103 -32 0
104 -21 -103 0
-104 21 0
-104 103 0
-105 23 30 104 0
105 -23 0
105 -30 0
105 -104 0
106 -38 -105 0
-106 38 0
-106 105 0
-107 40 102 106 0
107 -40 0
107 -102 0
107 -106 0
108 -42 -107 0
-108 42 0
-108 107 0
-109 44 108 0
109 -44 0
109 -108 0
110 -46 -109 0
-110 46 0
-110 109 0
-111 60 1 110 0
111 -60 0
111 -1 0
111 -110 0
112 -85 -111 0
-112 85 0
-112 111 0
-113 8 112 4 0
113 -8 0
113 -112 0
113 -4 0
114 -10 -113 0
-114 10 0
-114 113 0
-115 15 114 11 0
115 -15 0
115 -114 0
115 -11 0
116 -48 -115 0
-116 48 0
-116 115 0
-117 50 96 116 0
117 -50 0
117 -96 0
117 -116 0
118 -119 -117 0
-118 119 0
-118 117 0
-120 121 61 93 118 0
120 -121 0
120 -61 0
120 -93 0
120 -118 0
122 -120 -123 0
-122 120 0
-122 123 0
122 0
