c BC-S1.2
p cnf 1001 3800
1 -2 -3 0
-1 2 0
-1 3 0
4 -5 -6 0
-4 5 0
-4 6 0
7 -8 -9 0
-7 8 0
-7 9 0
10 -11 -12 0
-10 11 0
-10 12 0
-13 14 10 0
13 -14 0
13 -10 0
15 -16 -13 0
-15 16 0
-15 13 0
17 -18 -6 0
-17 18 0
-17 6 0
19 -20 -21 0
-19 20 0
-19 21 0
22 -23 -24 0
-22 23 0
-22 24 0
25 -26 -27 0
-25 26 0
-25 27 0
28 -29 -30 0
-28 29 0
-28 30 0
31 -32 -33 0
-31 32 0
-31 33 0
-34 35 28 31 0
34 -35 0
34 -28 0
34 -31 0
36 -37 -34 0
-36 37 0
-36 34 0
38 -39 -30 0
-38 39 0
-38 30 0
40 -41 -27 0
-40 41 0
-40 27 0
-42 43 38 40 0
42 -43 0
42 -38 0
42 -40 0
44 -45 -42 0
-44 45 0
-44 42 0
46 -47 -48 0
-46 47 0
-46 48 0
-49 50 46 0
49 -50 0
49 -46 0
51 -52 -49 0
-51 52 0
-51 49 0
-53 54 7 15 17 19 22 25 36 44 51 0
53 -54 0
53 -7 0
53 -15 0
53 -17 0
53 -19 0
53 -22 0
53 -25 0
53 -36 0
53 -44 0
53 -51 0
55 -56 -53 0
-55 56 0
-55 53 0
-57 58 55 0
57 -58 0
57 -55 0
59 -60 -57 0
-59 60 0
-59 57 0
-61 54 7 15 17 19 25 36 44 51 0
61 -54 0
61 -7 0
61 -15 0
61 -17 0
61 -19 0
61 -25 0
61 -36 0
61 -44 0
61 -51 0
62 -63 -61 0
-62 63 0
-62 61 0
-64 24 62 0
64 -24 0
64 -62 0
65 -66 -64 0
-65 66 0
-65 64 0
67 -68 -53 0
-67 68 0
-67 53 0
-69 70 67 0
69 -70 0
69 -67 0
71 -72 -69 0
-71 72 0
-71 69 0
-73 35 31 0
73 -35 0
73 -31 0
74 -37 -73 0
-74 37 0
-74 73 0
-75 54 7 15 17 19 22 25 74 44 51 0
75 -54 0
75 -7 0
75 -15 0
75 -17 0
75 -19 0
75 -22 0
75 -25 0
75 -74 0
75 -44 0
75 -51 0
76 -77 -75 0
-76 77 0
-76 75 0
-78 30 76 0
78 -30 0
78 -76 0
79 -80 -78 0
-79 80 0
-79 78 0
-81 54 7 15 17 19 22 25 74 51 0
81 -54 0
81 -7 0
81 -15 0
81 -17 0
81 -19 0
81 -22 0
81 -25 0
81 -74 0
81 -51 0
82 -77 -81 0
-82 77 0
-82 81 0
-83 30 82 0
83 -30 0
83 -82 0
84 -39 -83 0
-84 39 0
-84 83 0
-85 43 84 40 0
85 -43 0
85 -84 0
85 -40 0
86 -87 -85 0
-86 87 0
-86 85 0
88 -89 -53 0
-88 89 0
-88 53 0
-90 91 4 59 65 71 79 86 88 0
90 -91 0
90 -4 0
90 -59 0
90 -65 0
90 -71 0
90 -79 0
90 -86 0
90 -88 0
92 -93 -90 0
-92 93 0
-92 90 0
-94 95 92 0
94 -95 0
94 -92 0
96 -97 -94 0
-96 97 0
-96 94 0
-98 99 96 0
98 -99 0
98 -96 0
100 -101 -98 0
-100 101 0
-100 98 0
102 -103 -95 0
-102 103 0
-102 95 0
-104 33 102 0
104 -33 0
104 -102 0
105 -32 -104 0
-105 32 0
-105 104 0
-106 35 28 105 0
106 -35 0
106 -28 0
106 -105 0
107 -37 -106 0
-107 37 0
-107 106 0
108 -97 -95 0
-108 97 0
-108 95 0
-109 99 108 0
109 -99 0
109 -108 0
110 -111 -109 0
-110 111 0
-110 109 0
112 -113 -95 0
-112 113 0
-112 95 0
-114 54 7 15 17 19 22 25 107 110 44 51 112 0
114 -54 0
114 -7 0
114 -15 0
114 -17 0
114 -19 0
114 -22 0
114 -25 0
114 -107 0
114 -110 0
114 -44 0
114 -51 0
114 -112 0
115 -56 -114 0
-115 56 0
-115 114 0
-116 58 115 0
116 -58 0
116 -115 0
117 -60 -116 0
-117 60 0
-117 116 0
-118 54 7 15 17 19 25 107 110 44 51 112 0
118 -54 0
118 -7 0
118 -15 0
118 -17 0
118 -19 0
118 -25 0
118 -107 0
118 -110 0
118 -44 0
118 -51 0
118 -112 0
119 -63 -118 0
-119 63 0
-119 118 0
-120 24 119 0
120 -24 0
120 -119 0
121 -66 -120 0
-121 66 0
-121 120 0
122 -68 -114 0
-122 68 0
-122 114 0
-123 70 122 0
123 -70 0
123 -122 0
124 -72 -123 0
-124 72 0
-124 123 0
-125 35 105 0
125 -35 0
125 -105 0
126 -37 -125 0
-126 37 0
-126 125 0
-127 54 7 15 17 19 22 25 126 110 44 51 112 0
127 -54 0
127 -7 0
127 -15 0
127 -17 0
127 -19 0
127 -22 0
127 -25 0
127 -126 0
127 -110 0
127 -44 0
127 -51 0
127 -112 0
128 -77 -127 0
-128 77 0
-128 127 0
-129 30 128 0
129 -30 0
129 -128 0
130 -80 -129 0
-130 80 0
-130 129 0
-131 54 7 15 17 19 22 25 126 110 51 112 0
131 -54 0
131 -7 0
131 -15 0
131 -17 0
131 -19 0
131 -22 0
131 -25 0
131 -126 0
131 -110 0
131 -51 0
131 -112 0
132 -77 -131 0
-132 77 0
-132 131 0
-133 30 132 0
133 -30 0
133 -132 0
134 -39 -133 0
-134 39 0
-134 133 0
-135 43 134 40 0
135 -43 0
135 -134 0
135 -40 0
136 -87 -135 0
-136 87 0
-136 135 0
137 -138 -95 0
-137 138 0
-137 95 0
139 -89 -114 0
-139 89 0
-139 114 0
-140 91 4 117 121 124 130 136 137 139 0
140 -91 0
140 -4 0
140 -117 0
140 -121 0
140 -124 0
140 -130 0
140 -136 0
140 -137 0
140 -139 0
141 -142 -140 0
-141 142 0
-141 140 0
-143 144 100 141 0
143 -144 0
143 -100 0
143 -141 0
145 -146 -143 0
-145 146 0
-145 143 0
-147 54 7 15 17 19 22 25 36 44 0
147 -54 0
147 -7 0
147 -15 0
147 -17 0
147 -19 0
147 -22 0
147 -25 0
147 -36 0
147 -44 0
148 -56 -147 0
-148 56 0
-148 147 0
-149 58 148 0
149 -58 0
149 -148 0
150 -60 -149 0
-150 60 0
-150 149 0
-151 54 7 15 17 19 25 36 44 0
151 -54 0
151 -7 0
151 -15 0
151 -17 0
151 -19 0
151 -25 0
151 -36 0
151 -44 0
152 -63 -151 0
-152 63 0
-152 151 0
-153 24 152 0
153 -24 0
153 -152 0
154 -66 -153 0
-154 66 0
-154 153 0
155 -68 -147 0
-155 68 0
-155 147 0
-156 70 155 0
156 -70 0
156 -155 0
157 -72 -156 0
-157 72 0
-157 156 0
-158 54 7 15 17 19 22 25 74 44 0
158 -54 0
158 -7 0
158 -15 0
158 -17 0
158 -19 0
158 -22 0
158 -25 0
158 -74 0
158 -44 0
159 -77 -158 0
-159 77 0
-159 158 0
-160 30 159 0
160 -30 0
160 -159 0
161 -80 -160 0
-161 80 0
-161 160 0
-162 54 7 15 17 19 22 25 74 0
162 -54 0
162 -7 0
162 -15 0
162 -17 0
162 -19 0
162 -22 0
162 -25 0
162 -74 0
163 -77 -162 0
-163 77 0
-163 162 0
-164 30 163 0
164 -30 0
164 -163 0
165 -39 -164 0
-165 39 0
-165 164 0
-166 43 165 40 0
166 -43 0
166 -165 0
166 -40 0
167 -87 -166 0
-167 87 0
-167 166 0
168 -89 -147 0
-168 89 0
-168 147 0
-169 91 4 150 154 157 161 167 168 0
169 -91 0
169 -4 0
169 -150 0
169 -154 0
169 -157 0
169 -161 0
169 -167 0
169 -168 0
170 -93 -169 0
-170 93 0
-170 169 0
-171 95 170 0
171 -95 0
171 -170 0
172 -97 -171 0
-172 97 0
-172 171 0
-173 99 172 0
173 -99 0
173 -172 0
174 -101 -173 0
-174 101 0
-174 173 0
-175 54 7 15 17 19 22 25 107 110 44 112 0
175 -54 0
175 -7 0
175 -15 0
175 -17 0
175 -19 0
175 -22 0
175 -25 0
175 -107 0
175 -110 0
175 -44 0
175 -112 0
176 -56 -175 0
-176 56 0
-176 175 0
-177 58 176 0
177 -58 0
177 -176 0
178 -60 -177 0
-178 60 0
-178 177 0
-179 54 7 15 17 19 25 107 110 44 112 0
179 -54 0
179 -7 0
179 -15 0
179 -17 0
179 -19 0
179 -25 0
179 -107 0
179 -110 0
179 -44 0
179 -112 0
180 -63 -179 0
-180 63 0
-180 179 0
-181 24 180 0
181 -24 0
181 -180 0
182 -66 -181 0
-182 66 0
-182 181 0
183 -68 -175 0
-183 68 0
-183 175 0
-184 70 183 0
184 -70 0
184 -183 0
185 -72 -184 0
-185 72 0
-185 184 0
-186 54 7 15 17 19 22 25 126 110 44 112 0
186 -54 0
186 -7 0
186 -15 0
186 -17 0
186 -19 0
186 -22 0
186 -25 0
186 -126 0
186 -110 0
186 -44 0
186 -112 0
187 -77 -186 0
-187 77 0
-187 186 0
-188 30 187 0
188 -30 0
188 -187 0
189 -80 -188 0
-189 80 0
-189 188 0
-190 54 7 15 17 19 22 25 126 110 112 0
190 -54 0
190 -7 0
190 -15 0
190 -17 0
190 -19 0
190 -22 0
190 -25 0
190 -126 0
190 -110 0
190 -112 0
191 -77 -190 0
-191 77 0
-191 190 0
-192 30 191 0
192 -30 0
192 -191 0
193 -39 -192 0
-193 39 0
-193 192 0
-194 43 193 40 0
194 -43 0
194 -193 0
194 -40 0
195 -87 -194 0
-195 87 0
-195 194 0
196 -89 -175 0
-196 89 0
-196 175 0
-197 91 4 178 182 185 189 195 137 196 0
197 -91 0
197 -4 0
197 -178 0
197 -182 0
197 -185 0
197 -189 0
197 -195 0
197 -137 0
197 -196 0
198 -142 -197 0
-198 142 0
-198 197 0
-199 144 174 198 0
199 -144 0
199 -174 0
199 -198 0
200 -201 -199 0
-200 201 0
-200 199 0
202 -101 -109 0
-202 101 0
-202 109 0
-203 144 202 0
203 -144 0
203 -202 0
204 -205 -203 0
-204 205 0
-204 203 0
206 -207 -203 0
-206 207 0
-206 203 0
-208 9 206 0
208 -9 0
208 -206 0
209 -8 -208 0
-209 8 0
-209 208 0
210 -211 -203 0
-210 211 0
-210 203 0
212 -213 -203 0
-212 213 0
-212 203 0
-214 12 212 0
214 -12 0
214 -212 0
215 -11 -214 0
-215 11 0
-215 214 0
-216 14 210 215 0
216 -14 0
216 -210 0
216 -215 0
217 -16 -216 0
-217 16 0
-217 216 0
218 -219 -203 0
-218 219 0
-218 203 0
-220 35 218 28 105 0
220 -35 0
220 -218 0
220 -28 0
220 -105 0
221 -37 -220 0
-221 37 0
-221 220 0
-222 54 209 217 17 19 22 25 221 110 44 112 0
222 -54 0
222 -209 0
222 -217 0
222 -17 0
222 -19 0
222 -22 0
222 -25 0
222 -221 0
222 -110 0
222 -44 0
222 -112 0
223 -56 -222 0
-223 56 0
-223 222 0
-224 58 223 0
224 -58 0
224 -223 0
225 -60 -224 0
-225 60 0
-225 224 0
-226 54 209 217 17 19 25 221 110 44 112 0
226 -54 0
226 -209 0
226 -217 0
226 -17 0
226 -19 0
226 -25 0
226 -221 0
226 -110 0
226 -44 0
226 -112 0
227 -63 -226 0
-227 63 0
-227 226 0
-228 24 227 0
228 -24 0
228 -227 0
229 -66 -228 0
-229 66 0
-229 228 0
230 -68 -222 0
-230 68 0
-230 222 0
-231 70 230 0
231 -70 0
231 -230 0
232 -72 -231 0
-232 72 0
-232 231 0
-233 35 218 105 0
233 -35 0
233 -218 0
233 -105 0
234 -37 -233 0
-234 37 0
-234 233 0
-235 54 209 217 17 19 22 25 234 110 44 112 0
235 -54 0
235 -209 0
235 -217 0
235 -17 0
235 -19 0
235 -22 0
235 -25 0
235 -234 0
235 -110 0
235 -44 0
235 -112 0
236 -77 -235 0
-236 77 0
-236 235 0
-237 30 236 0
237 -30 0
237 -236 0
238 -80 -237 0
-238 80 0
-238 237 0
-239 54 209 217 17 19 22 25 234 110 112 0
239 -54 0
239 -209 0
239 -217 0
239 -17 0
239 -19 0
239 -22 0
239 -25 0
239 -234 0
239 -110 0
239 -112 0
240 -77 -239 0
-240 77 0
-240 239 0
-241 30 240 0
241 -30 0
241 -240 0
242 -39 -241 0
-242 39 0
-242 241 0
-243 43 242 40 0
243 -43 0
243 -242 0
243 -40 0
244 -87 -243 0
-244 87 0
-244 243 0
245 -89 -222 0
-245 89 0
-245 222 0
-246 91 204 4 225 229 232 238 244 137 245 0
246 -91 0
246 -204 0
246 -4 0
246 -225 0
246 -229 0
246 -232 0
246 -238 0
246 -244 0
246 -137 0
246 -245 0
247 -248 -246 0
-247 248 0
-247 246 0
249 -60 -58 0
-249 60 0
-249 58 0
250 -66 -24 0
-250 66 0
-250 24 0
251 -72 -70 0
-251 72 0
-251 70 0
252 -80 -30 0
-252 80 0
-252 30 0
253 -87 -42 0
-253 87 0
-253 42 0
-254 91 4 249 250 251 252 253 0
254 -91 0
254 -4 0
254 -249 0
254 -250 0
254 -251 0
254 -252 0
254 -253 0
255 -93 -254 0
-255 93 0
-255 254 0
-256 95 255 0
256 -95 0
256 -255 0
257 -97 -256 0
-257 97 0
-257 256 0
-258 99 257 0
258 -99 0
258 -257 0
259 -101 -258 0
-259 101 0
-259 258 0
-260 91 4 249 250 251 252 253 137 0
260 -91 0
260 -4 0
260 -249 0
260 -250 0
260 -251 0
260 -252 0
260 -253 0
260 -137 0
261 -142 -260 0
-261 142 0
-261 260 0
-262 144 259 261 0
262 -144 0
262 -259 0
262 -261 0
263 -207 -262 0
-263 207 0
-263 262 0
-264 9 263 0
264 -9 0
264 -263 0
265 -8 -264 0
-265 8 0
-265 264 0
266 -211 -262 0
-266 211 0
-266 262 0
267 -213 -262 0
-267 213 0
-267 262 0
-268 12 267 0
268 -12 0
268 -267 0
269 -11 -268 0
-269 11 0
-269 268 0
-270 14 266 269 0
270 -14 0
270 -266 0
270 -269 0
271 -16 -270 0
-271 16 0
-271 270 0
272 -219 -262 0
-272 219 0
-272 262 0
-273 91 204 4 249 250 251 252 253 0
273 -91 0
273 -204 0
273 -4 0
273 -249 0
273 -250 0
273 -251 0
273 -252 0
273 -253 0
274 -93 -273 0
-274 93 0
-274 273 0
-275 95 274 0
275 -95 0
275 -274 0
276 -103 -275 0
-276 103 0
-276 275 0
-277 33 276 0
277 -33 0
277 -276 0
278 -32 -277 0
-278 32 0
-278 277 0
-279 35 272 28 278 0
279 -35 0
279 -272 0
279 -28 0
279 -278 0
280 -37 -279 0
-280 37 0
-280 279 0
281 -205 -144 0
-281 205 0
-281 144 0
-282 91 281 4 249 250 251 252 253 0
282 -91 0
282 -281 0
282 -4 0
282 -249 0
282 -250 0
282 -251 0
282 -252 0
282 -253 0
283 -93 -282 0
-283 93 0
-283 282 0
-284 95 283 0
284 -95 0
284 -283 0
285 -97 -284 0
-285 97 0
-285 284 0
-286 99 285 0
286 -99 0
286 -285 0
287 -111 -286 0
-287 111 0
-287 286 0
288 -113 -275 0
-288 113 0
-288 275 0
-289 54 265 271 17 19 22 25 280 287 44 288 0
289 -54 0
289 -265 0
289 -271 0
289 -17 0
289 -19 0
289 -22 0
289 -25 0
289 -280 0
289 -287 0
289 -44 0
289 -288 0
290 -291 -289 0
-290 291 0
-290 289 0
-292 48 200 247 290 0
292 -48 0
292 -200 0
292 -247 0
292 -290 0
293 -47 -292 0
-293 47 0
-293 292 0
294 -295 -246 0
-294 295 0
-294 246 0
-296 50 293 294 0
296 -50 0
296 -293 0
296 -294 0
297 -298 -296 0
-297 298 0
-297 296 0
-299 300 145 297 0
299 -300 0
299 -145 0
299 -297 0
301 -302 -299 0
-301 302 0
-301 299 0
303 -16 -14 0
-303 16 0
-303 14 0
-304 54 7 303 17 19 22 25 36 44 51 0
304 -54 0
304 -7 0
304 -303 0
304 -17 0
304 -19 0
304 -22 0
304 -25 0
304 -36 0
304 -44 0
304 -51 0
305 -56 -304 0
-305 56 0
-305 304 0
-306 58 305 0
306 -58 0
306 -305 0
307 -60 -306 0
-307 60 0
-307 306 0
-308 54 7 303 17 19 25 36 44 51 0
308 -54 0
308 -7 0
308 -303 0
308 -17 0
308 -19 0
308 -25 0
308 -36 0
308 -44 0
308 -51 0
309 -63 -308 0
-309 63 0
-309 308 0
-310 24 309 0
310 -24 0
310 -309 0
311 -66 -310 0
-311 66 0
-311 310 0
312 -68 -304 0
-312 68 0
-312 304 0
-313 70 312 0
313 -70 0
313 -312 0
314 -72 -313 0
-314 72 0
-314 313 0
-315 54 7 303 17 19 22 25 74 44 51 0
315 -54 0
315 -7 0
315 -303 0
315 -17 0
315 -19 0
315 -22 0
315 -25 0
315 -74 0
315 -44 0
315 -51 0
316 -77 -315 0
-316 77 0
-316 315 0
-317 30 316 0
317 -30 0
317 -316 0
318 -80 -317 0
-318 80 0
-318 317 0
-319 54 7 303 17 19 22 25 74 51 0
319 -54 0
319 -7 0
319 -303 0
319 -17 0
319 -19 0
319 -22 0
319 -25 0
319 -74 0
319 -51 0
320 -77 -319 0
-320 77 0
-320 319 0
-321 30 320 0
321 -30 0
321 -320 0
322 -39 -321 0
-322 39 0
-322 321 0
-323 43 322 40 0
323 -43 0
323 -322 0
323 -40 0
324 -87 -323 0
-324 87 0
-324 323 0
325 -89 -304 0
-325 89 0
-325 304 0
-326 91 4 307 311 314 318 324 325 0
326 -91 0
326 -4 0
326 -307 0
326 -311 0
326 -314 0
326 -318 0
326 -324 0
326 -325 0
327 -93 -326 0
-327 93 0
-327 326 0
-328 95 327 0
328 -95 0
328 -327 0
329 -97 -328 0
-329 97 0
-329 328 0
-330 99 329 0
330 -99 0
330 -329 0
331 -101 -330 0
-331 101 0
-331 330 0
-332 54 7 303 17 19 22 25 107 110 44 51 112 0
332 -54 0
332 -7 0
332 -303 0
332 -17 0
332 -19 0
332 -22 0
332 -25 0
332 -107 0
332 -110 0
332 -44 0
332 -51 0
332 -112 0
333 -56 -332 0
-333 56 0
-333 332 0
-334 58 333 0
334 -58 0
334 -333 0
335 -60 -334 0
-335 60 0
-335 334 0
-336 54 7 303 17 19 25 107 110 44 51 112 0
336 -54 0
336 -7 0
336 -303 0
336 -17 0
336 -19 0
336 -25 0
336 -107 0
336 -110 0
336 -44 0
336 -51 0
336 -112 0
337 -63 -336 0
-337 63 0
-337 336 0
-338 24 337 0
338 -24 0
338 -337 0
339 -66 -338 0
-339 66 0
-339 338 0
340 -68 -332 0
-340 68 0
-340 332 0
-341 70 340 0
341 -70 0
341 -340 0
342 -72 -341 0
-342 72 0
-342 341 0
-343 54 7 303 17 19 22 25 126 110 44 51 112 0
343 -54 0
343 -7 0
343 -303 0
343 -17 0
343 -19 0
343 -22 0
343 -25 0
343 -126 0
343 -110 0
343 -44 0
343 -51 0
343 -112 0
344 -77 -343 0
-344 77 0
-344 343 0
-345 30 344 0
345 -30 0
345 -344 0
346 -80 -345 0
-346 80 0
-346 345 0
-347 54 7 303 17 19 22 25 126 110 51 112 0
347 -54 0
347 -7 0
347 -303 0
347 -17 0
347 -19 0
347 -22 0
347 -25 0
347 -126 0
347 -110 0
347 -51 0
347 -112 0
348 -77 -347 0
-348 77 0
-348 347 0
-349 30 348 0
349 -30 0
349 -348 0
350 -39 -349 0
-350 39 0
-350 349 0
-351 43 350 40 0
351 -43 0
351 -350 0
351 -40 0
352 -87 -351 0
-352 87 0
-352 351 0
353 -89 -332 0
-353 89 0
-353 332 0
-354 91 4 335 339 342 346 352 137 353 0
354 -91 0
354 -4 0
354 -335 0
354 -339 0
354 -342 0
354 -346 0
354 -352 0
354 -137 0
354 -353 0
355 -142 -354 0
-355 142 0
-355 354 0
-356 144 331 355 0
356 -144 0
356 -331 0
356 -355 0
357 -146 -356 0
-357 146 0
-357 356 0
-358 54 7 303 17 19 22 25 36 44 0
358 -54 0
358 -7 0
358 -303 0
358 -17 0
358 -19 0
358 -22 0
358 -25 0
358 -36 0
358 -44 0
359 -56 -358 0
-359 56 0
-359 358 0
-360 58 359 0
360 -58 0
360 -359 0
361 -60 -360 0
-361 60 0
-361 360 0
-362 54 7 303 17 19 25 36 44 0
362 -54 0
362 -7 0
362 -303 0
362 -17 0
362 -19 0
362 -25 0
362 -36 0
362 -44 0
363 -63 -362 0
-363 63 0
-363 362 0
-364 24 363 0
364 -24 0
364 -363 0
365 -66 -364 0
-365 66 0
-365 364 0
366 -68 -358 0
-366 68 0
-366 358 0
-367 70 366 0
367 -70 0
367 -366 0
368 -72 -367 0
-368 72 0
-368 367 0
-369 54 7 303 17 19 22 25 74 44 0
369 -54 0
369 -7 0
369 -303 0
369 -17 0
369 -19 0
369 -22 0
369 -25 0
369 -74 0
369 -44 0
370 -77 -369 0
-370 77 0
-370 369 0
-371 30 370 0
371 -30 0
371 -370 0
372 -80 -371 0
-372 80 0
-372 371 0
-373 54 7 303 17 19 22 25 74 0
373 -54 0
373 -7 0
373 -303 0
373 -17 0
373 -19 0
373 -22 0
373 -25 0
373 -74 0
374 -77 -373 0
-374 77 0
-374 373 0
-375 30 374 0
375 -30 0
375 -374 0
376 -39 -375 0
-376 39 0
-376 375 0
-377 43 376 40 0
377 -43 0
377 -376 0
377 -40 0
378 -87 -377 0
-378 87 0
-378 377 0
379 -89 -358 0
-379 89 0
-379 358 0
-380 91 4 361 365 368 372 378 379 0
380 -91 0
380 -4 0
380 -361 0
380 -365 0
380 -368 0
380 -372 0
380 -378 0
380 -379 0
381 -93 -380 0
-381 93 0
-381 380 0
-382 95 381 0
382 -95 0
382 -381 0
383 -97 -382 0
-383 97 0
-383 382 0
-384 99 383 0
384 -99 0
384 -383 0
385 -101 -384 0
-385 101 0
-385 384 0
-386 54 7 303 17 19 22 25 107 110 44 112 0
386 -54 0
386 -7 0
386 -303 0
386 -17 0
386 -19 0
386 -22 0
386 -25 0
386 -107 0
386 -110 0
386 -44 0
386 -112 0
387 -56 -386 0
-387 56 0
-387 386 0
-388 58 387 0
388 -58 0
388 -387 0
389 -60 -388 0
-389 60 0
-389 388 0
-390 54 7 303 17 19 25 107 110 44 112 0
390 -54 0
390 -7 0
390 -303 0
390 -17 0
390 -19 0
390 -25 0
390 -107 0
390 -110 0
390 -44 0
390 -112 0
391 -63 -390 0
-391 63 0
-391 390 0
-392 24 391 0
392 -24 0
392 -391 0
393 -66 -392 0
-393 66 0
-393 392 0
394 -68 -386 0
-394 68 0
-394 386 0
-395 70 394 0
395 -70 0
395 -394 0
396 -72 -395 0
-396 72 0
-396 395 0
-397 54 7 303 17 19 22 25 126 110 44 112 0
397 -54 0
397 -7 0
397 -303 0
397 -17 0
397 -19 0
397 -22 0
397 -25 0
397 -126 0
397 -110 0
397 -44 0
397 -112 0
398 -77 -397 0
-398 77 0
-398 397 0
-399 30 398 0
399 -30 0
399 -398 0
400 -80 -399 0
-400 80 0
-400 399 0
-401 54 7 303 17 19 22 25 126 110 112 0
401 -54 0
401 -7 0
401 -303 0
401 -17 0
401 -19 0
401 -22 0
401 -25 0
401 -126 0
401 -110 0
401 -112 0
402 -77 -401 0
-402 77 0
-402 401 0
-403 30 402 0
403 -30 0
403 -402 0
404 -39 -403 0
-404 39 0
-404 403 0
-405 43 404 40 0
405 -43 0
405 -404 0
405 -40 0
406 -87 -405 0
-406 87 0
-406 405 0
407 -89 -386 0
-407 89 0
-407 386 0
-408 91 4 389 393 396 400 406 137 407 0
408 -91 0
408 -4 0
408 -389 0
408 -393 0
408 -396 0
408 -400 0
408 -406 0
408 -137 0
408 -407 0
409 -142 -408 0
-409 142 0
-409 408 0
-410 144 385 409 0
410 -144 0
410 -385 0
410 -409 0
411 -201 -410 0
-411 201 0
-411 410 0
-412 14 210 0
412 -14 0
412 -210 0
413 -16 -412 0
-413 16 0
-413 412 0
-414 54 209 413 17 19 22 25 221 110 44 112 0
414 -54 0
414 -209 0
414 -413 0
414 -17 0
414 -19 0
414 -22 0
414 -25 0
414 -221 0
414 -110 0
414 -44 0
414 -112 0
415 -56 -414 0
-415 56 0
-415 414 0
-416 58 415 0
416 -58 0
416 -415 0
417 -60 -416 0
-417 60 0
-417 416 0
-418 54 209 413 17 19 25 221 110 44 112 0
418 -54 0
418 -209 0
418 -413 0
418 -17 0
418 -19 0
418 -25 0
418 -221 0
418 -110 0
418 -44 0
418 -112 0
419 -63 -418 0
-419 63 0
-419 418 0
-420 24 419 0
420 -24 0
420 -419 0
421 -66 -420 0
-421 66 0
-421 420 0
422 -68 -414 0
-422 68 0
-422 414 0
-423 70 422 0
423 -70 0
423 -422 0
424 -72 -423 0
-424 72 0
-424 423 0
-425 54 209 413 17 19 22 25 234 110 44 112 0
425 -54 0
425 -209 0
425 -413 0
425 -17 0
425 -19 0
425 -22 0
425 -25 0
425 -234 0
425 -110 0
425 -44 0
425 -112 0
426 -77 -425 0
-426 77 0
-426 425 0
-427 30 426 0
427 -30 0
427 -426 0
428 -80 -427 0
-428 80 0
-428 427 0
-429 54 209 413 17 19 22 25 234 110 112 0
429 -54 0
429 -209 0
429 -413 0
429 -17 0
429 -19 0
429 -22 0
429 -25 0
429 -234 0
429 -110 0
429 -112 0
430 -77 -429 0
-430 77 0
-430 429 0
-431 30 430 0
431 -30 0
431 -430 0
432 -39 -431 0
-432 39 0
-432 431 0
-433 43 432 40 0
433 -43 0
433 -432 0
433 -40 0
434 -87 -433 0
-434 87 0
-434 433 0
435 -89 -414 0
-435 89 0
-435 414 0
-436 91 204 4 417 421 424 428 434 137 435 0
436 -91 0
436 -204 0
436 -4 0
436 -417 0
436 -421 0
436 -424 0
436 -428 0
436 -434 0
436 -137 0
436 -435 0
437 -248 -436 0
-437 248 0
-437 436 0
-438 14 266 0
438 -14 0
438 -266 0
439 -16 -438 0
-439 16 0
-439 438 0
-440 54 265 439 17 19 22 25 280 287 44 288 0
440 -54 0
440 -265 0
440 -439 0
440 -17 0
440 -19 0
440 -22 0
440 -25 0
440 -280 0
440 -287 0
440 -44 0
440 -288 0
441 -291 -440 0
-441 291 0
-441 440 0
-442 48 411 437 441 0
442 -48 0
442 -411 0
442 -437 0
442 -441 0
443 -47 -442 0
-443 47 0
-443 442 0
444 -295 -436 0
-444 295 0
-444 436 0
-445 50 443 444 0
445 -50 0
445 -443 0
445 -444 0
446 -298 -445 0
-446 298 0
-446 445 0
-447 300 357 446 0
447 -300 0
447 -357 0
447 -446 0
448 -449 -447 0
-448 449 0
-448 447 0
450 -298 -49 0
-450 298 0
-450 49 0
-451 300 450 0
451 -300 0
451 -450 0
452 -453 -451 0
-452 453 0
-452 451 0
-454 14 452 0
454 -14 0
454 -452 0
455 -16 -454 0
-455 16 0
-455 454 0
456 -457 -451 0
-456 457 0
-456 451 0
-458 21 456 0
458 -21 0
458 -456 0
459 -20 -458 0
-459 20 0
-459 458 0
-460 54 7 455 17 459 22 25 36 44 51 0
460 -54 0
460 -7 0
460 -455 0
460 -17 0
460 -459 0
460 -22 0
460 -25 0
460 -36 0
460 -44 0
460 -51 0
461 -56 -460 0
-461 56 0
-461 460 0
-462 58 461 0
462 -58 0
462 -461 0
463 -60 -462 0
-463 60 0
-463 462 0
-464 54 7 455 17 459 25 36 44 51 0
464 -54 0
464 -7 0
464 -455 0
464 -17 0
464 -459 0
464 -25 0
464 -36 0
464 -44 0
464 -51 0
465 -63 -464 0
-465 63 0
-465 464 0
-466 24 465 0
466 -24 0
466 -465 0
467 -66 -466 0
-467 66 0
-467 466 0
468 -68 -460 0
-468 68 0
-468 460 0
-469 70 468 0
469 -70 0
469 -468 0
470 -72 -469 0
-470 72 0
-470 469 0
-471 54 7 455 17 459 22 25 74 44 51 0
471 -54 0
471 -7 0
471 -455 0
471 -17 0
471 -459 0
471 -22 0
471 -25 0
471 -74 0
471 -44 0
471 -51 0
472 -77 -471 0
-472 77 0
-472 471 0
-473 30 472 0
473 -30 0
473 -472 0
474 -80 -473 0
-474 80 0
-474 473 0
-475 54 7 455 17 459 22 25 74 51 0
475 -54 0
475 -7 0
475 -455 0
475 -17 0
475 -459 0
475 -22 0
475 -25 0
475 -74 0
475 -51 0
476 -77 -475 0
-476 77 0
-476 475 0
-477 30 476 0
477 -30 0
477 -476 0
478 -39 -477 0
-478 39 0
-478 477 0
-479 43 478 40 0
479 -43 0
479 -478 0
479 -40 0
480 -87 -479 0
-480 87 0
-480 479 0
481 -89 -460 0
-481 89 0
-481 460 0
-482 91 4 463 467 470 474 480 481 0
482 -91 0
482 -4 0
482 -463 0
482 -467 0
482 -470 0
482 -474 0
482 -480 0
482 -481 0
483 -93 -482 0
-483 93 0
-483 482 0
-484 95 483 0
484 -95 0
484 -483 0
485 -97 -484 0
-485 97 0
-485 484 0
-486 99 485 0
486 -99 0
486 -485 0
487 -101 -486 0
-487 101 0
-487 486 0
-488 54 7 455 17 459 22 25 107 110 44 51 112 0
488 -54 0
488 -7 0
488 -455 0
488 -17 0
488 -459 0
488 -22 0
488 -25 0
488 -107 0
488 -110 0
488 -44 0
488 -51 0
488 -112 0
489 -56 -488 0
-489 56 0
-489 488 0
-490 58 489 0
490 -58 0
490 -489 0
491 -60 -490 0
-491 60 0
-491 490 0
-492 54 7 455 17 459 25 107 110 44 51 112 0
492 -54 0
492 -7 0
492 -455 0
492 -17 0
492 -459 0
492 -25 0
492 -107 0
492 -110 0
492 -44 0
492 -51 0
492 -112 0
493 -63 -492 0
-493 63 0
-493 492 0
-494 24 493 0
494 -24 0
494 -493 0
495 -66 -494 0
-495 66 0
-495 494 0
496 -68 -488 0
-496 68 0
-496 488 0
-497 70 496 0
497 -70 0
497 -496 0
498 -72 -497 0
-498 72 0
-498 497 0
-499 54 7 455 17 459 22 25 126 110 44 51 112 0
499 -54 0
499 -7 0
499 -455 0
499 -17 0
499 -459 0
499 -22 0
499 -25 0
499 -126 0
499 -110 0
499 -44 0
499 -51 0
499 -112 0
500 -77 -499 0
-500 77 0
-500 499 0
-501 30 500 0
501 -30 0
501 -500 0
502 -80 -501 0
-502 80 0
-502 501 0
-503 54 7 455 17 459 22 25 126 110 51 112 0
503 -54 0
503 -7 0
503 -455 0
503 -17 0
503 -459 0
503 -22 0
503 -25 0
503 -126 0
503 -110 0
503 -51 0
503 -112 0
504 -77 -503 0
-504 77 0
-504 503 0
-505 30 504 0
505 -30 0
505 -504 0
506 -39 -505 0
-506 39 0
-506 505 0
-507 43 506 40 0
507 -43 0
507 -506 0
507 -40 0
508 -87 -507 0
-508 87 0
-508 507 0
509 -89 -488 0
-509 89 0
-509 488 0
-510 91 4 491 495 498 502 508 137 509 0
510 -91 0
510 -4 0
510 -491 0
510 -495 0
510 -498 0
510 -502 0
510 -508 0
510 -137 0
510 -509 0
511 -142 -510 0
-511 142 0
-511 510 0
-512 144 487 511 0
512 -144 0
512 -487 0
512 -511 0
513 -213 -512 0
-513 213 0
-513 512 0
-514 12 448 513 0
514 -12 0
514 -448 0
514 -513 0
515 -516 -514 0
-515 516 0
-515 514 0
-517 518 301 515 0
517 -518 0
517 -301 0
517 -515 0
519 -520 -517 0
-519 520 0
-519 517 0
521 -522 -523 0
-521 522 0
-521 523 0
524 -525 -518 0
-524 525 0
-524 518 0
-526 144 524 331 355 0
526 -144 0
526 -524 0
526 -331 0
526 -355 0
527 -146 -526 0
-527 146 0
-527 526 0
-528 144 524 385 409 0
528 -144 0
528 -524 0
528 -385 0
528 -409 0
529 -201 -528 0
-529 201 0
-529 528 0
-530 144 524 202 0
530 -144 0
530 -524 0
530 -202 0
531 -205 -530 0
-531 205 0
-531 530 0
532 -207 -530 0
-532 207 0
-532 530 0
-533 9 532 0
533 -9 0
533 -532 0
534 -8 -533 0
-534 8 0
-534 533 0
535 -211 -530 0
-535 211 0
-535 530 0
-536 14 535 0
536 -14 0
536 -535 0
537 -16 -536 0
-537 16 0
-537 536 0
538 -219 -530 0
-538 219 0
-538 530 0
-539 35 538 28 105 0
539 -35 0
539 -538 0
539 -28 0
539 -105 0
540 -37 -539 0
-540 37 0
-540 539 0
-541 54 534 537 17 19 22 25 540 110 44 112 0
541 -54 0
541 -534 0
541 -537 0
541 -17 0
541 -19 0
541 -22 0
541 -25 0
541 -540 0
541 -110 0
541 -44 0
541 -112 0
542 -56 -541 0
-542 56 0
-542 541 0
-543 58 542 0
543 -58 0
543 -542 0
544 -60 -543 0
-544 60 0
-544 543 0
-545 54 534 537 17 19 25 540 110 44 112 0
545 -54 0
545 -534 0
545 -537 0
545 -17 0
545 -19 0
545 -25 0
545 -540 0
545 -110 0
545 -44 0
545 -112 0
546 -63 -545 0
-546 63 0
-546 545 0
-547 24 546 0
547 -24 0
547 -546 0
548 -66 -547 0
-548 66 0
-548 547 0
549 -68 -541 0
-549 68 0
-549 541 0
-550 70 549 0
550 -70 0
550 -549 0
551 -72 -550 0
-551 72 0
-551 550 0
-552 35 538 105 0
552 -35 0
552 -538 0
552 -105 0
553 -37 -552 0
-553 37 0
-553 552 0
-554 54 534 537 17 19 22 25 553 110 44 112 0
554 -54 0
554 -534 0
554 -537 0
554 -17 0
554 -19 0
554 -22 0
554 -25 0
554 -553 0
554 -110 0
554 -44 0
554 -112 0
555 -77 -554 0
-555 77 0
-555 554 0
-556 30 555 0
556 -30 0
556 -555 0
557 -80 -556 0
-557 80 0
-557 556 0
-558 54 534 537 17 19 22 25 553 110 112 0
558 -54 0
558 -534 0
558 -537 0
558 -17 0
558 -19 0
558 -22 0
558 -25 0
558 -553 0
558 -110 0
558 -112 0
559 -77 -558 0
-559 77 0
-559 558 0
-560 30 559 0
560 -30 0
560 -559 0
561 -39 -560 0
-561 39 0
-561 560 0
-562 43 561 40 0
562 -43 0
562 -561 0
562 -40 0
563 -87 -562 0
-563 87 0
-563 562 0
564 -89 -541 0
-564 89 0
-564 541 0
-565 91 531 4 544 548 551 557 563 137 564 0
565 -91 0
565 -531 0
565 -4 0
565 -544 0
565 -548 0
565 -551 0
565 -557 0
565 -563 0
565 -137 0
565 -564 0
566 -248 -565 0
-566 248 0
-566 565 0
-567 144 524 259 261 0
567 -144 0
567 -524 0
567 -259 0
567 -261 0
568 -207 -567 0
-568 207 0
-568 567 0
-569 9 568 0
569 -9 0
569 -568 0
570 -8 -569 0
-570 8 0
-570 569 0
571 -211 -567 0
-571 211 0
-571 567 0
-572 14 571 0
572 -14 0
572 -571 0
573 -16 -572 0
-573 16 0
-573 572 0
574 -219 -567 0
-574 219 0
-574 567 0
-575 91 531 4 249 250 251 252 253 0
575 -91 0
575 -531 0
575 -4 0
575 -249 0
575 -250 0
575 -251 0
575 -252 0
575 -253 0
576 -93 -575 0
-576 93 0
-576 575 0
-577 95 576 0
577 -95 0
577 -576 0
578 -103 -577 0
-578 103 0
-578 577 0
-579 33 578 0
579 -33 0
579 -578 0
580 -32 -579 0
-580 32 0
-580 579 0
-581 35 574 28 580 0
581 -35 0
581 -574 0
581 -28 0
581 -580 0
582 -37 -581 0
-582 37 0
-582 581 0
-583 144 524 0
583 -144 0
583 -524 0
584 -205 -583 0
-584 205 0
-584 583 0
-585 91 584 4 249 250 251 252 253 0
585 -91 0
585 -584 0
585 -4 0
585 -249 0
585 -250 0
585 -251 0
585 -252 0
585 -253 0
586 -93 -585 0
-586 93 0
-586 585 0
-587 95 586 0
587 -95 0
587 -586 0
588 -97 -587 0
-588 97 0
-588 587 0
-589 99 588 0
589 -99 0
589 -588 0
590 -111 -589 0
-590 111 0
-590 589 0
591 -113 -577 0
-591 113 0
-591 577 0
-592 54 570 573 17 19 22 25 582 590 44 591 0
592 -54 0
592 -570 0
592 -573 0
592 -17 0
592 -19 0
592 -22 0
592 -25 0
592 -582 0
592 -590 0
592 -44 0
592 -591 0
593 -291 -592 0
-593 291 0
-593 592 0
-594 48 529 566 593 0
594 -48 0
594 -529 0
594 -566 0
594 -593 0
595 -47 -594 0
-595 47 0
-595 594 0
596 -295 -565 0
-596 295 0
-596 565 0
-597 50 595 596 0
597 -50 0
597 -595 0
597 -596 0
598 -298 -597 0
-598 298 0
-598 597 0
-599 300 527 598 0
599 -300 0
599 -527 0
599 -598 0
600 -449 -599 0
-600 449 0
-600 599 0
601 -248 -408 0
-601 248 0
-601 408 0
602 -103 -256 0
-602 103 0
-602 256 0
-603 33 602 0
603 -33 0
603 -602 0
604 -32 -603 0
-604 32 0
-604 603 0
-605 35 28 604 0
605 -35 0
605 -28 0
605 -604 0
606 -37 -605 0
-606 37 0
-606 605 0
607 -111 -258 0
-607 111 0
-607 258 0
608 -113 -256 0
-608 113 0
-608 256 0
-609 54 7 303 17 19 22 25 606 607 44 608 0
609 -54 0
609 -7 0
609 -303 0
609 -17 0
609 -19 0
609 -22 0
609 -25 0
609 -606 0
609 -607 0
609 -44 0
609 -608 0
610 -291 -609 0
-610 291 0
-610 609 0
-611 48 601 610 0
611 -48 0
611 -601 0
611 -610 0
612 -47 -611 0
-612 47 0
-612 611 0
613 -295 -408 0
-613 295 0
-613 408 0
-614 50 612 613 0
614 -50 0
614 -612 0
614 -613 0
615 -298 -614 0
-615 298 0
-615 614 0
-616 300 615 0
616 -300 0
616 -615 0
617 -302 -616 0
-617 302 0
-617 616 0
-618 518 617 0
618 -518 0
618 -617 0
619 -525 -618 0
-619 525 0
-619 618 0
-620 144 619 487 511 0
620 -144 0
620 -619 0
620 -487 0
620 -511 0
621 -213 -620 0
-621 213 0
-621 620 0
-622 12 600 621 0
622 -12 0
622 -600 0
622 -621 0
623 -624 -622 0
-623 624 0
-623 622 0
-625 626 623 0
625 -626 0
625 -623 0
627 -628 -625 0
-627 628 0
-627 625 0
629 -516 -12 0
-629 516 0
-629 12 0
-630 518 629 0
630 -518 0
630 -629 0
631 -525 -630 0
-631 525 0
-631 630 0
-632 54 7 17 19 22 25 36 44 51 0
632 -54 0
632 -7 0
632 -17 0
632 -19 0
632 -22 0
632 -25 0
632 -36 0
632 -44 0
632 -51 0
633 -56 -632 0
-633 56 0
-633 632 0
-634 58 633 0
634 -58 0
634 -633 0
635 -60 -634 0
-635 60 0
-635 634 0
-636 54 7 17 19 25 36 44 51 0
636 -54 0
636 -7 0
636 -17 0
636 -19 0
636 -25 0
636 -36 0
636 -44 0
636 -51 0
637 -63 -636 0
-637 63 0
-637 636 0
-638 24 637 0
638 -24 0
638 -637 0
639 -66 -638 0
-639 66 0
-639 638 0
640 -68 -632 0
-640 68 0
-640 632 0
-641 70 640 0
641 -70 0
641 -640 0
642 -72 -641 0
-642 72 0
-642 641 0
-643 54 7 17 19 22 25 74 44 51 0
643 -54 0
643 -7 0
643 -17 0
643 -19 0
643 -22 0
643 -25 0
643 -74 0
643 -44 0
643 -51 0
644 -77 -643 0
-644 77 0
-644 643 0
-645 30 644 0
645 -30 0
645 -644 0
646 -80 -645 0
-646 80 0
-646 645 0
-647 54 7 17 19 22 25 74 51 0
647 -54 0
647 -7 0
647 -17 0
647 -19 0
647 -22 0
647 -25 0
647 -74 0
647 -51 0
648 -77 -647 0
-648 77 0
-648 647 0
-649 30 648 0
649 -30 0
649 -648 0
650 -39 -649 0
-650 39 0
-650 649 0
-651 43 650 40 0
651 -43 0
651 -650 0
651 -40 0
652 -87 -651 0
-652 87 0
-652 651 0
653 -89 -632 0
-653 89 0
-653 632 0
-654 91 4 635 639 642 646 652 653 0
654 -91 0
654 -4 0
654 -635 0
654 -639 0
654 -642 0
654 -646 0
654 -652 0
654 -653 0
655 -93 -654 0
-655 93 0
-655 654 0
-656 95 655 0
656 -95 0
656 -655 0
657 -97 -656 0
-657 97 0
-657 656 0
-658 99 657 0
658 -99 0
658 -657 0
659 -101 -658 0
-659 101 0
-659 658 0
-660 54 7 17 19 22 25 107 110 44 51 112 0
660 -54 0
660 -7 0
660 -17 0
660 -19 0
660 -22 0
660 -25 0
660 -107 0
660 -110 0
660 -44 0
660 -51 0
660 -112 0
661 -56 -660 0
-661 56 0
-661 660 0
-662 58 661 0
662 -58 0
662 -661 0
663 -60 -662 0
-663 60 0
-663 662 0
-664 54 7 17 19 25 107 110 44 51 112 0
664 -54 0
664 -7 0
664 -17 0
664 -19 0
664 -25 0
664 -107 0
664 -110 0
664 -44 0
664 -51 0
664 -112 0
665 -63 -664 0
-665 63 0
-665 664 0
-666 24 665 0
666 -24 0
666 -665 0
667 -66 -666 0
-667 66 0
-667 666 0
668 -68 -660 0
-668 68 0
-668 660 0
-669 70 668 0
669 -70 0
669 -668 0
670 -72 -669 0
-670 72 0
-670 669 0
-671 54 7 17 19 22 25 126 110 44 51 112 0
671 -54 0
671 -7 0
671 -17 0
671 -19 0
671 -22 0
671 -25 0
671 -126 0
671 -110 0
671 -44 0
671 -51 0
671 -112 0
672 -77 -671 0
-672 77 0
-672 671 0
-673 30 672 0
673 -30 0
673 -672 0
674 -80 -673 0
-674 80 0
-674 673 0
-675 54 7 17 19 22 25 126 110 51 112 0
675 -54 0
675 -7 0
675 -17 0
675 -19 0
675 -22 0
675 -25 0
675 -126 0
675 -110 0
675 -51 0
675 -112 0
676 -77 -675 0
-676 77 0
-676 675 0
-677 30 676 0
677 -30 0
677 -676 0
678 -39 -677 0
-678 39 0
-678 677 0
-679 43 678 40 0
679 -43 0
679 -678 0
679 -40 0
680 -87 -679 0
-680 87 0
-680 679 0
681 -89 -660 0
-681 89 0
-681 660 0
-682 91 4 663 667 670 674 680 137 681 0
682 -91 0
682 -4 0
682 -663 0
682 -667 0
682 -670 0
682 -674 0
682 -680 0
682 -137 0
682 -681 0
683 -142 -682 0
-683 142 0
-683 682 0
-684 144 631 659 683 0
684 -144 0
684 -631 0
684 -659 0
684 -683 0
685 -146 -684 0
-685 146 0
-685 684 0
-686 54 7 17 19 22 25 36 44 0
686 -54 0
686 -7 0
686 -17 0
686 -19 0
686 -22 0
686 -25 0
686 -36 0
686 -44 0
687 -56 -686 0
-687 56 0
-687 686 0
-688 58 687 0
688 -58 0
688 -687 0
689 -60 -688 0
-689 60 0
-689 688 0
-690 54 7 17 19 25 36 44 0
690 -54 0
690 -7 0
690 -17 0
690 -19 0
690 -25 0
690 -36 0
690 -44 0
691 -63 -690 0
-691 63 0
-691 690 0
-692 24 691 0
692 -24 0
692 -691 0
693 -66 -692 0
-693 66 0
-693 692 0
694 -68 -686 0
-694 68 0
-694 686 0
-695 70 694 0
695 -70 0
695 -694 0
696 -72 -695 0
-696 72 0
-696 695 0
-697 54 7 17 19 22 25 74 44 0
697 -54 0
697 -7 0
697 -17 0
697 -19 0
697 -22 0
697 -25 0
697 -74 0
697 -44 0
698 -77 -697 0
-698 77 0
-698 697 0
-699 30 698 0
699 -30 0
699 -698 0
700 -80 -699 0
-700 80 0
-700 699 0
-701 54 7 17 19 22 25 74 0
701 -54 0
701 -7 0
701 -17 0
701 -19 0
701 -22 0
701 -25 0
701 -74 0
702 -77 -701 0
-702 77 0
-702 701 0
-703 30 702 0
703 -30 0
703 -702 0
704 -39 -703 0
-704 39 0
-704 703 0
-705 43 704 40 0
705 -43 0
705 -704 0
705 -40 0
706 -87 -705 0
-706 87 0
-706 705 0
707 -89 -686 0
-707 89 0
-707 686 0
-708 91 4 689 693 696 700 706 707 0
708 -91 0
708 -4 0
708 -689 0
708 -693 0
708 -696 0
708 -700 0
708 -706 0
708 -707 0
709 -93 -708 0
-709 93 0
-709 708 0
-710 95 709 0
710 -95 0
710 -709 0
711 -97 -710 0
-711 97 0
-711 710 0
-712 99 711 0
712 -99 0
712 -711 0
713 -101 -712 0
-713 101 0
-713 712 0
-714 54 7 17 19 22 25 107 110 44 112 0
714 -54 0
714 -7 0
714 -17 0
714 -19 0
714 -22 0
714 -25 0
714 -107 0
714 -110 0
714 -44 0
714 -112 0
715 -56 -714 0
-715 56 0
-715 714 0
-716 58 715 0
716 -58 0
716 -715 0
717 -60 -716 0
-717 60 0
-717 716 0
-718 54 7 17 19 25 107 110 44 112 0
718 -54 0
718 -7 0
718 -17 0
718 -19 0
718 -25 0
718 -107 0
718 -110 0
718 -44 0
718 -112 0
719 -63 -718 0
-719 63 0
-719 718 0
-720 24 719 0
720 -24 0
720 -719 0
721 -66 -720 0
-721 66 0
-721 720 0
722 -68 -714 0
-722 68 0
-722 714 0
-723 70 722 0
723 -70 0
723 -722 0
724 -72 -723 0
-724 72 0
-724 723 0
-725 54 7 17 19 22 25 126 110 44 112 0
725 -54 0
725 -7 0
725 -17 0
725 -19 0
725 -22 0
725 -25 0
725 -126 0
725 -110 0
725 -44 0
725 -112 0
726 -77 -725 0
-726 77 0
-726 725 0
-727 30 726 0
727 -30 0
727 -726 0
728 -80 -727 0
-728 80 0
-728 727 0
-729 54 7 17 19 22 25 126 110 112 0
729 -54 0
729 -7 0
729 -17 0
729 -19 0
729 -22 0
729 -25 0
729 -126 0
729 -110 0
729 -112 0
730 -77 -729 0
-730 77 0
-730 729 0
-731 30 730 0
731 -30 0
731 -730 0
732 -39 -731 0
-732 39 0
-732 731 0
-733 43 732 40 0
733 -43 0
733 -732 0
733 -40 0
734 -87 -733 0
-734 87 0
-734 733 0
735 -89 -714 0
-735 89 0
-735 714 0
-736 91 4 717 721 724 728 734 137 735 0
736 -91 0
736 -4 0
736 -717 0
736 -721 0
736 -724 0
736 -728 0
736 -734 0
736 -137 0
736 -735 0
737 -142 -736 0
-737 142 0
-737 736 0
-738 144 631 713 737 0
738 -144 0
738 -631 0
738 -713 0
738 -737 0
739 -201 -738 0
-739 201 0
-739 738 0
-740 144 631 202 0
740 -144 0
740 -631 0
740 -202 0
741 -205 -740 0
-741 205 0
-741 740 0
742 -207 -740 0
-742 207 0
-742 740 0
-743 9 742 0
743 -9 0
743 -742 0
744 -8 -743 0
-744 8 0
-744 743 0
745 -219 -740 0
-745 219 0
-745 740 0
-746 35 745 28 105 0
746 -35 0
746 -745 0
746 -28 0
746 -105 0
747 -37 -746 0
-747 37 0
-747 746 0
-748 54 744 17 19 22 25 747 110 44 112 0
748 -54 0
748 -744 0
748 -17 0
748 -19 0
748 -22 0
748 -25 0
748 -747 0
748 -110 0
748 -44 0
748 -112 0
749 -56 -748 0
-749 56 0
-749 748 0
-750 58 749 0
750 -58 0
750 -749 0
751 -60 -750 0
-751 60 0
-751 750 0
-752 54 744 17 19 25 747 110 44 112 0
752 -54 0
752 -744 0
752 -17 0
752 -19 0
752 -25 0
752 -747 0
752 -110 0
752 -44 0
752 -112 0
753 -63 -752 0
-753 63 0
-753 752 0
-754 24 753 0
754 -24 0
754 -753 0
755 -66 -754 0
-755 66 0
-755 754 0
756 -68 -748 0
-756 68 0
-756 748 0
-757 70 756 0
757 -70 0
757 -756 0
758 -72 -757 0
-758 72 0
-758 757 0
-759 35 745 105 0
759 -35 0
759 -745 0
759 -105 0
760 -37 -759 0
-760 37 0
-760 759 0
-761 54 744 17 19 22 25 760 110 44 112 0
761 -54 0
761 -744 0
761 -17 0
761 -19 0
761 -22 0
761 -25 0
761 -760 0
761 -110 0
761 -44 0
761 -112 0
762 -77 -761 0
-762 77 0
-762 761 0
-763 30 762 0
763 -30 0
763 -762 0
764 -80 -763 0
-764 80 0
-764 763 0
-765 54 744 17 19 22 25 760 110 112 0
765 -54 0
765 -744 0
765 -17 0
765 -19 0
765 -22 0
765 -25 0
765 -760 0
765 -110 0
765 -112 0
766 -77 -765 0
-766 77 0
-766 765 0
-767 30 766 0
767 -30 0
767 -766 0
768 -39 -767 0
-768 39 0
-768 767 0
-769 43 768 40 0
769 -43 0
769 -768 0
769 -40 0
770 -87 -769 0
-770 87 0
-770 769 0
771 -89 -748 0
-771 89 0
-771 748 0
-772 91 741 4 751 755 758 764 770 137 771 0
772 -91 0
772 -741 0
772 -4 0
772 -751 0
772 -755 0
772 -758 0
772 -764 0
772 -770 0
772 -137 0
772 -771 0
773 -248 -772 0
-773 248 0
-773 772 0
-774 144 631 259 261 0
774 -144 0
774 -631 0
774 -259 0
774 -261 0
775 -207 -774 0
-775 207 0
-775 774 0
-776 9 775 0
776 -9 0
776 -775 0
777 -8 -776 0
-777 8 0
-777 776 0
778 -219 -774 0
-778 219 0
-778 774 0
-779 91 741 4 249 250 251 252 253 0
779 -91 0
779 -741 0
779 -4 0
779 -249 0
779 -250 0
779 -251 0
779 -252 0
779 -253 0
780 -93 -779 0
-780 93 0
-780 779 0
-781 95 780 0
781 -95 0
781 -780 0
782 -103 -781 0
-782 103 0
-782 781 0
-783 33 782 0
783 -33 0
783 -782 0
784 -32 -783 0
-784 32 0
-784 783 0
-785 35 778 28 784 0
785 -35 0
785 -778 0
785 -28 0
785 -784 0
786 -37 -785 0
-786 37 0
-786 785 0
-787 144 631 0
787 -144 0
787 -631 0
788 -205 -787 0
-788 205 0
-788 787 0
-789 91 788 4 249 250 251 252 253 0
789 -91 0
789 -788 0
789 -4 0
789 -249 0
789 -250 0
789 -251 0
789 -252 0
789 -253 0
790 -93 -789 0
-790 93 0
-790 789 0
-791 95 790 0
791 -95 0
791 -790 0
792 -97 -791 0
-792 97 0
-792 791 0
-793 99 792 0
793 -99 0
793 -792 0
794 -111 -793 0
-794 111 0
-794 793 0
795 -113 -781 0
-795 113 0
-795 781 0
-796 54 777 17 19 22 25 786 794 44 795 0
796 -54 0
796 -777 0
796 -17 0
796 -19 0
796 -22 0
796 -25 0
796 -786 0
796 -794 0
796 -44 0
796 -795 0
797 -291 -796 0
-797 291 0
-797 796 0
-798 48 739 773 797 0
798 -48 0
798 -739 0
798 -773 0
798 -797 0
799 -47 -798 0
-799 47 0
-799 798 0
800 -295 -772 0
-800 295 0
-800 772 0
-801 50 799 800 0
801 -50 0
801 -799 0
801 -800 0
802 -298 -801 0
-802 298 0
-802 801 0
-803 300 685 802 0
803 -300 0
803 -685 0
803 -802 0
804 -453 -803 0
-804 453 0
-804 803 0
805 -248 -736 0
-805 248 0
-805 736 0
-806 54 7 17 19 22 25 606 607 44 608 0
806 -54 0
806 -7 0
806 -17 0
806 -19 0
806 -22 0
806 -25 0
806 -606 0
806 -607 0
806 -44 0
806 -608 0
807 -291 -806 0
-807 291 0
-807 806 0
-808 48 805 807 0
808 -48 0
808 -805 0
808 -807 0
809 -47 -808 0
-809 47 0
-809 808 0
810 -295 -736 0
-810 295 0
-810 736 0
-811 50 809 810 0
811 -50 0
811 -809 0
811 -810 0
812 -298 -811 0
-812 298 0
-812 811 0
-813 300 812 0
813 -300 0
813 -812 0
814 -302 -813 0
-814 302 0
-814 813 0
815 -449 -813 0
-815 449 0
-815 813 0
-816 12 815 0
816 -12 0
816 -815 0
817 -516 -816 0
-817 516 0
-817 816 0
-818 518 814 817 0
818 -518 0
818 -814 0
818 -817 0
819 -525 -818 0
-819 525 0
-819 818 0
-820 54 7 17 459 22 25 36 44 51 0
820 -54 0
820 -7 0
820 -17 0
820 -459 0
820 -22 0
820 -25 0
820 -36 0
820 -44 0
820 -51 0
821 -56 -820 0
-821 56 0
-821 820 0
-822 58 821 0
822 -58 0
822 -821 0
823 -60 -822 0
-823 60 0
-823 822 0
-824 54 7 17 459 25 36 44 51 0
824 -54 0
824 -7 0
824 -17 0
824 -459 0
824 -25 0
824 -36 0
824 -44 0
824 -51 0
825 -63 -824 0
-825 63 0
-825 824 0
-826 24 825 0
826 -24 0
826 -825 0
827 -66 -826 0
-827 66 0
-827 826 0
828 -68 -820 0
-828 68 0
-828 820 0
-829 70 828 0
829 -70 0
829 -828 0
830 -72 -829 0
-830 72 0
-830 829 0
-831 54 7 17 459 22 25 74 44 51 0
831 -54 0
831 -7 0
831 -17 0
831 -459 0
831 -22 0
831 -25 0
831 -74 0
831 -44 0
831 -51 0
832 -77 -831 0
-832 77 0
-832 831 0
-833 30 832 0
833 -30 0
833 -832 0
834 -80 -833 0
-834 80 0
-834 833 0
-835 54 7 17 459 22 25 74 51 0
835 -54 0
835 -7 0
835 -17 0
835 -459 0
835 -22 0
835 -25 0
835 -74 0
835 -51 0
836 -77 -835 0
-836 77 0
-836 835 0
-837 30 836 0
837 -30 0
837 -836 0
838 -39 -837 0
-838 39 0
-838 837 0
-839 43 838 40 0
839 -43 0
839 -838 0
839 -40 0
840 -87 -839 0
-840 87 0
-840 839 0
841 -89 -820 0
-841 89 0
-841 820 0
-842 91 4 823 827 830 834 840 841 0
842 -91 0
842 -4 0
842 -823 0
842 -827 0
842 -830 0
842 -834 0
842 -840 0
842 -841 0
843 -93 -842 0
-843 93 0
-843 842 0
-844 95 843 0
844 -95 0
844 -843 0
845 -97 -844 0
-845 97 0
-845 844 0
-846 99 845 0
846 -99 0
846 -845 0
847 -101 -846 0
-847 101 0
-847 846 0
-848 54 7 17 459 22 25 107 110 44 51 112 0
848 -54 0
848 -7 0
848 -17 0
848 -459 0
848 -22 0
848 -25 0
848 -107 0
848 -110 0
848 -44 0
848 -51 0
848 -112 0
849 -56 -848 0
-849 56 0
-849 848 0
-850 58 849 0
850 -58 0
850 -849 0
851 -60 -850 0
-851 60 0
-851 850 0
-852 54 7 17 459 25 107 110 44 51 112 0
852 -54 0
852 -7 0
852 -17 0
852 -459 0
852 -25 0
852 -107 0
852 -110 0
852 -44 0
852 -51 0
852 -112 0
853 -63 -852 0
-853 63 0
-853 852 0
-854 24 853 0
854 -24 0
854 -853 0
855 -66 -854 0
-855 66 0
-855 854 0
856 -68 -848 0
-856 68 0
-856 848 0
-857 70 856 0
857 -70 0
857 -856 0
858 -72 -857 0
-858 72 0
-858 857 0
-859 54 7 17 459 22 25 126 110 44 51 112 0
859 -54 0
859 -7 0
859 -17 0
859 -459 0
859 -22 0
859 -25 0
859 -126 0
859 -110 0
859 -44 0
859 -51 0
859 -112 0
860 -77 -859 0
-860 77 0
-860 859 0
-861 30 860 0
861 -30 0
861 -860 0
862 -80 -861 0
-862 80 0
-862 861 0
-863 54 7 17 459 22 25 126 110 51 112 0
863 -54 0
863 -7 0
863 -17 0
863 -459 0
863 -22 0
863 -25 0
863 -126 0
863 -110 0
863 -51 0
863 -112 0
864 -77 -863 0
-864 77 0
-864 863 0
-865 30 864 0
865 -30 0
865 -864 0
866 -39 -865 0
-866 39 0
-866 865 0
-867 43 866 40 0
867 -43 0
867 -866 0
867 -40 0
868 -87 -867 0
-868 87 0
-868 867 0
869 -89 -848 0
-869 89 0
-869 848 0
-870 91 4 851 855 858 862 868 137 869 0
870 -91 0
870 -4 0
870 -851 0
870 -855 0
870 -858 0
870 -862 0
870 -868 0
870 -137 0
870 -869 0
871 -142 -870 0
-871 142 0
-871 870 0
-872 144 819 847 871 0
872 -144 0
872 -819 0
872 -847 0
872 -871 0
873 -211 -872 0
-873 211 0
-873 872 0
-874 144 524 659 683 0
874 -144 0
874 -524 0
874 -659 0
874 -683 0
875 -146 -874 0
-875 146 0
-875 874 0
-876 144 524 713 737 0
876 -144 0
876 -524 0
876 -713 0
876 -737 0
877 -201 -876 0
-877 201 0
-877 876 0
-878 54 534 17 19 22 25 540 110 44 112 0
878 -54 0
878 -534 0
878 -17 0
878 -19 0
878 -22 0
878 -25 0
878 -540 0
878 -110 0
878 -44 0
878 -112 0
879 -56 -878 0
-879 56 0
-879 878 0
-880 58 879 0
880 -58 0
880 -879 0
881 -60 -880 0
-881 60 0
-881 880 0
-882 54 534 17 19 25 540 110 44 112 0
882 -54 0
882 -534 0
882 -17 0
882 -19 0
882 -25 0
882 -540 0
882 -110 0
882 -44 0
882 -112 0
883 -63 -882 0
-883 63 0
-883 882 0
-884 24 883 0
884 -24 0
884 -883 0
885 -66 -884 0
-885 66 0
-885 884 0
886 -68 -878 0
-886 68 0
-886 878 0
-887 70 886 0
887 -70 0
887 -886 0
888 -72 -887 0
-888 72 0
-888 887 0
-889 54 534 17 19 22 25 553 110 44 112 0
889 -54 0
889 -534 0
889 -17 0
889 -19 0
889 -22 0
889 -25 0
889 -553 0
889 -110 0
889 -44 0
889 -112 0
890 -77 -889 0
-890 77 0
-890 889 0
-891 30 890 0
891 -30 0
891 -890 0
892 -80 -891 0
-892 80 0
-892 891 0
-893 54 534 17 19 22 25 553 110 112 0
893 -54 0
893 -534 0
893 -17 0
893 -19 0
893 -22 0
893 -25 0
893 -553 0
893 -110 0
893 -112 0
894 -77 -893 0
-894 77 0
-894 893 0
-895 30 894 0
895 -30 0
895 -894 0
896 -39 -895 0
-896 39 0
-896 895 0
-897 43 896 40 0
897 -43 0
897 -896 0
897 -40 0
898 -87 -897 0
-898 87 0
-898 897 0
899 -89 -878 0
-899 89 0
-899 878 0
-900 91 531 4 881 885 888 892 898 137 899 0
900 -91 0
900 -531 0
900 -4 0
900 -881 0
900 -885 0
900 -888 0
900 -892 0
900 -898 0
900 -137 0
900 -899 0
901 -248 -900 0
-901 248 0
-901 900 0
-902 54 570 17 19 22 25 582 590 44 591 0
902 -54 0
902 -570 0
902 -17 0
902 -19 0
902 -22 0
902 -25 0
902 -582 0
902 -590 0
902 -44 0
902 -591 0
903 -291 -902 0
-903 291 0
-903 902 0
-904 48 877 901 903 0
904 -48 0
904 -877 0
904 -901 0
904 -903 0
905 -47 -904 0
-905 47 0
-905 904 0
906 -295 -900 0
-906 295 0
-906 900 0
-907 50 905 906 0
907 -50 0
907 -905 0
907 -906 0
908 -298 -907 0
-908 298 0
-908 907 0
-909 300 875 908 0
909 -300 0
909 -875 0
909 -908 0
910 -449 -909 0
-910 449 0
-910 909 0
-911 518 814 0
911 -518 0
911 -814 0
912 -525 -911 0
-912 525 0
-912 911 0
-913 144 912 847 871 0
913 -144 0
913 -912 0
913 -847 0
913 -871 0
914 -213 -913 0
-914 213 0
-914 913 0
-915 12 910 914 0
915 -12 0
915 -910 0
915 -914 0
916 -11 -915 0
-916 11 0
-916 915 0
-917 14 804 873 916 0
917 -14 0
917 -804 0
917 -873 0
917 -916 0
918 -919 -917 0
-918 919 0
-918 917 0
-920 144 631 100 141 0
920 -144 0
920 -631 0
920 -100 0
920 -141 0
921 -146 -920 0
-921 146 0
-921 920 0
-922 144 631 174 198 0
922 -144 0
922 -631 0
922 -174 0
922 -198 0
923 -201 -922 0
-923 201 0
-923 922 0
924 -211 -740 0
-924 211 0
-924 740 0
925 -213 -530 0
-925 213 0
-925 530 0
-926 12 925 0
926 -12 0
926 -925 0
927 -11 -926 0
-927 11 0
-927 926 0
-928 14 924 927 0
928 -14 0
928 -924 0
928 -927 0
929 -16 -928 0
-929 16 0
-929 928 0
-930 54 744 929 17 19 22 25 747 110 44 112 0
930 -54 0
930 -744 0
930 -929 0
930 -17 0
930 -19 0
930 -22 0
930 -25 0
930 -747 0
930 -110 0
930 -44 0
930 -112 0
931 -56 -930 0
-931 56 0
-931 930 0
-932 58 931 0
932 -58 0
932 -931 0
933 -60 -932 0
-933 60 0
-933 932 0
-934 54 744 929 17 19 25 747 110 44 112 0
934 -54 0
934 -744 0
934 -929 0
934 -17 0
934 -19 0
934 -25 0
934 -747 0
934 -110 0
934 -44 0
934 -112 0
935 -63 -934 0
-935 63 0
-935 934 0
-936 24 935 0
936 -24 0
936 -935 0
937 -66 -936 0
-937 66 0
-937 936 0
938 -68 -930 0
-938 68 0
-938 930 0
-939 70 938 0
939 -70 0
939 -938 0
940 -72 -939 0
-940 72 0
-940 939 0
-941 54 744 929 17 19 22 25 760 110 44 112 0
941 -54 0
941 -744 0
941 -929 0
941 -17 0
941 -19 0
941 -22 0
941 -25 0
941 -760 0
941 -110 0
941 -44 0
941 -112 0
942 -77 -941 0
-942 77 0
-942 941 0
-943 30 942 0
943 -30 0
943 -942 0
944 -80 -943 0
-944 80 0
-944 943 0
-945 54 744 929 17 19 22 25 760 110 112 0
945 -54 0
945 -744 0
945 -929 0
945 -17 0
945 -19 0
945 -22 0
945 -25 0
945 -760 0
945 -110 0
945 -112 0
946 -77 -945 0
-946 77 0
-946 945 0
-947 30 946 0
947 -30 0
947 -946 0
948 -39 -947 0
-948 39 0
-948 947 0
-949 43 948 40 0
949 -43 0
949 -948 0
949 -40 0
950 -87 -949 0
-950 87 0
-950 949 0
951 -89 -930 0
-951 89 0
-951 930 0
-952 91 741 4 933 937 940 944 950 137 951 0
952 -91 0
952 -741 0
952 -4 0
952 -933 0
952 -937 0
952 -940 0
952 -944 0
952 -950 0
952 -137 0
952 -951 0
953 -248 -952 0
-953 248 0
-953 952 0
954 -211 -774 0
-954 211 0
-954 774 0
955 -213 -567 0
-955 213 0
-955 567 0
-956 12 955 0
956 -12 0
956 -955 0
957 -11 -956 0
-957 11 0
-957 956 0
-958 14 954 957 0
958 -14 0
958 -954 0
958 -957 0
959 -16 -958 0
-959 16 0
-959 958 0
-960 54 777 959 17 19 22 25 786 794 44 795 0
960 -54 0
960 -777 0
960 -959 0
960 -17 0
960 -19 0
960 -22 0
960 -25 0
960 -786 0
960 -794 0
960 -44 0
960 -795 0
961 -291 -960 0
-961 291 0
-961 960 0
-962 48 923 953 961 0
962 -48 0
962 -923 0
962 -953 0
962 -961 0
963 -47 -962 0
-963 47 0
-963 962 0
964 -295 -952 0
-964 295 0
-964 952 0
-965 50 963 964 0
965 -50 0
965 -963 0
965 -964 0
966 -298 -965 0
-966 298 0
-966 965 0
-967 300 921 966 0
967 -300 0
967 -921 0
967 -966 0
968 -969 -967 0
-968 969 0
-968 967 0
-970 971 968 0
970 -971 0
970 -968 0
972 -973 -970 0
-972 973 0
-972 970 0
-974 975 1 519 521 627 918 972 0
974 -975 0
974 -1 0
974 -519 0
974 -521 0
974 -627 0
974 -918 0
974 -972 0
976 -977 -974 0
-976 977 0
-976 974 0
978 -979 -3 0
-978 979 0
-978 3 0
-980 981 976 978 0
980 -981 0
980 -976 0
980 -978 0
982 -983 -980 0
-982 983 0
-982 980 0
-984 985 982 0
984 -985 0
984 -982 0
986 -987 -984 0
-986 987 0
-986 984 0
988 -989 -985 0
-988 989 0
-988 985 0
-990 975 988 519 521 627 918 972 0
990 -975 0
990 -988 0
990 -519 0
990 -521 0
990 -627 0
990 -918 0
990 -972 0
991 -977 -990 0
-991 977 0
-991 990 0
-992 981 991 978 0
992 -981 0
992 -991 0
992 -978 0
993 -994 -992 0
-993 994 0
-993 992 0
-995 3 993 0
995 -3 0
995 -993 0
996 -997 -995 0
-996 997 0
-996 995 0
-998 999 986 996 0
998 -999 0
998 -986 0
998 -996 0
1000 -998 -1001 0
-1000 998 0
-1000 1001 0
1000 0
