c BC-S1.2
p cnf 81 165
1 -2 -3 0
-1 2 0
-1 3 0
4 -5 -3 0
-4 5 0
-4 3 0
6 -7 -3 0
-6 7 0
-6 3 0
8 -9 -3 0
-8 9 0
-8 3 0
10 -11 -12 0
-10 11 0
-10 12 0
13 -14 -12 0
-13 14 0
-13 12 0
-15 16 13 0
15 -16 0
15 -13 0
17 -18 -15 0
-17 18 0
-17 15 0
-19 20 8 10 17 0
19 -20 0
19 -8 0
19 -10 0
19 -17 0
21 -22 -19 0
-21 22 0
-21 19 0
23 -24 -12 0
-23 24 0
-23 12 0
25 -26 -15 0
-25 26 0
-25 15 0
27 -28 -12 0
-27 28 0
-27 12 0
29 -30 -19 0
-29 30 0
-29 19 0
-31 32 27 29 0
31 -32 0
31 -27 0
31 -29 0
33 -34 -31 0
-33 34 0
-33 31 0
-35 36 23 25 33 0
35 -36 0
35 -23 0
35 -25 0
35 -33 0
37 -38 -35 0
-37 38 0
-37 35 0
-39 40 6 21 37 0
39 -40 0
39 -6 0
39 -21 0
39 -37 0
41 -42 -39 0
-41 42 0
-41 39 0
-43 44 4 41 0
43 -44 0
43 -4 0
43 -41 0
45 -46 -43 0
-45 46 0
-45 43 0
-47 44 4 0
47 -44 0
47 -4 0
48 -49 -47 0
-48 49 0
-48 47 0
-50 12 48 0
50 -12 0
50 -48 0
51 -11 -50 0
-51 11 0
-51 50 0
52 -53 -47 0
-52 53 0
-52 47 0
54 -14 -50 0
-54 14 0
-54 50 0
-55 16 54 0
55 -16 0
55 -54 0
56 -18 -55 0
-56 18 0
-56 55 0
-57 20 8 51 52 56 0
57 -20 0
57 -8 0
57 -51 0
57 -52 0
57 -56 0
58 -22 -57 0
-58 22 0
-58 57 0
59 -24 -50 0
-59 24 0
-59 50 0
60 -26 -55 0
-60 26 0
-60 55 0
61 -28 -50 0
-61 28 0
-61 50 0
62 -30 -57 0
-62 30 0
-62 57 0
-63 32 61 62 0
63 -32 0
63 -61 0
63 -62 0
64 -34 -63 0
-64 34 0
-64 63 0
-65 36 59 60 64 0
65 -36 0
65 -59 0
65 -60 0
65 -64 0
66 -38 -65 0
-66 38 0
-66 65 0
-67 40 6 58 66 0
67 -40 0
67 -6 0
67 -58 0
67 -66 0
68 -69 -67 0
-68 69 0
-68 67 0
70 -71 -43 0
-70 71 0
-70 43 0
72 -73 -67 0
-72 73 0
-72 67 0
-74 75 70 72 0
74 -75 0
74 -70 0
74 -72 0
76 -77 -74 0
-76 77 0
-76 74 0
-78 79 1 45 68 76 0
78 -79 0
78 -1 0
78 -45 0
78 -68 0
78 -76 0
80 -78 -81 0
-80 78 0
-80 81 0
80 0
