c BC-S1.2
p cnf 270 737
1 -2 -3 0
-1 2 0
-1 3 0
-4 5 1 0
4 -5 0
4 -1 0
6 -7 -4 0
-6 7 0
-6 4 0
8 -9 -4 0
-8 9 0
-8 4 0
-10 11 8 0
10 -11 0
10 -8 0
12 -13 -10 0
-12 13 0
-12 10 0
-14 15 12 0
14 -15 0
14 -12 0
16 -17 -14 0
-16 17 0
-16 14 0
-18 19 6 16 0
18 -19 0
18 -6 0
18 -16 0
20 -21 -18 0
-20 21 0
-20 18 0
-22 23 20 0
22 -23 0
22 -20 0
24 -25 -22 0
-24 25 0
-24 22 0
-26 27 24 0
26 -27 0
26 -24 0
28 -29 -26 0
-28 29 0
-28 26 0
-30 19 16 0
30 -19 0
30 -16 0
31 -21 -30 0
-31 21 0
-31 30 0
-32 23 31 0
32 -23 0
32 -31 0
33 -25 -32 0
-33 25 0
-33 32 0
-34 27 33 0
34 -27 0
34 -33 0
35 -36 -34 0
-35 36 0
-35 34 0
37 -13 -11 0
-37 13 0
-37 11 0
-38 15 37 0
38 -15 0
38 -37 0
39 -17 -38 0
-39 17 0
-39 38 0
-40 19 39 0
40 -19 0
40 -39 0
41 -42 -40 0
-41 42 0
-41 40 0
-43 3 41 0
43 -3 0
43 -41 0
44 -2 -43 0
-44 2 0
-44 43 0
-45 5 35 44 0
45 -5 0
45 -35 0
45 -44 0
46 -47 -45 0
-46 47 0
-46 45 0
-48 49 28 46 0
48 -49 0
48 -28 0
48 -46 0
50 -51 -48 0
-50 51 0
-50 48 0
52 -53 -49 0
-52 53 0
-52 49 0
54 -55 -49 0
-54 55 0
-54 49 0
-56 11 54 8 0
56 -11 0
56 -54 0
56 -8 0
57 -13 -56 0
-57 13 0
-57 56 0
-58 15 57 0
58 -15 0
58 -57 0
59 -17 -58 0
-59 17 0
-59 58 0
-60 19 59 0
60 -19 0
60 -59 0
61 -21 -60 0
-61 21 0
-61 60 0
-62 23 52 61 0
62 -23 0
62 -52 0
62 -61 0
63 -25 -62 0
-63 25 0
-63 62 0
-64 27 63 0
64 -27 0
64 -63 0
65 -36 -64 0
-65 36 0
-65 64 0
66 -25 -23 0
-66 25 0
-66 23 0
-67 27 66 0
67 -27 0
67 -66 0
68 -29 -67 0
-68 29 0
-68 67 0
-69 49 68 0
69 -49 0
69 -68 0
70 -55 -69 0
-70 55 0
-70 69 0
-71 11 70 0
71 -11 0
71 -70 0
72 -13 -71 0
-72 13 0
-72 71 0
-73 15 72 0
73 -15 0
73 -72 0
74 -17 -73 0
-74 17 0
-74 73 0
-75 19 74 0
75 -19 0
75 -74 0
76 -42 -75 0
-76 42 0
-76 75 0
-77 3 76 0
77 -3 0
77 -76 0
78 -2 -77 0
-78 2 0
-78 77 0
-79 5 65 78 0
79 -5 0
79 -65 0
79 -78 0
80 -81 -79 0
-80 81 0
-80 79 0
82 -17 -15 0
-82 17 0
-82 15 0
-83 19 6 82 0
83 -19 0
83 -6 0
83 -82 0
84 -21 -83 0
-84 21 0
-84 83 0
-85 23 84 0
85 -23 0
85 -84 0
86 -25 -85 0
-86 25 0
-86 85 0
-87 27 86 0
87 -27 0
87 -86 0
88 -29 -87 0
-88 29 0
-88 87 0
-89 19 82 0
89 -19 0
89 -82 0
90 -21 -89 0
-90 21 0
-90 89 0
-91 23 90 0
91 -23 0
91 -90 0
92 -25 -91 0
-92 25 0
-92 91 0
-93 27 92 0
93 -27 0
93 -92 0
94 -36 -93 0
-94 36 0
-94 93 0
95 -42 -89 0
-95 42 0
-95 89 0
-96 3 95 0
96 -3 0
96 -95 0
97 -2 -96 0
-97 2 0
-97 96 0
-98 5 94 97 0
98 -5 0
98 -94 0
98 -97 0
99 -47 -98 0
-99 47 0
-99 98 0
-100 49 88 99 0
100 -49 0
100 -88 0
100 -99 0
101 -55 -100 0
-101 55 0
-101 100 0
-102 23 52 90 0
102 -23 0
102 -52 0
102 -90 0
103 -25 -102 0
-103 25 0
-103 102 0
-104 27 103 0
104 -27 0
104 -103 0
105 -36 -104 0
-105 36 0
-105 104 0
-106 5 105 97 0
106 -5 0
106 -105 0
106 -97 0
107 -9 -106 0
-107 9 0
-107 106 0
-108 11 101 107 0
108 -11 0
108 -101 0
108 -107 0
109 -110 -108 0
-109 110 0
-109 108 0
-111 112 50 80 109 0
111 -112 0
111 -50 0
111 -80 0
111 -109 0
113 -114 -111 0
-113 114 0
-113 111 0
-115 5 65 1 0
115 -5 0
115 -65 0
115 -1 0
116 -7 -115 0
-116 7 0
-116 115 0
117 -36 -67 0
-117 36 0
-117 67 0
-118 5 117 1 0
118 -5 0
118 -117 0
118 -1 0
119 -47 -118 0
-119 47 0
-119 118 0
-120 49 68 119 0
120 -49 0
120 -68 0
120 -119 0
121 -55 -120 0
-121 55 0
-121 120 0
-122 23 52 0
122 -23 0
122 -52 0
123 -25 -122 0
-123 25 0
-123 122 0
-124 27 123 0
124 -27 0
124 -123 0
125 -36 -124 0
-125 36 0
-125 124 0
-126 5 125 1 0
126 -5 0
126 -125 0
126 -1 0
127 -9 -126 0
-127 9 0
-127 126 0
-128 11 121 127 0
128 -11 0
128 -121 0
128 -127 0
129 -13 -128 0
-129 13 0
-129 128 0
-130 15 129 0
130 -15 0
130 -129 0
131 -17 -130 0
-131 17 0
-131 130 0
-132 19 116 131 0
132 -19 0
132 -116 0
132 -131 0
133 -134 -132 0
-133 134 0
-133 132 0
-135 136 113 133 0
135 -136 0
135 -113 0
135 -133 0
137 -138 -135 0
-137 138 0
-137 135 0
-139 140 137 0
139 -140 0
139 -137 0
141 -142 -139 0
-141 142 0
-141 139 0
143 -144 -48 0
-143 144 0
-143 48 0
145 -29 -27 0
-145 29 0
-145 27 0
146 -36 -27 0
-146 36 0
-146 27 0
-147 5 146 44 0
147 -5 0
147 -146 0
147 -44 0
148 -47 -147 0
-148 47 0
-148 147 0
-149 49 145 148 0
149 -49 0
149 -145 0
149 -148 0
150 -53 -149 0
-150 53 0
-150 149 0
-151 5 146 1 0
151 -5 0
151 -146 0
151 -1 0
152 -7 -151 0
-152 7 0
-152 151 0
153 -47 -151 0
-153 47 0
-153 151 0
-154 49 145 153 0
154 -49 0
154 -145 0
154 -153 0
155 -55 -154 0
-155 55 0
-155 154 0
156 -9 -151 0
-156 9 0
-156 151 0
-157 11 155 156 0
157 -11 0
157 -155 0
157 -156 0
158 -13 -157 0
-158 13 0
-158 157 0
-159 15 158 0
159 -15 0
159 -158 0
160 -17 -159 0
-160 17 0
-160 159 0
-161 19 152 160 0
161 -19 0
161 -152 0
161 -160 0
162 -21 -161 0
-162 21 0
-162 161 0
-163 23 150 162 0
163 -23 0
163 -150 0
163 -162 0
164 -165 -163 0
-164 165 0
-164 163 0
166 -167 -132 0
-166 167 0
-166 132 0
-168 169 164 166 0
168 -169 0
168 -164 0
168 -166 0
170 -171 -168 0
-170 171 0
-170 168 0
-172 173 141 143 170 0
172 -173 0
172 -141 0
172 -143 0
172 -170 0
174 -175 -172 0
-174 175 0
-174 172 0
176 -51 -49 0
-176 51 0
-176 49 0
-177 11 54 0
177 -11 0
177 -54 0
178 -110 -177 0
-178 110 0
-178 177 0
-179 112 176 178 0
179 -112 0
179 -176 0
179 -178 0
180 -114 -179 0
-180 114 0
-180 179 0
-181 136 180 0
181 -136 0
181 -180 0
182 -138 -181 0
-182 138 0
-182 181 0
-183 140 182 0
183 -140 0
183 -182 0
184 -142 -183 0
-184 142 0
-184 183 0
185 -144 -49 0
-185 144 0
-185 49 0
186 -165 -122 0
-186 165 0
-186 122 0
-187 169 186 0
187 -169 0
187 -186 0
188 -171 -187 0
-188 171 0
-188 187 0
-189 173 184 185 188 0
189 -173 0
189 -184 0
189 -185 0
189 -188 0
190 -191 -189 0
-190 191 0
-190 189 0
-192 27 190 123 0
192 -27 0
192 -190 0
192 -123 0
193 -36 -192 0
-193 36 0
-193 192 0
-194 5 193 0
194 -5 0
194 -193 0
195 -7 -194 0
-195 7 0
-195 194 0
-196 5 117 0
196 -5 0
196 -117 0
197 -47 -196 0
-197 47 0
-197 196 0
-198 49 68 197 0
198 -49 0
198 -68 0
198 -197 0
199 -51 -198 0
-199 51 0
-199 198 0
-200 5 125 0
200 -5 0
200 -125 0
201 -81 -200 0
-201 81 0
-201 200 0
202 -55 -198 0
-202 55 0
-202 198 0
203 -9 -200 0
-203 9 0
-203 200 0
-204 11 202 203 0
204 -11 0
204 -202 0
204 -203 0
205 -110 -204 0
-205 110 0
-205 204 0
-206 112 199 201 205 0
206 -112 0
206 -199 0
206 -201 0
206 -205 0
207 -114 -206 0
-207 114 0
-207 206 0
-208 136 207 0
208 -136 0
208 -207 0
209 -138 -208 0
-209 138 0
-209 208 0
-210 140 209 0
210 -140 0
210 -209 0
211 -142 -210 0
-211 142 0
-211 210 0
212 -144 -198 0
-212 144 0
-212 198 0
-213 5 146 0
213 -5 0
213 -146 0
214 -47 -213 0
-214 47 0
-214 213 0
-215 49 145 214 0
215 -49 0
215 -145 0
215 -214 0
216 -53 -215 0
-216 53 0
-216 215 0
-217 23 216 0
217 -23 0
217 -216 0
218 -165 -217 0
-218 165 0
-218 217 0
-219 169 218 0
219 -169 0
219 -218 0
220 -171 -219 0
-220 171 0
-220 219 0
-221 173 211 212 220 0
221 -173 0
221 -211 0
221 -212 0
221 -220 0
222 -223 -221 0
-222 223 0
-222 221 0
224 -81 -196 0
-224 81 0
-224 196 0
-225 112 224 0
225 -112 0
225 -224 0
226 -114 -225 0
-226 114 0
-226 225 0
-227 136 226 0
227 -136 0
227 -226 0
228 -138 -227 0
-228 138 0
-228 227 0
-229 140 228 0
229 -140 0
229 -228 0
230 -142 -229 0
-230 142 0
-230 229 0
231 -165 -23 0
-231 165 0
-231 23 0
-232 169 231 0
232 -169 0
232 -231 0
233 -171 -232 0
-233 171 0
-233 232 0
-234 173 230 233 0
234 -173 0
234 -230 0
234 -233 0
235 -191 -234 0
-235 191 0
-235 234 0
-236 27 235 66 0
236 -27 0
236 -235 0
236 -66 0
237 -29 -236 0
-237 29 0
-237 236 0
-238 173 230 185 233 0
238 -173 0
238 -230 0
238 -185 0
238 -233 0
239 -191 -238 0
-239 191 0
-239 238 0
-240 27 239 66 0
240 -27 0
240 -239 0
240 -66 0
241 -36 -240 0
-241 36 0
-241 240 0
-242 5 241 0
242 -5 0
242 -241 0
243 -47 -242 0
-243 47 0
-243 242 0
-244 49 237 243 0
244 -49 0
244 -237 0
244 -243 0
245 -55 -244 0
-245 55 0
-245 244 0
-246 112 176 0
246 -112 0
246 -176 0
247 -114 -246 0
-247 114 0
-247 246 0
-248 136 247 0
248 -136 0
248 -247 0
249 -138 -248 0
-249 138 0
-249 248 0
-250 140 249 0
250 -140 0
250 -249 0
251 -142 -250 0
-251 142 0
-251 250 0
-252 173 251 185 188 0
252 -173 0
252 -251 0
252 -185 0
252 -188 0
253 -191 -252 0
-253 191 0
-253 252 0
-254 27 253 123 0
254 -27 0
254 -253 0
254 -123 0
255 -36 -254 0
-255 36 0
-255 254 0
-256 5 255 0
256 -5 0
256 -255 0
257 -9 -256 0
-257 9 0
-257 256 0
-258 11 245 257 0
258 -11 0
258 -245 0
258 -257 0
259 -13 -258 0
-259 13 0
-259 258 0
-260 15 222 259 0
260 -15 0
260 -222 0
260 -259 0
261 -17 -260 0
-261 17 0
-261 260 0
-262 19 195 261 0
262 -19 0
262 -195 0
262 -261 0
263 -42 -262 0
-263 42 0
-263 262 0
-264 3 263 0
264 -3 0
264 -263 0
265 -266 -264 0
-265 266 0
-265 264 0
-267 268 174 265 0
267 -268 0
267 -174 0
267 -265 0
269 -267 -270 0
-269 267 0
-269 270 0
269 0
