c BC-S1.2
p cnf 263 762
1 -2 -3 0
-1 2 0
-1 3 0
4 -5 -6 0
-4 5 0
-4 6 0
-7 8 1 4 0
7 -8 0
7 -1 0
7 -4 0
9 -10 -7 0
-9 10 0
-9 7 0
11 -12 -3 0
-11 12 0
-11 3 0
-13 14 9 11 0
13 -14 0
13 -9 0
13 -11 0
15 -16 -13 0
-15 16 0
-15 13 0
17 -18 -13 0
-17 18 0
-17 13 0
-19 8 1 0
19 -8 0
19 -1 0
20 -10 -19 0
-20 10 0
-20 19 0
-21 14 20 11 0
21 -14 0
21 -20 0
21 -11 0
22 -23 -21 0
-22 23 0
-22 21 0
-24 6 22 0
24 -6 0
24 -22 0
25 -26 -24 0
-25 26 0
-25 24 0
-27 28 17 25 0
27 -28 0
27 -17 0
27 -25 0
29 -30 -27 0
-29 30 0
-29 27 0
31 -32 -27 0
-31 32 0
-31 27 0
-33 14 11 0
33 -14 0
33 -11 0
34 -23 -33 0
-34 23 0
-34 33 0
-35 6 34 0
35 -6 0
35 -34 0
36 -5 -35 0
-36 5 0
-36 35 0
-37 8 1 36 0
37 -8 0
37 -1 0
37 -36 0
38 -39 -37 0
-38 39 0
-38 37 0
40 -41 -13 0
-40 41 0
-40 13 0
42 -43 -27 0
-42 43 0
-42 27 0
-44 45 40 42 0
44 -45 0
44 -40 0
44 -42 0
46 -47 -44 0
-46 47 0
-46 44 0
-48 49 46 0
48 -49 0
48 -46 0
50 -51 -48 0
-50 51 0
-50 48 0
-52 53 31 38 50 0
52 -53 0
52 -31 0
52 -38 0
52 -50 0
54 -55 -52 0
-54 55 0
-54 52 0
56 -57 -37 0
-56 57 0
-56 37 0
58 -59 -44 0
-58 59 0
-58 44 0
60 -61 -48 0
-60 61 0
-60 48 0
62 -63 -13 0
-62 63 0
-62 13 0
64 -65 -3 0
-64 65 0
-64 3 0
-66 67 62 64 0
66 -67 0
66 -62 0
66 -64 0
68 -69 -66 0
-68 69 0
-68 66 0
-70 71 15 29 54 56 58 60 68 0
70 -71 0
70 -15 0
70 -29 0
70 -54 0
70 -56 0
70 -58 0
70 -60 0
70 -68 0
72 -73 -70 0
-72 73 0
-72 70 0
74 -47 -45 0
-74 47 0
-74 45 0
-75 49 74 0
75 -49 0
75 -74 0
76 -51 -75 0
-76 51 0
-76 75 0
-77 53 76 0
77 -53 0
77 -76 0
78 -55 -77 0
-78 55 0
-78 77 0
79 -59 -45 0
-79 59 0
-79 45 0
80 -61 -75 0
-80 61 0
-80 75 0
-81 67 64 0
81 -67 0
81 -64 0
82 -69 -81 0
-82 69 0
-82 81 0
-83 71 78 79 80 82 0
83 -71 0
83 -78 0
83 -79 0
83 -80 0
83 -82 0
84 -85 -83 0
-84 85 0
-84 83 0
-86 3 84 0
86 -3 0
86 -84 0
87 -2 -86 0
-87 2 0
-87 86 0
-88 8 87 4 0
88 -8 0
88 -87 0
88 -4 0
89 -10 -88 0
-89 10 0
-89 88 0
-90 8 4 0
90 -8 0
90 -4 0
91 -39 -90 0
-91 39 0
-91 90 0
-92 53 91 76 0
92 -53 0
92 -91 0
92 -76 0
93 -55 -92 0
-93 55 0
-93 92 0
94 -57 -90 0
-94 57 0
-94 90 0
-95 71 93 94 79 80 82 0
95 -71 0
95 -93 0
95 -94 0
95 -79 0
95 -80 0
95 -82 0
96 -85 -95 0
-96 85 0
-96 95 0
-97 3 96 0
97 -3 0
97 -96 0
98 -12 -97 0
-98 12 0
-98 97 0
-99 14 89 98 0
99 -14 0
99 -89 0
99 -98 0
100 -18 -99 0
-100 18 0
-100 99 0
-101 8 87 0
101 -8 0
101 -87 0
102 -10 -101 0
-102 10 0
-102 101 0
103 -39 -8 0
-103 39 0
-103 8 0
-104 53 103 76 0
104 -53 0
104 -103 0
104 -76 0
105 -55 -104 0
-105 55 0
-105 104 0
106 -57 -8 0
-106 57 0
-106 8 0
-107 71 105 106 79 80 82 0
107 -71 0
107 -105 0
107 -106 0
107 -79 0
107 -80 0
107 -82 0
108 -85 -107 0
-108 85 0
-108 107 0
-109 3 108 0
109 -3 0
109 -108 0
110 -12 -109 0
-110 12 0
-110 109 0
-111 14 102 110 0
111 -14 0
111 -102 0
111 -110 0
112 -23 -111 0
-112 23 0
-112 111 0
-113 6 112 0
113 -6 0
113 -112 0
114 -26 -113 0
-114 26 0
-114 113 0
-115 28 100 114 0
115 -28 0
115 -100 0
115 -114 0
116 -117 -115 0
-116 117 0
-116 115 0
-118 71 79 80 82 0
118 -71 0
118 -79 0
118 -80 0
118 -82 0
119 -85 -118 0
-119 85 0
-119 118 0
-120 3 119 0
120 -3 0
120 -119 0
121 -2 -120 0
-121 2 0
-121 120 0
-122 8 121 4 0
122 -8 0
122 -121 0
122 -4 0
123 -10 -122 0
-123 10 0
-123 122 0
-124 71 94 79 80 82 0
124 -71 0
124 -94 0
124 -79 0
124 -80 0
124 -82 0
125 -85 -124 0
-125 85 0
-125 124 0
-126 3 125 0
126 -3 0
126 -125 0
127 -12 -126 0
-127 12 0
-127 126 0
-128 14 123 127 0
128 -14 0
128 -123 0
128 -127 0
129 -18 -128 0
-129 18 0
-129 128 0
-130 8 121 0
130 -8 0
130 -121 0
131 -10 -130 0
-131 10 0
-131 130 0
-132 71 106 79 80 82 0
132 -71 0
132 -106 0
132 -79 0
132 -80 0
132 -82 0
133 -85 -132 0
-133 85 0
-133 132 0
-134 3 133 0
134 -3 0
134 -133 0
135 -12 -134 0
-135 12 0
-135 134 0
-136 14 131 135 0
136 -14 0
136 -131 0
136 -135 0
137 -23 -136 0
-137 23 0
-137 136 0
-138 6 137 0
138 -6 0
138 -137 0
139 -26 -138 0
-139 26 0
-139 138 0
-140 28 129 139 0
140 -28 0
140 -129 0
140 -139 0
141 -32 -140 0
-141 32 0
-141 140 0
142 -16 -33 0
-142 16 0
-142 33 0
143 -18 -33 0
-143 18 0
-143 33 0
144 -26 -35 0
-144 26 0
-144 35 0
-145 28 143 144 0
145 -28 0
145 -143 0
145 -144 0
146 -30 -145 0
-146 30 0
-146 145 0
147 -41 -33 0
-147 41 0
-147 33 0
148 -43 -145 0
-148 43 0
-148 145 0
-149 45 147 148 0
149 -45 0
149 -147 0
149 -148 0
150 -59 -149 0
-150 59 0
-150 149 0
151 -47 -149 0
-151 47 0
-151 149 0
-152 49 151 0
152 -49 0
152 -151 0
153 -61 -152 0
-153 61 0
-153 152 0
154 -63 -33 0
-154 63 0
-154 33 0
-155 67 154 64 0
155 -67 0
155 -154 0
155 -64 0
156 -69 -155 0
-156 69 0
-156 155 0
-157 71 142 146 150 153 156 0
157 -71 0
157 -142 0
157 -146 0
157 -150 0
157 -153 0
157 -156 0
158 -85 -157 0
-158 85 0
-158 157 0
-159 3 158 0
159 -3 0
159 -158 0
160 -2 -159 0
-160 2 0
-160 159 0
-161 28 143 0
161 -28 0
161 -143 0
162 -30 -161 0
-162 30 0
-162 161 0
163 -43 -161 0
-163 43 0
-163 161 0
-164 45 163 0
164 -45 0
164 -163 0
165 -59 -164 0
-165 59 0
-165 164 0
166 -47 -164 0
-166 47 0
-166 164 0
-167 49 166 0
167 -49 0
167 -166 0
168 -61 -167 0
-168 61 0
-168 167 0
-169 71 162 165 168 82 0
169 -71 0
169 -162 0
169 -165 0
169 -168 0
169 -82 0
170 -85 -169 0
-170 85 0
-170 169 0
-171 3 170 0
171 -3 0
171 -170 0
172 -12 -171 0
-172 12 0
-172 171 0
-173 14 172 0
173 -14 0
173 -172 0
174 -23 -173 0
-174 23 0
-174 173 0
-175 6 174 0
175 -6 0
175 -174 0
176 -5 -175 0
-176 5 0
-176 175 0
-177 8 160 176 0
177 -8 0
177 -160 0
177 -176 0
178 -39 -177 0
-178 39 0
-178 177 0
179 -26 -6 0
-179 26 0
-179 6 0
-180 28 143 179 0
180 -28 0
180 -143 0
180 -179 0
181 -30 -180 0
-181 30 0
-181 180 0
-182 71 181 82 0
182 -71 0
182 -181 0
182 -82 0
183 -85 -182 0
-183 85 0
-183 182 0
-184 3 183 0
184 -3 0
184 -183 0
185 -2 -184 0
-185 2 0
-185 184 0
-186 8 185 4 0
186 -8 0
186 -185 0
186 -4 0
187 -10 -186 0
-187 10 0
-187 186 0
-188 28 179 0
188 -28 0
188 -179 0
189 -30 -188 0
-189 30 0
-189 188 0
-190 71 189 94 82 0
190 -71 0
190 -189 0
190 -94 0
190 -82 0
191 -85 -190 0
-191 85 0
-191 190 0
-192 3 191 0
192 -3 0
192 -191 0
193 -12 -192 0
-193 12 0
-193 192 0
-194 14 187 193 0
194 -14 0
194 -187 0
194 -193 0
195 -41 -194 0
-195 41 0
-195 194 0
-196 71 79 82 0
196 -71 0
196 -79 0
196 -82 0
197 -85 -196 0
-197 85 0
-197 196 0
-198 3 197 0
198 -3 0
198 -197 0
199 -2 -198 0
-199 2 0
-199 198 0
-200 8 199 4 0
200 -8 0
200 -199 0
200 -4 0
201 -10 -200 0
-201 10 0
-201 200 0
-202 71 94 79 82 0
202 -71 0
202 -94 0
202 -79 0
202 -82 0
203 -85 -202 0
-203 85 0
-203 202 0
-204 3 203 0
204 -3 0
204 -203 0
205 -12 -204 0
-205 12 0
-205 204 0
-206 14 201 205 0
206 -14 0
206 -201 0
206 -205 0
207 -18 -206 0
-207 18 0
-207 206 0
-208 8 199 0
208 -8 0
208 -199 0
209 -10 -208 0
-209 10 0
-209 208 0
-210 71 106 79 82 0
210 -71 0
210 -106 0
210 -79 0
210 -82 0
211 -85 -210 0
-211 85 0
-211 210 0
-212 3 211 0
212 -3 0
212 -211 0
213 -12 -212 0
-213 12 0
-213 212 0
-214 14 209 213 0
214 -14 0
214 -209 0
214 -213 0
215 -23 -214 0
-215 23 0
-215 214 0
-216 6 215 0
216 -6 0
216 -215 0
217 -26 -216 0
-217 26 0
-217 216 0
-218 28 207 217 0
218 -28 0
218 -207 0
218 -217 0
219 -43 -218 0
-219 43 0
-219 218 0
-220 45 195 219 0
220 -45 0
220 -195 0
220 -219 0
221 -47 -220 0
-221 47 0
-221 220 0
-222 49 221 0
222 -49 0
222 -221 0
223 -51 -222 0
-223 51 0
-223 222 0
-224 53 141 178 223 0
224 -53 0
224 -141 0
224 -178 0
224 -223 0
225 -226 -224 0
-225 226 0
-225 224 0
227 -10 -90 0
-227 10 0
-227 90 0
-228 14 227 11 0
228 -14 0
228 -227 0
228 -11 0
229 -16 -228 0
-229 16 0
-229 228 0
230 -18 -228 0
-230 18 0
-230 228 0
231 -10 -8 0
-231 10 0
-231 8 0
-232 14 231 11 0
232 -14 0
232 -231 0
232 -11 0
233 -23 -232 0
-233 23 0
-233 232 0
-234 6 233 0
234 -6 0
234 -233 0
235 -26 -234 0
-235 26 0
-235 234 0
-236 28 230 235 0
236 -28 0
236 -230 0
236 -235 0
237 -30 -236 0
-237 30 0
-237 236 0
238 -32 -236 0
-238 32 0
-238 236 0
-239 8 36 0
239 -8 0
239 -36 0
240 -39 -239 0
-240 39 0
-240 239 0
241 -41 -228 0
-241 41 0
-241 228 0
242 -43 -236 0
-242 43 0
-242 236 0
-243 45 241 242 0
243 -45 0
243 -241 0
243 -242 0
244 -47 -243 0
-244 47 0
-244 243 0
-245 49 244 0
245 -49 0
245 -244 0
246 -51 -245 0
-246 51 0
-246 245 0
-247 53 238 240 246 0
247 -53 0
247 -238 0
247 -240 0
247 -246 0
248 -55 -247 0
-248 55 0
-248 247 0
249 -57 -239 0
-249 57 0
-249 239 0
250 -59 -243 0
-250 59 0
-250 243 0
251 -61 -245 0
-251 61 0
-251 245 0
252 -63 -228 0
-252 63 0
-252 228 0
-253 67 252 64 0
253 -67 0
253 -252 0
253 -64 0
254 -69 -253 0
-254 69 0
-254 253 0
-255 71 229 237 248 249 250 251 254 0
255 -71 0
255 -229 0
255 -237 0
255 -248 0
255 -249 0
255 -250 0
255 -251 0
255 -254 0
256 -85 -255 0
-256 85 0
-256 255 0
-257 3 256 0
257 -3 0
257 -256 0
258 -259 -257 0
-258 259 0
-258 257 0
-260 261 72 116 225 258 0
260 -261 0
260 -72 0
260 -116 0
260 -225 0
260 -258 0
262 -260 -263 0
-262 260 0
-262 263 0
262 0
