c BC-S1.2
p cnf 586 1814
1 -2 -3 0
-1 2 0
-1 3 0
4 -5 -6 0
-4 5 0
-4 6 0
-7 8 4 0
7 -8 0
7 -4 0
9 -10 -7 0
-9 10 0
-9 7 0
11 -12 -3 0
-11 12 0
-11 3 0
-13 14 11 0
13 -14 0
13 -11 0
15 -16 -13 0
-15 16 0
-15 13 0
-17 18 15 0
17 -18 0
17 -15 0
19 -20 -17 0
-19 20 0
-19 17 0
21 -22 -3 0
-21 22 0
-21 3 0
23 -24 -13 0
-23 24 0
-23 13 0
25 -26 -7 0
-25 26 0
-25 7 0
-27 28 25 0
27 -28 0
27 -25 0
29 -30 -27 0
-29 30 0
-29 27 0
-31 32 21 23 29 0
31 -32 0
31 -21 0
31 -23 0
31 -29 0
33 -34 -31 0
-33 34 0
-33 31 0
-35 36 9 19 33 0
35 -36 0
35 -9 0
35 -19 0
35 -33 0
37 -38 -35 0
-37 38 0
-37 35 0
-39 40 1 37 0
39 -40 0
39 -1 0
39 -37 0
41 -42 -39 0
-41 42 0
-41 39 0
43 -44 -39 0
-43 44 0
-43 39 0
45 -46 -47 0
-45 46 0
-45 47 0
48 -49 -50 0
-48 49 0
-48 50 0
-51 52 43 45 48 0
51 -52 0
51 -43 0
51 -45 0
51 -48 0
53 -54 -51 0
-53 54 0
-53 51 0
-55 40 1 0
55 -40 0
55 -1 0
56 -57 -55 0
-56 57 0
-56 55 0
-58 8 56 4 0
58 -8 0
58 -56 0
58 -4 0
59 -10 -58 0
-59 10 0
-59 58 0
60 -61 -55 0
-60 61 0
-60 55 0
-62 14 11 60 0
62 -14 0
62 -11 0
62 -60 0
63 -16 -62 0
-63 16 0
-63 62 0
-64 18 63 0
64 -18 0
64 -63 0
65 -20 -64 0
-65 20 0
-65 64 0
66 -24 -62 0
-66 24 0
-66 62 0
67 -26 -58 0
-67 26 0
-67 58 0
-68 28 67 0
68 -28 0
68 -67 0
69 -30 -68 0
-69 30 0
-69 68 0
-70 32 21 66 69 0
70 -32 0
70 -21 0
70 -66 0
70 -69 0
71 -34 -70 0
-71 34 0
-71 70 0
-72 36 59 65 71 0
72 -36 0
72 -59 0
72 -65 0
72 -71 0
73 -74 -72 0
-73 74 0
-73 72 0
75 -76 -39 0
-75 76 0
-75 39 0
77 -78 -72 0
-77 78 0
-77 72 0
79 -80 -39 0
-79 80 0
-79 39 0
81 -82 -3 0
-81 82 0
-81 3 0
83 -20 -18 0
-83 20 0
-83 18 0
-84 36 9 83 33 0
84 -36 0
84 -9 0
84 -83 0
84 -33 0
85 -38 -84 0
-85 38 0
-85 84 0
-86 40 1 85 0
86 -40 0
86 -1 0
86 -85 0
87 -61 -86 0
-87 61 0
-87 86 0
-88 14 11 87 0
88 -14 0
88 -11 0
88 -87 0
89 -90 -88 0
-89 90 0
-89 88 0
-91 8 56 0
91 -8 0
91 -56 0
92 -10 -91 0
-92 10 0
-92 91 0
93 -26 -91 0
-93 26 0
-93 91 0
-94 28 93 0
94 -28 0
94 -93 0
95 -30 -94 0
-95 30 0
-95 94 0
-96 32 21 66 95 0
96 -32 0
96 -21 0
96 -66 0
96 -95 0
97 -34 -96 0
-97 34 0
-97 96 0
-98 36 92 65 97 0
98 -36 0
98 -92 0
98 -65 0
98 -97 0
99 -100 -98 0
-99 100 0
-99 98 0
-101 6 99 0
101 -6 0
101 -99 0
102 -103 -101 0
-102 103 0
-102 101 0
-104 105 81 89 102 0
104 -105 0
104 -81 0
104 -89 0
104 -102 0
106 -107 -104 0
-106 107 0
-106 104 0
108 -109 -72 0
-108 109 0
-108 72 0
110 -111 -50 0
-110 111 0
-110 50 0
-112 113 79 106 108 110 0
112 -113 0
112 -79 0
112 -106 0
112 -108 0
112 -110 0
114 -115 -112 0
-114 115 0
-114 112 0
116 -117 -39 0
-116 117 0
-116 39 0
118 -119 -47 0
-118 119 0
-118 47 0
-120 121 116 118 0
120 -121 0
120 -116 0
120 -118 0
122 -123 -120 0
-122 123 0
-122 120 0
-124 125 114 122 0
124 -125 0
124 -114 0
124 -122 0
126 -127 -124 0
-126 127 0
-126 124 0
-128 129 75 77 126 0
128 -129 0
128 -75 0
128 -77 0
128 -126 0
130 -131 -128 0
-130 131 0
-130 128 0
132 -133 -47 0
-132 133 0
-132 47 0
-134 135 41 53 73 130 132 0
134 -135 0
134 -41 0
134 -53 0
134 -73 0
134 -130 0
134 -132 0
136 -137 -134 0
-136 137 0
-136 134 0
-138 40 37 0
138 -40 0
138 -37 0
139 -42 -138 0
-139 42 0
-139 138 0
140 -44 -138 0
-140 44 0
-140 138 0
-141 52 140 45 48 0
141 -52 0
141 -140 0
141 -45 0
141 -48 0
142 -54 -141 0
-142 54 0
-142 141 0
143 -57 -40 0
-143 57 0
-143 40 0
-144 8 143 4 0
144 -8 0
144 -143 0
144 -4 0
145 -10 -144 0
-145 10 0
-145 144 0
146 -61 -40 0
-146 61 0
-146 40 0
-147 14 11 146 0
147 -14 0
147 -11 0
147 -146 0
148 -16 -147 0
-148 16 0
-148 147 0
-149 18 148 0
149 -18 0
149 -148 0
150 -20 -149 0
-150 20 0
-150 149 0
151 -24 -147 0
-151 24 0
-151 147 0
152 -26 -144 0
-152 26 0
-152 144 0
-153 28 152 0
153 -28 0
153 -152 0
154 -30 -153 0
-154 30 0
-154 153 0
-155 32 21 151 154 0
155 -32 0
155 -21 0
155 -151 0
155 -154 0
156 -34 -155 0
-156 34 0
-156 155 0
-157 36 145 150 156 0
157 -36 0
157 -145 0
157 -150 0
157 -156 0
158 -74 -157 0
-158 74 0
-158 157 0
159 -76 -138 0
-159 76 0
-159 138 0
160 -78 -157 0
-160 78 0
-160 157 0
161 -80 -138 0
-161 80 0
-161 138 0
162 -109 -157 0
-162 109 0
-162 157 0
-163 113 161 162 110 0
163 -113 0
163 -161 0
163 -162 0
163 -110 0
164 -115 -163 0
-164 115 0
-164 163 0
165 -117 -138 0
-165 117 0
-165 138 0
-166 121 165 118 0
166 -121 0
166 -165 0
166 -118 0
167 -123 -166 0
-167 123 0
-167 166 0
-168 125 164 167 0
168 -125 0
168 -164 0
168 -167 0
169 -127 -168 0
-169 127 0
-169 168 0
-170 129 159 160 169 0
170 -129 0
170 -159 0
170 -160 0
170 -169 0
171 -131 -170 0
-171 131 0
-171 170 0
-172 135 139 142 158 171 132 0
172 -135 0
172 -139 0
172 -142 0
172 -158 0
172 -171 0
172 -132 0
173 -174 -172 0
-173 174 0
-173 172 0
-175 3 173 0
175 -3 0
175 -173 0
176 -82 -175 0
-176 82 0
-176 175 0
-177 32 21 151 29 0
177 -32 0
177 -21 0
177 -151 0
177 -29 0
178 -34 -177 0
-178 34 0
-178 177 0
-179 36 9 83 178 0
179 -36 0
179 -9 0
179 -83 0
179 -178 0
180 -38 -179 0
-180 38 0
-180 179 0
-181 40 180 0
181 -40 0
181 -180 0
182 -42 -181 0
-182 42 0
-182 181 0
183 -44 -181 0
-183 44 0
-183 181 0
-184 52 183 45 48 0
184 -52 0
184 -183 0
184 -45 0
184 -48 0
185 -54 -184 0
-185 54 0
-185 184 0
-186 36 145 83 156 0
186 -36 0
186 -145 0
186 -83 0
186 -156 0
187 -74 -186 0
-187 74 0
-187 186 0
188 -76 -181 0
-188 76 0
-188 181 0
189 -78 -186 0
-189 78 0
-189 186 0
190 -80 -181 0
-190 80 0
-190 181 0
191 -109 -186 0
-191 109 0
-191 186 0
-192 113 190 191 110 0
192 -113 0
192 -190 0
192 -191 0
192 -110 0
193 -115 -192 0
-193 115 0
-193 192 0
194 -117 -181 0
-194 117 0
-194 181 0
-195 121 194 118 0
195 -121 0
195 -194 0
195 -118 0
196 -123 -195 0
-196 123 0
-196 195 0
-197 125 193 196 0
197 -125 0
197 -193 0
197 -196 0
198 -127 -197 0
-198 127 0
-198 197 0
-199 129 188 189 198 0
199 -129 0
199 -188 0
199 -189 0
199 -198 0
200 -131 -199 0
-200 131 0
-200 199 0
-201 135 182 185 187 200 132 0
201 -135 0
201 -182 0
201 -185 0
201 -187 0
201 -200 0
201 -132 0
202 -174 -201 0
-202 174 0
-202 201 0
-203 3 202 0
203 -3 0
203 -202 0
204 -12 -203 0
-204 12 0
-204 203 0
-205 52 45 48 0
205 -52 0
205 -45 0
205 -48 0
206 -54 -205 0
-206 54 0
-206 205 0
207 -74 -84 0
-207 74 0
-207 84 0
208 -78 -84 0
-208 78 0
-208 84 0
209 -109 -84 0
-209 109 0
-209 84 0
-210 113 209 110 0
210 -113 0
210 -209 0
210 -110 0
211 -115 -210 0
-211 115 0
-211 210 0
-212 121 118 0
212 -121 0
212 -118 0
213 -123 -212 0
-213 123 0
-213 212 0
-214 125 211 213 0
214 -125 0
214 -211 0
214 -213 0
215 -127 -214 0
-215 127 0
-215 214 0
-216 129 208 215 0
216 -129 0
216 -208 0
216 -215 0
217 -131 -216 0
-217 131 0
-217 216 0
-218 135 206 207 217 132 0
218 -135 0
218 -206 0
218 -207 0
218 -217 0
218 -132 0
219 -174 -218 0
-219 174 0
-219 218 0
-220 3 219 0
220 -3 0
220 -219 0
221 -2 -220 0
-221 2 0
-221 220 0
-222 113 110 0
222 -113 0
222 -110 0
223 -115 -222 0
-223 115 0
-223 222 0
-224 125 223 213 0
224 -125 0
224 -223 0
224 -213 0
225 -127 -224 0
-225 127 0
-225 224 0
-226 129 225 0
226 -129 0
226 -225 0
227 -131 -226 0
-227 131 0
-227 226 0
-228 135 206 227 132 0
228 -135 0
228 -206 0
228 -227 0
228 -132 0
229 -174 -228 0
-229 174 0
-229 228 0
-230 3 229 0
230 -3 0
230 -229 0
231 -22 -230 0
-231 22 0
-231 230 0
-232 32 231 29 0
232 -32 0
232 -231 0
232 -29 0
233 -34 -232 0
-233 34 0
-233 232 0
-234 36 9 83 233 0
234 -36 0
234 -9 0
234 -83 0
234 -233 0
235 -38 -234 0
-235 38 0
-235 234 0
-236 40 221 235 0
236 -40 0
236 -221 0
236 -235 0
237 -61 -236 0
-237 61 0
-237 236 0
238 -42 -86 0
-238 42 0
-238 86 0
239 -44 -86 0
-239 44 0
-239 86 0
-240 52 239 45 48 0
240 -52 0
240 -239 0
240 -45 0
240 -48 0
241 -54 -240 0
-241 54 0
-241 240 0
-242 36 59 83 71 0
242 -36 0
242 -59 0
242 -83 0
242 -71 0
243 -74 -242 0
-243 74 0
-243 242 0
244 -76 -86 0
-244 76 0
-244 86 0
245 -78 -242 0
-245 78 0
-245 242 0
246 -80 -86 0
-246 80 0
-246 86 0
247 -109 -242 0
-247 109 0
-247 242 0
-248 113 246 247 110 0
248 -113 0
248 -246 0
248 -247 0
248 -110 0
249 -115 -248 0
-249 115 0
-249 248 0
250 -117 -86 0
-250 117 0
-250 86 0
-251 121 250 118 0
251 -121 0
251 -250 0
251 -118 0
252 -123 -251 0
-252 123 0
-252 251 0
-253 125 249 252 0
253 -125 0
253 -249 0
253 -252 0
254 -127 -253 0
-254 127 0
-254 253 0
-255 129 244 245 254 0
255 -129 0
255 -244 0
255 -245 0
255 -254 0
256 -131 -255 0
-256 131 0
-256 255 0
-257 135 238 241 243 256 132 0
257 -135 0
257 -238 0
257 -241 0
257 -243 0
257 -256 0
257 -132 0
258 -259 -257 0
-258 259 0
-258 257 0
-260 14 204 237 258 0
260 -14 0
260 -204 0
260 -237 0
260 -258 0
261 -90 -260 0
-261 90 0
-261 260 0
262 -2 -230 0
-262 2 0
-262 230 0
-263 40 262 0
263 -40 0
263 -262 0
264 -57 -263 0
-264 57 0
-264 263 0
-265 8 264 0
265 -8 0
265 -264 0
266 -10 -265 0
-266 10 0
-266 265 0
267 -42 -40 0
-267 42 0
-267 40 0
268 -44 -40 0
-268 44 0
-268 40 0
-269 52 268 45 48 0
269 -52 0
269 -268 0
269 -45 0
269 -48 0
270 -54 -269 0
-270 54 0
-270 269 0
271 -76 -40 0
-271 76 0
-271 40 0
272 -80 -40 0
-272 80 0
-272 40 0
-273 113 272 110 0
273 -113 0
273 -272 0
273 -110 0
274 -115 -273 0
-274 115 0
-274 273 0
275 -117 -40 0
-275 117 0
-275 40 0
-276 121 275 118 0
276 -121 0
276 -275 0
276 -118 0
277 -123 -276 0
-277 123 0
-277 276 0
-278 125 274 277 0
278 -125 0
278 -274 0
278 -277 0
279 -127 -278 0
-279 127 0
-279 278 0
-280 129 271 279 0
280 -129 0
280 -271 0
280 -279 0
281 -131 -280 0
-281 131 0
-281 280 0
-282 135 267 270 281 132 0
282 -135 0
282 -267 0
282 -270 0
282 -281 0
282 -132 0
283 -174 -282 0
-283 174 0
-283 282 0
-284 3 283 0
284 -3 0
284 -283 0
285 -12 -284 0
-285 12 0
-285 284 0
286 -61 -263 0
-286 61 0
-286 263 0
287 -42 -55 0
-287 42 0
-287 55 0
288 -44 -55 0
-288 44 0
-288 55 0
-289 52 288 45 48 0
289 -52 0
289 -288 0
289 -45 0
289 -48 0
290 -54 -289 0
-290 54 0
-290 289 0
291 -76 -55 0
-291 76 0
-291 55 0
292 -80 -55 0
-292 80 0
-292 55 0
-293 113 292 110 0
293 -113 0
293 -292 0
293 -110 0
294 -115 -293 0
-294 115 0
-294 293 0
295 -117 -55 0
-295 117 0
-295 55 0
-296 121 295 118 0
296 -121 0
296 -295 0
296 -118 0
297 -123 -296 0
-297 123 0
-297 296 0
-298 125 294 297 0
298 -125 0
298 -294 0
298 -297 0
299 -127 -298 0
-299 127 0
-299 298 0
-300 129 291 299 0
300 -129 0
300 -291 0
300 -299 0
301 -131 -300 0
-301 131 0
-301 300 0
-302 135 287 290 301 132 0
302 -135 0
302 -287 0
302 -290 0
302 -301 0
302 -132 0
303 -259 -302 0
-303 259 0
-303 302 0
-304 14 285 286 303 0
304 -14 0
304 -285 0
304 -286 0
304 -303 0
305 -16 -304 0
-305 16 0
-305 304 0
-306 18 305 0
306 -18 0
306 -305 0
307 -20 -306 0
-307 20 0
-307 306 0
308 -22 -284 0
-308 22 0
-308 284 0
309 -24 -304 0
-309 24 0
-309 304 0
310 -26 -265 0
-310 26 0
-310 265 0
-311 28 310 0
311 -28 0
311 -310 0
312 -30 -311 0
-312 30 0
-312 311 0
-313 32 308 309 312 0
313 -32 0
313 -308 0
313 -309 0
313 -312 0
314 -34 -313 0
-314 34 0
-314 313 0
-315 36 266 307 314 0
315 -36 0
315 -266 0
315 -307 0
315 -314 0
316 -100 -315 0
-316 100 0
-316 315 0
-317 6 316 0
317 -6 0
317 -316 0
318 -103 -317 0
-318 103 0
-318 317 0
-319 105 176 261 318 0
319 -105 0
319 -176 0
319 -261 0
319 -318 0
320 -321 -319 0
-320 321 0
-320 319 0
322 -74 -35 0
-322 74 0
-322 35 0
323 -78 -35 0
-323 78 0
-323 35 0
324 -90 -13 0
-324 90 0
-324 13 0
325 -10 -8 0
-325 10 0
-325 8 0
326 -26 -8 0
-326 26 0
-326 8 0
-327 28 326 0
327 -28 0
327 -326 0
328 -30 -327 0
-328 30 0
-328 327 0
-329 32 21 23 328 0
329 -32 0
329 -21 0
329 -23 0
329 -328 0
330 -34 -329 0
-330 34 0
-330 329 0
-331 36 325 19 330 0
331 -36 0
331 -325 0
331 -19 0
331 -330 0
332 -100 -331 0
-332 100 0
-332 331 0
-333 6 332 0
333 -6 0
333 -332 0
334 -103 -333 0
-334 103 0
-334 333 0
-335 105 81 324 334 0
335 -105 0
335 -81 0
335 -324 0
335 -334 0
336 -107 -335 0
-336 107 0
-336 335 0
337 -109 -35 0
-337 109 0
-337 35 0
-338 113 336 337 110 0
338 -113 0
338 -336 0
338 -337 0
338 -110 0
339 -115 -338 0
-339 115 0
-339 338 0
-340 125 339 213 0
340 -125 0
340 -339 0
340 -213 0
341 -127 -340 0
-341 127 0
-341 340 0
-342 129 323 341 0
342 -129 0
342 -323 0
342 -341 0
343 -131 -342 0
-343 131 0
-343 342 0
-344 135 206 322 343 132 0
344 -135 0
344 -206 0
344 -322 0
344 -343 0
344 -132 0
345 -174 -344 0
-345 174 0
-345 344 0
-346 3 345 0
346 -3 0
346 -345 0
347 -2 -346 0
-347 2 0
-347 346 0
348 -103 -6 0
-348 103 0
-348 6 0
-349 105 81 348 0
349 -105 0
349 -81 0
349 -348 0
350 -107 -349 0
-350 107 0
-350 349 0
-351 113 350 110 0
351 -113 0
351 -350 0
351 -110 0
352 -115 -351 0
-352 115 0
-352 351 0
-353 125 352 213 0
353 -125 0
353 -352 0
353 -213 0
354 -127 -353 0
-354 127 0
-354 353 0
-355 129 354 0
355 -129 0
355 -354 0
356 -131 -355 0
-356 131 0
-356 355 0
-357 135 206 356 132 0
357 -135 0
357 -206 0
357 -356 0
357 -132 0
358 -174 -357 0
-358 174 0
-358 357 0
-359 3 358 0
359 -3 0
359 -358 0
360 -12 -359 0
-360 12 0
-360 359 0
361 -259 -357 0
-361 259 0
-361 357 0
-362 14 360 361 0
362 -14 0
362 -360 0
362 -361 0
363 -16 -362 0
-363 16 0
-363 362 0
-364 18 363 0
364 -18 0
364 -363 0
365 -20 -364 0
-365 20 0
-365 364 0
-366 105 81 324 348 0
366 -105 0
366 -81 0
366 -324 0
366 -348 0
367 -107 -366 0
-367 107 0
-367 366 0
-368 113 367 110 0
368 -113 0
368 -367 0
368 -110 0
369 -115 -368 0
-369 115 0
-369 368 0
-370 125 369 213 0
370 -125 0
370 -369 0
370 -213 0
371 -127 -370 0
-371 127 0
-371 370 0
-372 129 371 0
372 -129 0
372 -371 0
373 -131 -372 0
-373 131 0
-373 372 0
-374 135 206 373 132 0
374 -135 0
374 -206 0
374 -373 0
374 -132 0
375 -174 -374 0
-375 174 0
-375 374 0
-376 3 375 0
376 -3 0
376 -375 0
377 -22 -376 0
-377 22 0
-377 376 0
378 -24 -362 0
-378 24 0
-378 362 0
-379 32 377 378 29 0
379 -32 0
379 -377 0
379 -378 0
379 -29 0
380 -34 -379 0
-380 34 0
-380 379 0
-381 36 9 365 380 0
381 -36 0
381 -9 0
381 -365 0
381 -380 0
382 -38 -381 0
-382 38 0
-382 381 0
-383 40 347 382 0
383 -40 0
383 -347 0
383 -382 0
384 -385 -383 0
-384 385 0
-384 383 0
386 -2 -376 0
-386 2 0
-386 376 0
-387 40 386 0
387 -40 0
387 -386 0
388 -57 -387 0
-388 57 0
-388 387 0
-389 8 388 4 0
389 -8 0
389 -388 0
389 -4 0
390 -10 -389 0
-390 10 0
-390 389 0
-391 113 272 350 110 0
391 -113 0
391 -272 0
391 -350 0
391 -110 0
392 -115 -391 0
-392 115 0
-392 391 0
-393 125 392 277 0
393 -125 0
393 -392 0
393 -277 0
394 -127 -393 0
-394 127 0
-394 393 0
-395 129 271 394 0
395 -129 0
395 -271 0
395 -394 0
396 -131 -395 0
-396 131 0
-396 395 0
-397 135 267 270 396 132 0
397 -135 0
397 -267 0
397 -270 0
397 -396 0
397 -132 0
398 -174 -397 0
-398 174 0
-398 397 0
-399 3 398 0
399 -3 0
399 -398 0
400 -12 -399 0
-400 12 0
-400 399 0
401 -2 -359 0
-401 2 0
-401 359 0
-402 40 401 0
402 -40 0
402 -401 0
403 -61 -402 0
-403 61 0
-403 402 0
-404 113 292 350 110 0
404 -113 0
404 -292 0
404 -350 0
404 -110 0
405 -115 -404 0
-405 115 0
-405 404 0
-406 125 405 297 0
406 -125 0
406 -405 0
406 -297 0
407 -127 -406 0
-407 127 0
-407 406 0
-408 129 291 407 0
408 -129 0
408 -291 0
408 -407 0
409 -131 -408 0
-409 131 0
-409 408 0
-410 135 287 290 409 132 0
410 -135 0
410 -287 0
410 -290 0
410 -409 0
410 -132 0
411 -259 -410 0
-411 259 0
-411 410 0
-412 14 400 403 411 0
412 -14 0
412 -400 0
412 -403 0
412 -411 0
413 -16 -412 0
-413 16 0
-413 412 0
-414 18 413 0
414 -18 0
414 -413 0
415 -20 -414 0
-415 20 0
-415 414 0
416 -90 -147 0
-416 90 0
-416 147 0
-417 105 81 416 348 0
417 -105 0
417 -81 0
417 -416 0
417 -348 0
418 -107 -417 0
-418 107 0
-418 417 0
-419 113 272 418 110 0
419 -113 0
419 -272 0
419 -418 0
419 -110 0
420 -115 -419 0
-420 115 0
-420 419 0
-421 125 420 277 0
421 -125 0
421 -420 0
421 -277 0
422 -127 -421 0
-422 127 0
-422 421 0
-423 129 271 422 0
423 -129 0
423 -271 0
423 -422 0
424 -131 -423 0
-424 131 0
-424 423 0
-425 135 267 270 424 132 0
425 -135 0
425 -267 0
425 -270 0
425 -424 0
425 -132 0
426 -174 -425 0
-426 174 0
-426 425 0
-427 3 426 0
427 -3 0
427 -426 0
428 -22 -427 0
-428 22 0
-428 427 0
429 -24 -412 0
-429 24 0
-429 412 0
430 -26 -389 0
-430 26 0
-430 389 0
-431 28 430 0
431 -28 0
431 -430 0
432 -30 -431 0
-432 30 0
-432 431 0
-433 32 428 429 432 0
433 -32 0
433 -428 0
433 -429 0
433 -432 0
434 -34 -433 0
-434 34 0
-434 433 0
-435 36 390 415 434 0
435 -36 0
435 -390 0
435 -415 0
435 -434 0
436 -437 -435 0
-436 437 0
-436 435 0
438 -439 -47 0
-438 439 0
-438 47 0
-440 36 9 178 0
440 -36 0
440 -9 0
440 -178 0
441 -38 -440 0
-441 38 0
-441 440 0
-442 40 441 0
442 -40 0
442 -441 0
443 -42 -442 0
-443 42 0
-443 442 0
444 -44 -442 0
-444 44 0
-444 442 0
-445 52 444 45 48 0
445 -52 0
445 -444 0
445 -45 0
445 -48 0
446 -54 -445 0
-446 54 0
-446 445 0
-447 36 145 156 0
447 -36 0
447 -145 0
447 -156 0
448 -74 -447 0
-448 74 0
-448 447 0
449 -76 -442 0
-449 76 0
-449 442 0
450 -78 -447 0
-450 78 0
-450 447 0
451 -80 -442 0
-451 80 0
-451 442 0
-452 8 143 0
452 -8 0
452 -143 0
453 -10 -452 0
-453 10 0
-453 452 0
454 -26 -452 0
-454 26 0
-454 452 0
-455 28 454 0
455 -28 0
455 -454 0
456 -30 -455 0
-456 30 0
-456 455 0
-457 32 21 151 456 0
457 -32 0
457 -21 0
457 -151 0
457 -456 0
458 -34 -457 0
-458 34 0
-458 457 0
-459 36 453 458 0
459 -36 0
459 -453 0
459 -458 0
460 -100 -459 0
-460 100 0
-460 459 0
-461 6 460 0
461 -6 0
461 -460 0
462 -103 -461 0
-462 103 0
-462 461 0
-463 105 81 462 0
463 -105 0
463 -81 0
463 -462 0
464 -107 -463 0
-464 107 0
-464 463 0
465 -109 -447 0
-465 109 0
-465 447 0
-466 113 451 464 465 110 0
466 -113 0
466 -451 0
466 -464 0
466 -465 0
466 -110 0
467 -115 -466 0
-467 115 0
-467 466 0
468 -117 -442 0
-468 117 0
-468 442 0
-469 121 468 118 0
469 -121 0
469 -468 0
469 -118 0
470 -123 -469 0
-470 123 0
-470 469 0
-471 125 467 470 0
471 -125 0
471 -467 0
471 -470 0
472 -127 -471 0
-472 127 0
-472 471 0
-473 129 449 450 472 0
473 -129 0
473 -449 0
473 -450 0
473 -472 0
474 -131 -473 0
-474 131 0
-474 473 0
-475 135 443 446 448 474 132 0
475 -135 0
475 -443 0
475 -446 0
475 -448 0
475 -474 0
475 -132 0
476 -174 -475 0
-476 174 0
-476 475 0
-477 3 476 0
477 -3 0
477 -476 0
478 -12 -477 0
-478 12 0
-478 477 0
-479 36 9 33 0
479 -36 0
479 -9 0
479 -33 0
480 -74 -479 0
-480 74 0
-480 479 0
481 -78 -479 0
-481 78 0
-481 479 0
-482 36 325 330 0
482 -36 0
482 -325 0
482 -330 0
483 -100 -482 0
-483 100 0
-483 482 0
-484 6 483 0
484 -6 0
484 -483 0
485 -103 -484 0
-485 103 0
-485 484 0
-486 105 81 324 485 0
486 -105 0
486 -81 0
486 -324 0
486 -485 0
487 -107 -486 0
-487 107 0
-487 486 0
488 -109 -479 0
-488 109 0
-488 479 0
-489 113 487 488 110 0
489 -113 0
489 -487 0
489 -488 0
489 -110 0
490 -115 -489 0
-490 115 0
-490 489 0
-491 125 490 213 0
491 -125 0
491 -490 0
491 -213 0
492 -127 -491 0
-492 127 0
-492 491 0
-493 129 481 492 0
493 -129 0
493 -481 0
493 -492 0
494 -131 -493 0
-494 131 0
-494 493 0
-495 135 206 480 494 132 0
495 -135 0
495 -206 0
495 -480 0
495 -494 0
495 -132 0
496 -174 -495 0
-496 174 0
-496 495 0
-497 3 496 0
497 -3 0
497 -496 0
498 -2 -497 0
-498 2 0
-498 497 0
499 -22 -359 0
-499 22 0
-499 359 0
-500 32 499 29 0
500 -32 0
500 -499 0
500 -29 0
501 -34 -500 0
-501 34 0
-501 500 0
-502 36 9 501 0
502 -36 0
502 -9 0
502 -501 0
503 -38 -502 0
-503 38 0
-503 502 0
-504 40 498 503 0
504 -40 0
504 -498 0
504 -503 0
505 -61 -504 0
-505 61 0
-505 504 0
506 -38 -479 0
-506 38 0
-506 479 0
-507 40 1 506 0
507 -40 0
507 -1 0
507 -506 0
508 -42 -507 0
-508 42 0
-508 507 0
509 -44 -507 0
-509 44 0
-509 507 0
-510 52 509 45 48 0
510 -52 0
510 -509 0
510 -45 0
510 -48 0
511 -54 -510 0
-511 54 0
-511 510 0
-512 36 59 71 0
512 -36 0
512 -59 0
512 -71 0
513 -74 -512 0
-513 74 0
-513 512 0
514 -76 -507 0
-514 76 0
-514 507 0
515 -78 -512 0
-515 78 0
-515 512 0
516 -80 -507 0
-516 80 0
-516 507 0
-517 36 92 97 0
517 -36 0
517 -92 0
517 -97 0
518 -100 -517 0
-518 100 0
-518 517 0
-519 6 518 0
519 -6 0
519 -518 0
520 -103 -519 0
-520 103 0
-520 519 0
-521 105 81 520 0
521 -105 0
521 -81 0
521 -520 0
522 -107 -521 0
-522 107 0
-522 521 0
523 -109 -512 0
-523 109 0
-523 512 0
-524 113 516 522 523 110 0
524 -113 0
524 -516 0
524 -522 0
524 -523 0
524 -110 0
525 -115 -524 0
-525 115 0
-525 524 0
526 -117 -507 0
-526 117 0
-526 507 0
-527 121 526 118 0
527 -121 0
527 -526 0
527 -118 0
528 -123 -527 0
-528 123 0
-528 527 0
-529 125 525 528 0
529 -125 0
529 -525 0
529 -528 0
530 -127 -529 0
-530 127 0
-530 529 0
-531 129 514 515 530 0
531 -129 0
531 -514 0
531 -515 0
531 -530 0
532 -131 -531 0
-532 131 0
-532 531 0
-533 135 508 511 513 532 132 0
533 -135 0
533 -508 0
533 -511 0
533 -513 0
533 -532 0
533 -132 0
534 -259 -533 0
-534 259 0
-534 533 0
-535 14 478 505 534 0
535 -14 0
535 -478 0
535 -505 0
535 -534 0
536 -16 -535 0
-536 16 0
-536 535 0
-537 18 536 0
537 -18 0
537 -536 0
538 -539 -537 0
-538 539 0
-538 537 0
-540 125 339 0
540 -125 0
540 -339 0
541 -127 -540 0
-541 127 0
-541 540 0
-542 129 323 541 0
542 -129 0
542 -323 0
542 -541 0
543 -131 -542 0
-543 131 0
-543 542 0
-544 135 206 322 543 132 0
544 -135 0
544 -206 0
544 -322 0
544 -543 0
544 -132 0
545 -174 -544 0
-545 174 0
-545 544 0
-546 3 545 0
546 -3 0
546 -545 0
547 -2 -546 0
-547 2 0
-547 546 0
-548 125 352 0
548 -125 0
548 -352 0
549 -127 -548 0
-549 127 0
-549 548 0
-550 129 549 0
550 -129 0
550 -549 0
551 -131 -550 0
-551 131 0
-551 550 0
-552 135 206 551 132 0
552 -135 0
552 -206 0
552 -551 0
552 -132 0
553 -174 -552 0
-553 174 0
-553 552 0
-554 3 553 0
554 -3 0
554 -553 0
555 -12 -554 0
-555 12 0
-555 554 0
556 -259 -552 0
-556 259 0
-556 552 0
-557 14 555 556 0
557 -14 0
557 -555 0
557 -556 0
558 -16 -557 0
-558 16 0
-558 557 0
-559 18 558 0
559 -18 0
559 -558 0
560 -20 -559 0
-560 20 0
-560 559 0
-561 125 369 0
561 -125 0
561 -369 0
562 -127 -561 0
-562 127 0
-562 561 0
-563 129 562 0
563 -129 0
563 -562 0
564 -131 -563 0
-564 131 0
-564 563 0
-565 135 206 564 132 0
565 -135 0
565 -206 0
565 -564 0
565 -132 0
566 -174 -565 0
-566 174 0
-566 565 0
-567 3 566 0
567 -3 0
567 -566 0
568 -22 -567 0
-568 22 0
-568 567 0
569 -24 -557 0
-569 24 0
-569 557 0
-570 32 568 569 29 0
570 -32 0
570 -568 0
570 -569 0
570 -29 0
571 -34 -570 0
-571 34 0
-571 570 0
-572 36 9 560 571 0
572 -36 0
572 -9 0
572 -560 0
572 -571 0
573 -38 -572 0
-573 38 0
-573 572 0
-574 40 547 573 0
574 -40 0
574 -547 0
574 -573 0
575 -117 -574 0
-575 117 0
-575 574 0
-576 121 575 118 0
576 -121 0
576 -575 0
576 -118 0
577 -578 -576 0
-577 578 0
-577 576 0
-579 580 136 320 384 436 438 538 577 0
579 -580 0
579 -136 0
579 -320 0
579 -384 0
579 -436 0
579 -438 0
579 -538 0
579 -577 0
581 -582 -579 0
-581 582 0
-581 579 0
-583 584 581 0
583 -584 0
583 -581 0
585 -583 -586 0
-585 583 0
-585 586 0
585 0
