c BC-S1.2
p cnf 440 1250
1 -2 -3 0
-1 2 0
-1 3 0
-4 5 1 0
4 -5 0
4 -1 0
6 -7 -4 0
-6 7 0
-6 4 0
-8 9 6 0
8 -9 0
8 -6 0
10 -11 -8 0
-10 11 0
-10 8 0
12 -13 -4 0
-12 13 0
-12 4 0
14 -15 -8 0
-14 15 0
-14 8 0
-16 17 14 0
16 -17 0
16 -14 0
18 -19 -16 0
-18 19 0
-18 16 0
20 -21 -3 0
-20 21 0
-20 3 0
-22 23 12 18 20 0
22 -23 0
22 -12 0
22 -18 0
22 -20 0
24 -25 -22 0
-24 25 0
-24 22 0
26 -27 -28 0
-26 27 0
-26 28 0
-29 30 26 0
29 -30 0
29 -26 0
31 -32 -29 0
-31 32 0
-31 29 0
33 -34 -29 0
-33 34 0
-33 29 0
35 -36 -37 0
-35 36 0
-35 37 0
38 -39 -40 0
-38 39 0
-38 40 0
41 -42 -40 0
-41 42 0
-41 40 0
43 -44 -45 0
-43 44 0
-43 45 0
46 -47 -48 0
-46 47 0
-46 48 0
-49 50 46 0
49 -50 0
49 -46 0
51 -52 -49 0
-51 52 0
-51 49 0
-53 54 51 0
53 -54 0
53 -51 0
55 -56 -53 0
-55 56 0
-55 53 0
-57 58 55 0
57 -58 0
57 -55 0
59 -60 -57 0
-59 60 0
-59 57 0
61 -62 -63 0
-61 62 0
-61 63 0
-64 65 61 0
64 -65 0
64 -61 0
66 -67 -64 0
-66 67 0
-66 64 0
-68 69 59 66 0
68 -69 0
68 -59 0
68 -66 0
70 -71 -68 0
-70 71 0
-70 68 0
-72 73 41 43 70 0
72 -73 0
72 -41 0
72 -43 0
72 -70 0
74 -75 -72 0
-74 75 0
-74 72 0
-76 77 74 0
76 -77 0
76 -74 0
78 -79 -76 0
-78 79 0
-78 76 0
80 -81 -45 0
-80 81 0
-80 45 0
-82 73 41 43 0
82 -73 0
82 -41 0
82 -43 0
83 -84 -82 0
-83 84 0
-83 82 0
-85 54 51 83 0
85 -54 0
85 -51 0
85 -83 0
86 -56 -85 0
-86 56 0
-86 85 0
-87 58 86 0
87 -58 0
87 -86 0
88 -60 -87 0
-88 60 0
-88 87 0
89 -90 -82 0
-89 90 0
-89 82 0
-91 65 61 89 0
91 -65 0
91 -61 0
91 -89 0
92 -67 -91 0
-92 67 0
-92 91 0
93 -94 -82 0
-93 94 0
-93 82 0
-95 69 88 92 93 0
95 -69 0
95 -88 0
95 -92 0
95 -93 0
96 -97 -95 0
-96 97 0
-96 95 0
98 -99 -58 0
-98 99 0
-98 58 0
100 -60 -58 0
-100 60 0
-100 58 0
-101 69 100 92 93 0
101 -69 0
101 -100 0
101 -92 0
101 -93 0
102 -103 -101 0
-102 103 0
-102 101 0
-104 48 102 0
104 -48 0
104 -102 0
105 -47 -104 0
-105 47 0
-105 104 0
-106 50 98 105 0
106 -50 0
106 -98 0
106 -105 0
107 -52 -106 0
-107 52 0
-107 106 0
-108 69 100 66 0
108 -69 0
108 -100 0
108 -66 0
109 -71 -108 0
-109 71 0
-109 108 0
-110 73 41 43 109 0
110 -73 0
110 -41 0
110 -43 0
110 -109 0
111 -84 -110 0
-111 84 0
-111 110 0
-112 54 107 111 0
112 -54 0
112 -107 0
112 -111 0
113 -114 -112 0
-113 114 0
-113 112 0
115 -116 -72 0
-115 116 0
-115 72 0
-117 118 35 38 78 80 96 113 115 0
117 -118 0
117 -35 0
117 -38 0
117 -78 0
117 -80 0
117 -96 0
117 -113 0
117 -115 0
119 -120 -117 0
-119 120 0
-119 117 0
-121 122 33 119 0
121 -122 0
121 -33 0
121 -119 0
123 -124 -121 0
-123 124 0
-123 121 0
125 -126 -117 0
-125 126 0
-125 117 0
-127 128 125 0
127 -128 0
127 -125 0
129 -130 -127 0
-129 130 0
-129 127 0
131 -132 -133 0
-131 132 0
-131 133 0
134 -79 -77 0
-134 79 0
-134 77 0
-135 118 35 38 134 80 0
135 -118 0
135 -35 0
135 -38 0
135 -134 0
135 -80 0
136 -137 -135 0
-136 137 0
-136 135 0
-138 48 136 0
138 -48 0
138 -136 0
139 -47 -138 0
-139 47 0
-139 138 0
-140 50 139 0
140 -50 0
140 -139 0
141 -52 -140 0
-141 52 0
-141 140 0
142 -143 -135 0
-142 143 0
-142 135 0
-144 54 141 142 0
144 -54 0
144 -141 0
144 -142 0
145 -56 -144 0
-145 56 0
-145 144 0
-146 58 145 0
146 -58 0
146 -145 0
147 -60 -146 0
-147 60 0
-147 146 0
-148 50 98 46 0
148 -50 0
148 -98 0
148 -46 0
149 -52 -148 0
-149 52 0
-149 148 0
-150 54 149 0
150 -54 0
150 -149 0
151 -114 -150 0
-151 114 0
-151 150 0
-152 118 35 38 134 80 151 0
152 -118 0
152 -35 0
152 -38 0
152 -134 0
152 -80 0
152 -151 0
153 -154 -152 0
-153 154 0
-153 152 0
-155 63 153 0
155 -63 0
155 -153 0
156 -62 -155 0
-156 62 0
-156 155 0
157 -158 -152 0
-157 158 0
-157 152 0
-159 65 156 157 0
159 -65 0
159 -156 0
159 -157 0
160 -67 -159 0
-160 67 0
-160 159 0
-161 69 147 160 0
161 -69 0
161 -147 0
161 -160 0
162 -71 -161 0
-162 71 0
-162 161 0
-163 73 41 43 162 0
163 -73 0
163 -41 0
163 -43 0
163 -162 0
164 -165 -163 0
-164 165 0
-164 163 0
166 -167 -117 0
-166 167 0
-166 117 0
-168 169 164 166 0
168 -169 0
168 -164 0
168 -166 0
170 -171 -168 0
-170 171 0
-170 168 0
-172 173 31 123 129 131 170 0
172 -173 0
172 -31 0
172 -123 0
172 -129 0
172 -131 0
172 -170 0
174 -175 -172 0
-174 175 0
-174 172 0
176 -177 -29 0
-176 177 0
-176 29 0
178 -179 -121 0
-178 179 0
-178 121 0
-180 181 174 176 178 0
180 -181 0
180 -174 0
180 -176 0
180 -178 0
182 -183 -180 0
-182 183 0
-182 180 0
-184 185 182 0
184 -185 0
184 -182 0
186 -187 -184 0
-186 187 0
-186 184 0
188 -189 -28 0
-188 189 0
-188 28 0
-190 122 33 0
190 -122 0
190 -33 0
191 -124 -190 0
-191 124 0
-191 190 0
192 -165 -72 0
-192 165 0
-192 72 0
-193 169 192 0
193 -169 0
193 -192 0
194 -171 -193 0
-194 171 0
-194 193 0
-195 173 31 191 131 194 0
195 -173 0
195 -31 0
195 -191 0
195 -131 0
195 -194 0
196 -175 -195 0
-196 175 0
-196 195 0
197 -179 -190 0
-197 179 0
-197 190 0
-198 181 196 176 197 0
198 -181 0
198 -196 0
198 -176 0
198 -197 0
199 -183 -198 0
-199 183 0
-199 198 0
-200 185 199 0
200 -185 0
200 -199 0
201 -202 -200 0
-201 202 0
-201 200 0
203 -204 -185 0
-203 204 0
-203 185 0
205 -206 -185 0
-205 206 0
-205 185 0
-207 73 205 41 43 70 0
207 -73 0
207 -205 0
207 -41 0
207 -43 0
207 -70 0
208 -165 -207 0
-208 165 0
-208 207 0
-209 169 203 208 0
209 -169 0
209 -203 0
209 -208 0
210 -171 -209 0
-210 171 0
-210 209 0
-211 173 31 191 131 210 0
211 -173 0
211 -31 0
211 -191 0
211 -131 0
211 -210 0
212 -175 -211 0
-212 175 0
-212 211 0
-213 181 212 176 197 0
213 -181 0
213 -212 0
213 -176 0
213 -197 0
214 -215 -213 0
-214 215 0
-214 213 0
-216 37 214 0
216 -37 0
216 -214 0
217 -36 -216 0
-217 36 0
-217 216 0
-218 169 203 0
218 -169 0
218 -203 0
219 -171 -218 0
-219 171 0
-219 218 0
-220 173 31 191 131 219 0
220 -173 0
220 -31 0
220 -191 0
220 -131 0
220 -219 0
221 -175 -220 0
-221 175 0
-221 220 0
-222 181 221 176 197 0
222 -181 0
222 -221 0
222 -176 0
222 -197 0
223 -224 -222 0
-223 224 0
-223 222 0
225 -171 -169 0
-225 171 0
-225 169 0
-226 173 31 191 131 225 0
226 -173 0
226 -31 0
226 -191 0
226 -131 0
226 -225 0
227 -175 -226 0
-227 175 0
-227 226 0
-228 181 227 176 197 0
228 -181 0
228 -227 0
228 -176 0
228 -197 0
229 -183 -228 0
-229 183 0
-229 228 0
-230 185 229 0
230 -185 0
230 -229 0
231 -206 -230 0
-231 206 0
-231 230 0
232 -233 -222 0
-232 233 0
-232 222 0
-234 48 232 0
234 -48 0
234 -232 0
235 -47 -234 0
-235 47 0
-235 234 0
-236 50 235 0
236 -50 0
236 -235 0
237 -52 -236 0
-237 52 0
-237 236 0
-238 54 237 0
238 -54 0
238 -237 0
239 -56 -238 0
-239 56 0
-239 238 0
-240 58 239 0
240 -58 0
240 -239 0
241 -60 -240 0
-241 60 0
-241 240 0
-242 69 241 66 0
242 -69 0
242 -241 0
242 -66 0
243 -71 -242 0
-243 71 0
-243 242 0
-244 73 223 231 41 43 243 0
244 -73 0
244 -223 0
244 -231 0
244 -41 0
244 -43 0
244 -243 0
245 -75 -244 0
-245 75 0
-245 244 0
-246 77 245 0
246 -77 0
246 -245 0
247 -79 -246 0
-247 79 0
-247 246 0
-248 73 205 41 43 0
248 -73 0
248 -205 0
248 -41 0
248 -43 0
249 -165 -248 0
-249 165 0
-249 248 0
-250 169 203 249 0
250 -169 0
250 -203 0
250 -249 0
251 -171 -250 0
-251 171 0
-251 250 0
-252 173 31 191 131 251 0
252 -173 0
252 -31 0
252 -191 0
252 -131 0
252 -251 0
253 -175 -252 0
-253 175 0
-253 252 0
-254 181 253 176 197 0
254 -181 0
254 -253 0
254 -176 0
254 -197 0
255 -233 -254 0
-255 233 0
-255 254 0
-256 48 255 0
256 -48 0
256 -255 0
257 -47 -256 0
-257 47 0
-257 256 0
-258 50 257 0
258 -50 0
258 -257 0
259 -52 -258 0
-259 52 0
-259 258 0
-260 73 223 231 41 43 0
260 -73 0
260 -223 0
260 -231 0
260 -41 0
260 -43 0
261 -84 -260 0
-261 84 0
-261 260 0
-262 54 259 261 0
262 -54 0
262 -259 0
262 -261 0
263 -56 -262 0
-263 56 0
-263 262 0
-264 58 263 0
264 -58 0
264 -263 0
265 -60 -264 0
-265 60 0
-265 264 0
266 -90 -260 0
-266 90 0
-266 260 0
-267 65 61 266 0
267 -65 0
267 -61 0
267 -266 0
268 -67 -267 0
-268 67 0
-268 267 0
269 -94 -260 0
-269 94 0
-269 260 0
-270 69 265 268 269 0
270 -69 0
270 -265 0
270 -268 0
270 -269 0
271 -97 -270 0
-271 97 0
-271 270 0
-272 73 205 41 43 109 0
272 -73 0
272 -205 0
272 -41 0
272 -43 0
272 -109 0
273 -165 -272 0
-273 165 0
-273 272 0
-274 169 203 273 0
274 -169 0
274 -203 0
274 -273 0
275 -171 -274 0
-275 171 0
-275 274 0
-276 173 31 191 131 275 0
276 -173 0
276 -31 0
276 -191 0
276 -131 0
276 -275 0
277 -175 -276 0
-277 175 0
-277 276 0
-278 181 277 176 197 0
278 -181 0
278 -277 0
278 -176 0
278 -197 0
279 -233 -278 0
-279 233 0
-279 278 0
-280 69 100 268 269 0
280 -69 0
280 -100 0
280 -268 0
280 -269 0
281 -103 -280 0
-281 103 0
-281 280 0
-282 48 279 281 0
282 -48 0
282 -279 0
282 -281 0
283 -47 -282 0
-283 47 0
-283 282 0
-284 50 98 283 0
284 -50 0
284 -98 0
284 -283 0
285 -52 -284 0
-285 52 0
-285 284 0
-286 73 223 231 41 43 109 0
286 -73 0
286 -223 0
286 -231 0
286 -41 0
286 -43 0
286 -109 0
287 -84 -286 0
-287 84 0
-287 286 0
-288 54 285 287 0
288 -54 0
288 -285 0
288 -287 0
289 -114 -288 0
-289 114 0
-289 288 0
290 -116 -244 0
-290 116 0
-290 244 0
-291 118 201 217 38 247 80 271 289 290 0
291 -118 0
291 -201 0
291 -217 0
291 -38 0
291 -247 0
291 -80 0
291 -271 0
291 -289 0
291 -290 0
292 -126 -291 0
-292 126 0
-292 291 0
-293 128 292 0
293 -128 0
293 -292 0
294 -295 -293 0
-294 295 0
-294 293 0
296 -297 -133 0
-296 297 0
-296 133 0
-298 299 10 24 186 188 294 296 0
298 -299 0
298 -10 0
298 -24 0
298 -186 0
298 -188 0
298 -294 0
298 -296 0
300 -301 -298 0
-300 301 0
-300 298 0
302 -187 -185 0
-302 187 0
-302 185 0
303 -202 -185 0
-303 202 0
-303 185 0
304 -75 -207 0
-304 75 0
-304 207 0
-305 77 304 0
305 -77 0
305 -304 0
306 -79 -305 0
-306 79 0
-306 305 0
307 -84 -248 0
-307 84 0
-307 248 0
-308 54 51 307 0
308 -54 0
308 -51 0
308 -307 0
309 -56 -308 0
-309 56 0
-309 308 0
-310 58 309 0
310 -58 0
310 -309 0
311 -60 -310 0
-311 60 0
-311 310 0
312 -90 -248 0
-312 90 0
-312 248 0
-313 65 61 312 0
313 -65 0
313 -61 0
313 -312 0
314 -67 -313 0
-314 67 0
-314 313 0
315 -94 -248 0
-315 94 0
-315 248 0
-316 69 311 314 315 0
316 -69 0
316 -311 0
316 -314 0
316 -315 0
317 -97 -316 0
-317 97 0
-317 316 0
-318 69 100 314 315 0
318 -69 0
318 -100 0
318 -314 0
318 -315 0
319 -103 -318 0
-319 103 0
-319 318 0
-320 48 319 0
320 -48 0
320 -319 0
321 -47 -320 0
-321 47 0
-321 320 0
-322 50 98 321 0
322 -50 0
322 -98 0
322 -321 0
323 -52 -322 0
-323 52 0
-323 322 0
324 -84 -272 0
-324 84 0
-324 272 0
-325 54 323 324 0
325 -54 0
325 -323 0
325 -324 0
326 -114 -325 0
-326 114 0
-326 325 0
327 -116 -207 0
-327 116 0
-327 207 0
-328 118 303 35 38 306 80 317 326 327 0
328 -118 0
328 -303 0
328 -35 0
328 -38 0
328 -306 0
328 -80 0
328 -317 0
328 -326 0
328 -327 0
329 -126 -328 0
-329 126 0
-329 328 0
-330 128 329 0
330 -128 0
330 -329 0
331 -295 -330 0
-331 295 0
-331 330 0
-332 299 10 24 302 188 331 296 0
332 -299 0
332 -10 0
332 -24 0
332 -302 0
332 -188 0
332 -331 0
332 -296 0
333 -334 -332 0
-333 334 0
-333 332 0
335 -336 -332 0
-335 336 0
-335 332 0
337 -338 -332 0
-337 338 0
-337 332 0
-339 30 337 26 0
339 -30 0
339 -337 0
339 -26 0
340 -32 -339 0
-340 32 0
-340 339 0
341 -342 -332 0
-341 342 0
-341 332 0
343 -34 -339 0
-343 34 0
-343 339 0
344 -295 -128 0
-344 295 0
-344 128 0
-345 299 10 24 302 188 344 296 0
345 -299 0
345 -10 0
345 -24 0
345 -302 0
345 -188 0
345 -344 0
345 -296 0
346 -347 -345 0
-346 347 0
-346 345 0
-348 54 346 51 0
348 -54 0
348 -346 0
348 -51 0
349 -56 -348 0
-349 56 0
-349 348 0
-350 58 349 0
350 -58 0
350 -349 0
351 -60 -350 0
-351 60 0
-351 350 0
-352 69 351 66 0
352 -69 0
352 -351 0
352 -66 0
353 -71 -352 0
-353 71 0
-353 352 0
-354 73 205 41 43 353 0
354 -73 0
354 -205 0
354 -41 0
354 -43 0
354 -353 0
355 -75 -354 0
-355 75 0
-355 354 0
-356 77 355 0
356 -77 0
356 -355 0
357 -79 -356 0
-357 79 0
-357 356 0
-358 54 346 51 307 0
358 -54 0
358 -346 0
358 -51 0
358 -307 0
359 -56 -358 0
-359 56 0
-359 358 0
-360 58 359 0
360 -58 0
360 -359 0
361 -60 -360 0
-361 60 0
-361 360 0
-362 69 361 314 315 0
362 -69 0
362 -361 0
362 -314 0
362 -315 0
363 -97 -362 0
-363 97 0
-363 362 0
-364 54 346 323 324 0
364 -54 0
364 -346 0
364 -323 0
364 -324 0
365 -114 -364 0
-365 114 0
-365 364 0
366 -116 -354 0
-366 116 0
-366 354 0
-367 118 303 35 38 357 80 363 365 366 0
367 -118 0
367 -303 0
367 -35 0
367 -38 0
367 -357 0
367 -80 0
367 -363 0
367 -365 0
367 -366 0
368 -120 -367 0
-368 120 0
-368 367 0
-369 122 341 343 368 0
369 -122 0
369 -341 0
369 -343 0
369 -368 0
370 -124 -369 0
-370 124 0
-370 369 0
-371 299 10 24 302 188 296 0
371 -299 0
371 -10 0
371 -24 0
371 -302 0
371 -188 0
371 -296 0
372 -373 -371 0
-372 373 0
-372 371 0
374 -347 -371 0
-374 347 0
-374 371 0
-375 54 374 51 0
375 -54 0
375 -374 0
375 -51 0
376 -56 -375 0
-376 56 0
-376 375 0
-377 58 376 0
377 -58 0
377 -376 0
378 -60 -377 0
-378 60 0
-378 377 0
-379 69 378 66 0
379 -69 0
379 -378 0
379 -66 0
380 -71 -379 0
-380 71 0
-380 379 0
-381 73 205 41 43 380 0
381 -73 0
381 -205 0
381 -41 0
381 -43 0
381 -380 0
382 -75 -381 0
-382 75 0
-382 381 0
-383 77 382 0
383 -77 0
383 -382 0
384 -79 -383 0
-384 79 0
-384 383 0
-385 54 374 51 307 0
385 -54 0
385 -374 0
385 -51 0
385 -307 0
386 -56 -385 0
-386 56 0
-386 385 0
-387 58 386 0
387 -58 0
387 -386 0
388 -60 -387 0
-388 60 0
-388 387 0
-389 69 388 314 315 0
389 -69 0
389 -388 0
389 -314 0
389 -315 0
390 -97 -389 0
-390 97 0
-390 389 0
-391 54 374 323 324 0
391 -54 0
391 -374 0
391 -323 0
391 -324 0
392 -114 -391 0
-392 114 0
-392 391 0
393 -116 -381 0
-393 116 0
-393 381 0
-394 118 303 35 38 384 80 390 392 393 0
394 -118 0
394 -303 0
394 -35 0
394 -38 0
394 -384 0
394 -80 0
394 -390 0
394 -392 0
394 -393 0
395 -126 -394 0
-395 126 0
-395 394 0
-396 128 372 395 0
396 -128 0
396 -372 0
396 -395 0
397 -130 -396 0
-397 130 0
-397 396 0
-398 118 303 35 38 134 80 0
398 -118 0
398 -303 0
398 -35 0
398 -38 0
398 -134 0
398 -80 0
399 -126 -398 0
-399 126 0
-399 398 0
-400 128 399 0
400 -128 0
400 -399 0
401 -295 -400 0
-401 295 0
-401 400 0
-402 299 10 24 302 188 401 296 0
402 -299 0
402 -10 0
402 -24 0
402 -302 0
402 -188 0
402 -401 0
402 -296 0
403 -347 -402 0
-403 347 0
-403 402 0
404 -137 -398 0
-404 137 0
-404 398 0
-405 48 404 0
405 -48 0
405 -404 0
406 -47 -405 0
-406 47 0
-406 405 0
-407 50 406 0
407 -50 0
407 -406 0
408 -52 -407 0
-408 52 0
-408 407 0
409 -143 -398 0
-409 143 0
-409 398 0
-410 54 403 408 409 0
410 -54 0
410 -403 0
410 -408 0
410 -409 0
411 -56 -410 0
-411 56 0
-411 410 0
-412 58 411 0
412 -58 0
412 -411 0
413 -60 -412 0
-413 60 0
-413 412 0
-414 54 346 149 0
414 -54 0
414 -346 0
414 -149 0
415 -114 -414 0
-415 114 0
-415 414 0
-416 118 303 35 38 134 80 415 0
416 -118 0
416 -303 0
416 -35 0
416 -38 0
416 -134 0
416 -80 0
416 -415 0
417 -154 -416 0
-417 154 0
-417 416 0
-418 63 417 0
418 -63 0
418 -417 0
419 -62 -418 0
-419 62 0
-419 418 0
420 -158 -416 0
-420 158 0
-420 416 0
-421 65 419 420 0
421 -65 0
421 -419 0
421 -420 0
422 -67 -421 0
-422 67 0
-422 421 0
-423 69 413 422 0
423 -69 0
423 -413 0
423 -422 0
424 -71 -423 0
-424 71 0
-424 423 0
-425 73 205 41 43 424 0
425 -73 0
425 -205 0
425 -41 0
425 -43 0
425 -424 0
426 -165 -425 0
-426 165 0
-426 425 0
427 -167 -367 0
-427 167 0
-427 367 0
-428 169 203 426 427 0
428 -169 0
428 -203 0
428 -426 0
428 -427 0
429 -171 -428 0
-429 171 0
-429 428 0
-430 173 335 340 370 397 131 429 0
430 -173 0
430 -335 0
430 -340 0
430 -370 0
430 -397 0
430 -131 0
430 -429 0
431 -175 -430 0
-431 175 0
-431 430 0
432 -177 -339 0
-432 177 0
-432 339 0
433 -179 -369 0
-433 179 0
-433 369 0
-434 181 333 431 432 433 0
434 -181 0
434 -333 0
434 -431 0
434 -432 0
434 -433 0
435 -436 -434 0
-435 436 0
-435 434 0
-437 438 300 435 0
437 -438 0
437 -300 0
437 -435 0
439 -437 -440 0
-439 437 0
-439 440 0
439 0
