c BC-S1.2
p cnf 636 2038
1 -2 -3 0
-1 2 0
-1 3 0
-4 5 1 0
4 -5 0
4 -1 0
6 -7 -4 0
-6 7 0
-6 4 0
8 -9 -10 0
-8 9 0
-8 10 0
11 -12 -13 0
-11 12 0
-11 13 0
-14 15 8 11 0
14 -15 0
14 -8 0
14 -11 0
16 -17 -14 0
-16 17 0
-16 14 0
-18 19 16 0
18 -19 0
18 -16 0
20 -21 -18 0
-20 21 0
-20 18 0
-22 23 20 0
22 -23 0
22 -20 0
24 -25 -22 0
-24 25 0
-24 22 0
26 -27 -13 0
-26 27 0
-26 13 0
-28 29 6 24 26 0
28 -29 0
28 -6 0
28 -24 0
28 -26 0
30 -31 -28 0
-30 31 0
-30 28 0
-32 15 11 0
32 -15 0
32 -11 0
33 -17 -32 0
-33 17 0
-33 32 0
-34 19 33 0
34 -19 0
34 -33 0
35 -21 -34 0
-35 21 0
-35 34 0
-36 23 35 0
36 -23 0
36 -35 0
37 -25 -36 0
-37 25 0
-37 36 0
-38 29 6 37 26 0
38 -29 0
38 -6 0
38 -37 0
38 -26 0
39 -40 -38 0
-39 40 0
-39 38 0
-41 10 39 0
41 -10 0
41 -39 0
42 -43 -41 0
-42 43 0
-42 41 0
-44 45 42 0
44 -45 0
44 -42 0
46 -47 -44 0
-46 47 0
-46 44 0
-48 49 30 46 0
48 -49 0
48 -30 0
48 -46 0
50 -51 -48 0
-50 51 0
-50 48 0
52 -47 -45 0
-52 47 0
-52 45 0
-53 49 52 0
53 -49 0
53 -52 0
54 -55 -53 0
-54 55 0
-54 53 0
-56 5 54 1 0
56 -5 0
56 -54 0
56 -1 0
57 -7 -56 0
-57 7 0
-57 56 0
-58 29 57 26 0
58 -29 0
58 -57 0
58 -26 0
59 -40 -58 0
-59 40 0
-59 58 0
-60 10 59 0
60 -10 0
60 -59 0
61 -9 -60 0
-61 9 0
-61 60 0
-62 15 61 11 0
62 -15 0
62 -61 0
62 -11 0
63 -17 -62 0
-63 17 0
-63 62 0
-64 19 63 0
64 -19 0
64 -63 0
65 -21 -64 0
-65 21 0
-65 64 0
-66 23 65 0
66 -23 0
66 -65 0
67 -68 -66 0
-67 68 0
-67 66 0
69 -55 -49 0
-69 55 0
-69 49 0
-70 5 69 1 0
70 -5 0
70 -69 0
70 -1 0
71 -7 -70 0
-71 7 0
-71 70 0
-72 29 71 37 26 0
72 -29 0
72 -71 0
72 -37 0
72 -26 0
73 -40 -72 0
-73 40 0
-73 72 0
-74 10 73 0
74 -10 0
74 -73 0
75 -43 -74 0
-75 43 0
-75 74 0
-76 45 75 0
76 -45 0
76 -75 0
77 -78 -76 0
-77 78 0
-77 76 0
-79 80 77 0
79 -80 0
79 -77 0
81 -82 -79 0
-81 82 0
-81 79 0
-83 84 50 67 81 0
83 -84 0
83 -50 0
83 -67 0
83 -81 0
85 -86 -83 0
-85 86 0
-85 83 0
87 -43 -10 0
-87 43 0
-87 10 0
-88 45 87 0
88 -45 0
88 -87 0
89 -47 -88 0
-89 47 0
-89 88 0
-90 49 89 0
90 -49 0
90 -89 0
91 -51 -90 0
-91 51 0
-91 90 0
92 -68 -22 0
-92 68 0
-92 22 0
93 -78 -88 0
-93 78 0
-93 88 0
-94 80 93 0
94 -80 0
94 -93 0
95 -82 -94 0
-95 82 0
-95 94 0
-96 84 91 92 95 0
96 -84 0
96 -91 0
96 -92 0
96 -95 0
97 -98 -96 0
-97 98 0
-97 96 0
99 -55 -90 0
-99 55 0
-99 90 0
-100 5 99 1 0
100 -5 0
100 -99 0
100 -1 0
101 -7 -100 0
-101 7 0
-101 100 0
-102 29 97 101 24 26 0
102 -29 0
102 -97 0
102 -101 0
102 -24 0
102 -26 0
103 -104 -102 0
-103 104 0
-103 102 0
105 -51 -49 0
-105 51 0
-105 49 0
106 -68 -36 0
-106 68 0
-106 36 0
107 -82 -80 0
-107 82 0
-107 80 0
-108 84 105 106 107 0
108 -84 0
108 -105 0
108 -106 0
108 -107 0
109 -98 -108 0
-109 98 0
-109 108 0
-110 29 109 71 37 26 0
110 -29 0
110 -109 0
110 -71 0
110 -37 0
110 -26 0
111 -40 -110 0
-111 40 0
-111 110 0
-112 10 111 0
112 -10 0
112 -111 0
113 -43 -112 0
-113 43 0
-113 112 0
-114 45 113 0
114 -45 0
114 -113 0
115 -116 -114 0
-115 116 0
-115 114 0
-117 84 105 106 0
117 -84 0
117 -105 0
117 -106 0
118 -98 -117 0
-118 98 0
-118 117 0
-119 29 118 71 37 26 0
119 -29 0
119 -118 0
119 -71 0
119 -37 0
119 -26 0
120 -40 -119 0
-120 40 0
-120 119 0
-121 10 120 0
121 -10 0
121 -120 0
122 -43 -121 0
-122 43 0
-122 121 0
-123 45 122 0
123 -45 0
123 -122 0
124 -78 -123 0
-124 78 0
-124 123 0
-125 80 124 0
125 -80 0
125 -124 0
126 -127 -125 0
-126 127 0
-126 125 0
-128 129 115 126 0
128 -129 0
128 -115 0
128 -126 0
130 -131 -128 0
-130 131 0
-130 128 0
132 -68 -23 0
-132 68 0
-132 23 0
-133 84 91 132 95 0
133 -84 0
133 -91 0
133 -132 0
133 -95 0
134 -98 -133 0
-134 98 0
-134 133 0
135 -25 -23 0
-135 25 0
-135 23 0
-136 29 134 57 135 26 0
136 -29 0
136 -134 0
136 -57 0
136 -135 0
136 -26 0
137 -40 -136 0
-137 40 0
-137 136 0
-138 10 137 0
138 -10 0
138 -137 0
139 -9 -138 0
-139 9 0
-139 138 0
140 -141 -23 0
-140 141 0
-140 23 0
-142 15 139 140 11 0
142 -15 0
142 -139 0
142 -140 0
142 -11 0
143 -17 -142 0
-143 17 0
-143 142 0
-144 19 143 0
144 -19 0
144 -143 0
145 -146 -144 0
-145 146 0
-145 144 0
147 -148 -13 0
-147 148 0
-147 13 0
-149 150 85 103 130 145 147 0
149 -150 0
149 -85 0
149 -103 0
149 -130 0
149 -145 0
149 -147 0
151 -152 -149 0
-151 152 0
-151 149 0
-153 154 151 0
153 -154 0
153 -151 0
155 -156 -153 0
-155 156 0
-155 153 0
-157 158 155 0
157 -158 0
157 -155 0
159 -160 -157 0
-159 160 0
-159 157 0
-161 162 159 0
161 -162 0
161 -159 0
163 -164 -161 0
-163 164 0
-163 161 0
165 -127 -94 0
-165 127 0
-165 94 0
-166 129 165 0
166 -129 0
166 -165 0
167 -131 -166 0
-167 131 0
-167 166 0
-168 15 8 140 11 0
168 -15 0
168 -8 0
168 -140 0
168 -11 0
169 -17 -168 0
-169 17 0
-169 168 0
-170 19 169 0
170 -19 0
170 -169 0
171 -146 -170 0
-171 146 0
-171 170 0
-172 150 167 171 147 0
172 -150 0
172 -167 0
172 -171 0
172 -147 0
173 -174 -172 0
-173 174 0
-173 172 0
175 -127 -80 0
-175 127 0
-175 80 0
-176 129 175 0
176 -129 0
176 -175 0
177 -131 -176 0
-177 131 0
-177 176 0
-178 15 140 11 0
178 -15 0
178 -140 0
178 -11 0
179 -17 -178 0
-179 17 0
-179 178 0
-180 19 179 0
180 -19 0
180 -179 0
181 -146 -180 0
-181 146 0
-181 180 0
-182 150 177 181 147 0
182 -150 0
182 -177 0
182 -181 0
182 -147 0
183 -184 -182 0
-183 184 0
-183 182 0
-185 10 183 0
185 -10 0
185 -183 0
186 -43 -185 0
-186 43 0
-186 185 0
-187 45 173 186 0
187 -45 0
187 -173 0
187 -186 0
188 -47 -187 0
-188 47 0
-188 187 0
-189 49 188 0
189 -49 0
189 -188 0
190 -51 -189 0
-190 51 0
-190 189 0
191 -116 -45 0
-191 116 0
-191 45 0
-192 129 191 165 0
192 -129 0
192 -191 0
192 -165 0
193 -131 -192 0
-193 131 0
-193 192 0
-194 150 193 147 0
194 -150 0
194 -193 0
194 -147 0
195 -184 -194 0
-195 184 0
-195 194 0
-196 10 195 0
196 -10 0
196 -195 0
197 -9 -196 0
-197 9 0
-197 196 0
-198 15 197 11 0
198 -15 0
198 -197 0
198 -11 0
199 -17 -198 0
-199 17 0
-199 198 0
-200 19 199 0
200 -19 0
200 -199 0
201 -21 -200 0
-201 21 0
-201 200 0
-202 23 201 0
202 -23 0
202 -201 0
203 -68 -202 0
-203 68 0
-203 202 0
-204 150 177 171 147 0
204 -150 0
204 -177 0
204 -171 0
204 -147 0
205 -174 -204 0
-205 174 0
-205 204 0
-206 45 205 186 0
206 -45 0
206 -205 0
206 -186 0
207 -78 -206 0
-207 78 0
-207 206 0
-208 80 207 0
208 -80 0
208 -207 0
209 -82 -208 0
-209 82 0
-209 208 0
210 -116 -88 0
-210 116 0
-210 88 0
-211 129 210 165 0
211 -129 0
211 -210 0
211 -165 0
212 -131 -211 0
-212 131 0
-212 211 0
-213 150 212 171 147 0
213 -150 0
213 -212 0
213 -171 0
213 -147 0
214 -152 -213 0
-214 152 0
-214 213 0
-215 154 214 0
215 -154 0
215 -214 0
216 -217 -215 0
-216 217 0
-216 215 0
-218 84 190 203 209 216 0
218 -84 0
218 -190 0
218 -203 0
218 -209 0
218 -216 0
219 -98 -218 0
-219 98 0
-219 218 0
220 -217 -154 0
-220 217 0
-220 154 0
-221 84 91 92 95 220 0
221 -84 0
221 -91 0
221 -92 0
221 -95 0
221 -220 0
222 -86 -221 0
-222 86 0
-222 221 0
-223 150 222 212 171 147 0
223 -150 0
223 -222 0
223 -212 0
223 -171 0
223 -147 0
224 -225 -223 0
-224 225 0
-224 223 0
-226 84 105 92 95 220 0
226 -84 0
226 -105 0
226 -92 0
226 -95 0
226 -220 0
227 -86 -226 0
-227 86 0
-227 226 0
-228 150 227 167 171 147 0
228 -150 0
228 -227 0
228 -167 0
228 -171 0
228 -147 0
229 -174 -228 0
-229 174 0
-229 228 0
-230 84 105 106 107 220 0
230 -84 0
230 -105 0
230 -106 0
230 -107 0
230 -220 0
231 -86 -230 0
-231 86 0
-231 230 0
-232 150 231 177 181 147 0
232 -150 0
232 -231 0
232 -177 0
232 -181 0
232 -147 0
233 -184 -232 0
-233 184 0
-233 232 0
-234 10 233 0
234 -10 0
234 -233 0
235 -43 -234 0
-235 43 0
-235 234 0
-236 45 229 235 0
236 -45 0
236 -229 0
236 -235 0
237 -47 -236 0
-237 47 0
-237 236 0
-238 49 237 0
238 -49 0
238 -237 0
239 -55 -238 0
-239 55 0
-239 238 0
-240 5 224 239 1 0
240 -5 0
240 -224 0
240 -239 0
240 -1 0
241 -7 -240 0
-241 7 0
-241 240 0
-242 84 91 95 220 0
242 -84 0
242 -91 0
242 -95 0
242 -220 0
243 -86 -242 0
-243 86 0
-243 242 0
-244 150 243 193 147 0
244 -150 0
244 -243 0
244 -193 0
244 -147 0
245 -184 -244 0
-245 184 0
-245 244 0
-246 10 245 0
246 -10 0
246 -245 0
247 -9 -246 0
-247 9 0
-247 246 0
-248 15 247 11 0
248 -15 0
248 -247 0
248 -11 0
249 -17 -248 0
-249 17 0
-249 248 0
-250 19 249 0
250 -19 0
250 -249 0
251 -21 -250 0
-251 21 0
-251 250 0
-252 23 251 0
252 -23 0
252 -251 0
253 -25 -252 0
-253 25 0
-253 252 0
-254 29 219 241 253 26 0
254 -29 0
254 -219 0
254 -241 0
254 -253 0
254 -26 0
255 -256 -254 0
-255 256 0
-255 254 0
-257 84 50 67 81 220 0
257 -84 0
257 -50 0
257 -67 0
257 -81 0
257 -220 0
258 -86 -257 0
-258 86 0
-258 257 0
259 -98 -221 0
-259 98 0
-259 221 0
-260 29 259 101 24 26 0
260 -29 0
260 -259 0
260 -101 0
260 -24 0
260 -26 0
261 -104 -260 0
-261 104 0
-261 260 0
262 -98 -230 0
-262 98 0
-262 230 0
-263 29 262 71 37 26 0
263 -29 0
263 -262 0
263 -71 0
263 -37 0
263 -26 0
264 -40 -263 0
-264 40 0
-264 263 0
-265 10 264 0
265 -10 0
265 -264 0
266 -43 -265 0
-266 43 0
-266 265 0
-267 45 266 0
267 -45 0
267 -266 0
268 -116 -267 0
-268 116 0
-268 267 0
-269 84 105 106 220 0
269 -84 0
269 -105 0
269 -106 0
269 -220 0
270 -98 -269 0
-270 98 0
-270 269 0
-271 29 270 71 37 26 0
271 -29 0
271 -270 0
271 -71 0
271 -37 0
271 -26 0
272 -40 -271 0
-272 40 0
-272 271 0
-273 10 272 0
273 -10 0
273 -272 0
274 -43 -273 0
-274 43 0
-274 273 0
-275 45 274 0
275 -45 0
275 -274 0
276 -78 -275 0
-276 78 0
-276 275 0
-277 80 276 0
277 -80 0
277 -276 0
278 -127 -277 0
-278 127 0
-278 277 0
-279 129 268 278 0
279 -129 0
279 -268 0
279 -278 0
280 -131 -279 0
-280 131 0
-280 279 0
-281 84 91 132 95 220 0
281 -84 0
281 -91 0
281 -132 0
281 -95 0
281 -220 0
282 -98 -281 0
-282 98 0
-282 281 0
-283 29 282 57 135 26 0
283 -29 0
283 -282 0
283 -57 0
283 -135 0
283 -26 0
284 -40 -283 0
-284 40 0
-284 283 0
-285 10 284 0
285 -10 0
285 -284 0
286 -9 -285 0
-286 9 0
-286 285 0
-287 15 286 140 11 0
287 -15 0
287 -286 0
287 -140 0
287 -11 0
288 -17 -287 0
-288 17 0
-288 287 0
-289 19 288 0
289 -19 0
289 -288 0
290 -146 -289 0
-290 146 0
-290 289 0
-291 150 258 261 280 290 147 0
291 -150 0
291 -258 0
291 -261 0
291 -280 0
291 -290 0
291 -147 0
292 -293 -291 0
-292 293 0
-292 291 0
294 -225 -213 0
-294 225 0
-294 213 0
-295 5 294 1 0
295 -5 0
295 -294 0
295 -1 0
296 -7 -295 0
-296 7 0
-296 295 0
297 -25 -202 0
-297 25 0
-297 202 0
-298 29 296 297 26 0
298 -29 0
298 -296 0
298 -297 0
298 -26 0
299 -31 -298 0
-299 31 0
-299 298 0
300 -104 -28 0
-300 104 0
-300 28 0
-301 29 6 135 26 0
301 -29 0
301 -6 0
301 -135 0
301 -26 0
302 -40 -301 0
-302 40 0
-302 301 0
-303 10 302 0
303 -10 0
303 -302 0
304 -9 -303 0
-304 9 0
-304 303 0
-305 15 304 140 11 0
305 -15 0
305 -304 0
305 -140 0
305 -11 0
306 -17 -305 0
-306 17 0
-306 305 0
-307 19 306 0
307 -19 0
307 -306 0
308 -146 -307 0
-308 146 0
-308 307 0
-309 150 300 177 308 147 0
309 -150 0
309 -300 0
309 -177 0
309 -308 0
309 -147 0
310 -174 -309 0
-310 174 0
-310 309 0
311 -225 -182 0
-311 225 0
-311 182 0
-312 5 311 1 0
312 -5 0
312 -311 0
312 -1 0
313 -7 -312 0
-313 7 0
-313 312 0
-314 29 313 37 26 0
314 -29 0
314 -313 0
314 -37 0
314 -26 0
315 -40 -314 0
-315 40 0
-315 314 0
316 -104 -38 0
-316 104 0
-316 38 0
-317 150 316 177 181 147 0
317 -150 0
317 -316 0
317 -177 0
317 -181 0
317 -147 0
318 -184 -317 0
-318 184 0
-318 317 0
-319 10 315 318 0
319 -10 0
319 -315 0
319 -318 0
320 -43 -319 0
-320 43 0
-320 319 0
-321 45 310 320 0
321 -45 0
321 -310 0
321 -320 0
322 -47 -321 0
-322 47 0
-322 321 0
-323 49 299 322 0
323 -49 0
323 -299 0
323 -322 0
324 -51 -323 0
-324 51 0
-324 323 0
325 -225 -194 0
-325 225 0
-325 194 0
326 -174 -194 0
-326 174 0
-326 194 0
-327 45 326 0
327 -45 0
327 -326 0
328 -47 -327 0
-328 47 0
-328 327 0
-329 49 328 0
329 -49 0
329 -328 0
330 -55 -329 0
-330 55 0
-330 329 0
-331 5 325 330 1 0
331 -5 0
331 -325 0
331 -330 0
331 -1 0
332 -7 -331 0
-332 7 0
-332 331 0
-333 29 332 26 0
333 -29 0
333 -332 0
333 -26 0
334 -40 -333 0
-334 40 0
-334 333 0
335 -104 -58 0
-335 104 0
-335 58 0
336 -78 -45 0
-336 78 0
-336 45 0
-337 80 336 0
337 -80 0
337 -336 0
338 -127 -337 0
-338 127 0
-338 337 0
-339 129 191 338 0
339 -129 0
339 -191 0
339 -338 0
340 -131 -339 0
-340 131 0
-340 339 0
-341 150 335 340 147 0
341 -150 0
341 -335 0
341 -340 0
341 -147 0
342 -184 -341 0
-342 184 0
-342 341 0
-343 10 334 342 0
343 -10 0
343 -334 0
343 -342 0
344 -9 -343 0
-344 9 0
-344 343 0
-345 15 344 11 0
345 -15 0
345 -344 0
345 -11 0
346 -17 -345 0
-346 17 0
-346 345 0
-347 19 346 0
347 -19 0
347 -346 0
348 -21 -347 0
-348 21 0
-348 347 0
-349 23 348 0
349 -23 0
349 -348 0
350 -68 -349 0
-350 68 0
-350 349 0
-351 29 71 24 26 0
351 -29 0
351 -71 0
351 -24 0
351 -26 0
352 -104 -351 0
-352 104 0
-352 351 0
-353 29 71 135 26 0
353 -29 0
353 -71 0
353 -135 0
353 -26 0
354 -40 -353 0
-354 40 0
-354 353 0
-355 10 354 0
355 -10 0
355 -354 0
356 -9 -355 0
-356 9 0
-356 355 0
-357 15 356 140 11 0
357 -15 0
357 -356 0
357 -140 0
357 -11 0
358 -17 -357 0
-358 17 0
-358 357 0
-359 19 358 0
359 -19 0
359 -358 0
360 -146 -359 0
-360 146 0
-360 359 0
-361 150 352 177 360 147 0
361 -150 0
361 -352 0
361 -177 0
361 -360 0
361 -147 0
362 -174 -361 0
-362 174 0
-362 361 0
-363 5 311 69 1 0
363 -5 0
363 -311 0
363 -69 0
363 -1 0
364 -7 -363 0
-364 7 0
-364 363 0
-365 29 364 37 26 0
365 -29 0
365 -364 0
365 -37 0
365 -26 0
366 -40 -365 0
-366 40 0
-366 365 0
367 -104 -72 0
-367 104 0
-367 72 0
-368 150 367 177 181 147 0
368 -150 0
368 -367 0
368 -177 0
368 -181 0
368 -147 0
369 -184 -368 0
-369 184 0
-369 368 0
-370 10 366 369 0
370 -10 0
370 -366 0
370 -369 0
371 -43 -370 0
-371 43 0
-371 370 0
-372 45 362 371 0
372 -45 0
372 -362 0
372 -371 0
373 -78 -372 0
-373 78 0
-373 372 0
-374 80 373 0
374 -80 0
374 -373 0
375 -82 -374 0
-375 82 0
-375 374 0
-376 29 101 24 26 0
376 -29 0
376 -101 0
376 -24 0
376 -26 0
377 -104 -376 0
-377 104 0
-377 376 0
378 -116 -76 0
-378 116 0
-378 76 0
379 -127 -79 0
-379 127 0
-379 79 0
-380 129 378 379 0
380 -129 0
380 -378 0
380 -379 0
381 -131 -380 0
-381 131 0
-381 380 0
-382 29 57 135 26 0
382 -29 0
382 -57 0
382 -135 0
382 -26 0
383 -40 -382 0
-383 40 0
-383 382 0
-384 10 383 0
384 -10 0
384 -383 0
385 -9 -384 0
-385 9 0
-385 384 0
-386 15 385 140 11 0
386 -15 0
386 -385 0
386 -140 0
386 -11 0
387 -17 -386 0
-387 17 0
-387 386 0
-388 19 387 0
388 -19 0
388 -387 0
389 -146 -388 0
-389 146 0
-389 388 0
-390 150 377 381 389 147 0
390 -150 0
390 -377 0
390 -381 0
390 -389 0
390 -147 0
391 -152 -390 0
-391 152 0
-391 390 0
-392 154 391 0
392 -154 0
392 -391 0
393 -217 -392 0
-393 217 0
-393 392 0
-394 84 324 350 375 393 0
394 -84 0
394 -324 0
394 -350 0
394 -375 0
394 -393 0
395 -396 -394 0
-395 396 0
-395 394 0
-397 398 395 0
397 -398 0
397 -395 0
399 -400 -397 0
-399 400 0
-399 397 0
-401 49 30 0
401 -49 0
401 -30 0
402 -51 -401 0
-402 51 0
-402 401 0
-403 15 356 11 0
403 -15 0
403 -356 0
403 -11 0
404 -17 -403 0
-404 17 0
-404 403 0
-405 19 404 0
405 -19 0
405 -404 0
406 -21 -405 0
-406 21 0
-406 405 0
-407 23 406 0
407 -23 0
407 -406 0
408 -68 -407 0
-408 68 0
-408 407 0
-409 84 402 408 220 0
409 -84 0
409 -402 0
409 -408 0
409 -220 0
410 -86 -409 0
-410 86 0
-410 409 0
-411 84 105 92 220 0
411 -84 0
411 -105 0
411 -92 0
411 -220 0
412 -98 -411 0
-412 98 0
-412 411 0
-413 29 412 71 24 26 0
413 -29 0
413 -412 0
413 -71 0
413 -24 0
413 -26 0
414 -104 -413 0
-414 104 0
-414 413 0
-415 84 105 132 220 0
415 -84 0
415 -105 0
415 -132 0
415 -220 0
416 -98 -415 0
-416 98 0
-416 415 0
-417 29 416 71 135 26 0
417 -29 0
417 -416 0
417 -71 0
417 -135 0
417 -26 0
418 -40 -417 0
-418 40 0
-418 417 0
-419 10 418 0
419 -10 0
419 -418 0
420 -9 -419 0
-420 9 0
-420 419 0
-421 15 420 140 11 0
421 -15 0
421 -420 0
421 -140 0
421 -11 0
422 -17 -421 0
-422 17 0
-422 421 0
-423 19 422 0
423 -19 0
423 -422 0
424 -146 -423 0
-424 146 0
-424 423 0
-425 150 410 414 177 424 147 0
425 -150 0
425 -410 0
425 -414 0
425 -177 0
425 -424 0
425 -147 0
426 -174 -425 0
-426 174 0
-426 425 0
427 -152 -182 0
-427 152 0
-427 182 0
-428 154 427 0
428 -154 0
428 -427 0
429 -217 -428 0
-429 217 0
-429 428 0
-430 84 105 106 429 0
430 -84 0
430 -105 0
430 -106 0
430 -429 0
431 -98 -430 0
-431 98 0
-431 430 0
432 -86 -269 0
-432 86 0
-432 269 0
-433 150 432 177 181 147 0
433 -150 0
433 -432 0
433 -177 0
433 -181 0
433 -147 0
434 -225 -433 0
-434 225 0
-434 433 0
-435 5 434 69 1 0
435 -5 0
435 -434 0
435 -69 0
435 -1 0
436 -7 -435 0
-436 7 0
-436 435 0
-437 29 431 436 37 26 0
437 -29 0
437 -431 0
437 -436 0
437 -37 0
437 -26 0
438 -40 -437 0
-438 40 0
-438 437 0
439 -31 -38 0
-439 31 0
-439 38 0
-440 49 439 0
440 -49 0
440 -439 0
441 -51 -440 0
-441 51 0
-441 440 0
-442 84 441 106 220 0
442 -84 0
442 -441 0
442 -106 0
442 -220 0
443 -86 -442 0
-443 86 0
-443 442 0
444 -104 -271 0
-444 104 0
-444 271 0
-445 150 443 444 177 181 147 0
445 -150 0
445 -443 0
445 -444 0
445 -177 0
445 -181 0
445 -147 0
446 -184 -445 0
-446 184 0
-446 445 0
-447 10 438 446 0
447 -10 0
447 -438 0
447 -446 0
448 -43 -447 0
-448 43 0
-448 447 0
-449 45 426 448 0
449 -45 0
449 -426 0
449 -448 0
450 -78 -449 0
-450 78 0
-450 449 0
-451 80 450 0
451 -80 0
451 -450 0
452 -453 -451 0
-452 453 0
-452 451 0
454 -51 -329 0
-454 51 0
-454 329 0
-455 150 177 147 0
455 -150 0
455 -177 0
455 -147 0
456 -174 -455 0
-456 174 0
-456 455 0
-457 45 456 0
457 -45 0
457 -456 0
458 -78 -457 0
-458 78 0
-458 457 0
-459 80 458 0
459 -80 0
459 -458 0
460 -82 -459 0
-460 82 0
-460 459 0
461 -152 -194 0
-461 152 0
-461 194 0
-462 154 461 0
462 -154 0
462 -461 0
463 -217 -462 0
-463 217 0
-463 462 0
-464 84 454 460 463 0
464 -84 0
464 -454 0
464 -460 0
464 -463 0
465 -98 -464 0
-465 98 0
-465 464 0
466 -225 -244 0
-466 225 0
-466 244 0
-467 84 105 95 220 0
467 -84 0
467 -105 0
467 -95 0
467 -220 0
468 -86 -467 0
-468 86 0
-468 467 0
-469 150 468 167 147 0
469 -150 0
469 -468 0
469 -167 0
469 -147 0
470 -174 -469 0
-470 174 0
-470 469 0
-471 45 470 0
471 -45 0
471 -470 0
472 -47 -471 0
-472 47 0
-472 471 0
-473 49 472 0
473 -49 0
473 -472 0
474 -55 -473 0
-474 55 0
-474 473 0
-475 5 466 474 1 0
475 -5 0
475 -466 0
475 -474 0
475 -1 0
476 -7 -475 0
-476 7 0
-476 475 0
-477 29 465 476 26 0
477 -29 0
477 -465 0
477 -476 0
477 -26 0
478 -40 -477 0
-478 40 0
-478 477 0
479 -31 -301 0
-479 31 0
-479 301 0
-480 49 479 52 0
480 -49 0
480 -479 0
480 -52 0
481 -51 -480 0
-481 51 0
-481 480 0
482 -82 -337 0
-482 82 0
-482 337 0
-483 84 481 482 220 0
483 -84 0
483 -481 0
483 -482 0
483 -220 0
484 -86 -483 0
-484 86 0
-484 483 0
485 -98 -242 0
-485 98 0
-485 242 0
-486 29 485 57 26 0
486 -29 0
486 -485 0
486 -57 0
486 -26 0
487 -104 -486 0
-487 104 0
-487 486 0
-488 150 484 487 340 147 0
488 -150 0
488 -484 0
488 -487 0
488 -340 0
488 -147 0
489 -184 -488 0
-489 184 0
-489 488 0
-490 10 478 489 0
490 -10 0
490 -478 0
490 -489 0
491 -9 -490 0
-491 9 0
-491 490 0
-492 15 491 11 0
492 -15 0
492 -491 0
492 -11 0
493 -17 -492 0
-493 17 0
-493 492 0
-494 19 493 0
494 -19 0
494 -493 0
495 -21 -494 0
-495 21 0
-495 494 0
-496 23 495 0
496 -23 0
496 -495 0
497 -498 -496 0
-497 498 0
-497 496 0
-499 500 163 255 292 399 452 497 0
499 -500 0
499 -163 0
499 -255 0
499 -292 0
499 -399 0
499 -452 0
499 -497 0
501 -502 -499 0
-501 502 0
-501 499 0
503 -146 -19 0
-503 146 0
-503 19 0
-504 150 193 503 147 0
504 -150 0
504 -193 0
504 -503 0
504 -147 0
505 -152 -504 0
-505 152 0
-505 504 0
-506 154 505 0
506 -154 0
506 -505 0
507 -156 -506 0
-507 156 0
-507 506 0
-508 158 507 0
508 -158 0
508 -507 0
509 -160 -508 0
-509 160 0
-509 508 0
-510 162 509 0
510 -162 0
510 -509 0
511 -164 -510 0
-511 164 0
-511 510 0
512 -293 -504 0
-512 293 0
-512 504 0
513 -400 -398 0
-513 400 0
-513 398 0
-514 150 177 503 147 0
514 -150 0
514 -177 0
514 -503 0
514 -147 0
515 -174 -514 0
-515 174 0
-515 514 0
-516 45 515 0
516 -45 0
516 -515 0
517 -78 -516 0
-517 78 0
-517 516 0
-518 80 517 0
518 -80 0
518 -517 0
519 -453 -518 0
-519 453 0
-519 518 0
520 -21 -19 0
-520 21 0
-520 19 0
-521 23 520 0
521 -23 0
521 -520 0
522 -498 -521 0
-522 498 0
-522 521 0
-523 500 511 512 513 519 522 0
523 -500 0
523 -511 0
523 -512 0
523 -513 0
523 -519 0
523 -522 0
524 -525 -523 0
-524 525 0
-524 523 0
526 -156 -154 0
-526 156 0
-526 154 0
-527 158 526 0
527 -158 0
527 -526 0
528 -160 -527 0
-528 160 0
-528 527 0
-529 162 528 0
529 -162 0
529 -528 0
530 -164 -529 0
-530 164 0
-530 529 0
531 -453 -94 0
-531 453 0
-531 94 0
-532 500 530 513 531 522 0
532 -500 0
532 -530 0
532 -513 0
532 -531 0
532 -522 0
533 -534 -532 0
-533 534 0
-533 532 0
-535 129 533 165 0
535 -129 0
535 -533 0
535 -165 0
536 -131 -535 0
-536 131 0
-536 535 0
-537 150 536 503 147 0
537 -150 0
537 -536 0
537 -503 0
537 -147 0
538 -174 -537 0
-538 174 0
-538 537 0
-539 45 538 0
539 -45 0
539 -538 0
540 -47 -539 0
-540 47 0
-540 539 0
-541 49 540 0
541 -49 0
541 -540 0
542 -51 -541 0
-542 51 0
-542 541 0
543 -68 -521 0
-543 68 0
-543 521 0
-544 500 530 513 522 0
544 -500 0
544 -530 0
544 -513 0
544 -522 0
545 -534 -544 0
-545 534 0
-545 544 0
-546 129 545 175 0
546 -129 0
546 -545 0
546 -175 0
547 -131 -546 0
-547 131 0
-547 546 0
-548 150 547 503 147 0
548 -150 0
548 -547 0
548 -503 0
548 -147 0
549 -174 -548 0
-549 174 0
-549 548 0
-550 45 549 0
550 -45 0
550 -549 0
551 -78 -550 0
-551 78 0
-551 550 0
-552 80 551 0
552 -80 0
552 -551 0
553 -82 -552 0
-553 82 0
-553 552 0
-554 129 533 191 165 0
554 -129 0
554 -533 0
554 -191 0
554 -165 0
555 -131 -554 0
-555 131 0
-555 554 0
-556 150 555 503 147 0
556 -150 0
556 -555 0
556 -503 0
556 -147 0
557 -152 -556 0
-557 152 0
-557 556 0
-558 154 557 0
558 -154 0
558 -557 0
559 -217 -558 0
-559 217 0
-559 558 0
-560 84 524 542 543 553 559 0
560 -84 0
560 -524 0
560 -542 0
560 -543 0
560 -553 0
560 -559 0
561 -98 -560 0
-561 98 0
-561 560 0
562 -525 -532 0
-562 525 0
-562 532 0
-563 84 562 91 543 95 220 0
563 -84 0
563 -562 0
563 -91 0
563 -543 0
563 -95 0
563 -220 0
564 -86 -563 0
-564 86 0
-564 563 0
-565 84 91 543 95 220 0
565 -84 0
565 -91 0
565 -543 0
565 -95 0
565 -220 0
566 -396 -565 0
-566 396 0
-566 565 0
-567 398 566 0
567 -398 0
567 -566 0
568 -400 -567 0
-568 400 0
-568 567 0
-569 500 530 568 531 522 0
569 -500 0
569 -530 0
569 -568 0
569 -531 0
569 -522 0
570 -534 -569 0
-570 534 0
-570 569 0
-571 129 570 191 165 0
571 -129 0
571 -570 0
571 -191 0
571 -165 0
572 -131 -571 0
-572 131 0
-572 571 0
-573 150 564 572 503 147 0
573 -150 0
573 -564 0
573 -572 0
573 -503 0
573 -147 0
574 -225 -573 0
-574 225 0
-574 573 0
-575 84 562 105 543 95 220 0
575 -84 0
575 -562 0
575 -105 0
575 -543 0
575 -95 0
575 -220 0
576 -86 -575 0
-576 86 0
-576 575 0
-577 84 105 543 95 220 0
577 -84 0
577 -105 0
577 -543 0
577 -95 0
577 -220 0
578 -396 -577 0
-578 396 0
-578 577 0
-579 398 578 0
579 -398 0
579 -578 0
580 -400 -579 0
-580 400 0
-580 579 0
-581 500 530 580 531 522 0
581 -500 0
581 -530 0
581 -580 0
581 -531 0
581 -522 0
582 -534 -581 0
-582 534 0
-582 581 0
-583 129 582 165 0
583 -129 0
583 -582 0
583 -165 0
584 -131 -583 0
-584 131 0
-584 583 0
-585 150 576 584 503 147 0
585 -150 0
585 -576 0
585 -584 0
585 -503 0
585 -147 0
586 -174 -585 0
-586 174 0
-586 585 0
-587 45 586 0
587 -45 0
587 -586 0
588 -47 -587 0
-588 47 0
-588 587 0
-589 49 588 0
589 -49 0
589 -588 0
590 -55 -589 0
-590 55 0
-590 589 0
-591 5 574 590 1 0
591 -5 0
591 -574 0
591 -590 0
591 -1 0
592 -7 -591 0
-592 7 0
-592 591 0
593 -25 -521 0
-593 25 0
-593 521 0
-594 29 561 592 593 26 0
594 -29 0
594 -561 0
594 -592 0
594 -593 0
594 -26 0
595 -40 -594 0
-595 40 0
-595 594 0
-596 29 57 593 26 0
596 -29 0
596 -57 0
596 -593 0
596 -26 0
597 -256 -596 0
-597 256 0
-597 596 0
598 -453 -337 0
-598 453 0
-598 337 0
-599 500 530 597 513 598 522 0
599 -500 0
599 -530 0
599 -597 0
599 -513 0
599 -598 0
599 -522 0
600 -525 -599 0
-600 525 0
-600 599 0
-601 29 6 593 26 0
601 -29 0
601 -6 0
601 -593 0
601 -26 0
602 -31 -601 0
-602 31 0
-602 601 0
-603 49 602 52 0
603 -49 0
603 -602 0
603 -52 0
604 -51 -603 0
-604 51 0
-604 603 0
-605 84 600 604 543 482 220 0
605 -84 0
605 -600 0
605 -604 0
605 -543 0
605 -482 0
605 -220 0
606 -86 -605 0
-606 86 0
-606 605 0
607 -98 -563 0
-607 98 0
-607 563 0
-608 29 607 57 593 26 0
608 -29 0
608 -607 0
608 -57 0
608 -593 0
608 -26 0
609 -104 -608 0
-609 104 0
-609 608 0
610 -256 -608 0
-610 256 0
-610 608 0
-611 84 604 543 482 220 0
611 -84 0
611 -604 0
611 -543 0
611 -482 0
611 -220 0
612 -396 -611 0
-612 396 0
-612 611 0
-613 398 612 0
613 -398 0
613 -612 0
614 -400 -613 0
-614 400 0
-614 613 0
-615 500 530 610 614 598 522 0
615 -500 0
615 -530 0
615 -610 0
615 -614 0
615 -598 0
615 -522 0
616 -534 -615 0
-616 534 0
-616 615 0
-617 129 616 191 338 0
617 -129 0
617 -616 0
617 -191 0
617 -338 0
618 -131 -617 0
-618 131 0
-618 617 0
-619 150 606 609 618 503 147 0
619 -150 0
619 -606 0
619 -609 0
619 -618 0
619 -503 0
619 -147 0
620 -184 -619 0
-620 184 0
-620 619 0
-621 10 595 620 0
621 -10 0
621 -595 0
621 -620 0
622 -9 -621 0
-622 9 0
-622 621 0
623 -141 -521 0
-623 141 0
-623 521 0
-624 15 622 623 11 0
624 -15 0
624 -622 0
624 -623 0
624 -11 0
625 -626 -624 0
-625 626 0
-625 624 0
627 -628 -13 0
-627 628 0
-627 13 0
-629 630 501 625 627 0
629 -630 0
629 -501 0
629 -625 0
629 -627 0
631 -632 -629 0
-631 632 0
-631 629 0
-633 634 631 0
633 -634 0
633 -631 0
635 -633 -636 0
-635 633 0
-635 636 0
635 0
