c BC-S1.2
p cnf 87 158
1 -2 -3 0
-1 2 0
-1 3 0
4 -5 -6 0
-4 5 0
-4 6 0
-7 8 4 0
7 -8 0
7 -4 0
9 -10 -7 0
-9 10 0
-9 7 0
11 -12 -13 0
-11 12 0
-11 13 0
14 -15 -16 0
-14 15 0
-14 16 0
-17 18 9 11 14 0
17 -18 0
17 -9 0
17 -11 0
17 -14 0
19 -20 -17 0
-19 20 0
-19 17 0
-21 22 19 0
21 -22 0
21 -19 0
23 -24 -21 0
-23 24 0
-23 21 0
-25 26 23 0
25 -26 0
25 -23 0
27 -28 -25 0
-27 28 0
-27 25 0
29 -30 -26 0
-29 30 0
-29 26 0
-31 22 29 0
31 -22 0
31 -29 0
32 -33 -31 0
-32 33 0
-32 31 0
-34 18 32 9 14 0
34 -18 0
34 -32 0
34 -9 0
34 -14 0
35 -36 -34 0
-35 36 0
-35 34 0
-37 13 35 0
37 -13 0
37 -35 0
38 -39 -37 0
-38 39 0
-38 37 0
-40 41 27 38 0
40 -41 0
40 -27 0
40 -38 0
42 -43 -40 0
-42 43 0
-42 40 0
44 -45 -41 0
-44 45 0
-44 41 0
-46 26 44 0
46 -26 0
46 -44 0
47 -30 -46 0
-47 30 0
-47 46 0
-48 22 47 0
48 -22 0
48 -47 0
49 -33 -48 0
-49 33 0
-49 48 0
-50 18 49 9 14 0
50 -18 0
50 -49 0
50 -9 0
50 -14 0
51 -36 -50 0
-51 36 0
-51 50 0
-52 13 51 0
52 -13 0
52 -51 0
53 -54 -52 0
-53 54 0
-53 52 0
-55 56 42 53 0
55 -56 0
55 -42 0
55 -53 0
57 -58 -55 0
-57 58 0
-57 55 0
59 -54 -37 0
-59 54 0
-59 37 0
-60 56 59 0
60 -56 0
60 -59 0
61 -62 -60 0
-61 62 0
-61 60 0
-63 41 61 27 38 0
63 -41 0
63 -61 0
63 -27 0
63 -38 0
64 -65 -63 0
-64 65 0
-64 63 0
-66 67 57 64 0
66 -67 0
66 -57 0
66 -64 0
68 -69 -66 0
-68 69 0
-68 66 0
-70 71 68 0
70 -71 0
70 -68 0
72 -73 -70 0
-72 73 0
-72 70 0
74 -75 -7 0
-74 75 0
-74 7 0
-76 77 1 72 74 0
76 -77 0
76 -1 0
76 -72 0
76 -74 0
78 -79 -76 0
-78 79 0
-78 76 0
-80 81 78 0
80 -81 0
80 -78 0
82 -83 -80 0
-82 83 0
-82 80 0
-84 85 82 0
84 -85 0
84 -82 0
86 -84 -87 0
-86 84 0
-86 87 0
86 0
