c BC-S1.2
p cnf 61 122
1 -2 -3 0
-1 2 0
-1 3 0
-4 5 1 0
4 -5 0
4 -1 0
6 -7 -4 0
-6 7 0
-6 4 0
8 -9 -10 0
-8 9 0
-8 10 0
-11 12 8 0
11 -12 0
11 -8 0
13 -14 -11 0
-13 14 0
-13 11 0
-15 16 6 13 0
15 -16 0
15 -6 0
15 -13 0
17 -18 -15 0
-17 18 0
-17 15 0
19 -14 -12 0
-19 14 0
-19 12 0
-20 16 6 19 0
20 -16 0
20 -6 0
20 -19 0
21 -22 -20 0
-21 22 0
-21 20 0
-23 10 21 0
23 -10 0
23 -21 0
24 -25 -23 0
-24 25 0
-24 23 0
26 -27 -28 0
-26 27 0
-26 28 0
-29 30 17 24 26 0
29 -30 0
29 -17 0
29 -24 0
29 -26 0
31 -32 -29 0
-31 32 0
-31 29 0
33 -34 -3 0
-33 34 0
-33 3 0
-35 36 31 33 0
35 -36 0
35 -31 0
35 -33 0
37 -38 -35 0
-37 38 0
-37 35 0
-39 16 6 0
39 -16 0
39 -6 0
40 -18 -39 0
-40 18 0
-40 39 0
-41 30 40 26 0
41 -30 0
41 -40 0
41 -26 0
42 -32 -41 0
-42 32 0
-42 41 0
-43 36 42 33 0
43 -36 0
43 -42 0
43 -33 0
44 -45 -43 0
-44 45 0
-44 43 0
-46 30 26 0
46 -30 0
46 -26 0
47 -48 -46 0
-47 48 0
-47 46 0
-49 5 47 1 0
49 -5 0
49 -47 0
49 -1 0
50 -7 -49 0
-50 7 0
-50 49 0
-51 16 50 0
51 -16 0
51 -50 0
52 -22 -51 0
-52 22 0
-52 51 0
-53 10 44 52 0
53 -10 0
53 -44 0
53 -52 0
54 -9 -53 0
-54 9 0
-54 53 0
-55 12 54 0
55 -12 0
55 -54 0
56 -57 -55 0
-56 57 0
-56 55 0
-58 59 37 56 0
58 -59 0
58 -37 0
58 -56 0
60 -58 -61 0
-60 58 0
-60 61 0
60 0
