c BC-S1.2
p cnf 79 150
1 -2 -3 0
-1 2 0
-1 3 0
4 -5 -6 0
-4 5 0
-4 6 0
7 -8 -9 0
-7 8 0
-7 9 0
-10 11 4 7 0
10 -11 0
10 -4 0
10 -7 0
12 -13 -10 0
-12 13 0
-12 10 0
14 -15 -6 0
-14 15 0
-14 6 0
16 -17 -6 0
-16 17 0
-16 6 0
18 -19 -20 0
-18 19 0
-18 20 0
21 -22 -23 0
-21 22 0
-21 23 0
-24 25 18 21 0
24 -25 0
24 -18 0
24 -21 0
26 -27 -24 0
-26 27 0
-26 24 0
-28 29 16 26 0
28 -29 0
28 -16 0
28 -26 0
30 -31 -28 0
-30 31 0
-30 28 0
-32 33 12 14 30 0
32 -33 0
32 -12 0
32 -14 0
32 -30 0
34 -35 -32 0
-34 35 0
-34 32 0
-36 11 7 0
36 -11 0
36 -7 0
37 -13 -36 0
-37 13 0
-37 36 0
-38 33 37 14 0
38 -33 0
38 -37 0
38 -14 0
39 -40 -38 0
-39 40 0
-39 38 0
-41 6 39 0
41 -6 0
41 -39 0
42 -17 -41 0
-42 17 0
-42 41 0
-43 29 42 0
43 -29 0
43 -42 0
44 -45 -43 0
-44 45 0
-44 43 0
-46 25 44 21 0
46 -25 0
46 -44 0
46 -21 0
47 -48 -46 0
-47 48 0
-47 46 0
-49 20 47 0
49 -20 0
49 -47 0
50 -51 -49 0
-50 51 0
-50 49 0
-52 53 34 50 0
52 -53 0
52 -34 0
52 -50 0
54 -55 -52 0
-54 55 0
-54 52 0
56 -57 -53 0
-56 57 0
-56 53 0
-58 33 37 14 56 0
58 -33 0
58 -37 0
58 -14 0
58 -56 0
59 -40 -58 0
-59 40 0
-59 58 0
-60 6 59 0
60 -6 0
60 -59 0
61 -17 -60 0
-61 17 0
-61 60 0
-62 29 61 0
62 -29 0
62 -61 0
63 -45 -62 0
-63 45 0
-63 62 0
-64 25 63 21 0
64 -25 0
64 -63 0
64 -21 0
65 -48 -64 0
-65 48 0
-65 64 0
-66 20 65 0
66 -20 0
66 -65 0
67 -68 -66 0
-67 68 0
-67 66 0
69 -70 -71 0
-69 70 0
-69 71 0
-72 73 69 0
72 -73 0
72 -69 0
74 -75 -72 0
-74 75 0
-74 72 0
-76 77 1 54 67 74 0
76 -77 0
76 -1 0
76 -54 0
76 -67 0
76 -74 0
78 -76 -79 0
-78 76 0
-78 79 0
78 0
