c BC-S1.2
p cnf 2498 9340
1 -2 -3 0
-1 2 0
-1 3 0
4 -5 -3 0
-4 5 0
-4 3 0
6 -7 -8 0
-6 7 0
-6 8 0
-9 10 4 6 0
9 -10 0
9 -4 0
9 -6 0
11 -12 -9 0
-11 12 0
-11 9 0
13 -14 -15 0
-13 14 0
-13 15 0
16 -17 -18 0
-16 17 0
-16 18 0
19 -20 -21 0
-19 20 0
-19 21 0
-22 23 19 0
22 -23 0
22 -19 0
24 -25 -22 0
-24 25 0
-24 22 0
-26 27 24 0
26 -27 0
26 -24 0
28 -29 -26 0
-28 29 0
-28 26 0
-30 31 28 0
30 -31 0
30 -28 0
32 -33 -30 0
-32 33 0
-32 30 0
34 -35 -31 0
-34 35 0
-34 31 0
-36 23 34 19 0
36 -23 0
36 -34 0
36 -19 0
37 -25 -36 0
-37 25 0
-37 36 0
-38 27 37 0
38 -27 0
38 -37 0
39 -40 -38 0
-39 40 0
-39 38 0
-41 42 39 0
41 -42 0
41 -39 0
43 -44 -41 0
-43 44 0
-43 41 0
-45 46 32 43 0
45 -46 0
45 -32 0
45 -43 0
47 -48 -45 0
-47 48 0
-47 45 0
49 -50 -51 0
-49 50 0
-49 51 0
-52 53 13 16 47 49 0
52 -53 0
52 -13 0
52 -16 0
52 -47 0
52 -49 0
54 -55 -52 0
-54 55 0
-54 52 0
-56 57 54 0
56 -57 0
56 -54 0
58 -59 -56 0
-58 59 0
-58 56 0
-60 53 16 47 49 0
60 -53 0
60 -16 0
60 -47 0
60 -49 0
61 -62 -60 0
-61 62 0
-61 60 0
-63 15 61 0
63 -15 0
63 -61 0
64 -65 -63 0
-64 65 0
-64 63 0
66 -67 -68 0
-66 67 0
-66 68 0
69 -70 -18 0
-69 70 0
-69 18 0
71 -33 -31 0
-71 33 0
-71 31 0
-72 46 71 0
72 -46 0
72 -71 0
73 -48 -72 0
-73 48 0
-73 72 0
-74 53 13 16 73 49 0
74 -53 0
74 -13 0
74 -16 0
74 -73 0
74 -49 0
75 -76 -74 0
-75 76 0
-75 74 0
-77 23 34 19 75 0
77 -23 0
77 -34 0
77 -19 0
77 -75 0
78 -25 -77 0
-78 25 0
-78 77 0
-79 27 78 0
79 -27 0
79 -78 0
80 -40 -79 0
-80 40 0
-80 79 0
-81 42 80 0
81 -42 0
81 -80 0
82 -83 -81 0
-82 83 0
-82 81 0
84 -85 -21 0
-84 85 0
-84 21 0
86 -87 -52 0
-86 87 0
-86 52 0
-88 89 58 64 66 69 82 84 86 0
88 -89 0
88 -58 0
88 -64 0
88 -66 0
88 -69 0
88 -82 0
88 -84 0
88 -86 0
90 -91 -88 0
-90 91 0
-90 88 0
-92 93 11 90 0
92 -93 0
92 -11 0
92 -90 0
94 -95 -92 0
-94 95 0
-94 92 0
96 -97 -98 0
-96 97 0
-96 98 0
-99 89 58 64 69 82 84 86 0
99 -89 0
99 -58 0
99 -64 0
99 -69 0
99 -82 0
99 -84 0
99 -86 0
100 -101 -99 0
-100 101 0
-100 99 0
-102 68 100 0
102 -68 0
102 -100 0
103 -104 -102 0
-103 104 0
-103 102 0
-105 53 13 16 47 0
105 -53 0
105 -13 0
105 -16 0
105 -47 0
106 -55 -105 0
-106 55 0
-106 105 0
-107 57 106 0
107 -57 0
107 -106 0
108 -59 -107 0
-108 59 0
-108 107 0
-109 53 16 47 0
109 -53 0
109 -16 0
109 -47 0
110 -62 -109 0
-110 62 0
-110 109 0
-111 15 110 0
111 -15 0
111 -110 0
112 -65 -111 0
-112 65 0
-112 111 0
-113 53 13 16 73 0
113 -53 0
113 -13 0
113 -16 0
113 -73 0
114 -76 -113 0
-114 76 0
-114 113 0
-115 23 34 19 114 0
115 -23 0
115 -34 0
115 -19 0
115 -114 0
116 -25 -115 0
-116 25 0
-116 115 0
-117 27 116 0
117 -27 0
117 -116 0
118 -40 -117 0
-118 40 0
-118 117 0
-119 42 118 0
119 -42 0
119 -118 0
120 -83 -119 0
-120 83 0
-120 119 0
121 -87 -105 0
-121 87 0
-121 105 0
-122 89 108 112 66 69 120 84 121 0
122 -89 0
122 -108 0
122 -112 0
122 -66 0
122 -69 0
122 -120 0
122 -84 0
122 -121 0
123 -124 -122 0
-123 124 0
-123 122 0
-125 51 123 0
125 -51 0
125 -123 0
126 -127 -125 0
-126 127 0
-126 125 0
-128 129 1 94 96 103 126 0
128 -129 0
128 -1 0
128 -94 0
128 -96 0
128 -103 0
128 -126 0
130 -131 -128 0
-130 131 0
-130 128 0
132 -133 -88 0
-132 133 0
-132 88 0
-134 135 132 0
134 -135 0
134 -132 0
136 -137 -134 0
-136 137 0
-136 134 0
-138 129 1 96 103 126 0
138 -129 0
138 -1 0
138 -96 0
138 -103 0
138 -126 0
139 -140 -138 0
-139 140 0
-139 138 0
141 -142 -138 0
-141 142 0
-141 138 0
-143 129 96 103 126 0
143 -129 0
143 -96 0
143 -103 0
143 -126 0
144 -145 -143 0
-144 145 0
-144 143 0
-146 3 144 0
146 -3 0
146 -144 0
147 -5 -146 0
-147 5 0
-147 146 0
-148 10 141 147 6 0
148 -10 0
148 -141 0
148 -147 0
148 -6 0
149 -12 -148 0
-149 12 0
-149 148 0
-150 93 139 149 90 0
150 -93 0
150 -139 0
150 -149 0
150 -90 0
151 -152 -150 0
-151 152 0
-151 150 0
153 -59 -57 0
-153 59 0
-153 57 0
154 -65 -15 0
-154 65 0
-154 15 0
-155 89 153 154 66 69 84 0
155 -89 0
155 -153 0
155 -154 0
155 -66 0
155 -69 0
155 -84 0
156 -157 -155 0
-156 157 0
-156 155 0
-158 46 71 156 0
158 -46 0
158 -71 0
158 -156 0
159 -48 -158 0
-159 48 0
-159 158 0
160 -124 -155 0
-160 124 0
-160 155 0
-161 51 160 0
161 -51 0
161 -160 0
162 -50 -161 0
-162 50 0
-162 161 0
-163 53 13 16 159 162 0
163 -53 0
163 -13 0
163 -16 0
163 -159 0
163 -162 0
164 -76 -163 0
-164 76 0
-164 163 0
165 -55 -74 0
-165 55 0
-165 74 0
-166 57 165 0
166 -57 0
166 -165 0
167 -59 -166 0
-167 59 0
-167 166 0
-168 53 16 73 49 0
168 -53 0
168 -16 0
168 -73 0
168 -49 0
169 -62 -168 0
-169 62 0
-169 168 0
-170 15 169 0
170 -15 0
170 -169 0
171 -65 -170 0
-171 65 0
-171 170 0
172 -87 -74 0
-172 87 0
-172 74 0
-173 89 167 171 66 69 84 172 0
173 -89 0
173 -167 0
173 -171 0
173 -66 0
173 -69 0
173 -84 0
173 -172 0
174 -175 -173 0
-174 175 0
-174 173 0
-176 23 34 19 164 174 0
176 -23 0
176 -34 0
176 -19 0
176 -164 0
176 -174 0
177 -25 -176 0
-177 25 0
-177 176 0
-178 27 177 0
178 -27 0
178 -177 0
179 -40 -178 0
-179 40 0
-179 178 0
-180 42 179 0
180 -42 0
180 -179 0
181 -182 -180 0
-181 182 0
-181 180 0
-183 184 130 136 151 181 0
183 -184 0
183 -130 0
183 -136 0
183 -151 0
183 -181 0
185 -186 -183 0
-185 186 0
-185 183 0
187 -152 -92 0
-187 152 0
-187 92 0
-188 184 136 187 181 0
188 -184 0
188 -136 0
188 -187 0
188 -181 0
189 -190 -188 0
-189 190 0
-189 188 0
-191 3 189 0
191 -3 0
191 -189 0
192 -2 -191 0
-192 2 0
-192 191 0
193 -137 -135 0
-193 137 0
-193 135 0
194 -182 -41 0
-194 182 0
-194 41 0
-195 184 193 194 0
195 -184 0
195 -193 0
195 -194 0
196 -197 -195 0
-196 197 0
-196 195 0
198 -182 -42 0
-198 182 0
-198 42 0
-199 184 193 198 0
199 -184 0
199 -193 0
199 -198 0
200 -201 -199 0
-200 201 0
-200 199 0
-202 21 200 0
202 -21 0
202 -200 0
203 -20 -202 0
-203 20 0
-203 202 0
-204 23 203 0
204 -23 0
204 -203 0
205 -25 -204 0
-205 25 0
-205 204 0
-206 27 205 0
206 -27 0
206 -205 0
207 -29 -206 0
-207 29 0
-207 206 0
-208 31 207 0
208 -31 0
208 -207 0
209 -33 -208 0
-209 33 0
-209 208 0
-210 184 193 0
210 -184 0
210 -193 0
211 -212 -210 0
-211 212 0
-211 210 0
213 -201 -210 0
-213 201 0
-213 210 0
-214 21 213 0
214 -21 0
214 -213 0
215 -20 -214 0
-215 20 0
-215 214 0
-216 23 34 215 0
216 -23 0
216 -34 0
216 -215 0
217 -25 -216 0
-217 25 0
-217 216 0
-218 27 217 0
218 -27 0
218 -217 0
219 -40 -218 0
-219 40 0
-219 218 0
-220 42 211 219 0
220 -42 0
220 -211 0
220 -219 0
221 -44 -220 0
-221 44 0
-221 220 0
-222 46 209 221 0
222 -46 0
222 -209 0
222 -221 0
223 -48 -222 0
-223 48 0
-223 222 0
-224 53 196 13 16 223 49 0
224 -53 0
224 -196 0
224 -13 0
224 -16 0
224 -223 0
224 -49 0
225 -55 -224 0
-225 55 0
-225 224 0
-226 57 225 0
226 -57 0
226 -225 0
227 -59 -226 0
-227 59 0
-227 226 0
-228 53 196 16 223 49 0
228 -53 0
228 -196 0
228 -16 0
228 -223 0
228 -49 0
229 -62 -228 0
-229 62 0
-229 228 0
-230 15 229 0
230 -15 0
230 -229 0
231 -65 -230 0
-231 65 0
-231 230 0
232 -197 -210 0
-232 197 0
-232 210 0
-233 53 232 13 16 73 49 0
233 -53 0
233 -232 0
233 -13 0
233 -16 0
233 -73 0
233 -49 0
234 -76 -233 0
-234 76 0
-234 233 0
-235 23 34 215 234 0
235 -23 0
235 -34 0
235 -215 0
235 -234 0
236 -25 -235 0
-236 25 0
-236 235 0
-237 27 236 0
237 -27 0
237 -236 0
238 -40 -237 0
-238 40 0
-238 237 0
-239 42 211 238 0
239 -42 0
239 -211 0
239 -238 0
240 -83 -239 0
-240 83 0
-240 239 0
-241 23 34 75 0
241 -23 0
241 -34 0
241 -75 0
242 -25 -241 0
-242 25 0
-242 241 0
-243 27 242 0
243 -27 0
243 -242 0
244 -40 -243 0
-244 40 0
-244 243 0
-245 42 244 0
245 -42 0
245 -244 0
246 -182 -245 0
-246 182 0
-246 245 0
-247 184 193 246 0
247 -184 0
247 -193 0
247 -246 0
248 -201 -247 0
-248 201 0
-248 247 0
-249 21 248 0
249 -21 0
249 -248 0
250 -85 -249 0
-250 85 0
-250 249 0
251 -87 -224 0
-251 87 0
-251 224 0
-252 89 227 231 66 69 240 250 251 0
252 -89 0
252 -227 0
252 -231 0
252 -66 0
252 -69 0
252 -240 0
252 -250 0
252 -251 0
253 -91 -252 0
-253 91 0
-253 252 0
-254 93 253 0
254 -93 0
254 -253 0
255 -95 -254 0
-255 95 0
-255 254 0
-256 93 11 0
256 -93 0
256 -11 0
257 -152 -256 0
-257 152 0
-257 256 0
-258 184 193 257 194 0
258 -184 0
258 -193 0
258 -257 0
258 -194 0
259 -197 -258 0
-259 197 0
-259 258 0
-260 184 193 257 198 0
260 -184 0
260 -193 0
260 -257 0
260 -198 0
261 -201 -260 0
-261 201 0
-261 260 0
-262 21 261 0
262 -21 0
262 -261 0
263 -20 -262 0
-263 20 0
-263 262 0
-264 23 263 0
264 -23 0
264 -263 0
265 -25 -264 0
-265 25 0
-265 264 0
-266 27 265 0
266 -27 0
266 -265 0
267 -29 -266 0
-267 29 0
-267 266 0
-268 31 267 0
268 -31 0
268 -267 0
269 -33 -268 0
-269 33 0
-269 268 0
-270 184 193 257 0
270 -184 0
270 -193 0
270 -257 0
271 -212 -270 0
-271 212 0
-271 270 0
272 -201 -270 0
-272 201 0
-272 270 0
-273 21 272 0
273 -21 0
273 -272 0
274 -20 -273 0
-274 20 0
-274 273 0
-275 23 34 274 0
275 -23 0
275 -34 0
275 -274 0
276 -25 -275 0
-276 25 0
-276 275 0
-277 27 276 0
277 -27 0
277 -276 0
278 -40 -277 0
-278 40 0
-278 277 0
-279 42 271 278 0
279 -42 0
279 -271 0
279 -278 0
280 -44 -279 0
-280 44 0
-280 279 0
-281 46 269 280 0
281 -46 0
281 -269 0
281 -280 0
282 -48 -281 0
-282 48 0
-282 281 0
-283 53 259 13 16 282 49 0
283 -53 0
283 -259 0
283 -13 0
283 -16 0
283 -282 0
283 -49 0
284 -55 -283 0
-284 55 0
-284 283 0
-285 57 284 0
285 -57 0
285 -284 0
286 -59 -285 0
-286 59 0
-286 285 0
-287 53 259 16 282 49 0
287 -53 0
287 -259 0
287 -16 0
287 -282 0
287 -49 0
288 -62 -287 0
-288 62 0
-288 287 0
-289 15 288 0
289 -15 0
289 -288 0
290 -65 -289 0
-290 65 0
-290 289 0
291 -197 -270 0
-291 197 0
-291 270 0
-292 53 291 13 16 73 49 0
292 -53 0
292 -291 0
292 -13 0
292 -16 0
292 -73 0
292 -49 0
293 -76 -292 0
-293 76 0
-293 292 0
-294 23 34 274 293 0
294 -23 0
294 -34 0
294 -274 0
294 -293 0
295 -25 -294 0
-295 25 0
-295 294 0
-296 27 295 0
296 -27 0
296 -295 0
297 -40 -296 0
-297 40 0
-297 296 0
-298 42 271 297 0
298 -42 0
298 -271 0
298 -297 0
299 -83 -298 0
-299 83 0
-299 298 0
-300 184 193 257 246 0
300 -184 0
300 -193 0
300 -257 0
300 -246 0
301 -201 -300 0
-301 201 0
-301 300 0
-302 21 301 0
302 -21 0
302 -301 0
303 -85 -302 0
-303 85 0
-303 302 0
304 -87 -283 0
-304 87 0
-304 283 0
-305 89 286 290 69 299 303 304 0
305 -89 0
305 -286 0
305 -290 0
305 -69 0
305 -299 0
305 -303 0
305 -304 0
306 -101 -305 0
-306 101 0
-306 305 0
-307 68 306 0
307 -68 0
307 -306 0
308 -104 -307 0
-308 104 0
-308 307 0
-309 53 259 13 16 282 0
309 -53 0
309 -259 0
309 -13 0
309 -16 0
309 -282 0
310 -55 -309 0
-310 55 0
-310 309 0
-311 57 310 0
311 -57 0
311 -310 0
312 -59 -311 0
-312 59 0
-312 311 0
-313 53 259 16 282 0
313 -53 0
313 -259 0
313 -16 0
313 -282 0
314 -62 -313 0
-314 62 0
-314 313 0
-315 15 314 0
315 -15 0
315 -314 0
316 -65 -315 0
-316 65 0
-316 315 0
-317 53 291 13 16 73 0
317 -53 0
317 -291 0
317 -13 0
317 -16 0
317 -73 0
318 -76 -317 0
-318 76 0
-318 317 0
-319 23 34 274 318 0
319 -23 0
319 -34 0
319 -274 0
319 -318 0
320 -25 -319 0
-320 25 0
-320 319 0
-321 27 320 0
321 -27 0
321 -320 0
322 -40 -321 0
-322 40 0
-322 321 0
-323 42 271 322 0
323 -42 0
323 -271 0
323 -322 0
324 -83 -323 0
-324 83 0
-324 323 0
-325 23 34 114 0
325 -23 0
325 -34 0
325 -114 0
326 -25 -325 0
-326 25 0
-326 325 0
-327 27 326 0
327 -27 0
327 -326 0
328 -40 -327 0
-328 40 0
-328 327 0
-329 42 328 0
329 -42 0
329 -328 0
330 -182 -329 0
-330 182 0
-330 329 0
-331 184 193 257 330 0
331 -184 0
331 -193 0
331 -257 0
331 -330 0
332 -201 -331 0
-332 201 0
-332 331 0
-333 21 332 0
333 -21 0
333 -332 0
334 -85 -333 0
-334 85 0
-334 333 0
335 -87 -309 0
-335 87 0
-335 309 0
-336 89 312 316 66 69 324 334 335 0
336 -89 0
336 -312 0
336 -316 0
336 -66 0
336 -69 0
336 -324 0
336 -334 0
336 -335 0
337 -124 -336 0
-337 124 0
-337 336 0
-338 51 337 0
338 -51 0
338 -337 0
339 -127 -338 0
-339 127 0
-339 338 0
-340 129 192 255 96 308 339 0
340 -129 0
340 -192 0
340 -255 0
340 -96 0
340 -308 0
340 -339 0
341 -142 -340 0
-341 142 0
-341 340 0
-342 93 139 90 0
342 -93 0
342 -139 0
342 -90 0
343 -152 -342 0
-343 152 0
-343 342 0
-344 184 130 136 343 181 0
344 -184 0
344 -130 0
344 -136 0
344 -343 0
344 -181 0
345 -346 -344 0
-345 346 0
-345 344 0
347 -152 -93 0
-347 152 0
-347 93 0
-348 184 193 347 194 0
348 -184 0
348 -193 0
348 -347 0
348 -194 0
349 -197 -348 0
-349 197 0
-349 348 0
-350 184 193 347 198 0
350 -184 0
350 -193 0
350 -347 0
350 -198 0
351 -201 -350 0
-351 201 0
-351 350 0
-352 21 351 0
352 -21 0
352 -351 0
353 -20 -352 0
-353 20 0
-353 352 0
-354 23 353 0
354 -23 0
354 -353 0
355 -25 -354 0
-355 25 0
-355 354 0
-356 27 355 0
356 -27 0
356 -355 0
357 -29 -356 0
-357 29 0
-357 356 0
-358 31 357 0
358 -31 0
358 -357 0
359 -33 -358 0
-359 33 0
-359 358 0
-360 184 193 347 0
360 -184 0
360 -193 0
360 -347 0
361 -212 -360 0
-361 212 0
-361 360 0
362 -201 -360 0
-362 201 0
-362 360 0
-363 21 362 0
363 -21 0
363 -362 0
364 -20 -363 0
-364 20 0
-364 363 0
-365 23 34 364 0
365 -23 0
365 -34 0
365 -364 0
366 -25 -365 0
-366 25 0
-366 365 0
-367 27 366 0
367 -27 0
367 -366 0
368 -40 -367 0
-368 40 0
-368 367 0
-369 42 361 368 0
369 -42 0
369 -361 0
369 -368 0
370 -44 -369 0
-370 44 0
-370 369 0
-371 46 359 370 0
371 -46 0
371 -359 0
371 -370 0
372 -48 -371 0
-372 48 0
-372 371 0
-373 53 349 13 16 372 49 0
373 -53 0
373 -349 0
373 -13 0
373 -16 0
373 -372 0
373 -49 0
374 -55 -373 0
-374 55 0
-374 373 0
-375 57 374 0
375 -57 0
375 -374 0
376 -59 -375 0
-376 59 0
-376 375 0
-377 53 349 16 372 49 0
377 -53 0
377 -349 0
377 -16 0
377 -372 0
377 -49 0
378 -62 -377 0
-378 62 0
-378 377 0
-379 15 378 0
379 -15 0
379 -378 0
380 -65 -379 0
-380 65 0
-380 379 0
381 -197 -360 0
-381 197 0
-381 360 0
-382 53 381 13 16 73 49 0
382 -53 0
382 -381 0
382 -13 0
382 -16 0
382 -73 0
382 -49 0
383 -76 -382 0
-383 76 0
-383 382 0
-384 23 34 364 383 0
384 -23 0
384 -34 0
384 -364 0
384 -383 0
385 -25 -384 0
-385 25 0
-385 384 0
-386 27 385 0
386 -27 0
386 -385 0
387 -40 -386 0
-387 40 0
-387 386 0
-388 42 361 387 0
388 -42 0
388 -361 0
388 -387 0
389 -83 -388 0
-389 83 0
-389 388 0
-390 184 193 347 246 0
390 -184 0
390 -193 0
390 -347 0
390 -246 0
391 -201 -390 0
-391 201 0
-391 390 0
-392 21 391 0
392 -21 0
392 -391 0
393 -85 -392 0
-393 85 0
-393 392 0
394 -87 -373 0
-394 87 0
-394 373 0
-395 89 376 380 69 389 393 394 0
395 -89 0
395 -376 0
395 -380 0
395 -69 0
395 -389 0
395 -393 0
395 -394 0
396 -101 -395 0
-396 101 0
-396 395 0
-397 68 396 0
397 -68 0
397 -396 0
398 -104 -397 0
-398 104 0
-398 397 0
-399 53 349 13 16 372 0
399 -53 0
399 -349 0
399 -13 0
399 -16 0
399 -372 0
400 -55 -399 0
-400 55 0
-400 399 0
-401 57 400 0
401 -57 0
401 -400 0
402 -59 -401 0
-402 59 0
-402 401 0
-403 53 349 16 372 0
403 -53 0
403 -349 0
403 -16 0
403 -372 0
404 -62 -403 0
-404 62 0
-404 403 0
-405 15 404 0
405 -15 0
405 -404 0
406 -65 -405 0
-406 65 0
-406 405 0
-407 53 381 13 16 73 0
407 -53 0
407 -381 0
407 -13 0
407 -16 0
407 -73 0
408 -76 -407 0
-408 76 0
-408 407 0
-409 23 34 364 408 0
409 -23 0
409 -34 0
409 -364 0
409 -408 0
410 -25 -409 0
-410 25 0
-410 409 0
-411 27 410 0
411 -27 0
411 -410 0
412 -40 -411 0
-412 40 0
-412 411 0
-413 42 361 412 0
413 -42 0
413 -361 0
413 -412 0
414 -83 -413 0
-414 83 0
-414 413 0
-415 184 193 347 330 0
415 -184 0
415 -193 0
415 -347 0
415 -330 0
416 -201 -415 0
-416 201 0
-416 415 0
-417 21 416 0
417 -21 0
417 -416 0
418 -85 -417 0
-418 85 0
-418 417 0
419 -87 -399 0
-419 87 0
-419 399 0
-420 89 402 406 66 69 414 418 419 0
420 -89 0
420 -402 0
420 -406 0
420 -66 0
420 -69 0
420 -414 0
420 -418 0
420 -419 0
421 -124 -420 0
-421 124 0
-421 420 0
-422 51 421 0
422 -51 0
422 -421 0
423 -127 -422 0
-423 127 0
-423 422 0
-424 129 255 96 398 423 0
424 -129 0
424 -255 0
424 -96 0
424 -398 0
424 -423 0
425 -145 -424 0
-425 145 0
-425 424 0
-426 93 90 0
426 -93 0
426 -90 0
427 -95 -426 0
-427 95 0
-427 426 0
-428 129 427 96 103 126 0
428 -129 0
428 -427 0
428 -96 0
428 -103 0
428 -126 0
429 -131 -428 0
-429 131 0
-429 428 0
430 -140 -143 0
-430 140 0
-430 143 0
-431 93 430 90 0
431 -93 0
431 -430 0
431 -90 0
432 -152 -431 0
-432 152 0
-432 431 0
-433 184 429 136 432 181 0
433 -184 0
433 -429 0
433 -136 0
433 -432 0
433 -181 0
434 -190 -433 0
-434 190 0
-434 433 0
-435 3 425 434 0
435 -3 0
435 -425 0
435 -434 0
436 -5 -435 0
-436 5 0
-436 435 0
-437 184 136 181 0
437 -184 0
437 -136 0
437 -181 0
438 -190 -437 0
-438 190 0
-438 437 0
-439 3 438 0
439 -3 0
439 -438 0
440 -2 -439 0
-440 2 0
-440 439 0
-441 89 227 231 69 240 250 251 0
441 -89 0
441 -227 0
441 -231 0
441 -69 0
441 -240 0
441 -250 0
441 -251 0
442 -101 -441 0
-442 101 0
-442 441 0
-443 68 442 0
443 -68 0
443 -442 0
444 -104 -443 0
-444 104 0
-444 443 0
-445 53 196 13 16 223 0
445 -53 0
445 -196 0
445 -13 0
445 -16 0
445 -223 0
446 -55 -445 0
-446 55 0
-446 445 0
-447 57 446 0
447 -57 0
447 -446 0
448 -59 -447 0
-448 59 0
-448 447 0
-449 53 196 16 223 0
449 -53 0
449 -196 0
449 -16 0
449 -223 0
450 -62 -449 0
-450 62 0
-450 449 0
-451 15 450 0
451 -15 0
451 -450 0
452 -65 -451 0
-452 65 0
-452 451 0
-453 53 232 13 16 73 0
453 -53 0
453 -232 0
453 -13 0
453 -16 0
453 -73 0
454 -76 -453 0
-454 76 0
-454 453 0
-455 23 34 215 454 0
455 -23 0
455 -34 0
455 -215 0
455 -454 0
456 -25 -455 0
-456 25 0
-456 455 0
-457 27 456 0
457 -27 0
457 -456 0
458 -40 -457 0
-458 40 0
-458 457 0
-459 42 211 458 0
459 -42 0
459 -211 0
459 -458 0
460 -83 -459 0
-460 83 0
-460 459 0
-461 184 193 330 0
461 -184 0
461 -193 0
461 -330 0
462 -201 -461 0
-462 201 0
-462 461 0
-463 21 462 0
463 -21 0
463 -462 0
464 -85 -463 0
-464 85 0
-464 463 0
465 -87 -445 0
-465 87 0
-465 445 0
-466 89 448 452 66 69 460 464 465 0
466 -89 0
466 -448 0
466 -452 0
466 -66 0
466 -69 0
466 -460 0
466 -464 0
466 -465 0
467 -124 -466 0
-467 124 0
-467 466 0
-468 51 467 0
468 -51 0
468 -467 0
469 -127 -468 0
-469 127 0
-469 468 0
-470 129 440 96 444 469 0
470 -129 0
470 -440 0
470 -96 0
470 -444 0
470 -469 0
471 -140 -470 0
-471 140 0
-471 470 0
472 -104 -68 0
-472 104 0
-472 68 0
473 -127 -51 0
-473 127 0
-473 51 0
-474 129 1 96 472 473 0
474 -129 0
474 -1 0
474 -96 0
474 -472 0
474 -473 0
475 -131 -474 0
-475 131 0
-475 474 0
-476 184 475 193 194 0
476 -184 0
476 -475 0
476 -193 0
476 -194 0
477 -197 -476 0
-477 197 0
-477 476 0
-478 184 475 193 198 0
478 -184 0
478 -475 0
478 -193 0
478 -198 0
479 -201 -478 0
-479 201 0
-479 478 0
-480 21 479 0
480 -21 0
480 -479 0
481 -20 -480 0
-481 20 0
-481 480 0
-482 23 481 0
482 -23 0
482 -481 0
483 -25 -482 0
-483 25 0
-483 482 0
-484 27 483 0
484 -27 0
484 -483 0
485 -29 -484 0
-485 29 0
-485 484 0
-486 31 485 0
486 -31 0
486 -485 0
487 -33 -486 0
-487 33 0
-487 486 0
-488 184 475 193 0
488 -184 0
488 -475 0
488 -193 0
489 -212 -488 0
-489 212 0
-489 488 0
490 -201 -488 0
-490 201 0
-490 488 0
-491 21 490 0
491 -21 0
491 -490 0
492 -20 -491 0
-492 20 0
-492 491 0
-493 23 34 492 0
493 -23 0
493 -34 0
493 -492 0
494 -25 -493 0
-494 25 0
-494 493 0
-495 27 494 0
495 -27 0
495 -494 0
496 -40 -495 0
-496 40 0
-496 495 0
-497 42 489 496 0
497 -42 0
497 -489 0
497 -496 0
498 -44 -497 0
-498 44 0
-498 497 0
-499 46 487 498 0
499 -46 0
499 -487 0
499 -498 0
500 -48 -499 0
-500 48 0
-500 499 0
-501 53 477 13 16 500 49 0
501 -53 0
501 -477 0
501 -13 0
501 -16 0
501 -500 0
501 -49 0
502 -55 -501 0
-502 55 0
-502 501 0
-503 57 502 0
503 -57 0
503 -502 0
504 -59 -503 0
-504 59 0
-504 503 0
-505 53 477 16 500 49 0
505 -53 0
505 -477 0
505 -16 0
505 -500 0
505 -49 0
506 -62 -505 0
-506 62 0
-506 505 0
-507 15 506 0
507 -15 0
507 -506 0
508 -65 -507 0
-508 65 0
-508 507 0
509 -197 -488 0
-509 197 0
-509 488 0
-510 53 509 13 16 73 49 0
510 -53 0
510 -509 0
510 -13 0
510 -16 0
510 -73 0
510 -49 0
511 -76 -510 0
-511 76 0
-511 510 0
-512 23 34 492 511 0
512 -23 0
512 -34 0
512 -492 0
512 -511 0
513 -25 -512 0
-513 25 0
-513 512 0
-514 27 513 0
514 -27 0
514 -513 0
515 -40 -514 0
-515 40 0
-515 514 0
-516 42 489 515 0
516 -42 0
516 -489 0
516 -515 0
517 -83 -516 0
-517 83 0
-517 516 0
-518 184 475 193 246 0
518 -184 0
518 -475 0
518 -193 0
518 -246 0
519 -201 -518 0
-519 201 0
-519 518 0
-520 21 519 0
520 -21 0
520 -519 0
521 -85 -520 0
-521 85 0
-521 520 0
522 -87 -501 0
-522 87 0
-522 501 0
-523 89 504 508 66 69 517 521 522 0
523 -89 0
523 -504 0
523 -508 0
523 -66 0
523 -69 0
523 -517 0
523 -521 0
523 -522 0
524 -91 -523 0
-524 91 0
-524 523 0
-525 93 471 524 0
525 -93 0
525 -471 0
525 -524 0
526 -527 -525 0
-526 527 0
-526 525 0
-528 10 341 345 436 6 526 0
528 -10 0
528 -341 0
528 -345 0
528 -436 0
528 -6 0
528 -526 0
529 -530 -528 0
-529 530 0
-529 528 0
531 -532 -533 0
-531 532 0
-531 533 0
-534 535 531 0
534 -535 0
534 -531 0
536 -537 -534 0
-536 537 0
-536 534 0
538 -539 -533 0
-538 539 0
-538 533 0
-540 541 536 538 0
540 -541 0
540 -536 0
540 -538 0
542 -543 -540 0
-542 543 0
-542 540 0
544 -545 -534 0
-544 545 0
-544 534 0
-546 547 544 0
546 -547 0
546 -544 0
548 -549 -546 0
-548 549 0
-548 546 0
-550 551 542 548 0
550 -551 0
550 -542 0
550 -548 0
552 -553 -550 0
-552 553 0
-552 550 0
554 -555 -534 0
-554 555 0
-554 534 0
-556 551 548 0
556 -551 0
556 -548 0
557 -558 -556 0
-557 558 0
-557 556 0
-559 541 557 536 538 0
559 -541 0
559 -557 0
559 -536 0
559 -538 0
560 -561 -559 0
-560 561 0
-560 559 0
562 -346 -437 0
-562 346 0
-562 437 0
-563 10 562 6 0
563 -10 0
563 -562 0
563 -6 0
564 -12 -563 0
-564 12 0
-564 563 0
-565 93 564 253 0
565 -93 0
565 -564 0
565 -253 0
566 -95 -565 0
-566 95 0
-566 565 0
-567 129 566 96 308 339 0
567 -129 0
567 -566 0
567 -96 0
567 -308 0
567 -339 0
568 -145 -567 0
-568 145 0
-568 567 0
-569 129 94 96 103 126 0
569 -129 0
569 -94 0
569 -96 0
569 -103 0
569 -126 0
570 -131 -569 0
-570 131 0
-570 569 0
571 -142 -143 0
-571 142 0
-571 143 0
-572 10 571 6 0
572 -10 0
572 -571 0
572 -6 0
573 -12 -572 0
-573 12 0
-573 572 0
-574 93 430 573 90 0
574 -93 0
574 -430 0
574 -573 0
574 -90 0
575 -152 -574 0
-575 152 0
-575 574 0
-576 184 570 136 575 181 0
576 -184 0
576 -570 0
576 -136 0
576 -575 0
576 -181 0
577 -190 -576 0
-577 190 0
-577 576 0
-578 3 568 577 0
578 -3 0
578 -568 0
578 -577 0
579 -580 -578 0
-579 580 0
-579 578 0
581 -152 -426 0
-581 152 0
-581 426 0
-582 184 136 581 181 0
582 -184 0
582 -136 0
582 -581 0
582 -181 0
583 -190 -582 0
-583 190 0
-583 582 0
-584 3 583 0
584 -3 0
584 -583 0
585 -2 -584 0
-585 2 0
-585 584 0
-586 129 585 255 96 398 423 0
586 -129 0
586 -585 0
586 -255 0
586 -96 0
586 -398 0
586 -423 0
587 -142 -586 0
-587 142 0
-587 586 0
-588 129 1 427 96 103 126 0
588 -129 0
588 -1 0
588 -427 0
588 -96 0
588 -103 0
588 -126 0
589 -131 -588 0
-589 131 0
-589 588 0
-590 184 589 136 343 181 0
590 -184 0
590 -589 0
590 -136 0
590 -343 0
590 -181 0
591 -346 -590 0
-591 346 0
-591 590 0
-592 10 587 591 436 526 0
592 -10 0
592 -587 0
592 -591 0
592 -436 0
592 -526 0
593 -594 -592 0
-593 594 0
-593 592 0
-595 8 593 0
595 -8 0
595 -593 0
596 -597 -595 0
-596 597 0
-596 595 0
598 -142 -470 0
-598 142 0
-598 470 0
599 -131 -138 0
-599 131 0
-599 138 0
-600 184 599 136 181 0
600 -184 0
600 -599 0
600 -136 0
600 -181 0
601 -346 -600 0
-601 346 0
-601 600 0
-602 129 96 444 469 0
602 -129 0
602 -96 0
602 -444 0
602 -469 0
603 -145 -602 0
-603 145 0
-603 602 0
604 -131 -143 0
-604 131 0
-604 143 0
-605 184 604 136 181 0
605 -184 0
605 -604 0
605 -136 0
605 -181 0
606 -190 -605 0
-606 190 0
-606 605 0
-607 3 603 606 0
607 -3 0
607 -603 0
607 -606 0
608 -5 -607 0
-608 5 0
-608 607 0
-609 10 598 601 608 6 0
609 -10 0
609 -598 0
609 -601 0
609 -608 0
609 -6 0
610 -12 -609 0
-610 12 0
-610 609 0
-611 93 471 610 524 0
611 -93 0
611 -471 0
611 -610 0
611 -524 0
612 -613 -611 0
-612 613 0
-612 611 0
614 -5 -439 0
-614 5 0
-614 439 0
-615 10 562 614 6 0
615 -10 0
615 -562 0
615 -614 0
615 -6 0
616 -12 -615 0
-616 12 0
-616 615 0
-617 93 616 253 0
617 -93 0
617 -616 0
617 -253 0
618 -95 -617 0
-618 95 0
-618 617 0
-619 129 192 618 96 308 339 0
619 -129 0
619 -192 0
619 -618 0
619 -96 0
619 -308 0
619 -339 0
620 -621 -619 0
-620 621 0
-620 619 0
-622 623 620 0
622 -623 0
622 -620 0
624 -625 -622 0
-624 625 0
-624 622 0
626 -627 -27 0
-626 627 0
-626 27 0
628 -29 -27 0
-628 29 0
-628 27 0
-629 31 628 0
629 -31 0
629 -628 0
630 -35 -629 0
-630 35 0
-630 629 0
631 -33 -629 0
-631 33 0
-631 629 0
632 -40 -27 0
-632 40 0
-632 27 0
-633 42 632 0
633 -42 0
633 -632 0
634 -44 -633 0
-634 44 0
-634 633 0
-635 46 631 634 0
635 -46 0
635 -631 0
635 -634 0
636 -48 -635 0
-636 48 0
-636 635 0
-637 53 13 16 636 49 0
637 -53 0
637 -13 0
637 -16 0
637 -636 0
637 -49 0
638 -55 -637 0
-638 55 0
-638 637 0
-639 57 638 0
639 -57 0
639 -638 0
640 -59 -639 0
-640 59 0
-640 639 0
-641 53 16 636 49 0
641 -53 0
641 -16 0
641 -636 0
641 -49 0
642 -62 -641 0
-642 62 0
-642 641 0
-643 15 642 0
643 -15 0
643 -642 0
644 -65 -643 0
-644 65 0
-644 643 0
645 -83 -633 0
-645 83 0
-645 633 0
646 -87 -637 0
-646 87 0
-646 637 0
-647 89 640 644 66 69 645 84 646 0
647 -89 0
647 -640 0
647 -644 0
647 -66 0
647 -69 0
647 -645 0
647 -84 0
647 -646 0
648 -91 -647 0
-648 91 0
-648 647 0
-649 93 11 648 0
649 -93 0
649 -11 0
649 -648 0
650 -95 -649 0
-650 95 0
-650 649 0
-651 89 640 644 69 645 84 646 0
651 -89 0
651 -640 0
651 -644 0
651 -69 0
651 -645 0
651 -84 0
651 -646 0
652 -101 -651 0
-652 101 0
-652 651 0
-653 68 652 0
653 -68 0
653 -652 0
654 -104 -653 0
-654 104 0
-654 653 0
-655 53 13 16 636 0
655 -53 0
655 -13 0
655 -16 0
655 -636 0
656 -55 -655 0
-656 55 0
-656 655 0
-657 57 656 0
657 -57 0
657 -656 0
658 -59 -657 0
-658 59 0
-658 657 0
-659 53 16 636 0
659 -53 0
659 -16 0
659 -636 0
660 -62 -659 0
-660 62 0
-660 659 0
-661 15 660 0
661 -15 0
661 -660 0
662 -65 -661 0
-662 65 0
-662 661 0
663 -87 -655 0
-663 87 0
-663 655 0
-664 89 658 662 66 69 645 84 663 0
664 -89 0
664 -658 0
664 -662 0
664 -66 0
664 -69 0
664 -645 0
664 -84 0
664 -663 0
665 -124 -664 0
-665 124 0
-665 664 0
-666 51 665 0
666 -51 0
666 -665 0
667 -127 -666 0
-667 127 0
-667 666 0
-668 129 1 650 96 654 667 0
668 -129 0
668 -1 0
668 -650 0
668 -96 0
668 -654 0
668 -667 0
669 -131 -668 0
-669 131 0
-669 668 0
670 -133 -647 0
-670 133 0
-670 647 0
-671 135 670 0
671 -135 0
671 -670 0
672 -137 -671 0
-672 137 0
-672 671 0
-673 129 1 96 654 667 0
673 -129 0
673 -1 0
673 -96 0
673 -654 0
673 -667 0
674 -140 -673 0
-674 140 0
-674 673 0
675 -142 -673 0
-675 142 0
-675 673 0
-676 129 96 654 667 0
676 -129 0
676 -96 0
676 -654 0
676 -667 0
677 -145 -676 0
-677 145 0
-677 676 0
-678 3 677 0
678 -3 0
678 -677 0
679 -5 -678 0
-679 5 0
-679 678 0
-680 10 675 679 6 0
680 -10 0
680 -675 0
680 -679 0
680 -6 0
681 -12 -680 0
-681 12 0
-681 680 0
-682 93 674 681 648 0
682 -93 0
682 -674 0
682 -681 0
682 -648 0
683 -152 -682 0
-683 152 0
-683 682 0
684 -182 -633 0
-684 182 0
-684 633 0
-685 184 669 672 683 684 0
685 -184 0
685 -669 0
685 -672 0
685 -683 0
685 -684 0
686 -201 -685 0
-686 201 0
-686 685 0
-687 21 686 0
687 -21 0
687 -686 0
688 -20 -687 0
-688 20 0
-688 687 0
-689 89 153 154 66 69 645 84 0
689 -89 0
689 -153 0
689 -154 0
689 -66 0
689 -69 0
689 -645 0
689 -84 0
690 -91 -689 0
-690 91 0
-690 689 0
-691 93 11 690 0
691 -93 0
691 -11 0
691 -690 0
692 -95 -691 0
-692 95 0
-692 691 0
-693 89 153 154 69 645 84 0
693 -89 0
693 -153 0
693 -154 0
693 -69 0
693 -645 0
693 -84 0
694 -101 -693 0
-694 101 0
-694 693 0
-695 68 694 0
695 -68 0
695 -694 0
696 -104 -695 0
-696 104 0
-696 695 0
697 -124 -689 0
-697 124 0
-697 689 0
-698 51 697 0
698 -51 0
698 -697 0
699 -127 -698 0
-699 127 0
-699 698 0
-700 129 1 692 96 696 699 0
700 -129 0
700 -1 0
700 -692 0
700 -96 0
700 -696 0
700 -699 0
701 -131 -700 0
-701 131 0
-701 700 0
702 -133 -689 0
-702 133 0
-702 689 0
-703 135 702 0
703 -135 0
703 -702 0
704 -137 -703 0
-704 137 0
-704 703 0
-705 129 1 96 696 699 0
705 -129 0
705 -1 0
705 -96 0
705 -696 0
705 -699 0
706 -140 -705 0
-706 140 0
-706 705 0
707 -142 -705 0
-707 142 0
-707 705 0
-708 129 96 696 699 0
708 -129 0
708 -96 0
708 -696 0
708 -699 0
709 -145 -708 0
-709 145 0
-709 708 0
-710 3 709 0
710 -3 0
710 -709 0
711 -5 -710 0
-711 5 0
-711 710 0
-712 10 707 711 6 0
712 -10 0
712 -707 0
712 -711 0
712 -6 0
713 -12 -712 0
-713 12 0
-713 712 0
-714 93 706 713 690 0
714 -93 0
714 -706 0
714 -713 0
714 -690 0
715 -152 -714 0
-715 152 0
-715 714 0
-716 184 701 704 715 684 0
716 -184 0
716 -701 0
716 -704 0
716 -715 0
716 -684 0
717 -197 -716 0
-717 197 0
-717 716 0
718 -91 -155 0
-718 91 0
-718 155 0
-719 93 11 718 0
719 -93 0
719 -11 0
719 -718 0
720 -95 -719 0
-720 95 0
-720 719 0
721 -127 -161 0
-721 127 0
-721 161 0
-722 129 1 720 96 696 721 0
722 -129 0
722 -1 0
722 -720 0
722 -96 0
722 -696 0
722 -721 0
723 -131 -722 0
-723 131 0
-723 722 0
724 -133 -155 0
-724 133 0
-724 155 0
-725 135 724 0
725 -135 0
725 -724 0
726 -137 -725 0
-726 137 0
-726 725 0
-727 129 1 96 696 721 0
727 -129 0
727 -1 0
727 -96 0
727 -696 0
727 -721 0
728 -140 -727 0
-728 140 0
-728 727 0
729 -142 -727 0
-729 142 0
-729 727 0
-730 129 96 696 721 0
730 -129 0
730 -96 0
730 -696 0
730 -721 0
731 -145 -730 0
-731 145 0
-731 730 0
-732 3 731 0
732 -3 0
732 -731 0
733 -5 -732 0
-733 5 0
-733 732 0
-734 10 729 733 6 0
734 -10 0
734 -729 0
734 -733 0
734 -6 0
735 -12 -734 0
-735 12 0
-735 734 0
-736 93 728 735 718 0
736 -93 0
736 -728 0
736 -735 0
736 -718 0
737 -152 -736 0
-737 152 0
-737 736 0
-738 184 723 726 737 0
738 -184 0
738 -723 0
738 -726 0
738 -737 0
739 -212 -738 0
-739 212 0
-739 738 0
-740 42 739 632 0
740 -42 0
740 -739 0
740 -632 0
741 -44 -740 0
-741 44 0
-741 740 0
742 -95 -256 0
-742 95 0
-742 256 0
-743 129 1 742 96 472 473 0
743 -129 0
743 -1 0
743 -742 0
743 -96 0
743 -472 0
743 -473 0
744 -131 -743 0
-744 131 0
-744 743 0
745 -140 -474 0
-745 140 0
-745 474 0
746 -142 -474 0
-746 142 0
-746 474 0
-747 129 96 472 473 0
747 -129 0
747 -96 0
747 -472 0
747 -473 0
748 -145 -747 0
-748 145 0
-748 747 0
-749 3 748 0
749 -3 0
749 -748 0
750 -5 -749 0
-750 5 0
-750 749 0
-751 10 746 750 6 0
751 -10 0
751 -746 0
751 -750 0
751 -6 0
752 -12 -751 0
-752 12 0
-752 751 0
-753 93 745 752 0
753 -93 0
753 -745 0
753 -752 0
754 -152 -753 0
-754 152 0
-754 753 0
-755 184 744 193 754 0
755 -184 0
755 -744 0
755 -193 0
755 -754 0
756 -212 -755 0
-756 212 0
-756 755 0
-757 42 756 632 0
757 -42 0
757 -756 0
757 -632 0
758 -83 -757 0
-758 83 0
-758 757 0
-759 184 744 193 754 684 0
759 -184 0
759 -744 0
759 -193 0
759 -754 0
759 -684 0
760 -201 -759 0
-760 201 0
-760 759 0
-761 21 760 0
761 -21 0
761 -760 0
762 -85 -761 0
-762 85 0
-762 761 0
-763 89 153 154 66 69 758 762 0
763 -89 0
763 -153 0
763 -154 0
763 -66 0
763 -69 0
763 -758 0
763 -762 0
764 -157 -763 0
-764 157 0
-764 763 0
-765 46 631 741 764 0
765 -46 0
765 -631 0
765 -741 0
765 -764 0
766 -48 -765 0
-766 48 0
-766 765 0
767 -124 -763 0
-767 124 0
-767 763 0
-768 51 767 0
768 -51 0
768 -767 0
769 -50 -768 0
-769 50 0
-769 768 0
-770 53 717 13 16 766 769 0
770 -53 0
770 -717 0
770 -13 0
770 -16 0
770 -766 0
770 -769 0
771 -76 -770 0
-771 76 0
-771 770 0
772 -197 -759 0
-772 197 0
-772 759 0
773 -44 -757 0
-773 44 0
-773 757 0
-774 46 631 773 0
774 -46 0
774 -631 0
774 -773 0
775 -48 -774 0
-775 48 0
-775 774 0
-776 53 772 13 16 775 49 0
776 -53 0
776 -772 0
776 -13 0
776 -16 0
776 -775 0
776 -49 0
777 -55 -776 0
-777 55 0
-777 776 0
-778 57 777 0
778 -57 0
778 -777 0
779 -59 -778 0
-779 59 0
-779 778 0
-780 53 772 16 775 49 0
780 -53 0
780 -772 0
780 -16 0
780 -775 0
780 -49 0
781 -62 -780 0
-781 62 0
-781 780 0
-782 15 781 0
782 -15 0
782 -781 0
783 -65 -782 0
-783 65 0
-783 782 0
784 -87 -776 0
-784 87 0
-784 776 0
-785 89 779 783 66 69 758 762 784 0
785 -89 0
785 -779 0
785 -783 0
785 -66 0
785 -69 0
785 -758 0
785 -762 0
785 -784 0
786 -175 -785 0
-786 175 0
-786 785 0
-787 23 626 630 688 771 786 0
787 -23 0
787 -626 0
787 -630 0
787 -688 0
787 -771 0
787 -786 0
788 -789 -787 0
-788 789 0
-788 787 0
-790 791 185 529 552 554 560 579 596 612 624 788 0
790 -791 0
790 -185 0
790 -529 0
790 -552 0
790 -554 0
790 -560 0
790 -579 0
790 -596 0
790 -612 0
790 -624 0
790 -788 0
792 -793 -790 0
-792 793 0
-792 790 0
794 -142 -128 0
-794 142 0
-794 128 0
795 -145 -428 0
-795 145 0
-795 428 0
-796 3 795 0
796 -3 0
796 -795 0
797 -5 -796 0
-797 5 0
-797 796 0
798 -527 -342 0
-798 527 0
-798 342 0
-799 10 794 797 6 798 0
799 -10 0
799 -794 0
799 -797 0
799 -6 0
799 -798 0
800 -530 -799 0
-800 530 0
-800 799 0
801 -145 -569 0
-801 145 0
-801 569 0
-802 3 801 0
802 -3 0
802 -801 0
803 -580 -802 0
-803 580 0
-803 802 0
804 -142 -588 0
-804 142 0
-804 588 0
-805 10 804 797 798 0
805 -10 0
805 -804 0
805 -797 0
805 -798 0
806 -594 -805 0
-806 594 0
-806 805 0
-807 8 806 0
807 -8 0
807 -806 0
808 -597 -807 0
-808 597 0
-808 807 0
809 -613 -150 0
-809 613 0
-809 150 0
810 -621 -128 0
-810 621 0
-810 128 0
-811 623 810 0
811 -623 0
811 -810 0
812 -625 -811 0
-812 625 0
-812 811 0
813 -157 -689 0
-813 157 0
-813 689 0
-814 46 631 634 813 0
814 -46 0
814 -631 0
814 -634 0
814 -813 0
815 -48 -814 0
-815 48 0
-815 814 0
816 -50 -698 0
-816 50 0
-816 698 0
-817 53 13 16 815 816 0
817 -53 0
817 -13 0
817 -16 0
817 -815 0
817 -816 0
818 -76 -817 0
-818 76 0
-818 817 0
819 -175 -647 0
-819 175 0
-819 647 0
-820 23 626 630 19 818 819 0
820 -23 0
820 -626 0
820 -630 0
820 -19 0
820 -818 0
820 -819 0
821 -789 -820 0
-821 789 0
-821 820 0
-822 791 800 552 554 560 803 808 809 812 821 0
822 -791 0
822 -800 0
822 -552 0
822 -554 0
822 -560 0
822 -803 0
822 -808 0
822 -809 0
822 -812 0
822 -821 0
823 -824 -822 0
-823 824 0
-823 822 0
825 -527 -92 0
-825 527 0
-825 92 0
-826 10 4 6 825 0
826 -10 0
826 -4 0
826 -6 0
826 -825 0
827 -530 -826 0
-827 530 0
-827 826 0
828 -580 -3 0
-828 580 0
-828 3 0
829 -527 -426 0
-829 527 0
-829 426 0
-830 10 4 829 0
830 -10 0
830 -4 0
830 -829 0
831 -594 -830 0
-831 594 0
-831 830 0
-832 8 831 0
832 -8 0
832 -831 0
833 -597 -832 0
-833 597 0
-833 832 0
834 -613 -92 0
-834 613 0
-834 92 0
835 -625 -623 0
-835 625 0
-835 623 0
-836 791 827 552 554 560 828 833 834 835 821 0
836 -791 0
836 -827 0
836 -552 0
836 -554 0
836 -560 0
836 -828 0
836 -833 0
836 -834 0
836 -835 0
836 -821 0
837 -838 -836 0
-837 838 0
-837 836 0
839 -530 -9 0
-839 530 0
-839 9 0
-840 10 4 0
840 -10 0
840 -4 0
841 -594 -840 0
-841 594 0
-841 840 0
-842 8 841 0
842 -8 0
842 -841 0
843 -597 -842 0
-843 597 0
-843 842 0
844 -76 -637 0
-844 76 0
-844 637 0
-845 23 626 630 19 844 0
845 -23 0
845 -626 0
845 -630 0
845 -19 0
845 -844 0
846 -789 -845 0
-846 789 0
-846 845 0
-847 791 839 552 554 560 828 843 835 846 0
847 -791 0
847 -839 0
847 -552 0
847 -554 0
847 -560 0
847 -828 0
847 -843 0
847 -835 0
847 -846 0
848 -849 -847 0
-848 849 0
-848 847 0
-850 68 848 0
850 -68 0
850 -848 0
851 -67 -850 0
-851 67 0
-851 850 0
-852 89 58 64 851 69 82 84 86 0
852 -89 0
852 -58 0
852 -64 0
852 -851 0
852 -69 0
852 -82 0
852 -84 0
852 -86 0
853 -91 -852 0
-853 91 0
-853 852 0
-854 93 11 853 0
854 -93 0
854 -11 0
854 -853 0
855 -95 -854 0
-855 95 0
-855 854 0
856 -857 -836 0
-856 857 0
-856 836 0
-858 98 856 0
858 -98 0
858 -856 0
859 -97 -858 0
-859 97 0
-859 858 0
860 -91 -99 0
-860 91 0
-860 99 0
-861 93 11 860 0
861 -93 0
861 -11 0
861 -860 0
862 -527 -861 0
-862 527 0
-862 861 0
-863 10 4 6 862 0
863 -10 0
863 -4 0
863 -6 0
863 -862 0
864 -530 -863 0
-864 530 0
-864 863 0
-865 93 860 0
865 -93 0
865 -860 0
866 -527 -865 0
-866 527 0
-866 865 0
-867 10 4 866 0
867 -10 0
867 -4 0
867 -866 0
868 -594 -867 0
-868 594 0
-868 867 0
-869 8 868 0
869 -8 0
869 -868 0
870 -597 -869 0
-870 597 0
-870 869 0
871 -613 -861 0
-871 613 0
-871 861 0
872 -157 -693 0
-872 157 0
-872 693 0
-873 46 631 634 872 0
873 -46 0
873 -631 0
873 -634 0
873 -872 0
874 -48 -873 0
-874 48 0
-874 873 0
875 -124 -693 0
-875 124 0
-875 693 0
-876 51 875 0
876 -51 0
876 -875 0
877 -50 -876 0
-877 50 0
-877 876 0
-878 53 13 16 874 877 0
878 -53 0
878 -13 0
878 -16 0
878 -874 0
878 -877 0
879 -76 -878 0
-879 76 0
-879 878 0
880 -175 -651 0
-880 175 0
-880 651 0
-881 23 626 630 19 879 880 0
881 -23 0
881 -626 0
881 -630 0
881 -19 0
881 -879 0
881 -880 0
882 -789 -881 0
-882 789 0
-882 881 0
-883 791 864 552 554 560 828 870 871 835 882 0
883 -791 0
883 -864 0
883 -552 0
883 -554 0
883 -560 0
883 -828 0
883 -870 0
883 -871 0
883 -835 0
883 -882 0
884 -849 -883 0
-884 849 0
-884 883 0
-885 68 884 100 0
885 -68 0
885 -884 0
885 -100 0
886 -104 -885 0
-886 104 0
-886 885 0
887 -527 -256 0
-887 527 0
-887 256 0
-888 10 4 6 887 0
888 -10 0
888 -4 0
888 -6 0
888 -887 0
889 -530 -888 0
-889 530 0
-889 888 0
890 -527 -93 0
-890 527 0
-890 93 0
-891 10 4 890 0
891 -10 0
891 -4 0
891 -890 0
892 -594 -891 0
-892 594 0
-892 891 0
-893 8 892 0
893 -8 0
893 -892 0
894 -597 -893 0
-894 597 0
-894 893 0
895 -613 -256 0
-895 613 0
-895 256 0
896 -76 -655 0
-896 76 0
-896 655 0
-897 23 626 630 19 896 0
897 -23 0
897 -626 0
897 -630 0
897 -19 0
897 -896 0
898 -789 -897 0
-898 789 0
-898 897 0
-899 791 889 552 554 560 828 894 895 835 898 0
899 -791 0
899 -889 0
899 -552 0
899 -554 0
899 -560 0
899 -828 0
899 -894 0
899 -895 0
899 -835 0
899 -898 0
900 -849 -899 0
-900 849 0
-900 899 0
-901 68 900 0
901 -68 0
901 -900 0
902 -67 -901 0
-902 67 0
-902 901 0
-903 89 108 112 902 69 120 84 121 0
903 -89 0
903 -108 0
903 -112 0
903 -902 0
903 -69 0
903 -120 0
903 -84 0
903 -121 0
904 -124 -903 0
-904 124 0
-904 903 0
-905 51 904 0
905 -51 0
905 -904 0
906 -127 -905 0
-906 127 0
-906 905 0
-907 129 837 1 855 859 886 906 0
907 -129 0
907 -837 0
907 -1 0
907 -855 0
907 -859 0
907 -886 0
907 -906 0
908 -131 -907 0
-908 131 0
-908 907 0
909 -142 -743 0
-909 142 0
-909 743 0
910 -95 -93 0
-910 95 0
-910 93 0
-911 129 910 96 472 473 0
911 -129 0
911 -910 0
911 -96 0
911 -472 0
911 -473 0
912 -145 -911 0
-912 145 0
-912 911 0
-913 3 912 0
913 -3 0
913 -912 0
914 -5 -913 0
-914 5 0
-914 913 0
-915 93 745 0
915 -93 0
915 -745 0
916 -527 -915 0
-916 527 0
-916 915 0
-917 10 909 914 6 916 0
917 -10 0
917 -909 0
917 -914 0
917 -6 0
917 -916 0
918 -530 -917 0
-918 530 0
-918 917 0
-919 129 742 96 472 473 0
919 -129 0
919 -742 0
919 -96 0
919 -472 0
919 -473 0
920 -145 -919 0
-920 145 0
-920 919 0
-921 3 920 0
921 -3 0
921 -920 0
922 -580 -921 0
-922 580 0
-922 921 0
-923 129 1 910 96 472 473 0
923 -129 0
923 -1 0
923 -910 0
923 -96 0
923 -472 0
923 -473 0
924 -142 -923 0
-924 142 0
-924 923 0
-925 10 924 914 916 0
925 -10 0
925 -924 0
925 -914 0
925 -916 0
926 -594 -925 0
-926 594 0
-926 925 0
-927 8 926 0
927 -8 0
927 -926 0
928 -597 -927 0
-928 597 0
-928 927 0
929 -613 -753 0
-929 613 0
-929 753 0
930 -621 -743 0
-930 621 0
-930 743 0
-931 623 930 0
931 -623 0
931 -930 0
932 -625 -931 0
-932 625 0
-932 931 0
-933 791 918 552 554 560 922 928 929 932 846 0
933 -791 0
933 -918 0
933 -552 0
933 -554 0
933 -560 0
933 -922 0
933 -928 0
933 -929 0
933 -932 0
933 -846 0
934 -849 -933 0
-934 849 0
-934 933 0
-935 68 934 0
935 -68 0
935 -934 0
936 -67 -935 0
-936 67 0
-936 935 0
-937 89 58 64 936 69 82 84 86 0
937 -89 0
937 -58 0
937 -64 0
937 -936 0
937 -69 0
937 -82 0
937 -84 0
937 -86 0
938 -133 -937 0
-938 133 0
-938 937 0
-939 135 938 0
939 -135 0
939 -938 0
940 -137 -939 0
-940 137 0
-940 939 0
-941 791 839 552 554 560 828 843 835 821 0
941 -791 0
941 -839 0
941 -552 0
941 -554 0
941 -560 0
941 -828 0
941 -843 0
941 -835 0
941 -821 0
942 -838 -941 0
-942 838 0
-942 941 0
943 -857 -941 0
-943 857 0
-943 941 0
-944 98 943 0
944 -98 0
944 -943 0
945 -97 -944 0
-945 97 0
-945 944 0
-946 791 839 552 554 560 828 843 835 882 0
946 -791 0
946 -839 0
946 -552 0
946 -554 0
946 -560 0
946 -828 0
946 -843 0
946 -835 0
946 -882 0
947 -849 -946 0
-947 849 0
-947 946 0
-948 68 947 100 0
948 -68 0
948 -947 0
948 -100 0
949 -104 -948 0
-949 104 0
-949 948 0
-950 791 839 552 554 560 828 843 835 898 0
950 -791 0
950 -839 0
950 -552 0
950 -554 0
950 -560 0
950 -828 0
950 -843 0
950 -835 0
950 -898 0
951 -849 -950 0
-951 849 0
-951 950 0
-952 68 951 0
952 -68 0
952 -951 0
953 -67 -952 0
-953 67 0
-953 952 0
-954 89 108 112 953 69 120 84 121 0
954 -89 0
954 -108 0
954 -112 0
954 -953 0
954 -69 0
954 -120 0
954 -84 0
954 -121 0
955 -124 -954 0
-955 124 0
-955 954 0
-956 51 955 0
956 -51 0
956 -955 0
957 -127 -956 0
-957 127 0
-957 956 0
-958 129 942 1 945 949 957 0
958 -129 0
958 -942 0
958 -1 0
958 -945 0
958 -949 0
958 -957 0
959 -140 -958 0
-959 140 0
-959 958 0
960 -597 -8 0
-960 597 0
-960 8 0
-961 791 839 552 554 560 828 960 835 821 0
961 -791 0
961 -839 0
961 -552 0
961 -554 0
961 -560 0
961 -828 0
961 -960 0
961 -835 0
961 -821 0
962 -838 -961 0
-962 838 0
-962 961 0
963 -857 -961 0
-963 857 0
-963 961 0
-964 98 963 0
964 -98 0
964 -963 0
965 -97 -964 0
-965 97 0
-965 964 0
-966 791 839 552 554 560 828 960 835 882 0
966 -791 0
966 -839 0
966 -552 0
966 -554 0
966 -560 0
966 -828 0
966 -960 0
966 -835 0
966 -882 0
967 -849 -966 0
-967 849 0
-967 966 0
-968 68 967 100 0
968 -68 0
968 -967 0
968 -100 0
969 -104 -968 0
-969 104 0
-969 968 0
-970 791 839 552 554 560 828 960 835 898 0
970 -791 0
970 -839 0
970 -552 0
970 -554 0
970 -560 0
970 -828 0
970 -960 0
970 -835 0
970 -898 0
971 -849 -970 0
-971 849 0
-971 970 0
-972 68 971 0
972 -68 0
972 -971 0
973 -67 -972 0
-973 67 0
-973 972 0
-974 89 108 112 973 69 120 84 121 0
974 -89 0
974 -108 0
974 -112 0
974 -973 0
974 -69 0
974 -120 0
974 -84 0
974 -121 0
975 -124 -974 0
-975 124 0
-975 974 0
-976 51 975 0
976 -51 0
976 -975 0
977 -127 -976 0
-977 127 0
-977 976 0
-978 129 962 1 965 969 977 0
978 -129 0
978 -962 0
978 -1 0
978 -965 0
978 -969 0
978 -977 0
979 -142 -978 0
-979 142 0
-979 978 0
-980 791 552 554 560 828 960 835 821 0
980 -791 0
980 -552 0
980 -554 0
980 -560 0
980 -828 0
980 -960 0
980 -835 0
980 -821 0
981 -838 -980 0
-981 838 0
-981 980 0
982 -857 -980 0
-982 857 0
-982 980 0
-983 98 982 0
983 -98 0
983 -982 0
984 -97 -983 0
-984 97 0
-984 983 0
-985 791 552 554 560 828 960 835 882 0
985 -791 0
985 -552 0
985 -554 0
985 -560 0
985 -828 0
985 -960 0
985 -835 0
985 -882 0
986 -849 -985 0
-986 849 0
-986 985 0
-987 68 986 100 0
987 -68 0
987 -986 0
987 -100 0
988 -104 -987 0
-988 104 0
-988 987 0
-989 791 552 554 560 828 960 835 898 0
989 -791 0
989 -552 0
989 -554 0
989 -560 0
989 -828 0
989 -960 0
989 -835 0
989 -898 0
990 -849 -989 0
-990 849 0
-990 989 0
-991 68 990 0
991 -68 0
991 -990 0
992 -67 -991 0
-992 67 0
-992 991 0
-993 89 108 112 992 69 120 84 121 0
993 -89 0
993 -108 0
993 -112 0
993 -992 0
993 -69 0
993 -120 0
993 -84 0
993 -121 0
994 -124 -993 0
-994 124 0
-994 993 0
-995 51 994 0
995 -51 0
995 -994 0
996 -127 -995 0
-996 127 0
-996 995 0
-997 129 981 984 988 996 0
997 -129 0
997 -981 0
997 -984 0
997 -988 0
997 -996 0
998 -145 -997 0
-998 145 0
-998 997 0
-999 3 998 0
999 -3 0
999 -998 0
1000 -5 -999 0
-1000 5 0
-1000 999 0
-1001 10 979 1000 6 0
1001 -10 0
1001 -979 0
1001 -1000 0
1001 -6 0
1002 -12 -1001 0
-1002 12 0
-1002 1001 0
1003 -530 -751 0
-1003 530 0
-1003 751 0
1004 -580 -749 0
-1004 580 0
-1004 749 0
-1005 10 746 750 0
1005 -10 0
1005 -746 0
1005 -750 0
1006 -594 -1005 0
-1006 594 0
-1006 1005 0
-1007 8 1006 0
1007 -8 0
1007 -1006 0
1008 -597 -1007 0
-1008 597 0
-1008 1007 0
1009 -621 -474 0
-1009 621 0
-1009 474 0
-1010 623 1009 0
1010 -623 0
1010 -1009 0
1011 -625 -1010 0
-1011 625 0
-1011 1010 0
-1012 791 1003 552 554 560 1004 1008 1011 846 0
1012 -791 0
1012 -1003 0
1012 -552 0
1012 -554 0
1012 -560 0
1012 -1004 0
1012 -1008 0
1012 -1011 0
1012 -846 0
1013 -849 -1012 0
-1013 849 0
-1013 1012 0
-1014 68 1013 0
1014 -68 0
1014 -1013 0
1015 -67 -1014 0
-1015 67 0
-1015 1014 0
-1016 89 58 64 1015 69 82 84 86 0
1016 -89 0
1016 -58 0
1016 -64 0
1016 -1015 0
1016 -69 0
1016 -82 0
1016 -84 0
1016 -86 0
1017 -91 -1016 0
-1017 91 0
-1017 1016 0
-1018 93 959 1002 1017 0
1018 -93 0
1018 -959 0
1018 -1002 0
1018 -1017 0
1019 -152 -1018 0
-1019 152 0
-1019 1018 0
-1020 10 924 914 6 916 0
1020 -10 0
1020 -924 0
1020 -914 0
1020 -6 0
1020 -916 0
1021 -530 -1020 0
-1021 530 0
-1021 1020 0
-1022 791 1021 552 554 560 922 928 929 932 0
1022 -791 0
1022 -1021 0
1022 -552 0
1022 -554 0
1022 -560 0
1022 -922 0
1022 -928 0
1022 -929 0
1022 -932 0
1023 -849 -1022 0
-1023 849 0
-1023 1022 0
-1024 68 1023 0
1024 -68 0
1024 -1023 0
1025 -67 -1024 0
-1025 67 0
-1025 1024 0
-1026 89 153 154 1025 69 84 0
1026 -89 0
1026 -153 0
1026 -154 0
1026 -1025 0
1026 -69 0
1026 -84 0
1027 -157 -1026 0
-1027 157 0
-1027 1026 0
-1028 46 71 1027 0
1028 -46 0
1028 -71 0
1028 -1027 0
1029 -48 -1028 0
-1029 48 0
-1029 1028 0
1030 -124 -1026 0
-1030 124 0
-1030 1026 0
-1031 51 1030 0
1031 -51 0
1031 -1030 0
1032 -50 -1031 0
-1032 50 0
-1032 1031 0
-1033 53 13 16 1029 1032 0
1033 -53 0
1033 -13 0
1033 -16 0
1033 -1029 0
1033 -1032 0
1034 -76 -1033 0
-1034 76 0
-1034 1033 0
-1035 89 167 171 1025 69 84 172 0
1035 -89 0
1035 -167 0
1035 -171 0
1035 -1025 0
1035 -69 0
1035 -84 0
1035 -172 0
1036 -175 -1035 0
-1036 175 0
-1036 1035 0
-1037 23 34 19 1034 1036 0
1037 -23 0
1037 -34 0
1037 -19 0
1037 -1034 0
1037 -1036 0
1038 -25 -1037 0
-1038 25 0
-1038 1037 0
-1039 27 1038 0
1039 -27 0
1039 -1038 0
1040 -40 -1039 0
-1040 40 0
-1040 1039 0
-1041 42 1040 0
1041 -42 0
1041 -1040 0
1042 -182 -1041 0
-1042 182 0
-1042 1041 0
-1043 184 823 908 940 1019 1042 0
1043 -184 0
1043 -823 0
1043 -908 0
1043 -940 0
1043 -1019 0
1043 -1042 0
1044 -1045 -1043 0
-1044 1045 0
-1044 1043 0
-1046 791 1021 552 554 560 922 928 929 932 898 0
1046 -791 0
1046 -1021 0
1046 -552 0
1046 -554 0
1046 -560 0
1046 -922 0
1046 -928 0
1046 -929 0
1046 -932 0
1046 -898 0
1047 -824 -1046 0
-1047 824 0
-1047 1046 0
-1048 10 4 6 890 0
1048 -10 0
1048 -4 0
1048 -6 0
1048 -890 0
1049 -530 -1048 0
-1049 530 0
-1049 1048 0
-1050 791 1049 552 554 560 828 894 895 835 898 0
1050 -791 0
1050 -1049 0
1050 -552 0
1050 -554 0
1050 -560 0
1050 -828 0
1050 -894 0
1050 -895 0
1050 -835 0
1050 -898 0
1051 -838 -1050 0
-1051 838 0
-1051 1050 0
1052 -857 -1050 0
-1052 857 0
-1052 1050 0
-1053 98 1052 0
1053 -98 0
1053 -1052 0
1054 -97 -1053 0
-1054 97 0
-1054 1053 0
1055 -849 -1050 0
-1055 849 0
-1055 1050 0
-1056 68 1055 0
1056 -68 0
1056 -1055 0
1057 -104 -1056 0
-1057 104 0
-1057 1056 0
-1058 129 1051 1 742 1054 1057 473 0
1058 -129 0
1058 -1051 0
1058 -1 0
1058 -742 0
1058 -1054 0
1058 -1057 0
1058 -473 0
1059 -131 -1058 0
-1059 131 0
-1059 1058 0
1060 -838 -950 0
-1060 838 0
-1060 950 0
1061 -857 -950 0
-1061 857 0
-1061 950 0
-1062 98 1061 0
1062 -98 0
1062 -1061 0
1063 -97 -1062 0
-1063 97 0
-1063 1062 0
1064 -104 -952 0
-1064 104 0
-1064 952 0
-1065 129 1060 1 1063 1064 473 0
1065 -129 0
1065 -1060 0
1065 -1 0
1065 -1063 0
1065 -1064 0
1065 -473 0
1066 -140 -1065 0
-1066 140 0
-1066 1065 0
1067 -838 -970 0
-1067 838 0
-1067 970 0
1068 -857 -970 0
-1068 857 0
-1068 970 0
-1069 98 1068 0
1069 -98 0
1069 -1068 0
1070 -97 -1069 0
-1070 97 0
-1070 1069 0
1071 -104 -972 0
-1071 104 0
-1071 972 0
-1072 129 1067 1 1070 1071 473 0
1072 -129 0
1072 -1067 0
1072 -1 0
1072 -1070 0
1072 -1071 0
1072 -473 0
1073 -142 -1072 0
-1073 142 0
-1073 1072 0
1074 -838 -989 0
-1074 838 0
-1074 989 0
1075 -857 -989 0
-1075 857 0
-1075 989 0
-1076 98 1075 0
1076 -98 0
1076 -1075 0
1077 -97 -1076 0
-1077 97 0
-1077 1076 0
1078 -104 -991 0
-1078 104 0
-1078 991 0
-1079 129 1074 1077 1078 473 0
1079 -129 0
1079 -1074 0
1079 -1077 0
1079 -1078 0
1079 -473 0
1080 -145 -1079 0
-1080 145 0
-1080 1079 0
-1081 3 1080 0
1081 -3 0
1081 -1080 0
1082 -5 -1081 0
-1082 5 0
-1082 1081 0
-1083 10 1073 1082 6 0
1083 -10 0
1083 -1073 0
1083 -1082 0
1083 -6 0
1084 -12 -1083 0
-1084 12 0
-1084 1083 0
-1085 93 1066 1084 0
1085 -93 0
1085 -1066 0
1085 -1084 0
1086 -152 -1085 0
-1086 152 0
-1086 1085 0
-1087 184 1047 1059 193 1086 194 0
1087 -184 0
1087 -1047 0
1087 -1059 0
1087 -193 0
1087 -1086 0
1087 -194 0
1088 -197 -1087 0
-1088 197 0
-1088 1087 0
1089 -824 -1022 0
-1089 824 0
-1089 1022 0
-1090 791 1049 552 554 560 828 894 895 835 0
1090 -791 0
1090 -1049 0
1090 -552 0
1090 -554 0
1090 -560 0
1090 -828 0
1090 -894 0
1090 -895 0
1090 -835 0
1091 -838 -1090 0
-1091 838 0
-1091 1090 0
1092 -857 -1090 0
-1092 857 0
-1092 1090 0
-1093 98 1092 0
1093 -98 0
1093 -1092 0
1094 -97 -1093 0
-1094 97 0
-1094 1093 0
1095 -849 -1090 0
-1095 849 0
-1095 1090 0
-1096 68 1095 0
1096 -68 0
1096 -1095 0
1097 -104 -1096 0
-1097 104 0
-1097 1096 0
-1098 129 1091 1 742 1094 1097 473 0
1098 -129 0
1098 -1091 0
1098 -1 0
1098 -742 0
1098 -1094 0
1098 -1097 0
1098 -473 0
1099 -131 -1098 0
-1099 131 0
-1099 1098 0
-1100 791 839 552 554 560 828 843 835 0
1100 -791 0
1100 -839 0
1100 -552 0
1100 -554 0
1100 -560 0
1100 -828 0
1100 -843 0
1100 -835 0
1101 -838 -1100 0
-1101 838 0
-1101 1100 0
1102 -857 -1100 0
-1102 857 0
-1102 1100 0
-1103 98 1102 0
1103 -98 0
1103 -1102 0
1104 -97 -1103 0
-1104 97 0
-1104 1103 0
1105 -849 -1100 0
-1105 849 0
-1105 1100 0
-1106 68 1105 0
1106 -68 0
1106 -1105 0
1107 -104 -1106 0
-1107 104 0
-1107 1106 0
-1108 129 1101 1 1104 1107 473 0
1108 -129 0
1108 -1101 0
1108 -1 0
1108 -1104 0
1108 -1107 0
1108 -473 0
1109 -140 -1108 0
-1109 140 0
-1109 1108 0
-1110 791 839 552 554 560 828 960 835 0
1110 -791 0
1110 -839 0
1110 -552 0
1110 -554 0
1110 -560 0
1110 -828 0
1110 -960 0
1110 -835 0
1111 -838 -1110 0
-1111 838 0
-1111 1110 0
1112 -857 -1110 0
-1112 857 0
-1112 1110 0
-1113 98 1112 0
1113 -98 0
1113 -1112 0
1114 -97 -1113 0
-1114 97 0
-1114 1113 0
1115 -849 -1110 0
-1115 849 0
-1115 1110 0
-1116 68 1115 0
1116 -68 0
1116 -1115 0
1117 -104 -1116 0
-1117 104 0
-1117 1116 0
-1118 129 1111 1 1114 1117 473 0
1118 -129 0
1118 -1111 0
1118 -1 0
1118 -1114 0
1118 -1117 0
1118 -473 0
1119 -142 -1118 0
-1119 142 0
-1119 1118 0
-1120 791 552 554 560 828 960 835 0
1120 -791 0
1120 -552 0
1120 -554 0
1120 -560 0
1120 -828 0
1120 -960 0
1120 -835 0
1121 -838 -1120 0
-1121 838 0
-1121 1120 0
1122 -857 -1120 0
-1122 857 0
-1122 1120 0
-1123 98 1122 0
1123 -98 0
1123 -1122 0
1124 -97 -1123 0
-1124 97 0
-1124 1123 0
1125 -849 -1120 0
-1125 849 0
-1125 1120 0
-1126 68 1125 0
1126 -68 0
1126 -1125 0
1127 -104 -1126 0
-1127 104 0
-1127 1126 0
-1128 129 1121 1124 1127 473 0
1128 -129 0
1128 -1121 0
1128 -1124 0
1128 -1127 0
1128 -473 0
1129 -145 -1128 0
-1129 145 0
-1129 1128 0
-1130 3 1129 0
1130 -3 0
1130 -1129 0
1131 -5 -1130 0
-1131 5 0
-1131 1130 0
-1132 10 1119 1131 6 0
1132 -10 0
1132 -1119 0
1132 -1131 0
1132 -6 0
1133 -12 -1132 0
-1133 12 0
-1133 1132 0
-1134 93 1109 1133 0
1134 -93 0
1134 -1109 0
1134 -1133 0
1135 -152 -1134 0
-1135 152 0
-1135 1134 0
-1136 184 1089 1099 193 1135 198 0
1136 -184 0
1136 -1089 0
1136 -1099 0
1136 -193 0
1136 -1135 0
1136 -198 0
1137 -201 -1136 0
-1137 201 0
-1137 1136 0
-1138 21 1137 0
1138 -21 0
1138 -1137 0
1139 -20 -1138 0
-1139 20 0
-1139 1138 0
-1140 23 1139 0
1140 -23 0
1140 -1139 0
1141 -25 -1140 0
-1141 25 0
-1141 1140 0
-1142 27 1141 0
1142 -27 0
1142 -1141 0
1143 -29 -1142 0
-1143 29 0
-1143 1142 0
-1144 31 1143 0
1144 -31 0
1144 -1143 0
1145 -33 -1144 0
-1145 33 0
-1145 1144 0
-1146 23 626 630 19 0
1146 -23 0
1146 -626 0
1146 -630 0
1146 -19 0
1147 -789 -1146 0
-1147 789 0
-1147 1146 0
-1148 791 1021 552 554 560 922 928 929 932 1147 0
1148 -791 0
1148 -1021 0
1148 -552 0
1148 -554 0
1148 -560 0
1148 -922 0
1148 -928 0
1148 -929 0
1148 -932 0
1148 -1147 0
1149 -824 -1148 0
-1149 824 0
-1149 1148 0
-1150 791 1049 552 554 560 828 894 895 835 1147 0
1150 -791 0
1150 -1049 0
1150 -552 0
1150 -554 0
1150 -560 0
1150 -828 0
1150 -894 0
1150 -895 0
1150 -835 0
1150 -1147 0
1151 -838 -1150 0
-1151 838 0
-1151 1150 0
1152 -857 -1150 0
-1152 857 0
-1152 1150 0
-1153 98 1152 0
1153 -98 0
1153 -1152 0
1154 -97 -1153 0
-1154 97 0
-1154 1153 0
1155 -849 -1150 0
-1155 849 0
-1155 1150 0
-1156 68 1155 0
1156 -68 0
1156 -1155 0
1157 -104 -1156 0
-1157 104 0
-1157 1156 0
-1158 129 1151 1 742 1154 1157 473 0
1158 -129 0
1158 -1151 0
1158 -1 0
1158 -742 0
1158 -1154 0
1158 -1157 0
1158 -473 0
1159 -131 -1158 0
-1159 131 0
-1159 1158 0
-1160 791 839 552 554 560 828 843 835 1147 0
1160 -791 0
1160 -839 0
1160 -552 0
1160 -554 0
1160 -560 0
1160 -828 0
1160 -843 0
1160 -835 0
1160 -1147 0
1161 -838 -1160 0
-1161 838 0
-1161 1160 0
1162 -857 -1160 0
-1162 857 0
-1162 1160 0
-1163 98 1162 0
1163 -98 0
1163 -1162 0
1164 -97 -1163 0
-1164 97 0
-1164 1163 0
1165 -849 -1160 0
-1165 849 0
-1165 1160 0
-1166 68 1165 0
1166 -68 0
1166 -1165 0
1167 -104 -1166 0
-1167 104 0
-1167 1166 0
-1168 129 1161 1 1164 1167 473 0
1168 -129 0
1168 -1161 0
1168 -1 0
1168 -1164 0
1168 -1167 0
1168 -473 0
1169 -140 -1168 0
-1169 140 0
-1169 1168 0
-1170 791 839 552 554 560 828 960 835 1147 0
1170 -791 0
1170 -839 0
1170 -552 0
1170 -554 0
1170 -560 0
1170 -828 0
1170 -960 0
1170 -835 0
1170 -1147 0
1171 -838 -1170 0
-1171 838 0
-1171 1170 0
1172 -857 -1170 0
-1172 857 0
-1172 1170 0
-1173 98 1172 0
1173 -98 0
1173 -1172 0
1174 -97 -1173 0
-1174 97 0
-1174 1173 0
1175 -849 -1170 0
-1175 849 0
-1175 1170 0
-1176 68 1175 0
1176 -68 0
1176 -1175 0
1177 -104 -1176 0
-1177 104 0
-1177 1176 0
-1178 129 1171 1 1174 1177 473 0
1178 -129 0
1178 -1171 0
1178 -1 0
1178 -1174 0
1178 -1177 0
1178 -473 0
1179 -142 -1178 0
-1179 142 0
-1179 1178 0
-1180 791 552 554 560 828 960 835 1147 0
1180 -791 0
1180 -552 0
1180 -554 0
1180 -560 0
1180 -828 0
1180 -960 0
1180 -835 0
1180 -1147 0
1181 -838 -1180 0
-1181 838 0
-1181 1180 0
1182 -857 -1180 0
-1182 857 0
-1182 1180 0
-1183 98 1182 0
1183 -98 0
1183 -1182 0
1184 -97 -1183 0
-1184 97 0
-1184 1183 0
1185 -849 -1180 0
-1185 849 0
-1185 1180 0
-1186 68 1185 0
1186 -68 0
1186 -1185 0
1187 -104 -1186 0
-1187 104 0
-1187 1186 0
-1188 129 1181 1184 1187 473 0
1188 -129 0
1188 -1181 0
1188 -1184 0
1188 -1187 0
1188 -473 0
1189 -145 -1188 0
-1189 145 0
-1189 1188 0
-1190 3 1189 0
1190 -3 0
1190 -1189 0
1191 -5 -1190 0
-1191 5 0
-1191 1190 0
-1192 10 1179 1191 6 0
1192 -10 0
1192 -1179 0
1192 -1191 0
1192 -6 0
1193 -12 -1192 0
-1193 12 0
-1193 1192 0
-1194 93 1169 1193 0
1194 -93 0
1194 -1169 0
1194 -1193 0
1195 -152 -1194 0
-1195 152 0
-1195 1194 0
-1196 184 1149 1159 193 1195 0
1196 -184 0
1196 -1149 0
1196 -1159 0
1196 -193 0
1196 -1195 0
1197 -212 -1196 0
-1197 212 0
-1197 1196 0
-1198 184 1089 1099 193 1135 0
1198 -184 0
1198 -1089 0
1198 -1099 0
1198 -193 0
1198 -1135 0
1199 -201 -1198 0
-1199 201 0
-1199 1198 0
-1200 21 1199 0
1200 -21 0
1200 -1199 0
1201 -20 -1200 0
-1201 20 0
-1201 1200 0
-1202 23 34 1201 0
1202 -23 0
1202 -34 0
1202 -1201 0
1203 -25 -1202 0
-1203 25 0
-1203 1202 0
-1204 27 1203 0
1204 -27 0
1204 -1203 0
1205 -40 -1204 0
-1205 40 0
-1205 1204 0
-1206 42 1197 1205 0
1206 -42 0
1206 -1197 0
1206 -1205 0
1207 -44 -1206 0
-1207 44 0
-1207 1206 0
-1208 46 1145 1207 0
1208 -46 0
1208 -1145 0
1208 -1207 0
1209 -48 -1208 0
-1209 48 0
-1209 1208 0
-1210 53 1088 13 16 1209 0
1210 -53 0
1210 -1088 0
1210 -13 0
1210 -16 0
1210 -1209 0
1211 -55 -1210 0
-1211 55 0
-1211 1210 0
-1212 57 1211 0
1212 -57 0
1212 -1211 0
1213 -59 -1212 0
-1213 59 0
-1213 1212 0
-1214 184 1149 1159 193 1195 194 0
1214 -184 0
1214 -1149 0
1214 -1159 0
1214 -193 0
1214 -1195 0
1214 -194 0
1215 -197 -1214 0
-1215 197 0
-1215 1214 0
-1216 53 1215 16 1209 0
1216 -53 0
1216 -1215 0
1216 -16 0
1216 -1209 0
1217 -62 -1216 0
-1217 62 0
-1217 1216 0
-1218 15 1217 0
1218 -15 0
1218 -1217 0
1219 -65 -1218 0
-1219 65 0
-1219 1218 0
1220 -182 -119 0
-1220 182 0
-1220 119 0
-1221 184 744 193 754 1220 0
1221 -184 0
1221 -744 0
1221 -193 0
1221 -754 0
1221 -1220 0
1222 -186 -1221 0
-1222 186 0
-1222 1221 0
-1223 184 193 347 1220 0
1223 -184 0
1223 -193 0
1223 -347 0
1223 -1220 0
1224 -190 -1223 0
-1224 190 0
-1224 1223 0
-1225 3 1224 0
1225 -3 0
1225 -1224 0
1226 -2 -1225 0
-1226 2 0
-1226 1225 0
-1227 129 1226 910 96 472 473 0
1227 -129 0
1227 -1226 0
1227 -910 0
1227 -96 0
1227 -472 0
1227 -473 0
1228 -142 -1227 0
-1228 142 0
-1228 1227 0
1229 -131 -923 0
-1229 131 0
-1229 923 0
1230 -152 -915 0
-1230 152 0
-1230 915 0
-1231 184 1229 193 1230 1220 0
1231 -184 0
1231 -1229 0
1231 -193 0
1231 -1230 0
1231 -1220 0
1232 -346 -1231 0
-1232 346 0
-1232 1231 0
1233 -131 -911 0
-1233 131 0
-1233 911 0
1234 -140 -747 0
-1234 140 0
-1234 747 0
-1235 93 1234 0
1235 -93 0
1235 -1234 0
1236 -152 -1235 0
-1236 152 0
-1236 1235 0
-1237 184 1233 193 1236 1220 0
1237 -184 0
1237 -1233 0
1237 -193 0
1237 -1236 0
1237 -1220 0
1238 -190 -1237 0
-1238 190 0
-1238 1237 0
-1239 3 912 1238 0
1239 -3 0
1239 -912 0
1239 -1238 0
1240 -5 -1239 0
-1240 5 0
-1240 1239 0
-1241 184 193 1220 0
1241 -184 0
1241 -193 0
1241 -1220 0
1242 -190 -1241 0
-1242 190 0
-1242 1241 0
-1243 3 1242 0
1243 -3 0
1243 -1242 0
1244 -2 -1243 0
-1244 2 0
-1244 1243 0
-1245 129 1244 96 472 473 0
1245 -129 0
1245 -1244 0
1245 -96 0
1245 -472 0
1245 -473 0
1246 -140 -1245 0
-1246 140 0
-1246 1245 0
-1247 93 1246 0
1247 -93 0
1247 -1246 0
1248 -527 -1247 0
-1248 527 0
-1248 1247 0
-1249 10 1228 1232 1240 6 1248 0
1249 -10 0
1249 -1228 0
1249 -1232 0
1249 -1240 0
1249 -6 0
1249 -1248 0
1250 -530 -1249 0
-1250 530 0
-1250 1249 0
1251 -346 -1241 0
-1251 346 0
-1251 1241 0
-1252 10 1251 6 0
1252 -10 0
1252 -1251 0
1252 -6 0
1253 -12 -1252 0
-1253 12 0
-1253 1252 0
-1254 93 1253 0
1254 -93 0
1254 -1253 0
1255 -95 -1254 0
-1255 95 0
-1255 1254 0
-1256 129 1255 96 472 473 0
1256 -129 0
1256 -1255 0
1256 -96 0
1256 -472 0
1256 -473 0
1257 -145 -1256 0
-1257 145 0
-1257 1256 0
1258 -131 -919 0
-1258 131 0
-1258 919 0
1259 -142 -747 0
-1259 142 0
-1259 747 0
-1260 10 1259 6 0
1260 -10 0
1260 -1259 0
1260 -6 0
1261 -12 -1260 0
-1261 12 0
-1261 1260 0
-1262 93 1234 1261 0
1262 -93 0
1262 -1234 0
1262 -1261 0
1263 -152 -1262 0
-1263 152 0
-1263 1262 0
-1264 184 1258 193 1263 1220 0
1264 -184 0
1264 -1258 0
1264 -193 0
1264 -1263 0
1264 -1220 0
1265 -190 -1264 0
-1265 190 0
-1265 1264 0
-1266 3 1257 1265 0
1266 -3 0
1266 -1257 0
1266 -1265 0
1267 -580 -1266 0
-1267 580 0
-1267 1266 0
-1268 10 1228 1232 1240 1248 0
1268 -10 0
1268 -1228 0
1268 -1232 0
1268 -1240 0
1268 -1248 0
1269 -594 -1268 0
-1269 594 0
-1269 1268 0
-1270 8 1269 0
1270 -8 0
1270 -1269 0
1271 -597 -1270 0
-1271 597 0
-1271 1270 0
1272 -142 -1245 0
-1272 142 0
-1272 1245 0
-1273 184 475 193 1220 0
1273 -184 0
1273 -475 0
1273 -193 0
1273 -1220 0
1274 -346 -1273 0
-1274 346 0
-1274 1273 0
1275 -131 -747 0
-1275 131 0
-1275 747 0
-1276 184 1275 193 1220 0
1276 -184 0
1276 -1275 0
1276 -193 0
1276 -1220 0
1277 -190 -1276 0
-1277 190 0
-1277 1276 0
-1278 3 748 1277 0
1278 -3 0
1278 -748 0
1278 -1277 0
1279 -5 -1278 0
-1279 5 0
-1279 1278 0
-1280 10 1272 1274 1279 6 0
1280 -10 0
1280 -1272 0
1280 -1274 0
1280 -1279 0
1280 -6 0
1281 -12 -1280 0
-1281 12 0
-1281 1280 0
-1282 93 1246 1281 0
1282 -93 0
1282 -1246 0
1282 -1281 0
1283 -613 -1282 0
-1283 613 0
-1283 1282 0
-1284 184 193 257 1220 0
1284 -184 0
1284 -193 0
1284 -257 0
1284 -1220 0
1285 -190 -1284 0
-1285 190 0
-1285 1284 0
-1286 3 1285 0
1286 -3 0
1286 -1285 0
1287 -2 -1286 0
-1287 2 0
-1287 1286 0
1288 -5 -1243 0
-1288 5 0
-1288 1243 0
-1289 10 1251 1288 6 0
1289 -10 0
1289 -1251 0
1289 -1288 0
1289 -6 0
1290 -12 -1289 0
-1290 12 0
-1290 1289 0
-1291 93 1290 0
1291 -93 0
1291 -1290 0
1292 -95 -1291 0
-1292 95 0
-1292 1291 0
-1293 129 1287 1292 96 472 473 0
1293 -129 0
1293 -1287 0
1293 -1292 0
1293 -96 0
1293 -472 0
1293 -473 0
1294 -621 -1293 0
-1294 621 0
-1294 1293 0
-1295 623 1294 0
1295 -623 0
1295 -1294 0
1296 -625 -1295 0
-1296 625 0
-1296 1295 0
1297 -20 -761 0
-1297 20 0
-1297 761 0
-1298 53 772 13 16 775 0
1298 -53 0
1298 -772 0
1298 -13 0
1298 -16 0
1298 -775 0
1299 -76 -1298 0
-1299 76 0
-1299 1298 0
-1300 23 626 630 1297 1299 0
1300 -23 0
1300 -626 0
1300 -630 0
1300 -1297 0
1300 -1299 0
1301 -789 -1300 0
-1301 789 0
-1301 1300 0
-1302 791 1222 1250 552 554 560 1267 1271 1283 1296 1301 0
1302 -791 0
1302 -1222 0
1302 -1250 0
1302 -552 0
1302 -554 0
1302 -560 0
1302 -1267 0
1302 -1271 0
1302 -1283 0
1302 -1296 0
1302 -1301 0
1303 -849 -1302 0
-1303 849 0
-1303 1302 0
-1304 68 1303 0
1304 -68 0
1304 -1303 0
1305 -67 -1304 0
-1305 67 0
-1305 1304 0
-1306 46 631 0
1306 -46 0
1306 -631 0
1307 -48 -1306 0
-1307 48 0
-1307 1306 0
-1308 53 13 16 1307 0
1308 -53 0
1308 -13 0
1308 -16 0
1308 -1307 0
1309 -76 -1308 0
-1309 76 0
-1309 1308 0
-1310 23 626 630 19 1309 0
1310 -23 0
1310 -626 0
1310 -630 0
1310 -19 0
1310 -1309 0
1311 -789 -1310 0
-1311 789 0
-1311 1310 0
-1312 791 1021 552 554 560 922 928 929 932 1311 0
1312 -791 0
1312 -1021 0
1312 -552 0
1312 -554 0
1312 -560 0
1312 -922 0
1312 -928 0
1312 -929 0
1312 -932 0
1312 -1311 0
1313 -824 -1312 0
-1313 824 0
-1313 1312 0
-1314 791 1049 552 554 560 828 894 895 835 1311 0
1314 -791 0
1314 -1049 0
1314 -552 0
1314 -554 0
1314 -560 0
1314 -828 0
1314 -894 0
1314 -895 0
1314 -835 0
1314 -1311 0
1315 -838 -1314 0
-1315 838 0
-1315 1314 0
1316 -857 -1314 0
-1316 857 0
-1316 1314 0
-1317 98 1316 0
1317 -98 0
1317 -1316 0
1318 -97 -1317 0
-1318 97 0
-1318 1317 0
1319 -849 -1314 0
-1319 849 0
-1319 1314 0
-1320 68 1319 0
1320 -68 0
1320 -1319 0
1321 -104 -1320 0
-1321 104 0
-1321 1320 0
-1322 129 1315 1 742 1318 1321 473 0
1322 -129 0
1322 -1315 0
1322 -1 0
1322 -742 0
1322 -1318 0
1322 -1321 0
1322 -473 0
1323 -131 -1322 0
-1323 131 0
-1323 1322 0
-1324 791 839 552 554 560 828 843 835 1311 0
1324 -791 0
1324 -839 0
1324 -552 0
1324 -554 0
1324 -560 0
1324 -828 0
1324 -843 0
1324 -835 0
1324 -1311 0
1325 -838 -1324 0
-1325 838 0
-1325 1324 0
1326 -857 -1324 0
-1326 857 0
-1326 1324 0
-1327 98 1326 0
1327 -98 0
1327 -1326 0
1328 -97 -1327 0
-1328 97 0
-1328 1327 0
1329 -849 -1324 0
-1329 849 0
-1329 1324 0
-1330 68 1329 0
1330 -68 0
1330 -1329 0
1331 -104 -1330 0
-1331 104 0
-1331 1330 0
-1332 129 1325 1 1328 1331 473 0
1332 -129 0
1332 -1325 0
1332 -1 0
1332 -1328 0
1332 -1331 0
1332 -473 0
1333 -140 -1332 0
-1333 140 0
-1333 1332 0
-1334 791 839 552 554 560 828 960 835 1311 0
1334 -791 0
1334 -839 0
1334 -552 0
1334 -554 0
1334 -560 0
1334 -828 0
1334 -960 0
1334 -835 0
1334 -1311 0
1335 -838 -1334 0
-1335 838 0
-1335 1334 0
1336 -857 -1334 0
-1336 857 0
-1336 1334 0
-1337 98 1336 0
1337 -98 0
1337 -1336 0
1338 -97 -1337 0
-1338 97 0
-1338 1337 0
1339 -849 -1334 0
-1339 849 0
-1339 1334 0
-1340 68 1339 0
1340 -68 0
1340 -1339 0
1341 -104 -1340 0
-1341 104 0
-1341 1340 0
-1342 129 1335 1 1338 1341 473 0
1342 -129 0
1342 -1335 0
1342 -1 0
1342 -1338 0
1342 -1341 0
1342 -473 0
1343 -142 -1342 0
-1343 142 0
-1343 1342 0
-1344 791 552 554 560 828 960 835 1311 0
1344 -791 0
1344 -552 0
1344 -554 0
1344 -560 0
1344 -828 0
1344 -960 0
1344 -835 0
1344 -1311 0
1345 -838 -1344 0
-1345 838 0
-1345 1344 0
1346 -857 -1344 0
-1346 857 0
-1346 1344 0
-1347 98 1346 0
1347 -98 0
1347 -1346 0
1348 -97 -1347 0
-1348 97 0
-1348 1347 0
1349 -849 -1344 0
-1349 849 0
-1349 1344 0
-1350 68 1349 0
1350 -68 0
1350 -1349 0
1351 -104 -1350 0
-1351 104 0
-1351 1350 0
-1352 129 1345 1348 1351 473 0
1352 -129 0
1352 -1345 0
1352 -1348 0
1352 -1351 0
1352 -473 0
1353 -145 -1352 0
-1353 145 0
-1353 1352 0
-1354 3 1353 0
1354 -3 0
1354 -1353 0
1355 -5 -1354 0
-1355 5 0
-1355 1354 0
-1356 10 1343 1355 6 0
1356 -10 0
1356 -1343 0
1356 -1355 0
1356 -6 0
1357 -12 -1356 0
-1357 12 0
-1357 1356 0
-1358 93 1333 1357 0
1358 -93 0
1358 -1333 0
1358 -1357 0
1359 -152 -1358 0
-1359 152 0
-1359 1358 0
-1360 184 1313 1323 193 1359 0
1360 -184 0
1360 -1313 0
1360 -1323 0
1360 -193 0
1360 -1359 0
1361 -212 -1360 0
-1361 212 0
-1361 1360 0
1362 -197 -1198 0
-1362 197 0
-1362 1198 0
-1363 53 1362 13 16 73 0
1363 -53 0
1363 -1362 0
1363 -13 0
1363 -16 0
1363 -73 0
1364 -76 -1363 0
-1364 76 0
-1364 1363 0
-1365 23 34 1201 1364 0
1365 -23 0
1365 -34 0
1365 -1201 0
1365 -1364 0
1366 -25 -1365 0
-1366 25 0
-1366 1365 0
-1367 27 1366 0
1367 -27 0
1367 -1366 0
1368 -40 -1367 0
-1368 40 0
-1368 1367 0
-1369 42 1361 1368 0
1369 -42 0
1369 -1361 0
1369 -1368 0
1370 -83 -1369 0
-1370 83 0
-1370 1369 0
-1371 23 626 630 896 0
1371 -23 0
1371 -626 0
1371 -630 0
1371 -896 0
1372 -789 -1371 0
-1372 789 0
-1372 1371 0
-1373 791 1021 552 554 560 922 928 929 932 1372 0
1373 -791 0
1373 -1021 0
1373 -552 0
1373 -554 0
1373 -560 0
1373 -922 0
1373 -928 0
1373 -929 0
1373 -932 0
1373 -1372 0
1374 -824 -1373 0
-1374 824 0
-1374 1373 0
-1375 791 1049 552 554 560 828 894 895 835 1372 0
1375 -791 0
1375 -1049 0
1375 -552 0
1375 -554 0
1375 -560 0
1375 -828 0
1375 -894 0
1375 -895 0
1375 -835 0
1375 -1372 0
1376 -838 -1375 0
-1376 838 0
-1376 1375 0
1377 -857 -1375 0
-1377 857 0
-1377 1375 0
-1378 98 1377 0
1378 -98 0
1378 -1377 0
1379 -97 -1378 0
-1379 97 0
-1379 1378 0
1380 -849 -1375 0
-1380 849 0
-1380 1375 0
-1381 68 1380 0
1381 -68 0
1381 -1380 0
1382 -104 -1381 0
-1382 104 0
-1382 1381 0
-1383 129 1376 1 742 1379 1382 473 0
1383 -129 0
1383 -1376 0
1383 -1 0
1383 -742 0
1383 -1379 0
1383 -1382 0
1383 -473 0
1384 -131 -1383 0
-1384 131 0
-1384 1383 0
-1385 791 839 552 554 560 828 843 835 1372 0
1385 -791 0
1385 -839 0
1385 -552 0
1385 -554 0
1385 -560 0
1385 -828 0
1385 -843 0
1385 -835 0
1385 -1372 0
1386 -838 -1385 0
-1386 838 0
-1386 1385 0
1387 -857 -1385 0
-1387 857 0
-1387 1385 0
-1388 98 1387 0
1388 -98 0
1388 -1387 0
1389 -97 -1388 0
-1389 97 0
-1389 1388 0
1390 -849 -1385 0
-1390 849 0
-1390 1385 0
-1391 68 1390 0
1391 -68 0
1391 -1390 0
1392 -104 -1391 0
-1392 104 0
-1392 1391 0
-1393 129 1386 1 1389 1392 473 0
1393 -129 0
1393 -1386 0
1393 -1 0
1393 -1389 0
1393 -1392 0
1393 -473 0
1394 -140 -1393 0
-1394 140 0
-1394 1393 0
-1395 791 839 552 554 560 828 960 835 1372 0
1395 -791 0
1395 -839 0
1395 -552 0
1395 -554 0
1395 -560 0
1395 -828 0
1395 -960 0
1395 -835 0
1395 -1372 0
1396 -838 -1395 0
-1396 838 0
-1396 1395 0
1397 -857 -1395 0
-1397 857 0
-1397 1395 0
-1398 98 1397 0
1398 -98 0
1398 -1397 0
1399 -97 -1398 0
-1399 97 0
-1399 1398 0
1400 -849 -1395 0
-1400 849 0
-1400 1395 0
-1401 68 1400 0
1401 -68 0
1401 -1400 0
1402 -104 -1401 0
-1402 104 0
-1402 1401 0
-1403 129 1396 1 1399 1402 473 0
1403 -129 0
1403 -1396 0
1403 -1 0
1403 -1399 0
1403 -1402 0
1403 -473 0
1404 -142 -1403 0
-1404 142 0
-1404 1403 0
-1405 791 552 554 560 828 960 835 1372 0
1405 -791 0
1405 -552 0
1405 -554 0
1405 -560 0
1405 -828 0
1405 -960 0
1405 -835 0
1405 -1372 0
1406 -838 -1405 0
-1406 838 0
-1406 1405 0
1407 -857 -1405 0
-1407 857 0
-1407 1405 0
-1408 98 1407 0
1408 -98 0
1408 -1407 0
1409 -97 -1408 0
-1409 97 0
-1409 1408 0
1410 -849 -1405 0
-1410 849 0
-1410 1405 0
-1411 68 1410 0
1411 -68 0
1411 -1410 0
1412 -104 -1411 0
-1412 104 0
-1412 1411 0
-1413 129 1406 1409 1412 473 0
1413 -129 0
1413 -1406 0
1413 -1409 0
1413 -1412 0
1413 -473 0
1414 -145 -1413 0
-1414 145 0
-1414 1413 0
-1415 3 1414 0
1415 -3 0
1415 -1414 0
1416 -5 -1415 0
-1416 5 0
-1416 1415 0
-1417 10 1404 1416 6 0
1417 -10 0
1417 -1404 0
1417 -1416 0
1417 -6 0
1418 -12 -1417 0
-1418 12 0
-1418 1417 0
-1419 93 1394 1418 0
1419 -93 0
1419 -1394 0
1419 -1418 0
1420 -152 -1419 0
-1420 152 0
-1420 1419 0
-1421 184 1374 1384 193 1420 330 0
1421 -184 0
1421 -1374 0
1421 -1384 0
1421 -193 0
1421 -1420 0
1421 -330 0
1422 -201 -1421 0
-1422 201 0
-1422 1421 0
-1423 21 1422 0
1423 -21 0
1423 -1422 0
1424 -85 -1423 0
-1424 85 0
-1424 1423 0
1425 -87 -1210 0
-1425 87 0
-1425 1210 0
-1426 89 1213 1219 1305 69 1370 1424 1425 0
1426 -89 0
1426 -1213 0
1426 -1219 0
1426 -1305 0
1426 -69 0
1426 -1370 0
1426 -1424 0
1426 -1425 0
1427 -124 -1426 0
-1427 124 0
-1427 1426 0
-1428 51 1427 0
1428 -51 0
1428 -1427 0
1429 -1430 -1428 0
-1429 1430 0
-1429 1428 0
1431 -83 -41 0
-1431 83 0
-1431 41 0
-1432 89 153 154 66 69 1431 84 0
1432 -89 0
1432 -153 0
1432 -154 0
1432 -66 0
1432 -69 0
1432 -1431 0
1432 -84 0
1433 -91 -1432 0
-1433 91 0
-1433 1432 0
-1434 93 11 1433 0
1434 -93 0
1434 -11 0
1434 -1433 0
1435 -95 -1434 0
-1435 95 0
-1435 1434 0
-1436 89 153 154 69 1431 84 0
1436 -89 0
1436 -153 0
1436 -154 0
1436 -69 0
1436 -1431 0
1436 -84 0
1437 -101 -1436 0
-1437 101 0
-1437 1436 0
-1438 68 1437 0
1438 -68 0
1438 -1437 0
1439 -104 -1438 0
-1439 104 0
-1439 1438 0
1440 -124 -1432 0
-1440 124 0
-1440 1432 0
-1441 51 1440 0
1441 -51 0
1441 -1440 0
1442 -127 -1441 0
-1442 127 0
-1442 1441 0
-1443 129 1 1435 96 1439 1442 0
1443 -129 0
1443 -1 0
1443 -1435 0
1443 -96 0
1443 -1439 0
1443 -1442 0
1444 -142 -1443 0
-1444 142 0
-1444 1443 0
-1445 93 1433 0
1445 -93 0
1445 -1433 0
1446 -95 -1445 0
-1446 95 0
-1446 1445 0
-1447 129 1446 96 1439 1442 0
1447 -129 0
1447 -1446 0
1447 -96 0
1447 -1439 0
1447 -1442 0
1448 -145 -1447 0
-1448 145 0
-1448 1447 0
-1449 3 1448 0
1449 -3 0
1449 -1448 0
1450 -5 -1449 0
-1450 5 0
-1450 1449 0
-1451 129 1 96 1439 1442 0
1451 -129 0
1451 -1 0
1451 -96 0
1451 -1439 0
1451 -1442 0
1452 -140 -1451 0
-1452 140 0
-1452 1451 0
-1453 93 1452 1433 0
1453 -93 0
1453 -1452 0
1453 -1433 0
1454 -527 -1453 0
-1454 527 0
-1454 1453 0
-1455 10 1444 1450 6 1454 0
1455 -10 0
1455 -1444 0
1455 -1450 0
1455 -6 0
1455 -1454 0
1456 -530 -1455 0
-1456 530 0
-1456 1455 0
-1457 129 1435 96 1439 1442 0
1457 -129 0
1457 -1435 0
1457 -96 0
1457 -1439 0
1457 -1442 0
1458 -145 -1457 0
-1458 145 0
-1458 1457 0
-1459 3 1458 0
1459 -3 0
1459 -1458 0
1460 -580 -1459 0
-1460 580 0
-1460 1459 0
-1461 129 1 1446 96 1439 1442 0
1461 -129 0
1461 -1 0
1461 -1446 0
1461 -96 0
1461 -1439 0
1461 -1442 0
1462 -142 -1461 0
-1462 142 0
-1462 1461 0
-1463 10 1462 1450 1454 0
1463 -10 0
1463 -1462 0
1463 -1450 0
1463 -1454 0
1464 -594 -1463 0
-1464 594 0
-1464 1463 0
-1465 8 1464 0
1465 -8 0
1465 -1464 0
1466 -597 -1465 0
-1466 597 0
-1466 1465 0
1467 -142 -1451 0
-1467 142 0
-1467 1451 0
-1468 129 96 1439 1442 0
1468 -129 0
1468 -96 0
1468 -1439 0
1468 -1442 0
1469 -145 -1468 0
-1469 145 0
-1469 1468 0
-1470 3 1469 0
1470 -3 0
1470 -1469 0
1471 -5 -1470 0
-1471 5 0
-1471 1470 0
-1472 10 1467 1471 6 0
1472 -10 0
1472 -1467 0
1472 -1471 0
1472 -6 0
1473 -12 -1472 0
-1473 12 0
-1473 1472 0
-1474 93 1452 1473 1433 0
1474 -93 0
1474 -1452 0
1474 -1473 0
1474 -1433 0
1475 -613 -1474 0
-1475 613 0
-1475 1474 0
1476 -621 -1443 0
-1476 621 0
-1476 1443 0
-1477 623 1476 0
1477 -623 0
1477 -1476 0
1478 -625 -1477 0
-1478 625 0
-1478 1477 0
1479 -175 -689 0
-1479 175 0
-1479 689 0
-1480 23 626 630 19 1479 0
1480 -23 0
1480 -626 0
1480 -630 0
1480 -19 0
1480 -1479 0
1481 -789 -1480 0
-1481 789 0
-1481 1480 0
-1482 791 1456 552 554 560 1460 1466 1475 1478 1481 0
1482 -791 0
1482 -1456 0
1482 -552 0
1482 -554 0
1482 -560 0
1482 -1460 0
1482 -1466 0
1482 -1475 0
1482 -1478 0
1482 -1481 0
1483 -824 -1482 0
-1483 824 0
-1483 1482 0
1484 -527 -1434 0
-1484 527 0
-1484 1434 0
-1485 10 4 6 1484 0
1485 -10 0
1485 -4 0
1485 -6 0
1485 -1484 0
1486 -530 -1485 0
-1486 530 0
-1486 1485 0
1487 -527 -1445 0
-1487 527 0
-1487 1445 0
-1488 10 4 1487 0
1488 -10 0
1488 -4 0
1488 -1487 0
1489 -594 -1488 0
-1489 594 0
-1489 1488 0
-1490 8 1489 0
1490 -8 0
1490 -1489 0
1491 -597 -1490 0
-1491 597 0
-1491 1490 0
1492 -613 -1434 0
-1492 613 0
-1492 1434 0
-1493 791 1486 552 554 560 828 1491 1492 835 1481 0
1493 -791 0
1493 -1486 0
1493 -552 0
1493 -554 0
1493 -560 0
1493 -828 0
1493 -1491 0
1493 -1492 0
1493 -835 0
1493 -1481 0
1494 -838 -1493 0
-1494 838 0
-1494 1493 0
-1495 89 153 154 851 69 1431 84 0
1495 -89 0
1495 -153 0
1495 -154 0
1495 -851 0
1495 -69 0
1495 -1431 0
1495 -84 0
1496 -91 -1495 0
-1496 91 0
-1496 1495 0
-1497 93 11 1496 0
1497 -93 0
1497 -11 0
1497 -1496 0
1498 -95 -1497 0
-1498 95 0
-1498 1497 0
1499 -857 -1493 0
-1499 857 0
-1499 1493 0
-1500 98 1499 0
1500 -98 0
1500 -1499 0
1501 -97 -1500 0
-1501 97 0
-1501 1500 0
1502 -91 -1436 0
-1502 91 0
-1502 1436 0
-1503 93 11 1502 0
1503 -93 0
1503 -11 0
1503 -1502 0
1504 -527 -1503 0
-1504 527 0
-1504 1503 0
-1505 10 4 6 1504 0
1505 -10 0
1505 -4 0
1505 -6 0
1505 -1504 0
1506 -530 -1505 0
-1506 530 0
-1506 1505 0
-1507 93 1502 0
1507 -93 0
1507 -1502 0
1508 -527 -1507 0
-1508 527 0
-1508 1507 0
-1509 10 4 1508 0
1509 -10 0
1509 -4 0
1509 -1508 0
1510 -594 -1509 0
-1510 594 0
-1510 1509 0
-1511 8 1510 0
1511 -8 0
1511 -1510 0
1512 -597 -1511 0
-1512 597 0
-1512 1511 0
1513 -613 -1503 0
-1513 613 0
-1513 1503 0
1514 -175 -693 0
-1514 175 0
-1514 693 0
-1515 23 626 630 19 1514 0
1515 -23 0
1515 -626 0
1515 -630 0
1515 -19 0
1515 -1514 0
1516 -789 -1515 0
-1516 789 0
-1516 1515 0
-1517 791 1506 552 554 560 828 1512 1513 835 1516 0
1517 -791 0
1517 -1506 0
1517 -552 0
1517 -554 0
1517 -560 0
1517 -828 0
1517 -1512 0
1517 -1513 0
1517 -835 0
1517 -1516 0
1518 -849 -1517 0
-1518 849 0
-1518 1517 0
-1519 68 1518 1437 0
1519 -68 0
1519 -1518 0
1519 -1437 0
1520 -104 -1519 0
-1520 104 0
-1520 1519 0
1521 -67 -1056 0
-1521 67 0
-1521 1056 0
-1522 89 153 154 1521 69 1431 84 0
1522 -89 0
1522 -153 0
1522 -154 0
1522 -1521 0
1522 -69 0
1522 -1431 0
1522 -84 0
1523 -124 -1522 0
-1523 124 0
-1523 1522 0
-1524 51 1523 0
1524 -51 0
1524 -1523 0
1525 -127 -1524 0
-1525 127 0
-1525 1524 0
-1526 129 1494 1 1498 1501 1520 1525 0
1526 -129 0
1526 -1494 0
1526 -1 0
1526 -1498 0
1526 -1501 0
1526 -1520 0
1526 -1525 0
1527 -131 -1526 0
-1527 131 0
-1527 1526 0
-1528 791 1021 552 554 560 922 928 929 932 846 0
1528 -791 0
1528 -1021 0
1528 -552 0
1528 -554 0
1528 -560 0
1528 -922 0
1528 -928 0
1528 -929 0
1528 -932 0
1528 -846 0
1529 -849 -1528 0
-1529 849 0
-1529 1528 0
-1530 68 1529 0
1530 -68 0
1530 -1529 0
1531 -67 -1530 0
-1531 67 0
-1531 1530 0
-1532 89 153 154 1531 69 1431 84 0
1532 -89 0
1532 -153 0
1532 -154 0
1532 -1531 0
1532 -69 0
1532 -1431 0
1532 -84 0
1533 -133 -1532 0
-1533 133 0
-1533 1532 0
-1534 135 1533 0
1534 -135 0
1534 -1533 0
1535 -137 -1534 0
-1535 137 0
-1535 1534 0
-1536 791 839 552 554 560 828 843 835 1481 0
1536 -791 0
1536 -839 0
1536 -552 0
1536 -554 0
1536 -560 0
1536 -828 0
1536 -843 0
1536 -835 0
1536 -1481 0
1537 -838 -1536 0
-1537 838 0
-1537 1536 0
1538 -857 -1536 0
-1538 857 0
-1538 1536 0
-1539 98 1538 0
1539 -98 0
1539 -1538 0
1540 -97 -1539 0
-1540 97 0
-1540 1539 0
-1541 791 839 552 554 560 828 843 835 1516 0
1541 -791 0
1541 -839 0
1541 -552 0
1541 -554 0
1541 -560 0
1541 -828 0
1541 -843 0
1541 -835 0
1541 -1516 0
1542 -849 -1541 0
-1542 849 0
-1542 1541 0
-1543 68 1542 1437 0
1543 -68 0
1543 -1542 0
1543 -1437 0
1544 -104 -1543 0
-1544 104 0
-1544 1543 0
-1545 89 153 154 953 69 1431 84 0
1545 -89 0
1545 -153 0
1545 -154 0
1545 -953 0
1545 -69 0
1545 -1431 0
1545 -84 0
1546 -124 -1545 0
-1546 124 0
-1546 1545 0
-1547 51 1546 0
1547 -51 0
1547 -1546 0
1548 -127 -1547 0
-1548 127 0
-1548 1547 0
-1549 129 1537 1 1540 1544 1548 0
1549 -129 0
1549 -1537 0
1549 -1 0
1549 -1540 0
1549 -1544 0
1549 -1548 0
1550 -140 -1549 0
-1550 140 0
-1550 1549 0
-1551 791 839 552 554 560 828 960 835 1481 0
1551 -791 0
1551 -839 0
1551 -552 0
1551 -554 0
1551 -560 0
1551 -828 0
1551 -960 0
1551 -835 0
1551 -1481 0
1552 -838 -1551 0
-1552 838 0
-1552 1551 0
1553 -857 -1551 0
-1553 857 0
-1553 1551 0
-1554 98 1553 0
1554 -98 0
1554 -1553 0
1555 -97 -1554 0
-1555 97 0
-1555 1554 0
-1556 791 839 552 554 560 828 960 835 1516 0
1556 -791 0
1556 -839 0
1556 -552 0
1556 -554 0
1556 -560 0
1556 -828 0
1556 -960 0
1556 -835 0
1556 -1516 0
1557 -849 -1556 0
-1557 849 0
-1557 1556 0
-1558 68 1557 1437 0
1558 -68 0
1558 -1557 0
1558 -1437 0
1559 -104 -1558 0
-1559 104 0
-1559 1558 0
-1560 89 153 154 973 69 1431 84 0
1560 -89 0
1560 -153 0
1560 -154 0
1560 -973 0
1560 -69 0
1560 -1431 0
1560 -84 0
1561 -124 -1560 0
-1561 124 0
-1561 1560 0
-1562 51 1561 0
1562 -51 0
1562 -1561 0
1563 -127 -1562 0
-1563 127 0
-1563 1562 0
-1564 129 1552 1 1555 1559 1563 0
1564 -129 0
1564 -1552 0
1564 -1 0
1564 -1555 0
1564 -1559 0
1564 -1563 0
1565 -142 -1564 0
-1565 142 0
-1565 1564 0
-1566 791 552 554 560 828 960 835 1481 0
1566 -791 0
1566 -552 0
1566 -554 0
1566 -560 0
1566 -828 0
1566 -960 0
1566 -835 0
1566 -1481 0
1567 -838 -1566 0
-1567 838 0
-1567 1566 0
1568 -857 -1566 0
-1568 857 0
-1568 1566 0
-1569 98 1568 0
1569 -98 0
1569 -1568 0
1570 -97 -1569 0
-1570 97 0
-1570 1569 0
-1571 791 552 554 560 828 960 835 1516 0
1571 -791 0
1571 -552 0
1571 -554 0
1571 -560 0
1571 -828 0
1571 -960 0
1571 -835 0
1571 -1516 0
1572 -849 -1571 0
-1572 849 0
-1572 1571 0
-1573 68 1572 1437 0
1573 -68 0
1573 -1572 0
1573 -1437 0
1574 -104 -1573 0
-1574 104 0
-1574 1573 0
-1575 89 153 154 992 69 1431 84 0
1575 -89 0
1575 -153 0
1575 -154 0
1575 -992 0
1575 -69 0
1575 -1431 0
1575 -84 0
1576 -124 -1575 0
-1576 124 0
-1576 1575 0
-1577 51 1576 0
1577 -51 0
1577 -1576 0
1578 -127 -1577 0
-1578 127 0
-1578 1577 0
-1579 129 1567 1570 1574 1578 0
1579 -129 0
1579 -1567 0
1579 -1570 0
1579 -1574 0
1579 -1578 0
1580 -145 -1579 0
-1580 145 0
-1580 1579 0
-1581 3 1580 0
1581 -3 0
1581 -1580 0
1582 -5 -1581 0
-1582 5 0
-1582 1581 0
-1583 10 1565 1582 6 0
1583 -10 0
1583 -1565 0
1583 -1582 0
1583 -6 0
1584 -12 -1583 0
-1584 12 0
-1584 1583 0
-1585 89 153 154 1015 69 1431 84 0
1585 -89 0
1585 -153 0
1585 -154 0
1585 -1015 0
1585 -69 0
1585 -1431 0
1585 -84 0
1586 -91 -1585 0
-1586 91 0
-1586 1585 0
-1587 93 1550 1584 1586 0
1587 -93 0
1587 -1550 0
1587 -1584 0
1587 -1586 0
1588 -152 -1587 0
-1588 152 0
-1588 1587 0
1589 -175 -1026 0
-1589 175 0
-1589 1026 0
-1590 23 34 19 1589 0
1590 -23 0
1590 -34 0
1590 -19 0
1590 -1589 0
1591 -25 -1590 0
-1591 25 0
-1591 1590 0
-1592 27 1591 0
1592 -27 0
1592 -1591 0
1593 -40 -1592 0
-1593 40 0
-1593 1592 0
-1594 42 1593 0
1594 -42 0
1594 -1593 0
1595 -182 -1594 0
-1595 182 0
-1595 1594 0
-1596 184 1483 1527 1535 1588 1595 0
1596 -184 0
1596 -1483 0
1596 -1527 0
1596 -1535 0
1596 -1588 0
1596 -1595 0
1597 -197 -1596 0
-1597 197 0
-1597 1596 0
1598 -142 -700 0
-1598 142 0
-1598 700 0
-1599 93 690 0
1599 -93 0
1599 -690 0
1600 -95 -1599 0
-1600 95 0
-1600 1599 0
-1601 129 1600 96 696 699 0
1601 -129 0
1601 -1600 0
1601 -96 0
1601 -696 0
1601 -699 0
1602 -145 -1601 0
-1602 145 0
-1602 1601 0
-1603 3 1602 0
1603 -3 0
1603 -1602 0
1604 -5 -1603 0
-1604 5 0
-1604 1603 0
-1605 93 706 690 0
1605 -93 0
1605 -706 0
1605 -690 0
1606 -527 -1605 0
-1606 527 0
-1606 1605 0
-1607 10 1598 1604 6 1606 0
1607 -10 0
1607 -1598 0
1607 -1604 0
1607 -6 0
1607 -1606 0
1608 -530 -1607 0
-1608 530 0
-1608 1607 0
-1609 129 692 96 696 699 0
1609 -129 0
1609 -692 0
1609 -96 0
1609 -696 0
1609 -699 0
1610 -145 -1609 0
-1610 145 0
-1610 1609 0
-1611 3 1610 0
1611 -3 0
1611 -1610 0
1612 -580 -1611 0
-1612 580 0
-1612 1611 0
-1613 129 1 1600 96 696 699 0
1613 -129 0
1613 -1 0
1613 -1600 0
1613 -96 0
1613 -696 0
1613 -699 0
1614 -142 -1613 0
-1614 142 0
-1614 1613 0
-1615 10 1614 1604 1606 0
1615 -10 0
1615 -1614 0
1615 -1604 0
1615 -1606 0
1616 -594 -1615 0
-1616 594 0
-1616 1615 0
-1617 8 1616 0
1617 -8 0
1617 -1616 0
1618 -597 -1617 0
-1618 597 0
-1618 1617 0
1619 -613 -714 0
-1619 613 0
-1619 714 0
1620 -621 -700 0
-1620 621 0
-1620 700 0
-1621 623 1620 0
1621 -623 0
1621 -1620 0
1622 -625 -1621 0
-1622 625 0
-1622 1621 0
-1623 791 1608 552 554 560 1612 1618 1619 1622 0
1623 -791 0
1623 -1608 0
1623 -552 0
1623 -554 0
1623 -560 0
1623 -1612 0
1623 -1618 0
1623 -1619 0
1623 -1622 0
1624 -824 -1623 0
-1624 824 0
-1624 1623 0
1625 -527 -691 0
-1625 527 0
-1625 691 0
-1626 10 4 6 1625 0
1626 -10 0
1626 -4 0
1626 -6 0
1626 -1625 0
1627 -530 -1626 0
-1627 530 0
-1627 1626 0
1628 -527 -1599 0
-1628 527 0
-1628 1599 0
-1629 10 4 1628 0
1629 -10 0
1629 -4 0
1629 -1628 0
1630 -594 -1629 0
-1630 594 0
-1630 1629 0
-1631 8 1630 0
1631 -8 0
1631 -1630 0
1632 -597 -1631 0
-1632 597 0
-1632 1631 0
1633 -613 -691 0
-1633 613 0
-1633 691 0
-1634 791 1627 552 554 560 828 1632 1633 835 0
1634 -791 0
1634 -1627 0
1634 -552 0
1634 -554 0
1634 -560 0
1634 -828 0
1634 -1632 0
1634 -1633 0
1634 -835 0
1635 -838 -1634 0
-1635 838 0
-1635 1634 0
1636 -67 -1106 0
-1636 67 0
-1636 1106 0
-1637 89 153 154 1636 69 645 84 0
1637 -89 0
1637 -153 0
1637 -154 0
1637 -1636 0
1637 -69 0
1637 -645 0
1637 -84 0
1638 -91 -1637 0
-1638 91 0
-1638 1637 0
-1639 93 11 1638 0
1639 -93 0
1639 -11 0
1639 -1638 0
1640 -95 -1639 0
-1640 95 0
-1640 1639 0
1641 -857 -1634 0
-1641 857 0
-1641 1634 0
-1642 98 1641 0
1642 -98 0
1642 -1641 0
1643 -97 -1642 0
-1643 97 0
-1643 1642 0
1644 -91 -693 0
-1644 91 0
-1644 693 0
-1645 93 11 1644 0
1645 -93 0
1645 -11 0
1645 -1644 0
1646 -527 -1645 0
-1646 527 0
-1646 1645 0
-1647 10 4 6 1646 0
1647 -10 0
1647 -4 0
1647 -6 0
1647 -1646 0
1648 -530 -1647 0
-1648 530 0
-1648 1647 0
-1649 93 1644 0
1649 -93 0
1649 -1644 0
1650 -527 -1649 0
-1650 527 0
-1650 1649 0
-1651 10 4 1650 0
1651 -10 0
1651 -4 0
1651 -1650 0
1652 -594 -1651 0
-1652 594 0
-1652 1651 0
-1653 8 1652 0
1653 -8 0
1653 -1652 0
1654 -597 -1653 0
-1654 597 0
-1654 1653 0
1655 -613 -1645 0
-1655 613 0
-1655 1645 0
-1656 791 1648 552 554 560 828 1654 1655 835 0
1656 -791 0
1656 -1648 0
1656 -552 0
1656 -554 0
1656 -560 0
1656 -828 0
1656 -1654 0
1656 -1655 0
1656 -835 0
1657 -849 -1656 0
-1657 849 0
-1657 1656 0
-1658 68 1657 694 0
1658 -68 0
1658 -1657 0
1658 -694 0
1659 -104 -1658 0
-1659 104 0
-1659 1658 0
1660 -67 -1096 0
-1660 67 0
-1660 1096 0
-1661 89 153 154 1660 69 645 84 0
1661 -89 0
1661 -153 0
1661 -154 0
1661 -1660 0
1661 -69 0
1661 -645 0
1661 -84 0
1662 -124 -1661 0
-1662 124 0
-1662 1661 0
-1663 51 1662 0
1663 -51 0
1663 -1662 0
1664 -127 -1663 0
-1664 127 0
-1664 1663 0
-1665 129 1635 1 1640 1643 1659 1664 0
1665 -129 0
1665 -1635 0
1665 -1 0
1665 -1640 0
1665 -1643 0
1665 -1659 0
1665 -1664 0
1666 -131 -1665 0
-1666 131 0
-1666 1665 0
-1667 10 746 711 6 0
1667 -10 0
1667 -746 0
1667 -711 0
1667 -6 0
1668 -12 -1667 0
-1668 12 0
-1668 1667 0
-1669 93 745 1668 0
1669 -93 0
1669 -745 0
1669 -1668 0
1670 -613 -1669 0
-1670 613 0
-1670 1669 0
-1671 791 1021 552 554 560 922 928 1670 932 0
1671 -791 0
1671 -1021 0
1671 -552 0
1671 -554 0
1671 -560 0
1671 -922 0
1671 -928 0
1671 -1670 0
1671 -932 0
1672 -849 -1671 0
-1672 849 0
-1672 1671 0
-1673 68 1672 0
1673 -68 0
1673 -1672 0
1674 -67 -1673 0
-1674 67 0
-1674 1673 0
-1675 89 153 154 1674 69 645 84 0
1675 -89 0
1675 -153 0
1675 -154 0
1675 -1674 0
1675 -69 0
1675 -645 0
1675 -84 0
1676 -133 -1675 0
-1676 133 0
-1676 1675 0
-1677 135 1676 0
1677 -135 0
1677 -1676 0
1678 -137 -1677 0
-1678 137 0
-1678 1677 0
-1679 68 1105 694 0
1679 -68 0
1679 -1105 0
1679 -694 0
1680 -104 -1679 0
-1680 104 0
-1680 1679 0
1681 -124 -1637 0
-1681 124 0
-1681 1637 0
-1682 51 1681 0
1682 -51 0
1682 -1681 0
1683 -127 -1682 0
-1683 127 0
-1683 1682 0
-1684 129 1101 1 1104 1680 1683 0
1684 -129 0
1684 -1101 0
1684 -1 0
1684 -1104 0
1684 -1680 0
1684 -1683 0
1685 -140 -1684 0
-1685 140 0
-1685 1684 0
-1686 68 1115 694 0
1686 -68 0
1686 -1115 0
1686 -694 0
1687 -104 -1686 0
-1687 104 0
-1687 1686 0
1688 -67 -1116 0
-1688 67 0
-1688 1116 0
-1689 89 153 154 1688 69 645 84 0
1689 -89 0
1689 -153 0
1689 -154 0
1689 -1688 0
1689 -69 0
1689 -645 0
1689 -84 0
1690 -124 -1689 0
-1690 124 0
-1690 1689 0
-1691 51 1690 0
1691 -51 0
1691 -1690 0
1692 -127 -1691 0
-1692 127 0
-1692 1691 0
-1693 129 1111 1 1114 1687 1692 0
1693 -129 0
1693 -1111 0
1693 -1 0
1693 -1114 0
1693 -1687 0
1693 -1692 0
1694 -142 -1693 0
-1694 142 0
-1694 1693 0
-1695 68 1125 694 0
1695 -68 0
1695 -1125 0
1695 -694 0
1696 -104 -1695 0
-1696 104 0
-1696 1695 0
1697 -67 -1126 0
-1697 67 0
-1697 1126 0
-1698 89 153 154 1697 69 645 84 0
1698 -89 0
1698 -153 0
1698 -154 0
1698 -1697 0
1698 -69 0
1698 -645 0
1698 -84 0
1699 -124 -1698 0
-1699 124 0
-1699 1698 0
-1700 51 1699 0
1700 -51 0
1700 -1699 0
1701 -127 -1700 0
-1701 127 0
-1701 1700 0
-1702 129 1121 1124 1696 1701 0
1702 -129 0
1702 -1121 0
1702 -1124 0
1702 -1696 0
1702 -1701 0
1703 -145 -1702 0
-1703 145 0
-1703 1702 0
-1704 3 1703 0
1704 -3 0
1704 -1703 0
1705 -5 -1704 0
-1705 5 0
-1705 1704 0
-1706 10 1694 1705 6 0
1706 -10 0
1706 -1694 0
1706 -1705 0
1706 -6 0
1707 -12 -1706 0
-1707 12 0
-1707 1706 0
1708 -530 -1667 0
-1708 530 0
-1708 1667 0
1709 -580 -710 0
-1709 580 0
-1709 710 0
-1710 10 746 711 0
1710 -10 0
1710 -746 0
1710 -711 0
1711 -594 -1710 0
-1711 594 0
-1711 1710 0
-1712 8 1711 0
1712 -8 0
1712 -1711 0
1713 -597 -1712 0
-1713 597 0
-1713 1712 0
-1714 791 1708 552 554 560 1709 1713 1011 0
1714 -791 0
1714 -1708 0
1714 -552 0
1714 -554 0
1714 -560 0
1714 -1709 0
1714 -1713 0
1714 -1011 0
1715 -849 -1714 0
-1715 849 0
-1715 1714 0
-1716 68 1715 0
1716 -68 0
1716 -1715 0
1717 -67 -1716 0
-1717 67 0
-1717 1716 0
-1718 89 153 154 1717 69 645 84 0
1718 -89 0
1718 -153 0
1718 -154 0
1718 -1717 0
1718 -69 0
1718 -645 0
1718 -84 0
1719 -91 -1718 0
-1719 91 0
-1719 1718 0
-1720 93 1685 1707 1719 0
1720 -93 0
1720 -1685 0
1720 -1707 0
1720 -1719 0
1721 -152 -1720 0
-1721 152 0
-1721 1720 0
-1722 184 1624 1666 1678 1721 198 0
1722 -184 0
1722 -1624 0
1722 -1666 0
1722 -1678 0
1722 -1721 0
1722 -198 0
1723 -201 -1722 0
-1723 201 0
-1723 1722 0
-1724 21 1723 0
1724 -21 0
1724 -1723 0
1725 -20 -1724 0
-1725 20 0
-1725 1724 0
1726 -152 -1669 0
-1726 152 0
-1726 1669 0
-1727 184 744 193 1726 198 0
1727 -184 0
1727 -744 0
1727 -193 0
1727 -1726 0
1727 -198 0
1728 -186 -1727 0
-1728 186 0
-1728 1727 0
1729 -190 -350 0
-1729 190 0
-1729 350 0
-1730 3 1729 0
1730 -3 0
1730 -1729 0
1731 -2 -1730 0
-1731 2 0
-1731 1730 0
-1732 129 1731 910 96 472 473 0
1732 -129 0
1732 -1731 0
1732 -910 0
1732 -96 0
1732 -472 0
1732 -473 0
1733 -142 -1732 0
-1733 142 0
-1733 1732 0
-1734 184 1229 193 1230 198 0
1734 -184 0
1734 -1229 0
1734 -193 0
1734 -1230 0
1734 -198 0
1735 -346 -1734 0
-1735 346 0
-1735 1734 0
1736 -140 -708 0
-1736 140 0
-1736 708 0
-1737 93 1736 0
1737 -93 0
1737 -1736 0
1738 -152 -1737 0
-1738 152 0
-1738 1737 0
-1739 184 1233 193 1738 198 0
1739 -184 0
1739 -1233 0
1739 -193 0
1739 -1738 0
1739 -198 0
1740 -190 -1739 0
-1740 190 0
-1740 1739 0
-1741 3 912 1740 0
1741 -3 0
1741 -912 0
1741 -1740 0
1742 -5 -1741 0
-1742 5 0
-1742 1741 0
1743 -190 -199 0
-1743 190 0
-1743 199 0
-1744 3 1743 0
1744 -3 0
1744 -1743 0
1745 -2 -1744 0
-1745 2 0
-1745 1744 0
-1746 129 1745 96 472 473 0
1746 -129 0
1746 -1745 0
1746 -96 0
1746 -472 0
1746 -473 0
1747 -140 -1746 0
-1747 140 0
-1747 1746 0
-1748 93 1747 0
1748 -93 0
1748 -1747 0
1749 -527 -1748 0
-1749 527 0
-1749 1748 0
-1750 10 1733 1735 1742 6 1749 0
1750 -10 0
1750 -1733 0
1750 -1735 0
1750 -1742 0
1750 -6 0
1750 -1749 0
1751 -530 -1750 0
-1751 530 0
-1751 1750 0
1752 -346 -199 0
-1752 346 0
-1752 199 0
-1753 10 1752 6 0
1753 -10 0
1753 -1752 0
1753 -6 0
1754 -12 -1753 0
-1754 12 0
-1754 1753 0
-1755 93 1754 0
1755 -93 0
1755 -1754 0
1756 -95 -1755 0
-1756 95 0
-1756 1755 0
-1757 129 1756 96 472 473 0
1757 -129 0
1757 -1756 0
1757 -96 0
1757 -472 0
1757 -473 0
1758 -145 -1757 0
-1758 145 0
-1758 1757 0
1759 -142 -708 0
-1759 142 0
-1759 708 0
-1760 10 1759 6 0
1760 -10 0
1760 -1759 0
1760 -6 0
1761 -12 -1760 0
-1761 12 0
-1761 1760 0
-1762 93 1736 1761 0
1762 -93 0
1762 -1736 0
1762 -1761 0
1763 -152 -1762 0
-1763 152 0
-1763 1762 0
-1764 184 1258 193 1763 198 0
1764 -184 0
1764 -1258 0
1764 -193 0
1764 -1763 0
1764 -198 0
1765 -190 -1764 0
-1765 190 0
-1765 1764 0
-1766 3 1758 1765 0
1766 -3 0
1766 -1758 0
1766 -1765 0
1767 -580 -1766 0
-1767 580 0
-1767 1766 0
-1768 10 1733 1735 1742 1749 0
1768 -10 0
1768 -1733 0
1768 -1735 0
1768 -1742 0
1768 -1749 0
1769 -594 -1768 0
-1769 594 0
-1769 1768 0
-1770 8 1769 0
1770 -8 0
1770 -1769 0
1771 -597 -1770 0
-1771 597 0
-1771 1770 0
1772 -142 -1746 0
-1772 142 0
-1772 1746 0
1773 -346 -478 0
-1773 346 0
-1773 478 0
1774 -131 -708 0
-1774 131 0
-1774 708 0
-1775 184 1774 193 198 0
1775 -184 0
1775 -1774 0
1775 -193 0
1775 -198 0
1776 -190 -1775 0
-1776 190 0
-1776 1775 0
-1777 3 748 1776 0
1777 -3 0
1777 -748 0
1777 -1776 0
1778 -5 -1777 0
-1778 5 0
-1778 1777 0
-1779 10 1772 1773 1778 6 0
1779 -10 0
1779 -1772 0
1779 -1773 0
1779 -1778 0
1779 -6 0
1780 -12 -1779 0
-1780 12 0
-1780 1779 0
-1781 93 1747 1780 0
1781 -93 0
1781 -1747 0
1781 -1780 0
1782 -613 -1781 0
-1782 613 0
-1782 1781 0
1783 -190 -260 0
-1783 190 0
-1783 260 0
-1784 3 1783 0
1784 -3 0
1784 -1783 0
1785 -2 -1784 0
-1785 2 0
-1785 1784 0
1786 -5 -1744 0
-1786 5 0
-1786 1744 0
-1787 10 1752 1786 6 0
1787 -10 0
1787 -1752 0
1787 -1786 0
1787 -6 0
1788 -12 -1787 0
-1788 12 0
-1788 1787 0
-1789 93 1788 0
1789 -93 0
1789 -1788 0
1790 -95 -1789 0
-1790 95 0
-1790 1789 0
-1791 129 1785 1790 96 472 473 0
1791 -129 0
1791 -1785 0
1791 -1790 0
1791 -96 0
1791 -472 0
1791 -473 0
1792 -621 -1791 0
-1792 621 0
-1792 1791 0
-1793 623 1792 0
1793 -623 0
1793 -1792 0
1794 -625 -1793 0
-1794 625 0
-1794 1793 0
-1795 791 1728 1751 552 554 560 1767 1771 1782 1794 0
1795 -791 0
1795 -1728 0
1795 -1751 0
1795 -552 0
1795 -554 0
1795 -560 0
1795 -1767 0
1795 -1771 0
1795 -1782 0
1795 -1794 0
1796 -849 -1795 0
-1796 849 0
-1796 1795 0
-1797 68 1796 0
1797 -68 0
1797 -1796 0
1798 -67 -1797 0
-1798 67 0
-1798 1797 0
1799 -212 -1198 0
-1799 212 0
-1799 1198 0
-1800 42 1799 0
1800 -42 0
1800 -1799 0
1801 -83 -1800 0
-1801 83 0
-1801 1800 0
1802 -85 -1138 0
-1802 85 0
-1802 1138 0
-1803 89 153 154 1798 69 1801 1802 0
1803 -89 0
1803 -153 0
1803 -154 0
1803 -1798 0
1803 -69 0
1803 -1801 0
1803 -1802 0
1804 -175 -1803 0
-1804 175 0
-1804 1803 0
-1805 23 1725 1804 0
1805 -23 0
1805 -1725 0
1805 -1804 0
1806 -25 -1805 0
-1806 25 0
-1806 1805 0
-1807 27 1806 0
1807 -27 0
1807 -1806 0
1808 -29 -1807 0
-1808 29 0
-1808 1807 0
-1809 31 1808 0
1809 -31 0
1809 -1808 0
1810 -33 -1809 0
-1810 33 0
-1810 1809 0
-1811 89 153 154 69 84 0
1811 -89 0
1811 -153 0
1811 -154 0
1811 -69 0
1811 -84 0
1812 -101 -1811 0
-1812 101 0
-1812 1811 0
-1813 68 1812 0
1813 -68 0
1813 -1812 0
1814 -104 -1813 0
-1814 104 0
-1814 1813 0
-1815 129 1 720 96 1814 721 0
1815 -129 0
1815 -1 0
1815 -720 0
1815 -96 0
1815 -1814 0
1815 -721 0
1816 -142 -1815 0
-1816 142 0
-1816 1815 0
-1817 93 718 0
1817 -93 0
1817 -718 0
1818 -95 -1817 0
-1818 95 0
-1818 1817 0
-1819 129 1818 96 1814 721 0
1819 -129 0
1819 -1818 0
1819 -96 0
1819 -1814 0
1819 -721 0
1820 -145 -1819 0
-1820 145 0
-1820 1819 0
-1821 3 1820 0
1821 -3 0
1821 -1820 0
1822 -5 -1821 0
-1822 5 0
-1822 1821 0
-1823 129 1 96 1814 721 0
1823 -129 0
1823 -1 0
1823 -96 0
1823 -1814 0
1823 -721 0
1824 -140 -1823 0
-1824 140 0
-1824 1823 0
-1825 93 1824 718 0
1825 -93 0
1825 -1824 0
1825 -718 0
1826 -527 -1825 0
-1826 527 0
-1826 1825 0
-1827 10 1816 1822 6 1826 0
1827 -10 0
1827 -1816 0
1827 -1822 0
1827 -6 0
1827 -1826 0
1828 -530 -1827 0
-1828 530 0
-1828 1827 0
-1829 129 720 96 1814 721 0
1829 -129 0
1829 -720 0
1829 -96 0
1829 -1814 0
1829 -721 0
1830 -145 -1829 0
-1830 145 0
-1830 1829 0
-1831 3 1830 0
1831 -3 0
1831 -1830 0
1832 -580 -1831 0
-1832 580 0
-1832 1831 0
-1833 129 1 1818 96 1814 721 0
1833 -129 0
1833 -1 0
1833 -1818 0
1833 -96 0
1833 -1814 0
1833 -721 0
1834 -142 -1833 0
-1834 142 0
-1834 1833 0
-1835 10 1834 1822 1826 0
1835 -10 0
1835 -1834 0
1835 -1822 0
1835 -1826 0
1836 -594 -1835 0
-1836 594 0
-1836 1835 0
-1837 8 1836 0
1837 -8 0
1837 -1836 0
1838 -597 -1837 0
-1838 597 0
-1838 1837 0
1839 -142 -1823 0
-1839 142 0
-1839 1823 0
-1840 129 96 1814 721 0
1840 -129 0
1840 -96 0
1840 -1814 0
1840 -721 0
1841 -145 -1840 0
-1841 145 0
-1841 1840 0
-1842 3 1841 0
1842 -3 0
1842 -1841 0
1843 -5 -1842 0
-1843 5 0
-1843 1842 0
-1844 10 1839 1843 6 0
1844 -10 0
1844 -1839 0
1844 -1843 0
1844 -6 0
1845 -12 -1844 0
-1845 12 0
-1845 1844 0
-1846 93 1824 1845 718 0
1846 -93 0
1846 -1824 0
1846 -1845 0
1846 -718 0
1847 -613 -1846 0
-1847 613 0
-1847 1846 0
1848 -621 -1815 0
-1848 621 0
-1848 1815 0
-1849 623 1848 0
1849 -623 0
1849 -1848 0
1850 -625 -1849 0
-1850 625 0
-1850 1849 0
1851 -175 -155 0
-1851 175 0
-1851 155 0
-1852 23 626 630 19 1851 0
1852 -23 0
1852 -626 0
1852 -630 0
1852 -19 0
1852 -1851 0
1853 -789 -1852 0
-1853 789 0
-1853 1852 0
-1854 791 1828 552 554 560 1832 1838 1847 1850 1853 0
1854 -791 0
1854 -1828 0
1854 -552 0
1854 -554 0
1854 -560 0
1854 -1832 0
1854 -1838 0
1854 -1847 0
1854 -1850 0
1854 -1853 0
1855 -824 -1854 0
-1855 824 0
-1855 1854 0
1856 -527 -719 0
-1856 527 0
-1856 719 0
-1857 10 4 6 1856 0
1857 -10 0
1857 -4 0
1857 -6 0
1857 -1856 0
1858 -530 -1857 0
-1858 530 0
-1858 1857 0
1859 -527 -1817 0
-1859 527 0
-1859 1817 0
-1860 10 4 1859 0
1860 -10 0
1860 -4 0
1860 -1859 0
1861 -594 -1860 0
-1861 594 0
-1861 1860 0
-1862 8 1861 0
1862 -8 0
1862 -1861 0
1863 -597 -1862 0
-1863 597 0
-1863 1862 0
1864 -613 -719 0
-1864 613 0
-1864 719 0
-1865 791 1858 552 554 560 828 1863 1864 835 1853 0
1865 -791 0
1865 -1858 0
1865 -552 0
1865 -554 0
1865 -560 0
1865 -828 0
1865 -1863 0
1865 -1864 0
1865 -835 0
1865 -1853 0
1866 -838 -1865 0
-1866 838 0
-1866 1865 0
1867 -67 -1166 0
-1867 67 0
-1867 1166 0
-1868 89 153 154 1867 69 84 0
1868 -89 0
1868 -153 0
1868 -154 0
1868 -1867 0
1868 -69 0
1868 -84 0
1869 -91 -1868 0
-1869 91 0
-1869 1868 0
-1870 93 11 1869 0
1870 -93 0
1870 -11 0
1870 -1869 0
1871 -95 -1870 0
-1871 95 0
-1871 1870 0
1872 -857 -1865 0
-1872 857 0
-1872 1865 0
-1873 98 1872 0
1873 -98 0
1873 -1872 0
1874 -97 -1873 0
-1874 97 0
-1874 1873 0
1875 -91 -1811 0
-1875 91 0
-1875 1811 0
-1876 93 11 1875 0
1876 -93 0
1876 -11 0
1876 -1875 0
1877 -527 -1876 0
-1877 527 0
-1877 1876 0
-1878 10 4 6 1877 0
1878 -10 0
1878 -4 0
1878 -6 0
1878 -1877 0
1879 -530 -1878 0
-1879 530 0
-1879 1878 0
-1880 93 1875 0
1880 -93 0
1880 -1875 0
1881 -527 -1880 0
-1881 527 0
-1881 1880 0
-1882 10 4 1881 0
1882 -10 0
1882 -4 0
1882 -1881 0
1883 -594 -1882 0
-1883 594 0
-1883 1882 0
-1884 8 1883 0
1884 -8 0
1884 -1883 0
1885 -597 -1884 0
-1885 597 0
-1885 1884 0
1886 -613 -1876 0
-1886 613 0
-1886 1876 0
-1887 791 1879 552 554 560 828 1885 1886 835 1516 0
1887 -791 0
1887 -1879 0
1887 -552 0
1887 -554 0
1887 -560 0
1887 -828 0
1887 -1885 0
1887 -1886 0
1887 -835 0
1887 -1516 0
1888 -849 -1887 0
-1888 849 0
-1888 1887 0
-1889 68 1888 1812 0
1889 -68 0
1889 -1888 0
1889 -1812 0
1890 -104 -1889 0
-1890 104 0
-1890 1889 0
1891 -67 -1156 0
-1891 67 0
-1891 1156 0
-1892 89 153 154 1891 69 84 0
1892 -89 0
1892 -153 0
1892 -154 0
1892 -1891 0
1892 -69 0
1892 -84 0
1893 -124 -1892 0
-1893 124 0
-1893 1892 0
-1894 51 1893 0
1894 -51 0
1894 -1893 0
1895 -127 -1894 0
-1895 127 0
-1895 1894 0
-1896 129 1866 1 1871 1874 1890 1895 0
1896 -129 0
1896 -1866 0
1896 -1 0
1896 -1871 0
1896 -1874 0
1896 -1890 0
1896 -1895 0
1897 -131 -1896 0
-1897 131 0
-1897 1896 0
1898 -849 -1148 0
-1898 849 0
-1898 1148 0
-1899 68 1898 0
1899 -68 0
1899 -1898 0
1900 -67 -1899 0
-1900 67 0
-1900 1899 0
-1901 89 153 154 1900 69 84 0
1901 -89 0
1901 -153 0
1901 -154 0
1901 -1900 0
1901 -69 0
1901 -84 0
1902 -133 -1901 0
-1902 133 0
-1902 1901 0
-1903 135 1902 0
1903 -135 0
1903 -1902 0
1904 -137 -1903 0
-1904 137 0
-1904 1903 0
-1905 791 839 552 554 560 828 843 835 1853 0
1905 -791 0
1905 -839 0
1905 -552 0
1905 -554 0
1905 -560 0
1905 -828 0
1905 -843 0
1905 -835 0
1905 -1853 0
1906 -838 -1905 0
-1906 838 0
-1906 1905 0
1907 -857 -1905 0
-1907 857 0
-1907 1905 0
-1908 98 1907 0
1908 -98 0
1908 -1907 0
1909 -97 -1908 0
-1909 97 0
-1909 1908 0
-1910 68 1542 1812 0
1910 -68 0
1910 -1542 0
1910 -1812 0
1911 -104 -1910 0
-1911 104 0
-1911 1910 0
1912 -124 -1868 0
-1912 124 0
-1912 1868 0
-1913 51 1912 0
1913 -51 0
1913 -1912 0
1914 -127 -1913 0
-1914 127 0
-1914 1913 0
-1915 129 1906 1 1909 1911 1914 0
1915 -129 0
1915 -1906 0
1915 -1 0
1915 -1909 0
1915 -1911 0
1915 -1914 0
1916 -140 -1915 0
-1916 140 0
-1916 1915 0
-1917 791 839 552 554 560 828 960 835 1853 0
1917 -791 0
1917 -839 0
1917 -552 0
1917 -554 0
1917 -560 0
1917 -828 0
1917 -960 0
1917 -835 0
1917 -1853 0
1918 -838 -1917 0
-1918 838 0
-1918 1917 0
1919 -857 -1917 0
-1919 857 0
-1919 1917 0
-1920 98 1919 0
1920 -98 0
1920 -1919 0
1921 -97 -1920 0
-1921 97 0
-1921 1920 0
-1922 68 1557 1812 0
1922 -68 0
1922 -1557 0
1922 -1812 0
1923 -104 -1922 0
-1923 104 0
-1923 1922 0
1924 -67 -1176 0
-1924 67 0
-1924 1176 0
-1925 89 153 154 1924 69 84 0
1925 -89 0
1925 -153 0
1925 -154 0
1925 -1924 0
1925 -69 0
1925 -84 0
1926 -124 -1925 0
-1926 124 0
-1926 1925 0
-1927 51 1926 0
1927 -51 0
1927 -1926 0
1928 -127 -1927 0
-1928 127 0
-1928 1927 0
-1929 129 1918 1 1921 1923 1928 0
1929 -129 0
1929 -1918 0
1929 -1 0
1929 -1921 0
1929 -1923 0
1929 -1928 0
1930 -142 -1929 0
-1930 142 0
-1930 1929 0
-1931 791 552 554 560 828 960 835 1853 0
1931 -791 0
1931 -552 0
1931 -554 0
1931 -560 0
1931 -828 0
1931 -960 0
1931 -835 0
1931 -1853 0
1932 -838 -1931 0
-1932 838 0
-1932 1931 0
1933 -857 -1931 0
-1933 857 0
-1933 1931 0
-1934 98 1933 0
1934 -98 0
1934 -1933 0
1935 -97 -1934 0
-1935 97 0
-1935 1934 0
-1936 68 1572 1812 0
1936 -68 0
1936 -1572 0
1936 -1812 0
1937 -104 -1936 0
-1937 104 0
-1937 1936 0
1938 -67 -1186 0
-1938 67 0
-1938 1186 0
-1939 89 153 154 1938 69 84 0
1939 -89 0
1939 -153 0
1939 -154 0
1939 -1938 0
1939 -69 0
1939 -84 0
1940 -124 -1939 0
-1940 124 0
-1940 1939 0
-1941 51 1940 0
1941 -51 0
1941 -1940 0
1942 -127 -1941 0
-1942 127 0
-1942 1941 0
-1943 129 1932 1935 1937 1942 0
1943 -129 0
1943 -1932 0
1943 -1935 0
1943 -1937 0
1943 -1942 0
1944 -145 -1943 0
-1944 145 0
-1944 1943 0
-1945 3 1944 0
1945 -3 0
1945 -1944 0
1946 -5 -1945 0
-1946 5 0
-1946 1945 0
-1947 10 1930 1946 6 0
1947 -10 0
1947 -1930 0
1947 -1946 0
1947 -6 0
1948 -12 -1947 0
-1948 12 0
-1948 1947 0
-1949 791 1003 552 554 560 1004 1008 1011 1147 0
1949 -791 0
1949 -1003 0
1949 -552 0
1949 -554 0
1949 -560 0
1949 -1004 0
1949 -1008 0
1949 -1011 0
1949 -1147 0
1950 -849 -1949 0
-1950 849 0
-1950 1949 0
-1951 68 1950 0
1951 -68 0
1951 -1950 0
1952 -67 -1951 0
-1952 67 0
-1952 1951 0
-1953 89 153 154 1952 69 84 0
1953 -89 0
1953 -153 0
1953 -154 0
1953 -1952 0
1953 -69 0
1953 -84 0
1954 -91 -1953 0
-1954 91 0
-1954 1953 0
-1955 93 1916 1948 1954 0
1955 -93 0
1955 -1916 0
1955 -1948 0
1955 -1954 0
1956 -152 -1955 0
-1956 152 0
-1956 1955 0
-1957 184 1855 1897 1904 1956 0
1957 -184 0
1957 -1855 0
1957 -1897 0
1957 -1904 0
1957 -1956 0
1958 -212 -1957 0
-1958 212 0
-1958 1957 0
-1959 791 1828 552 554 560 1832 1838 1847 1850 0
1959 -791 0
1959 -1828 0
1959 -552 0
1959 -554 0
1959 -560 0
1959 -1832 0
1959 -1838 0
1959 -1847 0
1959 -1850 0
1960 -824 -1959 0
-1960 824 0
-1960 1959 0
-1961 791 1858 552 554 560 828 1863 1864 835 0
1961 -791 0
1961 -1858 0
1961 -552 0
1961 -554 0
1961 -560 0
1961 -828 0
1961 -1863 0
1961 -1864 0
1961 -835 0
1962 -838 -1961 0
-1962 838 0
-1962 1961 0
-1963 89 153 154 1636 69 84 0
1963 -89 0
1963 -153 0
1963 -154 0
1963 -1636 0
1963 -69 0
1963 -84 0
1964 -91 -1963 0
-1964 91 0
-1964 1963 0
-1965 93 11 1964 0
1965 -93 0
1965 -11 0
1965 -1964 0
1966 -95 -1965 0
-1966 95 0
-1966 1965 0
1967 -857 -1961 0
-1967 857 0
-1967 1961 0
-1968 98 1967 0
1968 -98 0
1968 -1967 0
1969 -97 -1968 0
-1969 97 0
-1969 1968 0
-1970 10 4 6 1881 0
1970 -10 0
1970 -4 0
1970 -6 0
1970 -1881 0
1971 -530 -1970 0
-1971 530 0
-1971 1970 0
-1972 791 1971 552 554 560 828 1885 1886 835 0
1972 -791 0
1972 -1971 0
1972 -552 0
1972 -554 0
1972 -560 0
1972 -828 0
1972 -1885 0
1972 -1886 0
1972 -835 0
1973 -849 -1972 0
-1973 849 0
-1973 1972 0
-1974 68 1973 1812 0
1974 -68 0
1974 -1973 0
1974 -1812 0
1975 -104 -1974 0
-1975 104 0
-1975 1974 0
-1976 89 153 154 1660 69 84 0
1976 -89 0
1976 -153 0
1976 -154 0
1976 -1660 0
1976 -69 0
1976 -84 0
1977 -124 -1976 0
-1977 124 0
-1977 1976 0
-1978 51 1977 0
1978 -51 0
1978 -1977 0
1979 -127 -1978 0
-1979 127 0
-1979 1978 0
-1980 129 1962 1 1966 1969 1975 1979 0
1980 -129 0
1980 -1962 0
1980 -1 0
1980 -1966 0
1980 -1969 0
1980 -1975 0
1980 -1979 0
1981 -131 -1980 0
-1981 131 0
-1981 1980 0
1982 -133 -1026 0
-1982 133 0
-1982 1026 0
-1983 135 1982 0
1983 -135 0
1983 -1982 0
1984 -137 -1983 0
-1984 137 0
-1984 1983 0
-1985 68 1105 1812 0
1985 -68 0
1985 -1105 0
1985 -1812 0
1986 -104 -1985 0
-1986 104 0
-1986 1985 0
1987 -124 -1963 0
-1987 124 0
-1987 1963 0
-1988 51 1987 0
1988 -51 0
1988 -1987 0
1989 -127 -1988 0
-1989 127 0
-1989 1988 0
-1990 129 1101 1 1104 1986 1989 0
1990 -129 0
1990 -1101 0
1990 -1 0
1990 -1104 0
1990 -1986 0
1990 -1989 0
1991 -140 -1990 0
-1991 140 0
-1991 1990 0
-1992 68 1115 1812 0
1992 -68 0
1992 -1115 0
1992 -1812 0
1993 -104 -1992 0
-1993 104 0
-1993 1992 0
-1994 89 153 154 1688 69 84 0
1994 -89 0
1994 -153 0
1994 -154 0
1994 -1688 0
1994 -69 0
1994 -84 0
1995 -124 -1994 0
-1995 124 0
-1995 1994 0
-1996 51 1995 0
1996 -51 0
1996 -1995 0
1997 -127 -1996 0
-1997 127 0
-1997 1996 0
-1998 129 1111 1 1114 1993 1997 0
1998 -129 0
1998 -1111 0
1998 -1 0
1998 -1114 0
1998 -1993 0
1998 -1997 0
1999 -142 -1998 0
-1999 142 0
-1999 1998 0
-2000 68 1125 1812 0
2000 -68 0
2000 -1125 0
2000 -1812 0
2001 -104 -2000 0
-2001 104 0
-2001 2000 0
-2002 89 153 154 1697 69 84 0
2002 -89 0
2002 -153 0
2002 -154 0
2002 -1697 0
2002 -69 0
2002 -84 0
2003 -124 -2002 0
-2003 124 0
-2003 2002 0
-2004 51 2003 0
2004 -51 0
2004 -2003 0
2005 -127 -2004 0
-2005 127 0
-2005 2004 0
-2006 129 1121 1124 2001 2005 0
2006 -129 0
2006 -1121 0
2006 -1124 0
2006 -2001 0
2006 -2005 0
2007 -145 -2006 0
-2007 145 0
-2007 2006 0
-2008 3 2007 0
2008 -3 0
2008 -2007 0
2009 -5 -2008 0
-2009 5 0
-2009 2008 0
-2010 10 1999 2009 6 0
2010 -10 0
2010 -1999 0
2010 -2009 0
2010 -6 0
2011 -12 -2010 0
-2011 12 0
-2011 2010 0
-2012 791 1003 552 554 560 1004 1008 1011 0
2012 -791 0
2012 -1003 0
2012 -552 0
2012 -554 0
2012 -560 0
2012 -1004 0
2012 -1008 0
2012 -1011 0
2013 -849 -2012 0
-2013 849 0
-2013 2012 0
-2014 68 2013 0
2014 -68 0
2014 -2013 0
2015 -67 -2014 0
-2015 67 0
-2015 2014 0
-2016 89 153 154 2015 69 84 0
2016 -89 0
2016 -153 0
2016 -154 0
2016 -2015 0
2016 -69 0
2016 -84 0
2017 -91 -2016 0
-2017 91 0
-2017 2016 0
-2018 93 1991 2011 2017 0
2018 -93 0
2018 -1991 0
2018 -2011 0
2018 -2017 0
2019 -152 -2018 0
-2019 152 0
-2019 2018 0
-2020 184 1960 1981 1984 2019 0
2020 -184 0
2020 -1960 0
2020 -1981 0
2020 -1984 0
2020 -2019 0
2021 -201 -2020 0
-2021 201 0
-2021 2020 0
-2022 21 2021 0
2022 -21 0
2022 -2021 0
2023 -20 -2022 0
-2023 20 0
-2023 2022 0
2024 -186 -755 0
-2024 186 0
-2024 755 0
2025 -190 -360 0
-2025 190 0
-2025 360 0
-2026 3 2025 0
2026 -3 0
2026 -2025 0
2027 -2 -2026 0
-2027 2 0
-2027 2026 0
-2028 129 2027 910 96 472 473 0
2028 -129 0
2028 -2027 0
2028 -910 0
2028 -96 0
2028 -472 0
2028 -473 0
2029 -142 -2028 0
-2029 142 0
-2029 2028 0
-2030 184 1229 193 1230 0
2030 -184 0
2030 -1229 0
2030 -193 0
2030 -1230 0
2031 -346 -2030 0
-2031 346 0
-2031 2030 0
-2032 184 1233 193 1236 0
2032 -184 0
2032 -1233 0
2032 -193 0
2032 -1236 0
2033 -190 -2032 0
-2033 190 0
-2033 2032 0
-2034 3 912 2033 0
2034 -3 0
2034 -912 0
2034 -2033 0
2035 -5 -2034 0
-2035 5 0
-2035 2034 0
2036 -190 -210 0
-2036 190 0
-2036 210 0
-2037 3 2036 0
2037 -3 0
2037 -2036 0
2038 -2 -2037 0
-2038 2 0
-2038 2037 0
-2039 129 2038 96 472 473 0
2039 -129 0
2039 -2038 0
2039 -96 0
2039 -472 0
2039 -473 0
2040 -140 -2039 0
-2040 140 0
-2040 2039 0
-2041 93 2040 0
2041 -93 0
2041 -2040 0
2042 -527 -2041 0
-2042 527 0
-2042 2041 0
-2043 10 2029 2031 2035 6 2042 0
2043 -10 0
2043 -2029 0
2043 -2031 0
2043 -2035 0
2043 -6 0
2043 -2042 0
2044 -530 -2043 0
-2044 530 0
-2044 2043 0
2045 -346 -210 0
-2045 346 0
-2045 210 0
-2046 10 2045 6 0
2046 -10 0
2046 -2045 0
2046 -6 0
2047 -12 -2046 0
-2047 12 0
-2047 2046 0
-2048 93 2047 0
2048 -93 0
2048 -2047 0
2049 -95 -2048 0
-2049 95 0
-2049 2048 0
-2050 129 2049 96 472 473 0
2050 -129 0
2050 -2049 0
2050 -96 0
2050 -472 0
2050 -473 0
2051 -145 -2050 0
-2051 145 0
-2051 2050 0
-2052 184 1258 193 1263 0
2052 -184 0
2052 -1258 0
2052 -193 0
2052 -1263 0
2053 -190 -2052 0
-2053 190 0
-2053 2052 0
-2054 3 2051 2053 0
2054 -3 0
2054 -2051 0
2054 -2053 0
2055 -580 -2054 0
-2055 580 0
-2055 2054 0
-2056 10 2029 2031 2035 2042 0
2056 -10 0
2056 -2029 0
2056 -2031 0
2056 -2035 0
2056 -2042 0
2057 -594 -2056 0
-2057 594 0
-2057 2056 0
-2058 8 2057 0
2058 -8 0
2058 -2057 0
2059 -597 -2058 0
-2059 597 0
-2059 2058 0
2060 -142 -2039 0
-2060 142 0
-2060 2039 0
2061 -346 -488 0
-2061 346 0
-2061 488 0
-2062 184 1275 193 0
2062 -184 0
2062 -1275 0
2062 -193 0
2063 -190 -2062 0
-2063 190 0
-2063 2062 0
-2064 3 748 2063 0
2064 -3 0
2064 -748 0
2064 -2063 0
2065 -5 -2064 0
-2065 5 0
-2065 2064 0
-2066 10 2060 2061 2065 6 0
2066 -10 0
2066 -2060 0
2066 -2061 0
2066 -2065 0
2066 -6 0
2067 -12 -2066 0
-2067 12 0
-2067 2066 0
-2068 93 2040 2067 0
2068 -93 0
2068 -2040 0
2068 -2067 0
2069 -613 -2068 0
-2069 613 0
-2069 2068 0
2070 -190 -270 0
-2070 190 0
-2070 270 0
-2071 3 2070 0
2071 -3 0
2071 -2070 0
2072 -2 -2071 0
-2072 2 0
-2072 2071 0
2073 -5 -2037 0
-2073 5 0
-2073 2037 0
-2074 10 2045 2073 6 0
2074 -10 0
2074 -2045 0
2074 -2073 0
2074 -6 0
2075 -12 -2074 0
-2075 12 0
-2075 2074 0
-2076 93 2075 0
2076 -93 0
2076 -2075 0
2077 -95 -2076 0
-2077 95 0
-2077 2076 0
-2078 129 2072 2077 96 472 473 0
2078 -129 0
2078 -2072 0
2078 -2077 0
2078 -96 0
2078 -472 0
2078 -473 0
2079 -621 -2078 0
-2079 621 0
-2079 2078 0
-2080 623 2079 0
2080 -623 0
2080 -2079 0
2081 -625 -2080 0
-2081 625 0
-2081 2080 0
-2082 791 2024 2044 552 554 560 2055 2059 2069 2081 0
2082 -791 0
2082 -2024 0
2082 -2044 0
2082 -552 0
2082 -554 0
2082 -560 0
2082 -2055 0
2082 -2059 0
2082 -2069 0
2082 -2081 0
2083 -849 -2082 0
-2083 849 0
-2083 2082 0
-2084 68 2083 0
2084 -68 0
2084 -2083 0
2085 -67 -2084 0
-2085 67 0
-2085 2084 0
2086 -85 -1200 0
-2086 85 0
-2086 1200 0
-2087 89 153 154 2085 69 2086 0
2087 -89 0
2087 -153 0
2087 -154 0
2087 -2085 0
2087 -69 0
2087 -2086 0
2088 -175 -2087 0
-2088 175 0
-2088 2087 0
-2089 23 34 2023 2088 0
2089 -23 0
2089 -34 0
2089 -2023 0
2089 -2088 0
2090 -25 -2089 0
-2090 25 0
-2090 2089 0
-2091 27 2090 0
2091 -27 0
2091 -2090 0
2092 -40 -2091 0
-2092 40 0
-2092 2091 0
-2093 42 1958 2092 0
2093 -42 0
2093 -1958 0
2093 -2092 0
2094 -44 -2093 0
-2094 44 0
-2094 2093 0
-2095 184 744 193 754 194 0
2095 -184 0
2095 -744 0
2095 -193 0
2095 -754 0
2095 -194 0
2096 -186 -2095 0
-2096 186 0
-2096 2095 0
2097 -190 -348 0
-2097 190 0
-2097 348 0
-2098 3 2097 0
2098 -3 0
2098 -2097 0
2099 -2 -2098 0
-2099 2 0
-2099 2098 0
-2100 129 2099 910 96 472 473 0
2100 -129 0
2100 -2099 0
2100 -910 0
2100 -96 0
2100 -472 0
2100 -473 0
2101 -142 -2100 0
-2101 142 0
-2101 2100 0
-2102 184 1229 193 1230 194 0
2102 -184 0
2102 -1229 0
2102 -193 0
2102 -1230 0
2102 -194 0
2103 -346 -2102 0
-2103 346 0
-2103 2102 0
-2104 184 1233 193 1236 194 0
2104 -184 0
2104 -1233 0
2104 -193 0
2104 -1236 0
2104 -194 0
2105 -190 -2104 0
-2105 190 0
-2105 2104 0
-2106 3 912 2105 0
2106 -3 0
2106 -912 0
2106 -2105 0
2107 -5 -2106 0
-2107 5 0
-2107 2106 0
2108 -190 -195 0
-2108 190 0
-2108 195 0
-2109 3 2108 0
2109 -3 0
2109 -2108 0
2110 -2 -2109 0
-2110 2 0
-2110 2109 0
-2111 129 2110 96 472 473 0
2111 -129 0
2111 -2110 0
2111 -96 0
2111 -472 0
2111 -473 0
2112 -140 -2111 0
-2112 140 0
-2112 2111 0
-2113 93 2112 0
2113 -93 0
2113 -2112 0
2114 -527 -2113 0
-2114 527 0
-2114 2113 0
-2115 10 2101 2103 2107 6 2114 0
2115 -10 0
2115 -2101 0
2115 -2103 0
2115 -2107 0
2115 -6 0
2115 -2114 0
2116 -530 -2115 0
-2116 530 0
-2116 2115 0
2117 -346 -195 0
-2117 346 0
-2117 195 0
-2118 10 2117 6 0
2118 -10 0
2118 -2117 0
2118 -6 0
2119 -12 -2118 0
-2119 12 0
-2119 2118 0
-2120 93 2119 0
2120 -93 0
2120 -2119 0
2121 -95 -2120 0
-2121 95 0
-2121 2120 0
-2122 129 2121 96 472 473 0
2122 -129 0
2122 -2121 0
2122 -96 0
2122 -472 0
2122 -473 0
2123 -145 -2122 0
-2123 145 0
-2123 2122 0
-2124 184 1258 193 1263 194 0
2124 -184 0
2124 -1258 0
2124 -193 0
2124 -1263 0
2124 -194 0
2125 -190 -2124 0
-2125 190 0
-2125 2124 0
-2126 3 2123 2125 0
2126 -3 0
2126 -2123 0
2126 -2125 0
2127 -580 -2126 0
-2127 580 0
-2127 2126 0
-2128 10 2101 2103 2107 2114 0
2128 -10 0
2128 -2101 0
2128 -2103 0
2128 -2107 0
2128 -2114 0
2129 -594 -2128 0
-2129 594 0
-2129 2128 0
-2130 8 2129 0
2130 -8 0
2130 -2129 0
2131 -597 -2130 0
-2131 597 0
-2131 2130 0
2132 -142 -2111 0
-2132 142 0
-2132 2111 0
2133 -346 -476 0
-2133 346 0
-2133 476 0
-2134 184 1275 193 194 0
2134 -184 0
2134 -1275 0
2134 -193 0
2134 -194 0
2135 -190 -2134 0
-2135 190 0
-2135 2134 0
-2136 3 748 2135 0
2136 -3 0
2136 -748 0
2136 -2135 0
2137 -5 -2136 0
-2137 5 0
-2137 2136 0
-2138 10 2132 2133 2137 6 0
2138 -10 0
2138 -2132 0
2138 -2133 0
2138 -2137 0
2138 -6 0
2139 -12 -2138 0
-2139 12 0
-2139 2138 0
-2140 93 2112 2139 0
2140 -93 0
2140 -2112 0
2140 -2139 0
2141 -613 -2140 0
-2141 613 0
-2141 2140 0
2142 -190 -258 0
-2142 190 0
-2142 258 0
-2143 3 2142 0
2143 -3 0
2143 -2142 0
2144 -2 -2143 0
-2144 2 0
-2144 2143 0
2145 -5 -2109 0
-2145 5 0
-2145 2109 0
-2146 10 2117 2145 6 0
2146 -10 0
2146 -2117 0
2146 -2145 0
2146 -6 0
2147 -12 -2146 0
-2147 12 0
-2147 2146 0
-2148 93 2147 0
2148 -93 0
2148 -2147 0
2149 -95 -2148 0
-2149 95 0
-2149 2148 0
-2150 129 2144 2149 96 472 473 0
2150 -129 0
2150 -2144 0
2150 -2149 0
2150 -96 0
2150 -472 0
2150 -473 0
2151 -621 -2150 0
-2151 621 0
-2151 2150 0
-2152 623 2151 0
2152 -623 0
2152 -2151 0
2153 -625 -2152 0
-2153 625 0
-2153 2152 0
-2154 184 744 193 1726 684 0
2154 -184 0
2154 -744 0
2154 -193 0
2154 -1726 0
2154 -684 0
2155 -201 -2154 0
-2155 201 0
-2155 2154 0
-2156 21 2155 0
2156 -21 0
2156 -2155 0
2157 -20 -2156 0
-2157 20 0
-2157 2156 0
-2158 23 626 630 2157 0
2158 -23 0
2158 -626 0
2158 -630 0
2158 -2157 0
2159 -789 -2158 0
-2159 789 0
-2159 2158 0
-2160 791 2096 2116 552 554 560 2127 2131 2141 2153 2159 0
2160 -791 0
2160 -2096 0
2160 -2116 0
2160 -552 0
2160 -554 0
2160 -560 0
2160 -2127 0
2160 -2131 0
2160 -2141 0
2160 -2153 0
2160 -2159 0
2161 -849 -2160 0
-2161 849 0
-2161 2160 0
-2162 68 2161 0
2162 -68 0
2162 -2161 0
2163 -67 -2162 0
-2163 67 0
-2163 2162 0
2164 -83 -1206 0
-2164 83 0
-2164 1206 0
-2165 23 626 630 0
2165 -23 0
2165 -626 0
2165 -630 0
2166 -789 -2165 0
-2166 789 0
-2166 2165 0
-2167 791 1021 552 554 560 922 928 929 932 2166 0
2167 -791 0
2167 -1021 0
2167 -552 0
2167 -554 0
2167 -560 0
2167 -922 0
2167 -928 0
2167 -929 0
2167 -932 0
2167 -2166 0
2168 -824 -2167 0
-2168 824 0
-2168 2167 0
-2169 791 1049 552 554 560 828 894 895 835 2166 0
2169 -791 0
2169 -1049 0
2169 -552 0
2169 -554 0
2169 -560 0
2169 -828 0
2169 -894 0
2169 -895 0
2169 -835 0
2169 -2166 0
2170 -838 -2169 0
-2170 838 0
-2170 2169 0
2171 -857 -2169 0
-2171 857 0
-2171 2169 0
-2172 98 2171 0
2172 -98 0
2172 -2171 0
2173 -97 -2172 0
-2173 97 0
-2173 2172 0
2174 -849 -2169 0
-2174 849 0
-2174 2169 0
-2175 68 2174 0
2175 -68 0
2175 -2174 0
2176 -104 -2175 0
-2176 104 0
-2176 2175 0
-2177 129 2170 1 742 2173 2176 473 0
2177 -129 0
2177 -2170 0
2177 -1 0
2177 -742 0
2177 -2173 0
2177 -2176 0
2177 -473 0
2178 -131 -2177 0
-2178 131 0
-2178 2177 0
-2179 791 839 552 554 560 828 843 835 2166 0
2179 -791 0
2179 -839 0
2179 -552 0
2179 -554 0
2179 -560 0
2179 -828 0
2179 -843 0
2179 -835 0
2179 -2166 0
2180 -838 -2179 0
-2180 838 0
-2180 2179 0
2181 -857 -2179 0
-2181 857 0
-2181 2179 0
-2182 98 2181 0
2182 -98 0
2182 -2181 0
2183 -97 -2182 0
-2183 97 0
-2183 2182 0
2184 -849 -2179 0
-2184 849 0
-2184 2179 0
-2185 68 2184 0
2185 -68 0
2185 -2184 0
2186 -104 -2185 0
-2186 104 0
-2186 2185 0
-2187 129 2180 1 2183 2186 473 0
2187 -129 0
2187 -2180 0
2187 -1 0
2187 -2183 0
2187 -2186 0
2187 -473 0
2188 -140 -2187 0
-2188 140 0
-2188 2187 0
-2189 791 839 552 554 560 828 960 835 2166 0
2189 -791 0
2189 -839 0
2189 -552 0
2189 -554 0
2189 -560 0
2189 -828 0
2189 -960 0
2189 -835 0
2189 -2166 0
2190 -838 -2189 0
-2190 838 0
-2190 2189 0
2191 -857 -2189 0
-2191 857 0
-2191 2189 0
-2192 98 2191 0
2192 -98 0
2192 -2191 0
2193 -97 -2192 0
-2193 97 0
-2193 2192 0
2194 -849 -2189 0
-2194 849 0
-2194 2189 0
-2195 68 2194 0
2195 -68 0
2195 -2194 0
2196 -104 -2195 0
-2196 104 0
-2196 2195 0
-2197 129 2190 1 2193 2196 473 0
2197 -129 0
2197 -2190 0
2197 -1 0
2197 -2193 0
2197 -2196 0
2197 -473 0
2198 -142 -2197 0
-2198 142 0
-2198 2197 0
-2199 791 552 554 560 828 960 835 2166 0
2199 -791 0
2199 -552 0
2199 -554 0
2199 -560 0
2199 -828 0
2199 -960 0
2199 -835 0
2199 -2166 0
2200 -838 -2199 0
-2200 838 0
-2200 2199 0
2201 -857 -2199 0
-2201 857 0
-2201 2199 0
-2202 98 2201 0
2202 -98 0
2202 -2201 0
2203 -97 -2202 0
-2203 97 0
-2203 2202 0
2204 -849 -2199 0
-2204 849 0
-2204 2199 0
-2205 68 2204 0
2205 -68 0
2205 -2204 0
2206 -104 -2205 0
-2206 104 0
-2206 2205 0
-2207 129 2200 2203 2206 473 0
2207 -129 0
2207 -2200 0
2207 -2203 0
2207 -2206 0
2207 -473 0
2208 -145 -2207 0
-2208 145 0
-2208 2207 0
-2209 3 2208 0
2209 -3 0
2209 -2208 0
2210 -5 -2209 0
-2210 5 0
-2210 2209 0
-2211 10 2198 2210 6 0
2211 -10 0
2211 -2198 0
2211 -2210 0
2211 -6 0
2212 -12 -2211 0
-2212 12 0
-2212 2211 0
-2213 93 2188 2212 0
2213 -93 0
2213 -2188 0
2213 -2212 0
2214 -152 -2213 0
-2214 152 0
-2214 2213 0
-2215 23 34 0
2215 -23 0
2215 -34 0
2216 -25 -2215 0
-2216 25 0
-2216 2215 0
-2217 27 2216 0
2217 -27 0
2217 -2216 0
2218 -40 -2217 0
-2218 40 0
-2218 2217 0
-2219 42 2218 0
2219 -42 0
2219 -2218 0
2220 -182 -2219 0
-2220 182 0
-2220 2219 0
-2221 184 2168 2178 193 2214 2220 0
2221 -184 0
2221 -2168 0
2221 -2178 0
2221 -193 0
2221 -2214 0
2221 -2220 0
2222 -201 -2221 0
-2222 201 0
-2222 2221 0
-2223 21 2222 0
2223 -21 0
2223 -2222 0
2224 -85 -2223 0
-2224 85 0
-2224 2223 0
-2225 89 153 154 2163 69 2164 2224 0
2225 -89 0
2225 -153 0
2225 -154 0
2225 -2163 0
2225 -69 0
2225 -2164 0
2225 -2224 0
2226 -157 -2225 0
-2226 157 0
-2226 2225 0
-2227 46 1810 2094 2226 0
2227 -46 0
2227 -1810 0
2227 -2094 0
2227 -2226 0
2228 -48 -2227 0
-2228 48 0
-2228 2227 0
-2229 23 626 630 1297 0
2229 -23 0
2229 -626 0
2229 -630 0
2229 -1297 0
2230 -789 -2229 0
-2230 789 0
-2230 2229 0
-2231 791 2096 2116 552 554 560 2127 2131 2141 2153 2230 0
2231 -791 0
2231 -2096 0
2231 -2116 0
2231 -552 0
2231 -554 0
2231 -560 0
2231 -2127 0
2231 -2131 0
2231 -2141 0
2231 -2153 0
2231 -2230 0
2232 -849 -2231 0
-2232 849 0
-2232 2231 0
-2233 68 2232 0
2233 -68 0
2233 -2232 0
2234 -67 -2233 0
-2234 67 0
-2234 2233 0
-2235 89 153 154 2234 69 2164 1424 0
2235 -89 0
2235 -153 0
2235 -154 0
2235 -2234 0
2235 -69 0
2235 -2164 0
2235 -1424 0
2236 -124 -2235 0
-2236 124 0
-2236 2235 0
-2237 51 2236 0
2237 -51 0
2237 -2236 0
2238 -50 -2237 0
-2238 50 0
-2238 2237 0
-2239 53 1597 13 16 2228 2238 0
2239 -53 0
2239 -1597 0
2239 -13 0
2239 -16 0
2239 -2228 0
2239 -2238 0
2240 -2241 -2239 0
-2240 2241 0
-2240 2239 0
2242 -824 -1528 0
-2242 824 0
-2242 1528 0
-2243 791 1049 552 554 560 828 894 895 835 846 0
2243 -791 0
2243 -1049 0
2243 -552 0
2243 -554 0
2243 -560 0
2243 -828 0
2243 -894 0
2243 -895 0
2243 -835 0
2243 -846 0
2244 -838 -2243 0
-2244 838 0
-2244 2243 0
2245 -857 -2243 0
-2245 857 0
-2245 2243 0
-2246 98 2245 0
2246 -98 0
2246 -2245 0
2247 -97 -2246 0
-2247 97 0
-2247 2246 0
2248 -849 -2243 0
-2248 849 0
-2248 2243 0
-2249 68 2248 0
2249 -68 0
2249 -2248 0
2250 -104 -2249 0
-2250 104 0
-2250 2249 0
-2251 129 2244 1 742 2247 2250 473 0
2251 -129 0
2251 -2244 0
2251 -1 0
2251 -742 0
2251 -2247 0
2251 -2250 0
2251 -473 0
2252 -131 -2251 0
-2252 131 0
-2252 2251 0
2253 -838 -847 0
-2253 838 0
-2253 847 0
2254 -857 -847 0
-2254 857 0
-2254 847 0
-2255 98 2254 0
2255 -98 0
2255 -2254 0
2256 -97 -2255 0
-2256 97 0
-2256 2255 0
2257 -104 -850 0
-2257 104 0
-2257 850 0
-2258 129 2253 1 2256 2257 473 0
2258 -129 0
2258 -2253 0
2258 -1 0
2258 -2256 0
2258 -2257 0
2258 -473 0
2259 -140 -2258 0
-2259 140 0
-2259 2258 0
-2260 791 839 552 554 560 828 960 835 846 0
2260 -791 0
2260 -839 0
2260 -552 0
2260 -554 0
2260 -560 0
2260 -828 0
2260 -960 0
2260 -835 0
2260 -846 0
2261 -838 -2260 0
-2261 838 0
-2261 2260 0
2262 -857 -2260 0
-2262 857 0
-2262 2260 0
-2263 98 2262 0
2263 -98 0
2263 -2262 0
2264 -97 -2263 0
-2264 97 0
-2264 2263 0
2265 -849 -2260 0
-2265 849 0
-2265 2260 0
-2266 68 2265 0
2266 -68 0
2266 -2265 0
2267 -104 -2266 0
-2267 104 0
-2267 2266 0
-2268 129 2261 1 2264 2267 473 0
2268 -129 0
2268 -2261 0
2268 -1 0
2268 -2264 0
2268 -2267 0
2268 -473 0
2269 -142 -2268 0
-2269 142 0
-2269 2268 0
-2270 791 552 554 560 828 960 835 846 0
2270 -791 0
2270 -552 0
2270 -554 0
2270 -560 0
2270 -828 0
2270 -960 0
2270 -835 0
2270 -846 0
2271 -838 -2270 0
-2271 838 0
-2271 2270 0
2272 -857 -2270 0
-2272 857 0
-2272 2270 0
-2273 98 2272 0
2273 -98 0
2273 -2272 0
2274 -97 -2273 0
-2274 97 0
-2274 2273 0
2275 -849 -2270 0
-2275 849 0
-2275 2270 0
-2276 68 2275 0
2276 -68 0
2276 -2275 0
2277 -104 -2276 0
-2277 104 0
-2277 2276 0
-2278 129 2271 2274 2277 473 0
2278 -129 0
2278 -2271 0
2278 -2274 0
2278 -2277 0
2278 -473 0
2279 -145 -2278 0
-2279 145 0
-2279 2278 0
-2280 3 2279 0
2280 -3 0
2280 -2279 0
2281 -5 -2280 0
-2281 5 0
-2281 2280 0
-2282 10 2269 2281 6 0
2282 -10 0
2282 -2269 0
2282 -2281 0
2282 -6 0
2283 -12 -2282 0
-2283 12 0
-2283 2282 0
-2284 93 2259 2283 0
2284 -93 0
2284 -2259 0
2284 -2283 0
2285 -152 -2284 0
-2285 152 0
-2285 2284 0
-2286 184 2242 2252 193 2285 194 0
2286 -184 0
2286 -2242 0
2286 -2252 0
2286 -193 0
2286 -2285 0
2286 -194 0
2287 -197 -2286 0
-2287 197 0
-2287 2286 0
-2288 53 2287 13 16 1209 49 0
2288 -53 0
2288 -2287 0
2288 -13 0
2288 -16 0
2288 -1209 0
2288 -49 0
2289 -55 -2288 0
-2289 55 0
-2289 2288 0
-2290 57 2289 0
2290 -57 0
2290 -2289 0
2291 -59 -2290 0
-2291 59 0
-2291 2290 0
-2292 53 1215 16 1209 49 0
2292 -53 0
2292 -1215 0
2292 -16 0
2292 -1209 0
2292 -49 0
2293 -62 -2292 0
-2293 62 0
-2293 2292 0
-2294 15 2293 0
2294 -15 0
2294 -2293 0
2295 -65 -2294 0
-2295 65 0
-2295 2294 0
2296 -182 -81 0
-2296 182 0
-2296 81 0
-2297 184 744 193 754 2296 0
2297 -184 0
2297 -744 0
2297 -193 0
2297 -754 0
2297 -2296 0
2298 -186 -2297 0
-2298 186 0
-2298 2297 0
-2299 184 193 347 2296 0
2299 -184 0
2299 -193 0
2299 -347 0
2299 -2296 0
2300 -190 -2299 0
-2300 190 0
-2300 2299 0
-2301 3 2300 0
2301 -3 0
2301 -2300 0
2302 -2 -2301 0
-2302 2 0
-2302 2301 0
-2303 129 2302 910 96 472 473 0
2303 -129 0
2303 -2302 0
2303 -910 0
2303 -96 0
2303 -472 0
2303 -473 0
2304 -142 -2303 0
-2304 142 0
-2304 2303 0
-2305 184 1229 193 1230 2296 0
2305 -184 0
2305 -1229 0
2305 -193 0
2305 -1230 0
2305 -2296 0
2306 -346 -2305 0
-2306 346 0
-2306 2305 0
-2307 184 1233 193 1236 2296 0
2307 -184 0
2307 -1233 0
2307 -193 0
2307 -1236 0
2307 -2296 0
2308 -190 -2307 0
-2308 190 0
-2308 2307 0
-2309 3 912 2308 0
2309 -3 0
2309 -912 0
2309 -2308 0
2310 -5 -2309 0
-2310 5 0
-2310 2309 0
-2311 184 193 2296 0
2311 -184 0
2311 -193 0
2311 -2296 0
2312 -190 -2311 0
-2312 190 0
-2312 2311 0
-2313 3 2312 0
2313 -3 0
2313 -2312 0
2314 -2 -2313 0
-2314 2 0
-2314 2313 0
-2315 129 2314 96 472 473 0
2315 -129 0
2315 -2314 0
2315 -96 0
2315 -472 0
2315 -473 0
2316 -140 -2315 0
-2316 140 0
-2316 2315 0
-2317 93 2316 0
2317 -93 0
2317 -2316 0
2318 -527 -2317 0
-2318 527 0
-2318 2317 0
-2319 10 2304 2306 2310 6 2318 0
2319 -10 0
2319 -2304 0
2319 -2306 0
2319 -2310 0
2319 -6 0
2319 -2318 0
2320 -530 -2319 0
-2320 530 0
-2320 2319 0
2321 -346 -2311 0
-2321 346 0
-2321 2311 0
-2322 10 2321 6 0
2322 -10 0
2322 -2321 0
2322 -6 0
2323 -12 -2322 0
-2323 12 0
-2323 2322 0
-2324 93 2323 0
2324 -93 0
2324 -2323 0
2325 -95 -2324 0
-2325 95 0
-2325 2324 0
-2326 129 2325 96 472 473 0
2326 -129 0
2326 -2325 0
2326 -96 0
2326 -472 0
2326 -473 0
2327 -145 -2326 0
-2327 145 0
-2327 2326 0
-2328 184 1258 193 1263 2296 0
2328 -184 0
2328 -1258 0
2328 -193 0
2328 -1263 0
2328 -2296 0
2329 -190 -2328 0
-2329 190 0
-2329 2328 0
-2330 3 2327 2329 0
2330 -3 0
2330 -2327 0
2330 -2329 0
2331 -580 -2330 0
-2331 580 0
-2331 2330 0
-2332 10 2304 2306 2310 2318 0
2332 -10 0
2332 -2304 0
2332 -2306 0
2332 -2310 0
2332 -2318 0
2333 -594 -2332 0
-2333 594 0
-2333 2332 0
-2334 8 2333 0
2334 -8 0
2334 -2333 0
2335 -597 -2334 0
-2335 597 0
-2335 2334 0
2336 -142 -2315 0
-2336 142 0
-2336 2315 0
-2337 184 475 193 2296 0
2337 -184 0
2337 -475 0
2337 -193 0
2337 -2296 0
2338 -346 -2337 0
-2338 346 0
-2338 2337 0
-2339 184 1275 193 2296 0
2339 -184 0
2339 -1275 0
2339 -193 0
2339 -2296 0
2340 -190 -2339 0
-2340 190 0
-2340 2339 0
-2341 3 748 2340 0
2341 -3 0
2341 -748 0
2341 -2340 0
2342 -5 -2341 0
-2342 5 0
-2342 2341 0
-2343 10 2336 2338 2342 6 0
2343 -10 0
2343 -2336 0
2343 -2338 0
2343 -2342 0
2343 -6 0
2344 -12 -2343 0
-2344 12 0
-2344 2343 0
-2345 93 2316 2344 0
2345 -93 0
2345 -2316 0
2345 -2344 0
2346 -613 -2345 0
-2346 613 0
-2346 2345 0
-2347 184 193 257 2296 0
2347 -184 0
2347 -193 0
2347 -257 0
2347 -2296 0
2348 -190 -2347 0
-2348 190 0
-2348 2347 0
-2349 3 2348 0
2349 -3 0
2349 -2348 0
2350 -2 -2349 0
-2350 2 0
-2350 2349 0
2351 -5 -2313 0
-2351 5 0
-2351 2313 0
-2352 10 2321 2351 6 0
2352 -10 0
2352 -2321 0
2352 -2351 0
2352 -6 0
2353 -12 -2352 0
-2353 12 0
-2353 2352 0
-2354 93 2353 0
2354 -93 0
2354 -2353 0
2355 -95 -2354 0
-2355 95 0
-2355 2354 0
-2356 129 2350 2355 96 472 473 0
2356 -129 0
2356 -2350 0
2356 -2355 0
2356 -96 0
2356 -472 0
2356 -473 0
2357 -621 -2356 0
-2357 621 0
-2357 2356 0
-2358 623 2357 0
2358 -623 0
2358 -2357 0
2359 -625 -2358 0
-2359 625 0
-2359 2358 0
2360 -197 -2154 0
-2360 197 0
-2360 2154 0
-2361 184 744 193 1726 0
2361 -184 0
2361 -744 0
2361 -193 0
2361 -1726 0
2362 -212 -2361 0
-2362 212 0
-2362 2361 0
-2363 42 2362 632 0
2363 -42 0
2363 -2362 0
2363 -632 0
2364 -44 -2363 0
-2364 44 0
-2364 2363 0
-2365 46 631 2364 0
2365 -46 0
2365 -631 0
2365 -2364 0
2366 -48 -2365 0
-2366 48 0
-2366 2365 0
-2367 53 2360 13 16 2366 49 0
2367 -53 0
2367 -2360 0
2367 -13 0
2367 -16 0
2367 -2366 0
2367 -49 0
2368 -76 -2367 0
-2368 76 0
-2368 2367 0
-2369 23 626 630 1297 2368 0
2369 -23 0
2369 -626 0
2369 -630 0
2369 -1297 0
2369 -2368 0
2370 -789 -2369 0
-2370 789 0
-2370 2369 0
-2371 791 2298 2320 552 554 560 2331 2335 2346 2359 2370 0
2371 -791 0
2371 -2298 0
2371 -2320 0
2371 -552 0
2371 -554 0
2371 -560 0
2371 -2331 0
2371 -2335 0
2371 -2346 0
2371 -2359 0
2371 -2370 0
2372 -849 -2371 0
-2372 849 0
-2372 2371 0
-2373 68 2372 0
2373 -68 0
2373 -2372 0
2374 -67 -2373 0
-2374 67 0
-2374 2373 0
-2375 53 13 16 1307 49 0
2375 -53 0
2375 -13 0
2375 -16 0
2375 -1307 0
2375 -49 0
2376 -76 -2375 0
-2376 76 0
-2376 2375 0
-2377 23 626 630 19 2376 0
2377 -23 0
2377 -626 0
2377 -630 0
2377 -19 0
2377 -2376 0
2378 -789 -2377 0
-2378 789 0
-2378 2377 0
-2379 791 1021 552 554 560 922 928 929 932 2378 0
2379 -791 0
2379 -1021 0
2379 -552 0
2379 -554 0
2379 -560 0
2379 -922 0
2379 -928 0
2379 -929 0
2379 -932 0
2379 -2378 0
2380 -824 -2379 0
-2380 824 0
-2380 2379 0
-2381 791 1049 552 554 560 828 894 895 835 2378 0
2381 -791 0
2381 -1049 0
2381 -552 0
2381 -554 0
2381 -560 0
2381 -828 0
2381 -894 0
2381 -895 0
2381 -835 0
2381 -2378 0
2382 -838 -2381 0
-2382 838 0
-2382 2381 0
2383 -857 -2381 0
-2383 857 0
-2383 2381 0
-2384 98 2383 0
2384 -98 0
2384 -2383 0
2385 -97 -2384 0
-2385 97 0
-2385 2384 0
2386 -849 -2381 0
-2386 849 0
-2386 2381 0
-2387 68 2386 0
2387 -68 0
2387 -2386 0
2388 -104 -2387 0
-2388 104 0
-2388 2387 0
-2389 129 2382 1 742 2385 2388 473 0
2389 -129 0
2389 -2382 0
2389 -1 0
2389 -742 0
2389 -2385 0
2389 -2388 0
2389 -473 0
2390 -131 -2389 0
-2390 131 0
-2390 2389 0
-2391 791 839 552 554 560 828 843 835 2378 0
2391 -791 0
2391 -839 0
2391 -552 0
2391 -554 0
2391 -560 0
2391 -828 0
2391 -843 0
2391 -835 0
2391 -2378 0
2392 -838 -2391 0
-2392 838 0
-2392 2391 0
2393 -857 -2391 0
-2393 857 0
-2393 2391 0
-2394 98 2393 0
2394 -98 0
2394 -2393 0
2395 -97 -2394 0
-2395 97 0
-2395 2394 0
2396 -849 -2391 0
-2396 849 0
-2396 2391 0
-2397 68 2396 0
2397 -68 0
2397 -2396 0
2398 -104 -2397 0
-2398 104 0
-2398 2397 0
-2399 129 2392 1 2395 2398 473 0
2399 -129 0
2399 -2392 0
2399 -1 0
2399 -2395 0
2399 -2398 0
2399 -473 0
2400 -140 -2399 0
-2400 140 0
-2400 2399 0
-2401 791 839 552 554 560 828 960 835 2378 0
2401 -791 0
2401 -839 0
2401 -552 0
2401 -554 0
2401 -560 0
2401 -828 0
2401 -960 0
2401 -835 0
2401 -2378 0
2402 -838 -2401 0
-2402 838 0
-2402 2401 0
2403 -857 -2401 0
-2403 857 0
-2403 2401 0
-2404 98 2403 0
2404 -98 0
2404 -2403 0
2405 -97 -2404 0
-2405 97 0
-2405 2404 0
2406 -849 -2401 0
-2406 849 0
-2406 2401 0
-2407 68 2406 0
2407 -68 0
2407 -2406 0
2408 -104 -2407 0
-2408 104 0
-2408 2407 0
-2409 129 2402 1 2405 2408 473 0
2409 -129 0
2409 -2402 0
2409 -1 0
2409 -2405 0
2409 -2408 0
2409 -473 0
2410 -142 -2409 0
-2410 142 0
-2410 2409 0
-2411 791 552 554 560 828 960 835 2378 0
2411 -791 0
2411 -552 0
2411 -554 0
2411 -560 0
2411 -828 0
2411 -960 0
2411 -835 0
2411 -2378 0
2412 -838 -2411 0
-2412 838 0
-2412 2411 0
2413 -857 -2411 0
-2413 857 0
-2413 2411 0
-2414 98 2413 0
2414 -98 0
2414 -2413 0
2415 -97 -2414 0
-2415 97 0
-2415 2414 0
2416 -849 -2411 0
-2416 849 0
-2416 2411 0
-2417 68 2416 0
2417 -68 0
2417 -2416 0
2418 -104 -2417 0
-2418 104 0
-2418 2417 0
-2419 129 2412 2415 2418 473 0
2419 -129 0
2419 -2412 0
2419 -2415 0
2419 -2418 0
2419 -473 0
2420 -145 -2419 0
-2420 145 0
-2420 2419 0
-2421 3 2420 0
2421 -3 0
2421 -2420 0
2422 -5 -2421 0
-2422 5 0
-2422 2421 0
-2423 10 2410 2422 6 0
2423 -10 0
2423 -2410 0
2423 -2422 0
2423 -6 0
2424 -12 -2423 0
-2424 12 0
-2424 2423 0
-2425 93 2400 2424 0
2425 -93 0
2425 -2400 0
2425 -2424 0
2426 -152 -2425 0
-2426 152 0
-2426 2425 0
-2427 184 2380 2390 193 2426 0
2427 -184 0
2427 -2380 0
2427 -2390 0
2427 -193 0
2427 -2426 0
2428 -212 -2427 0
-2428 212 0
-2428 2427 0
-2429 53 1362 13 16 73 49 0
2429 -53 0
2429 -1362 0
2429 -13 0
2429 -16 0
2429 -73 0
2429 -49 0
2430 -76 -2429 0
-2430 76 0
-2430 2429 0
-2431 23 34 1201 2430 0
2431 -23 0
2431 -34 0
2431 -1201 0
2431 -2430 0
2432 -25 -2431 0
-2432 25 0
-2432 2431 0
-2433 27 2432 0
2433 -27 0
2433 -2432 0
2434 -40 -2433 0
-2434 40 0
-2434 2433 0
-2435 42 2428 2434 0
2435 -42 0
2435 -2428 0
2435 -2434 0
2436 -83 -2435 0
-2436 83 0
-2436 2435 0
-2437 23 626 630 844 0
2437 -23 0
2437 -626 0
2437 -630 0
2437 -844 0
2438 -789 -2437 0
-2438 789 0
-2438 2437 0
-2439 791 1021 552 554 560 922 928 929 932 2438 0
2439 -791 0
2439 -1021 0
2439 -552 0
2439 -554 0
2439 -560 0
2439 -922 0
2439 -928 0
2439 -929 0
2439 -932 0
2439 -2438 0
2440 -824 -2439 0
-2440 824 0
-2440 2439 0
-2441 791 1049 552 554 560 828 894 895 835 2438 0
2441 -791 0
2441 -1049 0
2441 -552 0
2441 -554 0
2441 -560 0
2441 -828 0
2441 -894 0
2441 -895 0
2441 -835 0
2441 -2438 0
2442 -838 -2441 0
-2442 838 0
-2442 2441 0
2443 -857 -2441 0
-2443 857 0
-2443 2441 0
-2444 98 2443 0
2444 -98 0
2444 -2443 0
2445 -97 -2444 0
-2445 97 0
-2445 2444 0
2446 -849 -2441 0
-2446 849 0
-2446 2441 0
-2447 68 2446 0
2447 -68 0
2447 -2446 0
2448 -104 -2447 0
-2448 104 0
-2448 2447 0
-2449 129 2442 1 742 2445 2448 473 0
2449 -129 0
2449 -2442 0
2449 -1 0
2449 -742 0
2449 -2445 0
2449 -2448 0
2449 -473 0
2450 -131 -2449 0
-2450 131 0
-2450 2449 0
-2451 791 839 552 554 560 828 843 835 2438 0
2451 -791 0
2451 -839 0
2451 -552 0
2451 -554 0
2451 -560 0
2451 -828 0
2451 -843 0
2451 -835 0
2451 -2438 0
2452 -838 -2451 0
-2452 838 0
-2452 2451 0
2453 -857 -2451 0
-2453 857 0
-2453 2451 0
-2454 98 2453 0
2454 -98 0
2454 -2453 0
2455 -97 -2454 0
-2455 97 0
-2455 2454 0
2456 -849 -2451 0
-2456 849 0
-2456 2451 0
-2457 68 2456 0
2457 -68 0
2457 -2456 0
2458 -104 -2457 0
-2458 104 0
-2458 2457 0
-2459 129 2452 1 2455 2458 473 0
2459 -129 0
2459 -2452 0
2459 -1 0
2459 -2455 0
2459 -2458 0
2459 -473 0
2460 -140 -2459 0
-2460 140 0
-2460 2459 0
-2461 791 839 552 554 560 828 960 835 2438 0
2461 -791 0
2461 -839 0
2461 -552 0
2461 -554 0
2461 -560 0
2461 -828 0
2461 -960 0
2461 -835 0
2461 -2438 0
2462 -838 -2461 0
-2462 838 0
-2462 2461 0
2463 -857 -2461 0
-2463 857 0
-2463 2461 0
-2464 98 2463 0
2464 -98 0
2464 -2463 0
2465 -97 -2464 0
-2465 97 0
-2465 2464 0
2466 -849 -2461 0
-2466 849 0
-2466 2461 0
-2467 68 2466 0
2467 -68 0
2467 -2466 0
2468 -104 -2467 0
-2468 104 0
-2468 2467 0
-2469 129 2462 1 2465 2468 473 0
2469 -129 0
2469 -2462 0
2469 -1 0
2469 -2465 0
2469 -2468 0
2469 -473 0
2470 -142 -2469 0
-2470 142 0
-2470 2469 0
-2471 791 552 554 560 828 960 835 2438 0
2471 -791 0
2471 -552 0
2471 -554 0
2471 -560 0
2471 -828 0
2471 -960 0
2471 -835 0
2471 -2438 0
2472 -838 -2471 0
-2472 838 0
-2472 2471 0
2473 -857 -2471 0
-2473 857 0
-2473 2471 0
-2474 98 2473 0
2474 -98 0
2474 -2473 0
2475 -97 -2474 0
-2475 97 0
-2475 2474 0
2476 -849 -2471 0
-2476 849 0
-2476 2471 0
-2477 68 2476 0
2477 -68 0
2477 -2476 0
2478 -104 -2477 0
-2478 104 0
-2478 2477 0
-2479 129 2472 2475 2478 473 0
2479 -129 0
2479 -2472 0
2479 -2475 0
2479 -2478 0
2479 -473 0
2480 -145 -2479 0
-2480 145 0
-2480 2479 0
-2481 3 2480 0
2481 -3 0
2481 -2480 0
2482 -5 -2481 0
-2482 5 0
-2482 2481 0
-2483 10 2470 2482 6 0
2483 -10 0
2483 -2470 0
2483 -2482 0
2483 -6 0
2484 -12 -2483 0
-2484 12 0
-2484 2483 0
-2485 93 2460 2484 0
2485 -93 0
2485 -2460 0
2485 -2484 0
2486 -152 -2485 0
-2486 152 0
-2486 2485 0
-2487 184 2440 2450 193 2486 246 0
2487 -184 0
2487 -2440 0
2487 -2450 0
2487 -193 0
2487 -2486 0
2487 -246 0
2488 -201 -2487 0
-2488 201 0
-2488 2487 0
-2489 21 2488 0
2489 -21 0
2489 -2488 0
2490 -85 -2489 0
-2490 85 0
-2490 2489 0
2491 -87 -2288 0
-2491 87 0
-2491 2288 0
-2492 89 2291 2295 2374 69 2436 2490 2491 0
2492 -89 0
2492 -2291 0
2492 -2295 0
2492 -2374 0
2492 -69 0
2492 -2436 0
2492 -2490 0
2492 -2491 0
2493 -2494 -2492 0
-2493 2494 0
-2493 2492 0
-2495 2496 792 1044 1429 2240 2493 0
2495 -2496 0
2495 -792 0
2495 -1044 0
2495 -1429 0
2495 -2240 0
2495 -2493 0
2497 -2495 -2498 0
-2497 2495 0
-2497 2498 0
2497 0
