c BC-S1.2
p cnf 174 441
1 -2 -3 0
-1 2 0
-1 3 0
4 -5 -3 0
-4 5 0
-4 3 0
6 -7 -3 0
-6 7 0
-6 3 0
-8 9 6 0
8 -9 0
8 -6 0
10 -11 -8 0
-10 11 0
-10 8 0
12 -13 -3 0
-12 13 0
-12 3 0
14 -15 -16 0
-14 15 0
-14 16 0
-17 18 10 12 14 0
17 -18 0
17 -10 0
17 -12 0
17 -14 0
19 -20 -17 0
-19 20 0
-19 17 0
21 -22 -16 0
-21 22 0
-21 16 0
-23 24 21 0
23 -24 0
23 -21 0
25 -26 -23 0
-25 26 0
-25 23 0
-27 28 19 25 0
27 -28 0
27 -19 0
27 -25 0
29 -30 -27 0
-29 30 0
-29 27 0
31 -32 -23 0
-31 32 0
-31 23 0
-33 34 29 31 0
33 -34 0
33 -29 0
33 -31 0
35 -36 -33 0
-35 36 0
-35 33 0
37 -38 -39 0
-37 38 0
-37 39 0
40 -41 -39 0
-40 41 0
-40 39 0
-42 43 40 0
42 -43 0
42 -40 0
44 -45 -42 0
-44 45 0
-44 42 0
-46 47 35 37 44 0
46 -47 0
46 -35 0
46 -37 0
46 -44 0
48 -49 -46 0
-48 49 0
-48 46 0
50 -51 -39 0
-50 51 0
-50 39 0
-52 53 48 50 0
52 -53 0
52 -48 0
52 -50 0
54 -55 -52 0
-54 55 0
-54 52 0
56 -57 -52 0
-56 57 0
-56 52 0
-58 59 56 0
58 -59 0
58 -56 0
60 -61 -58 0
-60 61 0
-60 58 0
-62 18 10 12 0
62 -18 0
62 -10 0
62 -12 0
63 -20 -62 0
-63 20 0
-63 62 0
64 -26 -24 0
-64 26 0
-64 24 0
-65 28 63 64 0
65 -28 0
65 -63 0
65 -64 0
66 -30 -65 0
-66 30 0
-66 65 0
67 -32 -24 0
-67 32 0
-67 24 0
-68 34 66 67 0
68 -34 0
68 -66 0
68 -67 0
69 -36 -68 0
-69 36 0
-69 68 0
-70 53 50 0
70 -53 0
70 -50 0
71 -72 -70 0
-71 72 0
-71 70 0
-73 43 71 40 0
73 -43 0
73 -71 0
73 -40 0
74 -45 -73 0
-74 45 0
-74 73 0
-75 47 69 37 74 0
75 -47 0
75 -69 0
75 -37 0
75 -74 0
76 -77 -75 0
-76 77 0
-76 75 0
-78 47 69 37 44 0
78 -47 0
78 -69 0
78 -37 0
78 -44 0
79 -49 -78 0
-79 49 0
-79 78 0
-80 53 79 50 0
80 -53 0
80 -79 0
80 -50 0
81 -82 -80 0
-81 82 0
-81 80 0
-83 16 76 81 0
83 -16 0
83 -76 0
83 -81 0
84 -85 -83 0
-84 85 0
-84 83 0
-86 87 84 0
86 -87 0
86 -84 0
88 -89 -86 0
-88 89 0
-88 86 0
-90 91 4 54 60 88 0
90 -91 0
90 -4 0
90 -54 0
90 -60 0
90 -88 0
92 -93 -90 0
-92 93 0
-92 90 0
94 -82 -70 0
-94 82 0
-94 70 0
-95 16 94 0
95 -16 0
95 -94 0
96 -22 -95 0
-96 22 0
-96 95 0
-97 24 96 0
97 -24 0
97 -96 0
98 -32 -97 0
-98 32 0
-98 97 0
-99 34 98 0
99 -34 0
99 -98 0
100 -36 -99 0
-100 36 0
-100 99 0
-101 47 100 37 74 0
101 -47 0
101 -100 0
101 -37 0
101 -74 0
102 -103 -101 0
-102 103 0
-102 101 0
-104 47 100 37 44 0
104 -47 0
104 -100 0
104 -37 0
104 -44 0
105 -49 -104 0
-105 49 0
-105 104 0
-106 53 105 50 0
106 -53 0
106 -105 0
106 -50 0
107 -55 -106 0
-107 55 0
-107 106 0
108 -57 -106 0
-108 57 0
-108 106 0
-109 59 108 0
109 -59 0
109 -108 0
110 -61 -109 0
-110 61 0
-110 109 0
-111 34 67 0
111 -34 0
111 -67 0
112 -36 -111 0
-112 36 0
-112 111 0
-113 47 112 37 74 0
113 -47 0
113 -112 0
113 -37 0
113 -74 0
114 -77 -113 0
-114 77 0
-114 113 0
-115 47 112 37 44 0
115 -47 0
115 -112 0
115 -37 0
115 -44 0
116 -49 -115 0
-116 49 0
-116 115 0
-117 53 116 50 0
117 -53 0
117 -116 0
117 -50 0
118 -82 -117 0
-118 82 0
-118 117 0
-119 16 114 118 0
119 -16 0
119 -114 0
119 -118 0
120 -85 -119 0
-120 85 0
-120 119 0
-121 87 120 0
121 -87 0
121 -120 0
122 -89 -121 0
-122 89 0
-122 121 0
-123 91 4 107 110 122 0
123 -91 0
123 -4 0
123 -107 0
123 -110 0
123 -122 0
124 -125 -123 0
-124 125 0
-124 123 0
-126 47 37 74 0
126 -47 0
126 -37 0
126 -74 0
127 -77 -126 0
-127 77 0
-127 126 0
-128 47 37 44 0
128 -47 0
128 -37 0
128 -44 0
129 -49 -128 0
-129 49 0
-129 128 0
-130 53 129 50 0
130 -53 0
130 -129 0
130 -50 0
131 -82 -130 0
-131 82 0
-131 130 0
-132 16 127 131 0
132 -16 0
132 -127 0
132 -131 0
133 -22 -132 0
-133 22 0
-133 132 0
-134 24 133 0
134 -24 0
134 -133 0
135 -32 -134 0
-135 32 0
-135 134 0
-136 34 135 0
136 -34 0
136 -135 0
137 -138 -136 0
-137 138 0
-137 136 0
139 -15 -119 0
-139 15 0
-139 119 0
-140 18 102 10 12 124 137 139 0
140 -18 0
140 -102 0
140 -10 0
140 -12 0
140 -124 0
140 -137 0
140 -139 0
141 -20 -140 0
-141 20 0
-141 140 0
142 -22 -119 0
-142 22 0
-142 119 0
-143 24 142 0
143 -24 0
143 -142 0
144 -26 -143 0
-144 26 0
-144 143 0
-145 28 141 144 0
145 -28 0
145 -141 0
145 -144 0
146 -147 -145 0
-146 147 0
-146 145 0
148 -55 -70 0
-148 55 0
-148 70 0
149 -57 -70 0
-149 57 0
-149 70 0
-150 59 149 0
150 -59 0
150 -149 0
151 -61 -150 0
-151 61 0
-151 150 0
-152 91 4 148 151 0
152 -91 0
152 -4 0
152 -148 0
152 -151 0
153 -125 -152 0
-153 125 0
-153 152 0
-154 18 10 12 153 0
154 -18 0
154 -10 0
154 -12 0
154 -153 0
155 -20 -154 0
-155 20 0
-155 154 0
-156 28 155 64 0
156 -28 0
156 -155 0
156 -64 0
157 -30 -156 0
-157 30 0
-157 156 0
-158 34 157 67 0
158 -34 0
158 -157 0
158 -67 0
159 -36 -158 0
-159 36 0
-159 158 0
-160 47 159 37 74 0
160 -47 0
160 -159 0
160 -37 0
160 -74 0
161 -77 -160 0
-161 77 0
-161 160 0
-162 47 159 37 44 0
162 -47 0
162 -159 0
162 -37 0
162 -44 0
163 -49 -162 0
-163 49 0
-163 162 0
-164 53 163 50 0
164 -53 0
164 -163 0
164 -50 0
165 -82 -164 0
-165 82 0
-165 164 0
-166 16 161 165 0
166 -16 0
166 -161 0
166 -165 0
167 -85 -166 0
-167 85 0
-167 166 0
-168 87 167 0
168 -87 0
168 -167 0
169 -170 -168 0
-169 170 0
-169 168 0
-171 172 1 92 146 169 0
171 -172 0
171 -1 0
171 -92 0
171 -146 0
171 -169 0
173 -171 -174 0
-173 171 0
-173 174 0
173 0
