c BC-S1.2
p cnf 1012 3441
1 -2 -3 0
-1 2 0
-1 3 0
-4 5 1 0
4 -5 0
4 -1 0
6 -7 -4 0
-6 7 0
-6 4 0
8 -9 -10 0
-8 9 0
-8 10 0
-11 12 8 0
11 -12 0
11 -8 0
13 -14 -11 0
-13 14 0
-13 11 0
15 -16 -17 0
-15 16 0
-15 17 0
-18 19 13 15 0
18 -19 0
18 -13 0
18 -15 0
20 -21 -18 0
-20 21 0
-20 18 0
22 -23 -4 0
-22 23 0
-22 4 0
24 -25 -3 0
-24 25 0
-24 3 0
-26 27 20 22 24 0
26 -27 0
26 -20 0
26 -22 0
26 -24 0
28 -29 -26 0
-28 29 0
-28 26 0
30 -31 -32 0
-30 31 0
-30 32 0
33 -34 -18 0
-33 34 0
-33 18 0
35 -36 -4 0
-35 36 0
-35 4 0
-37 38 35 0
37 -38 0
37 -35 0
39 -40 -37 0
-39 40 0
-39 37 0
-41 42 33 39 0
41 -42 0
41 -33 0
41 -39 0
43 -44 -41 0
-43 44 0
-43 41 0
45 -46 -17 0
-45 46 0
-45 17 0
-47 48 43 45 0
47 -48 0
47 -43 0
47 -45 0
49 -50 -47 0
-49 50 0
-49 47 0
-51 52 49 0
51 -52 0
51 -49 0
53 -54 -51 0
-53 54 0
-53 51 0
-55 56 53 0
55 -56 0
55 -53 0
57 -58 -55 0
-57 58 0
-57 55 0
59 -60 -11 0
-59 60 0
-59 11 0
61 -62 -18 0
-61 62 0
-61 18 0
63 -64 -51 0
-63 64 0
-63 51 0
-65 66 61 63 0
65 -66 0
65 -61 0
65 -63 0
67 -68 -65 0
-67 68 0
-67 65 0
-69 70 28 30 57 59 67 0
69 -70 0
69 -28 0
69 -30 0
69 -57 0
69 -59 0
69 -67 0
71 -72 -69 0
-71 72 0
-71 69 0
73 -74 -18 0
-73 74 0
-73 18 0
75 -76 -77 0
-75 76 0
-75 77 0
78 -79 -17 0
-78 79 0
-78 17 0
-80 81 73 75 78 0
80 -81 0
80 -73 0
80 -75 0
80 -78 0
82 -83 -80 0
-82 83 0
-82 80 0
-84 85 6 71 82 0
84 -85 0
84 -6 0
84 -71 0
84 -82 0
86 -87 -84 0
-86 87 0
-86 84 0
-88 70 30 57 59 67 0
88 -70 0
88 -30 0
88 -57 0
88 -59 0
88 -67 0
89 -72 -88 0
-89 72 0
-89 88 0
-90 85 6 89 82 0
90 -85 0
90 -6 0
90 -89 0
90 -82 0
91 -92 -90 0
-91 92 0
-91 90 0
-93 42 39 0
93 -42 0
93 -39 0
94 -44 -93 0
-94 44 0
-94 93 0
-95 48 94 45 0
95 -48 0
95 -94 0
95 -45 0
96 -50 -95 0
-96 50 0
-96 95 0
-97 52 96 0
97 -52 0
97 -96 0
98 -54 -97 0
-98 54 0
-98 97 0
-99 56 98 0
99 -56 0
99 -98 0
100 -58 -99 0
-100 58 0
-100 99 0
101 -64 -97 0
-101 64 0
-101 97 0
-102 66 101 0
102 -66 0
102 -101 0
103 -68 -102 0
-103 68 0
-103 102 0
-104 70 30 100 103 0
104 -70 0
104 -30 0
104 -100 0
104 -103 0
105 -72 -104 0
-105 72 0
-105 104 0
-106 81 75 78 0
106 -81 0
106 -75 0
106 -78 0
107 -83 -106 0
-107 83 0
-107 106 0
-108 85 6 105 107 0
108 -85 0
108 -6 0
108 -105 0
108 -107 0
109 -110 -108 0
-109 110 0
-109 108 0
-111 10 109 0
111 -10 0
111 -109 0
112 -9 -111 0
-112 9 0
-112 111 0
-113 12 112 0
113 -12 0
113 -112 0
114 -14 -113 0
-114 14 0
-114 113 0
-115 19 91 114 15 0
115 -19 0
115 -91 0
115 -114 0
115 -15 0
116 -21 -115 0
-116 21 0
-116 115 0
117 -118 -90 0
-117 118 0
-117 90 0
-119 27 116 22 117 24 0
119 -27 0
119 -116 0
119 -22 0
119 -117 0
119 -24 0
120 -121 -119 0
-120 121 0
-120 119 0
-122 70 28 57 59 67 0
122 -70 0
122 -28 0
122 -57 0
122 -59 0
122 -67 0
123 -72 -122 0
-123 72 0
-123 122 0
-124 85 6 123 82 0
124 -85 0
124 -6 0
124 -123 0
124 -82 0
125 -126 -124 0
-125 126 0
-125 124 0
-127 32 125 0
127 -32 0
127 -125 0
128 -129 -127 0
-128 129 0
-128 127 0
-130 81 73 78 0
130 -81 0
130 -73 0
130 -78 0
131 -83 -130 0
-131 83 0
-131 130 0
-132 85 6 71 131 0
132 -85 0
132 -6 0
132 -71 0
132 -131 0
133 -134 -132 0
-133 134 0
-133 132 0
-135 77 133 0
135 -77 0
135 -133 0
136 -137 -135 0
-136 137 0
-136 135 0
138 -139 -140 0
-138 139 0
-138 140 0
-141 85 6 82 0
141 -85 0
141 -6 0
141 -82 0
142 -92 -141 0
-142 92 0
-142 141 0
-143 85 6 107 0
143 -85 0
143 -6 0
143 -107 0
144 -110 -143 0
-144 110 0
-144 143 0
-145 10 144 0
145 -10 0
145 -144 0
146 -9 -145 0
-146 9 0
-146 145 0
-147 12 146 0
147 -12 0
147 -146 0
148 -14 -147 0
-148 14 0
-148 147 0
-149 19 142 148 15 0
149 -19 0
149 -142 0
149 -148 0
149 -15 0
150 -21 -149 0
-150 21 0
-150 149 0
151 -118 -141 0
-151 118 0
-151 141 0
-152 27 150 22 151 24 0
152 -27 0
152 -150 0
152 -22 0
152 -151 0
152 -24 0
153 -29 -152 0
-153 29 0
-153 152 0
154 -126 -141 0
-154 126 0
-154 141 0
-155 32 154 0
155 -32 0
155 -154 0
156 -31 -155 0
-156 31 0
-156 155 0
-157 19 15 0
157 -19 0
157 -15 0
158 -74 -157 0
-158 74 0
-158 157 0
-159 81 158 75 78 0
159 -81 0
159 -158 0
159 -75 0
159 -78 0
160 -83 -159 0
-160 83 0
-160 159 0
-161 85 6 160 0
161 -85 0
161 -6 0
161 -160 0
162 -110 -161 0
-162 110 0
-162 161 0
-163 10 162 0
163 -10 0
163 -162 0
164 -9 -163 0
-164 9 0
-164 163 0
-165 12 164 0
165 -12 0
165 -164 0
166 -60 -165 0
-166 60 0
-166 165 0
167 -62 -149 0
-167 62 0
-167 149 0
-168 66 167 0
168 -66 0
168 -167 0
169 -68 -168 0
-169 68 0
-169 168 0
-170 70 153 156 166 169 0
170 -70 0
170 -153 0
170 -156 0
170 -166 0
170 -169 0
171 -172 -170 0
-171 172 0
-171 170 0
-173 66 61 0
173 -66 0
173 -61 0
174 -68 -173 0
-174 68 0
-174 173 0
-175 70 28 30 59 174 0
175 -70 0
175 -28 0
175 -30 0
175 -59 0
175 -174 0
176 -72 -175 0
-176 72 0
-176 175 0
-177 85 6 176 82 0
177 -85 0
177 -6 0
177 -176 0
177 -82 0
178 -179 -177 0
-178 179 0
-178 177 0
180 -181 -170 0
-180 181 0
-180 170 0
-182 27 22 24 0
182 -27 0
182 -22 0
182 -24 0
183 -29 -182 0
-183 29 0
-183 182 0
-184 70 183 30 59 174 0
184 -70 0
184 -183 0
184 -30 0
184 -59 0
184 -174 0
185 -72 -184 0
-185 72 0
-185 184 0
-186 85 6 185 82 0
186 -85 0
186 -6 0
186 -185 0
186 -82 0
187 -92 -186 0
-187 92 0
-187 186 0
188 -68 -66 0
-188 68 0
-188 66 0
-189 70 183 30 188 0
189 -70 0
189 -183 0
189 -30 0
189 -188 0
190 -72 -189 0
-190 72 0
-190 189 0
-191 85 6 190 107 0
191 -85 0
191 -6 0
191 -190 0
191 -107 0
192 -110 -191 0
-192 110 0
-192 191 0
-193 10 192 0
193 -10 0
193 -192 0
194 -9 -193 0
-194 9 0
-194 193 0
-195 12 194 0
195 -12 0
195 -194 0
196 -14 -195 0
-196 14 0
-196 195 0
-197 19 187 196 15 0
197 -19 0
197 -187 0
197 -196 0
197 -15 0
198 -34 -197 0
-198 34 0
-198 197 0
199 -200 -177 0
-199 200 0
-199 177 0
201 -202 -170 0
-201 202 0
-201 170 0
-203 38 35 199 201 0
203 -38 0
203 -35 0
203 -199 0
203 -201 0
204 -40 -203 0
-204 40 0
-204 203 0
-205 42 198 204 0
205 -42 0
205 -198 0
205 -204 0
206 -44 -205 0
-206 44 0
-206 205 0
-207 48 178 180 206 45 0
207 -48 0
207 -178 0
207 -180 0
207 -206 0
207 -45 0
208 -50 -207 0
-208 50 0
-208 207 0
-209 52 171 208 0
209 -52 0
209 -171 0
209 -208 0
210 -54 -209 0
-210 54 0
-210 209 0
-211 56 210 0
211 -56 0
211 -210 0
212 -213 -211 0
-212 213 0
-212 211 0
-214 215 86 120 128 136 138 212 0
214 -215 0
214 -86 0
214 -120 0
214 -128 0
214 -136 0
214 -138 0
214 -212 0
216 -217 -214 0
-216 217 0
-216 214 0
218 -121 -26 0
-218 121 0
-218 26 0
219 -129 -32 0
-219 129 0
-219 32 0
220 -137 -77 0
-220 137 0
-220 77 0
221 -213 -55 0
-221 213 0
-221 55 0
-222 215 218 219 220 138 221 0
222 -215 0
222 -218 0
222 -219 0
222 -220 0
222 -138 0
222 -221 0
223 -224 -222 0
-223 224 0
-223 222 0
-225 215 218 219 220 138 0
225 -215 0
225 -218 0
225 -219 0
225 -220 0
225 -138 0
226 -227 -225 0
-226 227 0
-226 225 0
-228 48 226 43 45 0
228 -48 0
228 -226 0
228 -43 0
228 -45 0
229 -50 -228 0
-229 50 0
-229 228 0
-230 52 229 0
230 -52 0
230 -229 0
231 -54 -230 0
-231 54 0
-231 230 0
-232 56 231 0
232 -56 0
232 -231 0
233 -58 -232 0
-233 58 0
-233 232 0
234 -213 -56 0
-234 213 0
-234 56 0
-235 215 218 219 220 138 234 0
235 -215 0
235 -218 0
235 -219 0
235 -220 0
235 -138 0
235 -234 0
236 -227 -235 0
-236 227 0
-236 235 0
-237 48 236 43 45 0
237 -48 0
237 -236 0
237 -43 0
237 -45 0
238 -50 -237 0
-238 50 0
-238 237 0
-239 52 238 0
239 -52 0
239 -238 0
240 -64 -239 0
-240 64 0
-240 239 0
-241 66 61 240 0
241 -66 0
241 -61 0
241 -240 0
242 -68 -241 0
-242 68 0
-242 241 0
-243 70 223 28 30 233 59 242 0
243 -70 0
243 -223 0
243 -28 0
243 -30 0
243 -233 0
243 -59 0
243 -242 0
244 -72 -243 0
-244 72 0
-244 243 0
-245 85 6 244 82 0
245 -85 0
245 -6 0
245 -244 0
245 -82 0
246 -247 -245 0
-246 247 0
-246 245 0
248 -121 -182 0
-248 121 0
-248 182 0
-249 215 248 219 220 138 221 0
249 -215 0
249 -248 0
249 -219 0
249 -220 0
249 -138 0
249 -221 0
250 -224 -249 0
-250 224 0
-250 249 0
-251 215 248 219 220 138 0
251 -215 0
251 -248 0
251 -219 0
251 -220 0
251 -138 0
252 -227 -251 0
-252 227 0
-252 251 0
-253 48 252 43 45 0
253 -48 0
253 -252 0
253 -43 0
253 -45 0
254 -50 -253 0
-254 50 0
-254 253 0
-255 52 254 0
255 -52 0
255 -254 0
256 -54 -255 0
-256 54 0
-256 255 0
-257 56 256 0
257 -56 0
257 -256 0
258 -58 -257 0
-258 58 0
-258 257 0
-259 215 248 219 220 138 234 0
259 -215 0
259 -248 0
259 -219 0
259 -220 0
259 -138 0
259 -234 0
260 -227 -259 0
-260 227 0
-260 259 0
-261 48 260 43 45 0
261 -48 0
261 -260 0
261 -43 0
261 -45 0
262 -50 -261 0
-262 50 0
-262 261 0
-263 52 262 0
263 -52 0
263 -262 0
264 -64 -263 0
-264 64 0
-264 263 0
-265 66 61 264 0
265 -66 0
265 -61 0
265 -264 0
266 -68 -265 0
-266 68 0
-266 265 0
-267 70 250 183 30 258 59 266 0
267 -70 0
267 -250 0
267 -183 0
267 -30 0
267 -258 0
267 -59 0
267 -266 0
268 -72 -267 0
-268 72 0
-268 267 0
-269 85 6 268 82 0
269 -85 0
269 -6 0
269 -268 0
269 -82 0
270 -92 -269 0
-270 92 0
-270 269 0
271 -213 -99 0
-271 213 0
-271 99 0
-272 215 248 219 220 138 271 0
272 -215 0
272 -248 0
272 -219 0
272 -220 0
272 -138 0
272 -271 0
273 -224 -272 0
-273 224 0
-273 272 0
-274 48 252 94 45 0
274 -48 0
274 -252 0
274 -94 0
274 -45 0
275 -50 -274 0
-275 50 0
-275 274 0
-276 52 275 0
276 -52 0
276 -275 0
277 -54 -276 0
-277 54 0
-277 276 0
-278 56 277 0
278 -56 0
278 -277 0
279 -58 -278 0
-279 58 0
-279 278 0
-280 48 260 94 45 0
280 -48 0
280 -260 0
280 -94 0
280 -45 0
281 -50 -280 0
-281 50 0
-281 280 0
-282 52 281 0
282 -52 0
282 -281 0
283 -64 -282 0
-283 64 0
-283 282 0
-284 66 283 0
284 -66 0
284 -283 0
285 -68 -284 0
-285 68 0
-285 284 0
-286 70 273 183 30 279 285 0
286 -70 0
286 -273 0
286 -183 0
286 -30 0
286 -279 0
286 -285 0
287 -72 -286 0
-287 72 0
-287 286 0
-288 85 6 287 107 0
288 -85 0
288 -6 0
288 -287 0
288 -107 0
289 -110 -288 0
-289 110 0
-289 288 0
-290 10 289 0
290 -10 0
290 -289 0
291 -9 -290 0
-291 9 0
-291 290 0
-292 12 291 0
292 -12 0
292 -291 0
293 -14 -292 0
-293 14 0
-293 292 0
-294 19 270 293 15 0
294 -19 0
294 -270 0
294 -293 0
294 -15 0
295 -296 -294 0
-295 296 0
-295 294 0
297 -298 -245 0
-297 298 0
-297 245 0
299 -87 -141 0
-299 87 0
-299 141 0
300 -121 -152 0
-300 121 0
-300 152 0
301 -129 -155 0
-301 129 0
-301 155 0
-302 85 6 131 0
302 -85 0
302 -6 0
302 -131 0
303 -134 -302 0
-303 134 0
-303 302 0
-304 77 303 0
304 -77 0
304 -303 0
305 -137 -304 0
-305 137 0
-305 304 0
-306 215 299 300 301 305 138 0
306 -215 0
306 -299 0
306 -300 0
306 -301 0
306 -305 0
306 -138 0
307 -224 -306 0
-307 224 0
-307 306 0
-308 70 307 153 156 166 169 0
308 -70 0
308 -307 0
308 -153 0
308 -156 0
308 -166 0
308 -169 0
309 -172 -308 0
-309 172 0
-309 308 0
310 -87 -177 0
-310 87 0
-310 177 0
-311 70 30 59 174 0
311 -70 0
311 -30 0
311 -59 0
311 -174 0
312 -72 -311 0
-312 72 0
-312 311 0
-313 85 6 312 82 0
313 -85 0
313 -6 0
313 -312 0
313 -82 0
314 -92 -313 0
-314 92 0
-314 313 0
-315 70 30 188 0
315 -70 0
315 -30 0
315 -188 0
316 -72 -315 0
-316 72 0
-316 315 0
-317 85 6 316 107 0
317 -85 0
317 -6 0
317 -316 0
317 -107 0
318 -110 -317 0
-318 110 0
-318 317 0
-319 10 318 0
319 -10 0
319 -318 0
320 -9 -319 0
-320 9 0
-320 319 0
-321 12 320 0
321 -12 0
321 -320 0
322 -14 -321 0
-322 14 0
-322 321 0
-323 19 314 322 15 0
323 -19 0
323 -314 0
323 -322 0
323 -15 0
324 -21 -323 0
-324 21 0
-324 323 0
325 -118 -313 0
-325 118 0
-325 313 0
-326 27 324 22 325 24 0
326 -27 0
326 -324 0
326 -22 0
326 -325 0
326 -24 0
327 -121 -326 0
-327 121 0
-327 326 0
-328 70 28 59 174 0
328 -70 0
328 -28 0
328 -59 0
328 -174 0
329 -72 -328 0
-329 72 0
-329 328 0
-330 85 6 329 82 0
330 -85 0
330 -6 0
330 -329 0
330 -82 0
331 -126 -330 0
-331 126 0
-331 330 0
-332 32 331 0
332 -32 0
332 -331 0
333 -129 -332 0
-333 129 0
-333 332 0
-334 85 6 176 131 0
334 -85 0
334 -6 0
334 -176 0
334 -131 0
335 -134 -334 0
-335 134 0
-335 334 0
-336 77 335 0
336 -77 0
336 -335 0
337 -137 -336 0
-337 137 0
-337 336 0
-338 215 310 327 333 337 138 0
338 -215 0
338 -310 0
338 -327 0
338 -333 0
338 -337 0
338 -138 0
339 -227 -338 0
-339 227 0
-339 338 0
340 -224 -225 0
-340 224 0
-340 225 0
-341 70 340 28 30 59 174 0
341 -70 0
341 -340 0
341 -28 0
341 -30 0
341 -59 0
341 -174 0
342 -72 -341 0
-342 72 0
-342 341 0
-343 85 6 342 82 0
343 -85 0
343 -6 0
343 -342 0
343 -82 0
344 -179 -343 0
-344 179 0
-344 343 0
345 -181 -308 0
-345 181 0
-345 308 0
346 -224 -251 0
-346 224 0
-346 251 0
-347 70 346 183 30 59 174 0
347 -70 0
347 -346 0
347 -183 0
347 -30 0
347 -59 0
347 -174 0
348 -72 -347 0
-348 72 0
-348 347 0
-349 85 6 348 82 0
349 -85 0
349 -6 0
349 -348 0
349 -82 0
350 -92 -349 0
-350 92 0
-350 349 0
-351 70 346 183 30 188 0
351 -70 0
351 -346 0
351 -183 0
351 -30 0
351 -188 0
352 -72 -351 0
-352 72 0
-352 351 0
-353 85 6 352 107 0
353 -85 0
353 -6 0
353 -352 0
353 -107 0
354 -110 -353 0
-354 110 0
-354 353 0
-355 10 354 0
355 -10 0
355 -354 0
356 -9 -355 0
-356 9 0
-356 355 0
-357 12 356 0
357 -12 0
357 -356 0
358 -14 -357 0
-358 14 0
-358 357 0
-359 19 350 358 15 0
359 -19 0
359 -350 0
359 -358 0
359 -15 0
360 -34 -359 0
-360 34 0
-360 359 0
361 -200 -343 0
-361 200 0
-361 343 0
362 -202 -308 0
-362 202 0
-362 308 0
-363 38 35 361 362 0
363 -38 0
363 -35 0
363 -361 0
363 -362 0
364 -40 -363 0
-364 40 0
-364 363 0
-365 42 360 364 0
365 -42 0
365 -360 0
365 -364 0
366 -44 -365 0
-366 44 0
-366 365 0
-367 48 339 344 345 366 45 0
367 -48 0
367 -339 0
367 -344 0
367 -345 0
367 -366 0
367 -45 0
368 -50 -367 0
-368 50 0
-368 367 0
-369 52 309 368 0
369 -52 0
369 -309 0
369 -368 0
370 -54 -369 0
-370 54 0
-370 369 0
-371 56 370 0
371 -56 0
371 -370 0
372 -373 -371 0
-372 373 0
-372 371 0
-374 375 295 297 372 0
374 -375 0
374 -295 0
374 -297 0
374 -372 0
376 -377 -374 0
-376 377 0
-376 374 0
-378 85 6 268 0
378 -85 0
378 -6 0
378 -268 0
379 -92 -378 0
-379 92 0
-379 378 0
-380 85 6 287 0
380 -85 0
380 -6 0
380 -287 0
381 -110 -380 0
-381 110 0
-381 380 0
-382 10 381 0
382 -10 0
382 -381 0
383 -9 -382 0
-383 9 0
-383 382 0
-384 12 383 0
384 -12 0
384 -383 0
385 -14 -384 0
-385 14 0
-385 384 0
-386 19 379 385 15 0
386 -19 0
386 -379 0
386 -385 0
386 -15 0
387 -74 -386 0
-387 74 0
-387 386 0
-388 85 6 244 0
388 -85 0
388 -6 0
388 -244 0
389 -134 -388 0
-389 134 0
-389 388 0
-390 77 389 0
390 -77 0
390 -389 0
391 -76 -390 0
-391 76 0
-391 390 0
-392 81 387 391 78 0
392 -81 0
392 -387 0
392 -391 0
392 -78 0
393 -394 -392 0
-393 394 0
-393 392 0
-395 42 33 0
395 -42 0
395 -33 0
396 -44 -395 0
-396 44 0
-396 395 0
-397 48 396 45 0
397 -48 0
397 -396 0
397 -45 0
398 -50 -397 0
-398 50 0
-398 397 0
-399 52 398 0
399 -52 0
399 -398 0
400 -54 -399 0
-400 54 0
-400 399 0
-401 56 400 0
401 -56 0
401 -400 0
402 -213 -401 0
-402 213 0
-402 401 0
-403 215 218 219 220 138 402 0
403 -215 0
403 -218 0
403 -219 0
403 -220 0
403 -138 0
403 -402 0
404 -224 -403 0
-404 224 0
-404 403 0
-405 48 226 396 45 0
405 -48 0
405 -226 0
405 -396 0
405 -45 0
406 -50 -405 0
-406 50 0
-406 405 0
-407 52 406 0
407 -52 0
407 -406 0
408 -54 -407 0
-408 54 0
-408 407 0
-409 56 408 0
409 -56 0
409 -408 0
410 -58 -409 0
-410 58 0
-410 409 0
-411 48 236 396 45 0
411 -48 0
411 -236 0
411 -396 0
411 -45 0
412 -50 -411 0
-412 50 0
-412 411 0
-413 52 412 0
413 -52 0
413 -412 0
414 -64 -413 0
-414 64 0
-414 413 0
-415 66 61 414 0
415 -66 0
415 -61 0
415 -414 0
416 -68 -415 0
-416 68 0
-416 415 0
-417 70 404 28 30 410 59 416 0
417 -70 0
417 -404 0
417 -28 0
417 -30 0
417 -410 0
417 -59 0
417 -416 0
418 -72 -417 0
-418 72 0
-418 417 0
-419 85 6 418 82 0
419 -85 0
419 -6 0
419 -418 0
419 -82 0
420 -200 -419 0
-420 200 0
-420 419 0
421 -179 -141 0
-421 179 0
-421 141 0
422 -34 -149 0
-422 34 0
-422 149 0
-423 42 422 0
423 -42 0
423 -422 0
424 -44 -423 0
-424 44 0
-424 423 0
-425 48 421 424 45 0
425 -48 0
425 -421 0
425 -424 0
425 -45 0
426 -50 -425 0
-426 50 0
-426 425 0
-427 52 426 0
427 -52 0
427 -426 0
428 -54 -427 0
-428 54 0
-428 427 0
-429 56 428 0
429 -56 0
429 -428 0
430 -213 -429 0
-430 213 0
-430 429 0
-431 215 299 300 301 305 138 430 0
431 -215 0
431 -299 0
431 -300 0
431 -301 0
431 -305 0
431 -138 0
431 -430 0
432 -224 -431 0
-432 224 0
-432 431 0
433 -227 -306 0
-433 227 0
-433 306 0
-434 48 433 421 424 45 0
434 -48 0
434 -433 0
434 -421 0
434 -424 0
434 -45 0
435 -50 -434 0
-435 50 0
-435 434 0
-436 52 435 0
436 -52 0
436 -435 0
437 -54 -436 0
-437 54 0
-437 436 0
-438 56 437 0
438 -56 0
438 -437 0
439 -58 -438 0
-439 58 0
-439 438 0
-440 215 299 300 301 305 138 234 0
440 -215 0
440 -299 0
440 -300 0
440 -301 0
440 -305 0
440 -138 0
440 -234 0
441 -227 -440 0
-441 227 0
-441 440 0
-442 48 441 421 424 45 0
442 -48 0
442 -441 0
442 -421 0
442 -424 0
442 -45 0
443 -50 -442 0
-443 50 0
-443 442 0
-444 52 443 0
444 -52 0
444 -443 0
445 -64 -444 0
-445 64 0
-445 444 0
-446 66 167 445 0
446 -66 0
446 -167 0
446 -445 0
447 -68 -446 0
-447 68 0
-447 446 0
-448 70 432 153 156 439 166 447 0
448 -70 0
448 -432 0
448 -153 0
448 -156 0
448 -439 0
448 -166 0
448 -447 0
449 -202 -448 0
-449 202 0
-449 448 0
-450 38 35 420 449 0
450 -38 0
450 -35 0
450 -420 0
450 -449 0
451 -452 -450 0
-451 452 0
-451 450 0
-453 454 216 246 376 393 451 0
453 -454 0
453 -216 0
453 -246 0
453 -376 0
453 -393 0
453 -451 0
455 -456 -453 0
-455 456 0
-455 453 0
457 -373 -55 0
-457 373 0
-457 55 0
-458 375 457 0
458 -375 0
458 -457 0
459 -377 -458 0
-459 377 0
-459 458 0
460 -394 -80 0
-460 394 0
-460 80 0
461 -452 -37 0
-461 452 0
-461 37 0
-462 454 459 460 461 0
462 -454 0
462 -459 0
462 -460 0
462 -461 0
463 -464 -462 0
-463 464 0
-463 462 0
-465 19 463 13 15 0
465 -19 0
465 -463 0
465 -13 0
465 -15 0
466 -21 -465 0
-466 21 0
-466 465 0
-467 27 466 22 24 0
467 -27 0
467 -466 0
467 -22 0
467 -24 0
468 -121 -467 0
-468 121 0
-468 467 0
469 -296 -18 0
-469 296 0
-469 18 0
-470 375 469 457 0
470 -375 0
470 -469 0
470 -457 0
471 -377 -470 0
-471 377 0
-471 470 0
-472 454 471 460 461 0
472 -454 0
472 -471 0
472 -460 0
472 -461 0
473 -474 -472 0
-473 474 0
-473 472 0
-475 140 473 0
475 -140 0
475 -473 0
476 -139 -475 0
-476 139 0
-476 475 0
-477 375 469 0
477 -375 0
477 -469 0
478 -377 -477 0
-478 377 0
-478 477 0
-479 454 478 460 461 0
479 -454 0
479 -478 0
479 -460 0
479 -461 0
480 -481 -479 0
-480 481 0
-480 479 0
482 -483 -479 0
-482 483 0
-482 479 0
484 -464 -479 0
-484 464 0
-484 479 0
-485 19 484 13 15 0
485 -19 0
485 -484 0
485 -13 0
485 -15 0
486 -34 -485 0
-486 34 0
-486 485 0
-487 42 486 39 0
487 -42 0
487 -486 0
487 -39 0
488 -44 -487 0
-488 44 0
-488 487 0
-489 48 482 488 45 0
489 -48 0
489 -482 0
489 -488 0
489 -45 0
490 -50 -489 0
-490 50 0
-490 489 0
-491 52 480 490 0
491 -52 0
491 -480 0
491 -490 0
492 -54 -491 0
-492 54 0
-492 491 0
-493 56 492 0
493 -56 0
493 -492 0
494 -213 -493 0
-494 213 0
-494 493 0
-495 215 468 219 220 476 494 0
495 -215 0
495 -468 0
495 -219 0
495 -220 0
495 -476 0
495 -494 0
496 -224 -495 0
-496 224 0
-496 495 0
497 -217 -249 0
-497 217 0
-497 249 0
498 -373 -257 0
-498 373 0
-498 257 0
-499 375 498 0
499 -375 0
499 -498 0
500 -377 -499 0
-500 377 0
-500 499 0
-501 454 497 500 460 461 0
501 -454 0
501 -497 0
501 -500 0
501 -460 0
501 -461 0
502 -464 -501 0
-502 464 0
-502 501 0
-503 19 502 13 15 0
503 -19 0
503 -502 0
503 -13 0
503 -15 0
504 -21 -503 0
-504 21 0
-504 503 0
-505 27 504 22 24 0
505 -27 0
505 -504 0
505 -22 0
505 -24 0
506 -29 -505 0
-506 29 0
-506 505 0
507 -217 -222 0
-507 217 0
-507 222 0
508 -373 -232 0
-508 373 0
-508 232 0
-509 375 469 508 0
509 -375 0
509 -469 0
509 -508 0
510 -377 -509 0
-510 377 0
-510 509 0
-511 454 507 510 460 461 0
511 -454 0
511 -507 0
511 -510 0
511 -460 0
511 -461 0
512 -513 -511 0
-512 513 0
-512 511 0
514 -217 -225 0
-514 217 0
-514 225 0
-515 454 514 478 460 461 0
515 -454 0
515 -514 0
515 -478 0
515 -460 0
515 -461 0
516 -481 -515 0
-516 481 0
-516 515 0
517 -21 -485 0
-517 21 0
-517 485 0
-518 27 517 22 24 0
518 -27 0
518 -517 0
518 -22 0
518 -24 0
519 -121 -518 0
-519 121 0
-519 518 0
520 -474 -479 0
-520 474 0
-520 479 0
-521 140 520 0
521 -140 0
521 -520 0
522 -139 -521 0
-522 139 0
-522 521 0
-523 215 519 219 220 522 0
523 -215 0
523 -519 0
523 -219 0
523 -220 0
523 -522 0
524 -227 -523 0
-524 227 0
-524 523 0
525 -483 -515 0
-525 483 0
-525 515 0
526 -217 -251 0
-526 217 0
-526 251 0
-527 454 526 478 460 461 0
527 -454 0
527 -526 0
527 -478 0
527 -460 0
527 -461 0
528 -464 -527 0
-528 464 0
-528 527 0
-529 19 528 13 15 0
529 -19 0
529 -528 0
529 -13 0
529 -15 0
530 -34 -529 0
-530 34 0
-530 529 0
-531 42 530 39 0
531 -42 0
531 -530 0
531 -39 0
532 -44 -531 0
-532 44 0
-532 531 0
-533 48 524 525 532 45 0
533 -48 0
533 -524 0
533 -525 0
533 -532 0
533 -45 0
534 -50 -533 0
-534 50 0
-534 533 0
-535 52 516 534 0
535 -52 0
535 -516 0
535 -534 0
536 -54 -535 0
-536 54 0
-536 535 0
-537 56 536 0
537 -56 0
537 -536 0
538 -58 -537 0
-538 58 0
-538 537 0
539 -62 -503 0
-539 62 0
-539 503 0
540 -217 -235 0
-540 217 0
-540 235 0
541 -373 -56 0
-541 373 0
-541 56 0
-542 375 469 541 0
542 -375 0
542 -469 0
542 -541 0
543 -377 -542 0
-543 377 0
-543 542 0
-544 454 540 543 460 461 0
544 -454 0
544 -540 0
544 -543 0
544 -460 0
544 -461 0
545 -481 -544 0
-545 481 0
-545 544 0
-546 454 543 460 461 0
546 -454 0
546 -543 0
546 -460 0
546 -461 0
547 -464 -546 0
-547 464 0
-547 546 0
-548 19 547 13 15 0
548 -19 0
548 -547 0
548 -13 0
548 -15 0
549 -21 -548 0
-549 21 0
-549 548 0
-550 27 549 22 24 0
550 -27 0
550 -549 0
550 -22 0
550 -24 0
551 -121 -550 0
-551 121 0
-551 550 0
552 -474 -546 0
-552 474 0
-552 546 0
-553 140 552 0
553 -140 0
553 -552 0
554 -139 -553 0
-554 139 0
-554 553 0
-555 215 551 219 220 554 234 0
555 -215 0
555 -551 0
555 -219 0
555 -220 0
555 -554 0
555 -234 0
556 -227 -555 0
-556 227 0
-556 555 0
557 -483 -544 0
-557 483 0
-557 544 0
558 -217 -259 0
-558 217 0
-558 259 0
-559 454 558 543 460 461 0
559 -454 0
559 -558 0
559 -543 0
559 -460 0
559 -461 0
560 -464 -559 0
-560 464 0
-560 559 0
-561 19 560 13 15 0
561 -19 0
561 -560 0
561 -13 0
561 -15 0
562 -34 -561 0
-562 34 0
-562 561 0
-563 42 562 39 0
563 -42 0
563 -562 0
563 -39 0
564 -44 -563 0
-564 44 0
-564 563 0
-565 48 556 557 564 45 0
565 -48 0
565 -556 0
565 -557 0
565 -564 0
565 -45 0
566 -50 -565 0
-566 50 0
-566 565 0
-567 52 545 566 0
567 -52 0
567 -545 0
567 -566 0
568 -64 -567 0
-568 64 0
-568 567 0
-569 66 539 568 0
569 -66 0
569 -539 0
569 -568 0
570 -68 -569 0
-570 68 0
-570 569 0
-571 70 496 506 512 30 538 59 570 0
571 -70 0
571 -496 0
571 -506 0
571 -512 0
571 -30 0
571 -538 0
571 -59 0
571 -570 0
572 -72 -571 0
-572 72 0
-572 571 0
573 -172 -184 0
-573 172 0
-573 184 0
574 -181 -184 0
-574 181 0
-574 184 0
575 -202 -184 0
-575 202 0
-575 184 0
-576 38 35 575 0
576 -38 0
576 -35 0
576 -575 0
577 -40 -576 0
-577 40 0
-577 576 0
-578 42 33 577 0
578 -42 0
578 -33 0
578 -577 0
579 -44 -578 0
-579 44 0
-579 578 0
-580 48 574 579 45 0
580 -48 0
580 -574 0
580 -579 0
580 -45 0
581 -50 -580 0
-581 50 0
-581 580 0
-582 52 573 581 0
582 -52 0
582 -573 0
582 -581 0
583 -54 -582 0
-583 54 0
-583 582 0
-584 56 583 0
584 -56 0
584 -583 0
585 -213 -584 0
-585 213 0
-585 584 0
-586 215 248 219 220 138 585 0
586 -215 0
586 -248 0
586 -219 0
586 -220 0
586 -138 0
586 -585 0
587 -217 -586 0
-587 217 0
-587 586 0
588 -172 -347 0
-588 172 0
-588 347 0
589 -181 -347 0
-589 181 0
-589 347 0
590 -202 -347 0
-590 202 0
-590 347 0
-591 38 35 590 0
591 -38 0
591 -35 0
591 -590 0
592 -40 -591 0
-592 40 0
-592 591 0
-593 42 33 592 0
593 -42 0
593 -33 0
593 -592 0
594 -44 -593 0
-594 44 0
-594 593 0
-595 48 252 589 594 45 0
595 -48 0
595 -252 0
595 -589 0
595 -594 0
595 -45 0
596 -50 -595 0
-596 50 0
-596 595 0
-597 52 588 596 0
597 -52 0
597 -588 0
597 -596 0
598 -54 -597 0
-598 54 0
-598 597 0
-599 56 598 0
599 -56 0
599 -598 0
600 -373 -599 0
-600 373 0
-600 599 0
-601 375 600 0
601 -375 0
601 -600 0
602 -377 -601 0
-602 377 0
-602 601 0
-603 215 248 219 220 138 402 0
603 -215 0
603 -248 0
603 -219 0
603 -220 0
603 -138 0
603 -402 0
604 -224 -603 0
-604 224 0
-604 603 0
-605 48 252 396 45 0
605 -48 0
605 -252 0
605 -396 0
605 -45 0
606 -50 -605 0
-606 50 0
-606 605 0
-607 52 606 0
607 -52 0
607 -606 0
608 -54 -607 0
-608 54 0
-608 607 0
-609 56 608 0
609 -56 0
609 -608 0
610 -58 -609 0
-610 58 0
-610 609 0
-611 48 260 396 45 0
611 -48 0
611 -260 0
611 -396 0
611 -45 0
612 -50 -611 0
-612 50 0
-612 611 0
-613 52 612 0
613 -52 0
613 -612 0
614 -64 -613 0
-614 64 0
-614 613 0
-615 66 61 614 0
615 -66 0
615 -61 0
615 -614 0
616 -68 -615 0
-616 68 0
-616 615 0
-617 70 604 183 30 610 59 616 0
617 -70 0
617 -604 0
617 -183 0
617 -30 0
617 -610 0
617 -59 0
617 -616 0
618 -202 -617 0
-618 202 0
-618 617 0
-619 38 35 618 0
619 -38 0
619 -35 0
619 -618 0
620 -452 -619 0
-620 452 0
-620 619 0
-621 454 587 602 620 0
621 -454 0
621 -587 0
621 -602 0
621 -620 0
622 -464 -621 0
-622 464 0
-622 621 0
-623 19 622 13 15 0
623 -19 0
623 -622 0
623 -13 0
623 -15 0
624 -74 -623 0
-624 74 0
-624 623 0
-625 81 624 75 78 0
625 -81 0
625 -624 0
625 -75 0
625 -78 0
626 -83 -625 0
-626 83 0
-626 625 0
-627 85 6 572 626 0
627 -85 0
627 -6 0
627 -572 0
627 -626 0
628 -629 -627 0
-628 629 0
-628 627 0
630 -217 -338 0
-630 217 0
-630 338 0
631 -247 -343 0
-631 247 0
-631 343 0
632 -296 -359 0
-632 296 0
-632 359 0
633 -298 -343 0
-633 298 0
-633 343 0
-634 375 632 633 0
634 -375 0
634 -632 0
634 -633 0
635 -377 -634 0
-635 377 0
-635 634 0
-636 85 6 348 0
636 -85 0
636 -6 0
636 -348 0
637 -92 -636 0
-637 92 0
-637 636 0
-638 85 6 352 0
638 -85 0
638 -6 0
638 -352 0
639 -110 -638 0
-639 110 0
-639 638 0
-640 10 639 0
640 -10 0
640 -639 0
641 -9 -640 0
-641 9 0
-641 640 0
-642 12 641 0
642 -12 0
642 -641 0
643 -14 -642 0
-643 14 0
-643 642 0
-644 19 637 643 15 0
644 -19 0
644 -637 0
644 -643 0
644 -15 0
645 -74 -644 0
-645 74 0
-645 644 0
-646 85 6 342 0
646 -85 0
646 -6 0
646 -342 0
647 -134 -646 0
-647 134 0
-647 646 0
-648 77 647 0
648 -77 0
648 -647 0
649 -76 -648 0
-649 76 0
-649 648 0
-650 81 645 649 78 0
650 -81 0
650 -645 0
650 -649 0
650 -78 0
651 -394 -650 0
-651 394 0
-651 650 0
652 -452 -363 0
-652 452 0
-652 363 0
-653 454 630 631 635 651 652 0
653 -454 0
653 -630 0
653 -631 0
653 -635 0
653 -651 0
653 -652 0
654 -481 -653 0
-654 481 0
-654 653 0
-655 454 478 461 0
655 -454 0
655 -478 0
655 -461 0
656 -464 -655 0
-656 464 0
-656 655 0
-657 19 656 13 15 0
657 -19 0
657 -656 0
657 -13 0
657 -15 0
658 -74 -657 0
-658 74 0
-658 657 0
-659 81 658 75 78 0
659 -81 0
659 -658 0
659 -75 0
659 -78 0
660 -83 -659 0
-660 83 0
-660 659 0
-661 85 6 660 0
661 -85 0
661 -6 0
661 -660 0
662 -87 -661 0
-662 87 0
-662 661 0
663 -92 -143 0
-663 92 0
-663 143 0
664 -247 -141 0
-664 247 0
-664 141 0
665 -298 -141 0
-665 298 0
-665 141 0
-666 375 665 0
666 -375 0
666 -665 0
667 -377 -666 0
-667 377 0
-667 666 0
-668 85 6 0
668 -85 0
668 -6 0
669 -134 -668 0
-669 134 0
-669 668 0
-670 77 669 0
670 -77 0
670 -669 0
671 -76 -670 0
-671 76 0
-671 670 0
-672 81 671 78 0
672 -81 0
672 -671 0
672 -78 0
673 -394 -672 0
-673 394 0
-673 672 0
674 -200 -141 0
-674 200 0
-674 141 0
-675 38 35 674 0
675 -38 0
675 -35 0
675 -674 0
676 -452 -675 0
-676 452 0
-676 675 0
-677 454 664 667 673 676 0
677 -454 0
677 -664 0
677 -667 0
677 -673 0
677 -676 0
678 -464 -677 0
-678 464 0
-678 677 0
-679 19 663 678 148 15 0
679 -19 0
679 -663 0
679 -678 0
679 -148 0
679 -15 0
680 -21 -679 0
-680 21 0
-680 679 0
681 -118 -661 0
-681 118 0
-681 661 0
-682 27 680 22 681 24 0
682 -27 0
682 -680 0
682 -22 0
682 -681 0
682 -24 0
683 -121 -682 0
-683 121 0
-683 682 0
684 -126 -661 0
-684 126 0
-684 661 0
-685 32 684 0
685 -32 0
685 -684 0
686 -129 -685 0
-686 129 0
-686 685 0
-687 81 658 78 0
687 -81 0
687 -658 0
687 -78 0
688 -83 -687 0
-688 83 0
-688 687 0
-689 85 6 688 0
689 -85 0
689 -6 0
689 -688 0
690 -134 -689 0
-690 134 0
-690 689 0
-691 77 690 0
691 -77 0
691 -690 0
692 -137 -691 0
-692 137 0
-692 691 0
693 -296 -149 0
-693 296 0
-693 149 0
-694 375 693 665 0
694 -375 0
694 -693 0
694 -665 0
695 -377 -694 0
-695 377 0
-695 694 0
696 -92 -668 0
-696 92 0
-696 668 0
697 -110 -668 0
-697 110 0
-697 668 0
-698 10 697 0
698 -10 0
698 -697 0
699 -9 -698 0
-699 9 0
-699 698 0
-700 12 699 0
700 -12 0
700 -699 0
701 -14 -700 0
-701 14 0
-701 700 0
-702 19 696 701 15 0
702 -19 0
702 -696 0
702 -701 0
702 -15 0
703 -74 -702 0
-703 74 0
-703 702 0
-704 81 703 671 78 0
704 -81 0
704 -703 0
704 -671 0
704 -78 0
705 -394 -704 0
-705 394 0
-705 704 0
-706 454 664 695 705 676 0
706 -454 0
706 -664 0
706 -695 0
706 -705 0
706 -676 0
707 -474 -706 0
-707 474 0
-707 706 0
-708 140 707 0
708 -140 0
708 -707 0
709 -139 -708 0
-709 139 0
-709 708 0
-710 215 662 683 686 692 709 0
710 -215 0
710 -662 0
710 -683 0
710 -686 0
710 -692 0
710 -709 0
711 -224 -710 0
-711 224 0
-711 710 0
-712 215 299 301 305 138 0
712 -215 0
712 -299 0
712 -301 0
712 -305 0
712 -138 0
713 -217 -712 0
-713 217 0
-713 712 0
-714 454 713 664 667 673 676 0
714 -454 0
714 -713 0
714 -664 0
714 -667 0
714 -673 0
714 -676 0
715 -464 -714 0
-715 464 0
-715 714 0
-716 19 663 715 148 15 0
716 -19 0
716 -663 0
716 -715 0
716 -148 0
716 -15 0
717 -21 -716 0
-717 21 0
-717 716 0
-718 454 526 478 461 0
718 -454 0
718 -526 0
718 -478 0
718 -461 0
719 -464 -718 0
-719 464 0
-719 718 0
-720 19 719 13 15 0
720 -19 0
720 -719 0
720 -13 0
720 -15 0
721 -74 -720 0
-721 74 0
-721 720 0
-722 81 721 75 78 0
722 -81 0
722 -721 0
722 -75 0
722 -78 0
723 -83 -722 0
-723 83 0
-723 722 0
-724 85 6 723 0
724 -85 0
724 -6 0
724 -723 0
725 -118 -724 0
-725 118 0
-725 724 0
-726 27 717 22 725 24 0
726 -27 0
726 -717 0
726 -22 0
726 -725 0
726 -24 0
727 -29 -726 0
-727 29 0
-727 726 0
728 -217 -306 0
-728 217 0
-728 306 0
-729 454 728 664 695 705 676 0
729 -454 0
729 -728 0
729 -664 0
729 -695 0
729 -705 0
729 -676 0
730 -513 -729 0
-730 513 0
-730 729 0
731 -126 -724 0
-731 126 0
-731 724 0
-732 32 731 0
732 -32 0
732 -731 0
733 -31 -732 0
-733 31 0
-733 732 0
734 -377 -375 0
-734 377 0
-734 375 0
-735 454 526 734 461 0
735 -454 0
735 -526 0
735 -734 0
735 -461 0
736 -464 -735 0
-736 464 0
-736 735 0
-737 19 736 15 0
737 -19 0
737 -736 0
737 -15 0
738 -74 -737 0
-738 74 0
-738 737 0
-739 81 738 75 78 0
739 -81 0
739 -738 0
739 -75 0
739 -78 0
740 -83 -739 0
-740 83 0
-740 739 0
-741 85 6 740 0
741 -85 0
741 -6 0
741 -740 0
742 -110 -741 0
-742 110 0
-742 741 0
-743 10 742 0
743 -10 0
743 -742 0
744 -9 -743 0
-744 9 0
-744 743 0
-745 12 744 0
745 -12 0
745 -744 0
746 -60 -745 0
-746 60 0
-746 745 0
-747 27 22 151 24 0
747 -27 0
747 -22 0
747 -151 0
747 -24 0
748 -121 -747 0
-748 121 0
-748 747 0
-749 215 299 748 301 305 138 0
749 -215 0
749 -299 0
749 -748 0
749 -301 0
749 -305 0
749 -138 0
750 -217 -749 0
-750 217 0
-750 749 0
-751 454 750 664 667 673 676 0
751 -454 0
751 -750 0
751 -664 0
751 -667 0
751 -673 0
751 -676 0
752 -464 -751 0
-752 464 0
-752 751 0
-753 19 663 752 148 15 0
753 -19 0
753 -663 0
753 -752 0
753 -148 0
753 -15 0
754 -62 -753 0
-754 62 0
-754 753 0
-755 66 754 0
755 -66 0
755 -754 0
756 -68 -755 0
-756 68 0
-756 755 0
-757 70 711 727 730 733 746 756 0
757 -70 0
757 -711 0
757 -727 0
757 -730 0
757 -733 0
757 -746 0
757 -756 0
758 -172 -757 0
-758 172 0
-758 757 0
759 -29 -518 0
-759 29 0
-759 518 0
760 -513 -479 0
-760 513 0
-760 479 0
761 -62 -485 0
-761 62 0
-761 485 0
-762 66 761 0
762 -66 0
762 -761 0
763 -68 -762 0
-763 68 0
-763 762 0
-764 70 759 760 30 59 763 0
764 -70 0
764 -759 0
764 -760 0
764 -30 0
764 -59 0
764 -763 0
765 -72 -764 0
-765 72 0
-765 764 0
766 -452 -576 0
-766 452 0
-766 576 0
-767 454 478 766 0
767 -454 0
767 -478 0
767 -766 0
768 -464 -767 0
-768 464 0
-768 767 0
-769 19 768 13 15 0
769 -19 0
769 -768 0
769 -13 0
769 -15 0
770 -74 -769 0
-770 74 0
-770 769 0
-771 81 770 75 78 0
771 -81 0
771 -770 0
771 -75 0
771 -78 0
772 -83 -771 0
-772 83 0
-772 771 0
-773 85 6 765 772 0
773 -85 0
773 -6 0
773 -765 0
773 -772 0
774 -87 -773 0
-774 87 0
-774 773 0
-775 70 760 30 59 188 0
775 -70 0
775 -760 0
775 -30 0
775 -59 0
775 -188 0
776 -72 -775 0
-776 72 0
-776 775 0
-777 85 6 776 107 0
777 -85 0
777 -6 0
777 -776 0
777 -107 0
778 -92 -777 0
-778 92 0
-778 777 0
779 -247 -313 0
-779 247 0
-779 313 0
780 -298 -313 0
-780 298 0
-780 313 0
-781 375 780 0
781 -375 0
781 -780 0
782 -377 -781 0
-782 377 0
-782 781 0
-783 85 6 312 0
783 -85 0
783 -6 0
783 -312 0
784 -134 -783 0
-784 134 0
-784 783 0
-785 77 784 0
785 -77 0
785 -784 0
786 -76 -785 0
-786 76 0
-786 785 0
-787 81 786 78 0
787 -81 0
787 -786 0
787 -78 0
788 -394 -787 0
-788 394 0
-788 787 0
789 -200 -313 0
-789 200 0
-789 313 0
790 -60 -147 0
-790 60 0
-790 147 0
-791 70 156 790 188 0
791 -70 0
791 -156 0
791 -790 0
791 -188 0
792 -202 -791 0
-792 202 0
-792 791 0
-793 38 35 789 792 0
793 -38 0
793 -35 0
793 -789 0
793 -792 0
794 -452 -793 0
-794 452 0
-794 793 0
-795 454 779 782 788 794 0
795 -454 0
795 -779 0
795 -782 0
795 -788 0
795 -794 0
796 -464 -795 0
-796 464 0
-796 795 0
797 -394 -106 0
-797 394 0
-797 106 0
-798 454 734 797 461 0
798 -454 0
798 -734 0
798 -797 0
798 -461 0
799 -513 -798 0
-799 513 0
-799 798 0
-800 70 799 30 188 0
800 -70 0
800 -799 0
800 -30 0
800 -188 0
801 -72 -800 0
-801 72 0
-801 800 0
-802 85 6 801 107 0
802 -85 0
802 -6 0
802 -801 0
802 -107 0
803 -110 -802 0
-803 110 0
-803 802 0
-804 10 803 0
804 -10 0
804 -803 0
805 -9 -804 0
-805 9 0
-805 804 0
-806 12 805 0
806 -12 0
806 -805 0
807 -14 -806 0
-807 14 0
-807 806 0
-808 19 778 796 807 15 0
808 -19 0
808 -778 0
808 -796 0
808 -807 0
808 -15 0
809 -21 -808 0
-809 21 0
-809 808 0
-810 70 760 30 59 763 0
810 -70 0
810 -760 0
810 -30 0
810 -59 0
810 -763 0
811 -72 -810 0
-811 72 0
-811 810 0
812 -202 -311 0
-812 202 0
-812 311 0
-813 38 35 812 0
813 -38 0
813 -35 0
813 -812 0
814 -452 -813 0
-814 452 0
-814 813 0
-815 454 478 814 0
815 -454 0
815 -478 0
815 -814 0
816 -464 -815 0
-816 464 0
-816 815 0
-817 19 816 13 15 0
817 -19 0
817 -816 0
817 -13 0
817 -15 0
818 -74 -817 0
-818 74 0
-818 817 0
-819 81 818 75 78 0
819 -81 0
819 -818 0
819 -75 0
819 -78 0
820 -83 -819 0
-820 83 0
-820 819 0
-821 85 6 811 820 0
821 -85 0
821 -6 0
821 -811 0
821 -820 0
822 -118 -821 0
-822 118 0
-822 821 0
-823 27 809 22 822 24 0
823 -27 0
823 -809 0
823 -22 0
823 -822 0
823 -24 0
824 -121 -823 0
-824 121 0
-824 823 0
-825 70 759 760 59 763 0
825 -70 0
825 -759 0
825 -760 0
825 -59 0
825 -763 0
826 -72 -825 0
-826 72 0
-826 825 0
-827 70 183 59 174 0
827 -70 0
827 -183 0
827 -59 0
827 -174 0
828 -202 -827 0
-828 202 0
-828 827 0
-829 38 35 828 0
829 -38 0
829 -35 0
829 -828 0
830 -452 -829 0
-830 452 0
-830 829 0
-831 454 478 830 0
831 -454 0
831 -478 0
831 -830 0
832 -464 -831 0
-832 464 0
-832 831 0
-833 19 832 13 15 0
833 -19 0
833 -832 0
833 -13 0
833 -15 0
834 -74 -833 0
-834 74 0
-834 833 0
-835 81 834 75 78 0
835 -81 0
835 -834 0
835 -75 0
835 -78 0
836 -83 -835 0
-836 83 0
-836 835 0
-837 85 6 826 836 0
837 -85 0
837 -6 0
837 -826 0
837 -836 0
838 -126 -837 0
-838 126 0
-838 837 0
-839 32 838 0
839 -32 0
839 -838 0
840 -129 -839 0
-840 129 0
-840 839 0
841 -394 -130 0
-841 394 0
-841 130 0
-842 454 478 841 461 0
842 -454 0
842 -478 0
842 -841 0
842 -461 0
843 -464 -842 0
-843 464 0
-843 842 0
-844 19 843 13 15 0
844 -19 0
844 -843 0
844 -13 0
844 -15 0
845 -21 -844 0
-845 21 0
-845 844 0
-846 27 845 22 24 0
846 -27 0
846 -845 0
846 -22 0
846 -24 0
847 -29 -846 0
-847 29 0
-847 846 0
848 -513 -842 0
-848 513 0
-848 842 0
849 -62 -844 0
-849 62 0
-849 844 0
-850 66 849 0
850 -66 0
850 -849 0
851 -68 -850 0
-851 68 0
-851 850 0
-852 70 847 848 30 59 851 0
852 -70 0
852 -847 0
852 -848 0
852 -30 0
852 -59 0
852 -851 0
853 -72 -852 0
-853 72 0
-853 852 0
-854 81 770 78 0
854 -81 0
854 -770 0
854 -78 0
855 -83 -854 0
-855 83 0
-855 854 0
-856 85 6 853 855 0
856 -85 0
856 -6 0
856 -853 0
856 -855 0
857 -134 -856 0
-857 134 0
-857 856 0
-858 77 857 0
858 -77 0
858 -857 0
859 -137 -858 0
-859 137 0
-859 858 0
860 -247 -177 0
-860 247 0
-860 177 0
861 -296 -197 0
-861 296 0
-861 197 0
862 -298 -177 0
-862 298 0
-862 177 0
-863 375 861 862 0
863 -375 0
863 -861 0
863 -862 0
864 -377 -863 0
-864 377 0
-864 863 0
-865 85 6 185 0
865 -85 0
865 -6 0
865 -185 0
866 -92 -865 0
-866 92 0
-866 865 0
-867 85 6 190 0
867 -85 0
867 -6 0
867 -190 0
868 -110 -867 0
-868 110 0
-868 867 0
-869 10 868 0
869 -10 0
869 -868 0
870 -9 -869 0
-870 9 0
-870 869 0
-871 12 870 0
871 -12 0
871 -870 0
872 -14 -871 0
-872 14 0
-872 871 0
-873 19 866 872 15 0
873 -19 0
873 -866 0
873 -872 0
873 -15 0
874 -74 -873 0
-874 74 0
-874 873 0
-875 85 6 176 0
875 -85 0
875 -6 0
875 -176 0
876 -134 -875 0
-876 134 0
-876 875 0
-877 77 876 0
877 -77 0
877 -876 0
878 -76 -877 0
-878 76 0
-878 877 0
-879 81 874 878 78 0
879 -81 0
879 -874 0
879 -878 0
879 -78 0
880 -394 -879 0
-880 394 0
-880 879 0
881 -452 -203 0
-881 452 0
-881 203 0
-882 454 860 864 880 881 0
882 -454 0
882 -860 0
882 -864 0
882 -880 0
882 -881 0
883 -474 -882 0
-883 474 0
-883 882 0
-884 140 883 0
884 -140 0
884 -883 0
885 -139 -884 0
-885 139 0
-885 884 0
-886 215 774 824 840 859 885 0
886 -215 0
886 -774 0
886 -824 0
886 -840 0
886 -859 0
886 -885 0
887 -227 -886 0
-887 227 0
-887 886 0
888 -224 -523 0
-888 224 0
-888 523 0
889 -21 -529 0
-889 21 0
-889 529 0
-890 27 889 22 24 0
890 -27 0
890 -889 0
890 -22 0
890 -24 0
891 -29 -890 0
-891 29 0
-891 890 0
892 -513 -515 0
-892 513 0
-892 515 0
893 -62 -529 0
-893 62 0
-893 529 0
-894 66 893 0
894 -66 0
894 -893 0
895 -68 -894 0
-895 68 0
-895 894 0
-896 70 888 891 892 30 59 895 0
896 -70 0
896 -888 0
896 -891 0
896 -892 0
896 -30 0
896 -59 0
896 -895 0
897 -72 -896 0
-897 72 0
-897 896 0
898 -452 -591 0
-898 452 0
-898 591 0
-899 454 526 478 898 0
899 -454 0
899 -526 0
899 -478 0
899 -898 0
900 -464 -899 0
-900 464 0
-900 899 0
-901 19 900 13 15 0
901 -19 0
901 -900 0
901 -13 0
901 -15 0
902 -74 -901 0
-902 74 0
-902 901 0
-903 81 902 75 78 0
903 -81 0
903 -902 0
903 -75 0
903 -78 0
904 -83 -903 0
-904 83 0
-904 903 0
-905 85 6 897 904 0
905 -85 0
905 -6 0
905 -897 0
905 -904 0
906 -179 -905 0
-906 179 0
-906 905 0
907 -483 -653 0
-907 483 0
-907 653 0
908 -181 -757 0
-908 181 0
-908 757 0
-909 215 248 219 220 522 0
909 -215 0
909 -248 0
909 -219 0
909 -220 0
909 -522 0
910 -224 -909 0
-910 224 0
-910 909 0
911 -513 -527 0
-911 513 0
-911 527 0
-912 70 910 183 911 30 59 188 0
912 -70 0
912 -910 0
912 -183 0
912 -911 0
912 -30 0
912 -59 0
912 -188 0
913 -72 -912 0
-913 72 0
-913 912 0
-914 85 6 913 107 0
914 -85 0
914 -6 0
914 -913 0
914 -107 0
915 -92 -914 0
-915 92 0
-915 914 0
916 -87 -186 0
-916 87 0
-916 186 0
-917 27 22 325 24 0
917 -27 0
917 -22 0
917 -325 0
917 -24 0
918 -121 -917 0
-918 121 0
-918 917 0
919 -72 -827 0
-919 72 0
-919 827 0
-920 85 6 919 82 0
920 -85 0
920 -6 0
920 -919 0
920 -82 0
921 -126 -920 0
-921 126 0
-921 920 0
-922 32 921 0
922 -32 0
922 -921 0
923 -129 -922 0
-923 129 0
-923 922 0
-924 85 6 185 131 0
924 -85 0
924 -6 0
924 -185 0
924 -131 0
925 -134 -924 0
-925 134 0
-925 924 0
-926 77 925 0
926 -77 0
926 -925 0
927 -137 -926 0
-927 137 0
-927 926 0
-928 215 916 918 923 927 138 0
928 -215 0
928 -916 0
928 -918 0
928 -923 0
928 -927 0
928 -138 0
929 -217 -928 0
-929 217 0
-929 928 0
930 -247 -349 0
-930 247 0
-930 349 0
931 -298 -349 0
-931 298 0
-931 349 0
-932 375 931 0
932 -375 0
932 -931 0
933 -377 -932 0
-933 377 0
-933 932 0
934 -134 -636 0
-934 134 0
-934 636 0
-935 77 934 0
935 -77 0
935 -934 0
936 -76 -935 0
-936 76 0
-936 935 0
-937 81 936 78 0
937 -81 0
937 -936 0
937 -78 0
938 -394 -937 0
-938 394 0
-938 937 0
939 -200 -349 0
-939 200 0
-939 349 0
940 -224 -749 0
-940 224 0
-940 749 0
941 -29 -747 0
-941 29 0
-941 747 0
-942 70 940 941 156 790 188 0
942 -70 0
942 -940 0
942 -941 0
942 -156 0
942 -790 0
942 -188 0
943 -202 -942 0
-943 202 0
-943 942 0
-944 38 35 939 943 0
944 -38 0
944 -35 0
944 -939 0
944 -943 0
945 -452 -944 0
-945 452 0
-945 944 0
-946 454 929 930 933 938 945 0
946 -454 0
946 -929 0
946 -930 0
946 -933 0
946 -938 0
946 -945 0
947 -464 -946 0
-947 464 0
-947 946 0
948 -474 -798 0
-948 474 0
-948 798 0
-949 140 948 0
949 -140 0
949 -948 0
950 -139 -949 0
-950 139 0
-950 949 0
-951 215 248 219 220 950 0
951 -215 0
951 -248 0
951 -219 0
951 -220 0
951 -950 0
952 -224 -951 0
-952 224 0
-952 951 0
-953 454 526 734 797 461 0
953 -454 0
953 -526 0
953 -734 0
953 -797 0
953 -461 0
954 -513 -953 0
-954 513 0
-954 953 0
-955 70 952 183 954 30 188 0
955 -70 0
955 -952 0
955 -183 0
955 -954 0
955 -30 0
955 -188 0
956 -72 -955 0
-956 72 0
-956 955 0
-957 85 6 956 107 0
957 -85 0
957 -6 0
957 -956 0
957 -107 0
958 -110 -957 0
-958 110 0
-958 957 0
-959 10 958 0
959 -10 0
959 -958 0
960 -9 -959 0
-960 9 0
-960 959 0
-961 12 960 0
961 -12 0
961 -960 0
962 -14 -961 0
-962 14 0
-962 961 0
-963 19 915 947 962 15 0
963 -19 0
963 -915 0
963 -947 0
963 -962 0
963 -15 0
964 -34 -963 0
-964 34 0
-964 963 0
965 -200 -905 0
-965 200 0
-965 905 0
-966 454 664 667 673 0
966 -454 0
966 -664 0
966 -667 0
966 -673 0
967 -464 -966 0
-967 464 0
-967 966 0
-968 19 663 967 148 15 0
968 -19 0
968 -663 0
968 -967 0
968 -148 0
968 -15 0
969 -21 -968 0
-969 21 0
-969 968 0
-970 27 969 22 681 24 0
970 -27 0
970 -969 0
970 -22 0
970 -681 0
970 -24 0
971 -121 -970 0
-971 121 0
-971 970 0
-972 454 664 695 705 0
972 -454 0
972 -664 0
972 -695 0
972 -705 0
973 -474 -972 0
-973 474 0
-973 972 0
-974 140 973 0
974 -140 0
974 -973 0
975 -139 -974 0
-975 139 0
-975 974 0
-976 215 662 971 686 692 975 0
976 -215 0
976 -662 0
976 -971 0
976 -686 0
976 -692 0
976 -975 0
977 -224 -976 0
-977 224 0
-977 976 0
-978 454 713 664 667 673 0
978 -454 0
978 -713 0
978 -664 0
978 -667 0
978 -673 0
979 -464 -978 0
-979 464 0
-979 978 0
-980 19 663 979 148 15 0
980 -19 0
980 -663 0
980 -979 0
980 -148 0
980 -15 0
981 -21 -980 0
-981 21 0
-981 980 0
-982 27 981 22 725 24 0
982 -27 0
982 -981 0
982 -22 0
982 -725 0
982 -24 0
983 -29 -982 0
-983 29 0
-983 982 0
-984 454 728 664 695 705 0
984 -454 0
984 -728 0
984 -664 0
984 -695 0
984 -705 0
985 -513 -984 0
-985 513 0
-985 984 0
-986 454 750 664 667 673 0
986 -454 0
986 -750 0
986 -664 0
986 -667 0
986 -673 0
987 -464 -986 0
-987 464 0
-987 986 0
-988 19 663 987 148 15 0
988 -19 0
988 -663 0
988 -987 0
988 -148 0
988 -15 0
989 -62 -988 0
-989 62 0
-989 988 0
-990 66 989 0
990 -66 0
990 -989 0
991 -68 -990 0
-991 68 0
-991 990 0
-992 70 977 983 985 733 746 991 0
992 -70 0
992 -977 0
992 -983 0
992 -985 0
992 -733 0
992 -746 0
992 -991 0
993 -202 -992 0
-993 202 0
-993 992 0
-994 38 35 965 993 0
994 -38 0
994 -35 0
994 -965 0
994 -993 0
995 -40 -994 0
-995 40 0
-995 994 0
-996 42 964 995 0
996 -42 0
996 -964 0
996 -995 0
997 -44 -996 0
-997 44 0
-997 996 0
-998 48 887 906 907 908 997 45 0
998 -48 0
998 -887 0
998 -906 0
998 -907 0
998 -908 0
998 -997 0
998 -45 0
999 -50 -998 0
-999 50 0
-999 998 0
-1000 52 654 758 999 0
1000 -52 0
1000 -654 0
1000 -758 0
1000 -999 0
1001 -54 -1000 0
-1001 54 0
-1001 1000 0
-1002 56 1001 0
1002 -56 0
1002 -1001 0
1003 -1004 -1002 0
-1003 1004 0
-1003 1002 0
-1005 1006 628 1003 0
1005 -1006 0
1005 -628 0
1005 -1003 0
1007 -1008 -1005 0
-1007 1008 0
-1007 1005 0
-1009 1010 455 1007 0
1009 -1010 0
1009 -455 0
1009 -1007 0
1011 -1009 -1012 0
-1011 1009 0
-1011 1012 0
1011 0
