c BC-S1.2
p cnf 1787 5823
1 -2 -3 0
-1 2 0
-1 3 0
-4 5 1 0
4 -5 0
4 -1 0
6 -7 -4 0
-6 7 0
-6 4 0
8 -9 -4 0
-8 9 0
-8 4 0
10 -11 -4 0
-10 11 0
-10 4 0
12 -13 -14 0
-12 13 0
-12 14 0
-15 16 10 12 0
15 -16 0
15 -10 0
15 -12 0
17 -18 -15 0
-17 18 0
-17 15 0
-19 20 17 0
19 -20 0
19 -17 0
21 -22 -19 0
-21 22 0
-21 19 0
-23 24 21 0
23 -24 0
23 -21 0
25 -26 -23 0
-25 26 0
-25 23 0
-27 28 25 0
27 -28 0
27 -25 0
29 -30 -27 0
-29 30 0
-29 27 0
-31 32 8 29 0
31 -32 0
31 -8 0
31 -29 0
33 -34 -31 0
-33 34 0
-33 31 0
35 -36 -31 0
-35 36 0
-35 31 0
-37 38 35 0
37 -38 0
37 -35 0
39 -40 -37 0
-39 40 0
-39 37 0
-41 42 6 33 39 0
41 -42 0
41 -6 0
41 -33 0
41 -39 0
43 -44 -41 0
-43 44 0
-43 41 0
-45 46 43 0
45 -46 0
45 -43 0
47 -48 -45 0
-47 48 0
-47 45 0
-49 50 47 0
49 -50 0
49 -47 0
51 -52 -49 0
-51 52 0
-51 49 0
53 -54 -14 0
-53 54 0
-53 14 0
-55 56 51 53 0
55 -56 0
55 -51 0
55 -53 0
57 -58 -55 0
-57 58 0
-57 55 0
59 -30 -28 0
-59 30 0
-59 28 0
60 -52 -50 0
-60 52 0
-60 50 0
-61 56 60 53 0
61 -56 0
61 -60 0
61 -53 0
62 -63 -61 0
-62 63 0
-62 61 0
-64 32 59 62 0
64 -32 0
64 -59 0
64 -62 0
65 -34 -64 0
-65 34 0
-65 64 0
66 -36 -64 0
-66 36 0
-66 64 0
-67 38 66 0
67 -38 0
67 -66 0
68 -40 -67 0
-68 40 0
-68 67 0
-69 42 65 68 0
69 -42 0
69 -65 0
69 -68 0
70 -44 -69 0
-70 44 0
-70 69 0
-71 46 70 0
71 -46 0
71 -70 0
72 -73 -71 0
-72 73 0
-72 71 0
-74 32 59 0
74 -32 0
74 -59 0
75 -34 -74 0
-75 34 0
-75 74 0
76 -36 -74 0
-76 36 0
-76 74 0
-77 38 76 0
77 -38 0
77 -76 0
78 -40 -77 0
-78 40 0
-78 77 0
-79 42 75 78 0
79 -42 0
79 -75 0
79 -78 0
80 -44 -79 0
-80 44 0
-80 79 0
-81 46 80 0
81 -46 0
81 -80 0
82 -48 -81 0
-82 48 0
-82 81 0
-83 50 82 0
83 -50 0
83 -82 0
84 -52 -83 0
-84 52 0
-84 83 0
-85 56 84 53 0
85 -56 0
85 -84 0
85 -53 0
86 -87 -85 0
-86 87 0
-86 85 0
-88 3 72 86 0
88 -3 0
88 -72 0
88 -86 0
89 -2 -88 0
-89 2 0
-89 88 0
90 -91 -85 0
-90 91 0
-90 85 0
-92 56 53 0
92 -56 0
92 -53 0
93 -63 -92 0
-93 63 0
-93 92 0
-94 32 59 93 0
94 -32 0
94 -59 0
94 -93 0
95 -34 -94 0
-95 34 0
-95 94 0
96 -36 -94 0
-96 36 0
-96 94 0
-97 38 96 0
97 -38 0
97 -96 0
98 -40 -97 0
-98 40 0
-98 97 0
-99 42 95 98 0
99 -42 0
99 -95 0
99 -98 0
100 -44 -99 0
-100 44 0
-100 99 0
-101 46 100 0
101 -46 0
101 -100 0
102 -48 -101 0
-102 48 0
-102 101 0
-103 50 102 0
103 -50 0
103 -102 0
104 -105 -103 0
-104 105 0
-104 103 0
-106 5 89 90 104 0
106 -5 0
106 -89 0
106 -90 0
106 -104 0
107 -11 -106 0
-107 11 0
-107 106 0
-108 42 68 0
108 -42 0
108 -68 0
109 -44 -108 0
-109 44 0
-109 108 0
-110 46 109 0
110 -46 0
110 -109 0
111 -73 -110 0
-111 73 0
-111 110 0
-112 42 78 0
112 -42 0
112 -78 0
113 -44 -112 0
-113 44 0
-113 112 0
-114 46 113 0
114 -46 0
114 -113 0
115 -48 -114 0
-115 48 0
-115 114 0
-116 50 115 0
116 -50 0
116 -115 0
117 -52 -116 0
-117 52 0
-117 116 0
-118 56 117 53 0
118 -56 0
118 -117 0
118 -53 0
119 -87 -118 0
-119 87 0
-119 118 0
-120 3 111 119 0
120 -3 0
120 -111 0
120 -119 0
121 -2 -120 0
-121 2 0
-121 120 0
122 -91 -118 0
-122 91 0
-122 118 0
-123 42 98 0
123 -42 0
123 -98 0
124 -44 -123 0
-124 44 0
-124 123 0
-125 46 124 0
125 -46 0
125 -124 0
126 -48 -125 0
-126 48 0
-126 125 0
-127 50 126 0
127 -50 0
127 -126 0
128 -105 -127 0
-128 105 0
-128 127 0
-129 5 121 122 128 0
129 -5 0
129 -121 0
129 -122 0
129 -128 0
130 -9 -129 0
-130 9 0
-130 129 0
131 -40 -38 0
-131 40 0
-131 38 0
-132 42 6 131 0
132 -42 0
132 -6 0
132 -131 0
133 -44 -132 0
-133 44 0
-133 132 0
-134 46 133 0
134 -46 0
134 -133 0
135 -48 -134 0
-135 48 0
-135 134 0
-136 50 135 0
136 -50 0
136 -135 0
137 -52 -136 0
-137 52 0
-137 136 0
-138 56 137 53 0
138 -56 0
138 -137 0
138 -53 0
139 -63 -138 0
-139 63 0
-139 138 0
-140 32 130 59 139 0
140 -32 0
140 -130 0
140 -59 0
140 -139 0
141 -142 -140 0
-141 142 0
-141 140 0
-143 32 8 59 0
143 -32 0
143 -8 0
143 -59 0
144 -34 -143 0
-144 34 0
-144 143 0
145 -36 -143 0
-145 36 0
-145 143 0
-146 38 145 0
146 -38 0
146 -145 0
147 -40 -146 0
-147 40 0
-147 146 0
-148 42 6 144 147 0
148 -42 0
148 -6 0
148 -144 0
148 -147 0
149 -44 -148 0
-149 44 0
-149 148 0
-150 46 149 0
150 -46 0
150 -149 0
151 -48 -150 0
-151 48 0
-151 150 0
-152 50 151 0
152 -50 0
152 -151 0
153 -52 -152 0
-153 52 0
-153 152 0
-154 56 153 53 0
154 -56 0
154 -153 0
154 -53 0
155 -156 -154 0
-155 156 0
-155 154 0
157 -73 -46 0
-157 73 0
-157 46 0
158 -48 -46 0
-158 48 0
-158 46 0
-159 50 158 0
159 -50 0
159 -158 0
160 -52 -159 0
-160 52 0
-160 159 0
-161 56 160 53 0
161 -56 0
161 -160 0
161 -53 0
162 -87 -161 0
-162 87 0
-162 161 0
-163 3 157 162 0
163 -3 0
163 -157 0
163 -162 0
164 -2 -163 0
-164 2 0
-164 163 0
165 -91 -161 0
-165 91 0
-165 161 0
166 -105 -159 0
-166 105 0
-166 159 0
-167 5 164 165 166 0
167 -5 0
167 -164 0
167 -165 0
167 -166 0
168 -7 -167 0
-168 7 0
-168 167 0
169 -9 -167 0
-169 9 0
-169 167 0
170 -63 -161 0
-170 63 0
-170 161 0
-171 32 169 59 170 0
171 -32 0
171 -169 0
171 -59 0
171 -170 0
172 -34 -171 0
-172 34 0
-172 171 0
173 -36 -171 0
-173 36 0
-173 171 0
-174 38 173 0
174 -38 0
174 -173 0
175 -40 -174 0
-175 40 0
-175 174 0
-176 42 168 172 175 0
176 -42 0
176 -168 0
176 -172 0
176 -175 0
177 -178 -176 0
-177 178 0
-177 176 0
179 -87 -92 0
-179 87 0
-179 92 0
-180 3 179 0
180 -3 0
180 -179 0
181 -2 -180 0
-181 2 0
-181 180 0
182 -91 -92 0
-182 91 0
-182 92 0
-183 5 181 182 0
183 -5 0
183 -181 0
183 -182 0
184 -7 -183 0
-184 7 0
-184 183 0
185 -9 -183 0
-185 9 0
-185 183 0
-186 32 185 59 93 0
186 -32 0
186 -185 0
186 -59 0
186 -93 0
187 -34 -186 0
-187 34 0
-187 186 0
188 -36 -186 0
-188 36 0
-188 186 0
-189 38 188 0
189 -38 0
189 -188 0
190 -40 -189 0
-190 40 0
-190 189 0
-191 42 184 187 190 0
191 -42 0
191 -184 0
191 -187 0
191 -190 0
192 -44 -191 0
-192 44 0
-192 191 0
-193 46 192 0
193 -46 0
193 -192 0
194 -48 -193 0
-194 48 0
-194 193 0
-195 50 194 0
195 -50 0
195 -194 0
196 -197 -195 0
-196 197 0
-196 195 0
-198 16 107 141 155 177 196 12 0
198 -16 0
198 -107 0
198 -141 0
198 -155 0
198 -177 0
198 -196 0
198 -12 0
199 -18 -198 0
-199 18 0
-199 198 0
200 -201 -176 0
-200 201 0
-200 176 0
-202 20 199 200 0
202 -20 0
202 -199 0
202 -200 0
203 -22 -202 0
-203 22 0
-203 202 0
-204 24 203 0
204 -24 0
204 -203 0
205 -206 -204 0
-205 206 0
-205 204 0
-207 208 57 205 0
207 -208 0
207 -57 0
207 -205 0
209 -210 -207 0
-209 210 0
-209 207 0
-211 3 162 0
211 -3 0
211 -162 0
212 -2 -211 0
-212 2 0
-212 211 0
-213 5 212 165 166 0
213 -5 0
213 -212 0
213 -165 0
213 -166 0
214 -7 -213 0
-214 7 0
-214 213 0
215 -58 -61 0
-215 58 0
-215 61 0
216 -11 -213 0
-216 11 0
-216 213 0
217 -156 -61 0
-217 156 0
-217 61 0
218 -197 -50 0
-218 197 0
-218 50 0
-219 16 216 217 218 12 0
219 -16 0
219 -216 0
219 -217 0
219 -218 0
219 -12 0
220 -18 -219 0
-220 18 0
-220 219 0
-221 20 220 0
221 -20 0
221 -220 0
222 -22 -221 0
-222 22 0
-222 221 0
-223 24 222 0
223 -24 0
223 -222 0
224 -206 -223 0
-224 206 0
-224 223 0
-225 208 215 224 0
225 -208 0
225 -215 0
225 -224 0
226 -227 -225 0
-226 227 0
-226 225 0
228 -9 -213 0
-228 9 0
-228 213 0
229 -26 -223 0
-229 26 0
-229 223 0
-230 28 229 0
230 -28 0
230 -229 0
231 -30 -230 0
-231 30 0
-231 230 0
-232 32 226 228 231 62 0
232 -32 0
232 -226 0
232 -228 0
232 -231 0
232 -62 0
233 -34 -232 0
-233 34 0
-233 232 0
234 -36 -232 0
-234 36 0
-234 232 0
-235 38 234 0
235 -38 0
235 -234 0
236 -40 -235 0
-236 40 0
-236 235 0
-237 42 214 233 236 0
237 -42 0
237 -214 0
237 -233 0
237 -236 0
238 -44 -237 0
-238 44 0
-238 237 0
-239 46 238 0
239 -46 0
239 -238 0
240 -241 -239 0
-240 241 0
-240 239 0
-242 5 165 166 0
242 -5 0
242 -165 0
242 -166 0
243 -7 -242 0
-243 7 0
-243 242 0
244 -11 -242 0
-244 11 0
-244 242 0
-245 16 244 217 218 12 0
245 -16 0
245 -244 0
245 -217 0
245 -218 0
245 -12 0
246 -18 -245 0
-246 18 0
-246 245 0
-247 20 246 0
247 -20 0
247 -246 0
248 -22 -247 0
-248 22 0
-248 247 0
-249 24 248 0
249 -24 0
249 -248 0
250 -206 -249 0
-250 206 0
-250 249 0
-251 208 215 250 0
251 -208 0
251 -215 0
251 -250 0
252 -227 -251 0
-252 227 0
-252 251 0
253 -9 -242 0
-253 9 0
-253 242 0
254 -26 -249 0
-254 26 0
-254 249 0
-255 28 254 0
255 -28 0
255 -254 0
256 -30 -255 0
-256 30 0
-256 255 0
-257 32 252 253 256 62 0
257 -32 0
257 -252 0
257 -253 0
257 -256 0
257 -62 0
258 -34 -257 0
-258 34 0
-258 257 0
259 -36 -257 0
-259 36 0
-259 257 0
-260 38 259 0
260 -38 0
260 -259 0
261 -40 -260 0
-261 40 0
-261 260 0
-262 42 243 258 261 0
262 -42 0
262 -243 0
262 -258 0
262 -261 0
263 -44 -262 0
-263 44 0
-263 262 0
-264 46 263 0
264 -46 0
264 -263 0
265 -73 -264 0
-265 73 0
-265 264 0
266 -7 -5 0
-266 7 0
-266 5 0
267 -11 -5 0
-267 11 0
-267 5 0
-268 16 267 12 0
268 -16 0
268 -267 0
268 -12 0
269 -18 -268 0
-269 18 0
-269 268 0
-270 20 269 0
270 -20 0
270 -269 0
271 -22 -270 0
-271 22 0
-271 270 0
-272 24 271 0
272 -24 0
272 -271 0
273 -206 -272 0
-273 206 0
-273 272 0
-274 208 273 0
274 -208 0
274 -273 0
275 -227 -274 0
-275 227 0
-275 274 0
276 -9 -5 0
-276 9 0
-276 5 0
277 -26 -272 0
-277 26 0
-277 272 0
-278 28 277 0
278 -28 0
278 -277 0
279 -30 -278 0
-279 30 0
-279 278 0
-280 32 275 276 279 0
280 -32 0
280 -275 0
280 -276 0
280 -279 0
281 -34 -280 0
-281 34 0
-281 280 0
282 -36 -280 0
-282 36 0
-282 280 0
-283 38 282 0
283 -38 0
283 -282 0
284 -40 -283 0
-284 40 0
-284 283 0
-285 42 266 281 284 0
285 -42 0
285 -266 0
285 -281 0
285 -284 0
286 -44 -285 0
-286 44 0
-286 285 0
-287 46 286 0
287 -46 0
287 -286 0
288 -48 -287 0
-288 48 0
-288 287 0
-289 50 288 0
289 -50 0
289 -288 0
290 -52 -289 0
-290 52 0
-290 289 0
-291 56 290 53 0
291 -56 0
291 -290 0
291 -53 0
292 -87 -291 0
-292 87 0
-292 291 0
-293 3 265 292 0
293 -3 0
293 -265 0
293 -292 0
294 -295 -293 0
-294 295 0
-294 293 0
-296 208 215 0
296 -208 0
296 -215 0
297 -227 -296 0
-297 227 0
-297 296 0
-298 32 297 62 0
298 -32 0
298 -297 0
298 -62 0
299 -34 -298 0
-299 34 0
-299 298 0
300 -36 -298 0
-300 36 0
-300 298 0
-301 38 300 0
301 -38 0
301 -300 0
302 -40 -301 0
-302 40 0
-302 301 0
-303 42 299 302 0
303 -42 0
303 -299 0
303 -302 0
304 -44 -303 0
-304 44 0
-304 303 0
-305 46 304 0
305 -46 0
305 -304 0
306 -73 -305 0
-306 73 0
-306 305 0
307 -227 -208 0
-307 227 0
-307 208 0
-308 32 307 0
308 -32 0
308 -307 0
309 -34 -308 0
-309 34 0
-309 308 0
310 -36 -308 0
-310 36 0
-310 308 0
-311 38 310 0
311 -38 0
311 -310 0
312 -40 -311 0
-312 40 0
-312 311 0
-313 42 309 312 0
313 -42 0
313 -309 0
313 -312 0
314 -44 -313 0
-314 44 0
-314 313 0
-315 46 314 0
315 -46 0
315 -314 0
316 -48 -315 0
-316 48 0
-316 315 0
-317 50 316 0
317 -50 0
317 -316 0
318 -52 -317 0
-318 52 0
-318 317 0
-319 56 318 53 0
319 -56 0
319 -318 0
319 -53 0
320 -87 -319 0
-320 87 0
-320 319 0
-321 3 306 320 0
321 -3 0
321 -306 0
321 -320 0
322 -2 -321 0
-322 2 0
-322 321 0
323 -91 -319 0
-323 91 0
-323 319 0
324 -58 -92 0
-324 58 0
-324 92 0
-325 208 324 0
325 -208 0
325 -324 0
326 -227 -325 0
-326 227 0
-326 325 0
-327 32 326 93 0
327 -32 0
327 -326 0
327 -93 0
328 -34 -327 0
-328 34 0
-328 327 0
329 -36 -327 0
-329 36 0
-329 327 0
-330 38 329 0
330 -38 0
330 -329 0
331 -40 -330 0
-331 40 0
-331 330 0
-332 42 328 331 0
332 -42 0
332 -328 0
332 -331 0
333 -44 -332 0
-333 44 0
-333 332 0
-334 46 333 0
334 -46 0
334 -333 0
335 -48 -334 0
-335 48 0
-335 334 0
-336 50 335 0
336 -50 0
336 -335 0
337 -105 -336 0
-337 105 0
-337 336 0
-338 5 322 323 337 0
338 -5 0
338 -322 0
338 -323 0
338 -337 0
339 -11 -338 0
-339 11 0
-339 338 0
340 -58 -138 0
-340 58 0
-340 138 0
-341 208 340 0
341 -208 0
341 -340 0
342 -227 -341 0
-342 227 0
-342 341 0
-343 42 131 0
343 -42 0
343 -131 0
344 -44 -343 0
-344 44 0
-344 343 0
-345 46 344 0
345 -46 0
345 -344 0
346 -73 -345 0
-346 73 0
-346 345 0
347 -48 -345 0
-347 48 0
-347 345 0
-348 50 347 0
348 -50 0
348 -347 0
349 -52 -348 0
-349 52 0
-349 348 0
-350 56 349 53 0
350 -56 0
350 -349 0
350 -53 0
351 -87 -350 0
-351 87 0
-351 350 0
-352 3 346 351 0
352 -3 0
352 -346 0
352 -351 0
353 -2 -352 0
-353 2 0
-353 352 0
354 -91 -350 0
-354 91 0
-354 350 0
355 -105 -348 0
-355 105 0
-355 348 0
-356 5 353 354 355 0
356 -5 0
356 -353 0
356 -354 0
356 -355 0
357 -9 -356 0
-357 9 0
-357 356 0
-358 32 342 357 139 0
358 -32 0
358 -342 0
358 -357 0
358 -139 0
359 -142 -358 0
-359 142 0
-359 358 0
-360 32 307 8 0
360 -32 0
360 -307 0
360 -8 0
361 -34 -360 0
-361 34 0
-361 360 0
362 -36 -360 0
-362 36 0
-362 360 0
-363 38 362 0
363 -38 0
363 -362 0
364 -40 -363 0
-364 40 0
-364 363 0
-365 42 6 361 364 0
365 -42 0
365 -6 0
365 -361 0
365 -364 0
366 -44 -365 0
-366 44 0
-366 365 0
-367 46 366 0
367 -46 0
367 -366 0
368 -48 -367 0
-368 48 0
-368 367 0
-369 50 368 0
369 -50 0
369 -368 0
370 -52 -369 0
-370 52 0
-370 369 0
-371 56 370 53 0
371 -56 0
371 -370 0
371 -53 0
372 -156 -371 0
-372 156 0
-372 371 0
373 -58 -161 0
-373 58 0
-373 161 0
-374 208 373 0
374 -208 0
374 -373 0
375 -227 -374 0
-375 227 0
-375 374 0
-376 32 375 169 170 0
376 -32 0
376 -375 0
376 -169 0
376 -170 0
377 -34 -376 0
-377 34 0
-377 376 0
378 -36 -376 0
-378 36 0
-378 376 0
-379 38 378 0
379 -38 0
379 -378 0
380 -40 -379 0
-380 40 0
-380 379 0
-381 42 168 377 380 0
381 -42 0
381 -168 0
381 -377 0
381 -380 0
382 -178 -381 0
-382 178 0
-382 381 0
-383 32 326 185 93 0
383 -32 0
383 -326 0
383 -185 0
383 -93 0
384 -34 -383 0
-384 34 0
-384 383 0
385 -36 -383 0
-385 36 0
-385 383 0
-386 38 385 0
386 -38 0
386 -385 0
387 -40 -386 0
-387 40 0
-387 386 0
-388 42 184 384 387 0
388 -42 0
388 -184 0
388 -384 0
388 -387 0
389 -44 -388 0
-389 44 0
-389 388 0
-390 46 389 0
390 -46 0
390 -389 0
391 -48 -390 0
-391 48 0
-391 390 0
-392 50 391 0
392 -50 0
392 -391 0
393 -197 -392 0
-393 197 0
-393 392 0
-394 16 339 359 372 382 393 12 0
394 -16 0
394 -339 0
394 -359 0
394 -372 0
394 -382 0
394 -393 0
394 -12 0
395 -18 -394 0
-395 18 0
-395 394 0
396 -201 -381 0
-396 201 0
-396 381 0
-397 20 395 396 0
397 -20 0
397 -395 0
397 -396 0
398 -22 -397 0
-398 22 0
-398 397 0
-399 24 398 0
399 -24 0
399 -398 0
400 -26 -399 0
-400 26 0
-400 399 0
-401 28 400 0
401 -28 0
401 -400 0
402 -403 -401 0
-402 403 0
-402 401 0
-404 405 209 240 294 402 0
404 -405 0
404 -209 0
404 -240 0
404 -294 0
404 -402 0
406 -407 -404 0
-406 407 0
-406 404 0
-408 409 406 0
408 -409 0
408 -406 0
410 -411 -408 0
-410 411 0
-410 408 0
412 -295 -3 0
-412 295 0
-412 3 0
413 -414 -409 0
-413 414 0
-413 409 0
-415 32 8 0
415 -32 0
415 -8 0
416 -142 -415 0
-416 142 0
-416 415 0
-417 16 10 416 12 0
417 -16 0
417 -10 0
417 -416 0
417 -12 0
418 -18 -417 0
-418 18 0
-418 417 0
-419 20 418 0
419 -20 0
419 -418 0
420 -22 -419 0
-420 22 0
-420 419 0
-421 24 420 0
421 -24 0
421 -420 0
422 -26 -421 0
-422 26 0
-422 421 0
-423 28 413 422 0
423 -28 0
423 -413 0
423 -422 0
424 -403 -423 0
-424 403 0
-424 423 0
-425 405 412 424 0
425 -405 0
425 -412 0
425 -424 0
426 -427 -425 0
-426 427 0
-426 425 0
-428 5 426 1 0
428 -5 0
428 -426 0
428 -1 0
429 -7 -428 0
-429 7 0
-429 428 0
-430 28 413 25 0
430 -28 0
430 -413 0
430 -25 0
431 -403 -430 0
-431 403 0
-431 430 0
-432 405 412 431 0
432 -405 0
432 -412 0
432 -431 0
433 -434 -432 0
-433 434 0
-433 432 0
435 -427 -432 0
-435 427 0
-435 432 0
-436 5 435 1 0
436 -5 0
436 -435 0
436 -1 0
437 -9 -436 0
-437 9 0
-437 436 0
-438 405 412 0
438 -405 0
438 -412 0
439 -407 -438 0
-439 407 0
-439 438 0
-440 409 439 0
440 -409 0
440 -439 0
441 -414 -440 0
-441 414 0
-441 440 0
442 -427 -438 0
-442 427 0
-442 438 0
-443 5 442 1 0
443 -5 0
443 -442 0
443 -1 0
444 -11 -443 0
-444 11 0
-444 443 0
-445 16 444 12 0
445 -16 0
445 -444 0
445 -12 0
446 -18 -445 0
-446 18 0
-446 445 0
-447 20 446 0
447 -20 0
447 -446 0
448 -22 -447 0
-448 22 0
-448 447 0
-449 24 448 0
449 -24 0
449 -448 0
450 -26 -449 0
-450 26 0
-450 449 0
-451 28 441 450 0
451 -28 0
451 -441 0
451 -450 0
452 -30 -451 0
-452 30 0
-452 451 0
-453 32 433 437 452 0
453 -32 0
453 -433 0
453 -437 0
453 -452 0
454 -34 -453 0
-454 34 0
-454 453 0
455 -36 -453 0
-455 36 0
-455 453 0
-456 38 455 0
456 -38 0
456 -455 0
457 -40 -456 0
-457 40 0
-457 456 0
-458 42 429 454 457 0
458 -42 0
458 -429 0
458 -454 0
458 -457 0
459 -44 -458 0
-459 44 0
-459 458 0
-460 46 459 0
460 -46 0
460 -459 0
461 -48 -460 0
-461 48 0
-461 460 0
-462 50 461 0
462 -50 0
462 -461 0
463 -52 -462 0
-463 52 0
-463 462 0
-464 56 463 53 0
464 -56 0
464 -463 0
464 -53 0
465 -58 -464 0
-465 58 0
-465 464 0
-466 28 413 0
466 -28 0
466 -413 0
467 -30 -466 0
-467 30 0
-467 466 0
-468 32 467 62 0
468 -32 0
468 -467 0
468 -62 0
469 -34 -468 0
-469 34 0
-469 468 0
470 -36 -468 0
-470 36 0
-470 468 0
-471 38 470 0
471 -38 0
471 -470 0
472 -40 -471 0
-472 40 0
-472 471 0
-473 42 469 472 0
473 -42 0
473 -469 0
473 -472 0
474 -44 -473 0
-474 44 0
-474 473 0
-475 46 474 0
475 -46 0
475 -474 0
476 -241 -475 0
-476 241 0
-476 475 0
477 -73 -475 0
-477 73 0
-477 475 0
-478 32 467 0
478 -32 0
478 -467 0
479 -34 -478 0
-479 34 0
-479 478 0
480 -36 -478 0
-480 36 0
-480 478 0
-481 38 480 0
481 -38 0
481 -480 0
482 -40 -481 0
-482 40 0
-482 481 0
-483 42 479 482 0
483 -42 0
483 -479 0
483 -482 0
484 -44 -483 0
-484 44 0
-484 483 0
-485 46 484 0
485 -46 0
485 -484 0
486 -48 -485 0
-486 48 0
-486 485 0
-487 50 486 0
487 -50 0
487 -486 0
488 -52 -487 0
-488 52 0
-488 487 0
-489 56 488 53 0
489 -56 0
489 -488 0
489 -53 0
490 -87 -489 0
-490 87 0
-490 489 0
-491 3 477 490 0
491 -3 0
491 -477 0
491 -490 0
492 -295 -491 0
-492 295 0
-492 491 0
493 -403 -466 0
-493 403 0
-493 466 0
-494 405 476 492 493 0
494 -405 0
494 -476 0
494 -492 0
494 -493 0
495 -427 -494 0
-495 427 0
-495 494 0
-496 405 493 0
496 -405 0
496 -493 0
497 -434 -496 0
-497 434 0
-497 496 0
498 -407 -405 0
-498 407 0
-498 405 0
-499 409 498 0
499 -409 0
499 -498 0
500 -414 -499 0
-500 414 0
-500 499 0
-501 28 500 0
501 -28 0
501 -500 0
502 -30 -501 0
-502 30 0
-502 501 0
-503 32 497 502 62 0
503 -32 0
503 -497 0
503 -502 0
503 -62 0
504 -34 -503 0
-504 34 0
-504 503 0
505 -36 -503 0
-505 36 0
-505 503 0
-506 38 505 0
506 -38 0
506 -505 0
507 -40 -506 0
-507 40 0
-507 506 0
-508 42 504 507 0
508 -42 0
508 -504 0
508 -507 0
509 -44 -508 0
-509 44 0
-509 508 0
-510 46 509 0
510 -46 0
510 -509 0
511 -73 -510 0
-511 73 0
-511 510 0
-512 32 497 502 0
512 -32 0
512 -497 0
512 -502 0
513 -34 -512 0
-513 34 0
-513 512 0
514 -36 -512 0
-514 36 0
-514 512 0
-515 38 514 0
515 -38 0
515 -514 0
516 -40 -515 0
-516 40 0
-516 515 0
-517 42 513 516 0
517 -42 0
517 -513 0
517 -516 0
518 -44 -517 0
-518 44 0
-518 517 0
-519 46 518 0
519 -46 0
519 -518 0
520 -48 -519 0
-520 48 0
-520 519 0
-521 50 520 0
521 -50 0
521 -520 0
522 -52 -521 0
-522 52 0
-522 521 0
-523 56 522 53 0
523 -56 0
523 -522 0
523 -53 0
524 -87 -523 0
-524 87 0
-524 523 0
-525 3 511 524 0
525 -3 0
525 -511 0
525 -524 0
526 -2 -525 0
-526 2 0
-526 525 0
-527 405 412 493 0
527 -405 0
527 -412 0
527 -493 0
528 -434 -527 0
-528 434 0
-528 527 0
-529 28 441 0
529 -28 0
529 -441 0
530 -30 -529 0
-530 30 0
-530 529 0
-531 32 528 530 0
531 -32 0
531 -528 0
531 -530 0
532 -34 -531 0
-532 34 0
-532 531 0
533 -36 -531 0
-533 36 0
-533 531 0
-534 38 533 0
534 -38 0
534 -533 0
535 -40 -534 0
-535 40 0
-535 534 0
-536 42 532 535 0
536 -42 0
536 -532 0
536 -535 0
537 -44 -536 0
-537 44 0
-537 536 0
-538 46 537 0
538 -46 0
538 -537 0
539 -48 -538 0
-539 48 0
-539 538 0
-540 50 539 0
540 -50 0
540 -539 0
541 -52 -540 0
-541 52 0
-541 540 0
-542 56 541 53 0
542 -56 0
542 -541 0
542 -53 0
543 -91 -542 0
-543 91 0
-543 542 0
544 -295 -180 0
-544 295 0
-544 180 0
-545 405 544 493 0
545 -405 0
545 -544 0
545 -493 0
546 -434 -545 0
-546 434 0
-546 545 0
-547 405 544 0
547 -405 0
547 -544 0
548 -407 -547 0
-548 407 0
-548 547 0
-549 409 548 0
549 -409 0
549 -548 0
550 -414 -549 0
-550 414 0
-550 549 0
-551 28 550 0
551 -28 0
551 -550 0
552 -30 -551 0
-552 30 0
-552 551 0
-553 32 546 552 93 0
553 -32 0
553 -546 0
553 -552 0
553 -93 0
554 -34 -553 0
-554 34 0
-554 553 0
555 -36 -553 0
-555 36 0
-555 553 0
-556 38 555 0
556 -38 0
556 -555 0
557 -40 -556 0
-557 40 0
-557 556 0
-558 42 554 557 0
558 -42 0
558 -554 0
558 -557 0
559 -44 -558 0
-559 44 0
-559 558 0
-560 46 559 0
560 -46 0
560 -559 0
561 -48 -560 0
-561 48 0
-561 560 0
-562 50 561 0
562 -50 0
562 -561 0
563 -105 -562 0
-563 105 0
-563 562 0
-564 5 495 526 543 563 0
564 -5 0
564 -495 0
564 -526 0
564 -543 0
564 -563 0
565 -11 -564 0
-565 11 0
-565 564 0
-566 42 214 131 0
566 -42 0
566 -214 0
566 -131 0
567 -44 -566 0
-567 44 0
-567 566 0
-568 46 567 0
568 -46 0
568 -567 0
569 -241 -568 0
-569 241 0
-569 568 0
-570 42 243 131 0
570 -42 0
570 -243 0
570 -131 0
571 -44 -570 0
-571 44 0
-571 570 0
-572 46 571 0
572 -46 0
572 -571 0
573 -73 -572 0
-573 73 0
-573 572 0
-574 42 266 131 0
574 -42 0
574 -266 0
574 -131 0
575 -44 -574 0
-575 44 0
-575 574 0
-576 46 575 0
576 -46 0
576 -575 0
577 -48 -576 0
-577 48 0
-577 576 0
-578 50 577 0
578 -50 0
578 -577 0
579 -52 -578 0
-579 52 0
-579 578 0
-580 56 579 53 0
580 -56 0
580 -579 0
580 -53 0
581 -87 -580 0
-581 87 0
-581 580 0
-582 3 573 581 0
582 -3 0
582 -573 0
582 -581 0
583 -295 -582 0
-583 295 0
-583 582 0
-584 405 569 583 493 0
584 -405 0
584 -569 0
584 -583 0
584 -493 0
585 -434 -584 0
-585 434 0
-585 584 0
586 -241 -345 0
-586 241 0
-586 345 0
587 -295 -352 0
-587 295 0
-587 352 0
-588 405 586 587 493 0
588 -405 0
588 -586 0
588 -587 0
588 -493 0
589 -427 -588 0
-589 427 0
-589 588 0
-590 5 589 353 354 355 0
590 -5 0
590 -589 0
590 -353 0
590 -354 0
590 -355 0
591 -9 -590 0
-591 9 0
-591 590 0
-592 405 569 583 0
592 -405 0
592 -569 0
592 -583 0
593 -407 -592 0
-593 407 0
-593 592 0
-594 409 593 0
594 -409 0
594 -593 0
595 -414 -594 0
-595 414 0
-595 594 0
-596 28 595 0
596 -28 0
596 -595 0
597 -30 -596 0
-597 30 0
-597 596 0
598 -427 -527 0
-598 427 0
-598 527 0
-599 5 598 1 0
599 -5 0
599 -598 0
599 -1 0
600 -7 -599 0
-600 7 0
-600 599 0
-601 42 600 131 0
601 -42 0
601 -600 0
601 -131 0
602 -44 -601 0
-602 44 0
-602 601 0
-603 46 602 0
603 -46 0
603 -602 0
604 -48 -603 0
-604 48 0
-604 603 0
-605 50 604 0
605 -50 0
605 -604 0
606 -52 -605 0
-606 52 0
-606 605 0
-607 56 606 53 0
607 -56 0
607 -606 0
607 -53 0
608 -63 -607 0
-608 63 0
-608 607 0
-609 32 585 591 597 608 0
609 -32 0
609 -585 0
609 -591 0
609 -597 0
609 -608 0
610 -142 -609 0
-610 142 0
-610 609 0
611 -9 -599 0
-611 9 0
-611 599 0
-612 32 528 611 530 0
612 -32 0
612 -528 0
612 -611 0
612 -530 0
613 -34 -612 0
-613 34 0
-613 612 0
614 -36 -612 0
-614 36 0
-614 612 0
-615 38 614 0
615 -38 0
615 -614 0
616 -40 -615 0
-616 40 0
-616 615 0
-617 42 600 613 616 0
617 -42 0
617 -600 0
617 -613 0
617 -616 0
618 -44 -617 0
-618 44 0
-618 617 0
-619 46 618 0
619 -46 0
619 -618 0
620 -48 -619 0
-620 48 0
-620 619 0
-621 50 620 0
621 -50 0
621 -620 0
622 -52 -621 0
-622 52 0
-622 621 0
-623 56 622 53 0
623 -56 0
623 -622 0
623 -53 0
624 -156 -623 0
-624 156 0
-624 623 0
625 -241 -46 0
-625 241 0
-625 46 0
626 -295 -163 0
-626 295 0
-626 163 0
-627 405 625 626 493 0
627 -405 0
627 -625 0
627 -626 0
627 -493 0
628 -427 -627 0
-628 427 0
-628 627 0
-629 5 628 164 165 166 0
629 -5 0
629 -628 0
629 -164 0
629 -165 0
629 -166 0
630 -7 -629 0
-630 7 0
-630 629 0
631 -434 -627 0
-631 434 0
-631 627 0
632 -9 -629 0
-632 9 0
-632 629 0
-633 405 625 626 0
633 -405 0
633 -625 0
633 -626 0
634 -407 -633 0
-634 407 0
-634 633 0
-635 409 634 0
635 -409 0
635 -634 0
636 -414 -635 0
-636 414 0
-636 635 0
-637 28 636 0
637 -28 0
637 -636 0
638 -30 -637 0
-638 30 0
-638 637 0
-639 32 631 632 638 170 0
639 -32 0
639 -631 0
639 -632 0
639 -638 0
639 -170 0
640 -34 -639 0
-640 34 0
-640 639 0
641 -36 -639 0
-641 36 0
-641 639 0
-642 38 641 0
642 -38 0
642 -641 0
643 -40 -642 0
-643 40 0
-643 642 0
-644 42 630 640 643 0
644 -42 0
644 -630 0
644 -640 0
644 -643 0
645 -178 -644 0
-645 178 0
-645 644 0
646 -427 -545 0
-646 427 0
-646 545 0
-647 5 646 181 182 0
647 -5 0
647 -646 0
647 -181 0
647 -182 0
648 -7 -647 0
-648 7 0
-648 647 0
649 -9 -647 0
-649 9 0
-649 647 0
-650 32 546 649 552 93 0
650 -32 0
650 -546 0
650 -649 0
650 -552 0
650 -93 0
651 -34 -650 0
-651 34 0
-651 650 0
652 -36 -650 0
-652 36 0
-652 650 0
-653 38 652 0
653 -38 0
653 -652 0
654 -40 -653 0
-654 40 0
-654 653 0
-655 42 648 651 654 0
655 -42 0
655 -648 0
655 -651 0
655 -654 0
656 -44 -655 0
-656 44 0
-656 655 0
-657 46 656 0
657 -46 0
657 -656 0
658 -48 -657 0
-658 48 0
-658 657 0
-659 50 658 0
659 -50 0
659 -658 0
660 -197 -659 0
-660 197 0
-660 659 0
-661 16 565 610 624 645 660 12 0
661 -16 0
661 -565 0
661 -610 0
661 -624 0
661 -645 0
661 -660 0
661 -12 0
662 -18 -661 0
-662 18 0
-662 661 0
663 -201 -644 0
-663 201 0
-663 644 0
-664 20 662 663 0
664 -20 0
664 -662 0
664 -663 0
665 -22 -664 0
-665 22 0
-665 664 0
-666 24 665 0
666 -24 0
666 -665 0
667 -206 -666 0
-667 206 0
-667 666 0
-668 208 465 667 0
668 -208 0
668 -465 0
668 -667 0
669 -670 -668 0
-669 670 0
-669 668 0
671 -30 -430 0
-671 30 0
-671 430 0
-672 32 8 671 0
672 -32 0
672 -8 0
672 -671 0
673 -34 -672 0
-673 34 0
-673 672 0
674 -36 -672 0
-674 36 0
-674 672 0
-675 38 674 0
675 -38 0
675 -674 0
676 -40 -675 0
-676 40 0
-676 675 0
-677 42 673 676 0
677 -42 0
677 -673 0
677 -676 0
678 -44 -677 0
-678 44 0
-678 677 0
-679 46 678 0
679 -46 0
679 -678 0
680 -48 -679 0
-680 48 0
-680 679 0
-681 50 680 0
681 -50 0
681 -680 0
682 -52 -681 0
-682 52 0
-682 681 0
-683 56 682 53 0
683 -56 0
683 -682 0
683 -53 0
684 -58 -683 0
-684 58 0
-684 683 0
685 -63 -350 0
-685 63 0
-685 350 0
-686 32 467 685 0
686 -32 0
686 -467 0
686 -685 0
687 -142 -686 0
-687 142 0
-687 686 0
688 -156 -489 0
-688 156 0
-688 489 0
-689 32 467 170 0
689 -32 0
689 -467 0
689 -170 0
690 -34 -689 0
-690 34 0
-690 689 0
691 -36 -689 0
-691 36 0
-691 689 0
-692 38 691 0
692 -38 0
692 -691 0
693 -40 -692 0
-693 40 0
-693 692 0
-694 42 690 693 0
694 -42 0
694 -690 0
694 -693 0
695 -178 -694 0
-695 178 0
-695 694 0
-696 32 467 93 0
696 -32 0
696 -467 0
696 -93 0
697 -34 -696 0
-697 34 0
-697 696 0
698 -36 -696 0
-698 36 0
-698 696 0
-699 38 698 0
699 -38 0
699 -698 0
700 -40 -699 0
-700 40 0
-700 699 0
-701 42 697 700 0
701 -42 0
701 -697 0
701 -700 0
702 -44 -701 0
-702 44 0
-702 701 0
-703 46 702 0
703 -46 0
703 -702 0
704 -48 -703 0
-704 48 0
-704 703 0
-705 50 704 0
705 -50 0
705 -704 0
706 -197 -705 0
-706 197 0
-706 705 0
-707 16 687 688 695 706 12 0
707 -16 0
707 -687 0
707 -688 0
707 -695 0
707 -706 0
707 -12 0
708 -18 -707 0
-708 18 0
-708 707 0
709 -201 -694 0
-709 201 0
-709 694 0
-710 20 708 709 0
710 -20 0
710 -708 0
710 -709 0
711 -22 -710 0
-711 22 0
-711 710 0
-712 24 711 0
712 -24 0
712 -711 0
713 -206 -712 0
-713 206 0
-713 712 0
-714 208 684 713 0
714 -208 0
714 -684 0
714 -713 0
715 -210 -714 0
-715 210 0
-715 714 0
-716 28 413 229 0
716 -28 0
716 -413 0
716 -229 0
717 -30 -716 0
-717 30 0
-717 716 0
-718 32 226 717 62 0
718 -32 0
718 -226 0
718 -717 0
718 -62 0
719 -34 -718 0
-719 34 0
-719 718 0
720 -36 -718 0
-720 36 0
-720 718 0
-721 38 720 0
721 -38 0
721 -720 0
722 -40 -721 0
-722 40 0
-722 721 0
-723 42 719 722 0
723 -42 0
723 -719 0
723 -722 0
724 -44 -723 0
-724 44 0
-724 723 0
-725 46 724 0
725 -46 0
725 -724 0
726 -241 -725 0
-726 241 0
-726 725 0
-727 28 413 254 0
727 -28 0
727 -413 0
727 -254 0
728 -30 -727 0
-728 30 0
-728 727 0
-729 32 252 728 62 0
729 -32 0
729 -252 0
729 -728 0
729 -62 0
730 -34 -729 0
-730 34 0
-730 729 0
731 -36 -729 0
-731 36 0
-731 729 0
-732 38 731 0
732 -38 0
732 -731 0
733 -40 -732 0
-733 40 0
-733 732 0
-734 42 730 733 0
734 -42 0
734 -730 0
734 -733 0
735 -44 -734 0
-735 44 0
-735 734 0
-736 46 735 0
736 -46 0
736 -735 0
737 -73 -736 0
-737 73 0
-737 736 0
-738 28 413 277 0
738 -28 0
738 -413 0
738 -277 0
739 -30 -738 0
-739 30 0
-739 738 0
-740 32 275 739 0
740 -32 0
740 -275 0
740 -739 0
741 -34 -740 0
-741 34 0
-741 740 0
742 -36 -740 0
-742 36 0
-742 740 0
-743 38 742 0
743 -38 0
743 -742 0
744 -40 -743 0
-744 40 0
-744 743 0
-745 42 741 744 0
745 -42 0
745 -741 0
745 -744 0
746 -44 -745 0
-746 44 0
-746 745 0
-747 46 746 0
747 -46 0
747 -746 0
748 -48 -747 0
-748 48 0
-748 747 0
-749 50 748 0
749 -50 0
749 -748 0
750 -52 -749 0
-750 52 0
-750 749 0
-751 56 750 53 0
751 -56 0
751 -750 0
751 -53 0
752 -87 -751 0
-752 87 0
-752 751 0
-753 3 737 752 0
753 -3 0
753 -737 0
753 -752 0
754 -295 -753 0
-754 295 0
-754 753 0
755 -58 -350 0
-755 58 0
-755 350 0
-756 208 755 0
756 -208 0
756 -755 0
757 -227 -756 0
-757 227 0
-757 756 0
-758 32 757 685 0
758 -32 0
758 -757 0
758 -685 0
759 -142 -758 0
-759 142 0
-759 758 0
760 -156 -319 0
-760 156 0
-760 319 0
-761 42 377 380 0
761 -42 0
761 -377 0
761 -380 0
762 -178 -761 0
-762 178 0
-762 761 0
763 -197 -336 0
-763 197 0
-763 336 0
-764 16 759 760 762 763 12 0
764 -16 0
764 -759 0
764 -760 0
764 -762 0
764 -763 0
764 -12 0
765 -18 -764 0
-765 18 0
-765 764 0
766 -201 -761 0
-766 201 0
-766 761 0
-767 20 765 766 0
767 -20 0
767 -765 0
767 -766 0
768 -22 -767 0
-768 22 0
-768 767 0
-769 24 768 0
769 -24 0
769 -768 0
770 -26 -769 0
-770 26 0
-770 769 0
-771 28 413 770 0
771 -28 0
771 -413 0
771 -770 0
772 -403 -771 0
-772 403 0
-772 771 0
-773 405 715 726 754 772 0
773 -405 0
773 -715 0
773 -726 0
773 -754 0
773 -772 0
774 -427 -773 0
-774 427 0
-774 773 0
-775 16 217 218 12 0
775 -16 0
775 -217 0
775 -218 0
775 -12 0
776 -18 -775 0
-776 18 0
-776 775 0
-777 20 776 0
777 -20 0
777 -776 0
778 -22 -777 0
-778 22 0
-778 777 0
-779 24 778 0
779 -24 0
779 -778 0
780 -206 -779 0
-780 206 0
-780 779 0
-781 208 215 780 0
781 -208 0
781 -215 0
781 -780 0
782 -227 -781 0
-782 227 0
-782 781 0
783 -210 -251 0
-783 210 0
-783 251 0
784 -403 -727 0
-784 403 0
-784 727 0
-785 405 783 784 0
785 -405 0
785 -783 0
785 -784 0
786 -434 -785 0
-786 434 0
-786 785 0
-787 405 783 0
787 -405 0
787 -783 0
788 -407 -787 0
-788 407 0
-788 787 0
-789 409 788 0
789 -409 0
789 -788 0
790 -414 -789 0
-790 414 0
-790 789 0
791 -26 -779 0
-791 26 0
-791 779 0
-792 28 790 791 0
792 -28 0
792 -790 0
792 -791 0
793 -30 -792 0
-793 30 0
-793 792 0
-794 32 782 786 793 62 0
794 -32 0
794 -782 0
794 -786 0
794 -793 0
794 -62 0
795 -34 -794 0
-795 34 0
-795 794 0
796 -36 -794 0
-796 36 0
-796 794 0
-797 38 796 0
797 -38 0
797 -796 0
798 -40 -797 0
-798 40 0
-798 797 0
-799 42 795 798 0
799 -42 0
799 -795 0
799 -798 0
800 -44 -799 0
-800 44 0
-800 799 0
-801 46 800 0
801 -46 0
801 -800 0
802 -73 -801 0
-802 73 0
-802 801 0
-803 16 12 0
803 -16 0
803 -12 0
804 -18 -803 0
-804 18 0
-804 803 0
-805 20 804 0
805 -20 0
805 -804 0
806 -22 -805 0
-806 22 0
-806 805 0
-807 24 806 0
807 -24 0
807 -806 0
808 -206 -807 0
-808 206 0
-808 807 0
-809 208 808 0
809 -208 0
809 -808 0
810 -227 -809 0
-810 227 0
-810 809 0
811 -210 -274 0
-811 210 0
-811 274 0
812 -403 -738 0
-812 403 0
-812 738 0
-813 405 811 412 812 0
813 -405 0
813 -811 0
813 -412 0
813 -812 0
814 -434 -813 0
-814 434 0
-814 813 0
-815 405 811 412 0
815 -405 0
815 -811 0
815 -412 0
816 -407 -815 0
-816 407 0
-816 815 0
-817 409 816 0
817 -409 0
817 -816 0
818 -414 -817 0
-818 414 0
-818 817 0
819 -26 -807 0
-819 26 0
-819 807 0
-820 28 818 819 0
820 -28 0
820 -818 0
820 -819 0
821 -30 -820 0
-821 30 0
-821 820 0
-822 32 810 814 821 0
822 -32 0
822 -810 0
822 -814 0
822 -821 0
823 -34 -822 0
-823 34 0
-823 822 0
824 -36 -822 0
-824 36 0
-824 822 0
-825 38 824 0
825 -38 0
825 -824 0
826 -40 -825 0
-826 40 0
-826 825 0
-827 42 823 826 0
827 -42 0
827 -823 0
827 -826 0
828 -44 -827 0
-828 44 0
-828 827 0
-829 46 828 0
829 -46 0
829 -828 0
830 -48 -829 0
-830 48 0
-830 829 0
-831 50 830 0
831 -50 0
831 -830 0
832 -52 -831 0
-832 52 0
-832 831 0
-833 56 832 53 0
833 -56 0
833 -832 0
833 -53 0
834 -87 -833 0
-834 87 0
-834 833 0
-835 3 802 834 0
835 -3 0
835 -802 0
835 -834 0
836 -2 -835 0
-836 2 0
-836 835 0
837 -210 -809 0
-837 210 0
-837 809 0
-838 405 837 412 431 0
838 -405 0
838 -837 0
838 -412 0
838 -431 0
839 -434 -838 0
-839 434 0
-839 838 0
-840 405 837 412 0
840 -405 0
840 -837 0
840 -412 0
841 -407 -840 0
-841 407 0
-841 840 0
-842 409 841 0
842 -409 0
842 -841 0
843 -414 -842 0
-843 414 0
-843 842 0
-844 28 843 819 0
844 -28 0
844 -843 0
844 -819 0
845 -30 -844 0
-845 30 0
-845 844 0
-846 32 810 839 845 0
846 -32 0
846 -810 0
846 -839 0
846 -845 0
847 -34 -846 0
-847 34 0
-847 846 0
848 -36 -846 0
-848 36 0
-848 846 0
-849 38 848 0
849 -38 0
849 -848 0
850 -40 -849 0
-850 40 0
-850 849 0
-851 42 847 850 0
851 -42 0
851 -847 0
851 -850 0
852 -44 -851 0
-852 44 0
-852 851 0
-853 46 852 0
853 -46 0
853 -852 0
854 -48 -853 0
-854 48 0
-854 853 0
-855 50 854 0
855 -50 0
855 -854 0
856 -52 -855 0
-856 52 0
-856 855 0
-857 56 856 53 0
857 -56 0
857 -856 0
857 -53 0
858 -91 -857 0
-858 91 0
-858 857 0
859 -156 -92 0
-859 156 0
-859 92 0
-860 16 859 12 0
860 -16 0
860 -859 0
860 -12 0
861 -18 -860 0
-861 18 0
-861 860 0
-862 20 861 0
862 -20 0
862 -861 0
863 -22 -862 0
-863 22 0
-863 862 0
-864 24 863 0
864 -24 0
864 -863 0
865 -206 -864 0
-865 206 0
-865 864 0
-866 208 324 865 0
866 -208 0
866 -324 0
866 -865 0
867 -227 -866 0
-867 227 0
-867 866 0
868 -210 -866 0
-868 210 0
-868 866 0
869 -26 -864 0
-869 26 0
-869 864 0
-870 28 413 869 0
870 -28 0
870 -413 0
870 -869 0
871 -403 -870 0
-871 403 0
-871 870 0
-872 405 868 544 871 0
872 -405 0
872 -868 0
872 -544 0
872 -871 0
873 -434 -872 0
-873 434 0
-873 872 0
-874 405 868 544 0
874 -405 0
874 -868 0
874 -544 0
875 -407 -874 0
-875 407 0
-875 874 0
-876 409 875 0
876 -409 0
876 -875 0
877 -414 -876 0
-877 414 0
-877 876 0
-878 28 877 869 0
878 -28 0
878 -877 0
878 -869 0
879 -30 -878 0
-879 30 0
-879 878 0
-880 32 867 873 879 93 0
880 -32 0
880 -867 0
880 -873 0
880 -879 0
880 -93 0
881 -34 -880 0
-881 34 0
-881 880 0
882 -36 -880 0
-882 36 0
-882 880 0
-883 38 882 0
883 -38 0
883 -882 0
884 -40 -883 0
-884 40 0
-884 883 0
-885 42 881 884 0
885 -42 0
885 -881 0
885 -884 0
886 -44 -885 0
-886 44 0
-886 885 0
-887 46 886 0
887 -46 0
887 -886 0
888 -48 -887 0
-888 48 0
-888 887 0
-889 50 888 0
889 -50 0
889 -888 0
890 -105 -889 0
-890 105 0
-890 889 0
-891 5 774 836 858 890 0
891 -5 0
891 -774 0
891 -836 0
891 -858 0
891 -890 0
892 -893 -891 0
-892 893 0
-892 891 0
894 -26 -24 0
-894 26 0
-894 24 0
-895 28 413 894 0
895 -28 0
895 -413 0
895 -894 0
896 -30 -895 0
-896 30 0
-896 895 0
-897 32 8 896 0
897 -32 0
897 -8 0
897 -896 0
898 -34 -897 0
-898 34 0
-898 897 0
899 -36 -897 0
-899 36 0
-899 897 0
-900 38 899 0
900 -38 0
900 -899 0
901 -40 -900 0
-901 40 0
-901 900 0
-902 42 898 901 0
902 -42 0
902 -898 0
902 -901 0
903 -44 -902 0
-903 44 0
-903 902 0
-904 46 903 0
904 -46 0
904 -903 0
905 -48 -904 0
-905 48 0
-905 904 0
-906 50 905 0
906 -50 0
906 -905 0
907 -52 -906 0
-907 52 0
-907 906 0
-908 56 907 53 0
908 -56 0
908 -907 0
908 -53 0
909 -58 -908 0
-909 58 0
-909 908 0
910 -206 -24 0
-910 206 0
-910 24 0
-911 208 909 910 0
911 -208 0
911 -909 0
911 -910 0
912 -210 -911 0
-912 210 0
-912 911 0
-913 208 215 910 0
913 -208 0
913 -215 0
913 -910 0
914 -227 -913 0
-914 227 0
-914 913 0
-915 32 914 896 62 0
915 -32 0
915 -914 0
915 -896 0
915 -62 0
916 -34 -915 0
-916 34 0
-916 915 0
917 -36 -915 0
-917 36 0
-917 915 0
-918 38 917 0
918 -38 0
918 -917 0
919 -40 -918 0
-919 40 0
-919 918 0
-920 42 916 919 0
920 -42 0
920 -916 0
920 -919 0
921 -44 -920 0
-921 44 0
-921 920 0
-922 46 921 0
922 -46 0
922 -921 0
923 -241 -922 0
-923 241 0
-923 922 0
924 -73 -922 0
-924 73 0
-924 922 0
-925 208 910 0
925 -208 0
925 -910 0
926 -227 -925 0
-926 227 0
-926 925 0
-927 32 926 896 0
927 -32 0
927 -926 0
927 -896 0
928 -34 -927 0
-928 34 0
-928 927 0
929 -36 -927 0
-929 36 0
-929 927 0
-930 38 929 0
930 -38 0
930 -929 0
931 -40 -930 0
-931 40 0
-931 930 0
-932 42 928 931 0
932 -42 0
932 -928 0
932 -931 0
933 -44 -932 0
-933 44 0
-933 932 0
-934 46 933 0
934 -46 0
934 -933 0
935 -48 -934 0
-935 48 0
-935 934 0
-936 50 935 0
936 -50 0
936 -935 0
937 -52 -936 0
-937 52 0
-937 936 0
-938 56 937 53 0
938 -56 0
938 -937 0
938 -53 0
939 -87 -938 0
-939 87 0
-939 938 0
-940 3 924 939 0
940 -3 0
940 -924 0
940 -939 0
941 -295 -940 0
-941 295 0
-941 940 0
942 -403 -895 0
-942 403 0
-942 895 0
-943 405 912 923 941 942 0
943 -405 0
943 -912 0
943 -923 0
943 -941 0
943 -942 0
944 -427 -943 0
-944 427 0
-944 943 0
945 -210 -913 0
-945 210 0
-945 913 0
-946 405 945 942 0
946 -405 0
946 -945 0
946 -942 0
947 -434 -946 0
-947 434 0
-947 946 0
-948 405 945 0
948 -405 0
948 -945 0
949 -407 -948 0
-949 407 0
-949 948 0
-950 409 949 0
950 -409 0
950 -949 0
951 -414 -950 0
-951 414 0
-951 950 0
-952 28 951 894 0
952 -28 0
952 -951 0
952 -894 0
953 -30 -952 0
-953 30 0
-953 952 0
-954 32 914 947 953 62 0
954 -32 0
954 -914 0
954 -947 0
954 -953 0
954 -62 0
955 -34 -954 0
-955 34 0
-955 954 0
956 -36 -954 0
-956 36 0
-956 954 0
-957 38 956 0
957 -38 0
957 -956 0
958 -40 -957 0
-958 40 0
-958 957 0
-959 42 955 958 0
959 -42 0
959 -955 0
959 -958 0
960 -44 -959 0
-960 44 0
-960 959 0
-961 46 960 0
961 -46 0
961 -960 0
962 -73 -961 0
-962 73 0
-962 961 0
963 -210 -925 0
-963 210 0
-963 925 0
-964 405 963 412 942 0
964 -405 0
964 -963 0
964 -412 0
964 -942 0
965 -434 -964 0
-965 434 0
-965 964 0
-966 405 963 412 0
966 -405 0
966 -963 0
966 -412 0
967 -407 -966 0
-967 407 0
-967 966 0
-968 409 967 0
968 -409 0
968 -967 0
969 -414 -968 0
-969 414 0
-969 968 0
-970 28 969 894 0
970 -28 0
970 -969 0
970 -894 0
971 -30 -970 0
-971 30 0
-971 970 0
-972 32 926 965 971 0
972 -32 0
972 -926 0
972 -965 0
972 -971 0
973 -34 -972 0
-973 34 0
-973 972 0
974 -36 -972 0
-974 36 0
-974 972 0
-975 38 974 0
975 -38 0
975 -974 0
976 -40 -975 0
-976 40 0
-976 975 0
-977 42 973 976 0
977 -42 0
977 -973 0
977 -976 0
978 -44 -977 0
-978 44 0
-978 977 0
-979 46 978 0
979 -46 0
979 -978 0
980 -48 -979 0
-980 48 0
-980 979 0
-981 50 980 0
981 -50 0
981 -980 0
982 -52 -981 0
-982 52 0
-982 981 0
-983 56 982 53 0
983 -56 0
983 -982 0
983 -53 0
984 -87 -983 0
-984 87 0
-984 983 0
-985 3 962 984 0
985 -3 0
985 -962 0
985 -984 0
986 -2 -985 0
-986 2 0
-986 985 0
987 -91 -983 0
-987 91 0
-987 983 0
-988 208 324 910 0
988 -208 0
988 -324 0
988 -910 0
989 -227 -988 0
-989 227 0
-989 988 0
990 -210 -988 0
-990 210 0
-990 988 0
-991 405 990 544 942 0
991 -405 0
991 -990 0
991 -544 0
991 -942 0
992 -434 -991 0
-992 434 0
-992 991 0
-993 405 990 544 0
993 -405 0
993 -990 0
993 -544 0
994 -407 -993 0
-994 407 0
-994 993 0
-995 409 994 0
995 -409 0
995 -994 0
996 -414 -995 0
-996 414 0
-996 995 0
-997 28 996 894 0
997 -28 0
997 -996 0
997 -894 0
998 -30 -997 0
-998 30 0
-998 997 0
-999 32 989 992 998 93 0
999 -32 0
999 -989 0
999 -992 0
999 -998 0
999 -93 0
1000 -34 -999 0
-1000 34 0
-1000 999 0
1001 -36 -999 0
-1001 36 0
-1001 999 0
-1002 38 1001 0
1002 -38 0
1002 -1001 0
1003 -40 -1002 0
-1003 40 0
-1003 1002 0
-1004 42 1000 1003 0
1004 -42 0
1004 -1000 0
1004 -1003 0
1005 -44 -1004 0
-1005 44 0
-1005 1004 0
-1006 46 1005 0
1006 -46 0
1006 -1005 0
1007 -48 -1006 0
-1007 48 0
-1007 1006 0
-1008 50 1007 0
1008 -50 0
1008 -1007 0
1009 -105 -1008 0
-1009 105 0
-1009 1008 0
-1010 5 944 986 987 1009 0
1010 -5 0
1010 -944 0
1010 -986 0
1010 -987 0
1010 -1009 0
1011 -11 -1010 0
-1011 11 0
-1011 1010 0
1012 -427 -964 0
-1012 427 0
-1012 964 0
-1013 5 1012 1 0
1013 -5 0
1013 -1012 0
1013 -1 0
1014 -7 -1013 0
-1014 7 0
-1014 1013 0
-1015 42 1014 131 0
1015 -42 0
1015 -1014 0
1015 -131 0
1016 -44 -1015 0
-1016 44 0
-1016 1015 0
-1017 46 1016 0
1017 -46 0
1017 -1016 0
1018 -48 -1017 0
-1018 48 0
-1018 1017 0
-1019 50 1018 0
1019 -50 0
1019 -1018 0
1020 -52 -1019 0
-1020 52 0
-1020 1019 0
-1021 56 1020 53 0
1021 -56 0
1021 -1020 0
1021 -53 0
1022 -58 -1021 0
-1022 58 0
-1022 1021 0
-1023 208 1022 910 0
1023 -208 0
1023 -1022 0
1023 -910 0
1024 -227 -1023 0
-1024 227 0
-1024 1023 0
-1025 208 340 910 0
1025 -208 0
1025 -340 0
1025 -910 0
1026 -210 -1025 0
-1026 210 0
-1026 1025 0
-1027 405 1026 569 583 942 0
1027 -405 0
1027 -1026 0
1027 -569 0
1027 -583 0
1027 -942 0
1028 -434 -1027 0
-1028 434 0
-1028 1027 0
-1029 208 755 910 0
1029 -208 0
1029 -755 0
1029 -910 0
1030 -210 -1029 0
-1030 210 0
-1030 1029 0
-1031 405 1030 586 587 942 0
1031 -405 0
1031 -1030 0
1031 -586 0
1031 -587 0
1031 -942 0
1032 -427 -1031 0
-1032 427 0
-1032 1031 0
-1033 5 1032 353 354 355 0
1033 -5 0
1033 -1032 0
1033 -353 0
1033 -354 0
1033 -355 0
1034 -9 -1033 0
-1034 9 0
-1034 1033 0
-1035 405 1026 569 583 0
1035 -405 0
1035 -1026 0
1035 -569 0
1035 -583 0
1036 -407 -1035 0
-1036 407 0
-1036 1035 0
-1037 409 1036 0
1037 -409 0
1037 -1036 0
1038 -414 -1037 0
-1038 414 0
-1038 1037 0
-1039 28 1038 894 0
1039 -28 0
1039 -1038 0
1039 -894 0
1040 -30 -1039 0
-1040 30 0
-1040 1039 0
1041 -63 -1021 0
-1041 63 0
-1041 1021 0
-1042 32 1024 1028 1034 1040 1041 0
1042 -32 0
1042 -1024 0
1042 -1028 0
1042 -1034 0
1042 -1040 0
1042 -1041 0
1043 -142 -1042 0
-1043 142 0
-1043 1042 0
1044 -9 -1013 0
-1044 9 0
-1044 1013 0
-1045 32 926 965 1044 971 0
1045 -32 0
1045 -926 0
1045 -965 0
1045 -1044 0
1045 -971 0
1046 -34 -1045 0
-1046 34 0
-1046 1045 0
1047 -36 -1045 0
-1047 36 0
-1047 1045 0
-1048 38 1047 0
1048 -38 0
1048 -1047 0
1049 -40 -1048 0
-1049 40 0
-1049 1048 0
-1050 42 1014 1046 1049 0
1050 -42 0
1050 -1014 0
1050 -1046 0
1050 -1049 0
1051 -44 -1050 0
-1051 44 0
-1051 1050 0
-1052 46 1051 0
1052 -46 0
1052 -1051 0
1053 -48 -1052 0
-1053 48 0
-1053 1052 0
-1054 50 1053 0
1054 -50 0
1054 -1053 0
1055 -52 -1054 0
-1055 52 0
-1055 1054 0
-1056 56 1055 53 0
1056 -56 0
1056 -1055 0
1056 -53 0
1057 -156 -1056 0
-1057 156 0
-1057 1056 0
-1058 208 373 910 0
1058 -208 0
1058 -373 0
1058 -910 0
1059 -210 -1058 0
-1059 210 0
-1059 1058 0
-1060 405 1059 625 626 942 0
1060 -405 0
1060 -1059 0
1060 -625 0
1060 -626 0
1060 -942 0
1061 -427 -1060 0
-1061 427 0
-1061 1060 0
-1062 5 1061 164 165 166 0
1062 -5 0
1062 -1061 0
1062 -164 0
1062 -165 0
1062 -166 0
1063 -7 -1062 0
-1063 7 0
-1063 1062 0
1064 -227 -1058 0
-1064 227 0
-1064 1058 0
1065 -434 -1060 0
-1065 434 0
-1065 1060 0
1066 -9 -1062 0
-1066 9 0
-1066 1062 0
-1067 405 1059 625 626 0
1067 -405 0
1067 -1059 0
1067 -625 0
1067 -626 0
1068 -407 -1067 0
-1068 407 0
-1068 1067 0
-1069 409 1068 0
1069 -409 0
1069 -1068 0
1070 -414 -1069 0
-1070 414 0
-1070 1069 0
-1071 28 1070 894 0
1071 -28 0
1071 -1070 0
1071 -894 0
1072 -30 -1071 0
-1072 30 0
-1072 1071 0
-1073 32 1064 1065 1066 1072 170 0
1073 -32 0
1073 -1064 0
1073 -1065 0
1073 -1066 0
1073 -1072 0
1073 -170 0
1074 -34 -1073 0
-1074 34 0
-1074 1073 0
1075 -36 -1073 0
-1075 36 0
-1075 1073 0
-1076 38 1075 0
1076 -38 0
1076 -1075 0
1077 -40 -1076 0
-1077 40 0
-1077 1076 0
-1078 42 1063 1074 1077 0
1078 -42 0
1078 -1063 0
1078 -1074 0
1078 -1077 0
1079 -178 -1078 0
-1079 178 0
-1079 1078 0
1080 -427 -991 0
-1080 427 0
-1080 991 0
-1081 5 1080 181 182 0
1081 -5 0
1081 -1080 0
1081 -181 0
1081 -182 0
1082 -7 -1081 0
-1082 7 0
-1082 1081 0
1083 -9 -1081 0
-1083 9 0
-1083 1081 0
-1084 32 989 992 1083 998 93 0
1084 -32 0
1084 -989 0
1084 -992 0
1084 -1083 0
1084 -998 0
1084 -93 0
1085 -34 -1084 0
-1085 34 0
-1085 1084 0
1086 -36 -1084 0
-1086 36 0
-1086 1084 0
-1087 38 1086 0
1087 -38 0
1087 -1086 0
1088 -40 -1087 0
-1088 40 0
-1088 1087 0
-1089 42 1082 1085 1088 0
1089 -42 0
1089 -1082 0
1089 -1085 0
1089 -1088 0
1090 -44 -1089 0
-1090 44 0
-1090 1089 0
-1091 46 1090 0
1091 -46 0
1091 -1090 0
1092 -48 -1091 0
-1092 48 0
-1092 1091 0
-1093 50 1092 0
1093 -50 0
1093 -1092 0
1094 -197 -1093 0
-1094 197 0
-1094 1093 0
-1095 16 1011 1043 1057 1079 1094 12 0
1095 -16 0
1095 -1011 0
1095 -1043 0
1095 -1057 0
1095 -1079 0
1095 -1094 0
1095 -12 0
1096 -18 -1095 0
-1096 18 0
-1096 1095 0
1097 -201 -1078 0
-1097 201 0
-1097 1078 0
-1098 20 1096 1097 0
1098 -20 0
1098 -1096 0
1098 -1097 0
1099 -1100 -1098 0
-1099 1100 0
-1099 1098 0
-1101 1102 669 892 1099 0
1101 -1102 0
1101 -669 0
1101 -892 0
1101 -1099 0
1103 -1104 -1101 0
-1103 1104 0
-1103 1101 0
-1105 1106 410 1103 0
1105 -1106 0
1105 -410 0
1105 -1103 0
1107 -1108 -1105 0
-1107 1108 0
-1107 1105 0
1109 -73 -81 0
-1109 73 0
-1109 81 0
-1110 3 1109 0
1110 -3 0
1110 -1109 0
1111 -2 -1110 0
-1111 2 0
-1111 1110 0
1112 -105 -83 0
-1112 105 0
-1112 83 0
-1113 5 1111 1112 0
1113 -5 0
1113 -1111 0
1113 -1112 0
1114 -11 -1113 0
-1114 11 0
-1114 1113 0
-1115 3 346 0
1115 -3 0
1115 -346 0
1116 -2 -1115 0
-1116 2 0
-1116 1115 0
-1117 5 1116 355 0
1117 -5 0
1117 -1116 0
1117 -355 0
1118 -9 -1117 0
-1118 9 0
-1118 1117 0
-1119 32 1118 59 0
1119 -32 0
1119 -1118 0
1119 -59 0
1120 -142 -1119 0
-1120 142 0
-1120 1119 0
-1121 3 157 0
1121 -3 0
1121 -157 0
1122 -2 -1121 0
-1122 2 0
-1122 1121 0
-1123 5 1122 166 0
1123 -5 0
1123 -1122 0
1123 -166 0
1124 -7 -1123 0
-1124 7 0
-1124 1123 0
1125 -9 -1123 0
-1125 9 0
-1125 1123 0
-1126 32 1125 59 0
1126 -32 0
1126 -1125 0
1126 -59 0
1127 -34 -1126 0
-1127 34 0
-1127 1126 0
1128 -36 -1126 0
-1128 36 0
-1128 1126 0
-1129 38 1128 0
1129 -38 0
1129 -1128 0
1130 -40 -1129 0
-1130 40 0
-1130 1129 0
-1131 42 1124 1127 1130 0
1131 -42 0
1131 -1124 0
1131 -1127 0
1131 -1130 0
1132 -178 -1131 0
-1132 178 0
-1132 1131 0
1133 -197 -152 0
-1133 197 0
-1133 152 0
-1134 16 1114 1120 1132 1133 12 0
1134 -16 0
1134 -1114 0
1134 -1120 0
1134 -1132 0
1134 -1133 0
1134 -12 0
1135 -18 -1134 0
-1135 18 0
-1135 1134 0
1136 -201 -1131 0
-1136 201 0
-1136 1131 0
-1137 20 1135 1136 0
1137 -20 0
1137 -1135 0
1137 -1136 0
1138 -22 -1137 0
-1138 22 0
-1138 1137 0
-1139 24 1138 0
1139 -24 0
1139 -1138 0
1140 -206 -1139 0
-1140 206 0
-1140 1139 0
-1141 208 1140 0
1141 -208 0
1141 -1140 0
1142 -210 -1141 0
-1142 210 0
-1142 1141 0
-1143 5 1 166 0
1143 -5 0
1143 -1 0
1143 -166 0
1144 -7 -1143 0
-1144 7 0
-1144 1143 0
1145 -11 -1143 0
-1145 11 0
-1145 1143 0
-1146 16 1145 218 12 0
1146 -16 0
1146 -1145 0
1146 -218 0
1146 -12 0
1147 -18 -1146 0
-1147 18 0
-1147 1146 0
-1148 20 1147 0
1148 -20 0
1148 -1147 0
1149 -22 -1148 0
-1149 22 0
-1149 1148 0
-1150 24 1149 0
1150 -24 0
1150 -1149 0
1151 -206 -1150 0
-1151 206 0
-1151 1150 0
-1152 208 215 1151 0
1152 -208 0
1152 -215 0
1152 -1151 0
1153 -227 -1152 0
-1153 227 0
-1153 1152 0
1154 -9 -1143 0
-1154 9 0
-1154 1143 0
1155 -26 -1150 0
-1155 26 0
-1155 1150 0
-1156 28 1155 0
1156 -28 0
1156 -1155 0
1157 -30 -1156 0
-1157 30 0
-1157 1156 0
-1158 32 1153 1154 1157 0
1158 -32 0
1158 -1153 0
1158 -1154 0
1158 -1157 0
1159 -34 -1158 0
-1159 34 0
-1159 1158 0
1160 -36 -1158 0
-1160 36 0
-1160 1158 0
-1161 38 1160 0
1161 -38 0
1161 -1160 0
1162 -40 -1161 0
-1162 40 0
-1162 1161 0
-1163 42 1144 1159 1162 0
1163 -42 0
1163 -1144 0
1163 -1159 0
1163 -1162 0
1164 -44 -1163 0
-1164 44 0
-1164 1163 0
-1165 46 1164 0
1165 -46 0
1165 -1164 0
1166 -241 -1165 0
-1166 241 0
-1166 1165 0
-1167 32 252 253 256 0
1167 -32 0
1167 -252 0
1167 -253 0
1167 -256 0
1168 -34 -1167 0
-1168 34 0
-1168 1167 0
1169 -36 -1167 0
-1169 36 0
-1169 1167 0
-1170 38 1169 0
1170 -38 0
1170 -1169 0
1171 -40 -1170 0
-1171 40 0
-1171 1170 0
-1172 42 243 1168 1171 0
1172 -42 0
1172 -243 0
1172 -1168 0
1172 -1171 0
1173 -44 -1172 0
-1173 44 0
-1173 1172 0
-1174 46 1173 0
1174 -46 0
1174 -1173 0
1175 -73 -1174 0
-1175 73 0
-1175 1174 0
-1176 3 1175 0
1176 -3 0
1176 -1175 0
1177 -295 -1176 0
-1177 295 0
-1177 1176 0
1178 -73 -315 0
-1178 73 0
-1178 315 0
-1179 3 1178 0
1179 -3 0
1179 -1178 0
1180 -2 -1179 0
-1180 2 0
-1180 1179 0
1181 -105 -317 0
-1181 105 0
-1181 317 0
-1182 5 1180 1181 0
1182 -5 0
1182 -1180 0
1182 -1181 0
1183 -11 -1182 0
-1183 11 0
-1183 1182 0
-1184 32 307 1118 0
1184 -32 0
1184 -307 0
1184 -1118 0
1185 -142 -1184 0
-1185 142 0
-1185 1184 0
-1186 32 307 1125 0
1186 -32 0
1186 -307 0
1186 -1125 0
1187 -34 -1186 0
-1187 34 0
-1187 1186 0
1188 -36 -1186 0
-1188 36 0
-1188 1186 0
-1189 38 1188 0
1189 -38 0
1189 -1188 0
1190 -40 -1189 0
-1190 40 0
-1190 1189 0
-1191 42 1124 1187 1190 0
1191 -42 0
1191 -1124 0
1191 -1187 0
1191 -1190 0
1192 -178 -1191 0
-1192 178 0
-1192 1191 0
1193 -197 -369 0
-1193 197 0
-1193 369 0
-1194 16 1183 1185 1192 1193 12 0
1194 -16 0
1194 -1183 0
1194 -1185 0
1194 -1192 0
1194 -1193 0
1194 -12 0
1195 -18 -1194 0
-1195 18 0
-1195 1194 0
1196 -201 -1191 0
-1196 201 0
-1196 1191 0
-1197 20 1195 1196 0
1197 -20 0
1197 -1195 0
1197 -1196 0
1198 -22 -1197 0
-1198 22 0
-1198 1197 0
-1199 24 1198 0
1199 -24 0
1199 -1198 0
1200 -26 -1199 0
-1200 26 0
-1200 1199 0
-1201 28 1200 0
1201 -28 0
1201 -1200 0
1202 -403 -1201 0
-1202 403 0
-1202 1201 0
-1203 405 1142 1166 1177 1202 0
1203 -405 0
1203 -1142 0
1203 -1166 0
1203 -1177 0
1203 -1202 0
1204 -407 -1203 0
-1204 407 0
-1204 1203 0
-1205 409 1204 0
1205 -409 0
1205 -1204 0
1206 -411 -1205 0
-1206 411 0
-1206 1205 0
1207 -241 -485 0
-1207 241 0
-1207 485 0
1208 -73 -485 0
-1208 73 0
-1208 485 0
-1209 3 1208 0
1209 -3 0
1209 -1208 0
1210 -295 -1209 0
-1210 295 0
-1210 1209 0
-1211 405 1207 1210 493 0
1211 -405 0
1211 -1207 0
1211 -1210 0
1211 -493 0
1212 -427 -1211 0
-1212 427 0
-1212 1211 0
1213 -73 -519 0
-1213 73 0
-1213 519 0
-1214 3 1213 0
1214 -3 0
1214 -1213 0
1215 -2 -1214 0
-1215 2 0
-1215 1214 0
1216 -105 -540 0
-1216 105 0
-1216 540 0
-1217 5 1212 1215 1216 0
1217 -5 0
1217 -1212 0
1217 -1215 0
1217 -1216 0
1218 -11 -1217 0
-1218 11 0
-1218 1217 0
-1219 42 1144 131 0
1219 -42 0
1219 -1144 0
1219 -131 0
1220 -44 -1219 0
-1220 44 0
-1220 1219 0
-1221 46 1220 0
1221 -46 0
1221 -1220 0
1222 -241 -1221 0
-1222 241 0
-1222 1221 0
-1223 3 573 0
1223 -3 0
1223 -573 0
1224 -295 -1223 0
-1224 295 0
-1224 1223 0
-1225 405 1222 1224 493 0
1225 -405 0
1225 -1222 0
1225 -1224 0
1225 -493 0
1226 -434 -1225 0
-1226 434 0
-1226 1225 0
1227 -295 -1115 0
-1227 295 0
-1227 1115 0
-1228 405 586 1227 493 0
1228 -405 0
1228 -586 0
1228 -1227 0
1228 -493 0
1229 -427 -1228 0
-1229 427 0
-1229 1228 0
-1230 5 1229 1116 355 0
1230 -5 0
1230 -1229 0
1230 -1116 0
1230 -355 0
1231 -9 -1230 0
-1231 9 0
-1231 1230 0
-1232 405 1222 1224 0
1232 -405 0
1232 -1222 0
1232 -1224 0
1233 -407 -1232 0
-1233 407 0
-1233 1232 0
-1234 409 1233 0
1234 -409 0
1234 -1233 0
1235 -414 -1234 0
-1235 414 0
-1235 1234 0
-1236 28 1235 0
1236 -28 0
1236 -1235 0
1237 -30 -1236 0
-1237 30 0
-1237 1236 0
-1238 32 1226 1231 1237 0
1238 -32 0
1238 -1226 0
1238 -1231 0
1238 -1237 0
1239 -142 -1238 0
-1239 142 0
-1239 1238 0
1240 -295 -1121 0
-1240 295 0
-1240 1121 0
-1241 405 625 1240 493 0
1241 -405 0
1241 -625 0
1241 -1240 0
1241 -493 0
1242 -427 -1241 0
-1242 427 0
-1242 1241 0
-1243 5 1242 1122 166 0
1243 -5 0
1243 -1242 0
1243 -1122 0
1243 -166 0
1244 -7 -1243 0
-1244 7 0
-1244 1243 0
1245 -434 -1241 0
-1245 434 0
-1245 1241 0
1246 -9 -1243 0
-1246 9 0
-1246 1243 0
-1247 405 625 1240 0
1247 -405 0
1247 -625 0
1247 -1240 0
1248 -407 -1247 0
-1248 407 0
-1248 1247 0
-1249 409 1248 0
1249 -409 0
1249 -1248 0
1250 -414 -1249 0
-1250 414 0
-1250 1249 0
-1251 28 1250 0
1251 -28 0
1251 -1250 0
1252 -30 -1251 0
-1252 30 0
-1252 1251 0
-1253 32 1245 1246 1252 0
1253 -32 0
1253 -1245 0
1253 -1246 0
1253 -1252 0
1254 -34 -1253 0
-1254 34 0
-1254 1253 0
1255 -36 -1253 0
-1255 36 0
-1255 1253 0
-1256 38 1255 0
1256 -38 0
1256 -1255 0
1257 -40 -1256 0
-1257 40 0
-1257 1256 0
-1258 42 1244 1254 1257 0
1258 -42 0
1258 -1244 0
1258 -1254 0
1258 -1257 0
1259 -178 -1258 0
-1259 178 0
-1259 1258 0
1260 -197 -621 0
-1260 197 0
-1260 621 0
-1261 16 1218 1239 1259 1260 12 0
1261 -16 0
1261 -1218 0
1261 -1239 0
1261 -1259 0
1261 -1260 0
1261 -12 0
1262 -18 -1261 0
-1262 18 0
-1262 1261 0
1263 -201 -1258 0
-1263 201 0
-1263 1258 0
-1264 20 1262 1263 0
1264 -20 0
1264 -1262 0
1264 -1263 0
1265 -22 -1264 0
-1265 22 0
-1265 1264 0
-1266 24 1265 0
1266 -24 0
1266 -1265 0
1267 -206 -1266 0
-1267 206 0
-1267 1266 0
-1268 208 1267 0
1268 -208 0
1268 -1267 0
1269 -670 -1268 0
-1269 670 0
-1269 1268 0
1270 -142 -478 0
-1270 142 0
-1270 478 0
1271 -178 -483 0
-1271 178 0
-1271 483 0
1272 -197 -487 0
-1272 197 0
-1272 487 0
-1273 16 1270 1271 1272 12 0
1273 -16 0
1273 -1270 0
1273 -1271 0
1273 -1272 0
1273 -12 0
1274 -18 -1273 0
-1274 18 0
-1274 1273 0
1275 -201 -483 0
-1275 201 0
-1275 483 0
-1276 20 1274 1275 0
1276 -20 0
1276 -1274 0
1276 -1275 0
1277 -22 -1276 0
-1277 22 0
-1277 1276 0
-1278 24 1277 0
1278 -24 0
1278 -1277 0
1279 -206 -1278 0
-1279 206 0
-1279 1278 0
-1280 208 1279 0
1280 -208 0
1280 -1279 0
1281 -210 -1280 0
-1281 210 0
-1281 1280 0
-1282 28 413 791 0
1282 -28 0
1282 -413 0
1282 -791 0
1283 -30 -1282 0
-1283 30 0
-1283 1282 0
-1284 32 782 1283 0
1284 -32 0
1284 -782 0
1284 -1283 0
1285 -34 -1284 0
-1285 34 0
-1285 1284 0
1286 -36 -1284 0
-1286 36 0
-1286 1284 0
-1287 38 1286 0
1287 -38 0
1287 -1286 0
1288 -40 -1287 0
-1288 40 0
-1288 1287 0
-1289 42 1285 1288 0
1289 -42 0
1289 -1285 0
1289 -1288 0
1290 -44 -1289 0
-1290 44 0
-1290 1289 0
-1291 46 1290 0
1291 -46 0
1291 -1290 0
1292 -241 -1291 0
-1292 241 0
-1292 1291 0
1293 -73 -1291 0
-1293 73 0
-1293 1291 0
-1294 3 1293 0
1294 -3 0
1294 -1293 0
1295 -295 -1294 0
-1295 295 0
-1295 1294 0
1296 -142 -308 0
-1296 142 0
-1296 308 0
1297 -178 -313 0
-1297 178 0
-1297 313 0
1298 -197 -317 0
-1298 197 0
-1298 317 0
-1299 16 1296 1297 1298 12 0
1299 -16 0
1299 -1296 0
1299 -1297 0
1299 -1298 0
1299 -12 0
1300 -18 -1299 0
-1300 18 0
-1300 1299 0
1301 -201 -313 0
-1301 201 0
-1301 313 0
-1302 20 1300 1301 0
1302 -20 0
1302 -1300 0
1302 -1301 0
1303 -22 -1302 0
-1303 22 0
-1303 1302 0
-1304 24 1303 0
1304 -24 0
1304 -1303 0
1305 -26 -1304 0
-1305 26 0
-1305 1304 0
-1306 28 413 1305 0
1306 -28 0
1306 -413 0
1306 -1305 0
1307 -403 -1306 0
-1307 403 0
-1307 1306 0
-1308 405 1281 1292 1295 1307 0
1308 -405 0
1308 -1281 0
1308 -1292 0
1308 -1295 0
1308 -1307 0
1309 -427 -1308 0
-1309 427 0
-1309 1308 0
-1310 32 782 786 793 0
1310 -32 0
1310 -782 0
1310 -786 0
1310 -793 0
1311 -34 -1310 0
-1311 34 0
-1311 1310 0
1312 -36 -1310 0
-1312 36 0
-1312 1310 0
-1313 38 1312 0
1313 -38 0
1313 -1312 0
1314 -40 -1313 0
-1314 40 0
-1314 1313 0
-1315 42 1311 1314 0
1315 -42 0
1315 -1311 0
1315 -1314 0
1316 -44 -1315 0
-1316 44 0
-1316 1315 0
-1317 46 1316 0
1317 -46 0
1317 -1316 0
1318 -73 -1317 0
-1318 73 0
-1318 1317 0
-1319 3 1318 0
1319 -3 0
1319 -1318 0
1320 -2 -1319 0
-1320 2 0
-1320 1319 0
1321 -105 -855 0
-1321 105 0
-1321 855 0
-1322 5 1309 1320 1321 0
1322 -5 0
1322 -1309 0
1322 -1320 0
1322 -1321 0
1323 -893 -1322 0
-1323 893 0
-1323 1322 0
1324 -241 -934 0
-1324 241 0
-1324 934 0
1325 -73 -934 0
-1325 73 0
-1325 934 0
-1326 3 1325 0
1326 -3 0
1326 -1325 0
1327 -295 -1326 0
-1327 295 0
-1327 1326 0
-1328 405 963 1324 1327 942 0
1328 -405 0
1328 -963 0
1328 -1324 0
1328 -1327 0
1328 -942 0
1329 -427 -1328 0
-1329 427 0
-1329 1328 0
-1330 32 914 947 953 0
1330 -32 0
1330 -914 0
1330 -947 0
1330 -953 0
1331 -34 -1330 0
-1331 34 0
-1331 1330 0
1332 -36 -1330 0
-1332 36 0
-1332 1330 0
-1333 38 1332 0
1333 -38 0
1333 -1332 0
1334 -40 -1333 0
-1334 40 0
-1334 1333 0
-1335 42 1331 1334 0
1335 -42 0
1335 -1331 0
1335 -1334 0
1336 -44 -1335 0
-1336 44 0
-1336 1335 0
-1337 46 1336 0
1337 -46 0
1337 -1336 0
1338 -73 -1337 0
-1338 73 0
-1338 1337 0
-1339 3 1338 0
1339 -3 0
1339 -1338 0
1340 -2 -1339 0
-1340 2 0
-1340 1339 0
1341 -105 -981 0
-1341 105 0
-1341 981 0
-1342 5 1329 1340 1341 0
1342 -5 0
1342 -1329 0
1342 -1340 0
1342 -1341 0
1343 -11 -1342 0
-1343 11 0
-1343 1342 0
-1344 405 963 1222 1224 942 0
1344 -405 0
1344 -963 0
1344 -1222 0
1344 -1224 0
1344 -942 0
1345 -434 -1344 0
-1345 434 0
-1345 1344 0
-1346 405 963 586 1227 942 0
1346 -405 0
1346 -963 0
1346 -586 0
1346 -1227 0
1346 -942 0
1347 -427 -1346 0
-1347 427 0
-1347 1346 0
-1348 5 1347 1116 355 0
1348 -5 0
1348 -1347 0
1348 -1116 0
1348 -355 0
1349 -9 -1348 0
-1349 9 0
-1349 1348 0
-1350 405 963 1222 1224 0
1350 -405 0
1350 -963 0
1350 -1222 0
1350 -1224 0
1351 -407 -1350 0
-1351 407 0
-1351 1350 0
-1352 409 1351 0
1352 -409 0
1352 -1351 0
1353 -414 -1352 0
-1353 414 0
-1353 1352 0
-1354 28 1353 894 0
1354 -28 0
1354 -1353 0
1354 -894 0
1355 -30 -1354 0
-1355 30 0
-1355 1354 0
-1356 32 926 1345 1349 1355 0
1356 -32 0
1356 -926 0
1356 -1345 0
1356 -1349 0
1356 -1355 0
1357 -142 -1356 0
-1357 142 0
-1357 1356 0
-1358 405 963 625 1240 942 0
1358 -405 0
1358 -963 0
1358 -625 0
1358 -1240 0
1358 -942 0
1359 -427 -1358 0
-1359 427 0
-1359 1358 0
-1360 5 1359 1122 166 0
1360 -5 0
1360 -1359 0
1360 -1122 0
1360 -166 0
1361 -7 -1360 0
-1361 7 0
-1361 1360 0
1362 -434 -1358 0
-1362 434 0
-1362 1358 0
1363 -9 -1360 0
-1363 9 0
-1363 1360 0
-1364 405 963 625 1240 0
1364 -405 0
1364 -963 0
1364 -625 0
1364 -1240 0
1365 -407 -1364 0
-1365 407 0
-1365 1364 0
-1366 409 1365 0
1366 -409 0
1366 -1365 0
1367 -414 -1366 0
-1367 414 0
-1367 1366 0
-1368 28 1367 894 0
1368 -28 0
1368 -1367 0
1368 -894 0
1369 -30 -1368 0
-1369 30 0
-1369 1368 0
-1370 32 926 1362 1363 1369 0
1370 -32 0
1370 -926 0
1370 -1362 0
1370 -1363 0
1370 -1369 0
1371 -34 -1370 0
-1371 34 0
-1371 1370 0
1372 -36 -1370 0
-1372 36 0
-1372 1370 0
-1373 38 1372 0
1373 -38 0
1373 -1372 0
1374 -40 -1373 0
-1374 40 0
-1374 1373 0
-1375 42 1361 1371 1374 0
1375 -42 0
1375 -1361 0
1375 -1371 0
1375 -1374 0
1376 -178 -1375 0
-1376 178 0
-1376 1375 0
1377 -197 -1054 0
-1377 197 0
-1377 1054 0
-1378 16 1343 1357 1376 1377 12 0
1378 -16 0
1378 -1343 0
1378 -1357 0
1378 -1376 0
1378 -1377 0
1378 -12 0
1379 -18 -1378 0
-1379 18 0
-1379 1378 0
1380 -201 -1375 0
-1380 201 0
-1380 1375 0
-1381 20 1379 1380 0
1381 -20 0
1381 -1379 0
1381 -1380 0
1382 -1100 -1381 0
-1382 1100 0
-1382 1381 0
-1383 1102 1269 1323 1382 0
1383 -1102 0
1383 -1269 0
1383 -1323 0
1383 -1382 0
1384 -1104 -1383 0
-1384 1104 0
-1384 1383 0
-1385 1106 1206 1384 0
1385 -1106 0
1385 -1206 0
1385 -1384 0
1386 -1387 -1385 0
-1386 1387 0
-1386 1385 0
1388 -411 -409 0
-1388 411 0
-1388 409 0
-1389 16 10 1270 12 0
1389 -16 0
1389 -10 0
1389 -1270 0
1389 -12 0
1390 -18 -1389 0
-1390 18 0
-1390 1389 0
-1391 20 1390 0
1391 -20 0
1391 -1390 0
1392 -22 -1391 0
-1392 22 0
-1392 1391 0
-1393 24 1392 0
1393 -24 0
1393 -1392 0
1394 -206 -1393 0
-1394 206 0
-1394 1393 0
-1395 208 1394 0
1395 -208 0
1395 -1394 0
1396 -670 -1395 0
-1396 670 0
-1396 1395 0
1397 -142 -927 0
-1397 142 0
-1397 927 0
-1398 16 10 1397 12 0
1398 -16 0
1398 -10 0
1398 -1397 0
1398 -12 0
1399 -18 -1398 0
-1399 18 0
-1399 1398 0
-1400 20 1399 0
1400 -20 0
1400 -1399 0
1401 -1100 -1400 0
-1401 1100 0
-1401 1400 0
-1402 1102 1396 1401 0
1402 -1102 0
1402 -1396 0
1402 -1401 0
1403 -1104 -1402 0
-1403 1104 0
-1403 1402 0
-1404 1106 1388 1403 0
1404 -1106 0
1404 -1388 0
1404 -1403 0
1405 -1406 -1404 0
-1405 1406 0
-1405 1404 0
1407 -1104 -1102 0
-1407 1104 0
-1407 1102 0
-1408 1106 1388 1407 0
1408 -1106 0
1408 -1388 0
1408 -1407 0
1409 -1410 -1408 0
-1409 1410 0
-1409 1408 0
-1411 28 1409 413 0
1411 -28 0
1411 -1409 0
1411 -413 0
1412 -30 -1411 0
-1412 30 0
-1412 1411 0
-1413 32 8 1412 0
1413 -32 0
1413 -8 0
1413 -1412 0
1414 -142 -1413 0
-1414 142 0
-1414 1413 0
1415 -1416 -1408 0
-1415 1416 0
-1415 1408 0
-1417 14 1415 0
1417 -14 0
1417 -1415 0
1418 -13 -1417 0
-1418 13 0
-1418 1417 0
-1419 16 10 1414 1418 0
1419 -16 0
1419 -10 0
1419 -1414 0
1419 -1418 0
1420 -18 -1419 0
-1420 18 0
-1420 1419 0
-1421 20 1420 0
1421 -20 0
1421 -1420 0
1422 -22 -1421 0
-1422 22 0
-1422 1421 0
-1423 24 1422 0
1423 -24 0
1423 -1422 0
1424 -206 -1423 0
-1424 206 0
-1424 1423 0
-1425 208 1424 0
1425 -208 0
1425 -1424 0
1426 -210 -1425 0
-1426 210 0
-1426 1425 0
1427 -206 -421 0
-1427 206 0
-1427 421 0
-1428 208 1427 0
1428 -208 0
1428 -1427 0
1429 -670 -1428 0
-1429 670 0
-1429 1428 0
1430 -142 -972 0
-1430 142 0
-1430 972 0
-1431 16 10 1430 12 0
1431 -16 0
1431 -10 0
1431 -1430 0
1431 -12 0
1432 -18 -1431 0
-1432 18 0
-1432 1431 0
-1433 20 1432 0
1433 -20 0
1433 -1432 0
1434 -1100 -1433 0
-1434 1100 0
-1434 1433 0
-1435 1102 1429 1434 0
1435 -1102 0
1435 -1429 0
1435 -1434 0
1436 -1104 -1435 0
-1436 1104 0
-1436 1435 0
-1437 1106 1388 1436 0
1437 -1106 0
1437 -1388 0
1437 -1436 0
1438 -1410 -1437 0
-1438 1410 0
-1438 1437 0
1439 -670 -208 0
-1439 670 0
-1439 208 0
-1440 1102 1439 0
1440 -1102 0
1440 -1439 0
1441 -1104 -1440 0
-1441 1104 0
-1441 1440 0
-1442 1106 1388 1441 0
1442 -1106 0
1442 -1388 0
1442 -1441 0
1443 -1416 -1442 0
-1443 1416 0
-1443 1442 0
-1444 14 1443 0
1444 -14 0
1444 -1443 0
1445 -13 -1444 0
-1445 13 0
-1445 1444 0
-1446 16 10 1296 1445 0
1446 -16 0
1446 -10 0
1446 -1296 0
1446 -1445 0
1447 -18 -1446 0
-1447 18 0
-1447 1446 0
-1448 20 1447 0
1448 -20 0
1448 -1447 0
1449 -22 -1448 0
-1449 22 0
-1449 1448 0
-1450 24 1449 0
1450 -24 0
1450 -1449 0
1451 -26 -1450 0
-1451 26 0
-1451 1450 0
-1452 28 1438 413 1451 0
1452 -28 0
1452 -1438 0
1452 -413 0
1452 -1451 0
1453 -403 -1452 0
-1453 403 0
-1453 1452 0
-1454 405 1405 1426 412 1453 0
1454 -405 0
1454 -1405 0
1454 -1426 0
1454 -412 0
1454 -1453 0
1455 -427 -1454 0
-1455 427 0
-1455 1454 0
-1456 5 1455 1 0
1456 -5 0
1456 -1455 0
1456 -1 0
1457 -7 -1456 0
-1457 7 0
-1457 1456 0
1458 -1406 -1408 0
-1458 1406 0
-1458 1408 0
1459 -403 -1411 0
-1459 403 0
-1459 1411 0
-1460 405 1458 412 1459 0
1460 -405 0
1460 -1458 0
1460 -412 0
1460 -1459 0
1461 -427 -1460 0
-1461 427 0
-1461 1460 0
-1462 5 1461 1 0
1462 -5 0
1462 -1461 0
1462 -1 0
1463 -11 -1462 0
-1463 11 0
-1463 1462 0
1464 -403 -28 0
-1464 403 0
-1464 28 0
-1465 405 412 1464 0
1465 -405 0
1465 -412 0
1465 -1464 0
1466 -407 -1465 0
-1466 407 0
-1466 1465 0
-1467 409 1466 0
1467 -409 0
1467 -1466 0
1468 -411 -1467 0
-1468 411 0
-1468 1467 0
1469 -893 -599 0
-1469 893 0
-1469 599 0
-1470 1102 1469 0
1470 -1102 0
1470 -1469 0
1471 -1104 -1470 0
-1471 1104 0
-1471 1470 0
-1472 1106 1468 1471 0
1472 -1106 0
1472 -1468 0
1472 -1471 0
1473 -1416 -1472 0
-1473 1416 0
-1473 1472 0
-1474 14 1473 0
1474 -14 0
1474 -1473 0
1475 -13 -1474 0
-1475 13 0
-1475 1474 0
-1476 16 1463 1475 0
1476 -16 0
1476 -1463 0
1476 -1475 0
1477 -18 -1476 0
-1477 18 0
-1477 1476 0
-1478 20 1477 0
1478 -20 0
1478 -1477 0
1479 -22 -1478 0
-1479 22 0
-1479 1478 0
-1480 24 1479 0
1480 -24 0
1480 -1479 0
1481 -206 -1480 0
-1481 206 0
-1481 1480 0
-1482 208 1481 0
1482 -208 0
1482 -1481 0
1483 -227 -1482 0
-1483 227 0
-1483 1482 0
1484 -206 -23 0
-1484 206 0
-1484 23 0
-1485 208 1484 0
1485 -208 0
1485 -1484 0
1486 -670 -1485 0
-1486 670 0
-1486 1485 0
1487 -893 -4 0
-1487 893 0
-1487 4 0
1488 -1100 -19 0
-1488 1100 0
-1488 19 0
-1489 1102 1486 1487 1488 0
1489 -1102 0
1489 -1486 0
1489 -1487 0
1489 -1488 0
1490 -1104 -1489 0
-1490 1104 0
-1490 1489 0
-1491 1106 1388 1490 0
1491 -1106 0
1491 -1388 0
1491 -1490 0
1492 -1406 -1491 0
-1492 1406 0
-1492 1491 0
-1493 1106 1388 1471 0
1493 -1106 0
1493 -1388 0
1493 -1471 0
1494 -1416 -1493 0
-1494 1416 0
-1494 1493 0
-1495 14 1494 0
1495 -14 0
1495 -1494 0
1496 -13 -1495 0
-1496 13 0
-1496 1495 0
-1497 16 10 1496 0
1497 -16 0
1497 -10 0
1497 -1496 0
1498 -18 -1497 0
-1498 18 0
-1498 1497 0
-1499 20 1498 0
1499 -20 0
1499 -1498 0
1500 -22 -1499 0
-1500 22 0
-1500 1499 0
-1501 24 1500 0
1501 -24 0
1501 -1500 0
1502 -206 -1501 0
-1502 206 0
-1502 1501 0
-1503 208 1502 0
1503 -208 0
1503 -1502 0
1504 -210 -1503 0
-1504 210 0
-1504 1503 0
1505 -1410 -1491 0
-1505 1410 0
-1505 1491 0
-1506 1102 1439 1487 0
1506 -1102 0
1506 -1439 0
1506 -1487 0
1507 -1104 -1506 0
-1507 1104 0
-1507 1506 0
-1508 1106 1388 1507 0
1508 -1106 0
1508 -1388 0
1508 -1507 0
1509 -1416 -1508 0
-1509 1416 0
-1509 1508 0
-1510 14 1509 0
1510 -14 0
1510 -1509 0
1511 -13 -1510 0
-1511 13 0
-1511 1510 0
-1512 16 10 1511 0
1512 -16 0
1512 -10 0
1512 -1511 0
1513 -18 -1512 0
-1513 18 0
-1513 1512 0
-1514 20 1513 0
1514 -20 0
1514 -1513 0
1515 -22 -1514 0
-1515 22 0
-1515 1514 0
-1516 24 1515 0
1516 -24 0
1516 -1515 0
1517 -26 -1516 0
-1517 26 0
-1517 1516 0
-1518 28 1505 413 1517 0
1518 -28 0
1518 -1505 0
1518 -413 0
1518 -1517 0
1519 -403 -1518 0
-1519 403 0
-1519 1518 0
-1520 405 1492 1504 412 1519 0
1520 -405 0
1520 -1492 0
1520 -1504 0
1520 -412 0
1520 -1519 0
1521 -434 -1520 0
-1521 434 0
-1521 1520 0
1522 -206 -1516 0
-1522 206 0
-1522 1516 0
-1523 208 1522 0
1523 -208 0
1523 -1522 0
1524 -210 -1523 0
-1524 210 0
-1524 1523 0
-1525 28 1505 413 1451 0
1525 -28 0
1525 -1505 0
1525 -413 0
1525 -1451 0
1526 -403 -1525 0
-1526 403 0
-1526 1525 0
-1527 405 1492 1524 412 1526 0
1527 -405 0
1527 -1492 0
1527 -1524 0
1527 -412 0
1527 -1526 0
1528 -427 -1527 0
-1528 427 0
-1528 1527 0
-1529 5 1528 1 0
1529 -5 0
1529 -1528 0
1529 -1 0
1530 -9 -1529 0
-1530 9 0
-1530 1529 0
1531 -210 -1485 0
-1531 210 0
-1531 1485 0
-1532 405 1531 412 0
1532 -405 0
1532 -1531 0
1532 -412 0
1533 -407 -1532 0
-1533 407 0
-1533 1532 0
-1534 409 1533 0
1534 -409 0
1534 -1533 0
1535 -411 -1534 0
-1535 411 0
-1535 1534 0
1536 -206 -449 0
-1536 206 0
-1536 449 0
-1537 208 1536 0
1537 -208 0
1537 -1536 0
1538 -670 -1537 0
-1538 670 0
-1538 1537 0
1539 -427 -840 0
-1539 427 0
-1539 840 0
-1540 5 1539 1 0
1540 -5 0
1540 -1539 0
1540 -1 0
1541 -893 -1540 0
-1541 893 0
-1541 1540 0
1542 -11 -1013 0
-1542 11 0
-1542 1013 0
-1543 16 1542 12 0
1543 -16 0
1543 -1542 0
1543 -12 0
1544 -18 -1543 0
-1544 18 0
-1544 1543 0
-1545 20 1544 0
1545 -20 0
1545 -1544 0
1546 -1100 -1545 0
-1546 1100 0
-1546 1545 0
-1547 1102 1538 1541 1546 0
1547 -1102 0
1547 -1538 0
1547 -1541 0
1547 -1546 0
1548 -1104 -1547 0
-1548 1104 0
-1548 1547 0
-1549 1106 1535 1548 0
1549 -1106 0
1549 -1535 0
1549 -1548 0
1550 -1410 -1549 0
-1550 1410 0
-1550 1549 0
-1551 405 1492 1524 412 0
1551 -405 0
1551 -1492 0
1551 -1524 0
1551 -412 0
1552 -407 -1551 0
-1552 407 0
-1552 1551 0
-1553 409 1552 0
1553 -409 0
1553 -1552 0
1554 -414 -1553 0
-1554 414 0
-1554 1553 0
1555 -1406 -1442 0
-1555 1406 0
-1555 1442 0
-1556 405 1555 963 412 0
1556 -405 0
1556 -1555 0
1556 -963 0
1556 -412 0
1557 -427 -1556 0
-1557 427 0
-1557 1556 0
-1558 5 1557 1 0
1558 -5 0
1558 -1557 0
1558 -1 0
1559 -11 -1558 0
-1559 11 0
-1559 1558 0
1560 -411 -968 0
-1560 411 0
-1560 968 0
1561 -427 -966 0
-1561 427 0
-1561 966 0
-1562 5 1561 1 0
1562 -5 0
1562 -1561 0
1562 -1 0
1563 -893 -1562 0
-1563 893 0
-1563 1562 0
-1564 1102 1439 1563 0
1564 -1102 0
1564 -1439 0
1564 -1563 0
1565 -1104 -1564 0
-1565 1104 0
-1565 1564 0
-1566 1106 1560 1565 0
1566 -1106 0
1566 -1560 0
1566 -1565 0
1567 -1416 -1566 0
-1567 1416 0
-1567 1566 0
-1568 14 1567 0
1568 -14 0
1568 -1567 0
1569 -13 -1568 0
-1569 13 0
-1569 1568 0
-1570 16 1559 1569 0
1570 -16 0
1570 -1559 0
1570 -1569 0
1571 -18 -1570 0
-1571 18 0
-1571 1570 0
-1572 20 1571 0
1572 -20 0
1572 -1571 0
1573 -22 -1572 0
-1573 22 0
-1573 1572 0
-1574 24 1573 0
1574 -24 0
1574 -1573 0
1575 -26 -1574 0
-1575 26 0
-1575 1574 0
-1576 28 1550 1554 1575 0
1576 -28 0
1576 -1550 0
1576 -1554 0
1576 -1575 0
1577 -30 -1576 0
-1577 30 0
-1577 1576 0
-1578 32 1483 1521 1530 1577 0
1578 -32 0
1578 -1483 0
1578 -1521 0
1578 -1530 0
1578 -1577 0
1579 -34 -1578 0
-1579 34 0
-1579 1578 0
-1580 405 1492 1524 412 1519 0
1580 -405 0
1580 -1492 0
1580 -1524 0
1580 -412 0
1580 -1519 0
1581 -434 -1580 0
-1581 434 0
-1581 1580 0
1582 -11 -1562 0
-1582 11 0
-1582 1562 0
-1583 16 1582 12 0
1583 -16 0
1583 -1582 0
1583 -12 0
1584 -18 -1583 0
-1584 18 0
-1584 1583 0
-1585 20 1584 0
1585 -20 0
1585 -1584 0
1586 -1100 -1585 0
-1586 1100 0
-1586 1585 0
-1587 1102 1538 1541 1586 0
1587 -1102 0
1587 -1538 0
1587 -1541 0
1587 -1586 0
1588 -1104 -1587 0
-1588 1104 0
-1588 1587 0
-1589 1106 1535 1588 0
1589 -1106 0
1589 -1535 0
1589 -1588 0
1590 -1410 -1589 0
-1590 1410 0
-1590 1589 0
-1591 28 1590 1554 1575 0
1591 -28 0
1591 -1590 0
1591 -1554 0
1591 -1575 0
1592 -30 -1591 0
-1592 30 0
-1592 1591 0
-1593 32 1483 1581 1530 1592 0
1593 -32 0
1593 -1483 0
1593 -1581 0
1593 -1530 0
1593 -1592 0
1594 -36 -1593 0
-1594 36 0
-1594 1593 0
-1595 38 1594 0
1595 -38 0
1595 -1594 0
1596 -40 -1595 0
-1596 40 0
-1596 1595 0
-1597 42 1457 1579 1596 0
1597 -42 0
1597 -1457 0
1597 -1579 0
1597 -1596 0
1598 -44 -1597 0
-1598 44 0
-1598 1597 0
-1599 46 1598 0
1599 -46 0
1599 -1598 0
1600 -48 -1599 0
-1600 48 0
-1600 1599 0
-1601 50 1600 0
1601 -50 0
1601 -1600 0
1602 -52 -1601 0
-1602 52 0
-1602 1601 0
-1603 16 1114 1120 1132 1133 0
1603 -16 0
1603 -1114 0
1603 -1120 0
1603 -1132 0
1603 -1133 0
1604 -18 -1603 0
-1604 18 0
-1604 1603 0
-1605 20 1604 1136 0
1605 -20 0
1605 -1604 0
1605 -1136 0
1606 -22 -1605 0
-1606 22 0
-1606 1605 0
-1607 24 1606 0
1607 -24 0
1607 -1606 0
1608 -206 -1607 0
-1608 206 0
-1608 1607 0
-1609 208 1608 0
1609 -208 0
1609 -1608 0
1610 -210 -1609 0
-1610 210 0
-1610 1609 0
-1611 16 1145 218 0
1611 -16 0
1611 -1145 0
1611 -218 0
1612 -18 -1611 0
-1612 18 0
-1612 1611 0
-1613 20 1612 0
1613 -20 0
1613 -1612 0
1614 -22 -1613 0
-1614 22 0
-1614 1613 0
-1615 24 1614 0
1615 -24 0
1615 -1614 0
1616 -206 -1615 0
-1616 206 0
-1616 1615 0
-1617 208 215 1616 0
1617 -208 0
1617 -215 0
1617 -1616 0
1618 -227 -1617 0
-1618 227 0
-1618 1617 0
1619 -26 -1615 0
-1619 26 0
-1619 1615 0
-1620 28 1619 0
1620 -28 0
1620 -1619 0
1621 -30 -1620 0
-1621 30 0
-1621 1620 0
-1622 32 1618 1154 1621 0
1622 -32 0
1622 -1618 0
1622 -1154 0
1622 -1621 0
1623 -34 -1622 0
-1623 34 0
-1623 1622 0
1624 -36 -1622 0
-1624 36 0
-1624 1622 0
-1625 38 1624 0
1625 -38 0
1625 -1624 0
1626 -40 -1625 0
-1626 40 0
-1626 1625 0
-1627 42 1144 1623 1626 0
1627 -42 0
1627 -1144 0
1627 -1623 0
1627 -1626 0
1628 -44 -1627 0
-1628 44 0
-1628 1627 0
-1629 46 1628 0
1629 -46 0
1629 -1628 0
1630 -241 -1629 0
-1630 241 0
-1630 1629 0
-1631 16 244 218 0
1631 -16 0
1631 -244 0
1631 -218 0
1632 -18 -1631 0
-1632 18 0
-1632 1631 0
-1633 20 1632 0
1633 -20 0
1633 -1632 0
1634 -22 -1633 0
-1634 22 0
-1634 1633 0
-1635 24 1634 0
1635 -24 0
1635 -1634 0
1636 -206 -1635 0
-1636 206 0
-1636 1635 0
-1637 208 215 1636 0
1637 -208 0
1637 -215 0
1637 -1636 0
1638 -227 -1637 0
-1638 227 0
-1638 1637 0
1639 -26 -1635 0
-1639 26 0
-1639 1635 0
-1640 28 1639 0
1640 -28 0
1640 -1639 0
1641 -30 -1640 0
-1641 30 0
-1641 1640 0
-1642 32 1638 253 1641 0
1642 -32 0
1642 -1638 0
1642 -253 0
1642 -1641 0
1643 -34 -1642 0
-1643 34 0
-1643 1642 0
1644 -36 -1642 0
-1644 36 0
-1644 1642 0
-1645 38 1644 0
1645 -38 0
1645 -1644 0
1646 -40 -1645 0
-1646 40 0
-1646 1645 0
-1647 42 243 1643 1646 0
1647 -42 0
1647 -243 0
1647 -1643 0
1647 -1646 0
1648 -44 -1647 0
-1648 44 0
-1648 1647 0
-1649 46 1648 0
1649 -46 0
1649 -1648 0
1650 -73 -1649 0
-1650 73 0
-1650 1649 0
-1651 3 1650 0
1651 -3 0
1651 -1650 0
1652 -295 -1651 0
-1652 295 0
-1652 1651 0
-1653 16 1183 1185 1192 1193 0
1653 -16 0
1653 -1183 0
1653 -1185 0
1653 -1192 0
1653 -1193 0
1654 -18 -1653 0
-1654 18 0
-1654 1653 0
-1655 20 1654 1196 0
1655 -20 0
1655 -1654 0
1655 -1196 0
1656 -22 -1655 0
-1656 22 0
-1656 1655 0
-1657 24 1656 0
1657 -24 0
1657 -1656 0
1658 -26 -1657 0
-1658 26 0
-1658 1657 0
-1659 28 1658 0
1659 -28 0
1659 -1658 0
1660 -403 -1659 0
-1660 403 0
-1660 1659 0
-1661 405 1610 1630 1652 1660 0
1661 -405 0
1661 -1610 0
1661 -1630 0
1661 -1652 0
1661 -1660 0
1662 -407 -1661 0
-1662 407 0
-1662 1661 0
-1663 409 1662 0
1663 -409 0
1663 -1662 0
1664 -411 -1663 0
-1664 411 0
-1664 1663 0
-1665 16 1218 1239 1259 1260 0
1665 -16 0
1665 -1218 0
1665 -1239 0
1665 -1259 0
1665 -1260 0
1666 -18 -1665 0
-1666 18 0
-1666 1665 0
-1667 20 1666 1263 0
1667 -20 0
1667 -1666 0
1667 -1263 0
1668 -22 -1667 0
-1668 22 0
-1668 1667 0
-1669 24 1668 0
1669 -24 0
1669 -1668 0
1670 -206 -1669 0
-1670 206 0
-1670 1669 0
-1671 208 1670 0
1671 -208 0
1671 -1670 0
1672 -670 -1671 0
-1672 670 0
-1672 1671 0
-1673 16 1270 1271 1272 0
1673 -16 0
1673 -1270 0
1673 -1271 0
1673 -1272 0
1674 -18 -1673 0
-1674 18 0
-1674 1673 0
-1675 20 1674 1275 0
1675 -20 0
1675 -1674 0
1675 -1275 0
1676 -22 -1675 0
-1676 22 0
-1676 1675 0
-1677 24 1676 0
1677 -24 0
1677 -1676 0
1678 -206 -1677 0
-1678 206 0
-1678 1677 0
-1679 208 1678 0
1679 -208 0
1679 -1678 0
1680 -210 -1679 0
-1680 210 0
-1680 1679 0
-1681 28 413 1619 0
1681 -28 0
1681 -413 0
1681 -1619 0
1682 -30 -1681 0
-1682 30 0
-1682 1681 0
-1683 32 1618 1682 0
1683 -32 0
1683 -1618 0
1683 -1682 0
1684 -34 -1683 0
-1684 34 0
-1684 1683 0
1685 -36 -1683 0
-1685 36 0
-1685 1683 0
-1686 38 1685 0
1686 -38 0
1686 -1685 0
1687 -40 -1686 0
-1687 40 0
-1687 1686 0
-1688 42 1684 1687 0
1688 -42 0
1688 -1684 0
1688 -1687 0
1689 -44 -1688 0
-1689 44 0
-1689 1688 0
-1690 46 1689 0
1690 -46 0
1690 -1689 0
1691 -241 -1690 0
-1691 241 0
-1691 1690 0
-1692 28 413 1639 0
1692 -28 0
1692 -413 0
1692 -1639 0
1693 -30 -1692 0
-1693 30 0
-1693 1692 0
-1694 32 1638 1693 0
1694 -32 0
1694 -1638 0
1694 -1693 0
1695 -34 -1694 0
-1695 34 0
-1695 1694 0
1696 -36 -1694 0
-1696 36 0
-1696 1694 0
-1697 38 1696 0
1697 -38 0
1697 -1696 0
1698 -40 -1697 0
-1698 40 0
-1698 1697 0
-1699 42 1695 1698 0
1699 -42 0
1699 -1695 0
1699 -1698 0
1700 -44 -1699 0
-1700 44 0
-1700 1699 0
-1701 46 1700 0
1701 -46 0
1701 -1700 0
1702 -73 -1701 0
-1702 73 0
-1702 1701 0
-1703 3 1702 0
1703 -3 0
1703 -1702 0
1704 -295 -1703 0
-1704 295 0
-1704 1703 0
-1705 16 1296 1297 1298 0
1705 -16 0
1705 -1296 0
1705 -1297 0
1705 -1298 0
1706 -18 -1705 0
-1706 18 0
-1706 1705 0
-1707 20 1706 1301 0
1707 -20 0
1707 -1706 0
1707 -1301 0
1708 -22 -1707 0
-1708 22 0
-1708 1707 0
-1709 24 1708 0
1709 -24 0
1709 -1708 0
1710 -26 -1709 0
-1710 26 0
-1710 1709 0
-1711 28 413 1710 0
1711 -28 0
1711 -413 0
1711 -1710 0
1712 -403 -1711 0
-1712 403 0
-1712 1711 0
-1713 405 1680 1691 1704 1712 0
1713 -405 0
1713 -1680 0
1713 -1691 0
1713 -1704 0
1713 -1712 0
1714 -427 -1713 0
-1714 427 0
-1714 1713 0
-1715 16 218 0
1715 -16 0
1715 -218 0
1716 -18 -1715 0
-1716 18 0
-1716 1715 0
-1717 20 1716 0
1717 -20 0
1717 -1716 0
1718 -22 -1717 0
-1718 22 0
-1718 1717 0
-1719 24 1718 0
1719 -24 0
1719 -1718 0
1720 -206 -1719 0
-1720 206 0
-1720 1719 0
-1721 208 215 1720 0
1721 -208 0
1721 -215 0
1721 -1720 0
1722 -227 -1721 0
-1722 227 0
-1722 1721 0
1723 -210 -1637 0
-1723 210 0
-1723 1637 0
1724 -403 -1692 0
-1724 403 0
-1724 1692 0
-1725 405 1723 412 1724 0
1725 -405 0
1725 -1723 0
1725 -412 0
1725 -1724 0
1726 -434 -1725 0
-1726 434 0
-1726 1725 0
-1727 405 1723 412 0
1727 -405 0
1727 -1723 0
1727 -412 0
1728 -407 -1727 0
-1728 407 0
-1728 1727 0
-1729 409 1728 0
1729 -409 0
1729 -1728 0
1730 -414 -1729 0
-1730 414 0
-1730 1729 0
1731 -26 -1719 0
-1731 26 0
-1731 1719 0
-1732 28 1730 1731 0
1732 -28 0
1732 -1730 0
1732 -1731 0
1733 -30 -1732 0
-1733 30 0
-1733 1732 0
-1734 32 1722 1726 1733 0
1734 -32 0
1734 -1722 0
1734 -1726 0
1734 -1733 0
1735 -34 -1734 0
-1735 34 0
-1735 1734 0
1736 -36 -1734 0
-1736 36 0
-1736 1734 0
-1737 38 1736 0
1737 -38 0
1737 -1736 0
1738 -40 -1737 0
-1738 40 0
-1738 1737 0
-1739 42 1735 1738 0
1739 -42 0
1739 -1735 0
1739 -1738 0
1740 -44 -1739 0
-1740 44 0
-1740 1739 0
-1741 46 1740 0
1741 -46 0
1741 -1740 0
1742 -73 -1741 0
-1742 73 0
-1742 1741 0
-1743 3 1742 0
1743 -3 0
1743 -1742 0
1744 -2 -1743 0
-1744 2 0
-1744 1743 0
-1745 208 1720 0
1745 -208 0
1745 -1720 0
1746 -227 -1745 0
-1746 227 0
-1746 1745 0
1747 -210 -1745 0
-1747 210 0
-1747 1745 0
-1748 28 413 1731 0
1748 -28 0
1748 -413 0
1748 -1731 0
1749 -403 -1748 0
-1749 403 0
-1749 1748 0
-1750 405 1747 412 1749 0
1750 -405 0
1750 -1747 0
1750 -412 0
1750 -1749 0
1751 -434 -1750 0
-1751 434 0
-1751 1750 0
-1752 405 1747 412 0
1752 -405 0
1752 -1747 0
1752 -412 0
1753 -407 -1752 0
-1753 407 0
-1753 1752 0
-1754 409 1753 0
1754 -409 0
1754 -1753 0
1755 -414 -1754 0
-1755 414 0
-1755 1754 0
-1756 28 1755 1731 0
1756 -28 0
1756 -1755 0
1756 -1731 0
1757 -30 -1756 0
-1757 30 0
-1757 1756 0
-1758 32 1746 1751 1757 0
1758 -32 0
1758 -1746 0
1758 -1751 0
1758 -1757 0
1759 -34 -1758 0
-1759 34 0
-1759 1758 0
1760 -36 -1758 0
-1760 36 0
-1760 1758 0
-1761 38 1760 0
1761 -38 0
1761 -1760 0
1762 -40 -1761 0
-1762 40 0
-1762 1761 0
-1763 42 1759 1762 0
1763 -42 0
1763 -1759 0
1763 -1762 0
1764 -44 -1763 0
-1764 44 0
-1764 1763 0
-1765 46 1764 0
1765 -46 0
1765 -1764 0
1766 -48 -1765 0
-1766 48 0
-1766 1765 0
-1767 50 1766 0
1767 -50 0
1767 -1766 0
1768 -105 -1767 0
-1768 105 0
-1768 1767 0
-1769 5 1714 1744 1768 0
1769 -5 0
1769 -1714 0
1769 -1744 0
1769 -1768 0
1770 -893 -1769 0
-1770 893 0
-1770 1769 0
-1771 16 1343 1357 1376 1377 0
1771 -16 0
1771 -1343 0
1771 -1357 0
1771 -1376 0
1771 -1377 0
1772 -18 -1771 0
-1772 18 0
-1772 1771 0
-1773 20 1772 1380 0
1773 -20 0
1773 -1772 0
1773 -1380 0
1774 -1100 -1773 0
-1774 1100 0
-1774 1773 0
-1775 1102 1672 1770 1774 0
1775 -1102 0
1775 -1672 0
1775 -1770 0
1775 -1774 0
1776 -1104 -1775 0
-1776 1104 0
-1776 1775 0
-1777 1106 1664 1776 0
1777 -1106 0
1777 -1664 0
1777 -1776 0
1778 -1416 -1777 0
-1778 1416 0
-1778 1777 0
-1779 14 1778 0
1779 -14 0
1779 -1778 0
1780 -54 -1779 0
-1780 54 0
-1780 1779 0
-1781 56 1386 1602 1780 0
1781 -56 0
1781 -1386 0
1781 -1602 0
1781 -1780 0
1782 -1783 -1781 0
-1782 1783 0
-1782 1781 0
-1784 1785 1107 1782 0
1784 -1785 0
1784 -1107 0
1784 -1782 0
1786 -1784 -1787 0
-1786 1784 0
-1786 1787 0
1786 0
