c BC-S1.2
p cnf 232 659
1 -2 -3 0
-1 2 0
-1 3 0
4 -5 -6 0
-4 5 0
-4 6 0
-7 8 4 0
7 -8 0
7 -4 0
9 -10 -7 0
-9 10 0
-9 7 0
-11 12 9 0
11 -12 0
11 -9 0
13 -14 -11 0
-13 14 0
-13 11 0
-15 16 13 0
15 -16 0
15 -13 0
17 -18 -15 0
-17 18 0
-17 15 0
-19 20 17 0
19 -20 0
19 -17 0
21 -22 -19 0
-21 22 0
-21 19 0
23 -24 -20 0
-23 24 0
-23 20 0
-25 16 23 13 0
25 -16 0
25 -23 0
25 -13 0
26 -27 -25 0
-26 27 0
-26 25 0
-28 29 1 21 26 0
28 -29 0
28 -1 0
28 -21 0
28 -26 0
30 -31 -28 0
-30 31 0
-30 28 0
32 -27 -15 0
-32 27 0
-32 15 0
-33 29 1 32 0
33 -29 0
33 -1 0
33 -32 0
34 -35 -33 0
-34 35 0
-34 33 0
-36 29 1 0
36 -29 0
36 -1 0
37 -38 -36 0
-37 38 0
-37 36 0
-39 16 37 13 0
39 -16 0
39 -37 0
39 -13 0
40 -18 -39 0
-40 18 0
-40 39 0
-41 20 34 40 0
41 -20 0
41 -34 0
41 -40 0
42 -43 -41 0
-42 43 0
-42 41 0
44 -22 -20 0
-44 22 0
-44 20 0
-45 29 1 44 0
45 -29 0
45 -1 0
45 -44 0
46 -38 -45 0
-46 38 0
-46 45 0
47 -35 -36 0
-47 35 0
-47 36 0
-48 20 47 0
48 -20 0
48 -47 0
49 -24 -48 0
-49 24 0
-49 48 0
-50 16 46 49 13 0
50 -16 0
50 -46 0
50 -49 0
50 -13 0
51 -52 -50 0
-51 52 0
-51 50 0
-53 54 30 42 51 0
53 -54 0
53 -30 0
53 -42 0
53 -51 0
55 -56 -53 0
-55 56 0
-55 53 0
57 -43 -19 0
-57 43 0
-57 19 0
58 -52 -25 0
-58 52 0
-58 25 0
-59 54 57 58 0
59 -54 0
59 -57 0
59 -58 0
60 -61 -59 0
-60 61 0
-60 59 0
62 -52 -15 0
-62 52 0
-62 15 0
-63 54 62 0
63 -54 0
63 -62 0
64 -65 -63 0
-64 65 0
-64 63 0
66 -67 -54 0
-66 67 0
-66 54 0
-68 16 66 13 0
68 -16 0
68 -66 0
68 -13 0
69 -18 -68 0
-69 18 0
-69 68 0
-70 20 64 69 0
70 -20 0
70 -64 0
70 -69 0
71 -22 -70 0
-71 22 0
-71 70 0
72 -43 -20 0
-72 43 0
-72 20 0
-73 54 72 0
73 -54 0
73 -72 0
74 -67 -73 0
-74 67 0
-74 73 0
75 -65 -54 0
-75 65 0
-75 54 0
-76 20 75 0
76 -20 0
76 -75 0
77 -24 -76 0
-77 24 0
-77 76 0
-78 16 74 77 13 0
78 -16 0
78 -74 0
78 -77 0
78 -13 0
79 -27 -78 0
-79 27 0
-79 78 0
-80 29 60 71 79 0
80 -29 0
80 -60 0
80 -71 0
80 -79 0
81 -82 -80 0
-81 82 0
-81 80 0
-83 3 81 0
83 -3 0
83 -81 0
84 -85 -83 0
-84 85 0
-84 83 0
-86 29 60 1 71 79 0
86 -29 0
86 -60 0
86 -1 0
86 -71 0
86 -79 0
87 -88 -86 0
-87 88 0
-87 86 0
-89 90 55 84 87 0
89 -90 0
89 -55 0
89 -84 0
89 -87 0
91 -92 -89 0
-91 92 0
-91 89 0
-93 29 21 26 0
93 -29 0
93 -21 0
93 -26 0
94 -31 -93 0
-94 31 0
-94 93 0
-95 29 32 0
95 -29 0
95 -32 0
96 -35 -95 0
-96 35 0
-96 95 0
97 -38 -29 0
-97 38 0
-97 29 0
-98 16 97 13 0
98 -16 0
98 -97 0
98 -13 0
99 -18 -98 0
-99 18 0
-99 98 0
-100 20 96 99 0
100 -20 0
100 -96 0
100 -99 0
101 -43 -100 0
-101 43 0
-101 100 0
-102 29 44 0
102 -29 0
102 -44 0
103 -38 -102 0
-103 38 0
-103 102 0
104 -35 -29 0
-104 35 0
-104 29 0
-105 20 104 0
105 -20 0
105 -104 0
106 -24 -105 0
-106 24 0
-106 105 0
-107 16 103 106 13 0
107 -16 0
107 -103 0
107 -106 0
107 -13 0
108 -52 -107 0
-108 52 0
-108 107 0
-109 54 94 101 108 0
109 -54 0
109 -94 0
109 -101 0
109 -108 0
110 -56 -109 0
-110 56 0
-110 109 0
111 -88 -80 0
-111 88 0
-111 80 0
-112 90 110 111 0
112 -90 0
112 -110 0
112 -111 0
113 -114 -112 0
-113 114 0
-113 112 0
115 -56 -59 0
-115 56 0
-115 59 0
-116 90 115 0
116 -90 0
116 -115 0
117 -118 -116 0
-117 118 0
-117 116 0
119 -120 -90 0
-119 120 0
-119 90 0
-121 54 119 57 58 0
121 -54 0
121 -119 0
121 -57 0
121 -58 0
122 -61 -121 0
-122 61 0
-122 121 0
-123 54 119 62 0
123 -54 0
123 -119 0
123 -62 0
124 -65 -123 0
-124 65 0
-124 123 0
-125 54 119 0
125 -54 0
125 -119 0
126 -67 -125 0
-126 67 0
-126 125 0
-127 16 126 13 0
127 -16 0
127 -126 0
127 -13 0
128 -18 -127 0
-128 18 0
-128 127 0
-129 20 124 128 0
129 -20 0
129 -124 0
129 -128 0
130 -22 -129 0
-130 22 0
-130 129 0
-131 54 119 72 0
131 -54 0
131 -119 0
131 -72 0
132 -67 -131 0
-132 67 0
-132 131 0
133 -65 -125 0
-133 65 0
-133 125 0
-134 20 133 0
134 -20 0
134 -133 0
135 -24 -134 0
-135 24 0
-135 134 0
-136 16 132 135 13 0
136 -16 0
136 -132 0
136 -135 0
136 -13 0
137 -27 -136 0
-137 27 0
-137 136 0
-138 29 117 122 130 137 0
138 -29 0
138 -117 0
138 -122 0
138 -130 0
138 -137 0
139 -82 -138 0
-139 82 0
-139 138 0
-140 3 113 139 0
140 -3 0
140 -113 0
140 -139 0
141 -142 -140 0
-141 142 0
-141 140 0
143 -85 -3 0
-143 85 0
-143 3 0
-144 90 115 143 0
144 -90 0
144 -115 0
144 -143 0
145 -118 -144 0
-145 118 0
-145 144 0
-146 90 143 0
146 -90 0
146 -143 0
147 -120 -146 0
-147 120 0
-147 146 0
-148 54 147 57 58 0
148 -54 0
148 -147 0
148 -57 0
148 -58 0
149 -61 -148 0
-149 61 0
-149 148 0
150 -114 -116 0
-150 114 0
-150 116 0
-151 3 150 0
151 -3 0
151 -150 0
152 -2 -151 0
-152 2 0
-152 151 0
-153 54 147 62 0
153 -54 0
153 -147 0
153 -62 0
154 -65 -153 0
-154 65 0
-154 153 0
-155 54 147 0
155 -54 0
155 -147 0
156 -67 -155 0
-156 67 0
-156 155 0
-157 16 156 13 0
157 -16 0
157 -156 0
157 -13 0
158 -18 -157 0
-158 18 0
-158 157 0
-159 20 154 158 0
159 -20 0
159 -154 0
159 -158 0
160 -22 -159 0
-160 22 0
-160 159 0
-161 54 147 72 0
161 -54 0
161 -147 0
161 -72 0
162 -67 -161 0
-162 67 0
-162 161 0
163 -65 -155 0
-163 65 0
-163 155 0
-164 20 163 0
164 -20 0
164 -163 0
165 -24 -164 0
-165 24 0
-165 164 0
-166 16 162 165 13 0
166 -16 0
166 -162 0
166 -165 0
166 -13 0
167 -27 -166 0
-167 27 0
-167 166 0
-168 29 145 149 152 160 167 0
168 -29 0
168 -145 0
168 -149 0
168 -152 0
168 -160 0
168 -167 0
169 -170 -168 0
-169 170 0
-169 168 0
171 -82 -102 0
-171 82 0
-171 102 0
-172 3 171 0
172 -3 0
172 -171 0
173 -85 -172 0
-173 85 0
-173 172 0
174 -88 -45 0
-174 88 0
-174 45 0
-175 90 173 174 0
175 -90 0
175 -173 0
175 -174 0
176 -120 -175 0
-176 120 0
-176 175 0
177 -118 -146 0
-177 118 0
-177 146 0
178 -114 -90 0
-178 114 0
-178 90 0
-179 3 178 0
179 -3 0
179 -178 0
180 -2 -179 0
-180 2 0
-180 179 0
-181 29 177 180 44 0
181 -29 0
181 -177 0
181 -180 0
181 -44 0
182 -31 -181 0
-182 31 0
-182 181 0
-183 29 177 180 0
183 -29 0
183 -177 0
183 -180 0
184 -35 -183 0
-184 35 0
-184 183 0
-185 20 184 0
185 -20 0
185 -184 0
186 -43 -185 0
-186 43 0
-186 185 0
-187 54 176 182 186 0
187 -54 0
187 -176 0
187 -182 0
187 -186 0
188 -67 -187 0
-188 67 0
-188 187 0
189 -56 -73 0
-189 56 0
-189 73 0
-190 90 189 143 0
190 -90 0
190 -189 0
190 -143 0
191 -118 -190 0
-191 118 0
-191 190 0
192 -61 -161 0
-192 61 0
-192 161 0
-193 90 189 0
193 -90 0
193 -189 0
194 -114 -193 0
-194 114 0
-194 193 0
-195 3 194 0
195 -3 0
195 -194 0
196 -2 -195 0
-196 2 0
-196 195 0
197 -22 -164 0
-197 22 0
-197 164 0
-198 29 191 192 196 197 0
198 -29 0
198 -191 0
198 -192 0
198 -196 0
198 -197 0
199 -38 -198 0
-199 38 0
-199 198 0
200 -82 -29 0
-200 82 0
-200 29 0
-201 3 200 0
201 -3 0
201 -200 0
202 -85 -201 0
-202 85 0
-202 201 0
203 -88 -36 0
-203 88 0
-203 36 0
-204 90 202 203 0
204 -90 0
204 -202 0
204 -203 0
205 -120 -204 0
-205 120 0
-205 204 0
206 -31 -183 0
-206 31 0
-206 183 0
-207 54 205 206 0
207 -54 0
207 -205 0
207 -206 0
208 -65 -207 0
-208 65 0
-208 207 0
209 -56 -54 0
-209 56 0
-209 54 0
-210 90 209 143 0
210 -90 0
210 -209 0
210 -143 0
211 -118 -210 0
-211 118 0
-211 210 0
212 -61 -155 0
-212 61 0
-212 155 0
213 -114 -210 0
-213 114 0
-213 210 0
-214 3 213 0
214 -3 0
214 -213 0
215 -2 -214 0
-215 2 0
-215 214 0
-216 29 211 212 215 0
216 -29 0
216 -211 0
216 -212 0
216 -215 0
217 -35 -216 0
-217 35 0
-217 216 0
-218 20 208 217 0
218 -20 0
218 -208 0
218 -217 0
219 -24 -218 0
-219 24 0
-219 218 0
-220 16 188 199 219 13 0
220 -16 0
220 -188 0
220 -199 0
220 -219 0
220 -13 0
221 -222 -220 0
-221 222 0
-221 220 0
-223 16 188 199 219 0
223 -16 0
223 -188 0
223 -199 0
223 -219 0
224 -225 -223 0
-224 225 0
-224 223 0
-226 12 224 9 0
226 -12 0
226 -224 0
226 -9 0
227 -228 -226 0
-227 228 0
-227 226 0
-229 230 91 141 169 221 227 0
229 -230 0
229 -91 0
229 -141 0
229 -169 0
229 -221 0
229 -227 0
231 -229 -232 0
-231 229 0
-231 232 0
231 0
