c BC-S1.2
p cnf 513 1540
1 -2 -3 0
-1 2 0
-1 3 0
4 -5 -3 0
-4 5 0
-4 3 0
-6 7 4 0
6 -7 0
6 -4 0
8 -9 -6 0
-8 9 0
-8 6 0
-10 11 8 0
10 -11 0
10 -8 0
12 -13 -10 0
-12 13 0
-12 10 0
-14 15 1 12 0
14 -15 0
14 -1 0
14 -12 0
16 -17 -14 0
-16 17 0
-16 14 0
-18 19 16 0
18 -19 0
18 -16 0
20 -21 -18 0
-20 21 0
-20 18 0
22 -23 -10 0
-22 23 0
-22 10 0
-24 25 22 0
24 -25 0
24 -22 0
26 -27 -24 0
-26 27 0
-26 24 0
-28 29 26 0
28 -29 0
28 -26 0
30 -31 -28 0
-30 31 0
-30 28 0
-32 33 30 0
32 -33 0
32 -30 0
34 -35 -32 0
-34 35 0
-34 32 0
36 -37 -32 0
-36 37 0
-36 32 0
38 -39 -28 0
-38 39 0
-38 28 0
40 -41 -32 0
-40 41 0
-40 32 0
-42 43 40 0
42 -43 0
42 -40 0
44 -45 -42 0
-44 45 0
-44 42 0
-46 47 36 38 44 0
46 -47 0
46 -36 0
46 -38 0
46 -44 0
48 -49 -46 0
-48 49 0
-48 46 0
50 -51 -14 0
-50 51 0
-50 14 0
52 -53 -24 0
-52 53 0
-52 24 0
-54 55 34 48 50 52 0
54 -55 0
54 -34 0
54 -48 0
54 -50 0
54 -52 0
56 -57 -54 0
-56 57 0
-56 54 0
58 -45 -43 0
-58 45 0
-58 43 0
-59 47 38 58 0
59 -47 0
59 -38 0
59 -58 0
60 -49 -59 0
-60 49 0
-60 59 0
-61 55 60 50 52 0
61 -55 0
61 -60 0
61 -50 0
61 -52 0
62 -63 -61 0
-62 63 0
-62 61 0
-64 29 62 26 0
64 -29 0
64 -62 0
64 -26 0
65 -31 -64 0
-65 31 0
-65 64 0
-66 33 65 0
66 -33 0
66 -65 0
67 -68 -66 0
-67 68 0
-67 66 0
69 -35 -33 0
-69 35 0
-69 33 0
70 -37 -33 0
-70 37 0
-70 33 0
71 -41 -33 0
-71 41 0
-71 33 0
-72 43 71 0
72 -43 0
72 -71 0
73 -45 -72 0
-73 45 0
-73 72 0
-74 47 70 38 73 0
74 -47 0
74 -70 0
74 -38 0
74 -73 0
75 -49 -74 0
-75 49 0
-75 74 0
-76 55 69 75 50 52 0
76 -55 0
76 -69 0
76 -75 0
76 -50 0
76 -52 0
77 -63 -76 0
-77 63 0
-77 76 0
-78 29 77 26 0
78 -29 0
78 -77 0
78 -26 0
79 -80 -78 0
-79 80 0
-79 78 0
81 -82 -10 0
-81 82 0
-81 10 0
83 -84 -78 0
-83 84 0
-83 78 0
-85 86 83 0
85 -86 0
85 -83 0
87 -88 -85 0
-87 88 0
-87 85 0
89 -90 -54 0
-89 90 0
-89 54 0
91 -92 -18 0
-91 92 0
-91 18 0
93 -94 -54 0
-93 94 0
-93 54 0
95 -96 -78 0
-95 96 0
-95 78 0
97 -98 -99 0
-97 98 0
-97 99 0
-100 101 91 93 95 97 0
100 -101 0
100 -91 0
100 -93 0
100 -95 0
100 -97 0
102 -103 -100 0
-102 103 0
-102 100 0
-104 105 89 102 0
104 -105 0
104 -89 0
104 -102 0
106 -107 -104 0
-106 107 0
-106 104 0
108 -109 -18 0
-108 109 0
-108 18 0
110 -111 -14 0
-110 111 0
-110 14 0
-112 113 108 110 0
112 -113 0
112 -108 0
112 -110 0
114 -115 -112 0
-114 115 0
-114 112 0
-116 117 20 56 67 79 81 87 106 114 0
116 -117 0
116 -20 0
116 -56 0
116 -67 0
116 -79 0
116 -81 0
116 -87 0
116 -106 0
116 -114 0
118 -119 -116 0
-118 119 0
-118 116 0
120 -88 -86 0
-120 88 0
-120 86 0
-121 101 91 97 0
121 -101 0
121 -91 0
121 -97 0
122 -103 -121 0
-122 103 0
-122 121 0
-123 105 122 0
123 -105 0
123 -122 0
124 -107 -123 0
-124 107 0
-124 123 0
-125 117 20 81 120 124 114 0
125 -117 0
125 -20 0
125 -81 0
125 -120 0
125 -124 0
125 -114 0
126 -127 -125 0
-126 127 0
-126 125 0
-128 47 126 58 0
128 -47 0
128 -126 0
128 -58 0
129 -49 -128 0
-129 49 0
-129 128 0
130 -21 -19 0
-130 21 0
-130 19 0
131 -92 -19 0
-131 92 0
-131 19 0
-132 101 131 97 0
132 -101 0
132 -131 0
132 -97 0
133 -103 -132 0
-133 103 0
-133 132 0
-134 105 133 0
134 -105 0
134 -133 0
135 -107 -134 0
-135 107 0
-135 134 0
136 -109 -19 0
-136 109 0
-136 19 0
-137 113 136 110 0
137 -113 0
137 -136 0
137 -110 0
138 -115 -137 0
-138 115 0
-138 137 0
-139 117 130 81 120 135 138 0
139 -117 0
139 -130 0
139 -81 0
139 -120 0
139 -135 0
139 -138 0
140 -141 -139 0
-140 141 0
-140 139 0
-142 113 136 0
142 -113 0
142 -136 0
143 -115 -142 0
-143 115 0
-143 142 0
-144 117 130 81 120 135 143 0
144 -117 0
144 -130 0
144 -81 0
144 -120 0
144 -135 0
144 -143 0
145 -146 -144 0
-145 146 0
-145 144 0
-147 3 145 0
147 -3 0
147 -145 0
148 -2 -147 0
-148 2 0
-148 147 0
-149 117 130 120 135 143 0
149 -117 0
149 -130 0
149 -120 0
149 -135 0
149 -143 0
150 -146 -149 0
-150 146 0
-150 149 0
-151 3 150 0
151 -3 0
151 -150 0
152 -5 -151 0
-152 5 0
-152 151 0
-153 7 152 0
153 -7 0
153 -152 0
154 -9 -153 0
-154 9 0
-154 153 0
-155 11 154 0
155 -11 0
155 -154 0
156 -13 -155 0
-156 13 0
-156 155 0
-157 15 140 148 156 0
157 -15 0
157 -140 0
157 -148 0
157 -156 0
158 -51 -157 0
-158 51 0
-158 157 0
159 -17 -15 0
-159 17 0
-159 15 0
-160 19 159 0
160 -19 0
160 -159 0
161 -21 -160 0
-161 21 0
-161 160 0
162 -92 -160 0
-162 92 0
-162 160 0
-163 101 162 97 0
163 -101 0
163 -162 0
163 -97 0
164 -103 -163 0
-164 103 0
-164 163 0
-165 105 164 0
165 -105 0
165 -164 0
166 -107 -165 0
-166 107 0
-166 165 0
167 -109 -160 0
-167 109 0
-167 160 0
168 -111 -15 0
-168 111 0
-168 15 0
-169 113 167 168 0
169 -113 0
169 -167 0
169 -168 0
170 -115 -169 0
-170 115 0
-170 169 0
-171 117 161 120 166 170 0
171 -117 0
171 -161 0
171 -120 0
171 -166 0
171 -170 0
172 -146 -171 0
-172 146 0
-172 171 0
-173 3 172 0
173 -3 0
173 -172 0
174 -5 -173 0
-174 5 0
-174 173 0
-175 7 174 0
175 -7 0
175 -174 0
176 -9 -175 0
-176 9 0
-176 175 0
-177 11 176 0
177 -11 0
177 -176 0
178 -23 -177 0
-178 23 0
-178 177 0
-179 25 178 0
179 -25 0
179 -178 0
180 -53 -179 0
-180 53 0
-180 179 0
-181 55 129 158 180 0
181 -55 0
181 -129 0
181 -158 0
181 -180 0
182 -63 -181 0
-182 63 0
-182 181 0
-183 47 58 0
183 -47 0
183 -58 0
184 -49 -183 0
-184 49 0
-184 183 0
185 -51 -15 0
-185 51 0
-185 15 0
-186 55 184 185 0
186 -55 0
186 -184 0
186 -185 0
187 -57 -186 0
-187 57 0
-187 186 0
188 -90 -186 0
-188 90 0
-188 186 0
189 -94 -186 0
-189 94 0
-189 186 0
-190 101 162 189 97 0
190 -101 0
190 -162 0
190 -189 0
190 -97 0
191 -103 -190 0
-191 103 0
-191 190 0
-192 105 188 191 0
192 -105 0
192 -188 0
192 -191 0
193 -107 -192 0
-193 107 0
-193 192 0
-194 117 161 187 120 193 170 0
194 -117 0
194 -161 0
194 -187 0
194 -120 0
194 -193 0
194 -170 0
195 -146 -194 0
-195 146 0
-195 194 0
-196 3 195 0
196 -3 0
196 -195 0
197 -5 -196 0
-197 5 0
-197 196 0
-198 7 197 0
198 -7 0
198 -197 0
199 -9 -198 0
-199 9 0
-199 198 0
-200 11 199 0
200 -11 0
200 -199 0
201 -23 -200 0
-201 23 0
-201 200 0
-202 25 201 0
202 -25 0
202 -201 0
203 -27 -202 0
-203 27 0
-203 202 0
-204 29 182 203 0
204 -29 0
204 -182 0
204 -203 0
205 -31 -204 0
-205 31 0
-205 204 0
-206 33 205 0
206 -33 0
206 -205 0
207 -208 -206 0
-207 208 0
-207 206 0
-209 101 131 93 95 97 0
209 -101 0
209 -131 0
209 -93 0
209 -95 0
209 -97 0
210 -103 -209 0
-210 103 0
-210 209 0
-211 105 89 210 0
211 -105 0
211 -89 0
211 -210 0
212 -107 -211 0
-212 107 0
-212 211 0
-213 117 130 56 67 79 81 87 212 138 0
213 -117 0
213 -130 0
213 -56 0
213 -67 0
213 -79 0
213 -81 0
213 -87 0
213 -212 0
213 -138 0
214 -141 -213 0
-214 141 0
-214 213 0
-215 55 34 48 52 0
215 -55 0
215 -34 0
215 -48 0
215 -52 0
216 -57 -215 0
-216 57 0
-216 215 0
-217 55 60 52 0
217 -55 0
217 -60 0
217 -52 0
218 -63 -217 0
-218 63 0
-218 217 0
-219 29 218 26 0
219 -29 0
219 -218 0
219 -26 0
220 -31 -219 0
-220 31 0
-220 219 0
-221 33 220 0
221 -33 0
221 -220 0
222 -68 -221 0
-222 68 0
-222 221 0
-223 55 69 75 52 0
223 -55 0
223 -69 0
223 -75 0
223 -52 0
224 -63 -223 0
-224 63 0
-224 223 0
-225 29 224 26 0
225 -29 0
225 -224 0
225 -26 0
226 -80 -225 0
-226 80 0
-226 225 0
227 -84 -225 0
-227 84 0
-227 225 0
-228 86 227 0
228 -86 0
228 -227 0
229 -88 -228 0
-229 88 0
-229 228 0
230 -90 -215 0
-230 90 0
-230 215 0
231 -94 -215 0
-231 94 0
-231 215 0
232 -96 -225 0
-232 96 0
-232 225 0
-233 101 131 231 232 97 0
233 -101 0
233 -131 0
233 -231 0
233 -232 0
233 -97 0
234 -103 -233 0
-234 103 0
-234 233 0
-235 105 230 234 0
235 -105 0
235 -230 0
235 -234 0
236 -107 -235 0
-236 107 0
-236 235 0
-237 117 130 216 222 226 81 229 236 143 0
237 -117 0
237 -130 0
237 -216 0
237 -222 0
237 -226 0
237 -81 0
237 -229 0
237 -236 0
237 -143 0
238 -146 -237 0
-238 146 0
-238 237 0
-239 3 238 0
239 -3 0
239 -238 0
240 -2 -239 0
-240 2 0
-240 239 0
241 -27 -25 0
-241 27 0
-241 25 0
-242 29 241 0
242 -29 0
242 -241 0
243 -31 -242 0
-243 31 0
-243 242 0
-244 33 243 0
244 -33 0
244 -243 0
245 -35 -244 0
-245 35 0
-245 244 0
246 -37 -244 0
-246 37 0
-246 244 0
247 -39 -242 0
-247 39 0
-247 242 0
248 -41 -244 0
-248 41 0
-248 244 0
-249 43 248 0
249 -43 0
249 -248 0
250 -45 -249 0
-250 45 0
-250 249 0
-251 47 246 247 250 0
251 -47 0
251 -246 0
251 -247 0
251 -250 0
252 -49 -251 0
-252 49 0
-252 251 0
253 -53 -25 0
-253 53 0
-253 25 0
-254 55 245 252 185 253 0
254 -55 0
254 -245 0
254 -252 0
254 -185 0
254 -253 0
255 -57 -254 0
-255 57 0
-255 254 0
-256 55 184 185 253 0
256 -55 0
256 -184 0
256 -185 0
256 -253 0
257 -63 -256 0
-257 63 0
-257 256 0
-258 29 257 241 0
258 -29 0
258 -257 0
258 -241 0
259 -31 -258 0
-259 31 0
-259 258 0
-260 33 259 0
260 -33 0
260 -259 0
261 -68 -260 0
-261 68 0
-261 260 0
-262 47 70 73 0
262 -47 0
262 -70 0
262 -73 0
263 -49 -262 0
-263 49 0
-263 262 0
-264 55 69 263 185 253 0
264 -55 0
264 -69 0
264 -263 0
264 -185 0
264 -253 0
265 -63 -264 0
-265 63 0
-265 264 0
-266 29 265 241 0
266 -29 0
266 -265 0
266 -241 0
267 -80 -266 0
-267 80 0
-267 266 0
268 -84 -266 0
-268 84 0
-268 266 0
-269 86 268 0
269 -86 0
269 -268 0
270 -88 -269 0
-270 88 0
-270 269 0
271 -90 -254 0
-271 90 0
-271 254 0
272 -94 -254 0
-272 94 0
-272 254 0
273 -96 -266 0
-273 96 0
-273 266 0
-274 101 131 272 273 97 0
274 -101 0
274 -131 0
274 -272 0
274 -273 0
274 -97 0
275 -103 -274 0
-275 103 0
-275 274 0
-276 105 271 275 0
276 -105 0
276 -271 0
276 -275 0
277 -107 -276 0
-277 107 0
-277 276 0
-278 117 130 255 261 267 270 277 143 0
278 -117 0
278 -130 0
278 -255 0
278 -261 0
278 -267 0
278 -270 0
278 -277 0
278 -143 0
279 -146 -278 0
-279 146 0
-279 278 0
-280 3 279 0
280 -3 0
280 -279 0
281 -5 -280 0
-281 5 0
-281 280 0
-282 7 281 0
282 -7 0
282 -281 0
283 -9 -282 0
-283 9 0
-283 282 0
-284 11 283 0
284 -11 0
284 -283 0
285 -13 -284 0
-285 13 0
-285 284 0
-286 15 214 240 285 0
286 -15 0
286 -214 0
286 -240 0
286 -285 0
287 -288 -286 0
-287 288 0
-287 286 0
289 -31 -29 0
-289 31 0
-289 29 0
-290 33 289 0
290 -33 0
290 -289 0
291 -35 -290 0
-291 35 0
-291 290 0
292 -37 -290 0
-292 37 0
-292 290 0
293 -39 -29 0
-293 39 0
-293 29 0
294 -41 -290 0
-294 41 0
-294 290 0
-295 43 294 0
295 -43 0
295 -294 0
296 -45 -295 0
-296 45 0
-296 295 0
-297 47 292 293 296 0
297 -47 0
297 -292 0
297 -293 0
297 -296 0
298 -49 -297 0
-298 49 0
-298 297 0
-299 55 291 298 185 0
299 -55 0
299 -291 0
299 -298 0
299 -185 0
300 -57 -299 0
-300 57 0
-300 299 0
-301 29 257 0
301 -29 0
301 -257 0
302 -31 -301 0
-302 31 0
-302 301 0
-303 33 302 0
303 -33 0
303 -302 0
304 -68 -303 0
-304 68 0
-304 303 0
-305 29 265 0
305 -29 0
305 -265 0
306 -80 -305 0
-306 80 0
-306 305 0
307 -84 -305 0
-307 84 0
-307 305 0
-308 86 307 0
308 -86 0
308 -307 0
309 -88 -308 0
-309 88 0
-309 308 0
310 -90 -299 0
-310 90 0
-310 299 0
311 -94 -299 0
-311 94 0
-311 299 0
312 -96 -305 0
-312 96 0
-312 305 0
-313 101 162 311 312 97 0
313 -101 0
313 -162 0
313 -311 0
313 -312 0
313 -97 0
314 -103 -313 0
-314 103 0
-314 313 0
-315 105 310 314 0
315 -105 0
315 -310 0
315 -314 0
316 -107 -315 0
-316 107 0
-316 315 0
-317 117 161 300 304 306 309 316 170 0
317 -117 0
317 -161 0
317 -300 0
317 -304 0
317 -306 0
317 -309 0
317 -316 0
317 -170 0
318 -146 -317 0
-318 146 0
-318 317 0
-319 3 318 0
319 -3 0
319 -318 0
320 -5 -319 0
-320 5 0
-320 319 0
-321 7 320 0
321 -7 0
321 -320 0
322 -9 -321 0
-322 9 0
-322 321 0
-323 11 322 0
323 -11 0
323 -322 0
324 -23 -323 0
-324 23 0
-324 323 0
-325 25 324 0
325 -25 0
325 -324 0
326 -327 -325 0
-326 327 0
-326 325 0
-328 47 126 0
328 -47 0
328 -126 0
329 -49 -328 0
-329 49 0
-329 328 0
-330 55 329 158 180 0
330 -55 0
330 -329 0
330 -158 0
330 -180 0
331 -63 -330 0
-331 63 0
-331 330 0
332 -49 -47 0
-332 49 0
-332 47 0
-333 55 332 185 0
333 -55 0
333 -332 0
333 -185 0
334 -57 -333 0
-334 57 0
-334 333 0
335 -90 -333 0
-335 90 0
-335 333 0
336 -94 -333 0
-336 94 0
-336 333 0
-337 101 162 336 97 0
337 -101 0
337 -162 0
337 -336 0
337 -97 0
338 -103 -337 0
-338 103 0
-338 337 0
-339 105 335 338 0
339 -105 0
339 -335 0
339 -338 0
340 -107 -339 0
-340 107 0
-340 339 0
-341 117 161 334 120 340 170 0
341 -117 0
341 -161 0
341 -334 0
341 -120 0
341 -340 0
341 -170 0
342 -146 -341 0
-342 146 0
-342 341 0
-343 3 342 0
343 -3 0
343 -342 0
344 -5 -343 0
-344 5 0
-344 343 0
-345 7 344 0
345 -7 0
345 -344 0
346 -9 -345 0
-346 9 0
-346 345 0
-347 11 346 0
347 -11 0
347 -346 0
348 -23 -347 0
-348 23 0
-348 347 0
-349 25 348 0
349 -25 0
349 -348 0
350 -27 -349 0
-350 27 0
-350 349 0
-351 29 331 350 0
351 -29 0
351 -331 0
351 -350 0
352 -31 -351 0
-352 31 0
-352 351 0
-353 33 352 0
353 -33 0
353 -352 0
354 -41 -353 0
-354 41 0
-354 353 0
-355 43 354 0
355 -43 0
355 -354 0
356 -357 -355 0
-356 357 0
-356 355 0
-358 359 118 207 287 326 356 0
358 -359 0
358 -118 0
358 -207 0
358 -287 0
358 -326 0
358 -356 0
360 -361 -358 0
-360 361 0
-360 358 0
362 -208 -260 0
-362 208 0
-362 260 0
363 -327 -25 0
-363 327 0
-363 25 0
-364 55 332 185 253 0
364 -55 0
364 -332 0
364 -185 0
364 -253 0
365 -63 -364 0
-365 63 0
-365 364 0
-366 29 365 241 0
366 -29 0
366 -365 0
366 -241 0
367 -31 -366 0
-367 31 0
-367 366 0
-368 33 367 0
368 -33 0
368 -367 0
369 -41 -368 0
-369 41 0
-369 368 0
-370 43 369 0
370 -43 0
370 -369 0
371 -357 -370 0
-371 357 0
-371 370 0
-372 359 362 363 371 0
372 -359 0
372 -362 0
372 -363 0
372 -371 0
373 -374 -372 0
-373 374 0
-373 372 0
-375 7 373 4 0
375 -7 0
375 -373 0
375 -4 0
376 -9 -375 0
-376 9 0
-376 375 0
-377 11 376 0
377 -11 0
377 -376 0
378 -13 -377 0
-378 13 0
-378 377 0
-379 15 378 0
379 -15 0
379 -378 0
380 -17 -379 0
-380 17 0
-380 379 0
-381 19 380 0
381 -19 0
381 -380 0
382 -21 -381 0
-382 21 0
-382 381 0
383 -288 -15 0
-383 288 0
-383 15 0
384 -357 -43 0
-384 357 0
-384 43 0
-385 359 383 363 384 0
385 -359 0
385 -383 0
385 -363 0
385 -384 0
386 -374 -385 0
-386 374 0
-386 385 0
-387 7 386 4 0
387 -7 0
387 -386 0
387 -4 0
388 -9 -387 0
-388 9 0
-388 387 0
-389 11 388 0
389 -11 0
389 -388 0
390 -23 -389 0
-390 23 0
-390 389 0
-391 25 390 0
391 -25 0
391 -390 0
392 -27 -391 0
-392 27 0
-392 391 0
-393 29 392 0
393 -29 0
393 -392 0
394 -31 -393 0
-394 31 0
-394 393 0
-395 33 394 0
395 -33 0
395 -394 0
396 -35 -395 0
-396 35 0
-396 395 0
397 -37 -395 0
-397 37 0
-397 395 0
398 -208 -33 0
-398 208 0
-398 33 0
399 -357 -72 0
-399 357 0
-399 72 0
-400 359 398 383 363 399 0
400 -359 0
400 -398 0
400 -383 0
400 -363 0
400 -399 0
401 -374 -400 0
-401 374 0
-401 400 0
-402 7 401 4 0
402 -7 0
402 -401 0
402 -4 0
403 -9 -402 0
-403 9 0
-403 402 0
-404 11 403 0
404 -11 0
404 -403 0
405 -23 -404 0
-405 23 0
-405 404 0
-406 25 405 0
406 -25 0
406 -405 0
407 -27 -406 0
-407 27 0
-407 406 0
-408 29 407 0
408 -29 0
408 -407 0
409 -39 -408 0
-409 39 0
-409 408 0
410 -41 -395 0
-410 41 0
-410 395 0
-411 43 410 0
411 -43 0
411 -410 0
412 -45 -411 0
-412 45 0
-412 411 0
-413 47 397 409 412 0
413 -47 0
413 -397 0
413 -409 0
413 -412 0
414 -49 -413 0
-414 49 0
-414 413 0
415 -208 -244 0
-415 208 0
-415 244 0
416 -357 -249 0
-416 357 0
-416 249 0
-417 359 415 363 416 0
417 -359 0
417 -415 0
417 -363 0
417 -416 0
418 -374 -417 0
-418 374 0
-418 417 0
-419 7 418 4 0
419 -7 0
419 -418 0
419 -4 0
420 -9 -419 0
-420 9 0
-420 419 0
-421 11 420 0
421 -11 0
421 -420 0
422 -13 -421 0
-422 13 0
-422 421 0
-423 15 422 0
423 -15 0
423 -422 0
424 -51 -423 0
-424 51 0
-424 423 0
425 -208 -290 0
-425 208 0
-425 290 0
426 -357 -295 0
-426 357 0
-426 295 0
-427 359 425 383 363 426 0
427 -359 0
427 -425 0
427 -383 0
427 -363 0
427 -426 0
428 -374 -427 0
-428 374 0
-428 427 0
-429 7 428 4 0
429 -7 0
429 -428 0
429 -4 0
430 -9 -429 0
-430 9 0
-430 429 0
-431 11 430 0
431 -11 0
431 -430 0
432 -23 -431 0
-432 23 0
-432 431 0
-433 25 432 0
433 -25 0
433 -432 0
434 -53 -433 0
-434 53 0
-434 433 0
-435 55 396 414 424 434 0
435 -55 0
435 -396 0
435 -414 0
435 -424 0
435 -434 0
436 -57 -435 0
-436 57 0
-436 435 0
437 -13 -389 0
-437 13 0
-437 389 0
-438 15 437 0
438 -15 0
438 -437 0
439 -51 -438 0
-439 51 0
-439 438 0
440 -53 -391 0
-440 53 0
-440 391 0
-441 55 184 439 440 0
441 -55 0
441 -184 0
441 -439 0
441 -440 0
442 -63 -441 0
-442 63 0
-442 441 0
-443 29 442 392 0
443 -29 0
443 -442 0
443 -392 0
444 -31 -443 0
-444 31 0
-444 443 0
-445 33 444 0
445 -33 0
445 -444 0
446 -68 -445 0
-446 68 0
-446 445 0
447 -13 -404 0
-447 13 0
-447 404 0
-448 15 447 0
448 -15 0
448 -447 0
449 -51 -448 0
-449 51 0
-449 448 0
450 -53 -406 0
-450 53 0
-450 406 0
-451 55 69 263 449 450 0
451 -55 0
451 -69 0
451 -263 0
451 -449 0
451 -450 0
452 -63 -451 0
-452 63 0
-452 451 0
-453 29 452 407 0
453 -29 0
453 -452 0
453 -407 0
454 -80 -453 0
-454 80 0
-454 453 0
-455 359 362 383 363 371 0
455 -359 0
455 -362 0
455 -383 0
455 -363 0
455 -371 0
456 -374 -455 0
-456 374 0
-456 455 0
-457 7 456 4 0
457 -7 0
457 -456 0
457 -4 0
458 -9 -457 0
-458 9 0
-458 457 0
-459 11 458 0
459 -11 0
459 -458 0
460 -82 -459 0
-460 82 0
-460 459 0
461 -84 -453 0
-461 84 0
-461 453 0
-462 86 461 0
462 -86 0
462 -461 0
463 -88 -462 0
-463 88 0
-463 462 0
464 -90 -435 0
-464 90 0
-464 435 0
465 -92 -381 0
-465 92 0
-465 381 0
466 -94 -435 0
-466 94 0
-466 435 0
467 -96 -453 0
-467 96 0
-467 453 0
-468 15 12 0
468 -15 0
468 -12 0
469 -51 -468 0
-469 51 0
-469 468 0
-470 55 60 469 52 0
470 -55 0
470 -60 0
470 -469 0
470 -52 0
471 -63 -470 0
-471 63 0
-471 470 0
-472 29 471 26 0
472 -29 0
472 -471 0
472 -26 0
473 -31 -472 0
-473 31 0
-473 472 0
-474 33 473 0
474 -33 0
474 -473 0
475 -208 -474 0
-475 208 0
-475 474 0
476 -288 -468 0
-476 288 0
-476 468 0
477 -327 -24 0
-477 327 0
-477 24 0
-478 55 332 469 52 0
478 -55 0
478 -332 0
478 -469 0
478 -52 0
479 -63 -478 0
-479 63 0
-479 478 0
-480 29 479 26 0
480 -29 0
480 -479 0
480 -26 0
481 -31 -480 0
-481 31 0
-481 480 0
-482 33 481 0
482 -33 0
482 -481 0
483 -41 -482 0
-483 41 0
-483 482 0
-484 43 483 0
484 -43 0
484 -483 0
485 -357 -484 0
-485 357 0
-485 484 0
-486 359 475 476 477 485 0
486 -359 0
486 -475 0
486 -476 0
486 -477 0
486 -485 0
487 -488 -486 0
-487 488 0
-487 486 0
489 -490 -486 0
-489 490 0
-489 486 0
-491 99 489 0
491 -99 0
491 -489 0
492 -98 -491 0
-492 98 0
-492 491 0
-493 101 465 466 467 487 492 0
493 -101 0
493 -465 0
493 -466 0
493 -467 0
493 -487 0
493 -492 0
494 -103 -493 0
-494 103 0
-494 493 0
-495 105 464 494 0
495 -105 0
495 -464 0
495 -494 0
496 -107 -495 0
-496 107 0
-496 495 0
497 -109 -381 0
-497 109 0
-497 381 0
498 -111 -379 0
-498 111 0
-498 379 0
-499 113 497 498 0
499 -113 0
499 -497 0
499 -498 0
500 -115 -499 0
-500 115 0
-500 499 0
-501 117 382 436 446 454 460 463 496 500 0
501 -117 0
501 -382 0
501 -436 0
501 -446 0
501 -454 0
501 -460 0
501 -463 0
501 -496 0
501 -500 0
502 -146 -501 0
-502 146 0
-502 501 0
-503 3 502 0
503 -3 0
503 -502 0
504 -505 -503 0
-504 505 0
-504 503 0
-506 507 360 504 0
506 -507 0
506 -360 0
506 -504 0
508 -509 -506 0
-508 509 0
-508 506 0
-510 511 508 0
510 -511 0
510 -508 0
512 -510 -513 0
-512 510 0
-512 513 0
512 0
