c BC-S1.2
p cnf 45 72
1 -2 -3 0
-1 2 0
-1 3 0
-4 5 1 0
4 -5 0
4 -1 0
6 -7 -4 0
-6 7 0
-6 4 0
8 -9 -10 0
-8 9 0
-8 10 0
-11 12 8 0
11 -12 0
11 -8 0
13 -14 -11 0
-13 14 0
-13 11 0
15 -16 -10 0
-15 16 0
-15 10 0
-17 18 6 13 15 0
17 -18 0
17 -6 0
17 -13 0
17 -15 0
19 -20 -17 0
-19 20 0
-19 17 0
21 -22 -11 0
-21 22 0
-21 11 0
23 -24 -17 0
-23 24 0
-23 17 0
25 -26 -3 0
-25 26 0
-25 3 0
27 -28 -29 0
-27 28 0
-27 29 0
30 -31 -10 0
-30 31 0
-30 10 0
-32 33 30 0
32 -33 0
32 -30 0
34 -35 -32 0
-34 35 0
-34 32 0
-36 37 21 23 25 27 34 0
36 -37 0
36 -21 0
36 -23 0
36 -25 0
36 -27 0
36 -34 0
38 -39 -36 0
-38 39 0
-38 36 0
40 -41 -32 0
-40 41 0
-40 32 0
-42 43 19 38 40 0
42 -43 0
42 -19 0
42 -38 0
42 -40 0
44 -42 -45 0
-44 42 0
-44 45 0
44 0
