c BC-S1.2
p cnf 1928 6653
1 -2 -3 0
-1 2 0
-1 3 0
4 -5 -6 0
-4 5 0
-4 6 0
-7 8 4 0
7 -8 0
7 -4 0
9 -10 -7 0
-9 10 0
-9 7 0
-11 12 9 0
11 -12 0
11 -9 0
13 -14 -11 0
-13 14 0
-13 11 0
-15 16 13 0
15 -16 0
15 -13 0
17 -18 -15 0
-17 18 0
-17 15 0
19 -20 -21 0
-19 20 0
-19 21 0
-22 23 19 0
22 -23 0
22 -19 0
24 -25 -22 0
-24 25 0
-24 22 0
-26 27 1 17 24 0
26 -27 0
26 -1 0
26 -17 0
26 -24 0
28 -29 -26 0
-28 29 0
-28 26 0
30 -31 -32 0
-30 31 0
-30 32 0
33 -34 -6 0
-33 34 0
-33 6 0
-35 36 28 30 33 0
35 -36 0
35 -28 0
35 -30 0
35 -33 0
37 -38 -35 0
-37 38 0
-37 35 0
39 -40 -32 0
-39 40 0
-39 32 0
-41 42 39 0
41 -42 0
41 -39 0
43 -44 -41 0
-43 44 0
-43 41 0
-45 46 37 43 0
45 -46 0
45 -37 0
45 -43 0
47 -48 -45 0
-47 48 0
-47 45 0
49 -50 -6 0
-49 50 0
-49 6 0
-51 52 47 49 0
51 -52 0
51 -47 0
51 -49 0
53 -54 -51 0
-53 54 0
-53 51 0
55 -56 -51 0
-55 56 0
-55 51 0
57 -58 -59 0
-57 58 0
-57 59 0
-60 52 49 0
60 -52 0
60 -49 0
61 -62 -60 0
-61 62 0
-61 60 0
-63 23 61 19 0
63 -23 0
63 -61 0
63 -19 0
64 -25 -63 0
-64 25 0
-64 63 0
-65 27 1 17 64 0
65 -27 0
65 -1 0
65 -17 0
65 -64 0
66 -29 -65 0
-66 29 0
-66 65 0
-67 36 66 30 33 0
67 -36 0
67 -66 0
67 -30 0
67 -33 0
68 -38 -67 0
-68 38 0
-68 67 0
69 -70 -60 0
-69 70 0
-69 60 0
-71 42 69 39 0
71 -42 0
71 -69 0
71 -39 0
72 -44 -71 0
-72 44 0
-72 71 0
-73 46 68 72 0
73 -46 0
73 -68 0
73 -72 0
74 -75 -73 0
-74 75 0
-74 73 0
-76 77 55 57 74 0
76 -77 0
76 -55 0
76 -57 0
76 -74 0
78 -79 -76 0
-78 79 0
-78 76 0
-80 23 61 0
80 -23 0
80 -61 0
81 -25 -80 0
-81 25 0
-81 80 0
-82 27 1 17 81 0
82 -27 0
82 -1 0
82 -17 0
82 -81 0
83 -29 -82 0
-83 29 0
-83 82 0
-84 36 83 30 33 0
84 -36 0
84 -83 0
84 -30 0
84 -33 0
85 -38 -84 0
-85 38 0
-85 84 0
-86 46 85 72 0
86 -46 0
86 -85 0
86 -72 0
87 -88 -86 0
-87 88 0
-87 86 0
-89 21 87 0
89 -21 0
89 -87 0
90 -91 -89 0
-90 91 0
-90 89 0
-92 93 78 90 0
92 -93 0
92 -78 0
92 -90 0
94 -95 -92 0
-94 95 0
-94 92 0
96 -97 -59 0
-96 97 0
-96 59 0
-98 27 17 64 0
98 -27 0
98 -17 0
98 -64 0
99 -29 -98 0
-99 29 0
-99 98 0
-100 36 99 30 33 0
100 -36 0
100 -99 0
100 -30 0
100 -33 0
101 -38 -100 0
-101 38 0
-101 100 0
-102 46 101 72 0
102 -46 0
102 -101 0
102 -72 0
103 -104 -102 0
-103 104 0
-103 102 0
-105 3 103 0
105 -3 0
105 -103 0
106 -107 -105 0
-106 107 0
-106 105 0
-108 46 37 0
108 -46 0
108 -37 0
109 -48 -108 0
-109 48 0
-109 108 0
-110 52 109 49 0
110 -52 0
110 -109 0
110 -49 0
111 -70 -110 0
-111 70 0
-111 110 0
-112 42 111 39 0
112 -42 0
112 -111 0
112 -39 0
113 -114 -112 0
-113 114 0
-113 112 0
-115 27 1 17 0
115 -27 0
115 -1 0
115 -17 0
116 -29 -115 0
-116 29 0
-116 115 0
-117 36 116 30 33 0
117 -36 0
117 -116 0
117 -30 0
117 -33 0
118 -38 -117 0
-118 38 0
-118 117 0
-119 46 118 43 0
119 -46 0
119 -118 0
119 -43 0
120 -48 -119 0
-120 48 0
-120 119 0
-121 52 120 49 0
121 -52 0
121 -120 0
121 -49 0
122 -62 -121 0
-122 62 0
-122 121 0
-123 46 118 72 0
123 -46 0
123 -118 0
123 -72 0
124 -88 -123 0
-124 88 0
-124 123 0
-125 21 124 0
125 -21 0
125 -124 0
126 -20 -125 0
-126 20 0
-126 125 0
-127 23 122 126 0
127 -23 0
127 -122 0
127 -126 0
128 -129 -127 0
-128 129 0
-128 127 0
-130 131 53 94 96 106 113 128 0
130 -131 0
130 -53 0
130 -94 0
130 -96 0
130 -106 0
130 -113 0
130 -128 0
132 -133 -130 0
-132 133 0
-132 130 0
134 -54 -60 0
-134 54 0
-134 60 0
135 -56 -60 0
-135 56 0
-135 60 0
-136 77 135 57 0
136 -77 0
136 -135 0
136 -57 0
137 -79 -136 0
-137 79 0
-137 136 0
138 -91 -21 0
-138 91 0
-138 21 0
-139 93 137 138 0
139 -93 0
139 -137 0
139 -138 0
140 -95 -139 0
-140 95 0
-140 139 0
141 -129 -63 0
-141 129 0
-141 63 0
-142 131 134 140 96 141 0
142 -131 0
142 -134 0
142 -140 0
142 -96 0
142 -141 0
143 -144 -142 0
-143 144 0
-143 142 0
-145 32 143 0
145 -32 0
145 -143 0
146 -40 -145 0
-146 40 0
-146 145 0
-147 42 69 146 0
147 -42 0
147 -69 0
147 -146 0
148 -44 -147 0
-148 44 0
-148 147 0
-149 46 148 0
149 -46 0
149 -148 0
150 -104 -149 0
-150 104 0
-150 149 0
-151 3 150 0
151 -3 0
151 -150 0
152 -2 -151 0
-152 2 0
-152 151 0
153 -107 -3 0
-153 107 0
-153 3 0
-154 131 134 140 96 153 0
154 -131 0
154 -134 0
154 -140 0
154 -96 0
154 -153 0
155 -144 -154 0
-155 144 0
-155 154 0
-156 32 155 0
156 -32 0
156 -155 0
157 -40 -156 0
-157 40 0
-157 156 0
-158 42 157 0
158 -42 0
158 -157 0
159 -44 -158 0
-159 44 0
-159 158 0
-160 46 159 0
160 -46 0
160 -159 0
161 -48 -160 0
-161 48 0
-161 160 0
-162 52 161 49 0
162 -52 0
162 -161 0
162 -49 0
163 -62 -162 0
-163 62 0
-163 162 0
-164 42 69 157 0
164 -42 0
164 -69 0
164 -157 0
165 -44 -164 0
-165 44 0
-165 164 0
-166 46 165 0
166 -46 0
166 -165 0
167 -88 -166 0
-167 88 0
-167 166 0
-168 21 167 0
168 -21 0
168 -167 0
169 -20 -168 0
-169 20 0
-169 168 0
-170 23 163 169 0
170 -23 0
170 -163 0
170 -169 0
171 -25 -170 0
-171 25 0
-171 170 0
-172 27 152 171 0
172 -27 0
172 -152 0
172 -171 0
173 -29 -172 0
-173 29 0
-173 172 0
-174 46 43 0
174 -46 0
174 -43 0
175 -48 -174 0
-175 48 0
-175 174 0
-176 52 175 49 0
176 -52 0
176 -175 0
176 -49 0
177 -54 -176 0
-177 54 0
-177 176 0
178 -56 -176 0
-178 56 0
-178 176 0
-179 46 72 0
179 -46 0
179 -72 0
180 -75 -179 0
-180 75 0
-180 179 0
-181 77 178 57 180 0
181 -77 0
181 -178 0
181 -57 0
181 -180 0
182 -79 -181 0
-182 79 0
-182 181 0
183 -88 -179 0
-183 88 0
-183 179 0
-184 21 183 0
184 -21 0
184 -183 0
185 -91 -184 0
-185 91 0
-185 184 0
-186 93 182 185 0
186 -93 0
186 -182 0
186 -185 0
187 -95 -186 0
-187 95 0
-187 186 0
188 -104 -179 0
-188 104 0
-188 179 0
-189 3 188 0
189 -3 0
189 -188 0
190 -107 -189 0
-190 107 0
-190 189 0
191 -48 -46 0
-191 48 0
-191 46 0
-192 52 191 49 0
192 -52 0
192 -191 0
192 -49 0
193 -70 -192 0
-193 70 0
-193 192 0
-194 42 193 39 0
194 -42 0
194 -193 0
194 -39 0
195 -114 -194 0
-195 114 0
-195 194 0
196 -62 -176 0
-196 62 0
-196 176 0
197 -20 -184 0
-197 20 0
-197 184 0
-198 23 196 197 0
198 -23 0
198 -196 0
198 -197 0
199 -129 -198 0
-199 129 0
-199 198 0
-200 131 177 187 96 190 195 199 0
200 -131 0
200 -177 0
200 -187 0
200 -96 0
200 -190 0
200 -195 0
200 -199 0
201 -144 -200 0
-201 144 0
-201 200 0
-202 32 201 0
202 -32 0
202 -201 0
203 -31 -202 0
-203 31 0
-203 202 0
-204 36 173 203 33 0
204 -36 0
204 -173 0
204 -203 0
204 -33 0
205 -206 -204 0
-205 206 0
-205 204 0
-207 12 205 9 0
207 -12 0
207 -205 0
207 -9 0
208 -14 -207 0
-208 14 0
-208 207 0
-209 16 208 0
209 -16 0
209 -208 0
210 -211 -209 0
-210 211 0
-210 209 0
-212 213 132 210 0
212 -213 0
212 -132 0
212 -210 0
214 -215 -212 0
-214 215 0
-214 212 0
216 -25 -23 0
-216 25 0
-216 23 0
-217 27 1 17 216 0
217 -27 0
217 -1 0
217 -17 0
217 -216 0
218 -29 -217 0
-218 29 0
-218 217 0
-219 36 218 30 33 0
219 -36 0
219 -218 0
219 -30 0
219 -33 0
220 -38 -219 0
-220 38 0
-220 219 0
-221 46 220 43 0
221 -46 0
221 -220 0
221 -43 0
222 -88 -221 0
-222 88 0
-222 221 0
-223 21 222 0
223 -21 0
223 -222 0
224 -91 -223 0
-224 91 0
-224 223 0
-225 93 224 0
225 -93 0
225 -224 0
226 -95 -225 0
-226 95 0
-226 225 0
-227 27 17 24 0
227 -27 0
227 -17 0
227 -24 0
228 -29 -227 0
-228 29 0
-228 227 0
-229 36 228 30 33 0
229 -36 0
229 -228 0
229 -30 0
229 -33 0
230 -38 -229 0
-230 38 0
-230 229 0
-231 46 230 43 0
231 -46 0
231 -230 0
231 -43 0
232 -104 -231 0
-232 104 0
-232 231 0
-233 3 232 0
233 -3 0
233 -232 0
234 -107 -233 0
-234 107 0
-234 233 0
235 -114 -41 0
-235 114 0
-235 41 0
236 -88 -119 0
-236 88 0
-236 119 0
-237 21 236 0
237 -21 0
237 -236 0
238 -20 -237 0
-238 20 0
-238 237 0
-239 23 238 0
239 -23 0
239 -238 0
240 -129 -239 0
-240 129 0
-240 239 0
-241 131 226 96 234 235 240 0
241 -131 0
241 -226 0
241 -96 0
241 -234 0
241 -235 0
241 -240 0
242 -133 -241 0
-242 133 0
-242 241 0
-243 93 138 0
243 -93 0
243 -138 0
244 -95 -243 0
-244 95 0
-244 243 0
245 -129 -22 0
-245 129 0
-245 22 0
-246 131 134 244 96 245 0
246 -131 0
246 -134 0
246 -244 0
246 -96 0
246 -245 0
247 -144 -246 0
-247 144 0
-247 246 0
-248 32 247 0
248 -32 0
248 -247 0
249 -40 -248 0
-249 40 0
-249 248 0
-250 42 249 0
250 -42 0
250 -249 0
251 -44 -250 0
-251 44 0
-251 250 0
-252 46 251 0
252 -46 0
252 -251 0
253 -104 -252 0
-253 104 0
-253 252 0
-254 3 253 0
254 -3 0
254 -253 0
255 -2 -254 0
-255 2 0
-255 254 0
-256 131 134 244 96 153 0
256 -131 0
256 -134 0
256 -244 0
256 -96 0
256 -153 0
257 -144 -256 0
-257 144 0
-257 256 0
-258 32 257 0
258 -32 0
258 -257 0
259 -40 -258 0
-259 40 0
-259 258 0
-260 42 259 0
260 -42 0
260 -259 0
261 -44 -260 0
-261 44 0
-261 260 0
-262 46 261 0
262 -46 0
262 -261 0
263 -88 -262 0
-263 88 0
-263 262 0
-264 21 263 0
264 -21 0
264 -263 0
265 -20 -264 0
-265 20 0
-265 264 0
-266 23 265 0
266 -23 0
266 -265 0
267 -25 -266 0
-267 25 0
-267 266 0
-268 27 255 267 0
268 -27 0
268 -255 0
268 -267 0
269 -29 -268 0
-269 29 0
-269 268 0
270 -88 -174 0
-270 88 0
-270 174 0
-271 21 270 0
271 -21 0
271 -270 0
272 -91 -271 0
-272 91 0
-272 271 0
-273 93 272 0
273 -93 0
273 -272 0
274 -95 -273 0
-274 95 0
-274 273 0
275 -104 -174 0
-275 104 0
-275 174 0
-276 3 275 0
276 -3 0
276 -275 0
277 -107 -276 0
-277 107 0
-277 276 0
278 -20 -271 0
-278 20 0
-278 271 0
-279 23 278 0
279 -23 0
279 -278 0
280 -129 -279 0
-280 129 0
-280 279 0
-281 131 177 274 96 277 235 280 0
281 -131 0
281 -177 0
281 -274 0
281 -96 0
281 -277 0
281 -235 0
281 -280 0
282 -144 -281 0
-282 144 0
-282 281 0
-283 32 282 0
283 -32 0
283 -282 0
284 -31 -283 0
-284 31 0
-284 283 0
-285 36 269 284 33 0
285 -36 0
285 -269 0
285 -284 0
285 -33 0
286 -206 -285 0
-286 206 0
-286 285 0
-287 12 286 9 0
287 -12 0
287 -286 0
287 -9 0
288 -14 -287 0
-288 14 0
-288 287 0
-289 16 288 0
289 -16 0
289 -288 0
290 -211 -289 0
-290 211 0
-290 289 0
-291 213 242 290 0
291 -213 0
291 -242 0
291 -290 0
292 -293 -291 0
-292 293 0
-292 291 0
-294 131 134 244 96 153 235 245 0
294 -131 0
294 -134 0
294 -244 0
294 -96 0
294 -153 0
294 -235 0
294 -245 0
295 -133 -294 0
-295 133 0
-295 294 0
-296 213 295 0
296 -213 0
296 -295 0
297 -298 -296 0
-297 298 0
-297 296 0
-299 12 297 9 0
299 -12 0
299 -297 0
299 -9 0
300 -14 -299 0
-300 14 0
-300 299 0
-301 16 300 0
301 -16 0
301 -300 0
302 -18 -301 0
-302 18 0
-302 301 0
-303 27 1 302 24 0
303 -27 0
303 -1 0
303 -302 0
303 -24 0
304 -29 -303 0
-304 29 0
-304 303 0
305 -211 -15 0
-305 211 0
-305 15 0
-306 213 305 0
306 -213 0
306 -305 0
307 -308 -306 0
-307 308 0
-307 306 0
-309 93 307 138 0
309 -93 0
309 -307 0
309 -138 0
310 -95 -309 0
-310 95 0
-310 309 0
-311 131 310 96 153 235 245 0
311 -131 0
311 -310 0
311 -96 0
311 -153 0
311 -235 0
311 -245 0
312 -144 -311 0
-312 144 0
-312 311 0
-313 32 312 0
313 -32 0
313 -312 0
314 -31 -313 0
-314 31 0
-314 313 0
-315 36 304 314 33 0
315 -36 0
315 -304 0
315 -314 0
315 -33 0
316 -38 -315 0
-316 38 0
-316 315 0
-317 27 1 24 0
317 -27 0
317 -1 0
317 -24 0
318 -29 -317 0
-318 29 0
-318 317 0
-319 36 318 33 0
319 -36 0
319 -318 0
319 -33 0
320 -206 -319 0
-320 206 0
-320 319 0
-321 12 320 9 0
321 -12 0
321 -320 0
321 -9 0
322 -14 -321 0
-322 14 0
-322 321 0
-323 16 322 0
323 -16 0
323 -322 0
324 -211 -323 0
-324 211 0
-324 323 0
-325 213 324 0
325 -213 0
325 -324 0
326 -308 -325 0
-326 308 0
-326 325 0
-327 93 326 138 0
327 -93 0
327 -326 0
327 -138 0
328 -95 -327 0
-328 95 0
-328 327 0
-329 131 328 96 153 245 0
329 -131 0
329 -328 0
329 -96 0
329 -153 0
329 -245 0
330 -144 -329 0
-330 144 0
-330 329 0
-331 32 330 0
331 -32 0
331 -330 0
332 -40 -331 0
-332 40 0
-332 331 0
-333 42 332 0
333 -42 0
333 -332 0
334 -44 -333 0
-334 44 0
-334 333 0
-335 46 316 334 0
335 -46 0
335 -316 0
335 -334 0
336 -48 -335 0
-336 48 0
-336 335 0
-337 52 292 336 49 0
337 -52 0
337 -292 0
337 -336 0
337 -49 0
338 -56 -337 0
-338 56 0
-338 337 0
-339 93 90 0
339 -93 0
339 -90 0
340 -95 -339 0
-340 95 0
-340 339 0
-341 131 53 340 96 106 113 128 0
341 -131 0
341 -53 0
341 -340 0
341 -96 0
341 -106 0
341 -113 0
341 -128 0
342 -133 -341 0
-342 133 0
-342 341 0
-343 131 134 244 96 141 0
343 -131 0
343 -134 0
343 -244 0
343 -96 0
343 -141 0
344 -144 -343 0
-344 144 0
-344 343 0
-345 32 344 0
345 -32 0
345 -344 0
346 -40 -345 0
-346 40 0
-346 345 0
-347 42 69 346 0
347 -42 0
347 -69 0
347 -346 0
348 -44 -347 0
-348 44 0
-348 347 0
-349 46 348 0
349 -46 0
349 -348 0
350 -104 -349 0
-350 104 0
-350 349 0
-351 3 350 0
351 -3 0
351 -350 0
352 -2 -351 0
-352 2 0
-352 351 0
353 -48 -262 0
-353 48 0
-353 262 0
-354 52 353 49 0
354 -52 0
354 -353 0
354 -49 0
355 -62 -354 0
-355 62 0
-355 354 0
-356 42 69 259 0
356 -42 0
356 -69 0
356 -259 0
357 -44 -356 0
-357 44 0
-357 356 0
-358 46 357 0
358 -46 0
358 -357 0
359 -88 -358 0
-359 88 0
-359 358 0
-360 21 359 0
360 -21 0
360 -359 0
361 -20 -360 0
-361 20 0
-361 360 0
-362 23 355 361 0
362 -23 0
362 -355 0
362 -361 0
363 -25 -362 0
-363 25 0
-363 362 0
-364 27 352 363 0
364 -27 0
364 -352 0
364 -363 0
365 -29 -364 0
-365 29 0
-365 364 0
-366 93 185 0
366 -93 0
366 -185 0
367 -95 -366 0
-367 95 0
-367 366 0
-368 131 177 367 96 190 195 199 0
368 -131 0
368 -177 0
368 -367 0
368 -96 0
368 -190 0
368 -195 0
368 -199 0
369 -144 -368 0
-369 144 0
-369 368 0
-370 32 369 0
370 -32 0
370 -369 0
371 -31 -370 0
-371 31 0
-371 370 0
-372 36 365 371 33 0
372 -36 0
372 -365 0
372 -371 0
372 -33 0
373 -206 -372 0
-373 206 0
-373 372 0
-374 12 373 9 0
374 -12 0
374 -373 0
374 -9 0
375 -14 -374 0
-375 14 0
-375 374 0
-376 16 375 0
376 -16 0
376 -375 0
377 -211 -376 0
-377 211 0
-377 376 0
-378 213 342 377 0
378 -213 0
378 -342 0
378 -377 0
379 -380 -378 0
-379 380 0
-379 378 0
381 -114 -71 0
-381 114 0
-381 71 0
-382 131 134 244 96 153 381 141 0
382 -131 0
382 -134 0
382 -244 0
382 -96 0
382 -153 0
382 -381 0
382 -141 0
383 -133 -382 0
-383 133 0
-383 382 0
-384 213 383 0
384 -213 0
384 -383 0
385 -298 -384 0
-385 298 0
-385 384 0
-386 12 385 9 0
386 -12 0
386 -385 0
386 -9 0
387 -14 -386 0
-387 14 0
-387 386 0
-388 16 387 0
388 -16 0
388 -387 0
389 -18 -388 0
-389 18 0
-389 388 0
-390 213 295 305 0
390 -213 0
390 -295 0
390 -305 0
391 -293 -390 0
-391 293 0
-391 390 0
-392 52 391 49 0
392 -52 0
392 -391 0
392 -49 0
393 -62 -392 0
-393 62 0
-393 392 0
-394 23 393 19 0
394 -23 0
394 -393 0
394 -19 0
395 -25 -394 0
-395 25 0
-395 394 0
-396 27 1 389 395 0
396 -27 0
396 -1 0
396 -389 0
396 -395 0
397 -29 -396 0
-397 29 0
-397 396 0
398 -293 -306 0
-398 293 0
-398 306 0
-399 52 398 49 0
399 -52 0
399 -398 0
399 -49 0
400 -54 -399 0
-400 54 0
-400 399 0
401 -70 -399 0
-401 70 0
-401 399 0
-402 42 401 39 0
402 -42 0
402 -401 0
402 -39 0
403 -114 -402 0
-403 114 0
-403 402 0
404 -62 -399 0
-404 62 0
-404 399 0
-405 23 404 19 0
405 -23 0
405 -404 0
405 -19 0
406 -129 -405 0
-406 129 0
-406 405 0
-407 131 400 310 96 153 403 406 0
407 -131 0
407 -400 0
407 -310 0
407 -96 0
407 -153 0
407 -403 0
407 -406 0
408 -144 -407 0
-408 144 0
-408 407 0
-409 32 408 0
409 -32 0
409 -408 0
410 -31 -409 0
-410 31 0
-410 409 0
-411 36 397 410 33 0
411 -36 0
411 -397 0
411 -410 0
411 -33 0
412 -38 -411 0
-412 38 0
-412 411 0
413 -144 -294 0
-413 144 0
-413 294 0
-414 32 413 0
414 -32 0
414 -413 0
415 -31 -414 0
-415 31 0
-415 414 0
-416 36 318 415 33 0
416 -36 0
416 -318 0
416 -415 0
416 -33 0
417 -206 -416 0
-417 206 0
-417 416 0
-418 12 417 9 0
418 -12 0
418 -417 0
418 -9 0
419 -14 -418 0
-419 14 0
-419 418 0
-420 16 419 0
420 -16 0
420 -419 0
421 -211 -420 0
-421 211 0
-421 420 0
-422 213 295 421 0
422 -213 0
422 -295 0
422 -421 0
423 -293 -422 0
-423 293 0
-423 422 0
-424 52 423 49 0
424 -52 0
424 -423 0
424 -49 0
425 -70 -424 0
-425 70 0
-425 424 0
426 -293 -325 0
-426 293 0
-426 325 0
-427 52 426 49 0
427 -52 0
427 -426 0
427 -49 0
428 -54 -427 0
-428 54 0
-428 427 0
-429 27 1 64 0
429 -27 0
429 -1 0
429 -64 0
430 -29 -429 0
-430 29 0
-430 429 0
-431 36 430 33 0
431 -36 0
431 -430 0
431 -33 0
432 -206 -431 0
-432 206 0
-432 431 0
-433 12 432 9 0
433 -12 0
433 -432 0
433 -9 0
434 -14 -433 0
-434 14 0
-434 433 0
-435 16 434 0
435 -16 0
435 -434 0
436 -211 -435 0
-436 211 0
-436 435 0
-437 213 436 0
437 -213 0
437 -436 0
438 -308 -437 0
-438 308 0
-438 437 0
-439 93 438 138 0
439 -93 0
439 -438 0
439 -138 0
440 -95 -439 0
-440 95 0
-440 439 0
-441 27 1 0
441 -27 0
441 -1 0
442 -29 -441 0
-442 29 0
-442 441 0
-443 36 442 33 0
443 -36 0
443 -442 0
443 -33 0
444 -206 -443 0
-444 206 0
-444 443 0
-445 12 444 9 0
445 -12 0
445 -444 0
445 -9 0
446 -14 -445 0
-446 14 0
-446 445 0
-447 16 446 0
447 -16 0
447 -446 0
448 -211 -447 0
-448 211 0
-448 447 0
-449 213 448 0
449 -213 0
449 -448 0
450 -293 -449 0
-450 293 0
-450 449 0
-451 52 450 49 0
451 -52 0
451 -450 0
451 -49 0
452 -62 -451 0
-452 62 0
-452 451 0
-453 23 452 19 0
453 -23 0
453 -452 0
453 -19 0
454 -129 -453 0
-454 129 0
-454 453 0
-455 131 428 440 96 153 454 0
455 -131 0
455 -428 0
455 -440 0
455 -96 0
455 -153 0
455 -454 0
456 -144 -455 0
-456 144 0
-456 455 0
-457 32 456 0
457 -32 0
457 -456 0
458 -40 -457 0
-458 40 0
-458 457 0
-459 42 425 458 0
459 -42 0
459 -425 0
459 -458 0
460 -44 -459 0
-460 44 0
-460 459 0
-461 46 412 460 0
461 -46 0
461 -412 0
461 -460 0
462 -75 -461 0
-462 75 0
-462 461 0
-463 77 338 379 57 462 0
463 -77 0
463 -338 0
463 -379 0
463 -57 0
463 -462 0
464 -465 -463 0
-464 465 0
-464 463 0
466 -467 -59 0
-466 467 0
-466 59 0
468 -469 -463 0
-468 469 0
-468 463 0
-470 36 318 30 33 0
470 -36 0
470 -318 0
470 -30 0
470 -33 0
471 -38 -470 0
-471 38 0
-471 470 0
-472 46 471 43 0
472 -46 0
472 -471 0
472 -43 0
473 -48 -472 0
-473 48 0
-473 472 0
-474 52 473 49 0
474 -52 0
474 -473 0
474 -49 0
475 -54 -474 0
-475 54 0
-475 474 0
476 -56 -474 0
-476 56 0
-476 474 0
-477 36 430 30 33 0
477 -36 0
477 -430 0
477 -30 0
477 -33 0
478 -38 -477 0
-478 38 0
-478 477 0
-479 46 478 72 0
479 -46 0
479 -478 0
479 -72 0
480 -75 -479 0
-480 75 0
-480 479 0
-481 77 476 57 480 0
481 -77 0
481 -476 0
481 -57 0
481 -480 0
482 -79 -481 0
-482 79 0
-482 481 0
-483 27 1 81 0
483 -27 0
483 -1 0
483 -81 0
484 -29 -483 0
-484 29 0
-484 483 0
-485 36 484 30 33 0
485 -36 0
485 -484 0
485 -30 0
485 -33 0
486 -38 -485 0
-486 38 0
-486 485 0
-487 46 486 72 0
487 -46 0
487 -486 0
487 -72 0
488 -88 -487 0
-488 88 0
-488 487 0
-489 21 488 0
489 -21 0
489 -488 0
490 -91 -489 0
-490 91 0
-490 489 0
-491 93 482 490 0
491 -93 0
491 -482 0
491 -490 0
492 -95 -491 0
-492 95 0
-492 491 0
-493 27 64 0
493 -27 0
493 -64 0
494 -29 -493 0
-494 29 0
-494 493 0
-495 36 494 30 33 0
495 -36 0
495 -494 0
495 -30 0
495 -33 0
496 -38 -495 0
-496 38 0
-496 495 0
-497 46 496 72 0
497 -46 0
497 -496 0
497 -72 0
498 -104 -497 0
-498 104 0
-498 497 0
-499 3 498 0
499 -3 0
499 -498 0
500 -107 -499 0
-500 107 0
-500 499 0
-501 46 471 0
501 -46 0
501 -471 0
502 -48 -501 0
-502 48 0
-502 501 0
-503 52 502 49 0
503 -52 0
503 -502 0
503 -49 0
504 -70 -503 0
-504 70 0
-504 503 0
-505 42 504 39 0
505 -42 0
505 -504 0
505 -39 0
506 -114 -505 0
-506 114 0
-506 505 0
-507 36 442 30 33 0
507 -36 0
507 -442 0
507 -30 0
507 -33 0
508 -38 -507 0
-508 38 0
-508 507 0
-509 46 508 43 0
509 -46 0
509 -508 0
509 -43 0
510 -48 -509 0
-510 48 0
-510 509 0
-511 52 510 49 0
511 -52 0
511 -510 0
511 -49 0
512 -62 -511 0
-512 62 0
-512 511 0
-513 46 508 72 0
513 -46 0
513 -508 0
513 -72 0
514 -88 -513 0
-514 88 0
-514 513 0
-515 21 514 0
515 -21 0
515 -514 0
516 -20 -515 0
-516 20 0
-516 515 0
-517 23 512 516 0
517 -23 0
517 -512 0
517 -516 0
518 -129 -517 0
-518 129 0
-518 517 0
-519 131 475 492 96 500 506 518 0
519 -131 0
519 -475 0
519 -492 0
519 -96 0
519 -500 0
519 -506 0
519 -518 0
520 -133 -519 0
-520 133 0
-520 519 0
-521 213 520 0
521 -213 0
521 -520 0
522 -298 -521 0
-522 298 0
-522 521 0
-523 131 134 140 96 245 0
523 -131 0
523 -134 0
523 -140 0
523 -96 0
523 -245 0
524 -133 -523 0
-524 133 0
-524 523 0
-525 213 524 0
525 -213 0
525 -524 0
526 -293 -525 0
-526 293 0
-526 525 0
-527 52 526 49 0
527 -52 0
527 -526 0
527 -49 0
528 -70 -527 0
-528 70 0
-528 527 0
529 -293 -213 0
-529 293 0
-529 213 0
-530 52 529 49 0
530 -52 0
530 -529 0
530 -49 0
531 -54 -530 0
-531 54 0
-531 530 0
532 -308 -213 0
-532 308 0
-532 213 0
533 -56 -530 0
-533 56 0
-533 530 0
534 -380 -213 0
-534 380 0
-534 213 0
-535 77 533 534 57 0
535 -77 0
535 -533 0
535 -534 0
535 -57 0
536 -79 -535 0
-536 79 0
-536 535 0
-537 93 532 536 138 0
537 -93 0
537 -532 0
537 -536 0
537 -138 0
538 -95 -537 0
-538 95 0
-538 537 0
539 -62 -530 0
-539 62 0
-539 530 0
-540 23 539 19 0
540 -23 0
540 -539 0
540 -19 0
541 -129 -540 0
-541 129 0
-541 540 0
-542 131 531 538 96 541 0
542 -131 0
542 -531 0
542 -538 0
542 -96 0
542 -541 0
543 -144 -542 0
-543 144 0
-543 542 0
-544 32 543 0
544 -32 0
544 -543 0
545 -40 -544 0
-545 40 0
-545 544 0
-546 42 528 545 0
546 -42 0
546 -528 0
546 -545 0
547 -44 -546 0
-547 44 0
-547 546 0
-548 46 547 0
548 -46 0
548 -547 0
549 -104 -548 0
-549 104 0
-549 548 0
-550 3 549 0
550 -3 0
550 -549 0
551 -2 -550 0
-551 2 0
-551 550 0
552 -75 -174 0
-552 75 0
-552 174 0
-553 77 178 57 552 0
553 -77 0
553 -178 0
553 -57 0
553 -552 0
554 -79 -553 0
-554 79 0
-554 553 0
-555 93 554 272 0
555 -93 0
555 -554 0
555 -272 0
556 -95 -555 0
-556 95 0
-556 555 0
-557 131 177 556 96 277 235 0
557 -131 0
557 -177 0
557 -556 0
557 -96 0
557 -277 0
557 -235 0
558 -133 -557 0
-558 133 0
-558 557 0
-559 213 558 0
559 -213 0
559 -558 0
560 -293 -559 0
-560 293 0
-560 559 0
-561 131 538 96 153 0
561 -131 0
561 -538 0
561 -96 0
561 -153 0
562 -144 -561 0
-562 144 0
-562 561 0
-563 32 562 0
563 -32 0
563 -562 0
564 -40 -563 0
-564 40 0
-564 563 0
-565 42 564 0
565 -42 0
565 -564 0
566 -44 -565 0
-566 44 0
-566 565 0
-567 46 566 0
567 -46 0
567 -566 0
568 -48 -567 0
-568 48 0
-568 567 0
-569 52 560 568 49 0
569 -52 0
569 -560 0
569 -568 0
569 -49 0
570 -62 -569 0
-570 62 0
-570 569 0
571 -133 -154 0
-571 133 0
-571 154 0
-572 213 571 0
572 -213 0
572 -571 0
573 -293 -572 0
-573 293 0
-573 572 0
-574 52 573 49 0
574 -52 0
574 -573 0
574 -49 0
575 -70 -574 0
-575 70 0
-575 574 0
-576 131 531 538 96 153 0
576 -131 0
576 -531 0
576 -538 0
576 -96 0
576 -153 0
577 -144 -576 0
-577 144 0
-577 576 0
-578 32 577 0
578 -32 0
578 -577 0
579 -40 -578 0
-579 40 0
-579 578 0
-580 42 575 579 0
580 -42 0
580 -575 0
580 -579 0
581 -44 -580 0
-581 44 0
-581 580 0
-582 46 581 0
582 -46 0
582 -581 0
583 -88 -582 0
-583 88 0
-583 582 0
-584 21 583 0
584 -21 0
584 -583 0
585 -20 -584 0
-585 20 0
-585 584 0
-586 23 570 585 0
586 -23 0
586 -570 0
586 -585 0
587 -25 -586 0
-587 25 0
-587 586 0
-588 27 551 587 0
588 -27 0
588 -551 0
588 -587 0
589 -29 -588 0
-589 29 0
-589 588 0
-590 52 529 175 49 0
590 -52 0
590 -529 0
590 -175 0
590 -49 0
591 -54 -590 0
-591 54 0
-591 590 0
592 -56 -590 0
-592 56 0
-592 590 0
593 -70 -530 0
-593 70 0
-593 530 0
-594 42 593 39 0
594 -42 0
594 -593 0
594 -39 0
595 -44 -594 0
-595 44 0
-595 594 0
-596 46 595 0
596 -46 0
596 -595 0
597 -75 -596 0
-597 75 0
-597 596 0
-598 77 592 534 57 597 0
598 -77 0
598 -592 0
598 -534 0
598 -57 0
598 -597 0
599 -79 -598 0
-599 79 0
-599 598 0
600 -88 -596 0
-600 88 0
-600 596 0
-601 21 600 0
601 -21 0
601 -600 0
602 -91 -601 0
-602 91 0
-602 601 0
-603 93 532 599 602 0
603 -93 0
603 -532 0
603 -599 0
603 -602 0
604 -95 -603 0
-604 95 0
-604 603 0
605 -104 -596 0
-605 104 0
-605 596 0
-606 3 605 0
606 -3 0
606 -605 0
607 -107 -606 0
-607 107 0
-607 606 0
-608 52 529 191 49 0
608 -52 0
608 -529 0
608 -191 0
608 -49 0
609 -70 -608 0
-609 70 0
-609 608 0
-610 42 609 39 0
610 -42 0
610 -609 0
610 -39 0
611 -114 -610 0
-611 114 0
-611 610 0
612 -62 -590 0
-612 62 0
-612 590 0
613 -20 -601 0
-613 20 0
-613 601 0
-614 23 612 613 0
614 -23 0
614 -612 0
614 -613 0
615 -129 -614 0
-615 129 0
-615 614 0
-616 131 591 604 96 607 611 615 0
616 -131 0
616 -591 0
616 -604 0
616 -96 0
616 -607 0
616 -611 0
616 -615 0
617 -144 -616 0
-617 144 0
-617 616 0
-618 32 617 0
618 -32 0
618 -617 0
619 -31 -618 0
-619 31 0
-619 618 0
-620 36 589 619 33 0
620 -36 0
620 -589 0
620 -619 0
620 -33 0
621 -206 -620 0
-621 206 0
-621 620 0
-622 12 522 621 9 0
622 -12 0
622 -522 0
622 -621 0
622 -9 0
623 -14 -622 0
-623 14 0
-623 622 0
-624 16 623 0
624 -16 0
624 -623 0
625 -626 -624 0
-625 626 0
-625 624 0
-627 628 468 625 0
627 -628 0
627 -468 0
627 -625 0
629 -630 -627 0
-629 630 0
-629 627 0
631 -632 -7 0
-631 632 0
-631 7 0
-633 634 214 464 466 629 631 0
633 -634 0
633 -214 0
633 -464 0
633 -466 0
633 -629 0
633 -631 0
635 -636 -633 0
-635 636 0
-635 633 0
637 -75 -472 0
-637 75 0
-637 472 0
-638 77 57 637 0
638 -77 0
638 -57 0
638 -637 0
639 -465 -638 0
-639 465 0
-639 638 0
640 -469 -638 0
-640 469 0
-640 638 0
-641 628 640 0
641 -628 0
641 -640 0
642 -630 -641 0
-642 630 0
-642 641 0
-643 634 639 466 642 631 0
643 -634 0
643 -639 0
643 -466 0
643 -642 0
643 -631 0
644 -645 -643 0
-644 645 0
-644 643 0
646 -465 -553 0
-646 465 0
-646 553 0
647 -469 -553 0
-647 469 0
-647 553 0
-648 628 647 0
648 -628 0
648 -647 0
649 -630 -648 0
-649 630 0
-649 648 0
-650 634 646 466 649 631 0
650 -634 0
650 -646 0
650 -466 0
650 -649 0
650 -631 0
651 -652 -650 0
-651 652 0
-651 650 0
653 -2 -276 0
-653 2 0
-653 276 0
654 -25 -279 0
-654 25 0
-654 279 0
-655 27 653 654 0
655 -27 0
655 -653 0
655 -654 0
656 -29 -655 0
-656 29 0
-656 655 0
-657 36 651 656 30 33 0
657 -36 0
657 -651 0
657 -656 0
657 -30 0
657 -33 0
658 -206 -657 0
-658 206 0
-658 657 0
-659 12 658 9 0
659 -12 0
659 -658 0
659 -9 0
660 -14 -659 0
-660 14 0
-660 659 0
-661 16 644 660 0
661 -16 0
661 -644 0
661 -660 0
662 -211 -661 0
-662 211 0
-662 661 0
-663 213 662 0
663 -213 0
663 -662 0
664 -293 -663 0
-664 293 0
-664 663 0
665 -215 -306 0
-665 215 0
-665 306 0
666 -380 -306 0
-666 380 0
-666 306 0
-667 77 666 57 0
667 -77 0
667 -666 0
667 -57 0
668 -465 -667 0
-668 465 0
-668 667 0
669 -469 -667 0
-669 469 0
-669 667 0
670 -298 -213 0
-670 298 0
-670 213 0
-671 12 670 9 0
671 -12 0
671 -670 0
671 -9 0
672 -14 -671 0
-672 14 0
-672 671 0
-673 16 672 0
673 -16 0
673 -672 0
674 -626 -673 0
-674 626 0
-674 673 0
-675 628 669 674 0
675 -628 0
675 -669 0
675 -674 0
676 -630 -675 0
-676 630 0
-676 675 0
-677 634 665 668 466 676 631 0
677 -634 0
677 -665 0
677 -668 0
677 -466 0
677 -676 0
677 -631 0
678 -652 -677 0
-678 652 0
-678 677 0
679 -465 -535 0
-679 465 0
-679 535 0
680 -469 -535 0
-680 469 0
-680 535 0
-681 628 680 0
681 -628 0
681 -680 0
682 -630 -681 0
-682 630 0
-682 681 0
-683 634 665 679 466 682 631 0
683 -634 0
683 -665 0
683 -679 0
683 -466 0
683 -682 0
683 -631 0
684 -645 -683 0
-684 645 0
-684 683 0
-685 16 684 672 0
685 -16 0
685 -684 0
685 -672 0
686 -18 -685 0
-686 18 0
-686 685 0
-687 27 1 686 24 0
687 -27 0
687 -1 0
687 -686 0
687 -24 0
688 -29 -687 0
-688 29 0
-688 687 0
-689 36 678 688 30 33 0
689 -36 0
689 -678 0
689 -688 0
689 -30 0
689 -33 0
690 -38 -689 0
-690 38 0
-690 689 0
-691 46 690 43 0
691 -46 0
691 -690 0
691 -43 0
692 -48 -691 0
-692 48 0
-692 691 0
-693 52 664 692 49 0
693 -52 0
693 -664 0
693 -692 0
693 -49 0
694 -54 -693 0
-694 54 0
-694 693 0
695 -465 -481 0
-695 465 0
-695 481 0
696 -469 -481 0
-696 469 0
-696 481 0
-697 628 696 0
697 -628 0
697 -696 0
698 -630 -697 0
-698 630 0
-698 697 0
-699 634 695 466 698 631 0
699 -634 0
699 -695 0
699 -466 0
699 -698 0
699 -631 0
700 -645 -699 0
-700 645 0
-700 699 0
701 -465 -181 0
-701 465 0
-701 181 0
702 -469 -181 0
-702 469 0
-702 181 0
-703 628 702 0
703 -628 0
703 -702 0
704 -630 -703 0
-704 630 0
-704 703 0
-705 634 701 466 704 631 0
705 -634 0
705 -701 0
705 -466 0
705 -704 0
705 -631 0
706 -652 -705 0
-706 652 0
-706 705 0
707 -2 -189 0
-707 2 0
-707 189 0
708 -25 -198 0
-708 25 0
-708 198 0
-709 27 707 708 0
709 -27 0
709 -707 0
709 -708 0
710 -29 -709 0
-710 29 0
-710 709 0
-711 36 706 710 30 33 0
711 -36 0
711 -706 0
711 -710 0
711 -30 0
711 -33 0
712 -206 -711 0
-712 206 0
-712 711 0
-713 12 712 9 0
713 -12 0
713 -712 0
713 -9 0
714 -14 -713 0
-714 14 0
-714 713 0
-715 16 700 714 0
715 -16 0
715 -700 0
715 -714 0
716 -211 -715 0
-716 211 0
-716 715 0
-717 213 716 0
717 -213 0
717 -716 0
718 -308 -717 0
-718 308 0
-718 717 0
719 -630 -628 0
-719 630 0
-719 628 0
-720 634 466 719 631 0
720 -634 0
720 -466 0
720 -719 0
720 -631 0
721 -645 -720 0
-721 645 0
-721 720 0
-722 16 721 660 0
722 -16 0
722 -721 0
722 -660 0
723 -211 -722 0
-723 211 0
-723 722 0
-724 213 723 0
724 -213 0
724 -723 0
725 -293 -724 0
-725 293 0
-725 724 0
-726 628 674 0
726 -628 0
726 -674 0
727 -630 -726 0
-727 630 0
-727 726 0
-728 634 665 466 727 631 0
728 -634 0
728 -665 0
728 -466 0
728 -727 0
728 -631 0
729 -652 -728 0
-729 652 0
-729 728 0
-730 634 665 466 719 631 0
730 -634 0
730 -665 0
730 -466 0
730 -719 0
730 -631 0
731 -645 -730 0
-731 645 0
-731 730 0
-732 16 731 672 0
732 -16 0
732 -731 0
732 -672 0
733 -18 -732 0
-733 18 0
-733 732 0
-734 27 1 733 24 0
734 -27 0
734 -1 0
734 -733 0
734 -24 0
735 -29 -734 0
-735 29 0
-735 734 0
-736 36 729 735 30 33 0
736 -36 0
736 -729 0
736 -735 0
736 -30 0
736 -33 0
737 -38 -736 0
-737 38 0
-737 736 0
-738 46 737 43 0
738 -46 0
738 -737 0
738 -43 0
739 -48 -738 0
-739 48 0
-739 738 0
-740 52 725 739 49 0
740 -52 0
740 -725 0
740 -739 0
740 -49 0
741 -56 -740 0
-741 56 0
-741 740 0
742 -652 -720 0
-742 652 0
-742 720 0
-743 36 742 710 30 33 0
743 -36 0
743 -742 0
743 -710 0
743 -30 0
743 -33 0
744 -206 -743 0
-744 206 0
-744 743 0
-745 12 744 9 0
745 -12 0
745 -744 0
745 -9 0
746 -14 -745 0
-746 14 0
-746 745 0
-747 16 721 746 0
747 -16 0
747 -721 0
747 -746 0
748 -211 -747 0
-748 211 0
-748 747 0
-749 213 748 0
749 -213 0
749 -748 0
750 -380 -749 0
-750 380 0
-750 749 0
-751 16 721 13 0
751 -16 0
751 -721 0
751 -13 0
752 -211 -751 0
-752 211 0
-752 751 0
-753 213 752 0
753 -213 0
753 -752 0
754 -293 -753 0
-754 293 0
-754 753 0
-755 52 754 49 0
755 -52 0
755 -754 0
755 -49 0
756 -62 -755 0
-756 62 0
-756 755 0
-757 23 756 19 0
757 -23 0
757 -756 0
757 -19 0
758 -25 -757 0
-758 25 0
-758 757 0
-759 27 1 686 758 0
759 -27 0
759 -1 0
759 -686 0
759 -758 0
760 -29 -759 0
-760 29 0
-760 759 0
-761 36 729 760 30 33 0
761 -36 0
761 -729 0
761 -760 0
761 -30 0
761 -33 0
762 -38 -761 0
-762 38 0
-762 761 0
-763 36 742 318 30 33 0
763 -36 0
763 -742 0
763 -318 0
763 -30 0
763 -33 0
764 -206 -763 0
-764 206 0
-764 763 0
-765 12 764 9 0
765 -12 0
765 -764 0
765 -9 0
766 -14 -765 0
-766 14 0
-766 765 0
-767 16 721 766 0
767 -16 0
767 -721 0
767 -766 0
768 -211 -767 0
-768 211 0
-768 767 0
-769 213 768 0
769 -213 0
769 -768 0
770 -293 -769 0
-770 293 0
-770 769 0
-771 52 770 49 0
771 -52 0
771 -770 0
771 -49 0
772 -70 -771 0
-772 70 0
-772 771 0
-773 42 772 39 0
773 -42 0
773 -772 0
773 -39 0
774 -44 -773 0
-774 44 0
-774 773 0
-775 46 762 774 0
775 -46 0
775 -762 0
775 -774 0
776 -75 -775 0
-776 75 0
-776 775 0
-777 77 741 750 57 776 0
777 -77 0
777 -741 0
777 -750 0
777 -57 0
777 -776 0
778 -79 -777 0
-778 79 0
-778 777 0
779 -56 -399 0
-779 56 0
-779 399 0
-780 77 779 666 57 0
780 -77 0
780 -779 0
780 -666 0
780 -57 0
781 -465 -780 0
-781 465 0
-781 780 0
782 -469 -780 0
-782 469 0
-782 780 0
-783 628 782 674 0
783 -628 0
783 -782 0
783 -674 0
784 -630 -783 0
-784 630 0
-784 783 0
-785 634 665 781 466 784 631 0
785 -634 0
785 -665 0
785 -781 0
785 -466 0
785 -784 0
785 -631 0
786 -652 -785 0
-786 652 0
-786 785 0
787 -645 -705 0
-787 645 0
-787 705 0
-788 16 787 13 0
788 -16 0
788 -787 0
788 -13 0
789 -211 -788 0
-789 211 0
-789 788 0
-790 213 789 0
790 -213 0
790 -789 0
791 -293 -790 0
-791 293 0
-791 790 0
-792 52 791 49 0
792 -52 0
792 -791 0
792 -49 0
793 -62 -792 0
-793 62 0
-793 792 0
-794 23 793 0
794 -23 0
794 -793 0
795 -25 -794 0
-795 25 0
-795 794 0
-796 27 1 686 795 0
796 -27 0
796 -1 0
796 -686 0
796 -795 0
797 -29 -796 0
-797 29 0
-797 796 0
-798 36 786 797 30 33 0
798 -36 0
798 -786 0
798 -797 0
798 -30 0
798 -33 0
799 -38 -798 0
-799 38 0
-799 798 0
800 -465 -136 0
-800 465 0
-800 136 0
801 -469 -136 0
-801 469 0
-801 136 0
-802 628 801 0
802 -628 0
802 -801 0
803 -630 -802 0
-803 630 0
-803 802 0
-804 634 800 466 803 631 0
804 -634 0
804 -800 0
804 -466 0
804 -803 0
804 -631 0
805 -645 -804 0
-805 645 0
-805 804 0
806 -652 -804 0
-806 652 0
-806 804 0
-807 27 1 216 0
807 -27 0
807 -1 0
807 -216 0
808 -29 -807 0
-808 29 0
-808 807 0
-809 36 806 808 30 33 0
809 -36 0
809 -806 0
809 -808 0
809 -30 0
809 -33 0
810 -206 -809 0
-810 206 0
-810 809 0
-811 12 810 9 0
811 -12 0
811 -810 0
811 -9 0
812 -14 -811 0
-812 14 0
-812 811 0
-813 16 805 812 0
813 -16 0
813 -805 0
813 -812 0
814 -211 -813 0
-814 211 0
-814 813 0
-815 213 814 0
815 -213 0
815 -814 0
816 -293 -815 0
-816 293 0
-816 815 0
-817 52 816 49 0
817 -52 0
817 -816 0
817 -49 0
818 -70 -817 0
-818 70 0
-818 817 0
-819 42 818 39 0
819 -42 0
819 -818 0
819 -39 0
820 -44 -819 0
-820 44 0
-820 819 0
-821 46 799 820 0
821 -46 0
821 -799 0
821 -820 0
822 -88 -821 0
-822 88 0
-822 821 0
-823 21 822 0
823 -21 0
823 -822 0
824 -91 -823 0
-824 91 0
-824 823 0
-825 93 718 778 824 0
825 -93 0
825 -718 0
825 -778 0
825 -824 0
826 -95 -825 0
-826 95 0
-826 825 0
-827 23 793 19 0
827 -23 0
827 -793 0
827 -19 0
828 -25 -827 0
-828 25 0
-828 827 0
-829 27 686 828 0
829 -27 0
829 -686 0
829 -828 0
830 -29 -829 0
-830 29 0
-830 829 0
-831 36 786 830 30 33 0
831 -36 0
831 -786 0
831 -830 0
831 -30 0
831 -33 0
832 -38 -831 0
-832 38 0
-832 831 0
-833 27 24 0
833 -27 0
833 -24 0
834 -29 -833 0
-834 29 0
-834 833 0
-835 36 806 834 30 33 0
835 -36 0
835 -806 0
835 -834 0
835 -30 0
835 -33 0
836 -206 -835 0
-836 206 0
-836 835 0
-837 12 836 9 0
837 -12 0
837 -836 0
837 -9 0
838 -14 -837 0
-838 14 0
-838 837 0
-839 16 805 838 0
839 -16 0
839 -805 0
839 -838 0
840 -211 -839 0
-840 211 0
-840 839 0
-841 213 840 0
841 -213 0
841 -840 0
842 -293 -841 0
-842 293 0
-842 841 0
-843 52 842 49 0
843 -52 0
843 -842 0
843 -49 0
844 -70 -843 0
-844 70 0
-844 843 0
-845 42 844 39 0
845 -42 0
845 -844 0
845 -39 0
846 -44 -845 0
-846 44 0
-846 845 0
-847 46 832 846 0
847 -46 0
847 -832 0
847 -846 0
848 -104 -847 0
-848 104 0
-848 847 0
-849 3 848 0
849 -3 0
849 -848 0
850 -107 -849 0
-850 107 0
-850 849 0
851 -75 -501 0
-851 75 0
-851 501 0
-852 77 57 851 0
852 -77 0
852 -57 0
852 -851 0
853 -465 -852 0
-853 465 0
-853 852 0
854 -469 -852 0
-854 469 0
-854 852 0
-855 628 854 0
855 -628 0
855 -854 0
856 -630 -855 0
-856 630 0
-856 855 0
-857 634 853 466 856 631 0
857 -634 0
857 -853 0
857 -466 0
857 -856 0
857 -631 0
858 -645 -857 0
-858 645 0
-858 857 0
859 -75 -46 0
-859 75 0
-859 46 0
-860 77 57 859 0
860 -77 0
860 -57 0
860 -859 0
861 -465 -860 0
-861 465 0
-861 860 0
862 -469 -860 0
-862 469 0
-862 860 0
-863 628 862 0
863 -628 0
863 -862 0
864 -630 -863 0
-864 630 0
-864 863 0
-865 634 861 466 864 631 0
865 -634 0
865 -861 0
865 -466 0
865 -864 0
865 -631 0
866 -652 -865 0
-866 652 0
-866 865 0
867 -104 -46 0
-867 104 0
-867 46 0
-868 3 867 0
868 -3 0
868 -867 0
869 -2 -868 0
-869 2 0
-869 868 0
870 -88 -46 0
-870 88 0
-870 46 0
-871 21 870 0
871 -21 0
871 -870 0
872 -20 -871 0
-872 20 0
-872 871 0
-873 23 872 0
873 -23 0
873 -872 0
874 -25 -873 0
-874 25 0
-874 873 0
-875 27 869 874 0
875 -27 0
875 -869 0
875 -874 0
876 -29 -875 0
-876 29 0
-876 875 0
-877 36 866 876 30 33 0
877 -36 0
877 -866 0
877 -876 0
877 -30 0
877 -33 0
878 -206 -877 0
-878 206 0
-878 877 0
-879 12 878 9 0
879 -12 0
879 -878 0
879 -9 0
880 -14 -879 0
-880 14 0
-880 879 0
-881 16 858 880 0
881 -16 0
881 -858 0
881 -880 0
882 -211 -881 0
-882 211 0
-882 881 0
-883 213 882 0
883 -213 0
883 -882 0
884 -293 -883 0
-884 293 0
-884 883 0
-885 46 690 0
885 -46 0
885 -690 0
886 -48 -885 0
-886 48 0
-886 885 0
-887 52 884 886 49 0
887 -52 0
887 -884 0
887 -886 0
887 -49 0
888 -70 -887 0
-888 70 0
-888 887 0
-889 42 888 39 0
889 -42 0
889 -888 0
889 -39 0
890 -114 -889 0
-890 114 0
-890 889 0
891 -75 -509 0
-891 75 0
-891 509 0
-892 77 57 891 0
892 -77 0
892 -57 0
892 -891 0
893 -465 -892 0
-893 465 0
-893 892 0
894 -469 -892 0
-894 469 0
-894 892 0
-895 628 894 0
895 -628 0
895 -894 0
896 -630 -895 0
-896 630 0
-896 895 0
-897 634 893 466 896 631 0
897 -634 0
897 -893 0
897 -466 0
897 -896 0
897 -631 0
898 -645 -897 0
-898 645 0
-898 897 0
-899 16 898 660 0
899 -16 0
899 -898 0
899 -660 0
900 -211 -899 0
-900 211 0
-900 899 0
-901 213 900 0
901 -213 0
901 -900 0
902 -293 -901 0
-902 293 0
-902 901 0
-903 27 1 686 0
903 -27 0
903 -1 0
903 -686 0
904 -29 -903 0
-904 29 0
-904 903 0
-905 36 678 904 30 33 0
905 -36 0
905 -678 0
905 -904 0
905 -30 0
905 -33 0
906 -38 -905 0
-906 38 0
-906 905 0
-907 46 906 43 0
907 -46 0
907 -906 0
907 -43 0
908 -48 -907 0
-908 48 0
-908 907 0
-909 52 902 908 49 0
909 -52 0
909 -902 0
909 -908 0
909 -49 0
910 -62 -909 0
-910 62 0
-910 909 0
-911 36 786 904 30 33 0
911 -36 0
911 -786 0
911 -904 0
911 -30 0
911 -33 0
912 -38 -911 0
-912 38 0
-912 911 0
-913 36 806 442 30 33 0
913 -36 0
913 -806 0
913 -442 0
913 -30 0
913 -33 0
914 -206 -913 0
-914 206 0
-914 913 0
-915 12 914 9 0
915 -12 0
915 -914 0
915 -9 0
916 -14 -915 0
-916 14 0
-916 915 0
-917 16 805 916 0
917 -16 0
917 -805 0
917 -916 0
918 -211 -917 0
-918 211 0
-918 917 0
-919 213 918 0
919 -213 0
919 -918 0
920 -293 -919 0
-920 293 0
-920 919 0
-921 52 920 49 0
921 -52 0
921 -920 0
921 -49 0
922 -70 -921 0
-922 70 0
-922 921 0
-923 42 922 39 0
923 -42 0
923 -922 0
923 -39 0
924 -44 -923 0
-924 44 0
-924 923 0
-925 46 912 924 0
925 -46 0
925 -912 0
925 -924 0
926 -88 -925 0
-926 88 0
-926 925 0
-927 21 926 0
927 -21 0
927 -926 0
928 -20 -927 0
-928 20 0
-928 927 0
-929 23 910 928 0
929 -23 0
929 -910 0
929 -928 0
930 -129 -929 0
-930 129 0
-930 929 0
-931 131 694 826 96 850 890 930 0
931 -131 0
931 -694 0
931 -826 0
931 -96 0
931 -850 0
931 -890 0
931 -930 0
932 -933 -931 0
-932 933 0
-932 931 0
934 -626 -15 0
-934 626 0
-934 15 0
-935 628 669 934 0
935 -628 0
935 -669 0
935 -934 0
936 -630 -935 0
-936 630 0
-936 935 0
-937 634 668 466 936 631 0
937 -634 0
937 -668 0
937 -466 0
937 -936 0
937 -631 0
938 -652 -937 0
-938 652 0
-938 937 0
-939 16 805 13 0
939 -16 0
939 -805 0
939 -13 0
940 -18 -939 0
-940 18 0
-940 939 0
-941 27 1 940 24 0
941 -27 0
941 -1 0
941 -940 0
941 -24 0
942 -29 -941 0
-942 29 0
-942 941 0
-943 36 938 942 30 33 0
943 -36 0
943 -938 0
943 -942 0
943 -30 0
943 -33 0
944 -38 -943 0
-944 38 0
-944 943 0
-945 46 944 43 0
945 -46 0
945 -944 0
945 -43 0
946 -48 -945 0
-946 48 0
-946 945 0
-947 52 946 49 0
947 -52 0
947 -946 0
947 -49 0
948 -54 -947 0
-948 54 0
-948 947 0
-949 628 934 0
949 -628 0
949 -934 0
950 -630 -949 0
-950 630 0
-950 949 0
-951 634 466 950 631 0
951 -634 0
951 -466 0
951 -950 0
951 -631 0
952 -652 -951 0
-952 652 0
-952 951 0
953 -18 -751 0
-953 18 0
-953 751 0
-954 27 1 953 24 0
954 -27 0
954 -1 0
954 -953 0
954 -24 0
955 -29 -954 0
-955 29 0
-955 954 0
-956 36 952 955 30 33 0
956 -36 0
956 -952 0
956 -955 0
956 -30 0
956 -33 0
957 -38 -956 0
-957 38 0
-957 956 0
-958 46 957 43 0
958 -46 0
958 -957 0
958 -43 0
959 -48 -958 0
-959 48 0
-959 958 0
-960 52 959 49 0
960 -52 0
960 -959 0
960 -49 0
961 -56 -960 0
-961 56 0
-961 960 0
-962 27 1 953 64 0
962 -27 0
962 -1 0
962 -953 0
962 -64 0
963 -29 -962 0
-963 29 0
-963 962 0
-964 36 952 963 30 33 0
964 -36 0
964 -952 0
964 -963 0
964 -30 0
964 -33 0
965 -38 -964 0
-965 38 0
-965 964 0
-966 46 965 72 0
966 -46 0
966 -965 0
966 -72 0
967 -75 -966 0
-967 75 0
-967 966 0
-968 77 961 57 967 0
968 -77 0
968 -961 0
968 -57 0
968 -967 0
969 -79 -968 0
-969 79 0
-969 968 0
-970 628 782 934 0
970 -628 0
970 -782 0
970 -934 0
971 -630 -970 0
-971 630 0
-971 970 0
-972 634 781 466 971 631 0
972 -634 0
972 -781 0
972 -466 0
972 -971 0
972 -631 0
973 -652 -972 0
-973 652 0
-973 972 0
-974 27 1 940 81 0
974 -27 0
974 -1 0
974 -940 0
974 -81 0
975 -29 -974 0
-975 29 0
-975 974 0
-976 36 973 975 30 33 0
976 -36 0
976 -973 0
976 -975 0
976 -30 0
976 -33 0
977 -38 -976 0
-977 38 0
-977 976 0
-978 46 977 72 0
978 -46 0
978 -977 0
978 -72 0
979 -88 -978 0
-979 88 0
-979 978 0
-980 21 979 0
980 -21 0
980 -979 0
981 -91 -980 0
-981 91 0
-981 980 0
-982 93 969 981 0
982 -93 0
982 -969 0
982 -981 0
983 -95 -982 0
-983 95 0
-983 982 0
-984 27 940 64 0
984 -27 0
984 -940 0
984 -64 0
985 -29 -984 0
-985 29 0
-985 984 0
-986 36 973 985 30 33 0
986 -36 0
986 -973 0
986 -985 0
986 -30 0
986 -33 0
987 -38 -986 0
-987 38 0
-987 986 0
-988 46 987 72 0
988 -46 0
988 -987 0
988 -72 0
989 -104 -988 0
-989 104 0
-989 988 0
-990 3 989 0
990 -3 0
990 -989 0
991 -107 -990 0
-991 107 0
-991 990 0
-992 46 944 0
992 -46 0
992 -944 0
993 -48 -992 0
-993 48 0
-993 992 0
-994 52 993 49 0
994 -52 0
994 -993 0
994 -49 0
995 -70 -994 0
-995 70 0
-995 994 0
-996 42 995 39 0
996 -42 0
996 -995 0
996 -39 0
997 -114 -996 0
-997 114 0
-997 996 0
-998 27 1 940 0
998 -27 0
998 -1 0
998 -940 0
999 -29 -998 0
-999 29 0
-999 998 0
-1000 36 938 999 30 33 0
1000 -36 0
1000 -938 0
1000 -999 0
1000 -30 0
1000 -33 0
1001 -38 -1000 0
-1001 38 0
-1001 1000 0
-1002 46 1001 43 0
1002 -46 0
1002 -1001 0
1002 -43 0
1003 -48 -1002 0
-1003 48 0
-1003 1002 0
-1004 52 1003 49 0
1004 -52 0
1004 -1003 0
1004 -49 0
1005 -62 -1004 0
-1005 62 0
-1005 1004 0
-1006 36 973 999 30 33 0
1006 -36 0
1006 -973 0
1006 -999 0
1006 -30 0
1006 -33 0
1007 -38 -1006 0
-1007 38 0
-1007 1006 0
-1008 46 1007 72 0
1008 -46 0
1008 -1007 0
1008 -72 0
1009 -88 -1008 0
-1009 88 0
-1009 1008 0
-1010 21 1009 0
1010 -21 0
1010 -1009 0
1011 -20 -1010 0
-1011 20 0
-1011 1010 0
-1012 23 1005 1011 0
1012 -23 0
1012 -1005 0
1012 -1011 0
1013 -129 -1012 0
-1013 129 0
-1013 1012 0
-1014 131 948 983 96 991 997 1013 0
1014 -131 0
1014 -948 0
1014 -983 0
1014 -96 0
1014 -991 0
1014 -997 0
1014 -1013 0
1015 -133 -1014 0
-1015 133 0
-1015 1014 0
1016 -38 -416 0
-1016 38 0
-1016 416 0
-1017 131 134 244 96 153 245 0
1017 -131 0
1017 -134 0
1017 -244 0
1017 -96 0
1017 -153 0
1017 -245 0
1018 -144 -1017 0
-1018 144 0
-1018 1017 0
-1019 32 1018 0
1019 -32 0
1019 -1018 0
1020 -40 -1019 0
-1020 40 0
-1020 1019 0
-1021 42 1020 0
1021 -42 0
1021 -1020 0
1022 -44 -1021 0
-1022 44 0
-1022 1021 0
-1023 46 1016 1022 0
1023 -46 0
1023 -1016 0
1023 -1022 0
1024 -48 -1023 0
-1024 48 0
-1024 1023 0
-1025 52 1024 49 0
1025 -52 0
1025 -1024 0
1025 -49 0
1026 -56 -1025 0
-1026 56 0
-1026 1025 0
1027 -144 -382 0
-1027 144 0
-1027 382 0
-1028 32 1027 0
1028 -32 0
1028 -1027 0
1029 -31 -1028 0
-1029 31 0
-1029 1028 0
-1030 36 430 1029 33 0
1030 -36 0
1030 -430 0
1030 -1029 0
1030 -33 0
1031 -38 -1030 0
-1031 38 0
-1031 1030 0
1032 -40 -1028 0
-1032 40 0
-1032 1028 0
-1033 42 69 1032 0
1033 -42 0
1033 -69 0
1033 -1032 0
1034 -44 -1033 0
-1034 44 0
-1034 1033 0
-1035 46 1031 1034 0
1035 -46 0
1035 -1031 0
1035 -1034 0
1036 -75 -1035 0
-1036 75 0
-1036 1035 0
-1037 77 1026 57 1036 0
1037 -77 0
1037 -1026 0
1037 -57 0
1037 -1036 0
1038 -465 -1037 0
-1038 465 0
-1038 1037 0
1039 -469 -1037 0
-1039 469 0
-1039 1037 0
-1040 628 1039 0
1040 -628 0
1040 -1039 0
1041 -630 -1040 0
-1041 630 0
-1041 1040 0
-1042 634 1038 466 1041 631 0
1042 -634 0
1042 -1038 0
1042 -466 0
1042 -1041 0
1042 -631 0
1043 -645 -1042 0
-1043 645 0
-1043 1042 0
-1044 46 1022 0
1044 -46 0
1044 -1022 0
1045 -48 -1044 0
-1045 48 0
-1045 1044 0
-1046 52 1045 49 0
1046 -52 0
1046 -1045 0
1046 -49 0
1047 -56 -1046 0
-1047 56 0
-1047 1046 0
-1048 46 1034 0
1048 -46 0
1048 -1034 0
1049 -75 -1048 0
-1049 75 0
-1049 1048 0
-1050 77 1047 57 1049 0
1050 -77 0
1050 -1047 0
1050 -57 0
1050 -1049 0
1051 -465 -1050 0
-1051 465 0
-1051 1050 0
1052 -469 -1050 0
-1052 469 0
-1052 1050 0
-1053 628 1052 0
1053 -628 0
1053 -1052 0
1054 -630 -1053 0
-1054 630 0
-1054 1053 0
-1055 634 1051 466 1054 631 0
1055 -634 0
1055 -1051 0
1055 -466 0
1055 -1054 0
1055 -631 0
1056 -652 -1055 0
-1056 652 0
-1056 1055 0
-1057 36 1056 173 203 33 0
1057 -36 0
1057 -1056 0
1057 -173 0
1057 -203 0
1057 -33 0
1058 -206 -1057 0
-1058 206 0
-1058 1057 0
-1059 12 1058 9 0
1059 -12 0
1059 -1058 0
1059 -9 0
1060 -14 -1059 0
-1060 14 0
-1060 1059 0
-1061 16 1043 1060 0
1061 -16 0
1061 -1043 0
1061 -1060 0
1062 -211 -1061 0
-1062 211 0
-1062 1061 0
-1063 213 1015 1062 0
1063 -213 0
1063 -1015 0
1063 -1062 0
1064 -1065 -1063 0
-1064 1065 0
-1064 1063 0
-1066 27 1 953 216 0
1066 -27 0
1066 -1 0
1066 -953 0
1066 -216 0
1067 -29 -1066 0
-1067 29 0
-1067 1066 0
-1068 36 952 1067 30 33 0
1068 -36 0
1068 -952 0
1068 -1067 0
1068 -30 0
1068 -33 0
1069 -38 -1068 0
-1069 38 0
-1069 1068 0
-1070 46 1069 43 0
1070 -46 0
1070 -1069 0
1070 -43 0
1071 -88 -1070 0
-1071 88 0
-1071 1070 0
-1072 21 1071 0
1072 -21 0
1072 -1071 0
1073 -91 -1072 0
-1073 91 0
-1073 1072 0
-1074 93 1073 0
1074 -93 0
1074 -1073 0
1075 -95 -1074 0
-1075 95 0
-1075 1074 0
-1076 27 953 24 0
1076 -27 0
1076 -953 0
1076 -24 0
1077 -29 -1076 0
-1077 29 0
-1077 1076 0
-1078 36 952 1077 30 33 0
1078 -36 0
1078 -952 0
1078 -1077 0
1078 -30 0
1078 -33 0
1079 -38 -1078 0
-1079 38 0
-1079 1078 0
-1080 46 1079 43 0
1080 -46 0
1080 -1079 0
1080 -43 0
1081 -104 -1080 0
-1081 104 0
-1081 1080 0
-1082 3 1081 0
1082 -3 0
1082 -1081 0
1083 -107 -1082 0
-1083 107 0
-1083 1082 0
-1084 27 1 953 0
1084 -27 0
1084 -1 0
1084 -953 0
1085 -29 -1084 0
-1085 29 0
-1085 1084 0
-1086 36 952 1085 30 33 0
1086 -36 0
1086 -952 0
1086 -1085 0
1086 -30 0
1086 -33 0
1087 -38 -1086 0
-1087 38 0
-1087 1086 0
-1088 46 1087 43 0
1088 -46 0
1088 -1087 0
1088 -43 0
1089 -88 -1088 0
-1089 88 0
-1089 1088 0
-1090 21 1089 0
1090 -21 0
1090 -1089 0
1091 -20 -1090 0
-1091 20 0
-1091 1090 0
-1092 23 1091 0
1092 -23 0
1092 -1091 0
1093 -129 -1092 0
-1093 129 0
-1093 1092 0
-1094 131 1075 96 1083 235 1093 0
1094 -131 0
1094 -1075 0
1094 -96 0
1094 -1083 0
1094 -235 0
1094 -1093 0
1095 -133 -1094 0
-1095 133 0
-1095 1094 0
-1096 36 742 269 284 33 0
1096 -36 0
1096 -742 0
1096 -269 0
1096 -284 0
1096 -33 0
1097 -206 -1096 0
-1097 206 0
-1097 1096 0
-1098 12 1097 9 0
1098 -12 0
1098 -1097 0
1098 -9 0
1099 -14 -1098 0
-1099 14 0
-1099 1098 0
-1100 16 721 1099 0
1100 -16 0
1100 -721 0
1100 -1099 0
1101 -211 -1100 0
-1101 211 0
-1101 1100 0
-1102 213 1095 1101 0
1102 -213 0
1102 -1095 0
1102 -1101 0
1103 -293 -1102 0
-1103 293 0
-1103 1102 0
1104 -215 -390 0
-1104 215 0
-1104 390 0
1105 -626 -301 0
-1105 626 0
-1105 301 0
-1106 628 1105 0
1106 -628 0
1106 -1105 0
1107 -630 -1106 0
-1107 630 0
-1107 1106 0
-1108 634 1104 466 1107 631 0
1108 -634 0
1108 -1104 0
1108 -466 0
1108 -1107 0
1108 -631 0
1109 -652 -1108 0
-1109 652 0
-1109 1108 0
1110 -215 -296 0
-1110 215 0
-1110 296 0
-1111 634 1110 466 719 631 0
1111 -634 0
1111 -1110 0
1111 -466 0
1111 -719 0
1111 -631 0
1112 -645 -1111 0
-1112 645 0
-1112 1111 0
-1113 16 1112 300 0
1113 -16 0
1113 -1112 0
1113 -300 0
1114 -18 -1113 0
-1114 18 0
-1114 1113 0
-1115 27 1 1114 24 0
1115 -27 0
1115 -1 0
1115 -1114 0
1115 -24 0
1116 -29 -1115 0
-1116 29 0
-1116 1115 0
1117 -308 -753 0
-1117 308 0
-1117 753 0
-1118 93 1117 138 0
1118 -93 0
1118 -1117 0
1118 -138 0
1119 -95 -1118 0
-1119 95 0
-1119 1118 0
-1120 131 1119 96 153 235 245 0
1120 -131 0
1120 -1119 0
1120 -96 0
1120 -153 0
1120 -235 0
1120 -245 0
1121 -144 -1120 0
-1121 144 0
-1121 1120 0
-1122 32 1121 0
1122 -32 0
1122 -1121 0
1123 -31 -1122 0
-1123 31 0
-1123 1122 0
-1124 36 1109 1116 1123 33 0
1124 -36 0
1124 -1109 0
1124 -1116 0
1124 -1123 0
1124 -33 0
1125 -38 -1124 0
-1125 38 0
-1125 1124 0
-1126 36 742 318 33 0
1126 -36 0
1126 -742 0
1126 -318 0
1126 -33 0
1127 -206 -1126 0
-1127 206 0
-1127 1126 0
-1128 12 1127 9 0
1128 -12 0
1128 -1127 0
1128 -9 0
1129 -14 -1128 0
-1129 14 0
-1129 1128 0
-1130 16 721 1129 0
1130 -16 0
1130 -721 0
1130 -1129 0
1131 -211 -1130 0
-1131 211 0
-1131 1130 0
-1132 213 1131 0
1132 -213 0
1132 -1131 0
1133 -308 -1132 0
-1133 308 0
-1133 1132 0
-1134 93 1133 138 0
1134 -93 0
1134 -1133 0
1134 -138 0
1135 -95 -1134 0
-1135 95 0
-1135 1134 0
-1136 131 1135 96 153 245 0
1136 -131 0
1136 -1135 0
1136 -96 0
1136 -153 0
1136 -245 0
1137 -144 -1136 0
-1137 144 0
-1137 1136 0
-1138 32 1137 0
1138 -32 0
1138 -1137 0
1139 -40 -1138 0
-1139 40 0
-1139 1138 0
-1140 42 1139 0
1140 -42 0
1140 -1139 0
1141 -44 -1140 0
-1141 44 0
-1141 1140 0
-1142 46 1125 1141 0
1142 -46 0
1142 -1125 0
1142 -1141 0
1143 -48 -1142 0
-1143 48 0
-1143 1142 0
-1144 52 1103 1143 49 0
1144 -52 0
1144 -1103 0
1144 -1143 0
1144 -49 0
1145 -56 -1144 0
-1145 56 0
-1145 1144 0
1146 -54 -960 0
-1146 54 0
-1146 960 0
-1147 27 1 953 81 0
1147 -27 0
1147 -1 0
1147 -953 0
1147 -81 0
1148 -29 -1147 0
-1148 29 0
-1148 1147 0
-1149 36 952 1148 30 33 0
1149 -36 0
1149 -952 0
1149 -1148 0
1149 -30 0
1149 -33 0
1150 -38 -1149 0
-1150 38 0
-1150 1149 0
-1151 46 1150 72 0
1151 -46 0
1151 -1150 0
1151 -72 0
1152 -88 -1151 0
-1152 88 0
-1152 1151 0
-1153 21 1152 0
1153 -21 0
1153 -1152 0
1154 -91 -1153 0
-1154 91 0
-1154 1153 0
-1155 93 1154 0
1155 -93 0
1155 -1154 0
1156 -95 -1155 0
-1156 95 0
-1156 1155 0
-1157 27 953 64 0
1157 -27 0
1157 -953 0
1157 -64 0
1158 -29 -1157 0
-1158 29 0
-1158 1157 0
-1159 36 952 1158 30 33 0
1159 -36 0
1159 -952 0
1159 -1158 0
1159 -30 0
1159 -33 0
1160 -38 -1159 0
-1160 38 0
-1160 1159 0
-1161 46 1160 72 0
1161 -46 0
1161 -1160 0
1161 -72 0
1162 -104 -1161 0
-1162 104 0
-1162 1161 0
-1163 3 1162 0
1163 -3 0
1163 -1162 0
1164 -107 -1163 0
-1164 107 0
-1164 1163 0
-1165 46 957 0
1165 -46 0
1165 -957 0
1166 -48 -1165 0
-1166 48 0
-1166 1165 0
-1167 52 1166 49 0
1167 -52 0
1167 -1166 0
1167 -49 0
1168 -70 -1167 0
-1168 70 0
-1168 1167 0
-1169 42 1168 39 0
1169 -42 0
1169 -1168 0
1169 -39 0
1170 -114 -1169 0
-1170 114 0
-1170 1169 0
1171 -48 -1088 0
-1171 48 0
-1171 1088 0
-1172 52 1171 49 0
1172 -52 0
1172 -1171 0
1172 -49 0
1173 -62 -1172 0
-1173 62 0
-1173 1172 0
-1174 46 1087 72 0
1174 -46 0
1174 -1087 0
1174 -72 0
1175 -88 -1174 0
-1175 88 0
-1175 1174 0
-1176 21 1175 0
1176 -21 0
1176 -1175 0
1177 -20 -1176 0
-1177 20 0
-1177 1176 0
-1178 23 1173 1177 0
1178 -23 0
1178 -1173 0
1178 -1177 0
1179 -129 -1178 0
-1179 129 0
-1179 1178 0
-1180 131 1146 1156 96 1164 1170 1179 0
1180 -131 0
1180 -1146 0
1180 -1156 0
1180 -96 0
1180 -1164 0
1180 -1170 0
1180 -1179 0
1181 -133 -1180 0
-1181 133 0
-1181 1180 0
-1182 36 742 365 371 33 0
1182 -36 0
1182 -742 0
1182 -365 0
1182 -371 0
1182 -33 0
1183 -206 -1182 0
-1183 206 0
-1183 1182 0
-1184 12 1183 9 0
1184 -12 0
1184 -1183 0
1184 -9 0
1185 -14 -1184 0
-1185 14 0
-1185 1184 0
-1186 16 721 1185 0
1186 -16 0
1186 -721 0
1186 -1185 0
1187 -211 -1186 0
-1187 211 0
-1187 1186 0
-1188 213 1181 1187 0
1188 -213 0
1188 -1181 0
1188 -1187 0
1189 -380 -1188 0
-1189 380 0
-1189 1188 0
-1190 213 383 305 0
1190 -213 0
1190 -383 0
1190 -305 0
1191 -215 -1190 0
-1191 215 0
-1191 1190 0
1192 -626 -388 0
-1192 626 0
-1192 388 0
-1193 628 1192 0
1193 -628 0
1193 -1192 0
1194 -630 -1193 0
-1194 630 0
-1194 1193 0
-1195 634 1191 466 1194 631 0
1195 -634 0
1195 -1191 0
1195 -466 0
1195 -1194 0
1195 -631 0
1196 -652 -1195 0
-1196 652 0
-1196 1195 0
1197 -215 -384 0
-1197 215 0
-1197 384 0
-1198 634 1197 466 719 631 0
1198 -634 0
1198 -1197 0
1198 -466 0
1198 -719 0
1198 -631 0
1199 -645 -1198 0
-1199 645 0
-1199 1198 0
-1200 16 1199 387 0
1200 -16 0
1200 -1199 0
1200 -387 0
1201 -18 -1200 0
-1201 18 0
-1201 1200 0
-1202 213 295 752 0
1202 -213 0
1202 -295 0
1202 -752 0
1203 -293 -1202 0
-1203 293 0
-1203 1202 0
-1204 52 1203 49 0
1204 -52 0
1204 -1203 0
1204 -49 0
1205 -62 -1204 0
-1205 62 0
-1205 1204 0
-1206 23 1205 19 0
1206 -23 0
1206 -1205 0
1206 -19 0
1207 -25 -1206 0
-1207 25 0
-1207 1206 0
-1208 27 1 1201 1207 0
1208 -27 0
1208 -1 0
1208 -1201 0
1208 -1207 0
1209 -29 -1208 0
-1209 29 0
-1209 1208 0
1210 -54 -1204 0
-1210 54 0
-1210 1204 0
1211 -70 -1204 0
-1211 70 0
-1211 1204 0
-1212 42 1211 39 0
1212 -42 0
1212 -1211 0
1212 -39 0
1213 -114 -1212 0
-1213 114 0
-1213 1212 0
1214 -129 -1206 0
-1214 129 0
-1214 1206 0
-1215 131 1210 1119 96 153 1213 1214 0
1215 -131 0
1215 -1210 0
1215 -1119 0
1215 -96 0
1215 -153 0
1215 -1213 0
1215 -1214 0
1216 -144 -1215 0
-1216 144 0
-1216 1215 0
-1217 32 1216 0
1217 -32 0
1217 -1216 0
1218 -31 -1217 0
-1218 31 0
-1218 1217 0
-1219 36 1196 1209 1218 33 0
1219 -36 0
1219 -1196 0
1219 -1209 0
1219 -1218 0
1219 -33 0
1220 -38 -1219 0
-1220 38 0
-1220 1219 0
1221 -31 -1019 0
-1221 31 0
-1221 1019 0
-1222 36 742 318 1221 33 0
1222 -36 0
1222 -742 0
1222 -318 0
1222 -1221 0
1222 -33 0
1223 -206 -1222 0
-1223 206 0
-1223 1222 0
-1224 12 1223 9 0
1224 -12 0
1224 -1223 0
1224 -9 0
1225 -14 -1224 0
-1225 14 0
-1225 1224 0
-1226 16 721 1225 0
1226 -16 0
1226 -721 0
1226 -1225 0
1227 -211 -1226 0
-1227 211 0
-1227 1226 0
-1228 213 295 1227 0
1228 -213 0
1228 -295 0
1228 -1227 0
1229 -293 -1228 0
-1229 293 0
-1229 1228 0
-1230 52 1229 49 0
1230 -52 0
1230 -1229 0
1230 -49 0
1231 -70 -1230 0
-1231 70 0
-1231 1230 0
1232 -293 -1132 0
-1232 293 0
-1232 1132 0
-1233 52 1232 49 0
1233 -52 0
1233 -1232 0
1233 -49 0
1234 -54 -1233 0
-1234 54 0
-1234 1233 0
-1235 36 742 430 33 0
1235 -36 0
1235 -742 0
1235 -430 0
1235 -33 0
1236 -206 -1235 0
-1236 206 0
-1236 1235 0
-1237 12 1236 9 0
1237 -12 0
1237 -1236 0
1237 -9 0
1238 -14 -1237 0
-1238 14 0
-1238 1237 0
-1239 16 721 1238 0
1239 -16 0
1239 -721 0
1239 -1238 0
1240 -211 -1239 0
-1240 211 0
-1240 1239 0
-1241 213 1240 0
1241 -213 0
1241 -1240 0
1242 -308 -1241 0
-1242 308 0
-1242 1241 0
-1243 93 1242 138 0
1243 -93 0
1243 -1242 0
1243 -138 0
1244 -95 -1243 0
-1244 95 0
-1244 1243 0
-1245 36 742 442 33 0
1245 -36 0
1245 -742 0
1245 -442 0
1245 -33 0
1246 -206 -1245 0
-1246 206 0
-1246 1245 0
-1247 12 1246 9 0
1247 -12 0
1247 -1246 0
1247 -9 0
1248 -14 -1247 0
-1248 14 0
-1248 1247 0
-1249 16 721 1248 0
1249 -16 0
1249 -721 0
1249 -1248 0
1250 -211 -1249 0
-1250 211 0
-1250 1249 0
-1251 213 1250 0
1251 -213 0
1251 -1250 0
1252 -293 -1251 0
-1252 293 0
-1252 1251 0
-1253 52 1252 49 0
1253 -52 0
1253 -1252 0
1253 -49 0
1254 -62 -1253 0
-1254 62 0
-1254 1253 0
-1255 23 1254 19 0
1255 -23 0
1255 -1254 0
1255 -19 0
1256 -129 -1255 0
-1256 129 0
-1256 1255 0
-1257 131 1234 1244 96 153 1256 0
1257 -131 0
1257 -1234 0
1257 -1244 0
1257 -96 0
1257 -153 0
1257 -1256 0
1258 -144 -1257 0
-1258 144 0
-1258 1257 0
-1259 32 1258 0
1259 -32 0
1259 -1258 0
1260 -40 -1259 0
-1260 40 0
-1260 1259 0
-1261 42 1231 1260 0
1261 -42 0
1261 -1231 0
1261 -1260 0
1262 -44 -1261 0
-1262 44 0
-1262 1261 0
-1263 46 1220 1262 0
1263 -46 0
1263 -1220 0
1263 -1262 0
1264 -75 -1263 0
-1264 75 0
-1264 1263 0
-1265 77 1145 1189 57 1264 0
1265 -77 0
1265 -1145 0
1265 -1189 0
1265 -57 0
1265 -1264 0
1266 -1267 -1265 0
-1266 1267 0
-1266 1265 0
-1268 77 178 57 74 0
1268 -77 0
1268 -178 0
1268 -57 0
1268 -74 0
1269 -79 -1268 0
-1269 79 0
-1269 1268 0
-1270 93 1269 90 0
1270 -93 0
1270 -1269 0
1270 -90 0
1271 -95 -1270 0
-1271 95 0
-1271 1270 0
-1272 23 196 126 0
1272 -23 0
1272 -196 0
1272 -126 0
1273 -129 -1272 0
-1273 129 0
-1273 1272 0
-1274 131 177 1271 96 106 195 1273 0
1274 -131 0
1274 -177 0
1274 -1271 0
1274 -96 0
1274 -106 0
1274 -195 0
1274 -1273 0
1275 -133 -1274 0
-1275 133 0
-1275 1274 0
-1276 213 1275 305 0
1276 -213 0
1276 -1275 0
1276 -305 0
1277 -215 -1276 0
-1277 215 0
-1277 1276 0
1278 -133 -281 0
-1278 133 0
-1278 281 0
-1279 213 1278 305 0
1279 -213 0
1279 -1278 0
1279 -305 0
1280 -293 -1279 0
-1280 293 0
-1280 1279 0
-1281 131 310 96 153 245 0
1281 -131 0
1281 -310 0
1281 -96 0
1281 -153 0
1281 -245 0
1282 -144 -1281 0
-1282 144 0
-1282 1281 0
-1283 32 1282 0
1283 -32 0
1283 -1282 0
1284 -40 -1283 0
-1284 40 0
-1284 1283 0
-1285 42 1284 0
1285 -42 0
1285 -1284 0
1286 -44 -1285 0
-1286 44 0
-1286 1285 0
-1287 46 1286 0
1287 -46 0
1287 -1286 0
1288 -48 -1287 0
-1288 48 0
-1288 1287 0
-1289 52 1280 1288 49 0
1289 -52 0
1289 -1280 0
1289 -1288 0
1289 -49 0
1290 -56 -1289 0
-1290 56 0
-1290 1289 0
-1291 131 177 340 96 106 195 1273 0
1291 -131 0
1291 -177 0
1291 -340 0
1291 -96 0
1291 -106 0
1291 -195 0
1291 -1273 0
1292 -133 -1291 0
-1292 133 0
-1292 1291 0
-1293 213 1292 305 0
1293 -213 0
1293 -1292 0
1293 -305 0
1294 -380 -1293 0
-1294 380 0
-1294 1293 0
1295 -70 -392 0
-1295 70 0
-1295 392 0
-1296 131 400 310 96 153 406 0
1296 -131 0
1296 -400 0
1296 -310 0
1296 -96 0
1296 -153 0
1296 -406 0
1297 -144 -1296 0
-1297 144 0
-1297 1296 0
-1298 32 1297 0
1298 -32 0
1298 -1297 0
1299 -40 -1298 0
-1299 40 0
-1299 1298 0
-1300 42 1295 1299 0
1300 -42 0
1300 -1295 0
1300 -1299 0
1301 -44 -1300 0
-1301 44 0
-1301 1300 0
-1302 46 1301 0
1302 -46 0
1302 -1301 0
1303 -75 -1302 0
-1303 75 0
-1303 1302 0
-1304 77 1290 1294 57 1303 0
1304 -77 0
1304 -1290 0
1304 -1294 0
1304 -57 0
1304 -1303 0
1305 -465 -1304 0
-1305 465 0
-1305 1304 0
1306 -469 -1304 0
-1306 469 0
-1306 1304 0
1307 -133 -200 0
-1307 133 0
-1307 200 0
-1308 213 1307 0
1308 -213 0
1308 -1307 0
1309 -298 -1308 0
-1309 298 0
-1309 1308 0
-1310 12 1309 9 0
1310 -12 0
1310 -1309 0
1310 -9 0
1311 -14 -1310 0
-1311 14 0
-1311 1310 0
-1312 16 1311 0
1312 -16 0
1312 -1311 0
1313 -626 -1312 0
-1313 626 0
-1313 1312 0
-1314 628 1306 1313 0
1314 -628 0
1314 -1306 0
1314 -1313 0
1315 -630 -1314 0
-1315 630 0
-1315 1314 0
-1316 634 1277 1305 466 1315 631 0
1316 -634 0
1316 -1277 0
1316 -1305 0
1316 -466 0
1316 -1315 0
1316 -631 0
1317 -652 -1316 0
-1317 652 0
-1317 1316 0
1318 -211 -939 0
-1318 211 0
-1318 939 0
-1319 213 524 1318 0
1319 -213 0
1319 -524 0
1319 -1318 0
1320 -293 -1319 0
-1320 293 0
-1320 1319 0
-1321 52 1320 49 0
1321 -52 0
1321 -1320 0
1321 -49 0
1322 -70 -1321 0
-1322 70 0
-1322 1321 0
-1323 213 1318 0
1323 -213 0
1323 -1318 0
1324 -293 -1323 0
-1324 293 0
-1324 1323 0
-1325 52 1324 49 0
1325 -52 0
1325 -1324 0
1325 -49 0
1326 -54 -1325 0
-1326 54 0
-1326 1325 0
1327 -308 -1323 0
-1327 308 0
-1327 1323 0
1328 -56 -755 0
-1328 56 0
-1328 755 0
1329 -380 -753 0
-1329 380 0
-1329 753 0
-1330 77 1328 1329 57 0
1330 -77 0
1330 -1328 0
1330 -1329 0
1330 -57 0
1331 -79 -1330 0
-1331 79 0
-1331 1330 0
-1332 93 1327 1331 138 0
1332 -93 0
1332 -1327 0
1332 -1331 0
1332 -138 0
1333 -95 -1332 0
-1333 95 0
-1333 1332 0
1334 -62 -1325 0
-1334 62 0
-1334 1325 0
-1335 23 1334 19 0
1335 -23 0
1335 -1334 0
1335 -19 0
1336 -129 -1335 0
-1336 129 0
-1336 1335 0
-1337 131 1326 1333 96 1336 0
1337 -131 0
1337 -1326 0
1337 -1333 0
1337 -96 0
1337 -1336 0
1338 -144 -1337 0
-1338 144 0
-1338 1337 0
-1339 32 1338 0
1339 -32 0
1339 -1338 0
1340 -40 -1339 0
-1340 40 0
-1340 1339 0
-1341 42 1322 1340 0
1341 -42 0
1341 -1322 0
1341 -1340 0
1342 -44 -1341 0
-1342 44 0
-1342 1341 0
-1343 46 1342 0
1343 -46 0
1343 -1342 0
1344 -104 -1343 0
-1344 104 0
-1344 1343 0
-1345 3 1344 0
1345 -3 0
1345 -1344 0
1346 -2 -1345 0
-1346 2 0
-1346 1345 0
1347 -215 -1308 0
-1347 215 0
-1347 1308 0
-1348 213 1278 0
1348 -213 0
1348 -1278 0
1349 -293 -1348 0
-1349 293 0
-1349 1348 0
-1350 93 532 138 0
1350 -93 0
1350 -532 0
1350 -138 0
1351 -95 -1350 0
-1351 95 0
-1351 1350 0
-1352 131 1351 96 153 245 0
1352 -131 0
1352 -1351 0
1352 -96 0
1352 -153 0
1352 -245 0
1353 -144 -1352 0
-1353 144 0
-1353 1352 0
-1354 32 1353 0
1354 -32 0
1354 -1353 0
1355 -40 -1354 0
-1355 40 0
-1355 1354 0
-1356 42 1355 0
1356 -42 0
1356 -1355 0
1357 -44 -1356 0
-1357 44 0
-1357 1356 0
-1358 46 1357 0
1358 -46 0
1358 -1357 0
1359 -48 -1358 0
-1359 48 0
-1359 1358 0
-1360 52 1349 1359 49 0
1360 -52 0
1360 -1349 0
1360 -1359 0
1360 -49 0
1361 -56 -1360 0
-1361 56 0
-1361 1360 0
1362 -133 -368 0
-1362 133 0
-1362 368 0
-1363 213 1362 0
1363 -213 0
1363 -1362 0
1364 -380 -1363 0
-1364 380 0
-1364 1363 0
1365 -293 -296 0
-1365 293 0
-1365 296 0
-1366 52 1365 49 0
1366 -52 0
1366 -1365 0
1366 -49 0
1367 -70 -1366 0
-1367 70 0
-1367 1366 0
-1368 131 531 1351 96 153 541 0
1368 -131 0
1368 -531 0
1368 -1351 0
1368 -96 0
1368 -153 0
1368 -541 0
1369 -144 -1368 0
-1369 144 0
-1369 1368 0
-1370 32 1369 0
1370 -32 0
1370 -1369 0
1371 -40 -1370 0
-1371 40 0
-1371 1370 0
-1372 42 1367 1371 0
1372 -42 0
1372 -1367 0
1372 -1371 0
1373 -44 -1372 0
-1373 44 0
-1373 1372 0
-1374 46 1373 0
1374 -46 0
1374 -1373 0
1375 -75 -1374 0
-1375 75 0
-1375 1374 0
-1376 77 1361 1364 57 1375 0
1376 -77 0
1376 -1361 0
1376 -1364 0
1376 -57 0
1376 -1375 0
1377 -465 -1376 0
-1377 465 0
-1377 1376 0
1378 -469 -1376 0
-1378 469 0
-1378 1376 0
-1379 628 1378 0
1379 -628 0
1379 -1378 0
1380 -630 -1379 0
-1380 630 0
-1380 1379 0
-1381 634 1347 1377 466 1380 631 0
1381 -634 0
1381 -1347 0
1381 -1377 0
1381 -466 0
1381 -1380 0
1381 -631 0
1382 -645 -1381 0
-1382 645 0
-1382 1381 0
-1383 16 1382 1311 0
1383 -16 0
1383 -1382 0
1383 -1311 0
1384 -18 -1383 0
-1384 18 0
-1384 1383 0
1385 -75 -262 0
-1385 75 0
-1385 262 0
-1386 77 57 1385 0
1386 -77 0
1386 -57 0
1386 -1385 0
1387 -465 -1386 0
-1387 465 0
-1387 1386 0
1388 -469 -1386 0
-1388 469 0
-1388 1386 0
-1389 628 1388 0
1389 -628 0
1389 -1388 0
1390 -630 -1389 0
-1390 630 0
-1390 1389 0
-1391 634 1387 466 1390 631 0
1391 -634 0
1391 -1387 0
1391 -466 0
1391 -1390 0
1391 -631 0
1392 -645 -1391 0
-1392 645 0
-1392 1391 0
-1393 16 1392 13 0
1393 -16 0
1393 -1392 0
1393 -13 0
1394 -211 -1393 0
-1394 211 0
-1394 1393 0
-1395 213 558 1394 0
1395 -213 0
1395 -558 0
1395 -1394 0
1396 -293 -1395 0
-1396 293 0
-1396 1395 0
-1397 77 1329 57 0
1397 -77 0
1397 -1329 0
1397 -57 0
1398 -79 -1397 0
-1398 79 0
-1398 1397 0
-1399 93 1327 1398 138 0
1399 -93 0
1399 -1327 0
1399 -1398 0
1399 -138 0
1400 -95 -1399 0
-1400 95 0
-1400 1399 0
-1401 131 1400 96 153 0
1401 -131 0
1401 -1400 0
1401 -96 0
1401 -153 0
1402 -144 -1401 0
-1402 144 0
-1402 1401 0
-1403 32 1402 0
1403 -32 0
1403 -1402 0
1404 -40 -1403 0
-1404 40 0
-1404 1403 0
-1405 42 1404 0
1405 -42 0
1405 -1404 0
1406 -44 -1405 0
-1406 44 0
-1406 1405 0
-1407 46 1406 0
1407 -46 0
1407 -1406 0
1408 -48 -1407 0
-1408 48 0
-1408 1407 0
-1409 52 1396 1408 49 0
1409 -52 0
1409 -1396 0
1409 -1408 0
1409 -49 0
1410 -62 -1409 0
-1410 62 0
-1410 1409 0
-1411 213 571 1318 0
1411 -213 0
1411 -571 0
1411 -1318 0
1412 -293 -1411 0
-1412 293 0
-1412 1411 0
-1413 52 1412 49 0
1413 -52 0
1413 -1412 0
1413 -49 0
1414 -70 -1413 0
-1414 70 0
-1414 1413 0
-1415 131 1326 1333 96 153 0
1415 -131 0
1415 -1326 0
1415 -1333 0
1415 -96 0
1415 -153 0
1416 -144 -1415 0
-1416 144 0
-1416 1415 0
-1417 32 1416 0
1417 -32 0
1417 -1416 0
1418 -40 -1417 0
-1418 40 0
-1418 1417 0
-1419 42 1414 1418 0
1419 -42 0
1419 -1414 0
1419 -1418 0
1420 -44 -1419 0
-1420 44 0
-1420 1419 0
-1421 46 1420 0
1421 -46 0
1421 -1420 0
1422 -88 -1421 0
-1422 88 0
-1422 1421 0
-1423 21 1422 0
1423 -21 0
1423 -1422 0
1424 -20 -1423 0
-1424 20 0
-1424 1423 0
-1425 23 1410 1424 0
1425 -23 0
1425 -1410 0
1425 -1424 0
1426 -25 -1425 0
-1426 25 0
-1426 1425 0
-1427 27 1346 1384 1426 0
1427 -27 0
1427 -1346 0
1427 -1384 0
1427 -1426 0
1428 -29 -1427 0
-1428 29 0
-1428 1427 0
1429 -645 -650 0
-1429 645 0
-1429 650 0
-1430 16 1429 13 0
1430 -16 0
1430 -1429 0
1430 -13 0
1431 -211 -1430 0
-1431 211 0
-1431 1430 0
-1432 213 1431 0
1432 -213 0
1432 -1431 0
1433 -293 -1432 0
-1433 293 0
-1433 1432 0
-1434 52 1433 175 49 0
1434 -52 0
1434 -1433 0
1434 -175 0
1434 -49 0
1435 -54 -1434 0
-1435 54 0
-1435 1434 0
1436 -308 -790 0
-1436 308 0
-1436 790 0
-1437 52 754 175 49 0
1437 -52 0
1437 -754 0
1437 -175 0
1437 -49 0
1438 -56 -1437 0
-1438 56 0
-1438 1437 0
1439 -70 -755 0
-1439 70 0
-1439 755 0
-1440 42 1439 39 0
1440 -42 0
1440 -1439 0
1440 -39 0
1441 -44 -1440 0
-1441 44 0
-1441 1440 0
-1442 46 1441 0
1442 -46 0
1442 -1441 0
1443 -75 -1442 0
-1443 75 0
-1443 1442 0
-1444 77 1438 1329 57 1443 0
1444 -77 0
1444 -1438 0
1444 -1329 0
1444 -57 0
1444 -1443 0
1445 -79 -1444 0
-1445 79 0
-1445 1444 0
1446 -70 -1325 0
-1446 70 0
-1446 1325 0
-1447 42 1446 39 0
1447 -42 0
1447 -1446 0
1447 -39 0
1448 -44 -1447 0
-1448 44 0
-1448 1447 0
-1449 46 1448 0
1449 -46 0
1449 -1448 0
1450 -88 -1449 0
-1450 88 0
-1450 1449 0
-1451 21 1450 0
1451 -21 0
1451 -1450 0
1452 -91 -1451 0
-1452 91 0
-1452 1451 0
-1453 93 1436 1445 1452 0
1453 -93 0
1453 -1436 0
1453 -1445 0
1453 -1452 0
1454 -95 -1453 0
-1454 95 0
-1454 1453 0
1455 -104 -1449 0
-1455 104 0
-1455 1449 0
-1456 3 1455 0
1456 -3 0
1456 -1455 0
1457 -107 -1456 0
-1457 107 0
-1457 1456 0
1458 -645 -865 0
-1458 645 0
-1458 865 0
-1459 16 1458 13 0
1459 -16 0
1459 -1458 0
1459 -13 0
1460 -211 -1459 0
-1460 211 0
-1460 1459 0
-1461 213 1460 0
1461 -213 0
1461 -1460 0
1462 -293 -1461 0
-1462 293 0
-1462 1461 0
-1463 52 1462 191 49 0
1463 -52 0
1463 -1462 0
1463 -191 0
1463 -49 0
1464 -70 -1463 0
-1464 70 0
-1464 1463 0
-1465 42 1464 39 0
1465 -42 0
1465 -1464 0
1465 -39 0
1466 -114 -1465 0
-1466 114 0
-1466 1465 0
1467 -62 -1434 0
-1467 62 0
-1467 1434 0
1468 -20 -1451 0
-1468 20 0
-1468 1451 0
-1469 23 1467 1468 0
1469 -23 0
1469 -1467 0
1469 -1468 0
1470 -129 -1469 0
-1470 129 0
-1470 1469 0
-1471 131 1435 1454 96 1457 1466 1470 0
1471 -131 0
1471 -1435 0
1471 -1454 0
1471 -96 0
1471 -1457 0
1471 -1466 0
1471 -1470 0
1472 -144 -1471 0
-1472 144 0
-1472 1471 0
-1473 32 1472 0
1473 -32 0
1473 -1472 0
1474 -31 -1473 0
-1474 31 0
-1474 1473 0
-1475 36 1317 1428 1474 33 0
1475 -36 0
1475 -1317 0
1475 -1428 0
1475 -1474 0
1475 -33 0
1476 -1477 -1475 0
-1476 1477 0
-1476 1475 0
1478 -1479 -931 0
-1478 1479 0
-1478 931 0
1480 -1481 -1063 0
-1480 1481 0
-1480 1063 0
-1482 1483 1478 1480 0
1482 -1483 0
1482 -1478 0
1482 -1480 0
1484 -1485 -1482 0
-1484 1485 0
-1484 1482 0
-1486 1487 635 932 1064 1266 1476 1484 0
1486 -1487 0
1486 -635 0
1486 -932 0
1486 -1064 0
1486 -1266 0
1486 -1476 0
1486 -1484 0
1488 -1489 -1486 0
-1488 1489 0
-1488 1486 0
1490 -215 -521 0
-1490 215 0
-1490 521 0
-1491 36 808 30 33 0
1491 -36 0
1491 -808 0
1491 -30 0
1491 -33 0
1492 -38 -1491 0
-1492 38 0
-1492 1491 0
-1493 46 1492 43 0
1493 -46 0
1493 -1492 0
1493 -43 0
1494 -88 -1493 0
-1494 88 0
-1494 1493 0
-1495 21 1494 0
1495 -21 0
1495 -1494 0
1496 -91 -1495 0
-1496 91 0
-1496 1495 0
-1497 93 1496 0
1497 -93 0
1497 -1496 0
1498 -95 -1497 0
-1498 95 0
-1498 1497 0
-1499 36 834 30 33 0
1499 -36 0
1499 -834 0
1499 -30 0
1499 -33 0
1500 -38 -1499 0
-1500 38 0
-1500 1499 0
-1501 46 1500 43 0
1501 -46 0
1501 -1500 0
1501 -43 0
1502 -104 -1501 0
-1502 104 0
-1502 1501 0
-1503 3 1502 0
1503 -3 0
1503 -1502 0
1504 -107 -1503 0
-1504 107 0
-1504 1503 0
1505 -88 -509 0
-1505 88 0
-1505 509 0
-1506 21 1505 0
1506 -21 0
1506 -1505 0
1507 -20 -1506 0
-1507 20 0
-1507 1506 0
-1508 23 1507 0
1508 -23 0
1508 -1507 0
1509 -129 -1508 0
-1509 129 0
-1509 1508 0
-1510 131 1498 96 1504 235 1509 0
1510 -131 0
1510 -1498 0
1510 -96 0
1510 -1504 0
1510 -235 0
1510 -1509 0
1511 -133 -1510 0
-1511 133 0
-1511 1510 0
-1512 213 1511 0
1512 -213 0
1512 -1511 0
1513 -293 -1512 0
-1513 293 0
-1513 1512 0
-1514 131 1351 96 153 235 245 0
1514 -131 0
1514 -1351 0
1514 -96 0
1514 -153 0
1514 -235 0
1514 -245 0
1515 -144 -1514 0
-1515 144 0
-1515 1514 0
-1516 32 1515 0
1516 -32 0
1516 -1515 0
1517 -31 -1516 0
-1517 31 0
-1517 1516 0
-1518 36 318 1517 33 0
1518 -36 0
1518 -318 0
1518 -1517 0
1518 -33 0
1519 -38 -1518 0
-1519 38 0
-1519 1518 0
-1520 46 1519 1357 0
1520 -46 0
1520 -1519 0
1520 -1357 0
1521 -48 -1520 0
-1521 48 0
-1521 1520 0
-1522 52 1513 1521 49 0
1522 -52 0
1522 -1513 0
1522 -1521 0
1522 -49 0
1523 -56 -1522 0
-1523 56 0
-1523 1522 0
-1524 93 490 0
1524 -93 0
1524 -490 0
1525 -95 -1524 0
-1525 95 0
-1525 1524 0
-1526 131 475 1525 96 500 506 518 0
1526 -131 0
1526 -475 0
1526 -1525 0
1526 -96 0
1526 -500 0
1526 -506 0
1526 -518 0
1527 -133 -1526 0
-1527 133 0
-1527 1526 0
-1528 213 1527 0
1528 -213 0
1528 -1527 0
1529 -380 -1528 0
-1529 380 0
-1529 1528 0
1530 -62 -1366 0
-1530 62 0
-1530 1366 0
-1531 23 1530 19 0
1531 -23 0
1531 -1530 0
1531 -19 0
1532 -25 -1531 0
-1532 25 0
-1532 1531 0
-1533 27 1 1532 0
1533 -27 0
1533 -1 0
1533 -1532 0
1534 -29 -1533 0
-1534 29 0
-1534 1533 0
1535 -114 -594 0
-1535 114 0
-1535 594 0
-1536 131 531 1351 96 153 1535 541 0
1536 -131 0
1536 -531 0
1536 -1351 0
1536 -96 0
1536 -153 0
1536 -1535 0
1536 -541 0
1537 -144 -1536 0
-1537 144 0
-1537 1536 0
-1538 32 1537 0
1538 -32 0
1538 -1537 0
1539 -31 -1538 0
-1539 31 0
-1539 1538 0
-1540 36 1534 1539 33 0
1540 -36 0
1540 -1534 0
1540 -1539 0
1540 -33 0
1541 -38 -1540 0
-1541 38 0
-1541 1540 0
-1542 46 1541 1373 0
1542 -46 0
1542 -1541 0
1542 -1373 0
1543 -75 -1542 0
-1543 75 0
-1543 1542 0
-1544 77 1523 1529 57 1543 0
1544 -77 0
1544 -1523 0
1544 -1529 0
1544 -57 0
1544 -1543 0
1545 -465 -1544 0
-1545 465 0
-1545 1544 0
1546 -469 -1544 0
-1546 469 0
-1546 1544 0
-1547 628 1546 0
1547 -628 0
1547 -1546 0
1548 -630 -1547 0
-1548 630 0
-1548 1547 0
-1549 52 529 473 49 0
1549 -52 0
1549 -529 0
1549 -473 0
1549 -49 0
1550 -54 -1549 0
-1550 54 0
-1550 1549 0
1551 -56 -1549 0
-1551 56 0
-1551 1549 0
1552 -25 -540 0
-1552 25 0
-1552 540 0
-1553 27 1 1552 0
1553 -27 0
1553 -1 0
1553 -1552 0
1554 -29 -1553 0
-1554 29 0
-1554 1553 0
-1555 36 1554 30 33 0
1555 -36 0
1555 -1554 0
1555 -30 0
1555 -33 0
1556 -38 -1555 0
-1556 38 0
-1556 1555 0
-1557 46 1556 595 0
1557 -46 0
1557 -1556 0
1557 -595 0
1558 -75 -1557 0
-1558 75 0
-1558 1557 0
-1559 77 1551 534 57 1558 0
1559 -77 0
1559 -1551 0
1559 -534 0
1559 -57 0
1559 -1558 0
1560 -79 -1559 0
-1560 79 0
-1560 1559 0
-1561 23 539 0
1561 -23 0
1561 -539 0
1562 -25 -1561 0
-1562 25 0
-1562 1561 0
-1563 27 1 1562 0
1563 -27 0
1563 -1 0
1563 -1562 0
1564 -29 -1563 0
-1564 29 0
-1564 1563 0
-1565 36 1564 30 33 0
1565 -36 0
1565 -1564 0
1565 -30 0
1565 -33 0
1566 -38 -1565 0
-1566 38 0
-1566 1565 0
-1567 46 1566 595 0
1567 -46 0
1567 -1566 0
1567 -595 0
1568 -88 -1567 0
-1568 88 0
-1568 1567 0
-1569 21 1568 0
1569 -21 0
1569 -1568 0
1570 -91 -1569 0
-1570 91 0
-1570 1569 0
-1571 93 532 1560 1570 0
1571 -93 0
1571 -532 0
1571 -1560 0
1571 -1570 0
1572 -95 -1571 0
-1572 95 0
-1572 1571 0
-1573 27 1552 0
1573 -27 0
1573 -1552 0
1574 -29 -1573 0
-1574 29 0
-1574 1573 0
-1575 36 1574 30 33 0
1575 -36 0
1575 -1574 0
1575 -30 0
1575 -33 0
1576 -38 -1575 0
-1576 38 0
-1576 1575 0
-1577 46 1576 595 0
1577 -46 0
1577 -1576 0
1577 -595 0
1578 -104 -1577 0
-1578 104 0
-1578 1577 0
-1579 3 1578 0
1579 -3 0
1579 -1578 0
1580 -107 -1579 0
-1580 107 0
-1580 1579 0
-1581 52 529 502 49 0
1581 -52 0
1581 -529 0
1581 -502 0
1581 -49 0
1582 -70 -1581 0
-1582 70 0
-1582 1581 0
-1583 42 1582 39 0
1583 -42 0
1583 -1582 0
1583 -39 0
1584 -114 -1583 0
-1584 114 0
-1584 1583 0
-1585 52 529 510 49 0
1585 -52 0
1585 -529 0
1585 -510 0
1585 -49 0
1586 -62 -1585 0
-1586 62 0
-1586 1585 0
-1587 46 508 595 0
1587 -46 0
1587 -508 0
1587 -595 0
1588 -88 -1587 0
-1588 88 0
-1588 1587 0
-1589 21 1588 0
1589 -21 0
1589 -1588 0
1590 -20 -1589 0
-1590 20 0
-1590 1589 0
-1591 23 1586 1590 0
1591 -23 0
1591 -1586 0
1591 -1590 0
1592 -129 -1591 0
-1592 129 0
-1592 1591 0
-1593 131 1550 1572 96 1580 1584 1592 0
1593 -131 0
1593 -1550 0
1593 -1572 0
1593 -96 0
1593 -1580 0
1593 -1584 0
1593 -1592 0
1594 -933 -1593 0
-1594 933 0
-1594 1593 0
1595 -1065 -521 0
-1595 1065 0
-1595 521 0
1596 -1267 -1544 0
-1596 1267 0
-1596 1544 0
1597 -1477 -620 0
-1597 1477 0
-1597 620 0
1598 -1479 -1593 0
-1598 1479 0
-1598 1593 0
1599 -1481 -521 0
-1599 1481 0
-1599 521 0
-1600 1483 1598 1599 0
1600 -1483 0
1600 -1598 0
1600 -1599 0
1601 -1485 -1600 0
-1601 1485 0
-1601 1600 0
-1602 1487 1594 1595 1596 1597 1601 0
1602 -1487 0
1602 -1594 0
1602 -1595 0
1602 -1596 0
1602 -1597 0
1602 -1601 0
1603 -1604 -1602 0
-1603 1604 0
-1603 1602 0
-1605 8 1603 4 0
1605 -8 0
1605 -1603 0
1605 -4 0
1606 -632 -1605 0
-1606 632 0
-1606 1605 0
-1607 634 1490 1545 466 1548 1606 0
1607 -634 0
1607 -1490 0
1607 -1545 0
1607 -466 0
1607 -1548 0
1607 -1606 0
1608 -645 -1607 0
-1608 645 0
-1608 1607 0
-1609 634 1490 1545 466 1548 631 0
1609 -634 0
1609 -1490 0
1609 -1545 0
1609 -466 0
1609 -1548 0
1609 -631 0
1610 -636 -1609 0
-1610 636 0
-1610 1609 0
1611 -652 -683 0
-1611 652 0
-1611 683 0
-1612 36 1611 318 30 33 0
1612 -36 0
1612 -1611 0
1612 -318 0
1612 -30 0
1612 -33 0
1613 -38 -1612 0
-1613 38 0
-1613 1612 0
-1614 46 1613 43 0
1614 -46 0
1614 -1613 0
1614 -43 0
1615 -48 -1614 0
-1615 48 0
-1615 1614 0
-1616 52 529 1615 49 0
1616 -52 0
1616 -529 0
1616 -1615 0
1616 -49 0
1617 -54 -1616 0
-1617 54 0
-1617 1616 0
1618 -652 -730 0
-1618 652 0
-1618 730 0
-1619 36 1618 318 30 33 0
1619 -36 0
1619 -1618 0
1619 -318 0
1619 -30 0
1619 -33 0
1620 -38 -1619 0
-1620 38 0
-1620 1619 0
-1621 46 1620 43 0
1621 -46 0
1621 -1620 0
1621 -43 0
1622 -48 -1621 0
-1622 48 0
-1622 1621 0
-1623 52 529 1622 49 0
1623 -52 0
1623 -529 0
1623 -1622 0
1623 -49 0
1624 -56 -1623 0
-1624 56 0
-1624 1623 0
-1625 36 1611 1554 30 33 0
1625 -36 0
1625 -1611 0
1625 -1554 0
1625 -30 0
1625 -33 0
1626 -38 -1625 0
-1626 38 0
-1626 1625 0
-1627 46 1626 595 0
1627 -46 0
1627 -1626 0
1627 -595 0
1628 -75 -1627 0
-1628 75 0
-1628 1627 0
-1629 77 1624 534 57 1628 0
1629 -77 0
1629 -1624 0
1629 -534 0
1629 -57 0
1629 -1628 0
1630 -79 -1629 0
-1630 79 0
-1630 1629 0
-1631 36 1611 1564 30 33 0
1631 -36 0
1631 -1611 0
1631 -1564 0
1631 -30 0
1631 -33 0
1632 -38 -1631 0
-1632 38 0
-1632 1631 0
-1633 46 1632 595 0
1633 -46 0
1633 -1632 0
1633 -595 0
1634 -88 -1633 0
-1634 88 0
-1634 1633 0
-1635 21 1634 0
1635 -21 0
1635 -1634 0
1636 -91 -1635 0
-1636 91 0
-1636 1635 0
-1637 93 532 1630 1636 0
1637 -93 0
1637 -532 0
1637 -1630 0
1637 -1636 0
1638 -95 -1637 0
-1638 95 0
-1638 1637 0
-1639 36 1611 1574 30 33 0
1639 -36 0
1639 -1611 0
1639 -1574 0
1639 -30 0
1639 -33 0
1640 -38 -1639 0
-1640 38 0
-1640 1639 0
-1641 46 1640 595 0
1641 -46 0
1641 -1640 0
1641 -595 0
1642 -104 -1641 0
-1642 104 0
-1642 1641 0
-1643 3 1642 0
1643 -3 0
1643 -1642 0
1644 -107 -1643 0
-1644 107 0
-1644 1643 0
-1645 46 1613 0
1645 -46 0
1645 -1613 0
1646 -48 -1645 0
-1646 48 0
-1646 1645 0
-1647 52 529 1646 49 0
1647 -52 0
1647 -529 0
1647 -1646 0
1647 -49 0
1648 -70 -1647 0
-1648 70 0
-1648 1647 0
-1649 42 1648 39 0
1649 -42 0
1649 -1648 0
1649 -39 0
1650 -114 -1649 0
-1650 114 0
-1650 1649 0
-1651 36 1611 442 30 33 0
1651 -36 0
1651 -1611 0
1651 -442 0
1651 -30 0
1651 -33 0
1652 -38 -1651 0
-1652 38 0
-1652 1651 0
-1653 46 1652 43 0
1653 -46 0
1653 -1652 0
1653 -43 0
1654 -48 -1653 0
-1654 48 0
-1654 1653 0
-1655 52 529 1654 49 0
1655 -52 0
1655 -529 0
1655 -1654 0
1655 -49 0
1656 -62 -1655 0
-1656 62 0
-1656 1655 0
-1657 46 1652 595 0
1657 -46 0
1657 -1652 0
1657 -595 0
1658 -88 -1657 0
-1658 88 0
-1658 1657 0
-1659 21 1658 0
1659 -21 0
1659 -1658 0
1660 -20 -1659 0
-1660 20 0
-1660 1659 0
-1661 23 1656 1660 0
1661 -23 0
1661 -1656 0
1661 -1660 0
1662 -129 -1661 0
-1662 129 0
-1662 1661 0
-1663 131 1617 1638 96 1644 1650 1662 0
1663 -131 0
1663 -1617 0
1663 -1638 0
1663 -96 0
1663 -1644 0
1663 -1650 0
1663 -1662 0
1664 -933 -1663 0
-1664 933 0
-1664 1663 0
-1665 36 806 318 30 33 0
1665 -36 0
1665 -806 0
1665 -318 0
1665 -30 0
1665 -33 0
1666 -38 -1665 0
-1666 38 0
-1666 1665 0
-1667 46 1666 43 0
1667 -46 0
1667 -1666 0
1667 -43 0
1668 -48 -1667 0
-1668 48 0
-1668 1667 0
-1669 52 1668 49 0
1669 -52 0
1669 -1668 0
1669 -49 0
1670 -54 -1669 0
-1670 54 0
-1670 1669 0
1671 -38 -763 0
-1671 38 0
-1671 763 0
-1672 46 1671 43 0
1672 -46 0
1672 -1671 0
1672 -43 0
1673 -48 -1672 0
-1673 48 0
-1673 1672 0
-1674 52 1673 49 0
1674 -52 0
1674 -1673 0
1674 -49 0
1675 -56 -1674 0
-1675 56 0
-1675 1674 0
-1676 36 742 430 30 33 0
1676 -36 0
1676 -742 0
1676 -430 0
1676 -30 0
1676 -33 0
1677 -38 -1676 0
-1677 38 0
-1677 1676 0
-1678 46 1677 72 0
1678 -46 0
1678 -1677 0
1678 -72 0
1679 -75 -1678 0
-1679 75 0
-1679 1678 0
-1680 77 1675 57 1679 0
1680 -77 0
1680 -1675 0
1680 -57 0
1680 -1679 0
1681 -79 -1680 0
-1681 79 0
-1681 1680 0
-1682 36 806 484 30 33 0
1682 -36 0
1682 -806 0
1682 -484 0
1682 -30 0
1682 -33 0
1683 -38 -1682 0
-1683 38 0
-1683 1682 0
-1684 46 1683 72 0
1684 -46 0
1684 -1683 0
1684 -72 0
1685 -88 -1684 0
-1685 88 0
-1685 1684 0
-1686 21 1685 0
1686 -21 0
1686 -1685 0
1687 -91 -1686 0
-1687 91 0
-1687 1686 0
-1688 93 1681 1687 0
1688 -93 0
1688 -1681 0
1688 -1687 0
1689 -95 -1688 0
-1689 95 0
-1689 1688 0
-1690 36 806 494 30 33 0
1690 -36 0
1690 -806 0
1690 -494 0
1690 -30 0
1690 -33 0
1691 -38 -1690 0
-1691 38 0
-1691 1690 0
-1692 46 1691 72 0
1692 -46 0
1692 -1691 0
1692 -72 0
1693 -104 -1692 0
-1693 104 0
-1693 1692 0
-1694 3 1693 0
1694 -3 0
1694 -1693 0
1695 -107 -1694 0
-1695 107 0
-1695 1694 0
-1696 46 1666 0
1696 -46 0
1696 -1666 0
1697 -48 -1696 0
-1697 48 0
-1697 1696 0
-1698 52 1697 49 0
1698 -52 0
1698 -1697 0
1698 -49 0
1699 -70 -1698 0
-1699 70 0
-1699 1698 0
-1700 42 1699 39 0
1700 -42 0
1700 -1699 0
1700 -39 0
1701 -114 -1700 0
-1701 114 0
-1701 1700 0
1702 -38 -913 0
-1702 38 0
-1702 913 0
-1703 46 1702 43 0
1703 -46 0
1703 -1702 0
1703 -43 0
1704 -48 -1703 0
-1704 48 0
-1704 1703 0
-1705 52 1704 49 0
1705 -52 0
1705 -1704 0
1705 -49 0
1706 -62 -1705 0
-1706 62 0
-1706 1705 0
-1707 46 1702 72 0
1707 -46 0
1707 -1702 0
1707 -72 0
1708 -88 -1707 0
-1708 88 0
-1708 1707 0
-1709 21 1708 0
1709 -21 0
1709 -1708 0
1710 -20 -1709 0
-1710 20 0
-1710 1709 0
-1711 23 1706 1710 0
1711 -23 0
1711 -1706 0
1711 -1710 0
1712 -129 -1711 0
-1712 129 0
-1712 1711 0
-1713 131 1670 1689 96 1695 1701 1712 0
1713 -131 0
1713 -1670 0
1713 -1689 0
1713 -96 0
1713 -1695 0
1713 -1701 0
1713 -1712 0
1714 -133 -1713 0
-1714 133 0
-1714 1713 0
-1715 213 1714 0
1715 -213 0
1715 -1714 0
1716 -1065 -1715 0
-1716 1065 0
-1716 1715 0
-1717 36 742 808 30 33 0
1717 -36 0
1717 -742 0
1717 -808 0
1717 -30 0
1717 -33 0
1718 -38 -1717 0
-1718 38 0
-1718 1717 0
-1719 46 1718 43 0
1719 -46 0
1719 -1718 0
1719 -43 0
1720 -88 -1719 0
-1720 88 0
-1720 1719 0
-1721 21 1720 0
1721 -21 0
1721 -1720 0
1722 -91 -1721 0
-1722 91 0
-1722 1721 0
-1723 93 1722 0
1723 -93 0
1723 -1722 0
1724 -95 -1723 0
-1724 95 0
-1724 1723 0
-1725 36 742 834 30 33 0
1725 -36 0
1725 -742 0
1725 -834 0
1725 -30 0
1725 -33 0
1726 -38 -1725 0
-1726 38 0
-1726 1725 0
-1727 46 1726 43 0
1727 -46 0
1727 -1726 0
1727 -43 0
1728 -104 -1727 0
-1728 104 0
-1728 1727 0
-1729 3 1728 0
1729 -3 0
1729 -1728 0
1730 -107 -1729 0
-1730 107 0
-1730 1729 0
-1731 36 742 442 30 33 0
1731 -36 0
1731 -742 0
1731 -442 0
1731 -30 0
1731 -33 0
1732 -38 -1731 0
-1732 38 0
-1732 1731 0
-1733 46 1732 43 0
1733 -46 0
1733 -1732 0
1733 -43 0
1734 -88 -1733 0
-1734 88 0
-1734 1733 0
-1735 21 1734 0
1735 -21 0
1735 -1734 0
1736 -20 -1735 0
-1736 20 0
-1736 1735 0
-1737 23 1736 0
1737 -23 0
1737 -1736 0
1738 -129 -1737 0
-1738 129 0
-1738 1737 0
-1739 131 1724 96 1730 235 1738 0
1739 -131 0
1739 -1724 0
1739 -96 0
1739 -1730 0
1739 -235 0
1739 -1738 0
1740 -133 -1739 0
-1740 133 0
-1740 1739 0
-1741 213 1740 0
1741 -213 0
1741 -1740 0
1742 -293 -1741 0
-1742 293 0
-1742 1741 0
1743 -652 -1111 0
-1743 652 0
-1743 1111 0
-1744 36 1743 318 1517 33 0
1744 -36 0
1744 -1743 0
1744 -318 0
1744 -1517 0
1744 -33 0
1745 -38 -1744 0
-1745 38 0
-1745 1744 0
-1746 46 1745 1357 0
1746 -46 0
1746 -1745 0
1746 -1357 0
1747 -48 -1746 0
-1747 48 0
-1747 1746 0
-1748 52 1742 1747 49 0
1748 -52 0
1748 -1742 0
1748 -1747 0
1748 -49 0
1749 -56 -1748 0
-1749 56 0
-1749 1748 0
-1750 93 1687 0
1750 -93 0
1750 -1687 0
1751 -95 -1750 0
-1751 95 0
-1751 1750 0
-1752 131 1670 1751 96 1695 1701 1712 0
1752 -131 0
1752 -1670 0
1752 -1751 0
1752 -96 0
1752 -1695 0
1752 -1701 0
1752 -1712 0
1753 -133 -1752 0
-1753 133 0
-1753 1752 0
-1754 213 1753 0
1754 -213 0
1754 -1753 0
1755 -380 -1754 0
-1755 380 0
-1755 1754 0
1756 -652 -1198 0
-1756 652 0
-1756 1198 0
-1757 36 1756 1534 1539 33 0
1757 -36 0
1757 -1756 0
1757 -1534 0
1757 -1539 0
1757 -33 0
1758 -38 -1757 0
-1758 38 0
-1758 1757 0
-1759 46 1758 1373 0
1759 -46 0
1759 -1758 0
1759 -1373 0
1760 -75 -1759 0
-1760 75 0
-1760 1759 0
-1761 77 1749 1755 57 1760 0
1761 -77 0
1761 -1749 0
1761 -1755 0
1761 -57 0
1761 -1760 0
1762 -1267 -1761 0
-1762 1267 0
-1762 1761 0
1763 -652 -1381 0
-1763 652 0
-1763 1381 0
-1764 36 1763 589 619 33 0
1764 -36 0
1764 -1763 0
1764 -589 0
1764 -619 0
1764 -33 0
1765 -1477 -1764 0
-1765 1477 0
-1765 1764 0
1766 -1479 -1663 0
-1766 1479 0
-1766 1663 0
1767 -1481 -1715 0
-1767 1481 0
-1767 1715 0
-1768 1483 1766 1767 0
1768 -1483 0
1768 -1766 0
1768 -1767 0
1769 -1485 -1768 0
-1769 1485 0
-1769 1768 0
-1770 1487 1610 1664 1716 1762 1765 1769 0
1770 -1487 0
1770 -1610 0
1770 -1664 0
1770 -1716 0
1770 -1762 0
1770 -1765 0
1770 -1769 0
1771 -1772 -1770 0
-1771 1772 0
-1771 1770 0
1773 -1267 -136 0
-1773 1267 0
-1773 136 0
1774 -1485 -1483 0
-1774 1485 0
-1774 1483 0
-1775 1487 1773 1774 0
1775 -1487 0
1775 -1773 0
1775 -1774 0
1776 -1604 -1775 0
-1776 1604 0
-1776 1775 0
-1777 8 1776 4 0
1777 -8 0
1777 -1776 0
1777 -4 0
1778 -632 -1777 0
-1778 632 0
-1778 1777 0
-1779 634 800 466 803 1778 0
1779 -634 0
1779 -800 0
1779 -466 0
1779 -803 0
1779 -1778 0
1780 -652 -1779 0
-1780 652 0
-1780 1779 0
-1781 36 1780 318 30 33 0
1781 -36 0
1781 -1780 0
1781 -318 0
1781 -30 0
1781 -33 0
1782 -38 -1781 0
-1782 38 0
-1782 1781 0
-1783 46 1782 43 0
1783 -46 0
1783 -1782 0
1783 -43 0
1784 -48 -1783 0
-1784 48 0
-1784 1783 0
-1785 52 1784 49 0
1785 -52 0
1785 -1784 0
1785 -49 0
1786 -54 -1785 0
-1786 54 0
-1786 1785 0
-1787 1487 1774 0
1787 -1487 0
1787 -1774 0
1788 -1604 -1787 0
-1788 1604 0
-1788 1787 0
-1789 8 1788 4 0
1789 -8 0
1789 -1788 0
1789 -4 0
1790 -632 -1789 0
-1790 632 0
-1790 1789 0
-1791 634 466 719 1790 0
1791 -634 0
1791 -466 0
1791 -719 0
1791 -1790 0
1792 -652 -1791 0
-1792 652 0
-1792 1791 0
-1793 36 1792 318 30 33 0
1793 -36 0
1793 -1792 0
1793 -318 0
1793 -30 0
1793 -33 0
1794 -38 -1793 0
-1794 38 0
-1794 1793 0
-1795 46 1794 43 0
1795 -46 0
1795 -1794 0
1795 -43 0
1796 -48 -1795 0
-1796 48 0
-1796 1795 0
-1797 52 1796 49 0
1797 -52 0
1797 -1796 0
1797 -49 0
1798 -56 -1797 0
-1798 56 0
-1798 1797 0
-1799 36 1780 430 30 33 0
1799 -36 0
1799 -1780 0
1799 -430 0
1799 -30 0
1799 -33 0
1800 -38 -1799 0
-1800 38 0
-1800 1799 0
-1801 46 1800 72 0
1801 -46 0
1801 -1800 0
1801 -72 0
1802 -75 -1801 0
-1802 75 0
-1802 1801 0
-1803 77 1798 57 1802 0
1803 -77 0
1803 -1798 0
1803 -57 0
1803 -1802 0
1804 -79 -1803 0
-1804 79 0
-1804 1803 0
-1805 36 1780 484 30 33 0
1805 -36 0
1805 -1780 0
1805 -484 0
1805 -30 0
1805 -33 0
1806 -38 -1805 0
-1806 38 0
-1806 1805 0
-1807 46 1806 72 0
1807 -46 0
1807 -1806 0
1807 -72 0
1808 -88 -1807 0
-1808 88 0
-1808 1807 0
-1809 21 1808 0
1809 -21 0
1809 -1808 0
1810 -91 -1809 0
-1810 91 0
-1810 1809 0
-1811 93 1804 1810 0
1811 -93 0
1811 -1804 0
1811 -1810 0
1812 -95 -1811 0
-1812 95 0
-1812 1811 0
-1813 36 1780 494 30 33 0
1813 -36 0
1813 -1780 0
1813 -494 0
1813 -30 0
1813 -33 0
1814 -38 -1813 0
-1814 38 0
-1814 1813 0
-1815 46 1814 72 0
1815 -46 0
1815 -1814 0
1815 -72 0
1816 -104 -1815 0
-1816 104 0
-1816 1815 0
-1817 3 1816 0
1817 -3 0
1817 -1816 0
1818 -107 -1817 0
-1818 107 0
-1818 1817 0
-1819 46 1782 0
1819 -46 0
1819 -1782 0
1820 -48 -1819 0
-1820 48 0
-1820 1819 0
-1821 52 1820 49 0
1821 -52 0
1821 -1820 0
1821 -49 0
1822 -70 -1821 0
-1822 70 0
-1822 1821 0
-1823 42 1822 39 0
1823 -42 0
1823 -1822 0
1823 -39 0
1824 -114 -1823 0
-1824 114 0
-1824 1823 0
-1825 36 1780 442 30 33 0
1825 -36 0
1825 -1780 0
1825 -442 0
1825 -30 0
1825 -33 0
1826 -38 -1825 0
-1826 38 0
-1826 1825 0
-1827 46 1826 43 0
1827 -46 0
1827 -1826 0
1827 -43 0
1828 -48 -1827 0
-1828 48 0
-1828 1827 0
-1829 52 1828 49 0
1829 -52 0
1829 -1828 0
1829 -49 0
1830 -62 -1829 0
-1830 62 0
-1830 1829 0
-1831 46 1826 72 0
1831 -46 0
1831 -1826 0
1831 -72 0
1832 -88 -1831 0
-1832 88 0
-1832 1831 0
-1833 21 1832 0
1833 -21 0
1833 -1832 0
1834 -20 -1833 0
-1834 20 0
-1834 1833 0
-1835 23 1830 1834 0
1835 -23 0
1835 -1830 0
1835 -1834 0
1836 -129 -1835 0
-1836 129 0
-1836 1835 0
-1837 131 1786 1812 96 1818 1824 1836 0
1837 -131 0
1837 -1786 0
1837 -1812 0
1837 -96 0
1837 -1818 0
1837 -1824 0
1837 -1836 0
1838 -133 -1837 0
-1838 133 0
-1838 1837 0
-1839 213 1838 0
1839 -213 0
1839 -1838 0
1840 -298 -1839 0
-1840 298 0
-1840 1839 0
1841 -933 -616 0
-1841 933 0
-1841 616 0
1842 -1065 -1308 0
-1842 1065 0
-1842 1308 0
1843 -1267 -1376 0
-1843 1267 0
-1843 1376 0
1844 -1479 -616 0
-1844 1479 0
-1844 616 0
1845 -1481 -1308 0
-1845 1481 0
-1845 1308 0
-1846 1483 1844 1845 0
1846 -1483 0
1846 -1844 0
1846 -1845 0
1847 -1485 -1846 0
-1847 1485 0
-1847 1846 0
-1848 1487 1841 1842 1843 1847 0
1848 -1487 0
1848 -1841 0
1848 -1842 0
1848 -1843 0
1848 -1847 0
1849 -1604 -1848 0
-1849 1604 0
-1849 1848 0
-1850 8 1849 4 0
1850 -8 0
1850 -1849 0
1850 -4 0
1851 -632 -1850 0
-1851 632 0
-1851 1850 0
-1852 634 1347 1377 466 1380 1851 0
1852 -634 0
1852 -1347 0
1852 -1377 0
1852 -466 0
1852 -1380 0
1852 -1851 0
1853 -652 -1852 0
-1853 652 0
-1853 1852 0
-1854 36 1853 589 619 33 0
1854 -36 0
1854 -1853 0
1854 -589 0
1854 -619 0
1854 -33 0
1855 -206 -1854 0
-1855 206 0
-1855 1854 0
1856 -215 -213 0
-1856 215 0
-1856 213 0
-1857 634 1856 679 466 682 631 0
1857 -634 0
1857 -1856 0
1857 -679 0
1857 -466 0
1857 -682 0
1857 -631 0
1858 -652 -1857 0
-1858 652 0
-1858 1857 0
-1859 36 1858 318 30 33 0
1859 -36 0
1859 -1858 0
1859 -318 0
1859 -30 0
1859 -33 0
1860 -38 -1859 0
-1860 38 0
-1860 1859 0
-1861 46 1860 43 0
1861 -46 0
1861 -1860 0
1861 -43 0
1862 -48 -1861 0
-1862 48 0
-1862 1861 0
-1863 52 529 1862 49 0
1863 -52 0
1863 -529 0
1863 -1862 0
1863 -49 0
1864 -54 -1863 0
-1864 54 0
-1864 1863 0
-1865 634 1856 466 719 631 0
1865 -634 0
1865 -1856 0
1865 -466 0
1865 -719 0
1865 -631 0
1866 -652 -1865 0
-1866 652 0
-1866 1865 0
-1867 36 1866 318 30 33 0
1867 -36 0
1867 -1866 0
1867 -318 0
1867 -30 0
1867 -33 0
1868 -38 -1867 0
-1868 38 0
-1868 1867 0
-1869 46 1868 43 0
1869 -46 0
1869 -1868 0
1869 -43 0
1870 -48 -1869 0
-1870 48 0
-1870 1869 0
-1871 52 529 1870 49 0
1871 -52 0
1871 -529 0
1871 -1870 0
1871 -49 0
1872 -56 -1871 0
-1872 56 0
-1872 1871 0
-1873 36 1858 1554 30 33 0
1873 -36 0
1873 -1858 0
1873 -1554 0
1873 -30 0
1873 -33 0
1874 -38 -1873 0
-1874 38 0
-1874 1873 0
-1875 46 1874 595 0
1875 -46 0
1875 -1874 0
1875 -595 0
1876 -75 -1875 0
-1876 75 0
-1876 1875 0
-1877 77 1872 534 57 1876 0
1877 -77 0
1877 -1872 0
1877 -534 0
1877 -57 0
1877 -1876 0
1878 -79 -1877 0
-1878 79 0
-1878 1877 0
-1879 36 1858 1564 30 33 0
1879 -36 0
1879 -1858 0
1879 -1564 0
1879 -30 0
1879 -33 0
1880 -38 -1879 0
-1880 38 0
-1880 1879 0
-1881 46 1880 595 0
1881 -46 0
1881 -1880 0
1881 -595 0
1882 -88 -1881 0
-1882 88 0
-1882 1881 0
-1883 21 1882 0
1883 -21 0
1883 -1882 0
1884 -91 -1883 0
-1884 91 0
-1884 1883 0
-1885 93 532 1878 1884 0
1885 -93 0
1885 -532 0
1885 -1878 0
1885 -1884 0
1886 -95 -1885 0
-1886 95 0
-1886 1885 0
-1887 36 1858 1574 30 33 0
1887 -36 0
1887 -1858 0
1887 -1574 0
1887 -30 0
1887 -33 0
1888 -38 -1887 0
-1888 38 0
-1888 1887 0
-1889 46 1888 595 0
1889 -46 0
1889 -1888 0
1889 -595 0
1890 -104 -1889 0
-1890 104 0
-1890 1889 0
-1891 3 1890 0
1891 -3 0
1891 -1890 0
1892 -107 -1891 0
-1892 107 0
-1892 1891 0
-1893 46 1860 0
1893 -46 0
1893 -1860 0
1894 -48 -1893 0
-1894 48 0
-1894 1893 0
-1895 52 529 1894 49 0
1895 -52 0
1895 -529 0
1895 -1894 0
1895 -49 0
1896 -70 -1895 0
-1896 70 0
-1896 1895 0
-1897 42 1896 39 0
1897 -42 0
1897 -1896 0
1897 -39 0
1898 -114 -1897 0
-1898 114 0
-1898 1897 0
-1899 36 1858 442 30 33 0
1899 -36 0
1899 -1858 0
1899 -442 0
1899 -30 0
1899 -33 0
1900 -38 -1899 0
-1900 38 0
-1900 1899 0
-1901 46 1900 43 0
1901 -46 0
1901 -1900 0
1901 -43 0
1902 -48 -1901 0
-1902 48 0
-1902 1901 0
-1903 52 529 1902 49 0
1903 -52 0
1903 -529 0
1903 -1902 0
1903 -49 0
1904 -62 -1903 0
-1904 62 0
-1904 1903 0
-1905 46 1900 595 0
1905 -46 0
1905 -1900 0
1905 -595 0
1906 -88 -1905 0
-1906 88 0
-1906 1905 0
-1907 21 1906 0
1907 -21 0
1907 -1906 0
1908 -20 -1907 0
-1908 20 0
-1908 1907 0
-1909 23 1904 1908 0
1909 -23 0
1909 -1904 0
1909 -1908 0
1910 -129 -1909 0
-1910 129 0
-1910 1909 0
-1911 131 1864 1886 96 1892 1898 1910 0
1911 -131 0
1911 -1864 0
1911 -1886 0
1911 -96 0
1911 -1892 0
1911 -1898 0
1911 -1910 0
1912 -933 -1911 0
-1912 933 0
-1912 1911 0
1913 -1479 -1911 0
-1913 1479 0
-1913 1911 0
-1914 1483 1913 1767 0
1914 -1483 0
1914 -1913 0
1914 -1767 0
1915 -1485 -1914 0
-1915 1485 0
-1915 1914 0
-1916 1487 1610 1912 1716 1762 1765 1915 0
1916 -1487 0
1916 -1610 0
1916 -1912 0
1916 -1716 0
1916 -1762 0
1916 -1765 0
1916 -1915 0
1917 -1604 -1916 0
-1917 1604 0
-1917 1916 0
-1918 8 1917 4 0
1918 -8 0
1918 -1917 0
1918 -4 0
1919 -10 -1918 0
-1919 10 0
-1919 1918 0
-1920 12 1840 1855 1919 0
1920 -12 0
1920 -1840 0
1920 -1855 0
1920 -1919 0
1921 -14 -1920 0
-1921 14 0
-1921 1920 0
-1922 16 1608 1771 1921 0
1922 -16 0
1922 -1608 0
1922 -1771 0
1922 -1921 0
1923 -1924 -1922 0
-1923 1924 0
-1923 1922 0
-1925 1926 1488 1923 0
1925 -1926 0
1925 -1488 0
1925 -1923 0
1927 -1925 -1928 0
-1927 1925 0
-1927 1928 0
1927 0
