c BC-S1.2
p cnf 94 190
1 -2 -3 0
-1 2 0
-1 3 0
-4 5 1 0
4 -5 0
4 -1 0
6 -7 -4 0
-6 7 0
-6 4 0
8 -9 -10 0
-8 9 0
-8 10 0
-11 12 8 0
11 -12 0
11 -8 0
13 -14 -11 0
-13 14 0
-13 11 0
15 -16 -5 0
-15 16 0
-15 5 0
-17 3 15 0
17 -3 0
17 -15 0
18 -19 -17 0
-18 19 0
-18 17 0
-20 21 6 13 18 0
20 -21 0
20 -6 0
20 -13 0
20 -18 0
22 -23 -20 0
-22 23 0
-22 20 0
-24 25 22 0
24 -25 0
24 -22 0
26 -27 -24 0
-26 27 0
-26 24 0
-28 29 26 0
28 -29 0
28 -26 0
30 -31 -28 0
-30 31 0
-30 28 0
32 -33 -11 0
-32 33 0
-32 11 0
34 -35 -12 0
-34 35 0
-34 12 0
-36 10 34 0
36 -10 0
36 -34 0
37 -38 -36 0
-37 38 0
-37 36 0
-39 40 30 32 37 0
39 -40 0
39 -30 0
39 -32 0
39 -37 0
41 -42 -39 0
-41 42 0
-41 39 0
43 -44 -45 0
-43 44 0
-43 45 0
-46 47 41 43 0
46 -47 0
46 -41 0
46 -43 0
48 -49 -46 0
-48 49 0
-48 46 0
50 -31 -29 0
-50 31 0
-50 29 0
-51 47 43 0
51 -47 0
51 -43 0
52 -53 -51 0
-52 53 0
-52 51 0
-54 40 50 52 0
54 -40 0
54 -50 0
54 -52 0
55 -56 -54 0
-55 56 0
-55 54 0
-57 10 55 0
57 -10 0
57 -55 0
58 -9 -57 0
-58 9 0
-58 57 0
-59 12 58 0
59 -12 0
59 -58 0
60 -14 -59 0
-60 14 0
-60 59 0
-61 21 60 0
61 -21 0
61 -60 0
62 -23 -61 0
-62 23 0
-62 61 0
-63 25 62 0
63 -25 0
63 -62 0
64 -65 -63 0
-64 65 0
-64 63 0
-66 5 64 0
66 -5 0
66 -64 0
67 -16 -66 0
-67 16 0
-67 66 0
68 -69 -25 0
-68 69 0
-68 25 0
70 -65 -25 0
-70 65 0
-70 25 0
-71 5 70 0
71 -5 0
71 -70 0
72 -7 -71 0
-72 7 0
-72 71 0
73 -27 -25 0
-73 27 0
-73 25 0
-74 29 73 0
74 -29 0
74 -73 0
75 -31 -74 0
-75 31 0
-75 74 0
-76 40 75 52 0
76 -40 0
76 -75 0
76 -52 0
77 -56 -76 0
-77 56 0
-77 76 0
-78 10 77 0
78 -10 0
78 -77 0
79 -9 -78 0
-79 9 0
-79 78 0
-80 12 79 0
80 -12 0
80 -79 0
81 -14 -80 0
-81 14 0
-81 80 0
-82 21 68 72 81 0
82 -21 0
82 -68 0
82 -72 0
82 -81 0
83 -84 -82 0
-83 84 0
-83 82 0
-85 3 67 83 0
85 -3 0
85 -67 0
85 -83 0
86 -87 -85 0
-86 87 0
-86 85 0
88 -89 -90 0
-88 89 0
-88 90 0
-91 92 48 86 88 0
91 -92 0
91 -48 0
91 -86 0
91 -88 0
93 -91 -94 0
-93 91 0
-93 94 0
93 0
