c BC-S1.2
p cnf 327 869
1 -2 -3 0
-1 2 0
-1 3 0
4 -5 -6 0
-4 5 0
-4 6 0
7 -8 -9 0
-7 8 0
-7 9 0
10 -11 -12 0
-10 11 0
-10 12 0
13 -14 -15 0
-13 14 0
-13 15 0
-16 17 13 0
16 -17 0
16 -13 0
18 -19 -16 0
-18 19 0
-18 16 0
-20 21 18 0
20 -21 0
20 -18 0
22 -23 -20 0
-22 23 0
-22 20 0
24 -25 -26 0
-24 25 0
-24 26 0
27 -28 -3 0
-27 28 0
-27 3 0
-29 30 10 22 24 27 0
29 -30 0
29 -10 0
29 -22 0
29 -24 0
29 -27 0
31 -32 -29 0
-31 32 0
-31 29 0
-33 34 31 0
33 -34 0
33 -31 0
35 -36 -33 0
-35 36 0
-35 33 0
37 -38 -29 0
-37 38 0
-37 29 0
-39 40 37 0
39 -40 0
39 -37 0
41 -42 -39 0
-41 42 0
-41 39 0
43 -44 -29 0
-43 44 0
-43 29 0
-45 46 43 0
45 -46 0
45 -43 0
47 -48 -45 0
-47 48 0
-47 45 0
49 -50 -29 0
-49 50 0
-49 29 0
-51 52 49 0
51 -52 0
51 -49 0
53 -54 -51 0
-53 54 0
-53 51 0
-55 30 10 24 27 0
55 -30 0
55 -10 0
55 -24 0
55 -27 0
56 -57 -55 0
-56 57 0
-56 55 0
-58 17 13 56 0
58 -17 0
58 -13 0
58 -56 0
59 -19 -58 0
-59 19 0
-59 58 0
60 -61 -55 0
-60 61 0
-60 55 0
-62 21 59 60 0
62 -21 0
62 -59 0
62 -60 0
63 -64 -62 0
-63 64 0
-63 62 0
65 -66 -62 0
-65 66 0
-65 62 0
-67 68 65 0
67 -68 0
67 -65 0
69 -70 -67 0
-69 70 0
-69 67 0
71 -72 -26 0
-71 72 0
-71 26 0
73 -74 -3 0
-73 74 0
-73 3 0
75 -76 -29 0
-75 76 0
-75 29 0
-77 78 4 7 35 41 47 53 63 69 71 73 75 0
77 -78 0
77 -4 0
77 -7 0
77 -35 0
77 -41 0
77 -47 0
77 -53 0
77 -63 0
77 -69 0
77 -71 0
77 -73 0
77 -75 0
79 -80 -77 0
-79 80 0
-79 77 0
-81 82 1 79 0
81 -82 0
81 -1 0
81 -79 0
83 -84 -81 0
-83 84 0
-83 81 0
85 -36 -34 0
-85 36 0
-85 34 0
86 -42 -40 0
-86 42 0
-86 40 0
87 -48 -46 0
-87 48 0
-87 46 0
88 -54 -52 0
-88 54 0
-88 52 0
89 -64 -20 0
-89 64 0
-89 20 0
90 -66 -20 0
-90 66 0
-90 20 0
-91 68 90 0
91 -68 0
91 -90 0
92 -70 -91 0
-92 70 0
-92 91 0
-93 78 4 7 85 86 87 88 89 92 71 73 0
93 -78 0
93 -4 0
93 -7 0
93 -85 0
93 -86 0
93 -87 0
93 -88 0
93 -89 0
93 -92 0
93 -71 0
93 -73 0
94 -95 -93 0
-94 95 0
-94 93 0
-96 12 94 0
96 -12 0
96 -94 0
97 -11 -96 0
-97 11 0
-97 96 0
98 -70 -68 0
-98 70 0
-98 68 0
-99 78 4 7 85 86 87 88 98 71 73 0
99 -78 0
99 -4 0
99 -7 0
99 -85 0
99 -86 0
99 -87 0
99 -88 0
99 -98 0
99 -71 0
99 -73 0
100 -101 -99 0
-100 101 0
-100 99 0
-102 15 100 0
102 -15 0
102 -100 0
103 -14 -102 0
-103 14 0
-103 102 0
104 -105 -99 0
-104 105 0
-104 99 0
-106 17 103 104 0
106 -17 0
106 -103 0
106 -104 0
107 -19 -106 0
-107 19 0
-107 106 0
-108 21 107 0
108 -21 0
108 -107 0
109 -23 -108 0
-109 23 0
-109 108 0
110 -111 -93 0
-110 111 0
-110 93 0
-112 30 97 109 24 27 110 0
112 -30 0
112 -97 0
112 -109 0
112 -24 0
112 -27 0
112 -110 0
113 -114 -112 0
-113 114 0
-113 112 0
-115 116 83 113 0
115 -116 0
115 -83 0
115 -113 0
117 -118 -115 0
-117 118 0
-117 115 0
119 -120 -121 0
-119 120 0
-119 121 0
-122 123 117 119 0
122 -123 0
122 -117 0
122 -119 0
124 -125 -122 0
-124 125 0
-124 122 0
126 -127 -26 0
-126 127 0
-126 26 0
-128 129 124 126 0
128 -129 0
128 -124 0
128 -126 0
130 -131 -128 0
-130 131 0
-130 128 0
-132 123 119 0
132 -123 0
132 -119 0
133 -125 -132 0
-133 125 0
-133 132 0
-134 129 133 126 0
134 -129 0
134 -133 0
134 -126 0
135 -136 -134 0
-135 136 0
-135 134 0
137 -138 -132 0
-137 138 0
-137 132 0
139 -140 -134 0
-139 140 0
-139 134 0
141 -142 -132 0
-141 142 0
-141 132 0
-143 9 139 141 0
143 -9 0
143 -139 0
143 -141 0
144 -8 -143 0
-144 8 0
-144 143 0
145 -146 -134 0
-145 146 0
-145 134 0
-147 26 145 0
147 -26 0
147 -145 0
148 -25 -147 0
-148 25 0
-148 147 0
-149 30 10 22 148 27 0
149 -30 0
149 -10 0
149 -22 0
149 -148 0
149 -27 0
150 -32 -149 0
-150 32 0
-150 149 0
-151 34 150 0
151 -34 0
151 -150 0
152 -36 -151 0
-152 36 0
-152 151 0
153 -38 -149 0
-153 38 0
-153 149 0
-154 40 153 0
154 -40 0
154 -153 0
155 -42 -154 0
-155 42 0
-155 154 0
156 -44 -149 0
-156 44 0
-156 149 0
-157 46 156 0
157 -46 0
157 -156 0
158 -48 -157 0
-158 48 0
-158 157 0
159 -50 -149 0
-159 50 0
-159 149 0
-160 52 159 0
160 -52 0
160 -159 0
161 -54 -160 0
-161 54 0
-161 160 0
-162 30 10 148 27 0
162 -30 0
162 -10 0
162 -148 0
162 -27 0
163 -57 -162 0
-163 57 0
-163 162 0
-164 17 13 163 0
164 -17 0
164 -13 0
164 -163 0
165 -19 -164 0
-165 19 0
-165 164 0
166 -61 -162 0
-166 61 0
-166 162 0
-167 21 165 166 0
167 -21 0
167 -165 0
167 -166 0
168 -64 -167 0
-168 64 0
-168 167 0
169 -66 -167 0
-169 66 0
-169 167 0
-170 68 169 0
170 -68 0
170 -169 0
171 -70 -170 0
-171 70 0
-171 170 0
172 -72 -147 0
-172 72 0
-172 147 0
173 -76 -149 0
-173 76 0
-173 149 0
-174 78 4 144 152 155 158 161 168 171 172 73 173 0
174 -78 0
174 -4 0
174 -144 0
174 -152 0
174 -155 0
174 -158 0
174 -161 0
174 -168 0
174 -171 0
174 -172 0
174 -73 0
174 -173 0
175 -80 -174 0
-175 80 0
-175 174 0
-176 82 1 175 0
176 -82 0
176 -1 0
176 -175 0
177 -84 -176 0
-177 84 0
-177 176 0
-178 78 4 144 85 86 87 88 89 92 172 73 0
178 -78 0
178 -4 0
178 -144 0
178 -85 0
178 -86 0
178 -87 0
178 -88 0
178 -89 0
178 -92 0
178 -172 0
178 -73 0
179 -95 -178 0
-179 95 0
-179 178 0
-180 12 179 0
180 -12 0
180 -179 0
181 -11 -180 0
-181 11 0
-181 180 0
-182 78 4 144 85 86 87 88 98 172 73 0
182 -78 0
182 -4 0
182 -144 0
182 -85 0
182 -86 0
182 -87 0
182 -88 0
182 -98 0
182 -172 0
182 -73 0
183 -101 -182 0
-183 101 0
-183 182 0
-184 15 183 0
184 -15 0
184 -183 0
185 -14 -184 0
-185 14 0
-185 184 0
186 -105 -182 0
-186 105 0
-186 182 0
-187 17 185 186 0
187 -17 0
187 -185 0
187 -186 0
188 -19 -187 0
-188 19 0
-188 187 0
-189 21 188 0
189 -21 0
189 -188 0
190 -23 -189 0
-190 23 0
-190 189 0
191 -111 -178 0
-191 111 0
-191 178 0
-192 30 181 190 148 27 191 0
192 -30 0
192 -181 0
192 -190 0
192 -148 0
192 -27 0
192 -191 0
193 -114 -192 0
-193 114 0
-193 192 0
-194 116 135 137 177 193 0
194 -116 0
194 -135 0
194 -137 0
194 -177 0
194 -193 0
195 -196 -194 0
-195 196 0
-195 194 0
197 -198 -199 0
-197 198 0
-197 199 0
-200 201 197 0
200 -201 0
200 -197 0
202 -203 -200 0
-202 203 0
-202 200 0
-204 205 202 0
204 -205 0
204 -202 0
206 -207 -204 0
-206 207 0
-206 204 0
208 -209 -128 0
-208 209 0
-208 128 0
210 -211 -194 0
-210 211 0
-210 194 0
-212 129 126 0
212 -129 0
212 -126 0
213 -136 -212 0
-213 136 0
-213 212 0
214 -140 -212 0
-214 140 0
-214 212 0
-215 9 214 0
215 -9 0
215 -214 0
216 -8 -215 0
-216 8 0
-216 215 0
217 -146 -212 0
-217 146 0
-217 212 0
-218 26 217 0
218 -26 0
218 -217 0
219 -25 -218 0
-219 25 0
-219 218 0
-220 30 10 22 219 27 0
220 -30 0
220 -10 0
220 -22 0
220 -219 0
220 -27 0
221 -32 -220 0
-221 32 0
-221 220 0
-222 34 221 0
222 -34 0
222 -221 0
223 -36 -222 0
-223 36 0
-223 222 0
224 -38 -220 0
-224 38 0
-224 220 0
-225 40 224 0
225 -40 0
225 -224 0
226 -42 -225 0
-226 42 0
-226 225 0
227 -44 -220 0
-227 44 0
-227 220 0
-228 46 227 0
228 -46 0
228 -227 0
229 -48 -228 0
-229 48 0
-229 228 0
230 -50 -220 0
-230 50 0
-230 220 0
-231 52 230 0
231 -52 0
231 -230 0
232 -54 -231 0
-232 54 0
-232 231 0
-233 30 10 219 27 0
233 -30 0
233 -10 0
233 -219 0
233 -27 0
234 -57 -233 0
-234 57 0
-234 233 0
-235 17 13 234 0
235 -17 0
235 -13 0
235 -234 0
236 -19 -235 0
-236 19 0
-236 235 0
237 -61 -233 0
-237 61 0
-237 233 0
-238 21 236 237 0
238 -21 0
238 -236 0
238 -237 0
239 -64 -238 0
-239 64 0
-239 238 0
240 -66 -238 0
-240 66 0
-240 238 0
-241 68 240 0
241 -68 0
241 -240 0
242 -70 -241 0
-242 70 0
-242 241 0
243 -72 -218 0
-243 72 0
-243 218 0
244 -76 -220 0
-244 76 0
-244 220 0
-245 78 4 216 223 226 229 232 239 242 243 73 244 0
245 -78 0
245 -4 0
245 -216 0
245 -223 0
245 -226 0
245 -229 0
245 -232 0
245 -239 0
245 -242 0
245 -243 0
245 -73 0
245 -244 0
246 -80 -245 0
-246 80 0
-246 245 0
-247 82 1 246 0
247 -82 0
247 -1 0
247 -246 0
248 -84 -247 0
-248 84 0
-248 247 0
-249 78 4 216 85 86 87 88 89 92 243 73 0
249 -78 0
249 -4 0
249 -216 0
249 -85 0
249 -86 0
249 -87 0
249 -88 0
249 -89 0
249 -92 0
249 -243 0
249 -73 0
250 -95 -249 0
-250 95 0
-250 249 0
-251 12 250 0
251 -12 0
251 -250 0
252 -11 -251 0
-252 11 0
-252 251 0
-253 78 4 216 85 86 87 88 98 243 73 0
253 -78 0
253 -4 0
253 -216 0
253 -85 0
253 -86 0
253 -87 0
253 -88 0
253 -98 0
253 -243 0
253 -73 0
254 -101 -253 0
-254 101 0
-254 253 0
-255 15 254 0
255 -15 0
255 -254 0
256 -14 -255 0
-256 14 0
-256 255 0
257 -105 -253 0
-257 105 0
-257 253 0
-258 17 256 257 0
258 -17 0
258 -256 0
258 -257 0
259 -19 -258 0
-259 19 0
-259 258 0
-260 21 259 0
260 -21 0
260 -259 0
261 -23 -260 0
-261 23 0
-261 260 0
262 -111 -249 0
-262 111 0
-262 249 0
-263 30 252 261 219 27 262 0
263 -30 0
263 -252 0
263 -261 0
263 -219 0
263 -27 0
263 -262 0
264 -114 -263 0
-264 114 0
-264 263 0
-265 116 213 248 264 0
265 -116 0
265 -213 0
265 -248 0
265 -264 0
266 -118 -265 0
-266 118 0
-266 265 0
-267 123 266 119 0
267 -123 0
267 -266 0
267 -119 0
268 -269 -267 0
-268 269 0
-268 267 0
-270 271 208 210 268 0
270 -271 0
270 -208 0
270 -210 0
270 -268 0
272 -273 -270 0
-272 273 0
-272 270 0
274 -275 -121 0
-274 275 0
-274 121 0
276 -277 -128 0
-276 277 0
-276 128 0
-278 279 276 0
278 -279 0
278 -276 0
280 -281 -278 0
-280 281 0
-280 278 0
-282 283 130 195 206 272 274 280 0
282 -283 0
282 -130 0
282 -195 0
282 -206 0
282 -272 0
282 -274 0
282 -280 0
284 -285 -282 0
-284 285 0
-284 282 0
-286 283 130 195 272 274 280 0
286 -283 0
286 -130 0
286 -195 0
286 -272 0
286 -274 0
286 -280 0
287 -288 -286 0
-287 288 0
-287 286 0
289 -290 -286 0
-289 290 0
-289 286 0
-291 199 289 0
291 -199 0
291 -289 0
292 -198 -291 0
-292 198 0
-292 291 0
-293 201 287 292 0
293 -201 0
293 -287 0
293 -292 0
294 -203 -293 0
-294 203 0
-294 293 0
-295 205 294 0
295 -205 0
295 -294 0
296 -297 -295 0
-296 297 0
-296 295 0
298 -203 -201 0
-298 203 0
-298 201 0
-299 205 298 0
299 -205 0
299 -298 0
300 -207 -299 0
-300 207 0
-300 299 0
-301 283 130 195 300 272 274 280 0
301 -283 0
301 -130 0
301 -195 0
301 -300 0
301 -272 0
301 -274 0
301 -280 0
302 -290 -301 0
-302 290 0
-302 301 0
-303 199 302 0
303 -199 0
303 -302 0
304 -305 -303 0
-304 305 0
-304 303 0
-306 307 284 296 304 0
306 -307 0
306 -284 0
306 -296 0
306 -304 0
308 -309 -306 0
-308 309 0
-308 306 0
310 -305 -199 0
-310 305 0
-310 199 0
-311 307 310 0
311 -307 0
311 -310 0
312 -313 -311 0
-312 313 0
-312 311 0
-314 283 130 195 312 272 274 280 0
314 -283 0
314 -130 0
314 -195 0
314 -312 0
314 -272 0
314 -274 0
314 -280 0
315 -288 -314 0
-315 288 0
-315 314 0
316 -290 -314 0
-316 290 0
-316 314 0
-317 199 316 0
317 -199 0
317 -316 0
318 -198 -317 0
-318 198 0
-318 317 0
-319 201 315 318 0
319 -201 0
319 -315 0
319 -318 0
320 -203 -319 0
-320 203 0
-320 319 0
-321 205 320 0
321 -205 0
321 -320 0
322 -323 -321 0
-322 323 0
-322 321 0
-324 325 308 322 0
324 -325 0
324 -308 0
324 -322 0
326 -324 -327 0
-326 324 0
-326 327 0
326 0
