c BC-S1.2
p cnf 144 391
1 -2 -3 0
-1 2 0
-1 3 0
4 -5 -3 0
-4 5 0
-4 3 0
6 -7 -3 0
-6 7 0
-6 3 0
8 -9 -10 0
-8 9 0
-8 10 0
-11 12 6 8 0
11 -12 0
11 -6 0
11 -8 0
13 -14 -11 0
-13 14 0
-13 11 0
15 -16 -10 0
-15 16 0
-15 10 0
17 -18 -11 0
-17 18 0
-17 11 0
-19 20 17 0
19 -20 0
19 -17 0
21 -22 -19 0
-21 22 0
-21 19 0
-23 24 15 21 0
23 -24 0
23 -15 0
23 -21 0
25 -26 -23 0
-25 26 0
-25 23 0
-27 28 4 13 25 0
27 -28 0
27 -4 0
27 -13 0
27 -25 0
29 -30 -27 0
-29 30 0
-29 27 0
-31 32 1 29 0
31 -32 0
31 -1 0
31 -29 0
33 -34 -31 0
-33 34 0
-33 31 0
-35 32 1 0
35 -32 0
35 -1 0
36 -37 -35 0
-36 37 0
-36 35 0
-38 12 6 36 8 0
38 -12 0
38 -6 0
38 -36 0
38 -8 0
39 -14 -38 0
-39 14 0
-39 38 0
40 -18 -38 0
-40 18 0
-40 38 0
-41 20 40 0
41 -20 0
41 -40 0
42 -22 -41 0
-42 22 0
-42 41 0
-43 24 15 42 0
43 -24 0
43 -15 0
43 -42 0
44 -26 -43 0
-44 26 0
-44 43 0
-45 28 4 39 44 0
45 -28 0
45 -4 0
45 -39 0
45 -44 0
46 -47 -45 0
-46 47 0
-46 45 0
-48 49 33 46 0
48 -49 0
48 -33 0
48 -46 0
50 -51 -48 0
-50 51 0
-50 48 0
-52 28 4 25 0
52 -28 0
52 -4 0
52 -25 0
53 -30 -52 0
-53 30 0
-53 52 0
-54 32 1 53 0
54 -32 0
54 -1 0
54 -53 0
55 -34 -54 0
-55 34 0
-55 54 0
-56 28 4 44 0
56 -28 0
56 -4 0
56 -44 0
57 -47 -56 0
-57 47 0
-57 56 0
-58 49 55 57 0
58 -49 0
58 -55 0
58 -57 0
59 -60 -58 0
-59 60 0
-59 58 0
61 -62 -49 0
-61 62 0
-61 49 0
63 -64 -49 0
-63 64 0
-63 49 0
-65 10 63 0
65 -10 0
65 -63 0
66 -16 -65 0
-66 16 0
-66 65 0
67 -68 -49 0
-67 68 0
-67 49 0
-69 20 67 0
69 -20 0
69 -67 0
70 -22 -69 0
-70 22 0
-70 69 0
-71 24 61 66 70 0
71 -24 0
71 -61 0
71 -66 0
71 -70 0
72 -26 -71 0
-72 26 0
-72 71 0
-73 28 4 72 0
73 -28 0
73 -4 0
73 -72 0
74 -30 -73 0
-74 30 0
-74 73 0
-75 32 1 74 0
75 -32 0
75 -1 0
75 -74 0
76 -37 -75 0
-76 37 0
-76 75 0
-77 24 15 70 0
77 -24 0
77 -15 0
77 -70 0
78 -26 -77 0
-78 26 0
-78 77 0
-79 28 4 78 0
79 -28 0
79 -4 0
79 -78 0
80 -30 -79 0
-80 30 0
-80 79 0
-81 32 1 80 0
81 -32 0
81 -1 0
81 -80 0
82 -34 -81 0
-82 34 0
-82 81 0
83 -22 -20 0
-83 22 0
-83 20 0
-84 24 15 83 0
84 -24 0
84 -15 0
84 -83 0
85 -26 -84 0
-85 26 0
-85 84 0
-86 28 4 85 0
86 -28 0
86 -4 0
86 -85 0
87 -47 -86 0
-87 47 0
-87 86 0
-88 49 82 87 0
88 -49 0
88 -82 0
88 -87 0
89 -64 -88 0
-89 64 0
-89 88 0
90 -34 -35 0
-90 34 0
-90 35 0
-91 49 90 0
91 -49 0
91 -90 0
92 -62 -91 0
-92 62 0
-92 91 0
93 -68 -91 0
-93 68 0
-93 91 0
-94 20 93 0
94 -20 0
94 -93 0
95 -22 -94 0
-95 22 0
-95 94 0
-96 24 92 95 0
96 -24 0
96 -92 0
96 -95 0
97 -26 -96 0
-97 26 0
-97 96 0
-98 28 4 97 0
98 -28 0
98 -4 0
98 -97 0
99 -100 -98 0
-99 100 0
-99 98 0
-101 10 89 99 0
101 -10 0
101 -89 0
101 -99 0
102 -9 -101 0
-102 9 0
-102 101 0
-103 12 6 59 76 102 0
103 -12 0
103 -6 0
103 -59 0
103 -76 0
103 -102 0
104 -105 -103 0
-104 105 0
-104 103 0
-106 24 15 0
106 -24 0
106 -15 0
107 -26 -106 0
-107 26 0
-107 106 0
-108 28 4 13 107 0
108 -28 0
108 -4 0
108 -13 0
108 -107 0
109 -30 -108 0
-109 30 0
-109 108 0
-110 32 1 109 0
110 -32 0
110 -1 0
110 -109 0
111 -34 -110 0
-111 34 0
-111 110 0
-112 28 4 39 107 0
112 -28 0
112 -4 0
112 -39 0
112 -107 0
113 -47 -112 0
-113 47 0
-113 112 0
-114 49 111 113 0
114 -49 0
114 -111 0
114 -113 0
115 -68 -114 0
-115 68 0
-115 114 0
-116 28 4 107 0
116 -28 0
116 -4 0
116 -107 0
117 -30 -116 0
-117 30 0
-117 116 0
-118 32 1 117 0
118 -32 0
118 -1 0
118 -117 0
119 -34 -118 0
-119 34 0
-119 118 0
120 -47 -116 0
-120 47 0
-120 116 0
-121 49 119 120 0
121 -49 0
121 -119 0
121 -120 0
122 -60 -121 0
-122 60 0
-122 121 0
-123 24 61 66 0
123 -24 0
123 -61 0
123 -66 0
124 -26 -123 0
-124 26 0
-124 123 0
-125 28 4 124 0
125 -28 0
125 -4 0
125 -124 0
126 -30 -125 0
-126 30 0
-126 125 0
-127 32 1 126 0
127 -32 0
127 -1 0
127 -126 0
128 -37 -127 0
-128 37 0
-128 127 0
129 -64 -121 0
-129 64 0
-129 121 0
-130 24 92 0
130 -24 0
130 -92 0
131 -26 -130 0
-131 26 0
-131 130 0
-132 28 4 131 0
132 -28 0
132 -4 0
132 -131 0
133 -100 -132 0
-133 100 0
-133 132 0
-134 10 129 133 0
134 -10 0
134 -129 0
134 -133 0
135 -9 -134 0
-135 9 0
-135 134 0
-136 12 6 122 128 135 0
136 -12 0
136 -6 0
136 -122 0
136 -128 0
136 -135 0
137 -18 -136 0
-137 18 0
-137 136 0
-138 20 115 137 0
138 -20 0
138 -115 0
138 -137 0
139 -140 -138 0
-139 140 0
-139 138 0
-141 142 50 104 139 0
141 -142 0
141 -50 0
141 -104 0
141 -139 0
143 -141 -144 0
-143 141 0
-143 144 0
143 0
