c BC-S1.2
p cnf 295 850
1 -2 -3 0
-1 2 0
-1 3 0
-4 5 1 0
4 -5 0
4 -1 0
6 -7 -4 0
-6 7 0
-6 4 0
8 -9 -4 0
-8 9 0
-8 4 0
-10 11 8 0
10 -11 0
10 -8 0
12 -13 -10 0
-12 13 0
-12 10 0
14 -15 -3 0
-14 15 0
-14 3 0
16 -17 -10 0
-16 17 0
-16 10 0
18 -19 -4 0
-18 19 0
-18 4 0
20 -21 -3 0
-20 21 0
-20 3 0
-22 23 16 18 20 0
22 -23 0
22 -16 0
22 -18 0
22 -20 0
24 -25 -22 0
-24 25 0
-24 22 0
-26 27 12 14 24 0
26 -27 0
26 -12 0
26 -14 0
26 -24 0
28 -29 -26 0
-28 29 0
-28 26 0
30 -31 -3 0
-30 31 0
-30 3 0
32 -33 -4 0
-32 33 0
-32 4 0
-34 35 32 0
34 -35 0
34 -32 0
36 -37 -34 0
-36 37 0
-36 34 0
-38 39 30 36 0
38 -39 0
38 -30 0
38 -36 0
40 -41 -38 0
-40 41 0
-40 38 0
-42 43 6 28 40 0
42 -43 0
42 -6 0
42 -28 0
42 -40 0
44 -45 -42 0
-44 45 0
-44 42 0
-46 43 6 40 0
46 -43 0
46 -6 0
46 -40 0
47 -48 -46 0
-47 48 0
-47 46 0
-49 11 47 8 0
49 -11 0
49 -47 0
49 -8 0
50 -13 -49 0
-50 13 0
-50 49 0
51 -17 -49 0
-51 17 0
-51 49 0
-52 23 51 18 20 0
52 -23 0
52 -51 0
52 -18 0
52 -20 0
53 -25 -52 0
-53 25 0
-53 52 0
-54 27 50 14 53 0
54 -27 0
54 -50 0
54 -14 0
54 -53 0
55 -56 -54 0
-55 56 0
-55 54 0
57 -58 -42 0
-57 58 0
-57 42 0
59 -60 -38 0
-59 60 0
-59 38 0
-61 62 57 59 0
61 -62 0
61 -57 0
61 -59 0
63 -64 -61 0
-63 64 0
-63 61 0
65 -66 -4 0
-65 66 0
-65 4 0
67 -68 -54 0
-67 68 0
-67 54 0
69 -70 -42 0
-69 70 0
-69 42 0
71 -72 -54 0
-71 72 0
-71 54 0
-73 27 14 0
73 -27 0
73 -14 0
74 -29 -73 0
-74 29 0
-74 73 0
-75 43 6 74 40 0
75 -43 0
75 -6 0
75 -74 0
75 -40 0
76 -48 -75 0
-76 48 0
-76 75 0
-77 11 76 8 0
77 -11 0
77 -76 0
77 -8 0
78 -17 -77 0
-78 17 0
-78 77 0
-79 23 78 18 20 0
79 -23 0
79 -78 0
79 -18 0
79 -20 0
80 -81 -79 0
-80 81 0
-80 79 0
82 -83 -54 0
-82 83 0
-82 54 0
84 -85 -3 0
-84 85 0
-84 3 0
86 -87 -38 0
-86 87 0
-86 38 0
88 -89 -4 0
-88 89 0
-88 4 0
-90 91 88 0
90 -91 0
90 -88 0
92 -93 -90 0
-92 93 0
-92 90 0
-94 95 82 84 86 92 0
94 -95 0
94 -82 0
94 -84 0
94 -86 0
94 -92 0
96 -97 -94 0
-96 97 0
-96 94 0
-98 99 69 71 80 96 0
98 -99 0
98 -69 0
98 -71 0
98 -80 0
98 -96 0
100 -101 -98 0
-100 101 0
-100 98 0
-102 103 67 100 0
102 -103 0
102 -67 0
102 -100 0
104 -105 -102 0
-104 105 0
-104 102 0
106 -107 -34 0
-106 107 0
-106 34 0
-108 109 44 55 63 65 104 106 0
108 -109 0
108 -44 0
108 -55 0
108 -63 0
108 -65 0
108 -104 0
108 -106 0
110 -111 -108 0
-110 111 0
-110 108 0
112 -56 -73 0
-112 56 0
-112 73 0
113 -37 -35 0
-113 37 0
-113 35 0
-114 39 30 113 0
114 -39 0
114 -30 0
114 -113 0
115 -60 -114 0
-115 60 0
-115 114 0
-116 62 115 0
116 -62 0
116 -115 0
117 -64 -116 0
-117 64 0
-117 116 0
118 -68 -73 0
-118 68 0
-118 73 0
119 -72 -73 0
-119 72 0
-119 73 0
120 -83 -73 0
-120 83 0
-120 73 0
121 -87 -114 0
-121 87 0
-121 114 0
122 -93 -91 0
-122 93 0
-122 91 0
-123 95 120 84 121 122 0
123 -95 0
123 -120 0
123 -84 0
123 -121 0
123 -122 0
124 -97 -123 0
-124 97 0
-124 123 0
-125 99 119 124 0
125 -99 0
125 -119 0
125 -124 0
126 -101 -125 0
-126 101 0
-126 125 0
-127 103 118 126 0
127 -103 0
127 -118 0
127 -126 0
128 -105 -127 0
-128 105 0
-128 127 0
129 -107 -35 0
-129 107 0
-129 35 0
-130 109 112 117 128 129 0
130 -109 0
130 -112 0
130 -117 0
130 -128 0
130 -129 0
131 -132 -130 0
-131 132 0
-131 130 0
-133 3 131 0
133 -3 0
133 -131 0
134 -2 -133 0
-134 2 0
-134 133 0
-135 5 134 0
135 -5 0
135 -134 0
136 -7 -135 0
-136 7 0
-136 135 0
137 -33 -5 0
-137 33 0
-137 5 0
-138 35 137 0
138 -35 0
138 -137 0
139 -37 -138 0
-139 37 0
-139 138 0
-140 39 30 139 0
140 -39 0
140 -30 0
140 -139 0
141 -60 -140 0
-141 60 0
-141 140 0
-142 62 141 0
142 -62 0
142 -141 0
143 -64 -142 0
-143 64 0
-143 142 0
144 -66 -5 0
-144 66 0
-144 5 0
145 -87 -140 0
-145 87 0
-145 140 0
146 -89 -5 0
-146 89 0
-146 5 0
-147 91 146 0
147 -91 0
147 -146 0
148 -93 -147 0
-148 93 0
-148 147 0
-149 95 120 84 145 148 0
149 -95 0
149 -120 0
149 -84 0
149 -145 0
149 -148 0
150 -97 -149 0
-150 97 0
-150 149 0
-151 99 119 150 0
151 -99 0
151 -119 0
151 -150 0
152 -101 -151 0
-152 101 0
-152 151 0
-153 103 118 152 0
153 -103 0
153 -118 0
153 -152 0
154 -105 -153 0
-154 105 0
-154 153 0
155 -107 -138 0
-155 107 0
-155 138 0
-156 109 112 143 144 154 155 0
156 -109 0
156 -112 0
156 -143 0
156 -144 0
156 -154 0
156 -155 0
157 -132 -156 0
-157 132 0
-157 156 0
-158 3 157 0
158 -3 0
158 -157 0
159 -15 -158 0
-159 15 0
-159 158 0
-160 27 159 0
160 -27 0
160 -159 0
161 -29 -160 0
-161 29 0
-161 160 0
-162 62 59 0
162 -62 0
162 -59 0
163 -64 -162 0
-163 64 0
-163 162 0
-164 95 120 84 86 92 0
164 -95 0
164 -120 0
164 -84 0
164 -86 0
164 -92 0
165 -97 -164 0
-165 97 0
-165 164 0
-166 99 119 165 0
166 -99 0
166 -119 0
166 -165 0
167 -101 -166 0
-167 101 0
-167 166 0
-168 103 118 167 0
168 -103 0
168 -118 0
168 -167 0
169 -105 -168 0
-169 105 0
-169 168 0
-170 109 112 163 65 169 106 0
170 -109 0
170 -112 0
170 -163 0
170 -65 0
170 -169 0
170 -106 0
171 -172 -170 0
-171 172 0
-171 170 0
173 -64 -62 0
-173 64 0
-173 62 0
-174 109 112 173 144 154 155 0
174 -109 0
174 -112 0
174 -173 0
174 -144 0
174 -154 0
174 -155 0
175 -132 -174 0
-175 132 0
-175 174 0
-176 3 175 0
176 -3 0
176 -175 0
177 -31 -176 0
-177 31 0
-177 176 0
-178 95 120 84 122 0
178 -95 0
178 -120 0
178 -84 0
178 -122 0
179 -97 -178 0
-179 97 0
-179 178 0
-180 99 119 179 0
180 -99 0
180 -119 0
180 -179 0
181 -101 -180 0
-181 101 0
-181 180 0
-182 103 118 181 0
182 -103 0
182 -118 0
182 -181 0
183 -105 -182 0
-183 105 0
-183 182 0
-184 109 112 173 183 129 0
184 -109 0
184 -112 0
184 -173 0
184 -183 0
184 -129 0
185 -132 -184 0
-185 132 0
-185 184 0
-186 3 185 0
186 -3 0
186 -185 0
187 -2 -186 0
-187 2 0
-187 186 0
-188 5 187 0
188 -5 0
188 -187 0
189 -33 -188 0
-189 33 0
-189 188 0
-190 35 189 0
190 -35 0
190 -189 0
191 -37 -190 0
-191 37 0
-191 190 0
-192 39 171 177 191 0
192 -39 0
192 -171 0
192 -177 0
192 -191 0
193 -41 -192 0
-193 41 0
-193 192 0
-194 43 136 161 193 0
194 -43 0
194 -136 0
194 -161 0
194 -193 0
195 -48 -194 0
-195 48 0
-195 194 0
196 -45 -75 0
-196 45 0
-196 75 0
197 -58 -75 0
-197 58 0
-197 75 0
-198 62 197 59 0
198 -62 0
198 -197 0
198 -59 0
199 -64 -198 0
-199 64 0
-199 198 0
200 -70 -75 0
-200 70 0
-200 75 0
-201 99 200 119 165 0
201 -99 0
201 -200 0
201 -119 0
201 -165 0
202 -101 -201 0
-202 101 0
-202 201 0
-203 103 118 202 0
203 -103 0
203 -118 0
203 -202 0
204 -105 -203 0
-204 105 0
-204 203 0
-205 109 196 112 199 65 204 106 0
205 -109 0
205 -196 0
205 -112 0
205 -199 0
205 -65 0
205 -204 0
205 -106 0
206 -207 -205 0
-206 207 0
-206 205 0
208 -41 -114 0
-208 41 0
-208 114 0
-209 43 74 208 0
209 -43 0
209 -74 0
209 -208 0
210 -45 -209 0
-210 45 0
-210 209 0
211 -58 -209 0
-211 58 0
-211 209 0
-212 62 211 115 0
212 -62 0
212 -211 0
212 -115 0
213 -64 -212 0
-213 64 0
-213 212 0
214 -70 -209 0
-214 70 0
-214 209 0
-215 99 214 119 124 0
215 -99 0
215 -214 0
215 -119 0
215 -124 0
216 -101 -215 0
-216 101 0
-216 215 0
-217 103 118 216 0
217 -103 0
217 -118 0
217 -216 0
218 -105 -217 0
-218 105 0
-218 217 0
-219 109 210 112 213 218 129 0
219 -109 0
219 -210 0
219 -112 0
219 -213 0
219 -218 0
219 -129 0
220 -132 -219 0
-220 132 0
-220 219 0
-221 3 220 0
221 -3 0
221 -220 0
222 -2 -221 0
-222 2 0
-222 221 0
-223 5 222 0
223 -5 0
223 -222 0
224 -9 -223 0
-224 9 0
-224 223 0
-225 11 195 206 224 0
225 -11 0
225 -195 0
225 -206 0
225 -224 0
226 -17 -225 0
-226 17 0
-226 225 0
227 -13 -11 0
-227 13 0
-227 11 0
-228 27 227 14 0
228 -27 0
228 -227 0
228 -14 0
229 -29 -228 0
-229 29 0
-229 228 0
-230 43 229 208 0
230 -43 0
230 -229 0
230 -208 0
231 -45 -230 0
-231 45 0
-231 230 0
-232 43 208 0
232 -43 0
232 -208 0
233 -48 -232 0
-233 48 0
-233 232 0
-234 11 233 0
234 -11 0
234 -233 0
235 -13 -234 0
-235 13 0
-235 234 0
-236 27 235 14 0
236 -27 0
236 -235 0
236 -14 0
237 -56 -236 0
-237 56 0
-237 236 0
238 -58 -230 0
-238 58 0
-238 230 0
-239 62 238 115 0
239 -62 0
239 -238 0
239 -115 0
240 -64 -239 0
-240 64 0
-240 239 0
241 -68 -236 0
-241 68 0
-241 236 0
242 -70 -230 0
-242 70 0
-242 230 0
243 -72 -236 0
-243 72 0
-243 236 0
244 -83 -236 0
-244 83 0
-244 236 0
-245 95 244 84 121 122 0
245 -95 0
245 -244 0
245 -84 0
245 -121 0
245 -122 0
246 -97 -245 0
-246 97 0
-246 245 0
-247 99 242 243 246 0
247 -99 0
247 -242 0
247 -243 0
247 -246 0
248 -101 -247 0
-248 101 0
-248 247 0
-249 103 241 248 0
249 -103 0
249 -241 0
249 -248 0
250 -105 -249 0
-250 105 0
-250 249 0
-251 109 231 237 240 250 129 0
251 -109 0
251 -231 0
251 -237 0
251 -240 0
251 -250 0
251 -129 0
252 -132 -251 0
-252 132 0
-252 251 0
-253 3 252 0
253 -3 0
253 -252 0
254 -2 -253 0
-254 2 0
-254 253 0
-255 5 254 0
255 -5 0
255 -254 0
256 -19 -255 0
-256 19 0
-256 255 0
257 -7 -5 0
-257 7 0
-257 5 0
258 -9 -5 0
-258 9 0
-258 5 0
-259 11 258 0
259 -11 0
259 -258 0
260 -13 -259 0
-260 13 0
-260 259 0
-261 27 260 14 0
261 -27 0
261 -260 0
261 -14 0
262 -29 -261 0
-262 29 0
-262 261 0
263 -41 -140 0
-263 41 0
-263 140 0
-264 43 257 262 263 0
264 -43 0
264 -257 0
264 -262 0
264 -263 0
265 -45 -264 0
-265 45 0
-265 264 0
-266 43 257 263 0
266 -43 0
266 -257 0
266 -263 0
267 -48 -266 0
-267 48 0
-267 266 0
-268 11 267 258 0
268 -11 0
268 -267 0
268 -258 0
269 -13 -268 0
-269 13 0
-269 268 0
-270 27 269 14 0
270 -27 0
270 -269 0
270 -14 0
271 -56 -270 0
-271 56 0
-271 270 0
272 -58 -264 0
-272 58 0
-272 264 0
-273 62 272 141 0
273 -62 0
273 -272 0
273 -141 0
274 -64 -273 0
-274 64 0
-274 273 0
275 -68 -270 0
-275 68 0
-275 270 0
276 -70 -264 0
-276 70 0
-276 264 0
277 -72 -270 0
-277 72 0
-277 270 0
278 -83 -270 0
-278 83 0
-278 270 0
-279 95 278 84 145 148 0
279 -95 0
279 -278 0
279 -84 0
279 -145 0
279 -148 0
280 -97 -279 0
-280 97 0
-280 279 0
-281 99 276 277 280 0
281 -99 0
281 -276 0
281 -277 0
281 -280 0
282 -101 -281 0
-282 101 0
-282 281 0
-283 103 275 282 0
283 -103 0
283 -275 0
283 -282 0
284 -105 -283 0
-284 105 0
-284 283 0
-285 109 265 271 274 144 284 155 0
285 -109 0
285 -265 0
285 -271 0
285 -274 0
285 -144 0
285 -284 0
285 -155 0
286 -132 -285 0
-286 132 0
-286 285 0
-287 3 286 0
287 -3 0
287 -286 0
288 -21 -287 0
-288 21 0
-288 287 0
-289 23 226 256 288 0
289 -23 0
289 -226 0
289 -256 0
289 -288 0
290 -291 -289 0
-290 291 0
-290 289 0
-292 293 110 290 0
292 -293 0
292 -110 0
292 -290 0
294 -292 -295 0
-294 292 0
-294 295 0
294 0
