c BC-S1.2
p cnf 515 1694
1 -2 -3 0
-1 2 0
-1 3 0
4 -5 -6 0
-4 5 0
-4 6 0
7 -8 -9 0
-7 8 0
-7 9 0
10 -11 -12 0
-10 11 0
-10 12 0
13 -14 -15 0
-13 14 0
-13 15 0
16 -17 -18 0
-16 17 0
-16 18 0
19 -20 -21 0
-19 20 0
-19 21 0
22 -23 -24 0
-22 23 0
-22 24 0
25 -26 -27 0
-25 26 0
-25 27 0
-28 29 25 0
28 -29 0
28 -25 0
30 -31 -28 0
-30 31 0
-30 28 0
-32 33 19 22 30 0
32 -33 0
32 -19 0
32 -22 0
32 -30 0
34 -35 -32 0
-34 35 0
-34 32 0
36 -37 -29 0
-36 37 0
-36 29 0
-38 27 36 0
38 -27 0
38 -36 0
39 -40 -38 0
-39 40 0
-39 38 0
41 -42 -24 0
-41 42 0
-41 24 0
43 -44 -28 0
-43 44 0
-43 28 0
45 -46 -47 0
-45 46 0
-45 47 0
-48 49 4 7 10 13 16 34 39 41 43 45 0
48 -49 0
48 -4 0
48 -7 0
48 -10 0
48 -13 0
48 -16 0
48 -34 0
48 -39 0
48 -41 0
48 -43 0
48 -45 0
50 -51 -48 0
-50 51 0
-50 48 0
-52 53 50 0
52 -53 0
52 -50 0
54 -55 -52 0
-54 55 0
-54 52 0
56 -57 -58 0
-56 57 0
-56 58 0
59 -60 -61 0
-59 60 0
-59 61 0
-62 63 1 54 56 59 0
62 -63 0
62 -1 0
62 -54 0
62 -56 0
62 -59 0
64 -65 -62 0
-64 65 0
-64 62 0
66 -67 -62 0
-66 67 0
-66 62 0
68 -69 -62 0
-68 69 0
-68 62 0
70 -71 -3 0
-70 71 0
-70 3 0
72 -73 -6 0
-72 73 0
-72 6 0
-74 63 1 56 59 0
74 -63 0
74 -1 0
74 -56 0
74 -59 0
75 -76 -74 0
-75 76 0
-75 74 0
-77 12 75 0
77 -12 0
77 -75 0
78 -11 -77 0
-78 11 0
-78 77 0
79 -80 -74 0
-79 80 0
-79 74 0
-81 47 79 0
81 -47 0
81 -79 0
82 -46 -81 0
-82 46 0
-82 81 0
-83 49 4 7 78 13 16 34 39 41 43 82 0
83 -49 0
83 -4 0
83 -7 0
83 -78 0
83 -13 0
83 -16 0
83 -34 0
83 -39 0
83 -41 0
83 -43 0
83 -82 0
84 -51 -83 0
-84 51 0
-84 83 0
-85 53 84 0
85 -53 0
85 -84 0
86 -87 -85 0
-86 87 0
-86 85 0
88 -89 -24 0
-88 89 0
-88 24 0
90 -55 -53 0
-90 55 0
-90 53 0
-91 63 1 90 56 59 0
91 -63 0
91 -1 0
91 -90 0
91 -56 0
91 -59 0
92 -76 -91 0
-92 76 0
-92 91 0
-93 12 92 0
93 -12 0
93 -92 0
94 -11 -93 0
-94 11 0
-94 93 0
95 -80 -91 0
-95 80 0
-95 91 0
-96 47 95 0
96 -47 0
96 -95 0
97 -46 -96 0
-97 46 0
-97 96 0
-98 49 4 7 94 13 16 34 39 41 43 97 0
98 -49 0
98 -4 0
98 -7 0
98 -94 0
98 -13 0
98 -16 0
98 -34 0
98 -39 0
98 -41 0
98 -43 0
98 -97 0
99 -100 -98 0
-99 100 0
-99 98 0
-101 102 99 0
101 -102 0
101 -99 0
103 -104 -101 0
-103 104 0
-103 101 0
-105 106 68 70 72 86 88 103 0
105 -106 0
105 -68 0
105 -70 0
105 -72 0
105 -86 0
105 -88 0
105 -103 0
107 -108 -105 0
-107 108 0
-107 105 0
109 -110 -3 0
-109 110 0
-109 3 0
111 -112 -113 0
-111 112 0
-111 113 0
114 -115 -85 0
-114 115 0
-114 85 0
-116 117 66 107 109 111 114 0
116 -117 0
116 -66 0
116 -107 0
116 -109 0
116 -111 0
116 -114 0
118 -119 -116 0
-118 119 0
-118 116 0
120 -121 -122 0
-120 121 0
-120 122 0
-123 124 120 0
123 -124 0
123 -120 0
125 -126 -123 0
-125 126 0
-125 123 0
-127 128 125 0
127 -128 0
127 -125 0
129 -130 -127 0
-129 130 0
-129 127 0
-131 132 129 0
131 -132 0
131 -129 0
133 -134 -131 0
-133 134 0
-133 131 0
135 -136 -131 0
-135 136 0
-135 131 0
-137 128 135 125 0
137 -128 0
137 -135 0
137 -125 0
138 -139 -137 0
-138 139 0
-138 137 0
140 -141 -3 0
-140 141 0
-140 3 0
142 -143 -131 0
-142 143 0
-142 131 0
144 -136 -132 0
-144 136 0
-144 132 0
-145 128 144 0
145 -128 0
145 -144 0
146 -147 -145 0
-146 147 0
-146 145 0
148 -149 -145 0
-148 149 0
-148 145 0
-150 122 148 0
150 -122 0
150 -148 0
151 -121 -150 0
-151 121 0
-151 150 0
-152 124 146 151 0
152 -124 0
152 -146 0
152 -151 0
153 -154 -152 0
-153 154 0
-153 152 0
-155 156 142 153 0
155 -156 0
155 -142 0
155 -153 0
157 -158 -155 0
-157 158 0
-157 155 0
159 -160 -161 0
-159 160 0
-159 161 0
162 -163 -113 0
-162 163 0
-162 113 0
-164 49 4 7 13 16 34 39 41 43 45 0
164 -49 0
164 -4 0
164 -7 0
164 -13 0
164 -16 0
164 -34 0
164 -39 0
164 -41 0
164 -43 0
164 -45 0
165 -51 -164 0
-165 51 0
-165 164 0
-166 53 165 0
166 -53 0
166 -165 0
167 -55 -166 0
-167 55 0
-167 166 0
-168 63 1 167 56 59 0
168 -63 0
168 -1 0
168 -167 0
168 -56 0
168 -59 0
169 -76 -168 0
-169 76 0
-169 168 0
-170 12 169 0
170 -12 0
170 -169 0
171 -172 -170 0
-171 172 0
-171 170 0
-173 33 22 30 0
173 -33 0
173 -22 0
173 -30 0
174 -175 -173 0
-174 175 0
-174 173 0
-176 21 174 0
176 -21 0
176 -174 0
177 -178 -176 0
-177 178 0
-177 176 0
179 -180 -101 0
-179 180 0
-179 101 0
181 -182 -98 0
-181 182 0
-181 98 0
-183 184 177 179 181 0
183 -184 0
183 -177 0
183 -179 0
183 -181 0
185 -186 -183 0
-185 186 0
-185 183 0
-187 188 64 118 133 138 140 157 159 162 171 185 0
187 -188 0
187 -64 0
187 -118 0
187 -133 0
187 -138 0
187 -140 0
187 -157 0
187 -159 0
187 -162 0
187 -171 0
187 -185 0
189 -190 -187 0
-189 190 0
-189 187 0
-191 49 4 7 10 13 16 34 39 41 43 0
191 -49 0
191 -4 0
191 -7 0
191 -10 0
191 -13 0
191 -16 0
191 -34 0
191 -39 0
191 -41 0
191 -43 0
192 -100 -191 0
-192 100 0
-192 191 0
-193 102 192 0
193 -102 0
193 -192 0
194 -104 -193 0
-194 104 0
-194 193 0
-195 106 70 72 88 194 0
195 -106 0
195 -70 0
195 -72 0
195 -88 0
195 -194 0
196 -108 -195 0
-196 108 0
-196 195 0
-197 117 196 109 111 0
197 -117 0
197 -196 0
197 -109 0
197 -111 0
198 -119 -197 0
-198 119 0
-198 197 0
-199 128 144 125 0
199 -128 0
199 -144 0
199 -125 0
200 -139 -199 0
-200 139 0
-200 199 0
201 -172 -12 0
-201 172 0
-201 12 0
202 -180 -193 0
-202 180 0
-202 193 0
203 -182 -191 0
-203 182 0
-203 191 0
-204 184 177 202 203 0
204 -184 0
204 -177 0
204 -202 0
204 -203 0
205 -186 -204 0
-205 186 0
-205 204 0
-206 188 198 133 200 140 157 159 162 201 205 0
206 -188 0
206 -198 0
206 -133 0
206 -200 0
206 -140 0
206 -157 0
206 -159 0
206 -162 0
206 -201 0
206 -205 0
207 -208 -206 0
-207 208 0
-207 206 0
209 -51 -191 0
-209 51 0
-209 191 0
-210 53 207 209 0
210 -53 0
210 -207 0
210 -209 0
211 -55 -210 0
-211 55 0
-211 210 0
-212 53 209 0
212 -53 0
212 -209 0
213 -87 -212 0
-213 87 0
-213 212 0
-214 106 70 72 213 88 194 0
214 -106 0
214 -70 0
214 -72 0
214 -213 0
214 -88 0
214 -194 0
215 -108 -214 0
-215 108 0
-215 214 0
216 -115 -212 0
-216 115 0
-216 212 0
-217 117 215 109 111 216 0
217 -117 0
217 -215 0
217 -109 0
217 -111 0
217 -216 0
218 -119 -217 0
-218 119 0
-218 217 0
-219 188 218 133 200 140 157 159 162 201 205 0
219 -188 0
219 -218 0
219 -133 0
219 -200 0
219 -140 0
219 -157 0
219 -159 0
219 -162 0
219 -201 0
219 -205 0
220 -221 -219 0
-220 221 0
-220 219 0
-222 58 220 0
222 -58 0
222 -220 0
223 -57 -222 0
-223 57 0
-223 222 0
224 -225 -219 0
-224 225 0
-224 219 0
-226 61 224 0
226 -61 0
226 -224 0
227 -60 -226 0
-227 60 0
-227 226 0
-228 63 1 211 223 227 0
228 -63 0
228 -1 0
228 -211 0
228 -223 0
228 -227 0
229 -80 -228 0
-229 80 0
-229 228 0
-230 47 229 0
230 -47 0
230 -229 0
231 -232 -230 0
-231 232 0
-231 230 0
-233 234 189 231 0
233 -234 0
233 -189 0
233 -231 0
235 -236 -233 0
-235 236 0
-235 233 0
237 -65 -91 0
-237 65 0
-237 91 0
238 -67 -91 0
-238 67 0
-238 91 0
239 -69 -91 0
-239 69 0
-239 91 0
240 -87 -53 0
-240 87 0
-240 53 0
241 -104 -102 0
-241 104 0
-241 102 0
-242 106 239 70 72 240 88 241 0
242 -106 0
242 -239 0
242 -70 0
242 -72 0
242 -240 0
242 -88 0
242 -241 0
243 -108 -242 0
-243 108 0
-243 242 0
244 -115 -53 0
-244 115 0
-244 53 0
-245 117 238 243 109 111 244 0
245 -117 0
245 -238 0
245 -243 0
245 -109 0
245 -111 0
245 -244 0
246 -119 -245 0
-246 119 0
-246 245 0
247 -172 -93 0
-247 172 0
-247 93 0
248 -180 -102 0
-248 180 0
-248 102 0
-249 184 177 248 0
249 -184 0
249 -177 0
249 -248 0
250 -186 -249 0
-250 186 0
-250 249 0
-251 188 237 246 133 200 140 157 159 162 247 250 0
251 -188 0
251 -237 0
251 -246 0
251 -133 0
251 -200 0
251 -140 0
251 -157 0
251 -159 0
251 -162 0
251 -247 0
251 -250 0
252 -190 -251 0
-252 190 0
-252 251 0
-253 106 70 72 88 241 0
253 -106 0
253 -70 0
253 -72 0
253 -88 0
253 -241 0
254 -108 -253 0
-254 108 0
-254 253 0
-255 117 254 109 111 0
255 -117 0
255 -254 0
255 -109 0
255 -111 0
256 -119 -255 0
-256 119 0
-256 255 0
-257 188 256 133 200 140 157 159 162 201 250 0
257 -188 0
257 -256 0
257 -133 0
257 -200 0
257 -140 0
257 -157 0
257 -159 0
257 -162 0
257 -201 0
257 -250 0
258 -208 -257 0
-258 208 0
-258 257 0
-259 53 258 0
259 -53 0
259 -258 0
260 -55 -259 0
-260 55 0
-260 259 0
-261 106 70 72 240 88 241 0
261 -106 0
261 -70 0
261 -72 0
261 -240 0
261 -88 0
261 -241 0
262 -108 -261 0
-262 108 0
-262 261 0
-263 117 262 109 111 244 0
263 -117 0
263 -262 0
263 -109 0
263 -111 0
263 -244 0
264 -119 -263 0
-264 119 0
-264 263 0
-265 188 264 133 200 140 157 159 162 201 250 0
265 -188 0
265 -264 0
265 -133 0
265 -200 0
265 -140 0
265 -157 0
265 -159 0
265 -162 0
265 -201 0
265 -250 0
266 -221 -265 0
-266 221 0
-266 265 0
-267 58 266 0
267 -58 0
267 -266 0
268 -57 -267 0
-268 57 0
-268 267 0
269 -225 -265 0
-269 225 0
-269 265 0
-270 61 269 0
270 -61 0
270 -269 0
271 -60 -270 0
-271 60 0
-271 270 0
-272 63 1 260 268 271 0
272 -63 0
272 -1 0
272 -260 0
272 -268 0
272 -271 0
273 -80 -272 0
-273 80 0
-273 272 0
-274 47 273 0
274 -47 0
274 -273 0
275 -232 -274 0
-275 232 0
-275 274 0
-276 234 252 275 0
276 -234 0
276 -252 0
276 -275 0
277 -278 -276 0
-277 278 0
-277 276 0
279 -232 -47 0
-279 232 0
-279 47 0
-280 234 279 0
280 -234 0
280 -279 0
281 -282 -280 0
-281 282 0
-281 280 0
-283 106 70 281 72 88 241 0
283 -106 0
283 -70 0
283 -281 0
283 -72 0
283 -88 0
283 -241 0
284 -108 -283 0
-284 108 0
-284 283 0
-285 117 284 109 111 0
285 -117 0
285 -284 0
285 -109 0
285 -111 0
286 -119 -285 0
-286 119 0
-286 285 0
287 -288 -280 0
-287 288 0
-287 280 0
-289 188 286 133 200 140 287 157 159 162 201 250 0
289 -188 0
289 -286 0
289 -133 0
289 -200 0
289 -140 0
289 -287 0
289 -157 0
289 -159 0
289 -162 0
289 -201 0
289 -250 0
290 -208 -289 0
-290 208 0
-290 289 0
-291 53 290 0
291 -53 0
291 -290 0
292 -55 -291 0
-292 55 0
-292 291 0
-293 106 70 281 72 240 88 241 0
293 -106 0
293 -70 0
293 -281 0
293 -72 0
293 -240 0
293 -88 0
293 -241 0
294 -108 -293 0
-294 108 0
-294 293 0
-295 117 294 109 111 244 0
295 -117 0
295 -294 0
295 -109 0
295 -111 0
295 -244 0
296 -119 -295 0
-296 119 0
-296 295 0
-297 188 296 133 200 140 287 157 159 162 201 250 0
297 -188 0
297 -296 0
297 -133 0
297 -200 0
297 -140 0
297 -287 0
297 -157 0
297 -159 0
297 -162 0
297 -201 0
297 -250 0
298 -221 -297 0
-298 221 0
-298 297 0
-299 58 298 0
299 -58 0
299 -298 0
300 -57 -299 0
-300 57 0
-300 299 0
301 -225 -297 0
-301 225 0
-301 297 0
-302 61 301 0
302 -61 0
302 -301 0
303 -60 -302 0
-303 60 0
-303 302 0
-304 63 1 292 300 303 0
304 -63 0
304 -1 0
304 -292 0
304 -300 0
304 -303 0
305 -76 -304 0
-305 76 0
-305 304 0
-306 12 305 0
306 -12 0
306 -305 0
307 -11 -306 0
-307 11 0
-307 306 0
308 -80 -304 0
-308 80 0
-308 304 0
-309 234 252 0
309 -234 0
309 -252 0
310 -311 -309 0
-310 311 0
-310 309 0
-312 47 308 310 0
312 -47 0
312 -308 0
312 -310 0
313 -46 -312 0
-313 46 0
-313 312 0
-314 49 277 4 7 307 13 16 34 39 41 43 313 0
314 -49 0
314 -277 0
314 -4 0
314 -7 0
314 -307 0
314 -13 0
314 -16 0
314 -34 0
314 -39 0
314 -41 0
314 -43 0
314 -313 0
315 -316 -314 0
-315 316 0
-315 314 0
-317 318 315 0
317 -318 0
317 -315 0
319 -320 -317 0
-319 320 0
-319 317 0
321 -322 -15 0
-321 322 0
-321 15 0
323 -324 -32 0
-323 324 0
-323 32 0
325 -278 -280 0
-325 278 0
-325 280 0
-326 49 325 4 7 10 13 16 34 39 41 43 0
326 -49 0
326 -325 0
326 -4 0
326 -7 0
326 -10 0
326 -13 0
326 -16 0
326 -34 0
326 -39 0
326 -41 0
326 -43 0
327 -100 -326 0
-327 100 0
-327 326 0
-328 102 327 0
328 -102 0
328 -327 0
329 -104 -328 0
-329 104 0
-329 328 0
-330 106 70 281 72 88 329 0
330 -106 0
330 -70 0
330 -281 0
330 -72 0
330 -88 0
330 -329 0
331 -108 -330 0
-331 108 0
-331 330 0
-332 117 331 109 111 0
332 -117 0
332 -331 0
332 -109 0
332 -111 0
333 -119 -332 0
-333 119 0
-333 332 0
334 -180 -328 0
-334 180 0
-334 328 0
335 -182 -326 0
-335 182 0
-335 326 0
-336 184 177 334 335 0
336 -184 0
336 -177 0
336 -334 0
336 -335 0
337 -186 -336 0
-337 186 0
-337 336 0
-338 188 333 133 200 140 287 157 159 162 201 337 0
338 -188 0
338 -333 0
338 -133 0
338 -200 0
338 -140 0
338 -287 0
338 -157 0
338 -159 0
338 -162 0
338 -201 0
338 -337 0
339 -208 -338 0
-339 208 0
-339 338 0
340 -190 -257 0
-340 190 0
-340 257 0
-341 234 340 279 0
341 -234 0
341 -340 0
341 -279 0
342 -278 -341 0
-342 278 0
-342 341 0
-343 49 342 4 7 10 13 16 34 39 41 43 0
343 -49 0
343 -342 0
343 -4 0
343 -7 0
343 -10 0
343 -13 0
343 -16 0
343 -34 0
343 -39 0
343 -41 0
343 -43 0
344 -51 -343 0
-344 51 0
-344 343 0
-345 53 339 344 0
345 -53 0
345 -339 0
345 -344 0
346 -55 -345 0
-346 55 0
-346 345 0
347 -51 -326 0
-347 51 0
-347 326 0
-348 53 347 0
348 -53 0
348 -347 0
349 -87 -348 0
-349 87 0
-349 348 0
-350 106 70 281 72 349 88 329 0
350 -106 0
350 -70 0
350 -281 0
350 -72 0
350 -349 0
350 -88 0
350 -329 0
351 -108 -350 0
-351 108 0
-351 350 0
352 -115 -348 0
-352 115 0
-352 348 0
-353 117 351 109 111 352 0
353 -117 0
353 -351 0
353 -109 0
353 -111 0
353 -352 0
354 -119 -353 0
-354 119 0
-354 353 0
-355 188 354 133 200 140 287 157 159 162 201 337 0
355 -188 0
355 -354 0
355 -133 0
355 -200 0
355 -140 0
355 -287 0
355 -157 0
355 -159 0
355 -162 0
355 -201 0
355 -337 0
356 -221 -355 0
-356 221 0
-356 355 0
-357 58 356 0
357 -58 0
357 -356 0
358 -57 -357 0
-358 57 0
-358 357 0
359 -225 -355 0
-359 225 0
-359 355 0
-360 61 359 0
360 -61 0
360 -359 0
361 -60 -360 0
-361 60 0
-361 360 0
-362 63 1 346 358 361 0
362 -63 0
362 -1 0
362 -346 0
362 -358 0
362 -361 0
363 -80 -362 0
-363 80 0
-363 362 0
364 -55 -212 0
-364 55 0
-364 212 0
-365 63 1 364 56 59 0
365 -63 0
365 -1 0
365 -364 0
365 -56 0
365 -59 0
366 -65 -365 0
-366 65 0
-366 365 0
367 -67 -365 0
-367 67 0
-367 365 0
368 -69 -365 0
-368 69 0
-368 365 0
-369 49 4 7 78 13 16 34 39 41 43 0
369 -49 0
369 -4 0
369 -7 0
369 -78 0
369 -13 0
369 -16 0
369 -34 0
369 -39 0
369 -41 0
369 -43 0
370 -51 -369 0
-370 51 0
-370 369 0
-371 53 370 0
371 -53 0
371 -370 0
372 -87 -371 0
-372 87 0
-372 371 0
-373 49 4 7 94 13 16 34 39 41 43 0
373 -49 0
373 -4 0
373 -7 0
373 -94 0
373 -13 0
373 -16 0
373 -34 0
373 -39 0
373 -41 0
373 -43 0
374 -100 -373 0
-374 100 0
-374 373 0
-375 102 374 0
375 -102 0
375 -374 0
376 -104 -375 0
-376 104 0
-376 375 0
-377 106 368 70 72 372 88 376 0
377 -106 0
377 -368 0
377 -70 0
377 -72 0
377 -372 0
377 -88 0
377 -376 0
378 -108 -377 0
-378 108 0
-378 377 0
379 -115 -371 0
-379 115 0
-379 371 0
-380 117 367 378 109 111 379 0
380 -117 0
380 -367 0
380 -378 0
380 -109 0
380 -111 0
380 -379 0
381 -119 -380 0
-381 119 0
-381 380 0
-382 49 4 7 13 16 34 39 41 43 0
382 -49 0
382 -4 0
382 -7 0
382 -13 0
382 -16 0
382 -34 0
382 -39 0
382 -41 0
382 -43 0
383 -51 -382 0
-383 51 0
-383 382 0
-384 53 383 0
384 -53 0
384 -383 0
385 -55 -384 0
-385 55 0
-385 384 0
-386 63 1 385 56 59 0
386 -63 0
386 -1 0
386 -385 0
386 -56 0
386 -59 0
387 -76 -386 0
-387 76 0
-387 386 0
-388 12 387 0
388 -12 0
388 -387 0
389 -172 -388 0
-389 172 0
-389 388 0
390 -180 -375 0
-390 180 0
-390 375 0
391 -182 -373 0
-391 182 0
-391 373 0
-392 184 177 390 391 0
392 -184 0
392 -177 0
392 -390 0
392 -391 0
393 -186 -392 0
-393 186 0
-393 392 0
-394 188 366 381 133 200 140 157 159 162 389 393 0
394 -188 0
394 -366 0
394 -381 0
394 -133 0
394 -200 0
394 -140 0
394 -157 0
394 -159 0
394 -162 0
394 -389 0
394 -393 0
395 -190 -394 0
-395 190 0
-395 394 0
-396 234 395 0
396 -234 0
396 -395 0
397 -311 -396 0
-397 311 0
-397 396 0
-398 47 363 397 0
398 -47 0
398 -363 0
398 -397 0
399 -400 -398 0
-399 400 0
-399 398 0
-401 106 239 70 72 240 88 0
401 -106 0
401 -239 0
401 -70 0
401 -72 0
401 -240 0
401 -88 0
402 -108 -401 0
-402 108 0
-402 401 0
-403 117 238 402 109 111 244 0
403 -117 0
403 -238 0
403 -402 0
403 -109 0
403 -111 0
403 -244 0
404 -119 -403 0
-404 119 0
-404 403 0
-405 188 237 404 133 200 140 157 159 162 247 0
405 -188 0
405 -237 0
405 -404 0
405 -133 0
405 -200 0
405 -140 0
405 -157 0
405 -159 0
405 -162 0
405 -247 0
406 -190 -405 0
-406 190 0
-406 405 0
-407 106 70 72 88 0
407 -106 0
407 -70 0
407 -72 0
407 -88 0
408 -108 -407 0
-408 108 0
-408 407 0
-409 117 408 109 111 0
409 -117 0
409 -408 0
409 -109 0
409 -111 0
410 -119 -409 0
-410 119 0
-410 409 0
-411 188 410 133 200 140 157 159 162 201 0
411 -188 0
411 -410 0
411 -133 0
411 -200 0
411 -140 0
411 -157 0
411 -159 0
411 -162 0
411 -201 0
412 -208 -411 0
-412 208 0
-412 411 0
-413 53 412 0
413 -53 0
413 -412 0
414 -55 -413 0
-414 55 0
-414 413 0
-415 106 70 72 240 88 0
415 -106 0
415 -70 0
415 -72 0
415 -240 0
415 -88 0
416 -108 -415 0
-416 108 0
-416 415 0
-417 117 416 109 111 244 0
417 -117 0
417 -416 0
417 -109 0
417 -111 0
417 -244 0
418 -119 -417 0
-418 119 0
-418 417 0
-419 188 418 133 200 140 157 159 162 201 0
419 -188 0
419 -418 0
419 -133 0
419 -200 0
419 -140 0
419 -157 0
419 -159 0
419 -162 0
419 -201 0
420 -221 -419 0
-420 221 0
-420 419 0
-421 58 420 0
421 -58 0
421 -420 0
422 -57 -421 0
-422 57 0
-422 421 0
423 -225 -419 0
-423 225 0
-423 419 0
-424 61 423 0
424 -61 0
424 -423 0
425 -60 -424 0
-425 60 0
-425 424 0
-426 63 1 414 422 425 0
426 -63 0
426 -1 0
426 -414 0
426 -422 0
426 -425 0
427 -80 -426 0
-427 80 0
-427 426 0
-428 47 427 0
428 -47 0
428 -427 0
429 -232 -428 0
-429 232 0
-429 428 0
-430 234 406 429 0
430 -234 0
430 -406 0
430 -429 0
431 -278 -430 0
-431 278 0
-431 430 0
-432 106 70 281 72 88 0
432 -106 0
432 -70 0
432 -281 0
432 -72 0
432 -88 0
433 -108 -432 0
-433 108 0
-433 432 0
-434 117 433 109 111 0
434 -117 0
434 -433 0
434 -109 0
434 -111 0
435 -119 -434 0
-435 119 0
-435 434 0
-436 188 435 133 200 140 287 157 159 162 201 0
436 -188 0
436 -435 0
436 -133 0
436 -200 0
436 -140 0
436 -287 0
436 -157 0
436 -159 0
436 -162 0
436 -201 0
437 -208 -436 0
-437 208 0
-437 436 0
-438 53 437 0
438 -53 0
438 -437 0
439 -55 -438 0
-439 55 0
-439 438 0
-440 106 70 281 72 240 88 0
440 -106 0
440 -70 0
440 -281 0
440 -72 0
440 -240 0
440 -88 0
441 -108 -440 0
-441 108 0
-441 440 0
-442 117 441 109 111 244 0
442 -117 0
442 -441 0
442 -109 0
442 -111 0
442 -244 0
443 -119 -442 0
-443 119 0
-443 442 0
-444 188 443 133 200 140 287 157 159 162 201 0
444 -188 0
444 -443 0
444 -133 0
444 -200 0
444 -140 0
444 -287 0
444 -157 0
444 -159 0
444 -162 0
444 -201 0
445 -221 -444 0
-445 221 0
-445 444 0
-446 58 445 0
446 -58 0
446 -445 0
447 -57 -446 0
-447 57 0
-447 446 0
448 -225 -444 0
-448 225 0
-448 444 0
-449 61 448 0
449 -61 0
449 -448 0
450 -60 -449 0
-450 60 0
-450 449 0
-451 63 1 439 447 450 0
451 -63 0
451 -1 0
451 -439 0
451 -447 0
451 -450 0
452 -76 -451 0
-452 76 0
-452 451 0
-453 12 452 0
453 -12 0
453 -452 0
454 -11 -453 0
-454 11 0
-454 453 0
455 -80 -451 0
-455 80 0
-455 451 0
-456 234 406 0
456 -234 0
456 -406 0
457 -311 -456 0
-457 311 0
-457 456 0
-458 47 455 457 0
458 -47 0
458 -455 0
458 -457 0
459 -46 -458 0
-459 46 0
-459 458 0
-460 49 431 4 7 454 13 16 34 39 41 43 459 0
460 -49 0
460 -431 0
460 -4 0
460 -7 0
460 -454 0
460 -13 0
460 -16 0
460 -34 0
460 -39 0
460 -41 0
460 -43 0
460 -459 0
461 -100 -460 0
-461 100 0
-461 460 0
-462 102 461 0
462 -102 0
462 -461 0
463 -180 -462 0
-463 180 0
-463 462 0
-464 188 237 246 133 200 140 157 159 162 247 0
464 -188 0
464 -237 0
464 -246 0
464 -133 0
464 -200 0
464 -140 0
464 -157 0
464 -159 0
464 -162 0
464 -247 0
465 -190 -464 0
-465 190 0
-465 464 0
-466 188 256 133 200 140 157 159 162 201 0
466 -188 0
466 -256 0
466 -133 0
466 -200 0
466 -140 0
466 -157 0
466 -159 0
466 -162 0
466 -201 0
467 -208 -466 0
-467 208 0
-467 466 0
-468 53 467 0
468 -53 0
468 -467 0
469 -55 -468 0
-469 55 0
-469 468 0
-470 188 264 133 200 140 157 159 162 201 0
470 -188 0
470 -264 0
470 -133 0
470 -200 0
470 -140 0
470 -157 0
470 -159 0
470 -162 0
470 -201 0
471 -221 -470 0
-471 221 0
-471 470 0
-472 58 471 0
472 -58 0
472 -471 0
473 -57 -472 0
-473 57 0
-473 472 0
474 -225 -470 0
-474 225 0
-474 470 0
-475 61 474 0
475 -61 0
475 -474 0
476 -60 -475 0
-476 60 0
-476 475 0
-477 63 1 469 473 476 0
477 -63 0
477 -1 0
477 -469 0
477 -473 0
477 -476 0
478 -80 -477 0
-478 80 0
-478 477 0
-479 47 478 0
479 -47 0
479 -478 0
480 -232 -479 0
-480 232 0
-480 479 0
-481 234 465 480 0
481 -234 0
481 -465 0
481 -480 0
482 -278 -481 0
-482 278 0
-482 481 0
-483 188 286 133 200 140 287 157 159 162 201 0
483 -188 0
483 -286 0
483 -133 0
483 -200 0
483 -140 0
483 -287 0
483 -157 0
483 -159 0
483 -162 0
483 -201 0
484 -208 -483 0
-484 208 0
-484 483 0
-485 53 484 0
485 -53 0
485 -484 0
486 -55 -485 0
-486 55 0
-486 485 0
-487 188 296 133 200 140 287 157 159 162 201 0
487 -188 0
487 -296 0
487 -133 0
487 -200 0
487 -140 0
487 -287 0
487 -157 0
487 -159 0
487 -162 0
487 -201 0
488 -221 -487 0
-488 221 0
-488 487 0
-489 58 488 0
489 -58 0
489 -488 0
490 -57 -489 0
-490 57 0
-490 489 0
491 -225 -487 0
-491 225 0
-491 487 0
-492 61 491 0
492 -61 0
492 -491 0
493 -60 -492 0
-493 60 0
-493 492 0
-494 63 1 486 490 493 0
494 -63 0
494 -1 0
494 -486 0
494 -490 0
494 -493 0
495 -76 -494 0
-495 76 0
-495 494 0
-496 12 495 0
496 -12 0
496 -495 0
497 -11 -496 0
-497 11 0
-497 496 0
498 -80 -494 0
-498 80 0
-498 494 0
-499 234 465 0
499 -234 0
499 -465 0
500 -311 -499 0
-500 311 0
-500 499 0
-501 47 498 500 0
501 -47 0
501 -498 0
501 -500 0
502 -46 -501 0
-502 46 0
-502 501 0
-503 49 482 4 7 497 13 16 34 39 41 43 502 0
503 -49 0
503 -482 0
503 -4 0
503 -7 0
503 -497 0
503 -13 0
503 -16 0
503 -34 0
503 -39 0
503 -41 0
503 -43 0
503 -502 0
504 -182 -503 0
-504 182 0
-504 503 0
-505 184 177 463 504 0
505 -184 0
505 -177 0
505 -463 0
505 -504 0
506 -507 -505 0
-506 507 0
-506 505 0
-508 509 235 319 321 323 399 506 0
508 -509 0
508 -235 0
508 -319 0
508 -321 0
508 -323 0
508 -399 0
508 -506 0
510 -511 -508 0
-510 511 0
-510 508 0
-512 513 510 0
512 -513 0
512 -510 0
514 -512 -515 0
-514 512 0
-514 515 0
514 0
