c BC-S1.2
p cnf 505 1544
1 -2 -3 0
-1 2 0
-1 3 0
-4 5 1 0
4 -5 0
4 -1 0
6 -7 -4 0
-6 7 0
-6 4 0
8 -9 -4 0
-8 9 0
-8 4 0
-10 11 8 0
10 -11 0
10 -8 0
12 -13 -10 0
-12 13 0
-12 10 0
-14 15 12 0
14 -15 0
14 -12 0
16 -17 -14 0
-16 17 0
-16 14 0
-18 19 6 16 0
18 -19 0
18 -6 0
18 -16 0
20 -21 -18 0
-20 21 0
-20 18 0
22 -23 -24 0
-22 23 0
-22 24 0
-25 26 22 0
25 -26 0
25 -22 0
27 -28 -25 0
-27 28 0
-27 25 0
29 -30 -31 0
-29 30 0
-29 31 0
32 -33 -14 0
-32 33 0
-32 14 0
-34 35 20 27 29 32 0
34 -35 0
34 -20 0
34 -27 0
34 -29 0
34 -32 0
36 -37 -34 0
-36 37 0
-36 34 0
-38 19 16 0
38 -19 0
38 -16 0
39 -21 -38 0
-39 21 0
-39 38 0
-40 35 39 27 29 32 0
40 -35 0
40 -39 0
40 -27 0
40 -29 0
40 -32 0
41 -42 -40 0
-41 42 0
-41 40 0
-43 5 41 1 0
43 -5 0
43 -41 0
43 -1 0
44 -45 -43 0
-44 45 0
-44 43 0
46 -47 -48 0
-46 47 0
-46 48 0
-49 50 36 44 46 0
49 -50 0
49 -36 0
49 -44 0
49 -46 0
51 -52 -49 0
-51 52 0
-51 49 0
53 -54 -3 0
-53 54 0
-53 3 0
55 -56 -49 0
-55 56 0
-55 49 0
-57 50 46 0
57 -50 0
57 -46 0
58 -59 -57 0
-58 59 0
-58 57 0
60 -61 -57 0
-60 61 0
-60 57 0
-62 24 60 0
62 -24 0
62 -60 0
63 -23 -62 0
-63 23 0
-63 62 0
-64 26 58 63 0
64 -26 0
64 -58 0
64 -63 0
65 -28 -64 0
-65 28 0
-65 64 0
-66 35 39 65 29 32 0
66 -35 0
66 -39 0
66 -65 0
66 -29 0
66 -32 0
67 -42 -66 0
-67 42 0
-67 66 0
-68 5 67 1 0
68 -5 0
68 -67 0
68 -1 0
69 -70 -68 0
-69 70 0
-69 68 0
-71 72 69 0
71 -72 0
71 -69 0
73 -74 -71 0
-73 74 0
-73 71 0
-75 76 55 73 0
75 -76 0
75 -55 0
75 -73 0
77 -78 -75 0
-77 78 0
-77 75 0
79 -80 -31 0
-79 80 0
-79 31 0
81 -82 -48 0
-81 82 0
-81 48 0
-83 84 51 53 77 79 81 0
83 -84 0
83 -51 0
83 -53 0
83 -77 0
83 -79 0
83 -81 0
85 -86 -83 0
-85 86 0
-85 83 0
87 -70 -4 0
-87 70 0
-87 4 0
-88 72 87 0
88 -72 0
88 -87 0
89 -74 -88 0
-89 74 0
-89 88 0
-90 76 89 0
90 -76 0
90 -89 0
91 -78 -90 0
-91 78 0
-91 90 0
-92 84 53 91 79 81 0
92 -84 0
92 -53 0
92 -91 0
92 -79 0
92 -81 0
93 -94 -92 0
-93 94 0
-93 92 0
95 -96 -92 0
-95 96 0
-95 92 0
-97 5 95 1 0
97 -5 0
97 -95 0
97 -1 0
98 -7 -97 0
-98 7 0
-98 97 0
99 -9 -97 0
-99 9 0
-99 97 0
-100 11 99 0
100 -11 0
100 -99 0
101 -13 -100 0
-101 13 0
-101 100 0
-102 15 101 0
102 -15 0
102 -101 0
103 -17 -102 0
-103 17 0
-103 102 0
-104 19 93 98 103 0
104 -19 0
104 -93 0
104 -98 0
104 -103 0
105 -21 -104 0
-105 21 0
-105 104 0
106 -107 -92 0
-106 107 0
-106 92 0
-108 24 106 0
108 -24 0
108 -106 0
109 -23 -108 0
-109 23 0
-109 108 0
-110 26 109 0
110 -26 0
110 -109 0
111 -28 -110 0
-111 28 0
-111 110 0
112 -33 -102 0
-112 33 0
-112 102 0
-113 35 105 111 29 112 0
113 -35 0
113 -105 0
113 -111 0
113 -29 0
113 -112 0
114 -37 -113 0
-114 37 0
-114 113 0
115 -74 -72 0
-115 74 0
-115 72 0
-116 76 115 0
116 -76 0
116 -115 0
117 -78 -116 0
-117 78 0
-117 116 0
-118 84 53 117 79 81 0
118 -84 0
118 -53 0
118 -117 0
118 -79 0
118 -81 0
119 -96 -118 0
-119 96 0
-119 118 0
120 -13 -11 0
-120 13 0
-120 11 0
-121 15 120 0
121 -15 0
121 -120 0
122 -17 -121 0
-122 17 0
-122 121 0
-123 19 93 122 0
123 -19 0
123 -93 0
123 -122 0
124 -21 -123 0
-124 21 0
-124 123 0
125 -33 -121 0
-125 33 0
-125 121 0
-126 35 124 111 29 125 0
126 -35 0
126 -124 0
126 -111 0
126 -29 0
126 -125 0
127 -42 -126 0
-127 42 0
-127 126 0
-128 5 119 127 1 0
128 -5 0
128 -119 0
128 -127 0
128 -1 0
129 -45 -128 0
-129 45 0
-129 128 0
-130 50 114 129 46 0
130 -50 0
130 -114 0
130 -129 0
130 -46 0
131 -132 -130 0
-131 132 0
-131 130 0
-133 134 85 131 0
133 -134 0
133 -85 0
133 -131 0
135 -136 -133 0
-135 136 0
-135 133 0
137 -138 -134 0
-137 138 0
-137 134 0
139 -140 -134 0
-139 140 0
-139 134 0
-141 3 139 0
141 -3 0
141 -139 0
142 -2 -141 0
-142 2 0
-142 141 0
-143 5 137 142 0
143 -5 0
143 -137 0
143 -142 0
144 -7 -143 0
-144 7 0
-144 143 0
145 -9 -143 0
-145 9 0
-145 143 0
-146 11 145 0
146 -11 0
146 -145 0
147 -13 -146 0
-147 13 0
-147 146 0
-148 15 147 0
148 -15 0
148 -147 0
149 -17 -148 0
-149 17 0
-149 148 0
-150 19 144 149 0
150 -19 0
150 -144 0
150 -149 0
151 -21 -150 0
-151 21 0
-151 150 0
152 -33 -148 0
-152 33 0
-152 148 0
-153 35 151 27 29 152 0
153 -35 0
153 -151 0
153 -27 0
153 -29 0
153 -152 0
154 -37 -153 0
-154 37 0
-154 153 0
-155 19 122 0
155 -19 0
155 -122 0
156 -21 -155 0
-156 21 0
-156 155 0
-157 35 156 27 29 125 0
157 -35 0
157 -156 0
157 -27 0
157 -29 0
157 -125 0
158 -42 -157 0
-158 42 0
-158 157 0
-159 5 137 158 142 0
159 -5 0
159 -137 0
159 -158 0
159 -142 0
160 -45 -159 0
-160 45 0
-160 159 0
-161 50 154 160 46 0
161 -50 0
161 -154 0
161 -160 0
161 -46 0
162 -52 -161 0
-162 52 0
-162 161 0
163 -7 -5 0
-163 7 0
-163 5 0
164 -9 -5 0
-164 9 0
-164 5 0
-165 11 164 0
165 -11 0
165 -164 0
166 -13 -165 0
-166 13 0
-166 165 0
-167 15 166 0
167 -15 0
167 -166 0
168 -17 -167 0
-168 17 0
-168 167 0
-169 19 163 168 0
169 -19 0
169 -163 0
169 -168 0
170 -21 -169 0
-170 21 0
-170 169 0
171 -33 -167 0
-171 33 0
-171 167 0
-172 35 170 27 29 171 0
172 -35 0
172 -170 0
172 -27 0
172 -29 0
172 -171 0
173 -37 -172 0
-173 37 0
-173 172 0
-174 5 158 0
174 -5 0
174 -158 0
175 -45 -174 0
-175 45 0
-175 174 0
-176 50 173 175 46 0
176 -50 0
176 -173 0
176 -175 0
176 -46 0
177 -132 -176 0
-177 132 0
-177 176 0
-178 134 177 0
178 -134 0
178 -177 0
179 -140 -178 0
-179 140 0
-179 178 0
-180 3 179 0
180 -3 0
180 -179 0
181 -54 -180 0
-181 54 0
-181 180 0
182 -56 -161 0
-182 56 0
-182 161 0
183 -37 -40 0
-183 37 0
-183 40 0
-184 50 183 46 0
184 -50 0
184 -183 0
184 -46 0
185 -132 -184 0
-185 132 0
-185 184 0
-186 134 185 0
186 -134 0
186 -185 0
187 -138 -186 0
-187 138 0
-187 186 0
-188 35 156 65 29 125 0
188 -35 0
188 -156 0
188 -65 0
188 -29 0
188 -125 0
189 -42 -188 0
-189 42 0
-189 188 0
190 -37 -157 0
-190 37 0
-190 157 0
-191 50 190 46 0
191 -50 0
191 -190 0
191 -46 0
192 -132 -191 0
-192 132 0
-192 191 0
-193 134 192 0
193 -134 0
193 -192 0
194 -140 -193 0
-194 140 0
-194 193 0
-195 3 194 0
195 -3 0
195 -194 0
196 -2 -195 0
-196 2 0
-196 195 0
-197 5 187 189 196 0
197 -5 0
197 -187 0
197 -189 0
197 -196 0
198 -70 -197 0
-198 70 0
-198 197 0
-199 72 198 0
199 -72 0
199 -198 0
200 -74 -199 0
-200 74 0
-200 199 0
-201 76 182 200 0
201 -76 0
201 -182 0
201 -200 0
202 -78 -201 0
-202 78 0
-202 201 0
-203 84 162 181 202 79 81 0
203 -84 0
203 -162 0
203 -181 0
203 -202 0
203 -79 0
203 -81 0
204 -205 -203 0
-204 205 0
-204 203 0
206 -52 -176 0
-206 52 0
-206 176 0
207 -56 -176 0
-207 56 0
-207 176 0
-208 5 189 0
208 -5 0
208 -189 0
209 -70 -208 0
-209 70 0
-209 208 0
-210 72 209 0
210 -72 0
210 -209 0
211 -74 -210 0
-211 74 0
-211 210 0
-212 76 207 211 0
212 -76 0
212 -207 0
212 -211 0
213 -78 -212 0
-213 78 0
-213 212 0
-214 84 206 53 213 79 81 0
214 -84 0
214 -206 0
214 -53 0
214 -213 0
214 -79 0
214 -81 0
215 -86 -214 0
-215 86 0
-215 214 0
216 -70 -5 0
-216 70 0
-216 5 0
-217 72 216 0
217 -72 0
217 -216 0
218 -74 -217 0
-218 74 0
-218 217 0
-219 76 218 0
219 -76 0
219 -218 0
220 -78 -219 0
-220 78 0
-220 219 0
-221 84 53 220 79 81 0
221 -84 0
221 -53 0
221 -220 0
221 -79 0
221 -81 0
222 -94 -221 0
-222 94 0
-222 221 0
-223 5 119 0
223 -5 0
223 -119 0
224 -7 -223 0
-224 7 0
-224 223 0
225 -9 -223 0
-225 9 0
-225 223 0
-226 11 225 0
226 -11 0
226 -225 0
227 -13 -226 0
-227 13 0
-227 226 0
-228 15 227 0
228 -15 0
228 -227 0
229 -17 -228 0
-229 17 0
-229 228 0
-230 19 222 224 229 0
230 -19 0
230 -222 0
230 -224 0
230 -229 0
231 -21 -230 0
-231 21 0
-231 230 0
232 -107 -221 0
-232 107 0
-232 221 0
-233 24 232 0
233 -24 0
233 -232 0
234 -23 -233 0
-234 23 0
-234 233 0
-235 26 234 0
235 -26 0
235 -234 0
236 -28 -235 0
-236 28 0
-236 235 0
237 -33 -228 0
-237 33 0
-237 228 0
-238 35 231 236 29 237 0
238 -35 0
238 -231 0
238 -236 0
238 -29 0
238 -237 0
239 -37 -238 0
-239 37 0
-239 238 0
240 -94 -118 0
-240 94 0
-240 118 0
-241 19 240 122 0
241 -19 0
241 -240 0
241 -122 0
242 -21 -241 0
-242 21 0
-242 241 0
243 -107 -118 0
-243 107 0
-243 118 0
-244 24 243 0
244 -24 0
244 -243 0
245 -23 -244 0
-245 23 0
-245 244 0
-246 26 245 0
246 -26 0
246 -245 0
247 -28 -246 0
-247 28 0
-247 246 0
-248 35 242 247 29 125 0
248 -35 0
248 -242 0
248 -247 0
248 -29 0
248 -125 0
249 -42 -248 0
-249 42 0
-249 248 0
-250 5 119 249 0
250 -5 0
250 -119 0
250 -249 0
251 -45 -250 0
-251 45 0
-251 250 0
-252 50 239 251 46 0
252 -50 0
252 -239 0
252 -251 0
252 -46 0
253 -132 -252 0
-253 132 0
-253 252 0
-254 134 215 253 0
254 -134 0
254 -215 0
254 -253 0
255 -140 -254 0
-255 140 0
-255 254 0
-256 3 255 0
256 -3 0
256 -255 0
257 -258 -256 0
-257 258 0
-257 256 0
259 -28 -26 0
-259 28 0
-259 26 0
-260 35 151 259 29 152 0
260 -35 0
260 -151 0
260 -259 0
260 -29 0
260 -152 0
261 -37 -260 0
-261 37 0
-261 260 0
-262 35 156 259 29 125 0
262 -35 0
262 -156 0
262 -259 0
262 -29 0
262 -125 0
263 -42 -262 0
-263 42 0
-263 262 0
-264 5 137 263 142 0
264 -5 0
264 -137 0
264 -263 0
264 -142 0
265 -45 -264 0
-265 45 0
-265 264 0
-266 50 261 265 46 0
266 -50 0
266 -261 0
266 -265 0
266 -46 0
267 -52 -266 0
-267 52 0
-267 266 0
-268 35 170 259 29 171 0
268 -35 0
268 -170 0
268 -259 0
268 -29 0
268 -171 0
269 -37 -268 0
-269 37 0
-269 268 0
-270 5 263 0
270 -5 0
270 -263 0
271 -45 -270 0
-271 45 0
-271 270 0
-272 50 269 271 46 0
272 -50 0
272 -269 0
272 -271 0
272 -46 0
273 -132 -272 0
-273 132 0
-273 272 0
-274 134 273 0
274 -134 0
274 -273 0
275 -140 -274 0
-275 140 0
-275 274 0
-276 3 275 0
276 -3 0
276 -275 0
277 -54 -276 0
-277 54 0
-277 276 0
278 -56 -266 0
-278 56 0
-278 266 0
279 -37 -262 0
-279 37 0
-279 262 0
-280 50 279 46 0
280 -50 0
280 -279 0
280 -46 0
281 -132 -280 0
-281 132 0
-281 280 0
-282 134 281 0
282 -134 0
282 -281 0
283 -138 -282 0
-283 138 0
-283 282 0
-284 26 58 0
284 -26 0
284 -58 0
285 -28 -284 0
-285 28 0
-285 284 0
-286 35 156 285 29 125 0
286 -35 0
286 -156 0
286 -285 0
286 -29 0
286 -125 0
287 -42 -286 0
-287 42 0
-287 286 0
288 -140 -282 0
-288 140 0
-288 282 0
-289 3 288 0
289 -3 0
289 -288 0
290 -2 -289 0
-290 2 0
-290 289 0
-291 5 283 287 290 0
291 -5 0
291 -283 0
291 -287 0
291 -290 0
292 -70 -291 0
-292 70 0
-292 291 0
-293 72 292 0
293 -72 0
293 -292 0
294 -74 -293 0
-294 74 0
-294 293 0
-295 76 278 294 0
295 -76 0
295 -278 0
295 -294 0
296 -78 -295 0
-296 78 0
-296 295 0
-297 84 267 277 296 79 81 0
297 -84 0
297 -267 0
297 -277 0
297 -296 0
297 -79 0
297 -81 0
298 -107 -297 0
-298 107 0
-298 297 0
299 -54 -141 0
-299 54 0
-299 141 0
300 -70 -143 0
-300 70 0
-300 143 0
-301 72 300 0
301 -72 0
301 -300 0
302 -74 -301 0
-302 74 0
-302 301 0
-303 76 302 0
303 -76 0
303 -302 0
304 -78 -303 0
-304 78 0
-304 303 0
-305 84 299 304 79 81 0
305 -84 0
305 -299 0
305 -304 0
305 -79 0
305 -81 0
306 -94 -305 0
-306 94 0
-306 305 0
307 -86 -92 0
-307 86 0
-307 92 0
-308 134 307 0
308 -134 0
308 -307 0
309 -138 -308 0
-309 138 0
-309 308 0
310 -96 -305 0
-310 96 0
-310 305 0
311 -86 -118 0
-311 86 0
-311 118 0
-312 134 311 0
312 -134 0
312 -311 0
313 -140 -312 0
-313 140 0
-313 312 0
-314 3 313 0
314 -3 0
314 -313 0
315 -2 -314 0
-315 2 0
-315 314 0
-316 5 309 310 315 0
316 -5 0
316 -309 0
316 -310 0
316 -315 0
317 -7 -316 0
-317 7 0
-317 316 0
318 -138 -312 0
-318 138 0
-318 312 0
-319 5 318 310 315 0
319 -5 0
319 -318 0
319 -310 0
319 -315 0
320 -9 -319 0
-320 9 0
-320 319 0
-321 11 320 0
321 -11 0
321 -320 0
322 -13 -321 0
-322 13 0
-322 321 0
-323 15 322 0
323 -15 0
323 -322 0
324 -17 -323 0
-324 17 0
-324 323 0
-325 19 306 317 324 0
325 -19 0
325 -306 0
325 -317 0
325 -324 0
326 -21 -325 0
-326 21 0
-326 325 0
327 -33 -323 0
-327 33 0
-327 323 0
-328 35 326 259 29 327 0
328 -35 0
328 -326 0
328 -259 0
328 -29 0
328 -327 0
329 -37 -328 0
-329 37 0
-329 328 0
-330 84 299 117 79 81 0
330 -84 0
330 -299 0
330 -117 0
330 -79 0
330 -81 0
331 -96 -330 0
-331 96 0
-331 330 0
-332 19 306 122 0
332 -19 0
332 -306 0
332 -122 0
333 -21 -332 0
-333 21 0
-333 332 0
-334 35 333 259 29 125 0
334 -35 0
334 -333 0
334 -259 0
334 -29 0
334 -125 0
335 -42 -334 0
-335 42 0
-335 334 0
-336 5 318 331 335 315 0
336 -5 0
336 -318 0
336 -331 0
336 -335 0
336 -315 0
337 -45 -336 0
-337 45 0
-337 336 0
-338 50 329 337 46 0
338 -50 0
338 -329 0
338 -337 0
338 -46 0
339 -61 -338 0
-339 61 0
-339 338 0
-340 24 298 339 0
340 -24 0
340 -298 0
340 -339 0
341 -342 -340 0
-341 342 0
-341 340 0
-343 344 135 204 257 341 0
343 -344 0
343 -135 0
343 -204 0
343 -257 0
343 -341 0
345 -346 -343 0
-345 346 0
-345 343 0
-347 5 158 1 0
347 -5 0
347 -158 0
347 -1 0
348 -70 -347 0
-348 70 0
-348 347 0
-349 72 348 0
349 -72 0
349 -348 0
350 -74 -349 0
-350 74 0
-350 349 0
-351 76 350 0
351 -76 0
351 -350 0
352 -78 -351 0
-352 78 0
-352 351 0
-353 84 53 352 79 81 0
353 -84 0
353 -53 0
353 -352 0
353 -79 0
353 -81 0
354 -86 -353 0
-354 86 0
-354 353 0
-355 134 354 0
355 -134 0
355 -354 0
356 -136 -355 0
-356 136 0
-356 355 0
357 -70 -159 0
-357 70 0
-357 159 0
-358 72 357 0
358 -72 0
358 -357 0
359 -74 -358 0
-359 74 0
-359 358 0
-360 76 359 0
360 -76 0
360 -359 0
361 -78 -360 0
-361 78 0
-361 360 0
-362 84 299 361 79 81 0
362 -84 0
362 -299 0
362 -361 0
362 -79 0
362 -81 0
363 -205 -362 0
-363 205 0
-363 362 0
364 -70 -174 0
-364 70 0
-364 174 0
-365 72 364 0
365 -72 0
365 -364 0
366 -74 -365 0
-366 74 0
-366 365 0
-367 76 366 0
367 -76 0
367 -366 0
368 -78 -367 0
-368 78 0
-368 367 0
-369 84 53 368 79 81 0
369 -84 0
369 -53 0
369 -368 0
369 -79 0
369 -81 0
370 -86 -369 0
-370 86 0
-370 369 0
-371 134 370 0
371 -134 0
371 -370 0
372 -140 -371 0
-372 140 0
-372 371 0
-373 3 372 0
373 -3 0
373 -372 0
374 -258 -373 0
-374 258 0
-374 373 0
375 -70 -264 0
-375 70 0
-375 264 0
-376 72 375 0
376 -72 0
376 -375 0
377 -74 -376 0
-377 74 0
-377 376 0
-378 76 377 0
378 -76 0
378 -377 0
379 -78 -378 0
-379 78 0
-379 378 0
-380 84 299 379 79 81 0
380 -84 0
380 -299 0
380 -379 0
380 -79 0
380 -81 0
381 -107 -380 0
-381 107 0
-381 380 0
-382 24 381 0
382 -24 0
382 -381 0
383 -342 -382 0
-383 342 0
-383 382 0
-384 344 356 363 374 383 0
384 -344 0
384 -356 0
384 -363 0
384 -374 0
384 -383 0
385 -386 -384 0
-385 386 0
-385 384 0
387 -136 -308 0
-387 136 0
-387 308 0
388 -205 -305 0
-388 205 0
-388 305 0
389 -86 -221 0
-389 86 0
-389 221 0
-390 134 389 0
390 -134 0
390 -389 0
391 -140 -390 0
-391 140 0
-391 390 0
-392 3 391 0
392 -3 0
392 -391 0
393 -258 -392 0
-393 258 0
-393 392 0
394 -107 -305 0
-394 107 0
-394 305 0
-395 24 394 0
395 -24 0
395 -394 0
396 -342 -395 0
-396 342 0
-396 395 0
-397 344 387 388 393 396 0
397 -344 0
397 -387 0
397 -388 0
397 -393 0
397 -396 0
398 -399 -397 0
-398 399 0
-398 397 0
400 -136 -134 0
-400 136 0
-400 134 0
401 -258 -141 0
-401 258 0
-401 141 0
402 -342 -24 0
-402 342 0
-402 24 0
-403 344 400 401 402 0
403 -344 0
403 -400 0
403 -401 0
403 -402 0
404 -405 -403 0
-404 405 0
-404 403 0
406 -407 -403 0
-406 407 0
-406 403 0
-408 5 137 406 142 0
408 -5 0
408 -137 0
408 -406 0
408 -142 0
409 -70 -408 0
-409 70 0
-409 408 0
-410 72 404 409 0
410 -72 0
410 -404 0
410 -409 0
411 -74 -410 0
-411 74 0
-411 410 0
-412 76 411 0
412 -76 0
412 -411 0
413 -78 -412 0
-413 78 0
-413 412 0
414 -415 -403 0
-414 415 0
-414 403 0
-416 48 414 0
416 -48 0
416 -414 0
417 -82 -416 0
-417 82 0
-417 416 0
-418 84 299 413 79 417 0
418 -84 0
418 -299 0
418 -413 0
418 -79 0
418 -417 0
419 -94 -418 0
-419 94 0
-419 418 0
-420 72 404 0
420 -72 0
420 -404 0
421 -74 -420 0
-421 74 0
-421 420 0
-422 76 421 0
422 -76 0
422 -421 0
423 -78 -422 0
-423 78 0
-423 422 0
-424 84 53 423 79 417 0
424 -84 0
424 -53 0
424 -423 0
424 -79 0
424 -417 0
425 -86 -424 0
-425 86 0
-425 424 0
-426 134 425 0
426 -134 0
426 -425 0
427 -138 -426 0
-427 138 0
-427 426 0
-428 84 299 423 79 417 0
428 -84 0
428 -299 0
428 -423 0
428 -79 0
428 -417 0
429 -96 -428 0
-429 96 0
-429 428 0
430 -136 -312 0
-430 136 0
-430 312 0
431 -258 -314 0
-431 258 0
-431 314 0
-432 344 430 388 431 396 0
432 -344 0
432 -430 0
432 -388 0
432 -431 0
432 -396 0
433 -407 -432 0
-433 407 0
-433 432 0
-434 344 400 402 0
434 -344 0
434 -400 0
434 -402 0
435 -405 -434 0
-435 405 0
-435 434 0
-436 72 435 0
436 -72 0
436 -435 0
437 -74 -436 0
-437 74 0
-437 436 0
-438 76 437 0
438 -76 0
438 -437 0
439 -78 -438 0
-439 78 0
-439 438 0
440 -415 -434 0
-440 415 0
-440 434 0
-441 48 440 0
441 -48 0
441 -440 0
442 -82 -441 0
-442 82 0
-442 441 0
-443 84 53 439 79 442 0
443 -84 0
443 -53 0
443 -439 0
443 -79 0
443 -442 0
444 -86 -443 0
-444 86 0
-444 443 0
-445 134 444 0
445 -134 0
445 -444 0
446 -140 -445 0
-446 140 0
-446 445 0
-447 3 446 0
447 -3 0
447 -446 0
448 -2 -447 0
-448 2 0
-448 447 0
-449 5 427 429 433 448 0
449 -5 0
449 -427 0
449 -429 0
449 -433 0
449 -448 0
450 -7 -449 0
-450 7 0
-450 449 0
451 -452 -397 0
-451 452 0
-451 397 0
453 -9 -449 0
-453 9 0
-453 449 0
-454 11 451 453 0
454 -11 0
454 -451 0
454 -453 0
455 -13 -454 0
-455 13 0
-455 454 0
-456 15 455 0
456 -15 0
456 -455 0
457 -17 -456 0
-457 17 0
-457 456 0
-458 19 419 450 457 0
458 -19 0
458 -419 0
458 -450 0
458 -457 0
459 -21 -458 0
-459 21 0
-459 458 0
460 -461 -397 0
-460 461 0
-460 397 0
462 -107 -418 0
-462 107 0
-462 418 0
-463 24 462 0
463 -24 0
463 -462 0
464 -23 -463 0
-464 23 0
-464 463 0
-465 26 460 464 0
465 -26 0
465 -460 0
465 -464 0
466 -28 -465 0
-466 28 0
-466 465 0
467 -33 -456 0
-467 33 0
-467 456 0
-468 35 398 459 466 29 467 0
468 -35 0
468 -398 0
468 -459 0
468 -466 0
468 -29 0
468 -467 0
469 -37 -468 0
-469 37 0
-469 468 0
470 -205 -330 0
-470 205 0
-470 330 0
471 -107 -330 0
-471 107 0
-471 330 0
-472 24 471 0
472 -24 0
472 -471 0
473 -342 -472 0
-473 342 0
-473 472 0
-474 344 430 470 431 473 0
474 -344 0
474 -430 0
474 -470 0
474 -431 0
474 -473 0
475 -407 -474 0
-475 407 0
-475 474 0
476 -399 -432 0
-476 399 0
-476 432 0
477 -94 -428 0
-477 94 0
-477 428 0
478 -452 -432 0
-478 452 0
-478 432 0
-479 11 478 0
479 -11 0
479 -478 0
480 -13 -479 0
-480 13 0
-480 479 0
-481 15 480 0
481 -15 0
481 -480 0
482 -17 -481 0
-482 17 0
-482 481 0
-483 19 477 482 0
483 -19 0
483 -477 0
483 -482 0
484 -21 -483 0
-484 21 0
-484 483 0
485 -461 -432 0
-485 461 0
-485 432 0
486 -107 -428 0
-486 107 0
-486 428 0
-487 24 486 0
487 -24 0
487 -486 0
488 -23 -487 0
-488 23 0
-488 487 0
-489 26 485 488 0
489 -26 0
489 -485 0
489 -488 0
490 -28 -489 0
-490 28 0
-490 489 0
491 -33 -481 0
-491 33 0
-491 481 0
-492 35 476 484 490 29 491 0
492 -35 0
492 -476 0
492 -484 0
492 -490 0
492 -29 0
492 -491 0
493 -42 -492 0
-493 42 0
-493 492 0
-494 5 427 429 475 493 448 0
494 -5 0
494 -427 0
494 -429 0
494 -475 0
494 -493 0
494 -448 0
495 -45 -494 0
-495 45 0
-495 494 0
496 -415 -384 0
-496 415 0
-496 384 0
-497 48 496 0
497 -48 0
497 -496 0
498 -47 -497 0
-498 47 0
-498 497 0
-499 50 385 469 495 498 0
499 -50 0
499 -385 0
499 -469 0
499 -495 0
499 -498 0
500 -501 -499 0
-500 501 0
-500 499 0
-502 503 345 500 0
502 -503 0
502 -345 0
502 -500 0
504 -502 -505 0
-504 502 0
-504 505 0
504 0
