c BC-S1.2
p cnf 119 305
1 -2 -3 0
-1 2 0
-1 3 0
4 -5 -6 0
-4 5 0
-4 6 0
-7 8 4 0
7 -8 0
7 -4 0
9 -10 -7 0
-9 10 0
-9 7 0
-11 12 9 0
11 -12 0
11 -9 0
13 -14 -11 0
-13 14 0
-13 11 0
-15 16 13 0
15 -16 0
15 -13 0
17 -18 -15 0
-17 18 0
-17 15 0
-19 20 1 17 0
19 -20 0
19 -1 0
19 -17 0
21 -22 -19 0
-21 22 0
-21 19 0
23 -18 -16 0
-23 18 0
-23 16 0
-24 20 1 23 0
24 -20 0
24 -1 0
24 -23 0
25 -26 -24 0
-25 26 0
-25 24 0
-27 12 25 9 0
27 -12 0
27 -25 0
27 -9 0
28 -29 -27 0
-28 29 0
-28 27 0
30 -31 -3 0
-30 31 0
-30 3 0
-32 33 21 28 30 0
32 -33 0
32 -21 0
32 -28 0
32 -30 0
34 -35 -32 0
-34 35 0
-34 32 0
36 -22 -24 0
-36 22 0
-36 24 0
-37 33 36 30 0
37 -33 0
37 -36 0
37 -30 0
38 -39 -37 0
-38 39 0
-38 37 0
-40 6 38 0
40 -6 0
40 -38 0
41 -5 -40 0
-41 5 0
-41 40 0
-42 8 41 0
42 -8 0
42 -41 0
43 -10 -42 0
-43 10 0
-43 42 0
-44 12 25 43 0
44 -12 0
44 -25 0
44 -43 0
45 -46 -44 0
-45 46 0
-45 44 0
47 -10 -8 0
-47 10 0
-47 8 0
-48 12 47 0
48 -12 0
48 -47 0
49 -14 -48 0
-49 14 0
-49 48 0
-50 16 49 0
50 -16 0
50 -49 0
51 -18 -50 0
-51 18 0
-51 50 0
-52 20 1 51 0
52 -20 0
52 -1 0
52 -51 0
53 -22 -52 0
-53 22 0
-53 52 0
-54 12 25 47 0
54 -12 0
54 -25 0
54 -47 0
55 -29 -54 0
-55 29 0
-55 54 0
-56 33 53 55 30 0
56 -33 0
56 -53 0
56 -55 0
56 -30 0
57 -39 -56 0
-57 39 0
-57 56 0
-58 6 57 0
58 -6 0
58 -57 0
59 -60 -58 0
-59 60 0
-59 58 0
-61 62 34 45 59 0
61 -62 0
61 -34 0
61 -45 0
61 -59 0
63 -64 -61 0
-63 64 0
-63 61 0
65 -46 -11 0
-65 46 0
-65 11 0
66 -60 -6 0
-66 60 0
-66 6 0
-67 62 65 66 0
67 -62 0
67 -65 0
67 -66 0
68 -69 -67 0
-68 69 0
-68 67 0
-70 3 68 0
70 -3 0
70 -68 0
71 -2 -70 0
-71 2 0
-71 70 0
-72 20 71 17 0
72 -20 0
72 -71 0
72 -17 0
73 -22 -72 0
-73 22 0
-73 72 0
-74 20 71 23 0
74 -20 0
74 -71 0
74 -23 0
75 -26 -74 0
-75 26 0
-75 74 0
-76 12 75 9 0
76 -12 0
76 -75 0
76 -9 0
77 -29 -76 0
-77 29 0
-77 76 0
-78 20 23 0
78 -20 0
78 -23 0
79 -26 -78 0
-79 26 0
-79 78 0
-80 12 79 9 0
80 -12 0
80 -79 0
80 -9 0
81 -46 -80 0
-81 46 0
-81 80 0
-82 62 81 66 0
82 -62 0
82 -81 0
82 -66 0
83 -69 -82 0
-83 69 0
-83 82 0
-84 3 83 0
84 -3 0
84 -83 0
85 -31 -84 0
-85 31 0
-85 84 0
-86 33 73 77 85 0
86 -33 0
86 -73 0
86 -77 0
86 -85 0
87 -88 -86 0
-87 88 0
-87 86 0
-89 33 30 0
89 -33 0
89 -30 0
90 -35 -89 0
-90 35 0
-90 89 0
91 -39 -89 0
-91 39 0
-91 89 0
-92 6 91 0
92 -6 0
92 -91 0
93 -60 -92 0
-93 60 0
-93 92 0
-94 62 90 93 0
94 -62 0
94 -90 0
94 -93 0
95 -69 -94 0
-95 69 0
-95 94 0
-96 3 95 0
96 -3 0
96 -95 0
97 -2 -96 0
-97 2 0
-97 96 0
-98 20 97 23 0
98 -20 0
98 -97 0
98 -23 0
99 -26 -98 0
-99 26 0
-99 98 0
-100 62 66 0
100 -62 0
100 -66 0
101 -69 -100 0
-101 69 0
-101 100 0
-102 3 101 0
102 -3 0
102 -101 0
103 -2 -102 0
-103 2 0
-103 102 0
-104 20 103 23 0
104 -20 0
104 -103 0
104 -23 0
105 -22 -104 0
-105 22 0
-105 104 0
106 -31 -102 0
-106 31 0
-106 102 0
-107 33 105 106 0
107 -33 0
107 -105 0
107 -106 0
108 -39 -107 0
-108 39 0
-108 107 0
-109 6 108 0
109 -6 0
109 -108 0
110 -5 -109 0
-110 5 0
-110 109 0
-111 8 110 0
111 -8 0
111 -110 0
112 -10 -111 0
-112 10 0
-112 111 0
-113 12 99 112 0
113 -12 0
113 -99 0
113 -112 0
114 -115 -113 0
-114 115 0
-114 113 0
-116 117 63 87 114 0
116 -117 0
116 -63 0
116 -87 0
116 -114 0
118 -116 -119 0
-118 116 0
-118 119 0
118 0
