c BC-S1.2
p cnf 298 787
1 -2 -3 0
-1 2 0
-1 3 0
4 -5 -6 0
-4 5 0
-4 6 0
7 -8 -9 0
-7 8 0
-7 9 0
10 -11 -12 0
-10 11 0
-10 12 0
13 -14 -15 0
-13 14 0
-13 15 0
-16 17 13 0
16 -17 0
16 -13 0
18 -19 -16 0
-18 19 0
-18 16 0
-20 21 18 0
20 -21 0
20 -18 0
22 -23 -20 0
-22 23 0
-22 20 0
24 -25 -26 0
-24 25 0
-24 26 0
27 -28 -3 0
-27 28 0
-27 3 0
-29 30 10 22 24 27 0
29 -30 0
29 -10 0
29 -22 0
29 -24 0
29 -27 0
31 -32 -29 0
-31 32 0
-31 29 0
-33 34 31 0
33 -34 0
33 -31 0
35 -36 -33 0
-35 36 0
-35 33 0
37 -38 -29 0
-37 38 0
-37 29 0
-39 40 37 0
39 -40 0
39 -37 0
41 -42 -39 0
-41 42 0
-41 39 0
43 -44 -29 0
-43 44 0
-43 29 0
-45 46 43 0
45 -46 0
45 -43 0
47 -48 -45 0
-47 48 0
-47 45 0
49 -50 -29 0
-49 50 0
-49 29 0
-51 52 49 0
51 -52 0
51 -49 0
53 -54 -51 0
-53 54 0
-53 51 0
-55 30 10 24 27 0
55 -30 0
55 -10 0
55 -24 0
55 -27 0
56 -57 -55 0
-56 57 0
-56 55 0
-58 17 13 56 0
58 -17 0
58 -13 0
58 -56 0
59 -19 -58 0
-59 19 0
-59 58 0
60 -61 -55 0
-60 61 0
-60 55 0
-62 21 59 60 0
62 -21 0
62 -59 0
62 -60 0
63 -64 -62 0
-63 64 0
-63 62 0
65 -66 -62 0
-65 66 0
-65 62 0
-67 68 65 0
67 -68 0
67 -65 0
69 -70 -67 0
-69 70 0
-69 67 0
71 -72 -26 0
-71 72 0
-71 26 0
73 -74 -3 0
-73 74 0
-73 3 0
75 -76 -29 0
-75 76 0
-75 29 0
-77 78 4 7 35 41 47 53 63 69 71 73 75 0
77 -78 0
77 -4 0
77 -7 0
77 -35 0
77 -41 0
77 -47 0
77 -53 0
77 -63 0
77 -69 0
77 -71 0
77 -73 0
77 -75 0
79 -80 -77 0
-79 80 0
-79 77 0
-81 82 1 79 0
81 -82 0
81 -1 0
81 -79 0
83 -84 -81 0
-83 84 0
-83 81 0
85 -36 -34 0
-85 36 0
-85 34 0
86 -42 -40 0
-86 42 0
-86 40 0
87 -48 -46 0
-87 48 0
-87 46 0
88 -54 -52 0
-88 54 0
-88 52 0
89 -64 -20 0
-89 64 0
-89 20 0
90 -66 -20 0
-90 66 0
-90 20 0
-91 68 90 0
91 -68 0
91 -90 0
92 -70 -91 0
-92 70 0
-92 91 0
-93 78 4 7 85 86 87 88 89 92 71 73 0
93 -78 0
93 -4 0
93 -7 0
93 -85 0
93 -86 0
93 -87 0
93 -88 0
93 -89 0
93 -92 0
93 -71 0
93 -73 0
94 -95 -93 0
-94 95 0
-94 93 0
-96 12 94 0
96 -12 0
96 -94 0
97 -11 -96 0
-97 11 0
-97 96 0
98 -70 -68 0
-98 70 0
-98 68 0
-99 78 4 7 85 86 87 88 98 71 73 0
99 -78 0
99 -4 0
99 -7 0
99 -85 0
99 -86 0
99 -87 0
99 -88 0
99 -98 0
99 -71 0
99 -73 0
100 -101 -99 0
-100 101 0
-100 99 0
-102 15 100 0
102 -15 0
102 -100 0
103 -14 -102 0
-103 14 0
-103 102 0
104 -105 -99 0
-104 105 0
-104 99 0
-106 17 103 104 0
106 -17 0
106 -103 0
106 -104 0
107 -19 -106 0
-107 19 0
-107 106 0
-108 21 107 0
108 -21 0
108 -107 0
109 -23 -108 0
-109 23 0
-109 108 0
110 -111 -93 0
-110 111 0
-110 93 0
-112 30 97 109 24 27 110 0
112 -30 0
112 -97 0
112 -109 0
112 -24 0
112 -27 0
112 -110 0
113 -114 -112 0
-113 114 0
-113 112 0
-115 116 83 113 0
115 -116 0
115 -83 0
115 -113 0
117 -118 -115 0
-117 118 0
-117 115 0
119 -120 -121 0
-119 120 0
-119 121 0
-122 123 117 119 0
122 -123 0
122 -117 0
122 -119 0
124 -125 -122 0
-124 125 0
-124 122 0
126 -127 -26 0
-126 127 0
-126 26 0
-128 129 124 126 0
128 -129 0
128 -124 0
128 -126 0
130 -131 -128 0
-130 131 0
-130 128 0
-132 123 119 0
132 -123 0
132 -119 0
133 -125 -132 0
-133 125 0
-133 132 0
-134 129 133 126 0
134 -129 0
134 -133 0
134 -126 0
135 -136 -134 0
-135 136 0
-135 134 0
137 -138 -132 0
-137 138 0
-137 132 0
139 -140 -134 0
-139 140 0
-139 134 0
141 -142 -132 0
-141 142 0
-141 132 0
-143 9 139 141 0
143 -9 0
143 -139 0
143 -141 0
144 -8 -143 0
-144 8 0
-144 143 0
145 -146 -134 0
-145 146 0
-145 134 0
-147 26 145 0
147 -26 0
147 -145 0
148 -25 -147 0
-148 25 0
-148 147 0
-149 30 10 22 148 27 0
149 -30 0
149 -10 0
149 -22 0
149 -148 0
149 -27 0
150 -32 -149 0
-150 32 0
-150 149 0
-151 34 150 0
151 -34 0
151 -150 0
152 -36 -151 0
-152 36 0
-152 151 0
153 -38 -149 0
-153 38 0
-153 149 0
-154 40 153 0
154 -40 0
154 -153 0
155 -42 -154 0
-155 42 0
-155 154 0
156 -44 -149 0
-156 44 0
-156 149 0
-157 46 156 0
157 -46 0
157 -156 0
158 -48 -157 0
-158 48 0
-158 157 0
159 -50 -149 0
-159 50 0
-159 149 0
-160 52 159 0
160 -52 0
160 -159 0
161 -54 -160 0
-161 54 0
-161 160 0
-162 30 10 148 27 0
162 -30 0
162 -10 0
162 -148 0
162 -27 0
163 -57 -162 0
-163 57 0
-163 162 0
-164 17 13 163 0
164 -17 0
164 -13 0
164 -163 0
165 -19 -164 0
-165 19 0
-165 164 0
166 -61 -162 0
-166 61 0
-166 162 0
-167 21 165 166 0
167 -21 0
167 -165 0
167 -166 0
168 -64 -167 0
-168 64 0
-168 167 0
169 -66 -167 0
-169 66 0
-169 167 0
-170 68 169 0
170 -68 0
170 -169 0
171 -70 -170 0
-171 70 0
-171 170 0
172 -72 -147 0
-172 72 0
-172 147 0
173 -76 -149 0
-173 76 0
-173 149 0
-174 78 4 144 152 155 158 161 168 171 172 73 173 0
174 -78 0
174 -4 0
174 -144 0
174 -152 0
174 -155 0
174 -158 0
174 -161 0
174 -168 0
174 -171 0
174 -172 0
174 -73 0
174 -173 0
175 -80 -174 0
-175 80 0
-175 174 0
-176 82 1 175 0
176 -82 0
176 -1 0
176 -175 0
177 -84 -176 0
-177 84 0
-177 176 0
-178 78 4 144 85 86 87 88 89 92 172 73 0
178 -78 0
178 -4 0
178 -144 0
178 -85 0
178 -86 0
178 -87 0
178 -88 0
178 -89 0
178 -92 0
178 -172 0
178 -73 0
179 -95 -178 0
-179 95 0
-179 178 0
-180 12 179 0
180 -12 0
180 -179 0
181 -11 -180 0
-181 11 0
-181 180 0
-182 78 4 144 85 86 87 88 98 172 73 0
182 -78 0
182 -4 0
182 -144 0
182 -85 0
182 -86 0
182 -87 0
182 -88 0
182 -98 0
182 -172 0
182 -73 0
183 -101 -182 0
-183 101 0
-183 182 0
-184 15 183 0
184 -15 0
184 -183 0
185 -14 -184 0
-185 14 0
-185 184 0
186 -105 -182 0
-186 105 0
-186 182 0
-187 17 185 186 0
187 -17 0
187 -185 0
187 -186 0
188 -19 -187 0
-188 19 0
-188 187 0
-189 21 188 0
189 -21 0
189 -188 0
190 -23 -189 0
-190 23 0
-190 189 0
191 -111 -178 0
-191 111 0
-191 178 0
-192 30 181 190 148 27 191 0
192 -30 0
192 -181 0
192 -190 0
192 -148 0
192 -27 0
192 -191 0
193 -114 -192 0
-193 114 0
-193 192 0
-194 116 135 137 177 193 0
194 -116 0
194 -135 0
194 -137 0
194 -177 0
194 -193 0
195 -196 -194 0
-195 196 0
-195 194 0
197 -198 -199 0
-197 198 0
-197 199 0
200 -201 -202 0
-200 201 0
-200 202 0
-203 204 197 200 0
203 -204 0
203 -197 0
203 -200 0
205 -206 -203 0
-205 206 0
-205 203 0
207 -208 -199 0
-207 208 0
-207 199 0
209 -210 -128 0
-209 210 0
-209 128 0
211 -212 -194 0
-211 212 0
-211 194 0
-213 129 126 0
213 -129 0
213 -126 0
214 -136 -213 0
-214 136 0
-214 213 0
215 -140 -213 0
-215 140 0
-215 213 0
-216 9 215 0
216 -9 0
216 -215 0
217 -8 -216 0
-217 8 0
-217 216 0
218 -146 -213 0
-218 146 0
-218 213 0
-219 26 218 0
219 -26 0
219 -218 0
220 -25 -219 0
-220 25 0
-220 219 0
-221 30 10 22 220 27 0
221 -30 0
221 -10 0
221 -22 0
221 -220 0
221 -27 0
222 -32 -221 0
-222 32 0
-222 221 0
-223 34 222 0
223 -34 0
223 -222 0
224 -36 -223 0
-224 36 0
-224 223 0
225 -38 -221 0
-225 38 0
-225 221 0
-226 40 225 0
226 -40 0
226 -225 0
227 -42 -226 0
-227 42 0
-227 226 0
228 -44 -221 0
-228 44 0
-228 221 0
-229 46 228 0
229 -46 0
229 -228 0
230 -48 -229 0
-230 48 0
-230 229 0
231 -50 -221 0
-231 50 0
-231 221 0
-232 52 231 0
232 -52 0
232 -231 0
233 -54 -232 0
-233 54 0
-233 232 0
-234 30 10 220 27 0
234 -30 0
234 -10 0
234 -220 0
234 -27 0
235 -57 -234 0
-235 57 0
-235 234 0
-236 17 13 235 0
236 -17 0
236 -13 0
236 -235 0
237 -19 -236 0
-237 19 0
-237 236 0
238 -61 -234 0
-238 61 0
-238 234 0
-239 21 237 238 0
239 -21 0
239 -237 0
239 -238 0
240 -64 -239 0
-240 64 0
-240 239 0
241 -66 -239 0
-241 66 0
-241 239 0
-242 68 241 0
242 -68 0
242 -241 0
243 -70 -242 0
-243 70 0
-243 242 0
244 -72 -219 0
-244 72 0
-244 219 0
245 -76 -221 0
-245 76 0
-245 221 0
-246 78 4 217 224 227 230 233 240 243 244 73 245 0
246 -78 0
246 -4 0
246 -217 0
246 -224 0
246 -227 0
246 -230 0
246 -233 0
246 -240 0
246 -243 0
246 -244 0
246 -73 0
246 -245 0
247 -80 -246 0
-247 80 0
-247 246 0
-248 82 1 247 0
248 -82 0
248 -1 0
248 -247 0
249 -84 -248 0
-249 84 0
-249 248 0
-250 78 4 217 85 86 87 88 89 92 244 73 0
250 -78 0
250 -4 0
250 -217 0
250 -85 0
250 -86 0
250 -87 0
250 -88 0
250 -89 0
250 -92 0
250 -244 0
250 -73 0
251 -95 -250 0
-251 95 0
-251 250 0
-252 12 251 0
252 -12 0
252 -251 0
253 -11 -252 0
-253 11 0
-253 252 0
-254 78 4 217 85 86 87 88 98 244 73 0
254 -78 0
254 -4 0
254 -217 0
254 -85 0
254 -86 0
254 -87 0
254 -88 0
254 -98 0
254 -244 0
254 -73 0
255 -101 -254 0
-255 101 0
-255 254 0
-256 15 255 0
256 -15 0
256 -255 0
257 -14 -256 0
-257 14 0
-257 256 0
258 -105 -254 0
-258 105 0
-258 254 0
-259 17 257 258 0
259 -17 0
259 -257 0
259 -258 0
260 -19 -259 0
-260 19 0
-260 259 0
-261 21 260 0
261 -21 0
261 -260 0
262 -23 -261 0
-262 23 0
-262 261 0
263 -111 -250 0
-263 111 0
-263 250 0
-264 30 253 262 220 27 263 0
264 -30 0
264 -253 0
264 -262 0
264 -220 0
264 -27 0
264 -263 0
265 -114 -264 0
-265 114 0
-265 264 0
-266 116 214 249 265 0
266 -116 0
266 -214 0
266 -249 0
266 -265 0
267 -118 -266 0
-267 118 0
-267 266 0
-268 123 267 119 0
268 -123 0
268 -267 0
268 -119 0
269 -270 -268 0
-269 270 0
-269 268 0
-271 272 209 211 269 0
271 -272 0
271 -209 0
271 -211 0
271 -269 0
273 -274 -271 0
-273 274 0
-273 271 0
275 -276 -121 0
-275 276 0
-275 121 0
277 -278 -128 0
-277 278 0
-277 128 0
-279 280 277 0
279 -280 0
279 -277 0
281 -282 -279 0
-281 282 0
-281 279 0
-283 284 130 195 205 207 273 275 281 0
283 -284 0
283 -130 0
283 -195 0
283 -205 0
283 -207 0
283 -273 0
283 -275 0
283 -281 0
285 -286 -283 0
-285 286 0
-285 283 0
-287 204 197 0
287 -204 0
287 -197 0
288 -206 -287 0
-288 206 0
-288 287 0
-289 284 130 195 288 207 273 275 281 0
289 -284 0
289 -130 0
289 -195 0
289 -288 0
289 -207 0
289 -273 0
289 -275 0
289 -281 0
290 -291 -289 0
-290 291 0
-290 289 0
-292 202 290 0
292 -202 0
292 -290 0
293 -294 -292 0
-293 294 0
-293 292 0
-295 296 285 293 0
295 -296 0
295 -285 0
295 -293 0
297 -295 -298 0
-297 295 0
-297 298 0
297 0
