c BC-S1.2
p cnf 149 391
1 -2 -3 0
-1 2 0
-1 3 0
4 -5 -6 0
-4 5 0
-4 6 0
-7 8 4 0
7 -8 0
7 -4 0
9 -10 -7 0
-9 10 0
-9 7 0
-11 12 1 9 0
11 -12 0
11 -1 0
11 -9 0
13 -14 -11 0
-13 14 0
-13 11 0
-15 12 1 0
15 -12 0
15 -1 0
16 -17 -15 0
-16 17 0
-16 15 0
-18 6 16 0
18 -6 0
18 -16 0
19 -5 -18 0
-19 5 0
-19 18 0
-20 8 19 0
20 -8 0
20 -19 0
21 -22 -20 0
-21 22 0
-21 20 0
23 -24 -11 0
-23 24 0
-23 11 0
-25 26 21 23 0
25 -26 0
25 -21 0
25 -23 0
27 -28 -25 0
-27 28 0
-27 25 0
-29 30 27 0
29 -30 0
29 -27 0
31 -32 -29 0
-31 32 0
-31 29 0
-33 34 13 31 0
33 -34 0
33 -13 0
33 -31 0
35 -36 -33 0
-35 36 0
-35 33 0
37 -38 -20 0
-37 38 0
-37 20 0
-39 34 13 0
39 -34 0
39 -13 0
40 -41 -39 0
-40 41 0
-40 39 0
-42 26 21 23 40 0
42 -26 0
42 -21 0
42 -23 0
42 -40 0
43 -28 -42 0
-43 28 0
-43 42 0
-44 30 43 0
44 -30 0
44 -43 0
45 -46 -44 0
-45 46 0
-45 44 0
-47 48 35 37 45 0
47 -48 0
47 -35 0
47 -37 0
47 -45 0
49 -50 -47 0
-49 50 0
-49 47 0
51 -52 -3 0
-51 52 0
-51 3 0
53 -28 -26 0
-53 28 0
-53 26 0
-54 30 53 0
54 -30 0
54 -53 0
55 -32 -54 0
-55 32 0
-55 54 0
-56 34 55 0
56 -34 0
56 -55 0
57 -36 -56 0
-57 36 0
-57 56 0
58 -41 -34 0
-58 41 0
-58 34 0
-59 26 58 0
59 -26 0
59 -58 0
60 -28 -59 0
-60 28 0
-60 59 0
-61 30 60 0
61 -30 0
61 -60 0
62 -46 -61 0
-62 46 0
-62 61 0
-63 48 57 62 0
63 -48 0
63 -57 0
63 -62 0
64 -65 -63 0
-64 65 0
-64 63 0
-66 12 64 1 0
66 -12 0
66 -64 0
66 -1 0
67 -17 -66 0
-67 17 0
-67 66 0
-68 6 67 0
68 -6 0
68 -67 0
69 -5 -68 0
-69 5 0
-69 68 0
-70 8 69 0
70 -8 0
70 -69 0
71 -72 -70 0
-71 72 0
-71 70 0
73 -22 -7 0
-73 22 0
-73 7 0
-74 26 73 23 0
74 -26 0
74 -73 0
74 -23 0
75 -28 -74 0
-75 28 0
-75 74 0
-76 30 75 0
76 -30 0
76 -75 0
77 -32 -76 0
-77 32 0
-77 76 0
-78 34 13 77 0
78 -34 0
78 -13 0
78 -77 0
79 -36 -78 0
-79 36 0
-79 78 0
80 -38 -7 0
-80 38 0
-80 7 0
-81 26 73 23 40 0
81 -26 0
81 -73 0
81 -23 0
81 -40 0
82 -28 -81 0
-82 28 0
-82 81 0
-83 30 82 0
83 -30 0
83 -82 0
84 -46 -83 0
-84 46 0
-84 83 0
-85 48 79 80 84 0
85 -48 0
85 -79 0
85 -80 0
85 -84 0
86 -65 -85 0
-86 65 0
-86 85 0
-87 12 86 1 9 0
87 -12 0
87 -86 0
87 -1 0
87 -9 0
88 -89 -87 0
-88 89 0
-88 87 0
90 -91 -47 0
-90 91 0
-90 47 0
92 -93 -70 0
-92 93 0
-92 70 0
94 -46 -76 0
-94 46 0
-94 76 0
-95 48 79 80 94 0
95 -48 0
95 -79 0
95 -80 0
95 -94 0
96 -65 -95 0
-96 65 0
-96 95 0
-97 12 96 1 9 0
97 -12 0
97 -96 0
97 -1 0
97 -9 0
98 -14 -97 0
-98 14 0
-98 97 0
99 -65 -48 0
-99 65 0
-99 48 0
-100 12 99 1 0
100 -12 0
100 -99 0
100 -1 0
101 -17 -100 0
-101 17 0
-101 100 0
-102 6 101 0
102 -6 0
102 -101 0
103 -5 -102 0
-103 5 0
-103 102 0
-104 8 103 0
104 -8 0
104 -103 0
105 -22 -104 0
-105 22 0
-105 104 0
-106 48 80 0
106 -48 0
106 -80 0
107 -65 -106 0
-107 65 0
-107 106 0
-108 12 107 1 9 0
108 -12 0
108 -107 0
108 -1 0
108 -9 0
109 -24 -108 0
-109 24 0
-109 108 0
-110 26 105 109 0
110 -26 0
110 -105 0
110 -109 0
111 -28 -110 0
-111 28 0
-111 110 0
-112 30 111 0
112 -30 0
112 -111 0
113 -32 -112 0
-113 32 0
-113 112 0
-114 34 98 113 0
114 -34 0
114 -98 0
114 -113 0
115 -116 -114 0
-115 116 0
-115 114 0
-117 118 90 92 115 0
117 -118 0
117 -90 0
117 -92 0
117 -115 0
119 -120 -117 0
-119 120 0
-119 117 0
121 -32 -30 0
-121 32 0
-121 30 0
-122 34 121 0
122 -34 0
122 -121 0
123 -36 -122 0
-123 36 0
-123 122 0
124 -46 -30 0
-124 46 0
-124 30 0
-125 48 123 124 0
125 -48 0
125 -123 0
125 -124 0
126 -65 -125 0
-126 65 0
-126 125 0
-127 12 126 1 0
127 -12 0
127 -126 0
127 -1 0
128 -17 -127 0
-128 17 0
-128 127 0
-129 6 128 0
129 -6 0
129 -128 0
130 -5 -129 0
-130 5 0
-130 129 0
-131 8 130 0
131 -8 0
131 -130 0
132 -22 -131 0
-132 22 0
-132 131 0
-133 48 123 80 124 0
133 -48 0
133 -123 0
133 -80 0
133 -124 0
134 -65 -133 0
-134 65 0
-134 133 0
-135 12 134 1 9 0
135 -12 0
135 -134 0
135 -1 0
135 -9 0
136 -24 -135 0
-136 24 0
-136 135 0
-137 48 80 124 0
137 -48 0
137 -80 0
137 -124 0
138 -65 -137 0
-138 65 0
-138 137 0
-139 12 138 1 9 0
139 -12 0
139 -138 0
139 -1 0
139 -9 0
140 -14 -139 0
-140 14 0
-140 139 0
-141 34 140 121 0
141 -34 0
141 -140 0
141 -121 0
142 -41 -141 0
-142 41 0
-142 141 0
-143 26 132 136 142 0
143 -26 0
143 -132 0
143 -136 0
143 -142 0
144 -145 -143 0
-144 145 0
-144 143 0
-146 147 49 51 71 88 119 144 0
146 -147 0
146 -49 0
146 -51 0
146 -71 0
146 -88 0
146 -119 0
146 -144 0
148 -146 -149 0
-148 146 0
-148 149 0
148 0
