c BC-S1.2
p cnf 1822 6164
1 -2 -3 0
-1 2 0
-1 3 0
4 -5 -6 0
-4 5 0
-4 6 0
-7 8 4 0
7 -8 0
7 -4 0
9 -10 -7 0
-9 10 0
-9 7 0
-11 12 9 0
11 -12 0
11 -9 0
13 -14 -11 0
-13 14 0
-13 11 0
15 -16 -11 0
-15 16 0
-15 11 0
-17 18 15 0
17 -18 0
17 -15 0
19 -20 -17 0
-19 20 0
-19 17 0
-21 22 19 0
21 -22 0
21 -19 0
23 -24 -21 0
-23 24 0
-23 21 0
-25 26 23 0
25 -26 0
25 -23 0
27 -28 -25 0
-27 28 0
-27 25 0
29 -30 -31 0
-29 30 0
-29 31 0
-32 33 27 29 0
32 -33 0
32 -27 0
32 -29 0
34 -35 -32 0
-34 35 0
-34 32 0
-36 37 1 13 34 0
36 -37 0
36 -1 0
36 -13 0
36 -34 0
38 -39 -36 0
-38 39 0
-38 36 0
40 -41 -42 0
-40 41 0
-40 42 0
43 -44 -3 0
-43 44 0
-43 3 0
-45 46 38 40 43 0
45 -46 0
45 -38 0
45 -40 0
45 -43 0
47 -48 -45 0
-47 48 0
-47 45 0
-49 33 27 0
49 -33 0
49 -27 0
50 -35 -49 0
-50 35 0
-50 49 0
-51 37 1 13 50 0
51 -37 0
51 -1 0
51 -13 0
51 -50 0
52 -39 -51 0
-52 39 0
-52 51 0
-53 46 52 40 43 0
53 -46 0
53 -52 0
53 -40 0
53 -43 0
54 -55 -53 0
-54 55 0
-54 53 0
-56 46 40 43 0
56 -46 0
56 -40 0
56 -43 0
57 -58 -56 0
-57 58 0
-57 56 0
59 -60 -56 0
-59 60 0
-59 56 0
-61 6 59 0
61 -6 0
61 -59 0
62 -5 -61 0
-62 5 0
-62 61 0
63 -64 -56 0
-63 64 0
-63 56 0
-65 8 62 63 0
65 -8 0
65 -62 0
65 -63 0
66 -10 -65 0
-66 10 0
-66 65 0
-67 12 57 66 0
67 -12 0
67 -57 0
67 -66 0
68 -14 -67 0
-68 14 0
-68 67 0
69 -70 -56 0
-69 70 0
-69 56 0
71 -72 -56 0
-71 72 0
-71 56 0
73 -16 -67 0
-73 16 0
-73 67 0
-74 18 71 73 0
74 -18 0
74 -71 0
74 -73 0
75 -20 -74 0
-75 20 0
-75 74 0
-76 22 75 0
76 -22 0
76 -75 0
77 -24 -76 0
-77 24 0
-77 76 0
-78 26 69 77 0
78 -26 0
78 -69 0
78 -77 0
79 -28 -78 0
-79 28 0
-79 78 0
-80 33 79 0
80 -33 0
80 -79 0
81 -35 -80 0
-81 35 0
-81 80 0
-82 37 1 68 81 0
82 -37 0
82 -1 0
82 -68 0
82 -81 0
83 -84 -82 0
-83 84 0
-83 82 0
-85 31 54 83 0
85 -31 0
85 -54 0
85 -83 0
86 -87 -85 0
-86 87 0
-86 85 0
88 -28 -26 0
-88 28 0
-88 26 0
-89 33 88 29 0
89 -33 0
89 -88 0
89 -29 0
90 -35 -89 0
-90 35 0
-90 89 0
-91 37 1 13 90 0
91 -37 0
91 -1 0
91 -13 0
91 -90 0
92 -39 -91 0
-92 39 0
-92 91 0
-93 46 92 40 43 0
93 -46 0
93 -92 0
93 -40 0
93 -43 0
94 -72 -93 0
-94 72 0
-94 93 0
-95 37 1 90 0
95 -37 0
95 -1 0
95 -90 0
96 -39 -95 0
-96 39 0
-96 95 0
-97 46 96 40 43 0
97 -46 0
97 -96 0
97 -40 0
97 -43 0
98 -58 -97 0
-98 58 0
-98 97 0
99 -60 -97 0
-99 60 0
-99 97 0
-100 26 69 0
100 -26 0
100 -69 0
101 -28 -100 0
-101 28 0
-101 100 0
102 -55 -56 0
-102 55 0
-102 56 0
-103 31 102 0
103 -31 0
103 -102 0
104 -30 -103 0
-104 30 0
-104 103 0
-105 33 101 104 0
105 -33 0
105 -101 0
105 -104 0
106 -35 -105 0
-106 35 0
-106 105 0
-107 37 1 106 0
107 -37 0
107 -1 0
107 -106 0
108 -109 -107 0
-108 109 0
-108 107 0
-110 6 99 108 0
110 -6 0
110 -99 0
110 -108 0
111 -5 -110 0
-111 5 0
-111 110 0
112 -64 -97 0
-112 64 0
-112 97 0
-113 8 111 112 0
113 -8 0
113 -111 0
113 -112 0
114 -10 -113 0
-114 10 0
-114 113 0
-115 12 98 114 0
115 -12 0
115 -98 0
115 -114 0
116 -16 -115 0
-116 16 0
-116 115 0
-117 18 94 116 0
117 -18 0
117 -94 0
117 -116 0
118 -20 -117 0
-118 20 0
-118 117 0
-119 22 118 0
119 -22 0
119 -118 0
120 -121 -119 0
-120 121 0
-120 119 0
-122 123 120 0
122 -123 0
122 -120 0
124 -125 -122 0
-124 125 0
-124 122 0
126 -24 -22 0
-126 24 0
-126 22 0
-127 26 126 0
127 -26 0
127 -126 0
128 -28 -127 0
-128 28 0
-128 127 0
-129 33 128 29 0
129 -33 0
129 -128 0
129 -29 0
130 -35 -129 0
-130 35 0
-130 129 0
-131 37 1 13 130 0
131 -37 0
131 -1 0
131 -13 0
131 -130 0
132 -39 -131 0
-132 39 0
-132 131 0
-133 46 132 40 43 0
133 -46 0
133 -132 0
133 -40 0
133 -43 0
134 -72 -133 0
-134 72 0
-134 133 0
-135 37 1 130 0
135 -37 0
135 -1 0
135 -130 0
136 -39 -135 0
-136 39 0
-136 135 0
-137 46 136 40 43 0
137 -46 0
137 -136 0
137 -40 0
137 -43 0
138 -58 -137 0
-138 58 0
-138 137 0
139 -60 -137 0
-139 60 0
-139 137 0
-140 26 69 126 0
140 -26 0
140 -69 0
140 -126 0
141 -28 -140 0
-141 28 0
-141 140 0
-142 33 141 104 0
142 -33 0
142 -141 0
142 -104 0
143 -35 -142 0
-143 35 0
-143 142 0
-144 37 1 143 0
144 -37 0
144 -1 0
144 -143 0
145 -109 -144 0
-145 109 0
-145 144 0
-146 6 139 145 0
146 -6 0
146 -139 0
146 -145 0
147 -5 -146 0
-147 5 0
-147 146 0
148 -64 -137 0
-148 64 0
-148 137 0
-149 8 147 148 0
149 -8 0
149 -147 0
149 -148 0
150 -10 -149 0
-150 10 0
-150 149 0
-151 12 138 150 0
151 -12 0
151 -138 0
151 -150 0
152 -16 -151 0
-152 16 0
-152 151 0
-153 18 134 152 0
153 -18 0
153 -134 0
153 -152 0
154 -155 -153 0
-154 155 0
-154 153 0
156 -157 -42 0
-156 157 0
-156 42 0
158 -14 -12 0
-158 14 0
-158 12 0
159 -16 -12 0
-159 16 0
-159 12 0
-160 18 159 0
160 -18 0
160 -159 0
161 -20 -160 0
-161 20 0
-161 160 0
-162 22 161 0
162 -22 0
162 -161 0
163 -24 -162 0
-163 24 0
-163 162 0
-164 26 163 0
164 -26 0
164 -163 0
165 -28 -164 0
-165 28 0
-165 164 0
-166 33 165 29 0
166 -33 0
166 -165 0
166 -29 0
167 -35 -166 0
-167 35 0
-167 166 0
-168 37 1 158 167 0
168 -37 0
168 -1 0
168 -158 0
168 -167 0
169 -39 -168 0
-169 39 0
-169 168 0
-170 46 169 40 43 0
170 -46 0
170 -169 0
170 -40 0
170 -43 0
171 -60 -170 0
-171 60 0
-171 170 0
-172 12 57 0
172 -12 0
172 -57 0
173 -14 -172 0
-173 14 0
-173 172 0
174 -16 -172 0
-174 16 0
-174 172 0
-175 18 71 174 0
175 -18 0
175 -71 0
175 -174 0
176 -20 -175 0
-176 20 0
-176 175 0
-177 22 176 0
177 -22 0
177 -176 0
178 -24 -177 0
-178 24 0
-178 177 0
-179 26 69 178 0
179 -26 0
179 -69 0
179 -178 0
180 -28 -179 0
-180 28 0
-180 179 0
-181 33 180 104 0
181 -33 0
181 -180 0
181 -104 0
182 -35 -181 0
-182 35 0
-182 181 0
-183 37 1 173 182 0
183 -37 0
183 -1 0
183 -173 0
183 -182 0
184 -109 -183 0
-184 109 0
-184 183 0
-185 6 171 184 0
185 -6 0
185 -171 0
185 -184 0
186 -5 -185 0
-186 5 0
-186 185 0
187 -64 -170 0
-187 64 0
-187 170 0
-188 8 186 187 0
188 -8 0
188 -186 0
188 -187 0
189 -190 -188 0
-189 190 0
-189 188 0
-191 192 154 156 189 0
191 -192 0
191 -154 0
191 -156 0
191 -189 0
193 -194 -191 0
-193 194 0
-193 191 0
-195 37 1 34 0
195 -37 0
195 -1 0
195 -34 0
196 -39 -195 0
-196 39 0
-196 195 0
-197 46 196 40 43 0
197 -46 0
197 -196 0
197 -40 0
197 -43 0
198 -58 -197 0
-198 58 0
-198 197 0
-199 37 1 167 0
199 -37 0
199 -1 0
199 -167 0
200 -39 -199 0
-200 39 0
-200 199 0
-201 46 200 40 43 0
201 -46 0
201 -200 0
201 -40 0
201 -43 0
202 -60 -201 0
-202 60 0
-202 201 0
-203 37 1 182 0
203 -37 0
203 -1 0
203 -182 0
204 -109 -203 0
-204 109 0
-204 203 0
-205 6 202 204 0
205 -6 0
205 -202 0
205 -204 0
206 -5 -205 0
-206 5 0
-206 205 0
207 -64 -201 0
-207 64 0
-207 201 0
-208 8 206 207 0
208 -8 0
208 -206 0
208 -207 0
209 -10 -208 0
-209 10 0
-209 208 0
-210 12 198 209 0
210 -12 0
210 -198 0
210 -209 0
211 -212 -210 0
-211 212 0
-211 210 0
213 -214 -215 0
-213 214 0
-213 215 0
-216 217 47 86 124 193 211 213 0
216 -217 0
216 -47 0
216 -86 0
216 -124 0
216 -193 0
216 -211 0
216 -213 0
218 -219 -216 0
-218 219 0
-218 216 0
220 -87 -103 0
-220 87 0
-220 103 0
221 -121 -76 0
-221 121 0
-221 76 0
-222 123 221 0
222 -123 0
222 -221 0
223 -125 -222 0
-223 125 0
-223 222 0
224 -155 -74 0
-224 155 0
-224 74 0
225 -190 -65 0
-225 190 0
-225 65 0
-226 192 224 156 225 0
226 -192 0
226 -224 0
226 -156 0
226 -225 0
227 -194 -226 0
-227 194 0
-227 226 0
228 -212 -67 0
-228 212 0
-228 67 0
-229 217 47 220 223 227 228 213 0
229 -217 0
229 -47 0
229 -220 0
229 -223 0
229 -227 0
229 -228 0
229 -213 0
230 -231 -229 0
-230 231 0
-230 229 0
232 -48 -56 0
-232 48 0
-232 56 0
233 -121 -177 0
-233 121 0
-233 177 0
-234 123 233 0
234 -123 0
234 -233 0
235 -125 -234 0
-235 125 0
-235 234 0
236 -155 -175 0
-236 155 0
-236 175 0
-237 192 236 156 0
237 -192 0
237 -236 0
237 -156 0
238 -194 -237 0
-238 194 0
-238 237 0
-239 217 232 220 235 238 213 0
239 -217 0
239 -232 0
239 -220 0
239 -235 0
239 -238 0
239 -213 0
240 -241 -239 0
-240 241 0
-240 239 0
-242 6 59 240 0
242 -6 0
242 -59 0
242 -240 0
243 -5 -242 0
-243 5 0
-243 242 0
-244 8 243 63 0
244 -8 0
244 -243 0
244 -63 0
245 -10 -244 0
-245 10 0
-245 244 0
-246 12 57 245 0
246 -12 0
246 -57 0
246 -245 0
247 -14 -246 0
-247 14 0
-247 246 0
-248 217 232 220 223 227 228 213 0
248 -217 0
248 -232 0
248 -220 0
248 -223 0
248 -227 0
248 -228 0
248 -213 0
249 -250 -248 0
-249 250 0
-249 248 0
251 -125 -123 0
-251 125 0
-251 123 0
-252 217 232 220 251 227 228 213 0
252 -217 0
252 -232 0
252 -220 0
252 -251 0
252 -227 0
252 -228 0
252 -213 0
253 -254 -252 0
-253 254 0
-253 252 0
-255 192 156 0
255 -192 0
255 -156 0
256 -194 -255 0
-256 194 0
-256 255 0
-257 217 232 220 251 256 213 0
257 -217 0
257 -232 0
257 -220 0
257 -251 0
257 -256 0
257 -213 0
258 -241 -257 0
-258 241 0
-258 257 0
-259 6 59 258 0
259 -6 0
259 -59 0
259 -258 0
260 -5 -259 0
-260 5 0
-260 259 0
-261 8 260 63 0
261 -8 0
261 -260 0
261 -63 0
262 -10 -261 0
-262 10 0
-262 261 0
-263 12 57 262 0
263 -12 0
263 -57 0
263 -262 0
264 -16 -263 0
-264 16 0
-264 263 0
-265 18 71 253 264 0
265 -18 0
265 -71 0
265 -253 0
265 -264 0
266 -20 -265 0
-266 20 0
-266 265 0
-267 22 249 266 0
267 -22 0
267 -249 0
267 -266 0
268 -24 -267 0
-268 24 0
-268 267 0
-269 26 69 268 0
269 -26 0
269 -69 0
269 -268 0
270 -28 -269 0
-270 28 0
-270 269 0
-271 33 270 104 0
271 -33 0
271 -270 0
271 -104 0
272 -35 -271 0
-272 35 0
-272 271 0
-273 37 230 1 247 272 0
273 -37 0
273 -230 0
273 -1 0
273 -247 0
273 -272 0
274 -275 -273 0
-274 275 0
-274 273 0
-276 277 218 274 0
276 -277 0
276 -218 0
276 -274 0
278 -279 -276 0
-278 279 0
-278 276 0
280 -10 -8 0
-280 10 0
-280 8 0
-281 12 280 0
281 -12 0
281 -280 0
282 -14 -281 0
-282 14 0
-282 281 0
283 -16 -281 0
-283 16 0
-283 281 0
-284 18 283 0
284 -18 0
284 -283 0
285 -20 -284 0
-285 20 0
-285 284 0
-286 22 285 0
286 -22 0
286 -285 0
287 -24 -286 0
-287 24 0
-287 286 0
-288 26 287 0
288 -26 0
288 -287 0
289 -28 -288 0
-289 28 0
-289 288 0
-290 33 289 0
290 -33 0
290 -289 0
291 -35 -290 0
-291 35 0
-291 290 0
-292 37 1 282 291 0
292 -37 0
292 -1 0
292 -282 0
292 -291 0
293 -84 -292 0
-293 84 0
-293 292 0
-294 31 293 0
294 -31 0
294 -293 0
295 -87 -294 0
-295 87 0
-295 294 0
296 -121 -286 0
-296 121 0
-296 286 0
-297 123 296 0
297 -123 0
297 -296 0
298 -125 -297 0
-298 125 0
-298 297 0
299 -155 -284 0
-299 155 0
-299 284 0
300 -190 -8 0
-300 190 0
-300 8 0
-301 192 299 156 300 0
301 -192 0
301 -299 0
301 -156 0
301 -300 0
302 -194 -301 0
-302 194 0
-302 301 0
303 -212 -281 0
-303 212 0
-303 281 0
-304 217 295 298 302 303 213 0
304 -217 0
304 -295 0
304 -298 0
304 -302 0
304 -303 0
304 -213 0
305 -219 -304 0
-305 219 0
-305 304 0
-306 217 232 220 298 302 303 213 0
306 -217 0
306 -232 0
306 -220 0
306 -298 0
306 -302 0
306 -303 0
306 -213 0
307 -231 -306 0
-307 231 0
-307 306 0
308 -250 -306 0
-308 250 0
-308 306 0
-309 217 232 220 251 302 303 213 0
309 -217 0
309 -232 0
309 -220 0
309 -251 0
309 -302 0
309 -303 0
309 -213 0
310 -254 -309 0
-310 254 0
-310 309 0
-311 18 310 283 0
311 -18 0
311 -310 0
311 -283 0
312 -20 -311 0
-312 20 0
-312 311 0
-313 22 308 312 0
313 -22 0
313 -308 0
313 -312 0
314 -24 -313 0
-314 24 0
-314 313 0
-315 26 314 0
315 -26 0
315 -314 0
316 -28 -315 0
-316 28 0
-316 315 0
-317 33 316 29 0
317 -33 0
317 -316 0
317 -29 0
318 -35 -317 0
-318 35 0
-318 317 0
-319 37 307 1 282 318 0
319 -37 0
319 -307 0
319 -1 0
319 -282 0
319 -318 0
320 -275 -319 0
-320 275 0
-320 319 0
-321 277 305 320 0
321 -277 0
321 -305 0
321 -320 0
322 -323 -321 0
-322 323 0
-322 321 0
324 -87 -31 0
-324 87 0
-324 31 0
325 -326 -277 0
-325 326 0
-325 277 0
-327 123 325 296 0
327 -123 0
327 -325 0
327 -296 0
328 -125 -327 0
-328 125 0
-328 327 0
329 -330 -277 0
-329 330 0
-329 277 0
-331 215 329 0
331 -215 0
331 -329 0
332 -214 -331 0
-332 214 0
-332 331 0
-333 217 324 328 302 303 332 0
333 -217 0
333 -324 0
333 -328 0
333 -302 0
333 -303 0
333 -332 0
334 -231 -333 0
-334 231 0
-334 333 0
335 -219 -306 0
-335 219 0
-335 306 0
-336 277 335 0
336 -277 0
336 -335 0
337 -338 -336 0
-337 338 0
-337 336 0
-339 3 337 0
339 -3 0
339 -337 0
340 -2 -339 0
-340 2 0
-340 339 0
341 -250 -333 0
-341 250 0
-341 333 0
-342 123 325 0
342 -123 0
342 -325 0
343 -125 -342 0
-343 125 0
-343 342 0
-344 217 324 343 302 303 332 0
344 -217 0
344 -324 0
344 -343 0
344 -302 0
344 -303 0
344 -332 0
345 -254 -344 0
-345 254 0
-345 344 0
-346 18 345 283 0
346 -18 0
346 -345 0
346 -283 0
347 -20 -346 0
-347 20 0
-347 346 0
-348 22 341 347 0
348 -22 0
348 -341 0
348 -347 0
349 -24 -348 0
-349 24 0
-349 348 0
-350 26 349 0
350 -26 0
350 -349 0
351 -28 -350 0
-351 28 0
-351 350 0
-352 33 351 29 0
352 -33 0
352 -351 0
352 -29 0
353 -35 -352 0
-353 35 0
-353 352 0
-354 37 334 340 282 353 0
354 -37 0
354 -334 0
354 -340 0
354 -282 0
354 -353 0
355 -39 -354 0
-355 39 0
-355 354 0
-356 37 282 291 0
356 -37 0
356 -282 0
356 -291 0
357 -84 -356 0
-357 84 0
-357 356 0
-358 31 357 0
358 -31 0
358 -357 0
359 -87 -358 0
-359 87 0
-359 358 0
-360 217 359 298 302 303 213 0
360 -217 0
360 -359 0
360 -298 0
360 -302 0
360 -303 0
360 -213 0
361 -219 -360 0
-361 219 0
-361 360 0
-362 37 307 282 318 0
362 -37 0
362 -307 0
362 -282 0
362 -318 0
363 -275 -362 0
-363 275 0
-363 362 0
-364 277 361 363 0
364 -277 0
364 -361 0
364 -363 0
365 -338 -364 0
-365 338 0
-365 364 0
-366 3 365 0
366 -3 0
366 -365 0
367 -44 -366 0
-367 44 0
-367 366 0
-368 46 322 355 40 367 0
368 -46 0
368 -322 0
368 -355 0
368 -40 0
368 -367 0
369 -60 -368 0
-369 60 0
-369 368 0
-370 33 289 29 0
370 -33 0
370 -289 0
370 -29 0
371 -35 -370 0
-371 35 0
-371 370 0
-372 37 1 282 371 0
372 -37 0
372 -1 0
372 -282 0
372 -371 0
373 -275 -372 0
-373 275 0
-373 372 0
-374 277 373 0
374 -277 0
374 -373 0
375 -323 -374 0
-375 323 0
-375 374 0
376 -338 -277 0
-376 338 0
-376 277 0
-377 3 376 0
377 -3 0
377 -376 0
378 -2 -377 0
-378 2 0
-378 377 0
-379 37 378 282 371 0
379 -37 0
379 -378 0
379 -282 0
379 -371 0
380 -39 -379 0
-380 39 0
-380 379 0
-381 37 282 371 0
381 -37 0
381 -282 0
381 -371 0
382 -275 -381 0
-382 275 0
-382 381 0
-383 277 382 0
383 -277 0
383 -382 0
384 -338 -383 0
-384 338 0
-384 383 0
-385 3 384 0
385 -3 0
385 -384 0
386 -44 -385 0
-386 44 0
-386 385 0
-387 46 375 380 40 386 0
387 -46 0
387 -375 0
387 -380 0
387 -40 0
387 -386 0
388 -48 -387 0
-388 48 0
-388 387 0
389 -275 -292 0
-389 275 0
-389 292 0
-390 277 389 0
390 -277 0
390 -389 0
391 -323 -390 0
-391 323 0
-391 390 0
-392 37 378 282 291 0
392 -37 0
392 -378 0
392 -282 0
392 -291 0
393 -39 -392 0
-393 39 0
-393 392 0
394 -275 -356 0
-394 275 0
-394 356 0
-395 277 394 0
395 -277 0
395 -394 0
396 -338 -395 0
-396 338 0
-396 395 0
-397 3 396 0
397 -3 0
397 -396 0
398 -44 -397 0
-398 44 0
-398 397 0
-399 46 391 393 40 398 0
399 -46 0
399 -391 0
399 -393 0
399 -40 0
399 -398 0
400 -55 -399 0
-400 55 0
-400 399 0
401 -323 -277 0
-401 323 0
-401 277 0
402 -44 -377 0
-402 44 0
-402 377 0
-403 46 401 40 402 0
403 -46 0
403 -401 0
403 -40 0
403 -402 0
404 -58 -403 0
-404 58 0
-404 403 0
405 -64 -403 0
-405 64 0
-405 403 0
-406 8 405 0
406 -8 0
406 -405 0
407 -10 -406 0
-407 10 0
-407 406 0
-408 12 404 407 0
408 -12 0
408 -404 0
408 -407 0
409 -14 -408 0
-409 14 0
-409 408 0
410 -70 -403 0
-410 70 0
-410 403 0
411 -72 -403 0
-411 72 0
-411 403 0
412 -16 -408 0
-412 16 0
-412 408 0
-413 18 411 412 0
413 -18 0
413 -411 0
413 -412 0
414 -20 -413 0
-414 20 0
-414 413 0
-415 22 414 0
415 -22 0
415 -414 0
416 -24 -415 0
-416 24 0
-416 415 0
-417 26 410 416 0
417 -26 0
417 -410 0
417 -416 0
418 -28 -417 0
-418 28 0
-418 417 0
-419 33 418 0
419 -33 0
419 -418 0
420 -35 -419 0
-420 35 0
-420 419 0
-421 37 378 409 420 0
421 -37 0
421 -378 0
421 -409 0
421 -420 0
422 -84 -421 0
-422 84 0
-422 421 0
-423 31 400 422 0
423 -31 0
423 -400 0
423 -422 0
424 -87 -423 0
-424 87 0
-424 423 0
-425 33 418 104 0
425 -33 0
425 -418 0
425 -104 0
426 -35 -425 0
-426 35 0
-426 425 0
-427 37 1 409 426 0
427 -37 0
427 -1 0
427 -409 0
427 -426 0
428 -275 -427 0
-428 275 0
-428 427 0
-429 277 428 0
429 -277 0
429 -428 0
430 -326 -429 0
-430 326 0
-430 429 0
-431 37 1 282 90 0
431 -37 0
431 -1 0
431 -282 0
431 -90 0
432 -275 -431 0
-432 275 0
-432 431 0
-433 277 432 0
433 -277 0
433 -432 0
434 -323 -433 0
-434 323 0
-434 433 0
-435 37 378 282 90 0
435 -37 0
435 -378 0
435 -282 0
435 -90 0
436 -39 -435 0
-436 39 0
-436 435 0
-437 37 282 90 0
437 -37 0
437 -282 0
437 -90 0
438 -275 -437 0
-438 275 0
-438 437 0
-439 277 438 0
439 -277 0
439 -438 0
440 -338 -439 0
-440 338 0
-440 439 0
-441 3 440 0
441 -3 0
441 -440 0
442 -44 -441 0
-442 44 0
-442 441 0
-443 46 434 436 40 442 0
443 -46 0
443 -434 0
443 -436 0
443 -40 0
443 -442 0
444 -72 -443 0
-444 72 0
-444 443 0
445 -275 -95 0
-445 275 0
-445 95 0
-446 277 445 0
446 -277 0
446 -445 0
447 -323 -446 0
-447 323 0
-447 446 0
-448 37 378 90 0
448 -37 0
448 -378 0
448 -90 0
449 -39 -448 0
-449 39 0
-449 448 0
-450 37 90 0
450 -37 0
450 -90 0
451 -275 -450 0
-451 275 0
-451 450 0
-452 277 451 0
452 -277 0
452 -451 0
453 -338 -452 0
-453 338 0
-453 452 0
-454 3 453 0
454 -3 0
454 -453 0
455 -44 -454 0
-455 44 0
-455 454 0
-456 46 447 449 40 455 0
456 -46 0
456 -447 0
456 -449 0
456 -40 0
456 -455 0
457 -58 -456 0
-457 58 0
-457 456 0
458 -64 -456 0
-458 64 0
-458 456 0
-459 8 458 0
459 -8 0
459 -458 0
460 -10 -459 0
-460 10 0
-460 459 0
-461 12 457 460 0
461 -12 0
461 -457 0
461 -460 0
462 -16 -461 0
-462 16 0
-462 461 0
-463 18 444 462 0
463 -18 0
463 -444 0
463 -462 0
464 -20 -463 0
-464 20 0
-464 463 0
-465 22 464 0
465 -22 0
465 -464 0
466 -121 -465 0
-466 121 0
-466 465 0
-467 123 430 466 0
467 -123 0
467 -430 0
467 -466 0
468 -125 -467 0
-468 125 0
-468 467 0
-469 37 1 282 130 0
469 -37 0
469 -1 0
469 -282 0
469 -130 0
470 -275 -469 0
-470 275 0
-470 469 0
-471 277 470 0
471 -277 0
471 -470 0
472 -323 -471 0
-472 323 0
-472 471 0
-473 37 378 282 130 0
473 -37 0
473 -378 0
473 -282 0
473 -130 0
474 -39 -473 0
-474 39 0
-474 473 0
-475 37 282 130 0
475 -37 0
475 -282 0
475 -130 0
476 -275 -475 0
-476 275 0
-476 475 0
-477 277 476 0
477 -277 0
477 -476 0
478 -338 -477 0
-478 338 0
-478 477 0
-479 3 478 0
479 -3 0
479 -478 0
480 -44 -479 0
-480 44 0
-480 479 0
-481 46 472 474 40 480 0
481 -46 0
481 -472 0
481 -474 0
481 -40 0
481 -480 0
482 -72 -481 0
-482 72 0
-482 481 0
483 -275 -135 0
-483 275 0
-483 135 0
-484 277 483 0
484 -277 0
484 -483 0
485 -323 -484 0
-485 323 0
-485 484 0
-486 37 378 130 0
486 -37 0
486 -378 0
486 -130 0
487 -39 -486 0
-487 39 0
-487 486 0
-488 37 130 0
488 -37 0
488 -130 0
489 -275 -488 0
-489 275 0
-489 488 0
-490 277 489 0
490 -277 0
490 -489 0
491 -338 -490 0
-491 338 0
-491 490 0
-492 3 491 0
492 -3 0
492 -491 0
493 -44 -492 0
-493 44 0
-493 492 0
-494 46 485 487 40 493 0
494 -46 0
494 -485 0
494 -487 0
494 -40 0
494 -493 0
495 -58 -494 0
-495 58 0
-495 494 0
496 -64 -494 0
-496 64 0
-496 494 0
-497 8 496 0
497 -8 0
497 -496 0
498 -10 -497 0
-498 10 0
-498 497 0
-499 12 495 498 0
499 -12 0
499 -495 0
499 -498 0
500 -16 -499 0
-500 16 0
-500 499 0
-501 18 482 500 0
501 -18 0
501 -482 0
501 -500 0
502 -155 -501 0
-502 155 0
-502 501 0
503 -275 -168 0
-503 275 0
-503 168 0
-504 277 503 0
504 -277 0
504 -503 0
505 -323 -504 0
-505 323 0
-505 504 0
-506 37 378 158 167 0
506 -37 0
506 -378 0
506 -158 0
506 -167 0
507 -39 -506 0
-507 39 0
-507 506 0
-508 37 158 167 0
508 -37 0
508 -158 0
508 -167 0
509 -275 -508 0
-509 275 0
-509 508 0
-510 277 509 0
510 -277 0
510 -509 0
511 -338 -510 0
-511 338 0
-511 510 0
-512 3 511 0
512 -3 0
512 -511 0
513 -44 -512 0
-513 44 0
-513 512 0
-514 46 505 507 40 513 0
514 -46 0
514 -505 0
514 -507 0
514 -40 0
514 -513 0
515 -64 -514 0
-515 64 0
-515 514 0
-516 8 515 0
516 -8 0
516 -515 0
517 -190 -516 0
-517 190 0
-517 516 0
-518 192 502 156 517 0
518 -192 0
518 -502 0
518 -156 0
518 -517 0
519 -194 -518 0
-519 194 0
-519 518 0
-520 37 1 371 0
520 -37 0
520 -1 0
520 -371 0
521 -275 -520 0
-521 275 0
-521 520 0
-522 277 521 0
522 -277 0
522 -521 0
523 -323 -522 0
-523 323 0
-523 522 0
-524 37 378 371 0
524 -37 0
524 -378 0
524 -371 0
525 -39 -524 0
-525 39 0
-525 524 0
-526 37 371 0
526 -37 0
526 -371 0
527 -275 -526 0
-527 275 0
-527 526 0
-528 277 527 0
528 -277 0
528 -527 0
529 -338 -528 0
-529 338 0
-529 528 0
-530 3 529 0
530 -3 0
530 -529 0
531 -44 -530 0
-531 44 0
-531 530 0
-532 46 523 525 40 531 0
532 -46 0
532 -523 0
532 -525 0
532 -40 0
532 -531 0
533 -58 -532 0
-533 58 0
-533 532 0
534 -275 -199 0
-534 275 0
-534 199 0
-535 277 534 0
535 -277 0
535 -534 0
536 -323 -535 0
-536 323 0
-536 535 0
-537 37 378 167 0
537 -37 0
537 -378 0
537 -167 0
538 -39 -537 0
-538 39 0
-538 537 0
-539 37 167 0
539 -37 0
539 -167 0
540 -275 -539 0
-540 275 0
-540 539 0
-541 277 540 0
541 -277 0
541 -540 0
542 -338 -541 0
-542 338 0
-542 541 0
-543 3 542 0
543 -3 0
543 -542 0
544 -44 -543 0
-544 44 0
-544 543 0
-545 46 536 538 40 544 0
545 -46 0
545 -536 0
545 -538 0
545 -40 0
545 -544 0
546 -64 -545 0
-546 64 0
-546 545 0
-547 8 546 0
547 -8 0
547 -546 0
548 -10 -547 0
-548 10 0
-548 547 0
-549 12 533 548 0
549 -12 0
549 -533 0
549 -548 0
550 -212 -549 0
-550 212 0
-550 549 0
551 -330 -429 0
-551 330 0
-551 429 0
-552 215 551 0
552 -215 0
552 -551 0
553 -214 -552 0
-553 214 0
-553 552 0
-554 217 388 424 468 519 550 553 0
554 -217 0
554 -388 0
554 -424 0
554 -468 0
554 -519 0
554 -550 0
554 -553 0
555 -241 -554 0
-555 241 0
-555 554 0
556 -48 -403 0
-556 48 0
-556 403 0
557 -55 -403 0
-557 55 0
-557 403 0
-558 31 557 0
558 -31 0
558 -557 0
559 -87 -558 0
-559 87 0
-559 558 0
560 -121 -415 0
-560 121 0
-560 415 0
-561 123 325 560 0
561 -123 0
561 -325 0
561 -560 0
562 -125 -561 0
-562 125 0
-562 561 0
563 -155 -413 0
-563 155 0
-563 413 0
564 -190 -406 0
-564 190 0
-564 406 0
-565 192 563 156 564 0
565 -192 0
565 -563 0
565 -156 0
565 -564 0
566 -194 -565 0
-566 194 0
-566 565 0
567 -212 -408 0
-567 212 0
-567 408 0
-568 217 556 559 562 566 567 332 0
568 -217 0
568 -556 0
568 -559 0
568 -562 0
568 -566 0
568 -567 0
568 -332 0
569 -231 -568 0
-569 231 0
-569 568 0
-570 8 63 0
570 -8 0
570 -63 0
571 -10 -570 0
-571 10 0
-571 570 0
-572 12 57 571 0
572 -12 0
572 -57 0
572 -571 0
573 -16 -572 0
-573 16 0
-573 572 0
-574 18 71 573 0
574 -18 0
574 -71 0
574 -573 0
575 -20 -574 0
-575 20 0
-575 574 0
-576 22 575 0
576 -22 0
576 -575 0
577 -121 -576 0
-577 121 0
-577 576 0
-578 123 577 0
578 -123 0
578 -577 0
579 -125 -578 0
-579 125 0
-579 578 0
580 -155 -574 0
-580 155 0
-580 574 0
581 -190 -570 0
-581 190 0
-581 570 0
-582 192 580 156 581 0
582 -192 0
582 -580 0
582 -156 0
582 -581 0
583 -194 -582 0
-583 194 0
-583 582 0
584 -212 -572 0
-584 212 0
-584 572 0
-585 217 232 220 579 583 584 213 0
585 -217 0
585 -232 0
585 -220 0
585 -579 0
585 -583 0
585 -584 0
585 -213 0
586 -219 -585 0
-586 219 0
-586 585 0
-587 277 586 0
587 -277 0
587 -586 0
588 -338 -587 0
-588 338 0
-588 587 0
-589 3 588 0
589 -3 0
589 -588 0
590 -2 -589 0
-590 2 0
-590 589 0
591 -323 -336 0
-591 323 0
-591 336 0
592 -44 -339 0
-592 44 0
-592 339 0
-593 46 591 40 592 0
593 -46 0
593 -591 0
593 -40 0
593 -592 0
594 -58 -593 0
-594 58 0
-594 593 0
595 -121 -162 0
-595 121 0
-595 162 0
-596 123 595 0
596 -123 0
596 -595 0
597 -125 -596 0
-597 125 0
-597 596 0
598 -155 -160 0
-598 155 0
-598 160 0
-599 192 598 156 0
599 -192 0
599 -598 0
599 -156 0
600 -194 -599 0
-600 194 0
-600 599 0
-601 217 232 220 597 600 213 0
601 -217 0
601 -232 0
601 -220 0
601 -597 0
601 -600 0
601 -213 0
602 -219 -601 0
-602 219 0
-602 601 0
-603 277 602 0
603 -277 0
603 -602 0
604 -323 -603 0
-604 323 0
-604 603 0
605 -338 -603 0
-605 338 0
-605 603 0
-606 3 605 0
606 -3 0
606 -605 0
607 -44 -606 0
-607 44 0
-607 606 0
-608 46 604 40 607 0
608 -46 0
608 -604 0
608 -40 0
608 -607 0
609 -64 -608 0
-609 64 0
-609 608 0
-610 8 609 0
610 -8 0
610 -609 0
611 -10 -610 0
-611 10 0
-611 610 0
-612 12 594 611 0
612 -12 0
612 -594 0
612 -611 0
613 -14 -612 0
-613 14 0
-613 612 0
614 -70 -593 0
-614 70 0
-614 593 0
615 -250 -568 0
-615 250 0
-615 568 0
616 -219 -309 0
-616 219 0
-616 309 0
-617 277 616 0
617 -277 0
617 -616 0
618 -323 -617 0
-618 323 0
-618 617 0
619 -338 -617 0
-619 338 0
-619 617 0
-620 3 619 0
620 -3 0
620 -619 0
621 -44 -620 0
-621 44 0
-621 620 0
-622 46 618 40 621 0
622 -46 0
622 -618 0
622 -40 0
622 -621 0
623 -72 -622 0
-623 72 0
-623 622 0
-624 217 556 559 343 566 567 332 0
624 -217 0
624 -556 0
624 -559 0
624 -343 0
624 -566 0
624 -567 0
624 -332 0
625 -254 -624 0
-625 254 0
-625 624 0
-626 192 156 300 0
626 -192 0
626 -156 0
626 -300 0
627 -194 -626 0
-627 194 0
-627 626 0
-628 217 232 220 251 627 213 0
628 -217 0
628 -232 0
628 -220 0
628 -251 0
628 -627 0
628 -213 0
629 -219 -628 0
-629 219 0
-629 628 0
-630 277 629 0
630 -277 0
630 -629 0
631 -323 -630 0
-631 323 0
-631 630 0
632 -338 -630 0
-632 338 0
-632 630 0
-633 3 632 0
633 -3 0
633 -632 0
634 -44 -633 0
-634 44 0
-634 633 0
-635 46 631 40 634 0
635 -46 0
635 -631 0
635 -40 0
635 -634 0
636 -58 -635 0
-636 58 0
-636 635 0
637 -64 -635 0
-637 64 0
-637 635 0
-638 8 637 0
638 -8 0
638 -637 0
639 -10 -638 0
-639 10 0
-639 638 0
-640 12 636 639 0
640 -12 0
640 -636 0
640 -639 0
641 -16 -640 0
-641 16 0
-641 640 0
-642 18 623 625 641 0
642 -18 0
642 -623 0
642 -625 0
642 -641 0
643 -20 -642 0
-643 20 0
-643 642 0
-644 22 615 643 0
644 -22 0
644 -615 0
644 -643 0
645 -24 -644 0
-645 24 0
-645 644 0
-646 26 614 645 0
646 -26 0
646 -614 0
646 -645 0
647 -28 -646 0
-647 28 0
-647 646 0
-648 217 232 324 298 302 303 213 0
648 -217 0
648 -232 0
648 -324 0
648 -298 0
648 -302 0
648 -303 0
648 -213 0
649 -219 -648 0
-649 219 0
-649 648 0
-650 277 649 0
650 -277 0
650 -649 0
651 -323 -650 0
-651 323 0
-651 650 0
652 -338 -650 0
-652 338 0
-652 650 0
-653 3 652 0
653 -3 0
653 -652 0
654 -44 -653 0
-654 44 0
-654 653 0
-655 46 651 40 654 0
655 -46 0
655 -651 0
655 -40 0
655 -654 0
656 -55 -655 0
-656 55 0
-656 655 0
-657 31 656 0
657 -31 0
657 -656 0
658 -30 -657 0
-658 30 0
-658 657 0
-659 33 647 658 0
659 -33 0
659 -647 0
659 -658 0
660 -35 -659 0
-660 35 0
-660 659 0
-661 37 569 590 613 660 0
661 -37 0
661 -569 0
661 -590 0
661 -613 0
661 -660 0
662 -109 -661 0
-662 109 0
-662 661 0
-663 6 369 555 662 0
663 -6 0
663 -369 0
663 -555 0
663 -662 0
664 -665 -663 0
-664 665 0
-664 663 0
666 -275 -36 0
-666 275 0
-666 36 0
-667 277 666 0
667 -277 0
667 -666 0
668 -323 -667 0
-668 323 0
-668 667 0
-669 37 378 13 34 0
669 -37 0
669 -378 0
669 -13 0
669 -34 0
670 -39 -669 0
-670 39 0
-670 669 0
-671 37 13 34 0
671 -37 0
671 -13 0
671 -34 0
672 -275 -671 0
-672 275 0
-672 671 0
-673 277 672 0
673 -277 0
673 -672 0
674 -338 -673 0
-674 338 0
-674 673 0
-675 3 674 0
675 -3 0
675 -674 0
676 -44 -675 0
-676 44 0
-676 675 0
-677 46 668 670 40 676 0
677 -46 0
677 -668 0
677 -670 0
677 -40 0
677 -676 0
678 -48 -677 0
-678 48 0
-678 677 0
679 -275 -51 0
-679 275 0
-679 51 0
-680 277 679 0
680 -277 0
680 -679 0
681 -323 -680 0
-681 323 0
-681 680 0
-682 37 378 13 50 0
682 -37 0
682 -378 0
682 -13 0
682 -50 0
683 -39 -682 0
-683 39 0
-683 682 0
-684 37 13 50 0
684 -37 0
684 -13 0
684 -50 0
685 -275 -684 0
-685 275 0
-685 684 0
-686 277 685 0
686 -277 0
686 -685 0
687 -338 -686 0
-687 338 0
-687 686 0
-688 3 687 0
688 -3 0
688 -687 0
689 -44 -688 0
-689 44 0
-689 688 0
-690 46 681 683 40 689 0
690 -46 0
690 -681 0
690 -683 0
690 -40 0
690 -689 0
691 -55 -690 0
-691 55 0
-691 690 0
692 -60 -403 0
-692 60 0
-692 403 0
-693 6 692 0
693 -6 0
693 -692 0
694 -5 -693 0
-694 5 0
-694 693 0
-695 8 694 405 0
695 -8 0
695 -694 0
695 -405 0
696 -10 -695 0
-696 10 0
-696 695 0
-697 12 404 696 0
697 -12 0
697 -404 0
697 -696 0
698 -14 -697 0
-698 14 0
-698 697 0
699 -16 -697 0
-699 16 0
-699 697 0
-700 18 411 699 0
700 -18 0
700 -411 0
700 -699 0
701 -20 -700 0
-701 20 0
-701 700 0
-702 22 701 0
702 -22 0
702 -701 0
703 -24 -702 0
-703 24 0
-703 702 0
-704 26 410 703 0
704 -26 0
704 -410 0
704 -703 0
705 -28 -704 0
-705 28 0
-705 704 0
-706 33 705 0
706 -33 0
706 -705 0
707 -35 -706 0
-707 35 0
-707 706 0
-708 37 378 698 707 0
708 -37 0
708 -378 0
708 -698 0
708 -707 0
709 -84 -708 0
-709 84 0
-709 708 0
-710 31 691 709 0
710 -31 0
710 -691 0
710 -709 0
711 -87 -710 0
-711 87 0
-711 710 0
-712 33 79 104 0
712 -33 0
712 -79 0
712 -104 0
713 -35 -712 0
-713 35 0
-713 712 0
-714 37 1 68 713 0
714 -37 0
714 -1 0
714 -68 0
714 -713 0
715 -275 -714 0
-715 275 0
-715 714 0
-716 277 715 0
716 -277 0
716 -715 0
717 -326 -716 0
-717 326 0
-717 716 0
718 -275 -91 0
-718 275 0
-718 91 0
-719 277 718 0
719 -277 0
719 -718 0
720 -323 -719 0
-720 323 0
-720 719 0
-721 37 378 13 90 0
721 -37 0
721 -378 0
721 -13 0
721 -90 0
722 -39 -721 0
-722 39 0
-722 721 0
-723 37 13 90 0
723 -37 0
723 -13 0
723 -90 0
724 -275 -723 0
-724 275 0
-724 723 0
-725 277 724 0
725 -277 0
725 -724 0
726 -338 -725 0
-726 338 0
-726 725 0
-727 3 726 0
727 -3 0
727 -726 0
728 -44 -727 0
-728 44 0
-728 727 0
-729 46 720 722 40 728 0
729 -46 0
729 -720 0
729 -722 0
729 -40 0
729 -728 0
730 -72 -729 0
-730 72 0
-730 729 0
731 -60 -456 0
-731 60 0
-731 456 0
-732 26 410 0
732 -26 0
732 -410 0
733 -28 -732 0
-733 28 0
-733 732 0
734 -30 -558 0
-734 30 0
-734 558 0
-735 33 733 734 0
735 -33 0
735 -733 0
735 -734 0
736 -35 -735 0
-736 35 0
-736 735 0
-737 37 378 736 0
737 -37 0
737 -378 0
737 -736 0
738 -109 -737 0
-738 109 0
-738 737 0
-739 6 731 738 0
739 -6 0
739 -731 0
739 -738 0
740 -5 -739 0
-740 5 0
-740 739 0
-741 8 740 458 0
741 -8 0
741 -740 0
741 -458 0
742 -10 -741 0
-742 10 0
-742 741 0
-743 12 457 742 0
743 -12 0
743 -457 0
743 -742 0
744 -16 -743 0
-744 16 0
-744 743 0
-745 18 730 744 0
745 -18 0
745 -730 0
745 -744 0
746 -20 -745 0
-746 20 0
-746 745 0
-747 22 746 0
747 -22 0
747 -746 0
748 -121 -747 0
-748 121 0
-748 747 0
-749 123 717 748 0
749 -123 0
749 -717 0
749 -748 0
750 -125 -749 0
-750 125 0
-750 749 0
751 -275 -131 0
-751 275 0
-751 131 0
-752 277 751 0
752 -277 0
752 -751 0
753 -323 -752 0
-753 323 0
-753 752 0
-754 37 378 13 130 0
754 -37 0
754 -378 0
754 -13 0
754 -130 0
755 -39 -754 0
-755 39 0
-755 754 0
-756 37 13 130 0
756 -37 0
756 -13 0
756 -130 0
757 -275 -756 0
-757 275 0
-757 756 0
-758 277 757 0
758 -277 0
758 -757 0
759 -338 -758 0
-759 338 0
-759 758 0
-760 3 759 0
760 -3 0
760 -759 0
761 -44 -760 0
-761 44 0
-761 760 0
-762 46 753 755 40 761 0
762 -46 0
762 -753 0
762 -755 0
762 -40 0
762 -761 0
763 -72 -762 0
-763 72 0
-763 762 0
764 -60 -494 0
-764 60 0
-764 494 0
-765 26 410 126 0
765 -26 0
765 -410 0
765 -126 0
766 -28 -765 0
-766 28 0
-766 765 0
-767 33 766 734 0
767 -33 0
767 -766 0
767 -734 0
768 -35 -767 0
-768 35 0
-768 767 0
-769 37 378 768 0
769 -37 0
769 -378 0
769 -768 0
770 -109 -769 0
-770 109 0
-770 769 0
-771 6 764 770 0
771 -6 0
771 -764 0
771 -770 0
772 -5 -771 0
-772 5 0
-772 771 0
-773 8 772 496 0
773 -8 0
773 -772 0
773 -496 0
774 -10 -773 0
-774 10 0
-774 773 0
-775 12 495 774 0
775 -12 0
775 -495 0
775 -774 0
776 -16 -775 0
-776 16 0
-776 775 0
-777 18 763 776 0
777 -18 0
777 -763 0
777 -776 0
778 -155 -777 0
-778 155 0
-778 777 0
779 -60 -514 0
-779 60 0
-779 514 0
-780 12 404 0
780 -12 0
780 -404 0
781 -14 -780 0
-781 14 0
-781 780 0
782 -16 -780 0
-782 16 0
-782 780 0
-783 18 411 782 0
783 -18 0
783 -411 0
783 -782 0
784 -20 -783 0
-784 20 0
-784 783 0
-785 22 784 0
785 -22 0
785 -784 0
786 -24 -785 0
-786 24 0
-786 785 0
-787 26 410 786 0
787 -26 0
787 -410 0
787 -786 0
788 -28 -787 0
-788 28 0
-788 787 0
-789 33 788 734 0
789 -33 0
789 -788 0
789 -734 0
790 -35 -789 0
-790 35 0
-790 789 0
-791 37 378 781 790 0
791 -37 0
791 -378 0
791 -781 0
791 -790 0
792 -109 -791 0
-792 109 0
-792 791 0
-793 6 779 792 0
793 -6 0
793 -779 0
793 -792 0
794 -5 -793 0
-794 5 0
-794 793 0
-795 8 794 515 0
795 -8 0
795 -794 0
795 -515 0
796 -190 -795 0
-796 190 0
-796 795 0
-797 192 778 156 796 0
797 -192 0
797 -778 0
797 -156 0
797 -796 0
798 -194 -797 0
-798 194 0
-798 797 0
799 -275 -195 0
-799 275 0
-799 195 0
-800 277 799 0
800 -277 0
800 -799 0
801 -323 -800 0
-801 323 0
-801 800 0
-802 37 378 34 0
802 -37 0
802 -378 0
802 -34 0
803 -39 -802 0
-803 39 0
-803 802 0
-804 37 34 0
804 -37 0
804 -34 0
805 -275 -804 0
-805 275 0
-805 804 0
-806 277 805 0
806 -277 0
806 -805 0
807 -338 -806 0
-807 338 0
-807 806 0
-808 3 807 0
808 -3 0
808 -807 0
809 -44 -808 0
-809 44 0
-809 808 0
-810 46 801 803 40 809 0
810 -46 0
810 -801 0
810 -803 0
810 -40 0
810 -809 0
811 -58 -810 0
-811 58 0
-811 810 0
812 -60 -545 0
-812 60 0
-812 545 0
-813 37 378 790 0
813 -37 0
813 -378 0
813 -790 0
814 -109 -813 0
-814 109 0
-814 813 0
-815 6 812 814 0
815 -6 0
815 -812 0
815 -814 0
816 -5 -815 0
-816 5 0
-816 815 0
-817 8 816 546 0
817 -8 0
817 -816 0
817 -546 0
818 -10 -817 0
-818 10 0
-818 817 0
-819 12 811 818 0
819 -12 0
819 -811 0
819 -818 0
820 -212 -819 0
-820 212 0
-820 819 0
821 -330 -716 0
-821 330 0
-821 716 0
-822 215 821 0
822 -215 0
822 -821 0
823 -214 -822 0
-823 214 0
-823 822 0
-824 217 678 711 750 798 820 823 0
824 -217 0
824 -678 0
824 -711 0
824 -750 0
824 -798 0
824 -820 0
824 -823 0
825 -826 -824 0
-825 826 0
-825 824 0
827 -231 -248 0
-827 231 0
-827 248 0
-828 37 827 1 247 272 0
828 -37 0
828 -827 0
828 -1 0
828 -247 0
828 -272 0
829 -275 -828 0
-829 275 0
-829 828 0
-830 277 218 829 0
830 -277 0
830 -218 0
830 -829 0
831 -832 -830 0
-831 832 0
-831 830 0
833 -834 -663 0
-833 834 0
-833 663 0
835 -84 -51 0
-835 84 0
-835 51 0
-836 31 835 0
836 -31 0
836 -835 0
837 -87 -836 0
-837 87 0
-837 836 0
838 -109 -95 0
-838 109 0
-838 95 0
-839 6 838 0
839 -6 0
839 -838 0
840 -5 -839 0
-840 5 0
-840 839 0
-841 8 840 0
841 -8 0
841 -840 0
842 -10 -841 0
-842 10 0
-842 841 0
-843 12 842 0
843 -12 0
843 -842 0
844 -16 -843 0
-844 16 0
-844 843 0
-845 18 844 0
845 -18 0
845 -844 0
846 -20 -845 0
-846 20 0
-846 845 0
-847 22 846 0
847 -22 0
847 -846 0
848 -121 -847 0
-848 121 0
-848 847 0
-849 123 848 0
849 -123 0
849 -848 0
850 -125 -849 0
-850 125 0
-850 849 0
851 -109 -135 0
-851 109 0
-851 135 0
-852 6 851 0
852 -6 0
852 -851 0
853 -5 -852 0
-853 5 0
-853 852 0
-854 8 853 0
854 -8 0
854 -853 0
855 -10 -854 0
-855 10 0
-855 854 0
-856 12 855 0
856 -12 0
856 -855 0
857 -16 -856 0
-857 16 0
-857 856 0
-858 18 857 0
858 -18 0
858 -857 0
859 -155 -858 0
-859 155 0
-859 858 0
860 -109 -168 0
-860 109 0
-860 168 0
-861 6 860 0
861 -6 0
861 -860 0
862 -5 -861 0
-862 5 0
-862 861 0
-863 8 862 0
863 -8 0
863 -862 0
864 -190 -863 0
-864 190 0
-864 863 0
-865 192 859 156 864 0
865 -192 0
865 -859 0
865 -156 0
865 -864 0
866 -194 -865 0
-866 194 0
-866 865 0
867 -109 -199 0
-867 109 0
-867 199 0
-868 6 867 0
868 -6 0
868 -867 0
869 -5 -868 0
-869 5 0
-869 868 0
-870 8 869 0
870 -8 0
870 -869 0
871 -10 -870 0
-871 10 0
-871 870 0
-872 12 871 0
872 -12 0
872 -871 0
873 -212 -872 0
-873 212 0
-873 872 0
-874 217 837 850 866 873 213 0
874 -217 0
874 -837 0
874 -850 0
874 -866 0
874 -873 0
874 -213 0
875 -219 -874 0
-875 219 0
-875 874 0
876 -241 -601 0
-876 241 0
-876 601 0
-877 6 876 0
877 -6 0
877 -876 0
878 -5 -877 0
-878 5 0
-878 877 0
-879 8 878 0
879 -8 0
879 -878 0
880 -10 -879 0
-880 10 0
-880 879 0
-881 12 880 0
881 -12 0
881 -880 0
882 -14 -881 0
-882 14 0
-882 881 0
883 -155 -17 0
-883 155 0
-883 17 0
-884 192 883 156 225 0
884 -192 0
884 -883 0
884 -156 0
884 -225 0
885 -194 -884 0
-885 194 0
-885 884 0
886 -212 -11 0
-886 212 0
-886 11 0
-887 217 232 220 251 885 886 213 0
887 -217 0
887 -232 0
887 -220 0
887 -251 0
887 -885 0
887 -886 0
887 -213 0
888 -250 -887 0
-888 250 0
-888 887 0
889 -254 -887 0
-889 254 0
-889 887 0
-890 12 262 0
890 -12 0
890 -262 0
891 -16 -890 0
-891 16 0
-891 890 0
-892 18 889 891 0
892 -18 0
892 -889 0
892 -891 0
893 -20 -892 0
-893 20 0
-893 892 0
-894 22 888 893 0
894 -22 0
894 -888 0
894 -893 0
895 -24 -894 0
-895 24 0
-895 894 0
-896 26 895 0
896 -26 0
896 -895 0
897 -28 -896 0
-897 28 0
-897 896 0
-898 33 897 29 0
898 -33 0
898 -897 0
898 -29 0
899 -35 -898 0
-899 35 0
-899 898 0
-900 37 230 1 882 899 0
900 -37 0
900 -230 0
900 -1 0
900 -882 0
900 -899 0
901 -275 -900 0
-901 275 0
-901 900 0
-902 277 875 901 0
902 -277 0
902 -875 0
902 -901 0
903 -323 -902 0
-903 323 0
-903 902 0
904 -121 -21 0
-904 121 0
-904 21 0
-905 123 325 904 0
905 -123 0
905 -325 0
905 -904 0
906 -125 -905 0
-906 125 0
-906 905 0
907 -190 -7 0
-907 190 0
-907 7 0
-908 192 883 156 907 0
908 -192 0
908 -883 0
908 -156 0
908 -907 0
909 -194 -908 0
-909 194 0
-909 908 0
-910 217 324 906 909 886 332 0
910 -217 0
910 -324 0
910 -906 0
910 -909 0
910 -886 0
910 -332 0
911 -231 -910 0
-911 231 0
-911 910 0
-912 123 904 0
912 -123 0
912 -904 0
913 -125 -912 0
-913 125 0
-913 912 0
-914 217 232 220 913 885 886 213 0
914 -217 0
914 -232 0
914 -220 0
914 -913 0
914 -885 0
914 -886 0
914 -213 0
915 -219 -914 0
-915 219 0
-915 914 0
-916 277 915 0
916 -277 0
916 -915 0
917 -338 -916 0
-917 338 0
-917 916 0
-918 3 917 0
918 -3 0
918 -917 0
919 -2 -918 0
-919 2 0
-919 918 0
-920 123 325 595 0
920 -123 0
920 -325 0
920 -595 0
921 -125 -920 0
-921 125 0
-921 920 0
-922 217 324 921 600 332 0
922 -217 0
922 -324 0
922 -921 0
922 -600 0
922 -332 0
923 -241 -922 0
-923 241 0
-923 922 0
-924 6 923 0
924 -6 0
924 -923 0
925 -5 -924 0
-925 5 0
-925 924 0
-926 8 925 0
926 -8 0
926 -925 0
927 -10 -926 0
-927 10 0
-927 926 0
-928 12 927 0
928 -12 0
928 -927 0
929 -14 -928 0
-929 14 0
-929 928 0
930 -250 -910 0
-930 250 0
-930 910 0
-931 217 324 343 909 886 332 0
931 -217 0
931 -324 0
931 -343 0
931 -909 0
931 -886 0
931 -332 0
932 -254 -931 0
-932 254 0
-932 931 0
-933 217 324 343 256 332 0
933 -217 0
933 -324 0
933 -343 0
933 -256 0
933 -332 0
934 -241 -933 0
-934 241 0
-934 933 0
-935 6 934 0
935 -6 0
935 -934 0
936 -5 -935 0
-936 5 0
-936 935 0
-937 8 936 0
937 -8 0
937 -936 0
938 -10 -937 0
-938 10 0
-938 937 0
-939 12 938 0
939 -12 0
939 -938 0
940 -16 -939 0
-940 16 0
-940 939 0
-941 18 932 940 0
941 -18 0
941 -932 0
941 -940 0
942 -20 -941 0
-942 20 0
-942 941 0
-943 22 930 942 0
943 -22 0
943 -930 0
943 -942 0
944 -24 -943 0
-944 24 0
-944 943 0
-945 26 944 0
945 -26 0
945 -944 0
946 -28 -945 0
-946 28 0
-946 945 0
-947 33 946 29 0
947 -33 0
947 -946 0
947 -29 0
948 -35 -947 0
-948 35 0
-948 947 0
-949 37 911 919 929 948 0
949 -37 0
949 -911 0
949 -919 0
949 -929 0
949 -948 0
950 -39 -949 0
-950 39 0
-950 949 0
951 -84 -684 0
-951 84 0
-951 684 0
-952 31 951 0
952 -31 0
952 -951 0
953 -87 -952 0
-953 87 0
-953 952 0
954 -109 -450 0
-954 109 0
-954 450 0
-955 6 954 0
955 -6 0
955 -954 0
956 -5 -955 0
-956 5 0
-956 955 0
-957 8 956 0
957 -8 0
957 -956 0
958 -10 -957 0
-958 10 0
-958 957 0
-959 12 958 0
959 -12 0
959 -958 0
960 -16 -959 0
-960 16 0
-960 959 0
-961 18 960 0
961 -18 0
961 -960 0
962 -20 -961 0
-962 20 0
-962 961 0
-963 22 962 0
963 -22 0
963 -962 0
964 -121 -963 0
-964 121 0
-964 963 0
-965 123 964 0
965 -123 0
965 -964 0
966 -125 -965 0
-966 125 0
-966 965 0
967 -109 -488 0
-967 109 0
-967 488 0
-968 6 967 0
968 -6 0
968 -967 0
969 -5 -968 0
-969 5 0
-969 968 0
-970 8 969 0
970 -8 0
970 -969 0
971 -10 -970 0
-971 10 0
-971 970 0
-972 12 971 0
972 -12 0
972 -971 0
973 -16 -972 0
-973 16 0
-973 972 0
-974 18 973 0
974 -18 0
974 -973 0
975 -155 -974 0
-975 155 0
-975 974 0
976 -109 -508 0
-976 109 0
-976 508 0
-977 6 976 0
977 -6 0
977 -976 0
978 -5 -977 0
-978 5 0
-978 977 0
-979 8 978 0
979 -8 0
979 -978 0
980 -190 -979 0
-980 190 0
-980 979 0
-981 192 975 156 980 0
981 -192 0
981 -975 0
981 -156 0
981 -980 0
982 -194 -981 0
-982 194 0
-982 981 0
983 -109 -539 0
-983 109 0
-983 539 0
-984 6 983 0
984 -6 0
984 -983 0
985 -5 -984 0
-985 5 0
-985 984 0
-986 8 985 0
986 -8 0
986 -985 0
987 -10 -986 0
-987 10 0
-987 986 0
-988 12 987 0
988 -12 0
988 -987 0
989 -212 -988 0
-989 212 0
-989 988 0
-990 217 953 966 982 989 213 0
990 -217 0
990 -953 0
990 -966 0
990 -982 0
990 -989 0
990 -213 0
991 -219 -990 0
-991 219 0
-991 990 0
992 -231 -914 0
-992 231 0
-992 914 0
-993 37 992 882 899 0
993 -37 0
993 -992 0
993 -882 0
993 -899 0
994 -275 -993 0
-994 275 0
-994 993 0
-995 277 991 994 0
995 -277 0
995 -991 0
995 -994 0
996 -338 -995 0
-996 338 0
-996 995 0
-997 3 996 0
997 -3 0
997 -996 0
998 -44 -997 0
-998 44 0
-998 997 0
-999 46 903 950 40 998 0
999 -46 0
999 -903 0
999 -950 0
999 -40 0
999 -998 0
1000 -1001 -999 0
-1000 1001 0
-1000 999 0
1002 -1003 -824 0
-1002 1003 0
-1002 824 0
-1004 33 128 0
1004 -33 0
1004 -128 0
1005 -35 -1004 0
-1005 35 0
-1005 1004 0
-1006 37 1 13 1005 0
1006 -37 0
1006 -1 0
1006 -13 0
1006 -1005 0
1007 -84 -1006 0
-1007 84 0
-1007 1006 0
-1008 31 1007 0
1008 -31 0
1008 -1007 0
1009 -87 -1008 0
-1009 87 0
-1009 1008 0
1010 -121 -22 0
-1010 121 0
-1010 22 0
-1011 123 1010 0
1011 -123 0
1011 -1010 0
1012 -125 -1011 0
-1012 125 0
-1012 1011 0
-1013 37 1 158 130 0
1013 -37 0
1013 -1 0
1013 -158 0
1013 -130 0
1014 -109 -1013 0
-1014 109 0
-1014 1013 0
-1015 6 1014 0
1015 -6 0
1015 -1014 0
1016 -5 -1015 0
-1016 5 0
-1016 1015 0
-1017 8 1016 0
1017 -8 0
1017 -1016 0
1018 -190 -1017 0
-1018 190 0
-1018 1017 0
-1019 192 156 1018 0
1019 -192 0
1019 -156 0
1019 -1018 0
1020 -194 -1019 0
-1020 194 0
-1020 1019 0
1021 -212 -856 0
-1021 212 0
-1021 856 0
-1022 217 1009 1012 1020 1021 213 0
1022 -217 0
1022 -1009 0
1022 -1012 0
1022 -1020 0
1022 -1021 0
1022 -213 0
1023 -219 -1022 0
-1023 219 0
-1023 1022 0
-1024 217 232 220 1012 885 886 213 0
1024 -217 0
1024 -232 0
1024 -220 0
1024 -1012 0
1024 -885 0
1024 -886 0
1024 -213 0
1025 -231 -1024 0
-1025 231 0
-1025 1024 0
-1026 217 232 220 1012 256 213 0
1026 -217 0
1026 -232 0
1026 -220 0
1026 -1012 0
1026 -256 0
1026 -213 0
1027 -241 -1026 0
-1027 241 0
-1027 1026 0
-1028 6 1027 0
1028 -6 0
1028 -1027 0
1029 -5 -1028 0
-1029 5 0
-1029 1028 0
-1030 8 1029 0
1030 -8 0
1030 -1029 0
1031 -10 -1030 0
-1031 10 0
-1031 1030 0
-1032 12 1031 0
1032 -12 0
1032 -1031 0
1033 -14 -1032 0
-1033 14 0
-1033 1032 0
-1034 22 888 0
1034 -22 0
1034 -888 0
1035 -24 -1034 0
-1035 24 0
-1035 1034 0
-1036 26 1035 0
1036 -26 0
1036 -1035 0
1037 -28 -1036 0
-1037 28 0
-1037 1036 0
-1038 33 1037 29 0
1038 -33 0
1038 -1037 0
1038 -29 0
1039 -35 -1038 0
-1039 35 0
-1039 1038 0
-1040 37 1025 1 1033 1039 0
1040 -37 0
1040 -1025 0
1040 -1 0
1040 -1033 0
1040 -1039 0
1041 -275 -1040 0
-1041 275 0
-1041 1040 0
-1042 277 1023 1041 0
1042 -277 0
1042 -1023 0
1042 -1041 0
1043 -323 -1042 0
-1043 323 0
-1043 1042 0
-1044 123 325 1010 0
1044 -123 0
1044 -325 0
1044 -1010 0
1045 -125 -1044 0
-1045 125 0
-1045 1044 0
-1046 217 324 1045 909 886 332 0
1046 -217 0
1046 -324 0
1046 -1045 0
1046 -909 0
1046 -886 0
1046 -332 0
1047 -231 -1046 0
-1047 231 0
-1047 1046 0
1048 -219 -1024 0
-1048 219 0
-1048 1024 0
-1049 277 1048 0
1049 -277 0
1049 -1048 0
1050 -338 -1049 0
-1050 338 0
-1050 1049 0
-1051 3 1050 0
1051 -3 0
1051 -1050 0
1052 -2 -1051 0
-1052 2 0
-1052 1051 0
-1053 217 324 1045 256 332 0
1053 -217 0
1053 -324 0
1053 -1045 0
1053 -256 0
1053 -332 0
1054 -241 -1053 0
-1054 241 0
-1054 1053 0
-1055 6 1054 0
1055 -6 0
1055 -1054 0
1056 -5 -1055 0
-1056 5 0
-1056 1055 0
-1057 8 1056 0
1057 -8 0
1057 -1056 0
1058 -10 -1057 0
-1058 10 0
-1058 1057 0
-1059 12 1058 0
1059 -12 0
1059 -1058 0
1060 -14 -1059 0
-1060 14 0
-1060 1059 0
1061 -250 -931 0
-1061 250 0
-1061 931 0
-1062 22 1061 0
1062 -22 0
1062 -1061 0
1063 -24 -1062 0
-1063 24 0
-1063 1062 0
-1064 26 1063 0
1064 -26 0
1064 -1063 0
1065 -28 -1064 0
-1065 28 0
-1065 1064 0
-1066 33 1065 29 0
1066 -33 0
1066 -1065 0
1066 -29 0
1067 -35 -1066 0
-1067 35 0
-1067 1066 0
-1068 37 1047 1052 1060 1067 0
1068 -37 0
1068 -1047 0
1068 -1052 0
1068 -1060 0
1068 -1067 0
1069 -39 -1068 0
-1069 39 0
-1069 1068 0
-1070 37 13 1005 0
1070 -37 0
1070 -13 0
1070 -1005 0
1071 -84 -1070 0
-1071 84 0
-1071 1070 0
-1072 31 1071 0
1072 -31 0
1072 -1071 0
1073 -87 -1072 0
-1073 87 0
-1073 1072 0
-1074 37 158 130 0
1074 -37 0
1074 -158 0
1074 -130 0
1075 -109 -1074 0
-1075 109 0
-1075 1074 0
-1076 6 1075 0
1076 -6 0
1076 -1075 0
1077 -5 -1076 0
-1077 5 0
-1077 1076 0
-1078 8 1077 0
1078 -8 0
1078 -1077 0
1079 -190 -1078 0
-1079 190 0
-1079 1078 0
-1080 192 156 1079 0
1080 -192 0
1080 -156 0
1080 -1079 0
1081 -194 -1080 0
-1081 194 0
-1081 1080 0
1082 -212 -972 0
-1082 212 0
-1082 972 0
-1083 217 1073 1012 1081 1082 213 0
1083 -217 0
1083 -1073 0
1083 -1012 0
1083 -1081 0
1083 -1082 0
1083 -213 0
1084 -219 -1083 0
-1084 219 0
-1084 1083 0
-1085 37 1025 1033 1039 0
1085 -37 0
1085 -1025 0
1085 -1033 0
1085 -1039 0
1086 -275 -1085 0
-1086 275 0
-1086 1085 0
-1087 277 1084 1086 0
1087 -277 0
1087 -1084 0
1087 -1086 0
1088 -338 -1087 0
-1088 338 0
-1088 1087 0
-1089 3 1088 0
1089 -3 0
1089 -1088 0
1090 -44 -1089 0
-1090 44 0
-1090 1089 0
-1091 46 1043 1069 40 1090 0
1091 -46 0
1091 -1043 0
1091 -1069 0
1091 -40 0
1091 -1090 0
1092 -72 -1091 0
-1092 72 0
-1092 1091 0
1093 -48 -762 0
-1093 48 0
-1093 762 0
1094 -275 -1006 0
-1094 275 0
-1094 1006 0
-1095 277 1094 0
1095 -277 0
1095 -1094 0
1096 -323 -1095 0
-1096 323 0
-1096 1095 0
-1097 37 378 13 1005 0
1097 -37 0
1097 -378 0
1097 -13 0
1097 -1005 0
1098 -39 -1097 0
-1098 39 0
-1098 1097 0
1099 -275 -1070 0
-1099 275 0
-1099 1070 0
-1100 277 1099 0
1100 -277 0
1100 -1099 0
1101 -338 -1100 0
-1101 338 0
-1101 1100 0
-1102 3 1101 0
1102 -3 0
1102 -1101 0
1103 -44 -1102 0
-1103 44 0
-1103 1102 0
-1104 46 1096 1098 40 1103 0
1104 -46 0
1104 -1096 0
1104 -1098 0
1104 -40 0
1104 -1103 0
1105 -55 -1104 0
-1105 55 0
-1105 1104 0
-1106 37 378 698 768 0
1106 -37 0
1106 -378 0
1106 -698 0
1106 -768 0
1107 -84 -1106 0
-1107 84 0
-1107 1106 0
-1108 31 1105 1107 0
1108 -31 0
1108 -1105 0
1108 -1107 0
1109 -87 -1108 0
-1109 87 0
-1109 1108 0
1110 -275 -1106 0
-1110 275 0
-1110 1106 0
-1111 277 1110 0
1111 -277 0
1111 -1110 0
1112 -326 -1111 0
-1112 326 0
-1112 1111 0
-1113 123 1112 1010 0
1113 -123 0
1113 -1112 0
1113 -1010 0
1114 -125 -1113 0
-1114 125 0
-1114 1113 0
1115 -275 -1013 0
-1115 275 0
-1115 1013 0
-1116 277 1115 0
1116 -277 0
1116 -1115 0
1117 -323 -1116 0
-1117 323 0
-1117 1116 0
-1118 37 378 158 130 0
1118 -37 0
1118 -378 0
1118 -158 0
1118 -130 0
1119 -39 -1118 0
-1119 39 0
-1119 1118 0
1120 -275 -1074 0
-1120 275 0
-1120 1074 0
-1121 277 1120 0
1121 -277 0
1121 -1120 0
1122 -338 -1121 0
-1122 338 0
-1122 1121 0
-1123 3 1122 0
1123 -3 0
1123 -1122 0
1124 -44 -1123 0
-1124 44 0
-1124 1123 0
-1125 46 1117 1119 40 1124 0
1125 -46 0
1125 -1117 0
1125 -1119 0
1125 -40 0
1125 -1124 0
1126 -60 -1125 0
-1126 60 0
-1126 1125 0
-1127 37 378 781 768 0
1127 -37 0
1127 -378 0
1127 -781 0
1127 -768 0
1128 -109 -1127 0
-1128 109 0
-1128 1127 0
-1129 6 1126 1128 0
1129 -6 0
1129 -1126 0
1129 -1128 0
1130 -5 -1129 0
-1130 5 0
-1130 1129 0
1131 -64 -1125 0
-1131 64 0
-1131 1125 0
-1132 8 1130 1131 0
1132 -8 0
1132 -1130 0
1132 -1131 0
1133 -190 -1132 0
-1133 190 0
-1133 1132 0
-1134 192 156 1133 0
1134 -192 0
1134 -156 0
1134 -1133 0
1135 -194 -1134 0
-1135 194 0
-1135 1134 0
1136 -212 -775 0
-1136 212 0
-1136 775 0
1137 -330 -1111 0
-1137 330 0
-1137 1111 0
-1138 215 1137 0
1138 -215 0
1138 -1137 0
1139 -214 -1138 0
-1139 214 0
-1139 1138 0
-1140 217 1093 1109 1114 1135 1136 1139 0
1140 -217 0
1140 -1093 0
1140 -1109 0
1140 -1114 0
1140 -1135 0
1140 -1136 0
1140 -1139 0
1141 -254 -1140 0
-1141 254 0
-1141 1140 0
-1142 37 1 1005 0
1142 -37 0
1142 -1 0
1142 -1005 0
1143 -84 -1142 0
-1143 84 0
-1143 1142 0
-1144 31 1143 0
1144 -31 0
1144 -1143 0
1145 -87 -1144 0
-1145 87 0
-1145 1144 0
1146 -190 -854 0
-1146 190 0
-1146 854 0
-1147 192 156 1146 0
1147 -192 0
1147 -156 0
1147 -1146 0
1148 -194 -1147 0
-1148 194 0
-1148 1147 0
-1149 217 1145 1012 1148 213 0
1149 -217 0
1149 -1145 0
1149 -1012 0
1149 -1148 0
1149 -213 0
1150 -219 -1149 0
-1150 219 0
-1150 1149 0
-1151 217 232 220 1012 1148 213 0
1151 -217 0
1151 -232 0
1151 -220 0
1151 -1012 0
1151 -1148 0
1151 -213 0
1152 -231 -1151 0
-1152 231 0
-1152 1151 0
-1153 192 156 225 0
1153 -192 0
1153 -156 0
1153 -225 0
1154 -194 -1153 0
-1154 194 0
-1154 1153 0
-1155 217 232 220 251 1154 213 0
1155 -217 0
1155 -232 0
1155 -220 0
1155 -251 0
1155 -1154 0
1155 -213 0
1156 -250 -1155 0
-1156 250 0
-1156 1155 0
-1157 22 1156 0
1157 -22 0
1157 -1156 0
1158 -24 -1157 0
-1158 24 0
-1158 1157 0
-1159 26 1158 0
1159 -26 0
1159 -1158 0
1160 -28 -1159 0
-1160 28 0
-1160 1159 0
-1161 33 1160 29 0
1161 -33 0
1161 -1160 0
1161 -29 0
1162 -35 -1161 0
-1162 35 0
-1162 1161 0
-1163 37 1152 1 1162 0
1163 -37 0
1163 -1152 0
1163 -1 0
1163 -1162 0
1164 -275 -1163 0
-1164 275 0
-1164 1163 0
-1165 277 1150 1164 0
1165 -277 0
1165 -1150 0
1165 -1164 0
1166 -323 -1165 0
-1166 323 0
-1166 1165 0
-1167 192 156 907 0
1167 -192 0
1167 -156 0
1167 -907 0
1168 -194 -1167 0
-1168 194 0
-1168 1167 0
-1169 217 324 1045 1168 332 0
1169 -217 0
1169 -324 0
1169 -1045 0
1169 -1168 0
1169 -332 0
1170 -231 -1169 0
-1170 231 0
-1170 1169 0
-1171 217 232 220 1012 1154 213 0
1171 -217 0
1171 -232 0
1171 -220 0
1171 -1012 0
1171 -1154 0
1171 -213 0
1172 -219 -1171 0
-1172 219 0
-1172 1171 0
-1173 277 1172 0
1173 -277 0
1173 -1172 0
1174 -338 -1173 0
-1174 338 0
-1174 1173 0
-1175 3 1174 0
1175 -3 0
1175 -1174 0
1176 -2 -1175 0
-1176 2 0
-1176 1175 0
1177 -250 -1169 0
-1177 250 0
-1177 1169 0
-1178 22 1177 0
1178 -22 0
1178 -1177 0
1179 -24 -1178 0
-1179 24 0
-1179 1178 0
-1180 26 1179 0
1180 -26 0
1180 -1179 0
1181 -28 -1180 0
-1181 28 0
-1181 1180 0
-1182 33 1181 29 0
1182 -33 0
1182 -1181 0
1182 -29 0
1183 -35 -1182 0
-1183 35 0
-1183 1182 0
-1184 37 1170 1176 1183 0
1184 -37 0
1184 -1170 0
1184 -1176 0
1184 -1183 0
1185 -39 -1184 0
-1185 39 0
-1185 1184 0
-1186 37 1005 0
1186 -37 0
1186 -1005 0
1187 -84 -1186 0
-1187 84 0
-1187 1186 0
-1188 31 1187 0
1188 -31 0
1188 -1187 0
1189 -87 -1188 0
-1189 87 0
-1189 1188 0
1190 -190 -970 0
-1190 190 0
-1190 970 0
-1191 192 156 1190 0
1191 -192 0
1191 -156 0
1191 -1190 0
1192 -194 -1191 0
-1192 194 0
-1192 1191 0
-1193 217 1189 1012 1192 213 0
1193 -217 0
1193 -1189 0
1193 -1012 0
1193 -1192 0
1193 -213 0
1194 -219 -1193 0
-1194 219 0
-1194 1193 0
1195 -231 -1171 0
-1195 231 0
-1195 1171 0
-1196 37 1195 1162 0
1196 -37 0
1196 -1195 0
1196 -1162 0
1197 -275 -1196 0
-1197 275 0
-1197 1196 0
-1198 277 1194 1197 0
1198 -277 0
1198 -1194 0
1198 -1197 0
1199 -338 -1198 0
-1199 338 0
-1199 1198 0
-1200 3 1199 0
1200 -3 0
1200 -1199 0
1201 -44 -1200 0
-1201 44 0
-1201 1200 0
-1202 46 1166 1185 40 1201 0
1202 -46 0
1202 -1166 0
1202 -1185 0
1202 -40 0
1202 -1201 0
1203 -58 -1202 0
-1203 58 0
-1203 1202 0
-1204 217 1145 1012 256 213 0
1204 -217 0
1204 -1145 0
1204 -1012 0
1204 -256 0
1204 -213 0
1205 -219 -1204 0
-1205 219 0
-1205 1204 0
1206 -231 -1026 0
-1206 231 0
-1206 1026 0
1207 -250 -257 0
-1207 250 0
-1207 257 0
-1208 22 1207 0
1208 -22 0
1208 -1207 0
1209 -24 -1208 0
-1209 24 0
-1209 1208 0
-1210 26 1209 0
1210 -26 0
1210 -1209 0
1211 -28 -1210 0
-1211 28 0
-1211 1210 0
-1212 33 1211 29 0
1212 -33 0
1212 -1211 0
1212 -29 0
1213 -35 -1212 0
-1213 35 0
-1213 1212 0
-1214 37 1206 1 1213 0
1214 -37 0
1214 -1206 0
1214 -1 0
1214 -1213 0
1215 -275 -1214 0
-1215 275 0
-1215 1214 0
-1216 277 1205 1215 0
1216 -277 0
1216 -1205 0
1216 -1215 0
1217 -323 -1216 0
-1217 323 0
-1217 1216 0
1218 -231 -1053 0
-1218 231 0
-1218 1053 0
1219 -219 -1026 0
-1219 219 0
-1219 1026 0
-1220 277 1219 0
1220 -277 0
1220 -1219 0
1221 -338 -1220 0
-1221 338 0
-1221 1220 0
-1222 3 1221 0
1222 -3 0
1222 -1221 0
1223 -2 -1222 0
-1223 2 0
-1223 1222 0
1224 -250 -933 0
-1224 250 0
-1224 933 0
-1225 22 1224 0
1225 -22 0
1225 -1224 0
1226 -24 -1225 0
-1226 24 0
-1226 1225 0
-1227 26 1226 0
1227 -26 0
1227 -1226 0
1228 -28 -1227 0
-1228 28 0
-1228 1227 0
-1229 33 1228 29 0
1229 -33 0
1229 -1228 0
1229 -29 0
1230 -35 -1229 0
-1230 35 0
-1230 1229 0
-1231 37 1218 1223 1230 0
1231 -37 0
1231 -1218 0
1231 -1223 0
1231 -1230 0
1232 -39 -1231 0
-1232 39 0
-1232 1231 0
-1233 217 1189 1012 256 213 0
1233 -217 0
1233 -1189 0
1233 -1012 0
1233 -256 0
1233 -213 0
1234 -219 -1233 0
-1234 219 0
-1234 1233 0
-1235 37 1206 1213 0
1235 -37 0
1235 -1206 0
1235 -1213 0
1236 -275 -1235 0
-1236 275 0
-1236 1235 0
-1237 277 1234 1236 0
1237 -277 0
1237 -1234 0
1237 -1236 0
1238 -338 -1237 0
-1238 338 0
-1238 1237 0
-1239 3 1238 0
1239 -3 0
1239 -1238 0
1240 -44 -1239 0
-1240 44 0
-1240 1239 0
-1241 46 1217 1232 40 1240 0
1241 -46 0
1241 -1217 0
1241 -1232 0
1241 -40 0
1241 -1240 0
1242 -60 -1241 0
-1242 60 0
-1242 1241 0
1243 -48 -494 0
-1243 48 0
-1243 494 0
1244 -275 -1142 0
-1244 275 0
-1244 1142 0
-1245 277 1244 0
1245 -277 0
1245 -1244 0
1246 -323 -1245 0
-1246 323 0
-1246 1245 0
-1247 37 378 1005 0
1247 -37 0
1247 -378 0
1247 -1005 0
1248 -39 -1247 0
-1248 39 0
-1248 1247 0
1249 -275 -1186 0
-1249 275 0
-1249 1186 0
-1250 277 1249 0
1250 -277 0
1250 -1249 0
1251 -338 -1250 0
-1251 338 0
-1251 1250 0
-1252 3 1251 0
1252 -3 0
1252 -1251 0
1253 -44 -1252 0
-1253 44 0
-1253 1252 0
-1254 46 1246 1248 40 1253 0
1254 -46 0
1254 -1246 0
1254 -1248 0
1254 -40 0
1254 -1253 0
1255 -55 -1254 0
-1255 55 0
-1255 1254 0
1256 -84 -769 0
-1256 84 0
-1256 769 0
-1257 31 1255 1256 0
1257 -31 0
1257 -1255 0
1257 -1256 0
1258 -87 -1257 0
-1258 87 0
-1258 1257 0
1259 -275 -144 0
-1259 275 0
-1259 144 0
-1260 277 1259 0
1260 -277 0
1260 -1259 0
1261 -326 -1260 0
-1261 326 0
-1261 1260 0
-1262 123 1261 1010 0
1262 -123 0
1262 -1261 0
1262 -1010 0
1263 -125 -1262 0
-1263 125 0
-1263 1262 0
1264 -330 -1260 0
-1264 330 0
-1264 1260 0
-1265 215 1264 0
1265 -215 0
1265 -1264 0
1266 -214 -1265 0
-1266 214 0
-1266 1265 0
-1267 217 1243 1258 1263 256 1266 0
1267 -217 0
1267 -1243 0
1267 -1258 0
1267 -1263 0
1267 -256 0
1267 -1266 0
1268 -241 -1267 0
-1268 241 0
-1268 1267 0
-1269 217 556 559 1045 256 332 0
1269 -217 0
1269 -556 0
1269 -559 0
1269 -1045 0
1269 -256 0
1269 -332 0
1270 -231 -1269 0
-1270 231 0
-1270 1269 0
1271 -323 -1220 0
-1271 323 0
-1271 1220 0
1272 -44 -1222 0
-1272 44 0
-1272 1222 0
-1273 46 1271 40 1272 0
1273 -46 0
1273 -1271 0
1273 -40 0
1273 -1272 0
1274 -70 -1273 0
-1274 70 0
-1274 1273 0
1275 -250 -1269 0
-1275 250 0
-1275 1269 0
-1276 22 1275 0
1276 -22 0
1276 -1275 0
1277 -24 -1276 0
-1277 24 0
-1277 1276 0
-1278 26 1274 1277 0
1278 -26 0
1278 -1274 0
1278 -1277 0
1279 -28 -1278 0
-1279 28 0
-1279 1278 0
-1280 217 232 324 1012 256 213 0
1280 -217 0
1280 -232 0
1280 -324 0
1280 -1012 0
1280 -256 0
1280 -213 0
1281 -219 -1280 0
-1281 219 0
-1281 1280 0
-1282 277 1281 0
1282 -277 0
1282 -1281 0
1283 -323 -1282 0
-1283 323 0
-1283 1282 0
1284 -338 -1282 0
-1284 338 0
-1284 1282 0
-1285 3 1284 0
1285 -3 0
1285 -1284 0
1286 -44 -1285 0
-1286 44 0
-1286 1285 0
-1287 46 1283 40 1286 0
1287 -46 0
1287 -1283 0
1287 -40 0
1287 -1286 0
1288 -55 -1287 0
-1288 55 0
-1288 1287 0
-1289 31 1288 0
1289 -31 0
1289 -1288 0
1290 -30 -1289 0
-1290 30 0
-1290 1289 0
-1291 33 1279 1290 0
1291 -33 0
1291 -1279 0
1291 -1290 0
1292 -35 -1291 0
-1292 35 0
-1292 1291 0
-1293 37 1270 1223 1292 0
1293 -37 0
1293 -1270 0
1293 -1223 0
1293 -1292 0
1294 -109 -1293 0
-1294 109 0
-1294 1293 0
-1295 6 1242 1268 1294 0
1295 -6 0
1295 -1242 0
1295 -1268 0
1295 -1294 0
1296 -5 -1295 0
-1296 5 0
-1296 1295 0
1297 -64 -1241 0
-1297 64 0
-1297 1241 0
-1298 8 1296 1297 0
1298 -8 0
1298 -1296 0
1298 -1297 0
1299 -10 -1298 0
-1299 10 0
-1299 1298 0
-1300 12 1203 1299 0
1300 -12 0
1300 -1203 0
1300 -1299 0
1301 -16 -1300 0
-1301 16 0
-1301 1300 0
-1302 18 1092 1141 1301 0
1302 -18 0
1302 -1092 0
1302 -1141 0
1302 -1301 0
1303 -1304 -1302 0
-1303 1304 0
-1303 1302 0
-1305 217 47 86 124 193 211 0
1305 -217 0
1305 -47 0
1305 -86 0
1305 -124 0
1305 -193 0
1305 -211 0
1306 -219 -1305 0
-1306 219 0
-1306 1305 0
-1307 217 232 220 223 227 228 0
1307 -217 0
1307 -232 0
1307 -220 0
1307 -223 0
1307 -227 0
1307 -228 0
1308 -231 -1307 0
-1308 231 0
-1308 1307 0
-1309 217 232 220 235 238 0
1309 -217 0
1309 -232 0
1309 -220 0
1309 -235 0
1309 -238 0
1310 -241 -1309 0
-1310 241 0
-1310 1309 0
-1311 6 59 1310 0
1311 -6 0
1311 -59 0
1311 -1310 0
1312 -5 -1311 0
-1312 5 0
-1312 1311 0
-1313 8 1312 63 0
1313 -8 0
1313 -1312 0
1313 -63 0
1314 -10 -1313 0
-1314 10 0
-1314 1313 0
-1315 12 57 1314 0
1315 -12 0
1315 -57 0
1315 -1314 0
1316 -14 -1315 0
-1316 14 0
-1316 1315 0
1317 -250 -1307 0
-1317 250 0
-1317 1307 0
-1318 217 232 220 251 227 228 0
1318 -217 0
1318 -232 0
1318 -220 0
1318 -251 0
1318 -227 0
1318 -228 0
1319 -254 -1318 0
-1319 254 0
-1319 1318 0
-1320 217 232 220 251 256 0
1320 -217 0
1320 -232 0
1320 -220 0
1320 -251 0
1320 -256 0
1321 -241 -1320 0
-1321 241 0
-1321 1320 0
-1322 6 59 1321 0
1322 -6 0
1322 -59 0
1322 -1321 0
1323 -5 -1322 0
-1323 5 0
-1323 1322 0
-1324 8 1323 63 0
1324 -8 0
1324 -1323 0
1324 -63 0
1325 -10 -1324 0
-1325 10 0
-1325 1324 0
-1326 12 57 1325 0
1326 -12 0
1326 -57 0
1326 -1325 0
1327 -16 -1326 0
-1327 16 0
-1327 1326 0
-1328 18 71 1319 1327 0
1328 -18 0
1328 -71 0
1328 -1319 0
1328 -1327 0
1329 -20 -1328 0
-1329 20 0
-1329 1328 0
-1330 22 1317 1329 0
1330 -22 0
1330 -1317 0
1330 -1329 0
1331 -24 -1330 0
-1331 24 0
-1331 1330 0
-1332 26 69 1331 0
1332 -26 0
1332 -69 0
1332 -1331 0
1333 -28 -1332 0
-1333 28 0
-1333 1332 0
-1334 33 1333 104 0
1334 -33 0
1334 -1333 0
1334 -104 0
1335 -35 -1334 0
-1335 35 0
-1335 1334 0
-1336 37 1308 1 1316 1335 0
1336 -37 0
1336 -1308 0
1336 -1 0
1336 -1316 0
1336 -1335 0
1337 -275 -1336 0
-1337 275 0
-1337 1336 0
-1338 277 1306 1337 0
1338 -277 0
1338 -1306 0
1338 -1337 0
1339 -330 -1338 0
-1339 330 0
-1339 1338 0
-1340 215 1339 0
1340 -215 0
1340 -1339 0
1341 -1342 -1340 0
-1341 1342 0
-1341 1340 0
-1343 1344 831 833 1000 1002 1303 1341 0
1343 -1344 0
1343 -831 0
1343 -833 0
1343 -1000 0
1343 -1002 0
1343 -1303 0
1343 -1341 0
1345 -1346 -1343 0
-1345 1346 0
-1345 1343 0
1347 -121 -702 0
-1347 121 0
-1347 702 0
-1348 123 325 1347 0
1348 -123 0
1348 -325 0
1348 -1347 0
1349 -125 -1348 0
-1349 125 0
-1349 1348 0
1350 -155 -700 0
-1350 155 0
-1350 700 0
1351 -190 -695 0
-1351 190 0
-1351 695 0
-1352 192 1350 156 1351 0
1352 -192 0
1352 -1350 0
1352 -156 0
1352 -1351 0
1353 -194 -1352 0
-1353 194 0
-1353 1352 0
1354 -212 -697 0
-1354 212 0
-1354 697 0
-1355 217 556 559 1349 1353 1354 332 0
1355 -217 0
1355 -556 0
1355 -559 0
1355 -1349 0
1355 -1353 0
1355 -1354 0
1355 -332 0
1356 -231 -1355 0
-1356 231 0
-1356 1355 0
1357 -219 -248 0
-1357 219 0
-1357 248 0
-1358 277 1357 0
1358 -277 0
1358 -1357 0
1359 -338 -1358 0
-1359 338 0
-1359 1358 0
-1360 3 1359 0
1360 -3 0
1360 -1359 0
1361 -2 -1360 0
-1361 2 0
-1361 1360 0
1362 -323 -916 0
-1362 323 0
-1362 916 0
1363 -44 -918 0
-1363 44 0
-1363 918 0
-1364 46 1362 40 1363 0
1364 -46 0
1364 -1362 0
1364 -40 0
1364 -1363 0
1365 -58 -1364 0
-1365 58 0
-1365 1364 0
1366 -60 -608 0
-1366 60 0
-1366 608 0
1367 -121 -785 0
-1367 121 0
-1367 785 0
-1368 123 325 1367 0
1368 -123 0
1368 -325 0
1368 -1367 0
1369 -125 -1368 0
-1369 125 0
-1369 1368 0
1370 -155 -783 0
-1370 155 0
-1370 783 0
-1371 192 1370 156 0
1371 -192 0
1371 -1370 0
1371 -156 0
1372 -194 -1371 0
-1372 194 0
-1372 1371 0
-1373 217 556 559 1369 1372 332 0
1373 -217 0
1373 -556 0
1373 -559 0
1373 -1369 0
1373 -1372 0
1373 -332 0
1374 -241 -1373 0
-1374 241 0
-1374 1373 0
-1375 6 1366 1374 0
1375 -6 0
1375 -1366 0
1375 -1374 0
1376 -5 -1375 0
-1376 5 0
-1376 1375 0
-1377 8 1376 609 0
1377 -8 0
1377 -1376 0
1377 -609 0
1378 -10 -1377 0
-1378 10 0
-1378 1377 0
-1379 12 1365 1378 0
1379 -12 0
1379 -1365 0
1379 -1378 0
1380 -14 -1379 0
-1380 14 0
-1380 1379 0
1381 -70 -1364 0
-1381 70 0
-1381 1364 0
1382 -250 -1355 0
-1382 250 0
-1382 1355 0
1383 -219 -887 0
-1383 219 0
-1383 887 0
-1384 277 1383 0
1384 -277 0
1384 -1383 0
1385 -323 -1384 0
-1385 323 0
-1385 1384 0
1386 -338 -1384 0
-1386 338 0
-1386 1384 0
-1387 3 1386 0
1387 -3 0
1387 -1386 0
1388 -44 -1387 0
-1388 44 0
-1388 1387 0
-1389 46 1385 40 1388 0
1389 -46 0
1389 -1385 0
1389 -40 0
1389 -1388 0
1390 -72 -1389 0
-1390 72 0
-1390 1389 0
-1391 217 556 559 343 1353 1354 332 0
1391 -217 0
1391 -556 0
1391 -559 0
1391 -343 0
1391 -1353 0
1391 -1354 0
1391 -332 0
1392 -254 -1391 0
-1392 254 0
-1392 1391 0
1393 -219 -1155 0
-1393 219 0
-1393 1155 0
-1394 277 1393 0
1394 -277 0
1394 -1393 0
1395 -323 -1394 0
-1395 323 0
-1395 1394 0
1396 -338 -1394 0
-1396 338 0
-1396 1394 0
-1397 3 1396 0
1397 -3 0
1397 -1396 0
1398 -44 -1397 0
-1398 44 0
-1398 1397 0
-1399 46 1395 40 1398 0
1399 -46 0
1399 -1395 0
1399 -40 0
1399 -1398 0
1400 -58 -1399 0
-1400 58 0
-1400 1399 0
1401 -60 -635 0
-1401 60 0
-1401 635 0
1402 -241 -1269 0
-1402 241 0
-1402 1269 0
-1403 6 1401 1402 0
1403 -6 0
1403 -1401 0
1403 -1402 0
1404 -5 -1403 0
-1404 5 0
-1404 1403 0
1405 -219 -257 0
-1405 219 0
-1405 257 0
-1406 277 1405 0
1406 -277 0
1406 -1405 0
1407 -323 -1406 0
-1407 323 0
-1407 1406 0
1408 -338 -1406 0
-1408 338 0
-1408 1406 0
-1409 3 1408 0
1409 -3 0
1409 -1408 0
1410 -44 -1409 0
-1410 44 0
-1410 1409 0
-1411 46 1407 40 1410 0
1411 -46 0
1411 -1407 0
1411 -40 0
1411 -1410 0
1412 -64 -1411 0
-1412 64 0
-1412 1411 0
-1413 8 1404 1412 0
1413 -8 0
1413 -1404 0
1413 -1412 0
1414 -10 -1413 0
-1414 10 0
-1414 1413 0
-1415 12 1400 1414 0
1415 -12 0
1415 -1400 0
1415 -1414 0
1416 -16 -1415 0
-1416 16 0
-1416 1415 0
-1417 18 1390 1392 1416 0
1417 -18 0
1417 -1390 0
1417 -1392 0
1417 -1416 0
1418 -20 -1417 0
-1418 20 0
-1418 1417 0
-1419 22 1382 1418 0
1419 -22 0
1419 -1382 0
1419 -1418 0
1420 -24 -1419 0
-1420 24 0
-1420 1419 0
-1421 26 1381 1420 0
1421 -26 0
1421 -1381 0
1421 -1420 0
1422 -28 -1421 0
-1422 28 0
-1422 1421 0
-1423 217 232 324 913 885 886 213 0
1423 -217 0
1423 -232 0
1423 -324 0
1423 -913 0
1423 -885 0
1423 -886 0
1423 -213 0
1424 -219 -1423 0
-1424 219 0
-1424 1423 0
-1425 277 1424 0
1425 -277 0
1425 -1424 0
1426 -323 -1425 0
-1426 323 0
-1426 1425 0
1427 -338 -1425 0
-1427 338 0
-1427 1425 0
-1428 3 1427 0
1428 -3 0
1428 -1427 0
1429 -44 -1428 0
-1429 44 0
-1429 1428 0
-1430 46 1426 40 1429 0
1430 -46 0
1430 -1426 0
1430 -40 0
1430 -1429 0
1431 -55 -1430 0
-1431 55 0
-1431 1430 0
-1432 31 1431 0
1432 -31 0
1432 -1431 0
1433 -30 -1432 0
-1433 30 0
-1433 1432 0
-1434 33 1422 1433 0
1434 -33 0
1434 -1422 0
1434 -1433 0
1435 -35 -1434 0
-1435 35 0
-1435 1434 0
-1436 37 1356 1361 1380 1435 0
1436 -37 0
1436 -1356 0
1436 -1361 0
1436 -1380 0
1436 -1435 0
1437 -1438 -1436 0
-1437 1438 0
-1437 1436 0
-1439 217 47 86 193 211 213 0
1439 -217 0
1439 -47 0
1439 -86 0
1439 -193 0
1439 -211 0
1439 -213 0
1440 -219 -1439 0
-1440 219 0
-1440 1439 0
-1441 217 232 220 227 228 213 0
1441 -217 0
1441 -232 0
1441 -220 0
1441 -227 0
1441 -228 0
1441 -213 0
1442 -231 -1441 0
-1442 231 0
-1442 1441 0
-1443 217 232 220 238 213 0
1443 -217 0
1443 -232 0
1443 -220 0
1443 -238 0
1443 -213 0
1444 -241 -1443 0
-1444 241 0
-1444 1443 0
-1445 6 59 1444 0
1445 -6 0
1445 -59 0
1445 -1444 0
1446 -5 -1445 0
-1446 5 0
-1446 1445 0
-1447 8 1446 63 0
1447 -8 0
1447 -1446 0
1447 -63 0
1448 -10 -1447 0
-1448 10 0
-1448 1447 0
-1449 12 57 1448 0
1449 -12 0
1449 -57 0
1449 -1448 0
1450 -14 -1449 0
-1450 14 0
-1450 1449 0
1451 -250 -1441 0
-1451 250 0
-1451 1441 0
1452 -254 -1441 0
-1452 254 0
-1452 1441 0
-1453 217 232 220 256 213 0
1453 -217 0
1453 -232 0
1453 -220 0
1453 -256 0
1453 -213 0
1454 -241 -1453 0
-1454 241 0
-1454 1453 0
-1455 6 59 1454 0
1455 -6 0
1455 -59 0
1455 -1454 0
1456 -5 -1455 0
-1456 5 0
-1456 1455 0
-1457 8 1456 63 0
1457 -8 0
1457 -1456 0
1457 -63 0
1458 -10 -1457 0
-1458 10 0
-1458 1457 0
-1459 12 57 1458 0
1459 -12 0
1459 -57 0
1459 -1458 0
1460 -16 -1459 0
-1460 16 0
-1460 1459 0
-1461 18 71 1452 1460 0
1461 -18 0
1461 -71 0
1461 -1452 0
1461 -1460 0
1462 -20 -1461 0
-1462 20 0
-1462 1461 0
-1463 22 1451 1462 0
1463 -22 0
1463 -1451 0
1463 -1462 0
1464 -24 -1463 0
-1464 24 0
-1464 1463 0
-1465 26 69 1464 0
1465 -26 0
1465 -69 0
1465 -1464 0
1466 -28 -1465 0
-1466 28 0
-1466 1465 0
-1467 33 1466 104 0
1467 -33 0
1467 -1466 0
1467 -104 0
1468 -35 -1467 0
-1468 35 0
-1468 1467 0
-1469 37 1442 1 1450 1468 0
1469 -37 0
1469 -1442 0
1469 -1 0
1469 -1450 0
1469 -1468 0
1470 -275 -1469 0
-1470 275 0
-1470 1469 0
-1471 277 1440 1470 0
1471 -277 0
1471 -1440 0
1471 -1470 0
1472 -326 -1471 0
-1472 326 0
-1472 1471 0
1473 -48 -729 0
-1473 48 0
-1473 729 0
-1474 33 88 0
1474 -33 0
1474 -88 0
1475 -35 -1474 0
-1475 35 0
-1475 1474 0
-1476 37 1 13 1475 0
1476 -37 0
1476 -1 0
1476 -13 0
1476 -1475 0
1477 -275 -1476 0
-1477 275 0
-1477 1476 0
-1478 277 1477 0
1478 -277 0
1478 -1477 0
1479 -323 -1478 0
-1479 323 0
-1479 1478 0
-1480 37 378 13 1475 0
1480 -37 0
1480 -378 0
1480 -13 0
1480 -1475 0
1481 -39 -1480 0
-1481 39 0
-1481 1480 0
-1482 37 13 1475 0
1482 -37 0
1482 -13 0
1482 -1475 0
1483 -275 -1482 0
-1483 275 0
-1483 1482 0
-1484 277 1483 0
1484 -277 0
1484 -1483 0
1485 -338 -1484 0
-1485 338 0
-1485 1484 0
-1486 3 1485 0
1486 -3 0
1486 -1485 0
1487 -44 -1486 0
-1487 44 0
-1487 1486 0
-1488 46 1479 1481 40 1487 0
1488 -46 0
1488 -1479 0
1488 -1481 0
1488 -40 0
1488 -1487 0
1489 -55 -1488 0
-1489 55 0
-1489 1488 0
-1490 37 378 698 736 0
1490 -37 0
1490 -378 0
1490 -698 0
1490 -736 0
1491 -84 -1490 0
-1491 84 0
-1491 1490 0
-1492 31 1489 1491 0
1492 -31 0
1492 -1489 0
1492 -1491 0
1493 -87 -1492 0
-1493 87 0
-1493 1492 0
1494 -155 -745 0
-1494 155 0
-1494 745 0
-1495 37 1 158 90 0
1495 -37 0
1495 -1 0
1495 -158 0
1495 -90 0
1496 -275 -1495 0
-1496 275 0
-1496 1495 0
-1497 277 1496 0
1497 -277 0
1497 -1496 0
1498 -323 -1497 0
-1498 323 0
-1498 1497 0
-1499 37 378 158 90 0
1499 -37 0
1499 -378 0
1499 -158 0
1499 -90 0
1500 -39 -1499 0
-1500 39 0
-1500 1499 0
-1501 37 158 90 0
1501 -37 0
1501 -158 0
1501 -90 0
1502 -275 -1501 0
-1502 275 0
-1502 1501 0
-1503 277 1502 0
1503 -277 0
1503 -1502 0
1504 -338 -1503 0
-1504 338 0
-1504 1503 0
-1505 3 1504 0
1505 -3 0
1505 -1504 0
1506 -44 -1505 0
-1506 44 0
-1506 1505 0
-1507 46 1498 1500 40 1506 0
1507 -46 0
1507 -1498 0
1507 -1500 0
1507 -40 0
1507 -1506 0
1508 -60 -1507 0
-1508 60 0
-1508 1507 0
-1509 37 378 781 736 0
1509 -37 0
1509 -378 0
1509 -781 0
1509 -736 0
1510 -109 -1509 0
-1510 109 0
-1510 1509 0
-1511 6 1508 1510 0
1511 -6 0
1511 -1508 0
1511 -1510 0
1512 -5 -1511 0
-1512 5 0
-1512 1511 0
1513 -64 -1507 0
-1513 64 0
-1513 1507 0
-1514 8 1512 1513 0
1514 -8 0
1514 -1512 0
1514 -1513 0
1515 -190 -1514 0
-1515 190 0
-1515 1514 0
-1516 192 1494 156 1515 0
1516 -192 0
1516 -1494 0
1516 -156 0
1516 -1515 0
1517 -194 -1516 0
-1517 194 0
-1517 1516 0
1518 -212 -743 0
-1518 212 0
-1518 743 0
1519 -275 -1490 0
-1519 275 0
-1519 1490 0
-1520 277 1519 0
1520 -277 0
1520 -1519 0
1521 -330 -1520 0
-1521 330 0
-1521 1520 0
-1522 215 1521 0
1522 -215 0
1522 -1521 0
1523 -214 -1522 0
-1523 214 0
-1523 1522 0
-1524 217 1473 1493 1517 1518 1523 0
1524 -217 0
1524 -1473 0
1524 -1493 0
1524 -1517 0
1524 -1518 0
1524 -1523 0
1525 -250 -1524 0
-1525 250 0
-1525 1524 0
1526 -84 -1476 0
-1526 84 0
-1526 1476 0
-1527 31 1526 0
1527 -31 0
1527 -1526 0
1528 -87 -1527 0
-1528 87 0
-1528 1527 0
1529 -109 -1495 0
-1529 109 0
-1529 1495 0
-1530 6 1529 0
1530 -6 0
1530 -1529 0
1531 -5 -1530 0
-1531 5 0
-1531 1530 0
-1532 8 1531 0
1532 -8 0
1532 -1531 0
1533 -190 -1532 0
-1533 190 0
-1533 1532 0
-1534 192 156 1533 0
1534 -192 0
1534 -156 0
1534 -1533 0
1535 -194 -1534 0
-1535 194 0
-1535 1534 0
1536 -212 -843 0
-1536 212 0
-1536 843 0
-1537 217 1528 1535 1536 213 0
1537 -217 0
1537 -1528 0
1537 -1535 0
1537 -1536 0
1537 -213 0
1538 -219 -1537 0
-1538 219 0
-1538 1537 0
-1539 217 232 220 885 886 213 0
1539 -217 0
1539 -232 0
1539 -220 0
1539 -885 0
1539 -886 0
1539 -213 0
1540 -231 -1539 0
-1540 231 0
-1540 1539 0
-1541 12 1458 0
1541 -12 0
1541 -1458 0
1542 -14 -1541 0
-1542 14 0
-1542 1541 0
-1543 37 1540 1 1542 90 0
1543 -37 0
1543 -1540 0
1543 -1 0
1543 -1542 0
1543 -90 0
1544 -275 -1543 0
-1544 275 0
-1544 1543 0
-1545 277 1538 1544 0
1545 -277 0
1545 -1538 0
1545 -1544 0
1546 -323 -1545 0
-1546 323 0
-1546 1545 0
-1547 217 324 909 886 332 0
1547 -217 0
1547 -324 0
1547 -909 0
1547 -886 0
1547 -332 0
1548 -231 -1547 0
-1548 231 0
-1548 1547 0
1549 -219 -1539 0
-1549 219 0
-1549 1539 0
-1550 277 1549 0
1550 -277 0
1550 -1549 0
1551 -338 -1550 0
-1551 338 0
-1551 1550 0
-1552 3 1551 0
1552 -3 0
1552 -1551 0
1553 -2 -1552 0
-1553 2 0
-1553 1552 0
-1554 217 324 256 332 0
1554 -217 0
1554 -324 0
1554 -256 0
1554 -332 0
1555 -241 -1554 0
-1555 241 0
-1555 1554 0
-1556 6 1555 0
1556 -6 0
1556 -1555 0
1557 -5 -1556 0
-1557 5 0
-1557 1556 0
-1558 8 1557 0
1558 -8 0
1558 -1557 0
1559 -10 -1558 0
-1559 10 0
-1559 1558 0
-1560 12 1559 0
1560 -12 0
1560 -1559 0
1561 -14 -1560 0
-1561 14 0
-1561 1560 0
-1562 37 1548 1553 1561 90 0
1562 -37 0
1562 -1548 0
1562 -1553 0
1562 -1561 0
1562 -90 0
1563 -39 -1562 0
-1563 39 0
-1563 1562 0
1564 -84 -1482 0
-1564 84 0
-1564 1482 0
-1565 31 1564 0
1565 -31 0
1565 -1564 0
1566 -87 -1565 0
-1566 87 0
-1566 1565 0
1567 -109 -1501 0
-1567 109 0
-1567 1501 0
-1568 6 1567 0
1568 -6 0
1568 -1567 0
1569 -5 -1568 0
-1569 5 0
-1569 1568 0
-1570 8 1569 0
1570 -8 0
1570 -1569 0
1571 -190 -1570 0
-1571 190 0
-1571 1570 0
-1572 192 156 1571 0
1572 -192 0
1572 -156 0
1572 -1571 0
1573 -194 -1572 0
-1573 194 0
-1573 1572 0
1574 -212 -959 0
-1574 212 0
-1574 959 0
-1575 217 1566 1573 1574 213 0
1575 -217 0
1575 -1566 0
1575 -1573 0
1575 -1574 0
1575 -213 0
1576 -219 -1575 0
-1576 219 0
-1576 1575 0
-1577 37 1540 1542 90 0
1577 -37 0
1577 -1540 0
1577 -1542 0
1577 -90 0
1578 -275 -1577 0
-1578 275 0
-1578 1577 0
-1579 277 1576 1578 0
1579 -277 0
1579 -1576 0
1579 -1578 0
1580 -338 -1579 0
-1580 338 0
-1580 1579 0
-1581 3 1580 0
1581 -3 0
1581 -1580 0
1582 -44 -1581 0
-1582 44 0
-1582 1581 0
-1583 46 1546 1563 40 1582 0
1583 -46 0
1583 -1546 0
1583 -1563 0
1583 -40 0
1583 -1582 0
1584 -72 -1583 0
-1584 72 0
-1584 1583 0
-1585 192 156 1515 0
1585 -192 0
1585 -156 0
1585 -1515 0
1586 -194 -1585 0
-1586 194 0
-1586 1585 0
-1587 217 1473 1493 1586 1518 1523 0
1587 -217 0
1587 -1473 0
1587 -1493 0
1587 -1586 0
1587 -1518 0
1587 -1523 0
1588 -254 -1587 0
-1588 254 0
-1588 1587 0
-1589 37 1 1475 0
1589 -37 0
1589 -1 0
1589 -1475 0
1590 -84 -1589 0
-1590 84 0
-1590 1589 0
-1591 31 1590 0
1591 -31 0
1591 -1590 0
1592 -87 -1591 0
-1592 87 0
-1592 1591 0
1593 -190 -841 0
-1593 190 0
-1593 841 0
-1594 192 156 1593 0
1594 -192 0
1594 -156 0
1594 -1593 0
1595 -194 -1594 0
-1595 194 0
-1595 1594 0
-1596 217 1592 1595 213 0
1596 -217 0
1596 -1592 0
1596 -1595 0
1596 -213 0
1597 -219 -1596 0
-1597 219 0
-1597 1596 0
-1598 217 232 220 1154 213 0
1598 -217 0
1598 -232 0
1598 -220 0
1598 -1154 0
1598 -213 0
1599 -231 -1598 0
-1599 231 0
-1599 1598 0
-1600 37 1599 1 90 0
1600 -37 0
1600 -1599 0
1600 -1 0
1600 -90 0
1601 -275 -1600 0
-1601 275 0
-1601 1600 0
-1602 277 1597 1601 0
1602 -277 0
1602 -1597 0
1602 -1601 0
1603 -323 -1602 0
-1603 323 0
-1603 1602 0
-1604 217 324 1168 332 0
1604 -217 0
1604 -324 0
1604 -1168 0
1604 -332 0
1605 -231 -1604 0
-1605 231 0
-1605 1604 0
1606 -219 -1598 0
-1606 219 0
-1606 1598 0
-1607 277 1606 0
1607 -277 0
1607 -1606 0
1608 -338 -1607 0
-1608 338 0
-1608 1607 0
-1609 3 1608 0
1609 -3 0
1609 -1608 0
1610 -2 -1609 0
-1610 2 0
-1610 1609 0
-1611 37 1605 1610 90 0
1611 -37 0
1611 -1605 0
1611 -1610 0
1611 -90 0
1612 -39 -1611 0
-1612 39 0
-1612 1611 0
-1613 37 1475 0
1613 -37 0
1613 -1475 0
1614 -84 -1613 0
-1614 84 0
-1614 1613 0
-1615 31 1614 0
1615 -31 0
1615 -1614 0
1616 -87 -1615 0
-1616 87 0
-1616 1615 0
1617 -190 -957 0
-1617 190 0
-1617 957 0
-1618 192 156 1617 0
1618 -192 0
1618 -156 0
1618 -1617 0
1619 -194 -1618 0
-1619 194 0
-1619 1618 0
-1620 217 1616 1619 213 0
1620 -217 0
1620 -1616 0
1620 -1619 0
1620 -213 0
1621 -219 -1620 0
-1621 219 0
-1621 1620 0
-1622 37 1599 90 0
1622 -37 0
1622 -1599 0
1622 -90 0
1623 -275 -1622 0
-1623 275 0
-1623 1622 0
-1624 277 1621 1623 0
1624 -277 0
1624 -1621 0
1624 -1623 0
1625 -338 -1624 0
-1625 338 0
-1625 1624 0
-1626 3 1625 0
1626 -3 0
1626 -1625 0
1627 -44 -1626 0
-1627 44 0
-1627 1626 0
-1628 46 1603 1612 40 1627 0
1628 -46 0
1628 -1603 0
1628 -1612 0
1628 -40 0
1628 -1627 0
1629 -58 -1628 0
-1629 58 0
-1629 1628 0
-1630 217 1592 256 213 0
1630 -217 0
1630 -1592 0
1630 -256 0
1630 -213 0
1631 -219 -1630 0
-1631 219 0
-1631 1630 0
1632 -231 -1453 0
-1632 231 0
-1632 1453 0
-1633 37 1632 1 90 0
1633 -37 0
1633 -1632 0
1633 -1 0
1633 -90 0
1634 -275 -1633 0
-1634 275 0
-1634 1633 0
-1635 277 1631 1634 0
1635 -277 0
1635 -1631 0
1635 -1634 0
1636 -323 -1635 0
-1636 323 0
-1636 1635 0
1637 -231 -1554 0
-1637 231 0
-1637 1554 0
1638 -219 -1453 0
-1638 219 0
-1638 1453 0
-1639 277 1638 0
1639 -277 0
1639 -1638 0
1640 -338 -1639 0
-1640 338 0
-1640 1639 0
-1641 3 1640 0
1641 -3 0
1641 -1640 0
1642 -2 -1641 0
-1642 2 0
-1642 1641 0
-1643 37 1637 1642 90 0
1643 -37 0
1643 -1637 0
1643 -1642 0
1643 -90 0
1644 -39 -1643 0
-1644 39 0
-1644 1643 0
-1645 217 1616 256 213 0
1645 -217 0
1645 -1616 0
1645 -256 0
1645 -213 0
1646 -219 -1645 0
-1646 219 0
-1646 1645 0
-1647 37 1632 90 0
1647 -37 0
1647 -1632 0
1647 -90 0
1648 -275 -1647 0
-1648 275 0
-1648 1647 0
-1649 277 1646 1648 0
1649 -277 0
1649 -1646 0
1649 -1648 0
1650 -338 -1649 0
-1650 338 0
-1650 1649 0
-1651 3 1650 0
1651 -3 0
1651 -1650 0
1652 -44 -1651 0
-1652 44 0
-1652 1651 0
-1653 46 1636 1644 40 1652 0
1653 -46 0
1653 -1636 0
1653 -1644 0
1653 -40 0
1653 -1652 0
1654 -60 -1653 0
-1654 60 0
-1654 1653 0
1655 -48 -456 0
-1655 48 0
-1655 456 0
1656 -275 -1589 0
-1656 275 0
-1656 1589 0
-1657 277 1656 0
1657 -277 0
1657 -1656 0
1658 -323 -1657 0
-1658 323 0
-1658 1657 0
-1659 37 378 1475 0
1659 -37 0
1659 -378 0
1659 -1475 0
1660 -39 -1659 0
-1660 39 0
-1660 1659 0
1661 -275 -1613 0
-1661 275 0
-1661 1613 0
-1662 277 1661 0
1662 -277 0
1662 -1661 0
1663 -338 -1662 0
-1663 338 0
-1663 1662 0
-1664 3 1663 0
1664 -3 0
1664 -1663 0
1665 -44 -1664 0
-1665 44 0
-1665 1664 0
-1666 46 1658 1660 40 1665 0
1666 -46 0
1666 -1658 0
1666 -1660 0
1666 -40 0
1666 -1665 0
1667 -55 -1666 0
-1667 55 0
-1667 1666 0
1668 -84 -737 0
-1668 84 0
-1668 737 0
-1669 31 1667 1668 0
1669 -31 0
1669 -1667 0
1669 -1668 0
1670 -87 -1669 0
-1670 87 0
-1670 1669 0
1671 -275 -107 0
-1671 275 0
-1671 107 0
-1672 277 1671 0
1672 -277 0
1672 -1671 0
1673 -330 -1672 0
-1673 330 0
-1673 1672 0
-1674 215 1673 0
1674 -215 0
1674 -1673 0
1675 -214 -1674 0
-1675 214 0
-1675 1674 0
-1676 217 1655 1670 256 1675 0
1676 -217 0
1676 -1655 0
1676 -1670 0
1676 -256 0
1676 -1675 0
1677 -241 -1676 0
-1677 241 0
-1677 1676 0
-1678 217 556 559 256 332 0
1678 -217 0
1678 -556 0
1678 -559 0
1678 -256 0
1678 -332 0
1679 -231 -1678 0
-1679 231 0
-1679 1678 0
1680 -323 -1639 0
-1680 323 0
-1680 1639 0
1681 -44 -1641 0
-1681 44 0
-1681 1641 0
-1682 46 1680 40 1681 0
1682 -46 0
1682 -1680 0
1682 -40 0
1682 -1681 0
1683 -70 -1682 0
-1683 70 0
-1683 1682 0
-1684 26 1683 0
1684 -26 0
1684 -1683 0
1685 -28 -1684 0
-1685 28 0
-1685 1684 0
1686 -219 -1554 0
-1686 219 0
-1686 1554 0
-1687 277 1686 0
1687 -277 0
1687 -1686 0
1688 -323 -1687 0
-1688 323 0
-1688 1687 0
1689 -338 -1687 0
-1689 338 0
-1689 1687 0
-1690 3 1689 0
1690 -3 0
1690 -1689 0
1691 -44 -1690 0
-1691 44 0
-1691 1690 0
-1692 46 1688 40 1691 0
1692 -46 0
1692 -1688 0
1692 -40 0
1692 -1691 0
1693 -55 -1692 0
-1693 55 0
-1693 1692 0
-1694 31 1693 0
1694 -31 0
1694 -1693 0
1695 -30 -1694 0
-1695 30 0
-1695 1694 0
-1696 33 1685 1695 0
1696 -33 0
1696 -1685 0
1696 -1695 0
1697 -35 -1696 0
-1697 35 0
-1697 1696 0
-1698 37 1679 1642 1697 0
1698 -37 0
1698 -1679 0
1698 -1642 0
1698 -1697 0
1699 -109 -1698 0
-1699 109 0
-1699 1698 0
-1700 6 1654 1677 1699 0
1700 -6 0
1700 -1654 0
1700 -1677 0
1700 -1699 0
1701 -5 -1700 0
-1701 5 0
-1701 1700 0
1702 -64 -1653 0
-1702 64 0
-1702 1653 0
-1703 8 1701 1702 0
1703 -8 0
1703 -1701 0
1703 -1702 0
1704 -10 -1703 0
-1704 10 0
-1704 1703 0
-1705 12 1629 1704 0
1705 -12 0
1705 -1629 0
1705 -1704 0
1706 -16 -1705 0
-1706 16 0
-1706 1705 0
-1707 18 1584 1588 1706 0
1707 -18 0
1707 -1584 0
1707 -1588 0
1707 -1706 0
1708 -20 -1707 0
-1708 20 0
-1708 1707 0
-1709 22 1525 1708 0
1709 -22 0
1709 -1525 0
1709 -1708 0
1710 -121 -1709 0
-1710 121 0
-1710 1709 0
-1711 123 1472 1710 0
1711 -123 0
1711 -1472 0
1711 -1710 0
1712 -1713 -1711 0
-1712 1713 0
-1712 1711 0
1714 -1715 -1302 0
-1714 1715 0
-1714 1302 0
1716 -326 -1520 0
-1716 326 0
-1716 1520 0
-1717 123 1716 0
1717 -123 0
1717 -1716 0
1718 -125 -1717 0
-1718 125 0
-1718 1717 0
-1719 217 1473 1493 1718 1517 1518 1523 0
1719 -217 0
1719 -1473 0
1719 -1493 0
1719 -1718 0
1719 -1517 0
1719 -1518 0
1719 -1523 0
1720 -250 -1719 0
-1720 250 0
-1720 1719 0
-1721 217 1528 251 1535 1536 213 0
1721 -217 0
1721 -1528 0
1721 -251 0
1721 -1535 0
1721 -1536 0
1721 -213 0
1722 -219 -1721 0
-1722 219 0
-1722 1721 0
1723 -231 -887 0
-1723 231 0
-1723 887 0
1724 -14 -890 0
-1724 14 0
-1724 890 0
-1725 37 1723 1 1724 90 0
1725 -37 0
1725 -1723 0
1725 -1 0
1725 -1724 0
1725 -90 0
1726 -275 -1725 0
-1726 275 0
-1726 1725 0
-1727 277 1722 1726 0
1727 -277 0
1727 -1722 0
1727 -1726 0
1728 -323 -1727 0
-1728 323 0
-1728 1727 0
1729 -231 -931 0
-1729 231 0
-1729 931 0
1730 -2 -1387 0
-1730 2 0
-1730 1387 0
1731 -14 -939 0
-1731 14 0
-1731 939 0
-1732 37 1729 1730 1731 90 0
1732 -37 0
1732 -1729 0
1732 -1730 0
1732 -1731 0
1732 -90 0
1733 -39 -1732 0
-1733 39 0
-1733 1732 0
-1734 217 1566 251 1573 1574 213 0
1734 -217 0
1734 -1566 0
1734 -251 0
1734 -1573 0
1734 -1574 0
1734 -213 0
1735 -219 -1734 0
-1735 219 0
-1735 1734 0
-1736 37 1723 1724 90 0
1736 -37 0
1736 -1723 0
1736 -1724 0
1736 -90 0
1737 -275 -1736 0
-1737 275 0
-1737 1736 0
-1738 277 1735 1737 0
1738 -277 0
1738 -1735 0
1738 -1737 0
1739 -338 -1738 0
-1739 338 0
-1739 1738 0
-1740 3 1739 0
1740 -3 0
1740 -1739 0
1741 -44 -1740 0
-1741 44 0
-1741 1740 0
-1742 46 1728 1733 40 1741 0
1742 -46 0
1742 -1728 0
1742 -1733 0
1742 -40 0
1742 -1741 0
1743 -72 -1742 0
-1743 72 0
-1743 1742 0
-1744 217 1473 1493 1718 1586 1518 1523 0
1744 -217 0
1744 -1473 0
1744 -1493 0
1744 -1718 0
1744 -1586 0
1744 -1518 0
1744 -1523 0
1745 -254 -1744 0
-1745 254 0
-1745 1744 0
-1746 217 1592 251 1595 213 0
1746 -217 0
1746 -1592 0
1746 -251 0
1746 -1595 0
1746 -213 0
1747 -219 -1746 0
-1747 219 0
-1747 1746 0
1748 -231 -1155 0
-1748 231 0
-1748 1155 0
-1749 37 1748 1 90 0
1749 -37 0
1749 -1748 0
1749 -1 0
1749 -90 0
1750 -275 -1749 0
-1750 275 0
-1750 1749 0
-1751 277 1747 1750 0
1751 -277 0
1751 -1747 0
1751 -1750 0
1752 -323 -1751 0
-1752 323 0
-1752 1751 0
1753 -2 -1397 0
-1753 2 0
-1753 1397 0
-1754 37 1170 1753 90 0
1754 -37 0
1754 -1170 0
1754 -1753 0
1754 -90 0
1755 -39 -1754 0
-1755 39 0
-1755 1754 0
-1756 217 1616 251 1619 213 0
1756 -217 0
1756 -1616 0
1756 -251 0
1756 -1619 0
1756 -213 0
1757 -219 -1756 0
-1757 219 0
-1757 1756 0
-1758 37 1748 90 0
1758 -37 0
1758 -1748 0
1758 -90 0
1759 -275 -1758 0
-1759 275 0
-1759 1758 0
-1760 277 1757 1759 0
1760 -277 0
1760 -1757 0
1760 -1759 0
1761 -338 -1760 0
-1761 338 0
-1761 1760 0
-1762 3 1761 0
1762 -3 0
1762 -1761 0
1763 -44 -1762 0
-1763 44 0
-1763 1762 0
-1764 46 1752 1755 40 1763 0
1764 -46 0
1764 -1752 0
1764 -1755 0
1764 -40 0
1764 -1763 0
1765 -58 -1764 0
-1765 58 0
-1765 1764 0
-1766 217 1592 251 256 213 0
1766 -217 0
1766 -1592 0
1766 -251 0
1766 -256 0
1766 -213 0
1767 -219 -1766 0
-1767 219 0
-1767 1766 0
1768 -231 -257 0
-1768 231 0
-1768 257 0
-1769 37 1768 1 90 0
1769 -37 0
1769 -1768 0
1769 -1 0
1769 -90 0
1770 -275 -1769 0
-1770 275 0
-1770 1769 0
-1771 277 1767 1770 0
1771 -277 0
1771 -1767 0
1771 -1770 0
1772 -323 -1771 0
-1772 323 0
-1772 1771 0
1773 -231 -933 0
-1773 231 0
-1773 933 0
1774 -2 -633 0
-1774 2 0
-1774 633 0
-1775 37 1773 1774 90 0
1775 -37 0
1775 -1773 0
1775 -1774 0
1775 -90 0
1776 -39 -1775 0
-1776 39 0
-1776 1775 0
-1777 217 1616 251 256 213 0
1777 -217 0
1777 -1616 0
1777 -251 0
1777 -256 0
1777 -213 0
1778 -219 -1777 0
-1778 219 0
-1778 1777 0
-1779 37 1768 90 0
1779 -37 0
1779 -1768 0
1779 -90 0
1780 -275 -1779 0
-1780 275 0
-1780 1779 0
-1781 277 1778 1780 0
1781 -277 0
1781 -1778 0
1781 -1780 0
1782 -338 -1781 0
-1782 338 0
-1782 1781 0
-1783 3 1782 0
1783 -3 0
1783 -1782 0
1784 -44 -1783 0
-1784 44 0
-1784 1783 0
-1785 46 1772 1776 40 1784 0
1785 -46 0
1785 -1772 0
1785 -1776 0
1785 -40 0
1785 -1784 0
1786 -60 -1785 0
-1786 60 0
-1786 1785 0
1787 -326 -1672 0
-1787 326 0
-1787 1672 0
-1788 123 1787 0
1788 -123 0
1788 -1787 0
1789 -125 -1788 0
-1789 125 0
-1789 1788 0
-1790 217 1655 1670 1789 256 1675 0
1790 -217 0
1790 -1655 0
1790 -1670 0
1790 -1789 0
1790 -256 0
1790 -1675 0
1791 -241 -1790 0
-1791 241 0
-1791 1790 0
1792 -2 -1409 0
-1792 2 0
-1792 1409 0
1793 -70 -635 0
-1793 70 0
-1793 635 0
-1794 26 1793 0
1794 -26 0
1794 -1793 0
1795 -28 -1794 0
-1795 28 0
-1795 1794 0
-1796 33 1795 1290 0
1796 -33 0
1796 -1795 0
1796 -1290 0
1797 -35 -1796 0
-1797 35 0
-1797 1796 0
-1798 37 1270 1792 1797 0
1798 -37 0
1798 -1270 0
1798 -1792 0
1798 -1797 0
1799 -109 -1798 0
-1799 109 0
-1799 1798 0
-1800 6 1786 1791 1799 0
1800 -6 0
1800 -1786 0
1800 -1791 0
1800 -1799 0
1801 -5 -1800 0
-1801 5 0
-1801 1800 0
-1802 37 1773 1792 90 0
1802 -37 0
1802 -1773 0
1802 -1792 0
1802 -90 0
1803 -39 -1802 0
-1803 39 0
-1803 1802 0
-1804 46 1772 1803 40 1784 0
1804 -46 0
1804 -1772 0
1804 -1803 0
1804 -40 0
1804 -1784 0
1805 -64 -1804 0
-1805 64 0
-1805 1804 0
-1806 8 1801 1805 0
1806 -8 0
1806 -1801 0
1806 -1805 0
1807 -10 -1806 0
-1807 10 0
-1807 1806 0
-1808 12 1765 1807 0
1808 -12 0
1808 -1765 0
1808 -1807 0
1809 -16 -1808 0
-1809 16 0
-1809 1808 0
-1810 18 1743 1745 1809 0
1810 -18 0
1810 -1743 0
1810 -1745 0
1810 -1809 0
1811 -20 -1810 0
-1811 20 0
-1811 1810 0
-1812 22 1720 1811 0
1812 -22 0
1812 -1720 0
1812 -1811 0
1813 -1814 -1812 0
-1813 1814 0
-1813 1812 0
-1815 1816 1714 1813 0
1815 -1816 0
1815 -1714 0
1815 -1813 0
1817 -1818 -1815 0
-1817 1818 0
-1817 1815 0
-1819 1820 278 664 825 1345 1437 1712 1817 0
1819 -1820 0
1819 -278 0
1819 -664 0
1819 -825 0
1819 -1345 0
1819 -1437 0
1819 -1712 0
1819 -1817 0
1821 -1819 -1822 0
-1821 1819 0
-1821 1822 0
1821 0
