c BC-S1.2
p cnf 115 282
1 -2 -3 0
-1 2 0
-1 3 0
-4 5 1 0
4 -5 0
4 -1 0
6 -7 -4 0
-6 7 0
-6 4 0
8 -9 -4 0
-8 9 0
-8 4 0
10 -11 -4 0
-10 11 0
-10 4 0
-12 13 10 0
12 -13 0
12 -10 0
14 -15 -12 0
-14 15 0
-14 12 0
16 -17 -3 0
-16 17 0
-16 3 0
-18 19 8 14 16 0
18 -19 0
18 -8 0
18 -14 0
18 -16 0
20 -21 -18 0
-20 21 0
-20 18 0
-22 23 6 20 0
22 -23 0
22 -6 0
22 -20 0
24 -25 -22 0
-24 25 0
-24 22 0
26 -27 -4 0
-26 27 0
-26 4 0
28 -29 -4 0
-28 29 0
-28 4 0
30 -31 -22 0
-30 31 0
-30 22 0
32 -33 -34 0
-32 33 0
-32 34 0
-35 36 28 30 32 0
35 -36 0
35 -28 0
35 -30 0
35 -32 0
37 -38 -35 0
-37 38 0
-37 35 0
-39 40 26 37 0
39 -40 0
39 -26 0
39 -37 0
41 -42 -39 0
-41 42 0
-41 39 0
-43 36 28 30 0
43 -36 0
43 -28 0
43 -30 0
44 -38 -43 0
-44 38 0
-44 43 0
-45 40 26 44 0
45 -40 0
45 -26 0
45 -44 0
46 -47 -45 0
-46 47 0
-46 45 0
-48 34 46 0
48 -34 0
48 -46 0
49 -50 -48 0
-49 50 0
-49 48 0
51 -52 -3 0
-51 52 0
-51 3 0
-53 54 24 41 49 51 0
53 -54 0
53 -24 0
53 -41 0
53 -49 0
53 -51 0
55 -56 -53 0
-55 56 0
-55 53 0
-57 36 28 32 0
57 -36 0
57 -28 0
57 -32 0
58 -38 -57 0
-58 38 0
-58 57 0
-59 40 26 58 0
59 -40 0
59 -26 0
59 -58 0
60 -42 -59 0
-60 42 0
-60 59 0
-61 36 28 0
61 -36 0
61 -28 0
62 -38 -61 0
-62 38 0
-62 61 0
-63 40 26 62 0
63 -40 0
63 -26 0
63 -62 0
64 -47 -63 0
-64 47 0
-64 63 0
-65 34 64 0
65 -34 0
65 -64 0
66 -50 -65 0
-66 50 0
-66 65 0
-67 54 60 66 51 0
67 -54 0
67 -60 0
67 -66 0
67 -51 0
68 -69 -67 0
-68 69 0
-68 67 0
-70 5 68 1 0
70 -5 0
70 -68 0
70 -1 0
71 -7 -70 0
-71 7 0
-71 70 0
72 -73 -67 0
-72 73 0
-72 67 0
74 -9 -70 0
-74 9 0
-74 70 0
75 -11 -70 0
-75 11 0
-75 70 0
-76 13 75 0
76 -13 0
76 -75 0
77 -15 -76 0
-77 15 0
-77 76 0
-78 19 72 74 77 16 0
78 -19 0
78 -72 0
78 -74 0
78 -77 0
78 -16 0
79 -21 -78 0
-79 21 0
-79 78 0
-80 23 71 79 0
80 -23 0
80 -71 0
80 -79 0
81 -82 -80 0
-81 82 0
-81 80 0
-83 23 20 0
83 -23 0
83 -20 0
84 -25 -83 0
-84 25 0
-84 83 0
85 -50 -34 0
-85 50 0
-85 34 0
-86 54 84 85 51 0
86 -54 0
86 -84 0
86 -85 0
86 -51 0
87 -69 -86 0
-87 69 0
-87 86 0
-88 5 87 1 0
88 -5 0
88 -87 0
88 -1 0
89 -27 -88 0
-89 27 0
-89 88 0
-90 54 24 85 51 0
90 -54 0
90 -24 0
90 -85 0
90 -51 0
91 -92 -90 0
-91 92 0
-91 90 0
93 -29 -88 0
-93 29 0
-93 88 0
94 -7 -88 0
-94 7 0
-94 88 0
-95 54 85 51 0
95 -54 0
95 -85 0
95 -51 0
96 -73 -95 0
-96 73 0
-96 95 0
97 -69 -95 0
-97 69 0
-97 95 0
-98 5 97 1 0
98 -5 0
98 -97 0
98 -1 0
99 -9 -98 0
-99 9 0
-99 98 0
100 -11 -98 0
-100 11 0
-100 98 0
-101 13 100 0
101 -13 0
101 -100 0
102 -15 -101 0
-102 15 0
-102 101 0
-103 19 96 99 102 16 0
103 -19 0
103 -96 0
103 -99 0
103 -102 0
103 -16 0
104 -21 -103 0
-104 21 0
-104 103 0
-105 23 94 104 0
105 -23 0
105 -94 0
105 -104 0
106 -31 -105 0
-106 31 0
-106 105 0
-107 36 91 93 106 32 0
107 -36 0
107 -91 0
107 -93 0
107 -106 0
107 -32 0
108 -38 -107 0
-108 38 0
-108 107 0
-109 40 89 108 0
109 -40 0
109 -89 0
109 -108 0
110 -111 -109 0
-110 111 0
-110 109 0
-112 113 55 81 110 0
112 -113 0
112 -55 0
112 -81 0
112 -110 0
114 -112 -115 0
-114 112 0
-114 115 0
114 0
