c BC-S1.2
p cnf 472 1394
1 -2 -3 0
-1 2 0
-1 3 0
4 -5 -6 0
-4 5 0
-4 6 0
7 -8 -9 0
-7 8 0
-7 9 0
10 -11 -12 0
-10 11 0
-10 12 0
-13 14 1 4 7 10 0
13 -14 0
13 -1 0
13 -4 0
13 -7 0
13 -10 0
15 -16 -13 0
-15 16 0
-15 13 0
17 -18 -13 0
-17 18 0
-17 13 0
19 -20 -13 0
-19 20 0
-19 13 0
21 -22 -3 0
-21 22 0
-21 3 0
23 -24 -25 0
-23 24 0
-23 25 0
26 -27 -6 0
-26 27 0
-26 6 0
28 -29 -30 0
-28 29 0
-28 30 0
31 -32 -33 0
-31 32 0
-31 33 0
34 -35 -36 0
-34 35 0
-34 36 0
37 -38 -39 0
-37 38 0
-37 39 0
40 -41 -30 0
-40 41 0
-40 30 0
42 -43 -44 0
-42 43 0
-42 44 0
-45 46 42 0
45 -46 0
45 -42 0
47 -48 -45 0
-47 48 0
-47 45 0
-49 50 37 40 47 0
49 -50 0
49 -37 0
49 -40 0
49 -47 0
51 -52 -49 0
-51 52 0
-51 49 0
53 -54 -13 0
-53 54 0
-53 13 0
-55 56 53 0
55 -56 0
55 -53 0
57 -58 -55 0
-57 58 0
-57 55 0
-59 50 40 47 0
59 -50 0
59 -40 0
59 -47 0
60 -61 -59 0
-60 61 0
-60 59 0
-62 39 60 0
62 -39 0
62 -60 0
63 -64 -62 0
-63 64 0
-63 62 0
65 -66 -33 0
-65 66 0
-65 33 0
-67 68 63 65 0
67 -68 0
67 -63 0
67 -65 0
69 -70 -67 0
-69 70 0
-69 67 0
-71 72 34 51 57 69 0
71 -72 0
71 -34 0
71 -51 0
71 -57 0
71 -69 0
73 -74 -71 0
-73 74 0
-73 71 0
-75 76 19 21 23 26 28 31 73 0
75 -76 0
75 -19 0
75 -21 0
75 -23 0
75 -26 0
75 -28 0
75 -31 0
75 -73 0
77 -78 -75 0
-77 78 0
-77 75 0
79 -80 -3 0
-79 80 0
-79 3 0
81 -82 -83 0
-81 82 0
-81 83 0
84 -85 -6 0
-84 85 0
-84 6 0
-86 87 17 77 79 81 84 0
86 -87 0
86 -17 0
86 -77 0
86 -79 0
86 -81 0
86 -84 0
88 -89 -86 0
-88 89 0
-88 86 0
90 -91 -92 0
-90 91 0
-90 92 0
-93 94 90 0
93 -94 0
93 -90 0
95 -96 -93 0
-95 96 0
-95 93 0
-97 98 95 0
97 -98 0
97 -95 0
99 -100 -97 0
-99 100 0
-99 97 0
-101 102 99 0
101 -102 0
101 -99 0
103 -104 -101 0
-103 104 0
-103 101 0
105 -106 -101 0
-105 106 0
-105 101 0
-107 98 105 95 0
107 -98 0
107 -105 0
107 -95 0
108 -109 -107 0
-108 109 0
-108 107 0
110 -111 -3 0
-110 111 0
-110 3 0
112 -113 -101 0
-112 113 0
-112 101 0
114 -106 -102 0
-114 106 0
-114 102 0
-115 98 114 0
115 -98 0
115 -114 0
116 -117 -115 0
-116 117 0
-116 115 0
118 -119 -115 0
-118 119 0
-118 115 0
-120 92 118 0
120 -92 0
120 -118 0
121 -91 -120 0
-121 91 0
-121 120 0
-122 94 116 121 0
122 -94 0
122 -116 0
122 -121 0
123 -124 -122 0
-123 124 0
-123 122 0
-125 126 112 123 0
125 -126 0
125 -112 0
125 -123 0
127 -128 -125 0
-127 128 0
-127 125 0
129 -130 -131 0
-129 130 0
-129 131 0
132 -133 -83 0
-132 133 0
-132 83 0
134 -135 -13 0
-134 135 0
-134 13 0
-136 137 134 0
136 -137 0
136 -134 0
138 -139 -136 0
-138 139 0
-138 136 0
-140 72 34 57 0
140 -72 0
140 -34 0
140 -57 0
141 -142 -140 0
-141 142 0
-141 140 0
-143 46 42 141 0
143 -46 0
143 -42 0
143 -141 0
144 -48 -143 0
-144 48 0
-144 143 0
-145 50 40 144 0
145 -50 0
145 -40 0
145 -144 0
146 -61 -145 0
-146 61 0
-146 145 0
-147 39 146 0
147 -39 0
147 -146 0
148 -64 -147 0
-148 64 0
-148 147 0
-149 72 34 51 57 0
149 -72 0
149 -34 0
149 -51 0
149 -57 0
150 -151 -149 0
-150 151 0
-150 149 0
-152 68 148 65 150 0
152 -68 0
152 -148 0
152 -65 0
152 -150 0
153 -154 -152 0
-153 154 0
-153 152 0
-155 156 15 88 103 108 110 127 129 132 138 153 0
155 -156 0
155 -15 0
155 -88 0
155 -103 0
155 -108 0
155 -110 0
155 -127 0
155 -129 0
155 -132 0
155 -138 0
155 -153 0
157 -158 -155 0
-157 158 0
-157 155 0
-159 72 34 51 69 0
159 -72 0
159 -34 0
159 -51 0
159 -69 0
160 -74 -159 0
-160 74 0
-160 159 0
-161 76 21 23 26 28 31 160 0
161 -76 0
161 -21 0
161 -23 0
161 -26 0
161 -28 0
161 -31 0
161 -160 0
162 -78 -161 0
-162 78 0
-162 161 0
-163 87 162 79 81 84 0
163 -87 0
163 -162 0
163 -79 0
163 -81 0
163 -84 0
164 -89 -163 0
-164 89 0
-164 163 0
-165 98 114 95 0
165 -98 0
165 -114 0
165 -95 0
166 -109 -165 0
-166 109 0
-166 165 0
167 -139 -137 0
-167 139 0
-167 137 0
-168 72 34 0
168 -72 0
168 -34 0
169 -142 -168 0
-169 142 0
-169 168 0
-170 46 42 169 0
170 -46 0
170 -42 0
170 -169 0
171 -48 -170 0
-171 48 0
-171 170 0
-172 50 40 171 0
172 -50 0
172 -40 0
172 -171 0
173 -61 -172 0
-173 61 0
-173 172 0
-174 39 173 0
174 -39 0
174 -173 0
175 -64 -174 0
-175 64 0
-175 174 0
-176 72 34 51 0
176 -72 0
176 -34 0
176 -51 0
177 -151 -176 0
-177 151 0
-177 176 0
-178 68 175 65 177 0
178 -68 0
178 -175 0
178 -65 0
178 -177 0
179 -154 -178 0
-179 154 0
-179 178 0
-180 156 164 103 166 110 127 129 132 167 179 0
180 -156 0
180 -164 0
180 -103 0
180 -166 0
180 -110 0
180 -127 0
180 -129 0
180 -132 0
180 -167 0
180 -179 0
181 -182 -180 0
-181 182 0
-181 180 0
-183 6 181 0
183 -6 0
183 -181 0
184 -5 -183 0
-184 5 0
-184 183 0
185 -186 -180 0
-185 186 0
-185 180 0
-187 9 185 0
187 -9 0
187 -185 0
188 -8 -187 0
-188 8 0
-188 187 0
189 -190 -180 0
-189 190 0
-189 180 0
-191 12 189 0
191 -12 0
191 -189 0
192 -11 -191 0
-192 11 0
-192 191 0
-193 14 1 184 188 192 0
193 -14 0
193 -1 0
193 -184 0
193 -188 0
193 -192 0
194 -54 -193 0
-194 54 0
-194 193 0
-195 56 194 0
195 -56 0
195 -194 0
196 -197 -195 0
-196 197 0
-196 195 0
-198 199 157 196 0
198 -199 0
198 -157 0
198 -196 0
200 -201 -198 0
-200 201 0
-200 198 0
202 -203 -25 0
-202 203 0
-202 25 0
-204 76 19 21 23 26 28 31 0
204 -76 0
204 -19 0
204 -21 0
204 -23 0
204 -26 0
204 -28 0
204 -31 0
205 -78 -204 0
-205 78 0
-205 204 0
-206 87 17 205 79 81 84 0
206 -87 0
206 -17 0
206 -205 0
206 -79 0
206 -81 0
206 -84 0
207 -89 -206 0
-207 89 0
-207 206 0
208 -154 -67 0
-208 154 0
-208 67 0
-209 156 15 207 103 166 110 127 129 132 138 208 0
209 -156 0
209 -15 0
209 -207 0
209 -103 0
209 -166 0
209 -110 0
209 -127 0
209 -129 0
209 -132 0
209 -138 0
209 -208 0
210 -158 -209 0
-210 158 0
-210 209 0
-211 76 21 23 26 28 31 0
211 -76 0
211 -21 0
211 -23 0
211 -26 0
211 -28 0
211 -31 0
212 -78 -211 0
-212 78 0
-212 211 0
-213 87 212 79 81 84 0
213 -87 0
213 -212 0
213 -79 0
213 -81 0
213 -84 0
214 -89 -213 0
-214 89 0
-214 213 0
-215 156 214 103 166 110 127 129 132 167 208 0
215 -156 0
215 -214 0
215 -103 0
215 -166 0
215 -110 0
215 -127 0
215 -129 0
215 -132 0
215 -167 0
215 -208 0
216 -182 -215 0
-216 182 0
-216 215 0
-217 6 216 0
217 -6 0
217 -216 0
218 -5 -217 0
-218 5 0
-218 217 0
219 -186 -215 0
-219 186 0
-219 215 0
-220 9 219 0
220 -9 0
220 -219 0
221 -8 -220 0
-221 8 0
-221 220 0
222 -190 -215 0
-222 190 0
-222 215 0
-223 12 222 0
223 -12 0
223 -222 0
224 -11 -223 0
-224 11 0
-224 223 0
-225 14 1 218 221 224 0
225 -14 0
225 -1 0
225 -218 0
225 -221 0
225 -224 0
226 -54 -225 0
-226 54 0
-226 225 0
-227 56 226 0
227 -56 0
227 -226 0
228 -197 -227 0
-228 197 0
-228 227 0
-229 199 210 228 0
229 -199 0
229 -210 0
229 -228 0
230 -231 -229 0
-230 231 0
-230 229 0
232 -233 -199 0
-232 233 0
-232 199 0
-234 76 21 232 23 26 28 31 0
234 -76 0
234 -21 0
234 -232 0
234 -23 0
234 -26 0
234 -28 0
234 -31 0
235 -78 -234 0
-235 78 0
-235 234 0
-236 87 235 79 81 84 0
236 -87 0
236 -235 0
236 -79 0
236 -81 0
236 -84 0
237 -89 -236 0
-237 89 0
-237 236 0
238 -239 -199 0
-238 239 0
-238 199 0
-240 156 237 103 166 110 238 127 129 132 167 208 0
240 -156 0
240 -237 0
240 -103 0
240 -166 0
240 -110 0
240 -238 0
240 -127 0
240 -129 0
240 -132 0
240 -167 0
240 -208 0
241 -182 -240 0
-241 182 0
-241 240 0
-242 6 241 0
242 -6 0
242 -241 0
243 -5 -242 0
-243 5 0
-243 242 0
244 -186 -240 0
-244 186 0
-244 240 0
-245 9 244 0
245 -9 0
245 -244 0
246 -8 -245 0
-246 8 0
-246 245 0
247 -190 -240 0
-247 190 0
-247 240 0
-248 12 247 0
248 -12 0
248 -247 0
249 -11 -248 0
-249 11 0
-249 248 0
-250 14 1 243 246 249 0
250 -14 0
250 -1 0
250 -243 0
250 -246 0
250 -249 0
251 -54 -250 0
-251 54 0
-251 250 0
-252 199 210 0
252 -199 0
252 -210 0
253 -254 -252 0
-253 254 0
-253 252 0
-255 56 251 253 0
255 -56 0
255 -251 0
255 -253 0
256 -58 -255 0
-256 58 0
-256 255 0
-257 72 230 34 51 256 69 0
257 -72 0
257 -230 0
257 -34 0
257 -51 0
257 -256 0
257 -69 0
258 -259 -257 0
-258 259 0
-258 257 0
-260 261 258 0
260 -261 0
260 -258 0
262 -263 -260 0
-262 263 0
-262 260 0
264 -265 -257 0
-264 265 0
-264 257 0
-266 267 264 0
266 -267 0
266 -264 0
268 -269 -266 0
-268 269 0
-268 266 0
270 -197 -56 0
-270 197 0
-270 56 0
-271 199 270 0
271 -199 0
271 -270 0
272 -233 -271 0
-272 233 0
-272 271 0
273 -231 -271 0
-273 231 0
-273 271 0
274 -254 -199 0
-274 254 0
-274 199 0
-275 56 274 0
275 -56 0
275 -274 0
276 -58 -275 0
-276 58 0
-276 275 0
-277 72 273 34 51 276 69 0
277 -72 0
277 -273 0
277 -34 0
277 -51 0
277 -276 0
277 -69 0
278 -74 -277 0
-278 74 0
-278 277 0
-279 76 21 272 23 26 28 31 278 0
279 -76 0
279 -21 0
279 -272 0
279 -23 0
279 -26 0
279 -28 0
279 -31 0
279 -278 0
280 -78 -279 0
-280 78 0
-280 279 0
-281 87 280 79 81 84 0
281 -87 0
281 -280 0
281 -79 0
281 -81 0
281 -84 0
282 -89 -281 0
-282 89 0
-282 281 0
283 -239 -271 0
-283 239 0
-283 271 0
-284 72 273 34 276 0
284 -72 0
284 -273 0
284 -34 0
284 -276 0
285 -142 -284 0
-285 142 0
-285 284 0
-286 46 42 285 0
286 -46 0
286 -42 0
286 -285 0
287 -48 -286 0
-287 48 0
-287 286 0
-288 50 40 287 0
288 -50 0
288 -40 0
288 -287 0
289 -61 -288 0
-289 61 0
-289 288 0
-290 39 289 0
290 -39 0
290 -289 0
291 -64 -290 0
-291 64 0
-291 290 0
-292 72 273 34 51 276 0
292 -72 0
292 -273 0
292 -34 0
292 -51 0
292 -276 0
293 -151 -292 0
-293 151 0
-293 292 0
-294 68 291 65 293 0
294 -68 0
294 -291 0
294 -65 0
294 -293 0
295 -154 -294 0
-295 154 0
-295 294 0
-296 156 282 103 166 110 283 127 129 132 295 0
296 -156 0
296 -282 0
296 -103 0
296 -166 0
296 -110 0
296 -283 0
296 -127 0
296 -129 0
296 -132 0
296 -295 0
297 -182 -296 0
-297 182 0
-297 296 0
-298 6 297 0
298 -6 0
298 -297 0
299 -5 -298 0
-299 5 0
-299 298 0
300 -186 -296 0
-300 186 0
-300 296 0
-301 9 300 0
301 -9 0
301 -300 0
302 -8 -301 0
-302 8 0
-302 301 0
303 -190 -296 0
-303 190 0
-303 296 0
-304 12 303 0
304 -12 0
304 -303 0
305 -11 -304 0
-305 11 0
-305 304 0
-306 14 1 299 302 305 0
306 -14 0
306 -1 0
306 -299 0
306 -302 0
306 -305 0
307 -135 -306 0
-307 135 0
-307 306 0
-308 137 307 0
308 -137 0
308 -307 0
309 -310 -308 0
-309 310 0
-309 308 0
311 -312 -36 0
-311 312 0
-311 36 0
313 -314 -257 0
-313 314 0
-313 257 0
-315 316 313 0
315 -316 0
315 -313 0
317 -318 -315 0
-317 318 0
-317 315 0
319 -64 -39 0
-319 64 0
-319 39 0
-320 68 319 65 0
320 -68 0
320 -319 0
320 -65 0
321 -154 -320 0
-321 154 0
-321 320 0
-322 156 15 207 103 166 110 127 129 132 138 321 0
322 -156 0
322 -15 0
322 -207 0
322 -103 0
322 -166 0
322 -110 0
322 -127 0
322 -129 0
322 -132 0
322 -138 0
322 -321 0
323 -158 -322 0
-323 158 0
-323 322 0
-324 156 214 103 166 110 127 129 132 167 321 0
324 -156 0
324 -214 0
324 -103 0
324 -166 0
324 -110 0
324 -127 0
324 -129 0
324 -132 0
324 -167 0
324 -321 0
325 -182 -324 0
-325 182 0
-325 324 0
-326 6 325 0
326 -6 0
326 -325 0
327 -5 -326 0
-327 5 0
-327 326 0
328 -186 -324 0
-328 186 0
-328 324 0
-329 9 328 0
329 -9 0
329 -328 0
330 -8 -329 0
-330 8 0
-330 329 0
331 -190 -324 0
-331 190 0
-331 324 0
-332 12 331 0
332 -12 0
332 -331 0
333 -11 -332 0
-333 11 0
-333 332 0
-334 14 1 327 330 333 0
334 -14 0
334 -1 0
334 -327 0
334 -330 0
334 -333 0
335 -54 -334 0
-335 54 0
-335 334 0
-336 56 335 0
336 -56 0
336 -335 0
337 -197 -336 0
-337 197 0
-337 336 0
-338 199 323 337 0
338 -199 0
338 -323 0
338 -337 0
339 -231 -338 0
-339 231 0
-339 338 0
-340 156 237 103 166 110 238 127 129 132 167 321 0
340 -156 0
340 -237 0
340 -103 0
340 -166 0
340 -110 0
340 -238 0
340 -127 0
340 -129 0
340 -132 0
340 -167 0
340 -321 0
341 -182 -340 0
-341 182 0
-341 340 0
-342 6 341 0
342 -6 0
342 -341 0
343 -5 -342 0
-343 5 0
-343 342 0
344 -186 -340 0
-344 186 0
-344 340 0
-345 9 344 0
345 -9 0
345 -344 0
346 -8 -345 0
-346 8 0
-346 345 0
347 -190 -340 0
-347 190 0
-347 340 0
-348 12 347 0
348 -12 0
348 -347 0
349 -11 -348 0
-349 11 0
-349 348 0
-350 14 1 343 346 349 0
350 -14 0
350 -1 0
350 -343 0
350 -346 0
350 -349 0
351 -54 -350 0
-351 54 0
-351 350 0
-352 199 323 0
352 -199 0
352 -323 0
353 -254 -352 0
-353 254 0
-353 352 0
-354 56 351 353 0
354 -56 0
354 -351 0
354 -353 0
355 -58 -354 0
-355 58 0
-355 354 0
356 -70 -320 0
-356 70 0
-356 320 0
-357 72 339 34 355 356 0
357 -72 0
357 -339 0
357 -34 0
357 -355 0
357 -356 0
358 -142 -357 0
-358 142 0
-358 357 0
-359 46 42 358 0
359 -46 0
359 -42 0
359 -358 0
360 -48 -359 0
-360 48 0
-360 359 0
-361 50 37 40 360 0
361 -50 0
361 -37 0
361 -40 0
361 -360 0
362 -363 -361 0
-362 363 0
-362 361 0
-364 50 40 0
364 -50 0
364 -40 0
365 -61 -364 0
-365 61 0
-365 364 0
-366 39 365 0
366 -39 0
366 -365 0
367 -64 -366 0
-367 64 0
-367 366 0
-368 68 367 65 0
368 -68 0
368 -367 0
368 -65 0
369 -154 -368 0
-369 154 0
-369 368 0
-370 156 15 207 103 166 110 127 129 132 138 369 0
370 -156 0
370 -15 0
370 -207 0
370 -103 0
370 -166 0
370 -110 0
370 -127 0
370 -129 0
370 -132 0
370 -138 0
370 -369 0
371 -158 -370 0
-371 158 0
-371 370 0
-372 156 214 103 166 110 127 129 132 167 369 0
372 -156 0
372 -214 0
372 -103 0
372 -166 0
372 -110 0
372 -127 0
372 -129 0
372 -132 0
372 -167 0
372 -369 0
373 -182 -372 0
-373 182 0
-373 372 0
-374 6 373 0
374 -6 0
374 -373 0
375 -5 -374 0
-375 5 0
-375 374 0
376 -186 -372 0
-376 186 0
-376 372 0
-377 9 376 0
377 -9 0
377 -376 0
378 -8 -377 0
-378 8 0
-378 377 0
379 -190 -372 0
-379 190 0
-379 372 0
-380 12 379 0
380 -12 0
380 -379 0
381 -11 -380 0
-381 11 0
-381 380 0
-382 14 1 375 378 381 0
382 -14 0
382 -1 0
382 -375 0
382 -378 0
382 -381 0
383 -54 -382 0
-383 54 0
-383 382 0
-384 56 383 0
384 -56 0
384 -383 0
385 -197 -384 0
-385 197 0
-385 384 0
-386 199 371 385 0
386 -199 0
386 -371 0
386 -385 0
387 -231 -386 0
-387 231 0
-387 386 0
-388 50 37 40 0
388 -50 0
388 -37 0
388 -40 0
389 -52 -388 0
-389 52 0
-389 388 0
-390 156 237 103 166 110 238 127 129 132 167 369 0
390 -156 0
390 -237 0
390 -103 0
390 -166 0
390 -110 0
390 -238 0
390 -127 0
390 -129 0
390 -132 0
390 -167 0
390 -369 0
391 -182 -390 0
-391 182 0
-391 390 0
-392 6 391 0
392 -6 0
392 -391 0
393 -5 -392 0
-393 5 0
-393 392 0
394 -186 -390 0
-394 186 0
-394 390 0
-395 9 394 0
395 -9 0
395 -394 0
396 -8 -395 0
-396 8 0
-396 395 0
397 -190 -390 0
-397 190 0
-397 390 0
-398 12 397 0
398 -12 0
398 -397 0
399 -11 -398 0
-399 11 0
-399 398 0
-400 14 1 393 396 399 0
400 -14 0
400 -1 0
400 -393 0
400 -396 0
400 -399 0
401 -54 -400 0
-401 54 0
-401 400 0
-402 199 371 0
402 -199 0
402 -371 0
403 -254 -402 0
-403 254 0
-403 402 0
-404 56 401 403 0
404 -56 0
404 -401 0
404 -403 0
405 -58 -404 0
-405 58 0
-405 404 0
406 -70 -368 0
-406 70 0
-406 368 0
-407 72 387 34 389 405 406 0
407 -72 0
407 -387 0
407 -34 0
407 -389 0
407 -405 0
407 -406 0
408 -142 -407 0
-408 142 0
-408 407 0
-409 46 408 0
409 -46 0
409 -408 0
410 -411 -409 0
-410 411 0
-410 409 0
-412 44 410 0
412 -44 0
412 -410 0
413 -414 -412 0
-413 414 0
-413 412 0
415 -416 -30 0
-415 416 0
-415 30 0
417 -142 -257 0
-417 142 0
-417 257 0
-418 46 42 417 0
418 -46 0
418 -42 0
418 -417 0
419 -420 -418 0
-419 420 0
-419 418 0
421 -231 -199 0
-421 231 0
-421 199 0
-422 72 421 34 51 69 0
422 -72 0
422 -421 0
422 -34 0
422 -51 0
422 -69 0
423 -74 -422 0
-423 74 0
-423 422 0
-424 76 21 232 23 26 28 31 423 0
424 -76 0
424 -21 0
424 -232 0
424 -23 0
424 -26 0
424 -28 0
424 -31 0
424 -423 0
425 -78 -424 0
-425 78 0
-425 424 0
-426 87 425 79 81 84 0
426 -87 0
426 -425 0
426 -79 0
426 -81 0
426 -84 0
427 -89 -426 0
-427 89 0
-427 426 0
-428 72 421 34 0
428 -72 0
428 -421 0
428 -34 0
429 -142 -428 0
-429 142 0
-429 428 0
-430 46 42 429 0
430 -46 0
430 -42 0
430 -429 0
431 -48 -430 0
-431 48 0
-431 430 0
-432 50 40 431 0
432 -50 0
432 -40 0
432 -431 0
433 -61 -432 0
-433 61 0
-433 432 0
-434 39 433 0
434 -39 0
434 -433 0
435 -64 -434 0
-435 64 0
-435 434 0
-436 72 421 34 51 0
436 -72 0
436 -421 0
436 -34 0
436 -51 0
437 -151 -436 0
-437 151 0
-437 436 0
-438 68 435 65 437 0
438 -68 0
438 -435 0
438 -65 0
438 -437 0
439 -154 -438 0
-439 154 0
-439 438 0
-440 156 427 103 166 110 238 127 129 132 167 439 0
440 -156 0
440 -427 0
440 -103 0
440 -166 0
440 -110 0
440 -238 0
440 -127 0
440 -129 0
440 -132 0
440 -167 0
440 -439 0
441 -182 -440 0
-441 182 0
-441 440 0
-442 6 441 0
442 -6 0
442 -441 0
443 -5 -442 0
-443 5 0
-443 442 0
444 -186 -440 0
-444 186 0
-444 440 0
-445 9 444 0
445 -9 0
445 -444 0
446 -8 -445 0
-446 8 0
-446 445 0
447 -190 -440 0
-447 190 0
-447 440 0
-448 12 447 0
448 -12 0
448 -447 0
449 -11 -448 0
-449 11 0
-449 448 0
-450 14 1 443 446 449 0
450 -14 0
450 -1 0
450 -443 0
450 -446 0
450 -449 0
451 -54 -450 0
-451 54 0
-451 450 0
-452 76 19 21 23 26 28 31 160 0
452 -76 0
452 -19 0
452 -21 0
452 -23 0
452 -26 0
452 -28 0
452 -31 0
452 -160 0
453 -78 -452 0
-453 78 0
-453 452 0
-454 87 17 453 79 81 84 0
454 -87 0
454 -17 0
454 -453 0
454 -79 0
454 -81 0
454 -84 0
455 -89 -454 0
-455 89 0
-455 454 0
-456 156 15 455 103 166 110 127 129 132 138 179 0
456 -156 0
456 -15 0
456 -455 0
456 -103 0
456 -166 0
456 -110 0
456 -127 0
456 -129 0
456 -132 0
456 -138 0
456 -179 0
457 -158 -456 0
-457 158 0
-457 456 0
-458 199 457 0
458 -199 0
458 -457 0
459 -254 -458 0
-459 254 0
-459 458 0
-460 56 451 459 0
460 -56 0
460 -451 0
460 -459 0
461 -462 -460 0
-461 462 0
-461 460 0
463 -464 -257 0
-463 464 0
-463 257 0
-465 466 200 202 262 268 309 311 317 362 413 415 419 461 463 0
465 -466 0
465 -200 0
465 -202 0
465 -262 0
465 -268 0
465 -309 0
465 -311 0
465 -317 0
465 -362 0
465 -413 0
465 -415 0
465 -419 0
465 -461 0
465 -463 0
467 -468 -465 0
-467 468 0
-467 465 0
-469 470 467 0
469 -470 0
469 -467 0
471 -469 -472 0
-471 469 0
-471 472 0
471 0
