c BC-S1.2
p cnf 767 2464
1 -2 -3 0
-1 2 0
-1 3 0
4 -5 -3 0
-4 5 0
-4 3 0
-6 7 4 0
6 -7 0
6 -4 0
8 -9 -6 0
-8 9 0
-8 6 0
-10 11 8 0
10 -11 0
10 -8 0
12 -13 -10 0
-12 13 0
-12 10 0
-14 15 1 12 0
14 -15 0
14 -1 0
14 -12 0
16 -17 -14 0
-16 17 0
-16 14 0
-18 19 16 0
18 -19 0
18 -16 0
20 -21 -18 0
-20 21 0
-20 18 0
22 -23 -10 0
-22 23 0
-22 10 0
24 -25 -26 0
-24 25 0
-24 26 0
-27 28 24 0
27 -28 0
27 -24 0
29 -30 -27 0
-29 30 0
-29 27 0
31 -32 -18 0
-31 32 0
-31 18 0
33 -34 -35 0
-33 34 0
-33 35 0
-36 37 31 33 0
36 -37 0
36 -31 0
36 -33 0
38 -39 -36 0
-38 39 0
-38 36 0
-40 41 38 0
40 -41 0
40 -38 0
42 -43 -40 0
-42 43 0
-42 40 0
44 -45 -18 0
-44 45 0
-44 18 0
46 -47 -14 0
-46 47 0
-46 14 0
-48 49 44 46 0
48 -49 0
48 -44 0
48 -46 0
50 -51 -48 0
-50 51 0
-50 48 0
-52 53 20 22 29 42 50 0
52 -53 0
52 -20 0
52 -22 0
52 -29 0
52 -42 0
52 -50 0
54 -55 -52 0
-54 55 0
-54 52 0
56 -21 -19 0
-56 21 0
-56 19 0
57 -32 -19 0
-57 32 0
-57 19 0
-58 37 57 33 0
58 -37 0
58 -57 0
58 -33 0
59 -39 -58 0
-59 39 0
-59 58 0
-60 41 59 0
60 -41 0
60 -59 0
61 -43 -60 0
-61 43 0
-61 60 0
62 -45 -19 0
-62 45 0
-62 19 0
-63 49 62 46 0
63 -49 0
63 -62 0
63 -46 0
64 -51 -63 0
-64 51 0
-64 63 0
-65 53 56 22 29 61 64 0
65 -53 0
65 -56 0
65 -22 0
65 -29 0
65 -61 0
65 -64 0
66 -67 -65 0
-66 67 0
-66 65 0
-68 49 62 0
68 -49 0
68 -62 0
69 -51 -68 0
-69 51 0
-69 68 0
-70 53 56 22 29 61 69 0
70 -53 0
70 -56 0
70 -22 0
70 -29 0
70 -61 0
70 -69 0
71 -72 -70 0
-71 72 0
-71 70 0
-73 3 71 0
73 -3 0
73 -71 0
74 -2 -73 0
-74 2 0
-74 73 0
-75 53 56 29 61 69 0
75 -53 0
75 -56 0
75 -29 0
75 -61 0
75 -69 0
76 -72 -75 0
-76 72 0
-76 75 0
-77 3 76 0
77 -3 0
77 -76 0
78 -5 -77 0
-78 5 0
-78 77 0
-79 7 78 0
79 -7 0
79 -78 0
80 -9 -79 0
-80 9 0
-80 79 0
-81 11 80 0
81 -11 0
81 -80 0
82 -13 -81 0
-82 13 0
-82 81 0
-83 15 66 74 82 0
83 -15 0
83 -66 0
83 -74 0
83 -82 0
84 -85 -83 0
-84 85 0
-84 83 0
86 -17 -15 0
-86 17 0
-86 15 0
-87 19 86 0
87 -19 0
87 -86 0
88 -21 -87 0
-88 21 0
-88 87 0
89 -32 -87 0
-89 32 0
-89 87 0
-90 37 89 33 0
90 -37 0
90 -89 0
90 -33 0
91 -39 -90 0
-91 39 0
-91 90 0
-92 41 91 0
92 -41 0
92 -91 0
93 -43 -92 0
-93 43 0
-93 92 0
94 -45 -87 0
-94 45 0
-94 87 0
95 -47 -15 0
-95 47 0
-95 15 0
-96 49 94 95 0
96 -49 0
96 -94 0
96 -95 0
97 -51 -96 0
-97 51 0
-97 96 0
-98 53 88 29 93 97 0
98 -53 0
98 -88 0
98 -29 0
98 -93 0
98 -97 0
99 -72 -98 0
-99 72 0
-99 98 0
-100 3 99 0
100 -3 0
100 -99 0
101 -5 -100 0
-101 5 0
-101 100 0
-102 7 101 0
102 -7 0
102 -101 0
103 -9 -102 0
-103 9 0
-103 102 0
-104 11 103 0
104 -11 0
104 -103 0
105 -106 -104 0
-105 106 0
-105 104 0
-107 108 105 0
107 -108 0
107 -105 0
109 -110 -107 0
-109 110 0
-109 107 0
111 -112 -113 0
-111 112 0
-111 113 0
114 -115 -26 0
-114 115 0
-114 26 0
-116 117 54 84 109 111 114 0
116 -117 0
116 -54 0
116 -84 0
116 -109 0
116 -111 0
116 -114 0
118 -119 -116 0
-118 119 0
-118 116 0
120 -110 -108 0
-120 110 0
-120 108 0
-121 117 120 111 114 0
121 -117 0
121 -120 0
121 -111 0
121 -114 0
122 -123 -121 0
-122 123 0
-122 121 0
-124 7 122 4 0
124 -7 0
124 -122 0
124 -4 0
125 -9 -124 0
-125 9 0
-125 124 0
-126 11 125 0
126 -11 0
126 -125 0
127 -13 -126 0
-127 13 0
-127 126 0
-128 15 127 0
128 -15 0
128 -127 0
129 -17 -128 0
-129 17 0
-129 128 0
-130 19 129 0
130 -19 0
130 -129 0
131 -21 -130 0
-131 21 0
-131 130 0
132 -85 -15 0
-132 85 0
-132 15 0
-133 117 132 120 111 114 0
133 -117 0
133 -132 0
133 -120 0
133 -111 0
133 -114 0
134 -123 -133 0
-134 123 0
-134 133 0
-135 7 134 4 0
135 -7 0
135 -134 0
135 -4 0
136 -9 -135 0
-136 9 0
-136 135 0
-137 11 136 0
137 -11 0
137 -136 0
138 -23 -137 0
-138 23 0
-138 137 0
139 -32 -130 0
-139 32 0
-139 130 0
-140 15 12 0
140 -15 0
140 -12 0
141 -85 -140 0
-141 85 0
-141 140 0
142 -106 -10 0
-142 106 0
-142 10 0
-143 108 142 0
143 -108 0
143 -142 0
144 -110 -143 0
-144 110 0
-144 143 0
-145 117 141 144 111 114 0
145 -117 0
145 -141 0
145 -144 0
145 -111 0
145 -114 0
146 -147 -145 0
-146 147 0
-146 145 0
148 -149 -145 0
-148 149 0
-148 145 0
-150 35 148 0
150 -35 0
150 -148 0
151 -34 -150 0
-151 34 0
-151 150 0
-152 37 139 146 151 0
152 -37 0
152 -139 0
152 -146 0
152 -151 0
153 -39 -152 0
-153 39 0
-153 152 0
-154 41 153 0
154 -41 0
154 -153 0
155 -43 -154 0
-155 43 0
-155 154 0
156 -45 -130 0
-156 45 0
-156 130 0
157 -47 -128 0
-157 47 0
-157 128 0
-158 49 156 157 0
158 -49 0
158 -156 0
158 -157 0
159 -51 -158 0
-159 51 0
-159 158 0
-160 53 131 138 29 155 159 0
160 -53 0
160 -131 0
160 -138 0
160 -29 0
160 -155 0
160 -159 0
161 -72 -160 0
-161 72 0
-161 160 0
-162 3 161 0
162 -3 0
162 -161 0
163 -164 -162 0
-163 164 0
-163 162 0
-165 166 118 163 0
165 -166 0
165 -118 0
165 -163 0
167 -168 -165 0
-167 168 0
-167 165 0
-169 170 167 0
169 -170 0
169 -167 0
171 -172 -169 0
-171 172 0
-171 169 0
173 -174 -170 0
-173 174 0
-173 170 0
-175 53 20 173 22 29 42 50 0
175 -53 0
175 -20 0
175 -173 0
175 -22 0
175 -29 0
175 -42 0
175 -50 0
176 -55 -175 0
-176 55 0
-176 175 0
177 -178 -170 0
-177 178 0
-177 170 0
-179 53 56 173 22 29 61 64 0
179 -53 0
179 -56 0
179 -173 0
179 -22 0
179 -29 0
179 -61 0
179 -64 0
180 -67 -179 0
-180 67 0
-180 179 0
-181 53 56 173 22 29 61 69 0
181 -53 0
181 -56 0
181 -173 0
181 -22 0
181 -29 0
181 -61 0
181 -69 0
182 -72 -181 0
-182 72 0
-182 181 0
-183 3 182 0
183 -3 0
183 -182 0
184 -2 -183 0
-184 2 0
-184 183 0
-185 53 56 173 29 61 69 0
185 -53 0
185 -56 0
185 -173 0
185 -29 0
185 -61 0
185 -69 0
186 -72 -185 0
-186 72 0
-186 185 0
-187 3 186 0
187 -3 0
187 -186 0
188 -5 -187 0
-188 5 0
-188 187 0
-189 7 188 0
189 -7 0
189 -188 0
190 -9 -189 0
-190 9 0
-190 189 0
-191 11 190 0
191 -11 0
191 -190 0
192 -13 -191 0
-192 13 0
-192 191 0
-193 15 180 184 192 0
193 -15 0
193 -180 0
193 -184 0
193 -192 0
194 -85 -193 0
-194 85 0
-194 193 0
-195 53 88 173 29 93 97 0
195 -53 0
195 -88 0
195 -173 0
195 -29 0
195 -93 0
195 -97 0
196 -72 -195 0
-196 72 0
-196 195 0
-197 3 196 0
197 -3 0
197 -196 0
198 -5 -197 0
-198 5 0
-198 197 0
-199 7 198 0
199 -7 0
199 -198 0
200 -9 -199 0
-200 9 0
-200 199 0
-201 11 200 0
201 -11 0
201 -200 0
202 -106 -201 0
-202 106 0
-202 201 0
-203 108 202 0
203 -108 0
203 -202 0
204 -110 -203 0
-204 110 0
-204 203 0
205 -206 -170 0
-205 206 0
-205 170 0
-207 113 205 0
207 -113 0
207 -205 0
208 -112 -207 0
-208 112 0
-208 207 0
-209 117 176 177 194 204 208 114 0
209 -117 0
209 -176 0
209 -177 0
209 -194 0
209 -204 0
209 -208 0
209 -114 0
210 -119 -209 0
-210 119 0
-210 209 0
-211 117 177 120 208 114 0
211 -117 0
211 -177 0
211 -120 0
211 -208 0
211 -114 0
212 -123 -211 0
-212 123 0
-212 211 0
-213 7 212 4 0
213 -7 0
213 -212 0
213 -4 0
214 -9 -213 0
-214 9 0
-214 213 0
-215 11 214 0
215 -11 0
215 -214 0
216 -13 -215 0
-216 13 0
-216 215 0
-217 15 216 0
217 -15 0
217 -216 0
218 -17 -217 0
-218 17 0
-218 217 0
-219 19 218 0
219 -19 0
219 -218 0
220 -21 -219 0
-220 21 0
-220 219 0
-221 117 177 132 120 208 114 0
221 -117 0
221 -177 0
221 -132 0
221 -120 0
221 -208 0
221 -114 0
222 -123 -221 0
-222 123 0
-222 221 0
-223 7 222 4 0
223 -7 0
223 -222 0
223 -4 0
224 -9 -223 0
-224 9 0
-224 223 0
-225 11 224 0
225 -11 0
225 -224 0
226 -23 -225 0
-226 23 0
-226 225 0
227 -32 -219 0
-227 32 0
-227 219 0
-228 117 177 141 144 208 114 0
228 -117 0
228 -177 0
228 -141 0
228 -144 0
228 -208 0
228 -114 0
229 -147 -228 0
-229 147 0
-229 228 0
230 -149 -228 0
-230 149 0
-230 228 0
-231 35 230 0
231 -35 0
231 -230 0
232 -34 -231 0
-232 34 0
-232 231 0
-233 37 227 229 232 0
233 -37 0
233 -227 0
233 -229 0
233 -232 0
234 -39 -233 0
-234 39 0
-234 233 0
-235 41 234 0
235 -41 0
235 -234 0
236 -43 -235 0
-236 43 0
-236 235 0
237 -45 -219 0
-237 45 0
-237 219 0
238 -47 -217 0
-238 47 0
-238 217 0
-239 49 237 238 0
239 -49 0
239 -237 0
239 -238 0
240 -51 -239 0
-240 51 0
-240 239 0
-241 53 220 173 226 29 236 240 0
241 -53 0
241 -220 0
241 -173 0
241 -226 0
241 -29 0
241 -236 0
241 -240 0
242 -72 -241 0
-242 72 0
-242 241 0
-243 3 242 0
243 -3 0
243 -242 0
244 -164 -243 0
-244 164 0
-244 243 0
-245 166 210 244 0
245 -166 0
245 -210 0
245 -244 0
246 -247 -245 0
-246 247 0
-246 245 0
248 -85 -14 0
-248 85 0
-248 14 0
-249 117 177 248 144 208 114 0
249 -117 0
249 -177 0
249 -248 0
249 -144 0
249 -208 0
249 -114 0
250 -119 -249 0
-250 119 0
-250 249 0
251 -164 -3 0
-251 164 0
-251 3 0
-252 166 250 251 0
252 -166 0
252 -250 0
252 -251 0
253 -254 -252 0
-253 254 0
-253 252 0
-255 166 251 0
255 -166 0
255 -251 0
256 -168 -255 0
-256 168 0
-256 255 0
-257 170 256 0
257 -170 0
257 -256 0
258 -178 -257 0
-258 178 0
-258 257 0
259 -206 -257 0
-259 206 0
-259 257 0
-260 113 259 0
260 -113 0
260 -259 0
261 -112 -260 0
-261 112 0
-261 260 0
262 -263 -255 0
-262 263 0
-262 255 0
-264 26 262 0
264 -26 0
264 -262 0
265 -115 -264 0
-265 115 0
-265 264 0
-266 117 258 120 261 265 0
266 -117 0
266 -258 0
266 -120 0
266 -261 0
266 -265 0
267 -123 -266 0
-267 123 0
-267 266 0
-268 7 267 4 0
268 -7 0
268 -267 0
268 -4 0
269 -9 -268 0
-269 9 0
-269 268 0
-270 11 269 0
270 -11 0
270 -269 0
271 -13 -270 0
-271 13 0
-271 270 0
-272 15 1 271 0
272 -15 0
272 -1 0
272 -271 0
273 -17 -272 0
-273 17 0
-273 272 0
-274 19 253 273 0
274 -19 0
274 -253 0
274 -273 0
275 -21 -274 0
-275 21 0
-275 274 0
276 -277 -252 0
-276 277 0
-276 252 0
278 -168 -252 0
-278 168 0
-278 252 0
-279 170 278 0
279 -170 0
279 -278 0
280 -174 -279 0
-280 174 0
-280 279 0
-281 15 1 0
281 -15 0
281 -1 0
282 -85 -281 0
-282 85 0
-282 281 0
-283 117 258 282 120 261 265 0
283 -117 0
283 -258 0
283 -282 0
283 -120 0
283 -261 0
283 -265 0
284 -123 -283 0
-284 123 0
-284 283 0
-285 7 284 4 0
285 -7 0
285 -284 0
285 -4 0
286 -9 -285 0
-286 9 0
-286 285 0
-287 11 286 0
287 -11 0
287 -286 0
288 -23 -287 0
-288 23 0
-288 287 0
289 -263 -252 0
-289 263 0
-289 252 0
-290 26 289 0
290 -26 0
290 -289 0
291 -25 -290 0
-291 25 0
-291 290 0
-292 28 291 0
292 -28 0
292 -291 0
293 -30 -292 0
-293 30 0
-293 292 0
294 -32 -274 0
-294 32 0
-294 274 0
-295 117 258 248 144 261 265 0
295 -117 0
295 -258 0
295 -248 0
295 -144 0
295 -261 0
295 -265 0
296 -147 -295 0
-296 147 0
-296 295 0
297 -298 -252 0
-297 298 0
-297 252 0
299 -149 -295 0
-299 149 0
-299 295 0
-300 35 297 299 0
300 -35 0
300 -297 0
300 -299 0
301 -34 -300 0
-301 34 0
-301 300 0
-302 37 294 296 301 0
302 -37 0
302 -294 0
302 -296 0
302 -301 0
303 -39 -302 0
-303 39 0
-303 302 0
-304 41 303 0
304 -41 0
304 -303 0
305 -43 -304 0
-305 43 0
-305 304 0
306 -45 -274 0
-306 45 0
-306 274 0
307 -47 -272 0
-307 47 0
-307 272 0
-308 49 306 307 0
308 -49 0
308 -306 0
308 -307 0
309 -51 -308 0
-309 51 0
-309 308 0
-310 53 275 276 280 288 293 305 309 0
310 -53 0
310 -275 0
310 -276 0
310 -280 0
310 -288 0
310 -293 0
310 -305 0
310 -309 0
311 -312 -310 0
-311 312 0
-311 310 0
313 -314 -169 0
-313 314 0
-313 169 0
-315 117 54 84 109 114 0
315 -117 0
315 -54 0
315 -84 0
315 -109 0
315 -114 0
316 -119 -315 0
-316 119 0
-316 315 0
-317 117 120 114 0
317 -117 0
317 -120 0
317 -114 0
318 -123 -317 0
-318 123 0
-318 317 0
-319 7 318 4 0
319 -7 0
319 -318 0
319 -4 0
320 -9 -319 0
-320 9 0
-320 319 0
-321 11 320 0
321 -11 0
321 -320 0
322 -13 -321 0
-322 13 0
-322 321 0
-323 15 322 0
323 -15 0
323 -322 0
324 -17 -323 0
-324 17 0
-324 323 0
-325 19 324 0
325 -19 0
325 -324 0
326 -21 -325 0
-326 21 0
-326 325 0
-327 117 132 120 114 0
327 -117 0
327 -132 0
327 -120 0
327 -114 0
328 -123 -327 0
-328 123 0
-328 327 0
-329 7 328 4 0
329 -7 0
329 -328 0
329 -4 0
330 -9 -329 0
-330 9 0
-330 329 0
-331 11 330 0
331 -11 0
331 -330 0
332 -23 -331 0
-332 23 0
-332 331 0
333 -32 -325 0
-333 32 0
-333 325 0
-334 117 141 144 114 0
334 -117 0
334 -141 0
334 -144 0
334 -114 0
335 -147 -334 0
-335 147 0
-335 334 0
336 -149 -334 0
-336 149 0
-336 334 0
-337 35 336 0
337 -35 0
337 -336 0
338 -34 -337 0
-338 34 0
-338 337 0
-339 37 333 335 338 0
339 -37 0
339 -333 0
339 -335 0
339 -338 0
340 -39 -339 0
-340 39 0
-340 339 0
-341 41 340 0
341 -41 0
341 -340 0
342 -43 -341 0
-342 43 0
-342 341 0
343 -45 -325 0
-343 45 0
-343 325 0
344 -47 -323 0
-344 47 0
-344 323 0
-345 49 343 344 0
345 -49 0
345 -343 0
345 -344 0
346 -51 -345 0
-346 51 0
-346 345 0
-347 53 326 332 29 342 346 0
347 -53 0
347 -326 0
347 -332 0
347 -29 0
347 -342 0
347 -346 0
348 -72 -347 0
-348 72 0
-348 347 0
-349 3 348 0
349 -3 0
349 -348 0
350 -164 -349 0
-350 164 0
-350 349 0
-351 166 316 350 0
351 -166 0
351 -316 0
351 -350 0
352 -168 -351 0
-352 168 0
-352 351 0
-353 170 352 0
353 -170 0
353 -352 0
354 -206 -353 0
-354 206 0
-354 353 0
-355 113 354 0
355 -113 0
355 -354 0
356 -357 -355 0
-356 357 0
-356 355 0
-358 359 311 313 356 0
358 -359 0
358 -311 0
358 -313 0
358 -356 0
360 -361 -358 0
-360 361 0
-360 358 0
-362 19 253 0
362 -19 0
362 -253 0
363 -21 -362 0
-363 21 0
-363 362 0
364 -23 -270 0
-364 23 0
-364 270 0
365 -32 -362 0
-365 32 0
-365 362 0
-366 37 365 296 301 0
366 -37 0
366 -365 0
366 -296 0
366 -301 0
367 -39 -366 0
-367 39 0
-367 366 0
-368 41 367 0
368 -41 0
368 -367 0
369 -43 -368 0
-369 43 0
-369 368 0
370 -45 -362 0
-370 45 0
-370 362 0
-371 49 370 0
371 -49 0
371 -370 0
372 -51 -371 0
-372 51 0
-372 371 0
-373 53 363 276 280 364 293 369 372 0
373 -53 0
373 -363 0
373 -276 0
373 -280 0
373 -364 0
373 -293 0
373 -369 0
373 -372 0
374 -67 -373 0
-374 67 0
-374 373 0
-375 117 177 144 208 114 0
375 -117 0
375 -177 0
375 -144 0
375 -208 0
375 -114 0
376 -119 -375 0
-376 119 0
-376 375 0
-377 166 376 251 0
377 -166 0
377 -376 0
377 -251 0
378 -254 -377 0
-378 254 0
-378 377 0
-379 19 378 0
379 -19 0
379 -378 0
380 -21 -379 0
-380 21 0
-380 379 0
381 -277 -377 0
-381 277 0
-381 377 0
382 -168 -377 0
-382 168 0
-382 377 0
-383 170 382 0
383 -170 0
383 -382 0
384 -174 -383 0
-384 174 0
-384 383 0
385 -263 -377 0
-385 263 0
-385 377 0
-386 26 385 0
386 -26 0
386 -385 0
387 -25 -386 0
-387 25 0
-387 386 0
-388 28 387 0
388 -28 0
388 -387 0
389 -30 -388 0
-389 30 0
-389 388 0
390 -32 -379 0
-390 32 0
-390 379 0
-391 117 258 144 261 265 0
391 -117 0
391 -258 0
391 -144 0
391 -261 0
391 -265 0
392 -147 -391 0
-392 147 0
-392 391 0
393 -298 -377 0
-393 298 0
-393 377 0
394 -149 -391 0
-394 149 0
-394 391 0
-395 35 393 394 0
395 -35 0
395 -393 0
395 -394 0
396 -34 -395 0
-396 34 0
-396 395 0
-397 37 390 392 396 0
397 -37 0
397 -390 0
397 -392 0
397 -396 0
398 -39 -397 0
-398 39 0
-398 397 0
-399 41 398 0
399 -41 0
399 -398 0
400 -43 -399 0
-400 43 0
-400 399 0
401 -45 -379 0
-401 45 0
-401 379 0
-402 49 401 0
402 -49 0
402 -401 0
403 -51 -402 0
-403 51 0
-403 402 0
-404 53 380 381 384 364 389 400 403 0
404 -53 0
404 -380 0
404 -381 0
404 -384 0
404 -364 0
404 -389 0
404 -400 0
404 -403 0
405 -72 -404 0
-405 72 0
-405 404 0
-406 3 405 0
406 -3 0
406 -405 0
407 -2 -406 0
-407 2 0
-407 406 0
408 -254 -255 0
-408 254 0
-408 255 0
-409 19 408 0
409 -19 0
409 -408 0
410 -21 -409 0
-410 21 0
-410 409 0
411 -277 -255 0
-411 277 0
-411 255 0
412 -174 -257 0
-412 174 0
-412 257 0
413 -25 -264 0
-413 25 0
-413 264 0
-414 28 413 0
414 -28 0
414 -413 0
415 -30 -414 0
-415 30 0
-415 414 0
416 -32 -409 0
-416 32 0
-416 409 0
417 -298 -255 0
-417 298 0
-417 255 0
-418 35 417 0
418 -35 0
418 -417 0
419 -34 -418 0
-419 34 0
-419 418 0
-420 37 416 419 0
420 -37 0
420 -416 0
420 -419 0
421 -39 -420 0
-421 39 0
-421 420 0
-422 41 421 0
422 -41 0
422 -421 0
423 -43 -422 0
-423 43 0
-423 422 0
424 -45 -409 0
-424 45 0
-424 409 0
-425 49 424 0
425 -49 0
425 -424 0
426 -51 -425 0
-426 51 0
-426 425 0
-427 53 410 411 412 415 423 426 0
427 -53 0
427 -410 0
427 -411 0
427 -412 0
427 -415 0
427 -423 0
427 -426 0
428 -55 -427 0
-428 55 0
-428 427 0
429 -164 -77 0
-429 164 0
-429 77 0
-430 166 429 0
430 -166 0
430 -429 0
431 -168 -430 0
-431 168 0
-431 430 0
-432 170 431 0
432 -170 0
432 -431 0
433 -178 -432 0
-433 178 0
-433 432 0
434 -206 -432 0
-434 206 0
-434 432 0
-435 113 434 0
435 -113 0
435 -434 0
436 -112 -435 0
-436 112 0
-436 435 0
437 -30 -28 0
-437 30 0
-437 28 0
-438 53 56 173 437 61 69 0
438 -53 0
438 -56 0
438 -173 0
438 -437 0
438 -61 0
438 -69 0
439 -72 -438 0
-439 72 0
-439 438 0
-440 3 439 0
440 -3 0
440 -439 0
441 -164 -440 0
-441 164 0
-441 440 0
-442 166 441 0
442 -166 0
442 -441 0
443 -263 -442 0
-443 263 0
-443 442 0
-444 26 443 0
444 -26 0
444 -443 0
445 -115 -444 0
-445 115 0
-445 444 0
-446 117 428 433 120 436 445 0
446 -117 0
446 -428 0
446 -433 0
446 -120 0
446 -436 0
446 -445 0
447 -123 -446 0
-447 123 0
-447 446 0
448 -119 -211 0
-448 119 0
-448 211 0
-449 166 448 251 0
449 -166 0
449 -448 0
449 -251 0
450 -254 -449 0
-450 254 0
-450 449 0
-451 19 450 0
451 -19 0
451 -450 0
452 -21 -451 0
-452 21 0
-452 451 0
453 -277 -449 0
-453 277 0
-453 449 0
454 -168 -449 0
-454 168 0
-454 449 0
-455 170 454 0
455 -170 0
455 -454 0
456 -174 -455 0
-456 174 0
-456 455 0
457 -263 -449 0
-457 263 0
-457 449 0
-458 26 457 0
458 -26 0
458 -457 0
459 -25 -458 0
-459 25 0
-459 458 0
-460 28 459 0
460 -28 0
460 -459 0
461 -30 -460 0
-461 30 0
-461 460 0
462 -32 -451 0
-462 32 0
-462 451 0
463 -147 -266 0
-463 147 0
-463 266 0
464 -298 -449 0
-464 298 0
-464 449 0
465 -149 -266 0
-465 149 0
-465 266 0
-466 35 464 465 0
466 -35 0
466 -464 0
466 -465 0
467 -34 -466 0
-467 34 0
-467 466 0
-468 37 462 463 467 0
468 -37 0
468 -462 0
468 -463 0
468 -467 0
469 -39 -468 0
-469 39 0
-469 468 0
-470 41 469 0
470 -41 0
470 -469 0
471 -43 -470 0
-471 43 0
-471 470 0
472 -45 -451 0
-472 45 0
-472 451 0
-473 49 472 0
473 -49 0
473 -472 0
474 -51 -473 0
-474 51 0
-474 473 0
-475 53 452 453 456 461 471 474 0
475 -53 0
475 -452 0
475 -453 0
475 -456 0
475 -461 0
475 -471 0
475 -474 0
476 -72 -475 0
-476 72 0
-476 475 0
-477 3 476 0
477 -3 0
477 -476 0
478 -5 -477 0
-478 5 0
-478 477 0
-479 7 447 478 0
479 -7 0
479 -447 0
479 -478 0
480 -9 -479 0
-480 9 0
-480 479 0
-481 11 480 0
481 -11 0
481 -480 0
482 -13 -481 0
-482 13 0
-482 481 0
-483 15 374 407 482 0
483 -15 0
483 -374 0
483 -407 0
483 -482 0
484 -485 -483 0
-484 485 0
-484 483 0
486 -17 -281 0
-486 17 0
-486 281 0
-487 19 408 486 0
487 -19 0
487 -408 0
487 -486 0
488 -21 -487 0
-488 21 0
-488 487 0
489 -32 -487 0
-489 32 0
-489 487 0
-490 37 489 419 0
490 -37 0
490 -489 0
490 -419 0
491 -39 -490 0
-491 39 0
-491 490 0
-492 41 491 0
492 -41 0
492 -491 0
493 -43 -492 0
-493 43 0
-493 492 0
494 -45 -487 0
-494 45 0
-494 487 0
495 -47 -281 0
-495 47 0
-495 281 0
-496 49 494 495 0
496 -49 0
496 -494 0
496 -495 0
497 -51 -496 0
-497 51 0
-497 496 0
-498 53 488 411 412 415 493 497 0
498 -53 0
498 -488 0
498 -411 0
498 -412 0
498 -415 0
498 -493 0
498 -497 0
499 -55 -498 0
-499 55 0
-499 498 0
500 -164 -100 0
-500 164 0
-500 100 0
-501 166 500 0
501 -166 0
501 -500 0
502 -168 -501 0
-502 168 0
-502 501 0
-503 170 502 0
503 -170 0
503 -502 0
504 -178 -503 0
-504 178 0
-504 503 0
505 -67 -427 0
-505 67 0
-505 427 0
506 -72 -427 0
-506 72 0
-506 427 0
-507 3 506 0
507 -3 0
507 -506 0
508 -2 -507 0
-508 2 0
-508 507 0
-509 15 505 508 0
509 -15 0
509 -505 0
509 -508 0
510 -85 -509 0
-510 85 0
-510 509 0
511 -206 -503 0
-511 206 0
-511 503 0
-512 113 511 0
512 -113 0
512 -511 0
513 -112 -512 0
-513 112 0
-513 512 0
-514 53 88 173 437 93 97 0
514 -53 0
514 -88 0
514 -173 0
514 -437 0
514 -93 0
514 -97 0
515 -72 -514 0
-515 72 0
-515 514 0
-516 3 515 0
516 -3 0
516 -515 0
517 -164 -516 0
-517 164 0
-517 516 0
-518 166 517 0
518 -166 0
518 -517 0
519 -263 -518 0
-519 263 0
-519 518 0
-520 26 519 0
520 -26 0
520 -519 0
521 -115 -520 0
-521 115 0
-521 520 0
-522 117 499 504 510 513 521 0
522 -117 0
522 -499 0
522 -504 0
522 -510 0
522 -513 0
522 -521 0
523 -123 -522 0
-523 123 0
-523 522 0
-524 117 177 132 208 114 0
524 -117 0
524 -177 0
524 -132 0
524 -208 0
524 -114 0
525 -119 -524 0
-525 119 0
-525 524 0
-526 166 525 251 0
526 -166 0
526 -525 0
526 -251 0
527 -254 -526 0
-527 254 0
-527 526 0
-528 19 527 86 0
528 -19 0
528 -527 0
528 -86 0
529 -21 -528 0
-529 21 0
-529 528 0
530 -277 -526 0
-530 277 0
-530 526 0
531 -168 -526 0
-531 168 0
-531 526 0
-532 170 531 0
532 -170 0
532 -531 0
533 -174 -532 0
-533 174 0
-533 532 0
534 -263 -526 0
-534 263 0
-534 526 0
-535 26 534 0
535 -26 0
535 -534 0
536 -25 -535 0
-536 25 0
-536 535 0
-537 28 536 0
537 -28 0
537 -536 0
538 -30 -537 0
-538 30 0
-538 537 0
539 -32 -528 0
-539 32 0
-539 528 0
-540 117 258 132 261 265 0
540 -117 0
540 -258 0
540 -132 0
540 -261 0
540 -265 0
541 -147 -540 0
-541 147 0
-541 540 0
542 -298 -526 0
-542 298 0
-542 526 0
543 -149 -540 0
-543 149 0
-543 540 0
-544 35 542 543 0
544 -35 0
544 -542 0
544 -543 0
545 -34 -544 0
-545 34 0
-545 544 0
-546 37 539 541 545 0
546 -37 0
546 -539 0
546 -541 0
546 -545 0
547 -39 -546 0
-547 39 0
-547 546 0
-548 41 547 0
548 -41 0
548 -547 0
549 -43 -548 0
-549 43 0
-549 548 0
550 -45 -528 0
-550 45 0
-550 528 0
-551 49 550 95 0
551 -49 0
551 -550 0
551 -95 0
552 -51 -551 0
-552 51 0
-552 551 0
-553 53 529 530 533 538 549 552 0
553 -53 0
553 -529 0
553 -530 0
553 -533 0
553 -538 0
553 -549 0
553 -552 0
554 -72 -553 0
-554 72 0
-554 553 0
-555 3 554 0
555 -3 0
555 -554 0
556 -5 -555 0
-556 5 0
-556 555 0
-557 7 523 556 0
557 -7 0
557 -523 0
557 -556 0
558 -9 -557 0
-558 9 0
-558 557 0
-559 11 558 0
559 -11 0
559 -558 0
560 -106 -559 0
-560 106 0
-560 559 0
-561 108 560 0
561 -108 0
561 -560 0
562 -563 -561 0
-562 563 0
-562 561 0
-564 565 171 246 360 484 562 0
564 -565 0
564 -171 0
564 -246 0
564 -360 0
564 -484 0
564 -562 0
566 -567 -564 0
-566 567 0
-566 564 0
568 -172 -257 0
-568 172 0
-568 257 0
569 -247 -255 0
-569 247 0
-569 255 0
570 -314 -257 0
-570 314 0
-570 257 0
571 -357 -260 0
-571 357 0
-571 260 0
-572 359 570 571 0
572 -359 0
572 -570 0
572 -571 0
573 -361 -572 0
-573 361 0
-573 572 0
574 -485 -281 0
-574 485 0
-574 281 0
-575 565 568 569 573 574 0
575 -565 0
575 -568 0
575 -569 0
575 -573 0
575 -574 0
576 -577 -575 0
-576 577 0
-576 575 0
578 -579 -575 0
-578 579 0
-578 575 0
580 -581 -575 0
-580 581 0
-580 575 0
-582 37 489 580 419 0
582 -37 0
582 -489 0
582 -580 0
582 -419 0
583 -39 -582 0
-583 39 0
-583 582 0
-584 41 578 583 0
584 -41 0
584 -578 0
584 -583 0
585 -43 -584 0
-585 43 0
-585 584 0
-586 53 488 576 411 412 415 585 497 0
586 -53 0
586 -488 0
586 -576 0
586 -411 0
586 -412 0
586 -415 0
586 -585 0
586 -497 0
587 -55 -586 0
-587 55 0
-587 586 0
588 -357 -113 0
-588 357 0
-588 113 0
-589 359 588 0
589 -359 0
589 -588 0
590 -361 -589 0
-590 361 0
-590 589 0
591 -485 -15 0
-591 485 0
-591 15 0
-592 565 569 590 591 0
592 -565 0
592 -569 0
592 -590 0
592 -591 0
593 -577 -592 0
-593 577 0
-593 592 0
594 -579 -592 0
-594 579 0
-594 592 0
595 -581 -592 0
-595 581 0
-595 592 0
-596 37 89 595 33 0
596 -37 0
596 -89 0
596 -595 0
596 -33 0
597 -39 -596 0
-597 39 0
-597 596 0
-598 41 594 597 0
598 -41 0
598 -594 0
598 -597 0
599 -43 -598 0
-599 43 0
-599 598 0
-600 53 88 593 29 599 97 0
600 -53 0
600 -88 0
600 -593 0
600 -29 0
600 -599 0
600 -97 0
601 -72 -600 0
-601 72 0
-601 600 0
-602 3 601 0
602 -3 0
602 -601 0
603 -164 -602 0
-603 164 0
-603 602 0
-604 166 603 0
604 -166 0
604 -603 0
605 -168 -604 0
-605 168 0
-605 604 0
-606 170 605 0
606 -170 0
606 -605 0
607 -178 -606 0
-607 178 0
-607 606 0
608 -67 -586 0
-608 67 0
-608 586 0
-609 565 568 569 573 591 0
609 -565 0
609 -568 0
609 -569 0
609 -573 0
609 -591 0
610 -577 -609 0
-610 577 0
-610 609 0
611 -579 -609 0
-611 579 0
-611 609 0
612 -581 -609 0
-612 581 0
-612 609 0
-613 37 416 612 419 0
613 -37 0
613 -416 0
613 -612 0
613 -419 0
614 -39 -613 0
-614 39 0
-614 613 0
-615 41 611 614 0
615 -41 0
615 -611 0
615 -614 0
616 -43 -615 0
-616 43 0
-616 615 0
-617 53 410 610 411 412 415 616 426 0
617 -53 0
617 -410 0
617 -610 0
617 -411 0
617 -412 0
617 -415 0
617 -616 0
617 -426 0
618 -72 -617 0
-618 72 0
-618 617 0
-619 3 618 0
619 -3 0
619 -618 0
620 -2 -619 0
-620 2 0
-620 619 0
-621 15 608 620 0
621 -15 0
621 -608 0
621 -620 0
622 -85 -621 0
-622 85 0
-622 621 0
623 -206 -606 0
-623 206 0
-623 606 0
-624 113 623 0
624 -113 0
624 -623 0
625 -112 -624 0
-625 112 0
-625 624 0
626 -172 -170 0
-626 172 0
-626 170 0
627 -314 -170 0
-627 314 0
-627 170 0
628 -357 -207 0
-628 357 0
-628 207 0
-629 359 627 628 0
629 -359 0
629 -627 0
629 -628 0
630 -361 -629 0
-630 361 0
-630 629 0
-631 565 626 569 630 591 0
631 -565 0
631 -626 0
631 -569 0
631 -630 0
631 -591 0
632 -577 -631 0
-632 577 0
-632 631 0
633 -579 -631 0
-633 579 0
-633 631 0
634 -581 -631 0
-634 581 0
-634 631 0
-635 37 89 634 33 0
635 -37 0
635 -89 0
635 -634 0
635 -33 0
636 -39 -635 0
-636 39 0
-636 635 0
-637 41 633 636 0
637 -41 0
637 -633 0
637 -636 0
638 -43 -637 0
-638 43 0
-638 637 0
-639 53 88 632 173 437 638 97 0
639 -53 0
639 -88 0
639 -632 0
639 -173 0
639 -437 0
639 -638 0
639 -97 0
640 -72 -639 0
-640 72 0
-640 639 0
-641 3 640 0
641 -3 0
641 -640 0
642 -164 -641 0
-642 164 0
-642 641 0
-643 166 642 0
643 -166 0
643 -642 0
644 -263 -643 0
-644 263 0
-644 643 0
-645 26 644 0
645 -26 0
645 -644 0
646 -115 -645 0
-646 115 0
-646 645 0
-647 117 587 607 622 625 646 0
647 -117 0
647 -587 0
647 -607 0
647 -622 0
647 -625 0
647 -646 0
648 -123 -647 0
-648 123 0
-648 647 0
649 -172 -532 0
-649 172 0
-649 532 0
650 -247 -526 0
-650 247 0
-650 526 0
651 -314 -532 0
-651 314 0
-651 532 0
-652 117 132 114 0
652 -117 0
652 -132 0
652 -114 0
653 -119 -652 0
-653 119 0
-653 652 0
-654 166 653 251 0
654 -166 0
654 -653 0
654 -251 0
655 -168 -654 0
-655 168 0
-655 654 0
-656 170 655 0
656 -170 0
656 -655 0
657 -206 -656 0
-657 206 0
-657 656 0
-658 113 657 0
658 -113 0
658 -657 0
659 -357 -658 0
-659 357 0
-659 658 0
-660 359 651 659 0
660 -359 0
660 -651 0
660 -659 0
661 -361 -660 0
-661 361 0
-661 660 0
-662 565 649 650 661 591 0
662 -565 0
662 -649 0
662 -650 0
662 -661 0
662 -591 0
663 -577 -662 0
-663 577 0
-663 662 0
664 -579 -662 0
-664 579 0
-664 662 0
665 -581 -662 0
-665 581 0
-665 662 0
-666 37 539 665 541 545 0
666 -37 0
666 -539 0
666 -665 0
666 -541 0
666 -545 0
667 -39 -666 0
-667 39 0
-667 666 0
-668 41 664 667 0
668 -41 0
668 -664 0
668 -667 0
669 -43 -668 0
-669 43 0
-669 668 0
-670 53 529 663 530 533 538 669 552 0
670 -53 0
670 -529 0
670 -663 0
670 -530 0
670 -533 0
670 -538 0
670 -669 0
670 -552 0
671 -72 -670 0
-671 72 0
-671 670 0
-672 3 671 0
672 -3 0
672 -671 0
673 -5 -672 0
-673 5 0
-673 672 0
-674 7 648 673 0
674 -7 0
674 -648 0
674 -673 0
675 -9 -674 0
-675 9 0
-675 674 0
-676 11 675 0
676 -11 0
676 -675 0
677 -106 -676 0
-677 106 0
-677 676 0
-678 108 677 0
678 -108 0
678 -677 0
679 -680 -678 0
-679 680 0
-679 678 0
681 -485 -14 0
-681 485 0
-681 14 0
682 -563 -143 0
-682 563 0
-682 143 0
-683 565 626 569 630 681 682 0
683 -565 0
683 -626 0
683 -569 0
683 -630 0
683 -681 0
683 -682 0
684 -577 -683 0
-684 577 0
-684 683 0
685 -579 -683 0
-685 579 0
-685 683 0
686 -581 -683 0
-686 581 0
-686 683 0
-687 37 31 686 33 0
687 -37 0
687 -31 0
687 -686 0
687 -33 0
688 -39 -687 0
-688 39 0
-688 687 0
-689 41 685 688 0
689 -41 0
689 -685 0
689 -688 0
690 -43 -689 0
-690 43 0
-690 689 0
-691 53 20 684 173 22 437 690 50 0
691 -53 0
691 -20 0
691 -684 0
691 -173 0
691 -22 0
691 -437 0
691 -690 0
691 -50 0
692 -55 -691 0
-692 55 0
-692 691 0
-693 37 57 686 33 0
693 -37 0
693 -57 0
693 -686 0
693 -33 0
694 -39 -693 0
-694 39 0
-694 693 0
-695 41 685 694 0
695 -41 0
695 -685 0
695 -694 0
696 -43 -695 0
-696 43 0
-696 695 0
-697 53 56 684 173 22 437 696 64 0
697 -53 0
697 -56 0
697 -684 0
697 -173 0
697 -22 0
697 -437 0
697 -696 0
697 -64 0
698 -67 -697 0
-698 67 0
-698 697 0
-699 565 626 569 630 682 0
699 -565 0
699 -626 0
699 -569 0
699 -630 0
699 -682 0
700 -577 -699 0
-700 577 0
-700 699 0
701 -579 -699 0
-701 579 0
-701 699 0
702 -581 -699 0
-702 581 0
-702 699 0
-703 37 57 702 33 0
703 -37 0
703 -57 0
703 -702 0
703 -33 0
704 -39 -703 0
-704 39 0
-704 703 0
-705 41 701 704 0
705 -41 0
705 -701 0
705 -704 0
706 -43 -705 0
-706 43 0
-706 705 0
-707 53 56 700 173 22 437 706 69 0
707 -53 0
707 -56 0
707 -700 0
707 -173 0
707 -22 0
707 -437 0
707 -706 0
707 -69 0
708 -72 -707 0
-708 72 0
-708 707 0
-709 3 708 0
709 -3 0
709 -708 0
710 -2 -709 0
-710 2 0
-710 709 0
711 -563 -108 0
-711 563 0
-711 108 0
-712 565 626 569 630 591 711 0
712 -565 0
712 -626 0
712 -569 0
712 -630 0
712 -591 0
712 -711 0
713 -577 -712 0
-713 577 0
-713 712 0
714 -579 -712 0
-714 579 0
-714 712 0
715 -581 -712 0
-715 581 0
-715 712 0
-716 37 57 715 33 0
716 -37 0
716 -57 0
716 -715 0
716 -33 0
717 -39 -716 0
-717 39 0
-717 716 0
-718 41 714 717 0
718 -41 0
718 -714 0
718 -717 0
719 -43 -718 0
-719 43 0
-719 718 0
-720 53 56 713 173 437 719 69 0
720 -53 0
720 -56 0
720 -713 0
720 -173 0
720 -437 0
720 -719 0
720 -69 0
721 -72 -720 0
-721 72 0
-721 720 0
-722 3 721 0
722 -3 0
722 -721 0
723 -5 -722 0
-723 5 0
-723 722 0
-724 7 723 0
724 -7 0
724 -723 0
725 -9 -724 0
-725 9 0
-725 724 0
-726 11 725 0
726 -11 0
726 -725 0
727 -13 -726 0
-727 13 0
-727 726 0
-728 15 698 710 727 0
728 -15 0
728 -698 0
728 -710 0
728 -727 0
729 -85 -728 0
-729 85 0
-729 728 0
730 -5 -641 0
-730 5 0
-730 641 0
-731 7 730 0
731 -7 0
731 -730 0
732 -9 -731 0
-732 9 0
-732 731 0
-733 11 732 0
733 -11 0
733 -732 0
734 -106 -733 0
-734 106 0
-734 733 0
-735 108 734 0
735 -108 0
735 -734 0
736 -110 -735 0
-736 110 0
-736 735 0
-737 117 692 177 729 736 208 114 0
737 -117 0
737 -692 0
737 -177 0
737 -729 0
737 -736 0
737 -208 0
737 -114 0
738 -119 -737 0
-738 119 0
-738 737 0
739 -485 -217 0
-739 485 0
-739 217 0
740 -123 -524 0
-740 123 0
-740 524 0
-741 7 740 4 0
741 -7 0
741 -740 0
741 -4 0
742 -9 -741 0
-742 9 0
-742 741 0
-743 11 742 0
743 -11 0
743 -742 0
744 -106 -743 0
-744 106 0
-744 743 0
-745 108 744 0
745 -108 0
745 -744 0
746 -563 -745 0
-746 563 0
-746 745 0
-747 565 626 630 739 746 0
747 -565 0
747 -626 0
747 -630 0
747 -739 0
747 -746 0
748 -577 -747 0
-748 577 0
-748 747 0
749 -579 -747 0
-749 579 0
-749 747 0
750 -581 -747 0
-750 581 0
-750 747 0
-751 37 227 750 229 232 0
751 -37 0
751 -227 0
751 -750 0
751 -229 0
751 -232 0
752 -39 -751 0
-752 39 0
-752 751 0
-753 41 749 752 0
753 -41 0
753 -749 0
753 -752 0
754 -43 -753 0
-754 43 0
-754 753 0
-755 53 220 748 173 226 437 754 240 0
755 -53 0
755 -220 0
755 -748 0
755 -173 0
755 -226 0
755 -437 0
755 -754 0
755 -240 0
756 -72 -755 0
-756 72 0
-756 755 0
-757 3 756 0
757 -3 0
757 -756 0
758 -164 -757 0
-758 164 0
-758 757 0
-759 166 738 758 0
759 -166 0
759 -738 0
759 -758 0
760 -263 -759 0
-760 263 0
-760 759 0
-761 26 760 0
761 -26 0
761 -760 0
762 -763 -761 0
-762 763 0
-762 761 0
-764 765 566 679 762 0
764 -765 0
764 -566 0
764 -679 0
764 -762 0
766 -764 -767 0
-766 764 0
-766 767 0
766 0
