c BC-S1.2
p cnf 100 246
1 -2 -3 0
-1 2 0
-1 3 0
4 -5 -3 0
-4 5 0
-4 3 0
6 -7 -3 0
-6 7 0
-6 3 0
-8 9 6 0
8 -9 0
8 -6 0
10 -11 -8 0
-10 11 0
-10 8 0
12 -13 -14 0
-12 13 0
-12 14 0
-15 16 4 10 12 0
15 -16 0
15 -4 0
15 -10 0
15 -12 0
17 -18 -15 0
-17 18 0
-17 15 0
-19 20 1 17 0
19 -20 0
19 -1 0
19 -17 0
21 -22 -19 0
-21 22 0
-21 19 0
23 -24 -19 0
-23 24 0
-23 19 0
25 -26 -3 0
-25 26 0
-25 3 0
-27 16 4 12 0
27 -16 0
27 -4 0
27 -12 0
28 -18 -27 0
-28 18 0
-28 27 0
-29 20 1 28 0
29 -20 0
29 -1 0
29 -28 0
30 -31 -29 0
-30 31 0
-30 29 0
-32 9 30 6 0
32 -9 0
32 -30 0
32 -6 0
33 -34 -32 0
-33 34 0
-33 32 0
-35 36 23 25 33 0
35 -36 0
35 -23 0
35 -25 0
35 -33 0
37 -38 -35 0
-37 38 0
-37 35 0
-39 40 21 37 0
39 -40 0
39 -21 0
39 -37 0
41 -42 -39 0
-41 42 0
-41 39 0
43 -44 -40 0
-43 44 0
-43 40 0
-45 9 43 6 0
45 -9 0
45 -43 0
45 -6 0
46 -11 -45 0
-46 11 0
-46 45 0
-47 16 4 46 12 0
47 -16 0
47 -4 0
47 -46 0
47 -12 0
48 -18 -47 0
-48 18 0
-48 47 0
-49 20 1 48 0
49 -20 0
49 -1 0
49 -48 0
50 -24 -49 0
-50 24 0
-50 49 0
51 -22 -29 0
-51 22 0
-51 29 0
-52 40 51 0
52 -40 0
52 -51 0
53 -44 -52 0
-53 44 0
-53 52 0
-54 9 30 53 6 0
54 -9 0
54 -30 0
54 -53 0
54 -6 0
55 -34 -54 0
-55 34 0
-55 54 0
-56 36 50 25 55 0
56 -36 0
56 -50 0
56 -25 0
56 -55 0
57 -58 -56 0
-57 58 0
-57 56 0
59 -60 -14 0
-59 60 0
-59 14 0
-61 62 41 57 59 0
61 -62 0
61 -41 0
61 -57 0
61 -59 0
63 -64 -61 0
-63 64 0
-63 61 0
-65 36 25 0
65 -36 0
65 -25 0
66 -38 -65 0
-66 38 0
-66 65 0
-67 40 66 0
67 -40 0
67 -66 0
68 -42 -67 0
-68 42 0
-68 67 0
-69 62 68 57 59 0
69 -62 0
69 -68 0
69 -57 0
69 -59 0
70 -71 -69 0
-70 71 0
-70 69 0
72 -58 -65 0
-72 58 0
-72 65 0
-73 62 68 72 59 0
73 -62 0
73 -68 0
73 -72 0
73 -59 0
74 -75 -73 0
-74 75 0
-74 73 0
-76 16 4 74 12 0
76 -16 0
76 -4 0
76 -74 0
76 -12 0
77 -18 -76 0
-77 18 0
-77 76 0
-78 20 1 70 77 0
78 -20 0
78 -1 0
78 -70 0
78 -77 0
79 -31 -78 0
-79 31 0
-79 78 0
-80 62 72 59 0
80 -62 0
80 -72 0
80 -59 0
81 -71 -80 0
-81 71 0
-81 80 0
82 -75 -80 0
-82 75 0
-82 80 0
-83 16 4 82 12 0
83 -16 0
83 -4 0
83 -82 0
83 -12 0
84 -18 -83 0
-84 18 0
-84 83 0
-85 20 1 81 84 0
85 -20 0
85 -1 0
85 -81 0
85 -84 0
86 -22 -85 0
-86 22 0
-86 85 0
87 -24 -85 0
-87 24 0
-87 85 0
-88 36 87 25 0
88 -36 0
88 -87 0
88 -25 0
89 -38 -88 0
-89 38 0
-89 88 0
-90 40 86 89 0
90 -40 0
90 -86 0
90 -89 0
91 -44 -90 0
-91 44 0
-91 90 0
-92 9 79 91 6 0
92 -9 0
92 -79 0
92 -91 0
92 -6 0
93 -94 -92 0
-93 94 0
-93 92 0
95 -96 -14 0
-95 96 0
-95 14 0
-97 98 63 93 95 0
97 -98 0
97 -63 0
97 -93 0
97 -95 0
99 -97 -100 0
-99 97 0
-99 100 0
99 0
