c BC-S1.2
p cnf 681 2035
1 -2 -3 0
-1 2 0
-1 3 0
4 -3 -5 0
-4 3 0
-4 5 0
6 -2 -7 0
-6 2 0
-6 7 0
8 -5 -7 0
-8 5 0
-8 7 0
9 -3 -10 0
-9 3 0
-9 10 0
11 -7 -10 0
-11 7 0
-11 10 0
12 -10 -13 0
-12 10 0
-12 13 0
14 -5 -13 0
-14 5 0
-14 13 0
15 -16 -17 0
-15 16 0
-15 17 0
18 -19 -17 0
-18 19 0
-18 17 0
20 -2 -17 0
-20 2 0
-20 17 0
21 -13 -17 0
-21 13 0
-21 17 0
22 -7 -17 0
-22 7 0
-22 17 0
23 -3 -17 0
-23 3 0
-23 17 0
24 -10 -17 0
-24 10 0
-24 17 0
25 -5 -17 0
-25 5 0
-25 17 0
26 -2 -27 0
-26 2 0
-26 27 0
28 -5 -27 0
-28 5 0
-28 27 0
29 -19 -27 0
-29 19 0
-29 27 0
30 -13 -27 0
-30 13 0
-30 27 0
31 -3 -27 0
-31 3 0
-31 27 0
32 -17 -27 0
-32 17 0
-32 27 0
33 -10 -27 0
-33 10 0
-33 27 0
34 2 -27 0
-34 -2 0
-34 27 0
35 2 -10 0
-35 -2 0
-35 10 0
36 2 -13 0
-36 -2 0
-36 13 0
37 2 -17 0
-37 -2 0
-37 17 0
38 3 -27 0
-38 -3 0
-38 27 0
39 2 3 0
-39 -2 0
-39 -3 0
40 3 -5 0
-40 -3 0
-40 5 0
41 3 -13 0
-41 -3 0
-41 13 0
42 3 -7 0
-42 -3 0
-42 7 0
43 3 -17 0
-43 -3 0
-43 17 0
44 3 -19 0
-44 -3 0
-44 19 0
45 3 -10 0
-45 -3 0
-45 10 0
46 -2 5 0
-46 2 0
-46 -5 0
47 2 5 0
-47 -2 0
-47 -5 0
48 5 -13 0
-48 -5 0
-48 13 0
49 5 -17 0
-49 -5 0
-49 17 0
50 3 5 0
-50 -3 0
-50 -5 0
51 5 -27 0
-51 -5 0
-51 27 0
52 5 -10 0
-52 -5 0
-52 10 0
53 5 -7 0
-53 -5 0
-53 7 0
54 -7 -4 0
-54 7 0
-54 4 0
55 5 7 0
-55 -5 0
-55 -7 0
56 -3 7 0
-56 3 0
-56 -7 0
57 2 7 0
-57 -2 0
-57 -7 0
58 -5 7 0
-58 5 0
-58 -7 0
59 3 7 0
-59 -3 0
-59 -7 0
60 7 -27 0
-60 -7 0
-60 27 0
61 7 -19 0
-61 -7 0
-61 19 0
62 7 -17 0
-62 -7 0
-62 17 0
63 -7 19 0
-63 7 0
-63 -19 0
64 7 10 0
-64 -7 0
-64 -10 0
65 5 10 0
-65 -5 0
-65 -10 0
66 10 -17 0
-66 -10 0
-66 17 0
67 -2 10 0
-67 2 0
-67 -10 0
68 -5 10 0
-68 5 0
-68 -10 0
69 10 -13 0
-69 -10 0
-69 13 0
70 -7 10 0
-70 7 0
-70 -10 0
71 3 10 0
-71 -3 0
-71 -10 0
72 13 -27 0
-72 -13 0
-72 27 0
73 13 -17 0
-73 -13 0
-73 17 0
74 3 13 0
-74 -3 0
-74 -13 0
75 10 13 0
-75 -10 0
-75 -13 0
76 -7 13 0
-76 7 0
-76 -13 0
77 2 13 0
-77 -2 0
-77 -13 0
78 16 -27 0
-78 -16 0
-78 27 0
79 -3 16 0
-79 3 0
-79 -16 0
80 -19 16 0
-80 19 0
-80 -16 0
81 -3 17 0
-81 3 0
-81 -17 0
82 5 17 0
-82 -5 0
-82 -17 0
83 -10 17 0
-83 10 0
-83 -17 0
84 17 -27 0
-84 -17 0
-84 27 0
85 13 17 0
-85 -13 0
-85 -17 0
86 7 17 0
-86 -7 0
-86 -17 0
87 3 17 0
-87 -3 0
-87 -17 0
88 -7 17 0
-88 7 0
-88 -17 0
89 -13 17 0
-89 13 0
-89 -17 0
90 17 -1 0
-90 -17 0
-90 1 0
91 2 17 0
-91 -2 0
-91 -17 0
92 10 -15 0
-92 -10 0
-92 15 0
93 -13 -18 0
-93 13 0
-93 18 0
94 -2 -21 0
-94 2 0
-94 21 0
95 5 -24 0
-95 -5 0
-95 24 0
96 -2 27 0
-96 2 0
-96 -27 0
97 -3 27 0
-97 3 0
-97 -27 0
98 10 27 0
-98 -10 0
-98 -27 0
99 -5 27 0
-99 5 0
-99 -27 0
100 2 27 0
-100 -2 0
-100 -27 0
101 3 27 0
-101 -3 0
-101 -27 0
102 17 27 0
-102 -17 0
-102 -27 0
103 -13 27 0
-103 13 0
-103 -27 0
104 -17 27 0
-104 17 0
-104 -27 0
105 -16 27 0
-105 16 0
-105 -27 0
106 27 -21 0
-106 -27 0
-106 21 0
107 -10 27 0
-107 10 0
-107 -27 0
108 27 -15 0
-108 -27 0
-108 15 0
109 -17 -26 0
-109 17 0
-109 26 0
110 -15 -26 0
-110 15 0
-110 26 0
111 -28 -20 0
-111 28 0
-111 20 0
112 10 -28 0
-112 -10 0
-112 28 0
113 -17 -30 0
-113 17 0
-113 30 0
114 -5 -31 0
-114 5 0
-114 31 0
115 -10 -31 0
-115 10 0
-115 31 0
116 -20 -31 0
-116 20 0
-116 31 0
117 7 -32 0
-117 -7 0
-117 32 0
118 17 -33 0
-118 -17 0
-118 33 0
119 -17 -33 0
-119 17 0
-119 33 0
120 -5 -34 0
-120 5 0
-120 34 0
121 -34 -25 0
-121 34 0
-121 25 0
122 -38 -47 0
-122 38 0
-122 47 0
123 -2 -49 0
-123 2 0
-123 49 0
124 2 -50 0
-124 -2 0
-124 50 0
125 -7 -52 0
-125 7 0
-125 52 0
126 2 -55 0
-126 -2 0
-126 55 0
127 -38 -58 0
-127 38 0
-127 58 0
128 5 -59 0
-128 -5 0
-128 59 0
129 -3 -60 0
-129 3 0
-129 60 0
130 5 -61 0
-130 -5 0
-130 61 0
131 5 6 0
-131 -5 0
-131 -6 0
132 -59 -67 0
-132 59 0
-132 67 0
133 17 -69 0
-133 -17 0
-133 69 0
134 -5 -69 0
-134 5 0
-134 69 0
135 7 -69 0
-135 -7 0
-135 69 0
136 27 -69 0
-136 -27 0
-136 69 0
137 -72 -24 0
-137 72 0
-137 24 0
138 -75 -32 0
-138 75 0
-138 32 0
139 -5 -76 0
-139 5 0
-139 76 0
140 -37 -76 0
-140 37 0
-140 76 0
141 -64 -80 0
-141 64 0
-141 80 0
142 -65 -57 -74 -80 0
-142 65 0
-142 57 0
-142 74 0
-142 80 0
143 -10 -82 0
-143 10 0
-143 82 0
144 2 -82 0
-144 -2 0
-144 82 0
145 -83 -54 0
-145 83 0
-145 54 0
146 -28 -83 0
-146 28 0
-146 83 0
147 -35 -84 0
-147 35 0
-147 84 0
148 3 -84 0
-148 -3 0
-148 84 0
149 -88 -50 0
-149 88 0
-149 50 0
150 27 -89 0
-150 -27 0
-150 89 0
151 -28 -91 0
-151 28 0
-151 91 0
152 5 22 0
-152 -5 0
-152 -22 0
153 -13 23 0
-153 13 0
-153 -23 0
154 -96 -40 0
-154 96 0
-154 40 0
155 -96 -87 0
-155 96 0
-155 87 0
156 5 -97 0
-156 -5 0
-156 97 0
157 -97 -49 0
-157 97 0
-157 49 0
158 -5 -97 0
-158 5 0
-158 97 0
159 17 -98 0
-159 -17 0
-159 98 0
160 -99 -39 0
-160 99 0
-160 39 0
161 -99 -73 0
-161 99 0
-161 73 0
162 -100 -82 0
-162 100 0
-162 82 0
163 17 -101 0
-163 -17 0
-163 101 0
164 13 -102 0
-164 -13 0
-164 102 0
165 5 -102 0
-165 -5 0
-165 102 0
166 -5 -102 0
-166 5 0
-166 102 0
167 -3 -104 0
-167 3 0
-167 104 0
168 2 -107 0
-168 -2 0
-168 107 0
169 -53 -107 0
-169 53 0
-169 107 0
170 -50 -107 0
-170 50 0
-170 107 0
171 -46 -108 0
-171 46 0
-171 108 0
172 -7 30 0
-172 7 0
-172 -30 0
173 31 24 0
-173 -31 0
-173 -24 0
174 -7 32 0
-174 7 0
-174 -32 0
175 13 33 0
-175 -13 0
-175 -33 0
176 17 33 0
-176 -17 0
-176 -33 0
177 -8 -119 0
-177 8 0
-177 119 0
178 -3 34 0
-178 3 0
-178 -34 0
179 3 34 0
-179 -3 0
-179 -34 0
180 35 -42 0
-180 -35 0
-180 42 0
181 5 36 0
-181 -5 0
-181 -36 0
182 10 37 0
-182 -10 0
-182 -37 0
183 -13 38 0
-183 13 0
-183 -38 0
184 -5 39 0
-184 5 0
-184 -39 0
185 -5 41 0
-185 5 0
-185 -41 0
186 -10 42 0
-186 10 0
-186 -42 0
187 -7 48 0
-187 7 0
-187 -48 0
188 -7 49 0
-188 7 0
-188 -49 0
189 -27 55 0
-189 27 0
-189 -55 0
190 -10 55 0
-190 10 0
-190 -55 0
191 55 -69 0
-191 -55 0
-191 69 0
192 -126 -44 0
-192 126 0
-192 44 0
193 -16 58 0
-193 16 0
-193 -58 0
194 10 58 0
-194 -10 0
-194 -58 0
195 -89 -129 0
-195 89 0
-195 129 0
196 -39 -130 0
-196 39 0
-196 130 0
197 30 62 0
-197 -30 0
-197 -62 0
198 61 63 0
-198 -61 0
-198 -63 0
199 64 45 0
-199 -64 0
-199 -45 0
200 2 65 0
-200 -2 0
-200 -65 0
201 66 30 0
-201 -66 0
-201 -30 0
202 35 67 0
-202 -35 0
-202 -67 0
203 -7 68 0
-203 7 0
-203 -68 0
204 13 68 0
-204 -13 0
-204 -68 0
205 68 11 0
-205 -68 0
-205 -11 0
206 -59 -133 0
-206 59 0
-206 133 0
207 -5 71 0
-207 5 0
-207 -71 0
208 -7 72 0
-208 7 0
-208 -72 0
209 -5 73 0
-209 5 0
-209 -73 0
210 -10 73 0
-210 10 0
-210 -73 0
211 74 5 37 1 0
-211 -74 0
-211 -5 0
-211 -37 0
-211 -1 0
212 -19 75 0
-212 19 0
-212 -75 0
213 -67 -139 0
-213 67 0
-213 139 0
214 32 -139 0
-214 -32 0
-214 139 0
215 17 77 0
-215 -17 0
-215 -77 0
216 79 -98 0
-216 -79 0
-216 98 0
217 -124 -141 0
-217 124 0
-217 141 0
218 13 81 0
-218 -13 0
-218 -81 0
219 -143 -74 0
-219 143 0
-219 74 0
220 -31 -144 0
-220 31 0
-220 144 0
221 82 25 0
-221 -82 0
-221 -25 0
222 18 83 0
-222 -18 0
-222 -83 0
223 56 84 0
-223 -56 0
-223 -84 0
224 66 86 0
-224 -66 0
-224 -86 0
225 13 86 0
-225 -13 0
-225 -86 0
226 13 88 0
-226 -13 0
-226 -88 0
227 -53 -150 0
-227 53 0
-227 150 0
228 67 91 0
-228 -67 0
-228 -91 0
229 92 78 0
-229 -92 0
-229 -78 0
230 81 94 0
-230 -81 0
-230 -94 0
231 3 96 0
-231 -3 0
-231 -96 0
232 5 96 0
-232 -5 0
-232 -96 0
233 16 97 0
-233 -16 0
-233 -97 0
234 -17 97 0
-234 17 0
-234 -97 0
235 98 85 0
-235 -98 0
-235 -85 0
236 2 98 0
-236 -2 0
-236 -98 0
237 7 98 0
-237 -7 0
-237 -98 0
238 -92 -160 0
-238 92 0
-238 160 0
239 -17 99 0
-239 17 0
-239 -99 0
240 99 51 0
-240 -99 0
-240 -51 0
241 99 11 0
-241 -99 0
-241 -11 0
242 100 26 0
-242 -100 0
-242 -26 0
243 100 84 0
-243 -100 0
-243 -84 0
244 -126 -163 0
-244 126 0
-244 163 0
245 101 31 0
-245 -101 0
-245 -31 0
246 7 -164 0
-246 -7 0
-246 164 0
247 102 32 0
-247 -102 0
-247 -32 0
248 -5 102 0
-248 5 0
-248 -102 0
249 3 102 0
-249 -3 0
-249 -102 0
250 -6 -166 0
-250 6 0
-250 166 0
251 103 29 0
-251 -103 0
-251 -29 0
252 85 104 0
-252 -85 0
-252 -104 0
253 84 104 0
-253 -84 0
-253 -104 0
254 -69 -167 0
-254 69 0
-254 167 0
255 -17 105 0
-255 17 0
-255 -105 0
256 102 109 0
-256 -102 0
-256 -109 0
257 100 110 0
-257 -100 0
-257 -110 0
258 43 114 0
-258 -43 0
-258 -114 0
259 102 116 0
-259 -102 0
-259 -116 0
260 7 118 0
-260 -7 0
-260 -118 0
261 13 119 0
-261 -13 0
-261 -119 0
262 -49 -180 0
-262 49 0
-262 180 0
263 19 -184 0
-263 -19 0
-263 184 0
264 10 122 0
-264 -10 0
-264 -122 0
265 -63 124 0
-265 63 0
-265 -124 0
266 -189 -43 0
-266 189 0
-266 43 0
267 127 81 0
-267 -127 0
-267 -81 0
268 -19 128 0
-268 19 0
-268 -128 0
269 16 128 0
-269 -16 0
-269 -128 0
270 123 -202 0
-270 -123 0
-270 202 0
271 76 136 0
-271 -76 0
-271 -136 0
272 12 138 0
-272 -12 0
-272 -138 0
273 10 -214 0
-273 -10 0
-273 214 0
274 89 140 0
-274 -89 0
-274 -140 0
275 94 144 0
-275 -94 0
-275 -144 0
276 -2 -224 0
-276 2 0
-276 224 0
277 9 149 0
-277 -9 0
-277 -149 0
278 -97 -228 0
-278 97 0
-278 228 0
279 2 152 0
-279 -2 0
-279 -152 0
280 3 152 0
-280 -3 0
-280 -152 0
281 27 153 0
-281 -27 0
-281 -153 0
282 -232 1 0
-282 232 0
-282 -1 0
283 28 156 0
-283 -28 0
-283 -156 0
284 113 159 0
-284 -113 0
-284 -159 0
285 159 137 0
-285 -159 0
-285 -137 0
286 -5 -236 0
-286 5 0
-286 236 0
287 111 162 0
-287 -111 0
-287 -162 0
288 163 120 0
-288 -163 0
-288 -120 0
289 163 31 0
-289 -163 0
-289 -31 0
290 87 -245 0
-290 -87 0
-290 245 0
291 -245 71 0
-291 245 0
-291 -71 0
292 164 93 0
-292 -164 0
-292 -93 0
293 10 -252 0
-293 -10 0
-293 252 0
294 101 -253 0
-294 -101 0
-294 253 0
295 129 170 0
-295 -129 0
-295 -170 0
296 -37 172 0
-296 37 0
-296 -172 0
297 -175 173 0
-297 175 0
-297 -173 0
298 20 174 0
-298 -20 0
-298 -174 0
299 -37 175 0
-299 37 0
-299 -175 0
300 -237 176 0
-300 237 0
-300 -176 0
301 38 178 0
-301 -38 0
-301 -178 0
302 17 179 0
-302 -17 0
-302 -179 0
303 -66 181 0
-303 66 0
-303 -181 0
304 11 182 0
-304 -11 0
-304 -182 0
305 97 183 0
-305 -97 0
-305 -183 0
306 185 87 0
-306 -185 0
-306 -87 0
307 186 -165 0
-307 -186 0
-307 165 0
308 -101 187 0
-308 101 0
-308 -187 0
309 -10 188 0
-309 10 0
-309 -188 0
310 189 6 0
-310 -189 0
-310 -6 0
311 190 54 0
-311 -190 0
-311 -54 0
312 191 139 0
-312 -191 0
-312 -139 0
313 12 192 0
-313 -12 0
-313 -192 0
314 -13 194 0
-314 13 0
-314 -194 0
315 -2 197 0
-315 2 0
-315 -197 0
316 198 -124 0
-316 -198 0
-316 124 0
317 57 199 0
-317 -57 0
-317 -199 0
318 5 199 101 60 0
-318 -5 0
-318 -199 0
-318 -101 0
-318 -60 0
319 200 4 0
-319 -200 0
-319 -4 0
320 2 201 0
-320 -2 0
-320 -201 0
321 201 21 0
-321 -201 0
-321 -21 0
322 -17 203 0
-322 17 0
-322 -203 0
323 -34 204 0
-323 34 0
-323 -204 0
324 188 205 0
-324 -188 0
-324 -205 0
325 27 207 0
-325 -27 0
-325 -207 0
326 208 14 0
-326 -208 0
-326 -14 0
327 -7 210 0
-327 7 0
-327 -210 0
328 7 212 0
-328 -7 0
-328 -212 0
329 16 213 0
-329 -16 0
-329 -213 0
330 67 215 0
-330 -67 0
-330 -215 0
331 -5 218 0
-331 5 0
-331 -218 0
332 135 219 0
-332 -135 0
-332 -219 0
333 2 221 0
-333 -2 0
-333 -221 0
334 13 222 0
-334 -13 0
-334 -222 0
335 60 223 0
-335 -60 0
-335 -223 0
336 -5 224 0
-336 5 0
-336 -224 0
337 -248 225 0
-337 248 0
-337 -225 0
338 226 70 0
-338 -226 0
-338 -70 0
339 -3 229 0
-339 3 0
-339 -229 0
340 5 230 0
-340 -5 0
-340 -230 0
341 231 -233 0
-341 -231 0
-341 233 0
342 17 231 0
-342 -17 0
-342 -231 0
343 -13 232 0
-343 13 0
-343 -232 0
344 -183 234 0
-344 183 0
-344 -234 0
345 5 235 0
-345 -5 0
-345 -235 0
346 239 166 0
-346 -239 0
-346 -166 0
347 -2 240 0
-347 2 0
-347 -240 0
348 2 241 0
-348 -2 0
-348 -241 0
349 -3 242 0
-349 3 0
-349 -242 0
350 242 -52 0
-350 -242 0
-350 52 0
351 13 243 0
-351 -13 0
-351 -243 0
352 -86 245 0
-352 86 0
-352 -245 0
353 -77 -290 0
-353 77 0
-353 290 0
354 -13 247 0
-354 13 0
-354 -247 0
355 247 131 0
-355 -247 0
-355 -131 0
356 109 248 0
-356 -109 0
-356 -248 0
357 -5 249 0
-357 5 0
-357 -249 0
358 251 12 0
-358 -251 0
-358 -12 0
359 -5 253 0
-359 5 0
-359 -253 0
360 -40 255 0
-360 40 0
-360 -255 0
361 -10 256 0
-361 10 0
-361 -256 0
362 -3 257 0
-362 3 0
-362 -257 0
363 -13 258 0
-363 13 0
-363 -258 0
364 -16 259 0
-364 16 0
-364 -259 0
365 5 260 0
-365 -5 0
-365 -260 0
366 -5 -300 0
-366 5 0
-366 300 0
367 7 261 0
-367 -7 0
-367 -261 0
368 -64 -301 0
-368 64 0
-368 301 0
369 -4 -304 0
-369 4 0
-369 304 0
370 -7 -306 0
-370 7 0
-370 306 0
371 -13 264 0
-371 13 0
-371 -264 0
372 196 265 0
-372 -196 0
-372 -265 0
373 2 267 0
-373 -2 0
-373 -267 0
374 -2 269 0
-374 2 0
-374 -269 0
375 5 -317 0
-375 -5 0
-375 317 0
376 -2 -321 0
-376 2 0
-376 321 0
377 -3 270 0
-377 3 0
-377 -270 0
378 -3 -324 0
-378 3 0
-378 324 0
379 17 271 0
-379 -17 0
-379 -271 0
380 13 -325 0
-380 -13 0
-380 325 0
381 272 -130 0
-381 -272 0
-381 130 0
382 -27 274 0
-382 27 0
-382 -274 0
383 27 275 0
-383 -27 0
-383 -275 0
384 13 -335 0
-384 -13 0
-384 335 0
385 143 276 0
-385 -143 0
-385 -276 0
386 -2 277 0
-386 2 0
-386 -277 0
387 280 209 0
-387 -280 0
-387 -209 0
388 5 281 0
-388 -5 0
-388 -281 0
389 184 282 0
-389 -184 0
-389 -282 0
390 283 -57 0
-390 -283 0
-390 57 0
391 -5 285 0
-391 5 0
-391 -285 0
392 -5 -349 0
-392 5 0
-392 349 0
393 -55 -349 0
-393 55 0
-393 349 0
394 5 -351 0
-394 -5 0
-394 351 0
395 -10 287 0
-395 10 0
-395 -287 0
396 -10 288 0
-396 10 0
-396 -288 0
397 -2 289 0
-397 2 0
-397 -289 0
398 -58 291 0
-398 58 0
-398 -291 0
399 -10 292 0
-399 10 0
-399 -292 0
400 -354 -240 0
-400 354 0
-400 240 0
401 2 -354 0
-401 -2 0
-401 354 0
402 17 -358 0
-402 -17 0
-402 358 0
403 293 5 3 -61 0
-403 -293 0
-403 -5 0
-403 -3 0
-403 61 0
404 -5 294 0
-404 5 0
-404 -294 0
405 2 -359 0
-405 -2 0
-405 359 0
406 2 295 0
-406 -2 0
-406 -295 0
407 237 296 0
-407 -237 0
-407 -296 0
408 5 -364 0
-408 -5 0
-408 364 0
409 13 298 0
-409 -13 0
-409 -298 0
410 30 299 0
-410 -30 0
-410 -299 0
411 302 154 0
-411 -302 0
-411 -154 0
412 85 303 0
-412 -85 0
-412 -303 0
413 -17 305 0
-413 17 0
-413 -305 0
414 307 266 0
-414 -307 0
-414 -266 0
415 28 308 0
-415 -28 0
-415 -308 0
416 3 310 0
-416 -3 0
-416 -310 0
417 -27 312 0
-417 27 0
-417 -312 0
418 16 313 0
-418 -16 0
-418 -313 0
419 374 193 0
-419 -374 0
-419 -193 0
420 263 316 0
-420 -263 0
-420 -316 0
421 27 319 0
-421 -27 0
-421 -319 0
422 320 -284 0
-422 -320 0
-422 284 0
423 309 322 0
-423 -309 0
-423 -322 0
424 19 326 0
-424 -19 0
-424 -326 0
425 133 327 0
-425 -133 0
-425 -327 0
426 249 329 0
-426 -249 0
-426 -329 0
427 27 330 0
-427 -27 0
-427 -330 0
428 27 332 0
-428 -27 0
-428 -332 0
429 123 333 0
-429 -123 0
-429 -333 0
430 29 334 0
-430 -29 0
-430 -334 0
431 336 95 0
-431 -336 0
-431 -95 0
432 339 216 0
-432 -339 0
-432 -216 0
433 90 340 0
-433 -90 0
-433 -340 0
434 178 342 0
-434 -178 0
-434 -342 0
435 17 -389 0
-435 -17 0
-435 389 0
436 331 344 0
-436 -331 0
-436 -344 0
437 -13 -390 0
-437 13 0
-437 390 0
438 345 297 0
-438 -345 0
-438 -297 0
439 347 168 0
-439 -347 0
-439 -168 0
440 348 125 0
-440 -348 0
-440 -125 0
441 -10 -392 0
-441 10 0
-441 392 0
442 350 323 0
-442 -350 0
-442 -323 0
443 8 355 0
-443 -8 0
-443 -355 0
444 -13 356 0
-444 13 0
-444 -356 0
445 183 357 0
-445 -183 0
-445 -357 0
446 156 360 0
-446 -156 0
-446 -360 0
447 361 112 0
-447 -361 0
-447 -112 0
448 362 155 0
-448 -362 0
-448 -155 0
449 363 -346 0
-449 -363 0
-449 346 0
450 365 338 0
-450 -365 0
-450 -338 0
451 273 367 0
-451 -273 0
-451 -367 0
452 368 341 0
-452 -368 0
-452 -341 0
453 370 211 0
-453 -370 0
-453 -211 0
454 16 372 0
-454 -16 0
-454 -372 0
455 375 132 0
-455 -375 0
-455 -132 0
456 376 147 0
-456 -376 0
-456 -147 0
457 279 377 0
-457 -279 0
-457 -377 0
458 378 262 0
-458 -378 0
-458 -262 0
459 380 115 0
-459 -380 0
-459 -115 0
460 268 426 0
-460 -268 0
-460 -426 0
461 382 106 0
-461 -382 0
-461 -106 0
462 5 -427 0
-462 -5 0
-462 427 0
463 383 337 0
-463 -383 0
-463 -337 0
464 3 385 0
-464 -3 0
-464 -385 0
465 386 -311 0
-465 -386 0
-465 311 0
466 -10 387 0
-466 10 0
-466 -387 0
467 388 148 0
-467 -388 0
-467 -148 0
468 391 -425 0
-468 -391 0
-468 425 0
469 343 393 0
-469 -343 0
-469 -393 0
470 397 158 0
-470 -397 0
-470 -158 0
471 318 398 0
-471 -318 0
-471 -398 0
472 394 401 0
-472 -394 0
-472 -401 0
473 399 402 0
-473 -399 0
-473 -402 0
474 405 171 0
-474 -405 0
-474 -171 0
475 5 407 0
-475 -5 0
-475 -407 0
476 117 409 0
-476 -117 0
-476 -409 0
477 -7 410 0
-477 7 0
-477 -410 0
478 10 411 0
-478 -10 0
-478 -411 0
479 27 412 0
-479 -27 0
-479 -412 0
480 413 352 0
-480 -413 0
-480 -352 0
481 -2 414 0
-481 2 0
-481 -414 0
482 17 415 0
-482 -17 0
-482 -415 0
483 -12 -454 0
-483 12 0
-483 454 0
484 416 56 0
-484 -416 0
-484 -56 0
485 417 379 0
-485 -417 0
-485 -379 0
486 16 420 0
-486 -16 0
-486 -420 0
487 -5 422 0
-487 5 0
-487 -422 0
488 -3 423 0
-488 3 0
-488 -423 0
489 424 381 0
-489 -424 0
-489 -381 0
490 315 -461 0
-490 -315 0
-490 461 0
491 27 429 0
-491 -27 0
-491 -429 0
492 72 430 0
-492 -72 0
-492 -430 0
493 27 431 0
-493 -27 0
-493 -431 0
494 432 -46 0
-494 -432 0
-494 46 0
495 -27 433 0
-495 27 0
-495 -433 0
496 -63 434 0
-496 63 0
-496 -434 0
497 435 157 0
-497 -435 0
-497 -157 0
498 -7 438 0
-498 7 0
-498 -438 0
499 -17 439 0
-499 17 0
-499 -439 0
500 17 440 0
-500 -17 0
-500 -440 0
501 371 441 0
-501 -371 0
-501 -441 0
502 17 442 0
-502 -17 0
-502 -442 0
503 -470 353 0
-503 470 0
-503 -353 0
504 406 -471 0
-504 -406 0
-504 471 0
505 -10 443 0
-505 10 0
-505 -443 0
506 -2 445 0
-506 2 0
-506 -445 0
507 2 446 0
-507 -2 0
-507 -446 0
508 -3 447 0
-508 3 0
-508 -447 0
509 448 -75 -55 19 0
-509 -448 0
-509 75 0
-509 55 0
-509 -19 0
510 -7 449 0
-510 7 0
-510 -449 0
511 5 452 0
-511 -5 0
-511 -452 0
512 10 453 0
-512 -10 0
-512 -453 0
513 421 -484 0
-513 -421 0
-513 484 0
514 -12 -486 0
-514 12 0
-514 486 0
515 -17 455 0
-515 17 0
-515 -455 0
516 5 456 0
-516 -5 0
-516 -456 0
517 -27 458 0
-517 27 0
-517 -458 0
518 -2 459 0
-518 2 0
-518 -459 0
519 462 121 0
-519 -462 0
-519 -121 0
520 -47 -492 0
-520 47 0
-520 492 0
521 464 -457 0
-521 -464 0
-521 457 0
522 -13 465 0
-522 13 0
-522 -465 0
523 -7 467 0
-523 7 0
-523 -467 0
524 -5 -496 0
-524 5 0
-524 496 0
525 -3 468 0
-525 3 0
-525 -468 0
526 -10 469 0
-526 10 0
-526 -469 0
527 -7 472 0
-527 7 0
-527 -472 0
528 473 2 16 -128 0
-528 -473 0
-528 -2 0
-528 -16 0
-528 128 0
529 -74 474 0
-529 74 0
-529 -474 0
530 475 -451 0
-530 -475 0
-530 451 0
531 -5 476 0
-531 5 0
-531 -476 0
532 477 328 0
-532 -477 0
-532 -328 0
533 5 480 0
-533 -5 0
-533 -480 0
534 373 482 0
-534 -373 0
-534 -482 0
535 3 485 0
-535 -3 0
-535 -485 0
536 395 487 0
-536 -395 0
-536 -487 0
537 488 206 0
-537 -488 0
-537 -206 0
538 3 489 0
-538 -3 0
-538 -489 0
539 5 490 0
-539 -5 0
-539 -490 0
540 491 151 0
-540 -491 0
-540 -151 0
541 493 -450 0
-541 -493 0
-541 450 0
542 494 238 0
-542 -494 0
-542 -238 0
543 495 278 0
-543 -495 0
-543 -278 0
544 -16 497 0
-544 16 0
-544 -497 0
545 499 146 0
-545 -499 0
-545 -146 0
546 500 169 0
-546 -500 0
-546 -169 0
547 -17 501 0
-547 17 0
-547 -501 0
548 502 444 0
-548 -502 0
-548 -444 0
549 10 503 0
-549 -10 0
-549 -503 0
550 17 504 0
-550 -17 0
-550 -504 0
551 505 250 0
-551 -505 0
-551 -250 0
552 506 -436 0
-552 -506 0
-552 436 0
553 -64 -529 0
-553 64 0
-553 529 0
554 507 408 0
-554 -507 0
-554 -408 0
555 508 404 0
-555 -508 0
-555 -404 0
556 16 513 0
-556 -16 0
-556 -513 0
557 515 369 0
-557 -515 0
-557 -369 0
558 516 479 0
-558 -516 0
-558 -479 0
559 518 286 0
-559 -518 0
-559 -286 0
560 3 519 0
-560 -3 0
-560 -519 0
561 13 521 0
-561 -13 0
-561 -521 0
562 522 145 0
-562 -522 0
-562 -145 0
563 196 524 0
-563 -196 0
-563 -524 0
564 525 134 0
-564 -525 0
-564 -134 0
565 526 437 0
-565 -526 0
-565 -437 0
566 527 -463 0
-566 -527 0
-566 463 0
567 -3 530 0
-567 3 0
-567 -530 0
568 531 246 0
-568 -531 0
-568 -246 0
569 5 532 0
-569 -5 0
-569 -532 0
570 510 533 0
-570 -510 0
-570 -533 0
571 10 534 0
-571 -10 0
-571 -534 0
572 19 536 0
-572 -19 0
-572 -536 0
573 27 537 0
-573 -27 0
-573 -537 0
574 3 540 0
-574 -3 0
-574 -540 0
575 -3 541 0
-575 3 0
-575 -541 0
576 7 542 0
-576 -7 0
-576 -542 0
577 160 544 0
-577 -160 0
-577 -544 0
578 7 545 0
-578 -7 0
-578 -545 0
579 547 478 0
-579 -547 0
-579 -478 0
580 -3 548 0
-580 3 0
-580 -548 0
581 549 -543 0
-581 -549 0
-581 543 0
582 3 551 0
-582 -3 0
-582 -551 0
583 -70 552 0
-583 70 0
-583 -552 0
584 -75 554 0
-584 75 0
-584 -554 0
585 7 555 0
-585 -7 0
-585 -555 0
586 539 -568 0
-586 -539 0
-586 568 0
587 511 556 0
-587 -511 0
-587 -556 0
588 27 557 0
-588 -27 0
-588 -557 0
589 -3 558 0
-589 3 0
-589 -558 0
590 384 573 0
-590 -384 0
-590 -573 0
591 -17 559 0
-591 17 0
-591 -559 0
592 561 512 0
-592 -561 0
-592 -512 0
593 -27 562 0
-593 27 0
-593 -562 0
594 16 563 0
-594 -16 0
-594 -563 0
595 19 564 0
-595 -19 0
-595 -564 0
596 -17 565 0
-596 17 0
-596 -565 0
597 3 566 0
-597 -3 0
-597 -566 0
598 569 366 0
-598 -569 0
-598 -366 0
599 -67 570 0
-599 67 0
-599 -570 0
600 572 520 0
-600 -572 0
-600 -520 0
601 466 523 195 -590 0
-601 -466 0
-601 -523 0
-601 -195 0
-601 590 0
602 574 220 0
-602 -574 0
-602 -220 0
603 575 428 0
-603 -575 0
-603 -428 0
604 -75 -594 0
-604 75 0
-604 594 0
605 577 -64 13 19 0
-605 -577 0
-605 64 0
-605 -13 0
-605 -19 0
606 578 -546 0
-606 -578 0
-606 546 0
607 -7 579 0
-607 7 0
-607 -579 0
608 580 560 0
-608 -580 0
-608 -560 0
609 -7 581 0
-609 7 0
-609 -581 0
610 582 177 0
-610 -582 0
-610 -177 0
611 585 481 0
-611 -585 0
-611 -481 0
612 -3 586 0
-612 3 0
-612 -586 0
613 17 587 0
-613 -17 0
-613 -587 0
614 588 517 0
-614 -588 0
-614 -517 0
615 589 161 0
-615 -589 0
-615 -161 0
616 591 396 0
-616 -591 0
-616 -396 0
617 27 592 0
-617 -27 0
-617 -592 0
618 538 595 0
-618 -538 0
-618 -595 0
619 607 596 571 244 0
-619 -607 0
-619 -596 0
-619 -571 0
-619 -244 0
620 597 227 0
-620 -597 0
-620 -227 0
621 3 598 0
-621 -3 0
-621 -598 0
622 550 -614 0
-622 -550 0
-622 614 0
623 3 600 0
-623 -3 0
-623 -600 0
624 19 601 0
-624 -19 0
-624 -601 0
625 -616 400 0
-625 616 0
-625 -400 0
626 -64 602 0
-626 64 0
-626 -602 0
627 -2 603 0
-627 2 0
-627 -603 0
628 -3 606 0
-628 3 0
-628 -606 0
629 609 -608 0
-629 -609 0
-629 608 0
630 13 611 0
-630 -13 0
-630 -611 0
631 612 -620 0
-631 -612 0
-631 620 0
632 567 621 0
-632 -567 0
-632 -621 0
633 613 576 0
-633 -613 0
-633 -576 0
634 19 615 0
-634 -19 0
-634 -615 0
635 13 -626 0
-635 -13 0
-635 626 0
636 617 593 0
-636 -617 0
-636 -593 0
637 627 535 498 254 0
-637 -627 0
-637 -535 0
-637 -498 0
-637 -254 0
638 2 618 0
-638 -2 0
-638 -618 0
639 16 619 0
-639 -16 0
-639 -619 0
640 314 -460 -419 -632 0
-640 -314 0
-640 460 0
-640 419 0
-640 632 0
641 13 622 0
-641 -13 0
-641 -622 0
642 624 403 0
-642 -624 0
-642 -403 0
643 16 625 0
-643 -16 0
-643 -625 0
644 628 -610 0
-644 -628 0
-644 610 0
645 16 629 0
-645 -16 0
-645 -629 0
646 630 599 0
-646 -630 0
-646 -599 0
647 10 631 0
-647 -10 0
-647 -631 0
648 13 633 0
-648 -13 0
-648 -633 0
649 623 634 0
-649 -623 0
-649 -634 0
650 19 636 0
-650 -19 0
-650 -636 0
651 19 637 0
-651 -19 0
-651 -637 0
652 641 583 0
-652 -641 0
-652 -583 0
653 2 642 0
-653 -2 0
-653 -642 0
654 643 584 0
-654 -643 0
-654 -584 0
655 13 644 0
-655 -13 0
-655 -644 0
656 19 646 0
-656 -19 0
-656 -646 0
657 648 639 0
-657 -648 0
-657 -639 0
658 7 649 0
-658 -7 0
-658 -649 0
659 638 651 0
-659 -638 0
-659 -651 0
660 16 652 0
-660 -16 0
-660 -652 0
661 7 654 0
-661 -7 0
-661 -654 0
662 647 655 0
-662 -647 0
-662 -655 0
663 653 656 0
-663 -653 0
-663 -656 0
664 19 657 0
-664 -19 0
-664 -657 0
665 658 650 0
-665 -658 0
-665 -650 0
666 16 659 0
-666 -16 0
-666 -659 0
-667 664 528 0
667 -664 0
667 -528 0
668 660 635 0
-668 -660 0
-668 -635 0
669 661 645 0
-669 -661 0
-669 -645 0
670 16 662 0
-670 -16 0
-670 -662 0
671 16 663 0
-671 -16 0
-671 -663 0
672 16 665 0
-672 -16 0
-672 -665 0
-673 671 509 0
673 -671 0
673 -509 0
674 19 668 0
-674 -19 0
-674 -668 0
-675 672 605 0
675 -672 0
675 -605 0
676 19 669 0
-676 -19 0
-676 -669 0
677 670 553 0
-677 -670 0
-677 -553 0
678 674 217 0
-678 -674 0
-678 -217 0
679 676 418 0
-679 -676 0
-679 -418 0
680 19 677 0
-680 -19 0
-680 -677 0
681 680 142 0
-681 -680 0
-681 -142 0
