c BC-S1.2
p cnf 4625 14618
1 -2 -3 0
-1 2 0
-1 3 0
4 -5 -3 0
-4 5 0
-4 3 0
6 -7 -3 0
-6 7 0
-6 3 0
8 -9 -3 0
-8 9 0
-8 3 0
10 -11 -3 0
-10 11 0
-10 3 0
12 -13 -3 0
-12 13 0
-12 3 0
14 -15 -3 0
-14 15 0
-14 3 0
16 -17 -3 0
-16 17 0
-16 3 0
18 -19 -3 0
-18 19 0
-18 3 0
20 -21 -3 0
-20 21 0
-20 3 0
22 -23 -3 0
-22 23 0
-22 3 0
24 25 26 0
-24 -25 0
-24 -26 0
27 26 13 0
-27 -26 0
-27 -13 0
28 -25 3 0
-28 25 0
-28 -3 0
29 3 -30 0
-29 -3 0
-29 30 0
31 -3 30 0
-31 3 0
-31 -30 0
32 25 -27 0
-32 -25 0
-32 27 0
33 26 -28 0
-33 -26 0
-33 28 0
34 -13 24 0
-34 13 0
-34 -24 0
35 36 -32 0
-35 -36 0
-35 32 0
37 -26 28 0
-37 26 0
-37 -28 0
38 31 29 0
-38 -31 0
-38 -29 0
39 11 -35 0
-39 -11 0
-39 35 0
40 3 32 0
-40 -3 0
-40 -32 0
41 42 -39 0
-41 -42 0
-41 39 0
43 -11 35 0
-43 11 0
-43 -35 0
44 36 -40 0
-44 -36 0
-44 40 0
45 -40 34 0
-45 40 0
-45 -34 0
46 37 33 0
-46 -37 0
-46 -33 0
47 23 -41 0
-47 -23 0
-47 41 0
48 3 39 0
-48 -3 0
-48 -39 0
49 -36 40 0
-49 36 0
-49 -40 0
50 51 -47 0
-50 -51 0
-50 47 0
52 -23 41 0
-52 23 0
-52 -41 0
53 42 -48 0
-53 -42 0
-53 48 0
54 -48 43 0
-54 48 0
-54 -43 0
55 12 45 0
-55 -12 0
-55 -45 0
56 25 46 0
-56 -25 0
-56 -46 0
57 21 -50 0
-57 -21 0
-57 50 0
58 3 47 0
-58 -3 0
-58 -47 0
59 -42 48 0
-59 42 0
-59 -48 0
60 49 44 0
-60 -49 0
-60 -44 0
61 -55 46 0
-61 55 0
-61 -46 0
62 63 -57 0
-62 -63 0
-62 57 0
64 -21 50 0
-64 21 0
-64 -50 0
65 51 -58 0
-65 -51 0
-65 58 0
66 -58 52 0
-66 58 0
-66 -52 0
67 10 54 0
-67 -10 0
-67 -54 0
68 -60 55 0
-68 60 0
-68 -55 0
69 55 -46 0
-69 -55 0
-69 46 0
70 19 -62 0
-70 -19 0
-70 62 0
71 3 57 0
-71 -3 0
-71 -57 0
72 -51 58 0
-72 51 0
-72 -58 0
73 59 53 0
-73 -59 0
-73 -53 0
74 60 -55 0
-74 -60 0
-74 55 0
75 -67 60 0
-75 67 0
-75 -60 0
76 77 -70 0
-76 -77 0
-76 70 0
78 -19 62 0
-78 19 0
-78 -62 0
79 63 -71 0
-79 -63 0
-79 71 0
80 -71 64 0
-80 71 0
-80 -64 0
81 22 66 0
-81 -22 0
-81 -66 0
82 -73 -55 0
-82 73 0
-82 55 0
83 -73 67 0
-83 73 0
-83 -67 0
84 67 -60 0
-84 -67 0
-84 60 0
85 69 61 0
-85 -69 0
-85 -61 0
86 17 -76 0
-86 -17 0
-86 76 0
87 3 70 0
-87 -3 0
-87 -70 0
88 -63 71 0
-88 63 0
-88 -71 0
89 72 65 0
-89 -72 0
-89 -65 0
90 73 -67 0
-90 -73 0
-90 67 0
91 73 -81 0
-91 -73 0
-91 81 0
92 73 55 0
-92 -73 0
-92 -55 0
93 68 74 0
-93 -68 0
-93 -74 0
94 -25 -85 0
-94 25 0
-94 85 0
95 96 -86 0
-95 -96 0
-95 86 0
97 -17 76 0
-97 17 0
-97 -76 0
98 77 -87 0
-98 -77 0
-98 87 0
99 -87 78 0
-99 87 0
-99 -78 0
100 20 80 0
-100 -20 0
-100 -80 0
101 -73 81 0
-101 73 0
-101 -81 0
102 -89 81 0
-102 89 0
-102 -81 0
103 84 75 0
-103 -84 0
-103 -75 0
104 -25 85 0
-104 25 0
-104 -85 0
105 -24 85 0
-105 24 0
-105 -85 0
106 15 -95 0
-106 -15 0
-106 95 0
107 3 86 0
-107 -3 0
-107 -86 0
108 -77 87 0
-108 77 0
-108 -87 0
109 88 79 0
-109 -88 0
-109 -79 0
110 89 -100 0
-110 -89 0
-110 100 0
111 89 -81 0
-111 -89 0
-111 81 0
112 83 90 0
-112 -83 0
-112 -90 0
113 82 92 0
-113 -82 0
-113 -92 0
114 55 -104 0
-114 -55 0
-114 104 0
115 7 -106 0
-115 -7 0
-115 106 0
116 -15 95 0
-116 15 0
-116 -95 0
117 96 -107 0
-117 -96 0
-117 107 0
118 -107 97 0
-118 107 0
-118 -97 0
119 18 99 0
-119 -18 0
-119 -99 0
120 -109 100 0
-120 109 0
-120 -100 0
121 -89 100 0
-121 89 0
-121 -100 0
122 101 91 0
-122 -101 0
-122 -91 0
123 -112 93 0
-123 112 0
-123 -93 0
124 -93 103 0
-124 93 0
-124 -103 0
125 126 -115 0
-125 -126 0
-125 115 0
127 -7 106 0
-127 7 0
-127 -106 0
128 -96 107 0
-128 96 0
-128 -107 0
129 108 98 0
-129 -108 0
-129 -98 0
130 109 -100 0
-130 -109 0
-130 100 0
131 109 -119 0
-131 -109 0
-131 119 0
132 102 111 0
-132 -102 0
-132 -111 0
133 112 -93 0
-133 -112 0
-133 93 0
134 112 93 0
-134 -112 0
-134 -93 0
135 136 -125 0
-135 -136 0
-135 125 0
137 3 115 0
-137 -3 0
-137 -115 0
138 106 116 0
-138 -106 0
-138 -116 0
139 16 118 0
-139 -16 0
-139 -118 0
140 -129 119 0
-140 129 0
-140 -119 0
141 -109 119 0
-141 109 0
-141 -119 0
142 121 110 0
-142 -121 0
-142 -110 0
143 -103 -133 0
-143 103 0
-143 133 0
144 9 -135 0
-144 -9 0
-144 135 0
145 3 125 0
-145 -3 0
-145 -125 0
146 126 -137 0
-146 -126 0
-146 137 0
147 -137 127 0
-147 137 0
-147 -127 0
148 3 -138 0
-148 -3 0
-148 138 0
149 128 117 0
-149 -128 0
-149 -117 0
150 129 -139 0
-150 -129 0
-150 139 0
151 129 -119 0
-151 -129 0
-151 119 0
152 120 130 0
-152 -120 0
-152 -130 0
153 -142 122 0
-153 142 0
-153 -122 0
154 -122 132 0
-154 122 0
-154 -132 0
155 156 -144 0
-155 -156 0
-155 144 0
157 -9 135 0
-157 9 0
-157 -135 0
158 136 -145 0
-158 -136 0
-158 145 0
159 -126 137 0
-159 126 0
-159 -137 0
160 -129 139 0
-160 129 0
-160 -139 0
161 -149 139 0
-161 149 0
-161 -139 0
162 141 131 0
-162 -141 0
-162 -131 0
163 142 -122 0
-163 -142 0
-163 122 0
164 142 122 0
-164 -142 0
-164 -122 0
165 5 -155 0
-165 -5 0
-165 155 0
166 3 144 0
-166 -3 0
-166 -144 0
167 -136 145 0
-167 136 0
-167 -145 0
168 6 147 0
-168 -6 0
-168 -147 0
169 14 148 0
-169 -14 0
-169 -148 0
170 149 -139 0
-170 -149 0
-170 139 0
171 140 151 0
-171 -140 0
-171 -151 0
172 -132 -163 0
-172 132 0
-172 163 0
173 2 -165 0
-173 -2 0
-173 165 0
174 -5 155 0
-174 5 0
-174 -155 0
175 156 -166 0
-175 -156 0
-175 166 0
176 -166 157 0
-176 166 0
-176 -157 0
177 159 146 0
-177 -159 0
-177 -146 0
178 -169 149 0
-178 169 0
-178 -149 0
179 160 150 0
-179 -160 0
-179 -150 0
180 152 -171 0
-180 -152 0
-180 171 0
181 -152 162 0
-181 152 0
-181 -162 0
182 3 -173 0
-182 -3 0
-182 173 0
183 -2 165 0
-183 2 0
-183 -165 0
184 -156 166 0
-184 156 0
-184 -166 0
185 167 158 0
-185 -167 0
-185 -158 0
186 169 -149 0
-186 -169 0
-186 149 0
187 55 169 0
-187 -55 0
-187 -169 0
188 161 170 0
-188 -161 0
-188 -170 0
189 152 171 0
-189 -152 0
-189 -171 0
190 -152 171 0
-190 152 0
-190 -171 0
191 165 174 0
-191 -165 0
-191 -174 0
192 8 176 0
-192 -8 0
-192 -176 0
193 -185 -177 0
-193 185 0
-193 177 0
194 -185 177 0
-194 185 0
-194 -177 0
195 -162 -190 0
-195 162 0
-195 190 0
196 173 183 0
-196 -173 0
-196 -183 0
197 3 -191 0
-197 -3 0
-197 191 0
198 184 175 0
-198 -184 0
-198 -175 0
199 185 -177 0
-199 -185 0
-199 177 0
200 185 177 0
-200 -185 0
-200 -177 0
201 186 178 0
-201 -186 0
-201 -178 0
202 -179 188 0
-202 179 0
-202 -188 0
203 3 -196 0
-203 -3 0
-203 196 0
204 -198 -192 0
-204 198 0
-204 192 0
205 -198 192 0
-205 198 0
-205 -192 0
206 -201 179 0
-206 201 0
-206 -179 0
207 4 197 0
-207 -4 0
-207 -197 0
208 198 192 0
-208 -198 0
-208 -192 0
209 198 -192 0
-209 -198 0
-209 192 0
210 -193 -204 0
-210 193 0
-210 204 0
211 -200 -204 0
-211 200 0
-211 204 0
212 -194 -204 0
-212 194 0
-212 204 0
213 -199 -204 0
-213 199 0
-213 204 0
214 -193 -205 0
-214 193 0
-214 205 0
215 -199 -205 0
-215 199 0
-215 205 0
216 -205 -200 0
-216 205 0
-216 200 0
217 -205 -194 0
-217 205 0
-217 194 0
218 201 179 0
-218 -201 0
-218 -179 0
219 201 -179 0
-219 -201 0
-219 179 0
220 1 203 0
-220 -1 0
-220 -203 0
221 -208 -199 0
-221 208 0
-221 199 0
222 -208 -193 0
-222 208 0
-222 193 0
223 -208 -194 0
-223 208 0
-223 194 0
224 -208 -200 0
-224 208 0
-224 200 0
225 -193 -209 0
-225 193 0
-225 209 0
226 -209 -194 0
-226 209 0
-226 194 0
227 -199 -209 0
-227 199 0
-227 209 0
228 -209 -200 0
-228 209 0
-228 200 0
229 -188 -219 0
-229 188 0
-229 219 0
230 -220 -207 0
-230 220 0
-230 207 0
231 -220 207 0
-231 220 0
-231 -207 0
232 -230 -168 0
-232 230 0
-232 168 0
233 -230 168 0
-233 230 0
-233 -168 0
234 220 -207 0
-234 -220 0
-234 207 0
235 220 207 0
-235 -220 0
-235 -207 0
236 -168 -231 0
-236 168 0
-236 231 0
237 168 -231 0
-237 -168 0
-237 231 0
238 -232 -221 0
-238 232 0
-238 221 0
239 -232 -228 0
-239 232 0
-239 228 0
240 -232 -212 0
-240 232 0
-240 212 0
241 -232 -210 0
-241 232 0
-241 210 0
242 -232 -217 0
-242 232 0
-242 217 0
243 -232 -225 0
-243 232 0
-243 225 0
244 -232 -224 0
-244 232 0
-244 224 0
245 -232 -227 0
-245 232 0
-245 227 0
246 -232 -226 0
-246 232 0
-246 226 0
247 -232 -222 0
-247 232 0
-247 222 0
248 -232 -223 0
-248 232 0
-248 223 0
249 -232 -216 0
-249 232 0
-249 216 0
250 -232 -213 0
-250 232 0
-250 213 0
251 -232 -215 0
-251 232 0
-251 215 0
252 -232 -211 0
-252 232 0
-252 211 0
253 -232 -214 0
-253 232 0
-253 214 0
254 -233 -215 0
-254 233 0
-254 215 0
255 -233 -216 0
-255 233 0
-255 216 0
256 -233 -217 0
-256 233 0
-256 217 0
257 -214 -233 0
-257 214 0
-257 233 0
258 -226 -233 0
-258 226 0
-258 233 0
259 -221 -233 0
-259 221 0
-259 233 0
260 -233 -211 0
-260 233 0
-260 211 0
261 -233 -213 0
-261 233 0
-261 213 0
262 -233 -228 0
-262 233 0
-262 228 0
263 -222 -233 0
-263 222 0
-263 233 0
264 -233 -210 0
-264 233 0
-264 210 0
265 -225 -233 0
-265 225 0
-265 233 0
266 -227 -233 0
-266 227 0
-266 233 0
267 -233 -224 0
-267 233 0
-267 224 0
268 -233 -223 0
-268 233 0
-268 223 0
269 -233 -212 0
-269 233 0
-269 212 0
270 168 -234 0
-270 -168 0
-270 234 0
271 -168 -234 0
-271 168 0
-271 234 0
272 168 -235 0
-272 -168 0
-272 235 0
273 -168 -235 0
-273 168 0
-273 235 0
274 -222 -236 0
-274 222 0
-274 236 0
275 -236 -225 0
-275 236 0
-275 225 0
276 -221 -236 0
-276 221 0
-276 236 0
277 -236 -217 0
-277 236 0
-277 217 0
278 -236 -223 0
-278 236 0
-278 223 0
279 -236 -228 0
-279 236 0
-279 228 0
280 -236 -227 0
-280 236 0
-280 227 0
281 -236 -211 0
-281 236 0
-281 211 0
282 -236 -212 0
-282 236 0
-282 212 0
283 -236 -224 0
-283 236 0
-283 224 0
284 -236 -210 0
-284 236 0
-284 210 0
285 -236 -216 0
-285 236 0
-285 216 0
286 -236 -213 0
-286 236 0
-286 213 0
287 -236 -214 0
-287 236 0
-287 214 0
288 -236 -226 0
-288 236 0
-288 226 0
289 -236 -215 0
-289 236 0
-289 215 0
290 -237 -214 0
-290 237 0
-290 214 0
291 -221 -237 0
-291 221 0
-291 237 0
292 -237 -226 0
-292 237 0
-292 226 0
293 -237 -210 0
-293 237 0
-293 210 0
294 -237 -213 0
-294 237 0
-294 213 0
295 -237 -224 0
-295 237 0
-295 224 0
296 -237 -227 0
-296 237 0
-296 227 0
297 -237 -211 0
-297 237 0
-297 211 0
298 -222 -237 0
-298 222 0
-298 237 0
299 -225 -237 0
-299 225 0
-299 237 0
300 -237 -215 0
-300 237 0
-300 215 0
301 -237 -217 0
-301 237 0
-301 217 0
302 -237 -228 0
-302 237 0
-302 228 0
303 -237 -223 0
-303 237 0
-303 223 0
304 -237 -212 0
-304 237 0
-304 212 0
305 -237 -216 0
-305 237 0
-305 216 0
306 -270 -226 0
-306 270 0
-306 226 0
307 -221 -270 0
-307 221 0
-307 270 0
308 -270 -228 0
-308 270 0
-308 228 0
309 -222 -270 0
-309 222 0
-309 270 0
310 -214 -270 0
-310 214 0
-310 270 0
311 -270 -227 0
-311 270 0
-311 227 0
312 -270 -215 0
-312 270 0
-312 215 0
313 -270 -217 0
-313 270 0
-313 217 0
314 -270 -223 0
-314 270 0
-314 223 0
315 -270 -224 0
-315 270 0
-315 224 0
316 -270 -213 0
-316 270 0
-316 213 0
317 -270 -216 0
-317 270 0
-317 216 0
318 -225 -270 0
-318 225 0
-318 270 0
319 -270 -211 0
-319 270 0
-319 211 0
320 -270 -210 0
-320 270 0
-320 210 0
321 -270 -212 0
-321 270 0
-321 212 0
322 -228 -271 0
-322 228 0
-322 271 0
323 -214 -271 0
-323 214 0
-323 271 0
324 -210 -271 0
-324 210 0
-324 271 0
325 -222 -271 0
-325 222 0
-325 271 0
326 -221 -271 0
-326 221 0
-326 271 0
327 -271 -212 0
-327 271 0
-327 212 0
328 -225 -271 0
-328 225 0
-328 271 0
329 -226 -271 0
-329 226 0
-329 271 0
330 -271 -224 0
-330 271 0
-330 224 0
331 -216 -271 0
-331 216 0
-331 271 0
332 -217 -271 0
-332 217 0
-332 271 0
333 -271 -211 0
-333 271 0
-333 211 0
334 -215 -271 0
-334 215 0
-334 271 0
335 -227 -271 0
-335 227 0
-335 271 0
336 -271 -213 0
-336 271 0
-336 213 0
337 -223 -271 0
-337 223 0
-337 271 0
338 -272 -227 0
-338 272 0
-338 227 0
339 -226 -272 0
-339 226 0
-339 272 0
340 -272 -216 0
-340 272 0
-340 216 0
341 -221 -272 0
-341 221 0
-341 272 0
342 -222 -272 0
-342 222 0
-342 272 0
343 -272 -223 0
-343 272 0
-343 223 0
344 -272 -212 0
-344 272 0
-344 212 0
345 -272 -210 0
-345 272 0
-345 210 0
346 -272 -211 0
-346 272 0
-346 211 0
347 -272 -215 0
-347 272 0
-347 215 0
348 -272 -217 0
-348 272 0
-348 217 0
349 -272 -228 0
-349 272 0
-349 228 0
350 -225 -272 0
-350 225 0
-350 272 0
351 -272 -213 0
-351 272 0
-351 213 0
352 -272 -224 0
-352 272 0
-352 224 0
353 -214 -272 0
-353 214 0
-353 272 0
354 -221 -273 0
-354 221 0
-354 273 0
355 -273 -216 0
-355 273 0
-355 216 0
356 -226 -273 0
-356 226 0
-356 273 0
357 -273 -215 0
-357 273 0
-357 215 0
358 -273 -223 0
-358 273 0
-358 223 0
359 -227 -273 0
-359 227 0
-359 273 0
360 -273 -228 0
-360 273 0
-360 228 0
361 -222 -273 0
-361 222 0
-361 273 0
362 -273 -211 0
-362 273 0
-362 211 0
363 -273 -224 0
-363 273 0
-363 224 0
364 -273 -217 0
-364 273 0
-364 217 0
365 -273 -212 0
-365 273 0
-365 212 0
366 -273 -213 0
-366 273 0
-366 213 0
367 -225 -273 0
-367 225 0
-367 273 0
368 -214 -273 0
-368 214 0
-368 273 0
369 -273 -210 0
-369 273 0
-369 210 0
370 244 238 0
-370 -244 0
-370 -238 0
371 245 240 0
-371 -245 0
-371 -240 0
372 242 244 247 0
-372 -242 0
-372 -244 0
-372 -247 0
373 243 249 0
-373 -243 0
-373 -249 0
374 244 252 0
-374 -244 0
-374 -252 0
375 250 253 0
-375 -250 0
-375 -253 0
376 255 249 0
-376 -255 0
-376 -249 0
377 256 253 240 0
-377 -256 0
-377 -253 0
-377 -240 0
378 238 257 0
-378 -238 0
-378 -257 0
379 258 253 0
-379 -258 0
-379 -253 0
380 258 254 256 251 0
-380 -258 0
-380 -254 0
-380 -256 0
-380 -251 0
381 258 251 249 0
-381 -258 0
-381 -251 0
-381 -249 0
382 258 246 0
-382 -258 0
-382 -246 0
383 258 242 0
-383 -258 0
-383 -242 0
384 259 250 0
-384 -259 0
-384 -250 0
385 259 243 0
-385 -259 0
-385 -243 0
386 260 261 0
-386 -260 0
-386 -261 0
387 261 251 0
-387 -261 0
-387 -251 0
388 255 262 0
-388 -255 0
-388 -262 0
389 262 261 0
-389 -262 0
-389 -261 0
390 263 242 0
-390 -263 0
-390 -242 0
391 262 263 251 240 0
-391 -262 0
-391 -263 0
-391 -251 0
-391 -240 0
392 257 255 264 0
-392 -257 0
-392 -255 0
-392 -264 0
393 264 245 0
-393 -264 0
-393 -245 0
394 266 246 0
-394 -266 0
-394 -246 0
395 266 242 0
-395 -266 0
-395 -242 0
396 266 262 0
-396 -266 0
-396 -262 0
397 266 256 0
-397 -266 0
-397 -256 0
398 266 267 0
-398 -266 0
-398 -267 0
399 257 267 246 0
-399 -257 0
-399 -267 0
-399 -246 0
400 267 248 0
-400 -267 0
-400 -248 0
401 254 267 0
-401 -254 0
-401 -267 0
402 267 239 0
-402 -267 0
-402 -239 0
403 263 268 0
-403 -263 0
-403 -268 0
404 263 269 0
-404 -263 0
-404 -269 0
405 269 249 0
-405 -269 0
-405 -249 0
406 261 274 0
-406 -261 0
-406 -274 0
407 246 249 276 0
-407 -246 0
-407 -249 0
-407 -276 0
408 254 276 0
-408 -254 0
-408 -276 0
409 250 277 0
-409 -250 0
-409 -277 0
410 247 278 0
-410 -247 0
-410 -278 0
411 239 278 0
-411 -239 0
-411 -278 0
412 269 252 279 0
-412 -269 0
-412 -252 0
-412 -279 0
413 239 280 0
-413 -239 0
-413 -280 0
414 255 263 280 0
-414 -255 0
-414 -263 0
-414 -280 0
415 275 281 0
-415 -275 0
-415 -281 0
416 253 244 282 0
-416 -253 0
-416 -244 0
-416 -282 0
417 251 283 0
-417 -251 0
-417 -283 0
418 250 249 283 0
-418 -250 0
-418 -249 0
-418 -283 0
419 259 284 0
-419 -259 0
-419 -284 0
420 268 284 0
-420 -268 0
-420 -284 0
421 284 285 0
-421 -284 0
-421 -285 0
422 263 238 286 275 0
-422 -263 0
-422 -238 0
-422 -286 0
-422 -275 0
423 253 279 286 0
-423 -253 0
-423 -279 0
-423 -286 0
424 258 248 286 0
-424 -258 0
-424 -248 0
-424 -286 0
425 262 269 286 0
-425 -262 0
-425 -269 0
-425 -286 0
426 264 286 0
-426 -264 0
-426 -286 0
427 238 276 287 0
-427 -238 0
-427 -276 0
-427 -287 0
428 285 287 0
-428 -285 0
-428 -287 0
429 288 275 0
-429 -288 0
-429 -275 0
430 284 288 0
-430 -284 0
-430 -288 0
431 289 288 0
-431 -289 0
-431 -288 0
432 251 289 0
-432 -251 0
-432 -289 0
433 269 289 284 0
-433 -269 0
-433 -289 0
-433 -284 0
434 290 282 0
-434 -290 0
-434 -282 0
435 238 274 275 290 0
-435 -238 0
-435 -274 0
-435 -275 0
-435 -290 0
436 291 277 0
-436 -291 0
-436 -277 0
437 258 291 0
-437 -258 0
-437 -291 0
438 242 289 291 0
-438 -242 0
-438 -289 0
-438 -291 0
439 239 292 0
-439 -239 0
-439 -292 0
440 275 292 0
-440 -275 0
-440 -292 0
441 242 281 292 0
-441 -242 0
-441 -281 0
-441 -292 0
442 290 292 0
-442 -290 0
-442 -292 0
443 243 247 276 292 0
-443 -243 0
-443 -247 0
-443 -276 0
-443 -292 0
444 261 238 294 0
-444 -261 0
-444 -238 0
-444 -294 0
445 295 248 0
-445 -295 0
-445 -248 0
446 256 295 0
-446 -256 0
-446 -295 0
447 247 295 0
-447 -247 0
-447 -295 0
448 276 295 0
-448 -276 0
-448 -295 0
449 258 296 0
-449 -258 0
-449 -296 0
450 244 296 0
-450 -244 0
-450 -296 0
451 266 242 296 0
-451 -266 0
-451 -242 0
-451 -296 0
452 297 259 0
-452 -297 0
-452 -259 0
453 297 267 0
-453 -297 0
-453 -267 0
454 285 297 0
-454 -285 0
-454 -297 0
455 282 297 0
-455 -282 0
-455 -297 0
456 263 247 282 298 0
-456 -263 0
-456 -247 0
-456 -282 0
-456 -298 0
457 260 240 295 298 0
-457 -260 0
-457 -240 0
-457 -295 0
-457 -298 0
458 260 239 286 298 0
-458 -260 0
-458 -239 0
-458 -286 0
-458 -298 0
459 257 245 298 0
-459 -257 0
-459 -245 0
-459 -298 0
460 299 283 0
-460 -299 0
-460 -283 0
461 254 299 0
-461 -254 0
-461 -299 0
462 292 299 0
-462 -292 0
-462 -299 0
463 262 298 299 0
-463 -262 0
-463 -298 0
-463 -299 0
464 299 293 0
-464 -299 0
-464 -293 0
465 290 299 0
-465 -290 0
-465 -299 0
466 274 300 0
-466 -274 0
-466 -300 0
467 279 300 0
-467 -279 0
-467 -300 0
468 285 301 0
-468 -285 0
-468 -301 0
469 254 301 0
-469 -254 0
-469 -301 0
470 279 302 0
-470 -279 0
-470 -302 0
471 302 249 0
-471 -302 0
-471 -249 0
472 277 302 0
-472 -277 0
-472 -302 0
473 281 302 0
-473 -281 0
-473 -302 0
474 277 302 292 0
-474 -277 0
-474 -302 0
-474 -292 0
475 298 303 0
-475 -298 0
-475 -303 0
476 262 303 0
-476 -262 0
-476 -303 0
477 280 305 0
-477 -280 0
-477 -305 0
478 243 305 0
-478 -243 0
-478 -305 0
479 255 304 305 0
-479 -255 0
-479 -304 0
-479 -305 0
480 298 305 0
-480 -298 0
-480 -305 0
481 268 274 282 -375 0
-481 -268 0
-481 -274 0
-481 -282 0
-481 375 0
482 269 275 289 -388 0
-482 -269 0
-482 -275 0
-482 -289 0
-482 388 0
483 306 241 0
-483 -306 0
-483 -241 0
484 293 306 0
-484 -293 0
-484 -306 0
485 269 306 0
-485 -269 0
-485 -306 0
486 246 285 296 306 0
-486 -246 0
-486 -285 0
-486 -296 0
-486 -306 0
487 295 306 0
-487 -295 0
-487 -306 0
488 254 307 0
-488 -254 0
-488 -307 0
489 238 281 307 0
-489 -238 0
-489 -281 0
-489 -307 0
490 249 278 294 307 0
-490 -249 0
-490 -278 0
-490 -294 0
-490 -307 0
491 280 284 297 307 0
-491 -280 0
-491 -284 0
-491 -297 0
-491 -307 0
492 278 308 0
-492 -278 0
-492 -308 0
493 294 308 0
-493 -294 0
-493 -308 0
494 269 280 306 308 0
-494 -269 0
-494 -280 0
-494 -306 0
-494 -308 0
495 248 283 308 0
-495 -248 0
-495 -283 0
-495 -308 0
496 309 252 0
-496 -309 0
-496 -252 0
497 258 283 292 309 0
-497 -258 0
-497 -283 0
-497 -292 0
-497 -309 0
498 279 310 0
-498 -279 0
-498 -310 0
499 307 311 0
-499 -307 0
-499 -311 0
500 261 285 312 0
-500 -261 0
-500 -285 0
-500 -312 0
501 310 313 0
-501 -310 0
-501 -313 0
502 242 285 313 0
-502 -242 0
-502 -285 0
-502 -313 0
503 257 280 313 0
-503 -257 0
-503 -280 0
-503 -313 0
504 315 303 0
-504 -315 0
-504 -303 0
505 264 277 315 0
-505 -264 0
-505 -277 0
-505 -315 0
506 250 304 315 0
-506 -250 0
-506 -304 0
-506 -315 0
507 250 240 315 0
-507 -250 0
-507 -240 0
-507 -315 0
508 256 316 0
-508 -256 0
-508 -316 0
509 300 316 0
-509 -300 0
-509 -316 0
510 300 317 0
-510 -300 0
-510 -317 0
511 307 317 309 0
-511 -307 0
-511 -317 0
-511 -309 0
512 296 317 0
-512 -296 0
-512 -317 0
513 312 317 0
-513 -312 0
-513 -317 0
514 282 318 0
-514 -282 0
-514 -318 0
515 240 318 308 0
-515 -240 0
-515 -318 0
-515 -308 0
516 319 301 0
-516 -319 0
-516 -301 0
517 292 319 0
-517 -292 0
-517 -319 0
518 317 319 308 0
-518 -317 0
-518 -319 0
-518 -308 0
519 275 319 0
-519 -275 0
-519 -319 0
520 241 319 0
-520 -241 0
-520 -319 0
521 290 319 0
-521 -290 0
-521 -319 0
522 278 320 0
-522 -278 0
-522 -320 0
523 268 301 320 309 0
-523 -268 0
-523 -301 0
-523 -320 0
-523 -309 0
524 274 320 0
-524 -274 0
-524 -320 0
525 256 253 320 0
-525 -256 0
-525 -253 0
-525 -320 0
526 293 320 0
-526 -293 0
-526 -320 0
527 281 320 0
-527 -281 0
-527 -320 0
528 256 274 320 0
-528 -256 0
-528 -274 0
-528 -320 0
529 294 299 320 0
-529 -294 0
-529 -299 0
-529 -320 0
530 316 321 0
-530 -316 0
-530 -321 0
531 321 252 0
-531 -321 0
-531 -252 0
532 283 302 321 0
-532 -283 0
-532 -302 0
-532 -321 0
533 285 321 0
-533 -285 0
-533 -321 0
534 287 321 0
-534 -287 0
-534 -321 0
535 299 305 321 0
-535 -299 0
-535 -305 0
-535 -321 0
536 322 247 0
-536 -322 0
-536 -247 0
537 293 322 0
-537 -293 0
-537 -322 0
538 245 322 0
-538 -245 0
-538 -322 0
539 307 322 0
-539 -307 0
-539 -322 0
540 316 322 0
-540 -316 0
-540 -322 0
541 323 256 0
-541 -323 0
-541 -256 0
542 257 244 305 323 0
-542 -257 0
-542 -244 0
-542 -305 0
-542 -323 0
543 324 248 0
-543 -324 0
-543 -248 0
544 325 323 0
-544 -325 0
-544 -323 0
545 277 325 0
-545 -277 0
-545 -325 0
546 297 325 0
-546 -297 0
-546 -325 0
547 305 325 0
-547 -305 0
-547 -325 0
548 251 295 324 325 0
-548 -251 0
-548 -295 0
-548 -324 0
-548 -325 0
549 311 326 0
-549 -311 0
-549 -326 0
550 278 326 0
-550 -278 0
-550 -326 0
551 326 320 0
-551 -326 0
-551 -320 0
552 314 326 0
-552 -314 0
-552 -326 0
553 307 326 0
-553 -307 0
-553 -326 0
554 325 326 0
-554 -325 0
-554 -326 0
555 260 307 326 0
-555 -260 0
-555 -307 0
-555 -326 0
556 327 315 0
-556 -327 0
-556 -315 0
557 327 316 0
-557 -327 0
-557 -316 0
558 328 240 0
-558 -328 0
-558 -240 0
559 307 328 0
-559 -307 0
-559 -328 0
560 301 312 328 0
-560 -301 0
-560 -312 0
-560 -328 0
561 314 329 0
-561 -314 0
-561 -329 0
562 310 329 0
-562 -310 0
-562 -329 0
563 244 288 329 0
-563 -244 0
-563 -288 0
-563 -329 0
564 277 329 0
-564 -277 0
-564 -329 0
565 295 330 0
-565 -295 0
-565 -330 0
566 281 311 330 0
-566 -281 0
-566 -311 0
-566 -330 0
567 312 331 0
-567 -312 0
-567 -331 0
568 291 320 331 0
-568 -291 0
-568 -320 0
-568 -331 0
569 266 295 331 0
-569 -266 0
-569 -295 0
-569 -331 0
570 246 290 310 331 0
-570 -246 0
-570 -290 0
-570 -310 0
-570 -331 0
571 323 332 0
-571 -323 0
-571 -332 0
572 255 332 0
-572 -255 0
-572 -332 0
573 286 327 332 -390 0
-573 -286 0
-573 -327 0
-573 -332 0
-573 390 0
574 288 310 332 0
-574 -288 0
-574 -310 0
-574 -332 0
575 263 333 0
-575 -263 0
-575 -333 0
576 303 332 325 333 0
-576 -303 0
-576 -332 0
-576 -325 0
-576 -333 0
577 319 333 0
-577 -319 0
-577 -333 0
578 283 334 0
-578 -283 0
-578 -334 0
579 334 304 0
-579 -334 0
-579 -304 0
580 238 334 0
-580 -238 0
-580 -334 0
581 329 334 0
-581 -329 0
-581 -334 0
582 334 331 0
-582 -334 0
-582 -331 0
583 250 334 0
-583 -250 0
-583 -334 0
584 311 335 0
-584 -311 0
-584 -335 0
585 306 335 0
-585 -306 0
-585 -335 0
586 319 336 0
-586 -319 0
-586 -336 0
587 282 302 336 0
-587 -282 0
-587 -302 0
-587 -336 0
588 246 283 336 265 0
-588 -246 0
-588 -283 0
-588 -336 0
-588 -265 0
589 261 240 274 336 0
-589 -261 0
-589 -240 0
-589 -274 0
-589 -336 0
590 289 318 336 333 0
-590 -289 0
-590 -318 0
-590 -336 0
-590 -333 0
591 314 337 0
-591 -314 0
-591 -337 0
592 244 297 337 0
-592 -244 0
-592 -297 0
-592 -337 0
593 338 245 0
-593 -338 0
-593 -245 0
594 313 326 338 0
-594 -313 0
-594 -326 0
-594 -338 0
595 339 265 0
-595 -339 0
-595 -265 0
596 340 328 0
-596 -340 0
-596 -328 0
597 339 340 0
-597 -339 0
-597 -340 0
598 255 341 0
-598 -255 0
-598 -341 0
599 335 341 0
-599 -335 0
-599 -341 0
600 306 342 0
-600 -306 0
-600 -342 0
601 330 342 0
-601 -330 0
-601 -342 0
602 248 288 342 333 0
-602 -248 0
-602 -288 0
-602 -342 0
-602 -333 0
603 343 288 0
-603 -343 0
-603 -288 0
604 274 343 0
-604 -274 0
-604 -343 0
605 342 343 0
-605 -342 0
-605 -343 0
606 341 344 0
-606 -341 0
-606 -344 0
607 344 260 0
-607 -344 0
-607 -260 0
608 325 340 344 0
-608 -325 0
-608 -340 0
-608 -344 0
609 345 344 0
-609 -345 0
-609 -344 0
610 339 345 343 0
-610 -339 0
-610 -345 0
-610 -343 0
611 261 319 328 345 0
-611 -261 0
-611 -319 0
-611 -328 0
-611 -345 0
612 345 343 0
-612 -345 0
-612 -343 0
613 300 325 322 346 0
-613 -300 0
-613 -325 0
-613 -322 0
-613 -346 0
614 296 346 0
-614 -296 0
-614 -346 0
615 314 346 0
-615 -314 0
-615 -346 0
616 297 318 326 346 0
-616 -297 0
-616 -318 0
-616 -326 0
-616 -346 0
617 287 346 0
-617 -287 0
-617 -346 0
618 337 335 346 0
-618 -337 0
-618 -335 0
-618 -346 0
619 314 308 346 0
-619 -314 0
-619 -308 0
-619 -346 0
620 308 347 0
-620 -308 0
-620 -347 0
621 347 335 0
-621 -347 0
-621 -335 0
622 325 346 347 0
-622 -325 0
-622 -346 0
-622 -347 0
623 339 347 0
-623 -339 0
-623 -347 0
624 348 317 0
-624 -348 0
-624 -317 0
625 334 349 0
-625 -334 0
-625 -349 0
626 337 349 0
-626 -337 0
-626 -349 0
627 330 349 344 0
-627 -330 0
-627 -349 0
-627 -344 0
628 291 313 350 -397 0
-628 -291 0
-628 -313 0
-628 -350 0
-628 397 0
629 351 287 0
-629 -351 0
-629 -287 0
630 251 318 351 0
-630 -251 0
-630 -318 0
-630 -351 0
631 349 352 0
-631 -349 0
-631 -352 0
632 279 352 0
-632 -279 0
-632 -352 0
633 352 347 0
-633 -352 0
-633 -347 0
634 294 314 352 0
-634 -294 0
-634 -314 0
-634 -352 0
635 352 351 0
-635 -352 0
-635 -351 0
636 351 353 0
-636 -351 0
-636 -353 0
637 345 353 0
-637 -345 0
-637 -353 0
638 341 353 0
-638 -341 0
-638 -353 0
639 339 353 0
-639 -339 0
-639 -353 0
640 354 351 0
-640 -354 0
-640 -351 0
641 306 338 354 0
-641 -306 0
-641 -338 0
-641 -354 0
642 350 354 0
-642 -350 0
-642 -354 0
643 355 350 0
-643 -355 0
-643 -350 0
644 355 291 0
-644 -355 0
-644 -291 0
645 355 349 0
-645 -355 0
-645 -349 0
646 356 331 0
-646 -356 0
-646 -331 0
647 256 339 356 0
-647 -256 0
-647 -339 0
-647 -356 0
648 356 357 0
-648 -356 0
-648 -357 0
649 357 318 0
-649 -357 0
-649 -318 0
650 329 357 0
-650 -329 0
-650 -357 0
651 240 301 357 353 0
-651 -240 0
-651 -301 0
-651 -357 0
-651 -353 0
652 276 358 0
-652 -276 0
-652 -358 0
653 358 318 0
-653 -358 0
-653 -318 0
654 288 358 0
-654 -288 0
-654 -358 0
655 354 358 0
-655 -354 0
-655 -358 0
656 348 358 0
-656 -348 0
-656 -358 0
657 331 358 0
-657 -331 0
-657 -358 0
658 359 264 0
-658 -359 0
-658 -264 0
659 359 356 0
-659 -359 0
-659 -356 0
660 349 347 343 359 0
-660 -349 0
-660 -347 0
-660 -343 0
-660 -359 0
661 359 360 0
-661 -359 0
-661 -360 0
662 282 346 360 0
-662 -282 0
-662 -346 0
-662 -360 0
663 323 361 0
-663 -323 0
-663 -361 0
664 339 361 0
-664 -339 0
-664 -361 0
665 361 289 0
-665 -361 0
-665 -289 0
666 252 344 361 0
-666 -252 0
-666 -344 0
-666 -361 0
667 260 329 337 361 0
-667 -260 0
-667 -329 0
-667 -337 0
-667 -361 0
668 309 362 0
-668 -309 0
-668 -362 0
669 328 362 0
-669 -328 0
-669 -362 0
670 349 362 0
-670 -349 0
-670 -362 0
671 287 354 362 0
-671 -287 0
-671 -354 0
-671 -362 0
672 290 363 0
-672 -290 0
-672 -363 0
673 342 363 0
-673 -342 0
-673 -363 0
674 303 363 354 361 0
-674 -303 0
-674 -363 0
-674 -354 0
-674 -361 0
675 352 348 363 0
-675 -352 0
-675 -348 0
-675 -363 0
676 309 363 360 0
-676 -309 0
-676 -363 0
-676 -360 0
677 324 359 363 0
-677 -324 0
-677 -359 0
-677 -363 0
678 312 364 0
-678 -312 0
-678 -364 0
679 364 345 0
-679 -364 0
-679 -345 0
680 350 364 0
-680 -350 0
-680 -364 0
681 244 348 364 -387 0
-681 -244 0
-681 -348 0
-681 -364 0
-681 387 0
682 301 290 364 0
-682 -301 0
-682 -290 0
-682 -364 0
683 268 302 364 0
-683 -268 0
-683 -302 0
-683 -364 0
684 357 364 360 0
-684 -357 0
-684 -364 0
-684 -360 0
685 325 323 351 365 0
-685 -325 0
-685 -323 0
-685 -351 0
-685 -365 0
686 366 332 0
-686 -366 0
-686 -332 0
687 338 366 0
-687 -338 0
-687 -366 0
688 363 366 0
-688 -363 0
-688 -366 0
689 347 343 366 0
-689 -347 0
-689 -343 0
-689 -366 0
690 322 367 0
-690 -322 0
-690 -367 0
691 365 367 0
-691 -365 0
-691 -367 0
692 311 339 364 367 0
-692 -311 0
-692 -339 0
-692 -364 0
-692 -367 0
693 293 359 367 0
-693 -293 0
-693 -359 0
-693 -367 0
694 314 331 367 0
-694 -314 0
-694 -331 0
-694 -367 0
695 365 368 0
-695 -365 0
-695 -368 0
696 354 362 368 0
-696 -354 0
-696 -362 0
-696 -368 0
697 274 276 364 368 0
-697 -274 0
-697 -276 0
-697 -364 0
-697 -368 0
698 329 347 355 368 0
-698 -329 0
-698 -347 0
-698 -355 0
-698 -368 0
699 346 344 368 0
-699 -346 0
-699 -344 0
-699 -368 0
700 315 369 0
-700 -315 0
-700 -369 0
701 330 369 0
-701 -330 0
-701 -369 0
702 324 326 369 0
-702 -324 0
-702 -326 0
-702 -369 0
703 365 369 0
-703 -365 0
-703 -369 0
704 -415 -387 0
-704 415 0
-704 387 0
705 367 304 -385 -431 0
-705 -367 0
-705 -304 0
-705 385 0
-705 431 0
706 281 286 304 -434 0
-706 -281 0
-706 -286 0
-706 -304 0
-706 434 0
707 363 -436 0
-707 -363 0
-707 436 0
708 296 327 333 -448 0
-708 -296 0
-708 -327 0
-708 -333 0
-708 448 0
709 -452 -386 0
-709 452 0
-709 386 0
710 260 -453 0
-710 -260 0
-710 453 0
711 312 323 309 -455 0
-711 -312 0
-711 -323 0
-711 -309 0
-711 455 0
712 284 -460 0
-712 -284 0
-712 460 0
713 255 -461 0
-713 -255 0
-713 461 0
714 322 -467 0
-714 -322 0
-714 467 0
715 305 -467 -375 0
-715 -305 0
-715 467 0
-715 375 0
716 289 -468 0
-716 -289 0
-716 468 0
717 336 343 330 -469 0
-717 -336 0
-717 -343 0
-717 -330 0
-717 469 0
718 260 -471 0
-718 -260 0
-718 471 0
719 340 317 -402 -473 0
-719 -340 0
-719 -317 0
-719 402 0
-719 473 0
720 278 -475 0
-720 -278 0
-720 475 0
721 246 -475 299 0
-721 -246 0
-721 475 0
-721 -299 0
722 -398 -476 0
-722 398 0
-722 476 0
723 300 -477 0
-723 -300 0
-723 477 0
724 -452 -478 0
-724 452 0
-724 478 0
725 356 -494 0
-725 -356 0
-725 494 0
726 -386 -496 0
-726 386 0
-726 496 0
727 311 344 363 -498 0
-727 -311 0
-727 -344 0
-727 -363 0
-727 498 0
728 293 -501 0
-728 -293 0
-728 501 0
729 251 -504 0
-729 -251 0
-729 504 0
730 340 -508 0
-730 -340 0
-730 508 0
731 246 -510 0
-731 -246 0
-731 510 0
732 342 362 367 -514 0
-732 -342 0
-732 -362 0
-732 -367 0
-732 514 0
733 286 287 -516 -421 0
-733 -286 0
-733 -287 0
-733 516 0
-733 421 0
734 244 249 -516 0
-734 -244 0
-734 -249 0
-734 516 0
735 302 -517 0
-735 -302 0
-735 517 0
736 315 344 352 -521 0
-736 -315 0
-736 -344 0
-736 -352 0
-736 521 0
737 327 -522 -406 -472 0
-737 -327 0
-737 522 0
-737 406 0
-737 472 0
738 -414 -430 -526 -520 0
-738 414 0
-738 430 0
-738 526 0
-738 520 0
739 -436 -508 -531 -371 0
-739 436 0
-739 508 0
-739 531 0
-739 371 0
740 348 -531 0
-740 -348 0
-740 531 0
741 264 335 365 -536 0
-741 -264 0
-741 -335 0
-741 -365 0
-741 536 0
742 257 -541 0
-742 -257 0
-742 541 0
743 345 367 -543 0
-743 -345 0
-743 -367 0
-743 543 0
744 345 -404 -499 -544 0
-744 -345 0
-744 404 0
-744 499 0
-744 544 0
745 243 -549 0
-745 -243 0
-745 549 0
746 260 -550 0
-746 -260 0
-746 550 0
747 258 -550 293 0
-747 -258 0
-747 550 0
-747 -293 0
748 250 -551 0
-748 -250 0
-748 551 0
749 349 350 -449 -552 0
-749 -349 0
-749 -350 0
-749 449 0
-749 552 0
750 -419 -556 -476 0
-750 419 0
-750 556 0
-750 476 0
751 314 -557 0
-751 -314 0
-751 557 0
752 245 -559 0
-752 -245 0
-752 559 0
753 301 -559 0
-753 -301 0
-753 559 0
754 -561 -482 0
-754 561 0
-754 482 0
755 -571 -419 0
-755 571 0
-755 419 0
756 -445 -573 0
-756 445 0
-756 573 0
757 282 -579 0
-757 -282 0
-757 579 0
758 246 239 -579 0
-758 -246 0
-758 -239 0
-758 579 0
759 261 -580 0
-759 -261 0
-759 580 0
760 290 -584 0
-760 -290 0
-760 584 0
761 308 -584 0
-761 -308 0
-761 584 0
762 -478 -586 -476 0
-762 478 0
-762 586 0
-762 476 0
763 -578 -586 0
-763 578 0
-763 586 0
764 -586 265 0
-764 586 0
-764 -265 0
765 346 -588 0
-765 -346 0
-765 588 0
766 262 -591 0
-766 -262 0
-766 591 0
767 -593 336 0
-767 593 0
-767 -336 0
768 367 -593 0
-768 -367 0
-768 593 0
769 285 -467 -593 0
-769 -285 0
-769 467 0
-769 593 0
770 346 -595 0
-770 -346 0
-770 595 0
771 318 -596 0
-771 -318 0
-771 596 0
772 361 349 -553 -601 0
-772 -361 0
-772 -349 0
-772 553 0
-772 601 0
773 247 -604 0
-773 -247 0
-773 604 0
774 -606 -576 0
-774 606 0
-774 576 0
775 -571 -607 -478 0
-775 571 0
-775 607 0
-775 478 0
776 310 -620 0
-776 -310 0
-776 620 0
777 281 -621 0
-777 -281 0
-777 621 0
778 248 -629 0
-778 -248 0
-778 629 0
779 338 -631 0
-779 -338 0
-779 631 0
780 259 -632 0
-780 -259 0
-780 632 0
781 -632 329 -436 0
-781 632 0
-781 -329 0
-781 436 0
782 -600 -530 -379 -633 0
-782 600 0
-782 530 0
-782 379 0
-782 633 0
783 -419 -636 -572 -625 0
-783 419 0
-783 636 0
-783 572 0
-783 625 0
784 300 -637 0
-784 -300 0
-784 637 0
785 243 -638 0
-785 -243 0
-785 638 0
786 338 343 355 -639 0
-786 -338 0
-786 -343 0
-786 -355 0
-786 639 0
787 312 -640 0
-787 -312 0
-787 640 0
788 268 -643 0
-788 -268 0
-788 643 0
789 335 334 -643 -545 0
-789 -335 0
-789 -334 0
-789 643 0
-789 545 0
790 -567 -644 -482 0
-790 567 0
-790 644 0
-790 482 0
791 -598 -644 0
-791 598 0
-791 644 0
792 -413 -454 -484 -645 0
-792 413 0
-792 454 0
-792 484 0
-792 645 0
793 -646 -466 0
-793 646 0
-793 466 0
794 -648 -379 0
-794 648 0
-794 379 0
795 355 -648 0
-795 -355 0
-795 648 0
796 337 -648 0
-796 -337 0
-796 648 0
797 -648 -624 0
-797 648 0
-797 624 0
798 -648 -378 0
-798 648 0
-798 378 0
799 349 360 -649 -417 0
-799 -349 0
-799 -360 0
-799 649 0
-799 417 0
800 -636 -379 -649 0
-800 636 0
-800 379 0
-800 649 0
801 -415 -649 0
-801 415 0
-801 649 0
802 -497 -409 -533 -650 0
-802 497 0
-802 409 0
-802 533 0
-802 650 0
803 249 -652 -522 -389 0
-803 -249 0
-803 652 0
-803 522 0
-803 389 0
804 316 -653 0
-804 -316 0
-804 653 0
805 -658 368 -408 -642 0
-805 658 0
-805 -368 0
-805 408 0
-805 642 0
806 -658 -434 0
-806 658 0
-806 434 0
807 -661 -598 0
-807 661 0
-807 598 0
808 -661 -606 0
-808 661 0
-808 606 0
809 -567 -661 -653 0
-809 567 0
-809 661 0
-809 653 0
810 -663 -439 -537 -605 0
-810 663 0
-810 439 0
-810 537 0
-810 605 0
811 -663 -466 0
-811 663 0
-811 466 0
812 295 -664 0
-812 -295 0
-812 664 0
813 267 -665 0
-813 -267 0
-813 665 0
814 338 -661 -668 -615 0
-814 -338 0
-814 661 0
-814 668 0
-814 615 0
815 266 288 275 -672 0
-815 -266 0
-815 -288 0
-815 -275 0
-815 672 0
816 -556 -674 0
-816 556 0
-816 674 0
817 294 -678 0
-817 -294 0
-817 678 0
818 340 -679 0
-818 -340 0
-818 679 0
819 284 298 369 -679 0
-819 -284 0
-819 -298 0
-819 -369 0
-819 679 0
820 315 -686 0
-820 -315 0
-820 686 0
821 336 -687 0
-821 -336 0
-821 687 0
822 -690 -567 0
-822 690 0
-822 567 0
823 -478 -690 -561 0
-823 478 0
-823 690 0
-823 561 0
824 275 -691 0
-824 -275 0
-824 691 0
825 327 340 -695 0
-825 -327 0
-825 -340 0
-825 695 0
826 337 350 352 -695 0
-826 -337 0
-826 -350 0
-826 -352 0
-826 695 0
827 333 343 -695 0
-827 -333 0
-827 -343 0
-827 695 0
828 312 356 -695 0
-828 -312 0
-828 -356 0
-828 695 0
829 -445 -697 0
-829 445 0
-829 697 0
830 -698 -522 0
-830 698 0
-830 522 0
831 -700 -571 -450 -465 0
-831 700 0
-831 571 0
-831 450 0
-831 465 0
832 -701 -603 -509 -673 0
-832 701 0
-832 603 0
-832 509 0
-832 673 0
833 -701 -536 0
-833 701 0
-833 536 0
834 -494 -701 -419 0
-834 494 0
-834 701 0
-834 419 0
835 -701 -508 -452 0
-835 701 0
-835 508 0
-835 452 0
836 -393 -410 -617 -703 0
-836 393 0
-836 410 0
-836 617 0
-836 703 0
837 287 294 297 -706 0
-837 -287 0
-837 -294 0
-837 -297 0
-837 706 0
838 -706 -536 0
-838 706 0
-838 536 0
839 -708 -530 0
-839 708 0
-839 530 0
840 -461 -708 0
-840 461 0
-840 708 0
841 -710 -603 0
-841 710 0
-841 603 0
842 -607 -711 0
-842 607 0
-842 711 0
843 -576 -712 0
-843 576 0
-843 712 0
844 -481 -712 0
-844 481 0
-844 712 0
845 310 -714 0
-845 -310 0
-845 714 0
846 264 269 324 -716 0
-846 -264 0
-846 -269 0
-846 -324 0
-846 716 0
847 -378 -718 -481 0
-847 378 0
-847 718 0
-847 481 0
848 -470 -720 0
-848 470 0
-848 720 0
849 356 -720 0
-849 -356 0
-849 720 0
850 -716 -429 -462 -723 0
-850 716 0
-850 429 0
-850 462 0
-850 723 0
851 -394 -513 -585 -726 0
-851 394 0
-851 513 0
-851 585 0
-851 726 0
852 -728 -403 0
-852 728 0
-852 403 0
853 -728 -705 0
-853 728 0
-853 705 0
854 -598 -705 -729 0
-854 598 0
-854 705 0
-854 729 0
855 -729 -607 0
-855 729 0
-855 607 0
856 -403 -731 0
-856 403 0
-856 731 0
857 -732 -575 -558 0
-857 732 0
-857 575 0
-857 558 0
858 -733 -477 -720 0
-858 733 0
-858 477 0
-858 720 0
859 -735 -428 -546 -599 0
-859 735 0
-859 428 0
-859 546 0
-859 599 0
860 -651 -598 -736 0
-860 651 0
-860 598 0
-860 736 0
861 298 -739 0
-861 -298 0
-861 739 0
862 341 340 -732 -739 0
-862 -341 0
-862 -340 0
-862 732 0
-862 739 0
863 -418 -487 -540 -740 0
-863 418 0
-863 487 0
-863 540 0
-863 740 0
864 -466 -741 0
-864 466 0
-864 741 0
865 -742 -445 0
-865 742 0
-865 445 0
866 -543 -744 0
-866 543 0
-866 744 0
867 313 -745 0
-867 -313 0
-867 745 0
868 268 -746 0
-868 -268 0
-868 746 0
869 -386 -748 0
-869 386 0
-869 748 0
870 -748 -602 0
-870 748 0
-870 602 0
871 348 365 -749 0
-871 -348 0
-871 -365 0
-871 749 0
872 -741 -751 -602 0
-872 741 0
-872 751 0
-872 602 0
873 -752 -398 -527 -657 0
-873 752 0
-873 398 0
-873 527 0
-873 657 0
874 276 -753 0
-874 -276 0
-874 753 0
875 -427 -511 -659 -754 0
-875 427 0
-875 511 0
-875 659 0
-875 754 0
876 -412 -493 -554 -756 0
-876 412 0
-876 493 0
-876 554 0
-876 756 0
877 -757 -728 0
-877 757 0
-877 728 0
878 -644 -606 -759 0
-878 644 0
-878 606 0
-878 759 0
879 259 -760 0
-879 -259 0
-879 760 0
880 -426 -547 -612 -764 0
-880 426 0
-880 547 0
-880 612 0
-880 764 0
881 -766 -752 0
-881 766 0
-881 752 0
882 -681 -766 0
-882 681 0
-882 766 0
883 244 -767 0
-883 -244 0
-883 767 0
884 306 353 -771 -698 0
-884 -306 0
-884 -353 0
-884 771 0
-884 698 0
885 280 338 -771 -374 0
-885 -280 0
-885 -338 0
-885 771 0
-885 374 0
886 -772 -567 -697 0
-886 772 0
-886 567 0
-886 697 0
887 -606 -772 0
-887 606 0
-887 772 0
888 319 367 -776 -447 0
-888 -319 0
-888 -367 0
-888 776 0
-888 447 0
889 -559 -777 0
-889 559 0
-889 777 0
890 -778 -668 -600 0
-890 778 0
-890 668 0
-890 600 0
891 -779 -731 0
-891 779 0
-891 731 0
892 -710 -779 0
-892 710 0
-892 779 0
893 -744 -483 -780 0
-893 744 0
-893 483 0
-893 780 0
894 313 -782 0
-894 -313 0
-894 782 0
895 -783 -477 0
-895 783 0
-895 477 0
896 -784 -751 0
-896 784 0
-896 751 0
897 -785 -434 -776 0
-897 785 0
-897 434 0
-897 776 0
898 -787 -652 -773 0
-898 787 0
-898 652 0
-898 773 0
899 -624 -415 -787 -565 0
-899 624 0
-899 415 0
-899 787 0
-899 565 0
900 -543 -788 0
-900 543 0
-900 788 0
901 -624 -788 -785 0
-901 624 0
-901 788 0
-901 785 0
902 -461 -789 0
-902 461 0
-902 789 0
903 -792 -567 0
-903 792 0
-903 567 0
904 -742 -395 -440 -793 0
-904 742 0
-904 395 0
-904 440 0
-904 793 0
905 330 -384 -512 -796 0
-905 -330 0
-905 384 0
-905 512 0
-905 796 0
906 -432 -464 -623 -798 0
-906 432 0
-906 464 0
-906 623 0
-906 798 0
907 333 -799 0
-907 -333 0
-907 799 0
908 362 -803 0
-908 -362 0
-908 803 0
909 242 -804 0
-909 -242 0
-909 804 0
910 -805 -780 0
-910 805 0
-910 780 0
911 -436 -807 0
-911 436 0
-911 807 0
912 -810 -668 -727 -492 0
-912 810 0
-912 668 0
-912 727 0
-912 492 0
913 354 -810 0
-913 -354 0
-913 810 0
914 -463 -562 -730 -811 0
-914 463 0
-914 562 0
-914 730 0
-914 811 0
915 368 -812 -538 -670 0
-915 -368 0
-915 812 0
-915 538 0
-915 670 0
916 -773 -812 0
-916 773 0
-916 812 0
917 -690 -813 0
-917 690 0
-917 813 0
918 -736 -813 0
-918 736 0
-918 813 0
919 337 -814 0
-919 -337 0
-919 814 0
920 -737 -815 0
-920 737 0
-920 815 0
921 292 -818 0
-921 -292 0
-921 818 0
922 -674 -819 0
-922 674 0
-922 819 0
923 -636 -819 0
-923 636 0
-923 819 0
924 242 239 331 -820 0
-924 -242 0
-924 -239 0
-924 -331 0
-924 820 0
925 -556 -821 -401 -656 0
-925 556 0
-925 821 0
-925 401 0
-925 656 0
926 -497 -821 0
-926 497 0
-926 821 0
927 -761 -680 -797 -822 0
-927 761 0
-927 680 0
-927 797 0
-927 822 0
928 -824 -575 0
-928 824 0
-928 575 0
929 -826 -757 0
-929 826 0
-929 757 0
930 -588 -826 0
-930 588 0
-930 826 0
931 -405 -581 -609 -833 0
-931 405 0
-931 581 0
-931 609 0
-931 833 0
932 334 -837 0
-932 -334 0
-932 837 0
933 -411 -442 -840 -724 0
-933 411 0
-933 442 0
-933 840 0
-933 724 0
934 -769 -791 -844 -801 0
-934 769 0
-934 791 0
-934 844 0
-934 801 0
935 239 -845 0
-935 -239 0
-935 845 0
936 304 313 360 -846 0
-936 -304 0
-936 -313 0
-936 -360 0
-936 846 0
937 287 -588 -846 0
-937 -287 0
-937 588 0
-937 846 0
938 291 -848 0
-938 -291 0
-938 848 0
939 -400 -370 -755 -852 0
-939 400 0
-939 370 0
-939 755 0
-939 852 0
940 -444 -480 -725 -853 0
-940 444 0
-940 480 0
-940 725 0
-940 853 0
941 -783 -859 0
-941 783 0
-941 859 0
942 294 -861 0
-942 -294 0
-942 861 0
943 -862 -501 -749 0
-943 862 0
-943 501 0
-943 749 0
944 361 -863 -814 0
-944 -361 0
-944 863 0
-944 814 0
945 -532 -768 -866 -794 0
-945 532 0
-945 768 0
-945 866 0
-945 794 0
946 280 -867 0
-946 -280 0
-946 867 0
947 -672 293 -868 0
-947 672 0
-947 -293 0
-947 868 0
948 -503 -622 -871 -709 0
-948 503 0
-948 622 0
-948 871 0
-948 709 0
949 -873 -648 0
-949 873 0
-949 648 0
950 -387 -874 0
-950 387 0
-950 874 0
951 -820 -874 0
-951 820 0
-951 874 0
952 -875 -817 -477 0
-952 875 0
-952 817 0
-952 477 0
953 350 366 -770 -876 0
-953 -350 0
-953 -366 0
-953 770 0
-953 876 0
954 -470 -879 0
-954 470 0
-954 879 0
955 -624 -575 -879 0
-955 624 0
-955 575 0
-955 879 0
956 -880 -483 -681 0
-956 880 0
-956 483 0
-956 681 0
957 -883 -477 0
-957 883 0
-957 477 0
958 -883 -378 0
-958 883 0
-958 378 0
959 365 -884 0
-959 -365 0
-959 884 0
960 -885 -646 0
-960 885 0
-960 646 0
961 -888 -598 -813 0
-961 888 0
-961 598 0
-961 813 0
962 -888 -815 0
-962 888 0
-962 815 0
963 -592 -743 -889 -774 0
-963 592 0
-963 743 0
-963 889 0
-963 774 0
964 -383 -519 -830 -891 0
-964 383 0
-964 519 0
-964 830 0
-964 891 0
965 -502 -696 -895 -808 0
-965 502 0
-965 696 0
-965 895 0
-965 808 0
966 -803 -899 0
-966 803 0
-966 899 0
967 -899 -483 -831 0
-967 899 0
-967 483 0
-967 831 0
968 -407 -669 -902 -865 0
-968 407 0
-968 669 0
-968 902 0
-968 865 0
969 -718 -420 -654 -903 0
-969 718 0
-969 420 0
-969 654 0
-969 903 0
970 -904 -403 -757 0
-970 904 0
-970 403 0
-970 757 0
971 351 359 369 -905 0
-971 -351 0
-971 -359 0
-971 -369 0
-971 905 0
972 310 -906 0
-972 -310 0
-972 906 0
973 -717 -376 -534 -907 0
-973 717 0
-973 376 0
-973 534 0
-973 907 0
974 -574 -582 -908 -855 0
-974 574 0
-974 582 0
-974 908 0
-974 855 0
975 -770 -727 -909 0
-975 770 0
-975 727 0
-975 909 0
976 341 342 -909 -817 0
-976 -341 0
-976 -342 0
-976 909 0
-976 817 0
977 -652 -911 0
-977 652 0
-977 911 0
978 -522 -911 -784 0
-978 522 0
-978 911 0
-978 784 0
979 -912 -789 -531 0
-979 912 0
-979 789 0
-979 531 0
980 -583 -913 -882 -892 0
-980 583 0
-980 913 0
-980 882 0
-980 892 0
981 339 364 -914 0
-981 -339 0
-981 -364 0
-981 914 0
982 -695 -876 -914 0
-982 695 0
-982 876 0
-982 914 0
983 -416 -671 -849 -917 0
-983 416 0
-983 671 0
-983 849 0
-983 917 0
984 325 -919 0
-984 -325 0
-984 919 0
985 -921 -485 -626 -920 0
-985 921 0
-985 485 0
-985 626 0
-985 920 0
986 -924 -745 265 0
-986 924 0
-986 745 0
-986 -265 0
987 -899 -483 -924 0
-987 899 0
-987 483 0
-987 924 0
988 346 -925 0
-988 -346 0
-988 925 0
989 -489 -618 -926 -916 0
-989 489 0
-989 618 0
-989 926 0
-989 916 0
990 362 -927 0
-990 -362 0
-990 927 0
991 -569 -707 -929 -870 0
-991 569 0
-991 707 0
-991 929 0
-991 870 0
992 -747 -689 -930 -816 0
-992 747 0
-992 689 0
-992 930 0
-992 816 0
993 -501 -931 241 0
-993 501 0
-993 931 0
-993 -241 0
994 277 -932 0
-994 -277 0
-994 932 0
995 -933 -624 -628 0
-995 933 0
-995 624 0
-995 628 0
996 -934 -639 -717 0
-996 934 0
-996 639 0
-996 717 0
997 354 -934 -531 0
-997 -354 0
-997 934 0
-997 531 0
998 -935 -735 -759 0
-998 935 0
-998 735 0
-998 759 0
999 -424 -937 -847 -722 0
-999 424 0
-999 937 0
-999 847 0
-999 722 0
1000 357 -639 -938 0
-1000 -357 0
-1000 639 0
-1000 938 0
1001 324 -938 0
-1001 -324 0
-1001 938 0
1002 318 -938 0
-1002 -318 0
-1002 938 0
1003 -837 -939 -624 0
-1003 837 0
-1003 939 0
-1003 624 0
1004 -884 -939 0
-1004 884 0
-1004 939 0
1005 -939 241 -531 0
-1005 939 0
-1005 -241 0
-1005 531 0
1006 239 247 -939 -396 0
-1006 -239 0
-1006 -247 0
-1006 939 0
-1006 396 0
1007 350 -436 -674 -940 0
-1007 -350 0
-1007 436 0
-1007 674 0
-1007 940 0
1008 368 -836 -940 0
-1008 -368 0
-1008 836 0
-1008 940 0
1009 -375 -543 -940 0
-1009 375 0
-1009 543 0
-1009 940 0
1010 -933 -738 -942 0
-1010 933 0
-1010 738 0
-1010 942 0
1011 -945 -777 -561 0
-1011 945 0
-1011 777 0
-1011 561 0
1012 366 -792 -945 0
-1012 -366 0
-1012 792 0
-1012 945 0
1013 -946 -733 0
-1013 946 0
-1013 733 0
1014 348 -946 -770 0
-1014 -348 0
-1014 946 0
-1014 770 0
1015 342 351 -946 -836 0
-1015 -342 0
-1015 -351 0
-1015 946 0
-1015 836 0
1016 324 345 -948 -446 0
-1016 -324 0
-1016 -345 0
-1016 948 0
-1016 446 0
1017 -651 -461 -948 0
-1017 651 0
-1017 461 0
-1017 948 0
1018 -713 -922 -877 -950 0
-1018 713 0
-1018 922 0
-1018 877 0
-1018 950 0
1019 296 -954 0
-1019 -296 0
-1019 954 0
1020 -399 -506 -894 -957 0
-1020 399 0
-1020 506 0
-1020 894 0
-1020 957 0
1021 -564 -765 -960 -841 0
-1021 564 0
-1021 765 0
-1021 960 0
-1021 841 0
1022 -925 -915 -963 0
-1022 925 0
-1022 915 0
-1022 963 0
1023 -963 -378 -738 0
-1023 963 0
-1023 378 0
-1023 738 0
1024 -963 -802 -780 0
-1024 963 0
-1024 802 0
-1024 780 0
1025 -494 -964 -378 0
-1025 494 0
-1025 964 0
-1025 378 0
1026 -964 -496 -831 0
-1026 964 0
-1026 496 0
-1026 831 0
1027 352 -965 0
-1027 -352 0
-1027 965 0
1028 -817 -965 -832 0
-1028 817 0
-1028 965 0
-1028 832 0
1029 -479 -676 -966 -864 0
-1029 479 0
-1029 676 0
-1029 966 0
-1029 864 0
1030 -968 -719 0
-1030 968 0
-1030 719 0
1031 -969 -862 -575 0
-1031 969 0
-1031 862 0
-1031 575 0
1032 317 -969 -805 0
-1032 -317 0
-1032 969 0
-1032 805 0
1033 328 333 363 -969 0
-1033 -328 0
-1033 -333 0
-1033 -363 0
-1033 969 0
1034 -868 -973 -904 0
-1034 868 0
-1034 973 0
-1034 904 0
1035 -873 -973 -508 0
-1035 873 0
-1035 973 0
-1035 508 0
1036 -905 -461 -974 0
-1036 905 0
-1036 461 0
-1036 974 0
1037 -880 -974 -711 0
-1037 880 0
-1037 974 0
-1037 711 0
1038 -422 -587 -702 -975 0
-1038 422 0
-1038 587 0
-1038 702 0
-1038 975 0
1039 -488 -597 -795 -977 0
-1039 488 0
-1039 597 0
-1039 795 0
-1039 977 0
1040 249 -946 -980 0
-1040 -249 0
-1040 946 0
-1040 980 0
1041 -983 -802 -483 0
-1041 983 0
-1041 802 0
-1041 483 0
1042 -983 -701 -644 0
-1042 983 0
-1042 701 0
-1042 644 0
1043 -578 -984 0
-1043 578 0
-1043 984 0
1044 -700 -984 0
-1044 700 0
-1044 984 0
1045 321 -988 0
-1045 -321 0
-1045 988 0
1046 -989 -561 -600 0
-1046 989 0
-1046 561 0
-1046 600 0
1047 -989 -700 -824 0
-1047 989 0
-1047 700 0
-1047 824 0
1048 321 -991 -906 -859 0
-1048 -321 0
-1048 991 0
-1048 906 0
-1048 859 0
1049 -714 -639 -991 0
-1049 714 0
-1049 639 0
-1049 991 0
1050 -885 -992 -904 0
-1050 885 0
-1050 992 0
-1050 904 0
1051 342 367 -992 -373 0
-1051 -342 0
-1051 -367 0
-1051 992 0
-1051 373 0
1052 -392 -515 -993 -881 0
-1052 392 0
-1052 515 0
-1052 993 0
-1052 881 0
1053 -850 -994 0
-1053 850 0
-1053 994 0
1054 304 -467 -999 0
-1054 -304 0
-1054 467 0
-1054 999 0
1055 -639 -999 -909 0
-1055 639 0
-1055 999 0
-1055 909 0
1056 -524 -1001 -839 -763 0
-1056 524 0
-1056 1001 0
-1056 839 0
-1056 763 0
1057 -437 -539 -1013 -958 0
-1057 437 0
-1057 539 0
-1057 1013 0
-1057 958 0
1058 -634 -1014 -835 -951 0
-1058 634 0
-1058 1014 0
-1058 835 0
-1058 951 0
1059 -1016 -556 -558 0
-1059 1016 0
-1059 556 0
-1059 558 0
1060 -1016 -398 0
-1060 1016 0
-1060 398 0
1061 -1018 -802 -719 0
-1061 1018 0
-1061 802 0
-1061 719 0
1062 311 337 -1018 0
-1062 -311 0
-1062 -337 0
-1062 1018 0
1063 -826 -863 -1018 -859 0
-1063 826 0
-1063 863 0
-1063 1018 0
-1063 859 0
1064 362 -991 -914 -1019 0
-1064 -362 0
-1064 991 0
-1064 914 0
-1064 1019 0
1065 354 -782 -1019 0
-1065 -354 0
-1065 782 0
-1065 1019 0
1066 -674 -1019 -931 0
-1066 674 0
-1066 1019 0
-1066 931 0
1067 299 337 -868 -1020 0
-1067 -299 0
-1067 -337 0
-1067 868 0
-1067 1020 0
1068 349 343 -1020 0
-1068 -349 0
-1068 -343 0
-1068 1020 0
1069 358 -1021 -915 0
-1069 -358 0
-1069 1021 0
-1069 915 0
1070 -381 -781 -1022 -970 0
-1070 381 0
-1070 781 0
-1070 1022 0
-1070 970 0
1071 -377 -682 -944 -1023 0
-1071 377 0
-1071 682 0
-1071 944 0
-1071 1023 0
1072 -589 -1015 -1024 -790 0
-1072 589 0
-1072 1015 0
-1072 1024 0
-1072 790 0
1073 -391 -616 -1007 -1026 0
-1073 391 0
-1073 616 0
-1073 1007 0
-1073 1026 0
1074 243 -1027 0
-1074 -243 0
-1074 1027 0
1075 -505 -1028 -1011 -869 0
-1075 505 0
-1075 1028 0
-1075 1011 0
-1075 869 0
1076 238 -1029 0
-1076 -238 0
-1076 1029 0
1077 316 -1029 -1021 0
-1077 -316 0
-1077 1029 0
-1077 1021 0
1078 -555 -1008 -1030 -896 0
-1078 555 0
-1078 1008 0
-1078 1030 0
-1078 896 0
1079 -613 -971 -1031 -762 0
-1079 613 0
-1079 971 0
-1079 1031 0
-1079 762 0
1080 -443 -1033 -982 -860 0
-1080 443 0
-1080 1033 0
-1080 982 0
-1080 860 0
1081 -486 -692 -1034 -750 0
-1081 486 0
-1081 692 0
-1081 1034 0
-1081 750 0
1082 -666 -1009 -1035 -806 0
-1082 666 0
-1082 1009 0
-1082 1035 0
-1082 806 0
1083 -817 -1038 -968 0
-1083 817 0
-1083 1038 0
-1083 968 0
1084 -593 -651 -1038 0
-1084 593 0
-1084 651 0
-1084 1038 0
1085 -980 -1038 -558 0
-1085 980 0
-1085 1038 0
-1085 558 0
1086 -1039 350 0
-1086 1039 0
-1086 -350 0
1087 -1039 -912 -817 0
-1087 1039 0
-1087 912 0
-1087 817 0
1088 366 -1039 -999 -826 0
-1088 -366 0
-1088 1039 0
-1088 999 0
-1088 826 0
1089 348 -1039 0
-1089 -348 0
-1089 1039 0
1090 -570 -976 -1017 -1042 0
-1090 570 0
-1090 976 0
-1090 1017 0
-1090 1042 0
1091 -1000 -1003 -886 -1043 0
-1091 1000 0
-1091 1003 0
-1091 886 0
-1091 1043 0
1092 -610 -655 -959 -1044 0
-1092 610 0
-1092 655 0
-1092 959 0
-1092 1044 0
1093 -663 -1045 0
-1093 663 0
-1093 1045 0
1094 -728 -558 -1045 0
-1094 728 0
-1094 558 0
-1094 1045 0
1095 -438 -535 -1032 -1047 0
-1095 438 0
-1095 535 0
-1095 1032 0
-1095 1047 0
1096 -458 -1048 -834 -898 0
-1096 458 0
-1096 1048 0
-1096 834 0
-1096 898 0
1097 -936 -1050 -955 -878 0
-1097 936 0
-1097 1050 0
-1097 955 0
-1097 878 0
1098 -935 -1051 0
-1098 935 0
-1098 1051 0
1099 -1051 -668 -530 0
-1099 1051 0
-1099 668 0
-1099 530 0
1100 -375 -851 -1052 0
-1100 375 0
-1100 851 0
-1100 1052 0
1101 -614 -990 -1004 -1053 0
-1101 614 0
-1101 990 0
-1101 1004 0
-1101 1053 0
1102 -372 -1054 -1010 -704 0
-1102 372 0
-1102 1054 0
-1102 1010 0
-1102 704 0
1103 -491 -694 -1055 -979 0
-1103 491 0
-1103 694 0
-1103 1055 0
-1103 979 0
1104 245 -1056 0
-1104 -245 0
-1104 1056 0
1105 -571 -501 -1056 -850 0
-1105 571 0
-1105 501 0
-1105 1056 0
-1105 850 0
1106 -598 -1057 0
-1106 598 0
-1106 1057 0
1107 -1057 -985 0
-1107 1057 0
-1107 985 0
1108 -1058 -985 -543 0
-1108 1058 0
-1108 985 0
-1108 543 0
1109 257 262 360 -1058 0
-1109 -257 0
-1109 -262 0
-1109 -360 0
-1109 1058 0
1110 -474 -693 -996 -1060 0
-1110 474 0
-1110 693 0
-1110 996 0
-1110 1060 0
1111 -542 -953 -1061 -809 0
-1111 542 0
-1111 953 0
-1111 1061 0
-1111 809 0
1112 -423 -1062 -1025 -872 0
-1112 423 0
-1112 1062 0
-1112 1025 0
-1112 872 0
1113 -590 -786 -1063 -775 0
-1113 590 0
-1113 786 0
-1113 1063 0
-1113 775 0
1114 -490 -1064 -956 -800 0
-1114 490 0
-1114 1064 0
-1114 956 0
-1114 800 0
1115 -441 -677 -1065 -901 0
-1115 441 0
-1115 677 0
-1115 1065 0
-1115 901 0
1116 -875 -799 -1067 0
-1116 875 0
-1116 799 0
-1116 1067 0
1117 169 -1071 0
-1117 -169 0
-1117 1071 0
1118 -1074 -921 0
-1118 1074 0
-1118 921 0
1119 -653 -1074 -942 0
-1119 653 0
-1119 1074 0
-1119 942 0
1120 242 -1076 0
-1120 -242 0
-1120 1076 0
1121 -507 -1077 -893 -897 0
-1121 507 0
-1121 1077 0
-1121 893 0
-1121 897 0
1122 -523 -660 -1083 -854 0
-1122 523 0
-1122 660 0
-1122 1083 0
-1122 854 0
1123 -667 -1084 -995 -890 0
-1123 667 0
-1123 1084 0
-1123 995 0
-1123 890 0
1124 -459 -828 -1085 -978 0
-1124 459 0
-1124 828 0
-1124 1085 0
-1124 978 0
1125 287 -1086 0
-1125 -287 0
-1125 1086 0
1126 -435 -641 -1087 -1059 0
-1126 435 0
-1126 641 0
-1126 1087 0
-1126 1059 0
1127 -611 -1088 -967 -823 0
-1127 611 0
-1127 1088 0
-1127 967 0
-1127 823 0
1128 -528 -619 -1089 -923 0
-1128 528 0
-1128 619 0
-1128 1089 0
-1128 923 0
1129 -846 -737 -1092 0
-1129 846 0
-1129 737 0
-1129 1092 0
1130 -927 -1092 0
-1130 927 0
-1130 1092 0
1131 -566 -1049 -952 -1094 0
-1131 566 0
-1131 1049 0
-1131 952 0
-1131 1094 0
1132 -563 -941 -949 -1098 0
-1132 563 0
-1132 941 0
-1132 949 0
-1132 1098 0
1133 -380 -685 -1100 -986 0
-1133 380 0
-1133 685 0
-1133 1100 0
-1133 986 0
1134 265 -1006 -382 -1104 0
-1134 -265 0
-1134 1006 0
-1134 382 0
-1134 1104 0
1135 -837 -1105 0
-1135 837 0
-1135 1105 0
1136 335 -1106 0
-1136 -335 0
-1136 1106 0
1137 -647 -1107 -910 -842 0
-1137 647 0
-1137 1107 0
-1137 910 0
-1137 842 0
1138 -630 -1108 -961 -856 0
-1138 630 0
-1138 1108 0
-1138 961 0
-1138 856 0
1139 -718 -777 -1109 0
-1139 718 0
-1139 777 0
-1139 1109 0
1140 -778 -646 -1109 0
-1140 778 0
-1140 646 0
-1140 1109 0
1141 -1114 -1071 0
-1141 1114 0
-1141 1071 0
1142 -1115 -1052 -648 0
-1142 1115 0
-1142 1052 0
-1142 648 0
1143 327 366 367 -1115 0
-1143 -327 0
-1143 -366 0
-1143 -367 0
-1143 1115 0
1144 -456 -568 -825 -1116 0
-1144 456 0
-1144 568 0
-1144 825 0
-1144 1116 0
1145 -1114 1071 0
-1145 1114 0
-1145 -1071 0
1146 67 1071 0
-1146 -67 0
-1146 -1071 0
1147 -525 -972 -928 -1118 0
-1147 525 0
-1147 972 0
-1147 928 0
-1147 1118 0
1148 -425 -947 -1046 -1119 0
-1148 425 0
-1148 947 0
-1148 1046 0
-1148 1119 0
1149 -1120 -628 0
-1149 1120 0
-1149 628 0
1150 -603 -1120 0
-1150 603 0
-1150 1120 0
1151 -1125 -496 0
-1151 1125 0
-1151 496 0
1152 -824 -1125 -573 0
-1152 824 0
-1152 1125 0
-1152 573 0
1153 368 -1128 -1067 0
-1153 -368 0
-1153 1128 0
-1153 1067 0
1154 -593 -1128 -837 0
-1154 593 0
-1154 1128 0
-1154 837 0
1155 -457 -715 -1129 -1005 0
-1155 457 0
-1155 715 0
-1155 1129 0
-1155 1005 0
1156 -635 -688 -1130 -887 0
-1156 635 0
-1156 688 0
-1156 1130 0
-1156 887 0
1157 -1121 -1132 0
-1157 1121 0
-1157 1132 0
1158 277 -1135 0
-1158 -277 0
-1158 1135 0
1159 -658 -578 -1136 0
-1159 658 0
-1159 578 0
-1159 1136 0
1160 -1136 -470 0
-1160 1136 0
-1160 470 0
1161 -518 -827 -1041 -1139 0
-1161 518 0
-1161 827 0
-1161 1041 0
-1161 1139 0
1162 -758 -608 -997 -1140 0
-1162 758 0
-1162 608 0
-1162 997 0
-1162 1140 0
1163 -149 1114 0
-1163 149 0
-1163 -1114 0
1164 -129 1114 0
-1164 129 0
-1164 -1114 0
1165 -139 1114 0
-1165 139 0
-1165 -1114 0
1166 -119 1114 0
-1166 119 0
-1166 -1114 0
1167 -109 1114 0
-1167 109 0
-1167 -1114 0
1168 -89 1114 0
-1168 89 0
-1168 -1114 0
1169 -100 1114 0
-1169 100 0
-1169 -1114 0
1170 1114 -81 0
-1170 -1114 0
-1170 81 0
1171 -73 1114 0
-1171 73 0
-1171 -1114 0
1172 -60 1114 0
-1172 60 0
-1172 -1114 0
1173 -662 -1142 -858 -829 0
-1173 662 0
-1173 1142 0
-1173 858 0
-1173 829 0
1174 -575 -398 -1143 0
-1174 575 0
-1174 398 0
-1174 1143 0
1175 -378 -778 -1143 0
-1175 378 0
-1175 778 0
-1175 1143 0
1176 1114 1117 0
-1176 -1114 0
-1176 -1117 0
1177 -169 -1145 0
-1177 169 0
-1177 1145 0
1178 -139 -1145 0
-1178 139 0
-1178 1145 0
1179 -149 -1145 0
-1179 149 0
-1179 1145 0
1180 -129 -1145 0
-1180 129 0
-1180 1145 0
1181 -119 -1145 0
-1181 119 0
-1181 1145 0
1182 -100 -1145 0
-1182 100 0
-1182 1145 0
1183 -109 -1145 0
-1183 109 0
-1183 1145 0
1184 -89 -1145 0
-1184 89 0
-1184 1145 0
1185 -81 -1145 0
-1185 81 0
-1185 1145 0
1186 -73 -1145 0
-1186 73 0
-1186 1145 0
1187 -1147 -832 0
-1187 1147 0
-1187 832 0
1188 -1147 -851 0
-1188 1147 0
-1188 851 0
1189 1078 -1148 0
-1189 -1078 0
-1189 1148 0
1190 -1078 -1148 0
-1190 1078 0
-1190 1148 0
1191 -721 -699 -1012 -1149 0
-1191 721 0
-1191 699 0
-1191 1012 0
-1191 1149 0
1192 -683 -943 -918 -1150 0
-1192 683 0
-1192 943 0
-1192 918 0
-1192 1150 0
1193 1121 -1132 0
-1193 -1121 0
-1193 1132 0
1194 -1040 -962 -843 -1151 0
-1194 1040 0
-1194 962 0
-1194 843 0
-1194 1151 0
1195 -500 -1068 -1066 -1152 0
-1195 500 0
-1195 1068 0
-1195 1066 0
-1195 1152 0
1196 -451 -560 -1153 -998 0
-1196 451 0
-1196 560 0
-1196 1153 0
-1196 998 0
1197 -548 -627 -1154 -1099 0
-1197 548 0
-1197 627 0
-1197 1154 0
-1197 1099 0
1198 -1156 -1105 0
-1198 1156 0
-1198 1105 0
1199 -1156 -1006 -994 -577 0
-1199 1156 0
-1199 1006 0
-1199 994 0
-1199 577 0
1200 1121 1132 0
-1200 -1121 0
-1200 -1132 0
1201 -1121 1132 0
-1201 1121 0
-1201 -1132 0
1202 1134 -1158 0
-1202 -1134 0
-1202 1158 0
1203 -1134 -1158 0
-1203 1134 0
-1203 1158 0
1204 -981 -987 -857 -1159 0
-1204 981 0
-1204 987 0
-1204 857 0
-1204 1159 0
1205 -495 -675 -1036 -1160 0
-1205 495 0
-1205 675 0
-1205 1036 0
-1205 1160 0
1206 -67 1141 0
-1206 67 0
-1206 -1141 0
1207 1114 -1173 0
-1207 -1114 0
-1207 1173 0
1208 -1114 -1173 0
-1208 1114 0
-1208 1173 0
1209 -433 -594 -1037 -1174 0
-1209 433 0
-1209 594 0
-1209 1037 0
-1209 1174 0
1210 -529 -684 -1069 -1175 0
-1210 529 0
-1210 684 0
-1210 1069 0
-1210 1175 0
1211 1071 1145 0
-1211 -1071 0
-1211 -1145 0
1212 1146 -1172 0
-1212 -1146 0
-1212 1172 0
1213 -734 -1187 -900 -1093 0
-1213 734 0
-1213 1187 0
-1213 900 0
-1213 1093 0
1214 -752 -1002 -1188 -838 0
-1214 752 0
-1214 1002 0
-1214 1188 0
-1214 838 0
1215 1078 1148 0
-1215 -1078 0
-1215 -1148 0
1216 -1078 1148 0
-1216 1078 0
-1216 -1148 0
1217 1156 149 0
-1217 -1156 0
-1217 -149 0
1218 1156 129 0
-1218 -1156 0
-1218 -129 0
1219 1156 139 0
-1219 -1156 0
-1219 -139 0
1220 1156 109 0
-1220 -1156 0
-1220 -109 0
1221 1156 119 0
-1221 -1156 0
-1221 -119 0
1222 1156 89 0
-1222 -1156 0
-1222 -89 0
1223 1156 81 0
-1223 -1156 0
-1223 -81 0
1224 73 1156 0
-1224 -73 0
-1224 -1156 0
1225 67 1156 0
-1225 -67 0
-1225 -1156 0
1226 60 1156 0
-1226 -60 0
-1226 -1156 0
1227 -1078 1157 0
-1227 1078 0
-1227 -1157 0
1228 1134 1158 0
-1228 -1134 0
-1228 -1158 0
1229 -1134 1158 0
-1229 1134 0
-1229 -1158 0
1230 -1071 1163 0
-1230 1071 0
-1230 -1163 0
1231 -1071 1164 0
-1231 1071 0
-1231 -1164 0
1232 -1071 1165 0
-1232 1071 0
-1232 -1165 0
1233 -1071 1166 0
-1233 1071 0
-1233 -1166 0
1234 -1071 1167 0
-1234 1071 0
-1234 -1167 0
1235 -1071 1168 0
-1235 1071 0
-1235 -1168 0
1236 -1071 1169 0
-1236 1071 0
-1236 -1169 0
1237 -1071 1170 0
-1237 1071 0
-1237 -1170 0
1238 -1071 1171 0
-1238 1071 0
-1238 -1171 0
1239 1114 1173 0
-1239 -1114 0
-1239 -1173 0
1240 -1114 1173 0
-1240 1114 0
-1240 -1173 0
1241 169 -1211 0
-1241 -169 0
-1241 1211 0
1242 139 -1211 0
-1242 -139 0
-1242 1211 0
1243 149 -1211 0
-1243 -149 0
-1243 1211 0
1244 129 -1211 0
-1244 -129 0
-1244 1211 0
1245 119 -1211 0
-1245 -119 0
-1245 1211 0
1246 100 -1211 0
-1246 -100 0
-1246 1211 0
1247 109 -1211 0
-1247 -109 0
-1247 1211 0
1248 89 -1211 0
-1248 -89 0
-1248 1211 0
1249 81 -1211 0
-1249 -81 0
-1249 1211 0
1250 73 -1211 0
-1250 -73 0
-1250 1211 0
1251 -1194 -1213 0
-1251 1194 0
-1251 1213 0
1252 -1194 1190 0
-1252 1194 0
-1252 -1190 0
1253 1194 -1213 0
-1253 -1194 0
-1253 1213 0
1254 1114 -1224 0
-1254 -1114 0
-1254 1224 0
1255 1114 -1225 0
-1255 -1114 0
-1255 1225 0
1256 -1226 -1176 0
-1256 1226 0
-1256 1176 0
1257 1078 1200 0
-1257 -1078 0
-1257 -1200 0
1258 1201 1193 0
-1258 -1201 0
-1258 -1193 0
1259 -1228 -201 0
-1259 1228 0
-1259 201 0
1260 -1156 1203 0
-1260 1156 0
-1260 -1203 0
1261 1146 1206 0
-1261 -1146 0
-1261 -1206 0
1262 -1121 1208 0
-1262 1121 0
-1262 -1208 0
1263 1194 1213 0
-1263 -1194 0
-1263 -1213 0
1264 -1194 1213 0
-1264 1194 0
-1264 -1213 0
1265 1194 1215 0
-1265 -1194 0
-1265 -1215 0
1266 1216 1189 0
-1266 -1216 0
-1266 -1189 0
1267 -1114 1224 0
-1267 1114 0
-1267 -1224 0
1268 -1114 1225 0
-1268 1114 0
-1268 -1225 0
1269 1226 1176 0
-1269 -1226 0
-1269 -1176 0
1270 -1257 1222 0
-1270 1257 0
-1270 -1222 0
1271 -1258 1227 0
-1271 1258 0
-1271 -1227 0
1272 1228 201 0
-1272 -1228 0
-1272 -201 0
1273 1156 1228 0
-1273 -1156 0
-1273 -1228 0
1274 1229 1202 0
-1274 -1229 0
-1274 -1202 0
1275 1177 1230 0
-1275 -1177 0
-1275 -1230 0
1276 1178 1231 0
-1276 -1178 0
-1276 -1231 0
1277 1179 1232 0
-1277 -1179 0
-1277 -1232 0
1278 1180 1233 0
-1278 -1180 0
-1278 -1233 0
1279 1181 1234 0
-1279 -1181 0
-1279 -1234 0
1280 1182 1235 0
-1280 -1182 0
-1280 -1235 0
1281 1183 1236 0
-1281 -1183 0
-1281 -1236 0
1282 1184 1237 0
-1282 -1184 0
-1282 -1237 0
1283 1185 1238 0
-1283 -1185 0
-1283 -1238 0
1284 1121 1239 0
-1284 -1121 0
-1284 -1239 0
1285 1240 1207 0
-1285 -1240 0
-1285 -1207 0
1286 -1134 1251 0
-1286 1134 0
-1286 -1251 0
1287 -1265 1220 0
-1287 1265 0
-1287 -1220 0
1288 -1266 1252 0
-1288 1266 0
-1288 -1252 0
1289 1257 -1222 0
-1289 -1257 0
-1289 1222 0
1290 -169 1257 0
-1290 169 0
-1290 -1257 0
1291 1257 -1258 0
-1291 -1257 0
-1291 1258 0
1292 -60 1257 0
-1292 60 0
-1292 -1257 0
1293 1257 1258 0
-1293 -1257 0
-1293 -1258 0
1294 1258 1227 0
-1294 -1258 0
-1294 -1227 0
1295 60 1258 0
-1295 -60 0
-1295 -1258 0
1296 169 -1271 0
-1296 -169 0
-1296 1271 0
1297 149 -1271 0
-1297 -149 0
-1297 1271 0
1298 139 -1271 0
-1298 -139 0
-1298 1271 0
1299 129 -1271 0
-1299 -129 0
-1299 1271 0
1300 119 -1271 0
-1300 -119 0
-1300 1271 0
1301 109 -1271 0
-1301 -109 0
-1301 1271 0
1302 100 -1271 0
-1302 -100 0
-1302 1271 0
1303 89 -1271 0
-1303 -89 0
-1303 1271 0
1304 81 -1271 0
-1304 -81 0
-1304 1271 0
1305 73 -1271 0
-1305 -73 0
-1305 1271 0
1306 60 -1271 0
-1306 -60 0
-1306 1271 0
1307 67 -1271 0
-1307 -67 0
-1307 1271 0
1308 -1274 1260 0
-1308 1274 0
-1308 -1260 0
1309 1241 -1275 0
-1309 -1241 0
-1309 1275 0
1310 1242 -1276 0
-1310 -1242 0
-1310 1276 0
1311 1243 -1277 0
-1311 -1243 0
-1311 1277 0
1312 1244 -1278 0
-1312 -1244 0
-1312 1278 0
1313 1245 -1279 0
-1313 -1245 0
-1313 1279 0
1314 1246 -1280 0
-1314 -1246 0
-1314 1280 0
1315 1247 -1281 0
-1315 -1247 0
-1315 1281 0
1316 1248 -1282 0
-1316 -1248 0
-1316 1282 0
1317 1249 -1283 0
-1317 -1249 0
-1317 1283 0
1318 1186 1261 0
-1318 -1186 0
-1318 -1261 0
1319 1114 -1284 0
-1319 -1114 0
-1319 1284 0
1320 -1285 1262 0
-1320 1285 0
-1320 -1262 0
1321 1134 1263 0
-1321 -1134 0
-1321 -1263 0
1322 1264 1253 0
-1322 -1264 0
-1322 -1253 0
1323 1265 -1220 0
-1323 -1265 0
-1323 1220 0
1324 -169 1265 0
-1324 169 0
-1324 -1265 0
1325 1265 -1266 0
-1325 -1265 0
-1325 1266 0
1326 -60 1265 0
-1326 60 0
-1326 -1265 0
1327 1265 1266 0
-1327 -1265 0
-1327 -1266 0
1328 1266 1252 0
-1328 -1266 0
-1328 -1252 0
1329 169 -1288 0
-1329 -169 0
-1329 1288 0
1330 149 -1288 0
-1330 -149 0
-1330 1288 0
1331 139 -1288 0
-1331 -139 0
-1331 1288 0
1332 129 -1288 0
-1332 -129 0
-1332 1288 0
1333 119 -1288 0
-1333 -119 0
-1333 1288 0
1334 109 -1288 0
-1334 -109 0
-1334 1288 0
1335 -1288 100 0
-1335 1288 0
-1335 -100 0
1336 -1288 89 0
-1336 1288 0
-1336 -89 0
1337 -1288 81 0
-1337 1288 0
-1337 -81 0
1338 73 -1288 0
-1338 -73 0
-1338 1288 0
1339 67 -1288 0
-1339 -67 0
-1339 1288 0
1340 60 -1288 0
-1340 -60 0
-1340 1288 0
1341 1256 1269 0
-1341 -1256 0
-1341 -1269 0
1342 -149 -1291 0
-1342 149 0
-1342 1291 0
1343 -139 -1291 0
-1343 139 0
-1343 1291 0
1344 -129 -1291 0
-1344 129 0
-1344 1291 0
1345 -119 -1291 0
-1345 119 0
-1345 1291 0
1346 -109 -1291 0
-1346 109 0
-1346 1291 0
1347 -100 -1291 0
-1347 100 0
-1347 1291 0
1348 -89 -1291 0
-1348 89 0
-1348 1291 0
1349 -81 -1291 0
-1349 81 0
-1349 1291 0
1350 -73 -1291 0
-1350 73 0
-1350 1291 0
1351 -60 -1291 0
-1351 60 0
-1351 1291 0
1352 -67 -1291 0
-1352 67 0
-1352 1291 0
1353 -169 -1293 0
-1353 169 0
-1353 1293 0
1354 -149 -1293 0
-1354 149 0
-1354 1293 0
1355 -139 -1293 0
-1355 139 0
-1355 1293 0
1356 -129 -1293 0
-1356 129 0
-1356 1293 0
1357 -119 -1293 0
-1357 119 0
-1357 1293 0
1358 -109 -1293 0
-1358 109 0
-1358 1293 0
1359 -100 -1293 0
-1359 100 0
-1359 1293 0
1360 -89 -1293 0
-1360 89 0
-1360 1293 0
1361 -81 -1293 0
-1361 81 0
-1361 1293 0
1362 -67 -1293 0
-1362 67 0
-1362 1293 0
1363 -73 -1293 0
-1363 73 0
-1363 1293 0
1364 169 -1294 0
-1364 -169 0
-1364 1294 0
1365 149 -1294 0
-1365 -149 0
-1365 1294 0
1366 139 -1294 0
-1366 -139 0
-1366 1294 0
1367 129 -1294 0
-1367 -129 0
-1367 1294 0
1368 119 -1294 0
-1368 -119 0
-1368 1294 0
1369 109 -1294 0
-1369 -109 0
-1369 1294 0
1370 100 -1294 0
-1370 -100 0
-1370 1294 0
1371 89 -1294 0
-1371 -89 0
-1371 1294 0
1372 81 -1294 0
-1372 -81 0
-1372 1294 0
1373 60 -1294 0
-1373 -60 0
-1373 1294 0
1374 67 -1294 0
-1374 -67 0
-1374 1294 0
1375 73 -1294 0
-1375 -73 0
-1375 1294 0
1376 1259 1272 0
-1376 -1259 0
-1376 -1272 0
1377 -169 1273 0
-1377 169 0
-1377 -1273 0
1378 -1274 1273 0
-1378 1274 0
-1378 -1273 0
1379 -60 1273 0
-1379 60 0
-1379 -1273 0
1380 1274 1273 0
-1380 -1274 0
-1380 -1273 0
1381 1274 1260 0
-1381 -1274 0
-1381 -1260 0
1382 169 -1308 0
-1382 -169 0
-1382 1308 0
1383 149 -1308 0
-1383 -149 0
-1383 1308 0
1384 -1308 139 0
-1384 1308 0
-1384 -139 0
1385 -1308 129 0
-1385 1308 0
-1385 -129 0
1386 -1308 119 0
-1386 1308 0
-1386 -119 0
1387 -1308 109 0
-1387 1308 0
-1387 -109 0
1388 -1308 100 0
-1388 1308 0
-1388 -100 0
1389 -1308 89 0
-1389 1308 0
-1389 -89 0
1390 -1308 81 0
-1390 1308 0
-1390 -81 0
1391 73 -1308 0
-1391 -73 0
-1391 1308 0
1392 67 -1308 0
-1392 -67 0
-1392 1308 0
1393 60 -1308 0
-1393 -60 0
-1393 1308 0
1394 1250 -1318 0
-1394 -1250 0
-1394 1318 0
1395 -1114 1284 0
-1395 1114 0
-1395 -1284 0
1396 -169 1284 0
-1396 169 0
-1396 -1284 0
1397 1284 -1285 0
-1397 -1284 0
-1397 1285 0
1398 -60 1284 0
-1398 60 0
-1398 -1284 0
1399 1284 1285 0
-1399 -1284 0
-1399 -1285 0
1400 1285 1262 0
-1400 -1285 0
-1400 -1262 0
1401 169 -1320 0
-1401 -169 0
-1401 1320 0
1402 149 -1320 0
-1402 -149 0
-1402 1320 0
1403 139 -1320 0
-1403 -139 0
-1403 1320 0
1404 129 -1320 0
-1404 -129 0
-1404 1320 0
1405 119 -1320 0
-1405 -119 0
-1405 1320 0
1406 109 -1320 0
-1406 -109 0
-1406 1320 0
1407 100 -1320 0
-1407 -100 0
-1407 1320 0
1408 89 -1320 0
-1408 -89 0
-1408 1320 0
1409 73 -1320 0
-1409 -73 0
-1409 1320 0
1410 81 -1320 0
-1410 -81 0
-1410 1320 0
1411 67 -1320 0
-1411 -67 0
-1411 1320 0
1412 60 -1320 0
-1412 -60 0
-1412 1320 0
1413 -1321 1218 0
-1413 1321 0
-1413 -1218 0
1414 -1322 1286 0
-1414 1322 0
-1414 -1286 0
1415 -149 -1325 0
-1415 149 0
-1415 1325 0
1416 -139 -1325 0
-1416 139 0
-1416 1325 0
1417 -129 -1325 0
-1417 129 0
-1417 1325 0
1418 -119 -1325 0
-1418 119 0
-1418 1325 0
1419 -109 -1325 0
-1419 109 0
-1419 1325 0
1420 -100 -1325 0
-1420 100 0
-1420 1325 0
1421 -89 -1325 0
-1421 89 0
-1421 1325 0
1422 -1325 -81 0
-1422 1325 0
-1422 81 0
1423 -73 -1325 0
-1423 73 0
-1423 1325 0
1424 -67 -1325 0
-1424 67 0
-1424 1325 0
1425 -60 -1325 0
-1425 60 0
-1425 1325 0
1426 -169 -1327 0
-1426 169 0
-1426 1327 0
1427 -149 -1327 0
-1427 149 0
-1427 1327 0
1428 -139 -1327 0
-1428 139 0
-1428 1327 0
1429 -129 -1327 0
-1429 129 0
-1429 1327 0
1430 -119 -1327 0
-1430 119 0
-1430 1327 0
1431 -109 -1327 0
-1431 109 0
-1431 1327 0
1432 -1327 -100 0
-1432 1327 0
-1432 100 0
1433 -1327 -89 0
-1433 1327 0
-1433 89 0
1434 -1327 -81 0
-1434 1327 0
-1434 81 0
1435 -73 -1327 0
-1435 73 0
-1435 1327 0
1436 -67 -1327 0
-1436 67 0
-1436 1327 0
1437 169 -1328 0
-1437 -169 0
-1437 1328 0
1438 149 -1328 0
-1438 -149 0
-1438 1328 0
1439 139 -1328 0
-1439 -139 0
-1439 1328 0
1440 129 -1328 0
-1440 -129 0
-1440 1328 0
1441 119 -1328 0
-1441 -119 0
-1441 1328 0
1442 109 -1328 0
-1442 -109 0
-1442 1328 0
1443 100 -1328 0
-1443 -100 0
-1443 1328 0
1444 89 -1328 0
-1444 -89 0
-1444 1328 0
1445 -1328 81 0
-1445 1328 0
-1445 -81 0
1446 73 -1328 0
-1446 -73 0
-1446 1328 0
1447 60 -1328 0
-1447 -60 0
-1447 1328 0
1448 67 -1328 0
-1448 -67 0
-1448 1328 0
1449 1289 1270 0
-1449 -1289 0
-1449 -1270 0
1450 1293 1290 0
-1450 -1293 0
-1450 -1290 0
1451 1364 1353 1342 1297 0
-1451 -1364 0
-1451 -1353 0
-1451 -1342 0
-1451 -1297 0
1452 1365 1354 1343 1298 0
-1452 -1365 0
-1452 -1354 0
-1452 -1343 0
-1452 -1298 0
1453 1366 1355 1344 1299 0
-1453 -1366 0
-1453 -1355 0
-1453 -1344 0
-1453 -1299 0
1454 1367 1356 1345 1300 0
-1454 -1367 0
-1454 -1356 0
-1454 -1345 0
-1454 -1300 0
1455 1368 1357 1346 1301 0
-1455 -1368 0
-1455 -1357 0
-1455 -1346 0
-1455 -1301 0
1456 1369 1358 1347 1302 0
-1456 -1369 0
-1456 -1358 0
-1456 -1347 0
-1456 -1302 0
1457 1370 1359 1348 1303 0
-1457 -1370 0
-1457 -1359 0
-1457 -1348 0
-1457 -1303 0
1458 1371 1360 1349 1304 0
-1458 -1371 0
-1458 -1360 0
-1458 -1349 0
-1458 -1304 0
1459 1372 1361 1350 1305 0
-1459 -1372 0
-1459 -1361 0
-1459 -1350 0
-1459 -1305 0
1460 1374 1362 1351 1306 0
-1460 -1374 0
-1460 -1362 0
-1460 -1351 0
-1460 -1306 0
1461 1375 1363 1352 1307 0
-1461 -1375 0
-1461 -1363 0
-1461 -1352 0
-1461 -1307 0
1462 1156 -1376 0
-1462 -1156 0
-1462 1376 0
1463 -149 -1378 0
-1463 149 0
-1463 1378 0
1464 -139 -1378 0
-1464 139 0
-1464 1378 0
1465 -129 -1378 0
-1465 129 0
-1465 1378 0
1466 -1378 -119 0
-1466 1378 0
-1466 119 0
1467 -1378 -109 0
-1467 1378 0
-1467 109 0
1468 -1378 -100 0
-1468 1378 0
-1468 100 0
1469 -1378 -89 0
-1469 1378 0
-1469 89 0
1470 -1378 -81 0
-1470 1378 0
-1470 81 0
1471 -73 -1378 0
-1471 73 0
-1471 1378 0
1472 -67 -1378 0
-1472 67 0
-1472 1378 0
1473 -60 -1378 0
-1473 60 0
-1473 1378 0
1474 -169 -1380 0
-1474 169 0
-1474 1380 0
1475 -149 -1380 0
-1475 149 0
-1475 1380 0
1476 -1380 -139 0
-1476 1380 0
-1476 139 0
1477 -1380 -129 0
-1477 1380 0
-1477 129 0
1478 -1380 -119 0
-1478 1380 0
-1478 119 0
1479 -1380 -109 0
-1479 1380 0
-1479 109 0
1480 -1380 -100 0
-1480 1380 0
-1480 100 0
1481 -1380 -89 0
-1481 1380 0
-1481 89 0
1482 -1380 -81 0
-1482 1380 0
-1482 81 0
1483 -73 -1380 0
-1483 73 0
-1483 1380 0
1484 -67 -1380 0
-1484 67 0
-1484 1380 0
1485 169 -1381 0
-1485 -169 0
-1485 1381 0
1486 149 -1381 0
-1486 -149 0
-1486 1381 0
1487 139 -1381 0
-1487 -139 0
-1487 1381 0
1488 129 -1381 0
-1488 -129 0
-1488 1381 0
1489 -1381 119 0
-1489 1381 0
-1489 -119 0
1490 -1381 109 0
-1490 1381 0
-1490 -109 0
1491 -1381 100 0
-1491 1381 0
-1491 -100 0
1492 -1381 89 0
-1492 1381 0
-1492 -89 0
1493 -1381 81 0
-1493 1381 0
-1493 -81 0
1494 60 -1381 0
-1494 -60 0
-1494 1381 0
1495 73 -1381 0
-1495 -73 0
-1495 1381 0
1496 67 -1381 0
-1496 -67 0
-1496 1381 0
1497 -1394 -1212 0
-1497 1394 0
-1497 1212 0
1498 -149 -1397 0
-1498 149 0
-1498 1397 0
1499 -139 -1397 0
-1499 139 0
-1499 1397 0
1500 -129 -1397 0
-1500 129 0
-1500 1397 0
1501 -119 -1397 0
-1501 119 0
-1501 1397 0
1502 -109 -1397 0
-1502 109 0
-1502 1397 0
1503 -100 -1397 0
-1503 100 0
-1503 1397 0
1504 -89 -1397 0
-1504 89 0
-1504 1397 0
1505 -73 -1397 0
-1505 73 0
-1505 1397 0
1506 -81 -1397 0
-1506 81 0
-1506 1397 0
1507 -67 -1397 0
-1507 67 0
-1507 1397 0
1508 -60 -1397 0
-1508 60 0
-1508 1397 0
1509 -169 -1399 0
-1509 169 0
-1509 1399 0
1510 -149 -1399 0
-1510 149 0
-1510 1399 0
1511 -139 -1399 0
-1511 139 0
-1511 1399 0
1512 -129 -1399 0
-1512 129 0
-1512 1399 0
1513 -119 -1399 0
-1513 119 0
-1513 1399 0
1514 -109 -1399 0
-1514 109 0
-1514 1399 0
1515 -100 -1399 0
-1515 100 0
-1515 1399 0
1516 -81 -1399 0
-1516 81 0
-1516 1399 0
1517 -89 -1399 0
-1517 89 0
-1517 1399 0
1518 -73 -1399 0
-1518 73 0
-1518 1399 0
1519 -67 -1399 0
-1519 67 0
-1519 1399 0
1520 169 -1400 0
-1520 -169 0
-1520 1400 0
1521 149 -1400 0
-1521 -149 0
-1521 1400 0
1522 139 -1400 0
-1522 -139 0
-1522 1400 0
1523 129 -1400 0
-1523 -129 0
-1523 1400 0
1524 119 -1400 0
-1524 -119 0
-1524 1400 0
1525 109 -1400 0
-1525 -109 0
-1525 1400 0
1526 100 -1400 0
-1526 -100 0
-1526 1400 0
1527 81 -1400 0
-1527 -81 0
-1527 1400 0
1528 89 -1400 0
-1528 -89 0
-1528 1400 0
1529 73 -1400 0
-1529 -73 0
-1529 1400 0
1530 60 -1400 0
-1530 -60 0
-1530 1400 0
1531 67 -1400 0
-1531 -67 0
-1531 1400 0
1532 1321 -1218 0
-1532 -1321 0
-1532 1218 0
1533 -169 1321 0
-1533 169 0
-1533 -1321 0
1534 1321 -1322 0
-1534 -1321 0
-1534 1322 0
1535 -60 1321 0
-1535 60 0
-1535 -1321 0
1536 1321 1322 0
-1536 -1321 0
-1536 -1322 0
1537 1322 1286 0
-1537 -1322 0
-1537 -1286 0
1538 60 1322 0
-1538 -60 0
-1538 -1322 0
1539 169 -1414 0
-1539 -169 0
-1539 1414 0
1540 149 -1414 0
-1540 -149 0
-1540 1414 0
1541 139 -1414 0
-1541 -139 0
-1541 1414 0
1542 129 -1414 0
-1542 -129 0
-1542 1414 0
1543 -1414 119 0
-1543 1414 0
-1543 -119 0
1544 -1414 109 0
-1544 1414 0
-1544 -109 0
1545 -1414 100 0
-1545 1414 0
-1545 -100 0
1546 -1414 89 0
-1546 1414 0
-1546 -89 0
1547 -1414 81 0
-1547 1414 0
-1547 -81 0
1548 73 -1414 0
-1548 -73 0
-1548 1414 0
1549 67 -1414 0
-1549 -67 0
-1549 1414 0
1550 60 -1414 0
-1550 -60 0
-1550 1414 0
1551 1323 1287 0
-1551 -1323 0
-1551 -1287 0
1552 1325 1326 0
-1552 -1325 0
-1552 -1326 0
1553 1327 1324 0
-1553 -1327 0
-1553 -1324 0
1554 1437 1426 1415 1330 0
-1554 -1437 0
-1554 -1426 0
-1554 -1415 0
-1554 -1330 0
1555 1438 1427 1416 1331 0
-1555 -1438 0
-1555 -1427 0
-1555 -1416 0
-1555 -1331 0
1556 1439 1428 1417 1332 0
-1556 -1439 0
-1556 -1428 0
-1556 -1417 0
-1556 -1332 0
1557 1440 1429 1418 1333 0
-1557 -1440 0
-1557 -1429 0
-1557 -1418 0
-1557 -1333 0
1558 1441 1430 1419 1334 0
-1558 -1441 0
-1558 -1430 0
-1558 -1419 0
-1558 -1334 0
1559 1442 1431 1420 1335 0
-1559 -1442 0
-1559 -1431 0
-1559 -1420 0
-1559 -1335 0
1560 1443 1432 1421 1336 0
-1560 -1443 0
-1560 -1432 0
-1560 -1421 0
-1560 -1336 0
1561 1444 1433 1422 1337 0
-1561 -1444 0
-1561 -1433 0
-1561 -1422 0
-1561 -1337 0
1562 1445 1434 1423 1338 0
-1562 -1445 0
-1562 -1434 0
-1562 -1423 0
-1562 -1338 0
1563 1446 1435 1424 1339 0
-1563 -1446 0
-1563 -1435 0
-1563 -1424 0
-1563 -1339 0
1564 1448 1436 1425 1340 0
-1564 -1448 0
-1564 -1436 0
-1564 -1425 0
-1564 -1340 0
1565 -1449 100 0
-1565 1449 0
-1565 -100 0
1566 1296 -1450 0
-1566 -1296 0
-1566 1450 0
1567 1373 1291 1292 -1257 0
-1567 -1373 0
-1567 -1291 0
-1567 -1292 0
-1567 1257 0
1568 1378 1379 0
-1568 -1378 0
-1568 -1379 0
1569 1380 1377 0
-1569 -1380 0
-1569 -1377 0
1570 1485 1474 1463 1383 0
-1570 -1485 0
-1570 -1474 0
-1570 -1463 0
-1570 -1383 0
1571 1486 1475 1464 1384 0
-1571 -1486 0
-1571 -1475 0
-1571 -1464 0
-1571 -1384 0
1572 1487 1476 1465 1385 0
-1572 -1487 0
-1572 -1476 0
-1572 -1465 0
-1572 -1385 0
1573 1488 1477 1466 1386 0
-1573 -1488 0
-1573 -1477 0
-1573 -1466 0
-1573 -1386 0
1574 1489 1478 1467 1387 0
-1574 -1489 0
-1574 -1478 0
-1574 -1467 0
-1574 -1387 0
1575 1490 1479 1468 1388 0
-1575 -1490 0
-1575 -1479 0
-1575 -1468 0
-1575 -1388 0
1576 1491 1480 1469 1389 0
-1576 -1491 0
-1576 -1480 0
-1576 -1469 0
-1576 -1389 0
1577 1492 1481 1470 1390 0
-1577 -1492 0
-1577 -1481 0
-1577 -1470 0
-1577 -1390 0
1578 1493 1482 1471 1391 0
-1578 -1493 0
-1578 -1482 0
-1578 -1471 0
-1578 -1391 0
1579 1495 1483 1472 1392 0
-1579 -1495 0
-1579 -1483 0
-1579 -1472 0
-1579 -1392 0
1580 1496 1484 1473 1393 0
-1580 -1496 0
-1580 -1484 0
-1580 -1473 0
-1580 -1393 0
1581 1394 1212 0
-1581 -1394 0
-1581 -1212 0
1582 1395 -1223 0
-1582 -1395 0
-1582 1223 0
1583 1397 1398 0
-1583 -1397 0
-1583 -1398 0
1584 1399 1396 0
-1584 -1399 0
-1584 -1396 0
1585 1520 1509 1498 1402 0
-1585 -1520 0
-1585 -1509 0
-1585 -1498 0
-1585 -1402 0
1586 1521 1510 1499 1403 0
-1586 -1521 0
-1586 -1510 0
-1586 -1499 0
-1586 -1403 0
1587 1522 1511 1500 1404 0
-1587 -1522 0
-1587 -1511 0
-1587 -1500 0
-1587 -1404 0
1588 1523 1512 1501 1405 0
-1588 -1523 0
-1588 -1512 0
-1588 -1501 0
-1588 -1405 0
1589 1524 1513 1502 1406 0
-1589 -1524 0
-1589 -1513 0
-1589 -1502 0
-1589 -1406 0
1590 1525 1514 1503 1407 0
-1590 -1525 0
-1590 -1514 0
-1590 -1503 0
-1590 -1407 0
1591 1526 1515 1504 1408 0
-1591 -1526 0
-1591 -1515 0
-1591 -1504 0
-1591 -1408 0
1592 1527 1516 1505 1409 0
-1592 -1527 0
-1592 -1516 0
-1592 -1505 0
-1592 -1409 0
1593 1528 1517 1506 1410 0
-1593 -1528 0
-1593 -1517 0
-1593 -1506 0
-1593 -1410 0
1594 1529 1518 1507 1411 0
-1594 -1529 0
-1594 -1518 0
-1594 -1507 0
-1594 -1411 0
1595 1531 1519 0
-1595 -1531 0
-1595 -1519 0
1596 -149 -1534 0
-1596 149 0
-1596 1534 0
1597 -139 -1534 0
-1597 139 0
-1597 1534 0
1598 -129 -1534 0
-1598 129 0
-1598 1534 0
1599 -119 -1534 0
-1599 119 0
-1599 1534 0
1600 -109 -1534 0
-1600 109 0
-1600 1534 0
1601 -1534 -100 0
-1601 1534 0
-1601 100 0
1602 -1534 -89 0
-1602 1534 0
-1602 89 0
1603 -1534 -81 0
-1603 1534 0
-1603 81 0
1604 -73 -1534 0
-1604 73 0
-1604 1534 0
1605 -67 -1534 0
-1605 67 0
-1605 1534 0
1606 -60 -1534 0
-1606 60 0
-1606 1534 0
1607 -169 -1536 0
-1607 169 0
-1607 1536 0
1608 -149 -1536 0
-1608 149 0
-1608 1536 0
1609 -139 -1536 0
-1609 139 0
-1609 1536 0
1610 -129 -1536 0
-1610 129 0
-1610 1536 0
1611 -1536 -119 0
-1611 1536 0
-1611 119 0
1612 -1536 -109 0
-1612 1536 0
-1612 109 0
1613 -1536 -100 0
-1613 1536 0
-1613 100 0
1614 -1536 -89 0
-1614 1536 0
-1614 89 0
1615 -1536 -81 0
-1615 1536 0
-1615 81 0
1616 -73 -1536 0
-1616 73 0
-1616 1536 0
1617 -67 -1536 0
-1617 67 0
-1617 1536 0
1618 169 -1537 0
-1618 -169 0
-1618 1537 0
1619 149 -1537 0
-1619 -149 0
-1619 1537 0
1620 139 -1537 0
-1620 -139 0
-1620 1537 0
1621 129 -1537 0
-1621 -129 0
-1621 1537 0
1622 119 -1537 0
-1622 -119 0
-1622 1537 0
1623 109 -1537 0
-1623 -109 0
-1623 1537 0
1624 -1537 100 0
-1624 1537 0
-1624 -100 0
1625 -1537 89 0
-1625 1537 0
-1625 -89 0
1626 -1537 81 0
-1626 1537 0
-1626 -81 0
1627 60 -1537 0
-1627 -60 0
-1627 1537 0
1628 73 -1537 0
-1628 -73 0
-1628 1537 0
1629 67 -1537 0
-1629 -67 0
-1629 1537 0
1630 -1551 -1221 0
-1630 1551 0
-1630 1221 0
1631 1329 -1553 0
-1631 -1329 0
-1631 1553 0
1632 -1452 -1557 0
-1632 1452 0
-1632 1557 0
1633 -1558 -1453 0
-1633 1558 0
-1633 1453 0
1634 -1559 -1454 0
-1634 1559 0
-1634 1454 0
1635 -1456 -1561 0
-1635 1456 0
-1635 1561 0
1636 1447 -1552 0
-1636 -1447 0
-1636 1552 0
1637 1156 -1565 0
-1637 -1156 0
-1637 1565 0
1638 1222 -1566 0
-1638 -1222 0
-1638 1566 0
1639 1452 -1557 0
-1639 -1452 0
-1639 1557 0
1640 -1558 1453 0
-1640 1558 0
-1640 -1453 0
1641 -1559 1454 0
-1641 1559 0
-1641 -1454 0
1642 1456 -1561 0
-1642 -1456 0
-1642 1561 0
1643 -1314 -1567 0
-1643 1314 0
-1643 1567 0
1644 1382 -1569 0
-1644 -1382 0
-1644 1569 0
1645 1494 -1568 0
-1645 -1494 0
-1645 1568 0
1646 1319 -1582 0
-1646 -1319 0
-1646 1582 0
1647 1401 -1584 0
-1647 -1401 0
-1647 1584 0
1648 1255 -1585 0
-1648 -1255 0
-1648 1585 0
1649 -1586 -1341 0
-1649 1586 0
-1649 1341 0
1650 -1587 -1580 0
-1650 1587 0
-1650 1580 0
1651 1311 -1588 0
-1651 -1311 0
-1651 1588 0
1652 -1311 -1588 0
-1652 1311 0
-1652 1588 0
1653 -1589 -1562 0
-1653 1589 0
-1653 1562 0
1654 -1312 -1590 0
-1654 1312 0
-1654 1590 0
1655 1312 -1590 0
-1655 -1312 0
-1655 1590 0
1656 -1591 1459 0
-1656 1591 0
-1656 -1459 0
1657 -1591 -1459 0
-1657 1591 0
-1657 1459 0
1658 -1592 -1460 0
-1658 1592 0
-1658 1460 0
1659 -1593 1315 0
-1659 1593 0
-1659 -1315 0
1660 -1593 -1315 0
-1660 1593 0
-1660 1315 0
1661 1316 -1594 0
-1661 -1316 0
-1661 1594 0
1662 -1316 -1594 0
-1662 1316 0
-1662 1594 0
1663 1530 -1583 0
-1663 -1530 0
-1663 1583 0
1664 1532 1413 0
-1664 -1532 0
-1664 -1413 0
1665 1536 1533 0
-1665 -1536 0
-1665 -1533 0
1666 1618 1607 1596 1540 0
-1666 -1618 0
-1666 -1607 0
-1666 -1596 0
-1666 -1540 0
1667 1619 1608 1597 1541 0
-1667 -1619 0
-1667 -1608 0
-1667 -1597 0
-1667 -1541 0
1668 1620 1609 1598 1542 0
-1668 -1620 0
-1668 -1609 0
-1668 -1598 0
-1668 -1542 0
1669 1621 1610 1599 1543 0
-1669 -1621 0
-1669 -1610 0
-1669 -1599 0
-1669 -1543 0
1670 1622 1611 1600 1544 0
-1670 -1622 0
-1670 -1611 0
-1670 -1600 0
-1670 -1544 0
1671 1623 1612 1601 1545 0
-1671 -1623 0
-1671 -1612 0
-1671 -1601 0
-1671 -1545 0
1672 1624 1613 1602 1546 0
-1672 -1624 0
-1672 -1613 0
-1672 -1602 0
-1672 -1546 0
1673 1625 1614 1603 1547 0
-1673 -1625 0
-1673 -1614 0
-1673 -1603 0
-1673 -1547 0
1674 1626 1615 1604 1548 0
-1674 -1626 0
-1674 -1615 0
-1674 -1604 0
-1674 -1548 0
1675 1628 1616 1605 1549 0
-1675 -1628 0
-1675 -1616 0
-1675 -1605 0
-1675 -1549 0
1676 1629 1617 1606 1550 0
-1676 -1629 0
-1676 -1617 0
-1676 -1606 0
-1676 -1550 0
1677 1551 1221 0
-1677 -1551 0
-1677 -1221 0
1678 1220 -1631 0
-1678 -1220 0
-1678 1631 0
1679 -1452 1557 0
-1679 1452 0
-1679 -1557 0
1680 1558 -1453 0
-1680 -1558 0
-1680 1453 0
1681 1559 -1454 0
-1681 -1559 0
-1681 1454 0
1682 -1456 1561 0
-1682 1456 0
-1682 -1561 0
1683 -1589 1562 0
-1683 1589 0
-1683 -1562 0
1684 -1265 -1636 0
-1684 1265 0
-1684 1636 0
1685 -1222 1566 0
-1685 1222 0
-1685 -1566 0
1686 1314 1567 0
-1686 -1314 0
-1686 -1567 0
1687 -1644 1217 0
-1687 1644 0
-1687 -1217 0
1688 -1273 -1645 0
-1688 1273 0
-1688 1645 0
1689 1254 -1647 0
-1689 -1254 0
-1689 1647 0
1690 1268 -1648 0
-1690 -1268 0
-1690 1648 0
1691 1586 1341 0
-1691 -1586 0
-1691 -1341 0
1692 1587 1580 0
-1692 -1587 0
-1692 -1580 0
1693 -1311 1588 0
-1693 1311 0
-1693 -1588 0
1694 1589 -1562 0
-1694 -1589 0
-1694 1562 0
1695 -1312 1590 0
-1695 1312 0
-1695 -1590 0
1696 1591 -1459 0
-1696 -1591 0
-1696 1459 0
1697 1592 1460 0
-1697 -1592 0
-1697 -1460 0
1698 1593 -1315 0
-1698 -1593 0
-1698 1315 0
1699 -1316 1594 0
-1699 1316 0
-1699 -1594 0
1700 -1284 -1663 0
-1700 1284 0
-1700 1663 0
1701 -1664 -1219 0
-1701 1664 0
-1701 1219 0
1702 1539 -1665 0
-1702 -1539 0
-1702 1665 0
1703 -1666 -1572 0
-1703 1666 0
-1703 1572 0
1704 1554 -1668 0
-1704 -1554 0
-1704 1668 0
1705 -1554 -1668 0
-1705 1554 0
-1705 1668 0
1706 -1669 -1575 0
-1706 1669 0
-1706 1575 0
1707 -1670 1576 0
-1707 1670 0
-1707 -1576 0
1708 -1670 -1576 0
-1708 1670 0
-1708 1576 0
1709 1560 -1674 0
-1709 -1560 0
-1709 1674 0
1710 -1560 -1674 0
-1710 1560 0
-1710 1674 0
1711 1627 1534 1535 -1321 0
-1711 -1627 0
-1711 -1534 0
-1711 -1535 0
-1711 1321 0
1712 1323 1630 0
-1712 -1323 0
-1712 -1630 0
1713 -1220 1631 0
-1713 1220 0
-1713 -1631 0
1714 -1313 -1684 0
-1714 1313 0
-1714 1684 0
1715 1265 1636 0
-1715 -1265 0
-1715 -1636 0
1716 1289 1637 0
-1716 -1289 0
-1716 -1637 0
1717 1156 1637 0
-1717 -1156 0
-1717 -1637 0
1718 -1449 1637 0
-1718 1449 0
-1718 -1637 0
1719 1644 -1217 0
-1719 -1644 0
-1719 1217 0
1720 -1309 -1688 0
-1720 1309 0
-1720 1688 0
1721 1273 1645 0
-1721 -1273 0
-1721 -1645 0
1722 1395 1646 0
-1722 -1395 0
-1722 -1646 0
1723 -1223 1646 0
-1723 1223 0
-1723 -1646 0
1724 1267 -1689 0
-1724 -1267 0
-1724 1689 0
1725 1256 1649 0
-1725 -1256 0
-1725 -1649 0
1726 -1317 -1700 0
-1726 1317 0
-1726 1700 0
1727 1284 1663 0
-1727 -1284 0
-1727 -1663 0
1728 1664 1219 0
-1728 -1664 0
-1728 -1219 0
1729 1218 -1702 0
-1729 -1218 0
-1729 1702 0
1730 1666 1572 0
-1730 -1666 0
-1730 -1572 0
1731 -1554 1668 0
-1731 1554 0
-1731 -1668 0
1732 1669 1575 0
-1732 -1669 0
-1732 -1575 0
1733 1670 -1576 0
-1733 -1670 0
-1733 1576 0
1734 -1560 1674 0
-1734 1560 0
-1734 -1674 0
1735 -1310 -1711 0
-1735 1310 0
-1735 1711 0
1736 1630 1677 0
-1736 -1630 0
-1736 -1677 0
1737 1679 1639 0
-1737 -1679 0
-1737 -1639 0
1738 1680 1640 0
-1738 -1680 0
-1738 -1640 0
1739 1681 1641 0
-1739 -1681 0
-1739 -1641 0
1740 1682 1642 0
-1740 -1682 0
-1740 -1642 0
1741 -1563 -1714 0
-1741 1563 0
-1741 1714 0
1742 1563 -1714 0
-1742 -1563 0
-1742 1714 0
1743 1684 -1643 0
-1743 -1684 0
-1743 1643 0
1744 1313 1684 0
-1744 -1313 0
-1744 -1684 0
1745 100 -1717 0
-1745 -100 0
-1745 1717 0
1746 1638 1685 0
-1746 -1638 0
-1746 -1685 0
1747 1643 1686 0
-1747 -1643 0
-1747 -1686 0
1748 -1720 -1579 0
-1748 1720 0
-1748 1579 0
1749 1309 1688 0
-1749 -1309 0
-1749 -1688 0
1750 1319 -1722 0
-1750 -1319 0
-1750 1722 0
1751 1255 1690 0
-1751 -1255 0
-1751 -1690 0
1752 -1585 1690 0
-1752 1585 0
-1752 -1690 0
1753 1578 -1725 0
-1753 -1578 0
-1753 1725 0
1754 1649 1691 0
-1754 -1649 0
-1754 -1691 0
1755 1650 1692 0
-1755 -1650 0
-1755 -1692 0
1756 1693 1651 0
-1756 -1693 0
-1756 -1651 0
1757 1683 1694 0
-1757 -1683 0
-1757 -1694 0
1758 1695 1655 0
-1758 -1695 0
-1758 -1655 0
1759 1656 1696 0
-1759 -1656 0
-1759 -1696 0
1760 1658 1697 0
-1760 -1658 0
-1760 -1697 0
1761 1698 1659 0
-1761 -1698 0
-1761 -1659 0
1762 1699 1661 0
-1762 -1699 0
-1762 -1661 0
1763 1700 1581 0
-1763 -1700 0
-1763 -1581 0
1764 1317 1700 0
-1764 -1317 0
-1764 -1700 0
1765 1532 1701 0
-1765 -1532 0
-1765 -1701 0
1766 -1218 1702 0
-1766 1218 0
-1766 -1702 0
1767 1310 1711 0
-1767 -1310 0
-1767 -1711 0
1768 1678 1713 0
-1768 -1678 0
-1768 -1713 0
1769 -1563 1714 0
-1769 1563 0
-1769 -1714 0
1770 1715 -1743 0
-1770 -1715 0
-1770 1743 0
1771 -1573 1716 0
-1771 1573 0
-1771 -1716 0
1772 -1555 -1746 0
-1772 1555 0
-1772 1746 0
1773 1720 1579 0
-1773 -1720 0
-1773 -1579 0
1774 1254 1724 0
-1774 -1254 0
-1774 -1724 0
1775 -1647 1724 0
-1775 1647 0
-1775 -1724 0
1776 1577 -1751 0
-1776 -1577 0
-1776 1751 0
1777 1268 -1751 0
-1777 -1268 0
-1777 1751 0
1778 -1578 1725 0
-1778 1578 0
-1778 -1725 0
1779 1457 -1757 0
-1779 -1457 0
-1779 1757 0
1780 1458 -1758 0
-1780 -1458 0
-1780 1758 0
1781 -1747 -1760 0
-1781 1747 0
-1781 1760 0
1782 1461 -1761 0
-1782 -1461 0
-1782 1761 0
1783 -1762 1726 0
-1783 1762 0
-1783 -1726 0
1784 1727 -1763 0
-1784 -1727 0
-1784 1763 0
1785 1701 1728 0
-1785 -1701 0
-1785 -1728 0
1786 1703 1730 0
-1786 -1703 0
-1786 -1730 0
1787 1731 1704 0
-1787 -1731 0
-1787 -1704 0
1788 1706 1732 0
-1788 -1706 0
-1788 -1732 0
1789 1707 1733 0
-1789 -1707 0
-1789 -1733 0
1790 1734 1709 0
-1790 -1734 0
-1790 -1709 0
1791 1735 -1740 0
-1791 -1735 0
-1791 1740 0
1792 -1667 -1768 0
-1792 1667 0
-1792 1768 0
1793 -1671 1737 0
-1793 1671 0
-1793 -1737 0
1794 -1672 1738 0
-1794 1672 0
-1794 -1738 0
1795 -1673 1739 0
-1795 1673 0
-1795 -1739 0
1796 -1735 1740 0
-1796 1735 0
-1796 -1740 0
1797 1714 1744 0
-1797 -1714 0
-1797 -1744 0
1798 1745 1718 0
-1798 -1745 0
-1798 -1718 0
1799 1555 1746 0
-1799 -1555 0
-1799 -1746 0
1800 1720 1749 0
-1800 -1720 0
-1800 -1749 0
1801 1750 1723 0
-1801 -1750 0
-1801 -1723 0
1802 1267 -1774 0
-1802 -1267 0
-1802 1774 0
1803 -1577 1751 0
-1803 1577 0
-1803 -1751 0
1804 -1675 1756 0
-1804 1675 0
-1804 -1756 0
1805 -1457 1757 0
-1805 1457 0
-1805 -1757 0
1806 -1458 1758 0
-1806 1458 0
-1806 -1758 0
1807 -1564 1759 0
-1807 1564 0
-1807 -1759 0
1808 -1461 1761 0
-1808 1461 0
-1808 -1761 0
1809 1762 -1726 0
-1809 -1762 0
-1809 1726 0
1810 1726 1764 0
-1810 -1726 0
-1810 -1764 0
1811 1687 1765 0
-1811 -1687 0
-1811 -1765 0
1812 1729 1766 0
-1812 -1729 0
-1812 -1766 0
1813 1722 -1788 0
-1813 -1722 0
-1813 1788 0
1814 1451 -1789 0
-1814 -1451 0
-1814 1789 0
1815 1735 1767 0
-1815 -1735 0
-1815 -1767 0
1816 1667 1768 0
-1816 -1667 0
-1816 -1768 0
1817 1742 1769 0
-1817 -1742 0
-1817 -1769 0
1818 -1643 1770 0
-1818 1643 0
-1818 -1770 0
1819 1684 1770 0
-1819 -1684 0
-1819 -1770 0
1820 -1573 1771 0
-1820 1573 0
-1820 -1771 0
1821 1716 1771 0
-1821 -1716 0
-1821 -1771 0
1822 1638 1772 0
-1822 -1638 0
-1822 -1772 0
1823 1748 1773 0
-1823 -1748 0
-1823 -1773 0
1824 -1800 -1755 0
-1824 1800 0
-1824 1755 0
1825 1556 -1801 0
-1825 -1556 0
-1825 1801 0
1826 1777 1752 0
-1826 -1777 0
-1826 -1752 0
1827 1778 1753 0
-1827 -1778 0
-1827 -1753 0
1828 1658 1781 0
-1828 -1658 0
-1828 -1781 0
1829 -1747 1781 0
-1829 1747 0
-1829 -1781 0
1830 1784 1497 0
-1830 -1784 0
-1830 -1497 0
1831 1719 -1811 0
-1831 -1719 0
-1831 1811 0
1832 -1571 -1812 0
-1832 1571 0
-1832 1812 0
1833 -1574 1787 0
-1833 1574 0
-1833 -1787 0
1834 -1722 1788 0
-1834 1722 0
-1834 -1788 0
1835 -1451 1789 0
-1835 1451 0
-1835 -1789 0
1836 -1455 1790 0
-1836 1455 0
-1836 -1790 0
1837 1676 -1815 0
-1837 -1676 0
-1837 1815 0
1838 -1676 -1815 0
-1838 1676 0
-1838 1815 0
1839 1678 1792 0
-1839 -1678 0
-1839 -1792 0
1840 1632 1793 0
-1840 -1632 0
-1840 -1793 0
1841 -1671 1793 0
-1841 1671 0
-1841 -1793 0
1842 1737 1793 0
-1842 -1737 0
-1842 -1793 0
1843 1633 1794 0
-1843 -1633 0
-1843 -1794 0
1844 -1672 1794 0
-1844 1672 0
-1844 -1794 0
1845 1738 1794 0
-1845 -1738 0
-1845 -1794 0
1846 1634 1795 0
-1846 -1634 0
-1846 -1795 0
1847 -1673 1795 0
-1847 1673 0
-1847 -1795 0
1848 1739 1795 0
-1848 -1739 0
-1848 -1795 0
1849 1796 1635 0
-1849 -1796 0
-1849 -1635 0
1850 1796 1791 0
-1850 -1796 0
-1850 -1791 0
1851 -1817 1538 0
-1851 1817 0
-1851 -1538 0
1852 1715 -1819 0
-1852 -1715 0
-1852 1819 0
1853 1772 1799 0
-1853 -1772 0
-1853 -1799 0
1854 -1556 1801 0
-1854 1556 0
-1854 -1801 0
1855 1802 1775 0
-1855 -1802 0
-1855 -1775 0
1856 1803 1776 0
-1856 -1803 0
-1856 -1776 0
1857 1804 1652 0
-1857 -1804 0
-1857 -1652 0
1858 -1675 1804 0
-1858 1675 0
-1858 -1804 0
1859 1756 1804 0
-1859 -1756 0
-1859 -1804 0
1860 1805 1653 0
-1860 -1805 0
-1860 -1653 0
1861 1805 1779 0
-1861 -1805 0
-1861 -1779 0
1862 1654 1806 0
-1862 -1654 0
-1862 -1806 0
1863 1806 1780 0
-1863 -1806 0
-1863 -1780 0
1864 1807 1657 0
-1864 -1807 0
-1864 -1657 0
1865 -1564 1807 0
-1865 1564 0
-1865 -1807 0
1866 1759 1807 0
-1866 -1759 0
-1866 -1807 0
1867 1697 -1828 0
-1867 -1697 0
-1867 1828 0
1868 1808 1660 0
-1868 -1808 0
-1868 -1660 0
1869 1809 1662 0
-1869 -1809 0
-1869 -1662 0
1870 -1830 1810 0
-1870 1830 0
-1870 -1810 0
1871 1571 1812 0
-1871 -1571 0
-1871 -1812 0
1872 1706 1813 0
-1872 -1706 0
-1872 -1813 0
1873 -1676 1815 0
-1873 1676 0
-1873 -1815 0
1874 -1839 1786 0
-1874 1839 0
-1874 -1786 0
1875 1792 1816 0
-1875 -1792 0
-1875 -1816 0
1876 1817 -1538 0
-1876 -1817 0
-1876 1538 0
1877 1820 1821 0
-1877 -1820 0
-1877 -1821 0
1878 1650 1824 0
-1878 -1650 0
-1878 -1824 0
1879 -1800 1824 0
-1879 1800 0
-1879 -1824 0
1880 1827 -1846 0
-1880 -1827 0
-1880 1846 0
1881 1797 -1868 0
-1881 -1797 0
-1881 1868 0
1882 1830 -1810 0
-1882 -1830 0
-1882 1810 0
1883 1687 1831 0
-1883 -1687 0
-1883 -1831 0
1884 1765 1831 0
-1884 -1765 0
-1884 -1831 0
1885 1729 1832 0
-1885 -1729 0
-1885 -1832 0
1886 1833 1705 0
-1886 -1833 0
-1886 -1705 0
1887 -1574 1833 0
-1887 1574 0
-1887 -1833 0
1888 1787 1833 0
-1888 -1787 0
-1888 -1833 0
1889 1813 1834 0
-1889 -1813 0
-1889 -1834 0
1890 1835 1708 0
-1890 -1835 0
-1890 -1708 0
1891 1835 1814 0
-1891 -1835 0
-1891 -1814 0
1892 1836 1710 0
-1892 -1836 0
-1892 -1710 0
1893 -1455 1836 0
-1893 1455 0
-1893 -1836 0
1894 1790 1836 0
-1894 -1790 0
-1894 -1836 0
1895 1839 -1786 0
-1895 -1839 0
-1895 1786 0
1896 1841 1842 0
-1896 -1841 0
-1896 -1842 0
1897 -1856 1843 0
-1897 1856 0
-1897 -1843 0
1898 1844 1845 0
-1898 -1844 0
-1898 -1845 0
1899 -1827 1846 0
-1899 1827 0
-1899 -1846 0
1900 1847 1848 0
-1900 -1847 0
-1900 -1848 0
1901 1818 1852 0
-1901 -1818 0
-1901 -1852 0
1902 -1878 1754 0
-1902 1878 0
-1902 -1754 0
1903 1692 -1878 0
-1903 -1692 0
-1903 1878 0
1904 1854 1825 0
-1904 -1854 0
-1904 -1825 0
1905 1856 -1843 0
-1905 -1856 0
-1905 1843 0
1906 1849 1857 0
-1906 -1849 0
-1906 -1857 0
1907 1858 1859 0
-1907 -1858 0
-1907 -1859 0
1908 1688 1860 0
-1908 -1688 0
-1908 -1860 0
1909 1864 -1863 0
-1909 -1864 0
-1909 1863 0
1910 1865 1866 0
-1910 -1865 0
-1910 -1866 0
1911 1829 1867 0
-1911 -1829 0
-1911 -1867 0
1912 -1797 1868 0
-1912 1797 0
-1912 -1868 0
1913 1412 1870 1508 -1595 0
-1913 -1412 0
-1913 -1870 0
-1913 -1508 0
-1913 1595 0
1914 1719 -1883 0
-1914 -1719 0
-1914 1883 0
1915 1570 -1885 0
-1915 -1570 0
-1915 1885 0
1916 1832 1871 0
-1916 -1832 0
-1916 -1871 0
1917 1872 1822 0
-1917 -1872 0
-1917 -1822 0
1918 1840 -1891 0
-1918 -1840 0
-1918 1891 0
1919 -1892 1823 0
-1919 1892 0
-1919 -1823 0
1920 1873 1837 0
-1920 -1873 0
-1920 -1837 0
1921 1741 1876 0
-1921 -1741 0
-1921 -1876 0
1922 1876 1851 0
-1922 -1876 0
-1922 -1851 0
1923 1878 -1754 0
-1923 -1878 0
-1923 1754 0
1924 1774 -1904 0
-1924 -1774 0
-1924 1904 0
1925 1721 -1908 0
-1925 -1721 0
-1925 1908 0
1926 -1570 1885 0
-1926 1570 0
-1926 -1885 0
1927 1886 1877 0
-1927 -1886 0
-1927 -1877 0
1928 1887 1888 0
-1928 -1887 0
-1928 -1888 0
1929 1890 -1853 0
-1929 -1890 0
-1929 1853 0
1930 -1840 1891 0
-1930 1840 0
-1930 -1891 0
1931 1892 -1823 0
-1931 -1892 0
-1931 1823 0
1932 1893 1894 0
-1932 -1893 0
-1932 -1894 0
1933 -1862 -1920 0
-1933 1862 0
-1933 1920 0
1934 1703 1895 0
-1934 -1703 0
-1934 -1895 0
1935 1895 1874 0
-1935 -1895 0
-1935 -1874 0
1936 1855 1896 0
-1936 -1855 0
-1936 -1896 0
1937 1803 1897 0
-1937 -1803 0
-1937 -1897 0
1938 1778 1899 0
-1938 -1778 0
-1938 -1899 0
1939 1899 1880 0
-1939 -1899 0
-1939 -1880 0
1940 -1921 1861 0
-1940 1921 0
-1940 -1861 0
1941 1828 1901 0
-1941 -1828 0
-1941 -1901 0
1942 1879 1903 0
-1942 -1879 0
-1942 -1903 0
1943 -1774 1904 0
-1943 1774 0
-1943 -1904 0
1944 1897 1905 0
-1944 -1897 0
-1944 -1905 0
1945 1849 1906 0
-1945 -1849 0
-1945 -1906 0
1946 1857 1906 0
-1946 -1857 0
-1946 -1906 0
1947 1864 1909 0
-1947 -1864 0
-1947 -1909 0
1948 -1863 1909 0
-1948 1863 0
-1948 -1909 0
1949 1912 1881 0
-1949 -1912 0
-1949 -1881 0
1950 1913 1882 0
-1950 -1913 0
-1950 -1882 0
1951 1884 1914 0
-1951 -1884 0
-1951 -1914 0
1952 1872 1917 0
-1952 -1872 0
-1952 -1917 0
1953 1822 1917 0
-1953 -1822 0
-1953 -1917 0
1954 1862 1920 0
-1954 -1862 0
-1954 -1920 0
1955 1921 -1861 0
-1955 -1921 0
-1955 1861 0
1956 1923 1902 0
-1956 -1923 0
-1956 -1902 0
1957 1854 1924 0
-1957 -1854 0
-1957 -1924 0
1958 1688 1925 0
-1958 -1688 0
-1958 -1925 0
1959 1860 1925 0
-1959 -1860 0
-1959 -1925 0
1960 1910 -1949 0
-1960 -1910 0
-1960 1949 0
1961 -1950 1295 0
-1961 1950 0
-1961 -1295 0
1962 1926 1915 0
-1962 -1926 0
-1962 -1915 0
1963 1771 1927 0
-1963 -1771 0
-1963 -1927 0
1964 1886 1927 0
-1964 -1886 0
-1964 -1927 0
1965 1877 1927 0
-1965 -1877 0
-1965 -1927 0
1966 1890 1929 0
-1966 -1890 0
-1966 -1929 0
1967 -1853 1929 0
-1967 1853 0
-1967 -1929 0
1968 1918 1930 0
-1968 -1918 0
-1968 -1930 0
1969 1748 1931 0
-1969 -1748 0
-1969 -1931 0
1970 1931 1919 0
-1970 -1931 0
-1970 -1919 0
1971 1712 1934 0
-1971 -1712 0
-1971 -1934 0
1972 1855 1936 0
-1972 -1855 0
-1972 -1936 0
1973 1896 1936 0
-1973 -1896 0
-1973 -1936 0
1974 1770 1941 0
-1974 -1770 0
-1974 -1941 0
1975 1828 1941 0
-1975 -1828 0
-1975 -1941 0
1976 1901 1941 0
-1976 -1901 0
-1976 -1941 0
1977 -1956 1900 0
-1977 1956 0
-1977 -1900 0
1978 1924 1943 0
-1978 -1924 0
-1978 -1943 0
1979 1945 1946 0
-1979 -1945 0
-1979 -1946 0
1980 1721 -1958 0
-1980 -1721 0
-1980 1958 0
1981 1947 1948 0
-1981 -1947 0
-1981 -1948 0
1982 -1910 1949 0
-1982 1910 0
-1982 -1949 0
1983 1950 -1295 0
-1983 -1950 0
-1983 1295 0
1984 -1962 -1785 0
-1984 1962 0
-1984 1785 0
1985 -1963 1736 0
-1985 1963 0
-1985 -1736 0
1986 1952 1953 0
-1986 -1952 0
-1986 -1953 0
1987 1937 -1968 0
-1987 -1937 0
-1987 1968 0
1988 -1969 1826 0
-1988 1969 0
-1988 -1826 0
1989 1954 1838 0
-1989 -1954 0
-1989 -1838 0
1990 1954 1933 0
-1990 -1954 0
-1990 -1933 0
1991 1955 1940 0
-1991 -1955 0
-1991 -1940 0
1992 1922 -1981 0
-1992 -1922 0
-1992 1981 0
1993 1912 1960 0
-1993 -1912 0
-1993 -1960 0
1994 1809 1961 0
-1994 -1809 0
-1994 -1961 0
1995 1962 1785 0
-1995 -1962 0
-1995 -1785 0
1996 1963 -1736 0
-1996 -1963 0
-1996 1736 0
1997 1964 1965 0
-1997 -1964 0
-1997 -1965 0
1998 1966 1967 0
-1998 -1966 0
-1998 -1967 0
1999 -1937 1968 0
-1999 1937 0
-1999 -1968 0
2000 1969 -1826 0
-2000 -1969 0
-2000 1826 0
2001 1969 1826 0
-2001 -1969 0
-2001 -1826 0
2002 1712 1971 0
-2002 -1712 0
-2002 -1971 0
2003 1934 1971 0
-2003 -1934 0
-2003 -1971 0
2004 1972 1973 0
-2004 -1972 0
-2004 -1973 0
2005 -1991 -1990 0
-2005 1991 0
-2005 1990 0
2006 1975 1976 0
-2006 -1975 0
-2006 -1976 0
2007 1923 1977 0
-2007 -1923 0
-2007 -1977 0
2008 -1956 1977 0
-2008 1956 0
-2008 -1977 0
2009 1900 1977 0
-2009 -1900 0
-2009 -1977 0
2010 1979 1932 0
-2010 -1979 0
-2010 -1932 0
2011 1980 1959 0
-2011 -1980 0
-2011 -1959 0
2012 -1922 1981 0
-2012 1922 0
-2012 -1981 0
2013 1960 1982 0
-2013 -1960 0
-2013 -1982 0
2014 1783 -1994 0
-2014 -1783 0
-2014 1994 0
2015 1926 1984 0
-2015 -1926 0
-2015 -1984 0
2016 1986 1798 0
-2016 -1986 0
-2016 -1798 0
2017 1918 1987 0
-2017 -1918 0
-2017 -1987 0
2018 1989 1907 0
-2018 -1989 0
-2018 -1907 0
2019 -2004 1938 0
-2019 2004 0
-2019 -1938 0
2020 1991 1990 0
-2020 -1991 0
-2020 -1990 0
2021 -2007 1939 0
-2021 2007 0
-2021 -1939 0
2022 -2015 1951 0
-2022 2015 0
-2022 -1951 0
2023 1984 1995 0
-2023 -1984 0
-2023 -1995 0
2024 1996 1985 0
-2024 -1996 0
-2024 -1985 0
2025 1998 -1889 0
-2025 -1998 0
-2025 1889 0
2026 1987 1999 0
-2026 -1987 0
-2026 -1999 0
2027 1988 2000 0
-2027 -1988 0
-2027 -2000 0
2028 2002 2003 0
-2028 -2002 0
-2028 -2003 0
2029 2004 1938 0
-2029 -2004 0
-2029 -1938 0
2030 2004 -1938 0
-2030 -2004 0
-2030 1938 0
2031 1955 2005 0
-2031 -1955 0
-2031 -2005 0
2032 2007 -1939 0
-2032 -2007 0
-2032 1939 0
2033 2008 2009 0
-2033 -2008 0
-2033 -2009 0
2034 1906 2010 0
-2034 -1906 0
-2034 -2010 0
2035 1979 2010 0
-2035 -1979 0
-2035 -2010 0
2036 1932 2010 0
-2036 -1932 0
-2036 -2010 0
2037 2011 -1850 0
-2037 -2011 0
-2037 1850 0
2038 1909 2012 0
-2038 -1909 0
-2038 -2012 0
2039 2012 1992 0
-2039 -2012 0
-2039 -1992 0
2040 2014 1983 0
-2040 -2014 0
-2040 -1983 0
2041 2015 -1951 0
-2041 -2015 0
-2041 1951 0
2042 2015 1951 0
-2042 -2015 0
-2042 -1951 0
2043 -2024 -1935 0
-2043 2024 0
-2043 1935 0
2044 1917 2016 0
-2044 -1917 0
-2044 -2016 0
2045 1986 2016 0
-2045 -1986 0
-2045 -2016 0
2046 1798 2016 0
-2046 -1798 0
-2046 -2016 0
2047 1957 2017 0
-2047 -1957 0
-2047 -2017 0
2048 -2027 -1898 0
-2048 2027 0
-2048 1898 0
2049 1989 2018 0
-2049 -1989 0
-2049 -2018 0
2050 1907 2018 0
-2050 -1907 0
-2050 -2018 0
2051 -2034 1970 0
-2051 2034 0
-2051 -1970 0
2052 -2040 -1911 0
-2052 2040 0
-2052 1911 0
2053 2024 1935 0
-2053 -2024 0
-2053 -1935 0
2054 -2044 1875 0
-2054 2044 0
-2054 -1875 0
2055 1929 2025 0
-2055 -1929 0
-2055 -2025 0
2056 -1889 2025 0
-2056 1889 0
-2056 -2025 0
2057 1998 2025 0
-2057 -1998 0
-2057 -2025 0
2058 2027 1898 0
-2058 -2027 0
-2058 -1898 0
2059 2028 -1916 0
-2059 -2028 0
-2059 1916 0
2060 1936 2029 0
-2060 -1936 0
-2060 -2029 0
2061 2019 2030 0
-2061 -2019 0
-2061 -2030 0
2062 2032 2021 0
-2062 -2032 0
-2062 -2021 0
2063 2034 -1970 0
-2063 -2034 0
-2063 1970 0
2064 2035 2036 0
-2064 -2035 0
-2064 -2036 0
2065 1925 2037 0
-2065 -1925 0
-2065 -2037 0
2066 2011 2037 0
-2066 -2011 0
-2066 -2037 0
2067 -1850 2037 0
-2067 1850 0
-2067 -2037 0
2068 2040 1911 0
-2068 -2040 0
-2068 -1911 0
2069 2041 2022 0
-2069 -2041 0
-2069 -2022 0
2070 1996 2043 0
-2070 -1996 0
-2070 -2043 0
2071 2044 -1875 0
-2071 -2044 0
-2071 1875 0
2072 2045 2046 0
-2072 -2045 0
-2072 -2046 0
2073 1957 2047 0
-2073 -1957 0
-2073 -2047 0
2074 2017 2047 0
-2074 -2017 0
-2074 -2047 0
2075 2049 2050 0
-2075 -2049 0
-2075 -2050 0
2076 -2060 1978 0
-2076 2060 0
-2076 -1978 0
2077 -2065 1942 0
-2077 2065 0
-2077 -1942 0
2078 2052 1869 0
-2078 -2052 0
-2078 -1869 0
2079 2043 2053 0
-2079 -2043 0
-2079 -2053 0
2080 2055 1928 0
-2080 -2055 0
-2080 -1928 0
2081 2056 2057 0
-2081 -2056 0
-2081 -2057 0
2082 2058 2001 0
-2082 -2058 0
-2082 -2001 0
2083 2058 2048 0
-2083 -2058 0
-2083 -2048 0
2084 1971 2059 0
-2084 -1971 0
-2084 -2059 0
2085 2028 2059 0
-2085 -2028 0
-2085 -2059 0
2086 -1916 2059 0
-2086 1916 0
-2086 -2059 0
2087 2060 -1978 0
-2087 -2060 0
-2087 1978 0
2088 2063 2051 0
-2088 -2063 0
-2088 -2051 0
2089 2065 -1942 0
-2089 -2065 0
-2089 1942 0
2090 2065 1942 0
-2090 -2065 0
-2090 -1942 0
2091 2066 2067 0
-2091 -2066 0
-2091 -2067 0
2092 2071 2054 0
-2092 -2071 0
-2092 -2054 0
2093 2073 2074 0
-2093 -2073 0
-2093 -2074 0
2094 -2082 1944 0
-2094 2082 0
-2094 -1944 0
2095 -2062 -2083 0
-2095 2062 0
-2095 2083 0
2096 -2084 2023 0
-2096 2084 0
-2096 -2023 0
2097 2033 -2088 0
-2097 -2033 0
-2097 2088 0
2098 -2091 -2075 0
-2098 2091 0
-2098 2075 0
2099 2078 2068 0
-2099 -2078 0
-2099 -2068 0
2100 1997 -2092 0
-2100 -1997 0
-2100 2092 0
2101 2055 2080 0
-2101 -2055 0
-2101 -2080 0
2102 1928 2080 0
-2102 -1928 0
-2102 -2080 0
2103 2082 -1944 0
-2103 -2082 0
-2103 1944 0
2104 2062 2083 0
-2104 -2062 0
-2104 -2083 0
2105 2084 -2023 0
-2105 -2084 0
-2105 2023 0
2106 2085 2086 0
-2106 -2085 0
-2106 -2086 0
2107 2087 2076 0
-2107 -2087 0
-2107 -2076 0
2108 -2033 2088 0
-2108 2033 0
-2108 -2088 0
2109 2089 2077 0
-2109 -2089 0
-2109 -2077 0
2110 2091 2075 0
-2110 -2091 0
-2110 -2075 0
2111 -2099 -2006 0
-2111 2099 0
-2111 2006 0
2112 2093 2081 0
-2112 -2093 0
-2112 -2081 0
2113 2032 2095 0
-2113 -2032 0
-2113 -2095 0
2114 2070 -2106 0
-2114 -2070 0
-2114 2106 0
2115 -2107 -2026 0
-2115 2107 0
-2115 2026 0
2116 2063 2097 0
-2116 -2063 0
-2116 -2097 0
2117 -2109 -2064 0
-2117 2109 0
-2117 2064 0
2118 2099 2006 0
-2118 -2099 0
-2118 -2006 0
2119 2071 2100 0
-2119 -2071 0
-2119 -2100 0
2120 -2092 2100 0
-2120 2092 0
-2120 -2100 0
2121 1997 2100 0
-2121 -1997 0
-2121 -2100 0
2122 2101 2102 0
-2122 -2101 0
-2122 -2102 0
2123 2103 2094 0
-2123 -2103 0
-2123 -2094 0
2124 2095 2104 0
-2124 -2095 0
-2124 -2104 0
2125 2105 2096 0
-2125 -2105 0
-2125 -2096 0
2126 -2070 2106 0
-2126 2070 0
-2126 -2106 0
2127 2070 2106 0
-2127 -2070 0
-2127 -2106 0
2128 2107 2026 0
-2128 -2107 0
-2128 -2026 0
2129 2097 2108 0
-2129 -2097 0
-2129 -2108 0
2130 2109 2064 0
-2130 -2109 0
-2130 -2064 0
2131 2018 2110 0
-2131 -2018 0
-2131 -2110 0
2132 2110 2098 0
-2132 -2110 0
-2132 -2098 0
2133 1808 2111 0
-2133 -1808 0
-2133 -2111 0
2134 -2119 2079 0
-2134 2119 0
-2134 -2079 0
2135 -2122 2072 0
-2135 2122 0
-2135 -2072 0
2136 2047 2112 0
-2136 -2047 0
-2136 -2112 0
2137 2093 2112 0
-2137 -2093 0
-2137 -2112 0
2138 2081 2112 0
-2138 -2081 0
-2138 -2112 0
2139 2061 -2123 0
-2139 -2061 0
-2139 2123 0
2140 2087 2115 0
-2140 -2087 0
-2140 -2115 0
2141 2116 -2124 0
-2141 -2116 0
-2141 2124 0
2142 1782 -2133 0
-2142 -1782 0
-2142 2133 0
2143 2119 -2079 0
-2143 -2119 0
-2143 2079 0
2144 2120 2121 0
-2144 -2120 0
-2144 -2121 0
2145 2122 2072 0
-2145 -2122 0
-2145 -2072 0
2146 2122 -2072 0
-2146 -2122 0
-2146 2072 0
2147 -2061 2123 0
-2147 2061 0
-2147 -2123 0
2148 -2116 2124 0
-2148 2116 0
-2148 -2124 0
2149 2114 2126 0
-2149 -2114 0
-2149 -2126 0
2150 2115 2128 0
-2150 -2115 0
-2150 -2128 0
2151 2130 2090 0
-2151 -2130 0
-2151 -2090 0
2152 2137 2138 0
-2152 -2137 0
-2152 -2138 0
2153 2103 2139 0
-2153 -2103 0
-2153 -2139 0
2154 -2151 2129 0
-2154 2151 0
-2154 -2129 0
2155 2142 2118 0
-2155 -2142 0
-2155 -2118 0
2156 2143 2134 0
-2156 -2143 0
-2156 -2134 0
2157 2080 2145 0
-2157 -2080 0
-2157 -2145 0
2158 2146 2135 0
-2158 -2146 0
-2158 -2135 0
2159 -2152 2140 0
-2159 2152 0
-2159 -2140 0
2160 2139 2147 0
-2160 -2139 0
-2160 -2147 0
2161 2141 2148 0
-2161 -2141 0
-2161 -2148 0
2162 -2153 2150 0
-2162 2153 0
-2162 -2150 0
2163 2151 -2129 0
-2163 -2151 0
-2163 2129 0
2164 -1974 -2155 0
-2164 1974 0
-2164 2155 0
2165 -2136 -2158 0
-2165 2136 0
-2165 2158 0
2166 2152 2140 0
-2166 -2152 0
-2166 -2140 0
2167 2152 -2140 0
-2167 -2152 0
-2167 2140 0
2168 2153 -2150 0
-2168 -2153 0
-2168 2150 0
2169 2113 -2160 0
-2169 -2113 0
-2169 2160 0
2170 1974 2155 0
-2170 -1974 0
-2170 -2155 0
2171 2144 2157 0
-2171 -2144 0
-2171 -2157 0
2172 2136 2158 0
-2172 -2136 0
-2172 -2158 0
2173 -2113 2160 0
-2173 2113 0
-2173 -2160 0
2174 2163 2154 0
-2174 -2163 0
-2174 -2154 0
2175 2164 -2013 0
-2175 -2164 0
-2175 2013 0
2176 2159 2167 0
-2176 -2159 0
-2176 -2167 0
2177 2168 2162 0
-2177 -2168 0
-2177 -2162 0
2178 2144 2171 0
-2178 -2144 0
-2178 -2171 0
2179 2157 2171 0
-2179 -2157 0
-2179 -2171 0
2180 2172 2165 0
-2180 -2172 0
-2180 -2165 0
2181 2169 2173 0
-2181 -2169 0
-2181 -2173 0
2182 2170 2175 0
-2182 -2170 0
-2182 -2175 0
2183 -2182 -1993 0
-2183 2182 0
-2183 1993 0
2184 2178 2179 0
-2184 -2178 0
-2184 -2179 0
2185 2182 1993 0
-2185 -2182 0
-2185 -1993 0
2186 2183 -2039 0
-2186 -2183 0
-2186 2039 0
2187 2185 2186 0
-2187 -2185 0
-2187 -2186 0
2188 -2038 -2187 0
-2188 2038 0
-2188 2187 0
2189 2038 2187 0
-2189 -2038 0
-2189 -2187 0
2190 2005 2188 0
-2190 -2005 0
-2190 -2188 0
2191 2020 -2190 0
-2191 -2020 0
-2191 2190 0
2192 2191 2189 0
-2192 -2191 0
-2192 -2189 0
2193 -2192 -2031 0
-2193 2192 0
-2193 2031 0
2194 2192 2031 0
-2194 -2192 0
-2194 -2031 0
2195 2193 -2132 0
-2195 -2193 0
-2195 2132 0
2196 2194 2195 0
-2196 -2194 0
-2196 -2195 0
2197 -2131 -2196 0
-2197 2131 0
-2197 2196 0
2198 2131 2196 0
-2198 -2131 0
-2198 -2196 0
2199 2197 2117 0
-2199 -2197 0
-2199 -2117 0
2200 2130 -2199 0
-2200 -2130 0
-2200 2199 0
2201 2200 2198 0
-2201 -2200 0
-2201 -2198 0
2202 2201 -2174 0
-2202 -2201 0
-2202 2174 0
2203 2163 2202 0
-2203 -2163 0
-2203 -2202 0
2204 2201 2202 0
-2204 -2201 0
-2204 -2202 0
2205 -2174 2202 0
-2205 2174 0
-2205 -2202 0
2206 -2203 2161 0
-2206 2203 0
-2206 -2161 0
2207 2203 -2161 0
-2207 -2203 0
-2207 2161 0
2208 2204 2205 0
-2208 -2204 0
-2208 -2205 0
2209 -2208 1112 0
-2209 2208 0
-2209 -1112 0
2210 2141 2207 0
-2210 -2141 0
-2210 -2207 0
2211 2207 2206 0
-2211 -2207 0
-2211 -2206 0
2212 2208 -1112 0
-2212 -2208 0
-2212 1112 0
2213 -2210 2181 0
-2213 2210 0
-2213 -2181 0
2214 -1081 -2211 0
-2214 1081 0
-2214 2211 0
2215 2210 -2181 0
-2215 -2210 0
-2215 2181 0
2216 1081 2211 0
-2216 -1081 0
-2216 -2211 0
2217 2212 2209 0
-2217 -2212 0
-2217 -2209 0
2218 2169 2215 0
-2218 -2169 0
-2218 -2215 0
2219 2215 2213 0
-2219 -2215 0
-2219 -2213 0
2220 2216 2212 0
-2220 -2216 0
-2220 -2212 0
2221 2217 179 0
-2221 -2217 0
-2221 -179 0
2222 2217 -202 0
-2222 -2217 0
-2222 202 0
2223 2217 152 0
-2223 -2217 0
-2223 -152 0
2224 2217 -181 0
-2224 -2217 0
-2224 181 0
2225 2217 -195 0
-2225 -2217 0
-2225 195 0
2226 2217 -229 0
-2226 -2217 0
-2226 229 0
2227 2217 -154 0
-2227 -2217 0
-2227 154 0
2228 2217 122 0
-2228 -2217 0
-2228 -122 0
2229 2217 -172 0
-2229 -2217 0
-2229 172 0
2230 169 2217 0
-2230 -169 0
-2230 -2217 0
2231 93 2217 0
-2231 -93 0
-2231 -2217 0
2232 -124 2217 0
-2232 124 0
-2232 -2217 0
2233 -143 2217 0
-2233 143 0
-2233 -2217 0
2234 -25 2217 0
-2234 25 0
-2234 -2217 0
2235 2217 -105 0
-2235 -2217 0
-2235 105 0
2236 2217 -56 0
-2236 -2217 0
-2236 56 0
2237 -2218 2177 0
-2237 2218 0
-2237 -2177 0
2238 -1127 -2219 0
-2238 1127 0
-2238 2219 0
2239 2214 -2220 0
-2239 -2214 0
-2239 2220 0
2240 2218 -2177 0
-2240 -2218 0
-2240 2177 0
2241 1127 2219 0
-2241 -1127 0
-2241 -2219 0
2242 169 2221 0
-2242 -169 0
-2242 -2221 0
2243 129 2223 0
-2243 -129 0
-2243 -2223 0
2244 100 2228 0
-2244 -100 0
-2244 -2228 0
2245 73 2231 0
-2245 -73 0
-2245 -2231 0
2246 2216 2239 0
-2246 -2216 0
-2246 -2239 0
2247 2212 2239 0
-2247 -2212 0
-2247 -2239 0
2248 2168 2240 0
-2248 -2168 0
-2248 -2240 0
2249 2240 2237 0
-2249 -2240 0
-2249 -2237 0
2250 2214 -2246 0
-2250 -2214 0
-2250 2246 0
2251 -2176 -2248 0
-2251 2176 0
-2251 2248 0
2252 -1073 -2249 0
-2252 1073 0
-2252 2249 0
2253 2241 2246 0
-2253 -2241 0
-2253 -2246 0
2254 2176 2248 0
-2254 -2176 0
-2254 -2248 0
2255 1073 2249 0
-2255 -1073 0
-2255 -2249 0
2256 2238 -2253 0
-2256 -2238 0
-2256 2253 0
2257 2247 2250 0
-2257 -2247 0
-2257 -2250 0
2258 -2257 2217 0
-2258 2257 0
-2258 -2217 0
2259 2166 2254 0
-2259 -2166 0
-2259 -2254 0
2260 2254 2251 0
-2260 -2254 0
-2260 -2251 0
2261 2255 2252 0
-2261 -2255 0
-2261 -2252 0
2262 2241 2256 0
-2262 -2241 0
-2262 -2256 0
2263 2246 2256 0
-2263 -2246 0
-2263 -2256 0
2264 2257 2217 0
-2264 -2257 0
-2264 -2217 0
2265 2257 -206 0
-2265 -2257 0
-2265 206 0
2266 2257 -2217 0
-2266 -2257 0
-2266 2217 0
2267 2257 -180 0
-2267 -2257 0
-2267 180 0
2268 2257 -181 0
-2268 -2257 0
-2268 181 0
2269 2257 -195 0
-2269 -2257 0
-2269 195 0
2270 2257 -202 0
-2270 -2257 0
-2270 202 0
2271 2257 -153 0
-2271 -2257 0
-2271 153 0
2272 2257 -154 0
-2272 -2257 0
-2272 154 0
2273 2257 -172 0
-2273 -2257 0
-2273 172 0
2274 2257 -229 0
-2274 -2257 0
-2274 229 0
2275 -123 2257 0
-2275 123 0
-2275 -2257 0
2276 -124 2257 0
-2276 124 0
-2276 -2257 0
2277 -143 2257 0
-2277 143 0
-2277 -2257 0
2278 2257 -56 0
-2278 -2257 0
-2278 56 0
2279 2257 -94 0
-2279 -2257 0
-2279 94 0
2280 2257 -105 0
-2280 -2257 0
-2280 105 0
2281 169 2257 0
-2281 -169 0
-2281 -2257 0
2282 -2259 2180 0
-2282 2259 0
-2282 -2180 0
2283 -1205 -2260 0
-2283 1205 0
-2283 2260 0
2284 2238 -2262 0
-2284 -2238 0
-2284 2262 0
2285 2279 2236 0
-2285 -2279 0
-2285 -2236 0
2286 2259 -2180 0
-2286 -2259 0
-2286 2180 0
2287 1205 2260 0
-2287 -1205 0
-2287 -2260 0
2288 -2262 2261 0
-2288 2262 0
-2288 -2261 0
2289 2262 -2261 0
-2289 -2262 0
-2289 2261 0
2290 2222 2265 0
-2290 -2222 0
-2290 -2265 0
2291 2258 2266 0
-2291 -2258 0
-2291 -2266 0
2292 2224 2267 0
-2292 -2224 0
-2292 -2267 0
2293 2225 2268 0
-2293 -2225 0
-2293 -2268 0
2294 2226 2270 0
-2294 -2226 0
-2294 -2270 0
2295 2227 2271 0
-2295 -2227 0
-2295 -2271 0
2296 2229 2272 0
-2296 -2229 0
-2296 -2272 0
2297 2232 2275 0
-2297 -2232 0
-2297 -2275 0
2298 2233 2276 0
-2298 -2233 0
-2298 -2276 0
2299 2235 2278 0
-2299 -2235 0
-2299 -2278 0
2300 2263 2284 0
-2300 -2263 0
-2300 -2284 0
2301 2172 2286 0
-2301 -2172 0
-2301 -2286 0
2302 2286 2282 0
-2302 -2286 0
-2302 -2282 0
2303 2287 2283 0
-2303 -2287 0
-2303 -2283 0
2304 2255 2289 0
-2304 -2255 0
-2304 -2289 0
2305 2289 2288 0
-2305 -2289 0
-2305 -2288 0
2306 -2300 -2264 0
-2306 2300 0
-2306 2264 0
2307 -2300 2266 0
-2307 2300 0
-2307 -2266 0
2308 169 -2300 0
-2308 -169 0
-2308 2300 0
2309 2291 -218 0
-2309 -2291 0
-2309 218 0
2310 2291 -189 0
-2310 -2291 0
-2310 189 0
2311 2291 -164 0
-2311 -2291 0
-2311 164 0
2312 -134 2291 0
-2312 134 0
-2312 -2291 0
2313 2291 -114 0
-2313 -2291 0
-2313 114 0
2314 -2184 -2301 0
-2314 2184 0
-2314 2301 0
2315 -1097 -2302 0
-2315 1097 0
-2315 2302 0
2316 -2305 -181 0
-2316 2305 0
-2316 181 0
2317 -2305 -180 0
-2317 2305 0
-2317 180 0
2318 -2305 -195 0
-2318 2305 0
-2318 195 0
2319 -2305 -172 0
-2319 2305 0
-2319 172 0
2320 -2305 -154 0
-2320 2305 0
-2320 154 0
2321 -2305 -153 0
-2321 2305 0
-2321 153 0
2322 -2305 -206 0
-2322 2305 0
-2322 206 0
2323 -143 -2305 0
-2323 143 0
-2323 2305 0
2324 -124 -2305 0
-2324 124 0
-2324 2305 0
2325 -123 -2305 0
-2325 123 0
-2325 2305 0
2326 -2305 -56 0
-2326 2305 0
-2326 56 0
2327 -2305 -94 0
-2327 2305 0
-2327 94 0
2328 -2305 -105 0
-2328 2305 0
-2328 105 0
2329 -2305 -202 0
-2329 2305 0
-2329 202 0
2330 -2305 -229 0
-2330 2305 0
-2330 229 0
2331 -2305 2300 0
-2331 2305 0
-2331 -2300 0
2332 2300 2257 0
-2332 -2300 0
-2332 -2257 0
2333 2300 -195 0
-2333 -2300 0
-2333 195 0
2334 2300 -180 0
-2334 -2300 0
-2334 180 0
2335 2300 -2266 0
-2335 -2300 0
-2335 2266 0
2336 2300 -181 0
-2336 -2300 0
-2336 181 0
2337 2300 -206 0
-2337 -2300 0
-2337 206 0
2338 2300 -172 0
-2338 -2300 0
-2338 172 0
2339 2300 -153 0
-2339 -2300 0
-2339 153 0
2340 2300 -154 0
-2340 -2300 0
-2340 154 0
2341 2300 -202 0
-2341 -2300 0
-2341 202 0
2342 -143 2300 0
-2342 143 0
-2342 -2300 0
2343 -123 2300 0
-2343 123 0
-2343 -2300 0
2344 -124 2300 0
-2344 124 0
-2344 -2300 0
2345 2300 -105 0
-2345 -2300 0
-2345 105 0
2346 2300 -94 0
-2346 -2300 0
-2346 94 0
2347 2300 -56 0
-2347 -2300 0
-2347 56 0
2348 2300 -229 0
-2348 -2300 0
-2348 229 0
2349 169 2300 0
-2349 -169 0
-2349 -2300 0
2350 2184 2301 0
-2350 -2184 0
-2350 -2301 0
2351 1097 2302 0
-2351 -1097 0
-2351 -2302 0
2352 -2304 2303 0
-2352 2304 0
-2352 -2303 0
2353 2304 -2303 0
-2353 -2304 0
-2353 2303 0
2354 2305 -2300 0
-2354 -2305 0
-2354 2300 0
2355 169 2305 0
-2355 -169 0
-2355 -2305 0
2356 -2290 2309 0
-2356 2290 0
-2356 -2309 0
2357 -2292 2310 0
-2357 2292 0
-2357 -2310 0
2358 -2295 2311 0
-2358 2295 0
-2358 -2311 0
2359 -2297 2312 0
-2359 2297 0
-2359 -2312 0
2360 2332 2306 0
-2360 -2332 0
-2360 -2306 0
2361 2334 -2293 0
-2361 -2334 0
-2361 2293 0
2362 2307 2335 0
-2362 -2307 0
-2362 -2335 0
2363 2337 -2294 0
-2363 -2337 0
-2363 2294 0
2364 2339 -2296 0
-2364 -2339 0
-2364 2296 0
2365 2343 -2298 0
-2365 -2343 0
-2365 2298 0
2366 2346 -2299 0
-2366 -2346 0
-2366 2299 0
2367 -129 -2357 0
-2367 129 0
-2367 2357 0
2368 -73 -2359 0
-2368 73 0
-2368 2359 0
2369 2171 2350 0
-2369 -2171 0
-2369 -2350 0
2370 2350 2314 0
-2370 -2350 0
-2370 -2314 0
2371 2287 2353 0
-2371 -2287 0
-2371 -2353 0
2372 2353 2352 0
-2372 -2353 0
-2372 -2352 0
2373 189 -2361 0
-2373 -189 0
-2373 2361 0
2374 -2362 -114 0
-2374 2362 0
-2374 114 0
2375 218 -2363 0
-2375 -218 0
-2375 2363 0
2376 164 -2364 0
-2376 -164 0
-2376 2364 0
2377 134 -2365 0
-2377 -134 0
-2377 2365 0
2378 169 2356 0
-2378 -169 0
-2378 -2356 0
2379 129 2357 0
-2379 -129 0
-2379 -2357 0
2380 100 2358 0
-2380 -100 0
-2380 -2358 0
2381 73 2359 0
-2381 -73 0
-2381 -2359 0
2382 -2369 2156 0
-2382 2369 0
-2382 -2156 0
2383 -2372 -2305 0
-2383 2372 0
-2383 2305 0
2384 -2372 -180 0
-2384 2372 0
-2384 180 0
2385 -2372 -181 0
-2385 2372 0
-2385 181 0
2386 -2372 -172 0
-2386 2372 0
-2386 172 0
2387 -2372 -154 0
-2387 2372 0
-2387 154 0
2388 -2372 -153 0
-2388 2372 0
-2388 153 0
2389 -2372 -195 0
-2389 2372 0
-2389 195 0
2390 -143 -2372 0
-2390 143 0
-2390 2372 0
2391 -124 -2372 0
-2391 124 0
-2391 2372 0
2392 -123 -2372 0
-2392 123 0
-2392 2372 0
2393 -2372 -105 0
-2393 2372 0
-2393 105 0
2394 -2372 -94 0
-2394 2372 0
-2394 94 0
2395 -2372 -56 0
-2395 2372 0
-2395 56 0
2396 -2372 -206 0
-2396 2372 0
-2396 206 0
2397 -2372 -202 0
-2397 2372 0
-2397 202 0
2398 -2372 -229 0
-2398 2372 0
-2398 229 0
2399 2360 2354 0
-2399 -2360 0
-2399 -2354 0
2400 -2361 2362 0
-2400 2361 0
-2400 -2362 0
2401 2362 -2363 0
-2401 -2362 0
-2401 2363 0
2402 2362 -2364 0
-2402 -2362 0
-2402 2364 0
2403 2362 -2365 0
-2403 -2362 0
-2403 2365 0
2404 2234 2374 0
-2404 -2234 0
-2404 -2374 0
2405 55 2366 0
-2405 -55 0
-2405 -2366 0
2406 2369 -2156 0
-2406 -2369 0
-2406 2156 0
2407 1191 2370 0
-2407 -1191 0
-2407 -2370 0
2408 2351 2371 0
-2408 -2351 0
-2408 -2371 0
2409 2372 2305 0
-2409 -2372 0
-2409 -2305 0
2410 169 2372 0
-2410 -169 0
-2410 -2372 0
2411 2331 -2399 0
-2411 -2331 0
-2411 2399 0
2412 2405 2313 0
-2412 -2405 0
-2412 -2313 0
2413 169 2378 0
-2413 -169 0
-2413 -2378 0
2414 2356 2378 0
-2414 -2356 0
-2414 -2378 0
2415 2379 2367 0
-2415 -2379 0
-2415 -2367 0
2416 100 2380 0
-2416 -100 0
-2416 -2380 0
2417 2358 2380 0
-2417 -2358 0
-2417 -2380 0
2418 2381 2368 0
-2418 -2381 0
-2418 -2368 0
2419 2315 -2408 0
-2419 -2315 0
-2419 2408 0
2420 2316 2384 0
-2420 -2316 0
-2420 -2384 0
2421 2320 2388 0
-2421 -2320 0
-2421 -2388 0
2422 2324 2392 0
-2422 -2324 0
-2422 -2392 0
2423 2326 2394 0
-2423 -2326 0
-2423 -2394 0
2424 2373 2400 0
-2424 -2373 0
-2424 -2400 0
2425 2375 2401 0
-2425 -2375 0
-2425 -2401 0
2426 2402 2376 0
-2426 -2402 0
-2426 -2376 0
2427 2377 2403 0
-2427 -2377 0
-2427 -2403 0
2428 55 -2404 -2412 -2285 0
-2428 -55 0
-2428 2404 0
-2428 2412 0
-2428 2285 0
2429 -2243 -2415 0
-2429 2243 0
-2429 2415 0
2430 -2245 -2418 0
-2430 2245 0
-2430 2418 0
2431 2143 2406 0
-2431 -2143 0
-2431 -2406 0
2432 2406 2382 0
-2432 -2406 0
-2432 -2382 0
2433 1191 2407 0
-2433 -1191 0
-2433 -2407 0
2434 2370 2407 0
-2434 -2370 0
-2434 -2407 0
2435 2333 -2420 0
-2435 -2333 0
-2435 2420 0
2436 2338 -2421 0
-2436 -2338 0
-2436 2421 0
2437 2342 -2422 0
-2437 -2342 0
-2437 2422 0
2438 2345 -2423 0
-2438 -2345 0
-2438 2423 0
2439 2331 2411 0
-2439 -2331 0
-2439 -2411 0
2440 2360 2411 0
-2440 -2360 0
-2440 -2411 0
2441 129 -2424 0
-2441 -129 0
-2441 2424 0
2442 169 -2425 0
-2442 -169 0
-2442 2425 0
2443 100 -2426 0
-2443 -100 0
-2443 2426 0
2444 73 -2427 0
-2444 -73 0
-2444 2427 0
2445 -2231 -2428 0
-2445 2231 0
-2445 2428 0
2446 2413 2414 0
-2446 -2413 0
-2446 -2414 0
2447 2243 2415 0
-2447 -2243 0
-2447 -2415 0
2448 2416 2417 0
-2448 -2416 0
-2448 -2417 0
2449 2245 2418 0
-2449 -2245 0
-2449 -2418 0
2450 -2149 -2431 0
-2450 2149 0
-2450 2431 0
2451 -1161 -2432 0
-2451 1161 0
-2451 2432 0
2452 2351 2419 0
-2452 -2351 0
-2452 -2419 0
2453 2371 2419 0
-2453 -2371 0
-2453 -2419 0
2454 189 -2435 0
-2454 -189 0
-2454 2435 0
2455 164 -2436 0
-2455 -164 0
-2455 2436 0
2456 134 -2437 0
-2456 -134 0
-2456 2437 0
2457 2354 -2439 0
-2457 -2354 0
-2457 2439 0
2458 -129 2424 0
-2458 129 0
-2458 -2424 0
2459 -169 2425 0
-2459 169 0
-2459 -2425 0
2460 -100 2426 0
-2460 100 0
-2460 -2426 0
2461 -73 2427 0
-2461 73 0
-2461 -2427 0
2462 2231 2428 0
-2462 -2231 0
-2462 -2428 0
2463 2242 -2446 0
-2463 -2242 0
-2463 2446 0
2464 -2448 2244 0
-2464 2448 0
-2464 -2244 0
2465 2149 2431 0
-2465 -2149 0
-2465 -2431 0
2466 1161 2432 0
-2466 -1161 0
-2466 -2432 0
2467 2433 2434 0
-2467 -2433 0
-2467 -2434 0
2468 2315 -2452 0
-2468 -2315 0
-2468 2452 0
2469 55 2438 0
-2469 -55 0
-2469 -2438 0
2470 2439 2409 0
-2470 -2439 0
-2470 -2409 0
2471 -2242 2446 0
-2471 2242 0
-2471 -2446 0
2472 2429 2447 0
-2472 -2429 0
-2472 -2447 0
2473 2448 -2244 0
-2473 -2448 0
-2473 2244 0
2474 2430 2449 0
-2474 -2430 0
-2474 -2449 0
2475 2383 -2470 0
-2475 -2383 0
-2475 2470 0
2476 2440 2457 0
-2476 -2440 0
-2476 -2457 0
2477 2458 2441 0
-2477 -2458 0
-2477 -2441 0
2478 2459 2442 0
-2478 -2459 0
-2478 -2442 0
2479 2460 2443 0
-2479 -2460 0
-2479 -2443 0
2480 2461 2444 0
-2480 -2461 0
-2480 -2444 0
2481 2465 2127 0
-2481 -2465 0
-2481 -2127 0
2482 2465 2450 0
-2482 -2465 0
-2482 -2450 0
2483 2452 2467 0
-2483 -2452 0
-2483 -2467 0
2484 2453 2468 0
-2484 -2453 0
-2484 -2468 0
2485 -2429 -2477 0
-2485 2429 0
-2485 2477 0
2486 -2471 -2478 0
-2486 2471 0
-2486 2478 0
2487 -2473 -2479 0
-2487 2473 0
-2487 2479 0
2488 -2430 -2480 0
-2488 2430 0
-2488 2480 0
2489 2471 2463 0
-2489 -2471 0
-2489 -2463 0
2490 2473 2464 0
-2490 -2473 0
-2490 -2464 0
2491 -2481 2125 0
-2491 2481 0
-2491 -2125 0
2492 -1138 -2482 0
-2492 1138 0
-2492 2482 0
2493 -2484 2372 0
-2493 2484 0
-2493 -2372 0
2494 169 -2484 0
-2494 -169 0
-2494 2484 0
2495 2383 2475 0
-2495 -2383 0
-2495 -2475 0
2496 2439 2475 0
-2496 -2439 0
-2496 -2475 0
2497 -189 2476 0
-2497 189 0
-2497 -2476 0
2498 2476 -164 0
-2498 -2476 0
-2498 164 0
2499 -218 2476 0
-2499 218 0
-2499 -2476 0
2500 -134 2476 0
-2500 134 0
-2500 -2476 0
2501 2476 -104 0
-2501 -2476 0
-2501 104 0
2502 -2221 -2485 0
-2502 2221 0
-2502 2485 0
2503 2429 2477 0
-2503 -2429 0
-2503 -2477 0
2504 -2486 -2230 0
-2504 2486 0
-2504 2230 0
2505 2471 2478 0
-2505 -2471 0
-2505 -2478 0
2506 -2223 -2487 0
-2506 2223 0
-2506 2487 0
2507 2473 2479 0
-2507 -2473 0
-2507 -2479 0
2508 -2228 -2488 0
-2508 2228 0
-2508 2488 0
2509 2430 2480 0
-2509 -2430 0
-2509 -2480 0
2510 2481 -2125 0
-2510 -2481 0
-2510 2125 0
2511 1138 2482 0
-2511 -1138 0
-2511 -2482 0
2512 2407 2483 0
-2512 -2407 0
-2512 -2483 0
2513 2452 2483 0
-2513 -2452 0
-2513 -2483 0
2514 2467 2483 0
-2514 -2467 0
-2514 -2483 0
2515 2484 -2372 0
-2515 -2484 0
-2515 2372 0
2516 2484 -180 0
-2516 -2484 0
-2516 180 0
2517 2484 -172 0
-2517 -2484 0
-2517 172 0
2518 2484 -154 0
-2518 -2484 0
-2518 154 0
2519 2484 -153 0
-2519 -2484 0
-2519 153 0
2520 2484 -181 0
-2520 -2484 0
-2520 181 0
2521 -143 2484 0
-2521 143 0
-2521 -2484 0
2522 -124 2484 0
-2522 124 0
-2522 -2484 0
2523 -123 2484 0
-2523 123 0
-2523 -2484 0
2524 2484 -56 0
-2524 -2484 0
-2524 56 0
2525 2484 -94 0
-2525 -2484 0
-2525 94 0
2526 2484 -105 0
-2526 -2484 0
-2526 105 0
2527 2484 -195 0
-2527 -2484 0
-2527 195 0
2528 2484 -206 0
-2528 -2484 0
-2528 206 0
2529 2484 -202 0
-2529 -2484 0
-2529 202 0
2530 2484 -229 0
-2530 -2484 0
-2530 229 0
2531 169 2484 0
-2531 -169 0
-2531 -2484 0
2532 2409 -2495 0
-2532 -2409 0
-2532 2495 0
2533 2336 2317 2269 2497 0
-2533 -2336 0
-2533 -2317 0
-2533 -2269 0
-2533 -2497 0
2534 2340 2321 2273 2498 0
-2534 -2340 0
-2534 -2321 0
-2534 -2273 0
-2534 -2498 0
2535 2341 2322 2274 2499 0
-2535 -2341 0
-2535 -2322 0
-2535 -2274 0
-2535 -2499 0
2536 2344 2325 2277 2500 0
-2536 -2344 0
-2536 -2325 0
-2536 -2277 0
-2536 -2500 0
2537 2347 2327 2280 2501 0
-2537 -2347 0
-2537 -2327 0
-2537 -2280 0
-2537 -2501 0
2538 2486 2230 0
-2538 -2486 0
-2538 -2230 0
2539 -129 -2533 0
-2539 129 0
-2539 2533 0
2540 -73 -2536 0
-2540 73 0
-2540 2536 0
2541 -55 -2537 0
-2541 55 0
-2541 2537 0
2542 -2485 2502 0
-2542 2485 0
-2542 -2502 0
2543 -2221 2502 0
-2543 2221 0
-2543 -2502 0
2544 2485 2503 0
-2544 -2485 0
-2544 -2503 0
2545 2486 2505 0
-2545 -2486 0
-2545 -2505 0
2546 -2487 2506 0
-2546 2487 0
-2546 -2506 0
2547 -2223 2506 0
-2547 2223 0
-2547 -2506 0
2548 2487 2507 0
-2548 -2487 0
-2548 -2507 0
2549 -2488 2508 0
-2549 2488 0
-2549 -2508 0
2550 -2228 2508 0
-2550 2228 0
-2550 -2508 0
2551 2105 2510 0
-2551 -2105 0
-2551 -2510 0
2552 2510 2491 0
-2552 -2510 0
-2552 -2491 0
2553 2511 2492 0
-2553 -2511 0
-2553 -2492 0
2554 2466 2512 0
-2554 -2466 0
-2554 -2512 0
2555 2513 2514 0
-2555 -2513 0
-2555 -2514 0
2556 2515 2493 0
-2556 -2515 0
-2556 -2493 0
2557 2386 2518 0
-2557 -2386 0
-2557 -2518 0
2558 2390 2522 0
-2558 -2390 0
-2558 -2522 0
2559 2393 2524 0
-2559 -2393 0
-2559 -2524 0
2560 2496 2532 0
-2560 -2496 0
-2560 -2532 0
2561 129 2533 0
-2561 -129 0
-2561 -2533 0
2562 100 2534 0
-2562 -100 0
-2562 -2534 0
2563 169 2535 0
-2563 -169 0
-2563 -2535 0
2564 73 2536 0
-2564 -73 0
-2564 -2536 0
2565 55 2537 0
-2565 -55 0
-2565 -2537 0
2566 -2069 -2551 0
-2566 2069 0
-2566 2551 0
2567 -1096 -2552 0
-2567 1096 0
-2567 2552 0
2568 2451 -2554 0
-2568 -2451 0
-2568 2554 0
2569 -2555 -2484 0
-2569 2555 0
-2569 2484 0
2570 2495 -2556 0
-2570 -2495 0
-2570 2556 0
2571 -2435 -2560 0
-2571 2435 0
-2571 2560 0
2572 -2560 -2436 0
-2572 2560 0
-2572 2436 0
2573 -2560 -2437 0
-2573 2560 0
-2573 2437 0
2574 2542 2543 0
-2574 -2542 0
-2574 -2543 0
2575 2546 2547 0
-2575 -2546 0
-2575 -2547 0
2576 2549 2550 0
-2576 -2549 0
-2576 -2550 0
2577 2069 2551 0
-2577 -2069 0
-2577 -2551 0
2578 1096 2552 0
-2578 -1096 0
-2578 -2552 0
2579 2555 2484 0
-2579 -2555 0
-2579 -2484 0
2580 2555 -172 0
-2580 -2555 0
-2580 172 0
2581 2555 -154 0
-2581 -2555 0
-2581 154 0
2582 2555 -153 0
-2582 -2555 0
-2582 153 0
2583 2555 -180 0
-2583 -2555 0
-2583 180 0
2584 -143 2555 0
-2584 143 0
-2584 -2555 0
2585 -124 2555 0
-2585 124 0
-2585 -2555 0
2586 -123 2555 0
-2586 123 0
-2586 -2555 0
2587 2555 -105 0
-2587 -2555 0
-2587 105 0
2588 2555 -94 0
-2588 -2555 0
-2588 94 0
2589 2555 -56 0
-2589 -2555 0
-2589 56 0
2590 2555 -181 0
-2590 -2555 0
-2590 181 0
2591 2555 -195 0
-2591 -2555 0
-2591 195 0
2592 2555 -206 0
-2592 -2555 0
-2592 206 0
2593 2555 -202 0
-2593 -2555 0
-2593 202 0
2594 2555 -229 0
-2594 -2555 0
-2594 229 0
2595 2555 -187 0
-2595 -2555 0
-2595 187 0
2596 -2495 2556 0
-2596 2495 0
-2596 -2556 0
2597 2560 -104 0
-2597 -2560 0
-2597 104 0
2598 2560 -114 0
-2598 -2560 0
-2598 114 0
2599 -218 2560 0
-2599 218 0
-2599 -2560 0
2600 2561 2539 0
-2600 -2561 0
-2600 -2539 0
2601 100 2562 0
-2601 -100 0
-2601 -2562 0
2602 2534 2562 0
-2602 -2534 0
-2602 -2562 0
2603 2535 2563 0
-2603 -2535 0
-2603 -2563 0
2604 169 2563 0
-2604 -169 0
-2604 -2563 0
2605 2564 2540 0
-2605 -2564 0
-2605 -2540 0
2606 2565 2541 0
-2606 -2565 0
-2606 -2541 0
2607 2466 2568 0
-2607 -2466 0
-2607 -2568 0
2608 2512 2568 0
-2608 -2512 0
-2608 -2568 0
2609 2515 2570 0
-2609 -2515 0
-2609 -2570 0
2610 2454 2571 0
-2610 -2454 0
-2610 -2571 0
2611 2455 2572 0
-2611 -2455 0
-2611 -2572 0
2612 2456 2573 0
-2612 -2456 0
-2612 -2573 0
2613 2348 2329 2396 2599 0
-2613 -2348 0
-2613 -2329 0
-2613 -2396 0
-2613 -2599 0
2614 2462 -2606 0
-2614 -2462 0
-2614 2606 0
2615 2574 -2600 0
-2615 -2574 0
-2615 2600 0
2616 2576 -2605 0
-2616 -2576 0
-2616 2605 0
2617 2577 2042 0
-2617 -2577 0
-2617 -2042 0
2618 2577 2566 0
-2618 -2577 0
-2618 -2566 0
2619 -2607 2553 0
-2619 2607 0
-2619 -2553 0
2620 2451 -2607 0
-2620 -2451 0
-2620 2607 0
2621 2579 2569 0
-2621 -2579 0
-2621 -2569 0
2622 2582 -2557 0
-2622 -2582 0
-2622 2557 0
2623 2586 -2558 0
-2623 -2586 0
-2623 2558 0
2624 2588 -2559 0
-2624 -2588 0
-2624 2559 0
2625 55 2595 0
-2625 -55 0
-2625 -2595 0
2626 2555 2595 0
-2626 -2555 0
-2626 -2595 0
2627 2570 2596 0
-2627 -2570 0
-2627 -2596 0
2628 129 -2610 0
-2628 -129 0
-2628 2610 0
2629 100 -2611 0
-2629 -100 0
-2629 2611 0
2630 73 -2612 0
-2630 -73 0
-2630 2612 0
2631 -2438 2597 0
-2631 2438 0
-2631 -2597 0
2632 -169 -2613 0
-2632 169 0
-2632 2613 0
2633 2601 2602 0
-2633 -2601 0
-2633 -2602 0
2634 2603 2604 0
-2634 -2603 0
-2634 -2604 0
2635 1883 -2617 0
-2635 -1883 0
-2635 2617 0
2636 -1111 -2618 0
-2636 1111 0
-2636 2618 0
2637 2607 -2553 0
-2637 -2607 0
-2637 2553 0
2638 164 -2622 0
-2638 -164 0
-2638 2622 0
2639 134 -2623 0
-2639 -134 0
-2639 2623 0
2640 169 -2626 0
-2640 -169 0
-2640 2626 0
2641 2609 -2621 0
-2641 -2609 0
-2641 2621 0
2642 -189 -2627 0
-2642 189 0
-2642 2627 0
2643 -2627 -164 0
-2643 2627 0
-2643 164 0
2644 -134 -2627 0
-2644 134 0
-2644 2627 0
2645 -2627 -104 0
-2645 2627 0
-2645 104 0
2646 -218 -2627 0
-2646 218 0
-2646 2627 0
2647 -129 2610 0
-2647 129 0
-2647 -2610 0
2648 -100 2611 0
-2648 100 0
-2648 -2611 0
2649 -73 2612 0
-2649 73 0
-2649 -2612 0
2650 -55 -2631 0
-2650 55 0
-2650 2631 0
2651 169 2613 0
-2651 -169 0
-2651 -2613 0
2652 2614 2445 0
-2652 -2614 0
-2652 -2445 0
2653 2502 2615 0
-2653 -2502 0
-2653 -2615 0
2654 2574 2615 0
-2654 -2574 0
-2654 -2615 0
2655 -2600 2615 0
-2655 2600 0
-2655 -2615 0
2656 2508 2616 0
-2656 -2508 0
-2656 -2616 0
2657 2576 2616 0
-2657 -2576 0
-2657 -2616 0
2658 -2605 2616 0
-2658 2605 0
-2658 -2616 0
2659 -1883 2617 0
-2659 1883 0
-2659 -2617 0
2660 1111 2618 0
-2660 -1111 0
-2660 -2618 0
2661 2608 2620 0
-2661 -2608 0
-2661 -2620 0
2662 -2609 2621 0
-2662 2609 0
-2662 -2621 0
2663 55 2624 0
-2663 -55 0
-2663 -2624 0
2664 2516 2318 2385 2642 0
-2664 -2516 0
-2664 -2318 0
-2664 -2385 0
-2664 -2642 0
2665 2519 2319 2387 2643 0
-2665 -2519 0
-2665 -2319 0
-2665 -2387 0
-2665 -2643 0
2666 2523 2323 2391 2644 0
-2666 -2523 0
-2666 -2323 0
-2666 -2391 0
-2666 -2644 0
2667 2525 2328 2395 2645 0
-2667 -2525 0
-2667 -2328 0
-2667 -2395 0
-2667 -2645 0
2668 2528 2330 2397 2646 0
-2668 -2528 0
-2668 -2330 0
-2668 -2397 0
-2668 -2646 0
2669 2575 2633 0
-2669 -2575 0
-2669 -2633 0
2670 2634 2504 0
-2670 -2634 0
-2670 -2504 0
2671 -2652 2474 0
-2671 2652 0
-2671 -2474 0
2672 2511 2637 0
-2672 -2511 0
-2672 -2637 0
2673 2637 2619 0
-2673 -2637 0
-2673 -2619 0
2674 -2661 -2555 0
-2674 2661 0
-2674 2555 0
2675 2625 2640 0
-2675 -2625 0
-2675 -2640 0
2676 2579 2641 0
-2676 -2579 0
-2676 -2641 0
2677 -129 -2664 0
-2677 129 0
-2677 2664 0
2678 -73 -2666 0
-2678 73 0
-2678 2666 0
2679 -2668 2308 0
-2679 2668 0
-2679 -2308 0
2680 -2668 -2349 0
-2680 2668 0
-2680 2349 0
2681 2647 2628 0
-2681 -2647 0
-2681 -2628 0
2682 2648 2629 0
-2682 -2648 0
-2682 -2629 0
2683 2649 2630 0
-2683 -2649 0
-2683 -2630 0
2684 -2281 2651 0
-2684 2281 0
-2684 -2651 0
2685 2651 2632 0
-2685 -2651 0
-2685 -2632 0
2686 2538 -2670 0
-2686 -2538 0
-2686 2670 0
2687 2469 2650 2598 2671 0
-2687 -2469 0
-2687 -2650 0
-2687 -2598 0
-2687 -2671 0
2688 2652 -2474 0
-2688 -2652 0
-2688 2474 0
2689 2654 2655 0
-2689 -2654 0
-2689 -2655 0
2690 2657 2658 0
-2690 -2657 0
-2690 -2658 0
2691 2659 2635 0
-2691 -2659 0
-2691 -2635 0
2692 2660 2636 0
-2692 -2660 0
-2692 -2636 0
2693 -2673 -153 0
-2693 2673 0
-2693 153 0
2694 -2673 -154 0
-2694 2673 0
-2694 154 0
2695 -143 -2673 0
-2695 143 0
-2695 2673 0
2696 -124 -2673 0
-2696 124 0
-2696 2673 0
2697 -123 -2673 0
-2697 123 0
-2697 2673 0
2698 -2673 -105 0
-2698 2673 0
-2698 105 0
2699 -2673 -56 0
-2699 2673 0
-2699 56 0
2700 -2673 -94 0
-2700 2673 0
-2700 94 0
2701 -2673 -172 0
-2701 2673 0
-2701 172 0
2702 -2673 -180 0
-2702 2673 0
-2702 180 0
2703 -2673 -181 0
-2703 2673 0
-2703 181 0
2704 -2673 -195 0
-2704 2673 0
-2704 195 0
2705 -2673 -206 0
-2705 2673 0
-2705 206 0
2706 -2673 -202 0
-2706 2673 0
-2706 202 0
2707 -2673 -229 0
-2707 2673 0
-2707 229 0
2708 -2673 -187 0
-2708 2673 0
-2708 187 0
2709 -2673 2661 0
-2709 2673 0
-2709 -2661 0
2710 2661 2555 0
-2710 -2661 0
-2710 -2555 0
2711 2661 -154 0
-2711 -2661 0
-2711 154 0
2712 2661 -153 0
-2712 -2661 0
-2712 153 0
2713 2661 -172 0
-2713 -2661 0
-2713 172 0
2714 -143 2661 0
-2714 143 0
-2714 -2661 0
2715 -124 2661 0
-2715 124 0
-2715 -2661 0
2716 -123 2661 0
-2716 123 0
-2716 -2661 0
2717 2661 -105 0
-2717 -2661 0
-2717 105 0
2718 2661 -56 0
-2718 -2661 0
-2718 56 0
2719 2661 -94 0
-2719 -2661 0
-2719 94 0
2720 2661 -180 0
-2720 -2661 0
-2720 180 0
2721 2661 -181 0
-2721 -2661 0
-2721 181 0
2722 2661 -195 0
-2722 -2661 0
-2722 195 0
2723 2661 -206 0
-2723 -2661 0
-2723 206 0
2724 2661 -202 0
-2724 -2661 0
-2724 202 0
2725 2661 -229 0
-2725 -2661 0
-2725 229 0
2726 2661 -187 0
-2726 -2661 0
-2726 187 0
2727 2641 2662 0
-2727 -2641 0
-2727 -2662 0
2728 129 2664 0
-2728 -129 0
-2728 -2664 0
2729 100 2665 0
-2729 -100 0
-2729 -2665 0
2730 73 2666 0
-2730 -73 0
-2730 -2666 0
2731 55 2667 0
-2731 -55 0
-2731 -2667 0
2732 2668 -2308 0
-2732 -2668 0
-2732 2308 0
2733 -2489 -2681 0
-2733 2489 0
-2733 2681 0
2734 -2472 -2682 0
-2734 2472 0
-2734 2682 0
2735 -2490 -2683 0
-2735 2490 0
-2735 2683 0
2736 2506 2669 0
-2736 -2506 0
-2736 -2669 0
2737 2575 2669 0
-2737 -2575 0
-2737 -2669 0
2738 2633 2669 0
-2738 -2633 0
-2738 -2669 0
2739 -1462 -2691 0
-2739 1462 0
-2739 2691 0
2740 2578 2672 0
-2740 -2578 0
-2740 -2672 0
2741 2673 -2661 0
-2741 -2673 0
-2741 2661 0
2742 -189 -2727 0
-2742 189 0
-2742 2727 0
2743 -2727 -104 0
-2743 2727 0
-2743 104 0
2744 -2727 -114 0
-2744 2727 0
-2744 114 0
2745 -218 -2727 0
-2745 218 0
-2745 2727 0
2746 2489 2681 0
-2746 -2489 0
-2746 -2681 0
2747 2472 2682 0
-2747 -2472 0
-2747 -2682 0
2748 2490 2683 0
-2748 -2490 0
-2748 -2683 0
2749 -2281 2684 0
-2749 2281 0
-2749 -2684 0
2750 2684 -2685 0
-2750 -2684 0
-2750 2685 0
2751 2634 2686 0
-2751 -2634 0
-2751 -2686 0
2752 2504 2686 0
-2752 -2504 0
-2752 -2686 0
2753 2687 2688 0
-2753 -2687 0
-2753 -2688 0
2754 1462 2691 0
-2754 -1462 0
-2754 -2691 0
2755 2567 -2740 0
-2755 -2567 0
-2755 2740 0
2756 55 2708 0
-2756 -55 0
-2756 -2708 0
2757 -2673 2708 0
-2757 2673 0
-2757 -2708 0
2758 2710 2674 0
-2758 -2710 0
-2758 -2674 0
2759 2580 2711 0
-2759 -2580 0
-2759 -2711 0
2760 2713 2694 0
-2760 -2713 0
-2760 -2694 0
2761 2714 2696 0
-2761 -2714 0
-2761 -2696 0
2762 2584 2715 0
-2762 -2584 0
-2762 -2715 0
2763 2717 2699 0
-2763 -2717 0
-2763 -2699 0
2764 2587 2718 0
-2764 -2587 0
-2764 -2718 0
2765 2591 2721 0
-2765 -2591 0
-2765 -2721 0
2766 2722 2703 0
-2766 -2722 0
-2766 -2703 0
2767 55 2726 0
-2767 -55 0
-2767 -2726 0
2768 2661 2726 0
-2768 -2661 0
-2768 -2726 0
2769 -2622 2727 0
-2769 2622 0
-2769 -2727 0
2770 2727 -2623 0
-2770 -2727 0
-2770 2623 0
2771 2583 2389 2520 2742 0
-2771 -2583 0
-2771 -2389 0
-2771 -2520 0
-2771 -2742 0
2772 2592 2398 2529 2745 0
-2772 -2592 0
-2772 -2398 0
-2772 -2529 0
-2772 -2745 0
2773 2728 2677 0
-2773 -2728 0
-2773 -2677 0
2774 2665 2729 0
-2774 -2665 0
-2774 -2729 0
2775 100 2729 0
-2775 -100 0
-2775 -2729 0
2776 2730 2678 0
-2776 -2730 0
-2776 -2678 0
2777 2667 2731 0
-2777 -2667 0
-2777 -2731 0
2778 55 2731 0
-2778 -55 0
-2778 -2731 0
2779 2732 2679 0
-2779 -2732 0
-2779 -2679 0
2780 2737 2738 0
-2780 -2737 0
-2780 -2738 0
2781 2538 -2752 0
-2781 -2538 0
-2781 2752 0
2782 2709 2741 0
-2782 -2709 0
-2782 -2741 0
2783 169 -2757 0
-2783 -169 0
-2783 2757 0
2784 2676 -2758 0
-2784 -2676 0
-2784 2758 0
2785 2693 -2759 0
-2785 -2693 0
-2785 2759 0
2786 2697 -2762 0
-2786 -2697 0
-2786 2762 0
2787 2700 -2764 0
-2787 -2700 0
-2787 2764 0
2788 2702 -2765 0
-2788 -2702 0
-2788 2765 0
2789 169 -2768 0
-2789 -169 0
-2789 2768 0
2790 -129 -2771 0
-2790 129 0
-2790 2771 0
2791 -2624 2743 0
-2791 2624 0
-2791 -2743 0
2792 -2772 2355 0
-2792 2772 0
-2792 -2355 0
2793 169 -2772 0
-2793 -169 0
-2793 2772 0
2794 -2773 -2545 0
-2794 2773 0
-2794 2545 0
2795 -2776 -2548 0
-2795 2776 0
-2795 2548 0
2796 2733 2746 0
-2796 -2733 0
-2796 -2746 0
2797 2734 2747 0
-2797 -2734 0
-2797 -2747 0
2798 2735 2748 0
-2798 -2735 0
-2798 -2748 0
2799 2749 2750 0
-2799 -2749 0
-2799 -2750 0
2800 2739 2754 0
-2800 -2739 0
-2800 -2754 0
2801 2578 2755 0
-2801 -2578 0
-2801 -2755 0
2802 2672 2755 0
-2802 -2672 0
-2802 -2755 0
2803 -2676 2758 0
-2803 2676 0
-2803 -2758 0
2804 -2785 164 0
-2804 2785 0
-2804 -164 0
2805 134 -2786 0
-2805 -134 0
-2805 2786 0
2806 189 -2788 0
-2806 -189 0
-2806 2788 0
2807 2769 2638 0
-2807 -2769 0
-2807 -2638 0
2808 2639 2770 0
-2808 -2639 0
-2808 -2770 0
2809 129 2771 0
-2809 -129 0
-2809 -2771 0
2810 -55 -2791 0
-2810 55 0
-2810 2791 0
2811 2772 -2355 0
-2811 -2772 0
-2811 2355 0
2812 -2305 -2793 0
-2812 2305 0
-2812 2793 0
2813 2773 2545 0
-2813 -2773 0
-2813 -2545 0
2814 2774 2775 0
-2814 -2774 0
-2814 -2775 0
2815 2776 2548 0
-2815 -2776 0
-2815 -2548 0
2816 2777 2778 0
-2816 -2777 0
-2816 -2778 0
2817 2653 -2796 0
-2817 -2653 0
-2817 2796 0
2818 2736 -2797 0
-2818 -2736 0
-2818 2797 0
2819 2656 -2798 0
-2819 -2656 0
-2819 2798 0
2820 2751 2781 0
-2820 -2751 0
-2820 -2781 0
2821 -1204 -2800 0
-2821 1204 0
-2821 2800 0
2822 -2801 2692 0
-2822 2801 0
-2822 -2692 0
2823 2567 -2801 0
-2823 -2567 0
-2823 2801 0
2824 2756 2783 0
-2824 -2756 0
-2824 -2783 0
2825 2710 2784 0
-2825 -2710 0
-2825 -2784 0
2826 55 2787 0
-2826 -55 0
-2826 -2787 0
2827 2767 2789 0
-2827 -2767 0
-2827 -2789 0
2828 100 -2807 0
-2828 -100 0
-2828 2807 0
2829 73 -2808 0
-2829 -73 0
-2829 2808 0
2830 -2753 -2816 0
-2830 2753 0
-2830 2816 0
2831 -2653 2796 0
-2831 2653 0
-2831 -2796 0
2832 -2736 2797 0
-2832 2736 0
-2832 -2797 0
2833 -2656 2798 0
-2833 2656 0
-2833 -2798 0
2834 2752 2799 0
-2834 -2752 0
-2834 -2799 0
2835 1204 2800 0
-2835 -1204 0
-2835 -2800 0
2836 2801 -2692 0
-2836 -2801 0
-2836 2692 0
2837 -2825 2782 0
-2837 2825 0
-2837 -2782 0
2838 2784 2803 0
-2838 -2784 0
-2838 -2803 0
2839 -100 2807 0
-2839 100 0
-2839 -2807 0
2840 -73 2808 0
-2840 73 0
-2840 -2808 0
2841 2809 2790 0
-2841 -2809 0
-2841 -2790 0
2842 2811 2792 0
-2842 -2811 0
-2842 -2792 0
2843 2794 2813 0
-2843 -2794 0
-2843 -2813 0
2844 2814 -2544 0
-2844 -2814 0
-2844 2544 0
2845 2795 2815 0
-2845 -2795 0
-2845 -2815 0
2846 2753 2816 0
-2846 -2753 0
-2846 -2816 0
2847 2733 2817 0
-2847 -2733 0
-2847 -2817 0
2848 2734 2818 0
-2848 -2734 0
-2848 -2818 0
2849 2735 2819 0
-2849 -2735 0
-2849 -2819 0
2850 2802 2823 0
-2850 -2802 0
-2850 -2823 0
2851 2825 -2782 0
-2851 -2825 0
-2851 2782 0
2852 -164 -2838 0
-2852 164 0
-2852 2838 0
2853 -134 -2838 0
-2853 134 0
-2853 2838 0
2854 -2838 -104 0
-2854 2838 0
-2854 104 0
2855 -189 -2838 0
-2855 189 0
-2855 2838 0
2856 -218 -2838 0
-2856 218 0
-2856 2838 0
2857 -2841 2820 0
-2857 2841 0
-2857 -2820 0
2858 2488 2830 0
-2858 -2488 0
-2858 -2830 0
2859 2817 2831 0
-2859 -2817 0
-2859 -2831 0
2860 2818 2832 0
-2860 -2818 0
-2860 -2832 0
2861 2752 2834 0
-2861 -2752 0
-2861 -2834 0
2862 2799 2834 0
-2862 -2799 0
-2862 -2834 0
2863 2684 2834 0
-2863 -2684 0
-2863 -2834 0
2864 2660 2836 0
-2864 -2660 0
-2864 -2836 0
2865 2836 2822 0
-2865 -2836 0
-2865 -2822 0
2866 -2850 2673 0
-2866 2850 0
-2866 -2673 0
2867 2712 2517 2581 2852 0
-2867 -2712 0
-2867 -2517 0
-2867 -2581 0
-2867 -2852 0
2868 2716 2521 2585 2853 0
-2868 -2716 0
-2868 -2521 0
-2868 -2585 0
-2868 -2853 0
2869 2719 2526 2589 2854 0
-2869 -2719 0
-2869 -2526 0
-2869 -2589 0
-2869 -2854 0
2870 2720 2527 2590 2855 0
-2870 -2720 0
-2870 -2527 0
-2870 -2590 0
-2870 -2855 0
2871 2723 2530 2593 2856 0
-2871 -2723 0
-2871 -2530 0
-2871 -2593 0
-2871 -2856 0
2872 2839 2828 0
-2872 -2839 0
-2872 -2828 0
2873 2840 2829 0
-2873 -2840 0
-2873 -2829 0
2874 -2847 2843 0
-2874 2847 0
-2874 -2843 0
2875 2814 2844 0
-2875 -2814 0
-2875 -2844 0
2876 -2544 2844 0
-2876 2544 0
-2876 -2844 0
2877 -2849 2845 0
-2877 2849 0
-2877 -2845 0
2878 2509 -2858 0
-2878 -2509 0
-2878 2858 0
2879 2847 -2843 0
-2879 -2847 0
-2879 2843 0
2880 2849 -2845 0
-2880 -2849 0
-2880 2845 0
2881 -2863 2779 0
-2881 2863 0
-2881 -2779 0
2882 -143 -2865 0
-2882 143 0
-2882 2865 0
2883 -2865 -124 0
-2883 2865 0
-2883 124 0
2884 -123 -2865 0
-2884 123 0
-2884 2865 0
2885 -2865 -94 0
-2885 2865 0
-2885 94 0
2886 -2865 -56 0
-2886 2865 0
-2886 56 0
2887 -2865 -105 0
-2887 2865 0
-2887 105 0
2888 -2865 -153 0
-2888 2865 0
-2888 153 0
2889 -2865 -154 0
-2889 2865 0
-2889 154 0
2890 -2865 -172 0
-2890 2865 0
-2890 172 0
2891 -2865 -180 0
-2891 2865 0
-2891 180 0
2892 -2865 -181 0
-2892 2865 0
-2892 181 0
2893 -2865 -195 0
-2893 2865 0
-2893 195 0
2894 -2865 -206 0
-2894 2865 0
-2894 206 0
2895 -2865 -202 0
-2895 2865 0
-2895 202 0
2896 -2865 -229 0
-2896 2865 0
-2896 229 0
2897 169 -2865 0
-2897 -169 0
-2897 2865 0
2898 -2865 2850 0
-2898 2865 0
-2898 -2850 0
2899 2850 -2673 0
-2899 -2850 0
-2899 2673 0
2900 2850 -153 0
-2900 -2850 0
-2900 153 0
2901 -143 2850 0
-2901 143 0
-2901 -2850 0
2902 -124 2850 0
-2902 124 0
-2902 -2850 0
2903 -123 2850 0
-2903 123 0
-2903 -2850 0
2904 2850 -56 0
-2904 -2850 0
-2904 56 0
2905 2850 -94 0
-2905 -2850 0
-2905 94 0
2906 2850 -105 0
-2906 -2850 0
-2906 105 0
2907 2850 -154 0
-2907 -2850 0
-2907 154 0
2908 2850 -172 0
-2908 -2850 0
-2908 172 0
2909 2850 -180 0
-2909 -2850 0
-2909 180 0
2910 2850 -181 0
-2910 -2850 0
-2910 181 0
2911 2850 -195 0
-2911 -2850 0
-2911 195 0
2912 2850 -206 0
-2912 -2850 0
-2912 206 0
2913 2850 -202 0
-2913 -2850 0
-2913 202 0
2914 2850 -229 0
-2914 -2850 0
-2914 229 0
2915 169 2850 0
-2915 -169 0
-2915 -2850 0
2916 2709 2851 0
-2916 -2709 0
-2916 -2851 0
2917 2851 2837 0
-2917 -2851 0
-2917 -2837 0
2918 -73 -2868 0
-2918 73 0
-2918 2868 0
2919 -129 -2870 0
-2919 129 0
-2919 2870 0
2920 -2871 2410 0
-2920 2871 0
-2920 -2410 0
2921 169 -2871 0
-2921 -169 0
-2921 2871 0
2922 2689 -2872 0
-2922 -2689 0
-2922 2872 0
2923 2780 -2873 0
-2923 -2780 0
-2923 2873 0
2924 -2841 2857 0
-2924 2841 0
-2924 -2857 0
2925 2820 2857 0
-2925 -2820 0
-2925 -2857 0
2926 2861 2862 0
-2926 -2861 0
-2926 -2862 0
2927 2863 -2779 0
-2927 -2863 0
-2927 2779 0
2928 2835 2864 0
-2928 -2835 0
-2928 -2864 0
2929 2865 -2850 0
-2929 -2865 0
-2929 2850 0
2930 -2915 -113 0
-2930 2915 0
-2930 113 0
2931 -2917 -104 0
-2931 2917 0
-2931 104 0
2932 -2917 -114 0
-2932 2917 0
-2932 114 0
2933 -218 -2917 0
-2933 218 0
-2933 2917 0
2934 100 2867 0
-2934 -100 0
-2934 -2867 0
2935 73 2868 0
-2935 -73 0
-2935 -2868 0
2936 55 2869 0
-2936 -55 0
-2936 -2869 0
2937 129 2870 0
-2937 -129 0
-2937 -2870 0
2938 2871 -2410 0
-2938 -2871 0
-2938 2410 0
2939 -2372 -2921 0
-2939 2372 0
-2939 2921 0
2940 2875 2876 0
-2940 -2875 0
-2940 -2876 0
2941 2878 2846 0
-2941 -2878 0
-2941 -2846 0
2942 2874 2879 0
-2942 -2874 0
-2942 -2879 0
2943 2794 2879 0
-2943 -2794 0
-2943 -2879 0
2944 2795 2880 0
-2944 -2795 0
-2944 -2880 0
2945 2880 2877 0
-2945 -2880 0
-2945 -2877 0
2946 2821 -2928 0
-2946 -2821 0
-2946 2928 0
2947 2899 2866 0
-2947 -2899 0
-2947 -2866 0
2948 2900 -2760 0
-2948 -2900 0
-2948 2760 0
2949 2695 2902 0
-2949 -2695 0
-2949 -2902 0
2950 2903 -2761 0
-2950 -2903 0
-2950 2761 0
2951 2698 2904 0
-2951 -2698 0
-2951 -2904 0
2952 2905 -2763 0
-2952 -2905 0
-2952 2763 0
2953 2701 2907 0
-2953 -2701 0
-2953 -2907 0
2954 2909 -2766 0
-2954 -2909 0
-2954 2766 0
2955 2704 2910 0
-2955 -2704 0
-2955 -2910 0
2956 2911 2892 0
-2956 -2911 0
-2956 -2892 0
2957 2707 2913 0
-2957 -2707 0
-2957 -2913 0
2958 2914 2895 0
-2958 -2914 0
-2958 -2895 0
2959 2915 113 0
-2959 -2915 0
-2959 -113 0
2960 -2785 2917 0
-2960 2785 0
-2960 -2917 0
2961 2917 -2786 0
-2961 -2917 0
-2961 2786 0
2962 2917 -2788 0
-2962 -2917 0
-2962 2788 0
2963 2705 2594 2724 2933 0
-2963 -2705 0
-2963 -2594 0
-2963 -2724 0
-2963 -2933 0
2964 2689 2922 0
-2964 -2689 0
-2964 -2922 0
2965 -2872 2922 0
-2965 2872 0
-2965 -2922 0
2966 2780 2923 0
-2966 -2780 0
-2966 -2923 0
2967 -2873 2923 0
-2967 2873 0
-2967 -2923 0
2968 2924 2925 0
-2968 -2924 0
-2968 -2925 0
2969 2848 -2940 0
-2969 -2848 0
-2969 2940 0
2970 -2941 -2690 0
-2970 2941 0
-2970 2690 0
2971 2927 2881 0
-2971 -2927 0
-2971 -2881 0
2972 2927 2680 0
-2972 -2927 0
-2972 -2680 0
2973 2898 2929 0
-2973 -2898 0
-2973 -2929 0
2974 2916 -2947 0
-2974 -2916 0
-2974 2947 0
2975 164 -2948 0
-2975 -164 0
-2975 2948 0
2976 2884 -2949 0
-2976 -2884 0
-2976 2949 0
2977 134 -2950 0
-2977 -134 0
-2977 2950 0
2978 2885 -2951 0
-2978 -2885 0
-2978 2951 0
2979 2888 -2953 0
-2979 -2888 0
-2979 2953 0
2980 189 -2954 0
-2980 -189 0
-2980 2954 0
2981 2891 -2955 0
-2981 -2891 0
-2981 2955 0
2982 2894 -2957 0
-2982 -2894 0
-2982 2957 0
2983 82 2930 0
-2983 -82 0
-2983 -2930 0
2984 -2787 2931 0
-2984 2787 0
-2984 -2931 0
2985 -2963 2494 0
-2985 2963 0
-2985 -2494 0
2986 -2963 -2531 0
-2986 2963 0
-2986 2531 0
2987 2867 2934 0
-2987 -2867 0
-2987 -2934 0
2988 100 2934 0
-2988 -100 0
-2988 -2934 0
2989 2935 2918 0
-2989 -2935 0
-2989 -2918 0
2990 2869 2936 0
-2990 -2869 0
-2990 -2936 0
2991 55 2936 0
-2991 -55 0
-2991 -2936 0
2992 2937 2919 0
-2992 -2937 0
-2992 -2919 0
2993 2938 2920 0
-2993 -2938 0
-2993 -2920 0
2994 -2968 -2943 0
-2994 2968 0
-2994 2943 0
2995 2848 2940 0
-2995 -2848 0
-2995 -2940 0
2996 -2848 2940 0
-2996 2848 0
-2996 -2940 0
2997 2663 2810 2744 2970 0
-2997 -2663 0
-2997 -2810 0
-2997 -2744 0
-2997 -2970 0
2998 2941 2690 0
-2998 -2941 0
-2998 -2690 0
2999 2835 2946 0
-2999 -2835 0
-2999 -2946 0
3000 2864 2946 0
-3000 -2864 0
-3000 -2946 0
3001 -2916 2947 0
-3001 2916 0
-3001 -2947 0
3002 134 -2976 0
-3002 -134 0
-3002 2976 0
3003 55 2952 0
-3003 -55 0
-3003 -2952 0
3004 164 -2979 0
-3004 -164 0
-3004 2979 0
3005 189 -2981 0
-3005 -189 0
-3005 2981 0
3006 218 -2982 0
-3006 -218 0
-3006 2982 0
3007 2930 2959 0
-3007 -2930 0
-3007 -2959 0
3008 2960 2804 0
-3008 -2960 0
-3008 -2804 0
3009 2805 2961 0
-3009 -2805 0
-3009 -2961 0
3010 2806 2962 0
-3010 -2806 0
-3010 -2962 0
3011 -55 -2984 0
-3011 55 0
-3011 2984 0
3012 2963 -2494 0
-3012 -2963 0
-3012 2494 0
3013 -2989 -2860 0
-3013 2989 0
-3013 2860 0
3014 -2992 2926 0
-3014 2992 0
-3014 -2926 0
3015 2964 2965 0
-3015 -2964 0
-3015 -2965 0
3016 2966 2967 0
-3016 -2966 0
-3016 -2967 0
3017 2968 2943 0
-3017 -2968 0
-3017 -2943 0
3018 2972 -2842 0
-3018 -2972 0
-3018 2842 0
3019 -2999 -1070 0
-3019 2999 0
-3019 1070 0
3020 2821 -2999 0
-3020 -2821 0
-3020 2999 0
3021 2899 2974 0
-3021 -2899 0
-3021 -2974 0
3022 55 2978 0
-3022 -55 0
-3022 -2978 0
3023 2897 2983 0
-3023 -2897 0
-3023 -2983 0
3024 100 -3008 0
-3024 -100 0
-3024 3008 0
3025 73 -3009 0
-3025 -73 0
-3025 3009 0
3026 129 -3010 0
-3026 -129 0
-3026 3010 0
3027 2987 2988 0
-3027 -2987 0
-3027 -2988 0
3028 2989 2860 0
-3028 -2989 0
-3028 -2860 0
3029 2990 2991 0
-3029 -2990 0
-3029 -2991 0
3030 2844 2995 0
-3030 -2844 0
-3030 -2995 0
3031 2969 2996 0
-3031 -2969 0
-3031 -2996 0
3032 2997 2998 0
-3032 -2997 0
-3032 -2998 0
3033 -3019 -1122 0
-3033 3019 0
-3033 1122 0
3034 -3019 1122 0
-3034 3019 0
-3034 -1122 0
3035 2999 1070 0
-3035 -2999 0
-3035 -1070 0
3036 -3021 2973 0
-3036 3021 0
-3036 -2973 0
3037 2974 3001 0
-3037 -2974 0
-3037 -3001 0
3038 -100 3008 0
-3038 100 0
-3038 -3008 0
3039 -73 3009 0
-3039 73 0
-3039 -3009 0
3040 -129 3010 0
-3040 129 0
-3040 -3010 0
3041 3012 2985 0
-3041 -3012 0
-3041 -2985 0
3042 -2992 3014 0
-3042 2992 0
-3042 -3014 0
3043 2926 3014 0
-3043 -2926 0
-3043 -3014 0
3044 2944 3016 0
-3044 -2944 0
-3044 -3016 0
3045 2994 3017 0
-3045 -2994 0
-3045 -3017 0
3046 2857 3017 0
-3046 -2857 0
-3046 -3017 0
3047 -3032 -3029 0
-3047 3032 0
-3047 3029 0
3048 2972 3018 0
-3048 -2972 0
-3048 -3018 0
3049 -2842 3018 0
-3049 2842 0
-3049 -3018 0
3050 3018 2812 0
-3050 -3018 0
-3050 -2812 0
3051 3019 -1122 0
-3051 -3019 0
-3051 1122 0
3052 -1155 -3033 0
-3052 1155 0
-3052 3033 0
3053 3000 3020 0
-3053 -3000 0
-3053 -3020 0
3054 3021 -2973 0
-3054 -3021 0
-3054 2973 0
3055 -3037 -104 0
-3055 3037 0
-3055 104 0
3056 -3037 -114 0
-3056 3037 0
-3056 114 0
3057 -218 -3037 0
-3057 218 0
-3057 3037 0
3058 2897 3023 0
-3058 -2897 0
-3058 -3023 0
3059 2983 3023 0
-3059 -2983 0
-3059 -3023 0
3060 3027 -2859 0
-3060 -3027 0
-3060 2859 0
3061 3013 3028 0
-3061 -3013 0
-3061 -3028 0
3062 3030 3015 0
-3062 -3030 0
-3062 -3015 0
3063 3032 3029 0
-3063 -3032 0
-3063 -3029 0
3064 -3052 1091 0
-3064 3052 0
-3064 -1091 0
3065 -3052 -1091 0
-3065 3052 0
-3065 1091 0
3066 1155 3033 0
-3066 -1155 0
-3066 -3033 0
3067 3019 3035 0
-3067 -3019 0
-3067 -3035 0
3068 2865 -3053 0
-3068 -2865 0
-3068 3053 0
3069 3037 -2948 0
-3069 -3037 0
-3069 2948 0
3070 3037 -2950 0
-3070 -3037 0
-3070 2950 0
3071 3037 -2954 0
-3071 -3037 0
-3071 2954 0
3072 2912 2725 2706 3057 0
-3072 -2912 0
-3072 -2725 0
-3072 -2706 0
-3072 -3057 0
3073 3038 3024 0
-3073 -3038 0
-3073 -3024 0
3074 3039 3025 0
-3074 -3039 0
-3074 -3025 0
3075 3040 3026 0
-3075 -3040 0
-3075 -3026 0
3076 3042 3043 0
-3076 -3042 0
-3076 -3043 0
3077 2923 3044 0
-3077 -2923 0
-3077 -3044 0
3078 2944 3044 0
-3078 -2944 0
-3078 -3044 0
3079 3016 3044 0
-3079 -3016 0
-3079 -3044 0
3080 2819 3047 0
-3080 -2819 0
-3080 -3047 0
3081 3048 3049 0
-3081 -3048 0
-3081 -3049 0
3082 3050 -2993 0
-3082 -3050 0
-3082 2993 0
3083 3051 3034 0
-3083 -3051 0
-3083 -3034 0
3084 3052 -1091 0
-3084 -3052 0
-3084 1091 0
3085 -1101 -3065 0
-3085 1101 0
-3085 3065 0
3086 -3067 -3053 0
-3086 3067 0
-3086 3053 0
3087 3053 -124 0
-3087 -3053 0
-3087 124 0
3088 -2865 3053 0
-3088 2865 0
-3088 -3053 0
3089 -123 3053 0
-3089 123 0
-3089 -3053 0
3090 3053 -105 0
-3090 -3053 0
-3090 105 0
3091 3053 -94 0
-3091 -3053 0
-3091 94 0
3092 3053 -56 0
-3092 -3053 0
-3092 56 0
3093 -143 3053 0
-3093 143 0
-3093 -3053 0
3094 3053 -153 0
-3094 -3053 0
-3094 153 0
3095 3053 -154 0
-3095 -3053 0
-3095 154 0
3096 3053 -172 0
-3096 -3053 0
-3096 172 0
3097 3053 -180 0
-3097 -3053 0
-3097 180 0
3098 3053 -181 0
-3098 -3053 0
-3098 181 0
3099 3053 -195 0
-3099 -3053 0
-3099 195 0
3100 3053 -206 0
-3100 -3053 0
-3100 206 0
3101 3053 -202 0
-3101 -3053 0
-3101 202 0
3102 3053 -229 0
-3102 -3053 0
-3102 229 0
3103 3053 2897 0
-3103 -3053 0
-3103 -2897 0
3104 2898 3054 0
-3104 -2898 0
-3104 -3054 0
3105 3054 3036 0
-3105 -3054 0
-3105 -3036 0
3106 -2952 3055 0
-3106 2952 0
-3106 -3055 0
3107 3058 3059 0
-3107 -3058 0
-3107 -3059 0
3108 -2942 -3073 0
-3108 2942 0
-3108 3073 0
3109 3031 -3074 0
-3109 -3031 0
-3109 3074 0
3110 -2971 -3075 0
-3110 2971 0
-3110 3075 0
3111 3027 3060 0
-3111 -3027 0
-3111 -3060 0
3112 -2859 3060 0
-3112 2859 0
-3112 -3060 0
3113 3046 -3076 0
-3113 -3046 0
-3113 3076 0
3114 -3077 3061 0
-3114 3077 0
-3114 -3061 0
3115 2922 3062 0
-3115 -2922 0
-3115 -3062 0
3116 3030 3062 0
-3116 -3030 0
-3116 -3062 0
3117 3015 3062 0
-3117 -3015 0
-3117 -3062 0
3118 2833 -3080 0
-3118 -2833 0
-3118 3080 0
3119 -105 -3083 0
-3119 105 0
-3119 3083 0
3120 -3083 -56 0
-3120 3083 0
-3120 56 0
3121 -94 -3083 0
-3121 94 0
-3121 3083 0
3122 -123 -3083 0
-3122 123 0
-3122 3083 0
3123 -124 -3083 0
-3123 124 0
-3123 3083 0
3124 -143 -3083 0
-3124 143 0
-3124 3083 0
3125 -153 -3083 0
-3125 153 0
-3125 3083 0
3126 -154 -3083 0
-3126 154 0
-3126 3083 0
3127 -172 -3083 0
-3127 172 0
-3127 3083 0
3128 -180 -3083 0
-3128 180 0
-3128 3083 0
3129 -181 -3083 0
-3129 181 0
-3129 3083 0
3130 -195 -3083 0
-3130 195 0
-3130 3083 0
3131 -206 -3083 0
-3131 206 0
-3131 3083 0
3132 -202 -3083 0
-3132 202 0
-3132 3083 0
3133 -229 -3083 0
-3133 229 0
-3133 3083 0
3134 169 -3083 0
-3134 -169 0
-3134 3083 0
3135 1101 3065 0
-3135 -1101 0
-3135 -3065 0
3136 -3085 1133 0
-3136 3085 0
-3136 -1133 0
3137 -3085 -1133 0
-3137 3085 0
-3137 1133 0
3138 3052 3066 0
-3138 -3052 0
-3138 -3066 0
3139 -123 3067 0
-3139 123 0
-3139 -3067 0
3140 3067 3053 0
-3140 -3067 0
-3140 -3053 0
3141 3067 -3083 0
-3141 -3067 0
-3141 3083 0
3142 3067 -105 0
-3142 -3067 0
-3142 105 0
3143 3067 -56 0
-3143 -3067 0
-3143 56 0
3144 3067 -94 0
-3144 -3067 0
-3144 94 0
3145 3067 -124 0
-3145 -3067 0
-3145 124 0
3146 3067 -143 0
-3146 -3067 0
-3146 143 0
3147 3067 -153 0
-3147 -3067 0
-3147 153 0
3148 3067 -154 0
-3148 -3067 0
-3148 154 0
3149 3067 -172 0
-3149 -3067 0
-3149 172 0
3150 3067 -180 0
-3150 -3067 0
-3150 180 0
3151 3067 -181 0
-3151 -3067 0
-3151 181 0
3152 3067 -195 0
-3152 -3067 0
-3152 195 0
3153 3067 -206 0
-3153 -3067 0
-3153 206 0
3154 3067 -202 0
-3154 -3067 0
-3154 202 0
3155 3067 -229 0
-3155 -3067 0
-3155 229 0
3156 169 3067 0
-3156 -169 0
-3156 -3067 0
3157 169 -3103 0
-3157 -169 0
-3157 3103 0
3158 -3105 -104 0
-3158 3105 0
-3158 104 0
3159 -3105 -114 0
-3159 3105 0
-3159 114 0
3160 3069 2975 0
-3160 -3069 0
-3160 -2975 0
3161 2977 3070 0
-3161 -2977 0
-3161 -3070 0
3162 2980 3071 0
-3162 -2980 0
-3162 -3071 0
3163 -55 -3106 0
-3163 55 0
-3163 3106 0
3164 169 3072 0
-3164 -169 0
-3164 -3072 0
3165 -3046 3076 0
-3165 3046 0
-3165 -3076 0
3166 3046 3076 0
-3166 -3046 0
-3166 -3076 0
3167 3077 -3061 0
-3167 -3077 0
-3167 3061 0
3168 3078 3079 0
-3168 -3078 0
-3168 -3079 0
3169 3050 3082 0
-3169 -3050 0
-3169 -3082 0
3170 -2993 3082 0
-3170 2993 0
-3170 -3082 0
3171 3082 2939 0
-3171 -3082 0
-3171 -2939 0
3172 -3067 3083 0
-3172 3067 0
-3172 -3083 0
3173 3084 3064 0
-3173 -3084 0
-3173 -3064 0
3174 3085 -1133 0
-3174 -3085 0
-3174 1133 0
3175 -3137 1102 0
-3175 3137 0
-3175 -1102 0
3176 3083 -3138 0
-3176 -3083 0
-3176 3138 0
3177 -100 -3156 0
-3177 100 0
-3177 3156 0
3178 3088 3068 0
-3178 -3088 0
-3178 -3068 0
3179 3097 -2956 0
-3179 -3097 0
-3179 2956 0
3180 3100 -2958 0
-3180 -3100 0
-3180 2958 0
3181 -2976 3105 0
-3181 2976 0
-3181 -3105 0
3182 3105 -2979 0
-3182 -3105 0
-3182 2979 0
3183 3105 -2981 0
-3183 -3105 0
-3183 2981 0
3184 3105 -2982 0
-3184 -3105 0
-3184 2982 0
3185 100 -3160 0
-3185 -100 0
-3185 3160 0
3186 73 -3161 0
-3186 -73 0
-3186 3161 0
3187 129 -3162 0
-3187 -129 0
-3187 3162 0
3188 -2942 3108 0
-3188 2942 0
-3188 -3108 0
3189 -3073 3108 0
-3189 3073 0
-3189 -3108 0
3190 3031 3109 0
-3190 -3031 0
-3190 -3109 0
3191 -3074 3109 0
-3191 3074 0
-3191 -3109 0
3192 -2971 3110 0
-3192 2971 0
-3192 -3110 0
3193 -3075 3110 0
-3193 3075 0
-3193 -3110 0
3194 3111 3112 0
-3194 -3111 0
-3194 -3112 0
3195 3116 3117 0
-3195 -3116 0
-3195 -3117 0
3196 3118 3063 0
-3196 -3118 0
-3196 -3063 0
3197 -94 -3173 0
-3197 94 0
-3197 3173 0
3198 -3173 -56 0
-3198 3173 0
-3198 56 0
3199 -3173 -105 0
-3199 3173 0
-3199 105 0
3200 -123 -3173 0
-3200 123 0
-3200 3173 0
3201 -124 -3173 0
-3201 124 0
-3201 3173 0
3202 -143 -3173 0
-3202 143 0
-3202 3173 0
3203 -153 -3173 0
-3203 153 0
-3203 3173 0
3204 -154 -3173 0
-3204 154 0
-3204 3173 0
3205 -172 -3173 0
-3205 172 0
-3205 3173 0
3206 -180 -3173 0
-3206 180 0
-3206 3173 0
3207 -181 -3173 0
-3207 181 0
-3207 3173 0
3208 -195 -3173 0
-3208 195 0
-3208 3173 0
3209 -206 -3173 0
-3209 206 0
-3209 3173 0
3210 -202 -3173 0
-3210 202 0
-3210 3173 0
3211 -229 -3173 0
-3211 229 0
-3211 3173 0
3212 169 -3173 0
-3212 -169 0
-3212 3173 0
3213 3135 3085 0
-3213 -3135 0
-3213 -3085 0
3214 3137 -1102 0
-3214 -3137 0
-3214 1102 0
3215 3138 -56 0
-3215 -3138 0
-3215 56 0
3216 -3083 3138 0
-3216 3083 0
-3216 -3138 0
3217 -3173 3138 0
-3217 3173 0
-3217 -3138 0
3218 -94 3138 0
-3218 94 0
-3218 -3138 0
3219 -105 3138 0
-3219 105 0
-3219 -3138 0
3220 -123 3138 0
-3220 123 0
-3220 -3138 0
3221 -124 3138 0
-3221 124 0
-3221 -3138 0
3222 -143 3138 0
-3222 143 0
-3222 -3138 0
3223 -153 3138 0
-3223 153 0
-3223 -3138 0
3224 -154 3138 0
-3224 154 0
-3224 -3138 0
3225 -172 3138 0
-3225 172 0
-3225 -3138 0
3226 -180 3138 0
-3226 180 0
-3226 -3138 0
3227 -181 3138 0
-3227 181 0
-3227 -3138 0
3228 -195 3138 0
-3228 195 0
-3228 -3138 0
3229 -206 3138 0
-3229 206 0
-3229 -3138 0
3230 -202 3138 0
-3230 202 0
-3230 -3138 0
3231 -229 3138 0
-3231 229 0
-3231 -3138 0
3232 169 3138 0
-3232 -169 0
-3232 -3138 0
3233 3140 3086 0
-3233 -3140 0
-3233 -3086 0
3234 3142 3120 0
-3234 -3142 0
-3234 -3120 0
3235 3146 3123 0
-3235 -3146 0
-3235 -3123 0
3236 3102 3154 0
-3236 -3102 0
-3236 -3154 0
3237 100 3156 0
-3237 -100 0
-3237 -3156 0
3238 3104 -3178 0
-3238 -3104 0
-3238 3178 0
3239 169 -3178 0
-3239 -169 0
-3239 3178 0
3240 189 -3179 0
-3240 -189 0
-3240 3179 0
3241 218 -3180 0
-3241 -218 0
-3241 3180 0
3242 -2978 3158 0
-3242 2978 0
-3242 -3158 0
3243 -100 3160 0
-3243 100 0
-3243 -3160 0
3244 -73 3161 0
-3244 73 0
-3244 -3161 0
3245 -129 3162 0
-3245 129 0
-3245 -3162 0
3246 3072 3164 0
-3246 -3072 0
-3246 -3164 0
3247 169 3164 0
-3247 -169 0
-3247 -3164 0
3248 3115 -3194 0
-3248 -3115 0
-3248 3194 0
3249 3113 3165 0
-3249 -3113 0
-3249 -3165 0
3250 3014 3166 0
-3250 -3014 0
-3250 -3166 0
3251 3013 3167 0
-3251 -3013 0
-3251 -3167 0
3252 3167 3114 0
-3252 -3167 0
-3252 -3114 0
3253 -3196 2945 0
-3253 3196 0
-3253 -2945 0
3254 3169 3170 0
-3254 -3169 0
-3254 -3170 0
3255 3171 -3041 0
-3255 -3171 0
-3255 3041 0
3256 3141 3172 0
-3256 -3141 0
-3256 -3172 0
3257 3173 -3138 0
-3257 -3173 0
-3257 3138 0
3258 3173 -3213 0
-3258 -3173 0
-3258 3213 0
3259 3174 3136 0
-3259 -3174 0
-3259 -3136 0
3260 3134 -3232 0
-3260 -3134 0
-3260 3232 0
3261 -129 -3232 0
-3261 129 0
-3261 3232 0
3262 3131 -3236 0
-3262 -3131 0
-3262 3236 0
3263 -2897 3177 0
-3263 2897 0
-3263 -3177 0
3264 -3104 3178 0
-3264 3104 0
-3264 -3178 0
3265 3002 3181 0
-3265 -3002 0
-3265 -3181 0
3266 3182 3004 0
-3266 -3182 0
-3266 -3004 0
3267 3005 3183 0
-3267 -3005 0
-3267 -3183 0
3268 3006 3184 0
-3268 -3006 0
-3268 -3184 0
3269 -55 -3242 0
-3269 55 0
-3269 3242 0
3270 3188 3189 0
-3270 -3188 0
-3270 -3189 0
3271 3190 3191 0
-3271 -3190 0
-3271 -3191 0
3272 3192 3193 0
-3272 -3192 0
-3272 -3193 0
3273 3115 3194 0
-3273 -3115 0
-3273 -3194 0
3274 -3115 3194 0
-3274 3115 0
-3274 -3194 0
3275 2826 3011 2932 3253 0
-3275 -2826 0
-3275 -3011 0
-3275 -2932 0
-3275 -3253 0
3276 3196 -2945 0
-3276 -3196 0
-3276 2945 0
3277 -94 3213 0
-3277 94 0
-3277 -3213 0
3278 -3173 3213 0
-3278 3173 0
-3278 -3213 0
3279 -56 3213 0
-3279 56 0
-3279 -3213 0
3280 -105 3213 0
-3280 105 0
-3280 -3213 0
3281 -123 3213 0
-3281 123 0
-3281 -3213 0
3282 -124 3213 0
-3282 124 0
-3282 -3213 0
3283 -143 3213 0
-3283 143 0
-3283 -3213 0
3284 -153 3213 0
-3284 153 0
-3284 -3213 0
3285 -154 3213 0
-3285 154 0
-3285 -3213 0
3286 -172 3213 0
-3286 172 0
-3286 -3213 0
3287 -180 3213 0
-3287 180 0
-3287 -3213 0
3288 -181 3213 0
-3288 181 0
-3288 -3213 0
3289 -195 3213 0
-3289 195 0
-3289 -3213 0
3290 -206 3213 0
-3290 206 0
-3290 -3213 0
3291 -202 3213 0
-3291 202 0
-3291 -3213 0
3292 -229 3213 0
-3292 229 0
-3292 -3213 0
3293 169 3213 0
-3293 -169 0
-3293 -3213 0
3294 -94 -3259 0
-3294 94 0
-3294 3259 0
3295 3213 -3259 0
-3295 -3213 0
-3295 3259 0
3296 -56 -3259 0
-3296 56 0
-3296 3259 0
3297 -105 -3259 0
-3297 105 0
-3297 3259 0
3298 -123 -3259 0
-3298 123 0
-3298 3259 0
3299 -124 -3259 0
-3299 124 0
-3299 3259 0
3300 -143 -3259 0
-3300 143 0
-3300 3259 0
3301 -153 -3259 0
-3301 153 0
-3301 3259 0
3302 -154 -3259 0
-3302 154 0
-3302 3259 0
3303 -172 -3259 0
-3303 172 0
-3303 3259 0
3304 -180 -3259 0
-3304 180 0
-3304 3259 0
3305 -181 -3259 0
-3305 181 0
-3305 3259 0
3306 -195 -3259 0
-3306 195 0
-3306 3259 0
3307 -206 -3259 0
-3307 206 0
-3307 3259 0
3308 -202 -3259 0
-3308 202 0
-3308 3259 0
3309 -229 -3259 0
-3309 229 0
-3309 3259 0
3310 3214 3175 0
-3310 -3214 0
-3310 -3175 0
3311 3119 3215 0
-3311 -3119 0
-3311 -3215 0
3312 3216 3176 0
-3312 -3216 0
-3312 -3176 0
3313 3218 -3234 0
-3313 -3218 0
-3313 3234 0
3314 3219 3198 0
-3314 -3219 0
-3314 -3198 0
3315 3220 -3235 0
-3315 -3220 0
-3315 3235 0
3316 3124 3221 0
-3316 -3124 0
-3316 -3221 0
3317 3222 3201 0
-3317 -3222 0
-3317 -3201 0
3318 3130 3227 0
-3318 -3130 0
-3318 -3227 0
3319 3231 3210 0
-3319 -3231 0
-3319 -3210 0
3320 -3134 3232 0
-3320 3134 0
-3320 -3232 0
3321 129 3232 0
-3321 -129 0
-3321 -3232 0
3322 218 -3262 0
-3322 -218 0
-3322 3262 0
3323 3237 -3263 0
-3323 -3237 0
-3323 3263 0
3324 3088 3238 0
-3324 -3088 0
-3324 -3238 0
3325 73 -3265 0
-3325 -73 0
-3325 3265 0
3326 100 -3266 0
-3326 -100 0
-3326 3266 0
3327 129 -3267 0
-3327 -129 0
-3327 3267 0
3328 169 -3268 0
-3328 -169 0
-3328 3268 0
3329 3243 3185 0
-3329 -3243 0
-3329 -3185 0
3330 3244 3186 0
-3330 -3244 0
-3330 -3186 0
3331 3245 3187 0
-3331 -3245 0
-3331 -3187 0
3332 3246 3247 0
-3332 -3246 0
-3332 -3247 0
3333 -3251 -3271 0
-3333 3251 0
-3333 3271 0
3334 3171 3255 0
-3334 -3171 0
-3334 -3255 0
3335 -3041 3255 0
-3335 3041 0
-3335 -3255 0
3336 3255 2986 0
-3336 -3255 0
-3336 -2986 0
3337 3257 3217 0
-3337 -3257 0
-3337 -3217 0
3338 -3213 3259 0
-3338 3213 0
-3338 -3259 0
3339 -94 -3310 0
-3339 94 0
-3339 3310 0
3340 -3259 -3310 0
-3340 3259 0
-3340 3310 0
3341 -56 -3310 0
-3341 56 0
-3341 3310 0
3342 -105 -3310 0
-3342 105 0
-3342 3310 0
3343 -123 -3310 0
-3343 123 0
-3343 3310 0
3344 -124 -3310 0
-3344 124 0
-3344 3310 0
3345 -143 -3310 0
-3345 143 0
-3345 3310 0
3346 -153 -3310 0
-3346 153 0
-3346 3310 0
3347 -154 -3310 0
-3347 154 0
-3347 3310 0
3348 -172 -3310 0
-3348 172 0
-3348 3310 0
3349 -180 -3310 0
-3349 180 0
-3349 3310 0
3350 -181 -3310 0
-3350 181 0
-3350 3310 0
3351 -195 -3310 0
-3351 195 0
-3351 3310 0
3352 -206 -3310 0
-3352 206 0
-3352 3310 0
3353 -202 -3310 0
-3353 202 0
-3353 3310 0
3354 -229 -3310 0
-3354 229 0
-3354 3310 0
3355 3197 -3311 0
-3355 -3197 0
-3355 3311 0
3356 104 -3313 0
-3356 -104 0
-3356 3313 0
3357 134 -3315 0
-3357 -134 0
-3357 3315 0
3358 3200 -3316 0
-3358 -3200 0
-3358 3316 0
3359 3206 -3318 0
-3359 -3206 0
-3359 3318 0
3360 -3324 3233 0
-3360 3324 0
-3360 -3233 0
3361 3238 3264 0
-3361 -3238 0
-3361 -3264 0
3362 -73 3265 0
-3362 73 0
-3362 -3265 0
3363 -100 3266 0
-3363 100 0
-3363 -3266 0
3364 -129 3267 0
-3364 129 0
-3364 -3267 0
3365 -169 3268 0
-3365 169 0
-3365 -3268 0
3366 -3045 -3329 0
-3366 3045 0
-3366 3329 0
3367 3195 -3330 0
-3367 -3195 0
-3367 3330 0
3368 3081 -3331 0
-3368 -3081 0
-3368 3331 0
3369 3251 3271 0
-3369 -3251 0
-3369 -3271 0
3370 3250 3272 0
-3370 -3250 0
-3370 -3272 0
3371 3060 3273 0
-3371 -3060 0
-3371 -3273 0
3372 3248 3274 0
-3372 -3248 0
-3372 -3274 0
3373 3275 3276 0
-3373 -3275 0
-3373 -3276 0
3374 3277 -3314 0
-3374 -3277 0
-3374 3314 0
3375 3258 3278 0
-3375 -3258 0
-3375 -3278 0
3376 3281 -3317 0
-3376 -3281 0
-3376 3317 0
3377 3202 3282 0
-3377 -3202 0
-3377 -3282 0
3378 3290 -3319 0
-3378 -3290 0
-3378 3319 0
3379 -3259 3293 0
-3379 3259 0
-3379 -3293 0
3380 -3310 3293 0
-3380 3310 0
-3380 -3293 0
3381 3286 3302 0
-3381 -3286 0
-3381 -3302 0
3382 3289 3305 0
-3382 -3289 0
-3382 -3305 0
3383 3259 3310 0
-3383 -3259 0
-3383 -3310 0
3384 3310 -3293 0
-3384 -3310 0
-3384 3293 0
3385 104 -3355 0
-3385 -104 0
-3385 3355 0
3386 134 -3358 0
-3386 -134 0
-3386 3358 0
3387 189 -3359 0
-3387 -189 0
-3387 3359 0
3388 3261 3321 0
-3388 -3261 0
-3388 -3321 0
3389 -2897 3323 0
-3389 2897 0
-3389 -3323 0
3390 3177 3323 0
-3390 -3177 0
-3390 -3323 0
3391 3324 -3233 0
-3391 -3324 0
-3391 3233 0
3392 -134 -3361 0
-3392 134 0
-3392 3361 0
3393 -3361 -104 0
-3393 3361 0
-3393 104 0
3394 -164 -3361 0
-3394 164 0
-3394 3361 0
3395 3332 2675 0
-3395 -3332 0
-3395 -2675 0
3396 -3373 -3168 0
-3396 3373 0
-3396 3168 0
3397 3334 3335 0
-3397 -3334 0
-3397 -3335 0
3398 104 -3374 0
-3398 -104 0
-3398 3374 0
3399 134 -3376 0
-3399 -134 0
-3399 3376 0
3400 3298 -3377 0
-3400 -3298 0
-3400 3377 0
3401 218 -3378 0
-3401 -218 0
-3401 3378 0
3402 169 -3379 0
-3402 -169 0
-3402 3379 0
3403 3338 3295 0
-3403 -3338 0
-3403 -3295 0
3404 3297 3341 0
-3404 -3297 0
-3404 -3341 0
3405 3300 3344 0
-3405 -3300 0
-3405 -3344 0
3406 3346 -3381 0
-3406 -3346 0
-3406 3381 0
3407 3303 3347 0
-3407 -3303 0
-3407 -3347 0
3408 3349 -3382 0
-3408 -3349 0
-3408 3382 0
3409 3306 3350 0
-3409 -3306 0
-3409 -3350 0
3410 3309 3353 0
-3410 -3309 0
-3410 -3353 0
3411 -3388 -3212 0
-3411 3388 0
-3411 3212 0
3412 3237 -3390 0
-3412 -3237 0
-3412 3390 0
3413 -3390 3134 0
-3413 3390 0
-3413 -3134 0
3414 3089 2901 2883 3392 0
-3414 -3089 0
-3414 -2901 0
-3414 -2883 0
-3414 -3392 0
3415 3091 2906 2886 3393 0
-3415 -3091 0
-3415 -2906 0
-3415 -2886 0
-3415 -3393 0
3416 3094 2908 2889 3394 0
-3416 -3094 0
-3416 -2908 0
-3416 -2889 0
-3416 -3394 0
3417 3361 -3179 0
-3417 -3361 0
-3417 3179 0
3418 3361 -3180 0
-3418 -3361 0
-3418 3180 0
3419 3362 3325 0
-3419 -3362 0
-3419 -3325 0
3420 3363 3326 0
-3420 -3363 0
-3420 -3326 0
3421 3364 3327 0
-3421 -3364 0
-3421 -3327 0
3422 3365 3328 0
-3422 -3365 0
-3422 -3328 0
3423 -3045 3366 0
-3423 3045 0
-3423 -3366 0
3424 -3329 3366 0
-3424 3329 0
-3424 -3366 0
3425 3195 3367 0
-3425 -3195 0
-3425 -3367 0
3426 -3330 3367 0
-3426 3330 0
-3426 -3367 0
3427 3081 3368 0
-3427 -3081 0
-3427 -3368 0
3428 -3331 3368 0
-3428 3331 0
-3428 -3368 0
3429 3109 3369 0
-3429 -3109 0
-3429 -3369 0
3430 3369 3333 0
-3430 -3369 0
-3430 -3333 0
3431 3250 3370 0
-3431 -3250 0
-3431 -3370 0
3432 3272 3370 0
-3432 -3272 0
-3432 -3370 0
3433 3110 3370 0
-3433 -3110 0
-3433 -3370 0
3434 3371 3270 0
-3434 -3371 0
-3434 -3270 0
3435 3003 3163 3056 3396 0
-3435 -3003 0
-3435 -3163 0
-3435 -3056 0
-3435 -3396 0
3436 3373 3168 0
-3436 -3373 0
-3436 -3168 0
3437 134 -3400 0
-3437 -134 0
-3437 3400 0
3438 169 -3403 0
-3438 -169 0
-3438 3403 0
3439 3383 3340 0
-3439 -3383 0
-3439 -3340 0
3440 3380 3384 0
-3440 -3380 0
-3440 -3384 0
3441 164 -3406 0
-3441 -164 0
-3441 3406 0
3442 189 -3408 0
-3442 -189 0
-3442 3408 0
3443 218 -3410 0
-3443 -218 0
-3443 3410 0
3444 3388 3212 0
-3444 -3388 0
-3444 -3212 0
3445 3390 -3134 0
-3445 -3390 0
-3445 3134 0
3446 3390 3134 0
-3446 -3390 0
-3446 -3134 0
3447 3391 3360 0
-3447 -3391 0
-3447 -3360 0
3448 3140 3391 0
-3448 -3140 0
-3448 -3391 0
3449 -73 -3414 0
-3449 73 0
-3449 3414 0
3450 55 -3415 0
-3450 -55 0
-3450 3415 0
3451 3372 -3419 0
-3451 -3372 0
-3451 3419 0
3452 3249 -3420 0
-3452 -3249 0
-3452 3420 0
3453 3254 -3421 0
-3453 -3254 0
-3453 3421 0
3454 3332 3395 0
-3454 -3332 0
-3454 -3395 0
3455 2675 3395 0
-3455 -2675 0
-3455 -3395 0
3456 2595 3395 0
-3456 -2595 0
-3456 -3395 0
3457 169 -3440 0
-3457 -169 0
-3457 3440 0
3458 3261 3411 0
-3458 -3261 0
-3458 -3411 0
3459 3389 3412 0
-3459 -3389 0
-3459 -3412 0
3460 -134 -3447 0
-3460 134 0
-3460 3447 0
3461 -3447 -104 0
-3461 3447 0
-3461 104 0
3462 -3447 -164 0
-3462 3447 0
-3462 164 0
3463 -3447 -189 0
-3463 3447 0
-3463 189 0
3464 -3447 -218 0
-3464 3447 0
-3464 218 0
3465 -3448 3256 0
-3465 3448 0
-3465 -3256 0
3466 73 3414 0
-3466 -73 0
-3466 -3414 0
3467 -55 3415 0
-3467 55 0
-3467 -3415 0
3468 100 3416 0
-3468 -100 0
-3468 -3416 0
3469 3240 3417 0
-3469 -3240 0
-3469 -3417 0
3470 3241 3418 0
-3470 -3241 0
-3470 -3418 0
3471 -3372 3419 0
-3471 3372 0
-3471 -3419 0
3472 -3249 3420 0
-3472 3249 0
-3472 -3420 0
3473 3423 3424 0
-3473 -3423 0
-3473 -3424 0
3474 3425 3426 0
-3474 -3425 0
-3474 -3426 0
3475 3427 3428 0
-3475 -3427 0
-3475 -3428 0
3476 3431 3432 0
-3476 -3431 0
-3476 -3432 0
3477 3108 3434 0
-3477 -3108 0
-3477 -3434 0
3478 3371 3434 0
-3478 -3371 0
-3478 -3434 0
3479 3270 3434 0
-3479 -3270 0
-3479 -3434 0
3480 3435 3436 0
-3480 -3435 0
-3480 -3436 0
3481 3411 3444 0
-3481 -3411 0
-3481 -3444 0
3482 3445 3413 0
-3482 -3445 0
-3482 -3413 0
3483 3139 2882 3087 3460 0
-3483 -3139 0
-3483 -2882 0
-3483 -3087 0
-3483 -3460 0
3484 3144 2887 3092 3461 0
-3484 -3144 0
-3484 -2887 0
-3484 -3092 0
-3484 -3461 0
3485 3147 2890 3095 3462 0
-3485 -3147 0
-3485 -2890 0
-3485 -3095 0
-3485 -3462 0
3486 3150 2893 3098 3463 0
-3486 -3150 0
-3486 -2893 0
-3486 -3098 0
-3486 -3463 0
3487 3153 2896 3101 3464 0
-3487 -3153 0
-3487 -2896 0
-3487 -3101 0
-3487 -3464 0
3488 3448 -3256 0
-3488 -3448 0
-3488 3256 0
3489 129 -3469 0
-3489 -129 0
-3489 3469 0
3490 169 -3470 0
-3490 -169 0
-3490 3470 0
3491 3254 3453 0
-3491 -3254 0
-3491 -3453 0
3492 -3421 3453 0
-3492 3421 0
-3492 -3453 0
3493 -3429 -3474 0
-3493 3429 0
-3493 3474 0
3494 3454 3455 0
-3494 -3454 0
-3494 -3455 0
3495 3456 2827 0
-3495 -3456 0
-3495 -2827 0
3496 -3480 3252 0
-3496 3480 0
-3496 -3252 0
3497 3293 3458 0
-3497 -3293 0
-3497 -3458 0
3498 -73 -3483 0
-3498 73 0
-3498 3483 0
3499 -55 -3484 0
-3499 55 0
-3499 3484 0
3500 -129 -3486 0
-3500 129 0
-3500 3486 0
3501 3466 3449 0
-3501 -3466 0
-3501 -3449 0
3502 3467 3450 0
-3502 -3467 0
-3502 -3450 0
3503 3416 3468 0
-3503 -3416 0
-3503 -3468 0
3504 100 3468 0
-3504 -100 0
-3504 -3468 0
3505 -129 3469 0
-3505 129 0
-3505 -3469 0
3506 -169 3470 0
-3506 169 0
-3506 -3470 0
3507 3451 3471 0
-3507 -3451 0
-3507 -3471 0
3508 3452 3472 0
-3508 -3452 0
-3508 -3472 0
3509 3429 3474 0
-3509 -3429 0
-3509 -3474 0
3510 3433 3475 0
-3510 -3433 0
-3510 -3475 0
3511 -3494 3336 0
-3511 3494 0
-3511 -3336 0
3512 3477 3473 0
-3512 -3477 0
-3512 -3473 0
3513 3478 3479 0
-3513 -3478 0
-3513 -3479 0
3514 3022 3269 3159 3496 0
-3514 -3022 0
-3514 -3269 0
-3514 -3159 0
-3514 -3496 0
3515 3480 -3252 0
-3515 -3480 0
-3515 3252 0
3516 73 3483 0
-3516 -73 0
-3516 -3483 0
3517 55 3484 0
-3517 -55 0
-3517 -3484 0
3518 100 3485 0
-3518 -100 0
-3518 -3485 0
3519 129 3486 0
-3519 -129 0
-3519 -3486 0
3520 169 3487 0
-3520 -169 0
-3520 -3487 0
3521 3141 3488 0
-3521 -3141 0
-3521 -3488 0
3522 3488 3465 0
-3522 -3488 0
-3522 -3465 0
3523 3491 3492 0
-3523 -3491 0
-3523 -3492 0
3524 3494 -3336 0
-3524 -3494 0
-3524 3336 0
3525 3494 3336 0
-3525 -3494 0
-3525 -3336 0
3526 3456 3495 0
-3526 -3456 0
-3526 -3495 0
3527 2827 3495 0
-3527 -2827 0
-3527 -3495 0
3528 2726 3495 0
-3528 -2726 0
-3528 -3495 0
3529 3293 3497 0
-3529 -3293 0
-3529 -3497 0
3530 3458 3497 0
-3530 -3458 0
-3530 -3497 0
3531 -3521 3312 0
-3531 3521 0
-3531 -3312 0
3532 -104 -3522 0
-3532 104 0
-3532 3522 0
3533 -134 -3522 0
-3533 134 0
-3533 3522 0
3534 -164 -3522 0
-3534 164 0
-3534 3522 0
3535 -189 -3522 0
-3535 189 0
-3535 3522 0
3536 3503 3504 0
-3536 -3503 0
-3536 -3504 0
3537 3505 3489 0
-3537 -3505 0
-3537 -3489 0
3538 3506 3490 0
-3538 -3506 0
-3538 -3490 0
3539 3367 3509 0
-3539 -3367 0
-3539 -3509 0
3540 3509 3493 0
-3540 -3509 0
-3540 -3493 0
3541 3433 3510 0
-3541 -3433 0
-3541 -3510 0
3542 3475 3510 0
-3542 -3475 0
-3542 -3510 0
3543 3368 3510 0
-3543 -3368 0
-3543 -3510 0
3544 3477 3512 0
-3544 -3477 0
-3544 -3512 0
3545 3473 3512 0
-3545 -3473 0
-3545 -3512 0
3546 3366 3512 0
-3546 -3366 0
-3546 -3512 0
3547 3513 -3501 0
-3547 -3513 0
-3547 3501 0
3548 3514 3515 0
-3548 -3514 0
-3548 -3515 0
3549 3516 3498 0
-3549 -3516 0
-3549 -3498 0
3550 3517 3499 0
-3550 -3517 0
-3550 -3499 0
3551 3485 3518 0
-3551 -3485 0
-3551 -3518 0
3552 100 3518 0
-3552 -100 0
-3552 -3518 0
3553 3519 3500 0
-3553 -3519 0
-3553 -3500 0
3554 3487 3520 0
-3554 -3487 0
-3554 -3520 0
3555 169 3520 0
-3555 -169 0
-3555 -3520 0
3556 3521 -3312 0
-3556 -3521 0
-3556 3312 0
3557 3121 3090 3143 3532 0
-3557 -3121 0
-3557 -3090 0
-3557 -3143 0
-3557 -3532 0
3558 3122 3093 3145 3533 0
-3558 -3122 0
-3558 -3093 0
-3558 -3145 0
-3558 -3533 0
3559 3125 3096 3148 3534 0
-3559 -3125 0
-3559 -3096 0
-3559 -3148 0
-3559 -3534 0
3560 3128 3099 3151 3535 0
-3560 -3128 0
-3560 -3099 0
-3560 -3151 0
-3560 -3535 0
3561 3522 -3262 0
-3561 -3522 0
-3561 3262 0
3562 3397 -3537 0
-3562 -3397 0
-3562 3537 0
3563 -3539 3507 0
-3563 3539 0
-3563 -3507 0
3564 3511 3524 0
-3564 -3511 0
-3564 -3524 0
3565 3526 3527 0
-3565 -3526 0
-3565 -3527 0
3566 3528 2824 0
-3566 -3528 0
-3566 -2824 0
3567 -3546 3508 0
-3567 3546 0
-3567 -3508 0
3568 -3548 3430 0
-3568 3548 0
-3568 -3430 0
3569 3529 3530 0
-3569 -3529 0
-3569 -3530 0
3570 -73 -3558 0
-3570 73 0
-3570 3558 0
3571 -129 -3560 0
-3571 129 0
-3571 3560 0
3572 3536 3476 0
-3572 -3536 0
-3572 -3476 0
3573 -3397 3537 0
-3573 3397 0
-3573 -3537 0
3574 3539 -3507 0
-3574 -3539 0
-3574 3507 0
3575 3541 3542 0
-3575 -3541 0
-3575 -3542 0
3576 3543 3523 0
-3576 -3543 0
-3576 -3523 0
3577 3544 3545 0
-3577 -3544 0
-3577 -3545 0
3578 3546 -3508 0
-3578 -3546 0
-3578 3508 0
3579 -3501 3547 0
-3579 3501 0
-3579 -3547 0
3580 3513 3547 0
-3580 -3513 0
-3580 -3547 0
3581 3548 -3430 0
-3581 -3548 0
-3581 3430 0
3582 3551 3552 0
-3582 -3551 0
-3582 -3552 0
3583 3554 3555 0
-3583 -3554 0
-3583 -3555 0
3584 3216 3556 0
-3584 -3216 0
-3584 -3556 0
3585 3556 3531 0
-3585 -3556 0
-3585 -3531 0
3586 55 3557 0
-3586 -55 0
-3586 -3557 0
3587 73 3558 0
-3587 -73 0
-3587 -3558 0
3588 100 3559 0
-3588 -100 0
-3588 -3559 0
3589 129 3560 0
-3589 -129 0
-3589 -3560 0
3590 3322 3561 0
-3590 -3322 0
-3590 -3561 0
3591 3564 -3553 0
-3591 -3564 0
-3591 3553 0
3592 3565 -3422 0
-3592 -3565 0
-3592 3422 0
3593 3528 3566 0
-3593 -3528 0
-3593 -3566 0
3594 2824 3566 0
-3594 -2824 0
-3594 -3566 0
3595 2708 3566 0
-3595 -2708 0
-3595 -3566 0
3596 -3584 3337 0
-3596 3584 0
-3596 -3337 0
3597 -164 -3585 0
-3597 164 0
-3597 3585 0
3598 -189 -3585 0
-3598 189 0
-3598 3585 0
3599 -218 -3585 0
-3599 218 0
-3599 3585 0
3600 169 -3590 0
-3600 -169 0
-3600 3590 0
3601 3536 3572 0
-3601 -3536 0
-3601 -3572 0
3602 3476 3572 0
-3602 -3476 0
-3602 -3572 0
3603 3562 3573 0
-3603 -3562 0
-3603 -3573 0
3604 3451 3574 0
-3604 -3451 0
-3604 -3574 0
3605 3543 3576 0
-3605 -3543 0
-3605 -3576 0
3606 3523 3576 0
-3606 -3523 0
-3606 -3576 0
3607 3453 3576 0
-3607 -3453 0
-3607 -3576 0
3608 -3549 3577 0
-3608 3549 0
-3608 -3577 0
3609 3578 3567 0
-3609 -3578 0
-3609 -3567 0
3610 3452 3578 0
-3610 -3452 0
-3610 -3578 0
3611 3579 3580 0
-3611 -3579 0
-3611 -3580 0
3612 3581 -3502 0
-3612 -3581 0
-3612 3502 0
3613 3582 3575 0
-3613 -3582 0
-3613 -3575 0
3614 3583 -3007 0
-3614 -3583 0
-3614 3007 0
3615 3584 -3337 0
-3615 -3584 0
-3615 3337 0
3616 -3313 3585 0
-3616 3313 0
-3616 -3585 0
3617 3585 -3315 0
-3617 -3585 0
-3617 3315 0
3618 3223 3149 3126 3597 0
-3618 -3223 0
-3618 -3149 0
-3618 -3126 0
-3618 -3597 0
3619 3226 3152 3129 3598 0
-3619 -3226 0
-3619 -3152 0
-3619 -3129 0
-3619 -3598 0
3620 3229 3155 3132 3599 0
-3620 -3229 0
-3620 -3155 0
-3620 -3132 0
-3620 -3599 0
3621 3557 3586 0
-3621 -3557 0
-3621 -3586 0
3622 55 3586 0
-3622 -55 0
-3622 -3586 0
3623 3587 3570 0
-3623 -3587 0
-3623 -3570 0
3624 3559 3588 0
-3624 -3559 0
-3624 -3588 0
3625 100 3588 0
-3625 -100 0
-3625 -3588 0
3626 3589 3571 0
-3626 -3589 0
-3626 -3571 0
3627 -169 3590 0
-3627 169 0
-3627 -3590 0
3628 3564 3591 0
-3628 -3564 0
-3628 -3591 0
3629 -3553 3591 0
-3629 3553 0
-3629 -3591 0
3630 3591 3525 0
-3630 -3591 0
-3630 -3525 0
3631 3565 3592 0
-3631 -3565 0
-3631 -3592 0
3632 -3422 3592 0
-3632 3422 0
-3632 -3592 0
3633 3593 3594 0
-3633 -3593 0
-3633 -3594 0
3634 -3611 -3604 0
-3634 3611 0
-3634 3604 0
3635 -129 -3619 0
-3635 129 0
-3635 3619 0
3636 -3623 -3609 0
-3636 3623 0
-3636 3609 0
3637 3601 3602 0
-3637 -3601 0
-3637 -3602 0
3638 -3607 3603 0
-3638 3607 0
-3638 -3603 0
3639 3605 3606 0
-3639 -3605 0
-3639 -3606 0
3640 3607 -3603 0
-3640 -3607 0
-3640 3603 0
3641 -3549 3608 0
-3641 3549 0
-3641 -3608 0
3642 3577 3608 0
-3642 -3577 0
-3642 -3608 0
3643 3611 3604 0
-3643 -3611 0
-3643 -3604 0
3644 3612 3568 0
-3644 -3612 0
-3644 -3568 0
3645 3582 3613 0
-3645 -3582 0
-3645 -3613 0
3646 3575 3613 0
-3646 -3575 0
-3646 -3613 0
3647 3583 3614 0
-3647 -3583 0
-3647 -3614 0
3648 -3007 3614 0
-3648 3007 0
-3648 -3614 0
3649 3615 3596 0
-3649 -3615 0
-3649 -3596 0
3650 3217 3615 0
-3650 -3217 0
-3650 -3615 0
3651 3356 3616 0
-3651 -3356 0
-3651 -3616 0
3652 3357 3617 0
-3652 -3357 0
-3652 -3617 0
3653 100 3618 0
-3653 -100 0
-3653 -3618 0
3654 129 3619 0
-3654 -129 0
-3654 -3619 0
3655 169 3620 0
-3655 -169 0
-3655 -3620 0
3656 3621 3622 0
-3656 -3621 0
-3656 -3622 0
3657 3623 3609 0
-3657 -3623 0
-3657 -3609 0
3658 3624 3625 0
-3658 -3624 0
-3658 -3625 0
3659 3627 3600 0
-3659 -3627 0
-3659 -3600 0
3660 -3637 -3610 0
-3660 3637 0
-3660 3610 0
3661 3628 3629 0
-3661 -3628 0
-3661 -3629 0
3662 3631 3632 0
-3662 -3631 0
-3662 -3632 0
3663 3632 3626 0
-3663 -3632 0
-3663 -3626 0
3664 3633 -3538 0
-3664 -3633 0
-3664 3538 0
3665 -3644 -3540 0
-3665 3644 0
-3665 3540 0
3666 -164 -3649 0
-3666 164 0
-3666 3649 0
3667 -218 -3649 0
-3667 218 0
-3667 3649 0
3668 -3650 3375 0
-3668 3650 0
-3668 -3375 0
3669 55 -3651 0
-3669 -55 0
-3669 3651 0
3670 73 -3652 0
-3670 -73 0
-3670 3652 0
3671 3107 -3659 0
-3671 -3107 0
-3671 3659 0
3672 3637 3610 0
-3672 -3637 0
-3672 -3610 0
3673 3640 3638 0
-3673 -3640 0
-3673 -3638 0
3674 3562 3640 0
-3674 -3562 0
-3674 -3640 0
3675 3631 -3663 0
-3675 -3631 0
-3675 3663 0
3676 3641 3642 0
-3676 -3641 0
-3676 -3642 0
3677 3547 3643 0
-3677 -3547 0
-3677 -3643 0
3678 3643 3634 0
-3678 -3643 0
-3678 -3634 0
3679 3644 3540 0
-3679 -3644 0
-3679 -3540 0
3680 3645 3646 0
-3680 -3645 0
-3680 -3646 0
3681 3647 3648 0
-3681 -3647 0
-3681 -3648 0
3682 -3355 3649 0
-3682 3355 0
-3682 -3649 0
3683 3649 -3358 0
-3683 -3649 0
-3683 3358 0
3684 3649 -3359 0
-3684 -3649 0
-3684 3359 0
3685 3203 3127 3224 3666 0
-3685 -3203 0
-3685 -3127 0
-3685 -3224 0
-3685 -3666 0
3686 3209 3133 3230 3667 0
-3686 -3209 0
-3686 -3133 0
-3686 -3230 0
-3686 -3667 0
3687 3650 -3375 0
-3687 -3650 0
-3687 3375 0
3688 -55 3651 0
-3688 55 0
-3688 -3651 0
3689 -73 3652 0
-3689 73 0
-3689 -3652 0
3690 3618 3653 0
-3690 -3618 0
-3690 -3653 0
3691 100 3653 0
-3691 -100 0
-3691 -3653 0
3692 3654 3635 0
-3692 -3654 0
-3692 -3635 0
3693 3620 3655 0
-3693 -3620 0
-3693 -3655 0
3694 169 3655 0
-3694 -169 0
-3694 -3655 0
3695 3636 3657 0
-3695 -3636 0
-3695 -3657 0
3696 3658 3639 0
-3696 -3658 0
-3696 -3639 0
3697 -3107 3659 0
-3697 3107 0
-3697 -3659 0
3698 -3674 3661 0
-3698 3674 0
-3698 -3661 0
3699 3662 -3626 0
-3699 -3662 0
-3699 3626 0
3700 3633 3664 0
-3700 -3633 0
-3700 -3664 0
3701 -3538 3664 0
-3701 3538 0
-3701 -3664 0
3702 -3676 -3677 0
-3702 3676 0
-3702 3677 0
3703 3595 -3681 0
-3703 -3595 0
-3703 3681 0
3704 3023 3671 0
-3704 -3023 0
-3704 -3671 0
3705 3660 3672 0
-3705 -3660 0
-3705 -3672 0
3706 3572 3672 0
-3706 -3572 0
-3706 -3672 0
3707 3674 -3661 0
-3707 -3674 0
-3707 3661 0
3708 3674 3661 0
-3708 -3674 0
-3708 -3661 0
3709 3676 3677 0
-3709 -3676 0
-3709 -3677 0
3710 3679 -3550 0
-3710 -3679 0
-3710 3550 0
3711 -3595 3681 0
-3711 3595 0
-3711 -3681 0
3712 3595 3681 0
-3712 -3595 0
-3712 -3681 0
3713 3385 3682 0
-3713 -3385 0
-3713 -3682 0
3714 3386 3683 0
-3714 -3386 0
-3714 -3683 0
3715 3387 3684 0
-3715 -3387 0
-3715 -3684 0
3716 100 3685 0
-3716 -100 0
-3716 -3685 0
3717 169 3686 0
-3717 -169 0
-3717 -3686 0
3718 3687 3668 0
-3718 -3687 0
-3718 -3668 0
3719 3278 3687 0
-3719 -3278 0
-3719 -3687 0
3720 3688 3669 0
-3720 -3688 0
-3720 -3669 0
3721 3689 3670 0
-3721 -3689 0
-3721 -3670 0
3722 3690 3691 0
-3722 -3690 0
-3722 -3691 0
3723 3693 3694 0
-3723 -3693 0
-3723 -3694 0
3724 3658 3696 0
-3724 -3658 0
-3724 -3696 0
3725 3639 3696 0
-3725 -3639 0
-3725 -3696 0
3726 3671 3697 0
-3726 -3671 0
-3726 -3697 0
3727 -3680 -3706 0
-3727 3680 0
-3727 3706 0
3728 3699 3675 0
-3728 -3699 0
-3728 -3675 0
3729 3592 3699 0
-3729 -3592 0
-3729 -3699 0
3730 3700 3701 0
-3730 -3700 0
-3730 -3701 0
3731 3701 3692 0
-3731 -3701 0
-3731 -3692 0
3732 55 -3713 0
-3732 -55 0
-3732 3713 0
3733 73 -3714 0
-3733 -73 0
-3733 3714 0
3734 129 -3715 0
-3734 -129 0
-3734 3715 0
3735 -164 -3718 0
-3735 164 0
-3735 3718 0
3736 -189 -3718 0
-3736 189 0
-3736 3718 0
3737 -3719 3403 0
-3737 3719 0
-3737 -3403 0
3738 -3678 -3720 0
-3738 3678 0
-3738 3720 0
3739 -3705 -3721 0
-3739 3705 0
-3739 3721 0
3740 3680 3706 0
-3740 -3680 0
-3740 -3706 0
3741 3707 3698 0
-3741 -3707 0
-3741 -3698 0
3742 3630 -3728 0
-3742 -3630 0
-3742 3728 0
3743 3700 -3731 0
-3743 -3700 0
-3743 3731 0
3744 3702 3709 0
-3744 -3702 0
-3744 -3709 0
3745 3608 3709 0
-3745 -3608 0
-3745 -3709 0
3746 3710 3665 0
-3746 -3710 0
-3746 -3665 0
3747 3703 3711 0
-3747 -3703 0
-3747 -3711 0
3748 3614 3712 0
-3748 -3614 0
-3748 -3712 0
3749 -55 3713 0
-3749 55 0
-3749 -3713 0
3750 -73 3714 0
-3750 73 0
-3750 -3714 0
3751 -129 3715 0
-3751 129 0
-3751 -3715 0
3752 100 3716 0
-3752 -100 0
-3752 -3716 0
3753 3685 3716 0
-3753 -3685 0
-3753 -3716 0
3754 169 3717 0
-3754 -169 0
-3754 -3717 0
3755 3686 3717 0
-3755 -3686 0
-3755 -3717 0
3756 -3374 3718 0
-3756 3374 0
-3756 -3718 0
3757 3718 -3376 0
-3757 -3718 0
-3757 3376 0
3758 3718 -3378 0
-3758 -3718 0
-3758 3378 0
3759 3284 3225 3204 3735 0
-3759 -3284 0
-3759 -3225 0
-3759 -3204 0
-3759 -3735 0
3760 3287 3228 3207 3736 0
-3760 -3287 0
-3760 -3228 0
-3760 -3207 0
-3760 -3736 0
3761 3719 -3403 0
-3761 -3719 0
-3761 3403 0
3762 3722 -3673 0
-3762 -3722 0
-3762 3673 0
3763 3723 3239 0
-3763 -3723 0
-3763 -3239 0
3764 3724 3725 0
-3764 -3724 0
-3764 -3725 0
3765 3730 -3692 0
-3765 -3730 0
-3765 3692 0
3766 -3745 3695 0
-3766 3745 0
-3766 -3695 0
3767 -3656 -3746 0
-3767 3656 0
-3767 3746 0
3768 -129 -3760 0
-3768 129 0
-3768 3760 0
3769 -3678 3738 0
-3769 3678 0
-3769 -3738 0
3770 -3720 3738 0
-3770 3720 0
-3770 -3738 0
3771 -3705 3739 0
-3771 3705 0
-3771 -3739 0
3772 -3721 3739 0
-3772 3721 0
-3772 -3739 0
3773 3727 3740 0
-3773 -3727 0
-3773 -3740 0
3774 3613 3740 0
-3774 -3613 0
-3774 -3740 0
3775 3630 3742 0
-3775 -3630 0
-3775 -3742 0
3776 -3728 3742 0
-3776 3728 0
-3776 -3742 0
3777 3745 -3695 0
-3777 -3745 0
-3777 3695 0
3778 3656 3746 0
-3778 -3656 0
-3778 -3746 0
3779 3748 -3726 0
-3779 -3748 0
-3779 3726 0
3780 3749 3732 0
-3780 -3749 0
-3780 -3732 0
3781 3750 3733 0
-3781 -3750 0
-3781 -3733 0
3782 3751 3734 0
-3782 -3751 0
-3782 -3734 0
3783 3752 3753 0
-3783 -3752 0
-3783 -3753 0
3784 3754 3755 0
-3784 -3754 0
-3784 -3755 0
3785 3398 3756 0
-3785 -3398 0
-3785 -3756 0
3786 3399 3757 0
-3786 -3399 0
-3786 -3757 0
3787 3401 3758 0
-3787 -3401 0
-3787 -3758 0
3788 100 3759 0
-3788 -100 0
-3788 -3759 0
3789 129 3760 0
-3789 -129 0
-3789 -3760 0
3790 3761 3737 0
-3790 -3761 0
-3790 -3737 0
3791 3295 3761 0
-3791 -3295 0
-3791 -3761 0
3792 3722 3762 0
-3792 -3722 0
-3792 -3762 0
3793 -3673 3762 0
-3793 3673 0
-3793 -3762 0
3794 3723 3763 0
-3794 -3723 0
-3794 -3763 0
3795 3239 3763 0
-3795 -3239 0
-3795 -3763 0
3796 3763 3157 0
-3796 -3763 0
-3796 -3157 0
3797 -3764 -3774 0
-3797 3764 0
-3797 3774 0
3798 3765 3743 0
-3798 -3765 0
-3798 -3743 0
3799 3664 3765 0
-3799 -3664 0
-3799 -3765 0
3800 3574 3767 0
-3800 -3574 0
-3800 -3767 0
3801 -3744 -3780 0
-3801 3744 0
-3801 3780 0
3802 -3773 -3781 0
-3802 3773 0
-3802 3781 0
3803 3747 -3782 0
-3803 -3747 0
-3803 3782 0
3804 -3741 -3783 0
-3804 3741 0
-3804 3783 0
3805 55 -3785 0
-3805 -55 0
-3805 3785 0
3806 73 -3786 0
-3806 -73 0
-3806 3786 0
3807 169 -3787 0
-3807 -169 0
-3807 3787 0
3808 -104 -3790 0
-3808 104 0
-3808 3790 0
3809 -164 -3790 0
-3809 164 0
-3809 3790 0
3810 -189 -3790 0
-3810 189 0
-3810 3790 0
3811 -218 -3790 0
-3811 218 0
-3811 3790 0
3812 -3791 3439 0
-3812 3791 0
-3812 -3439 0
3813 3769 3770 0
-3813 -3769 0
-3813 -3770 0
3814 3771 3772 0
-3814 -3771 0
-3814 -3772 0
3815 3764 3774 0
-3815 -3764 0
-3815 -3774 0
3816 3775 3776 0
-3816 -3775 0
-3816 -3776 0
3817 3729 -3798 0
-3817 -3729 0
-3817 3798 0
3818 3777 3766 0
-3818 -3777 0
-3818 -3766 0
3819 3636 3777 0
-3819 -3636 0
-3819 -3777 0
3820 3563 -3800 0
-3820 -3563 0
-3820 3800 0
3821 3748 3779 0
-3821 -3748 0
-3821 -3779 0
3822 -3726 3779 0
-3822 3726 0
-3822 -3779 0
3823 3741 3783 0
-3823 -3741 0
-3823 -3783 0
3824 -55 3785 0
-3824 55 0
-3824 -3785 0
3825 -73 3786 0
-3825 73 0
-3825 -3786 0
3826 -169 3787 0
-3826 169 0
-3826 -3787 0
3827 3759 3788 0
-3827 -3759 0
-3827 -3788 0
3828 100 3788 0
-3828 -100 0
-3828 -3788 0
3829 3789 3768 0
-3829 -3789 0
-3829 -3768 0
3830 3294 3199 3279 3808 0
-3830 -3294 0
-3830 -3199 0
-3830 -3279 0
-3830 -3808 0
3831 3790 -3400 0
-3831 -3790 0
-3831 3400 0
3832 3301 3205 3285 3809 0
-3832 -3301 0
-3832 -3205 0
-3832 -3285 0
-3832 -3809 0
3833 3304 3208 3288 3810 0
-3833 -3304 0
-3833 -3208 0
-3833 -3288 0
-3833 -3810 0
3834 3307 3211 3291 3811 0
-3834 -3307 0
-3834 -3211 0
-3834 -3291 0
-3834 -3811 0
3835 3791 -3439 0
-3835 -3791 0
-3835 3439 0
3836 3792 3793 0
-3836 -3792 0
-3836 -3793 0
3837 3794 3795 0
-3837 -3794 0
-3837 -3795 0
3838 3796 3459 0
-3838 -3796 0
-3838 -3459 0
3839 -3744 3801 0
-3839 3744 0
-3839 -3801 0
3840 -3780 3801 0
-3840 3780 0
-3840 -3801 0
3841 -3773 3802 0
-3841 3773 0
-3841 -3802 0
3842 -3781 3802 0
-3842 3781 0
-3842 -3802 0
3843 3747 3803 0
-3843 -3747 0
-3843 -3803 0
3844 -3782 3803 0
-3844 3782 0
-3844 -3803 0
3845 -129 -3833 0
-3845 129 0
-3845 3833 0
3846 3704 -3837 0
-3846 -3704 0
-3846 3837 0
3847 3797 3815 0
-3847 -3797 0
-3847 -3815 0
3848 3696 3815 0
-3848 -3696 0
-3848 -3815 0
3849 3729 3817 0
-3849 -3729 0
-3849 -3817 0
3850 -3798 3817 0
-3850 3798 0
-3850 -3817 0
3851 3819 3814 0
-3851 -3819 0
-3851 -3814 0
3852 3820 3778 0
-3852 -3820 0
-3852 -3778 0
3853 3821 3822 0
-3853 -3821 0
-3853 -3822 0
3854 3823 3804 0
-3854 -3823 0
-3854 -3804 0
3855 3823 3708 0
-3855 -3823 0
-3855 -3708 0
3856 3824 3805 0
-3856 -3824 0
-3856 -3805 0
3857 3825 3806 0
-3857 -3825 0
-3857 -3806 0
3858 3826 3807 0
-3858 -3826 0
-3858 -3807 0
3859 3827 3828 0
-3859 -3827 0
-3859 -3828 0
3860 3822 3829 0
-3860 -3822 0
-3860 -3829 0
3861 55 3830 0
-3861 -55 0
-3861 -3830 0
3862 3437 3831 0
-3862 -3437 0
-3862 -3831 0
3863 100 3832 0
-3863 -100 0
-3863 -3832 0
3864 129 3833 0
-3864 -129 0
-3864 -3833 0
3865 169 3834 0
-3865 -169 0
-3865 -3834 0
3866 3835 3812 0
-3866 -3835 0
-3866 -3812 0
3867 3259 3835 0
-3867 -3259 0
-3867 -3835 0
3868 3310 3835 0
-3868 -3310 0
-3868 -3835 0
3869 -3704 3837 0
-3869 3704 0
-3869 -3837 0
3870 3704 3837 0
-3870 -3704 0
-3870 -3837 0
3871 3796 3838 0
-3871 -3796 0
-3871 -3838 0
3872 3459 3838 0
-3872 -3459 0
-3872 -3838 0
3873 -3836 -3848 0
-3873 3836 0
-3873 3848 0
3874 -3852 -3813 0
-3874 3852 0
-3874 3813 0
3875 3839 3840 0
-3875 -3839 0
-3875 -3840 0
3876 3841 3842 0
-3876 -3841 0
-3876 -3842 0
3877 3843 3844 0
-3877 -3843 0
-3877 -3844 0
3878 -3818 -3856 0
-3878 3818 0
-3878 3856 0
3879 -3847 -3857 0
-3879 3847 0
-3879 3857 0
3880 3482 -3858 0
-3880 -3482 0
-3880 3858 0
3881 -3859 3776 0
-3881 3859 0
-3881 -3776 0
3882 3821 -3860 0
-3882 -3821 0
-3882 3860 0
3883 73 -3862 0
-3883 -73 0
-3883 3862 0
3884 -104 -3866 0
-3884 104 0
-3884 3866 0
3885 -134 -3866 0
-3885 134 0
-3885 3866 0
3886 -218 -3866 0
-3886 218 0
-3886 3866 0
3887 3836 3848 0
-3887 -3836 0
-3887 -3848 0
3888 3849 3850 0
-3888 -3849 0
-3888 -3850 0
3889 3819 3851 0
-3889 -3819 0
-3889 -3851 0
3890 3814 3851 0
-3890 -3814 0
-3890 -3851 0
3891 3739 3851 0
-3891 -3739 0
-3891 -3851 0
3892 3852 3813 0
-3892 -3852 0
-3892 -3813 0
3893 3853 -3829 0
-3893 -3853 0
-3893 3829 0
3894 3818 3856 0
-3894 -3818 0
-3894 -3856 0
3895 -3482 3858 0
-3895 3482 0
-3895 -3858 0
3896 3859 3816 0
-3896 -3859 0
-3896 -3816 0
3897 3775 -3881 0
-3897 -3775 0
-3897 3881 0
3898 3830 3861 0
-3898 -3830 0
-3898 -3861 0
3899 55 3861 0
-3899 -55 0
-3899 -3861 0
3900 -73 3862 0
-3900 73 0
-3900 -3862 0
3901 3832 3863 0
-3901 -3832 0
-3901 -3863 0
3902 100 3863 0
-3902 -100 0
-3902 -3863 0
3903 3864 3845 0
-3903 -3864 0
-3903 -3845 0
3904 169 3865 0
-3904 -169 0
-3904 -3865 0
3905 3834 3865 0
-3905 -3834 0
-3905 -3865 0
3906 3339 3280 3296 3884 0
-3906 -3339 0
-3906 -3280 0
-3906 -3296 0
-3906 -3884 0
3907 3343 3283 3299 3885 0
-3907 -3343 0
-3907 -3283 0
-3907 -3299 0
-3907 -3885 0
3908 3866 -3406 0
-3908 -3866 0
-3908 3406 0
3909 3866 -3408 0
-3909 -3866 0
-3909 3408 0
3910 3352 3292 3308 3886 0
-3910 -3352 0
-3910 -3292 0
-3910 -3308 0
-3910 -3886 0
3911 -3310 3867 0
-3911 3310 0
-3911 -3867 0
3912 3846 3869 0
-3912 -3846 0
-3912 -3869 0
3913 3871 3872 0
-3913 -3871 0
-3913 -3872 0
3914 3799 3877 0
-3914 -3799 0
-3914 -3877 0
3915 -3847 3879 0
-3915 3847 0
-3915 -3879 0
3916 -3857 3879 0
-3916 3857 0
-3916 -3879 0
3917 3880 3446 0
-3917 -3880 0
-3917 -3446 0
3918 -73 -3907 0
-3918 73 0
-3918 3907 0
3919 -104 -3911 0
-3919 104 0
-3919 3911 0
3920 -134 -3911 0
-3920 134 0
-3920 3911 0
3921 -164 -3911 0
-3921 164 0
-3921 3911 0
3922 -189 -3911 0
-3922 189 0
-3922 3911 0
3923 -218 -3911 0
-3923 218 0
-3923 3911 0
3924 3873 3887 0
-3924 -3873 0
-3924 -3887 0
3925 3762 3887 0
-3925 -3762 0
-3925 -3887 0
3926 3889 3890 0
-3926 -3889 0
-3926 -3890 0
3927 3891 3876 0
-3927 -3891 0
-3927 -3876 0
3928 3738 3892 0
-3928 -3738 0
-3928 -3892 0
3929 3892 3874 0
-3929 -3892 0
-3929 -3874 0
3930 3893 3882 0
-3930 -3893 0
-3930 -3882 0
3931 3779 3893 0
-3931 -3779 0
-3931 -3893 0
3932 3878 3894 0
-3932 -3878 0
-3932 -3894 0
3933 3880 3895 0
-3933 -3880 0
-3933 -3895 0
3934 3742 3896 0
-3934 -3742 0
-3934 -3896 0
3935 3896 3897 0
-3935 -3896 0
-3935 -3897 0
3936 3898 3899 0
-3936 -3898 0
-3936 -3899 0
3937 3900 3883 0
-3937 -3900 0
-3937 -3883 0
3938 3901 3902 0
-3938 -3901 0
-3938 -3902 0
3939 3904 3905 0
-3939 -3904 0
-3939 -3905 0
3940 55 3906 0
-3940 -55 0
-3940 -3906 0
3941 73 3907 0
-3941 -73 0
-3941 -3907 0
3942 3908 3441 0
-3942 -3908 0
-3942 -3441 0
3943 3442 3909 0
-3943 -3442 0
-3943 -3909 0
3944 169 3910 0
-3944 -169 0
-3944 -3910 0
3945 3911 3868 0
-3945 -3911 0
-3945 -3868 0
3946 3912 -3903 0
-3946 -3912 0
-3946 3903 0
3947 3913 3784 0
-3947 -3913 0
-3947 -3784 0
3948 -3925 3854 0
-3948 3925 0
-3948 -3854 0
3949 -3928 3840 0
-3949 3928 0
-3949 -3840 0
3950 1079 -3929 0
-3950 -1079 0
-3950 3929 0
3951 3799 3914 0
-3951 -3799 0
-3951 -3914 0
3952 3877 3914 0
-3952 -3877 0
-3952 -3914 0
3953 3803 3914 0
-3953 -3803 0
-3953 -3914 0
3954 3915 3916 0
-3954 -3915 0
-3954 -3916 0
3955 3917 3320 0
-3955 -3917 0
-3955 -3320 0
3956 3855 -3935 0
-3956 -3855 0
-3956 3935 0
3957 -3924 -3937 0
-3957 3924 0
-3957 3937 0
3958 -3938 3850 0
-3958 3938 0
-3958 -3850 0
3959 100 -3942 0
-3959 -100 0
-3959 3942 0
3960 129 -3943 0
-3960 -129 0
-3960 3943 0
3961 -104 -3945 0
-3961 104 0
-3961 3945 0
3962 -134 -3945 0
-3962 134 0
-3962 3945 0
3963 -164 -3945 0
-3963 164 0
-3963 3945 0
3964 -189 -3945 0
-3964 189 0
-3964 3945 0
3965 3342 3919 0
-3965 -3342 0
-3965 -3919 0
3966 3345 3920 0
-3966 -3345 0
-3966 -3920 0
3967 3348 3921 0
-3967 -3348 0
-3967 -3921 0
3968 3351 3922 0
-3968 -3351 0
-3968 -3922 0
3969 3354 3923 0
-3969 -3354 0
-3969 -3923 0
3970 3925 -3854 0
-3970 -3925 0
-3970 3854 0
3971 3891 3927 0
-3971 -3891 0
-3971 -3927 0
3972 3876 3927 0
-3972 -3876 0
-3972 -3927 0
3973 3802 3927 0
-3973 -3802 0
-3973 -3927 0
3974 3928 3875 0
-3974 -3928 0
-3974 -3875 0
3975 3839 -3949 0
-3975 -3839 0
-3975 3949 0
3976 -3953 3930 0
-3976 3953 0
-3976 -3930 0
3977 3260 -3955 0
-3977 -3260 0
-3977 3955 0
3978 3936 3926 0
-3978 -3936 0
-3978 -3926 0
3979 3924 3937 0
-3979 -3924 0
-3979 -3937 0
3980 3938 3888 0
-3980 -3938 0
-3980 -3888 0
3981 3849 -3958 0
-3981 -3849 0
-3981 3958 0
3982 3906 3940 0
-3982 -3906 0
-3982 -3940 0
3983 55 3940 0
-3983 -55 0
-3983 -3940 0
3984 3941 3918 0
-3984 -3941 0
-3984 -3918 0
3985 -100 3942 0
-3985 100 0
-3985 -3942 0
3986 -129 3943 0
-3986 129 0
-3986 -3943 0
3987 3910 3944 0
-3987 -3910 0
-3987 -3944 0
3988 169 3944 0
-3988 -169 0
-3988 -3944 0
3989 3945 -3410 0
-3989 -3945 0
-3989 3410 0
3990 73 -3966 0
-3990 -73 0
-3990 3966 0
3991 100 -3967 0
-3991 -100 0
-3991 3967 0
3992 -129 -3968 0
-3992 129 0
-3992 3968 0
3993 3912 3946 0
-3993 -3912 0
-3993 -3946 0
3994 -3903 3946 0
-3994 3903 0
-3994 -3946 0
3995 3946 3870 0
-3995 -3946 0
-3995 -3870 0
3996 3913 3947 0
-3996 -3913 0
-3996 -3947 0
3997 3784 3947 0
-3997 -3784 0
-3997 -3947 0
3998 3838 3947 0
-3998 -3838 0
-3998 -3947 0
3999 3951 3952 0
-3999 -3951 0
-3999 -3952 0
4000 3953 -3930 0
-4000 -3953 0
-4000 3930 0
4001 3855 3956 0
-4001 -3855 0
-4001 -3956 0
4002 -3935 3956 0
-4002 3935 0
-4002 -3956 0
4003 -3404 3961 0
-4003 3404 0
-4003 -3961 0
4004 -3405 3962 0
-4004 3405 0
-4004 -3962 0
4005 -3407 3963 0
-4005 3407 0
-4005 -3963 0
4006 -3409 3964 0
-4006 3409 0
-4006 -3964 0
4007 55 3965 0
-4007 -55 0
-4007 -3965 0
4008 -73 3966 0
-4008 73 0
-4008 -3966 0
4009 -100 3967 0
-4009 100 0
-4009 -3967 0
4010 129 3968 0
-4010 -129 0
-4010 -3968 0
4011 169 3969 0
-4011 -169 0
-4011 -3969 0
4012 3970 3948 0
-4012 -3970 0
-4012 -3948 0
4013 3971 3972 0
-4013 -3971 0
-4013 -3972 0
4014 3973 3954 0
-4014 -3973 0
-4014 -3954 0
4015 3801 3974 0
-4015 -3801 0
-4015 -3974 0
4016 3974 3975 0
-4016 -3974 0
-4016 -3975 0
4017 3917 3977 0
-4017 -3917 0
-4017 -3977 0
4018 3320 3977 0
-4018 -3320 0
-4018 -3977 0
4019 3936 3978 0
-4019 -3936 0
-4019 -3978 0
4020 3926 3978 0
-4020 -3926 0
-4020 -3978 0
4021 3957 3979 0
-4021 -3957 0
-4021 -3979 0
4022 3817 3980 0
-4022 -3817 0
-4022 -3980 0
4023 3980 3981 0
-4023 -3980 0
-4023 -3981 0
4024 3982 3983 0
-4024 -3982 0
-4024 -3983 0
4025 3985 3959 0
-4025 -3985 0
-4025 -3959 0
4026 3986 3960 0
-4026 -3986 0
-4026 -3960 0
4027 3987 3988 0
-4027 -3987 0
-4027 -3988 0
4028 -73 -4004 0
-4028 73 0
-4028 4004 0
4029 -129 -4006 0
-4029 129 0
-4029 4006 0
4030 3443 3989 0
-4030 -3443 0
-4030 -3989 0
4031 3993 3994 0
-4031 -3993 0
-4031 -3994 0
4032 3996 3997 0
-4032 -3996 0
-4032 -3997 0
4033 3998 -3933 0
-4033 -3998 0
-4033 3933 0
4034 -4012 -3984 0
-4034 4012 0
-4034 3984 0
4035 -4015 3932 0
-4035 4015 0
-4035 -3932 0
4036 -4016 -3950 0
-4036 4016 0
-4036 3950 0
4037 4000 3976 0
-4037 -4000 0
-4037 -3976 0
4038 3260 -4018 0
-4038 -3260 0
-4038 4018 0
4039 4001 4002 0
-4039 -4001 0
-4039 -4002 0
4040 3995 -4026 0
-4040 -3995 0
-4040 4026 0
4041 55 4003 0
-4041 -55 0
-4041 -4003 0
4042 73 4004 0
-4042 -73 0
-4042 -4004 0
4043 100 4005 0
-4043 -100 0
-4043 -4005 0
4044 129 4006 0
-4044 -129 0
-4044 -4006 0
4045 169 -4030 0
-4045 -169 0
-4045 4030 0
4046 3965 4007 0
-4046 -3965 0
-4046 -4007 0
4047 55 4007 0
-4047 -55 0
-4047 -4007 0
4048 4008 3990 0
-4048 -4008 0
-4048 -3990 0
4049 3991 4009 0
-4049 -3991 0
-4049 -4009 0
4050 4010 3992 0
-4050 -4010 0
-4050 -3992 0
4051 3969 4011 0
-4051 -3969 0
-4051 -4011 0
4052 169 4011 0
-4052 -169 0
-4052 -4011 0
4053 4012 3984 0
-4053 -4012 0
-4053 -3984 0
4054 3973 4014 0
-4054 -3973 0
-4054 -4014 0
4055 3954 4014 0
-4055 -3954 0
-4055 -4014 0
4056 3879 4014 0
-4056 -3879 0
-4056 -4014 0
4057 4015 -3932 0
-4057 -4015 0
-4057 3932 0
4058 4016 3950 0
-4058 -4016 0
-4058 -3950 0
4059 4019 4020 0
-4059 -4019 0
-4059 -4020 0
4060 4022 -4025 0
-4060 -4022 0
-4060 4025 0
4061 4024 4013 0
-4061 -4024 0
-4061 -4013 0
4062 -4022 4025 0
-4062 4022 0
-4062 -4025 0
4063 4027 -3481 0
-4063 -4027 0
-4063 3481 0
4064 -169 4030 0
-4064 169 0
-4064 -4030 0
4065 -3934 -4048 0
-4065 3934 0
-4065 4048 0
4066 -3931 -4049 0
-4066 3931 0
-4066 4049 0
4067 -4050 3939 0
-4067 4050 0
-4067 -3939 0
4068 3998 4033 0
-4068 -3998 0
-4068 -4033 0
4069 -3933 4033 0
-4069 3933 0
-4069 -4033 0
4070 3970 4034 0
-4070 -3970 0
-4070 -4034 0
4071 4017 4038 0
-4071 -4017 0
-4071 -4038 0
4072 3995 4040 0
-4072 -3995 0
-4072 -4040 0
4073 -4026 4040 0
-4073 4026 0
-4073 -4040 0
4074 4003 4041 0
-4074 -4003 0
-4074 -4041 0
4075 55 4041 0
-4075 -55 0
-4075 -4041 0
4076 4042 4028 0
-4076 -4042 0
-4076 -4028 0
4077 4005 4043 0
-4077 -4005 0
-4077 -4043 0
4078 100 4043 0
-4078 -100 0
-4078 -4043 0
4079 4044 4029 0
-4079 -4044 0
-4079 -4029 0
4080 4046 4047 0
-4080 -4046 0
-4080 -4047 0
4081 3934 4048 0
-4081 -3934 0
-4081 -4048 0
4082 3931 4049 0
-4082 -3931 0
-4082 -4049 0
4083 4051 4052 0
-4083 -4051 0
-4083 -4052 0
4084 4034 4053 0
-4084 -4034 0
-4084 -4053 0
4085 4054 4055 0
-4085 -4054 0
-4085 -4055 0
4086 4057 4035 0
-4086 -4057 0
-4086 -4035 0
4087 3878 4057 0
-4087 -3878 0
-4087 -4057 0
4088 1144 4058 0
-4088 -1144 0
-4088 -4058 0
4089 4024 4061 0
-4089 -4024 0
-4089 -4061 0
4090 4013 4061 0
-4090 -4013 0
-4090 -4061 0
4091 4060 4062 0
-4091 -4060 0
-4091 -4062 0
4092 4027 4063 0
-4092 -4027 0
-4092 -4063 0
4093 -3481 4063 0
-4093 3481 0
-4093 -4063 0
4094 4039 -4076 0
-4094 -4039 0
-4094 4076 0
4095 4064 4045 0
-4095 -4064 0
-4095 -4045 0
4096 -4080 4021 0
-4096 4080 0
-4096 -4021 0
4097 -4050 4067 0
-4097 4050 0
-4097 -4067 0
4098 3939 4067 0
-4098 -3939 0
-4098 -4067 0
4099 4068 4069 0
-4099 -4068 0
-4099 -4069 0
4100 1126 -4086 0
-4100 -1126 0
-4100 4086 0
4101 -4059 -4087 0
-4101 4059 0
-4101 4087 0
4102 -4091 3999 0
-4102 4091 0
-4102 -3999 0
4103 4072 4073 0
-4103 -4072 0
-4103 -4073 0
4104 -4032 4073 0
-4104 4032 0
-4104 -4073 0
4105 4074 4075 0
-4105 -4074 0
-4105 -4075 0
4106 4002 4076 0
-4106 -4002 0
-4106 -4076 0
4107 4077 4078 0
-4107 -4077 0
-4107 -4078 0
4108 4069 4079 0
-4108 -4069 0
-4108 -4079 0
4109 3569 -4095 0
-4109 -3569 0
-4109 4095 0
4110 4080 -4021 0
-4110 -4080 0
-4110 4021 0
4111 4081 4065 0
-4111 -4081 0
-4111 -4065 0
4112 4082 4066 0
-4112 -4082 0
-4112 -4066 0
4113 4083 3438 0
-4113 -4083 0
-4113 -3438 0
4114 4059 4087 0
-4114 -4059 0
-4114 -4087 0
4115 4088 4036 0
-4115 -4088 0
-4115 -4036 0
4116 4089 4090 0
-4116 -4089 0
-4116 -4090 0
4117 4072 -4104 0
-4117 -4072 0
-4117 4104 0
4118 4092 4093 0
-4118 -4092 0
-4118 -4093 0
4119 3956 4094 0
-4119 -3956 0
-4119 -4094 0
4120 4001 -4106 0
-4120 -4001 0
-4120 4106 0
4121 -4107 4037 0
-4121 4107 0
-4121 -4037 0
4122 4068 -4108 0
-4122 -4068 0
-4122 4108 0
4123 -3569 4095 0
-4123 3569 0
-4123 -4095 0
4124 -4111 -4023 0
-4124 4111 0
-4124 4023 0
4125 4031 -4112 0
-4125 -4031 0
-4125 4112 0
4126 4097 4098 0
-4126 -4097 0
-4126 -4098 0
4127 4099 -4079 0
-4127 -4099 0
-4127 4079 0
4128 1126 4100 0
-4128 -1126 0
-4128 -4100 0
4129 -4086 4100 0
-4129 4086 0
-4129 -4100 0
4130 -4091 4102 0
-4130 4091 0
-4130 -4102 0
4131 3999 4102 0
-4131 -3999 0
-4131 -4102 0
4132 4060 4102 0
-4132 -4060 0
-4132 -4102 0
4133 4032 4103 0
-4133 -4032 0
-4133 -4103 0
4134 4018 -4118 0
-4134 -4018 0
-4134 4118 0
4135 4105 4085 0
-4135 -4105 0
-4135 -4085 0
4136 4107 -4037 0
-4136 -4107 0
-4136 4037 0
4137 3497 4109 0
-4137 -3497 0
-4137 -4109 0
4138 4110 4096 0
-4138 -4110 0
-4138 -4096 0
4139 3957 4110 0
-4139 -3957 0
-4139 -4110 0
4140 4111 4023 0
-4140 -4111 0
-4140 -4023 0
4141 -4126 4071 0
-4141 4126 0
-4141 -4071 0
4142 4083 4113 0
-4142 -4083 0
-4142 -4113 0
4143 3438 4113 0
-4143 -3438 0
-4143 -4113 0
4144 4113 3402 0
-4144 -4113 0
-4144 -3402 0
4145 4101 4114 0
-4145 -4101 0
-4145 -4114 0
4146 3978 4114 0
-4146 -3978 0
-4146 -4114 0
4147 -4018 4118 0
-4147 4018 0
-4147 -4118 0
4148 4018 4118 0
-4148 -4018 0
-4148 -4118 0
4149 4094 4120 0
-4149 -4094 0
-4149 -4120 0
4150 4109 4123 0
-4150 -4109 0
-4150 -4123 0
4151 4056 -4138 0
-4151 -4056 0
-4151 4138 0
4152 -4139 4084 0
-4152 4139 0
-4152 -4084 0
4153 4081 4124 0
-4153 -4081 0
-4153 -4124 0
4154 4031 4125 0
-4154 -4031 0
-4154 -4125 0
4155 -4112 4125 0
-4155 4112 0
-4155 -4125 0
4156 4082 4125 0
-4156 -4082 0
-4156 -4125 0
4157 4126 -4071 0
-4157 -4126 0
-4157 4071 0
4158 4126 4071 0
-4158 -4126 0
-4158 -4071 0
4159 4127 4122 0
-4159 -4127 0
-4159 -4122 0
4160 4033 4127 0
-4160 -4033 0
-4160 -4127 0
4161 4128 4129 0
-4161 -4128 0
-4161 -4129 0
4162 -4145 1075 0
-4162 4145 0
-4162 -1075 0
4163 -4116 -4146 0
-4163 4116 0
-4163 4146 0
4164 4130 4131 0
-4164 -4130 0
-4164 -4131 0
4165 4133 4117 0
-4165 -4133 0
-4165 -4117 0
4166 4040 4133 0
-4166 -4040 0
-4166 -4133 0
4167 4105 4135 0
-4167 -4105 0
-4167 -4135 0
4168 4085 4135 0
-4168 -4085 0
-4168 -4135 0
4169 4070 -4149 0
-4169 -4070 0
-4169 4149 0
4170 4136 4121 0
-4170 -4136 0
-4170 -4121 0
4171 4000 4136 0
-4171 -4000 0
-4171 -4136 0
4172 -4056 4138 0
-4172 4056 0
-4172 -4138 0
4173 4139 -4084 0
-4173 -4139 0
-4173 4084 0
4174 4124 4140 0
-4174 -4124 0
-4174 -4140 0
4175 4142 4143 0
-4175 -4142 0
-4175 -4143 0
4176 4145 -1075 0
-4176 -4145 0
-4176 1075 0
4177 4116 4146 0
-4177 -4116 0
-4177 -4146 0
4178 4134 4147 0
-4178 -4134 0
-4178 -4147 0
4179 4063 4148 0
-4179 -4063 0
-4179 -4148 0
4180 -4070 4149 0
-4180 4070 0
-4180 -4149 0
4181 4132 -4170 0
-4181 -4132 0
-4181 4170 0
4182 4153 -4164 0
-4182 -4153 0
-4182 4164 0
4183 4119 -4174 0
-4183 -4119 0
-4183 4174 0
4184 4154 4155 0
-4184 -4154 0
-4184 -4155 0
4185 4156 -4165 0
-4185 -4156 0
-4185 4165 0
4186 4157 4141 0
-4186 -4157 0
-4186 -4141 0
4187 4067 4158 0
-4187 -4067 0
-4187 -4158 0
4188 -4175 -4137 0
-4188 4175 0
-4188 4137 0
4189 -4166 4159 0
-4189 4166 0
-4189 -4159 0
4190 4115 4161 0
-4190 -4115 0
-4190 -4161 0
4191 -4153 4164 0
-4191 4153 0
-4191 -4164 0
4192 4153 4164 0
-4192 -4153 0
-4192 -4164 0
4193 -4156 4165 0
-4193 4156 0
-4193 -4165 0
4194 4166 -4159 0
-4194 -4166 0
-4194 4159 0
4195 -4179 4150 0
-4195 4179 0
-4195 -4150 0
4196 4167 4168 0
-4196 -4167 0
-4196 -4168 0
4197 -4132 4170 0
-4197 4132 0
-4197 -4170 0
4198 4151 4172 0
-4198 -4151 0
-4198 -4172 0
4199 4173 4152 0
-4199 -4173 0
-4199 -4152 0
4200 -4119 4174 0
-4200 4119 0
-4200 -4174 0
4201 4171 -4184 0
-4201 -4171 0
-4201 4184 0
4202 -4160 -4186 0
-4202 4160 0
-4202 4186 0
4203 -4178 -4187 0
-4203 4178 0
-4203 4187 0
4204 4175 4137 0
-4204 -4175 0
-4204 -4137 0
4205 4176 4162 0
-4205 -4176 0
-4205 -4162 0
4206 4163 4177 0
-4206 -4163 0
-4206 -4177 0
4207 4061 4177 0
-4207 -4061 0
-4207 -4177 0
4208 4179 -4150 0
-4208 -4179 0
-4208 4150 0
4209 4169 4180 0
-4209 -4169 0
-4209 -4180 0
4210 -4171 4184 0
-4210 4171 0
-4210 -4184 0
4211 4171 4184 0
-4211 -4171 0
-4211 -4184 0
4212 4160 4186 0
-4212 -4160 0
-4212 -4186 0
4213 4178 4187 0
-4213 -4178 0
-4213 -4187 0
4214 4100 4190 0
-4214 -4100 0
-4214 -4190 0
4215 4115 4190 0
-4215 -4115 0
-4215 -4190 0
4216 4161 4190 0
-4216 -4161 0
-4216 -4190 0
4217 -4206 1090 0
-4217 4206 0
-4217 -1090 0
4218 4182 4191 0
-4218 -4182 0
-4218 -4191 0
4219 4185 4193 0
-4219 -4185 0
-4219 -4193 0
4220 4194 4189 0
-4220 -4194 0
-4220 -4189 0
4221 -4207 4196 0
-4221 4207 0
-4221 -4196 0
4222 4181 4197 0
-4222 -4181 0
-4222 -4197 0
4223 4183 4200 0
-4223 -4183 0
-4223 -4200 0
4224 4188 4204 0
-4224 -4188 0
-4224 -4204 0
4225 -4214 4205 0
-4225 4214 0
-4225 -4205 0
4226 4206 -1090 0
-4226 -4206 0
-4226 1090 0
4227 4207 -4196 0
-4227 -4207 0
-4227 4196 0
4228 4207 4196 0
-4228 -4207 0
-4228 -4196 0
4229 4208 4195 0
-4229 -4208 0
-4229 -4195 0
4230 4201 4210 0
-4230 -4201 0
-4230 -4210 0
4231 4212 4202 0
-4231 -4212 0
-4231 -4202 0
4232 4213 4203 0
-4232 -4213 0
-4232 -4203 0
4233 4214 -4205 0
-4233 -4214 0
-4233 4205 0
4234 4215 4216 0
-4234 -4215 0
-4234 -4216 0
4235 4226 4217 0
-4235 -4226 0
-4235 -4217 0
4236 4227 4221 0
-4236 -4227 0
-4236 -4221 0
4237 4135 4228 0
-4237 -4135 0
-4237 -4228 0
4238 4233 4225 0
-4238 -4233 0
-4238 -4225 0
4239 4162 4233 0
-4239 -4162 0
-4239 -4233 0
4240 -1095 -4236 0
-4240 1095 0
-4240 4236 0
4241 -4237 4198 0
-4241 4237 0
-4241 -4198 0
4242 -4238 4234 0
-4242 4238 0
-4242 -4234 0
4243 -4239 4235 0
-4243 4239 0
-4243 -4235 0
4244 1095 4236 0
-4244 -1095 0
-4244 -4236 0
4245 4237 -4198 0
-4245 -4237 0
-4245 4198 0
4246 4239 -4235 0
-4246 -4239 0
-4246 4235 0
4247 -4238 4242 0
-4247 4238 0
-4247 -4242 0
4248 4234 4242 0
-4248 -4234 0
-4248 -4242 0
4249 4245 4241 0
-4249 -4245 0
-4249 -4241 0
4250 4151 4245 0
-4250 -4151 0
-4250 -4245 0
-4251 4247 4248 0
4251 -4247 0
4251 -4248 0
4252 4246 4243 0
-4252 -4246 0
-4252 -4243 0
4253 4217 4246 0
-4253 -4217 0
-4253 -4246 0
4254 1072 -4249 0
-4254 -1072 0
-4254 4249 0
4255 -4250 4199 0
-4255 4250 0
-4255 -4199 0
4256 -4251 38 0
-4256 4251 0
-4256 -38 0
4257 -4242 -4252 0
-4257 4242 0
-4257 4252 0
4258 4250 -4199 0
-4258 -4250 0
-4258 4199 0
4259 4242 4252 0
-4259 -4242 0
-4259 -4252 0
4260 4253 4240 0
-4260 -4253 0
-4260 -4240 0
4261 1072 4254 0
-4261 -1072 0
-4261 -4254 0
4262 -4249 4254 0
-4262 4249 0
-4262 -4254 0
4263 4244 -4260 0
-4263 -4244 0
-4263 4260 0
4264 4255 4258 0
-4264 -4255 0
-4264 -4258 0
4265 4173 4258 0
-4265 -4173 0
-4265 -4258 0
4266 4257 4259 0
-4266 -4257 0
-4266 -4259 0
4267 4261 4262 0
-4267 -4261 0
-4267 -4262 0
4268 1082 -4264 0
-4268 -1082 0
-4268 4264 0
4269 -4265 4209 0
-4269 4265 0
-4269 -4209 0
4270 -4266 4256 0
-4270 4266 0
-4270 -4256 0
4271 4253 4263 0
-4271 -4253 0
-4271 -4263 0
4272 4244 4263 0
-4272 -4244 0
-4272 -4263 0
4273 -1082 4264 0
-4273 1082 0
-4273 -4264 0
4274 4265 -4209 0
-4274 -4265 0
-4274 4209 0
4275 4266 -4256 0
-4275 -4266 0
-4275 4256 0
4276 4251 4266 0
-4276 -4251 0
-4276 -4266 0
4277 4240 -4272 0
-4277 -4240 0
-4277 4272 0
4278 -4272 4262 0
-4278 4272 0
-4278 -4262 0
-4279 4275 4270 0
4279 -4275 0
4279 -4270 0
4280 4272 4267 0
-4280 -4272 0
-4280 -4267 0
4281 4261 -4278 0
-4281 -4261 0
-4281 4278 0
4282 4273 4268 0
-4282 -4273 0
-4282 -4268 0
4283 4274 4269 0
-4283 -4274 0
-4283 -4269 0
4284 4169 4274 0
-4284 -4169 0
-4284 -4274 0
4285 38 4276 0
-4285 -38 0
-4285 -4276 0
4286 4271 4277 0
-4286 -4271 0
-4286 -4277 0
4287 1123 -4283 0
-4287 -1123 0
-4287 4283 0
4288 -4284 4223 0
-4288 4284 0
-4288 -4223 0
4289 4257 -4286 0
-4289 -4257 0
-4289 4286 0
4290 4254 4280 0
-4290 -4254 0
-4290 -4280 0
4291 4280 4281 0
-4291 -4280 0
-4291 -4281 0
4292 -1123 4283 0
-4292 1123 0
-4292 -4283 0
4293 4284 -4223 0
-4293 -4284 0
-4293 4223 0
4294 -4257 4286 0
-4294 4257 0
-4294 -4286 0
4295 -4290 4282 0
-4295 4290 0
-4295 -4282 0
4296 -4294 -4291 0
-4296 4294 0
-4296 4291 0
4297 4290 -4282 0
-4297 -4290 0
-4297 4282 0
4298 4292 4287 0
-4298 -4292 0
-4298 -4287 0
4299 4293 4288 0
-4299 -4293 0
-4299 -4288 0
4300 4183 4293 0
-4300 -4183 0
-4300 -4293 0
4301 4289 4294 0
-4301 -4289 0
-4301 -4294 0
4302 1110 -4299 0
-4302 -1110 0
-4302 4299 0
4303 -4218 -4300 0
-4303 4218 0
-4303 4300 0
4304 -4301 4285 0
-4304 4301 0
-4304 -4285 0
4305 -4291 4296 0
-4305 4291 0
-4305 -4296 0
4306 -4294 4296 0
-4306 4294 0
-4306 -4296 0
4307 4297 4295 0
-4307 -4297 0
-4307 -4295 0
4308 4268 4297 0
-4308 -4268 0
-4308 -4297 0
4309 -1110 4299 0
-4309 1110 0
-4309 -4299 0
4310 4218 4300 0
-4310 -4218 0
-4310 -4300 0
4311 4301 -4285 0
-4311 -4301 0
-4311 4285 0
4312 4301 -4276 0
-4312 -4301 0
-4312 4276 0
4313 -4296 -4307 0
-4313 4296 0
-4313 4307 0
4314 -4308 4298 0
-4314 4308 0
-4314 -4298 0
-4315 4311 4304 0
4315 -4311 0
4315 -4304 0
4316 4305 4306 0
-4316 -4305 0
-4316 -4306 0
4317 4296 4307 0
-4317 -4296 0
-4317 -4307 0
4318 4308 -4298 0
-4318 -4308 0
-4318 4298 0
4319 4309 4302 0
-4319 -4309 0
-4319 -4302 0
4320 4303 4310 0
-4320 -4303 0
-4320 -4310 0
4321 4310 4192 0
-4321 -4310 0
-4321 -4192 0
4322 38 4312 0
-4322 -38 0
-4322 -4312 0
4323 -4316 -4312 0
-4323 4316 0
-4323 4312 0
4324 -4320 1162 0
-4324 4320 0
-4324 -1162 0
4325 -4321 4222 0
-4325 4321 0
-4325 -4222 0
4326 4316 -4322 0
-4326 -4316 0
-4326 4322 0
4327 4317 4313 0
-4327 -4317 0
-4327 -4313 0
4328 4318 4314 0
-4328 -4318 0
-4328 -4314 0
4329 4287 4318 0
-4329 -4287 0
-4329 -4318 0
4330 4320 -1162 0
-4330 -4320 0
-4330 1162 0
4331 4321 -4222 0
-4331 -4321 0
-4331 4222 0
4332 -4316 4322 0
-4332 4316 0
-4332 -4322 0
4333 38 4323 0
-4333 -38 0
-4333 -4323 0
4334 -4313 -4328 0
-4334 4313 0
-4334 4328 0
4335 -4329 4319 0
-4335 4329 0
-4335 -4319 0
4336 4327 -4333 0
-4336 -4327 0
-4336 4333 0
4337 4327 -4323 0
-4337 -4327 0
-4337 4323 0
4338 4313 4328 0
-4338 -4313 0
-4338 -4328 0
4339 4329 -4319 0
-4339 -4329 0
-4339 4319 0
4340 4324 4330 0
-4340 -4324 0
-4340 -4330 0
4341 4331 4325 0
-4341 -4331 0
-4341 -4325 0
4342 4181 4331 0
-4342 -4181 0
-4342 -4331 0
4343 4326 4332 0
-4343 -4326 0
-4343 -4332 0
4344 -4327 4333 0
-4344 4327 0
-4344 -4333 0
4345 1196 -4341 0
-4345 -1196 0
-4345 4341 0
4346 -4230 -4342 0
-4346 4230 0
-4346 4342 0
-4347 4336 4344 0
4347 -4336 0
4347 -4344 0
4348 38 4337 0
-4348 -38 0
-4348 -4337 0
4349 4338 4334 0
-4349 -4338 0
-4349 -4334 0
4350 4339 4335 0
-4350 -4339 0
-4350 -4335 0
4351 4302 4339 0
-4351 -4302 0
-4351 -4339 0
4352 -1196 4341 0
-4352 1196 0
-4352 -4341 0
4353 4230 4342 0
-4353 -4230 0
-4353 -4342 0
4354 -4334 -4350 0
-4354 4334 0
-4354 4350 0
4355 -4351 4340 0
-4355 4351 0
-4355 -4340 0
4356 -4349 4348 0
-4356 4349 0
-4356 -4348 0
4357 4349 -4348 0
-4357 -4349 0
-4357 4348 0
4358 4349 -4337 0
-4358 -4349 0
-4358 4337 0
4359 4334 4350 0
-4359 -4334 0
-4359 -4350 0
4360 4351 -4340 0
-4360 -4351 0
-4360 4340 0
4361 4352 4345 0
-4361 -4352 0
-4361 -4345 0
4362 4346 4353 0
-4362 -4346 0
-4362 -4353 0
4363 4353 4211 0
-4363 -4353 0
-4363 -4211 0
-4364 4357 4356 0
4364 -4357 0
4364 -4356 0
4365 1103 -4362 0
-4365 -1103 0
-4365 4362 0
4366 -4363 4219 0
-4366 4363 0
-4366 -4219 0
4367 38 4358 0
-4367 -38 0
-4367 -4358 0
4368 4359 4354 0
-4368 -4359 0
-4368 -4354 0
4369 4360 4355 0
-4369 -4360 0
-4369 -4355 0
4370 4324 4360 0
-4370 -4324 0
-4370 -4360 0
4371 -1103 4362 0
-4371 1103 0
-4371 -4362 0
4372 4363 -4219 0
-4372 -4363 0
-4372 4219 0
4373 -4354 -4369 0
-4373 4354 0
-4373 4369 0
4374 -4370 4361 0
-4374 4370 0
-4374 -4361 0
4375 -4368 4367 0
-4375 4368 0
-4375 -4367 0
4376 4368 -4367 0
-4376 -4368 0
-4376 4367 0
4377 4368 -4358 0
-4377 -4368 0
-4377 4358 0
4378 4354 4369 0
-4378 -4354 0
-4378 -4369 0
4379 4370 -4361 0
-4379 -4370 0
-4379 4361 0
4380 4371 4365 0
-4380 -4371 0
-4380 -4365 0
4381 4372 4366 0
-4381 -4372 0
-4381 -4366 0
4382 4185 4372 0
-4382 -4185 0
-4382 -4372 0
-4383 4376 4375 0
4383 -4376 0
4383 -4375 0
4384 1131 -4381 0
-4384 -1131 0
-4384 4381 0
4385 -4382 4220 0
-4385 4382 0
-4385 -4220 0
4386 38 4377 0
-4386 -38 0
-4386 -4377 0
4387 4373 4378 0
-4387 -4373 0
-4387 -4378 0
4388 4379 4374 0
-4388 -4379 0
-4388 -4374 0
4389 4345 4379 0
-4389 -4345 0
-4389 -4379 0
4390 -1131 4381 0
-4390 1131 0
-4390 -4381 0
4391 4382 -4220 0
-4391 -4382 0
-4391 4220 0
4392 -4373 -4388 0
-4392 4373 0
-4392 4388 0
4393 -4389 4380 0
-4393 4389 0
-4393 -4380 0
4394 -4387 4386 0
-4394 4387 0
-4394 -4386 0
4395 4387 -4386 0
-4395 -4387 0
-4395 4386 0
4396 4387 -4377 0
-4396 -4387 0
-4396 4377 0
4397 4373 4388 0
-4397 -4373 0
-4397 -4388 0
4398 4389 -4380 0
-4398 -4389 0
-4398 4380 0
4399 4390 4384 0
-4399 -4390 0
-4399 -4384 0
4400 4391 4385 0
-4400 -4391 0
-4400 -4385 0
4401 4194 4391 0
-4401 -4194 0
-4401 -4391 0
-4402 4395 4394 0
4402 -4395 0
4402 -4394 0
4403 1214 -4400 0
-4403 -1214 0
-4403 4400 0
4404 -4401 4231 0
-4404 4401 0
-4404 -4231 0
4405 38 4396 0
-4405 -38 0
-4405 -4396 0
4406 4397 4392 0
-4406 -4397 0
-4406 -4392 0
4407 4398 4393 0
-4407 -4398 0
-4407 -4393 0
4408 4365 4398 0
-4408 -4365 0
-4408 -4398 0
4409 -1214 4400 0
-4409 1214 0
-4409 -4400 0
4410 4401 -4231 0
-4410 -4401 0
-4410 4231 0
4411 -4392 -4407 0
-4411 4392 0
-4411 4407 0
4412 -4408 4399 0
-4412 4408 0
-4412 -4399 0
4413 -4406 4405 0
-4413 4406 0
-4413 -4405 0
4414 4406 -4405 0
-4414 -4406 0
-4414 4405 0
4415 4406 -4396 0
-4415 -4406 0
-4415 4396 0
4416 4392 4407 0
-4416 -4392 0
-4416 -4407 0
4417 4408 -4399 0
-4417 -4408 0
-4417 4399 0
4418 4409 4403 0
-4418 -4409 0
-4418 -4403 0
4419 4410 4404 0
-4419 -4410 0
-4419 -4404 0
4420 4212 4410 0
-4420 -4212 0
-4420 -4410 0
-4421 4414 4413 0
4421 -4414 0
4421 -4413 0
4422 1137 -4419 0
-4422 -1137 0
-4422 4419 0
4423 -4420 4232 0
-4423 4420 0
-4423 -4232 0
4424 38 4415 0
-4424 -38 0
-4424 -4415 0
4425 4416 4411 0
-4425 -4416 0
-4425 -4411 0
4426 4417 4412 0
-4426 -4417 0
-4426 -4412 0
4427 4384 4417 0
-4427 -4384 0
-4427 -4417 0
4428 -1137 4419 0
-4428 1137 0
-4428 -4419 0
4429 4420 -4232 0
-4429 -4420 0
-4429 4232 0
4430 -4411 -4426 0
-4430 4411 0
-4430 4426 0
4431 -4427 4418 0
-4431 4427 0
-4431 -4418 0
4432 -4425 4424 0
-4432 4425 0
-4432 -4424 0
4433 4425 -4424 0
-4433 -4425 0
-4433 4424 0
4434 4425 -4415 0
-4434 -4425 0
-4434 4415 0
4435 4411 4426 0
-4435 -4411 0
-4435 -4426 0
4436 4427 -4418 0
-4436 -4427 0
-4436 4418 0
4437 4428 4422 0
-4437 -4428 0
-4437 -4422 0
4438 4429 4423 0
-4438 -4429 0
-4438 -4423 0
4439 4213 4429 0
-4439 -4213 0
-4439 -4429 0
-4440 4433 4432 0
4440 -4433 0
4440 -4432 0
4441 1080 -4438 0
-4441 -1080 0
-4441 4438 0
4442 -4439 4229 0
-4442 4439 0
-4442 -4229 0
4443 38 4434 0
-4443 -38 0
-4443 -4434 0
4444 4435 4430 0
-4444 -4435 0
-4444 -4430 0
4445 4436 4431 0
-4445 -4436 0
-4445 -4431 0
4446 4403 4436 0
-4446 -4403 0
-4446 -4436 0
4447 -1080 4438 0
-4447 1080 0
-4447 -4438 0
4448 4439 -4229 0
-4448 -4439 0
-4448 4229 0
4449 -4430 -4445 0
-4449 4430 0
-4449 4445 0
4450 -4446 4437 0
-4450 4446 0
-4450 -4437 0
4451 -4444 4443 0
-4451 4444 0
-4451 -4443 0
4452 4444 -4443 0
-4452 -4444 0
-4452 4443 0
4453 4444 -4434 0
-4453 -4444 0
-4453 4434 0
4454 4430 4445 0
-4454 -4430 0
-4454 -4445 0
4455 4446 -4437 0
-4455 -4446 0
-4455 4437 0
4456 4448 4442 0
-4456 -4448 0
-4456 -4442 0
4457 4208 4448 0
-4457 -4208 0
-4457 -4448 0
-4458 4452 4451 0
4458 -4452 0
4458 -4451 0
4459 1113 -4456 0
-4459 -1113 0
-4459 4456 0
4460 4224 -4457 0
-4460 -4224 0
-4460 4457 0
4461 38 4453 0
-4461 -38 0
-4461 -4453 0
4462 4454 4449 0
-4462 -4454 0
-4462 -4449 0
4463 4455 4450 0
-4463 -4455 0
-4463 -4450 0
4464 4422 4455 0
-4464 -4422 0
-4464 -4455 0
4465 -1113 4456 0
-4465 1113 0
-4465 -4456 0
4466 -4224 4457 0
-4466 4224 0
-4466 -4457 0
4467 -4449 -4463 0
-4467 4449 0
-4467 4463 0
4468 -4462 4461 0
-4468 4462 0
-4468 -4461 0
4469 4462 -4461 0
-4469 -4462 0
-4469 4461 0
4470 4462 -4453 0
-4470 -4462 0
-4470 4453 0
4471 4449 4463 0
-4471 -4449 0
-4471 -4463 0
4472 4464 4447 0
-4472 -4464 0
-4472 -4447 0
4473 4465 4459 0
-4473 -4465 0
-4473 -4459 0
4474 4460 4466 0
-4474 -4460 0
-4474 -4466 0
4475 4204 4466 0
-4475 -4204 0
-4475 -4466 0
-4476 4469 4468 0
4476 -4469 0
4476 -4468 0
4477 4441 -4472 0
-4477 -4441 0
-4477 4472 0
4478 1209 -4474 0
-4478 -1209 0
-4478 4474 0
4479 -4475 4144 0
-4479 4475 0
-4479 -4144 0
4480 38 4470 0
-4480 -38 0
-4480 -4470 0
4481 4471 4467 0
-4481 -4471 0
-4481 -4467 0
4482 -1209 4474 0
-4482 1209 0
-4482 -4474 0
4483 4475 -4144 0
-4483 -4475 0
-4483 4144 0
4484 4464 4477 0
-4484 -4464 0
-4484 -4477 0
4485 4441 4477 0
-4485 -4441 0
-4485 -4477 0
4486 -4481 4480 0
-4486 4481 0
-4486 -4480 0
4487 4481 -4480 0
-4487 -4481 0
-4487 4480 0
4488 4481 -4470 0
-4488 -4481 0
-4488 4470 0
4489 4447 -4485 0
-4489 -4447 0
-4489 4485 0
4490 -4485 4473 0
-4490 4485 0
-4490 -4473 0
4491 4483 4479 0
-4491 -4483 0
-4491 -4479 0
-4492 4487 4486 0
4492 -4487 0
4492 -4486 0
4493 4485 -4473 0
-4493 -4485 0
-4493 4473 0
4494 -4491 3457 0
-4494 4491 0
-4494 -3457 0
4495 38 4488 0
-4495 -38 0
-4495 -4488 0
4496 4484 4489 0
-4496 -4484 0
-4496 -4489 0
4497 4491 -3457 0
-4497 -4491 0
-4497 3457 0
4498 4467 -4496 0
-4498 -4467 0
-4498 4496 0
4499 4493 4490 0
-4499 -4493 0
-4499 -4490 0
4500 4459 4493 0
-4500 -4459 0
-4500 -4493 0
4501 -4467 4496 0
-4501 4467 0
-4501 -4496 0
4502 4494 4497 0
-4502 -4494 0
-4502 -4497 0
4503 -4501 -4499 0
-4503 4501 0
-4503 4499 0
4504 4500 4482 0
-4504 -4500 0
-4504 -4482 0
4505 -1192 -4502 0
-4505 1192 0
-4505 4502 0
4506 4498 4501 0
-4506 -4498 0
-4506 -4501 0
4507 4501 4499 0
-4507 -4501 0
-4507 -4499 0
4508 4478 -4504 0
-4508 -4478 0
-4508 4504 0
4509 1192 4502 0
-4509 -1192 0
-4509 -4502 0
4510 -4506 4495 0
-4510 4506 0
-4510 -4495 0
4511 4506 -4495 0
-4511 -4506 0
-4511 4495 0
4512 4506 -4488 0
-4512 -4506 0
-4512 4488 0
4513 4507 4503 0
-4513 -4507 0
-4513 -4503 0
4514 4500 4508 0
-4514 -4500 0
-4514 -4508 0
4515 4478 4508 0
-4515 -4478 0
-4515 -4508 0
-4516 4511 4510 0
4516 -4511 0
4516 -4510 0
4517 4482 -4515 0
-4517 -4482 0
-4517 4515 0
4518 38 4512 0
-4518 -38 0
-4518 -4512 0
4519 4513 -4512 0
-4519 -4513 0
-4519 4512 0
4520 4515 4505 0
-4520 -4515 0
-4520 -4505 0
4521 4513 -4518 0
-4521 -4513 0
-4521 4518 0
4522 4514 4517 0
-4522 -4514 0
-4522 -4517 0
4523 4509 -4520 0
-4523 -4509 0
-4523 4520 0
4524 -4513 4518 0
-4524 4513 0
-4524 -4518 0
4525 38 4519 0
-4525 -38 0
-4525 -4519 0
4526 4503 -4522 0
-4526 -4503 0
-4526 4522 0
-4527 4521 4524 0
4527 -4521 0
4527 -4524 0
4528 -4503 4522 0
-4528 4503 0
-4528 -4522 0
4529 4515 4523 0
-4529 -4515 0
-4529 -4523 0
4530 4509 4523 0
-4530 -4509 0
-4530 -4523 0
4531 4505 -4530 0
-4531 -4505 0
-4531 4530 0
4532 -4530 -1124 0
-4532 4530 0
-4532 1124 0
4533 4526 4528 0
-4533 -4526 0
-4533 -4528 0
4534 4530 1124 0
-4534 -4530 0
-4534 -1124 0
4535 -4533 4525 0
-4535 4533 0
-4535 -4525 0
4536 4529 4531 0
-4536 -4529 0
-4536 -4531 0
4537 -4534 1195 0
-4537 4534 0
-4537 -1195 0
4538 4533 -4525 0
-4538 -4533 0
-4538 4525 0
4539 4533 -4519 0
-4539 -4533 0
-4539 4519 0
4540 4528 -4536 0
-4540 -4528 0
-4540 4536 0
4541 4534 4532 0
-4541 -4534 0
-4541 -4532 0
4542 4534 -1195 0
-4542 -4534 0
-4542 1195 0
4543 -4537 1210 0
-4543 4537 0
-4543 -1210 0
-4544 4538 4535 0
4544 -4538 0
4544 -4535 0
4545 -4528 4536 0
-4545 4528 0
-4545 -4536 0
4546 4537 -1210 0
-4546 -4537 0
-4546 1210 0
4547 -4543 1197 0
-4547 4543 0
-4547 -1197 0
4548 38 4539 0
-4548 -38 0
-4548 -4539 0
4549 -4545 -4541 0
-4549 4545 0
-4549 4541 0
4550 -4545 4541 0
-4550 4545 0
-4550 -4541 0
4551 4537 4542 0
-4551 -4537 0
-4551 -4542 0
4552 4543 -1197 0
-4552 -4543 0
-4552 1197 0
4553 -4547 1199 0
-4553 4547 0
-4553 -1199 0
4554 4540 4545 0
-4554 -4540 0
-4554 -4545 0
4555 4545 -4541 0
-4555 -4545 0
-4555 4541 0
4556 -4549 4542 0
-4556 4549 0
-4556 -4542 0
4557 4546 4543 0
-4557 -4546 0
-4557 -4543 0
4558 4547 -1199 0
-4558 -4547 0
-4558 1199 0
4559 -4553 1198 0
-4559 4553 0
-4559 -1198 0
4560 -4554 4548 0
-4560 4554 0
-4560 -4548 0
4561 4549 4551 0
-4561 -4549 0
-4561 -4551 0
4562 -4556 -4557 0
-4562 4556 0
-4562 4557 0
4563 4547 4552 0
-4563 -4547 0
-4563 -4552 0
4564 4553 -1198 0
-4564 -4553 0
-4564 1198 0
4565 4554 -4548 0
-4565 -4554 0
-4565 4548 0
4566 4554 -4539 0
-4566 -4554 0
-4566 4539 0
4567 4555 4550 0
-4567 -4555 0
-4567 -4550 0
4568 4556 4557 0
-4568 -4556 0
-4568 -4557 0
4569 -4562 4552 0
-4569 4562 0
-4569 -4552 0
4570 4558 4553 0
-4570 -4558 0
-4570 -4553 0
-4571 4565 4560 0
4571 -4565 0
4571 -4560 0
4572 -4567 -4566 0
-4572 4567 0
-4572 4566 0
4573 4561 4556 0
-4573 -4561 0
-4573 -4556 0
4574 4562 4563 0
-4574 -4562 0
-4574 -4563 0
4575 -4569 -4570 0
-4575 4569 0
-4575 4570 0
4576 4559 4564 0
-4576 -4559 0
-4576 -4564 0
4577 38 4566 0
-4577 -38 0
-4577 -4566 0
4578 4568 4562 0
-4578 -4568 0
-4578 -4562 0
4579 4569 4570 0
-4579 -4569 0
-4579 -4570 0
4580 -4575 4564 0
-4580 4575 0
-4580 -4564 0
4581 4567 -4577 0
-4581 -4567 0
-4581 4577 0
4582 38 4572 0
-4582 -38 0
-4582 -4572 0
4583 4573 -4572 0
-4583 -4573 0
-4583 4572 0
4584 4574 4569 0
-4584 -4574 0
-4584 -4569 0
4585 -4559 -4580 0
-4585 4559 0
-4585 4580 0
4586 4575 4576 0
-4586 -4575 0
-4586 -4576 0
4587 -4567 4577 0
-4587 4567 0
-4587 -4577 0
4588 4573 -4582 0
-4588 -4573 0
-4588 4582 0
4589 4578 -4583 0
-4589 -4578 0
-4589 4583 0
4590 4579 4575 0
-4590 -4579 0
-4590 -4575 0
4591 4559 4580 0
-4591 -4559 0
-4591 -4580 0
4592 -4573 4582 0
-4592 4573 0
-4592 -4582 0
4593 38 4583 0
-4593 -38 0
-4593 -4583 0
4594 4584 -4589 0
-4594 -4584 0
-4594 4589 0
4595 4586 4580 0
-4595 -4586 0
-4595 -4580 0
4596 4581 4587 0
-4596 -4581 0
-4596 -4587 0
-4597 4588 4592 0
4597 -4588 0
4597 -4592 0
4598 4578 -4593 0
-4598 -4578 0
-4598 4593 0
4599 38 4589 0
-4599 -38 0
-4599 -4589 0
4600 4590 -4594 0
-4600 -4590 0
-4600 4594 0
4601 4591 4585 0
-4601 -4591 0
-4601 -4585 0
4602 -4578 4593 0
-4602 4578 0
-4602 -4593 0
4603 4584 -4599 0
-4603 -4584 0
-4603 4599 0
4604 38 4594 0
-4604 -38 0
-4604 -4594 0
4605 4595 -4600 0
-4605 -4595 0
-4605 4600 0
-4606 4598 4602 0
4606 -4598 0
4606 -4602 0
4607 -4584 4599 0
-4607 4584 0
-4607 -4599 0
4608 4590 -4604 0
-4608 -4590 0
-4608 4604 0
4609 38 4600 0
-4609 -38 0
-4609 -4600 0
4610 4591 -4605 0
-4610 -4591 0
-4610 4605 0
-4611 4603 4607 0
4611 -4603 0
4611 -4607 0
4612 -4590 4604 0
-4612 4590 0
-4612 -4604 0
4613 4595 -4609 0
-4613 -4595 0
-4613 4609 0
4614 38 4605 0
-4614 -38 0
-4614 -4605 0
4615 4585 4605 0
-4615 -4585 0
-4615 -4605 0
-4616 4608 4612 0
4616 -4608 0
4616 -4612 0
4617 -4595 4609 0
-4617 4595 0
-4617 -4609 0
4618 4601 -4614 0
-4618 -4601 0
-4618 4614 0
-4619 4613 4617 0
4619 -4613 0
4619 -4617 0
4620 -4601 4614 0
-4620 4601 0
-4620 -4614 0
4621 4610 4615 0
-4621 -4610 0
-4621 -4615 0
4622 182 -4621 0
-4622 -182 0
-4622 4621 0
4623 4620 4618 0
-4623 -4620 0
-4623 -4618 0
4624 38 4622 0
-4624 -38 0
-4624 -4622 0
-4625 182 -4623 0
4625 -182 0
4625 4623 0
