c BC-S1.2
p cnf 1276 3060
1 -2 -3 0
-1 2 0
-1 3 0
4 -5 -6 0
-4 5 0
-4 6 0
7 -8 -9 0
-7 8 0
-7 9 0
10 -11 -12 0
-10 11 0
-10 12 0
13 -14 -15 0
-13 14 0
-13 15 0
16 -17 -18 0
-16 17 0
-16 18 0
19 -20 -21 0
-19 20 0
-19 21 0
22 -23 -24 0
-22 23 0
-22 24 0
25 -26 -27 0
-25 26 0
-25 27 0
28 -29 -30 0
-28 29 0
-28 30 0
31 -32 -33 0
-31 32 0
-31 33 0
34 -35 -36 0
-34 35 0
-34 36 0
37 -38 -39 0
-37 38 0
-37 39 0
40 -41 -42 0
-40 41 0
-40 42 0
43 -44 -45 0
-43 44 0
-43 45 0
46 -47 -48 0
-46 47 0
-46 48 0
49 -50 -51 0
-49 50 0
-49 51 0
52 -53 -54 0
-52 53 0
-52 54 0
55 -56 -57 0
-55 56 0
-55 57 0
58 -59 -60 0
-58 59 0
-58 60 0
61 -62 -63 0
-61 62 0
-61 63 0
64 -65 -66 0
-64 65 0
-64 66 0
67 -68 -69 0
-67 68 0
-67 69 0
70 -71 -72 0
-70 71 0
-70 72 0
73 -74 -75 0
-73 74 0
-73 75 0
76 -77 -78 0
-76 77 0
-76 78 0
79 -80 -81 0
-79 80 0
-79 81 0
82 -83 -84 0
-82 83 0
-82 84 0
85 -86 -87 0
-85 86 0
-85 87 0
88 -89 -90 0
-88 89 0
-88 90 0
91 -92 -93 0
-91 92 0
-91 93 0
94 -95 -96 0
-94 95 0
-94 96 0
97 -98 -99 0
-97 98 0
-97 99 0
100 -101 -102 0
-100 101 0
-100 102 0
103 -104 -105 0
-103 104 0
-103 105 0
106 -107 -108 0
-106 107 0
-106 108 0
109 -110 -111 0
-109 110 0
-109 111 0
112 -113 -114 0
-112 113 0
-112 114 0
115 -116 -117 0
-115 116 0
-115 117 0
118 -119 -120 0
-118 119 0
-118 120 0
121 -122 -123 0
-121 122 0
-121 123 0
124 -125 -126 0
-124 125 0
-124 126 0
127 -128 -129 0
-127 128 0
-127 129 0
130 -131 -132 0
-130 131 0
-130 132 0
133 -134 -135 0
-133 134 0
-133 135 0
136 -137 -138 0
-136 137 0
-136 138 0
139 -140 -141 0
-139 140 0
-139 141 0
142 -143 -144 0
-142 143 0
-142 144 0
145 -146 -147 0
-145 146 0
-145 147 0
148 -149 -150 0
-148 149 0
-148 150 0
151 -152 -153 0
-151 152 0
-151 153 0
154 -155 -156 0
-154 155 0
-154 156 0
157 -158 -159 0
-157 158 0
-157 159 0
160 -161 -162 0
-160 161 0
-160 162 0
163 -164 -165 0
-163 164 0
-163 165 0
166 -167 -168 0
-166 167 0
-166 168 0
169 -170 -171 0
-169 170 0
-169 171 0
172 -173 -174 0
-172 173 0
-172 174 0
175 -176 -177 0
-175 176 0
-175 177 0
178 -179 -180 0
-178 179 0
-178 180 0
181 -182 -183 0
-181 182 0
-181 183 0
184 -185 -186 0
-184 185 0
-184 186 0
187 -188 -189 0
-187 188 0
-187 189 0
190 -191 -192 0
-190 191 0
-190 192 0
193 -194 -195 0
-193 194 0
-193 195 0
196 -197 -198 0
-196 197 0
-196 198 0
199 -200 -201 0
-199 200 0
-199 201 0
202 -203 -204 0
-202 203 0
-202 204 0
205 -206 -207 0
-205 206 0
-205 207 0
208 -209 -210 0
-208 209 0
-208 210 0
211 -212 -213 0
-211 212 0
-211 213 0
214 -215 -216 0
-214 215 0
-214 216 0
217 -218 -219 0
-217 218 0
-217 219 0
220 -221 -222 0
-220 221 0
-220 222 0
223 -224 -225 0
-223 224 0
-223 225 0
226 -227 -228 0
-226 227 0
-226 228 0
229 -230 -231 0
-229 230 0
-229 231 0
232 -233 -234 0
-232 233 0
-232 234 0
235 -236 -237 0
-235 236 0
-235 237 0
238 -239 -240 0
-238 239 0
-238 240 0
241 -242 -243 0
-241 242 0
-241 243 0
244 -245 -246 0
-244 245 0
-244 246 0
247 -248 -249 0
-247 248 0
-247 249 0
250 -251 -252 0
-250 251 0
-250 252 0
253 -254 -255 0
-253 254 0
-253 255 0
256 -257 -258 0
-256 257 0
-256 258 0
259 -260 -261 0
-259 260 0
-259 261 0
262 -263 -264 0
-262 263 0
-262 264 0
265 -266 -267 0
-265 266 0
-265 267 0
268 -269 -270 0
-268 269 0
-268 270 0
271 -272 -273 0
-271 272 0
-271 273 0
274 -275 -276 0
-274 275 0
-274 276 0
277 -278 -279 0
-277 278 0
-277 279 0
280 -281 -282 0
-280 281 0
-280 282 0
283 -284 -285 0
-283 284 0
-283 285 0
286 -287 -288 0
-286 287 0
-286 288 0
289 -290 -291 0
-289 290 0
-289 291 0
292 -293 -294 0
-292 293 0
-292 294 0
295 -296 -297 0
-295 296 0
-295 297 0
298 -299 -300 0
-298 299 0
-298 300 0
301 -302 -303 0
-301 302 0
-301 303 0
304 -305 -306 0
-304 305 0
-304 306 0
307 -308 -309 0
-307 308 0
-307 309 0
310 -311 -312 0
-310 311 0
-310 312 0
313 -314 -315 0
-313 314 0
-313 315 0
316 -317 -318 0
-316 317 0
-316 318 0
319 -320 -321 0
-319 320 0
-319 321 0
322 -323 -324 0
-322 323 0
-322 324 0
325 -326 -327 0
-325 326 0
-325 327 0
328 -329 -330 0
-328 329 0
-328 330 0
331 -332 -333 0
-331 332 0
-331 333 0
334 -335 -336 0
-334 335 0
-334 336 0
337 -338 -339 0
-337 338 0
-337 339 0
340 -341 -342 0
-340 341 0
-340 342 0
343 -344 -345 0
-343 344 0
-343 345 0
346 -347 -348 0
-346 347 0
-346 348 0
349 -350 -351 0
-349 350 0
-349 351 0
352 -353 -354 0
-352 353 0
-352 354 0
355 -356 -357 0
-355 356 0
-355 357 0
358 -359 -360 0
-358 359 0
-358 360 0
361 -362 -363 0
-361 362 0
-361 363 0
364 -365 -366 0
-364 365 0
-364 366 0
367 -368 -369 0
-367 368 0
-367 369 0
370 -371 -372 0
-370 371 0
-370 372 0
373 -374 -375 0
-373 374 0
-373 375 0
376 -377 -378 0
-376 377 0
-376 378 0
379 -380 -381 0
-379 380 0
-379 381 0
382 -383 -384 0
-382 383 0
-382 384 0
385 2 -3 0
-385 -2 0
-385 3 0
386 -2 3 0
-386 2 0
-386 -3 0
387 5 6 0
-387 -5 0
-387 -6 0
388 8 9 0
-388 -8 0
-388 -9 0
389 11 12 0
-389 -11 0
-389 -12 0
390 14 15 0
-390 -14 0
-390 -15 0
391 17 18 0
-391 -17 0
-391 -18 0
392 20 21 0
-392 -20 0
-392 -21 0
393 23 24 0
-393 -23 0
-393 -24 0
394 26 27 0
-394 -26 0
-394 -27 0
395 29 30 0
-395 -29 0
-395 -30 0
396 32 33 0
-396 -32 0
-396 -33 0
397 35 36 0
-397 -35 0
-397 -36 0
398 38 39 0
-398 -38 0
-398 -39 0
399 41 42 0
-399 -41 0
-399 -42 0
400 44 45 0
-400 -44 0
-400 -45 0
401 47 48 0
-401 -47 0
-401 -48 0
402 50 51 0
-402 -50 0
-402 -51 0
403 53 54 0
-403 -53 0
-403 -54 0
404 56 57 0
-404 -56 0
-404 -57 0
405 59 60 0
-405 -59 0
-405 -60 0
406 62 63 0
-406 -62 0
-406 -63 0
407 65 66 0
-407 -65 0
-407 -66 0
408 68 69 0
-408 -68 0
-408 -69 0
409 71 72 0
-409 -71 0
-409 -72 0
410 74 75 0
-410 -74 0
-410 -75 0
411 77 78 0
-411 -77 0
-411 -78 0
412 80 81 0
-412 -80 0
-412 -81 0
413 83 84 0
-413 -83 0
-413 -84 0
414 86 87 0
-414 -86 0
-414 -87 0
415 89 90 0
-415 -89 0
-415 -90 0
416 92 93 0
-416 -92 0
-416 -93 0
417 95 96 0
-417 -95 0
-417 -96 0
418 98 99 0
-418 -98 0
-418 -99 0
419 101 102 0
-419 -101 0
-419 -102 0
420 104 105 0
-420 -104 0
-420 -105 0
421 107 108 0
-421 -107 0
-421 -108 0
422 110 111 0
-422 -110 0
-422 -111 0
423 113 114 0
-423 -113 0
-423 -114 0
424 116 117 0
-424 -116 0
-424 -117 0
425 119 120 0
-425 -119 0
-425 -120 0
426 122 123 0
-426 -122 0
-426 -123 0
427 125 126 0
-427 -125 0
-427 -126 0
428 128 129 0
-428 -128 0
-428 -129 0
429 131 132 0
-429 -131 0
-429 -132 0
430 134 135 0
-430 -134 0
-430 -135 0
431 137 138 0
-431 -137 0
-431 -138 0
432 140 141 0
-432 -140 0
-432 -141 0
433 143 144 0
-433 -143 0
-433 -144 0
434 146 147 0
-434 -146 0
-434 -147 0
435 149 150 0
-435 -149 0
-435 -150 0
436 152 153 0
-436 -152 0
-436 -153 0
437 155 156 0
-437 -155 0
-437 -156 0
438 158 159 0
-438 -158 0
-438 -159 0
439 161 162 0
-439 -161 0
-439 -162 0
440 164 165 0
-440 -164 0
-440 -165 0
441 167 168 0
-441 -167 0
-441 -168 0
442 170 171 0
-442 -170 0
-442 -171 0
443 173 174 0
-443 -173 0
-443 -174 0
444 176 177 0
-444 -176 0
-444 -177 0
445 179 180 0
-445 -179 0
-445 -180 0
446 182 183 0
-446 -182 0
-446 -183 0
447 185 186 0
-447 -185 0
-447 -186 0
448 188 189 0
-448 -188 0
-448 -189 0
449 191 192 0
-449 -191 0
-449 -192 0
450 194 195 0
-450 -194 0
-450 -195 0
451 197 198 0
-451 -197 0
-451 -198 0
452 200 201 0
-452 -200 0
-452 -201 0
453 203 204 0
-453 -203 0
-453 -204 0
454 206 207 0
-454 -206 0
-454 -207 0
455 209 210 0
-455 -209 0
-455 -210 0
456 212 213 0
-456 -212 0
-456 -213 0
457 215 216 0
-457 -215 0
-457 -216 0
458 218 219 0
-458 -218 0
-458 -219 0
459 221 222 0
-459 -221 0
-459 -222 0
460 224 225 0
-460 -224 0
-460 -225 0
461 227 228 0
-461 -227 0
-461 -228 0
462 230 231 0
-462 -230 0
-462 -231 0
463 233 234 0
-463 -233 0
-463 -234 0
464 236 237 0
-464 -236 0
-464 -237 0
465 239 240 0
-465 -239 0
-465 -240 0
466 242 243 0
-466 -242 0
-466 -243 0
467 245 246 0
-467 -245 0
-467 -246 0
468 248 249 0
-468 -248 0
-468 -249 0
469 251 252 0
-469 -251 0
-469 -252 0
470 254 255 0
-470 -254 0
-470 -255 0
471 257 258 0
-471 -257 0
-471 -258 0
472 260 261 0
-472 -260 0
-472 -261 0
473 263 264 0
-473 -263 0
-473 -264 0
474 266 267 0
-474 -266 0
-474 -267 0
475 269 270 0
-475 -269 0
-475 -270 0
476 272 273 0
-476 -272 0
-476 -273 0
477 275 276 0
-477 -275 0
-477 -276 0
478 278 279 0
-478 -278 0
-478 -279 0
479 281 282 0
-479 -281 0
-479 -282 0
480 284 285 0
-480 -284 0
-480 -285 0
481 287 288 0
-481 -287 0
-481 -288 0
482 290 291 0
-482 -290 0
-482 -291 0
483 293 294 0
-483 -293 0
-483 -294 0
484 296 297 0
-484 -296 0
-484 -297 0
485 299 300 0
-485 -299 0
-485 -300 0
486 302 303 0
-486 -302 0
-486 -303 0
487 305 306 0
-487 -305 0
-487 -306 0
488 308 309 0
-488 -308 0
-488 -309 0
489 311 312 0
-489 -311 0
-489 -312 0
490 314 315 0
-490 -314 0
-490 -315 0
491 317 318 0
-491 -317 0
-491 -318 0
492 320 321 0
-492 -320 0
-492 -321 0
493 323 324 0
-493 -323 0
-493 -324 0
494 326 327 0
-494 -326 0
-494 -327 0
495 329 330 0
-495 -329 0
-495 -330 0
496 332 333 0
-496 -332 0
-496 -333 0
497 335 336 0
-497 -335 0
-497 -336 0
498 338 339 0
-498 -338 0
-498 -339 0
499 341 342 0
-499 -341 0
-499 -342 0
500 344 345 0
-500 -344 0
-500 -345 0
501 347 348 0
-501 -347 0
-501 -348 0
502 350 351 0
-502 -350 0
-502 -351 0
503 353 354 0
-503 -353 0
-503 -354 0
504 356 357 0
-504 -356 0
-504 -357 0
505 359 360 0
-505 -359 0
-505 -360 0
506 362 363 0
-506 -362 0
-506 -363 0
507 365 366 0
-507 -365 0
-507 -366 0
508 368 369 0
-508 -368 0
-508 -369 0
509 371 372 0
-509 -371 0
-509 -372 0
510 374 375 0
-510 -374 0
-510 -375 0
511 377 378 0
-511 -377 0
-511 -378 0
512 380 381 0
-512 -380 0
-512 -381 0
513 383 384 0
-513 -383 0
-513 -384 0
-514 386 385 0
514 -386 0
514 -385 0
515 387 4 0
-515 -387 0
-515 -4 0
516 -1 387 0
-516 1 0
-516 -387 0
517 388 7 0
-517 -388 0
-517 -7 0
518 389 10 0
-518 -389 0
-518 -10 0
519 390 13 0
-519 -390 0
-519 -13 0
520 391 16 0
-520 -391 0
-520 -16 0
521 392 19 0
-521 -392 0
-521 -19 0
522 393 22 0
-522 -393 0
-522 -22 0
523 394 25 0
-523 -394 0
-523 -25 0
524 395 28 0
-524 -395 0
-524 -28 0
525 396 31 0
-525 -396 0
-525 -31 0
526 397 34 0
-526 -397 0
-526 -34 0
527 398 37 0
-527 -398 0
-527 -37 0
528 399 40 0
-528 -399 0
-528 -40 0
529 400 43 0
-529 -400 0
-529 -43 0
530 401 46 0
-530 -401 0
-530 -46 0
531 402 49 0
-531 -402 0
-531 -49 0
532 403 52 0
-532 -403 0
-532 -52 0
533 404 55 0
-533 -404 0
-533 -55 0
534 405 58 0
-534 -405 0
-534 -58 0
535 406 61 0
-535 -406 0
-535 -61 0
536 407 64 0
-536 -407 0
-536 -64 0
537 408 67 0
-537 -408 0
-537 -67 0
538 409 70 0
-538 -409 0
-538 -70 0
539 410 73 0
-539 -410 0
-539 -73 0
540 411 76 0
-540 -411 0
-540 -76 0
541 412 79 0
-541 -412 0
-541 -79 0
542 413 82 0
-542 -413 0
-542 -82 0
543 414 85 0
-543 -414 0
-543 -85 0
544 415 88 0
-544 -415 0
-544 -88 0
545 416 91 0
-545 -416 0
-545 -91 0
546 417 94 0
-546 -417 0
-546 -94 0
547 418 97 0
-547 -418 0
-547 -97 0
548 419 100 0
-548 -419 0
-548 -100 0
549 420 103 0
-549 -420 0
-549 -103 0
550 421 106 0
-550 -421 0
-550 -106 0
551 422 109 0
-551 -422 0
-551 -109 0
552 423 112 0
-552 -423 0
-552 -112 0
553 424 115 0
-553 -424 0
-553 -115 0
554 425 118 0
-554 -425 0
-554 -118 0
555 426 121 0
-555 -426 0
-555 -121 0
556 427 124 0
-556 -427 0
-556 -124 0
557 428 127 0
-557 -428 0
-557 -127 0
558 429 130 0
-558 -429 0
-558 -130 0
559 430 133 0
-559 -430 0
-559 -133 0
560 431 136 0
-560 -431 0
-560 -136 0
561 432 139 0
-561 -432 0
-561 -139 0
562 433 142 0
-562 -433 0
-562 -142 0
563 434 145 0
-563 -434 0
-563 -145 0
564 435 148 0
-564 -435 0
-564 -148 0
565 436 151 0
-565 -436 0
-565 -151 0
566 437 154 0
-566 -437 0
-566 -154 0
567 438 157 0
-567 -438 0
-567 -157 0
568 439 160 0
-568 -439 0
-568 -160 0
569 440 163 0
-569 -440 0
-569 -163 0
570 441 166 0
-570 -441 0
-570 -166 0
571 442 169 0
-571 -442 0
-571 -169 0
572 443 172 0
-572 -443 0
-572 -172 0
573 444 175 0
-573 -444 0
-573 -175 0
574 445 178 0
-574 -445 0
-574 -178 0
575 446 181 0
-575 -446 0
-575 -181 0
576 447 184 0
-576 -447 0
-576 -184 0
577 448 187 0
-577 -448 0
-577 -187 0
578 449 190 0
-578 -449 0
-578 -190 0
579 450 193 0
-579 -450 0
-579 -193 0
580 451 196 0
-580 -451 0
-580 -196 0
581 452 199 0
-581 -452 0
-581 -199 0
582 453 202 0
-582 -453 0
-582 -202 0
583 454 205 0
-583 -454 0
-583 -205 0
584 455 208 0
-584 -455 0
-584 -208 0
585 456 211 0
-585 -456 0
-585 -211 0
586 457 214 0
-586 -457 0
-586 -214 0
587 458 217 0
-587 -458 0
-587 -217 0
588 459 220 0
-588 -459 0
-588 -220 0
589 460 223 0
-589 -460 0
-589 -223 0
590 461 226 0
-590 -461 0
-590 -226 0
591 462 229 0
-591 -462 0
-591 -229 0
592 463 232 0
-592 -463 0
-592 -232 0
593 464 235 0
-593 -464 0
-593 -235 0
594 465 238 0
-594 -465 0
-594 -238 0
595 466 241 0
-595 -466 0
-595 -241 0
596 467 244 0
-596 -467 0
-596 -244 0
597 468 247 0
-597 -468 0
-597 -247 0
598 469 250 0
-598 -469 0
-598 -250 0
599 470 253 0
-599 -470 0
-599 -253 0
600 471 256 0
-600 -471 0
-600 -256 0
601 472 259 0
-601 -472 0
-601 -259 0
602 473 262 0
-602 -473 0
-602 -262 0
603 474 265 0
-603 -474 0
-603 -265 0
604 475 268 0
-604 -475 0
-604 -268 0
605 476 271 0
-605 -476 0
-605 -271 0
606 477 274 0
-606 -477 0
-606 -274 0
607 478 277 0
-607 -478 0
-607 -277 0
608 479 280 0
-608 -479 0
-608 -280 0
609 480 283 0
-609 -480 0
-609 -283 0
610 481 286 0
-610 -481 0
-610 -286 0
611 482 289 0
-611 -482 0
-611 -289 0
612 483 292 0
-612 -483 0
-612 -292 0
613 484 295 0
-613 -484 0
-613 -295 0
614 485 298 0
-614 -485 0
-614 -298 0
615 486 301 0
-615 -486 0
-615 -301 0
616 487 304 0
-616 -487 0
-616 -304 0
617 488 307 0
-617 -488 0
-617 -307 0
618 489 310 0
-618 -489 0
-618 -310 0
619 490 313 0
-619 -490 0
-619 -313 0
620 491 316 0
-620 -491 0
-620 -316 0
621 492 319 0
-621 -492 0
-621 -319 0
622 493 322 0
-622 -493 0
-622 -322 0
623 494 325 0
-623 -494 0
-623 -325 0
624 495 328 0
-624 -495 0
-624 -328 0
625 496 331 0
-625 -496 0
-625 -331 0
626 497 334 0
-626 -497 0
-626 -334 0
627 498 337 0
-627 -498 0
-627 -337 0
628 499 340 0
-628 -499 0
-628 -340 0
629 500 343 0
-629 -500 0
-629 -343 0
630 501 346 0
-630 -501 0
-630 -346 0
631 502 349 0
-631 -502 0
-631 -349 0
632 503 352 0
-632 -503 0
-632 -352 0
633 504 355 0
-633 -504 0
-633 -355 0
634 505 358 0
-634 -505 0
-634 -358 0
635 506 361 0
-635 -506 0
-635 -361 0
636 507 364 0
-636 -507 0
-636 -364 0
637 508 367 0
-637 -508 0
-637 -367 0
638 509 370 0
-638 -509 0
-638 -370 0
639 510 373 0
-639 -510 0
-639 -373 0
640 511 376 0
-640 -511 0
-640 -376 0
641 512 379 0
-641 -512 0
-641 -379 0
642 513 382 0
-642 -513 0
-642 -382 0
643 1 -515 0
-643 -1 0
-643 515 0
644 -1 515 0
-644 1 0
-644 -515 0
645 4 516 0
-645 -4 0
-645 -516 0
-646 644 643 0
646 -644 0
646 -643 0
647 -645 517 0
-647 645 0
-647 -517 0
648 645 -517 0
-648 -645 0
-648 517 0
649 645 388 0
-649 -645 0
-649 -388 0
650 647 648 0
-650 -647 0
-650 -648 0
651 7 649 0
-651 -7 0
-651 -649 0
652 -651 518 0
-652 651 0
-652 -518 0
653 651 -518 0
-653 -651 0
-653 518 0
654 651 389 0
-654 -651 0
-654 -389 0
655 652 653 0
-655 -652 0
-655 -653 0
656 10 654 0
-656 -10 0
-656 -654 0
657 -656 519 0
-657 656 0
-657 -519 0
658 656 -519 0
-658 -656 0
-658 519 0
659 656 390 0
-659 -656 0
-659 -390 0
660 657 658 0
-660 -657 0
-660 -658 0
661 13 659 0
-661 -13 0
-661 -659 0
662 -661 520 0
-662 661 0
-662 -520 0
663 661 -520 0
-663 -661 0
-663 520 0
664 661 391 0
-664 -661 0
-664 -391 0
665 662 663 0
-665 -662 0
-665 -663 0
666 16 664 0
-666 -16 0
-666 -664 0
667 -666 521 0
-667 666 0
-667 -521 0
668 666 -521 0
-668 -666 0
-668 521 0
669 666 392 0
-669 -666 0
-669 -392 0
670 667 668 0
-670 -667 0
-670 -668 0
671 19 669 0
-671 -19 0
-671 -669 0
672 -671 522 0
-672 671 0
-672 -522 0
673 671 -522 0
-673 -671 0
-673 522 0
674 671 393 0
-674 -671 0
-674 -393 0
675 672 673 0
-675 -672 0
-675 -673 0
676 22 674 0
-676 -22 0
-676 -674 0
677 -676 523 0
-677 676 0
-677 -523 0
678 676 -523 0
-678 -676 0
-678 523 0
679 676 394 0
-679 -676 0
-679 -394 0
680 677 678 0
-680 -677 0
-680 -678 0
681 25 679 0
-681 -25 0
-681 -679 0
682 -681 524 0
-682 681 0
-682 -524 0
683 681 -524 0
-683 -681 0
-683 524 0
684 681 395 0
-684 -681 0
-684 -395 0
685 682 683 0
-685 -682 0
-685 -683 0
686 28 684 0
-686 -28 0
-686 -684 0
687 -686 525 0
-687 686 0
-687 -525 0
688 686 -525 0
-688 -686 0
-688 525 0
689 686 396 0
-689 -686 0
-689 -396 0
690 687 688 0
-690 -687 0
-690 -688 0
691 31 689 0
-691 -31 0
-691 -689 0
692 -691 526 0
-692 691 0
-692 -526 0
693 691 -526 0
-693 -691 0
-693 526 0
694 691 397 0
-694 -691 0
-694 -397 0
695 692 693 0
-695 -692 0
-695 -693 0
696 34 694 0
-696 -34 0
-696 -694 0
697 -696 527 0
-697 696 0
-697 -527 0
698 696 -527 0
-698 -696 0
-698 527 0
699 696 398 0
-699 -696 0
-699 -398 0
700 697 698 0
-700 -697 0
-700 -698 0
701 37 699 0
-701 -37 0
-701 -699 0
702 -701 528 0
-702 701 0
-702 -528 0
703 701 -528 0
-703 -701 0
-703 528 0
704 701 399 0
-704 -701 0
-704 -399 0
705 702 703 0
-705 -702 0
-705 -703 0
706 40 704 0
-706 -40 0
-706 -704 0
707 -706 529 0
-707 706 0
-707 -529 0
708 706 -529 0
-708 -706 0
-708 529 0
709 706 400 0
-709 -706 0
-709 -400 0
710 707 708 0
-710 -707 0
-710 -708 0
711 43 709 0
-711 -43 0
-711 -709 0
712 -711 530 0
-712 711 0
-712 -530 0
713 711 -530 0
-713 -711 0
-713 530 0
714 711 401 0
-714 -711 0
-714 -401 0
715 712 713 0
-715 -712 0
-715 -713 0
716 46 714 0
-716 -46 0
-716 -714 0
717 -716 531 0
-717 716 0
-717 -531 0
718 716 -531 0
-718 -716 0
-718 531 0
719 716 402 0
-719 -716 0
-719 -402 0
720 717 718 0
-720 -717 0
-720 -718 0
721 49 719 0
-721 -49 0
-721 -719 0
722 -721 532 0
-722 721 0
-722 -532 0
723 721 -532 0
-723 -721 0
-723 532 0
724 721 403 0
-724 -721 0
-724 -403 0
725 722 723 0
-725 -722 0
-725 -723 0
726 52 724 0
-726 -52 0
-726 -724 0
727 -726 533 0
-727 726 0
-727 -533 0
728 726 -533 0
-728 -726 0
-728 533 0
729 726 404 0
-729 -726 0
-729 -404 0
730 727 728 0
-730 -727 0
-730 -728 0
731 55 729 0
-731 -55 0
-731 -729 0
732 -731 534 0
-732 731 0
-732 -534 0
733 731 -534 0
-733 -731 0
-733 534 0
734 731 405 0
-734 -731 0
-734 -405 0
735 732 733 0
-735 -732 0
-735 -733 0
736 58 734 0
-736 -58 0
-736 -734 0
737 -736 535 0
-737 736 0
-737 -535 0
738 736 -535 0
-738 -736 0
-738 535 0
739 736 406 0
-739 -736 0
-739 -406 0
740 737 738 0
-740 -737 0
-740 -738 0
741 61 739 0
-741 -61 0
-741 -739 0
742 -741 536 0
-742 741 0
-742 -536 0
743 741 -536 0
-743 -741 0
-743 536 0
744 741 407 0
-744 -741 0
-744 -407 0
745 742 743 0
-745 -742 0
-745 -743 0
746 64 744 0
-746 -64 0
-746 -744 0
747 -746 537 0
-747 746 0
-747 -537 0
748 746 -537 0
-748 -746 0
-748 537 0
749 746 408 0
-749 -746 0
-749 -408 0
750 747 748 0
-750 -747 0
-750 -748 0
751 67 749 0
-751 -67 0
-751 -749 0
752 -751 538 0
-752 751 0
-752 -538 0
753 751 -538 0
-753 -751 0
-753 538 0
754 751 409 0
-754 -751 0
-754 -409 0
755 752 753 0
-755 -752 0
-755 -753 0
756 70 754 0
-756 -70 0
-756 -754 0
757 -756 539 0
-757 756 0
-757 -539 0
758 756 -539 0
-758 -756 0
-758 539 0
759 756 410 0
-759 -756 0
-759 -410 0
760 757 758 0
-760 -757 0
-760 -758 0
761 73 759 0
-761 -73 0
-761 -759 0
762 -761 540 0
-762 761 0
-762 -540 0
763 761 -540 0
-763 -761 0
-763 540 0
764 761 411 0
-764 -761 0
-764 -411 0
765 762 763 0
-765 -762 0
-765 -763 0
766 76 764 0
-766 -76 0
-766 -764 0
767 -766 541 0
-767 766 0
-767 -541 0
768 766 -541 0
-768 -766 0
-768 541 0
769 766 412 0
-769 -766 0
-769 -412 0
770 767 768 0
-770 -767 0
-770 -768 0
771 79 769 0
-771 -79 0
-771 -769 0
772 -771 542 0
-772 771 0
-772 -542 0
773 771 -542 0
-773 -771 0
-773 542 0
774 771 413 0
-774 -771 0
-774 -413 0
775 772 773 0
-775 -772 0
-775 -773 0
776 82 774 0
-776 -82 0
-776 -774 0
777 -776 543 0
-777 776 0
-777 -543 0
778 776 -543 0
-778 -776 0
-778 543 0
779 776 414 0
-779 -776 0
-779 -414 0
780 777 778 0
-780 -777 0
-780 -778 0
781 85 779 0
-781 -85 0
-781 -779 0
782 -781 544 0
-782 781 0
-782 -544 0
783 781 -544 0
-783 -781 0
-783 544 0
784 781 415 0
-784 -781 0
-784 -415 0
785 782 783 0
-785 -782 0
-785 -783 0
786 88 784 0
-786 -88 0
-786 -784 0
787 -786 545 0
-787 786 0
-787 -545 0
788 786 -545 0
-788 -786 0
-788 545 0
789 786 416 0
-789 -786 0
-789 -416 0
790 787 788 0
-790 -787 0
-790 -788 0
791 91 789 0
-791 -91 0
-791 -789 0
792 -791 546 0
-792 791 0
-792 -546 0
793 791 -546 0
-793 -791 0
-793 546 0
794 791 417 0
-794 -791 0
-794 -417 0
795 792 793 0
-795 -792 0
-795 -793 0
796 94 794 0
-796 -94 0
-796 -794 0
797 -796 547 0
-797 796 0
-797 -547 0
798 796 -547 0
-798 -796 0
-798 547 0
799 796 418 0
-799 -796 0
-799 -418 0
800 797 798 0
-800 -797 0
-800 -798 0
801 97 799 0
-801 -97 0
-801 -799 0
802 -801 548 0
-802 801 0
-802 -548 0
803 801 -548 0
-803 -801 0
-803 548 0
804 801 419 0
-804 -801 0
-804 -419 0
805 802 803 0
-805 -802 0
-805 -803 0
806 100 804 0
-806 -100 0
-806 -804 0
807 -806 549 0
-807 806 0
-807 -549 0
808 806 -549 0
-808 -806 0
-808 549 0
809 806 420 0
-809 -806 0
-809 -420 0
810 807 808 0
-810 -807 0
-810 -808 0
811 103 809 0
-811 -103 0
-811 -809 0
812 -811 550 0
-812 811 0
-812 -550 0
813 811 -550 0
-813 -811 0
-813 550 0
814 811 421 0
-814 -811 0
-814 -421 0
815 812 813 0
-815 -812 0
-815 -813 0
816 106 814 0
-816 -106 0
-816 -814 0
817 -816 551 0
-817 816 0
-817 -551 0
818 816 -551 0
-818 -816 0
-818 551 0
819 816 422 0
-819 -816 0
-819 -422 0
820 817 818 0
-820 -817 0
-820 -818 0
821 109 819 0
-821 -109 0
-821 -819 0
822 -821 552 0
-822 821 0
-822 -552 0
823 821 -552 0
-823 -821 0
-823 552 0
824 821 423 0
-824 -821 0
-824 -423 0
825 822 823 0
-825 -822 0
-825 -823 0
826 112 824 0
-826 -112 0
-826 -824 0
827 -826 553 0
-827 826 0
-827 -553 0
828 826 -553 0
-828 -826 0
-828 553 0
829 826 424 0
-829 -826 0
-829 -424 0
830 827 828 0
-830 -827 0
-830 -828 0
831 115 829 0
-831 -115 0
-831 -829 0
832 -831 554 0
-832 831 0
-832 -554 0
833 831 -554 0
-833 -831 0
-833 554 0
834 831 425 0
-834 -831 0
-834 -425 0
835 832 833 0
-835 -832 0
-835 -833 0
836 118 834 0
-836 -118 0
-836 -834 0
837 -836 555 0
-837 836 0
-837 -555 0
838 836 -555 0
-838 -836 0
-838 555 0
839 836 426 0
-839 -836 0
-839 -426 0
840 837 838 0
-840 -837 0
-840 -838 0
841 121 839 0
-841 -121 0
-841 -839 0
842 -841 556 0
-842 841 0
-842 -556 0
843 841 -556 0
-843 -841 0
-843 556 0
844 841 427 0
-844 -841 0
-844 -427 0
845 842 843 0
-845 -842 0
-845 -843 0
846 124 844 0
-846 -124 0
-846 -844 0
847 -846 557 0
-847 846 0
-847 -557 0
848 846 -557 0
-848 -846 0
-848 557 0
849 846 428 0
-849 -846 0
-849 -428 0
850 847 848 0
-850 -847 0
-850 -848 0
851 127 849 0
-851 -127 0
-851 -849 0
852 -851 558 0
-852 851 0
-852 -558 0
853 851 -558 0
-853 -851 0
-853 558 0
854 851 429 0
-854 -851 0
-854 -429 0
855 852 853 0
-855 -852 0
-855 -853 0
856 130 854 0
-856 -130 0
-856 -854 0
857 -856 559 0
-857 856 0
-857 -559 0
858 856 -559 0
-858 -856 0
-858 559 0
859 856 430 0
-859 -856 0
-859 -430 0
860 857 858 0
-860 -857 0
-860 -858 0
861 133 859 0
-861 -133 0
-861 -859 0
862 -861 560 0
-862 861 0
-862 -560 0
863 861 -560 0
-863 -861 0
-863 560 0
864 861 431 0
-864 -861 0
-864 -431 0
865 862 863 0
-865 -862 0
-865 -863 0
866 136 864 0
-866 -136 0
-866 -864 0
867 -866 561 0
-867 866 0
-867 -561 0
868 866 -561 0
-868 -866 0
-868 561 0
869 866 432 0
-869 -866 0
-869 -432 0
870 867 868 0
-870 -867 0
-870 -868 0
871 139 869 0
-871 -139 0
-871 -869 0
872 -871 562 0
-872 871 0
-872 -562 0
873 871 -562 0
-873 -871 0
-873 562 0
874 871 433 0
-874 -871 0
-874 -433 0
875 872 873 0
-875 -872 0
-875 -873 0
876 142 874 0
-876 -142 0
-876 -874 0
877 -876 563 0
-877 876 0
-877 -563 0
878 876 -563 0
-878 -876 0
-878 563 0
879 876 434 0
-879 -876 0
-879 -434 0
880 877 878 0
-880 -877 0
-880 -878 0
881 145 879 0
-881 -145 0
-881 -879 0
882 -881 564 0
-882 881 0
-882 -564 0
883 881 -564 0
-883 -881 0
-883 564 0
884 881 435 0
-884 -881 0
-884 -435 0
885 882 883 0
-885 -882 0
-885 -883 0
886 148 884 0
-886 -148 0
-886 -884 0
887 -886 565 0
-887 886 0
-887 -565 0
888 886 -565 0
-888 -886 0
-888 565 0
889 886 436 0
-889 -886 0
-889 -436 0
890 887 888 0
-890 -887 0
-890 -888 0
891 151 889 0
-891 -151 0
-891 -889 0
892 -891 566 0
-892 891 0
-892 -566 0
893 891 -566 0
-893 -891 0
-893 566 0
894 891 437 0
-894 -891 0
-894 -437 0
895 892 893 0
-895 -892 0
-895 -893 0
896 154 894 0
-896 -154 0
-896 -894 0
897 -896 567 0
-897 896 0
-897 -567 0
898 896 -567 0
-898 -896 0
-898 567 0
899 896 438 0
-899 -896 0
-899 -438 0
900 897 898 0
-900 -897 0
-900 -898 0
901 157 899 0
-901 -157 0
-901 -899 0
902 -901 568 0
-902 901 0
-902 -568 0
903 901 -568 0
-903 -901 0
-903 568 0
904 901 439 0
-904 -901 0
-904 -439 0
905 902 903 0
-905 -902 0
-905 -903 0
906 160 904 0
-906 -160 0
-906 -904 0
907 -906 569 0
-907 906 0
-907 -569 0
908 906 -569 0
-908 -906 0
-908 569 0
909 906 440 0
-909 -906 0
-909 -440 0
910 907 908 0
-910 -907 0
-910 -908 0
911 163 909 0
-911 -163 0
-911 -909 0
912 -911 570 0
-912 911 0
-912 -570 0
913 911 -570 0
-913 -911 0
-913 570 0
914 911 441 0
-914 -911 0
-914 -441 0
915 912 913 0
-915 -912 0
-915 -913 0
916 166 914 0
-916 -166 0
-916 -914 0
917 -916 571 0
-917 916 0
-917 -571 0
918 916 -571 0
-918 -916 0
-918 571 0
919 916 442 0
-919 -916 0
-919 -442 0
920 917 918 0
-920 -917 0
-920 -918 0
921 169 919 0
-921 -169 0
-921 -919 0
922 -921 572 0
-922 921 0
-922 -572 0
923 921 -572 0
-923 -921 0
-923 572 0
924 921 443 0
-924 -921 0
-924 -443 0
925 922 923 0
-925 -922 0
-925 -923 0
926 172 924 0
-926 -172 0
-926 -924 0
927 -926 573 0
-927 926 0
-927 -573 0
928 926 -573 0
-928 -926 0
-928 573 0
929 926 444 0
-929 -926 0
-929 -444 0
930 927 928 0
-930 -927 0
-930 -928 0
931 175 929 0
-931 -175 0
-931 -929 0
932 -931 574 0
-932 931 0
-932 -574 0
933 931 -574 0
-933 -931 0
-933 574 0
934 931 445 0
-934 -931 0
-934 -445 0
935 932 933 0
-935 -932 0
-935 -933 0
936 178 934 0
-936 -178 0
-936 -934 0
937 -936 575 0
-937 936 0
-937 -575 0
938 936 -575 0
-938 -936 0
-938 575 0
939 936 446 0
-939 -936 0
-939 -446 0
940 937 938 0
-940 -937 0
-940 -938 0
941 181 939 0
-941 -181 0
-941 -939 0
942 -941 576 0
-942 941 0
-942 -576 0
943 941 -576 0
-943 -941 0
-943 576 0
944 941 447 0
-944 -941 0
-944 -447 0
945 942 943 0
-945 -942 0
-945 -943 0
946 184 944 0
-946 -184 0
-946 -944 0
947 -946 577 0
-947 946 0
-947 -577 0
948 946 -577 0
-948 -946 0
-948 577 0
949 946 448 0
-949 -946 0
-949 -448 0
950 947 948 0
-950 -947 0
-950 -948 0
951 187 949 0
-951 -187 0
-951 -949 0
952 -951 578 0
-952 951 0
-952 -578 0
953 951 -578 0
-953 -951 0
-953 578 0
954 951 449 0
-954 -951 0
-954 -449 0
955 952 953 0
-955 -952 0
-955 -953 0
956 190 954 0
-956 -190 0
-956 -954 0
957 -956 579 0
-957 956 0
-957 -579 0
958 956 -579 0
-958 -956 0
-958 579 0
959 956 450 0
-959 -956 0
-959 -450 0
960 957 958 0
-960 -957 0
-960 -958 0
961 193 959 0
-961 -193 0
-961 -959 0
962 -961 580 0
-962 961 0
-962 -580 0
963 961 -580 0
-963 -961 0
-963 580 0
964 961 451 0
-964 -961 0
-964 -451 0
965 962 963 0
-965 -962 0
-965 -963 0
966 196 964 0
-966 -196 0
-966 -964 0
967 -966 581 0
-967 966 0
-967 -581 0
968 966 -581 0
-968 -966 0
-968 581 0
969 966 452 0
-969 -966 0
-969 -452 0
970 967 968 0
-970 -967 0
-970 -968 0
971 199 969 0
-971 -199 0
-971 -969 0
972 -971 582 0
-972 971 0
-972 -582 0
973 971 -582 0
-973 -971 0
-973 582 0
974 971 453 0
-974 -971 0
-974 -453 0
975 972 973 0
-975 -972 0
-975 -973 0
976 202 974 0
-976 -202 0
-976 -974 0
977 -976 583 0
-977 976 0
-977 -583 0
978 976 -583 0
-978 -976 0
-978 583 0
979 976 454 0
-979 -976 0
-979 -454 0
980 977 978 0
-980 -977 0
-980 -978 0
981 205 979 0
-981 -205 0
-981 -979 0
982 -981 584 0
-982 981 0
-982 -584 0
983 981 -584 0
-983 -981 0
-983 584 0
984 981 455 0
-984 -981 0
-984 -455 0
985 982 983 0
-985 -982 0
-985 -983 0
986 208 984 0
-986 -208 0
-986 -984 0
987 -986 585 0
-987 986 0
-987 -585 0
988 986 -585 0
-988 -986 0
-988 585 0
989 986 456 0
-989 -986 0
-989 -456 0
990 987 988 0
-990 -987 0
-990 -988 0
991 211 989 0
-991 -211 0
-991 -989 0
992 -991 586 0
-992 991 0
-992 -586 0
993 991 -586 0
-993 -991 0
-993 586 0
994 991 457 0
-994 -991 0
-994 -457 0
995 992 993 0
-995 -992 0
-995 -993 0
996 214 994 0
-996 -214 0
-996 -994 0
997 -996 587 0
-997 996 0
-997 -587 0
998 996 -587 0
-998 -996 0
-998 587 0
999 996 458 0
-999 -996 0
-999 -458 0
1000 997 998 0
-1000 -997 0
-1000 -998 0
1001 217 999 0
-1001 -217 0
-1001 -999 0
1002 -1001 588 0
-1002 1001 0
-1002 -588 0
1003 1001 -588 0
-1003 -1001 0
-1003 588 0
1004 1001 459 0
-1004 -1001 0
-1004 -459 0
1005 1002 1003 0
-1005 -1002 0
-1005 -1003 0
1006 220 1004 0
-1006 -220 0
-1006 -1004 0
1007 -1006 589 0
-1007 1006 0
-1007 -589 0
1008 1006 -589 0
-1008 -1006 0
-1008 589 0
1009 1006 460 0
-1009 -1006 0
-1009 -460 0
1010 1007 1008 0
-1010 -1007 0
-1010 -1008 0
1011 223 1009 0
-1011 -223 0
-1011 -1009 0
1012 -1011 590 0
-1012 1011 0
-1012 -590 0
1013 1011 -590 0
-1013 -1011 0
-1013 590 0
1014 1011 461 0
-1014 -1011 0
-1014 -461 0
1015 1012 1013 0
-1015 -1012 0
-1015 -1013 0
1016 226 1014 0
-1016 -226 0
-1016 -1014 0
1017 -1016 591 0
-1017 1016 0
-1017 -591 0
1018 1016 -591 0
-1018 -1016 0
-1018 591 0
1019 1016 462 0
-1019 -1016 0
-1019 -462 0
1020 1017 1018 0
-1020 -1017 0
-1020 -1018 0
1021 229 1019 0
-1021 -229 0
-1021 -1019 0
1022 -1021 592 0
-1022 1021 0
-1022 -592 0
1023 1021 -592 0
-1023 -1021 0
-1023 592 0
1024 1021 463 0
-1024 -1021 0
-1024 -463 0
1025 1022 1023 0
-1025 -1022 0
-1025 -1023 0
1026 232 1024 0
-1026 -232 0
-1026 -1024 0
1027 -1026 593 0
-1027 1026 0
-1027 -593 0
1028 1026 -593 0
-1028 -1026 0
-1028 593 0
1029 1026 464 0
-1029 -1026 0
-1029 -464 0
1030 1027 1028 0
-1030 -1027 0
-1030 -1028 0
1031 235 1029 0
-1031 -235 0
-1031 -1029 0
1032 -1031 594 0
-1032 1031 0
-1032 -594 0
1033 1031 -594 0
-1033 -1031 0
-1033 594 0
1034 1031 465 0
-1034 -1031 0
-1034 -465 0
1035 1032 1033 0
-1035 -1032 0
-1035 -1033 0
1036 238 1034 0
-1036 -238 0
-1036 -1034 0
1037 -1036 595 0
-1037 1036 0
-1037 -595 0
1038 1036 -595 0
-1038 -1036 0
-1038 595 0
1039 1036 466 0
-1039 -1036 0
-1039 -466 0
1040 1037 1038 0
-1040 -1037 0
-1040 -1038 0
1041 241 1039 0
-1041 -241 0
-1041 -1039 0
1042 -1041 596 0
-1042 1041 0
-1042 -596 0
1043 1041 -596 0
-1043 -1041 0
-1043 596 0
1044 1041 467 0
-1044 -1041 0
-1044 -467 0
1045 1042 1043 0
-1045 -1042 0
-1045 -1043 0
1046 244 1044 0
-1046 -244 0
-1046 -1044 0
1047 -1046 597 0
-1047 1046 0
-1047 -597 0
1048 1046 -597 0
-1048 -1046 0
-1048 597 0
1049 1046 468 0
-1049 -1046 0
-1049 -468 0
1050 1047 1048 0
-1050 -1047 0
-1050 -1048 0
1051 247 1049 0
-1051 -247 0
-1051 -1049 0
1052 -1051 598 0
-1052 1051 0
-1052 -598 0
1053 1051 -598 0
-1053 -1051 0
-1053 598 0
1054 1051 469 0
-1054 -1051 0
-1054 -469 0
1055 1052 1053 0
-1055 -1052 0
-1055 -1053 0
1056 250 1054 0
-1056 -250 0
-1056 -1054 0
1057 -1056 599 0
-1057 1056 0
-1057 -599 0
1058 1056 -599 0
-1058 -1056 0
-1058 599 0
1059 1056 470 0
-1059 -1056 0
-1059 -470 0
1060 1057 1058 0
-1060 -1057 0
-1060 -1058 0
1061 253 1059 0
-1061 -253 0
-1061 -1059 0
1062 -1061 600 0
-1062 1061 0
-1062 -600 0
1063 1061 -600 0
-1063 -1061 0
-1063 600 0
1064 1061 471 0
-1064 -1061 0
-1064 -471 0
1065 1062 1063 0
-1065 -1062 0
-1065 -1063 0
1066 256 1064 0
-1066 -256 0
-1066 -1064 0
1067 -1066 601 0
-1067 1066 0
-1067 -601 0
1068 1066 -601 0
-1068 -1066 0
-1068 601 0
1069 1066 472 0
-1069 -1066 0
-1069 -472 0
1070 1067 1068 0
-1070 -1067 0
-1070 -1068 0
1071 259 1069 0
-1071 -259 0
-1071 -1069 0
1072 -1071 602 0
-1072 1071 0
-1072 -602 0
1073 1071 -602 0
-1073 -1071 0
-1073 602 0
1074 1071 473 0
-1074 -1071 0
-1074 -473 0
1075 1072 1073 0
-1075 -1072 0
-1075 -1073 0
1076 262 1074 0
-1076 -262 0
-1076 -1074 0
1077 -1076 603 0
-1077 1076 0
-1077 -603 0
1078 1076 -603 0
-1078 -1076 0
-1078 603 0
1079 1076 474 0
-1079 -1076 0
-1079 -474 0
1080 1077 1078 0
-1080 -1077 0
-1080 -1078 0
1081 265 1079 0
-1081 -265 0
-1081 -1079 0
1082 -1081 604 0
-1082 1081 0
-1082 -604 0
1083 1081 -604 0
-1083 -1081 0
-1083 604 0
1084 1081 475 0
-1084 -1081 0
-1084 -475 0
1085 1082 1083 0
-1085 -1082 0
-1085 -1083 0
1086 268 1084 0
-1086 -268 0
-1086 -1084 0
1087 -1086 605 0
-1087 1086 0
-1087 -605 0
1088 1086 -605 0
-1088 -1086 0
-1088 605 0
1089 1086 476 0
-1089 -1086 0
-1089 -476 0
1090 1087 1088 0
-1090 -1087 0
-1090 -1088 0
1091 271 1089 0
-1091 -271 0
-1091 -1089 0
1092 -1091 606 0
-1092 1091 0
-1092 -606 0
1093 1091 -606 0
-1093 -1091 0
-1093 606 0
1094 1091 477 0
-1094 -1091 0
-1094 -477 0
1095 1092 1093 0
-1095 -1092 0
-1095 -1093 0
1096 274 1094 0
-1096 -274 0
-1096 -1094 0
1097 -1096 607 0
-1097 1096 0
-1097 -607 0
1098 1096 -607 0
-1098 -1096 0
-1098 607 0
1099 1096 478 0
-1099 -1096 0
-1099 -478 0
1100 1097 1098 0
-1100 -1097 0
-1100 -1098 0
1101 277 1099 0
-1101 -277 0
-1101 -1099 0
1102 -1101 608 0
-1102 1101 0
-1102 -608 0
1103 1101 -608 0
-1103 -1101 0
-1103 608 0
1104 1101 479 0
-1104 -1101 0
-1104 -479 0
1105 1102 1103 0
-1105 -1102 0
-1105 -1103 0
1106 280 1104 0
-1106 -280 0
-1106 -1104 0
1107 -1106 609 0
-1107 1106 0
-1107 -609 0
1108 1106 -609 0
-1108 -1106 0
-1108 609 0
1109 1106 480 0
-1109 -1106 0
-1109 -480 0
1110 1107 1108 0
-1110 -1107 0
-1110 -1108 0
1111 283 1109 0
-1111 -283 0
-1111 -1109 0
1112 -1111 610 0
-1112 1111 0
-1112 -610 0
1113 1111 -610 0
-1113 -1111 0
-1113 610 0
1114 1111 481 0
-1114 -1111 0
-1114 -481 0
1115 1112 1113 0
-1115 -1112 0
-1115 -1113 0
1116 286 1114 0
-1116 -286 0
-1116 -1114 0
1117 -1116 611 0
-1117 1116 0
-1117 -611 0
1118 1116 -611 0
-1118 -1116 0
-1118 611 0
1119 1116 482 0
-1119 -1116 0
-1119 -482 0
1120 1117 1118 0
-1120 -1117 0
-1120 -1118 0
1121 289 1119 0
-1121 -289 0
-1121 -1119 0
1122 -1121 612 0
-1122 1121 0
-1122 -612 0
1123 1121 -612 0
-1123 -1121 0
-1123 612 0
1124 1121 483 0
-1124 -1121 0
-1124 -483 0
1125 1122 1123 0
-1125 -1122 0
-1125 -1123 0
1126 292 1124 0
-1126 -292 0
-1126 -1124 0
1127 -1126 613 0
-1127 1126 0
-1127 -613 0
1128 1126 -613 0
-1128 -1126 0
-1128 613 0
1129 1126 484 0
-1129 -1126 0
-1129 -484 0
1130 1127 1128 0
-1130 -1127 0
-1130 -1128 0
1131 295 1129 0
-1131 -295 0
-1131 -1129 0
1132 -1131 614 0
-1132 1131 0
-1132 -614 0
1133 1131 -614 0
-1133 -1131 0
-1133 614 0
1134 1131 485 0
-1134 -1131 0
-1134 -485 0
1135 1132 1133 0
-1135 -1132 0
-1135 -1133 0
1136 298 1134 0
-1136 -298 0
-1136 -1134 0
1137 -1136 615 0
-1137 1136 0
-1137 -615 0
1138 1136 -615 0
-1138 -1136 0
-1138 615 0
1139 1136 486 0
-1139 -1136 0
-1139 -486 0
1140 1137 1138 0
-1140 -1137 0
-1140 -1138 0
1141 301 1139 0
-1141 -301 0
-1141 -1139 0
1142 -1141 616 0
-1142 1141 0
-1142 -616 0
1143 1141 -616 0
-1143 -1141 0
-1143 616 0
1144 1141 487 0
-1144 -1141 0
-1144 -487 0
1145 1142 1143 0
-1145 -1142 0
-1145 -1143 0
1146 304 1144 0
-1146 -304 0
-1146 -1144 0
1147 -1146 617 0
-1147 1146 0
-1147 -617 0
1148 1146 -617 0
-1148 -1146 0
-1148 617 0
1149 1146 488 0
-1149 -1146 0
-1149 -488 0
1150 1147 1148 0
-1150 -1147 0
-1150 -1148 0
1151 307 1149 0
-1151 -307 0
-1151 -1149 0
1152 -1151 618 0
-1152 1151 0
-1152 -618 0
1153 1151 -618 0
-1153 -1151 0
-1153 618 0
1154 1151 489 0
-1154 -1151 0
-1154 -489 0
1155 1152 1153 0
-1155 -1152 0
-1155 -1153 0
1156 310 1154 0
-1156 -310 0
-1156 -1154 0
1157 -1156 619 0
-1157 1156 0
-1157 -619 0
1158 1156 -619 0
-1158 -1156 0
-1158 619 0
1159 1156 490 0
-1159 -1156 0
-1159 -490 0
1160 1157 1158 0
-1160 -1157 0
-1160 -1158 0
1161 313 1159 0
-1161 -313 0
-1161 -1159 0
1162 -1161 620 0
-1162 1161 0
-1162 -620 0
1163 1161 -620 0
-1163 -1161 0
-1163 620 0
1164 1161 491 0
-1164 -1161 0
-1164 -491 0
1165 1162 1163 0
-1165 -1162 0
-1165 -1163 0
1166 316 1164 0
-1166 -316 0
-1166 -1164 0
1167 -1166 621 0
-1167 1166 0
-1167 -621 0
1168 1166 -621 0
-1168 -1166 0
-1168 621 0
1169 1166 492 0
-1169 -1166 0
-1169 -492 0
1170 1167 1168 0
-1170 -1167 0
-1170 -1168 0
1171 319 1169 0
-1171 -319 0
-1171 -1169 0
1172 -1171 622 0
-1172 1171 0
-1172 -622 0
1173 1171 -622 0
-1173 -1171 0
-1173 622 0
1174 1171 493 0
-1174 -1171 0
-1174 -493 0
1175 1172 1173 0
-1175 -1172 0
-1175 -1173 0
1176 322 1174 0
-1176 -322 0
-1176 -1174 0
1177 -1176 623 0
-1177 1176 0
-1177 -623 0
1178 1176 -623 0
-1178 -1176 0
-1178 623 0
1179 1176 494 0
-1179 -1176 0
-1179 -494 0
1180 1177 1178 0
-1180 -1177 0
-1180 -1178 0
1181 325 1179 0
-1181 -325 0
-1181 -1179 0
1182 -1181 624 0
-1182 1181 0
-1182 -624 0
1183 1181 -624 0
-1183 -1181 0
-1183 624 0
1184 1181 495 0
-1184 -1181 0
-1184 -495 0
1185 1182 1183 0
-1185 -1182 0
-1185 -1183 0
1186 328 1184 0
-1186 -328 0
-1186 -1184 0
1187 -1186 625 0
-1187 1186 0
-1187 -625 0
1188 1186 -625 0
-1188 -1186 0
-1188 625 0
1189 1186 496 0
-1189 -1186 0
-1189 -496 0
1190 1187 1188 0
-1190 -1187 0
-1190 -1188 0
1191 331 1189 0
-1191 -331 0
-1191 -1189 0
1192 -1191 626 0
-1192 1191 0
-1192 -626 0
1193 1191 -626 0
-1193 -1191 0
-1193 626 0
1194 1191 497 0
-1194 -1191 0
-1194 -497 0
1195 1192 1193 0
-1195 -1192 0
-1195 -1193 0
1196 334 1194 0
-1196 -334 0
-1196 -1194 0
1197 -1196 627 0
-1197 1196 0
-1197 -627 0
1198 1196 -627 0
-1198 -1196 0
-1198 627 0
1199 1196 498 0
-1199 -1196 0
-1199 -498 0
1200 1197 1198 0
-1200 -1197 0
-1200 -1198 0
1201 337 1199 0
-1201 -337 0
-1201 -1199 0
1202 -1201 628 0
-1202 1201 0
-1202 -628 0
1203 1201 -628 0
-1203 -1201 0
-1203 628 0
1204 1201 499 0
-1204 -1201 0
-1204 -499 0
1205 1202 1203 0
-1205 -1202 0
-1205 -1203 0
1206 340 1204 0
-1206 -340 0
-1206 -1204 0
1207 -1206 629 0
-1207 1206 0
-1207 -629 0
1208 1206 -629 0
-1208 -1206 0
-1208 629 0
1209 1206 500 0
-1209 -1206 0
-1209 -500 0
1210 1207 1208 0
-1210 -1207 0
-1210 -1208 0
1211 343 1209 0
-1211 -343 0
-1211 -1209 0
1212 -1211 630 0
-1212 1211 0
-1212 -630 0
1213 1211 -630 0
-1213 -1211 0
-1213 630 0
1214 1211 501 0
-1214 -1211 0
-1214 -501 0
1215 1212 1213 0
-1215 -1212 0
-1215 -1213 0
1216 346 1214 0
-1216 -346 0
-1216 -1214 0
1217 -1216 631 0
-1217 1216 0
-1217 -631 0
1218 1216 -631 0
-1218 -1216 0
-1218 631 0
1219 1216 502 0
-1219 -1216 0
-1219 -502 0
1220 1217 1218 0
-1220 -1217 0
-1220 -1218 0
1221 349 1219 0
-1221 -349 0
-1221 -1219 0
1222 -1221 632 0
-1222 1221 0
-1222 -632 0
1223 1221 -632 0
-1223 -1221 0
-1223 632 0
1224 1221 503 0
-1224 -1221 0
-1224 -503 0
1225 1222 1223 0
-1225 -1222 0
-1225 -1223 0
1226 352 1224 0
-1226 -352 0
-1226 -1224 0
1227 -1226 633 0
-1227 1226 0
-1227 -633 0
1228 1226 -633 0
-1228 -1226 0
-1228 633 0
1229 1226 504 0
-1229 -1226 0
-1229 -504 0
1230 1227 1228 0
-1230 -1227 0
-1230 -1228 0
1231 355 1229 0
-1231 -355 0
-1231 -1229 0
1232 -1231 634 0
-1232 1231 0
-1232 -634 0
1233 1231 -634 0
-1233 -1231 0
-1233 634 0
1234 1231 505 0
-1234 -1231 0
-1234 -505 0
1235 1232 1233 0
-1235 -1232 0
-1235 -1233 0
1236 358 1234 0
-1236 -358 0
-1236 -1234 0
1237 -1236 635 0
-1237 1236 0
-1237 -635 0
1238 1236 -635 0
-1238 -1236 0
-1238 635 0
1239 1236 506 0
-1239 -1236 0
-1239 -506 0
1240 1237 1238 0
-1240 -1237 0
-1240 -1238 0
1241 361 1239 0
-1241 -361 0
-1241 -1239 0
1242 -1241 636 0
-1242 1241 0
-1242 -636 0
1243 1241 -636 0
-1243 -1241 0
-1243 636 0
1244 1241 507 0
-1244 -1241 0
-1244 -507 0
1245 1242 1243 0
-1245 -1242 0
-1245 -1243 0
1246 364 1244 0
-1246 -364 0
-1246 -1244 0
1247 -1246 637 0
-1247 1246 0
-1247 -637 0
1248 1246 -637 0
-1248 -1246 0
-1248 637 0
1249 1246 508 0
-1249 -1246 0
-1249 -508 0
1250 1247 1248 0
-1250 -1247 0
-1250 -1248 0
1251 367 1249 0
-1251 -367 0
-1251 -1249 0
1252 -1251 638 0
-1252 1251 0
-1252 -638 0
1253 1251 -638 0
-1253 -1251 0
-1253 638 0
1254 1251 509 0
-1254 -1251 0
-1254 -509 0
1255 1252 1253 0
-1255 -1252 0
-1255 -1253 0
1256 370 1254 0
-1256 -370 0
-1256 -1254 0
1257 -1256 639 0
-1257 1256 0
-1257 -639 0
1258 1256 -639 0
-1258 -1256 0
-1258 639 0
1259 1256 510 0
-1259 -1256 0
-1259 -510 0
1260 1257 1258 0
-1260 -1257 0
-1260 -1258 0
1261 373 1259 0
-1261 -373 0
-1261 -1259 0
1262 -1261 640 0
-1262 1261 0
-1262 -640 0
1263 1261 -640 0
-1263 -1261 0
-1263 640 0
1264 1261 511 0
-1264 -1261 0
-1264 -511 0
1265 1262 1263 0
-1265 -1262 0
-1265 -1263 0
1266 376 1264 0
-1266 -376 0
-1266 -1264 0
1267 -1266 641 0
-1267 1266 0
-1267 -641 0
1268 1266 -641 0
-1268 -1266 0
-1268 641 0
1269 1266 512 0
-1269 -1266 0
-1269 -512 0
1270 1267 1268 0
-1270 -1267 0
-1270 -1268 0
1271 379 1269 0
-1271 -379 0
-1271 -1269 0
1272 -1271 642 0
-1272 1271 0
-1272 -642 0
1273 1271 -642 0
-1273 -1271 0
-1273 642 0
1274 1271 513 0
-1274 -1271 0
-1274 -513 0
-1275 382 1274 0
1275 -382 0
1275 -1274 0
1276 1272 1273 0
-1276 -1272 0
-1276 -1273 0
