c BC-S1.2
p cnf 519 1470
-1 -2 -3 0
1 2 0
1 3 0
-4 -5 -6 0
4 5 0
4 6 0
-7 -8 -6 0
7 8 0
7 6 0
-9 -2 -10 0
9 2 0
9 10 0
-11 -10 -12 0
11 10 0
11 12 0
-13 -3 -12 0
13 3 0
13 12 0
-14 -15 -16 0
14 15 0
14 16 0
-17 -18 -19 0
17 18 0
17 19 0
-20 -21 -22 0
20 21 0
20 22 0
-23 -15 -24 0
23 15 0
23 24 0
-25 -24 -26 0
25 24 0
25 26 0
-27 -16 -26 0
27 16 0
27 26 0
-28 -21 -29 0
28 21 0
28 29 0
-30 -29 -31 0
30 29 0
30 31 0
-32 -22 -31 0
32 22 0
32 31 0
-33 -34 -35 0
33 34 0
33 35 0
-36 -37 -38 0
36 37 0
36 38 0
-39 -34 -40 0
39 34 0
39 40 0
-41 -40 -42 0
41 40 0
41 42 0
-43 -35 -42 0
43 35 0
43 42 0
-44 -37 -45 0
44 37 0
44 45 0
-46 -45 -47 0
46 45 0
46 47 0
-48 -38 -47 0
48 38 0
48 47 0
-49 -50 -51 0
49 50 0
49 51 0
52 -53 -54 0
-52 53 0
-52 54 0
55 -56 -54 0
-55 56 0
-55 54 0
57 -58 -54 0
-57 58 0
-57 54 0
59 -60 -54 0
-59 60 0
-59 54 0
61 -62 -54 0
-61 62 0
-61 54 0
63 -64 -54 0
-63 64 0
-63 54 0
65 -66 -54 0
-65 66 0
-65 54 0
67 -68 -54 0
-67 68 0
-67 54 0
-69 -18 -70 0
69 18 0
69 70 0
-71 -70 -72 0
71 70 0
71 72 0
-73 -19 -72 0
73 19 0
73 72 0
-74 -50 -75 0
74 50 0
74 75 0
-76 -75 -77 0
76 75 0
76 77 0
-78 -51 -77 0
78 51 0
78 77 0
-79 -80 -8 0
79 80 0
79 8 0
-81 -80 -5 0
81 80 0
81 5 0
-82 -2 -1 0
82 2 0
82 1 0
-83 -3 -1 0
83 3 0
83 1 0
-84 -5 -4 0
84 5 0
84 4 0
-85 -6 -4 0
85 6 0
85 4 0
-86 -8 -7 0
86 8 0
86 7 0
-87 -6 -7 0
87 6 0
87 7 0
-88 -2 -9 0
88 2 0
88 9 0
-89 -10 -9 0
89 10 0
89 9 0
-90 -10 -11 0
90 10 0
90 11 0
-91 -12 -11 0
91 12 0
91 11 0
-92 -3 -13 0
92 3 0
92 13 0
-93 -12 -13 0
93 12 0
93 13 0
-94 -15 -14 0
94 15 0
94 14 0
-95 -16 -14 0
95 16 0
95 14 0
-96 -18 -17 0
96 18 0
96 17 0
-97 -19 -17 0
97 19 0
97 17 0
-98 -21 -20 0
98 21 0
98 20 0
-99 -22 -20 0
99 22 0
99 20 0
-100 -15 -23 0
100 15 0
100 23 0
-101 -24 -23 0
101 24 0
101 23 0
-102 -24 -25 0
102 24 0
102 25 0
-103 -26 -25 0
103 26 0
103 25 0
-104 -16 -27 0
104 16 0
104 27 0
-105 -26 -27 0
105 26 0
105 27 0
-106 -21 -28 0
106 21 0
106 28 0
-107 -29 -28 0
107 29 0
107 28 0
-108 -29 -30 0
108 29 0
108 30 0
-109 -31 -30 0
109 31 0
109 30 0
-110 -22 -32 0
110 22 0
110 32 0
-111 -31 -32 0
111 31 0
111 32 0
-112 -34 -33 0
112 34 0
112 33 0
-113 -35 -33 0
113 35 0
113 33 0
-114 -37 -36 0
114 37 0
114 36 0
-115 -38 -36 0
115 38 0
115 36 0
-116 -34 -39 0
116 34 0
116 39 0
-117 -40 -39 0
117 40 0
117 39 0
-118 -40 -41 0
118 40 0
118 41 0
-119 -42 -41 0
119 42 0
119 41 0
-120 -35 -43 0
120 35 0
120 43 0
-121 -42 -43 0
121 42 0
121 43 0
-122 -37 -44 0
122 37 0
122 44 0
-123 -45 -44 0
123 45 0
123 44 0
-124 -45 -46 0
124 45 0
124 46 0
-125 -47 -46 0
125 47 0
125 46 0
-126 -38 -48 0
126 38 0
126 48 0
-127 -47 -48 0
127 47 0
127 48 0
-128 -50 -49 0
128 50 0
128 49 0
-129 -51 -49 0
129 51 0
129 49 0
-130 -18 -69 0
130 18 0
130 69 0
-131 -70 -69 0
131 70 0
131 69 0
-132 -70 -71 0
132 70 0
132 71 0
-133 -72 -71 0
133 72 0
133 71 0
-134 -19 -73 0
134 19 0
134 73 0
-135 -72 -73 0
135 72 0
135 73 0
-136 -50 -74 0
136 50 0
136 74 0
-137 -75 -74 0
137 75 0
137 74 0
-138 -75 -76 0
138 75 0
138 76 0
-139 -77 -76 0
139 77 0
139 76 0
-140 -51 -78 0
140 51 0
140 78 0
-141 -77 -78 0
141 77 0
141 78 0
-142 -80 -79 0
142 80 0
142 79 0
-143 -8 -79 0
143 8 0
143 79 0
-144 -80 -81 0
144 80 0
144 81 0
-145 -5 -81 0
145 5 0
145 81 0
-146 -82 -83 0
146 82 0
146 83 0
-147 -84 -85 0
147 84 0
147 85 0
-148 -86 -87 0
148 86 0
148 87 0
-149 -88 -89 0
149 88 0
149 89 0
-150 -90 -91 0
150 90 0
150 91 0
-151 -92 -93 0
151 92 0
151 93 0
-152 -94 -95 0
152 94 0
152 95 0
-153 -96 -97 0
153 96 0
153 97 0
-154 -98 -99 0
154 98 0
154 99 0
-155 -100 -101 0
155 100 0
155 101 0
-156 -102 -103 0
156 102 0
156 103 0
-157 -104 -105 0
157 104 0
157 105 0
-158 -106 -107 0
158 106 0
158 107 0
-159 -108 -109 0
159 108 0
159 109 0
-160 -110 -111 0
160 110 0
160 111 0
-161 -112 -113 0
161 112 0
161 113 0
-162 -114 -115 0
162 114 0
162 115 0
-163 -116 -117 0
163 116 0
163 117 0
-164 -118 -119 0
164 118 0
164 119 0
-165 -120 -121 0
165 120 0
165 121 0
-166 -122 -123 0
166 122 0
166 123 0
-167 -124 -125 0
167 124 0
167 125 0
-168 -126 -127 0
168 126 0
168 127 0
-169 -128 -129 0
169 128 0
169 129 0
-170 -130 -131 0
170 130 0
170 131 0
-171 -132 -133 0
171 132 0
171 133 0
-172 -134 -135 0
172 134 0
172 135 0
-173 -136 -137 0
173 136 0
173 137 0
-174 -138 -139 0
174 138 0
174 139 0
-175 -140 -141 0
175 140 0
175 141 0
-176 -142 -143 0
176 142 0
176 143 0
-177 -144 -145 0
177 144 0
177 145 0
-178 -147 -150 0
178 147 0
178 150 0
-179 -152 -154 0
179 152 0
179 154 0
-180 -156 -159 0
180 156 0
180 159 0
-181 -161 -162 0
181 161 0
181 162 0
-182 -155 -163 0
182 155 0
182 163 0
-183 -157 -165 0
183 157 0
183 165 0
-184 -158 -166 0
184 158 0
184 166 0
-185 -164 -167 0
185 164 0
185 167 0
-186 -160 -168 0
186 160 0
186 168 0
-187 -153 -169 0
187 153 0
187 169 0
-188 -172 -148 0
188 172 0
188 148 0
-189 -173 -149 0
189 173 0
189 149 0
-190 -171 -174 0
190 171 0
190 174 0
-191 -175 -151 0
191 175 0
191 151 0
-192 -176 -146 0
192 176 0
192 146 0
-193 -170 -177 0
193 170 0
193 177 0
-194 -147 -178 0
194 147 0
194 178 0
-195 -150 -178 0
195 150 0
195 178 0
-196 -152 -179 0
196 152 0
196 179 0
-197 -154 -179 0
197 154 0
197 179 0
-198 -156 -180 0
198 156 0
198 180 0
-199 -159 -180 0
199 159 0
199 180 0
-200 -161 -181 0
200 161 0
200 181 0
-201 -162 -181 0
201 162 0
201 181 0
-202 -155 -182 0
202 155 0
202 182 0
-203 -163 -182 0
203 163 0
203 182 0
-204 -157 -183 0
204 157 0
204 183 0
-205 -165 -183 0
205 165 0
205 183 0
-206 -158 -184 0
206 158 0
206 184 0
-207 -166 -184 0
207 166 0
207 184 0
-208 -164 -185 0
208 164 0
208 185 0
-209 -167 -185 0
209 167 0
209 185 0
-210 -160 -186 0
210 160 0
210 186 0
-211 -168 -186 0
211 168 0
211 186 0
-212 -153 -187 0
212 153 0
212 187 0
-213 -169 -187 0
213 169 0
213 187 0
-214 -172 -188 0
214 172 0
214 188 0
-215 -148 -188 0
215 148 0
215 188 0
-216 -173 -189 0
216 173 0
216 189 0
-217 -149 -189 0
217 149 0
217 189 0
-218 -171 -190 0
218 171 0
218 190 0
-219 -174 -190 0
219 174 0
219 190 0
-220 -175 -191 0
220 175 0
220 191 0
-221 -151 -191 0
221 151 0
221 191 0
-222 -176 -192 0
222 176 0
222 192 0
-223 -146 -192 0
223 146 0
223 192 0
-224 -170 -193 0
224 170 0
224 193 0
-225 -177 -193 0
225 177 0
225 193 0
-226 -194 -195 0
226 194 0
226 195 0
-227 -196 -197 0
227 196 0
227 197 0
-228 -198 -199 0
228 198 0
228 199 0
-229 -200 -201 0
229 200 0
229 201 0
-230 -202 -203 0
230 202 0
230 203 0
-231 -204 -205 0
231 204 0
231 205 0
-232 -206 -207 0
232 206 0
232 207 0
-233 -208 -209 0
233 208 0
233 209 0
-234 -210 -211 0
234 210 0
234 211 0
-235 -212 -213 0
235 212 0
235 213 0
-236 -214 -215 0
236 214 0
236 215 0
-237 -216 -217 0
237 216 0
237 217 0
-238 -218 -219 0
238 218 0
238 219 0
-239 -220 -221 0
239 220 0
239 221 0
-240 -222 -223 0
240 222 0
240 223 0
-241 -224 -225 0
241 224 0
241 225 0
-242 -227 -228 0
242 227 0
242 228 0
-243 -227 -229 0
243 227 0
243 229 0
-244 -229 -233 0
244 229 0
244 233 0
-245 -228 -233 0
245 228 0
245 233 0
-246 -235 -238 0
246 235 0
246 238 0
-247 -238 -226 0
247 238 0
247 226 0
-248 -240 -226 0
248 240 0
248 226 0
-249 -235 -240 0
249 235 0
249 240 0
-250 -227 -242 0
250 227 0
250 242 0
-251 -228 -242 0
251 228 0
251 242 0
-252 -227 -243 0
252 227 0
252 243 0
-253 -229 -243 0
253 229 0
253 243 0
-254 -229 -244 0
254 229 0
254 244 0
-255 -233 -244 0
255 233 0
255 244 0
-256 -228 -245 0
256 228 0
256 245 0
-257 -233 -245 0
257 233 0
257 245 0
-258 -235 -246 0
258 235 0
258 246 0
-259 -238 -246 0
259 238 0
259 246 0
-260 -238 -247 0
260 238 0
260 247 0
-261 -226 -247 0
261 226 0
261 247 0
-262 -240 -248 0
262 240 0
262 248 0
-263 -226 -248 0
263 226 0
263 248 0
-264 -235 -249 0
264 235 0
264 249 0
-265 -240 -249 0
265 240 0
265 249 0
-266 -250 -251 0
266 250 0
266 251 0
-267 -252 -253 0
267 252 0
267 253 0
-268 -254 -255 0
268 254 0
268 255 0
-269 -256 -257 0
269 256 0
269 257 0
-270 -258 -259 0
270 258 0
270 259 0
-271 -260 -261 0
271 260 0
271 261 0
-272 -262 -263 0
272 262 0
272 263 0
-273 -264 -265 0
273 264 0
273 265 0
-274 -52 -266 0
274 52 0
274 266 0
-275 -57 -267 0
275 57 0
275 267 0
-276 -55 -268 0
276 55 0
276 268 0
-277 -59 -269 0
277 59 0
277 269 0
-278 -61 -270 0
278 61 0
278 270 0
-279 -67 -271 0
279 67 0
279 271 0
-280 -63 -272 0
280 63 0
280 272 0
-281 -65 -273 0
281 65 0
281 273 0
-282 -52 -274 0
282 52 0
282 274 0
-283 -266 -274 0
283 266 0
283 274 0
-284 -57 -275 0
284 57 0
284 275 0
-285 -267 -275 0
285 267 0
285 275 0
-286 -55 -276 0
286 55 0
286 276 0
-287 -268 -276 0
287 268 0
287 276 0
-288 -59 -277 0
288 59 0
288 277 0
-289 -269 -277 0
289 269 0
289 277 0
-290 -61 -278 0
290 61 0
290 278 0
-291 -270 -278 0
291 270 0
291 278 0
-292 -67 -279 0
292 67 0
292 279 0
-293 -271 -279 0
293 271 0
293 279 0
-294 -63 -280 0
294 63 0
294 280 0
-295 -272 -280 0
295 272 0
295 280 0
-296 -65 -281 0
296 65 0
296 281 0
-297 -273 -281 0
297 273 0
297 281 0
-298 -282 -283 0
298 282 0
298 283 0
-299 -284 -285 0
299 284 0
299 285 0
-300 -286 -287 0
300 286 0
300 287 0
-301 -288 -289 0
301 288 0
301 289 0
-302 -290 -291 0
302 290 0
302 291 0
-303 -292 -293 0
303 292 0
303 293 0
-304 -294 -295 0
304 294 0
304 295 0
-305 -296 -297 0
305 296 0
305 297 0
-306 -241 -298 0
306 241 0
306 298 0
-307 -237 -299 0
307 237 0
307 299 0
-308 -236 -300 0
308 236 0
308 300 0
-309 -239 -301 0
309 239 0
309 301 0
-310 -230 -302 0
310 230 0
310 302 0
-311 -234 -303 0
311 234 0
311 303 0
-312 -231 -304 0
312 231 0
312 304 0
-313 -232 -305 0
313 232 0
313 305 0
-314 -241 -306 0
314 241 0
314 306 0
-315 -298 -306 0
315 298 0
315 306 0
-316 -237 -307 0
316 237 0
316 307 0
-317 -299 -307 0
317 299 0
317 307 0
-318 -236 -308 0
318 236 0
318 308 0
-319 -300 -308 0
319 300 0
319 308 0
-320 -239 -309 0
320 239 0
320 309 0
-321 -301 -309 0
321 301 0
321 309 0
-322 -230 -310 0
322 230 0
322 310 0
-323 -302 -310 0
323 302 0
323 310 0
-324 -234 -311 0
324 234 0
324 311 0
-325 -303 -311 0
325 303 0
325 311 0
-326 -231 -312 0
326 231 0
326 312 0
-327 -304 -312 0
327 304 0
327 312 0
-328 -232 -313 0
328 232 0
328 313 0
-329 -305 -313 0
329 305 0
329 313 0
-330 -314 -315 0
330 314 0
330 315 0
-331 -316 -317 0
331 316 0
331 317 0
-332 -318 -319 0
332 318 0
332 319 0
-333 -320 -321 0
333 320 0
333 321 0
-334 -322 -323 0
334 322 0
334 323 0
-335 -324 -325 0
335 324 0
335 325 0
-336 -326 -327 0
336 326 0
336 327 0
-337 -328 -329 0
337 328 0
337 329 0
338 330 -332 0
-338 -330 0
-338 332 0
339 330 332 331 -333 0
-339 -330 0
-339 -332 0
-339 -331 0
-339 333 0
340 -330 332 0
-340 330 0
-340 -332 0
341 330 332 -331 333 0
-341 -330 0
-341 -332 0
-341 331 0
-341 -333 0
342 330 -332 331 333 0
-342 -330 0
-342 332 0
-342 -331 0
-342 -333 0
343 -330 332 331 333 0
-343 330 0
-343 -332 0
-343 -331 0
-343 -333 0
344 334 -336 0
-344 -334 0
-344 336 0
345 334 336 -337 335 0
-345 -334 0
-345 -336 0
-345 337 0
-345 -335 0
346 -334 336 0
-346 334 0
-346 -336 0
347 334 336 337 -335 0
-347 -334 0
-347 -336 0
-347 -337 0
-347 335 0
348 334 -336 337 335 0
-348 -334 0
-348 336 0
-348 -337 0
-348 -335 0
349 -334 336 337 335 0
-349 334 0
-349 -336 0
-349 -337 0
-349 -335 0
-350 339 341 342 343 0
350 -339 0
350 -341 0
350 -342 0
350 -343 0
-351 347 345 348 349 0
351 -347 0
351 -345 0
351 -348 0
351 -349 0
352 -337 335 -350 -346 0
-352 337 0
-352 -335 0
-352 350 0
-352 346 0
353 337 -335 -350 -346 0
-353 -337 0
-353 335 0
-353 350 0
-353 346 0
354 -337 335 -350 -344 0
-354 337 0
-354 -335 0
-354 350 0
-354 344 0
355 337 -335 -350 -344 0
-355 -337 0
-355 335 0
-355 350 0
-355 344 0
356 -331 333 -351 -340 0
-356 331 0
-356 -333 0
-356 351 0
-356 340 0
357 331 -333 -351 -340 0
-357 -331 0
-357 333 0
-357 351 0
-357 340 0
358 -331 333 -351 -338 0
-358 331 0
-358 -333 0
-358 351 0
-358 338 0
359 331 -333 -351 -338 0
-359 -331 0
-359 333 0
-359 351 0
-359 338 0
360 -330 -352 0
-360 330 0
-360 352 0
361 -332 -352 0
-361 332 0
-361 352 0
362 -331 -352 0
-362 331 0
-362 352 0
363 -333 -352 0
-363 333 0
-363 352 0
364 -330 -353 0
-364 330 0
-364 353 0
365 -332 -353 0
-365 332 0
-365 353 0
366 -331 -353 0
-366 331 0
-366 353 0
367 -333 -353 0
-367 333 0
-367 353 0
368 -330 -354 0
-368 330 0
-368 354 0
369 -332 -354 0
-369 332 0
-369 354 0
370 -331 -354 0
-370 331 0
-370 354 0
371 -333 -354 0
-371 333 0
-371 354 0
372 -330 -355 0
-372 330 0
-372 355 0
373 -332 -355 0
-373 332 0
-373 355 0
374 -331 -355 0
-374 331 0
-374 355 0
375 -333 -355 0
-375 333 0
-375 355 0
376 -334 -356 0
-376 334 0
-376 356 0
377 -336 -356 0
-377 336 0
-377 356 0
378 -337 -356 0
-378 337 0
-378 356 0
379 -335 -356 0
-379 335 0
-379 356 0
380 -334 -357 0
-380 334 0
-380 357 0
381 -336 -357 0
-381 336 0
-381 357 0
382 -337 -357 0
-382 337 0
-382 357 0
383 -335 -357 0
-383 335 0
-383 357 0
384 -334 -358 0
-384 334 0
-384 358 0
385 -336 -358 0
-385 336 0
-385 358 0
386 -337 -358 0
-386 337 0
-386 358 0
387 -335 -358 0
-387 335 0
-387 358 0
388 -334 -359 0
-388 334 0
-388 359 0
389 -336 -359 0
-389 336 0
-389 359 0
390 -337 -359 0
-390 337 0
-390 359 0
391 -335 -359 0
-391 335 0
-391 359 0
-392 -18 -360 0
392 18 0
392 360 0
-393 -19 -361 0
393 19 0
393 361 0
-394 -50 -362 0
394 50 0
394 362 0
-395 -51 -363 0
395 51 0
395 363 0
-396 -70 -364 0
396 70 0
396 364 0
-397 -72 -365 0
397 72 0
397 365 0
-398 -75 -366 0
398 75 0
398 366 0
-399 -77 -367 0
399 77 0
399 367 0
-400 -80 -368 0
400 80 0
400 368 0
-401 -8 -369 0
401 8 0
401 369 0
-402 -2 -370 0
402 2 0
402 370 0
-403 -3 -371 0
403 3 0
403 371 0
-404 -5 -372 0
404 5 0
404 372 0
-405 -6 -373 0
405 6 0
405 373 0
-406 -10 -374 0
406 10 0
406 374 0
-407 -12 -375 0
407 12 0
407 375 0
-408 -15 -376 0
408 15 0
408 376 0
-409 -16 -377 0
409 16 0
409 377 0
-410 -21 -378 0
410 21 0
410 378 0
-411 -22 -379 0
411 22 0
411 379 0
-412 -24 -380 0
412 24 0
412 380 0
-413 -26 -381 0
413 26 0
413 381 0
-414 -29 -382 0
414 29 0
414 382 0
-415 -31 -383 0
415 31 0
415 383 0
-416 -34 -384 0
416 34 0
416 384 0
-417 -35 -385 0
417 35 0
417 385 0
-418 -37 -386 0
418 37 0
418 386 0
-419 -38 -387 0
419 38 0
419 387 0
-420 -40 -388 0
420 40 0
420 388 0
-421 -42 -389 0
421 42 0
421 389 0
-422 -45 -390 0
422 45 0
422 390 0
-423 -47 -391 0
423 47 0
423 391 0
-424 -18 -392 0
424 18 0
424 392 0
-425 -360 -392 0
425 360 0
425 392 0
-426 -19 -393 0
426 19 0
426 393 0
-427 -361 -393 0
427 361 0
427 393 0
-428 -50 -394 0
428 50 0
428 394 0
-429 -362 -394 0
429 362 0
429 394 0
-430 -51 -395 0
430 51 0
430 395 0
-431 -363 -395 0
431 363 0
431 395 0
-432 -70 -396 0
432 70 0
432 396 0
-433 -364 -396 0
433 364 0
433 396 0
-434 -72 -397 0
434 72 0
434 397 0
-435 -365 -397 0
435 365 0
435 397 0
-436 -75 -398 0
436 75 0
436 398 0
-437 -366 -398 0
437 366 0
437 398 0
-438 -77 -399 0
438 77 0
438 399 0
-439 -367 -399 0
439 367 0
439 399 0
-440 -80 -400 0
440 80 0
440 400 0
-441 -368 -400 0
441 368 0
441 400 0
-442 -8 -401 0
442 8 0
442 401 0
-443 -369 -401 0
443 369 0
443 401 0
-444 -2 -402 0
444 2 0
444 402 0
-445 -370 -402 0
445 370 0
445 402 0
-446 -3 -403 0
446 3 0
446 403 0
-447 -371 -403 0
447 371 0
447 403 0
-448 -5 -404 0
448 5 0
448 404 0
-449 -372 -404 0
449 372 0
449 404 0
-450 -6 -405 0
450 6 0
450 405 0
-451 -373 -405 0
451 373 0
451 405 0
-452 -10 -406 0
452 10 0
452 406 0
-453 -374 -406 0
453 374 0
453 406 0
-454 -12 -407 0
454 12 0
454 407 0
-455 -375 -407 0
455 375 0
455 407 0
-456 -15 -408 0
456 15 0
456 408 0
-457 -376 -408 0
457 376 0
457 408 0
-458 -16 -409 0
458 16 0
458 409 0
-459 -377 -409 0
459 377 0
459 409 0
-460 -21 -410 0
460 21 0
460 410 0
-461 -378 -410 0
461 378 0
461 410 0
-462 -22 -411 0
462 22 0
462 411 0
-463 -379 -411 0
463 379 0
463 411 0
-464 -24 -412 0
464 24 0
464 412 0
-465 -380 -412 0
465 380 0
465 412 0
-466 -26 -413 0
466 26 0
466 413 0
-467 -381 -413 0
467 381 0
467 413 0
-468 -29 -414 0
468 29 0
468 414 0
-469 -382 -414 0
469 382 0
469 414 0
-470 -31 -415 0
470 31 0
470 415 0
-471 -383 -415 0
471 383 0
471 415 0
-472 -34 -416 0
472 34 0
472 416 0
-473 -384 -416 0
473 384 0
473 416 0
-474 -35 -417 0
474 35 0
474 417 0
-475 -385 -417 0
475 385 0
475 417 0
-476 -37 -418 0
476 37 0
476 418 0
-477 -386 -418 0
477 386 0
477 418 0
-478 -38 -419 0
478 38 0
478 419 0
-479 -387 -419 0
479 387 0
479 419 0
-480 -40 -420 0
480 40 0
480 420 0
-481 -388 -420 0
481 388 0
481 420 0
-482 -42 -421 0
482 42 0
482 421 0
-483 -389 -421 0
483 389 0
483 421 0
-484 -45 -422 0
484 45 0
484 422 0
-485 -390 -422 0
485 390 0
485 422 0
-486 -47 -423 0
486 47 0
486 423 0
-487 -391 -423 0
487 391 0
487 423 0
-488 -424 -425 0
488 424 0
488 425 0
-489 -426 -427 0
489 426 0
489 427 0
-490 -428 -429 0
490 428 0
490 429 0
-491 -430 -431 0
491 430 0
491 431 0
-492 -432 -433 0
492 432 0
492 433 0
-493 -434 -435 0
493 434 0
493 435 0
-494 -436 -437 0
494 436 0
494 437 0
-495 -438 -439 0
495 438 0
495 439 0
-496 -440 -441 0
496 440 0
496 441 0
-497 -442 -443 0
497 442 0
497 443 0
-498 -444 -445 0
498 444 0
498 445 0
-499 -446 -447 0
499 446 0
499 447 0
-500 -448 -449 0
500 448 0
500 449 0
-501 -450 -451 0
501 450 0
501 451 0
-502 -452 -453 0
502 452 0
502 453 0
-503 -454 -455 0
503 454 0
503 455 0
-504 -456 -457 0
504 456 0
504 457 0
-505 -458 -459 0
505 458 0
505 459 0
-506 -460 -461 0
506 460 0
506 461 0
-507 -462 -463 0
507 462 0
507 463 0
-508 -464 -465 0
508 464 0
508 465 0
-509 -466 -467 0
509 466 0
509 467 0
-510 -468 -469 0
510 468 0
510 469 0
-511 -470 -471 0
511 470 0
511 471 0
-512 -472 -473 0
512 472 0
512 473 0
-513 -474 -475 0
513 474 0
513 475 0
-514 -476 -477 0
514 476 0
514 477 0
-515 -478 -479 0
515 478 0
515 479 0
-516 -480 -481 0
516 480 0
516 481 0
-517 -482 -483 0
517 482 0
517 483 0
-518 -484 -485 0
518 484 0
518 485 0
-519 -486 -487 0
519 486 0
519 487 0
