c BC-S1.2
p cnf 415 1158
-1 2 3 0
1 -2 0
1 -3 0
-4 -2 -3 0
4 2 0
4 3 0
5 -1 -4 0
-5 1 0
-5 4 0
-6 7 8 0
6 -7 0
6 -8 0
-9 -7 -8 0
9 7 0
9 8 0
10 -6 -9 0
-10 6 0
-10 9 0
-11 2 12 0
11 -2 0
11 -12 0
-13 -2 -12 0
13 2 0
13 12 0
14 -11 -13 0
-14 11 0
-14 13 0
-15 12 16 0
15 -12 0
15 -16 0
-17 -12 -16 0
17 12 0
17 16 0
18 -15 -17 0
-18 15 0
-18 17 0
-19 3 16 0
19 -3 0
19 -16 0
-20 -3 -16 0
20 3 0
20 16 0
21 -19 -20 0
-21 19 0
-21 20 0
-22 7 23 0
22 -7 0
22 -23 0
-24 -7 -23 0
24 7 0
24 23 0
25 -22 -24 0
-25 22 0
-25 24 0
-26 23 27 0
26 -23 0
26 -27 0
-28 -23 -27 0
28 23 0
28 27 0
29 -26 -28 0
-29 26 0
-29 28 0
-30 8 27 0
30 -8 0
30 -27 0
-31 -8 -27 0
31 8 0
31 27 0
32 -30 -31 0
-32 30 0
-32 31 0
-33 34 35 0
33 -34 0
33 -35 0
-36 -34 -35 0
36 34 0
36 35 0
37 -33 -36 0
-37 33 0
-37 36 0
-38 39 40 0
38 -39 0
38 -40 0
-41 -39 -40 0
41 39 0
41 40 0
42 -38 -41 0
-42 38 0
-42 41 0
-43 34 44 0
43 -34 0
43 -44 0
-45 -34 -44 0
45 34 0
45 44 0
46 -43 -45 0
-46 43 0
-46 45 0
-47 44 48 0
47 -44 0
47 -48 0
-49 -44 -48 0
49 44 0
49 48 0
50 -47 -49 0
-50 47 0
-50 49 0
-51 35 48 0
51 -35 0
51 -48 0
-52 -35 -48 0
52 35 0
52 48 0
53 -51 -52 0
-53 51 0
-53 52 0
-54 39 55 0
54 -39 0
54 -55 0
-56 -39 -55 0
56 39 0
56 55 0
57 -54 -56 0
-57 54 0
-57 56 0
-58 55 59 0
58 -55 0
58 -59 0
-60 -55 -59 0
60 55 0
60 59 0
61 -58 -60 0
-61 58 0
-61 60 0
-62 40 59 0
62 -40 0
62 -59 0
-63 -40 -59 0
63 40 0
63 59 0
64 -62 -63 0
-64 62 0
-64 63 0
-65 66 67 0
65 -66 0
65 -67 0
-68 -66 -67 0
68 66 0
68 67 0
69 -65 -68 0
-69 65 0
-69 68 0
-70 71 72 0
70 -71 0
70 -72 0
-73 -71 -72 0
73 71 0
73 72 0
74 -70 -73 0
-74 70 0
-74 73 0
-75 66 76 0
75 -66 0
75 -76 0
-77 -66 -76 0
77 66 0
77 76 0
78 -75 -77 0
-78 75 0
-78 77 0
-79 76 80 0
79 -76 0
79 -80 0
-81 -76 -80 0
81 76 0
81 80 0
82 -79 -81 0
-82 79 0
-82 81 0
-83 67 80 0
83 -67 0
83 -80 0
-84 -67 -80 0
84 67 0
84 80 0
85 -83 -84 0
-85 83 0
-85 84 0
-86 71 87 0
86 -71 0
86 -87 0
-88 -71 -87 0
88 71 0
88 87 0
89 -86 -88 0
-89 86 0
-89 88 0
-90 87 91 0
90 -87 0
90 -91 0
-92 -87 -91 0
92 87 0
92 91 0
93 -90 -92 0
-93 90 0
-93 92 0
-94 72 91 0
94 -72 0
94 -91 0
-95 -72 -91 0
95 72 0
95 91 0
96 -94 -95 0
-96 94 0
-96 95 0
-97 98 99 0
97 -98 0
97 -99 0
-100 -98 -99 0
100 98 0
100 99 0
101 -97 -100 0
-101 97 0
-101 100 0
-102 103 104 0
102 -103 0
102 -104 0
-105 -103 -104 0
105 103 0
105 104 0
106 -102 -105 0
-106 102 0
-106 105 0
-107 98 108 0
107 -98 0
107 -108 0
-109 -98 -108 0
109 98 0
109 108 0
110 -107 -109 0
-110 107 0
-110 109 0
-111 108 112 0
111 -108 0
111 -112 0
-113 -108 -112 0
113 108 0
113 112 0
114 -111 -113 0
-114 111 0
-114 113 0
-115 99 112 0
115 -99 0
115 -112 0
-116 -99 -112 0
116 99 0
116 112 0
117 -115 -116 0
-117 115 0
-117 116 0
-118 103 119 0
118 -103 0
118 -119 0
-120 -103 -119 0
120 103 0
120 119 0
121 -118 -120 0
-121 118 0
-121 120 0
-122 119 123 0
122 -119 0
122 -123 0
-124 -119 -123 0
124 119 0
124 123 0
125 -122 -124 0
-125 122 0
-125 124 0
-126 104 123 0
126 -104 0
126 -123 0
-127 -104 -123 0
127 104 0
127 123 0
128 -126 -127 0
-128 126 0
-128 127 0
129 -130 -131 0
-129 130 0
-129 131 0
132 -133 -131 0
-132 133 0
-132 131 0
134 -135 -131 0
-134 135 0
-134 131 0
136 -137 -131 0
-136 137 0
-136 131 0
138 -139 -131 0
-138 139 0
-138 131 0
140 -141 -131 0
-140 141 0
-140 131 0
142 -143 -131 0
-142 143 0
-142 131 0
144 -145 -131 0
-144 145 0
-144 131 0
-146 5 10 0
146 -5 0
146 -10 0
-147 -5 -10 0
147 5 0
147 10 0
148 -146 -147 0
-148 146 0
-148 147 0
-149 18 29 0
149 -18 0
149 -29 0
-150 -18 -29 0
150 18 0
150 29 0
151 -149 -150 0
-151 149 0
-151 150 0
-152 37 42 0
152 -37 0
152 -42 0
-153 -37 -42 0
153 37 0
153 42 0
154 -152 -153 0
-154 152 0
-154 153 0
-155 14 46 0
155 -14 0
155 -46 0
-156 -14 -46 0
156 14 0
156 46 0
157 -155 -156 0
-157 155 0
-157 156 0
-158 21 53 0
158 -21 0
158 -53 0
-159 -21 -53 0
159 21 0
159 53 0
160 -158 -159 0
-160 158 0
-160 159 0
-161 25 57 0
161 -25 0
161 -57 0
-162 -25 -57 0
162 25 0
162 57 0
163 -161 -162 0
-163 161 0
-163 162 0
-164 50 61 0
164 -50 0
164 -61 0
-165 -50 -61 0
165 50 0
165 61 0
166 -164 -165 0
-166 164 0
-166 165 0
-167 32 64 0
167 -32 0
167 -64 0
-168 -32 -64 0
168 32 0
168 64 0
169 -167 -168 0
-169 167 0
-169 168 0
-170 69 74 0
170 -69 0
170 -74 0
-171 -69 -74 0
171 69 0
171 74 0
172 -170 -171 0
-172 170 0
-172 171 0
-173 82 93 0
173 -82 0
173 -93 0
-174 -82 -93 0
174 82 0
174 93 0
175 -173 -174 0
-175 173 0
-175 174 0
-176 101 106 0
176 -101 0
176 -106 0
-177 -101 -106 0
177 101 0
177 106 0
178 -176 -177 0
-178 176 0
-178 177 0
-179 78 110 0
179 -78 0
179 -110 0
-180 -78 -110 0
180 78 0
180 110 0
181 -179 -180 0
-181 179 0
-181 180 0
-182 85 117 0
182 -85 0
182 -117 0
-183 -85 -117 0
183 85 0
183 117 0
184 -182 -183 0
-184 182 0
-184 183 0
-185 89 121 0
185 -89 0
185 -121 0
-186 -89 -121 0
186 89 0
186 121 0
187 -185 -186 0
-187 185 0
-187 186 0
-188 114 125 0
188 -114 0
188 -125 0
-189 -114 -125 0
189 114 0
189 125 0
190 -188 -189 0
-190 188 0
-190 189 0
-191 96 128 0
191 -96 0
191 -128 0
-192 -96 -128 0
192 96 0
192 128 0
193 -191 -192 0
-193 191 0
-193 192 0
-194 148 151 0
194 -148 0
194 -151 0
-195 -148 -151 0
195 148 0
195 151 0
196 -194 -195 0
-196 194 0
-196 195 0
-197 148 154 0
197 -148 0
197 -154 0
-198 -148 -154 0
198 148 0
198 154 0
199 -197 -198 0
-199 197 0
-199 198 0
-200 154 166 0
200 -154 0
200 -166 0
-201 -154 -166 0
201 154 0
201 166 0
202 -200 -201 0
-202 200 0
-202 201 0
-203 151 166 0
203 -151 0
203 -166 0
-204 -151 -166 0
204 151 0
204 166 0
205 -203 -204 0
-205 203 0
-205 204 0
-206 172 175 0
206 -172 0
206 -175 0
-207 -172 -175 0
207 172 0
207 175 0
208 -206 -207 0
-208 206 0
-208 207 0
-209 172 178 0
209 -172 0
209 -178 0
-210 -172 -178 0
210 172 0
210 178 0
211 -209 -210 0
-211 209 0
-211 210 0
-212 178 190 0
212 -178 0
212 -190 0
-213 -178 -190 0
213 178 0
213 190 0
214 -212 -213 0
-214 212 0
-214 213 0
-215 175 190 0
215 -175 0
215 -190 0
-216 -175 -190 0
216 175 0
216 190 0
217 -215 -216 0
-217 215 0
-217 216 0
-218 138 196 0
218 -138 0
218 -196 0
-219 -138 -196 0
219 138 0
219 196 0
220 -218 -219 0
-220 218 0
-220 219 0
-221 142 199 0
221 -142 0
221 -199 0
-222 -142 -199 0
222 142 0
222 199 0
223 -221 -222 0
-223 221 0
-223 222 0
-224 140 202 0
224 -140 0
224 -202 0
-225 -140 -202 0
225 140 0
225 202 0
226 -224 -225 0
-226 224 0
-226 225 0
-227 144 205 0
227 -144 0
227 -205 0
-228 -144 -205 0
228 144 0
228 205 0
229 -227 -228 0
-229 227 0
-229 228 0
-230 129 208 0
230 -129 0
230 -208 0
-231 -129 -208 0
231 129 0
231 208 0
232 -230 -231 0
-232 230 0
-232 231 0
-233 134 211 0
233 -134 0
233 -211 0
-234 -134 -211 0
234 134 0
234 211 0
235 -233 -234 0
-235 233 0
-235 234 0
-236 132 214 0
236 -132 0
236 -214 0
-237 -132 -214 0
237 132 0
237 214 0
238 -236 -237 0
-238 236 0
-238 237 0
-239 136 217 0
239 -136 0
239 -217 0
-240 -136 -217 0
240 136 0
240 217 0
241 -239 -240 0
-241 239 0
-241 240 0
-242 181 220 0
242 -181 0
242 -220 0
-243 -181 -220 0
243 181 0
243 220 0
244 -242 -243 0
-244 242 0
-244 243 0
-245 187 223 0
245 -187 0
245 -223 0
-246 -187 -223 0
246 187 0
246 223 0
247 -245 -246 0
-247 245 0
-247 246 0
-248 184 226 0
248 -184 0
248 -226 0
-249 -184 -226 0
249 184 0
249 226 0
250 -248 -249 0
-250 248 0
-250 249 0
-251 193 229 0
251 -193 0
251 -229 0
-252 -193 -229 0
252 193 0
252 229 0
253 -251 -252 0
-253 251 0
-253 252 0
-254 157 232 0
254 -157 0
254 -232 0
-255 -157 -232 0
255 157 0
255 232 0
256 -254 -255 0
-256 254 0
-256 255 0
-257 163 235 0
257 -163 0
257 -235 0
-258 -163 -235 0
258 163 0
258 235 0
259 -257 -258 0
-259 257 0
-259 258 0
-260 160 238 0
260 -160 0
260 -238 0
-261 -160 -238 0
261 160 0
261 238 0
262 -260 -261 0
-262 260 0
-262 261 0
-263 169 241 0
263 -169 0
263 -241 0
-264 -169 -241 0
264 169 0
264 241 0
265 -263 -264 0
-265 263 0
-265 264 0
266 244 -250 0
-266 -244 0
-266 250 0
267 244 250 247 -253 0
-267 -244 0
-267 -250 0
-267 -247 0
-267 253 0
268 -244 250 0
-268 244 0
-268 -250 0
269 244 250 -247 253 0
-269 -244 0
-269 -250 0
-269 247 0
-269 -253 0
270 244 -250 247 253 0
-270 -244 0
-270 250 0
-270 -247 0
-270 -253 0
271 -244 250 247 253 0
-271 244 0
-271 -250 0
-271 -247 0
-271 -253 0
272 256 -262 0
-272 -256 0
-272 262 0
273 256 262 259 -265 0
-273 -256 0
-273 -262 0
-273 -259 0
-273 265 0
274 -256 262 0
-274 256 0
-274 -262 0
275 256 262 -259 265 0
-275 -256 0
-275 -262 0
-275 259 0
-275 -265 0
276 256 -262 259 265 0
-276 -256 0
-276 262 0
-276 -259 0
-276 -265 0
277 -256 262 259 265 0
-277 256 0
-277 -262 0
-277 -259 0
-277 -265 0
-278 267 269 270 271 0
278 -267 0
278 -269 0
278 -270 0
278 -271 0
-279 273 275 276 277 0
279 -273 0
279 -275 0
279 -276 0
279 -277 0
280 -259 265 -278 -274 0
-280 259 0
-280 -265 0
-280 278 0
-280 274 0
281 259 -265 -278 -274 0
-281 -259 0
-281 265 0
-281 278 0
-281 274 0
282 -259 265 -278 -272 0
-282 259 0
-282 -265 0
-282 278 0
-282 272 0
283 259 -265 -278 -272 0
-283 -259 0
-283 265 0
-283 278 0
-283 272 0
284 -247 253 -279 -268 0
-284 247 0
-284 -253 0
-284 279 0
-284 268 0
285 247 -253 -279 -268 0
-285 -247 0
-285 253 0
-285 279 0
-285 268 0
286 -247 253 -279 -266 0
-286 247 0
-286 -253 0
-286 279 0
-286 266 0
287 247 -253 -279 -266 0
-287 -247 0
-287 253 0
-287 279 0
-287 266 0
288 -244 -280 0
-288 244 0
-288 280 0
289 -250 -280 0
-289 250 0
-289 280 0
290 -247 -280 0
-290 247 0
-290 280 0
291 -253 -280 0
-291 253 0
-291 280 0
292 -244 -281 0
-292 244 0
-292 281 0
293 -250 -281 0
-293 250 0
-293 281 0
294 -247 -281 0
-294 247 0
-294 281 0
295 -253 -281 0
-295 253 0
-295 281 0
296 -244 -282 0
-296 244 0
-296 282 0
297 -250 -282 0
-297 250 0
-297 282 0
298 -247 -282 0
-298 247 0
-298 282 0
299 -253 -282 0
-299 253 0
-299 282 0
300 -244 -283 0
-300 244 0
-300 283 0
301 -250 -283 0
-301 250 0
-301 283 0
302 -247 -283 0
-302 247 0
-302 283 0
303 -253 -283 0
-303 253 0
-303 283 0
304 -256 -284 0
-304 256 0
-304 284 0
305 -262 -284 0
-305 262 0
-305 284 0
306 -259 -284 0
-306 259 0
-306 284 0
307 -265 -284 0
-307 265 0
-307 284 0
308 -256 -285 0
-308 256 0
-308 285 0
309 -262 -285 0
-309 262 0
-309 285 0
310 -259 -285 0
-310 259 0
-310 285 0
311 -265 -285 0
-311 265 0
-311 285 0
312 -256 -286 0
-312 256 0
-312 286 0
313 -262 -286 0
-313 262 0
-313 286 0
314 -259 -286 0
-314 259 0
-314 286 0
315 -265 -286 0
-315 265 0
-315 286 0
316 -256 -287 0
-316 256 0
-316 287 0
317 -262 -287 0
-317 262 0
-317 287 0
318 -259 -287 0
-318 259 0
-318 287 0
319 -265 -287 0
-319 265 0
-319 287 0
-320 66 288 0
320 -66 0
320 -288 0
-321 -66 -288 0
321 66 0
321 288 0
322 -320 -321 0
-322 320 0
-322 321 0
-323 67 289 0
323 -67 0
323 -289 0
-324 -67 -289 0
324 67 0
324 289 0
325 -323 -324 0
-325 323 0
-325 324 0
-326 71 290 0
326 -71 0
326 -290 0
-327 -71 -290 0
327 71 0
327 290 0
328 -326 -327 0
-328 326 0
-328 327 0
-329 72 291 0
329 -72 0
329 -291 0
-330 -72 -291 0
330 72 0
330 291 0
331 -329 -330 0
-331 329 0
-331 330 0
-332 76 292 0
332 -76 0
332 -292 0
-333 -76 -292 0
333 76 0
333 292 0
334 -332 -333 0
-334 332 0
-334 333 0
-335 80 293 0
335 -80 0
335 -293 0
-336 -80 -293 0
336 80 0
336 293 0
337 -335 -336 0
-337 335 0
-337 336 0
-338 87 294 0
338 -87 0
338 -294 0
-339 -87 -294 0
339 87 0
339 294 0
340 -338 -339 0
-340 338 0
-340 339 0
-341 91 295 0
341 -91 0
341 -295 0
-342 -91 -295 0
342 91 0
342 295 0
343 -341 -342 0
-343 341 0
-343 342 0
-344 98 296 0
344 -98 0
344 -296 0
-345 -98 -296 0
345 98 0
345 296 0
346 -344 -345 0
-346 344 0
-346 345 0
-347 99 297 0
347 -99 0
347 -297 0
-348 -99 -297 0
348 99 0
348 297 0
349 -347 -348 0
-349 347 0
-349 348 0
-350 103 298 0
350 -103 0
350 -298 0
-351 -103 -298 0
351 103 0
351 298 0
352 -350 -351 0
-352 350 0
-352 351 0
-353 104 299 0
353 -104 0
353 -299 0
-354 -104 -299 0
354 104 0
354 299 0
355 -353 -354 0
-355 353 0
-355 354 0
-356 108 300 0
356 -108 0
356 -300 0
-357 -108 -300 0
357 108 0
357 300 0
358 -356 -357 0
-358 356 0
-358 357 0
-359 112 301 0
359 -112 0
359 -301 0
-360 -112 -301 0
360 112 0
360 301 0
361 -359 -360 0
-361 359 0
-361 360 0
-362 119 302 0
362 -119 0
362 -302 0
-363 -119 -302 0
363 119 0
363 302 0
364 -362 -363 0
-364 362 0
-364 363 0
-365 123 303 0
365 -123 0
365 -303 0
-366 -123 -303 0
366 123 0
366 303 0
367 -365 -366 0
-367 365 0
-367 366 0
-368 2 304 0
368 -2 0
368 -304 0
-369 -2 -304 0
369 2 0
369 304 0
370 -368 -369 0
-370 368 0
-370 369 0
-371 3 305 0
371 -3 0
371 -305 0
-372 -3 -305 0
372 3 0
372 305 0
373 -371 -372 0
-373 371 0
-373 372 0
-374 7 306 0
374 -7 0
374 -306 0
-375 -7 -306 0
375 7 0
375 306 0
376 -374 -375 0
-376 374 0
-376 375 0
-377 8 307 0
377 -8 0
377 -307 0
-378 -8 -307 0
378 8 0
378 307 0
379 -377 -378 0
-379 377 0
-379 378 0
-380 12 308 0
380 -12 0
380 -308 0
-381 -12 -308 0
381 12 0
381 308 0
382 -380 -381 0
-382 380 0
-382 381 0
-383 16 309 0
383 -16 0
383 -309 0
-384 -16 -309 0
384 16 0
384 309 0
385 -383 -384 0
-385 383 0
-385 384 0
-386 23 310 0
386 -23 0
386 -310 0
-387 -23 -310 0
387 23 0
387 310 0
388 -386 -387 0
-388 386 0
-388 387 0
-389 27 311 0
389 -27 0
389 -311 0
-390 -27 -311 0
390 27 0
390 311 0
391 -389 -390 0
-391 389 0
-391 390 0
-392 34 312 0
392 -34 0
392 -312 0
-393 -34 -312 0
393 34 0
393 312 0
394 -392 -393 0
-394 392 0
-394 393 0
-395 35 313 0
395 -35 0
395 -313 0
-396 -35 -313 0
396 35 0
396 313 0
397 -395 -396 0
-397 395 0
-397 396 0
-398 39 314 0
398 -39 0
398 -314 0
-399 -39 -314 0
399 39 0
399 314 0
400 -398 -399 0
-400 398 0
-400 399 0
-401 40 315 0
401 -40 0
401 -315 0
-402 -40 -315 0
402 40 0
402 315 0
403 -401 -402 0
-403 401 0
-403 402 0
-404 44 316 0
404 -44 0
404 -316 0
-405 -44 -316 0
405 44 0
405 316 0
406 -404 -405 0
-406 404 0
-406 405 0
-407 48 317 0
407 -48 0
407 -317 0
-408 -48 -317 0
408 48 0
408 317 0
409 -407 -408 0
-409 407 0
-409 408 0
-410 55 318 0
410 -55 0
410 -318 0
-411 -55 -318 0
411 55 0
411 318 0
412 -410 -411 0
-412 410 0
-412 411 0
-413 59 319 0
413 -59 0
413 -319 0
-414 -59 -319 0
414 59 0
414 319 0
415 -413 -414 0
-415 413 0
-415 414 0
