c BC-S1.2
p cnf 2017 5808
-1 -2 -3 0
1 2 0
1 3 0
4 -5 -6 0
-4 5 0
-4 6 0
7 -8 -9 0
-7 8 0
-7 9 0
10 -11 -9 0
-10 11 0
-10 9 0
12 -13 -9 0
-12 13 0
-12 9 0
14 -15 -9 0
-14 15 0
-14 9 0
16 -17 -9 0
-16 17 0
-16 9 0
18 -19 -9 0
-18 19 0
-18 9 0
20 -21 -9 0
-20 21 0
-20 9 0
22 -23 -9 0
-22 23 0
-22 9 0
24 -25 -9 0
-24 25 0
-24 9 0
26 -27 -9 0
-26 27 0
-26 9 0
28 -29 -30 0
-28 29 0
-28 30 0
31 -32 -9 0
-31 32 0
-31 9 0
33 -34 -9 0
-33 34 0
-33 9 0
35 -36 -9 0
-35 36 0
-35 9 0
37 -38 -9 0
-37 38 0
-37 9 0
39 -40 -9 0
-39 40 0
-39 9 0
41 -42 -9 0
-41 42 0
-41 9 0
43 -44 -9 0
-43 44 0
-43 9 0
45 -46 -9 0
-45 46 0
-45 9 0
47 -48 -9 0
-47 48 0
-47 9 0
49 -50 -9 0
-49 50 0
-49 9 0
51 -52 -9 0
-51 52 0
-51 9 0
53 -54 -9 0
-53 54 0
-53 9 0
55 -56 -9 0
-55 56 0
-55 9 0
57 -58 -9 0
-57 58 0
-57 9 0
59 -60 -9 0
-59 60 0
-59 9 0
61 -62 -9 0
-61 62 0
-61 9 0
63 -64 -9 0
-63 64 0
-63 9 0
65 -66 -67 -68 -69 0
-65 66 0
-65 67 0
-65 68 0
-65 69 0
70 -71 -9 0
-70 71 0
-70 9 0
72 -73 -9 0
-72 73 0
-72 9 0
74 -75 -9 0
-74 75 0
-74 9 0
76 -77 -9 0
-76 77 0
-76 9 0
78 -79 -9 0
-78 79 0
-78 9 0
80 -81 -9 0
-80 81 0
-80 9 0
82 -83 -9 0
-82 83 0
-82 9 0
84 -85 -9 0
-84 85 0
-84 9 0
86 -87 -9 0
-86 87 0
-86 9 0
88 -89 -9 0
-88 89 0
-88 9 0
90 -91 -9 0
-90 91 0
-90 9 0
92 -93 -94 -95 -96 0
-92 93 0
-92 94 0
-92 95 0
-92 96 0
97 -98 -9 0
-97 98 0
-97 9 0
99 -100 -9 0
-99 100 0
-99 9 0
101 -102 -9 0
-101 102 0
-101 9 0
103 -104 -9 0
-103 104 0
-103 9 0
105 -106 -9 0
-105 106 0
-105 9 0
107 -108 -9 0
-107 108 0
-107 9 0
109 -110 -9 0
-109 110 0
-109 9 0
111 -112 -9 0
-111 112 0
-111 9 0
113 -114 -9 0
-113 114 0
-113 9 0
115 -116 -9 0
-115 116 0
-115 9 0
117 -118 -9 0
-117 118 0
-117 9 0
119 -120 -9 0
-119 120 0
-119 9 0
121 -122 -9 0
-121 122 0
-121 9 0
123 -124 -9 0
-123 124 0
-123 9 0
125 -126 -9 0
-125 126 0
-125 9 0
127 -128 -9 0
-127 128 0
-127 9 0
129 -130 -9 0
-129 130 0
-129 9 0
131 -132 -9 0
-131 132 0
-131 9 0
133 -134 -9 0
-133 134 0
-133 9 0
135 -136 -9 0
-135 136 0
-135 9 0
137 -138 -9 0
-137 138 0
-137 9 0
139 -140 -9 0
-139 140 0
-139 9 0
141 -142 -9 0
-141 142 0
-141 9 0
143 -144 -9 0
-143 144 0
-143 9 0
145 -146 -9 0
-145 146 0
-145 9 0
147 -148 -9 0
-147 148 0
-147 9 0
149 -150 -9 0
-149 150 0
-149 9 0
151 -152 -153 -154 -155 0
-151 152 0
-151 153 0
-151 154 0
-151 155 0
156 -157 -9 0
-156 157 0
-156 9 0
158 -159 -9 0
-158 159 0
-158 9 0
160 -161 -9 0
-160 161 0
-160 9 0
162 -163 -9 0
-162 163 0
-162 9 0
164 -165 -9 0
-164 165 0
-164 9 0
166 -167 -9 0
-166 167 0
-166 9 0
168 -169 -9 0
-168 169 0
-168 9 0
170 -171 -9 0
-170 171 0
-170 9 0
172 -173 -9 0
-172 173 0
-172 9 0
174 -175 -176 -177 -178 0
-174 175 0
-174 176 0
-174 177 0
-174 178 0
179 -180 -181 0
-179 180 0
-179 181 0
-182 -180 -183 0
182 180 0
182 183 0
-184 -185 186 0
184 185 0
184 -186 0
187 -188 9 0
-187 188 0
-187 -9 0
189 -190 9 0
-189 190 0
-189 -9 0
191 -192 9 0
-191 192 0
-191 -9 0
193 -194 9 0
-193 194 0
-193 -9 0
195 -196 9 0
-195 196 0
-195 -9 0
197 -198 9 0
-197 198 0
-197 -9 0
199 -200 9 0
-199 200 0
-199 -9 0
201 -202 9 0
-201 202 0
-201 -9 0
203 -204 9 0
-203 204 0
-203 -9 0
205 -206 9 0
-205 206 0
-205 -9 0
207 -208 9 0
-207 208 0
-207 -9 0
209 -210 9 0
-209 210 0
-209 -9 0
211 -212 9 0
-211 212 0
-211 -9 0
213 -214 9 0
-213 214 0
-213 -9 0
215 -216 9 0
-215 216 0
-215 -9 0
217 -218 9 0
-217 218 0
-217 -9 0
219 -220 9 0
-219 220 0
-219 -9 0
221 -222 9 0
-221 222 0
-221 -9 0
223 -224 9 0
-223 224 0
-223 -9 0
225 -226 9 0
-225 226 0
-225 -9 0
227 -228 9 0
-227 228 0
-227 -9 0
229 -230 9 0
-229 230 0
-229 -9 0
231 -232 9 0
-231 232 0
-231 -9 0
233 -234 9 0
-233 234 0
-233 -9 0
235 -236 9 0
-235 236 0
-235 -9 0
237 -238 9 0
-237 238 0
-237 -9 0
239 -240 9 0
-239 240 0
-239 -9 0
241 -242 9 0
-241 242 0
-241 -9 0
243 -244 9 0
-243 244 0
-243 -9 0
245 -246 9 0
-245 246 0
-245 -9 0
247 -248 9 0
-247 248 0
-247 -9 0
249 -250 9 0
-249 250 0
-249 -9 0
251 -252 9 0
-251 252 0
-251 -9 0
253 -254 9 0
-253 254 0
-253 -9 0
255 -256 9 0
-255 256 0
-255 -9 0
257 -258 9 0
-257 258 0
-257 -9 0
259 -260 9 0
-259 260 0
-259 -9 0
261 -262 9 0
-261 262 0
-261 -9 0
263 -264 9 0
-263 264 0
-263 -9 0
265 -266 9 0
-265 266 0
-265 -9 0
267 -268 9 0
-267 268 0
-267 -9 0
269 -270 9 0
-269 270 0
-269 -9 0
271 -272 9 0
-271 272 0
-271 -9 0
273 -274 9 0
-273 274 0
-273 -9 0
275 -276 9 0
-275 276 0
-275 -9 0
277 -278 9 0
-277 278 0
-277 -9 0
279 -280 9 0
-279 280 0
-279 -9 0
281 -282 9 0
-281 282 0
-281 -9 0
283 -284 9 0
-283 284 0
-283 -9 0
285 -286 9 0
-285 286 0
-285 -9 0
287 -288 9 0
-287 288 0
-287 -9 0
289 -290 9 0
-289 290 0
-289 -9 0
291 -292 9 0
-291 292 0
-291 -9 0
293 -294 9 0
-293 294 0
-293 -9 0
295 -296 9 0
-295 296 0
-295 -9 0
297 -298 9 0
-297 298 0
-297 -9 0
299 -300 9 0
-299 300 0
-299 -9 0
301 -302 9 0
-301 302 0
-301 -9 0
303 -304 9 0
-303 304 0
-303 -9 0
305 -306 9 0
-305 306 0
-305 -9 0
307 -308 9 0
-307 308 0
-307 -9 0
309 -310 9 0
-309 310 0
-309 -9 0
311 -312 9 0
-311 312 0
-311 -9 0
-313 314 186 0
313 -314 0
313 -186 0
315 316 -9 0
-315 -316 0
-315 9 0
317 -4 186 0
-317 4 0
-317 -186 0
-318 -9 10 0
318 9 0
318 -10 0
-319 -9 12 0
319 9 0
319 -12 0
-320 -9 14 0
320 9 0
320 -14 0
-321 -9 16 0
321 9 0
321 -16 0
-322 -9 18 0
322 9 0
322 -18 0
-323 -9 31 0
323 9 0
323 -31 0
-324 -9 33 0
324 9 0
324 -33 0
-325 -9 35 0
325 9 0
325 -35 0
-326 -9 37 0
326 9 0
326 -37 0
-327 -9 39 0
327 9 0
327 -39 0
-328 -9 41 0
328 9 0
328 -41 0
-329 -9 43 0
329 9 0
329 -43 0
-330 -9 47 0
330 9 0
330 -47 0
-331 -9 49 0
331 9 0
331 -49 0
-332 -9 51 0
332 9 0
332 -51 0
-333 -9 53 0
333 9 0
333 -53 0
-334 -9 55 0
334 9 0
334 -55 0
335 -65 -92 0
-335 65 0
-335 92 0
-336 -9 115 0
336 9 0
336 -115 0
-337 -9 117 0
337 9 0
337 -117 0
-338 -9 119 0
338 9 0
338 -119 0
-339 -9 121 0
339 9 0
339 -121 0
-340 -9 123 0
340 9 0
340 -123 0
-341 -9 125 0
341 9 0
341 -125 0
-342 -9 127 0
342 9 0
342 -127 0
343 -174 -151 0
-343 174 0
-343 151 0
344 -180 250 0
-344 180 0
-344 -250 0
345 346 -9 0
-345 -346 0
-345 9 0
347 348 -9 0
-347 -348 0
-347 9 0
349 350 -9 0
-349 -350 0
-349 9 0
351 352 -9 0
-351 -352 0
-351 9 0
353 354 -9 0
-353 -354 0
-353 9 0
355 181 -9 0
-355 -181 0
-355 9 0
356 183 -9 0
-356 -183 0
-356 9 0
-357 -180 252 0
357 180 0
357 -252 0
358 359 -9 0
-358 -359 0
-358 9 0
360 361 -9 0
-360 -361 0
-360 9 0
362 363 -9 0
-362 -363 0
-362 9 0
364 365 -9 0
-364 -365 0
-364 9 0
366 367 -9 0
-366 -367 0
-366 9 0
368 369 -9 0
-368 -369 0
-368 9 0
370 371 -9 0
-370 -371 0
-370 9 0
372 373 -9 0
-372 -373 0
-372 9 0
374 375 -9 0
-374 -375 0
-374 9 0
376 377 -9 0
-376 -377 0
-376 9 0
378 379 -9 0
-378 -379 0
-378 9 0
380 381 9 0
-380 -381 0
-380 -9 0
382 381 -9 0
-382 -381 0
-382 9 0
383 384 -9 0
-383 -384 0
-383 9 0
385 386 -9 0
-385 -386 0
-385 9 0
387 388 -9 0
-387 -388 0
-387 9 0
389 390 -9 0
-389 -390 0
-389 9 0
391 392 -9 0
-391 -392 0
-391 9 0
393 394 -9 0
-393 -394 0
-393 9 0
395 396 -9 0
-395 -396 0
-395 9 0
397 398 -9 0
-397 -398 0
-397 9 0
399 400 -9 0
-399 -400 0
-399 9 0
401 402 -9 0
-401 -402 0
-401 9 0
403 404 -9 0
-403 -404 0
-403 9 0
405 406 -9 0
-405 -406 0
-405 9 0
407 408 -9 0
-407 -408 0
-407 9 0
409 410 -9 0
-409 -410 0
-409 9 0
411 412 -9 0
-411 -412 0
-411 9 0
413 414 -9 0
-413 -414 0
-413 9 0
415 416 -9 0
-415 -416 0
-415 9 0
417 418 -9 0
-417 -418 0
-417 9 0
-419 -420 -179 0
419 420 0
419 179 0
421 -182 -420 0
-421 182 0
-421 420 0
-422 -182 420 0
422 182 0
422 -420 0
-423 113 187 0
423 -113 0
423 -187 0
-424 172 187 0
424 -172 0
424 -187 0
-425 90 189 0
425 -90 0
425 -189 0
-426 149 189 0
426 -149 0
426 -189 0
-427 111 191 0
427 -111 0
427 -191 0
-428 170 191 0
428 -170 0
428 -191 0
-429 109 193 0
429 -109 0
429 -193 0
-430 168 193 0
430 -168 0
430 -193 0
-431 107 195 0
431 -107 0
431 -195 0
-432 166 195 0
432 -166 0
432 -195 0
-433 80 197 0
433 -80 0
433 -197 0
-434 139 197 0
434 -139 0
434 -197 0
-435 78 199 0
435 -78 0
435 -199 0
-436 137 199 0
436 -137 0
436 -199 0
-437 76 201 0
437 -76 0
437 -201 0
-438 135 201 0
438 -135 0
438 -201 0
-439 74 203 0
439 -74 0
439 -203 0
-440 133 203 0
440 -133 0
440 -203 0
-441 72 205 0
441 -72 0
441 -205 0
-442 131 205 0
442 -131 0
442 -205 0
-443 207 26 0
443 -207 0
443 -26 0
-444 207 63 0
444 -207 0
444 -63 0
-445 209 45 0
445 -209 0
445 -45 0
-446 209 7 0
446 -209 0
446 -7 0
-447 211 61 0
447 -211 0
447 -61 0
-448 211 24 0
448 -211 0
448 -24 0
-449 213 59 0
449 -213 0
449 -59 0
-450 213 22 0
450 -213 0
450 -22 0
-451 215 57 0
451 -215 0
451 -57 0
-452 215 20 0
452 -215 0
452 -20 0
-453 105 217 0
453 -105 0
453 -217 0
-454 164 217 0
454 -164 0
454 -217 0
-455 103 219 0
455 -103 0
455 -219 0
-456 162 219 0
456 -162 0
456 -219 0
-457 101 221 0
457 -101 0
457 -221 0
-458 160 221 0
458 -160 0
458 -221 0
-459 99 223 0
459 -99 0
459 -223 0
-460 158 223 0
460 -158 0
460 -223 0
-461 97 225 0
461 -97 0
461 -225 0
-462 156 225 0
462 -156 0
462 -225 0
-463 147 227 0
463 -147 0
463 -227 0
-464 88 227 0
464 -88 0
464 -227 0
-465 70 229 0
465 -70 0
465 -229 0
-466 129 229 0
466 -129 0
466 -229 0
-467 86 231 0
467 -86 0
467 -231 0
-468 145 231 0
468 -145 0
468 -231 0
-469 84 233 0
469 -84 0
469 -233 0
-470 143 233 0
470 -143 0
470 -233 0
-471 82 235 0
471 -82 0
471 -235 0
-472 141 235 0
472 -141 0
472 -235 0
-473 253 9 0
473 -253 0
473 -9 0
-474 243 315 0
474 -243 0
474 -315 0
475 -318 -1 0
-475 318 0
-475 1 0
476 -319 -1 0
-476 319 0
-476 1 0
477 -320 -1 0
-477 320 0
-477 1 0
478 -321 -1 0
-478 321 0
-478 1 0
479 -322 -1 0
-479 322 0
-479 1 0
480 -323 -1 0
-480 323 0
-480 1 0
481 -324 -1 0
-481 324 0
-481 1 0
482 -325 -1 0
-482 325 0
-482 1 0
483 -326 -1 0
-483 326 0
-483 1 0
484 -327 -1 0
-484 327 0
-484 1 0
485 -328 -1 0
-485 328 0
-485 1 0
486 -329 -1 0
-486 329 0
-486 1 0
487 -330 -1 0
-487 330 0
-487 1 0
488 -331 -1 0
-488 331 0
-488 1 0
489 -332 -1 0
-489 332 0
-489 1 0
490 -333 -1 0
-490 333 0
-490 1 0
491 -334 -1 0
-491 334 0
-491 1 0
492 -336 -1 0
-492 336 0
-492 1 0
493 -337 -1 0
-493 337 0
-493 1 0
494 -338 -1 0
-494 338 0
-494 1 0
495 -339 -1 0
-495 339 0
-495 1 0
496 -340 -1 0
-496 340 0
-496 1 0
497 -341 -1 0
-497 341 0
-497 1 0
498 -342 -1 0
-498 342 0
-498 1 0
-499 -420 -344 0
499 420 0
499 344 0
-500 237 345 0
500 -237 0
500 -345 0
-501 239 347 0
501 -239 0
501 -347 0
-502 241 349 0
502 -241 0
502 -349 0
-503 245 351 0
503 -245 0
503 -351 0
-504 247 353 0
504 -247 0
504 -353 0
-505 249 355 0
505 -249 0
505 -355 0
-506 251 356 0
506 -251 0
506 -356 0
507 -357 -420 0
-507 357 0
-507 420 0
-508 -357 420 0
508 357 0
508 -420 0
-509 293 358 0
509 -293 0
509 -358 0
-510 295 360 0
510 -295 0
510 -360 0
-511 297 362 0
511 -297 0
511 -362 0
-512 299 364 0
512 -299 0
512 -364 0
-513 301 366 0
513 -301 0
513 -366 0
-514 303 368 0
514 -303 0
514 -368 0
-515 305 370 0
515 -305 0
515 -370 0
-516 307 372 0
516 -307 0
516 -372 0
-517 309 374 0
517 -309 0
517 -374 0
-518 311 376 0
518 -311 0
518 -376 0
-519 378 275 0
519 -378 0
519 -275 0
-520 380 9 0
520 -380 0
520 -9 0
-521 382 253 0
521 -382 0
521 -253 0
-522 383 277 0
522 -383 0
522 -277 0
-523 385 279 0
523 -385 0
523 -279 0
-524 387 281 0
524 -387 0
524 -281 0
-525 389 283 0
525 -389 0
525 -283 0
-526 391 285 0
526 -391 0
526 -285 0
-527 393 287 0
527 -393 0
527 -287 0
-528 395 289 0
528 -395 0
528 -289 0
-529 397 291 0
529 -397 0
529 -291 0
-530 399 255 0
530 -399 0
530 -255 0
-531 401 257 0
531 -401 0
531 -257 0
-532 403 259 0
532 -403 0
532 -259 0
-533 405 261 0
533 -405 0
533 -261 0
-534 407 263 0
534 -407 0
534 -263 0
-535 409 265 0
535 -409 0
535 -265 0
-536 411 267 0
536 -411 0
536 -267 0
-537 413 269 0
537 -413 0
537 -269 0
-538 415 271 0
538 -415 0
538 -271 0
-539 417 273 0
539 -417 0
539 -273 0
540 179 -420 0
-540 -179 0
-540 420 0
-541 179 420 0
541 -179 0
541 -420 0
542 -179 420 0
-542 179 0
-542 -420 0
-543 -420 182 0
543 420 0
543 -182 0
544 9 -425 0
-544 -9 0
-544 425 0
545 -426 9 0
-545 426 0
-545 -9 0
546 384 -428 0
-546 -384 0
-546 428 0
-547 -428 -384 0
547 428 0
547 384 0
548 386 -430 0
-548 -386 0
-548 430 0
-549 -430 -386 0
549 430 0
549 386 0
550 388 -432 0
-550 -388 0
-550 432 0
-551 -432 -388 0
551 432 0
551 388 0
552 410 -434 0
-552 -410 0
-552 434 0
-553 -434 -410 0
553 434 0
553 410 0
554 -436 412 0
-554 436 0
-554 -412 0
-555 -436 -412 0
555 436 0
555 412 0
556 436 -412 0
-556 -436 0
-556 412 0
557 414 -438 0
-557 -414 0
-557 438 0
-558 -438 -414 0
558 438 0
558 414 0
559 416 -440 0
-559 -416 0
-559 440 0
-560 -440 -416 0
560 440 0
560 416 0
561 418 -442 0
-561 -418 0
-561 442 0
-562 -442 -418 0
562 442 0
562 418 0
563 361 -446 0
-563 -361 0
-563 446 0
-564 -446 -361 0
564 446 0
564 361 0
565 -361 446 0
-565 361 0
-565 -446 0
566 363 -448 0
-566 -363 0
-566 448 0
-567 -448 -363 0
567 448 0
567 363 0
568 365 -450 0
-568 -365 0
-568 450 0
-569 -450 -365 0
569 450 0
569 365 0
570 367 -452 0
-570 -367 0
-570 452 0
-571 -452 -367 0
571 452 0
571 367 0
572 390 -454 0
-572 -390 0
-572 454 0
-573 -454 -390 0
573 454 0
573 390 0
574 -456 392 0
-574 456 0
-574 -392 0
-575 -456 -392 0
575 456 0
575 392 0
576 456 -392 0
-576 -456 0
-576 392 0
577 394 -458 0
-577 -394 0
-577 458 0
-578 -458 -394 0
578 458 0
578 394 0
579 396 -460 0
-579 -396 0
-579 460 0
-580 -460 -396 0
580 460 0
580 396 0
581 398 -462 0
-581 -398 0
-581 462 0
-582 -462 -398 0
582 462 0
582 398 0
583 402 -466 0
-583 -402 0
-583 466 0
-584 -466 -402 0
584 466 0
584 402 0
585 -402 466 0
-585 402 0
-585 -466 0
586 404 -468 0
-586 -404 0
-586 468 0
-587 -468 -404 0
587 468 0
587 404 0
588 406 -470 0
-588 -406 0
-588 470 0
-589 -470 -406 0
589 470 0
589 406 0
590 408 -472 0
-590 -408 0
-590 472 0
-591 -472 -408 0
591 472 0
591 408 0
592 377 -475 0
-592 -377 0
-592 475 0
-593 -475 -377 0
593 475 0
593 377 0
594 375 -476 0
-594 -375 0
-594 476 0
-595 -476 -375 0
595 476 0
595 375 0
596 373 -477 0
-596 -373 0
-596 477 0
-597 -477 -373 0
597 477 0
597 373 0
598 371 -478 0
-598 -371 0
-598 478 0
-599 -478 -371 0
599 478 0
599 371 0
600 -371 478 0
-600 371 0
-600 -478 0
601 369 -479 0
-601 -369 0
-601 479 0
-602 -479 -369 0
602 479 0
602 369 0
-603 -1 -486 0
603 1 0
603 486 0
604 348 -492 0
-604 -348 0
-604 492 0
-605 -492 -348 0
605 492 0
605 348 0
-606 -492 -1 0
606 492 0
606 1 0
607 -348 492 0
-607 348 0
-607 -492 0
608 354 -495 0
-608 -354 0
-608 495 0
-609 -495 -354 0
609 495 0
609 354 0
610 352 -496 0
-610 -352 0
-610 496 0
-611 -496 -352 0
611 496 0
611 352 0
612 316 -497 0
-612 -316 0
-612 497 0
-613 -497 -316 0
613 497 0
613 316 0
614 350 -498 0
-614 -350 0
-614 498 0
-615 -498 -350 0
615 498 0
615 350 0
616 344 -420 0
-616 -344 0
-616 420 0
-617 344 420 0
617 -344 0
617 -420 0
-618 -501 1 0
618 501 0
618 -1 0
619 -502 -485 0
-619 502 0
-619 485 0
620 -503 -483 0
-620 503 0
-620 483 0
621 -504 -482 0
-621 504 0
-621 482 0
-622 -420 357 0
622 420 0
622 -357 0
623 -511 -447 0
-623 511 0
-623 447 0
624 -513 -451 0
-624 513 0
-624 451 0
625 -514 -491 0
-625 514 0
-625 491 0
626 -515 -490 0
-626 515 0
-626 490 0
627 -517 -488 0
-627 517 0
-627 488 0
628 -518 -487 0
-628 518 0
-628 487 0
629 -522 -427 0
-629 522 0
-629 427 0
630 -524 -431 0
-630 524 0
-630 431 0
631 -525 -453 0
-631 525 0
-631 453 0
632 -526 -455 0
-632 526 0
-632 455 0
633 -528 -459 0
-633 528 0
-633 459 0
634 -529 -461 0
-634 529 0
-634 461 0
635 -532 -467 0
-635 532 0
-635 467 0
636 -534 -471 0
-636 534 0
-636 471 0
637 -535 -433 0
-637 535 0
-637 433 0
638 -536 -435 0
-638 536 0
-638 435 0
639 -538 -439 0
-639 538 0
-639 439 0
640 -539 -441 0
-640 539 0
-640 441 0
-641 -419 -541 0
641 419 0
641 541 0
-642 -543 -422 0
642 543 0
642 422 0
-643 -425 423 0
643 425 0
643 -423 0
-644 -426 424 0
644 426 0
644 -424 0
-645 -423 425 0
645 423 0
645 -425 0
646 -520 -545 0
-646 520 0
-646 545 0
647 520 545 0
-647 -520 0
-647 -545 0
-648 -424 426 0
648 424 0
648 -426 0
-649 -429 427 0
649 429 0
649 -427 0
-650 -522 427 0
650 522 0
650 -427 0
-651 384 428 0
651 -384 0
651 -428 0
-652 -430 428 0
652 430 0
652 -428 0
-653 -427 429 0
653 427 0
653 -429 0
-654 -523 429 0
654 523 0
654 -429 0
-655 386 430 0
655 -386 0
655 -430 0
-656 -428 430 0
656 428 0
656 -430 0
-657 -453 431 0
657 453 0
657 -431 0
-658 -524 431 0
658 524 0
658 -431 0
-659 388 432 0
659 -388 0
659 -432 0
-660 -454 432 0
660 454 0
660 -432 0
-661 -535 433 0
661 535 0
661 -433 0
-662 -471 433 0
662 471 0
662 -433 0
-663 410 434 0
663 -410 0
663 -434 0
-664 -472 434 0
664 472 0
664 -434 0
-665 -437 435 0
665 437 0
665 -435 0
-666 -536 435 0
666 536 0
666 -435 0
-667 412 436 0
667 -412 0
667 -436 0
-668 -438 436 0
668 438 0
668 -436 0
-669 -435 437 0
669 435 0
669 -437 0
-670 -537 437 0
670 537 0
670 -437 0
-671 414 438 0
671 -414 0
671 -438 0
-672 -436 438 0
672 436 0
672 -438 0
-673 -441 439 0
673 441 0
673 -439 0
-674 -538 439 0
674 538 0
674 -439 0
-675 416 440 0
675 -416 0
675 -440 0
-676 -442 440 0
676 442 0
676 -440 0
-677 -439 441 0
677 439 0
677 -441 0
-678 -539 441 0
678 539 0
678 -441 0
-679 418 442 0
679 -418 0
679 -442 0
-680 -440 442 0
680 440 0
680 -442 0
-681 -446 443 0
681 446 0
681 -443 0
-682 -445 444 0
682 445 0
682 -444 0
-683 -510 445 0
683 510 0
683 -445 0
-684 -444 445 0
684 444 0
684 -445 0
-685 -443 446 0
685 443 0
685 -446 0
-686 361 446 0
686 -361 0
686 -446 0
-687 -511 447 0
687 511 0
687 -447 0
-688 -449 447 0
688 449 0
688 -447 0
-689 -450 448 0
689 450 0
689 -448 0
-690 363 448 0
690 -363 0
690 -448 0
-691 -512 449 0
691 512 0
691 -449 0
-692 -447 449 0
692 447 0
692 -449 0
-693 -448 450 0
693 448 0
693 -450 0
-694 365 450 0
694 -365 0
694 -450 0
-695 -513 451 0
695 513 0
695 -451 0
-696 -491 451 0
696 491 0
696 -451 0
-697 -479 452 0
697 479 0
697 -452 0
-698 367 452 0
698 -367 0
698 -452 0
-699 -431 453 0
699 431 0
699 -453 0
-700 -525 453 0
700 525 0
700 -453 0
-701 390 454 0
701 -390 0
701 -454 0
-702 -432 454 0
702 432 0
702 -454 0
-703 -526 455 0
703 526 0
703 -455 0
-704 -457 455 0
704 457 0
704 -455 0
-705 392 456 0
705 -392 0
705 -456 0
-706 -458 456 0
706 458 0
706 -456 0
-707 -527 457 0
707 527 0
707 -457 0
-708 -455 457 0
708 455 0
708 -457 0
-709 394 458 0
709 -394 0
709 -458 0
-710 -456 458 0
710 456 0
710 -458 0
-711 -528 459 0
711 528 0
711 -459 0
-712 -461 459 0
712 461 0
712 -459 0
-713 396 460 0
713 -396 0
713 -460 0
-714 -462 460 0
714 462 0
714 -460 0
-715 -529 461 0
715 529 0
715 -461 0
-716 -459 461 0
716 459 0
716 -461 0
-717 398 462 0
717 -398 0
717 -462 0
-718 -460 462 0
718 460 0
718 -462 0
-719 -466 463 0
719 466 0
719 -463 0
-720 -465 464 0
720 465 0
720 -464 0
-721 -531 465 0
721 531 0
721 -465 0
-722 -464 465 0
722 464 0
722 -465 0
-723 402 466 0
723 -402 0
723 -466 0
-724 -463 466 0
724 463 0
724 -466 0
-725 -532 467 0
725 532 0
725 -467 0
-726 -469 467 0
726 469 0
726 -467 0
-727 404 468 0
727 -404 0
727 -468 0
-728 -470 468 0
728 470 0
728 -468 0
-729 -533 469 0
729 533 0
729 -469 0
-730 -467 469 0
730 467 0
730 -469 0
-731 406 470 0
731 -406 0
731 -470 0
-732 -468 470 0
732 468 0
732 -470 0
-733 -534 471 0
733 534 0
733 -471 0
-734 -433 471 0
734 433 0
734 -471 0
-735 408 472 0
735 -408 0
735 -472 0
-736 -434 472 0
736 434 0
736 -472 0
-737 -544 473 0
737 544 0
737 -473 0
-738 -484 474 0
738 484 0
738 -474 0
-739 -502 474 0
739 502 0
739 -474 0
-740 377 475 0
740 -377 0
740 -475 0
-741 -476 475 0
741 476 0
741 -475 0
-742 375 476 0
742 -375 0
742 -476 0
-743 -475 476 0
743 475 0
743 -476 0
-744 373 477 0
744 -373 0
744 -477 0
-745 -478 477 0
745 478 0
745 -477 0
-746 371 478 0
746 -371 0
746 -478 0
-747 -477 478 0
747 477 0
747 -478 0
-748 -452 479 0
748 452 0
748 -479 0
-749 369 479 0
749 -369 0
749 -479 0
-750 -481 480 0
750 481 0
750 -480 0
-751 -480 481 0
751 480 0
751 -481 0
-752 -483 482 0
752 483 0
752 -482 0
-753 -504 482 0
753 504 0
753 -482 0
-754 -482 483 0
754 482 0
754 -483 0
-755 -503 483 0
755 503 0
755 -483 0
-756 -485 484 0
756 485 0
756 -484 0
-757 -474 484 0
757 474 0
757 -484 0
-758 -484 485 0
758 484 0
758 -485 0
-759 -502 485 0
759 502 0
759 -485 0
-760 486 1 0
760 -486 0
760 -1 0
-761 -518 487 0
761 518 0
761 -487 0
-762 -488 487 0
762 488 0
762 -487 0
-763 -517 488 0
763 517 0
763 -488 0
-764 -487 488 0
764 487 0
764 -488 0
-765 -516 489 0
765 516 0
765 -489 0
-766 -490 489 0
766 490 0
766 -489 0
-767 -515 490 0
767 515 0
767 -490 0
-768 -489 490 0
768 489 0
768 -490 0
-769 -514 491 0
769 514 0
769 -491 0
-770 -451 491 0
770 451 0
770 -491 0
-771 348 492 0
771 -348 0
771 -492 0
-772 1 492 0
772 -1 0
772 -492 0
-773 -494 493 0
773 494 0
773 -493 0
-774 -493 494 0
774 493 0
774 -494 0
-775 354 495 0
775 -354 0
775 -495 0
-776 -496 495 0
776 496 0
776 -495 0
-777 352 496 0
777 -352 0
777 -496 0
-778 -495 496 0
778 495 0
778 -496 0
-779 316 497 0
779 -316 0
779 -497 0
-780 -498 497 0
780 498 0
780 -497 0
-781 350 498 0
781 -350 0
781 -498 0
-782 -497 498 0
782 497 0
782 -498 0
-783 -499 -617 0
783 499 0
783 617 0
-784 -501 500 0
784 501 0
784 -500 0
-785 -1 501 0
785 1 0
785 -501 0
-786 -500 501 0
786 500 0
786 -501 0
-787 -485 502 0
787 485 0
787 -502 0
-788 -474 502 0
788 474 0
788 -502 0
-789 -483 503 0
789 483 0
789 -503 0
-790 -504 503 0
790 504 0
790 -503 0
-791 -482 504 0
791 482 0
791 -504 0
-792 -503 504 0
792 503 0
792 -504 0
-793 -506 505 0
793 506 0
793 -505 0
-794 -505 506 0
794 505 0
794 -506 0
-795 -622 -508 0
795 622 0
795 508 0
-796 -510 509 0
796 510 0
796 -509 0
-797 -445 510 0
797 445 0
797 -510 0
-798 -509 510 0
798 509 0
798 -510 0
-799 -447 511 0
799 447 0
799 -511 0
-800 -512 511 0
800 512 0
800 -511 0
-801 -449 512 0
801 449 0
801 -512 0
-802 -511 512 0
802 511 0
802 -512 0
-803 -451 513 0
803 451 0
803 -513 0
-804 -514 513 0
804 514 0
804 -513 0
-805 -491 514 0
805 491 0
805 -514 0
-806 -513 514 0
806 513 0
806 -514 0
-807 -490 515 0
807 490 0
807 -515 0
-808 -516 515 0
808 516 0
808 -515 0
-809 -489 516 0
809 489 0
809 -516 0
-810 -515 516 0
810 515 0
810 -516 0
-811 -488 517 0
811 488 0
811 -517 0
-812 -518 517 0
812 518 0
812 -517 0
-813 -487 518 0
813 487 0
813 -518 0
-814 -517 518 0
814 517 0
814 -518 0
-815 -521 519 0
815 521 0
815 -519 0
-816 -545 520 0
816 545 0
816 -520 0
-817 -519 521 0
817 519 0
817 -521 0
-818 -427 522 0
818 427 0
818 -522 0
-819 -523 522 0
819 523 0
819 -522 0
-820 -429 523 0
820 429 0
820 -523 0
-821 -522 523 0
821 522 0
821 -523 0
-822 -431 524 0
822 431 0
822 -524 0
-823 -525 524 0
823 525 0
823 -524 0
-824 -453 525 0
824 453 0
824 -525 0
-825 -524 525 0
825 524 0
825 -525 0
-826 -455 526 0
826 455 0
826 -526 0
-827 -527 526 0
827 527 0
827 -526 0
-828 -457 527 0
828 457 0
828 -527 0
-829 -526 527 0
829 526 0
829 -527 0
-830 -459 528 0
830 459 0
830 -528 0
-831 -529 528 0
831 529 0
831 -528 0
-832 -461 529 0
832 461 0
832 -529 0
-833 -528 529 0
833 528 0
833 -529 0
-834 -531 530 0
834 531 0
834 -530 0
-835 -465 531 0
835 465 0
835 -531 0
-836 -530 531 0
836 530 0
836 -531 0
-837 -467 532 0
837 467 0
837 -532 0
-838 -533 532 0
838 533 0
838 -532 0
-839 -469 533 0
839 469 0
839 -533 0
-840 -532 533 0
840 532 0
840 -533 0
-841 -471 534 0
841 471 0
841 -534 0
-842 -535 534 0
842 535 0
842 -534 0
-843 -433 535 0
843 433 0
843 -535 0
-844 -534 535 0
844 534 0
844 -535 0
-845 -435 536 0
845 435 0
845 -536 0
-846 -537 536 0
846 537 0
846 -536 0
-847 -437 537 0
847 437 0
847 -537 0
-848 -536 537 0
848 536 0
848 -537 0
-849 -439 538 0
849 439 0
849 -538 0
-850 -539 538 0
850 539 0
850 -538 0
-851 -441 539 0
851 441 0
851 -539 0
-852 -538 539 0
852 538 0
852 -539 0
853 -642 -540 0
-853 642 0
-853 540 0
854 -641 -642 0
-854 641 0
-854 642 0
-855 -642 542 0
855 642 0
855 -542 0
-856 -642 540 0
856 642 0
856 -540 0
-857 -473 544 0
857 473 0
857 -544 0
-858 -645 -643 0
858 645 0
858 643 0
-859 -520 545 0
859 520 0
859 -545 0
-860 -648 -644 0
860 648 0
860 644 0
-861 -547 -651 0
861 547 0
861 651 0
-862 -653 -649 0
862 653 0
862 649 0
-863 -549 -655 0
863 549 0
863 655 0
-864 -656 -652 0
864 656 0
864 652 0
-865 -551 -659 0
865 551 0
865 659 0
-866 -553 -663 0
866 553 0
866 663 0
-867 -555 -667 0
867 555 0
867 667 0
-868 -669 -665 0
868 669 0
868 665 0
-869 -558 -671 0
869 558 0
869 671 0
-870 -672 -668 0
870 672 0
870 668 0
-871 -560 -675 0
871 560 0
871 675 0
-872 -677 -673 0
872 677 0
872 673 0
-873 -562 -679 0
873 562 0
873 679 0
-874 -680 -676 0
874 680 0
874 676 0
-875 -684 -682 0
875 684 0
875 682 0
-876 -685 -681 0
876 685 0
876 681 0
-877 -564 -686 0
877 564 0
877 686 0
-878 -567 -690 0
878 567 0
878 690 0
-879 -692 -688 0
879 692 0
879 688 0
-880 -693 -689 0
880 693 0
880 689 0
-881 -569 -694 0
881 569 0
881 694 0
-882 -571 -698 0
882 571 0
882 698 0
-883 -699 -657 0
883 699 0
883 657 0
-884 -573 -701 0
884 573 0
884 701 0
-885 -702 -660 0
885 702 0
885 660 0
-886 -575 -705 0
886 575 0
886 705 0
-887 -708 -704 0
887 708 0
887 704 0
-888 -578 -709 0
888 578 0
888 709 0
-889 -710 -706 0
889 710 0
889 706 0
-890 -580 -713 0
890 580 0
890 713 0
-891 -716 -712 0
891 716 0
891 712 0
-892 -582 -717 0
892 582 0
892 717 0
-893 -718 -714 0
893 718 0
893 714 0
-894 -722 -720 0
894 722 0
894 720 0
-895 -584 -723 0
895 584 0
895 723 0
-896 -724 -719 0
896 724 0
896 719 0
-897 -587 -727 0
897 587 0
897 727 0
-898 -730 -726 0
898 730 0
898 726 0
-899 -589 -731 0
899 589 0
899 731 0
-900 -732 -728 0
900 732 0
900 728 0
-901 -662 -734 0
901 662 0
901 734 0
-902 -591 -735 0
902 591 0
902 735 0
-903 -664 -736 0
903 664 0
903 736 0
-904 -593 -740 0
904 593 0
904 740 0
-905 -595 -742 0
905 595 0
905 742 0
-906 -741 -743 0
906 741 0
906 743 0
-907 -597 -744 0
907 597 0
907 744 0
-908 -599 -746 0
908 599 0
908 746 0
-909 -745 -747 0
909 745 0
909 747 0
-910 -748 -697 0
910 748 0
910 697 0
-911 -602 -749 0
911 602 0
911 749 0
-912 -750 -751 0
912 750 0
912 751 0
-913 -752 -754 0
913 752 0
913 754 0
-914 -738 -757 0
914 738 0
914 757 0
-915 -756 -758 0
915 756 0
915 758 0
-916 -760 -603 0
916 760 0
916 603 0
-917 -762 -764 0
917 762 0
917 764 0
-918 -766 -768 0
918 766 0
918 768 0
-919 -770 -696 0
919 770 0
919 696 0
-920 -605 -771 0
920 605 0
920 771 0
-921 -772 -606 0
921 772 0
921 606 0
-922 -773 -774 0
922 773 0
922 774 0
-923 -609 -775 0
923 609 0
923 775 0
-924 -611 -777 0
924 611 0
924 777 0
-925 -776 -778 0
925 776 0
925 778 0
-926 -613 -779 0
926 613 0
926 779 0
-927 -615 -781 0
927 615 0
927 781 0
-928 -780 -782 0
928 780 0
928 782 0
-929 -785 -618 0
929 785 0
929 618 0
-930 -786 -784 0
930 786 0
930 784 0
-931 -787 -759 0
931 787 0
931 759 0
-932 -739 -788 0
932 739 0
932 788 0
-933 -789 -755 0
933 789 0
933 755 0
-934 -791 -753 0
934 791 0
934 753 0
-935 -792 -790 0
935 792 0
935 790 0
-936 -794 -793 0
936 794 0
936 793 0
937 -783 -795 0
-937 783 0
-937 795 0
938 -795 -616 0
-938 795 0
-938 616 0
-939 -797 -683 0
939 797 0
939 683 0
-940 -798 -796 0
940 798 0
940 796 0
-941 -799 -687 0
941 799 0
941 687 0
-942 -801 -691 0
942 801 0
942 691 0
-943 -802 -800 0
943 802 0
943 800 0
-944 -803 -695 0
944 803 0
944 695 0
-945 -805 -769 0
945 805 0
945 769 0
-946 -806 -804 0
946 806 0
946 804 0
-947 -807 -767 0
947 807 0
947 767 0
-948 -809 -765 0
948 809 0
948 765 0
-949 -810 -808 0
949 810 0
949 808 0
-950 -811 -763 0
950 811 0
950 763 0
-951 -813 -761 0
951 813 0
951 761 0
-952 -814 -812 0
952 814 0
952 812 0
-953 -817 -815 0
953 817 0
953 815 0
-954 -818 -650 0
954 818 0
954 650 0
-955 -820 -654 0
955 820 0
955 654 0
-956 -821 -819 0
956 821 0
956 819 0
-957 -822 -658 0
957 822 0
957 658 0
-958 -824 -700 0
958 824 0
958 700 0
-959 -825 -823 0
959 825 0
959 823 0
-960 -826 -703 0
960 826 0
960 703 0
-961 -828 -707 0
961 828 0
961 707 0
-962 -829 -827 0
962 829 0
962 827 0
-963 -830 -711 0
963 830 0
963 711 0
-964 -832 -715 0
964 832 0
964 715 0
-965 -833 -831 0
965 833 0
965 831 0
-966 -835 -721 0
966 835 0
966 721 0
-967 -836 -834 0
967 836 0
967 834 0
-968 -837 -725 0
968 837 0
968 725 0
-969 -839 -729 0
969 839 0
969 729 0
-970 -840 -838 0
970 840 0
970 838 0
-971 -841 -733 0
971 841 0
971 733 0
-972 -843 -661 0
972 843 0
972 661 0
-973 -844 -842 0
973 844 0
973 842 0
-974 -845 -666 0
974 845 0
974 666 0
-975 -847 -670 0
975 847 0
975 670 0
-976 -848 -846 0
976 848 0
976 846 0
-977 -849 -674 0
977 849 0
977 674 0
-978 -851 -678 0
978 851 0
978 678 0
-979 -852 -850 0
979 852 0
979 850 0
980 421 853 0
-980 -421 0
-980 -853 0
-981 421 853 854 0
981 -421 0
981 -853 0
981 -854 0
-982 -542 642 0
982 542 0
982 -642 0
-983 -540 642 0
983 540 0
983 -642 0
-984 -737 -857 0
984 737 0
984 857 0
-985 -816 -859 0
985 816 0
985 859 0
986 -861 -646 0
-986 861 0
-986 646 0
987 -546 -863 0
-987 546 0
-987 863 0
988 -861 -863 -646 0
-988 861 0
-988 863 0
-988 646 0
989 -861 -863 0
-989 861 0
-989 863 0
990 -865 -548 0
-990 865 0
-990 548 0
991 -863 -546 -865 0
-991 863 0
-991 546 0
-991 865 0
992 -861 -863 -646 -865 0
-992 861 0
-992 863 0
-992 646 0
-992 865 0
993 -866 -590 0
-993 866 0
-993 590 0
994 -869 -554 0
-994 869 0
-994 554 0
995 -867 -869 0
-995 867 0
-995 869 0
-996 -869 556 0
996 869 0
996 -556 0
-997 -869 554 0
997 869 0
997 -554 0
998 -871 -557 0
-998 871 0
-998 557 0
999 -869 -554 -871 0
-999 869 0
-999 554 0
-999 871 0
1000 -867 -869 -871 0
-1000 867 0
-1000 869 0
-1000 871 0
1001 -873 -559 0
-1001 873 0
-1001 559 0
1002 -871 -873 -557 0
-1002 871 0
-1002 873 0
-1002 557 0
1003 -871 -867 -869 -873 0
-1003 871 0
-1003 867 0
-1003 869 0
-1003 873 0
1004 -869 -873 -554 -871 0
-1004 869 0
-1004 873 0
-1004 554 0
-1004 871 0
1005 -878 -563 0
-1005 878 0
-1005 563 0
1006 -877 -878 0
-1006 877 0
-1006 878 0
1007 -881 -566 0
-1007 881 0
-1007 566 0
1008 -878 -881 -563 0
-1008 878 0
-1008 881 0
-1008 563 0
1009 -877 -881 -878 0
-1009 877 0
-1009 881 0
-1009 878 0
1010 -878 -881 0
-1010 878 0
-1010 881 0
1011 -882 -568 0
-1011 882 0
-1011 568 0
1012 -881 -566 -882 0
-1012 881 0
-1012 566 0
-1012 882 0
1013 -878 -881 -563 -882 0
-1013 878 0
-1013 881 0
-1013 563 0
-1013 882 0
1014 -877 -881 -882 -878 0
-1014 877 0
-1014 881 0
-1014 882 0
-1014 878 0
1015 -882 -877 0
-1015 882 0
-1015 877 0
1016 -862 -858 -883 0
-1016 862 0
-1016 858 0
-1016 883 0
1017 -884 -550 0
-1017 884 0
-1017 550 0
1018 -865 -884 -548 0
-1018 865 0
-1018 884 0
-1018 548 0
1019 -863 -884 -546 -865 0
-1019 863 0
-1019 884 0
-1019 546 0
-1019 865 0
1020 -864 -860 -885 0
-1020 864 0
-1020 860 0
-1020 885 0
1021 -888 -574 0
-1021 888 0
-1021 574 0
1022 -886 -888 0
-1022 886 0
-1022 888 0
-1023 -888 576 0
1023 888 0
1023 -576 0
-1024 -888 574 0
1024 888 0
1024 -574 0
1025 -890 -577 0
-1025 890 0
-1025 577 0
1026 -888 -574 -890 0
-1026 888 0
-1026 574 0
-1026 890 0
1027 -886 -888 -890 0
-1027 886 0
-1027 888 0
-1027 890 0
1028 -892 -579 0
-1028 892 0
-1028 579 0
1029 -890 -892 -577 0
-1029 890 0
-1029 892 0
-1029 577 0
1030 -890 -886 -888 -892 0
-1030 890 0
-1030 886 0
-1030 888 0
-1030 892 0
1031 -888 -892 -574 -890 0
-1031 888 0
-1031 892 0
-1031 574 0
-1031 890 0
1032 -897 -583 0
-1032 897 0
-1032 583 0
1033 -895 -897 0
-1033 895 0
-1033 897 0
1034 -586 -899 0
-1034 586 0
-1034 899 0
1035 -897 -899 -583 0
-1035 897 0
-1035 899 0
-1035 583 0
1036 -895 -899 -897 0
-1036 895 0
-1036 899 0
-1036 897 0
1037 -897 -899 0
-1037 897 0
-1037 899 0
1038 -898 -894 -901 0
-1038 898 0
-1038 894 0
-1038 901 0
1039 -902 -588 0
-1039 902 0
-1039 588 0
1040 -902 -866 -588 0
-1040 902 0
-1040 866 0
-1040 588 0
1041 -899 -586 -902 0
-1041 899 0
-1041 586 0
-1041 902 0
1042 -899 -866 -586 -902 0
-1042 899 0
-1042 866 0
-1042 586 0
-1042 902 0
1043 -897 -899 -583 -902 0
-1043 897 0
-1043 899 0
-1043 583 0
-1043 902 0
1044 -895 -899 -902 -897 0
-1044 895 0
-1044 899 0
-1044 902 0
-1044 897 0
1045 -902 -895 0
-1045 902 0
-1045 895 0
1046 -900 -896 -903 0
-1046 900 0
-1046 896 0
-1046 903 0
1047 -904 -594 0
-1047 904 0
-1047 594 0
1048 -905 -596 0
-1048 905 0
-1048 596 0
1049 -905 -904 -596 0
-1049 905 0
-1049 904 0
-1049 596 0
1050 -907 -598 0
-1050 907 0
-1050 598 0
1051 -907 -598 -905 0
-1051 907 0
-1051 598 0
-1051 905 0
1052 -907 -904 -598 -905 0
-1052 907 0
-1052 904 0
-1052 598 0
-1052 905 0
-1053 -907 600 0
1053 907 0
1053 -600 0
-1054 -907 598 0
1054 907 0
1054 -598 0
1055 -908 -907 0
-1055 908 0
-1055 907 0
1056 -908 -907 -905 0
-1056 908 0
-1056 907 0
-1056 905 0
1057 -908 -907 -905 -904 0
-1057 908 0
-1057 907 0
-1057 905 0
-1057 904 0
1058 -880 -876 -910 0
-1058 880 0
-1058 876 0
-1058 910 0
1059 -911 -570 0
-1059 911 0
-1059 570 0
1060 -882 -911 -568 0
-1060 882 0
-1060 911 0
-1060 568 0
1061 -881 -911 -566 -882 0
-1061 881 0
-1061 911 0
-1061 566 0
-1061 882 0
1062 -915 -916 -913 0
-1062 915 0
-1062 916 0
-1062 913 0
1063 -879 -875 -919 0
-1063 879 0
-1063 875 0
-1063 919 0
1064 -923 -610 0
-1064 923 0
-1064 610 0
1065 -924 -612 0
-1065 924 0
-1065 612 0
1066 -924 -923 -612 0
-1066 924 0
-1066 923 0
-1066 612 0
1067 -924 -920 0
-1067 924 0
-1067 920 0
1068 -926 -614 0
-1068 926 0
-1068 614 0
1069 -926 -614 -924 0
-1069 926 0
-1069 614 0
-1069 924 0
1070 -926 -923 -614 -924 0
-1070 926 0
-1070 923 0
-1070 614 0
-1070 924 0
1071 -927 -604 0
-1071 927 0
-1071 604 0
1072 -920 -927 0
-1072 920 0
-1072 927 0
1073 -927 -926 -604 0
-1073 927 0
-1073 926 0
-1073 604 0
1074 -920 -926 -927 0
-1074 920 0
-1074 926 0
-1074 927 0
1075 -927 -926 -604 -924 0
-1075 927 0
-1075 926 0
-1075 604 0
-1075 924 0
1076 -920 -926 -924 -927 0
-1076 920 0
-1076 926 0
-1076 924 0
-1076 927 0
1077 -927 -926 0
-1077 927 0
-1077 926 0
1078 -928 -921 -925 0
-1078 928 0
-1078 921 0
-1078 925 0
1079 -931 -914 0
-1079 931 0
-1079 914 0
1080 -929 -931 0
-1080 929 0
-1080 931 0
1081 -934 -620 0
-1081 934 0
-1081 620 0
1082 -914 -934 -619 -933 0
-1082 914 0
-1082 934 0
-1082 619 0
-1082 933 0
1083 -933 -934 -474 -484 0
-1083 933 0
-1083 934 0
-1083 474 0
-1083 484 0
1084 -934 -501 0
-1084 934 0
-1084 501 0
1085 -932 -930 -935 0
-1085 932 0
-1085 930 0
-1085 935 0
-1086 507 938 0
1086 -507 0
1086 -938 0
1087 -941 -942 0
-1087 941 0
-1087 942 0
1088 -945 -624 0
-1088 945 0
-1088 624 0
1089 -942 -945 -623 -944 0
-1089 942 0
-1089 945 0
-1089 623 0
-1089 944 0
1090 -944 -945 -512 -449 0
-1090 944 0
-1090 945 0
-1090 512 0
-1090 449 0
1091 -945 -510 0
-1091 945 0
-1091 510 0
1092 -943 -940 -946 0
-1092 943 0
-1092 940 0
-1092 946 0
1093 -951 -627 0
-1093 951 0
-1093 627 0
1094 -947 -948 -950 -951 0
-1094 947 0
-1094 948 0
-1094 950 0
-1094 951 0
1095 -948 -951 -626 -950 0
-1095 948 0
-1095 951 0
-1095 626 0
-1095 950 0
1096 -950 -951 -516 -489 0
-1096 950 0
-1096 951 0
-1096 516 0
-1096 489 0
1097 -954 -955 0
-1097 954 0
-1097 955 0
1098 -958 -630 0
-1098 958 0
-1098 630 0
1099 -955 -958 -629 -957 0
-1099 955 0
-1099 958 0
-1099 629 0
-1099 957 0
1100 -957 -958 -523 -429 0
-1100 957 0
-1100 958 0
-1100 523 0
-1100 429 0
1101 -958 -473 0
-1101 958 0
-1101 473 0
1102 -956 -953 -959 0
-1102 956 0
-1102 953 0
-1102 959 0
1103 -964 -633 0
-1103 964 0
-1103 633 0
1104 -960 -961 -963 -964 0
-1104 960 0
-1104 961 0
-1104 963 0
-1104 964 0
1105 -961 -964 -632 -963 0
-1105 961 0
-1105 964 0
-1105 632 0
-1105 963 0
1106 -963 -964 -527 -457 0
-1106 963 0
-1106 964 0
-1106 527 0
-1106 457 0
1107 -966 -968 0
-1107 966 0
-1107 968 0
1108 -968 -969 0
-1108 968 0
-1108 969 0
1109 -972 -636 0
-1109 972 0
-1109 636 0
1110 -969 -972 -635 -971 0
-1110 969 0
-1110 972 0
-1110 635 0
-1110 971 0
1111 -971 -972 -533 -469 0
-1111 971 0
-1111 972 0
-1111 533 0
-1111 469 0
1112 -972 -531 0
-1112 972 0
-1112 531 0
1113 -970 -967 -973 0
-1113 970 0
-1113 967 0
-1113 973 0
1114 -978 -639 0
-1114 978 0
-1114 639 0
1115 -974 -975 -977 -978 0
-1115 974 0
-1115 975 0
-1115 977 0
-1115 978 0
1116 -975 -978 -638 -977 0
-1116 975 0
-1116 978 0
-1116 638 0
-1116 977 0
1117 -977 -978 -537 -437 0
-1117 977 0
-1117 978 0
-1117 537 0
-1117 437 0
-1118 -980 540 0
1118 980 0
1118 -540 0
-1119 -980 854 0
1119 980 0
1119 -854 0
-1120 -855 -982 0
1120 855 0
1120 982 0
-1121 -856 -983 0
1121 856 0
1121 983 0
1122 -984 -954 0
-1122 984 0
-1122 954 0
1123 -1124 -985 0
-1123 1124 0
-1123 985 0
1125 -985 -861 0
-1125 985 0
-1125 861 0
1126 -1124 -985 -861 0
-1126 1124 0
-1126 985 0
-1126 861 0
1127 -985 -863 -861 0
-1127 985 0
-1127 863 0
-1127 861 0
1128 -1124 -985 -863 -861 0
-1128 1124 0
-1128 985 0
-1128 863 0
-1128 861 0
1129 -985 -863 -865 -861 0
-1129 985 0
-1129 863 0
-1129 865 0
-1129 861 0
-1130 -985 1124 0
1130 985 0
1130 -1124 0
1131 -865 -985 0
-1131 865 0
-1131 985 0
-1132 546 986 0
1132 -546 0
1132 -986 0
1133 862 858 -883 0
-1133 -862 0
-1133 -858 0
-1133 883 0
1134 548 987 988 0
-1134 -548 0
-1134 -987 0
-1134 -988 0
1135 -884 -646 -865 -989 0
-1135 884 0
-1135 646 0
-1135 865 0
-1135 989 0
1136 864 860 -885 0
-1136 -864 0
-1136 -860 0
-1136 885 0
-1137 550 990 0
1137 -550 0
1137 -990 0
1138 550 990 991 992 0
-1138 -550 0
-1138 -990 0
-1138 -991 0
-1138 -992 0
-1139 552 993 0
1139 -552 0
1139 -993 0
-1140 -872 868 0
1140 872 0
1140 -868 0
1141 557 994 0
-1141 -557 0
-1141 -994 0
-1142 557 994 995 0
1142 -557 0
1142 -994 0
1142 -995 0
-1143 -556 869 0
1143 556 0
1143 -869 0
-1144 -554 869 0
1144 554 0
1144 -869 0
-1145 -874 870 0
1145 874 0
1145 -870 0
1146 559 998 999 0
-1146 -559 0
-1146 -998 0
-1146 -999 0
-1147 559 998 999 1000 0
1147 -559 0
1147 -998 0
1147 -999 0
1147 -1000 0
-1148 -868 872 0
1148 868 0
1148 -872 0
-1149 561 1001 1002 1004 0
1149 -561 0
1149 -1001 0
1149 -1002 0
1149 -1004 0
-1150 -870 874 0
1150 870 0
1150 -874 0
-1151 566 1005 0
1151 -566 0
1151 -1005 0
1152 -881 -882 -911 -1006 0
-1152 881 0
-1152 882 0
-1152 911 0
-1152 1006 0
1153 879 875 -919 0
-1153 -879 0
-1153 -875 0
-1153 919 0
1154 880 876 -910 0
-1154 -880 0
-1154 -876 0
-1154 910 0
1155 568 1007 1008 0
-1155 -568 0
-1155 -1007 0
-1155 -1008 0
-1156 568 1007 1008 1009 0
1156 -568 0
1156 -1007 0
1156 -1008 0
1156 -1009 0
1157 -911 -563 -882 -1010 0
-1157 911 0
-1157 563 0
-1157 882 0
-1157 1010 0
-1158 570 1011 0
1158 -570 0
1158 -1011 0
1159 570 1011 1012 1013 0
-1159 -570 0
-1159 -1011 0
-1159 -1012 0
-1159 -1013 0
1160 -881 -911 -878 -1015 0
-1160 881 0
-1160 911 0
-1160 878 0
-1160 1015 0
1161 858 -862 883 0
-1161 -858 0
-1161 862 0
-1161 -883 0
1162 -858 862 883 0
-1162 858 0
-1162 -862 0
-1162 -883 0
-1163 572 1017 0
1163 -572 0
1163 -1017 0
1164 860 -864 885 0
-1164 -860 0
-1164 864 0
-1164 -885 0
1165 -860 864 885 0
-1165 860 0
-1165 -864 0
-1165 -885 0
-1166 -891 887 0
1166 891 0
1166 -887 0
1167 577 1021 0
-1167 -577 0
-1167 -1021 0
-1168 577 1021 1022 0
1168 -577 0
1168 -1021 0
1168 -1022 0
-1169 -576 888 0
1169 576 0
1169 -888 0
-1170 -574 888 0
1170 574 0
1170 -888 0
-1171 -893 889 0
1171 893 0
1171 -889 0
1172 579 1025 1026 0
-1172 -579 0
-1172 -1025 0
-1172 -1026 0
-1173 579 1025 1026 1027 0
1173 -579 0
1173 -1025 0
1173 -1026 0
1173 -1027 0
-1174 -887 891 0
1174 887 0
1174 -891 0
-1175 581 1028 1029 1031 0
1175 -581 0
1175 -1028 0
1175 -1029 0
1175 -1031 0
-1176 -889 893 0
1176 889 0
1176 -893 0
-1177 586 1032 0
1177 -586 0
1177 -1032 0
1178 -899 -902 -866 -1033 0
-1178 899 0
-1178 902 0
-1178 866 0
-1178 1033 0
1179 898 894 -901 0
-1179 -898 0
-1179 -894 0
-1179 901 0
1180 588 1034 1035 0
-1180 -588 0
-1180 -1034 0
-1180 -1035 0
-1181 588 1034 1035 1036 0
1181 -588 0
1181 -1034 0
1181 -1035 0
1181 -1036 0
1182 -866 -583 -902 -1037 0
-1182 866 0
-1182 583 0
-1182 902 0
-1182 1037 0
1183 900 896 -903 0
-1183 -900 0
-1183 -896 0
-1183 903 0
1184 894 -898 901 0
-1184 -894 0
-1184 898 0
-1184 -901 0
1185 -894 898 901 0
-1185 894 0
-1185 -898 0
-1185 -901 0
-1186 590 1039 0
1186 -590 0
1186 -1039 0
1187 590 1039 1041 1043 0
-1187 -590 0
-1187 -1039 0
-1187 -1041 0
-1187 -1043 0
1188 -899 -866 -897 -1045 0
-1188 899 0
-1188 866 0
-1188 897 0
-1188 1045 0
1189 896 -900 903 0
-1189 -896 0
-1189 900 0
-1189 -903 0
1190 -896 900 903 0
-1190 896 0
-1190 -900 0
-1190 -903 0
-1191 -909 906 0
1191 909 0
1191 -906 0
1192 596 1050 0
-1192 -596 0
-1192 -1050 0
1193 594 1048 1051 0
-1193 -594 0
-1193 -1048 0
-1193 -1051 0
-1194 592 1047 1049 1052 0
1194 -592 0
1194 -1047 0
1194 -1049 0
1194 -1052 0
-1195 -600 907 0
1195 600 0
1195 -907 0
-1196 -598 907 0
1196 598 0
1196 -907 0
-1197 596 1050 1055 0
1197 -596 0
1197 -1050 0
1197 -1055 0
-1198 594 1048 1051 1056 0
1198 -594 0
1198 -1048 0
1198 -1051 0
1198 -1056 0
-1199 -906 909 0
1199 906 0
1199 -909 0
1200 876 -880 910 0
-1200 -876 0
-1200 880 0
-1200 -910 0
1201 -876 880 910 0
-1201 876 0
-1201 -880 0
-1201 -910 0
-1202 601 1059 0
1202 -601 0
1202 -1059 0
1203 -916 915 913 0
-1203 916 0
-1203 -915 0
-1203 -913 0
1204 915 916 -913 0
-1204 -915 0
-1204 -916 0
-1204 913 0
1205 916 -915 913 0
-1205 -916 0
-1205 915 0
-1205 -913 0
-1206 -918 917 0
1206 918 0
1206 -917 0
-1207 -917 918 0
1207 917 0
1207 -918 0
1208 875 -879 919 0
-1208 -875 0
-1208 879 0
-1208 -919 0
1209 -875 879 919 0
-1209 875 0
-1209 -879 0
-1209 -919 0
-1210 608 1064 0
1210 -608 0
1210 -1064 0
-1211 610 1065 0
1211 -610 0
1211 -1065 0
1212 -926 -923 -927 -1067 0
-1212 926 0
-1212 923 0
-1212 927 0
-1212 1067 0
1213 921 -928 925 0
-1213 -921 0
-1213 928 0
-1213 -925 0
-1214 614 1071 0
1214 -614 0
1214 -1071 0
1215 -926 -924 -923 -1072 0
-1215 926 0
-1215 924 0
-1215 923 0
-1215 1072 0
1216 612 1068 1073 0
-1216 -612 0
-1216 -1068 0
-1216 -1073 0
-1217 612 1068 1073 1074 0
1217 -612 0
1217 -1068 0
1217 -1073 0
1217 -1074 0
1218 610 1065 1069 1075 0
-1218 -610 0
-1218 -1065 0
-1218 -1069 0
-1218 -1075 0
1219 -923 -604 -924 -1077 0
-1219 923 0
-1219 604 0
-1219 924 0
-1219 1077 0
1220 928 921 -925 0
-1220 -928 0
-1220 -921 0
-1220 925 0
1221 -921 928 925 0
-1221 921 0
-1221 -928 0
-1221 -925 0
1222 -914 -933 -934 -1080 0
-1222 914 0
-1222 933 0
-1222 934 0
-1222 1080 0
1223 932 930 -935 0
-1223 -932 0
-1223 -930 0
-1223 935 0
-1224 621 1081 0
1224 -621 0
1224 -1081 0
1225 -1 -933 -1079 -1084 0
-1225 1 0
-1225 933 0
-1225 1079 0
-1225 1084 0
1226 930 -932 935 0
-1226 -930 0
-1226 932 0
-1226 -935 0
1227 -930 932 935 0
-1227 930 0
-1227 -932 0
-1227 -935 0
1228 943 940 -946 0
-1228 -943 0
-1228 -940 0
-1228 946 0
-1229 625 1088 0
1229 -625 0
1229 -1088 0
1230 -445 -944 -1087 -1091 0
-1230 445 0
-1230 944 0
-1230 1087 0
-1230 1091 0
1231 940 -943 946 0
-1231 -940 0
-1231 943 0
-1231 -946 0
1232 -940 943 946 0
-1232 940 0
-1232 -943 0
-1232 -946 0
-1233 -952 949 0
1233 952 0
1233 -949 0
1234 -1094 -939 0
-1234 1094 0
-1234 939 0
-1235 628 1093 1096 1095 0
1235 -628 0
1235 -1093 0
1235 -1096 0
1235 -1095 0
-1236 -949 952 0
1236 949 0
1236 -952 0
1237 956 953 -959 0
-1237 -956 0
-1237 -953 0
-1237 959 0
-1238 631 1098 0
1238 -631 0
1238 -1098 0
1239 -544 -957 -1097 -1101 0
-1239 544 0
-1239 957 0
-1239 1097 0
-1239 1101 0
1240 953 -956 959 0
-1240 -953 0
-1240 956 0
-1240 -959 0
1241 -953 956 959 0
-1241 953 0
-1241 -956 0
-1241 -959 0
-1242 -965 962 0
1242 965 0
1242 -962 0
-1243 634 1103 1106 1105 0
1243 -634 0
1243 -1103 0
1243 -1106 0
1243 -1105 0
-1244 -962 965 0
1244 962 0
1244 -965 0
1245 -969 -971 -972 -1107 0
-1245 969 0
-1245 971 0
-1245 972 0
-1245 1107 0
1246 970 967 -973 0
-1246 -970 0
-1246 -967 0
-1246 973 0
-1247 637 1109 0
1247 -637 0
1247 -1109 0
1248 -465 -971 -1108 -1112 0
-1248 465 0
-1248 971 0
-1248 1108 0
-1248 1112 0
1249 967 -970 973 0
-1249 -967 0
-1249 970 0
-1249 -973 0
1250 -967 970 973 0
-1250 967 0
-1250 -970 0
-1250 -973 0
-1251 -979 976 0
1251 979 0
1251 -976 0
-1252 640 1114 1117 1116 0
1252 -640 0
1252 -1114 0
1252 -1117 0
1252 -1116 0
-1253 -976 979 0
1253 976 0
1253 -979 0
-1254 -540 980 0
1254 540 0
1254 -980 0
-1255 -980 854 0
1255 980 0
1255 -854 0
1256 -955 -957 -958 -1122 0
-1256 955 0
-1256 957 0
-1256 958 0
-1256 1122 0
-1257 646 1123 0
1257 -646 0
1257 -1123 0
1258 -863 -861 -865 -1123 0
-1258 863 0
-1258 861 0
-1258 865 0
-1258 1123 0
1259 -863 -865 -884 -1125 0
-1259 863 0
-1259 865 0
-1259 884 0
-1259 1125 0
-1260 546 986 1126 0
1260 -546 0
1260 -986 0
1260 -1126 0
-1261 548 987 988 1127 0
1261 -548 0
1261 -987 0
1261 -988 0
1261 -1127 0
-1262 548 987 988 1128 0
1262 -548 0
1262 -987 0
1262 -988 0
1262 -1128 0
-1263 -1124 985 0
1263 1124 0
1263 -985 0
1264 -863 -884 -861 -1131 0
-1264 863 0
-1264 884 0
-1264 861 0
-1264 1131 0
-1265 1132 1125 0
1265 -1132 0
1265 -1125 0
-1266 -1134 646 0
1266 1134 0
1266 -646 0
-1267 991 992 1129 1137 0
1267 -991 0
1267 -992 0
1267 -1129 0
1267 -1137 0
-1268 -1141 871 0
1268 1141 0
1268 -871 0
-1269 -1141 554 0
1269 1141 0
1269 -554 0
-1270 -1142 871 0
1270 1142 0
1270 -871 0
-1271 -996 -1143 0
1271 996 0
1271 1143 0
-1272 -997 -1144 0
1272 997 0
1272 1144 0
-1273 -1146 873 0
1273 1146 0
1273 -873 0
-1274 -1147 873 0
1274 1147 0
1274 -873 0
-1275 -1148 -1140 0
1275 1148 0
1275 1140 0
-1276 -1150 -1145 0
1276 1150 0
1276 1145 0
-1277 1151 1006 0
1277 -1151 0
1277 -1006 0
1278 -1057 -1152 0
-1278 1057 0
-1278 1152 0
-1279 -1155 563 0
1279 1155 0
1279 -563 0
-1280 -1156 565 0
1280 1156 0
1280 -565 0
-1281 1012 1013 1014 1158 0
1281 -1012 0
1281 -1013 0
1281 -1014 0
1281 -1158 0
1282 -1057 -1160 0
-1282 1057 0
-1282 1160 0
1283 1161 1016 0
-1283 -1161 0
-1283 -1016 0
1284 1162 1133 0
-1284 -1162 0
-1284 -1133 0
-1285 1018 1019 1135 1163 0
1285 -1018 0
1285 -1019 0
1285 -1135 0
1285 -1163 0
1286 1164 1020 0
-1286 -1164 0
-1286 -1020 0
1287 1165 1136 0
-1287 -1165 0
-1287 -1136 0
-1288 -1167 890 0
1288 1167 0
1288 -890 0
-1289 -1167 574 0
1289 1167 0
1289 -574 0
-1290 -1168 890 0
1290 1168 0
1290 -890 0
-1291 -1023 -1169 0
1291 1023 0
1291 1169 0
-1292 -1024 -1170 0
1292 1024 0
1292 1170 0
-1293 -1172 892 0
1293 1172 0
1293 -892 0
-1294 -1173 892 0
1294 1173 0
1294 -892 0
-1295 -1174 -1166 0
1295 1174 0
1295 1166 0
-1296 -1176 -1171 0
1296 1176 0
1296 1171 0
-1297 1177 1033 0
1297 -1177 0
1297 -1033 0
1298 -1003 -1178 0
-1298 1003 0
-1298 1178 0
-1299 -1180 583 0
1299 1180 0
1299 -583 0
-1300 -1181 585 0
1300 1181 0
1300 -585 0
-1301 1040 1042 1182 1139 0
1301 -1040 0
1301 -1042 0
1301 -1182 0
1301 -1139 0
1302 1184 1038 0
-1302 -1184 0
-1302 -1038 0
1303 1185 1179 0
-1303 -1185 0
-1303 -1179 0
-1304 1041 1043 1044 1186 0
1304 -1041 0
1304 -1043 0
1304 -1044 0
1304 -1186 0
1305 -1003 -1188 0
-1305 1003 0
-1305 1188 0
1306 1189 1046 0
-1306 -1189 0
-1306 -1046 0
1307 1190 1183 0
-1307 -1190 0
-1307 -1183 0
-1308 -1192 905 0
1308 1192 0
1308 -905 0
-1309 -1192 598 0
1309 1192 0
1309 -598 0
-1310 -1193 904 0
1310 1193 0
1310 -904 0
-1311 -1053 -1195 0
1311 1053 0
1311 1195 0
-1312 -1054 -1196 0
1312 1054 0
1312 1196 0
-1313 -1197 905 0
1313 1197 0
1313 -905 0
-1314 -1198 904 0
1314 1198 0
1314 -904 0
-1315 -1191 -1199 0
1315 1191 0
1315 1199 0
1316 1200 1058 0
-1316 -1200 0
-1316 -1058 0
1317 1201 1154 0
-1317 -1201 0
-1317 -1154 0
-1318 1060 1061 1157 1202 0
1318 -1060 0
1318 -1061 0
1318 -1157 0
1318 -1202 0
1319 1203 1204 0
-1319 -1203 0
-1319 -1204 0
1320 1205 1062 0
-1320 -1205 0
-1320 -1062 0
-1321 -1206 -1207 0
1321 1206 0
1321 1207 0
1322 1208 1063 0
-1322 -1208 0
-1322 -1063 0
1323 1209 1153 0
-1323 -1209 0
-1323 -1153 0
-1324 1069 1075 1076 1211 0
1324 -1069 0
1324 -1075 0
1324 -1076 0
1324 -1211 0
1325 -854 -1212 0
-1325 854 0
-1325 1212 0
1326 1213 1078 0
-1326 -1213 0
-1326 -1078 0
-1327 1214 1072 0
1327 -1214 0
1327 -1072 0
1328 -854 -1215 0
-1328 854 0
-1328 1215 0
-1329 -1216 604 0
1329 1216 0
1329 -604 0
-1330 -1217 607 0
1330 1217 0
1330 -607 0
-1331 1066 1070 1219 1210 0
1331 -1066 0
1331 -1070 0
1331 -1219 0
1331 -1210 0
1332 1221 1220 0
-1332 -1221 0
-1332 -1220 0
1333 -937 -1222 0
-1333 937 0
-1333 1222 0
-1334 1083 1082 1225 1224 0
1334 -1083 0
1334 -1082 0
1334 -1225 0
1334 -1224 0
1335 1226 1085 0
-1335 -1226 0
-1335 -1085 0
1336 1227 1223 0
-1336 -1227 0
-1336 -1223 0
-1337 1086 937 0
1337 -1086 0
1337 -937 0
-1338 1090 1089 1230 1229 0
1338 -1090 0
1338 -1089 0
1338 -1230 0
1338 -1229 0
1339 1231 1092 0
-1339 -1231 0
-1339 -1092 0
1340 1232 1228 0
-1340 -1232 0
-1340 -1228 0
1341 -944 -945 -1234 -1087 0
-1341 944 0
-1341 945 0
-1341 1234 0
-1341 1087 0
-1342 -1236 -1233 0
1342 1236 0
1342 1233 0
-1343 1100 1099 1239 1238 0
1343 -1100 0
1343 -1099 0
1343 -1239 0
1343 -1238 0
1344 1240 1102 0
-1344 -1240 0
-1344 -1102 0
1345 1241 1237 0
-1345 -1241 0
-1345 -1237 0
-1346 -1244 -1242 0
1346 1244 0
1346 1242 0
1347 -1115 -1245 0
-1347 1115 0
-1347 1245 0
-1348 1111 1110 1248 1247 0
1348 -1111 0
1348 -1110 0
1348 -1248 0
1348 -1247 0
1349 1249 1113 0
-1349 -1249 0
-1349 -1113 0
1350 1250 1246 0
-1350 -1250 0
-1350 -1246 0
-1351 -1253 -1251 0
1351 1253 0
1351 1251 0
-1352 -1118 -1254 0
1352 1118 0
1352 1254 0
-1353 -1255 542 0
1353 1255 0
1353 -542 0
1354 -1104 -1256 0
-1354 1104 0
-1354 1256 0
-1355 -1256 -1356 0
1355 1256 0
1355 1356 0
-1357 -1257 861 0
1357 1257 0
1357 -861 0
-1358 991 992 1258 1137 0
1358 -991 0
1358 -992 0
1358 -1258 0
1358 -1137 0
1359 -1030 -1259 0
-1359 1030 0
-1359 1259 0
-1360 -1259 -1124 0
1360 1259 0
1360 1124 0
-1361 -1260 863 0
1361 1260 0
1361 -863 0
-1362 -1261 647 0
1362 1261 0
1362 -647 0
-1363 -1262 865 0
1363 1262 0
1363 -865 0
-1364 -1130 -1263 0
1364 1130 0
1364 1263 0
1365 -1030 -1264 0
-1365 1030 0
-1365 1264 0
1366 -1264 -1124 0
-1366 1264 0
-1366 1124 0
-1367 -646 1134 0
1367 646 0
1367 -1134 0
-1368 -871 1141 0
1368 871 0
1368 -1141 0
-1369 -554 1141 0
1369 554 0
1369 -1141 0
-1370 -1141 995 0
1370 1141 0
1370 -995 0
-1371 -871 1142 0
1371 871 0
1371 -1142 0
-1372 -873 1146 0
1372 873 0
1372 -1146 0
-1373 -873 1147 0
1373 873 0
1373 -1147 0
-1374 -563 1155 0
1374 563 0
1374 -1155 0
-1375 -565 1156 0
1375 565 0
1375 -1156 0
-1376 -1284 -1283 0
1376 1284 0
1376 1283 0
1377 -1285 -1030 0
-1377 1285 0
-1377 1030 0
-1378 -1287 -1286 0
1378 1287 0
1378 1286 0
-1379 -890 1167 0
1379 890 0
1379 -1167 0
-1380 -574 1167 0
1380 574 0
1380 -1167 0
-1381 -1167 1022 0
1381 1167 0
1381 -1022 0
-1382 -890 1168 0
1382 890 0
1382 -1168 0
-1383 -892 1172 0
1383 892 0
1383 -1172 0
-1384 -892 1173 0
1384 892 0
1384 -1173 0
-1385 1175 1030 0
1385 -1175 0
1385 -1030 0
-1386 -583 1180 0
1386 583 0
1386 -1180 0
-1387 -585 1181 0
1387 585 0
1387 -1181 0
1388 -1301 -1003 0
-1388 1301 0
-1388 1003 0
-1389 -1303 -1302 0
1389 1303 0
1389 1302 0
-1390 -1307 -1306 0
1390 1307 0
1390 1306 0
-1391 -905 1192 0
1391 905 0
1391 -1192 0
-1392 -598 1192 0
1392 598 0
1392 -1192 0
-1393 -1192 1055 0
1393 1192 0
1393 -1055 0
-1394 -904 1193 0
1394 904 0
1394 -1193 0
-1395 -905 1197 0
1395 905 0
1395 -1197 0
-1396 -904 1198 0
1396 904 0
1396 -1198 0
-1397 -1317 -1316 0
1397 1317 0
1397 1316 0
1398 -1057 -1318 0
-1398 1057 0
-1398 1318 0
-1399 -1319 -1320 0
1399 1319 0
1399 1320 0
-1400 -1323 -1322 0
1400 1323 0
1400 1322 0
-1401 -604 1216 0
1401 604 0
1401 -1216 0
-1402 -607 1217 0
1402 607 0
1402 -1217 0
1403 -1331 -854 0
-1403 1331 0
-1403 854 0
-1404 -1332 -1326 0
1404 1332 0
1404 1326 0
1405 -937 -1334 0
-1405 937 0
-1405 1334 0
-1406 -1336 -1335 0
1406 1336 0
1406 1335 0
1407 -1094 -1338 0
-1407 1094 0
-1407 1338 0
-1408 -1340 -1339 0
1408 1340 0
1408 1339 0
1409 -1104 -1343 0
-1409 1104 0
-1409 1343 0
-1410 -1345 -1344 0
1410 1345 0
1410 1344 0
-1411 1243 1104 0
1411 -1243 0
1411 -1104 0
1412 -1115 -1348 0
-1412 1115 0
-1412 1348 0
-1413 -1350 -1349 0
1413 1350 0
1413 1349 0
-1414 1252 1115 0
1414 -1252 0
1414 -1115 0
-1415 -1352 980 0
1415 1352 0
1415 -980 0
-1416 -542 1255 0
1416 542 0
1416 -1255 0
1417 -1356 -1354 -1347 -1341 0
-1417 1356 0
-1417 1354 0
-1417 1347 0
-1417 1341 0
1418 -1356 -1354 0
-1418 1356 0
-1418 1354 0
-1419 -861 1257 0
1419 861 0
1419 -1257 0
-1420 -1358 884 0
1420 1358 0
1420 -884 0
1421 -1124 -1359 -1298 0
-1421 1124 0
-1421 1359 0
-1421 1298 0
1422 -1124 -1359 -1298 -1278 0
-1422 1124 0
-1422 1359 0
-1422 1298 0
-1422 1278 0
1423 -1124 -1359 0
-1423 1124 0
-1423 1359 0
-1424 -863 1260 0
1424 863 0
1424 -1260 0
-1425 -647 1261 0
1425 647 0
1425 -1261 0
-1426 -865 1262 0
1426 865 0
1426 -1262 0
1427 -1124 -1365 -1305 0
-1427 1124 0
-1427 1365 0
-1427 1305 0
1428 -1124 -1365 -1305 -1282 0
-1428 1124 0
-1428 1365 0
-1428 1305 0
-1428 1282 0
1429 -1124 -1365 0
-1429 1124 0
-1429 1365 0
-1430 1285 1366 0
1430 -1285 0
1430 -1366 0
-1431 -1266 -1367 0
1431 1266 0
1431 1367 0
-1432 -1368 -1268 0
1432 1368 0
1432 1268 0
-1433 -1269 -1369 0
1433 1269 0
1433 1369 0
-1434 -1370 556 0
1434 1370 0
1434 -556 0
-1435 -1371 -1270 0
1435 1371 0
1435 1270 0
-1436 -1372 -1273 0
1436 1372 0
1436 1273 0
-1437 -1373 -1274 0
1437 1373 0
1437 1274 0
-1438 -1279 -1374 0
1438 1279 0
1438 1374 0
-1439 -1280 -1375 0
1439 1280 0
1439 1375 0
-1440 1175 1377 0
1440 -1175 0
1440 -1377 0
1441 1285 -1360 0
-1441 -1285 0
-1441 1360 0
1442 1285 1259 0
-1442 -1285 0
-1442 -1259 0
-1443 -1379 -1288 0
1443 1379 0
1443 1288 0
-1444 -1289 -1380 0
1444 1289 0
1444 1380 0
-1445 -1381 576 0
1445 1381 0
1445 -576 0
-1446 -1382 -1290 0
1446 1382 0
1446 1290 0
-1447 -1383 -1293 0
1447 1383 0
1447 1293 0
-1448 -1384 -1294 0
1448 1384 0
1448 1294 0
-1449 -1376 1295 0
1449 1376 0
1449 -1295 0
-1450 -1378 1296 0
1450 1378 0
1450 -1296 0
-1451 -1299 -1386 0
1451 1299 0
1451 1386 0
-1452 -1300 -1387 0
1452 1300 0
1452 1387 0
-1453 1149 1388 0
1453 -1149 0
1453 -1388 0
1454 1301 1178 0
-1454 -1301 0
-1454 -1178 0
-1455 -1389 1275 0
1455 1389 0
1455 -1275 0
-1456 -1390 1276 0
1456 1390 0
1456 -1276 0
-1457 -1391 -1308 0
1457 1391 0
1457 1308 0
-1458 -1309 -1392 0
1458 1309 0
1458 1392 0
-1459 -1393 600 0
1459 1393 0
1459 -600 0
-1460 -1394 -1310 0
1460 1394 0
1460 1310 0
-1461 -1395 -1313 0
1461 1395 0
1461 1313 0
-1462 -1396 -1314 0
1462 1396 0
1462 1314 0
-1463 -1397 1315 0
1463 1397 0
1463 -1315 0
-1464 1194 1398 0
1464 -1194 0
1464 -1398 0
1465 1318 1152 0
-1465 -1318 0
-1465 -1152 0
-1466 -1399 912 0
1466 1399 0
1466 -912 0
-1467 -1400 1321 0
1467 1400 0
1467 -1321 0
-1468 -1329 -1401 0
1468 1329 0
1468 1401 0
-1469 -1330 -1402 0
1469 1330 0
1469 1402 0
-1470 -980 1403 0
1470 980 0
1470 -1403 0
1471 1331 1215 0
-1471 -1331 0
-1471 -1215 0
-1472 -1404 922 0
1472 1404 0
1472 -922 0
-1473 1086 1405 0
1473 -1086 0
1473 -1405 0
-1474 -1406 936 0
1474 1406 0
1474 -936 0
-1475 1235 1407 0
1475 -1235 0
1475 -1407 0
-1476 -1408 1342 0
1476 1408 0
1476 -1342 0
-1477 1243 1409 0
1477 -1243 0
1477 -1409 0
1478 1343 -1355 0
-1478 -1343 0
-1478 1355 0
-1479 -1410 1346 0
1479 1410 0
1479 -1346 0
-1480 1252 1412 0
1480 -1252 0
1480 -1412 0
-1481 -1413 1351 0
1481 1413 0
1481 -1351 0
-1482 -980 1352 0
1482 980 0
1482 -1352 0
-1483 -1353 -1416 0
1483 1353 0
1483 1416 0
1484 -1347 -1341 -1333 -1418 0
-1484 1347 0
-1484 1341 0
-1484 1333 0
-1484 1418 0
-1485 -1419 -1357 0
1485 1419 0
1485 1357 0
-1486 -884 1358 0
1486 884 0
1486 -1358 0
1487 -1298 -1278 -1328 -1423 0
-1487 1298 0
-1487 1278 0
-1487 1328 0
-1487 1423 0
-1488 -1424 -1361 0
1488 1424 0
1488 1361 0
-1489 -1362 -1425 0
1489 1362 0
1489 1425 0
-1490 -1426 -1363 0
1490 1426 0
1490 1363 0
1491 -1305 -1282 -1325 -1429 0
-1491 1305 0
-1491 1282 0
-1491 1325 0
-1491 1429 0
1492 -1430 1291 0
-1492 1430 0
-1492 -1291 0
1493 -1430 886 0
-1493 1430 0
-1493 -886 0
1494 -1385 -1430 0
-1494 1385 0
-1494 1430 0
-1495 -1431 -1132 0
1495 1431 0
1495 1132 0
-1496 -1433 1146 0
1496 1433 0
1496 -1146 0
-1497 -556 1370 0
1497 556 0
1497 -1370 0
-1498 -1438 -1151 0
1498 1438 0
1498 1151 0
-1499 -1439 1277 0
1499 1439 0
1499 -1277 0
-1500 -1295 1376 0
1500 1295 0
1500 -1376 0
1501 -1440 -1298 0
-1501 1440 0
-1501 1298 0
1502 -1440 -1305 0
-1502 1440 0
-1502 1305 0
1503 -1440 -1298 -1278 0
-1503 1440 0
-1503 1298 0
-1503 1278 0
1504 -1440 -1305 -1282 0
-1504 1440 0
-1504 1305 0
-1504 1282 0
1505 -1440 -1305 -1282 -1325 0
-1505 1440 0
-1505 1305 0
-1505 1282 0
-1505 1325 0
1506 -1440 -1298 -1278 -1328 0
-1506 1440 0
-1506 1298 0
-1506 1278 0
-1506 1328 0
1507 -1441 -1175 0
-1507 1441 0
-1507 1175 0
-1508 -1296 1378 0
1508 1296 0
1508 -1378 0
-1509 -1444 1172 0
1509 1444 0
1509 -1172 0
-1510 -576 1381 0
1510 576 0
1510 -1381 0
1511 -1430 -1446 0
-1511 1430 0
-1511 1446 0
1512 -1430 -1448 0
-1512 1430 0
-1512 1448 0
-1513 -1451 -1177 0
1513 1451 0
1513 1177 0
-1514 -1452 1297 0
1514 1452 0
1514 -1297 0
1515 -1453 -1278 0
-1515 1453 0
-1515 1278 0
1516 -1453 -1282 0
-1516 1453 0
-1516 1282 0
1517 -1453 -1282 -1325 0
-1517 1453 0
-1517 1282 0
-1517 1325 0
1518 -1453 -1278 -1328 0
-1518 1453 0
-1518 1278 0
-1518 1328 0
-1519 -1275 1389 0
1519 1275 0
1519 -1389 0
-1520 -1276 1390 0
1520 1276 0
1520 -1390 0
-1521 -1458 1193 0
1521 1458 0
1521 -1193 0
-1522 -600 1393 0
1522 600 0
1522 -1393 0
-1523 -1315 1397 0
1523 1315 0
1523 -1397 0
1524 -1464 -1325 0
-1524 1464 0
-1524 1325 0
1525 -1464 -1328 0
-1525 1464 0
-1525 1328 0
-1526 -912 1399 0
1526 912 0
1526 -1399 0
-1527 -1321 1400 0
1527 1321 0
1527 -1400 0
-1528 -1468 -1214 0
1528 1468 0
1528 1214 0
-1529 -1469 1327 0
1529 1469 0
1529 -1327 0
-1530 -922 1404 0
1530 922 0
1530 -1404 0
-1531 -936 1406 0
1531 936 0
1531 -1406 0
1532 -1475 -1333 0
-1532 1475 0
-1532 1333 0
-1533 -1342 1408 0
1533 1342 0
1533 -1408 0
1534 -1477 -1347 -1341 0
-1534 1477 0
-1534 1347 0
-1534 1341 0
1535 -1477 -1347 -1341 -1333 0
-1535 1477 0
-1535 1347 0
-1535 1341 0
-1535 1333 0
1536 -1478 -1243 0
-1536 1478 0
-1536 1243 0
-1537 -1346 1410 0
1537 1346 0
1537 -1410 0
1538 -1480 -1341 0
-1538 1480 0
-1538 1341 0
1539 -1480 -1341 -1333 0
-1539 1480 0
-1539 1341 0
-1539 1333 0
-1540 -1351 1413 0
1540 1351 0
1540 -1413 0
-1541 -1482 -1415 0
1541 1482 0
1541 1415 0
-1542 -1483 981 0
1542 1483 0
1542 -981 0
-1543 -1486 -1420 0
1543 1486 0
1543 1420 0
-1544 -1489 1265 0
1544 1489 0
1544 -1265 0
1545 -1292 1430 0
-1545 1292 0
-1545 -1430 0
1546 -886 1430 0
-1546 886 0
-1546 -1430 0
1547 -1175 1430 0
-1547 1175 0
-1547 -1430 0
-1548 1132 1431 0
1548 -1132 0
1548 -1431 0
-1549 -1146 1433 0
1549 1146 0
1549 -1433 0
-1550 -1434 -1497 0
1550 1434 0
1550 1497 0
-1551 1151 1438 0
1551 -1151 0
1551 -1438 0
-1552 -1277 1439 0
1552 1277 0
1552 -1439 0
-1553 -1500 -1449 0
1553 1500 0
1553 1449 0
-1554 1453 1501 1421 0
1554 -1453 0
1554 -1501 0
1554 -1421 0
-1555 1453 1502 1427 0
1555 -1453 0
1555 -1502 0
1555 -1427 0
1556 -1385 1441 0
-1556 1385 0
-1556 -1441 0
-1557 -1508 -1450 0
1557 1508 0
1557 1450 0
1558 1443 1430 0
-1558 -1443 0
-1558 -1430 0
-1559 -1172 1444 0
1559 1172 0
1559 -1444 0
-1560 -1445 -1510 0
1560 1445 0
1560 1510 0
1561 1447 1430 0
-1561 -1447 0
-1561 -1430 0
-1562 1177 1451 0
1562 -1177 0
1562 -1451 0
-1563 -1297 1452 0
1563 1297 0
1563 -1452 0
-1564 1464 1515 1503 1422 0
1564 -1464 0
1564 -1515 0
1564 -1503 0
1564 -1422 0
-1565 1464 1516 1504 1428 0
1565 -1464 0
1565 -1516 0
1565 -1504 0
1565 -1428 0
-1566 -1519 -1455 0
1566 1519 0
1566 1455 0
-1567 -1520 -1456 0
1567 1520 0
1567 1456 0
-1568 -1193 1458 0
1568 1193 0
1568 -1458 0
-1569 -1459 -1522 0
1569 1459 0
1569 1522 0
-1570 -1523 -1463 0
1570 1523 0
1570 1463 0
-1571 1524 1517 0
1571 -1524 0
1571 -1517 0
-1572 1525 1518 0
1572 -1525 0
1572 -1518 0
-1573 -1526 -1466 0
1573 1526 0
1573 1466 0
-1574 -1527 -1467 0
1574 1527 0
1574 1467 0
-1575 1214 1468 0
1575 -1214 0
1575 -1468 0
-1576 -1327 1469 0
1576 1327 0
1576 -1469 0
-1577 -1530 -1472 0
1577 1530 0
1577 1472 0
-1578 -1531 -1474 0
1578 1531 0
1578 1474 0
-1579 -1533 -1476 0
1579 1533 0
1579 1476 0
1580 -1411 1478 0
-1580 1411 0
-1580 -1478 0
-1581 -1537 -1479 0
1581 1537 0
1581 1479 0
-1582 1475 1538 1534 1417 0
1582 -1475 0
1582 -1538 0
1582 -1534 0
1582 -1417 0
-1583 1532 1539 0
1583 -1532 0
1583 -1539 0
-1584 -1540 -1481 0
1584 1540 0
1584 1481 0
-1585 -1541 641 0
1585 1541 0
1585 -641 0
-1586 -981 1483 0
1586 981 0
1586 -1483 0
-1587 -1265 1489 0
1587 1265 0
1587 -1489 0
-1588 1545 1492 0
1588 -1545 0
1588 -1492 0
-1589 1546 1493 0
1589 -1546 0
1589 -1493 0
-1590 1547 1494 0
1590 -1547 0
1590 -1494 0
-1591 -1548 -1495 0
1591 1548 0
1591 1495 0
-1592 -1549 -1496 0
1592 1549 0
1592 1496 0
-1593 -1550 1147 0
1593 1550 0
1593 -1147 0
-1594 -1551 -1498 0
1594 1551 0
1594 1498 0
-1595 -1552 -1499 0
1595 1552 0
1595 1499 0
1596 -1555 -877 0
-1596 1555 0
-1596 877 0
1597 -1160 -1555 0
-1597 1160 0
-1597 1555 0
1598 -1555 -877 -878 0
-1598 1555 0
-1598 877 0
-1598 878 0
1599 -1555 -877 -881 -878 0
-1599 1555 0
-1599 877 0
-1599 881 0
-1599 878 0
-1600 -1555 877 0
1600 1555 0
1600 -877 0
-1601 1556 1507 0
1601 -1556 0
1601 -1507 0
-1602 1558 1511 0
1602 -1558 0
1602 -1511 0
-1603 -1559 -1509 0
1603 1559 0
1603 1509 0
-1604 -1560 1173 0
1604 1560 0
1604 -1173 0
-1605 1561 1512 0
1605 -1561 0
1605 -1512 0
-1606 -1562 -1513 0
1606 1562 0
1606 1513 0
-1607 -1563 -1514 0
1607 1563 0
1607 1514 0
-1608 -1215 -1564 0
1608 1215 0
1608 1564 0
1609 -1565 -920 0
-1609 1565 0
-1609 920 0
1610 -1212 -1565 0
-1610 1212 0
-1610 1565 0
1611 -1565 -920 -927 0
-1611 1565 0
-1611 920 0
-1611 927 0
1612 -1565 -920 -926 -927 0
-1612 1565 0
-1612 920 0
-1612 926 0
-1612 927 0
-1613 -1565 920 0
1613 1565 0
1613 -920 0
-1614 -1568 -1521 0
1614 1568 0
1614 1521 0
-1615 -1569 1198 0
1615 1569 0
1615 -1198 0
-1616 1505 1491 1470 1571 0
1616 -1505 0
1616 -1491 0
1616 -1470 0
1616 -1571 0
-1617 1506 1487 1470 1572 0
1617 -1506 0
1617 -1487 0
1617 -1470 0
1617 -1572 0
1618 -1573 -1574 -1566 -1553 0
-1618 1573 0
-1618 1574 0
-1618 1566 0
-1618 1553 0
-1619 -1575 -1528 0
1619 1575 0
1619 1528 0
-1620 -1576 -1529 0
1620 1576 0
1620 1529 0
1621 -1577 -1570 -1567 -1557 0
-1621 1577 0
-1621 1570 0
-1621 1567 0
-1621 1557 0
-1622 1580 1536 0
1622 -1580 0
1622 -1536 0
-1623 -1222 -1582 0
1623 1222 0
1623 1582 0
-1624 1535 1484 1473 1583 0
1624 -1535 0
1624 -1484 0
1624 -1473 0
1624 -1583 0
1625 -1578 -1579 -1584 -1581 0
-1625 1578 0
-1625 1579 0
-1625 1584 0
-1625 1581 0
-1626 -641 1541 0
1626 641 0
1626 -1541 0
-1627 -1586 -1542 0
1627 1586 0
1627 1542 0
-1628 -1587 -1544 0
1628 1587 0
1628 1544 0
1629 -1590 -895 0
-1629 1590 0
-1629 895 0
1630 -1188 -1590 0
-1630 1188 0
-1630 1590 0
1631 -1590 -895 -897 0
-1631 1590 0
-1631 895 0
-1631 897 0
1632 -1590 -895 -899 -897 0
-1632 1590 0
-1632 895 0
-1632 899 0
-1632 897 0
-1633 -1590 895 0
1633 1590 0
1633 -895 0
-1634 -1591 1138 0
1634 1591 0
1634 -1138 0
-1635 -1592 867 0
1635 1592 0
1635 -867 0
-1636 -1147 1550 0
1636 1147 0
1636 -1550 0
-1637 -1594 1159 0
1637 1594 0
1637 -1159 0
-1638 -1595 1281 0
1638 1595 0
1638 -1281 0
-1639 563 1596 0
1639 -563 0
1639 -1596 0
1640 -881 -878 -882 -1596 0
-1640 881 0
-1640 878 0
-1640 882 0
-1640 1596 0
-1641 1318 1597 0
1641 -1318 0
1641 -1597 0
-1642 566 1005 1598 0
1642 -566 0
1642 -1005 0
1642 -1598 0
-1643 568 1007 1008 1599 0
1643 -568 0
1643 -1007 0
1643 -1008 0
1643 -1599 0
-1644 -877 1555 0
1644 877 0
1644 -1555 0
-1645 -1603 886 0
1645 1603 0
1645 -886 0
-1646 -1173 1560 0
1646 1173 0
1646 -1560 0
-1647 -1606 1187 0
1647 1606 0
1647 -1187 0
-1648 -1607 1304 0
1648 1607 0
1648 -1304 0
1649 1331 -1608 0
-1649 -1331 0
-1649 1608 0
-1650 604 1609 0
1650 -604 0
1650 -1609 0
1651 -926 -927 -924 -1609 0
-1651 926 0
-1651 927 0
-1651 924 0
-1651 1609 0
-1652 1331 1610 0
1652 -1331 0
1652 -1610 0
-1653 614 1071 1611 0
1653 -614 0
1653 -1071 0
1653 -1611 0
-1654 612 1068 1073 1612 0
1654 -612 0
1654 -1068 0
1654 -1073 0
1654 -1612 0
-1655 -920 1565 0
1655 920 0
1655 -1565 0
-1656 -1614 908 0
1656 1614 0
1656 -908 0
-1657 -1198 1569 0
1657 1198 0
1657 -1569 0
-1658 -1619 1218 0
1658 1619 0
1658 -1218 0
-1659 -1620 1324 0
1659 1620 0
1659 -1324 0
-1660 -1245 -1622 0
1660 1245 0
1660 1622 0
1661 1334 -1623 0
-1661 -1334 0
-1661 1623 0
1662 -1621 -1625 -1618 0
-1662 1621 0
-1662 1625 0
-1662 1618 0
-1663 -1626 -1585 0
1663 1626 0
1663 1585 0
-1664 -1627 641 0
1664 1627 0
1664 -641 0
-1665 -1628 1267 0
1665 1628 0
1665 -1267 0
-1666 583 1629 0
1666 -583 0
1666 -1629 0
1667 -899 -897 -902 -1629 0
-1667 899 0
-1667 897 0
-1667 902 0
-1667 1629 0
-1668 1301 1630 0
1668 -1301 0
1668 -1630 0
-1669 586 1032 1631 0
1669 -586 0
1669 -1032 0
1669 -1631 0
-1670 588 1034 1035 1632 0
1670 -588 0
1670 -1034 0
1670 -1035 0
1670 -1632 0
-1671 -895 1590 0
1671 895 0
1671 -1590 0
-1672 -1138 1591 0
1672 1138 0
1672 -1591 0
-1673 -867 1592 0
1673 867 0
1673 -1592 0
-1674 -1636 -1593 0
1674 1636 0
1674 1593 0
-1675 -1159 1594 0
1675 1159 0
1675 -1594 0
-1676 -1281 1595 0
1676 1281 0
1676 -1595 0
-1677 -1639 878 0
1677 1639 0
1677 -878 0
-1678 1012 1013 1640 1158 0
1678 -1012 0
1678 -1013 0
1678 -1640 0
1678 -1158 0
1679 -1641 -1462 0
-1679 1641 0
-1679 1462 0
1680 -1641 -1461 0
-1680 1641 0
-1680 1461 0
1681 -1641 1311 0
-1681 1641 0
-1681 -1311 0
1682 -1641 908 0
-1682 1641 0
-1682 -908 0
-1683 -1642 881 0
1683 1642 0
1683 -881 0
-1684 -1643 882 0
1684 1643 0
1684 -882 0
-1685 -1644 -1600 0
1685 1644 0
1685 1600 0
-1686 -886 1603 0
1686 886 0
1686 -1603 0
-1687 -1646 -1604 0
1687 1646 0
1687 1604 0
-1688 -1187 1606 0
1688 1187 0
1688 -1606 0
-1689 -1304 1607 0
1689 1304 0
1689 -1607 0
1690 -1649 980 0
-1690 1649 0
-1690 -980 0
-1691 -1650 927 0
1691 1650 0
1691 -927 0
-1692 1069 1075 1651 1211 0
1692 -1069 0
1692 -1075 0
1692 -1651 0
1692 -1211 0
1693 -1119 -1652 0
-1693 1119 0
-1693 1652 0
1694 -1652 1120 0
-1694 1652 0
-1694 -1120 0
1695 -1652 641 0
-1695 1652 0
-1695 -641 0
-1696 -1653 926 0
1696 1653 0
1696 -926 0
-1697 -1654 924 0
1697 1654 0
1697 -924 0
-1698 -1655 -1613 0
1698 1655 0
1698 1613 0
-1699 -908 1614 0
1699 908 0
1699 -1614 0
-1700 -1657 -1615 0
1700 1657 0
1700 1615 0
-1701 -1218 1619 0
1701 1218 0
1701 -1619 0
-1702 -1324 1620 0
1702 1324 0
1702 -1620 0
1703 1348 -1660 0
-1703 -1348 0
-1703 1660 0
1704 -1661 -1086 0
-1704 1661 0
-1704 1086 0
1705 -343 -335 -1662 0
-1705 343 0
-1705 335 0
-1705 1662 0
-1706 -1663 642 0
1706 1663 0
1706 -642 0
-1707 -641 1627 0
1707 641 0
1707 -1627 0
-1708 -1267 1628 0
1708 1267 0
1708 -1628 0
-1709 -1666 897 0
1709 1666 0
1709 -897 0
-1710 1041 1043 1667 1186 0
1710 -1041 0
1710 -1043 0
1710 -1667 0
1710 -1186 0
1711 -1668 -1437 0
-1711 1668 0
-1711 1437 0
1712 -1668 -1435 0
-1712 1668 0
-1712 1435 0
1713 -1668 1271 0
-1713 1668 0
-1713 -1271 0
1714 -1668 867 0
-1714 1668 0
-1714 -867 0
-1715 -1669 899 0
1715 1669 0
1715 -899 0
-1716 -1670 902 0
1716 1670 0
1716 -902 0
-1717 -1671 -1633 0
1717 1671 0
1717 1633 0
-1718 -1672 -1634 0
1718 1672 0
1718 1634 0
-1719 -1673 -1635 0
1719 1673 0
1719 1635 0
-1720 -1674 867 0
1720 1674 0
1720 -867 0
-1721 -1675 -1637 0
1721 1675 0
1721 1637 0
-1722 -1676 -1638 0
1722 1676 0
1722 1638 0
-1723 -878 1639 0
1723 878 0
1723 -1639 0
-1724 -1678 911 0
1724 1678 0
1724 -911 0
1725 1460 1641 0
-1725 -1460 0
-1725 -1641 0
1726 1457 1641 0
-1726 -1457 0
-1726 -1641 0
1727 -1312 1641 0
-1727 1312 0
-1727 -1641 0
1728 -908 1641 0
-1728 908 0
-1728 -1641 0
-1729 -881 1642 0
1729 881 0
1729 -1642 0
-1730 -882 1643 0
1730 882 0
1730 -1643 0
-1731 -1686 -1645 0
1731 1686 0
1731 1645 0
-1732 -1687 886 0
1732 1687 0
1732 -886 0
-1733 -1688 -1647 0
1733 1688 0
1733 1647 0
-1734 -1689 -1648 0
1734 1689 0
1734 1648 0
1735 -1119 1649 0
-1735 1119 0
-1735 -1649 0
-1736 -927 1650 0
1736 927 0
1736 -1650 0
-1737 -1692 923 0
1737 1692 0
1737 -923 0
1738 980 1652 0
-1738 -980 0
-1738 -1652 0
1739 -1121 1652 0
-1739 1121 0
-1739 -1652 0
1740 -641 1652 0
-1740 641 0
-1740 -1652 0
-1741 -926 1653 0
1741 926 0
1741 -1653 0
-1742 -924 1654 0
1742 924 0
1742 -1654 0
-1743 -1699 -1656 0
1743 1699 0
1743 1656 0
-1744 -1700 908 0
1744 1700 0
1744 -908 0
-1745 -1701 -1658 0
1745 1701 0
1745 1658 0
-1746 -1702 -1659 0
1746 1702 0
1746 1659 0
1747 -1703 -1252 0
-1747 1703 0
-1747 1252 0
1748 -1337 1661 0
-1748 1337 0
-1748 -1661 0
-1749 -642 1663 0
1749 642 0
1749 -1663 0
-1750 -1707 -1664 0
1750 1707 0
1750 1664 0
-1751 -1708 -1665 0
1751 1708 0
1751 1665 0
-1752 -897 1666 0
1752 897 0
1752 -1666 0
-1753 -1710 866 0
1753 1710 0
1753 -866 0
1754 1436 1668 0
-1754 -1436 0
-1754 -1668 0
1755 1432 1668 0
-1755 -1432 0
-1755 -1668 0
1756 -1272 1668 0
-1756 1272 0
-1756 -1668 0
1757 -867 1668 0
-1757 867 0
-1757 -1668 0
-1758 -899 1669 0
1758 899 0
1758 -1669 0
-1759 -902 1670 0
1759 902 0
1759 -1670 0
-1760 -1718 985 0
1760 1718 0
1760 -985 0
-1761 -1719 869 0
1761 1719 0
1761 -869 0
-1762 -867 1674 0
1762 867 0
1762 -1674 0
-1763 -1721 877 0
1763 1721 0
1763 -877 0
-1764 -1722 877 0
1764 1722 0
1764 -877 0
-1765 -1723 -1677 0
1765 1723 0
1765 1677 0
-1766 -911 1678 0
1766 911 0
1766 -1678 0
-1767 1725 1679 0
1767 -1725 0
1767 -1679 0
-1768 1726 1680 0
1768 -1726 0
1768 -1680 0
-1769 1727 1681 0
1769 -1727 0
1769 -1681 0
-1770 1728 1682 0
1770 -1728 0
1770 -1682 0
-1771 -1729 -1683 0
1771 1729 0
1771 1683 0
-1772 -1730 -1684 0
1772 1730 0
1772 1684 0
-1773 -1731 888 0
1773 1731 0
1773 -888 0
-1774 -886 1687 0
1774 886 0
1774 -1687 0
-1775 -1733 895 0
1775 1733 0
1775 -895 0
-1776 -1734 895 0
1776 1734 0
1776 -895 0
-1777 1735 1690 0
1777 -1735 0
1777 -1690 0
-1778 -1736 -1691 0
1778 1736 0
1778 1691 0
-1779 -923 1692 0
1779 923 0
1779 -1692 0
-1780 1738 1693 0
1780 -1738 0
1780 -1693 0
-1781 1739 1694 0
1781 -1739 0
1781 -1694 0
-1782 1740 1695 0
1782 -1740 0
1782 -1695 0
-1783 -1741 -1696 0
1783 1741 0
1783 1696 0
-1784 -1742 -1697 0
1784 1742 0
1784 1697 0
-1785 -1743 907 0
1785 1743 0
1785 -907 0
-1786 -908 1700 0
1786 908 0
1786 -1700 0
-1787 -1745 920 0
1787 1745 0
1787 -920 0
-1788 -1746 920 0
1788 1746 0
1788 -920 0
1789 -1414 1703 0
-1789 1414 0
-1789 -1703 0
-1790 1748 1704 0
1790 -1748 0
1790 -1704 0
-1791 -1749 -1706 0
1791 1749 0
1791 1706 0
-1792 -1750 642 0
1792 1750 0
1792 -642 0
-1793 -1751 985 0
1793 1751 0
1793 -985 0
-1794 -1752 -1709 0
1794 1752 0
1794 1709 0
-1795 -866 1710 0
1795 866 0
1795 -1710 0
-1796 1754 1711 0
1796 -1754 0
1796 -1711 0
-1797 1755 1712 0
1797 -1755 0
1797 -1712 0
-1798 1756 1713 0
1798 -1756 0
1798 -1713 0
-1799 1757 1714 0
1799 -1757 0
1799 -1714 0
-1800 -1758 -1715 0
1800 1758 0
1800 1715 0
-1801 -1759 -1716 0
1801 1759 0
1801 1716 0
-1802 -985 1718 0
1802 985 0
1802 -1718 0
-1803 -869 1719 0
1803 869 0
1803 -1719 0
-1804 -1762 -1720 0
1804 1762 0
1804 1720 0
-1805 -877 1721 0
1805 877 0
1805 -1721 0
-1806 -877 1722 0
1806 877 0
1806 -1722 0
-1807 -1766 -1724 0
1807 1766 0
1807 1724 0
-1808 -888 1731 0
1808 888 0
1808 -1731 0
-1809 -1774 -1732 0
1809 1774 0
1809 1732 0
-1810 -895 1733 0
1810 895 0
1810 -1733 0
-1811 -895 1734 0
1811 895 0
1811 -1734 0
-1812 -1779 -1737 0
1812 1779 0
1812 1737 0
-1813 -907 1743 0
1813 907 0
1813 -1743 0
-1814 -1786 -1744 0
1814 1786 0
1814 1744 0
-1815 -920 1745 0
1815 920 0
1815 -1745 0
-1816 -920 1746 0
1816 920 0
1816 -1746 0
-1817 1789 1747 0
1817 -1789 0
1817 -1747 0
1818 -1791 -1471 -1564 0
-1818 1791 0
-1818 1471 0
-1818 1564 0
1819 -1791 1331 1564 0
-1819 1791 0
-1819 -1331 0
-1819 -1564 0
-1820 -642 1750 0
1820 642 0
1820 -1750 0
-1821 -985 1751 0
1821 985 0
1821 -1751 0
-1822 -1795 -1753 0
1822 1795 0
1822 1753 0
-1823 -1802 -1760 0
1823 1802 0
1823 1760 0
-1824 -1803 -1761 0
1824 1803 0
1824 1761 0
-1825 -1804 869 0
1825 1804 0
1825 -869 0
-1826 -1805 -1763 0
1826 1805 0
1826 1763 0
-1827 -1806 -1764 0
1827 1806 0
1827 1764 0
-1828 -1808 -1773 0
1828 1808 0
1828 1773 0
-1829 -1809 888 0
1829 1809 0
1829 -888 0
-1830 -1810 -1775 0
1830 1810 0
1830 1775 0
-1831 -1811 -1776 0
1831 1811 0
1831 1776 0
-1832 -1813 -1785 0
1832 1813 0
1832 1785 0
-1833 -1814 907 0
1833 1814 0
1833 -907 0
-1834 -1815 -1787 0
1834 1815 0
1834 1787 0
-1835 -1816 -1788 0
1835 1816 0
1835 1788 0
-1836 -1820 -1792 0
1836 1820 0
1836 1792 0
-1837 -1821 -1793 0
1837 1821 0
1837 1793 0
-1838 -1823 861 0
1838 1823 0
1838 -861 0
-1839 -1824 873 0
1839 1824 0
1839 -873 0
-1840 -869 1804 0
1840 869 0
1840 -1804 0
-1841 -1826 878 0
1841 1826 0
1841 -878 0
-1842 -1827 878 0
1842 1827 0
1842 -878 0
-1843 -1828 892 0
1843 1828 0
1843 -892 0
-1844 -888 1809 0
1844 888 0
1844 -1809 0
-1845 -1830 897 0
1845 1830 0
1845 -897 0
-1846 -1831 897 0
1846 1831 0
1846 -897 0
-1847 -1832 904 0
1847 1832 0
1847 -904 0
-1848 -907 1814 0
1848 907 0
1848 -1814 0
-1849 -1834 927 0
1849 1834 0
1849 -927 0
-1850 -1835 927 0
1850 1835 0
1850 -927 0
1851 -1836 1471 -1564 0
-1851 1836 0
-1851 -1471 0
-1851 1564 0
1852 -1836 -1331 1564 0
-1852 1836 0
-1852 1331 0
-1852 -1564 0
-1853 -1837 861 0
1853 1837 0
1853 -861 0
-1854 -861 1823 0
1854 861 0
1854 -1823 0
-1855 -873 1824 0
1855 873 0
1855 -1824 0
-1856 -1840 -1825 0
1856 1840 0
1856 1825 0
-1857 -878 1826 0
1857 878 0
1857 -1826 0
-1858 -878 1827 0
1858 878 0
1858 -1827 0
-1859 -892 1828 0
1859 892 0
1859 -1828 0
-1860 -1844 -1829 0
1860 1844 0
1860 1829 0
-1861 -897 1830 0
1861 897 0
1861 -1830 0
-1862 -897 1831 0
1862 897 0
1862 -1831 0
-1863 -904 1832 0
1863 904 0
1863 -1832 0
-1864 -1848 -1833 0
1864 1848 0
1864 1833 0
-1865 -927 1834 0
1865 927 0
1865 -1834 0
-1866 -927 1835 0
1866 927 0
1866 -1835 0
-1867 1819 1852 1818 1851 0
1867 -1819 0
1867 -1852 0
1867 -1818 0
1867 -1851 0
-1868 -861 1837 0
1868 861 0
1868 -1837 0
-1869 -1854 -1838 0
1869 1854 0
1869 1838 0
-1870 -1855 -1839 0
1870 1855 0
1870 1839 0
-1871 -1856 873 0
1871 1856 0
1871 -873 0
-1872 -1857 -1841 0
1872 1857 0
1872 1841 0
-1873 -1858 -1842 0
1873 1858 0
1873 1842 0
-1874 -1859 -1843 0
1874 1859 0
1874 1843 0
-1875 -1860 892 0
1875 1860 0
1875 -892 0
-1876 -1861 -1845 0
1876 1861 0
1876 1845 0
-1877 -1862 -1846 0
1877 1862 0
1877 1846 0
-1878 -1863 -1847 0
1878 1863 0
1878 1847 0
-1879 -1864 904 0
1879 1864 0
1879 -904 0
-1880 -1865 -1849 0
1880 1865 0
1880 1849 0
-1881 -1866 -1850 0
1881 1866 0
1881 1850 0
-1882 -1868 -1853 0
1882 1868 0
1882 1853 0
-1883 -1869 884 0
1883 1869 0
1883 -884 0
-1884 -1870 871 0
1884 1870 0
1884 -871 0
-1885 -873 1856 0
1885 873 0
1885 -1856 0
-1886 -1872 911 0
1886 1872 0
1886 -911 0
-1887 -1873 911 0
1887 1873 0
1887 -911 0
-1888 -1874 890 0
1888 1874 0
1888 -890 0
-1889 -892 1860 0
1889 892 0
1889 -1860 0
-1890 -1876 866 0
1890 1876 0
1890 -866 0
-1891 -1877 866 0
1891 1877 0
1891 -866 0
-1892 -1878 905 0
1892 1878 0
1892 -905 0
-1893 -904 1864 0
1893 904 0
1893 -1864 0
-1894 -1880 923 0
1894 1880 0
1894 -923 0
-1895 -1881 923 0
1895 1881 0
1895 -923 0
-1896 -1882 884 0
1896 1882 0
1896 -884 0
-1897 -884 1869 0
1897 884 0
1897 -1869 0
-1898 -871 1870 0
1898 871 0
1898 -1870 0
-1899 -1885 -1871 0
1899 1885 0
1899 1871 0
-1900 -911 1872 0
1900 911 0
1900 -1872 0
-1901 -911 1873 0
1901 911 0
1901 -1873 0
-1902 -890 1874 0
1902 890 0
1902 -1874 0
-1903 -1889 -1875 0
1903 1889 0
1903 1875 0
-1904 -866 1876 0
1904 866 0
1904 -1876 0
-1905 -866 1877 0
1905 866 0
1905 -1877 0
-1906 -905 1878 0
1906 905 0
1906 -1878 0
-1907 -1893 -1879 0
1907 1893 0
1907 1879 0
-1908 -923 1880 0
1908 923 0
1908 -1880 0
-1909 -923 1881 0
1909 923 0
1909 -1881 0
-1910 -884 1882 0
1910 884 0
1910 -1882 0
-1911 -1897 -1883 0
1911 1897 0
1911 1883 0
-1912 -1898 -1884 0
1912 1898 0
1912 1884 0
-1913 -1899 871 0
1913 1899 0
1913 -871 0
-1914 -1900 -1886 0
1914 1900 0
1914 1886 0
-1915 -1901 -1887 0
1915 1901 0
1915 1887 0
-1916 -1902 -1888 0
1916 1902 0
1916 1888 0
-1917 -1903 890 0
1917 1903 0
1917 -890 0
-1918 -1904 -1890 0
1918 1904 0
1918 1890 0
-1919 -1905 -1891 0
1919 1905 0
1919 1891 0
-1920 -1906 -1892 0
1920 1906 0
1920 1892 0
-1921 -1907 905 0
1921 1907 0
1921 -905 0
-1922 -1908 -1894 0
1922 1908 0
1922 1894 0
-1923 -1909 -1895 0
1923 1909 0
1923 1895 0
-1924 -1910 -1896 0
1924 1910 0
1924 1896 0
-1925 -1911 863 0
1925 1911 0
1925 -863 0
1926 -1912 1301 1601 0
-1926 1912 0
-1926 -1301 0
-1926 -1601 0
1927 -1912 -1454 -1601 0
-1927 1912 0
-1927 1454 0
-1927 1601 0
-1928 -871 1899 0
1928 871 0
1928 -1899 0
-1929 -1914 881 0
1929 1914 0
1929 -881 0
-1930 -1915 881 0
1930 1915 0
1930 -881 0
1931 -1916 1285 1124 0
-1931 1916 0
-1931 -1285 0
-1931 -1124 0
1932 -1916 -1442 -1124 0
-1932 1916 0
-1932 1442 0
-1932 1124 0
-1933 -890 1903 0
1933 890 0
1933 -1903 0
-1934 -1918 899 0
1934 1918 0
1934 -899 0
-1935 -1919 899 0
1935 1919 0
1935 -899 0
1936 -1920 1318 1554 0
-1936 1920 0
-1936 -1318 0
-1936 -1554 0
1937 -1920 -1465 -1554 0
-1937 1920 0
-1937 1465 0
-1937 1554 0
-1938 -905 1907 0
1938 905 0
1938 -1907 0
-1939 -1922 926 0
1939 1922 0
1939 -926 0
-1940 -1923 926 0
1940 1923 0
1940 -926 0
-1941 -1924 863 0
1941 1924 0
1941 -863 0
-1942 -863 1911 0
1942 863 0
1942 -1911 0
-1943 -1928 -1913 0
1943 1928 0
1943 1913 0
-1944 -881 1914 0
1944 881 0
1944 -1914 0
-1945 -881 1915 0
1945 881 0
1945 -1915 0
-1946 -1933 -1917 0
1946 1933 0
1946 1917 0
-1947 -899 1918 0
1947 899 0
1947 -1918 0
-1948 -899 1919 0
1948 899 0
1948 -1919 0
-1949 -1938 -1921 0
1949 1938 0
1949 1921 0
-1950 -926 1922 0
1950 926 0
1950 -1922 0
-1951 -926 1923 0
1951 926 0
1951 -1923 0
-1952 -863 1924 0
1952 863 0
1952 -1924 0
-1953 -1942 -1925 0
1953 1942 0
1953 1925 0
1954 -1943 -1301 1601 0
-1954 1943 0
-1954 1301 0
-1954 -1601 0
1955 -1943 1454 -1601 0
-1955 1943 0
-1955 -1454 0
-1955 1601 0
-1956 -1944 -1929 0
1956 1944 0
1956 1929 0
-1957 -1945 -1930 0
1957 1945 0
1957 1930 0
1958 -1946 -1285 1124 0
-1958 1946 0
-1958 1285 0
-1958 -1124 0
1959 -1946 1442 -1124 0
-1959 1946 0
-1959 -1442 0
-1959 1124 0
-1960 -1947 -1934 0
1960 1947 0
1960 1934 0
-1961 -1948 -1935 0
1961 1948 0
1961 1935 0
1962 -1949 -1318 1554 0
-1962 1949 0
-1962 1318 0
-1962 -1554 0
1963 -1949 1465 -1554 0
-1963 1949 0
-1963 -1465 0
-1963 1554 0
-1964 -1950 -1939 0
1964 1950 0
1964 1939 0
-1965 -1951 -1940 0
1965 1951 0
1965 1940 0
-1966 -1952 -1941 0
1966 1952 0
1966 1941 0
-1967 -1953 865 0
1967 1953 0
1967 -865 0
-1968 1926 1954 1927 1955 0
1968 -1926 0
1968 -1954 0
1968 -1927 0
1968 -1955 0
-1969 -1956 882 0
1969 1956 0
1969 -882 0
-1970 -1957 882 0
1970 1957 0
1970 -882 0
-1971 1931 1958 1932 1959 0
1971 -1931 0
1971 -1958 0
1971 -1932 0
1971 -1959 0
-1972 -1960 902 0
1972 1960 0
1972 -902 0
-1973 -1961 902 0
1973 1961 0
1973 -902 0
-1974 1936 1962 1937 1963 0
1974 -1936 0
1974 -1962 0
1974 -1937 0
1974 -1963 0
-1975 -1964 924 0
1975 1964 0
1975 -924 0
-1976 -1965 924 0
1976 1965 0
1976 -924 0
-1977 -1966 865 0
1977 1966 0
1977 -865 0
-1978 -865 1953 0
1978 865 0
1978 -1953 0
-1979 -882 1956 0
1979 882 0
1979 -1956 0
-1980 -882 1957 0
1980 882 0
1980 -1957 0
-1981 -902 1960 0
1981 902 0
1981 -1960 0
-1982 -902 1961 0
1982 902 0
1982 -1961 0
-1983 -924 1964 0
1983 924 0
1983 -1964 0
-1984 -924 1965 0
1984 924 0
1984 -1965 0
-1985 -865 1966 0
1985 865 0
1985 -1966 0
-1986 -1978 -1967 0
1986 1978 0
1986 1967 0
-1987 -1979 -1969 0
1987 1979 0
1987 1969 0
-1988 -1980 -1970 0
1988 1980 0
1988 1970 0
-1989 -1981 -1972 0
1989 1981 0
1989 1972 0
-1990 -1982 -1973 0
1990 1982 0
1990 1973 0
-1991 -1983 -1975 0
1991 1983 0
1991 1975 0
-1992 -1984 -1976 0
1992 1984 0
1992 1976 0
-1993 -1985 -1977 0
1993 1985 0
1993 1977 0
1994 -1554 -1988 0
-1994 1554 0
-1994 1988 0
1995 -1601 -1990 0
-1995 1601 0
-1995 1990 0
1996 -1564 -1992 0
-1996 1564 0
-1996 1992 0
1997 -1124 -1993 0
-1997 1124 0
-1997 1993 0
1998 1986 1124 0
-1998 -1986 0
-1998 -1124 0
1999 1987 1554 0
-1999 -1987 0
-1999 -1554 0
2000 1989 1601 0
-2000 -1989 0
-2000 -1601 0
2001 1991 1564 0
-2001 -1991 0
-2001 -1564 0
-2002 1998 1997 0
2002 -1998 0
2002 -1997 0
-2003 1999 1994 0
2003 -1999 0
2003 -1994 0
-2004 2000 1995 0
2004 -2000 0
2004 -1995 0
-2005 2001 1996 0
2005 -2001 0
2005 -1996 0
-2006 -2002 1971 0
2006 2002 0
2006 -1971 0
-2007 -2003 1974 0
2007 2003 0
2007 -1974 0
-2008 -2004 1968 0
2008 2004 0
2008 -1968 0
-2009 -2005 1867 0
2009 2005 0
2009 -1867 0
-2010 -1971 2002 0
2010 1971 0
2010 -2002 0
-2011 -1974 2003 0
2011 1974 0
2011 -2003 0
-2012 -1968 2004 0
2012 1968 0
2012 -2004 0
-2013 -1867 2005 0
2013 1867 0
2013 -2005 0
-2014 -2006 -2010 0
2014 2006 0
2014 2010 0
-2015 -2007 -2011 0
2015 2007 0
2015 2011 0
-2016 -2008 -2012 0
2016 2008 0
2016 2012 0
-2017 -2009 -2013 0
2017 2009 0
2017 2013 0
