c BC-S1.2
p cnf 245 726
1 -2 -3 0
-1 2 0
-1 3 0
4 -3 -5 0
-4 3 0
-4 5 0
6 -5 -7 0
-6 5 0
-6 7 0
8 -3 -9 0
-8 3 0
-8 9 0
10 -7 -9 0
-10 7 0
-10 9 0
11 -9 -12 0
-11 9 0
-11 12 0
13 -9 -14 0
-13 9 0
-13 14 0
15 -12 -14 0
-15 12 0
-15 14 0
16 -9 -17 0
-16 9 0
-16 17 0
18 -12 -17 0
-18 12 0
-18 17 0
19 -9 -20 0
-19 9 0
-19 20 0
21 -12 -20 0
-21 12 0
-21 20 0
22 -7 -20 0
-22 7 0
-22 20 0
23 -14 -20 0
-23 14 0
-23 20 0
24 -14 -25 0
-24 14 0
-24 25 0
26 -17 -25 0
-26 17 0
-26 25 0
27 -25 -28 0
-27 25 0
-27 28 0
29 -20 -28 0
-29 20 0
-29 28 0
30 3 -9 0
-30 -3 0
-30 9 0
31 3 -5 0
-31 -3 0
-31 5 0
32 -3 5 0
-32 3 0
-32 -5 0
33 5 -7 0
-33 -5 0
-33 7 0
34 2 5 0
-34 -2 0
-34 -5 0
35 5 -14 0
-35 -5 0
-35 14 0
36 -2 -4 0
-36 2 0
-36 4 0
37 -5 7 0
-37 5 0
-37 -7 0
38 7 -12 0
-38 -7 0
-38 12 0
39 9 -17 0
-39 -9 0
-39 17 0
40 9 -12 0
-40 -9 0
-40 12 0
41 2 -8 0
-41 -2 0
-41 8 0
42 -5 -10 0
-42 5 0
-42 10 0
43 12 -14 0
-43 -12 0
-43 14 0
44 14 -28 0
-44 -14 0
-44 28 0
45 -12 14 0
-45 12 0
-45 -14 0
46 9 14 0
-46 -9 0
-46 -14 0
47 -7 14 0
-47 7 0
-47 -14 0
48 14 -17 0
-48 -14 0
-48 17 0
49 12 14 0
-49 -12 0
-49 -14 0
50 -9 14 -2 7 0
-50 9 0
-50 -14 0
-50 2 0
-50 -7 0
51 -6 -13 0
-51 6 0
-51 13 0
52 -17 -15 0
-52 17 0
-52 15 0
53 -12 17 0
-53 12 0
-53 -17 0
54 9 17 0
-54 -9 0
-54 -17 0
55 5 17 0
-55 -5 0
-55 -17 0
56 17 -25 0
-56 -17 0
-56 25 0
57 14 17 0
-57 -14 0
-57 -17 0
58 -14 17 0
-58 14 0
-58 -17 0
59 -9 17 0
-59 9 0
-59 -17 0
60 7 -16 0
-60 -7 0
-60 16 0
61 -20 -18 -7 -14 0
-61 20 0
-61 18 0
-61 7 0
-61 14 0
62 9 20 0
-62 -9 0
-62 -20 0
63 -9 20 0
-63 9 0
-63 -20 0
64 17 20 0
-64 -17 0
-64 -20 0
65 20 -25 0
-65 -20 0
-65 25 0
66 -7 20 0
-66 7 0
-66 -20 0
67 9 -21 0
-67 -9 0
-67 21 0
68 -18 -23 0
-68 18 0
-68 23 0
69 9 25 0
-69 -9 0
-69 -25 0
70 -20 25 0
-70 20 0
-70 -25 0
71 20 25 0
-71 -20 0
-71 -25 0
72 -17 25 0
-72 17 0
-72 -25 0
73 -14 25 0
-73 14 0
-73 -25 0
74 12 -24 0
-74 -12 0
-74 24 0
75 -20 -27 0
-75 20 0
-75 27 0
76 -9 1 0
-76 9 0
-76 -1 0
77 -17 -12 -19 -35 0
-77 17 0
-77 12 0
-77 19 0
-77 35 0
78 14 4 0
-78 -14 0
-78 -4 0
79 -7 -40 0
-79 7 0
-79 40 0
80 -12 10 0
-80 12 0
-80 -10 0
81 20 25 -17 10 0
-81 -20 0
-81 -25 0
-81 17 0
-81 -10 0
82 -15 -42 0
-82 15 0
-82 42 0
83 -5 -43 0
-83 5 0
-83 43 0
84 -17 11 0
-84 17 0
-84 -11 0
85 -17 -44 0
-85 17 0
-85 44 0
86 7 -45 0
-86 -7 0
-86 45 0
87 3 -45 0
-87 -3 0
-87 45 0
88 5 -47 0
-88 -5 0
-88 47 0
89 -7 -48 0
-89 7 0
-89 48 0
90 -1 -49 0
-90 1 0
-90 49 0
91 -17 15 0
-91 17 0
-91 -15 0
92 -32 -53 0
-92 32 0
-92 53 0
93 -53 -13 0
-93 53 0
-93 13 0
94 9 -57 0
-94 -9 0
-94 57 0
95 5 -58 0
-95 -5 0
-95 58 0
96 -15 -59 0
-96 15 0
-96 59 0
97 -20 18 0
-97 20 0
-97 -18 0
98 12 -62 0
-98 -12 0
-98 62 0
99 7 -63 0
-99 -7 0
-99 63 0
100 -31 -64 0
-100 31 0
-100 64 0
101 -12 -65 0
-101 12 0
-101 65 0
102 12 17 -1 -66 0
-102 -12 0
-102 -17 0
-102 1 0
-102 66 0
103 -9 -70 0
-103 9 0
-103 70 0
104 9 -70 0
-104 -9 0
-104 70 0
105 -70 -17 -14 -28 0
-105 70 0
-105 17 0
-105 14 0
-105 28 0
106 -9 -71 0
-106 9 0
-106 71 0
107 -63 -72 0
-107 63 0
-107 72 0
108 9 -73 0
-108 -9 0
-108 73 0
109 -9 -73 0
-109 9 0
-109 73 0
110 -7 -76 0
-110 7 0
-110 76 0
111 36 34 0
-111 -36 0
-111 -34 0
112 -12 -78 0
-112 12 0
-112 78 0
113 33 37 0
-113 -33 0
-113 -37 0
114 37 22 0
-114 -37 0
-114 -22 0
115 -14 -80 0
-115 14 0
-115 80 0
116 -14 -84 0
-116 14 0
-116 84 0
117 17 45 0
-117 -17 0
-117 -45 0
118 -12 51 0
-118 12 0
-118 -51 0
119 -25 52 0
-119 25 0
-119 -52 0
120 9 58 0
-120 -9 0
-120 -58 0
121 30 62 0
-121 -30 0
-121 -62 0
122 -57 -98 0
-122 57 0
-122 98 0
-123 -64 28 25 82 0
123 64 0
123 -28 0
123 -25 0
123 -82 0
124 69 55 0
-124 -69 0
-124 -55 0
125 -6 -109 0
-125 6 0
-125 109 0
126 50 79 0
-126 -50 0
-126 -79 0
127 81 56 0
-127 -81 0
-127 -56 0
128 87 83 0
-128 -87 0
-128 -83 0
129 88 38 0
-129 -88 0
-129 -38 0
130 39 92 0
-130 -39 0
-130 -92 0
131 48 93 0
-131 -48 0
-131 -93 0
132 89 95 0
-132 -89 0
-132 -95 0
133 96 90 0
-133 -96 0
-133 -90 0
134 28 97 0
-134 -28 0
-134 -97 0
135 99 54 0
-135 -99 0
-135 -54 0
136 25 100 0
-136 -25 0
-136 -100 0
137 29 101 0
-137 -29 0
-137 -101 0
138 68 102 0
-138 -68 0
-138 -102 0
139 103 26 0
-139 -103 0
-139 -26 0
140 56 104 0
-140 -56 0
-140 -104 0
141 106 94 0
-141 -106 0
-141 -94 0
142 108 86 0
-142 -108 0
-142 -86 0
143 108 87 0
-143 -108 0
-143 -87 0
144 46 110 0
-144 -46 0
-144 -110 0
145 17 111 0
-145 -17 0
-145 -111 0
146 25 113 0
-146 -25 0
-146 -113 0
147 114 -9 0
-147 -114 0
-147 9 0
148 7 117 0
-148 -7 0
-148 -117 0
149 43 118 0
-149 -43 0
-149 -118 0
150 -2 121 0
-150 2 0
-150 -121 0
151 77 122 0
-151 -77 0
-151 -122 0
152 3 124 0
-152 -3 0
-152 -124 0
153 -9 -145 0
-153 9 0
-153 145 0
154 20 -146 0
-154 -20 0
-154 146 0
155 -12 -14 -147 -72 0
-155 12 0
-155 14 0
-155 147 0
-155 72 0
156 -3 126 0
-156 3 0
-156 -126 0
157 -9 128 0
-157 9 0
-157 -128 0
158 148 91 0
-158 -148 0
-158 -91 0
159 -9 129 0
-159 9 0
-159 -129 0
160 -7 130 0
-160 7 0
-160 -130 0
161 -20 131 0
-161 20 0
-161 -131 0
162 -12 132 0
-162 12 0
-162 -132 0
163 -7 133 0
-163 7 0
-163 -133 0
164 -25 134 0
-164 25 0
-164 -134 0
-165 28 25 7 151 0
165 -28 0
165 -25 0
165 -7 0
165 -151 0
166 5 135 0
-166 -5 0
-166 -135 0
167 -17 137 0
-167 17 0
-167 -137 0
168 -5 138 0
-168 5 0
-168 -138 0
169 -14 139 0
-169 14 0
-169 -139 0
170 14 140 0
-170 -14 0
-170 -140 0
171 -5 141 0
-171 5 0
-171 -141 0
172 5 142 0
-172 -5 0
-172 -142 0
173 7 143 0
-173 -7 0
-173 -143 0
174 12 144 0
-174 -12 0
-174 -144 0
175 -7 -157 0
-175 7 0
-175 157 0
176 17 149 0
-176 -17 0
-176 -149 0
177 -9 -162 0
-177 9 0
-177 162 0
178 -5 -163 0
-178 5 0
-178 163 0
179 150 41 0
-179 -150 0
-179 -41 0
180 -3 -166 0
-180 3 0
-180 166 0
181 -14 -167 0
-181 14 0
-181 167 0
182 -3 -171 0
-182 3 0
-182 171 0
183 153 70 0
-183 -153 0
-183 -70 0
184 28 154 0
-184 -28 0
-184 -154 0
185 155 119 0
-185 -155 0
-185 -119 0
186 20 -176 0
-186 -20 0
-186 176 0
187 160 60 0
-187 -160 0
-187 -60 0
188 178 120 0
-188 -178 0
-188 -120 0
189 168 61 0
-189 -168 0
-189 -61 0
190 172 173 125 28 0
-190 -172 0
-190 -173 0
-190 -125 0
-190 -28 0
191 156 174 0
-191 -156 0
-191 -174 0
192 152 -183 0
-192 -152 0
-192 183 0
193 175 115 0
-193 -175 0
-193 -115 0
194 177 116 0
-194 -177 0
-194 -116 0
195 112 25 -188 -158 0
-195 -112 0
-195 -25 0
-195 188 0
-195 158 0
196 14 179 0
-196 -14 0
-196 -179 0
197 180 -136 0
-197 -180 0
-197 136 0
198 181 164 0
-198 -181 0
-198 -164 0
199 182 107 0
-199 -182 0
-199 -107 0
200 17 184 0
-200 -17 0
-200 -184 0
201 20 187 0
-201 -20 0
-201 -187 0
202 17 -196 0
-202 -17 0
-202 196 0
203 -9 189 0
-203 9 0
-203 -189 0
204 17 190 0
-204 -17 0
-204 -190 0
205 -5 191 0
-205 5 0
-205 -191 0
206 14 192 0
-206 -14 0
-206 -192 0
207 20 195 0
-207 -20 0
-207 -195 0
208 14 197 0
-208 -14 0
-208 -197 0
-209 25 28 203 186 0
209 -25 0
209 -28 0
209 -203 0
209 -186 0
210 -7 199 0
-210 7 0
-210 -199 0
211 200 75 0
-211 -200 0
-211 -75 0
212 201 67 0
-212 -201 0
-212 -67 0
213 202 19 0
-213 -202 0
-213 -19 0
214 -12 -208 0
-214 12 0
-214 208 0
215 44 204 0
-215 -44 0
-215 -204 0
216 205 159 0
-216 -205 0
-216 -159 0
217 206 -127 0
-217 -206 0
-217 127 0
218 207 -185 0
-218 -207 0
-218 185 0
219 210 169 0
-219 -210 0
-219 -169 0
220 -14 211 0
-220 14 0
-220 -211 0
-221 28 218 0
221 -28 0
221 -218 0
222 12 213 0
-222 -12 0
-222 -213 0
223 214 74 0
-223 -214 0
-223 -74 0
224 20 215 0
-224 -20 0
-224 -215 0
225 17 216 0
-225 -17 0
-225 -216 0
226 12 217 0
-226 -12 0
-226 -217 0
227 -12 219 0
-227 12 0
-227 -219 0
228 220 85 0
-228 -220 0
-228 -85 0
229 222 -212 0
-229 -222 0
-229 212 0
230 224 105 0
-230 -224 0
-230 -105 0
231 225 -193 0
-231 -225 0
-231 193 0
232 227 170 0
-232 -227 0
-232 -170 0
233 25 229 0
-233 -25 0
-233 -229 0
234 226 -232 0
-234 -226 0
-234 232 0
235 20 231 0
-235 -20 0
-235 -231 0
236 233 -223 0
-236 -233 0
-236 223 0
237 28 234 0
-237 -28 0
-237 -234 0
238 235 -194 0
-238 -235 0
-238 194 0
239 28 236 0
-239 -28 0
-239 -236 0
240 237 -230 0
-240 -237 0
-240 230 0
241 25 238 0
-241 -25 0
-241 -238 0
-242 239 -228 0
242 -239 0
242 228 0
243 241 161 0
-243 -241 0
-243 -161 0
244 28 243 0
-244 -28 0
-244 -243 0
-245 244 -198 0
245 -244 0
245 198 0
